newXOutput 1

<Section columns = "stress_xx | stress_yy | stress_xy">
  1 0.00000 0.00000 0.00000
  2 0.00000 0.00000 0.00000
  3 0.00000 0.00000 0.00000
  4 0.00000 0.00000 0.00000
  5 0.00000 0.00000 0.00000
  6 0.00000 0.00000 0.00000
  7 0.00000 0.00000 0.00000
  8 0.00000 0.00000 0.00000
  9 0.00000 0.00000 0.00000
  10 0.00000 0.00000 0.00000
  11 0.00000 0.00000 0.00000
  12 0.00000 0.00000 0.00000
  13 0.00000 0.00000 0.00000
  14 0.00000 0.00000 0.00000
  15 0.00000 0.00000 0.00000
  16 0.00000 0.00000 0.00000
  17 0.00000 0.00000 0.00000
  18 0.00000 0.00000 0.00000
  19 0.00000 0.00000 0.00000
  20 0.00000 0.00000 0.00000
  21 0.00000 0.00000 0.00000
  22 0.00000 0.00000 0.00000
  23 0.00000 0.00000 0.00000
  24 0.00000 0.00000 0.00000
  25 0.00000 0.00000 0.00000
  26 0.00000 0.00000 0.00000
  27 0.00000 0.00000 0.00000
  28 0.00000 0.00000 0.00000
  29 0.00000 0.00000 0.00000
  30 0.00000 0.00000 0.00000
  31 0.00000 0.00000 0.00000
  32 0.00000 0.00000 0.00000
  33 0.00000 0.00000 0.00000
  34 0.00000 0.00000 0.00000
  35 0.00000 0.00000 0.00000
  36 0.00000 0.00000 0.00000
  37 0.00000 0.00000 0.00000
  38 0.00000 0.00000 0.00000
  39 0.00000 0.00000 0.00000
  40 0.00000 0.00000 0.00000
  41 0.00000 0.00000 0.00000
  42 0.00000 0.00000 0.00000
  43 0.00000 0.00000 0.00000
  44 0.00000 0.00000 0.00000
  45 0.00000 0.00000 0.00000
  46 0.00000 0.00000 0.00000
  47 0.00000 0.00000 0.00000
  48 0.00000 0.00000 0.00000
  49 0.00000 0.00000 0.00000
  50 0.00000 0.00000 0.00000
  51 0.00000 0.00000 0.00000
  52 0.00000 0.00000 0.00000
  53 0.00000 0.00000 0.00000
  54 0.00000 0.00000 0.00000
  55 0.00000 0.00000 0.00000
  56 0.00000 0.00000 0.00000
  57 0.00000 0.00000 0.00000
  58 0.00000 0.00000 0.00000
  59 0.00000 0.00000 0.00000
  60 0.00000 0.00000 0.00000
  61 0.00000 0.00000 0.00000
  62 0.00000 0.00000 0.00000
  63 0.00000 0.00000 0.00000
  64 0.00000 0.00000 0.00000
  65 0.00000 0.00000 0.00000
  66 0.00000 0.00000 0.00000
  67 0.00000 0.00000 0.00000
  68 0.00000 0.00000 0.00000
  69 0.00000 0.00000 0.00000
  70 0.00000 0.00000 0.00000
  71 0.00000 0.00000 0.00000
  72 0.00000 0.00000 0.00000
  73 0.00000 0.00000 0.00000
  74 0.00000 0.00000 0.00000
  75 0.00000 0.00000 0.00000
  76 0.00000 0.00000 0.00000
  77 0.00000 0.00000 0.00000
  78 0.00000 0.00000 0.00000
  79 0.00000 0.00000 0.00000
  80 0.00000 0.00000 0.00000
  81 0.00000 0.00000 0.00000
  82 0.00000 0.00000 0.00000
  83 0.00000 0.00000 0.00000
  84 0.00000 0.00000 0.00000
  85 0.00000 0.00000 0.00000
  86 0.00000 0.00000 0.00000
  87 0.00000 0.00000 0.00000
  88 0.00000 0.00000 0.00000
  89 0.00000 0.00000 0.00000
  90 0.00000 0.00000 0.00000
  91 0.00000 0.00000 0.00000
  92 0.00000 0.00000 0.00000
  93 0.00000 0.00000 0.00000
  94 0.00000 0.00000 0.00000
  95 0.00000 0.00000 0.00000
  96 0.00000 0.00000 0.00000
  97 0.00000 0.00000 0.00000
  98 0.00000 0.00000 0.00000
  99 0.00000 0.00000 0.00000
  100 0.00000 0.00000 0.00000
  101 0.00000 0.00000 0.00000
  102 0.00000 0.00000 0.00000
  103 0.00000 0.00000 0.00000
  104 0.00000 0.00000 0.00000
  105 0.00000 0.00000 0.00000
  106 0.00000 0.00000 0.00000
  107 0.00000 0.00000 0.00000
  108 0.00000 0.00000 0.00000
  109 0.00000 0.00000 0.00000
  110 0.00000 0.00000 0.00000
  111 0.00000 0.00000 0.00000
  112 0.00000 0.00000 0.00000
  113 0.00000 0.00000 0.00000
  114 0.00000 0.00000 0.00000
  115 0.00000 0.00000 0.00000
  116 0.00000 0.00000 0.00000
  117 0.00000 0.00000 0.00000
  118 0.00000 0.00000 0.00000
  119 0.00000 0.00000 0.00000
  120 0.00000 0.00000 0.00000
  121 0.00000 0.00000 0.00000
  122 0.00000 0.00000 0.00000
  123 0.00000 0.00000 0.00000
  124 0.00000 0.00000 0.00000
  125 0.00000 0.00000 0.00000
  126 0.00000 0.00000 0.00000
  127 0.00000 0.00000 0.00000
  128 0.00000 0.00000 0.00000
  129 0.00000 0.00000 0.00000
  130 0.00000 0.00000 0.00000
  131 0.00000 0.00000 0.00000
  132 0.00000 0.00000 0.00000
  133 0.00000 0.00000 0.00000
  134 0.00000 0.00000 0.00000
  135 0.00000 0.00000 0.00000
  136 0.00000 0.00000 0.00000
  137 0.00000 0.00000 0.00000
  138 0.00000 0.00000 0.00000
  139 0.00000 0.00000 0.00000
  140 0.00000 0.00000 0.00000
  141 0.00000 0.00000 0.00000
  142 0.00000 0.00000 0.00000
  143 0.00000 0.00000 0.00000
  144 0.00000 0.00000 0.00000
  145 0.00000 0.00000 0.00000
  146 0.00000 0.00000 0.00000
  147 0.00000 0.00000 0.00000
  148 0.00000 0.00000 0.00000
  149 0.00000 0.00000 0.00000
  150 0.00000 0.00000 0.00000
  151 0.00000 0.00000 0.00000
  152 0.00000 0.00000 0.00000
  153 0.00000 0.00000 0.00000
  154 0.00000 0.00000 0.00000
  155 0.00000 0.00000 0.00000
  156 0.00000 0.00000 0.00000
  157 0.00000 0.00000 0.00000
  158 0.00000 0.00000 0.00000
  159 0.00000 0.00000 0.00000
  160 0.00000 0.00000 0.00000
  161 0.00000 0.00000 0.00000
  162 0.00000 0.00000 0.00000
  163 0.00000 0.00000 0.00000
  164 0.00000 0.00000 0.00000
  165 0.00000 0.00000 0.00000
  166 0.00000 0.00000 0.00000
  167 0.00000 0.00000 0.00000
  168 0.00000 0.00000 0.00000
  169 0.00000 0.00000 0.00000
  170 0.00000 0.00000 0.00000
  171 0.00000 0.00000 0.00000
  172 0.00000 0.00000 0.00000
  173 0.00000 0.00000 0.00000
  174 0.00000 0.00000 0.00000
  175 0.00000 0.00000 0.00000
  176 0.00000 0.00000 0.00000
  177 0.00000 0.00000 0.00000
  178 0.00000 0.00000 0.00000
  179 0.00000 0.00000 0.00000
  180 0.00000 0.00000 0.00000
  181 0.00000 0.00000 0.00000
  182 0.00000 0.00000 0.00000
  183 0.00000 0.00000 0.00000
  184 0.00000 0.00000 0.00000
  185 0.00000 0.00000 0.00000
  186 0.00000 0.00000 0.00000
  187 0.00000 0.00000 0.00000
  188 0.00000 0.00000 0.00000
  189 0.00000 0.00000 0.00000
  190 0.00000 0.00000 0.00000
  191 0.00000 0.00000 0.00000
  192 0.00000 0.00000 0.00000
  193 0.00000 0.00000 0.00000
  194 0.00000 0.00000 0.00000
  195 0.00000 0.00000 0.00000
  196 0.00000 0.00000 0.00000
  197 0.00000 0.00000 0.00000
  198 0.00000 0.00000 0.00000
  199 0.00000 0.00000 0.00000
  200 0.00000 0.00000 0.00000
  201 0.00000 0.00000 0.00000
  202 0.00000 0.00000 0.00000
  203 0.00000 0.00000 0.00000
  204 0.00000 0.00000 0.00000
  205 0.00000 0.00000 0.00000
  206 0.00000 0.00000 0.00000
  207 0.00000 0.00000 0.00000
  208 0.00000 0.00000 0.00000
  209 0.00000 0.00000 0.00000
  210 0.00000 0.00000 0.00000
  211 0.00000 0.00000 0.00000
  212 0.00000 0.00000 0.00000
  213 0.00000 0.00000 0.00000
  214 0.00000 0.00000 0.00000
  215 0.00000 0.00000 0.00000
  216 0.00000 0.00000 0.00000
  217 0.00000 0.00000 0.00000
  218 0.00000 0.00000 0.00000
  219 0.00000 0.00000 0.00000
  220 0.00000 0.00000 0.00000
  221 0.00000 0.00000 0.00000
  222 0.00000 0.00000 0.00000
  223 0.00000 0.00000 0.00000
  224 0.00000 0.00000 0.00000
  225 0.00000 0.00000 0.00000
  226 0.00000 0.00000 0.00000
  227 0.00000 0.00000 0.00000
  228 0.00000 0.00000 0.00000
  229 0.00000 0.00000 0.00000
  230 0.00000 0.00000 0.00000
  231 0.00000 0.00000 0.00000
  232 0.00000 0.00000 0.00000
  233 0.00000 0.00000 0.00000
  234 0.00000 0.00000 0.00000
  235 0.00000 0.00000 0.00000
  236 0.00000 0.00000 0.00000
  237 0.00000 0.00000 0.00000
  238 0.00000 0.00000 0.00000
  239 0.00000 0.00000 0.00000
  240 0.00000 0.00000 0.00000
  241 0.00000 0.00000 0.00000
</Section>

newXOutput 2

<Section columns = "stress_xx | stress_yy | stress_xy">
  1 19.4169 0.00000 -3.91643e-15
  2 19.4169 0.00000 1.95400e-14
  3 19.4169 0.00000 9.15553e-15
  4 19.4169 0.00000 -2.32438e-15
  5 19.4169 0.00000 -2.63340e-15
  6 19.4169 0.00000 -6.56175e-15
  7 19.4169 0.00000 -7.17630e-16
  8 19.4169 0.00000 6.00616e-15
  9 19.4169 0.00000 8.59747e-15
  10 19.4169 0.00000 1.20320e-14
  11 19.4169 0.00000 -9.73677e-16
  12 19.4169 0.00000 1.20375e-15
  13 19.4169 0.00000 3.79857e-15
  14 19.4169 0.00000 2.15877e-14
  15 19.4169 0.00000 -6.61331e-15
  16 19.4169 0.00000 1.45840e-14
  17 19.4169 0.00000 3.02329e-14
  18 19.4169 0.00000 2.15652e-14
  19 19.4169 0.00000 -1.86036e-15
  20 19.4169 0.00000 -3.30515e-14
  21 19.4169 0.00000 -1.48029e-14
  22 19.4169 0.00000 4.25146e-14
  23 19.4169 0.00000 3.90632e-14
  24 19.4169 0.00000 3.36740e-17
  25 19.4169 0.00000 6.51334e-15
  26 19.4169 0.00000 1.46214e-14
  27 19.4169 0.00000 -2.64876e-14
  28 19.4169 0.00000 -7.82443e-15
  29 19.4169 0.00000 4.88501e-15
  30 19.4169 0.00000 -5.85832e-16
  31 19.4169 0.00000 1.70776e-14
  32 19.4169 0.00000 2.53273e-16
  33 19.4169 0.00000 -1.24818e-14
  34 19.4169 0.00000 5.59946e-15
  35 19.4169 0.00000 6.41250e-16
  36 19.4169 0.00000 -2.29881e-14
  37 19.4169 0.00000 -2.70121e-14
  38 19.4169 0.00000 -4.06403e-14
  39 19.4169 0.00000 -2.33157e-14
  40 19.4169 0.00000 -1.52226e-14
  41 19.4169 0.00000 -1.80285e-14
  42 19.4169 0.00000 2.78006e-15
  43 19.4169 0.00000 8.30153e-15
  44 19.4169 0.00000 1.64129e-15
  45 19.4169 0.00000 -5.44678e-15
  46 19.4169 0.00000 -7.16235e-15
  47 19.4169 0.00000 -1.32257e-14
  48 19.4169 0.00000 -1.08217e-14
  49 19.4169 0.00000 -3.89436e-15
  50 19.4169 0.00000 -2.06642e-15
  51 19.4169 0.00000 -2.27967e-15
  52 19.4169 0.00000 -2.73220e-15
  53 19.4169 0.00000 -4.13073e-15
  54 19.4169 0.00000 -2.85748e-15
  55 19.4169 0.00000 0.00000
  56 19.4169 0.00000 -2.71775e-15
  57 19.4169 0.00000 -2.66655e-15
  58 19.4169 0.00000 6.21177e-14
  59 19.4169 0.00000 2.88989e-15
  60 19.4169 0.00000 -1.62676e-14
  61 19.4169 0.00000 -1.65804e-14
  62 19.4169 0.00000 -2.45097e-14
  63 19.4169 0.00000 -1.55960e-14
  64 19.4169 0.00000 4.54587e-14
  65 19.4169 0.00000 -6.17576e-15
  66 19.4169 0.00000 -1.06816e-14
  67 19.4169 0.00000 -2.17863e-14
  68 19.4169 0.00000 1.80224e-14
  69 19.4169 0.00000 -6.11616e-14
  70 19.4169 0.00000 -7.54209e-17
  71 19.4169 0.00000 -1.12388e-14
  72 19.4169 0.00000 -1.20763e-14
  73 19.4169 0.00000 -1.52504e-14
  74 19.4169 0.00000 -3.54985e-15
  75 19.4169 0.00000 1.28855e-14
  76 19.4169 0.00000 3.27361e-14
  77 19.4169 0.00000 -1.07169e-14
  78 19.4169 0.00000 -2.77100e-14
  79 19.4169 0.00000 -2.09310e-14
  80 19.4169 0.00000 -2.71576e-14
  81 19.4169 0.00000 5.08636e-14
  82 19.4169 0.00000 -6.61980e-14
  83 19.4169 0.00000 3.70053e-15
  84 19.4169 0.00000 -9.16569e-15
  85 19.4169 0.00000 -3.79505e-14
  86 19.4169 0.00000 3.29596e-15
  87 19.4169 0.00000 -4.18181e-15
  88 19.4169 0.00000 -1.81391e-14
  89 19.4169 0.00000 -7.90756e-15
  90 19.4169 0.00000 -2.35196e-14
  91 19.4169 0.00000 4.67140e-15
  92 19.4169 0.00000 -1.01964e-14
  93 19.4169 0.00000 4.12860e-14
  94 19.4169 0.00000 -4.17465e-15
  95 19.4169 0.00000 2.67375e-15
  96 19.4169 0.00000 1.90207e-14
  97 19.4169 0.00000 -3.41653e-14
  98 19.4169 0.00000 -4.66573e-15
  99 19.4169 0.00000 5.11106e-15
  100 19.4169 0.00000 3.32338e-15
  101 19.4169 0.00000 -2.80716e-14
  102 19.4169 0.00000 -1.70248e-14
  103 19.4169 0.00000 -7.35426e-14
  104 19.4169 0.00000 -6.70086e-15
  105 19.4169 0.00000 2.84234e-14
  106 19.4169 0.00000 1.72539e-14
  107 19.4169 0.00000 7.26257e-14
  108 19.4169 0.00000 -7.80562e-15
  109 19.4169 0.00000 -4.25156e-15
  110 19.4169 0.00000 7.15121e-15
  111 19.4169 0.00000 -3.41264e-15
  112 19.4169 0.00000 1.28650e-14
  113 19.4169 0.00000 -2.91455e-14
  114 19.4169 0.00000 -5.10106e-14
  115 19.4169 0.00000 -2.29848e-14
  116 19.4169 0.00000 -7.34882e-15
  117 19.4169 0.00000 1.36074e-14
  118 19.4169 0.00000 -2.61093e-15
  119 19.4169 0.00000 -1.85088e-14
  120 19.4169 0.00000 -4.14184e-14
  121 19.4169 0.00000 -6.11711e-15
  122 19.4169 0.00000 -2.74539e-14
  123 19.4169 0.00000 -5.01698e-14
  124 19.4169 0.00000 2.51327e-14
  125 19.4169 0.00000 -5.78833e-15
  126 19.4169 0.00000 -1.53180e-15
  127 19.4169 0.00000 -3.62639e-15
  128 19.4169 0.00000 -8.57153e-15
  129 19.4169 0.00000 1.13779e-15
  130 19.4169 0.00000 -7.68572e-15
  131 19.4169 0.00000 -1.59786e-14
  132 19.4169 0.00000 7.64794e-15
  133 19.4169 0.00000 1.01030e-14
  134 19.4169 0.00000 -1.65368e-14
  135 19.4169 0.00000 -1.91546e-14
  136 19.4169 0.00000 -5.73712e-15
  137 19.4169 0.00000 -5.70015e-14
  138 19.4169 0.00000 -2.60184e-15
  139 19.4169 0.00000 -1.00394e-14
  140 19.4169 0.00000 -1.60346e-15
  141 19.4169 0.00000 -6.39445e-15
  142 19.4169 0.00000 -2.48223e-15
  143 19.4169 0.00000 -7.53905e-15
  144 19.4169 0.00000 -4.14659e-14
  145 19.4169 0.00000 -1.42166e-14
  146 19.4169 0.00000 2.94796e-15
  147 19.4169 0.00000 -2.00842e-15
  148 19.4169 0.00000 -3.32831e-15
  149 19.4169 0.00000 -1.04270e-14
  150 19.4169 0.00000 1.16344e-14
  151 19.4169 0.00000 -2.39640e-14
  152 19.4169 0.00000 2.50520e-14
  153 19.4169 0.00000 1.54192e-14
  154 19.4169 0.00000 -1.96074e-14
  155 19.4169 0.00000 -1.87441e-14
  156 19.4169 0.00000 7.57059e-14
  157 19.4169 0.00000 -1.30086e-14
  158 19.4169 0.00000 -3.08114e-15
  159 19.4169 0.00000 4.72200e-14
  160 19.4169 0.00000 -4.24599e-15
  161 19.4169 0.00000 -1.45314e-15
  162 19.4169 0.00000 -7.85145e-15
  163 19.4169 0.00000 -3.07053e-14
  164 19.4169 0.00000 -2.16476e-14
  165 19.4169 0.00000 -1.79863e-15
  166 19.4169 0.00000 -3.98741e-15
  167 19.4169 0.00000 2.82721e-14
  168 19.4169 0.00000 1.37967e-15
  169 19.4169 0.00000 -3.82466e-15
  170 19.4169 0.00000 -2.08562e-14
  171 19.4169 0.00000 -1.38489e-14
  172 19.4169 0.00000 1.75795e-14
  173 19.4169 0.00000 7.53280e-15
  174 19.4169 0.00000 9.18957e-16
  175 19.4169 0.00000 -1.38474e-15
  176 19.4169 0.00000 -3.97895e-15
  177 19.4169 0.00000 -7.63521e-16
  178 19.4169 0.00000 1.04916e-14
  179 19.4169 0.00000 2.01945e-15
  180 19.4169 0.00000 -7.48982e-15
  181 19.4169 0.00000 5.14373e-14
  182 19.4169 0.00000 -4.48567e-14
  183 19.4169 0.00000 1.31020e-15
  184 19.4169 0.00000 -3.25773e-15
  185 19.4169 0.00000 -9.81040e-16
  186 19.4169 0.00000 1.08305e-14
  187 19.4169 0.00000 -8.44422e-15
  188 19.4169 0.00000 -1.39419e-14
  189 19.4169 0.00000 -8.93897e-15
  190 19.4169 0.00000 -6.40283e-15
  191 19.4169 0.00000 -6.84048e-16
  192 19.4169 0.00000 -2.38078e-14
  193 19.4169 0.00000 -4.18747e-14
  194 19.4169 0.00000 8.65068e-14
  195 19.4169 0.00000 -9.79554e-15
  196 19.4169 0.00000 4.12235e-16
  197 19.4169 0.00000 -1.09336e-14
  198 19.4169 0.00000 1.37947e-15
  199 19.4169 0.00000 -9.59921e-15
  200 19.4169 0.00000 -6.92390e-15
  201 19.4169 0.00000 1.95298e-14
  202 19.4169 0.00000 -4.72256e-14
  203 19.4169 0.00000 -2.00462e-14
  204 19.4169 0.00000 1.63435e-14
  205 19.4169 0.00000 -2.77896e-15
  206 19.4169 0.00000 -3.98836e-14
  207 19.4169 0.00000 -5.67927e-15
  208 19.4169 0.00000 -2.86758e-15
  209 19.4169 0.00000 4.72875e-15
  210 19.4169 0.00000 -6.71485e-15
  211 19.4169 0.00000 -8.78828e-15
  212 19.4169 0.00000 2.55491e-14
  213 19.4169 0.00000 -4.39011e-15
  214 19.4169 0.00000 -4.12573e-15
  215 19.4169 0.00000 -2.44086e-14
  216 19.4169 0.00000 7.40358e-15
  217 19.4169 0.00000 2.34569e-15
  218 19.4169 0.00000 -8.73421e-16
  219 19.4169 0.00000 -4.59154e-14
  220 19.4169 0.00000 -1.96406e-14
  221 19.4169 0.00000 1.38760e-14
  222 19.4169 0.00000 4.73506e-14
  223 19.4169 0.00000 -1.46817e-14
  224 19.4169 0.00000 -1.17964e-14
  225 19.4169 0.00000 -1.37409e-14
  226 19.4169 0.00000 -7.05634e-16
  227 19.4169 0.00000 1.61487e-14
  228 19.4169 0.00000 2.48159e-15
  229 19.4169 0.00000 -7.46615e-15
  230 19.4169 0.00000 3.68879e-15
  231 19.4169 0.00000 4.54818e-15
  232 19.4169 0.00000 -1.03300e-14
  233 19.4169 0.00000 5.06382e-14
  234 19.4169 0.00000 6.10527e-15
  235 19.4169 0.00000 1.00716e-15
  236 19.4169 0.00000 -1.52504e-14
  237 19.4169 0.00000 -1.82529e-15
  238 19.4169 0.00000 -2.21712e-14
  239 19.4169 0.00000 1.86216e-14
  240 19.4169 0.00000 -1.44089e-14
  241 19.4169 0.00000 -2.94027e-14
</Section>

newXOutput 3

<Section columns = "stress_xx | stress_yy | stress_xy">
  1 38.8763 0.00000 1.04260e-14
  2 38.8763 0.00000 -7.89299e-15
  3 38.8763 0.00000 -2.31038e-13
  4 38.8763 0.00000 2.90984e-16
  5 38.8763 0.00000 -3.50613e-15
  6 38.8763 0.00000 2.54138e-15
  7 38.8763 0.00000 2.53718e-15
  8 38.8763 0.00000 -3.55654e-15
  9 38.8763 0.00000 8.60568e-15
  10 38.8763 0.00000 3.28629e-14
  11 38.8763 0.00000 1.73010e-14
  12 38.8763 0.00000 -7.80617e-15
  13 38.8763 0.00000 5.18777e-15
  14 38.8763 0.00000 -5.17237e-15
  15 38.8763 0.00000 -1.15874e-14
  16 38.8763 0.00000 -1.85108e-15
  17 38.8763 0.00000 -1.23079e-14
  18 38.8763 0.00000 -1.57860e-14
  19 38.8763 0.00000 3.61170e-14
  20 38.8763 0.00000 9.32819e-14
  21 38.8763 0.00000 5.36420e-14
  22 38.8763 0.00000 6.41884e-14
  23 38.8763 0.00000 2.76569e-14
  24 38.8763 0.00000 1.73906e-15
  25 38.8763 0.00000 0.00000
  26 38.8763 0.00000 1.29430e-16
  27 38.8763 0.00000 9.47521e-15
  28 38.8763 0.00000 -5.72882e-14
  29 38.8763 0.00000 -6.45626e-14
  30 38.8763 0.00000 -1.25040e-13
  31 38.8763 0.00000 -1.49826e-13
  32 38.8763 0.00000 -1.24271e-13
  33 38.8763 0.00000 -3.54674e-14
  34 38.8763 0.00000 5.34859e-14
  35 38.8763 0.00000 3.26170e-14
  36 38.8763 0.00000 1.98707e-14
  37 38.8763 0.00000 3.47290e-14
  38 38.8763 0.00000 5.04212e-14
  39 38.8763 0.00000 2.23151e-14
  40 38.8763 0.00000 -7.64033e-15
  41 38.8763 0.00000 4.52991e-15
  42 38.8763 0.00000 7.06248e-15
  43 38.8763 0.00000 -1.48596e-14
  44 38.8763 0.00000 -6.84683e-15
  45 38.8763 0.00000 -1.03640e-14
  46 38.8763 0.00000 -1.00840e-14
  47 38.8763 0.00000 -2.30868e-15
  48 38.8763 0.00000 -2.39420e-15
  49 38.8763 0.00000 -1.41094e-15
  50 38.8763 0.00000 -4.34765e-16
  51 38.8763 0.00000 -1.95644e-15
  52 38.8763 0.00000 -3.55025e-15
  53 38.8763 0.00000 -1.31830e-15
  54 38.8763 0.00000 2.10268e-15
  55 38.8763 0.00000 -5.21718e-15
  56 38.8763 0.00000 9.13007e-15
  57 38.8763 0.00000 2.92171e-14
  58 38.8763 0.00000 -1.14472e-13
  59 38.8763 0.00000 3.31533e-14
  60 38.8763 0.00000 3.66106e-15
  61 38.8763 0.00000 6.19241e-16
  62 38.8763 0.00000 4.12020e-15
  63 38.8763 0.00000 -2.35042e-14
  64 38.8763 0.00000 2.37048e-14
  65 38.8763 0.00000 1.35362e-14
  66 38.8763 0.00000 -1.35331e-15
  67 38.8763 0.00000 -1.35872e-13
  68 38.8763 0.00000 2.23339e-14
  69 38.8763 0.00000 -1.97743e-14
  70 38.8763 0.00000 3.52124e-14
  71 38.8763 0.00000 -1.91854e-14
  72 38.8763 0.00000 -1.55970e-14
  73 38.8763 0.00000 -5.08296e-14
  74 38.8763 0.00000 1.53201e-14
  75 38.8763 0.00000 3.65778e-14
  76 38.8763 0.00000 -7.78779e-14
  77 38.8763 0.00000 3.53815e-15
  78 38.8763 0.00000 -5.15373e-14
  79 38.8763 0.00000 4.65820e-14
  80 38.8763 0.00000 -1.81507e-16
  81 38.8763 0.00000 4.96286e-15
  82 38.8763 0.00000 5.07580e-15
  83 38.8763 0.00000 4.77081e-14
  84 38.8763 0.00000 -2.76195e-16
  85 38.8763 0.00000 -3.60715e-14
  86 38.8763 0.00000 -5.27319e-15
  87 38.8763 0.00000 1.89273e-15
  88 38.8763 0.00000 -9.68561e-14
  89 38.8763 0.00000 -4.07230e-15
  90 38.8763 0.00000 -2.49745e-14
  91 38.8763 0.00000 2.34753e-14
  92 38.8763 0.00000 1.53436e-14
  93 38.8763 0.00000 -1.47849e-13
  94 38.8763 0.00000 8.21578e-15
  95 38.8763 0.00000 3.81524e-14
  96 38.8763 0.00000 1.43103e-14
  97 38.8763 0.00000 -7.43176e-15
  98 38.8763 0.00000 -6.40385e-16
  99 38.8763 0.00000 6.40718e-15
  100 38.8763 0.00000 1.77896e-15
  101 38.8763 0.00000 -1.51328e-15
  102 38.8763 0.00000 -2.56986e-14
  103 38.8763 0.00000 -1.20706e-13
  104 38.8763 0.00000 2.59834e-14
  105 38.8763 0.00000 3.61104e-14
  106 38.8763 0.00000 6.47431e-14
  107 38.8763 0.00000 -9.06618e-15
  108 38.8763 0.00000 2.24601e-16
  109 38.8763 0.00000 2.19042e-15
  110 38.8763 0.00000 -8.04038e-14
  111 38.8763 0.00000 -5.90397e-14
  112 38.8763 0.00000 2.13370e-14
  113 38.8763 0.00000 3.12434e-14
  114 38.8763 0.00000 3.28465e-14
  115 38.8763 0.00000 3.31638e-14
  116 38.8763 0.00000 4.72988e-16
  117 38.8763 0.00000 1.86770e-14
  118 38.8763 0.00000 1.75310e-14
  119 38.8763 0.00000 -2.80918e-14
  120 38.8763 0.00000 -1.24292e-14
  121 38.8763 0.00000 2.32449e-14
  122 38.8763 0.00000 -1.70580e-16
  123 38.8763 0.00000 -2.69529e-14
  124 38.8763 0.00000 -6.40388e-14
  125 38.8763 0.00000 2.12789e-14
  126 38.8763 0.00000 -1.10878e-14
  127 38.8763 0.00000 2.47019e-14
  128 38.8763 0.00000 2.63600e-14
  129 38.8763 0.00000 3.97694e-15
  130 38.8763 0.00000 1.43936e-14
  131 38.8763 0.00000 7.33265e-15
  132 38.8763 0.00000 2.47333e-14
  133 38.8763 0.00000 5.01794e-15
  134 38.8763 0.00000 -2.03909e-14
  135 38.8763 0.00000 8.91013e-15
  136 38.8763 0.00000 1.67785e-15
  137 38.8763 0.00000 -4.86569e-14
  138 38.8763 0.00000 8.84477e-15
  139 38.8763 0.00000 6.94559e-15
  140 38.8763 0.00000 -1.35401e-13
  141 38.8763 0.00000 4.72929e-14
  142 38.8763 0.00000 -5.01979e-16
  143 38.8763 0.00000 1.50379e-14
  144 38.8763 0.00000 -9.63262e-15
  145 38.8763 0.00000 -1.34277e-15
  146 38.8763 0.00000 2.04328e-14
  147 38.8763 0.00000 4.61067e-15
  148 38.8763 0.00000 3.33582e-15
  149 38.8763 0.00000 -1.76080e-14
  150 38.8763 0.00000 3.50691e-14
  151 38.8763 0.00000 -2.38141e-15
  152 38.8763 0.00000 -1.90621e-14
  153 38.8763 0.00000 3.18287e-14
  154 38.8763 0.00000 4.76162e-14
  155 38.8763 0.00000 -4.20722e-14
  156 38.8763 0.00000 -4.98999e-14
  157 38.8763 0.00000 6.39711e-15
  158 38.8763 0.00000 -1.71900e-14
  159 38.8763 0.00000 3.48081e-14
  160 38.8763 0.00000 3.64823e-16
  161 38.8763 0.00000 -3.87873e-14
  162 38.8763 0.00000 2.29120e-14
  163 38.8763 0.00000 -4.02909e-14
  164 38.8763 0.00000 -6.87502e-14
  165 38.8763 0.00000 -9.10933e-15
  166 38.8763 0.00000 -3.52365e-16
  167 38.8763 0.00000 3.12426e-14
  168 38.8763 0.00000 -8.65753e-14
  169 38.8763 0.00000 2.68389e-16
  170 38.8763 0.00000 -7.89502e-14
  171 38.8763 0.00000 -3.16457e-15
  172 38.8763 0.00000 2.34101e-14
  173 38.8763 0.00000 8.20583e-15
  174 38.8763 0.00000 -2.04396e-14
  175 38.8763 0.00000 1.69503e-15
  176 38.8763 0.00000 1.94524e-15
  177 38.8763 0.00000 -1.30799e-13
  178 38.8763 0.00000 4.76218e-14
  179 38.8763 0.00000 -1.11737e-15
  180 38.8763 0.00000 1.52117e-14
  181 38.8763 0.00000 -2.42499e-14
  182 38.8763 0.00000 4.60395e-14
  183 38.8763 0.00000 2.97125e-14
  184 38.8763 0.00000 -3.45107e-14
  185 38.8763 0.00000 2.00317e-15
  186 38.8763 0.00000 2.10032e-15
  187 38.8763 0.00000 -7.30349e-14
  188 38.8763 0.00000 4.33115e-14
  189 38.8763 0.00000 2.46430e-14
  190 38.8763 0.00000 1.03602e-14
  191 38.8763 0.00000 3.09282e-14
  192 38.8763 0.00000 -1.38891e-14
  193 38.8763 0.00000 2.85214e-14
  194 38.8763 0.00000 4.45175e-14
  195 38.8763 0.00000 3.51304e-15
  196 38.8763 0.00000 -1.18542e-13
  197 38.8763 0.00000 -7.94796e-16
  198 38.8763 0.00000 3.44115e-14
  199 38.8763 0.00000 1.14674e-14
  200 38.8763 0.00000 -1.53026e-13
  201 38.8763 0.00000 5.29843e-14
  202 38.8763 0.00000 -1.61464e-14
  203 38.8763 0.00000 -1.99446e-14
  204 38.8763 0.00000 -4.03910e-15
  205 38.8763 0.00000 1.42464e-14
  206 38.8763 0.00000 2.83920e-14
  207 38.8763 0.00000 -3.76177e-15
  208 38.8763 0.00000 1.66873e-14
  209 38.8763 0.00000 2.24453e-14
  210 38.8763 0.00000 2.19207e-15
  211 38.8763 0.00000 -2.65300e-15
  212 38.8763 0.00000 1.97514e-14
  213 38.8763 0.00000 1.08259e-15
  214 38.8763 0.00000 1.85498e-14
  215 38.8763 0.00000 -8.89753e-14
  216 38.8763 0.00000 2.76976e-14
  217 38.8763 0.00000 -1.29488e-14
  218 38.8763 0.00000 1.12563e-14
  219 38.8763 0.00000 -2.85701e-14
  220 38.8763 0.00000 1.16938e-14
  221 38.8763 0.00000 6.33379e-14
  222 38.8763 0.00000 -5.99710e-14
  223 38.8763 0.00000 1.99526e-16
  224 38.8763 0.00000 -1.93002e-14
  225 38.8763 0.00000 -1.40541e-14
  226 38.8763 0.00000 7.45609e-16
  227 38.8763 0.00000 1.83095e-15
  228 38.8763 0.00000 2.56705e-14
  229 38.8763 0.00000 -1.44749e-16
  230 38.8763 0.00000 -1.04822e-13
  231 38.8763 0.00000 3.42586e-14
  232 38.8763 0.00000 7.78880e-15
  233 38.8763 0.00000 -3.26810e-15
  234 38.8763 0.00000 3.96696e-14
  235 38.8763 0.00000 -9.67711e-15
  236 38.8763 0.00000 4.12530e-17
  237 38.8763 0.00000 7.27376e-18
  238 38.8763 0.00000 4.14457e-14
  239 38.8763 0.00000 8.94243e-15
  240 38.8763 0.00000 3.62682e-15
  241 38.8763 0.00000 -3.50815e-14
</Section>

newXOutput 4

<Section columns = "stress_xx | stress_yy | stress_xy">
  1 58.3429 0.00000 5.19849e-15
  2 58.3429 0.00000 3.63643e-14
  3 58.3429 0.00000 -2.69445e-13
  4 58.3429 0.00000 4.24261e-15
  5 58.3429 0.00000 5.12292e-15
  6 58.3429 0.00000 2.58917e-14
  7 58.3429 0.00000 2.58161e-14
  8 58.3429 0.00000 3.08887e-14
  9 58.3429 0.00000 3.59780e-14
  10 58.3429 0.00000 5.14643e-14
  11 58.3429 0.00000 3.06871e-14
  12 58.3429 0.00000 -4.04597e-14
  13 58.3429 0.00000 -1.62379e-14
  14 58.3429 0.00000 -1.09848e-14
  15 58.3429 0.00000 -3.28307e-14
  16 58.3429 0.00000 4.09834e-14
  17 58.3429 0.00000 9.80918e-15
  18 58.3429 0.00000 -5.62675e-15
  19 58.3429 0.00000 5.14979e-14
  20 58.3429 0.00000 1.10364e-13
  21 58.3429 0.00000 -2.01534e-16
  22 58.3429 0.00000 -1.89520e-14
  23 58.3429 0.00000 3.81391e-14
  24 58.3429 0.00000 -4.15208e-14
  25 58.3429 0.00000 -1.56711e-14
  26 58.3429 0.00000 7.27524e-16
  27 58.3429 0.00000 -4.33964e-14
  28 58.3429 0.00000 -6.01470e-14
  29 58.3429 0.00000 -6.00724e-14
  30 58.3429 0.00000 -1.06023e-13
  31 58.3429 0.00000 -5.74532e-14
  32 58.3429 0.00000 5.58659e-14
  33 58.3429 0.00000 2.15059e-14
  34 58.3429 0.00000 2.31168e-14
  35 58.3429 0.00000 2.09200e-14
  36 58.3429 0.00000 5.19622e-14
  37 58.3429 0.00000 1.35037e-14
  38 58.3429 0.00000 -2.63997e-14
  39 58.3429 0.00000 -7.68317e-14
  40 58.3429 0.00000 -1.07543e-13
  41 58.3429 0.00000 -5.06074e-14
  42 58.3429 0.00000 -1.12956e-14
  43 58.3429 0.00000 -3.15614e-15
  44 58.3429 0.00000 6.48059e-15
  45 58.3429 0.00000 9.39627e-15
  46 58.3429 0.00000 1.99920e-15
  47 58.3429 0.00000 -7.91973e-16
  48 58.3429 0.00000 3.32178e-15
  49 58.3429 0.00000 5.61038e-15
  50 58.3429 0.00000 2.39419e-15
  51 58.3429 0.00000 3.91776e-15
  52 58.3429 0.00000 -1.96833e-15
  53 58.3429 0.00000 -6.11949e-15
  54 58.3429 0.00000 -8.53989e-16
  55 58.3429 0.00000 0.00000
  56 58.3429 0.00000 7.60948e-15
  57 58.3429 0.00000 -5.39793e-15
  58 58.3429 0.00000 -6.09640e-14
  59 58.3429 0.00000 -5.68040e-14
  60 58.3429 0.00000 -1.88633e-15
  61 58.3429 0.00000 -4.68634e-14
  62 58.3429 0.00000 -4.69573e-14
  63 58.3429 0.00000 -5.49696e-14
  64 58.3429 0.00000 -6.66396e-15
  65 58.3429 0.00000 3.11879e-16
  66 58.3429 0.00000 1.03688e-14
  67 58.3429 0.00000 -5.70387e-14
  68 58.3429 0.00000 -1.21399e-14
  69 58.3429 0.00000 -2.58915e-14
  70 58.3429 0.00000 -3.15109e-14
  71 58.3429 0.00000 -1.09129e-14
  72 58.3429 0.00000 -6.66488e-14
  73 58.3429 0.00000 -1.21565e-13
  74 58.3429 0.00000 -9.80242e-15
  75 58.3429 0.00000 -4.03945e-14
  76 58.3429 0.00000 -6.16625e-14
  77 58.3429 0.00000 -1.15545e-15
  78 58.3429 0.00000 -3.83813e-14
  79 58.3429 0.00000 -6.19095e-14
  80 58.3429 0.00000 -7.70245e-14
  81 58.3429 0.00000 -4.39415e-14
  82 58.3429 0.00000 -1.98303e-14
  83 58.3429 0.00000 -3.64160e-14
  84 58.3429 0.00000 2.36039e-14
  85 58.3429 0.00000 -3.73454e-14
  86 58.3429 0.00000 3.59248e-14
  87 58.3429 0.00000 -1.93438e-15
  88 58.3429 0.00000 -1.09229e-13
  89 58.3429 0.00000 2.50856e-15
  90 58.3429 0.00000 -3.51521e-14
  91 58.3429 0.00000 -3.13499e-14
  92 58.3429 0.00000 -5.65388e-15
  93 58.3429 0.00000 -1.37517e-13
  94 58.3429 0.00000 -1.67472e-14
  95 58.3429 0.00000 -1.29777e-14
  96 58.3429 0.00000 -7.07710e-14
  97 58.3429 0.00000 -5.38241e-14
  98 58.3429 0.00000 -1.27453e-14
  99 58.3429 0.00000 -2.57852e-14
  100 58.3429 0.00000 -8.99111e-15
  101 58.3429 0.00000 -2.26709e-14
  102 58.3429 0.00000 -8.66275e-14
  103 58.3429 0.00000 1.51000e-14
  104 58.3429 0.00000 -2.57774e-14
  105 58.3429 0.00000 -5.84173e-14
  106 58.3429 0.00000 -4.26863e-14
  107 58.3429 0.00000 3.42374e-14
  108 58.3429 0.00000 -1.99457e-15
  109 58.3429 0.00000 1.33603e-14
  110 58.3429 0.00000 -7.67672e-14
  111 58.3429 0.00000 -5.13316e-14
  112 58.3429 0.00000 -7.97154e-14
  113 58.3429 0.00000 -2.08013e-14
  114 58.3429 0.00000 1.58050e-14
  115 58.3429 0.00000 -5.69335e-14
  116 58.3429 0.00000 1.75237e-14
  117 58.3429 0.00000 -3.23891e-14
  118 58.3429 0.00000 -8.23977e-15
  119 58.3429 0.00000 -1.69457e-14
  120 58.3429 0.00000 -3.86837e-14
  121 58.3429 0.00000 -2.44187e-14
  122 58.3429 0.00000 -2.70788e-14
  123 58.3429 0.00000 -1.81596e-14
  124 58.3429 0.00000 -9.24025e-16
  125 58.3429 0.00000 -4.89559e-14
  126 58.3429 0.00000 1.11478e-14
  127 58.3429 0.00000 -3.34599e-14
  128 58.3429 0.00000 -1.89621e-14
  129 58.3429 0.00000 -7.13448e-15
  130 58.3429 0.00000 -6.30929e-14
  131 58.3429 0.00000 -1.37843e-14
  132 58.3429 0.00000 -6.11098e-14
  133 58.3429 0.00000 -3.09630e-14
  134 58.3429 0.00000 -3.23190e-14
  135 58.3429 0.00000 1.18103e-14
  136 58.3429 0.00000 -9.88635e-16
  137 58.3429 0.00000 1.89910e-14
  138 58.3429 0.00000 -9.67925e-14
  139 58.3429 0.00000 4.58914e-16
  140 58.3429 0.00000 -2.24094e-14
  141 58.3429 0.00000 -3.12763e-14
  142 58.3429 0.00000 4.69466e-15
  143 58.3429 0.00000 -2.00429e-14
  144 58.3429 0.00000 -3.80360e-14
  145 58.3429 0.00000 7.69328e-15
  146 58.3429 0.00000 -3.84997e-15
  147 58.3429 0.00000 -6.49355e-14
  148 58.3429 0.00000 2.00473e-15
  149 58.3429 0.00000 -4.44846e-14
  150 58.3429 0.00000 -3.93707e-14
  151 58.3429 0.00000 -7.09138e-14
  152 58.3429 0.00000 -5.14712e-14
  153 58.3429 0.00000 -6.41165e-14
  154 58.3429 0.00000 -4.81692e-14
  155 58.3429 0.00000 -2.02875e-15
  156 58.3429 0.00000 -1.64569e-14
  157 58.3429 0.00000 -5.72293e-15
  158 58.3429 0.00000 -5.35512e-14
  159 58.3429 0.00000 -6.52793e-14
  160 58.3429 0.00000 -4.53451e-17
  161 58.3429 0.00000 -3.49987e-14
  162 58.3429 0.00000 -2.49885e-14
  163 58.3429 0.00000 -8.76640e-14
  164 58.3429 0.00000 -7.19765e-14
  165 58.3429 0.00000 7.90335e-16
  166 58.3429 0.00000 1.76333e-15
  167 58.3429 0.00000 -1.62307e-14
  168 58.3429 0.00000 -1.20305e-13
  169 58.3429 0.00000 4.34638e-15
  170 58.3429 0.00000 -4.06557e-14
  171 58.3429 0.00000 -4.97768e-15
  172 58.3429 0.00000 -1.55891e-14
  173 58.3429 0.00000 -1.76969e-14
  174 58.3429 0.00000 -2.93379e-15
  175 58.3429 0.00000 4.33521e-15
  176 58.3429 0.00000 4.19596e-15
  177 58.3429 0.00000 -1.06832e-13
  178 58.3429 0.00000 -2.82788e-14
  179 58.3429 0.00000 1.68981e-14
  180 58.3429 0.00000 4.72101e-15
  181 58.3429 0.00000 -6.45388e-14
  182 58.3429 0.00000 1.68422e-14
  183 58.3429 0.00000 -2.62907e-14
  184 58.3429 0.00000 -1.10419e-14
  185 58.3429 0.00000 1.59502e-14
  186 58.3429 0.00000 -4.52713e-14
  187 58.3429 0.00000 3.97820e-14
  188 58.3429 0.00000 -4.68829e-14
  189 58.3429 0.00000 -4.82998e-14
  190 58.3429 0.00000 -2.51976e-14
  191 58.3429 0.00000 -2.33904e-14
  192 58.3429 0.00000 -4.91091e-14
  193 58.3429 0.00000 4.20559e-15
  194 58.3429 0.00000 3.14751e-14
  195 58.3429 0.00000 -2.69329e-15
  196 58.3429 0.00000 -1.56708e-13
  197 58.3429 0.00000 1.64115e-14
  198 58.3429 0.00000 2.11943e-14
  199 58.3429 0.00000 -1.61505e-14
  200 58.3429 0.00000 -4.66954e-14
  201 58.3429 0.00000 -5.22718e-14
  202 58.3429 0.00000 -1.21656e-14
  203 58.3429 0.00000 -3.47168e-14
  204 58.3429 0.00000 -6.23840e-14
  205 58.3429 0.00000 -1.96795e-15
  206 58.3429 0.00000 1.98685e-14
  207 58.3429 0.00000 1.02902e-15
  208 58.3429 0.00000 -2.97903e-14
  209 58.3429 0.00000 1.02122e-14
  210 58.3429 0.00000 -8.18694e-15
  211 58.3429 0.00000 1.62446e-14
  212 58.3429 0.00000 4.48179e-14
  213 58.3429 0.00000 3.33098e-15
  214 58.3429 0.00000 -3.15066e-14
  215 58.3429 0.00000 1.49603e-14
  216 58.3429 0.00000 -4.64931e-14
  217 58.3429 0.00000 -9.47290e-14
  218 58.3429 0.00000 -5.94496e-15
  219 58.3429 0.00000 -1.45788e-15
  220 58.3429 0.00000 -3.86338e-14
  221 58.3429 0.00000 -3.52525e-14
  222 58.3429 0.00000 -8.60943e-14
  223 58.3429 0.00000 1.40519e-14
  224 58.3429 0.00000 -1.29500e-14
  225 58.3429 0.00000 -4.13381e-14
  226 58.3429 0.00000 -1.69810e-15
  227 58.3429 0.00000 -3.20132e-14
  228 58.3429 0.00000 -5.26399e-14
  229 58.3429 0.00000 1.51098e-14
  230 58.3429 0.00000 -5.09561e-14
  231 58.3429 0.00000 -4.50245e-14
  232 58.3429 0.00000 -1.71057e-14
  233 58.3429 0.00000 -5.84398e-14
  234 58.3429 0.00000 -5.34402e-14
  235 58.3429 0.00000 -7.97327e-14
  236 58.3429 0.00000 1.55516e-14
  237 58.3429 0.00000 -3.95245e-14
  238 58.3429 0.00000 -5.43675e-14
  239 58.3429 0.00000 -7.57896e-14
  240 58.3429 0.00000 -6.87806e-15
  241 58.3429 0.00000 -1.33951e-14
</Section>

newXOutput 5

<Section columns = "stress_xx | stress_yy | stress_xy">
  1 77.8169 0.00000 0.00000
  2 77.8169 0.00000 5.49886e-15
  3 77.8169 0.00000 -1.30547e-13
  4 77.8169 0.00000 -1.97158e-15
  5 77.8169 0.00000 -1.22150e-14
  6 77.8169 0.00000 -1.05275e-14
  7 77.8169 0.00000 -1.06787e-14
  8 77.8169 0.00000 -3.58219e-16
  9 77.8169 0.00000 1.34994e-14
  10 77.8169 0.00000 1.34098e-14
  11 77.8169 0.00000 3.78846e-14
  12 77.8169 0.00000 -1.06619e-14
  13 77.8169 0.00000 -1.32098e-14
  14 77.8169 0.00000 1.37681e-14
  15 77.8169 0.00000 -9.53064e-15
  16 77.8169 0.00000 5.90964e-14
  17 77.8169 0.00000 -7.57244e-14
  18 77.8169 0.00000 -1.03977e-13
  19 77.8169 0.00000 -1.76131e-14
  20 77.8169 0.00000 4.47910e-14
  21 77.8169 0.00000 2.10999e-14
  22 77.8169 0.00000 -4.45223e-14
  23 77.8169 0.00000 -1.10727e-13
  24 77.8169 0.00000 4.20206e-14
  25 77.8169 0.00000 -1.56906e-14
  26 77.8169 0.00000 3.63718e-14
  27 77.8169 0.00000 -2.75361e-14
  28 77.8169 0.00000 -2.75749e-14
  29 77.8169 0.00000 5.23019e-15
  30 77.8169 0.00000 -3.53038e-14
  31 77.8169 0.00000 -1.44911e-13
  32 77.8169 0.00000 -8.93907e-14
  33 77.8169 0.00000 -4.21317e-15
  34 77.8169 0.00000 5.11297e-14
  35 77.8169 0.00000 -4.15565e-14
  36 77.8169 0.00000 1.64880e-14
  37 77.8169 0.00000 -2.26876e-14
  38 77.8169 0.00000 -3.09022e-14
  39 77.8169 0.00000 -1.94419e-14
  40 77.8169 0.00000 -2.29752e-14
  41 77.8169 0.00000 1.85450e-14
  42 77.8169 0.00000 5.12877e-15
  43 77.8169 0.00000 -1.27919e-14
  44 77.8169 0.00000 4.77009e-15
  45 77.8169 0.00000 -4.21793e-15
  46 77.8169 0.00000 -1.65845e-14
  47 77.8169 0.00000 -1.19424e-14
  48 77.8169 0.00000 -9.82588e-15
  49 77.8169 0.00000 9.74038e-16
  50 77.8169 0.00000 -3.48120e-15
  51 77.8169 0.00000 0.00000
  52 77.8169 0.00000 -6.30937e-15
  53 77.8169 0.00000 -1.22374e-14
  54 77.8169 0.00000 -6.24444e-15
  55 77.8169 0.00000 -5.23019e-15
  56 77.8169 0.00000 2.19044e-15
  57 77.8169 0.00000 -1.14048e-14
  58 77.8169 0.00000 -1.93278e-14
  59 77.8169 0.00000 -3.51095e-14
  60 77.8169 0.00000 4.48014e-14
  61 77.8169 0.00000 -1.62468e-14
  62 77.8169 0.00000 -4.16743e-15
  63 77.8169 0.00000 1.90562e-14
  64 77.8169 0.00000 3.84219e-14
  65 77.8169 0.00000 -3.61045e-15
  66 77.8169 0.00000 -1.00603e-15
  67 77.8169 0.00000 6.88628e-15
  68 77.8169 0.00000 -8.17762e-14
  69 77.8169 0.00000 4.57852e-14
  70 77.8169 0.00000 6.63677e-14
  71 77.8169 0.00000 -2.07226e-14
  72 77.8169 0.00000 -2.36013e-14
  73 77.8169 0.00000 1.07431e-14
  74 77.8169 0.00000 4.38096e-15
  75 77.8169 0.00000 4.76308e-14
  76 77.8169 0.00000 -3.23753e-14
  77 77.8169 0.00000 1.24038e-15
  78 77.8169 0.00000 -2.94549e-14
  79 77.8169 0.00000 -3.27439e-14
  80 77.8169 0.00000 -2.60913e-15
  81 77.8169 0.00000 -3.84383e-14
  82 77.8169 0.00000 -7.12004e-15
  83 77.8169 0.00000 -2.42792e-14
  84 77.8169 0.00000 -2.14686e-14
  85 77.8169 0.00000 -3.61748e-14
  86 77.8169 0.00000 -6.69373e-15
  87 77.8169 0.00000 -3.83467e-15
  88 77.8169 0.00000 -1.23232e-13
  89 77.8169 0.00000 -6.06342e-15
  90 77.8169 0.00000 -2.31952e-14
  91 77.8169 0.00000 2.64156e-14
  92 77.8169 0.00000 1.62440e-16
  93 77.8169 0.00000 -1.10503e-13
  94 77.8169 0.00000 -4.37223e-14
  95 77.8169 0.00000 5.14628e-14
  96 77.8169 0.00000 -2.42538e-14
  97 77.8169 0.00000 5.41826e-15
  98 77.8169 0.00000 -4.66687e-15
  99 77.8169 0.00000 2.02386e-14
  100 77.8169 0.00000 -1.16206e-14
  101 77.8169 0.00000 -1.02092e-14
  102 77.8169 0.00000 1.06091e-13
  103 77.8169 0.00000 -3.87794e-14
  104 77.8169 0.00000 2.64120e-14
  105 77.8169 0.00000 5.13608e-14
  106 77.8169 0.00000 -3.64098e-14
  107 77.8169 0.00000 6.06801e-14
  108 77.8169 0.00000 -2.92948e-15
  109 77.8169 0.00000 4.38521e-15
  110 77.8169 0.00000 -1.79295e-14
  111 77.8169 0.00000 -5.70120e-14
  112 77.8169 0.00000 -1.86458e-14
  113 77.8169 0.00000 2.96712e-14
  114 77.8169 0.00000 2.09731e-14
  115 77.8169 0.00000 -1.29235e-14
  116 77.8169 0.00000 -2.14932e-16
  117 77.8169 0.00000 1.17991e-13
  118 77.8169 0.00000 -4.20214e-15
  119 77.8169 0.00000 1.69210e-14
  120 77.8169 0.00000 -8.42183e-15
  121 77.8169 0.00000 -1.87920e-14
  122 77.8169 0.00000 6.21584e-14
  123 77.8169 0.00000 2.49763e-14
  124 77.8169 0.00000 2.25498e-14
  125 77.8169 0.00000 -1.90759e-14
  126 77.8169 0.00000 -1.40545e-14
  127 77.8169 0.00000 -6.57612e-15
  128 77.8169 0.00000 -2.34519e-14
  129 77.8169 0.00000 -7.08257e-15
  130 77.8169 0.00000 1.84900e-14
  131 77.8169 0.00000 -1.80181e-14
  132 77.8169 0.00000 4.01306e-14
  133 77.8169 0.00000 -1.08252e-13
  134 77.8169 0.00000 -1.13803e-14
  135 77.8169 0.00000 3.52897e-14
  136 77.8169 0.00000 -6.80837e-15
  137 77.8169 0.00000 2.86359e-14
  138 77.8169 0.00000 -7.15541e-14
  139 77.8169 0.00000 -3.26783e-15
  140 77.8169 0.00000 -1.63034e-14
  141 77.8169 0.00000 -4.29563e-14
  142 77.8169 0.00000 -1.04051e-14
  143 77.8169 0.00000 -2.29668e-15
  144 77.8169 0.00000 5.69425e-14
  145 77.8169 0.00000 -3.43277e-14
  146 77.8169 0.00000 2.75077e-14
  147 77.8169 0.00000 2.98332e-15
  148 77.8169 0.00000 -5.48170e-15
  149 77.8169 0.00000 -4.91495e-14
  150 77.8169 0.00000 -2.52060e-14
  151 77.8169 0.00000 -1.75123e-14
  152 77.8169 0.00000 8.76218e-14
  153 77.8169 0.00000 -5.68247e-15
  154 77.8169 0.00000 -2.68854e-15
  155 77.8169 0.00000 2.96027e-14
  156 77.8169 0.00000 -8.61686e-16
  157 77.8169 0.00000 -5.45896e-15
  158 77.8169 0.00000 -4.64060e-15
  159 77.8169 0.00000 -1.16814e-14
  160 77.8169 0.00000 -1.62951e-15
  161 77.8169 0.00000 -1.87212e-14
  162 77.8169 0.00000 -1.47885e-14
  163 77.8169 0.00000 -2.37478e-14
  164 77.8169 0.00000 1.84131e-14
  165 77.8169 0.00000 -1.94319e-14
  166 77.8169 0.00000 -1.55543e-15
  167 77.8169 0.00000 7.64186e-15
  168 77.8169 0.00000 -7.13062e-14
  169 77.8169 0.00000 -3.79582e-16
  170 77.8169 0.00000 -4.90239e-15
  171 77.8169 0.00000 4.28632e-15
  172 77.8169 0.00000 1.24157e-14
  173 77.8169 0.00000 2.21267e-15
  174 77.8169 0.00000 -7.38632e-15
  175 77.8169 0.00000 -1.75102e-15
  176 77.8169 0.00000 -6.64968e-16
  177 77.8169 0.00000 -8.58946e-14
  178 77.8169 0.00000 -1.67915e-16
  179 77.8169 0.00000 -1.48863e-14
  180 77.8169 0.00000 -1.90672e-14
  181 77.8169 0.00000 -3.57449e-14
  182 77.8169 0.00000 -2.75596e-14
  183 77.8169 0.00000 3.37526e-14
  184 77.8169 0.00000 -1.17811e-13
  185 77.8169 0.00000 -7.35243e-15
  186 77.8169 0.00000 1.97068e-14
  187 77.8169 0.00000 -5.78375e-14
  188 77.8169 0.00000 -3.28682e-14
  189 77.8169 0.00000 -2.15277e-14
  190 77.8169 0.00000 1.58048e-14
  191 77.8169 0.00000 2.62398e-14
  192 77.8169 0.00000 4.36033e-14
  193 77.8169 0.00000 3.45536e-15
  194 77.8169 0.00000 3.22081e-14
  195 77.8169 0.00000 -5.99083e-15
  196 77.8169 0.00000 -8.82787e-14
  197 77.8169 0.00000 -7.05548e-16
  198 77.8169 0.00000 -5.57439e-14
  199 77.8169 0.00000 -9.63066e-15
  200 77.8169 0.00000 -6.18227e-14
  201 77.8169 0.00000 5.59533e-14
  202 77.8169 0.00000 2.82699e-14
  203 77.8169 0.00000 -1.31314e-14
  204 77.8169 0.00000 -3.61259e-14
  205 77.8169 0.00000 -1.57885e-14
  206 77.8169 0.00000 5.61368e-14
  207 77.8169 0.00000 -1.52251e-14
  208 77.8169 0.00000 -3.06143e-14
  209 77.8169 0.00000 -1.45054e-14
  210 77.8169 0.00000 3.76261e-15
  211 77.8169 0.00000 -4.58857e-15
  212 77.8169 0.00000 -2.46079e-14
  213 77.8169 0.00000 -5.80670e-15
  214 77.8169 0.00000 2.89415e-14
  215 77.8169 0.00000 2.55012e-14
  216 77.8169 0.00000 -2.16603e-14
  217 77.8169 0.00000 -2.91676e-14
  218 77.8169 0.00000 6.01513e-15
  219 77.8169 0.00000 -1.91744e-15
  220 77.8169 0.00000 3.24256e-14
  221 77.8169 0.00000 -3.27439e-14
  222 77.8169 0.00000 -7.59341e-15
  223 77.8169 0.00000 1.32291e-14
  224 77.8169 0.00000 -3.20922e-14
  225 77.8169 0.00000 -8.80911e-14
  226 77.8169 0.00000 -3.27916e-15
  227 77.8169 0.00000 -4.60433e-14
  228 77.8169 0.00000 -1.05007e-14
  229 77.8169 0.00000 4.51345e-15
  230 77.8169 0.00000 2.90340e-14
  231 77.8169 0.00000 -2.10551e-14
  232 77.8169 0.00000 -1.85319e-14
  233 77.8169 0.00000 2.34731e-15
  234 77.8169 0.00000 3.39451e-14
  235 77.8169 0.00000 1.02932e-15
  236 77.8169 0.00000 -1.52058e-14
  237 77.8169 0.00000 -9.53860e-15
  238 77.8169 0.00000 -3.16964e-14
  239 77.8169 0.00000 2.97490e-14
  240 77.8169 0.00000 -2.31337e-14
  241 77.8169 0.00000 -1.99595e-14
</Section>

newXOutput 6

<Section columns = "stress_xx | stress_yy | stress_xy">
  1 97.2981 0.00000 -2.55538e-15
  2 97.2981 0.00000 4.67944e-14
  3 97.2981 0.00000 -1.39823e-14
  4 97.2981 0.00000 4.43378e-15
  5 97.2981 0.00000 -3.29524e-15
  6 97.2981 0.00000 2.51866e-16
  7 97.2981 0.00000 -2.04640e-14
  8 97.2981 0.00000 -3.73390e-14
  9 97.2981 0.00000 -1.23414e-14
  10 97.2981 0.00000 -5.29476e-14
  11 97.2981 0.00000 -1.45585e-13
  12 97.2981 0.00000 9.41486e-14
  13 97.2981 0.00000 3.97837e-13
  14 97.2981 0.00000 3.09591e-13
  15 97.2981 0.00000 9.63961e-14
  16 97.2981 0.00000 1.82343e-13
  17 97.2981 0.00000 -2.48857e-14
  18 97.2981 0.00000 2.06110e-14
  19 97.2981 0.00000 5.47387e-14
  20 97.2981 0.00000 1.79076e-13
  21 97.2981 0.00000 1.55310e-13
  22 97.2981 0.00000 7.33138e-14
  23 97.2981 0.00000 8.00162e-14
  24 97.2981 0.00000 -6.56598e-14
  25 97.2981 0.00000 -4.18936e-14
  26 97.2981 0.00000 7.02402e-15
  27 97.2981 0.00000 -8.72783e-15
  28 97.2981 0.00000 3.17475e-14
  29 97.2981 0.00000 4.18936e-14
  30 97.2981 0.00000 -9.69834e-15
  31 97.2981 0.00000 3.09675e-14
  32 97.2981 0.00000 -4.89099e-14
  33 97.2981 0.00000 -9.59650e-14
  34 97.2981 0.00000 -8.95092e-14
  35 97.2981 0.00000 -3.54342e-14
  36 97.2981 0.00000 1.46482e-14
  37 97.2981 0.00000 -2.36812e-14
  38 97.2981 0.00000 3.36932e-15
  39 97.2981 0.00000 -1.31974e-14
  40 97.2981 0.00000 -4.44352e-14
  41 97.2981 0.00000 -1.47160e-13
  42 97.2981 0.00000 -1.24012e-13
  43 97.2981 0.00000 5.75742e-14
  44 97.2981 0.00000 7.86011e-14
  45 97.2981 0.00000 7.71607e-14
  46 97.2981 0.00000 5.58611e-14
  47 97.2981 0.00000 3.35158e-14
  48 97.2981 0.00000 2.70278e-14
  49 97.2981 0.00000 1.64367e-14
  50 97.2981 0.00000 1.35421e-14
  51 97.2981 0.00000 1.83284e-14
  52 97.2981 0.00000 1.14049e-14
  53 97.2981 0.00000 3.50512e-15
  54 97.2981 0.00000 6.86070e-16
  55 97.2981 0.00000 0.00000
  56 97.2981 0.00000 -3.37919e-15
  57 97.2981 0.00000 1.19793e-14
  58 97.2981 0.00000 5.21064e-14
  59 97.2981 0.00000 3.65947e-14
  60 97.2981 0.00000 -8.64755e-14
  61 97.2981 0.00000 8.45847e-15
  62 97.2981 0.00000 1.52951e-13
  63 97.2981 0.00000 7.79050e-14
  64 97.2981 0.00000 4.21857e-14
  65 97.2981 0.00000 3.64879e-14
  66 97.2981 0.00000 -5.07320e-14
  67 97.2981 0.00000 4.90068e-14
  68 97.2981 0.00000 1.02660e-13
  69 97.2981 0.00000 -4.39282e-14
  70 97.2981 0.00000 -1.57318e-13
  71 97.2981 0.00000 -4.27768e-14
  72 97.2981 0.00000 -2.29235e-13
  73 97.2981 0.00000 -2.53203e-14
  74 97.2981 0.00000 5.21420e-14
  75 97.2981 0.00000 3.04547e-14
  76 97.2981 0.00000 1.92178e-14
  77 97.2981 0.00000 -7.22363e-16
  78 97.2981 0.00000 9.28949e-15
  79 97.2981 0.00000 -1.66810e-13
  80 97.2981 0.00000 1.18495e-14
  81 97.2981 0.00000 -2.95968e-14
  82 97.2981 0.00000 4.77255e-14
  83 97.2981 0.00000 2.29066e-14
  84 97.2981 0.00000 -4.97189e-14
  85 97.2981 0.00000 9.16579e-14
  86 97.2981 0.00000 -4.21087e-14
  87 97.2981 0.00000 2.68383e-14
  88 97.2981 0.00000 -1.90235e-13
  89 97.2981 0.00000 -3.38575e-14
  90 97.2981 0.00000 2.13938e-13
  91 97.2981 0.00000 -4.62241e-14
  92 97.2981 0.00000 -1.08160e-14
  93 97.2981 0.00000 5.16617e-14
  94 97.2981 0.00000 9.67440e-14
  95 97.2981 0.00000 -3.04471e-13
  96 97.2981 0.00000 -2.56579e-14
  97 97.2981 0.00000 -4.52371e-14
  98 97.2981 0.00000 5.79327e-14
  99 97.2981 0.00000 -1.19822e-13
  100 97.2981 0.00000 -5.03122e-14
  101 97.2981 0.00000 -1.31026e-13
  102 97.2981 0.00000 2.21935e-14
  103 97.2981 0.00000 3.28492e-14
  104 97.2981 0.00000 -2.81202e-14
  105 97.2981 0.00000 -9.71536e-14
  106 97.2981 0.00000 9.06067e-14
  107 97.2981 0.00000 9.63581e-14
  108 97.2981 0.00000 1.11539e-14
  109 97.2981 0.00000 6.99976e-16
  110 97.2981 0.00000 1.23042e-13
  111 97.2981 0.00000 -6.90523e-14
  112 97.2981 0.00000 -3.73070e-14
  113 97.2981 0.00000 7.40207e-14
  114 97.2981 0.00000 -5.29445e-15
  115 97.2981 0.00000 3.00717e-14
  116 97.2981 0.00000 -3.28936e-14
  117 97.2981 0.00000 4.32976e-14
  118 97.2981 0.00000 3.52551e-14
  119 97.2981 0.00000 -4.50284e-15
  120 97.2981 0.00000 -7.75054e-15
  121 97.2981 0.00000 -2.92838e-14
  122 97.2981 0.00000 -2.11959e-13
  123 97.2981 0.00000 -1.02188e-13
  124 97.2981 0.00000 -6.20958e-15
  125 97.2981 0.00000 1.99643e-13
  126 97.2981 0.00000 -3.84868e-14
  127 97.2981 0.00000 1.33755e-13
  128 97.2981 0.00000 5.13385e-14
  129 97.2981 0.00000 6.30951e-14
  130 97.2981 0.00000 -1.12158e-13
  131 97.2981 0.00000 9.04429e-14
  132 97.2981 0.00000 -2.14718e-13
  133 97.2981 0.00000 6.75538e-14
  134 97.2981 0.00000 -3.93030e-14
  135 97.2981 0.00000 1.85586e-14
  136 97.2981 0.00000 3.88002e-14
  137 97.2981 0.00000 -2.04568e-14
  138 97.2981 0.00000 3.71046e-14
  139 97.2981 0.00000 -1.92913e-14
  140 97.2981 0.00000 4.79811e-14
  141 97.2981 0.00000 -5.47859e-14
  142 97.2981 0.00000 1.00099e-14
  143 97.2981 0.00000 1.84532e-14
  144 97.2981 0.00000 -1.12069e-13
  145 97.2981 0.00000 -5.91880e-14
  146 97.2981 0.00000 -1.31720e-13
  147 97.2981 0.00000 3.60293e-14
  148 97.2981 0.00000 -2.92181e-15
  149 97.2981 0.00000 -8.84585e-14
  150 97.2981 0.00000 2.36880e-14
  151 97.2981 0.00000 -1.15673e-13
  152 97.2981 0.00000 4.22932e-14
  153 97.2981 0.00000 -3.62878e-14
  154 97.2981 0.00000 9.31859e-14
  155 97.2981 0.00000 -1.10947e-14
  156 97.2981 0.00000 8.71004e-14
  157 97.2981 0.00000 1.27331e-14
  158 97.2981 0.00000 -1.34073e-13
  159 97.2981 0.00000 2.45603e-14
  160 97.2981 0.00000 6.33021e-15
  161 97.2981 0.00000 2.80620e-15
  162 97.2981 0.00000 -1.81632e-13
  163 97.2981 0.00000 -8.05199e-14
  164 97.2981 0.00000 -1.89232e-14
  165 97.2981 0.00000 -7.63344e-14
  166 97.2981 0.00000 1.46012e-14
  167 97.2981 0.00000 -4.40370e-14
  168 97.2981 0.00000 6.24098e-14
  169 97.2981 0.00000 -8.59977e-15
  170 97.2981 0.00000 -6.32234e-14
  171 97.2981 0.00000 1.88857e-13
  172 97.2981 0.00000 2.87067e-13
  173 97.2981 0.00000 1.30013e-14
  174 97.2981 0.00000 -3.32969e-14
  175 97.2981 0.00000 1.29795e-14
  176 97.2981 0.00000 -1.37406e-14
  177 97.2981 0.00000 -9.14453e-14
  178 97.2981 0.00000 -3.25457e-15
  179 97.2981 0.00000 -3.16532e-14
  180 97.2981 0.00000 -2.02512e-14
  181 97.2981 0.00000 4.19251e-14
  182 97.2981 0.00000 5.78845e-14
  183 97.2981 0.00000 1.64972e-14
  184 97.2981 0.00000 5.86300e-14
  185 97.2981 0.00000 -6.37114e-14
  186 97.2981 0.00000 7.57946e-14
  187 97.2981 0.00000 -6.06364e-14
  188 97.2981 0.00000 3.23059e-14
  189 97.2981 0.00000 7.14311e-14
  190 97.2981 0.00000 5.27532e-15
  191 97.2981 0.00000 -3.40648e-14
  192 97.2981 0.00000 1.09696e-13
  193 97.2981 0.00000 -8.38771e-15
  194 97.2981 0.00000 4.84071e-14
  195 97.2981 0.00000 2.44801e-14
  196 97.2981 0.00000 9.91171e-14
  197 97.2981 0.00000 -2.55682e-14
  198 97.2981 0.00000 7.22503e-14
  199 97.2981 0.00000 -3.48063e-16
  200 97.2981 0.00000 7.63318e-14
  201 97.2981 0.00000 -1.53947e-13
  202 97.2981 0.00000 -2.20099e-13
  203 97.2981 0.00000 -1.51626e-14
  204 97.2981 0.00000 -2.17809e-13
  205 97.2981 0.00000 -4.29037e-14
  206 97.2981 0.00000 6.35246e-14
  207 97.2981 0.00000 5.49642e-14
  208 97.2981 0.00000 -5.97268e-14
  209 97.2981 0.00000 -7.37598e-14
  210 97.2981 0.00000 4.20309e-14
  211 97.2981 0.00000 -2.13051e-14
  212 97.2981 0.00000 3.19071e-14
  213 97.2981 0.00000 2.52054e-14
  214 97.2981 0.00000 -3.31045e-13
  215 97.2981 0.00000 4.04245e-14
  216 97.2981 0.00000 2.29844e-13
  217 97.2981 0.00000 -1.66165e-14
  218 97.2981 0.00000 4.97902e-14
  219 97.2981 0.00000 1.40138e-13
  220 97.2981 0.00000 1.92222e-14
  221 97.2981 0.00000 7.38839e-14
  222 97.2981 0.00000 6.49410e-14
  223 97.2981 0.00000 -2.39398e-14
  224 97.2981 0.00000 6.14446e-14
  225 97.2981 0.00000 1.71399e-14
  226 97.2981 0.00000 -4.33166e-14
  227 97.2981 0.00000 4.85628e-15
  228 97.2981 0.00000 2.60420e-13
  229 97.2981 0.00000 -1.69314e-14
  230 97.2981 0.00000 5.48060e-14
  231 97.2981 0.00000 1.18670e-13
  232 97.2981 0.00000 2.73221e-15
  233 97.2981 0.00000 7.03795e-14
  234 97.2981 0.00000 -8.89541e-14
  235 97.2981 0.00000 -3.15257e-15
  236 97.2981 0.00000 -4.57525e-14
  237 97.2981 0.00000 -1.22030e-13
  238 97.2981 0.00000 1.25600e-13
  239 97.2981 0.00000 2.78600e-14
  240 97.2981 0.00000 2.20021e-13
  241 97.2981 0.00000 4.03824e-14
</Section>

newXOutput 7

<Section columns = "stress_xx | stress_yy | stress_xy">
  1 116.787 0.00000 5.19283e-15
  2 116.787 0.00000 6.29184e-14
  3 116.787 0.00000 -3.54854e-13
  4 116.787 0.00000 -3.35914e-15
  5 116.787 0.00000 1.02849e-14
  6 116.787 0.00000 1.00834e-14
  7 116.787 0.00000 1.00834e-14
  8 116.787 0.00000 2.05698e-14
  9 116.787 0.00000 -5.37336e-16
  10 116.787 0.00000 4.77275e-14
  11 116.787 0.00000 2.70234e-14
  12 116.787 0.00000 -9.02105e-14
  13 116.787 0.00000 -1.86942e-13
  14 116.787 0.00000 -1.46138e-13
  15 116.787 0.00000 -1.88801e-14
  16 116.787 0.00000 -1.72893e-13
  17 116.787 0.00000 -1.37669e-13
  18 116.787 0.00000 -7.86494e-14
  19 116.787 0.00000 -2.07041e-14
  20 116.787 0.00000 2.68946e-15
  21 116.787 0.00000 -2.29089e-13
  22 116.787 0.00000 -1.93328e-13
  23 116.787 0.00000 -1.98981e-14
  24 116.787 0.00000 -2.01668e-14
  25 116.787 0.00000 0.00000
  26 116.787 0.00000 2.46284e-14
  27 116.787 0.00000 -3.49547e-15
  28 116.787 0.00000 -3.24932e-14
  29 116.787 0.00000 -6.29184e-14
  30 116.787 0.00000 -1.83630e-13
  31 116.787 0.00000 -1.33705e-13
  32 116.787 0.00000 -1.00293e-13
  33 116.787 0.00000 -4.48136e-14
  34 116.787 0.00000 -6.54372e-14
  35 116.787 0.00000 -1.15442e-13
  36 116.787 0.00000 -7.10537e-14
  37 116.787 0.00000 7.76196e-14
  38 116.787 0.00000 7.68089e-14
  39 116.787 0.00000 7.54948e-14
  40 116.787 0.00000 1.53120e-13
  41 116.787 0.00000 1.19950e-13
  42 116.787 0.00000 7.48451e-14
  43 116.787 0.00000 -5.53713e-14
  44 116.787 0.00000 -9.26433e-14
  45 116.787 0.00000 -7.42829e-14
  46 116.787 0.00000 -7.16214e-14
  47 116.787 0.00000 -5.24912e-14
  48 116.787 0.00000 -3.22995e-14
  49 116.787 0.00000 -2.19742e-14
  50 116.787 0.00000 -3.02495e-15
  51 116.787 0.00000 -5.24320e-15
  52 116.787 0.00000 -1.27299e-14
  53 116.787 0.00000 -1.57632e-14
  54 116.787 0.00000 -7.29756e-15
  55 116.787 0.00000 -1.04864e-14
  56 116.787 0.00000 8.90659e-16
  57 116.787 0.00000 -3.96815e-14
  58 116.787 0.00000 -6.84138e-14
  59 116.787 0.00000 9.03157e-16
  60 116.787 0.00000 -3.57757e-15
  61 116.787 0.00000 -7.53715e-14
  62 116.787 0.00000 -2.65317e-14
  63 116.787 0.00000 -3.98886e-14
  64 116.787 0.00000 -1.04696e-14
  65 116.787 0.00000 -2.50872e-14
  66 116.787 0.00000 -3.14862e-15
  67 116.787 0.00000 -1.61271e-13
  68 116.787 0.00000 -8.12201e-14
  69 116.787 0.00000 -1.86949e-14
  70 116.787 0.00000 -8.25645e-15
  71 116.787 0.00000 2.71742e-14
  72 116.787 0.00000 3.46730e-15
  73 116.787 0.00000 -3.77114e-14
  74 116.787 0.00000 -3.62086e-14
  75 116.787 0.00000 8.10887e-14
  76 116.787 0.00000 6.11378e-14
  77 116.787 0.00000 -6.23461e-15
  78 116.787 0.00000 -4.17516e-14
  79 116.787 0.00000 -4.64200e-15
  80 116.787 0.00000 -1.37641e-14
  81 116.787 0.00000 -2.08381e-14
  82 116.787 0.00000 -1.15677e-14
  83 116.787 0.00000 -8.54462e-14
  84 116.787 0.00000 1.79902e-14
  85 116.787 0.00000 1.42139e-13
  86 116.787 0.00000 2.71906e-14
  87 116.787 0.00000 -1.97336e-14
  88 116.787 0.00000 -3.31244e-13
  89 116.787 0.00000 -9.06755e-17
  90 116.787 0.00000 -1.09654e-13
  91 116.787 0.00000 -1.10516e-14
  92 116.787 0.00000 -3.40029e-14
  93 116.787 0.00000 -1.35235e-13
  94 116.787 0.00000 -5.45501e-14
  95 116.787 0.00000 1.52739e-13
  96 116.787 0.00000 -6.87166e-14
  97 116.787 0.00000 -1.78108e-13
  98 116.787 0.00000 -4.66751e-14
  99 116.787 0.00000 8.25479e-14
  100 116.787 0.00000 6.24751e-14
  101 116.787 0.00000 1.65531e-14
  102 116.787 0.00000 1.71817e-14
  103 116.787 0.00000 -3.71894e-14
  104 116.787 0.00000 3.36169e-14
  105 116.787 0.00000 1.72351e-13
  106 116.787 0.00000 -5.23153e-14
  107 116.787 0.00000 3.96103e-14
  108 116.787 0.00000 -1.84269e-14
  109 116.787 0.00000 -6.75446e-16
  110 116.787 0.00000 -7.88304e-14
  111 116.787 0.00000 -1.20098e-13
  112 116.787 0.00000 -1.51505e-13
  113 116.787 0.00000 1.70574e-14
  114 116.787 0.00000 -2.22441e-14
  115 116.787 0.00000 -3.95025e-14
  116 116.787 0.00000 2.83359e-15
  117 116.787 0.00000 -6.21796e-14
  118 116.787 0.00000 -2.14142e-14
  119 116.787 0.00000 4.18452e-14
  120 116.787 0.00000 -1.70146e-14
  121 116.787 0.00000 -3.12469e-14
  122 116.787 0.00000 1.57942e-14
  123 116.787 0.00000 -2.16603e-14
  124 116.787 0.00000 4.89458e-15
  125 116.787 0.00000 -4.26200e-14
  126 116.787 0.00000 -7.45498e-15
  127 116.787 0.00000 -2.46173e-14
  128 116.787 0.00000 -7.08341e-14
  129 116.787 0.00000 -6.72926e-14
  130 116.787 0.00000 -2.47971e-14
  131 116.787 0.00000 -1.03399e-13
  132 116.787 0.00000 1.27876e-13
  133 116.787 0.00000 -2.25578e-14
  134 116.787 0.00000 1.63350e-14
  135 116.787 0.00000 -1.38859e-13
  136 116.787 0.00000 -2.67144e-14
  137 116.787 0.00000 -1.08565e-14
  138 116.787 0.00000 -1.10465e-13
  139 116.787 0.00000 7.21682e-15
  140 116.787 0.00000 -1.13935e-14
  141 116.787 0.00000 -1.05924e-13
  142 116.787 0.00000 -3.08540e-14
  143 116.787 0.00000 -1.42462e-14
  144 116.787 0.00000 3.94551e-14
  145 116.787 0.00000 -2.97347e-14
  146 116.787 0.00000 3.59312e-14
  147 116.787 0.00000 9.52378e-14
  148 116.787 0.00000 -1.49551e-15
  149 116.787 0.00000 -5.97093e-14
  150 116.787 0.00000 -2.16981e-15
  151 116.787 0.00000 6.65318e-14
  152 116.787 0.00000 -5.11048e-14
  153 116.787 0.00000 -8.70685e-14
  154 116.787 0.00000 -1.65975e-14
  155 116.787 0.00000 3.61503e-14
  156 116.787 0.00000 -1.29926e-14
  157 116.787 0.00000 -2.39637e-14
  158 116.787 0.00000 1.98472e-14
  159 116.787 0.00000 -7.65811e-14
  160 116.787 0.00000 -1.25837e-14
  161 116.787 0.00000 1.73433e-14
  162 116.787 0.00000 6.41582e-14
  163 116.787 0.00000 -1.76626e-14
  164 116.787 0.00000 1.61474e-14
  165 116.787 0.00000 3.54255e-14
  166 116.787 0.00000 -1.33674e-14
  167 116.787 0.00000 -7.82177e-15
  168 116.787 0.00000 -1.16366e-13
  169 116.787 0.00000 -8.64981e-15
  170 116.787 0.00000 -9.27640e-14
  171 116.787 0.00000 -1.37145e-13
  172 116.787 0.00000 -9.45459e-14
  173 116.787 0.00000 -6.28999e-14
  174 116.787 0.00000 1.65692e-14
  175 116.787 0.00000 -1.02030e-14
  176 116.787 0.00000 -4.70517e-16
  177 116.787 0.00000 -2.91907e-13
  178 116.787 0.00000 -7.23476e-15
  179 116.787 0.00000 2.57425e-14
  180 116.787 0.00000 -2.88097e-15
  181 116.787 0.00000 -8.34882e-14
  182 116.787 0.00000 3.91310e-14
  183 116.787 0.00000 1.57795e-14
  184 116.787 0.00000 -4.10993e-14
  185 116.787 0.00000 2.21683e-14
  186 116.787 0.00000 -3.59157e-14
  187 116.787 0.00000 -8.79289e-14
  188 116.787 0.00000 -6.61979e-14
  189 116.787 0.00000 -1.39490e-13
  190 116.787 0.00000 -3.03831e-14
  191 116.787 0.00000 5.47094e-14
  192 116.787 0.00000 2.18664e-14
  193 116.787 0.00000 -6.15484e-14
  194 116.787 0.00000 7.68009e-15
  195 116.787 0.00000 -2.70786e-14
  196 116.787 0.00000 -2.12825e-13
  197 116.787 0.00000 -1.93244e-15
  198 116.787 0.00000 -8.78583e-14
  199 116.787 0.00000 -5.26846e-14
  200 116.787 0.00000 -9.36556e-14
  201 116.787 0.00000 -2.71581e-14
  202 116.787 0.00000 -9.29671e-15
  203 116.787 0.00000 1.32598e-14
  204 116.787 0.00000 5.94067e-15
  205 116.787 0.00000 3.41945e-14
  206 116.787 0.00000 -1.14060e-13
  207 116.787 0.00000 -6.41928e-14
  208 116.787 0.00000 -7.11645e-14
  209 116.787 0.00000 -8.93870e-14
  210 116.787 0.00000 -2.70871e-14
  211 116.787 0.00000 5.69117e-16
  212 116.787 0.00000 -1.08977e-15
  213 116.787 0.00000 -2.29374e-14
  214 116.787 0.00000 9.24379e-14
  215 116.787 0.00000 -3.94498e-14
  216 116.787 0.00000 8.11303e-16
  217 116.787 0.00000 -1.27249e-13
  218 116.787 0.00000 -4.34459e-14
  219 116.787 0.00000 6.36447e-14
  220 116.787 0.00000 -2.92417e-14
  221 116.787 0.00000 -5.22142e-14
  222 116.787 0.00000 -1.53953e-13
  223 116.787 0.00000 -4.01909e-14
  224 116.787 0.00000 -2.83536e-14
  225 116.787 0.00000 -8.89944e-14
  226 116.787 0.00000 2.27477e-14
  227 116.787 0.00000 -1.50240e-14
  228 116.787 0.00000 -1.68268e-13
  229 116.787 0.00000 8.43642e-15
  230 116.787 0.00000 -1.15418e-13
  231 116.787 0.00000 -1.23054e-13
  232 116.787 0.00000 -4.12628e-14
  233 116.787 0.00000 -7.48976e-14
  234 116.787 0.00000 9.77138e-14
  235 116.787 0.00000 1.80682e-13
  236 116.787 0.00000 -1.11440e-15
  237 116.787 0.00000 -3.00228e-14
  238 116.787 0.00000 -1.45238e-13
  239 116.787 0.00000 -4.53067e-14
  240 116.787 0.00000 -1.01517e-13
  241 116.787 0.00000 1.83512e-14
</Section>

newXOutput 8

<Section columns = "stress_xx | stress_yy | stress_xy">
  1 136.283 0.00000 5.19093e-15
  2 136.283 0.00000 4.10572e-14
  3 136.283 0.00000 -4.34416e-13
  4 136.283 0.00000 -1.03994e-14
  5 136.283 0.00000 -2.08297e-15
  6 136.283 0.00000 -8.22866e-16
  7 136.283 0.00000 -9.10886e-15
  8 136.283 0.00000 -2.27229e-14
  9 136.283 0.00000 -2.63795e-14
  10 136.283 0.00000 3.24903e-14
  11 136.283 0.00000 1.89613e-14
  12 136.283 0.00000 -1.09238e-13
  13 136.283 0.00000 -1.78960e-13
  14 136.283 0.00000 -9.95619e-14
  15 136.283 0.00000 8.95188e-14
  16 136.283 0.00000 1.00919e-13
  17 136.283 0.00000 -1.46208e-13
  18 136.283 0.00000 -7.66822e-14
  19 136.283 0.00000 -1.31112e-13
  20 136.283 0.00000 -6.97342e-14
  21 136.283 0.00000 1.20874e-13
  22 136.283 0.00000 5.53386e-13
  23 136.283 0.00000 3.04378e-13
  24 136.283 0.00000 6.37266e-15
  25 136.283 0.00000 6.29965e-14
  26 136.283 0.00000 7.13054e-15
  27 136.283 0.00000 1.28239e-13
  28 136.283 0.00000 -1.20417e-14
  29 136.283 0.00000 2.36237e-14
  30 136.283 0.00000 4.03063e-14
  31 136.283 0.00000 -4.30747e-13
  32 136.283 0.00000 -1.09605e-13
  33 136.283 0.00000 1.40650e-13
  34 136.283 0.00000 4.14850e-13
  35 136.283 0.00000 1.18636e-13
  36 136.283 0.00000 8.16154e-14
  37 136.283 0.00000 2.42664e-14
  38 136.283 0.00000 -5.96706e-14
  39 136.283 0.00000 -2.62849e-13
  40 136.283 0.00000 -2.62164e-13
  41 136.283 0.00000 -7.80268e-14
  42 136.283 0.00000 8.89634e-14
  43 136.283 0.00000 3.76818e-14
  44 136.283 0.00000 -2.70696e-14
  45 136.283 0.00000 1.10351e-14
  46 136.283 0.00000 7.22782e-15
  47 136.283 0.00000 3.84344e-14
  48 136.283 0.00000 1.03342e-14
  49 136.283 0.00000 -1.76672e-14
  50 136.283 0.00000 -1.86745e-15
  51 136.283 0.00000 -1.31243e-14
  52 136.283 0.00000 -9.11110e-15
  53 136.283 0.00000 3.30388e-15
  54 136.283 0.00000 8.29567e-15
  55 136.283 0.00000 0.00000
  56 136.283 0.00000 7.83538e-15
  57 136.283 0.00000 1.25984e-14
  58 136.283 0.00000 -2.29179e-15
  59 136.283 0.00000 -3.65329e-14
  60 136.283 0.00000 2.58933e-14
  61 136.283 0.00000 8.44975e-14
  62 136.283 0.00000 -3.81831e-14
  63 136.283 0.00000 1.94787e-14
  64 136.283 0.00000 2.86853e-13
  65 136.283 0.00000 2.14073e-15
  66 136.283 0.00000 -2.28713e-15
  67 136.283 0.00000 -3.84388e-14
  68 136.283 0.00000 -6.37339e-15
  69 136.283 0.00000 -1.14659e-14
  70 136.283 0.00000 3.42424e-14
  71 136.283 0.00000 -3.18831e-15
  72 136.283 0.00000 -4.73847e-14
  73 136.283 0.00000 2.66460e-14
  74 136.283 0.00000 -4.16342e-14
  75 136.283 0.00000 -1.22988e-13
  76 136.283 0.00000 -2.75909e-13
  77 136.283 0.00000 2.79449e-15
  78 136.283 0.00000 -2.30178e-13
  79 136.283 0.00000 6.34199e-14
  80 136.283 0.00000 -1.84511e-13
  81 136.283 0.00000 2.42308e-14
  82 136.283 0.00000 6.52247e-14
  83 136.283 0.00000 6.22058e-15
  84 136.283 0.00000 -1.01895e-14
  85 136.283 0.00000 -1.68618e-13
  86 136.283 0.00000 -7.99402e-14
  87 136.283 0.00000 -8.23194e-16
  88 136.283 0.00000 -9.08763e-16
  89 136.283 0.00000 1.04307e-14
  90 136.283 0.00000 -1.07518e-13
  91 136.283 0.00000 -3.87091e-15
  92 136.283 0.00000 -2.50358e-15
  93 136.283 0.00000 -1.36821e-13
  94 136.283 0.00000 8.63732e-14
  95 136.283 0.00000 4.37179e-15
  96 136.283 0.00000 -1.13587e-13
  97 136.283 0.00000 2.95049e-13
  98 136.283 0.00000 -1.90224e-14
  99 136.283 0.00000 6.54378e-14
  100 136.283 0.00000 -2.29600e-15
  101 136.283 0.00000 -1.38712e-13
  102 136.283 0.00000 -1.51262e-13
  103 136.283 0.00000 -1.53443e-13
  104 136.283 0.00000 3.43892e-14
  105 136.283 0.00000 1.97661e-14
  106 136.283 0.00000 -7.21577e-14
  107 136.283 0.00000 -8.03646e-14
  108 136.283 0.00000 1.45763e-15
  109 136.283 0.00000 1.57451e-14
  110 136.283 0.00000 -8.66202e-15
  111 136.283 0.00000 -1.53035e-13
  112 136.283 0.00000 4.52536e-14
  113 136.283 0.00000 -8.49219e-14
  114 136.283 0.00000 2.54468e-14
  115 136.283 0.00000 7.57381e-14
  116 136.283 0.00000 3.00073e-15
  117 136.283 0.00000 1.48898e-13
  118 136.283 0.00000 1.27007e-14
  119 136.283 0.00000 1.87653e-14
  120 136.283 0.00000 -1.92539e-14
  121 136.283 0.00000 1.63644e-14
  122 136.283 0.00000 5.33388e-14
  123 136.283 0.00000 -2.74753e-14
  124 136.283 0.00000 -1.40334e-13
  125 136.283 0.00000 -9.68211e-14
  126 136.283 0.00000 -1.89289e-14
  127 136.283 0.00000 -8.03858e-14
  128 136.283 0.00000 2.49145e-13
  129 136.283 0.00000 -2.23485e-14
  130 136.283 0.00000 2.14322e-14
  131 136.283 0.00000 -2.08383e-14
  132 136.283 0.00000 5.80734e-15
  133 136.283 0.00000 -2.65283e-14
  134 136.283 0.00000 -3.97681e-15
  135 136.283 0.00000 1.49174e-13
  136 136.283 0.00000 1.44189e-14
  137 136.283 0.00000 -1.14350e-13
  138 136.283 0.00000 -4.13679e-15
  139 136.283 0.00000 9.06227e-15
  140 136.283 0.00000 -5.50040e-14
  141 136.283 0.00000 4.09655e-14
  142 136.283 0.00000 -2.63795e-14
  143 136.283 0.00000 8.04781e-15
  144 136.283 0.00000 9.51367e-14
  145 136.283 0.00000 2.24922e-14
  146 136.283 0.00000 1.39525e-14
  147 136.283 0.00000 -1.64058e-13
  148 136.283 0.00000 3.49646e-15
  149 136.283 0.00000 9.38970e-14
  150 136.283 0.00000 -1.91360e-14
  151 136.283 0.00000 3.75636e-14
  152 136.283 0.00000 7.21247e-14
  153 136.283 0.00000 -8.88472e-14
  154 136.283 0.00000 -1.39948e-13
  155 136.283 0.00000 -5.43081e-14
  156 136.283 0.00000 -2.05941e-15
  157 136.283 0.00000 -5.73554e-18
  158 136.283 0.00000 -1.90074e-14
  159 136.283 0.00000 -2.50085e-15
  160 136.283 0.00000 1.75898e-15
  161 136.283 0.00000 4.61974e-14
  162 136.283 0.00000 7.06468e-14
  163 136.283 0.00000 -7.24057e-14
  164 136.283 0.00000 -1.29012e-13
  165 136.283 0.00000 -5.17654e-15
  166 136.283 0.00000 -1.32963e-16
  167 136.283 0.00000 3.59980e-14
  168 136.283 0.00000 -2.20957e-14
  169 136.283 0.00000 9.45977e-15
  170 136.283 0.00000 -2.52839e-13
  171 136.283 0.00000 -1.15088e-13
  172 136.283 0.00000 8.23964e-15
  173 136.283 0.00000 -2.96400e-14
  174 136.283 0.00000 6.73254e-14
  175 136.283 0.00000 -1.57336e-15
  176 136.283 0.00000 5.47167e-15
  177 136.283 0.00000 -1.60868e-13
  178 136.283 0.00000 2.70366e-14
  179 136.283 0.00000 -2.15358e-14
  180 136.283 0.00000 5.62448e-15
  181 136.283 0.00000 1.09395e-13
  182 136.283 0.00000 2.99414e-14
  183 136.283 0.00000 -3.84197e-14
  184 136.283 0.00000 2.68592e-14
  185 136.283 0.00000 1.36117e-15
  186 136.283 0.00000 5.76636e-15
  187 136.283 0.00000 -6.85817e-14
  188 136.283 0.00000 4.08492e-14
  189 136.283 0.00000 1.72024e-16
  190 136.283 0.00000 -2.46012e-14
  191 136.283 0.00000 5.39706e-14
  192 136.283 0.00000 -4.74599e-14
  193 136.283 0.00000 5.30817e-14
  194 136.283 0.00000 1.14161e-13
  195 136.283 0.00000 -6.78177e-15
  196 136.283 0.00000 -5.77531e-14
  197 136.283 0.00000 5.86172e-15
  198 136.283 0.00000 2.05731e-13
  199 136.283 0.00000 1.93075e-14
  200 136.283 0.00000 -3.37965e-14
  201 136.283 0.00000 6.57431e-14
  202 136.283 0.00000 8.29763e-14
  203 136.283 0.00000 -7.42992e-14
  204 136.283 0.00000 -8.03530e-14
  205 136.283 0.00000 1.76718e-14
  206 136.283 0.00000 2.15034e-13
  207 136.283 0.00000 4.32349e-15
  208 136.283 0.00000 4.96193e-14
  209 136.283 0.00000 7.68261e-14
  210 136.283 0.00000 -1.19515e-14
  211 136.283 0.00000 9.00216e-15
  212 136.283 0.00000 2.22266e-13
  213 136.283 0.00000 -4.19824e-15
  214 136.283 0.00000 5.33618e-14
  215 136.283 0.00000 -1.54791e-13
  216 136.283 0.00000 -1.65058e-13
  217 136.283 0.00000 1.90583e-13
  218 136.283 0.00000 -2.15864e-14
  219 136.283 0.00000 -1.82212e-13
  220 136.283 0.00000 1.49979e-14
  221 136.283 0.00000 -8.34864e-14
  222 136.283 0.00000 6.16972e-14
  223 136.283 0.00000 -2.35887e-14
  224 136.283 0.00000 -2.89442e-14
  225 136.283 0.00000 2.42791e-13
  226 136.283 0.00000 -2.15493e-15
  227 136.283 0.00000 -1.46787e-14
  228 136.283 0.00000 -8.63696e-14
  229 136.283 0.00000 -2.05203e-15
  230 136.283 0.00000 3.13023e-14
  231 136.283 0.00000 6.37798e-14
  232 136.283 0.00000 1.10986e-14
  233 136.283 0.00000 9.94468e-14
  234 136.283 0.00000 -1.08719e-13
  235 136.283 0.00000 -7.81653e-14
  236 136.283 0.00000 7.35110e-15
  237 136.283 0.00000 4.67818e-14
  238 136.283 0.00000 9.80826e-14
  239 136.283 0.00000 2.54324e-14
  240 136.283 0.00000 -1.57844e-13
  241 136.283 0.00000 4.36424e-14
</Section>

newXOutput 9

<Section columns = "stress_xx | stress_yy | stress_xy">
  1 155.786 0.00000 5.05467e-15
  2 155.786 0.00000 -1.88149e-13
  3 155.786 0.00000 -5.78754e-13
  4 155.786 0.00000 -1.04949e-14
  5 155.786 0.00000 9.75105e-15
  6 155.786 0.00000 9.03446e-15
  7 155.786 0.00000 -1.25278e-14
  8 155.786 0.00000 -3.13508e-15
  9 155.786 0.00000 1.04336e-14
  10 155.786 0.00000 -5.91118e-14
  11 155.786 0.00000 -1.00534e-13
  12 155.786 0.00000 -3.10786e-14
  13 155.786 0.00000 -1.44135e-13
  14 155.786 0.00000 -1.22007e-13
  15 155.786 0.00000 -1.58224e-13
  16 155.786 0.00000 -7.88826e-14
  17 155.786 0.00000 1.62824e-13
  18 155.786 0.00000 1.63183e-13
  19 155.786 0.00000 1.57608e-13
  20 155.786 0.00000 -4.83414e-14
  21 155.786 0.00000 -1.71982e-13
  22 155.786 0.00000 2.12241e-13
  23 155.786 0.00000 -4.25871e-14
  24 155.786 0.00000 5.57510e-15
  25 155.786 0.00000 -2.10248e-14
  26 155.786 0.00000 -1.57090e-13
  27 155.786 0.00000 2.30958e-14
  28 155.786 0.00000 -5.08302e-14
  29 155.786 0.00000 -6.04464e-14
  30 155.786 0.00000 -1.35905e-13
  31 155.786 0.00000 -4.13877e-13
  32 155.786 0.00000 -1.43017e-13
  33 155.786 0.00000 4.75553e-14
  34 155.786 0.00000 -1.14126e-16
  35 155.786 0.00000 8.49968e-14
  36 155.786 0.00000 6.70708e-14
  37 155.786 0.00000 4.91767e-15
  38 155.786 0.00000 -1.27549e-13
  39 155.786 0.00000 -1.68042e-13
  40 155.786 0.00000 -1.78301e-13
  41 155.786 0.00000 -1.14247e-13
  42 155.786 0.00000 5.00494e-14
  43 155.786 0.00000 -3.31562e-14
  44 155.786 0.00000 8.96859e-15
  45 155.786 0.00000 3.65499e-14
  46 155.786 0.00000 6.34589e-14
  47 155.786 0.00000 6.00794e-14
  48 155.786 0.00000 1.77920e-14
  49 155.786 0.00000 -6.75609e-15
  50 155.786 0.00000 6.74495e-16
  51 155.786 0.00000 -7.88432e-15
  52 155.786 0.00000 -1.51153e-14
  53 155.786 0.00000 -9.02907e-15
  54 155.786 0.00000 -2.96401e-15
  55 155.786 0.00000 -1.05124e-14
  56 155.786 0.00000 -6.22182e-15
  57 155.786 0.00000 -2.23658e-14
  58 155.786 0.00000 -1.66987e-13
  59 155.786 0.00000 4.84975e-14
  60 155.786 0.00000 -3.68774e-14
  61 155.786 0.00000 2.83041e-14
  62 155.786 0.00000 -1.75547e-14
  63 155.786 0.00000 -9.69980e-15
  64 155.786 0.00000 -3.30851e-14
  65 155.786 0.00000 -2.14539e-14
  66 155.786 0.00000 -2.55521e-14
  67 155.786 0.00000 -6.05109e-14
  68 155.786 0.00000 -7.06767e-14
  69 155.786 0.00000 -8.92759e-14
  70 155.786 0.00000 2.87266e-14
  71 155.786 0.00000 -1.40981e-14
  72 155.786 0.00000 -5.82656e-14
  73 155.786 0.00000 -3.74138e-15
  74 155.786 0.00000 -2.33861e-15
  75 155.786 0.00000 -3.93447e-14
  76 155.786 0.00000 -3.19405e-13
  77 155.786 0.00000 -2.45052e-15
  78 155.786 0.00000 -7.62742e-14
  79 155.786 0.00000 6.79947e-15
  80 155.786 0.00000 -2.56030e-14
  81 155.786 0.00000 -1.32192e-13
  82 155.786 0.00000 -9.80330e-14
  83 155.786 0.00000 -1.16310e-14
  84 155.786 0.00000 -8.66270e-15
  85 155.786 0.00000 -4.93661e-14
  86 155.786 0.00000 -5.56632e-14
  87 155.786 0.00000 9.75592e-15
  88 155.786 0.00000 -1.91810e-13
  89 155.786 0.00000 1.56913e-14
  90 155.786 0.00000 -6.43008e-14
  91 155.786 0.00000 -1.59143e-14
  92 155.786 0.00000 -3.86426e-14
  93 155.786 0.00000 -2.44271e-13
  94 155.786 0.00000 -4.55194e-14
  95 155.786 0.00000 -6.87390e-15
  96 155.786 0.00000 -1.39767e-13
  97 155.786 0.00000 3.25649e-14
  98 155.786 0.00000 -2.91209e-14
  99 155.786 0.00000 2.75763e-14
  100 155.786 0.00000 7.01582e-15
  101 155.786 0.00000 -9.36605e-14
  102 155.786 0.00000 -2.15872e-13
  103 155.786 0.00000 -2.76088e-13
  104 155.786 0.00000 4.52531e-15
  105 155.786 0.00000 -5.27381e-14
  106 155.786 0.00000 -5.79070e-14
  107 155.786 0.00000 -2.15784e-13
  108 155.786 0.00000 -1.23048e-14
  109 155.786 0.00000 -1.12648e-14
  110 155.786 0.00000 -4.95277e-14
  111 155.786 0.00000 -9.72580e-14
  112 155.786 0.00000 1.01179e-13
  113 155.786 0.00000 -9.28689e-14
  114 155.786 0.00000 5.11151e-15
  115 155.786 0.00000 1.22301e-13
  116 155.786 0.00000 1.04114e-14
  117 155.786 0.00000 -1.20256e-13
  118 155.786 0.00000 1.25462e-14
  119 155.786 0.00000 -2.23615e-14
  120 155.786 0.00000 1.09055e-13
  121 155.786 0.00000 -6.68158e-15
  122 155.786 0.00000 4.96503e-14
  123 155.786 0.00000 -1.45690e-13
  124 155.786 0.00000 -2.43414e-13
  125 155.786 0.00000 -1.00122e-14
  126 155.786 0.00000 1.36061e-14
  127 155.786 0.00000 -1.64188e-13
  128 155.786 0.00000 3.38671e-14
  129 155.786 0.00000 2.87032e-14
  130 155.786 0.00000 6.30177e-14
  131 155.786 0.00000 -4.81414e-14
  132 155.786 0.00000 -7.70875e-14
  133 155.786 0.00000 -2.17496e-14
  134 155.786 0.00000 -2.33451e-14
  135 155.786 0.00000 8.70354e-15
  136 155.786 0.00000 1.17685e-14
  137 155.786 0.00000 -1.50555e-13
  138 155.786 0.00000 -2.82463e-14
  139 155.786 0.00000 4.38796e-16
  140 155.786 0.00000 -1.94081e-13
  141 155.786 0.00000 1.96333e-14
  142 155.786 0.00000 1.79596e-14
  143 155.786 0.00000 -8.09813e-15
  144 155.786 0.00000 1.56808e-14
  145 155.786 0.00000 -1.51821e-13
  146 155.786 0.00000 -1.33011e-14
  147 155.786 0.00000 -1.29795e-13
  148 155.786 0.00000 -5.97280e-15
  149 155.786 0.00000 2.50898e-15
  150 155.786 0.00000 4.24518e-14
  151 155.786 0.00000 2.26336e-14
  152 155.786 0.00000 -1.03494e-13
  153 155.786 0.00000 -8.12115e-14
  154 155.786 0.00000 -1.78937e-14
  155 155.786 0.00000 -5.66133e-14
  156 155.786 0.00000 -1.68319e-13
  157 155.786 0.00000 -2.64947e-14
  158 155.786 0.00000 -2.68579e-14
  159 155.786 0.00000 -2.27909e-13
  160 155.786 0.00000 -4.26382e-15
  161 155.786 0.00000 -1.10572e-13
  162 155.786 0.00000 -1.75323e-14
  163 155.786 0.00000 1.82185e-14
  164 155.786 0.00000 1.03517e-13
  165 155.786 0.00000 -2.45433e-14
  166 155.786 0.00000 -1.46434e-15
  167 155.786 0.00000 1.17071e-14
  168 155.786 0.00000 -7.79898e-14
  169 155.786 0.00000 -1.20994e-14
  170 155.786 0.00000 -1.88740e-14
  171 155.786 0.00000 -5.66551e-14
  172 155.786 0.00000 -9.81948e-14
  173 155.786 0.00000 1.01630e-14
  174 155.786 0.00000 7.21974e-16
  175 155.786 0.00000 5.98105e-16
  176 155.786 0.00000 -1.73953e-15
  177 155.786 0.00000 -3.17733e-13
  178 155.786 0.00000 -2.39752e-14
  179 155.786 0.00000 -9.12902e-15
  180 155.786 0.00000 -6.52073e-15
  181 155.786 0.00000 -2.03153e-13
  182 155.786 0.00000 -9.13072e-14
  183 155.786 0.00000 5.58811e-15
  184 155.786 0.00000 1.42337e-13
  185 155.786 0.00000 -2.25519e-14
  186 155.786 0.00000 -5.37918e-14
  187 155.786 0.00000 -1.84194e-13
  188 155.786 0.00000 1.01593e-13
  189 155.786 0.00000 5.00004e-17
  190 155.786 0.00000 -7.58290e-15
  191 155.786 0.00000 -2.26329e-15
  192 155.786 0.00000 -1.67452e-14
  193 155.786 0.00000 1.22212e-13
  194 155.786 0.00000 7.64068e-15
  195 155.786 0.00000 -1.17790e-14
  196 155.786 0.00000 -1.06602e-13
  197 155.786 0.00000 5.82143e-15
  198 155.786 0.00000 -2.98246e-14
  199 155.786 0.00000 -7.19324e-15
  200 155.786 0.00000 -1.64672e-13
  201 155.786 0.00000 4.37831e-14
  202 155.786 0.00000 -5.42518e-14
  203 155.786 0.00000 -6.22128e-14
  204 155.786 0.00000 -9.43124e-14
  205 155.786 0.00000 6.89320e-15
  206 155.786 0.00000 1.93523e-14
  207 155.786 0.00000 3.32296e-14
  208 155.786 0.00000 -3.33286e-14
  209 155.786 0.00000 -6.43340e-14
  210 155.786 0.00000 -1.08992e-14
  211 155.786 0.00000 2.26464e-14
  212 155.786 0.00000 6.93885e-14
  213 155.786 0.00000 7.80309e-15
  214 155.786 0.00000 1.85925e-14
  215 155.786 0.00000 -2.88444e-13
  216 155.786 0.00000 -1.57423e-14
  217 155.786 0.00000 -1.15179e-13
  218 155.786 0.00000 -1.41686e-14
  219 155.786 0.00000 -6.67023e-14
  220 155.786 0.00000 -6.88555e-15
  221 155.786 0.00000 -1.17906e-13
  222 155.786 0.00000 -7.05979e-14
  223 155.786 0.00000 -6.37399e-14
  224 155.786 0.00000 -2.32520e-14
  225 155.786 0.00000 6.30036e-14
  226 155.786 0.00000 -9.42785e-15
  227 155.786 0.00000 -9.17938e-14
  228 155.786 0.00000 1.72531e-13
  229 155.786 0.00000 -1.42490e-14
  230 155.786 0.00000 -1.18578e-13
  231 155.786 0.00000 -6.66819e-14
  232 155.786 0.00000 -2.08252e-14
  233 155.786 0.00000 -1.00274e-13
  234 155.786 0.00000 -9.50341e-14
  235 155.786 0.00000 -4.04593e-14
  236 155.786 0.00000 1.14562e-14
  237 155.786 0.00000 -2.62862e-14
  238 155.786 0.00000 7.58819e-14
  239 155.786 0.00000 -2.24855e-13
  240 155.786 0.00000 -3.67032e-14
  241 155.786 0.00000 -2.89683e-14
</Section>

newXOutput 10

<Section columns = "stress_xx | stress_yy | stress_xy">
  1 175.296 0.00000 5.03595e-15
  2 175.296 0.00000 -2.10509e-14
  3 175.296 0.00000 -1.96658e-13
  4 175.296 0.00000 -8.78278e-15
  5 175.296 0.00000 6.41226e-15
  6 175.296 0.00000 -3.24834e-14
  7 175.296 0.00000 -2.04086e-15
  8 175.296 0.00000 -1.00405e-14
  9 175.296 0.00000 -3.42663e-15
  10 175.296 0.00000 9.38029e-14
  11 175.296 0.00000 8.04745e-14
  12 175.296 0.00000 -5.81513e-14
  13 175.296 0.00000 -2.86568e-14
  14 175.296 0.00000 -1.56464e-14
  15 175.296 0.00000 -8.46098e-15
  16 175.296 0.00000 1.48402e-14
  17 175.296 0.00000 -1.90352e-14
  18 175.296 0.00000 5.65388e-14
  19 175.296 0.00000 1.27111e-13
  20 175.296 0.00000 2.65838e-13
  21 175.296 0.00000 2.50822e-14
  22 175.296 0.00000 -9.62217e-14
  23 175.296 0.00000 -7.03711e-14
  24 175.296 0.00000 6.85570e-14
  25 175.296 0.00000 0.00000
  26 175.296 0.00000 7.23092e-14
  27 175.296 0.00000 -5.10146e-14
  28 175.296 0.00000 1.15069e-13
  29 175.296 0.00000 8.94662e-14
  30 175.296 0.00000 1.12541e-14
  31 175.296 0.00000 7.43077e-14
  32 175.296 0.00000 2.73136e-13
  33 175.296 0.00000 5.97426e-14
  34 175.296 0.00000 1.50063e-13
  35 175.296 0.00000 1.04118e-13
  36 175.296 0.00000 -1.06359e-13
  37 175.296 0.00000 -1.40421e-13
  38 175.296 0.00000 3.49098e-15
  39 175.296 0.00000 6.79579e-14
  40 175.296 0.00000 2.44391e-13
  41 175.296 0.00000 2.03838e-13
  42 175.296 0.00000 8.15781e-14
  43 175.296 0.00000 -6.54231e-15
  44 175.296 0.00000 -2.17714e-14
  45 175.296 0.00000 2.48087e-14
  46 175.296 0.00000 -1.73300e-14
  47 175.296 0.00000 -2.58163e-14
  48 175.296 0.00000 -3.55166e-15
  49 175.296 0.00000 -9.89799e-15
  50 175.296 0.00000 3.35730e-15
  51 175.296 0.00000 0.00000
  52 175.296 0.00000 -1.19923e-14
  53 175.296 0.00000 -1.42859e-14
  54 175.296 0.00000 -3.77937e-16
  55 175.296 0.00000 0.00000
  56 175.296 0.00000 4.33521e-15
  57 175.296 0.00000 -4.80999e-14
  58 175.296 0.00000 3.12126e-14
  59 175.296 0.00000 -5.81480e-15
  60 175.296 0.00000 -5.07718e-15
  61 175.296 0.00000 -4.35804e-14
  62 175.296 0.00000 -4.29100e-14
  63 175.296 0.00000 6.68299e-14
  64 175.296 0.00000 5.90694e-14
  65 175.296 0.00000 -4.01148e-14
  66 175.296 0.00000 -1.81140e-14
  67 175.296 0.00000 -3.41301e-14
  68 175.296 0.00000 -6.21897e-14
  69 175.296 0.00000 -9.49013e-14
  70 175.296 0.00000 7.89706e-14
  71 175.296 0.00000 -4.37040e-14
  72 175.296 0.00000 -6.83641e-14
  73 175.296 0.00000 -1.32317e-14
  74 175.296 0.00000 -3.21965e-14
  75 175.296 0.00000 6.81221e-15
  76 175.296 0.00000 8.55137e-14
  77 175.296 0.00000 -1.49158e-14
  78 175.296 0.00000 -4.70339e-14
  79 175.296 0.00000 -5.88192e-14
  80 175.296 0.00000 -4.77975e-14
  81 175.296 0.00000 9.00000e-14
  82 175.296 0.00000 -1.03823e-14
  83 175.296 0.00000 -5.17367e-14
  84 175.296 0.00000 -2.49468e-14
  85 175.296 0.00000 -9.21085e-14
  86 175.296 0.00000 7.47268e-14
  87 175.296 0.00000 -2.64436e-15
  88 175.296 0.00000 -7.68878e-14
  89 175.296 0.00000 6.30958e-15
  90 175.296 0.00000 -5.20997e-14
  91 175.296 0.00000 5.49179e-14
  92 175.296 0.00000 -5.73704e-15
  93 175.296 0.00000 1.66347e-14
  94 175.296 0.00000 -1.03202e-13
  95 175.296 0.00000 8.21075e-14
  96 175.296 0.00000 -1.18765e-14
  97 175.296 0.00000 -1.40172e-13
  98 175.296 0.00000 4.38755e-15
  99 175.296 0.00000 -7.13435e-14
  100 175.296 0.00000 -1.36340e-14
  101 175.296 0.00000 -1.10275e-13
  102 175.296 0.00000 -5.20177e-14
  103 175.296 0.00000 -1.25867e-13
  104 175.296 0.00000 -2.15460e-14
  105 175.296 0.00000 -1.71196e-13
  106 175.296 0.00000 -2.51586e-14
  107 175.296 0.00000 7.45197e-14
  108 175.296 0.00000 -1.92486e-14
  109 175.296 0.00000 5.55939e-15
  110 175.296 0.00000 1.00475e-13
  111 175.296 0.00000 7.92666e-15
  112 175.296 0.00000 7.87823e-14
  113 175.296 0.00000 -3.10697e-14
  114 175.296 0.00000 -6.45317e-14
  115 175.296 0.00000 -2.93885e-14
  116 175.296 0.00000 -6.14521e-15
  117 175.296 0.00000 5.00856e-14
  118 175.296 0.00000 -4.65588e-14
  119 175.296 0.00000 -6.51401e-14
  120 175.296 0.00000 -4.92801e-14
  121 175.296 0.00000 -2.03220e-14
  122 175.296 0.00000 4.79482e-14
  123 175.296 0.00000 -8.01268e-14
  124 175.296 0.00000 3.91138e-14
  125 175.296 0.00000 -2.62749e-14
  126 175.296 0.00000 -6.81169e-15
  127 175.296 0.00000 1.61384e-14
  128 175.296 0.00000 -3.01259e-14
  129 175.296 0.00000 1.10906e-14
  130 175.296 0.00000 6.07747e-14
  131 175.296 0.00000 1.27719e-14
  132 175.296 0.00000 -6.96180e-14
  133 175.296 0.00000 -6.64892e-14
  134 175.296 0.00000 -3.66568e-14
  135 175.296 0.00000 7.37294e-14
  136 175.296 0.00000 -4.70197e-15
  137 175.296 0.00000 -1.07361e-13
  138 175.296 0.00000 -4.35930e-14
  139 175.296 0.00000 6.60706e-15
  140 175.296 0.00000 2.50732e-14
  141 175.296 0.00000 -8.03541e-14
  142 175.296 0.00000 2.97023e-14
  143 175.296 0.00000 -4.74482e-14
  144 175.296 0.00000 5.37579e-14
  145 175.296 0.00000 7.22621e-14
  146 175.296 0.00000 3.00035e-14
  147 175.296 0.00000 -2.88772e-15
  148 175.296 0.00000 -4.16357e-15
  149 175.296 0.00000 3.76991e-15
  150 175.296 0.00000 -4.96419e-14
  151 175.296 0.00000 -4.67283e-14
  152 175.296 0.00000 1.07104e-13
  153 175.296 0.00000 1.28599e-14
  154 175.296 0.00000 -1.68700e-14
  155 175.296 0.00000 3.23012e-14
  156 175.296 0.00000 6.90808e-14
  157 175.296 0.00000 -1.84344e-14
  158 175.296 0.00000 5.70781e-14
  159 175.296 0.00000 -1.96454e-14
  160 175.296 0.00000 -2.03611e-14
  161 175.296 0.00000 5.46472e-14
  162 175.296 0.00000 -3.38754e-14
  163 175.296 0.00000 2.19280e-15
  164 175.296 0.00000 3.78989e-14
  165 175.296 0.00000 -2.29303e-14
  166 175.296 0.00000 3.75705e-15
  167 175.296 0.00000 -1.58185e-14
  168 175.296 0.00000 6.60963e-14
  169 175.296 0.00000 4.43328e-15
  170 175.296 0.00000 4.23077e-14
  171 175.296 0.00000 -2.54984e-14
  172 175.296 0.00000 1.89045e-14
  173 175.296 0.00000 1.24199e-15
  174 175.296 0.00000 2.00430e-14
  175 175.296 0.00000 6.18335e-15
  176 175.296 0.00000 1.22395e-14
  177 175.296 0.00000 -5.19962e-14
  178 175.296 0.00000 -4.25773e-14
  179 175.296 0.00000 -6.46297e-16
  180 175.296 0.00000 -8.71003e-15
  181 175.296 0.00000 8.13092e-14
  182 175.296 0.00000 -5.71208e-14
  183 175.296 0.00000 2.65139e-14
  184 175.296 0.00000 2.05598e-15
  185 175.296 0.00000 -3.06709e-14
  186 175.296 0.00000 4.42162e-16
  187 175.296 0.00000 4.22644e-14
  188 175.296 0.00000 -3.83879e-14
  189 175.296 0.00000 -4.69979e-14
  190 175.296 0.00000 1.06478e-14
  191 175.296 0.00000 -3.24550e-14
  192 175.296 0.00000 9.20269e-15
  193 175.296 0.00000 3.82832e-14
  194 175.296 0.00000 6.90609e-14
  195 175.296 0.00000 -3.08673e-14
  196 175.296 0.00000 2.65249e-14
  197 175.296 0.00000 6.78546e-15
  198 175.296 0.00000 -2.05879e-14
  199 175.296 0.00000 -4.60307e-14
  200 175.296 0.00000 -7.06089e-14
  201 175.296 0.00000 8.55118e-14
  202 175.296 0.00000 -3.42406e-15
  203 175.296 0.00000 -3.54974e-14
  204 175.296 0.00000 -1.18651e-13
  205 175.296 0.00000 -1.45347e-14
  206 175.296 0.00000 1.76499e-15
  207 175.296 0.00000 -1.00420e-14
  208 175.296 0.00000 1.09720e-13
  209 175.296 0.00000 1.50159e-13
  210 175.296 0.00000 -1.76373e-14
  211 175.296 0.00000 3.15830e-16
  212 175.296 0.00000 1.16630e-14
  213 175.296 0.00000 2.62775e-15
  214 175.296 0.00000 5.72310e-14
  215 175.296 0.00000 -1.07980e-13
  216 175.296 0.00000 -2.89908e-14
  217 175.296 0.00000 -9.49525e-14
  218 175.296 0.00000 -3.07581e-14
  219 175.296 0.00000 -9.77902e-14
  220 175.296 0.00000 3.21712e-15
  221 175.296 0.00000 -7.99840e-14
  222 175.296 0.00000 1.52518e-13
  223 175.296 0.00000 2.13815e-14
  224 175.296 0.00000 -3.20714e-14
  225 175.296 0.00000 -6.10395e-14
  226 175.296 0.00000 -2.08204e-14
  227 175.296 0.00000 -1.61425e-13
  228 175.296 0.00000 8.95039e-14
  229 175.296 0.00000 2.42506e-15
  230 175.296 0.00000 8.78427e-14
  231 175.296 0.00000 2.58657e-14
  232 175.296 0.00000 -2.94013e-14
  233 175.296 0.00000 4.55372e-14
  234 175.296 0.00000 -2.20227e-14
  235 175.296 0.00000 -2.23328e-14
  236 175.296 0.00000 -6.07664e-15
  237 175.296 0.00000 1.08497e-14
  238 175.296 0.00000 -4.31411e-14
  239 175.296 0.00000 -4.12261e-14
  240 175.296 0.00000 -9.01673e-14
  241 175.296 0.00000 -4.96635e-14
</Section>

newXOutput 11

<Section columns = "stress_xx | stress_yy | stress_xy">
  1 194.814 0.00000 -1.07064e-14
  2 194.814 0.00000 -8.29636e-14
  3 194.814 0.00000 -1.99462e-13
  4 194.814 0.00000 -1.00301e-14
  5 194.814 0.00000 -7.47362e-15
  6 194.814 0.00000 -1.15464e-14
  7 194.814 0.00000 3.25327e-15
  8 194.814 0.00000 -3.73681e-14
  9 194.814 0.00000 1.04673e-14
  10 194.814 0.00000 1.77170e-14
  11 194.814 0.00000 -1.62912e-14
  12 194.814 0.00000 -9.04158e-15
  13 194.814 0.00000 1.30357e-14
  14 194.814 0.00000 -2.15249e-14
  15 194.814 0.00000 2.91067e-14
  16 194.814 0.00000 1.95822e-13
  17 194.814 0.00000 -1.18113e-14
  18 194.814 0.00000 9.17812e-14
  19 194.814 0.00000 1.42305e-13
  20 194.814 0.00000 3.49490e-13
  21 194.814 0.00000 2.74896e-13
  22 194.814 0.00000 -9.56709e-14
  23 194.814 0.00000 -1.23773e-13
  24 194.814 0.00000 2.72065e-14
  25 194.814 0.00000 -1.05384e-14
  26 194.814 0.00000 8.57582e-15
  27 194.814 0.00000 -7.19772e-14
  28 194.814 0.00000 7.95716e-15
  29 194.814 0.00000 5.26922e-14
  30 194.814 0.00000 6.84999e-14
  31 194.814 0.00000 -1.81364e-13
  32 194.814 0.00000 -1.29347e-13
  33 194.814 0.00000 1.21739e-14
  34 194.814 0.00000 -2.99966e-14
  35 194.814 0.00000 1.01514e-13
  36 194.814 0.00000 3.80897e-15
  37 194.814 0.00000 -1.72325e-13
  38 194.814 0.00000 -8.84470e-14
  39 194.814 0.00000 1.05987e-15
  40 194.814 0.00000 4.31849e-14
  41 194.814 0.00000 5.54837e-14
  42 194.814 0.00000 -1.01962e-14
  43 194.814 0.00000 -5.12480e-14
  44 194.814 0.00000 -4.28459e-14
  45 194.814 0.00000 -7.95274e-15
  46 194.814 0.00000 1.35582e-14
  47 194.814 0.00000 2.24621e-15
  48 194.814 0.00000 -1.11027e-14
  49 194.814 0.00000 -3.03438e-14
  50 194.814 0.00000 5.10123e-15
  51 194.814 0.00000 0.00000
  52 194.814 0.00000 -2.47328e-15
  53 194.814 0.00000 -7.19363e-15
  54 194.814 0.00000 2.17262e-15
  55 194.814 0.00000 -2.10769e-14
  56 194.814 0.00000 -1.41073e-14
  57 194.814 0.00000 4.84500e-17
  58 194.814 0.00000 1.85871e-14
  59 194.814 0.00000 -2.80293e-14
  60 194.814 0.00000 -1.14271e-14
  61 194.814 0.00000 -3.89565e-14
  62 194.814 0.00000 -1.79401e-14
  63 194.814 0.00000 3.35182e-14
  64 194.814 0.00000 7.91579e-14
  65 194.814 0.00000 -4.88195e-15
  66 194.814 0.00000 1.62475e-15
  67 194.814 0.00000 -5.41358e-14
  68 194.814 0.00000 -5.01047e-14
  69 194.814 0.00000 -5.86378e-14
  70 194.814 0.00000 9.67716e-15
  71 194.814 0.00000 -2.95460e-15
  72 194.814 0.00000 -4.04209e-14
  73 194.814 0.00000 1.37068e-13
  74 194.814 0.00000 2.84505e-14
  75 194.814 0.00000 2.09670e-14
  76 194.814 0.00000 8.29049e-14
  77 194.814 0.00000 1.59864e-15
  78 194.814 0.00000 8.38737e-15
  79 194.814 0.00000 2.54529e-15
  80 194.814 0.00000 -4.28258e-14
  81 194.814 0.00000 -1.40744e-14
  82 194.814 0.00000 -1.18062e-14
  83 194.814 0.00000 1.73848e-14
  84 194.814 0.00000 3.25522e-14
  85 194.814 0.00000 -8.42365e-14
  86 194.814 0.00000 1.36272e-13
  87 194.814 0.00000 1.23020e-14
  88 194.814 0.00000 -8.33117e-14
  89 194.814 0.00000 1.30593e-14
  90 194.814 0.00000 -4.78785e-14
  91 194.814 0.00000 7.28475e-14
  92 194.814 0.00000 1.54877e-15
  93 194.814 0.00000 1.85318e-13
  94 194.814 0.00000 6.10760e-15
  95 194.814 0.00000 3.54926e-14
  96 194.814 0.00000 1.73579e-14
  97 194.814 0.00000 -3.07236e-14
  98 194.814 0.00000 3.68579e-14
  99 194.814 0.00000 -1.45596e-15
  100 194.814 0.00000 -8.17102e-15
  101 194.814 0.00000 -6.28742e-14
  102 194.814 0.00000 8.73899e-15
  103 194.814 0.00000 -1.23740e-14
  104 194.814 0.00000 -3.06041e-14
  105 194.814 0.00000 -1.40935e-13
  106 194.814 0.00000 -2.92314e-14
  107 194.814 0.00000 -2.25738e-14
  108 194.814 0.00000 -5.55366e-15
  109 194.814 0.00000 1.23411e-15
  110 194.814 0.00000 -8.88303e-15
  111 194.814 0.00000 -3.78315e-14
  112 194.814 0.00000 4.36213e-14
  113 194.814 0.00000 1.93046e-14
  114 194.814 0.00000 -2.90343e-14
  115 194.814 0.00000 1.58920e-14
  116 194.814 0.00000 5.01051e-14
  117 194.814 0.00000 9.09652e-14
  118 194.814 0.00000 1.05359e-14
  119 194.814 0.00000 -3.56278e-14
  120 194.814 0.00000 -1.03393e-14
  121 194.814 0.00000 -4.39419e-15
  122 194.814 0.00000 -3.02866e-14
  123 194.814 0.00000 -4.81259e-14
  124 194.814 0.00000 4.63903e-15
  125 194.814 0.00000 8.25667e-15
  126 194.814 0.00000 2.18336e-14
  127 194.814 0.00000 -3.14157e-14
  128 194.814 0.00000 3.08820e-14
  129 194.814 0.00000 1.58633e-14
  130 194.814 0.00000 -4.89233e-15
  131 194.814 0.00000 1.08303e-15
  132 194.814 0.00000 -4.56181e-14
  133 194.814 0.00000 -1.42565e-14
  134 194.814 0.00000 -1.49086e-14
  135 194.814 0.00000 3.41113e-14
  136 194.814 0.00000 1.81139e-14
  137 194.814 0.00000 -8.65354e-14
  138 194.814 0.00000 -2.07318e-16
  139 194.814 0.00000 8.40412e-15
  140 194.814 0.00000 1.38872e-13
  141 194.814 0.00000 -3.71721e-14
  142 194.814 0.00000 -1.20300e-14
  143 194.814 0.00000 -4.76294e-15
  144 194.814 0.00000 2.53392e-14
  145 194.814 0.00000 8.21306e-14
  146 194.814 0.00000 1.40434e-14
  147 194.814 0.00000 -3.62428e-14
  148 194.814 0.00000 9.72427e-16
  149 194.814 0.00000 5.22798e-14
  150 194.814 0.00000 -8.02132e-15
  151 194.814 0.00000 -4.38235e-14
  152 194.814 0.00000 4.63537e-14
  153 194.814 0.00000 -4.27049e-14
  154 194.814 0.00000 -5.32254e-15
  155 194.814 0.00000 6.72752e-14
  156 194.814 0.00000 9.24742e-14
  157 194.814 0.00000 -1.43894e-14
  158 194.814 0.00000 -1.38859e-14
  159 194.814 0.00000 -7.60874e-15
  160 194.814 0.00000 -5.63881e-15
  161 194.814 0.00000 -4.65953e-14
  162 194.814 0.00000 3.29404e-14
  163 194.814 0.00000 -4.67332e-14
  164 194.814 0.00000 5.52110e-14
  165 194.814 0.00000 -1.25588e-14
  166 194.814 0.00000 -1.23806e-16
  167 194.814 0.00000 -2.14304e-14
  168 194.814 0.00000 -1.08539e-14
  169 194.814 0.00000 -1.28703e-14
  170 194.814 0.00000 -8.02757e-14
  171 194.814 0.00000 -9.51941e-15
  172 194.814 0.00000 1.86130e-14
  173 194.814 0.00000 -1.96641e-14
  174 194.814 0.00000 5.12158e-14
  175 194.814 0.00000 2.82016e-15
  176 194.814 0.00000 -4.19990e-16
  177 194.814 0.00000 -9.19108e-14
  178 194.814 0.00000 -1.87158e-14
  179 194.814 0.00000 4.32108e-14
  180 194.814 0.00000 2.49149e-14
  181 194.814 0.00000 -2.05783e-14
  182 194.814 0.00000 -7.29976e-14
  183 194.814 0.00000 3.07195e-15
  184 194.814 0.00000 2.77114e-14
  185 194.814 0.00000 -3.73083e-14
  186 194.814 0.00000 5.75188e-15
  187 194.814 0.00000 -9.36710e-14
  188 194.814 0.00000 -5.88715e-14
  189 194.814 0.00000 -1.64002e-14
  190 194.814 0.00000 5.11752e-14
  191 194.814 0.00000 2.48406e-14
  192 194.814 0.00000 -2.83514e-14
  193 194.814 0.00000 2.87605e-14
  194 194.814 0.00000 6.58519e-15
  195 194.814 0.00000 -1.04783e-14
  196 194.814 0.00000 -9.26811e-14
  197 194.814 0.00000 1.58720e-14
  198 194.814 0.00000 1.27581e-13
  199 194.814 0.00000 1.14371e-14
  200 194.814 0.00000 7.67548e-14
  201 194.814 0.00000 1.34951e-14
  202 194.814 0.00000 -5.00715e-14
  203 194.814 0.00000 -3.52477e-14
  204 194.814 0.00000 -2.48448e-14
  205 194.814 0.00000 8.38250e-15
  206 194.814 0.00000 1.29418e-13
  207 194.814 0.00000 2.26454e-14
  208 194.814 0.00000 7.63445e-14
  209 194.814 0.00000 2.13358e-13
  210 194.814 0.00000 1.78629e-14
  211 194.814 0.00000 1.82994e-14
  212 194.814 0.00000 -4.91734e-14
  213 194.814 0.00000 -3.45890e-16
  214 194.814 0.00000 3.50509e-14
  215 194.814 0.00000 -2.50290e-14
  216 194.814 0.00000 -9.51079e-14
  217 194.814 0.00000 7.40731e-14
  218 194.814 0.00000 2.21275e-14
  219 194.814 0.00000 -1.40433e-13
  220 194.814 0.00000 3.36926e-14
  221 194.814 0.00000 -5.82886e-14
  222 194.814 0.00000 1.25580e-13
  223 194.814 0.00000 -4.62438e-14
  224 194.814 0.00000 7.51452e-15
  225 194.814 0.00000 9.01464e-14
  226 194.814 0.00000 -3.51678e-14
  227 194.814 0.00000 -9.26416e-14
  228 194.814 0.00000 1.05299e-13
  229 194.814 0.00000 1.84646e-14
  230 194.814 0.00000 1.72240e-13
  231 194.814 0.00000 1.84743e-14
  232 194.814 0.00000 -1.87889e-14
  233 194.814 0.00000 1.93211e-13
  234 194.814 0.00000 -3.01554e-14
  235 194.814 0.00000 -2.75346e-14
  236 194.814 0.00000 1.42357e-14
  237 194.814 0.00000 -3.49588e-14
  238 194.814 0.00000 3.61381e-15
  239 194.814 0.00000 -2.84821e-14
  240 194.814 0.00000 -6.29853e-15
  241 194.814 0.00000 -3.61770e-14
</Section>

newXOutput 12

<Section columns = "stress_xx | stress_yy | stress_xy">
  1 214.340 0.00000 -2.11029e-14
  2 214.340 0.00000 -2.29175e-13
  3 214.340 0.00000 -8.89712e-14
  4 214.340 0.00000 -9.66606e-15
  5 214.340 0.00000 -2.17190e-14
  6 214.340 0.00000 -2.25815e-14
  7 214.340 0.00000 -3.95176e-14
  8 214.340 0.00000 -5.92316e-14
  9 214.340 0.00000 -3.28194e-14
  10 214.340 0.00000 -4.92862e-15
  11 214.340 0.00000 5.13458e-14
  12 214.340 0.00000 -3.94289e-15
  13 214.340 0.00000 -1.40311e-13
  14 214.340 0.00000 -4.46701e-14
  15 214.340 0.00000 -1.09127e-13
  16 214.340 0.00000 3.56912e-13
  17 214.340 0.00000 2.88541e-13
  18 214.340 0.00000 2.11029e-14
  19 214.340 0.00000 -2.71515e-14
  20 214.340 0.00000 1.02557e-13
  21 214.340 0.00000 -9.65088e-14
  22 214.340 0.00000 -7.13288e-14
  23 214.340 0.00000 -2.09058e-13
  24 214.340 0.00000 -6.33087e-14
  25 214.340 0.00000 -6.33087e-14
  26 214.340 0.00000 1.57474e-14
  27 214.340 0.00000 -7.38602e-14
  28 214.340 0.00000 1.15827e-13
  29 214.340 0.00000 -4.74815e-14
  30 214.340 0.00000 -3.91283e-14
  31 214.340 0.00000 7.33683e-14
  32 214.340 0.00000 -2.28933e-14
  33 214.340 0.00000 3.26130e-15
  34 214.340 0.00000 1.80656e-13
  35 214.340 0.00000 -1.98419e-14
  36 214.340 0.00000 -1.26541e-13
  37 214.340 0.00000 -2.44382e-14
  38 214.340 0.00000 1.25332e-14
  39 214.340 0.00000 -3.67270e-15
  40 214.340 0.00000 2.57746e-13
  41 214.340 0.00000 1.62950e-13
  42 214.340 0.00000 1.31505e-14
  43 214.340 0.00000 -3.22201e-14
  44 214.340 0.00000 -1.89686e-14
  45 214.340 0.00000 2.29384e-14
  46 214.340 0.00000 5.05443e-15
  47 214.340 0.00000 5.07961e-15
  48 214.340 0.00000 3.96687e-15
  49 214.340 0.00000 1.15994e-15
  50 214.340 0.00000 7.66716e-15
  51 214.340 0.00000 1.58272e-14
  52 214.340 0.00000 -3.57456e-15
  53 214.340 0.00000 -1.78938e-14
  54 214.340 0.00000 -2.53287e-15
  55 214.340 0.00000 -2.11029e-14
  56 214.340 0.00000 5.15251e-15
  57 214.340 0.00000 -1.37397e-14
  58 214.340 0.00000 -1.36032e-13
  59 214.340 0.00000 -6.89230e-14
  60 214.340 0.00000 5.36155e-14
  61 214.340 0.00000 1.83333e-14
  62 214.340 0.00000 -2.46237e-14
  63 214.340 0.00000 -3.19070e-13
  64 214.340 0.00000 4.67898e-14
  65 214.340 0.00000 -1.86398e-15
  66 214.340 0.00000 -1.34792e-14
  67 214.340 0.00000 -6.40284e-14
  68 214.340 0.00000 -1.48616e-13
  69 214.340 0.00000 -1.58713e-14
  70 214.340 0.00000 5.38106e-14
  71 214.340 0.00000 2.46694e-15
  72 214.340 0.00000 -3.96924e-14
  73 214.340 0.00000 -5.62133e-15
  74 214.340 0.00000 -2.47473e-14
  75 214.340 0.00000 -2.06359e-14
  76 214.340 0.00000 -1.00888e-13
  77 214.340 0.00000 -6.60029e-15
  78 214.340 0.00000 -2.32912e-13
  79 214.340 0.00000 4.16320e-14
  80 214.340 0.00000 1.07690e-13
  81 214.340 0.00000 -7.47563e-14
  82 214.340 0.00000 -3.65143e-14
  83 214.340 0.00000 -1.14084e-14
  84 214.340 0.00000 -1.71490e-14
  85 214.340 0.00000 -1.39577e-13
  86 214.340 0.00000 2.97445e-14
  87 214.340 0.00000 -1.08277e-14
  88 214.340 0.00000 -1.47234e-13
  89 214.340 0.00000 -5.08842e-15
  90 214.340 0.00000 -7.03375e-14
  91 214.340 0.00000 3.80549e-15
  92 214.340 0.00000 -5.40180e-15
  93 214.340 0.00000 -1.58722e-13
  94 214.340 0.00000 1.22753e-13
  95 214.340 0.00000 -8.35229e-14
  96 214.340 0.00000 -1.45169e-13
  97 214.340 0.00000 6.78653e-14
  98 214.340 0.00000 -3.12125e-14
  99 214.340 0.00000 -1.55740e-13
  100 214.340 0.00000 1.45367e-14
  101 214.340 0.00000 -9.27678e-14
  102 214.340 0.00000 -1.14708e-13
  103 214.340 0.00000 -1.45211e-13
  104 214.340 0.00000 -7.69652e-14
  105 214.340 0.00000 4.07440e-14
  106 214.340 0.00000 2.22593e-14
  107 214.340 0.00000 -1.58804e-14
  108 214.340 0.00000 -5.22814e-15
  109 214.340 0.00000 -6.98617e-15
  110 214.340 0.00000 1.81038e-13
  111 214.340 0.00000 -1.59544e-13
  112 214.340 0.00000 -1.36508e-14
  113 214.340 0.00000 -5.14492e-14
  114 214.340 0.00000 -3.94962e-14
  115 214.340 0.00000 1.79690e-14
  116 214.340 0.00000 -3.25289e-15
  117 214.340 0.00000 -7.27680e-14
  118 214.340 0.00000 1.17776e-14
  119 214.340 0.00000 -2.24773e-13
  120 214.340 0.00000 -1.44844e-13
  121 214.340 0.00000 -9.95029e-15
  122 214.340 0.00000 5.86282e-14
  123 214.340 0.00000 4.94571e-14
  124 214.340 0.00000 -1.66950e-13
  125 214.340 0.00000 3.69757e-14
  126 214.340 0.00000 -2.74771e-14
  127 214.340 0.00000 -1.64436e-13
  128 214.340 0.00000 -1.86750e-14
  129 214.340 0.00000 -1.39293e-14
  130 214.340 0.00000 2.04132e-15
  131 214.340 0.00000 -9.13615e-14
  132 214.340 0.00000 4.47129e-15
  133 214.340 0.00000 4.13897e-14
  134 214.340 0.00000 -2.56587e-14
  135 214.340 0.00000 9.35133e-14
  136 214.340 0.00000 -3.21616e-15
  137 214.340 0.00000 -3.43651e-14
  138 214.340 0.00000 -2.41357e-14
  139 214.340 0.00000 9.99994e-15
  140 214.340 0.00000 -2.00617e-13
  141 214.340 0.00000 3.37293e-14
  142 214.340 0.00000 -6.91334e-14
  143 214.340 0.00000 -3.00103e-14
  144 214.340 0.00000 2.32360e-14
  145 214.340 0.00000 -8.44823e-14
  146 214.340 0.00000 -1.71344e-14
  147 214.340 0.00000 6.75289e-14
  148 214.340 0.00000 -9.30815e-15
  149 214.340 0.00000 2.09433e-14
  150 214.340 0.00000 4.95607e-15
  151 214.340 0.00000 -6.74364e-14
  152 214.340 0.00000 -3.64876e-15
  153 214.340 0.00000 -7.10488e-14
  154 214.340 0.00000 6.70823e-14
  155 214.340 0.00000 1.30731e-14
  156 214.340 0.00000 -6.57426e-14
  157 214.340 0.00000 -1.23937e-14
  158 214.340 0.00000 -5.35666e-14
  159 214.340 0.00000 -1.55261e-13
  160 214.340 0.00000 -6.99624e-15
  161 214.340 0.00000 -2.38046e-14
  162 214.340 0.00000 2.51828e-14
  163 214.340 0.00000 6.25833e-14
  164 214.340 0.00000 -1.82419e-15
  165 214.340 0.00000 2.60334e-16
  166 214.340 0.00000 3.24031e-15
  167 214.340 0.00000 -7.86678e-14
  168 214.340 0.00000 2.90681e-14
  169 214.340 0.00000 -4.82510e-15
  170 214.340 0.00000 3.34891e-14
  171 214.340 0.00000 -3.64365e-15
  172 214.340 0.00000 -6.28552e-14
  173 214.340 0.00000 -2.18838e-14
  174 214.340 0.00000 -1.04221e-13
  175 214.340 0.00000 -3.52094e-16
  176 214.340 0.00000 4.17230e-16
  177 214.340 0.00000 -9.00549e-14
  178 214.340 0.00000 -1.44943e-14
  179 214.340 0.00000 -2.04309e-14
  180 214.340 0.00000 5.87571e-15
  181 214.340 0.00000 -1.35668e-13
  182 214.340 0.00000 -3.06053e-14
  183 214.340 0.00000 -4.30754e-14
  184 214.340 0.00000 9.68582e-14
  185 214.340 0.00000 -3.62014e-14
  186 214.340 0.00000 -6.01232e-14
  187 214.340 0.00000 -2.30718e-14
  188 214.340 0.00000 3.58500e-15
  189 214.340 0.00000 -8.10187e-15
  190 214.340 0.00000 -2.98354e-14
  191 214.340 0.00000 -3.58437e-14
  192 214.340 0.00000 -4.29451e-14
  193 214.340 0.00000 -6.94902e-14
  194 214.340 0.00000 -7.41990e-14
  195 214.340 0.00000 -1.32107e-14
  196 214.340 0.00000 -8.27939e-14
  197 214.340 0.00000 -1.33721e-14
  198 214.340 0.00000 -1.37729e-13
  199 214.340 0.00000 -9.71424e-15
  200 214.340 0.00000 -3.73294e-13
  201 214.340 0.00000 9.03991e-15
  202 214.340 0.00000 -1.23795e-14
  203 214.340 0.00000 -5.42639e-14
  204 214.340 0.00000 -1.05764e-13
  205 214.340 0.00000 3.36047e-14
  206 214.340 0.00000 1.75826e-13
  207 214.340 0.00000 -1.30805e-14
  208 214.340 0.00000 -1.67347e-13
  209 214.340 0.00000 7.40813e-14
  210 214.340 0.00000 -1.82316e-14
  211 214.340 0.00000 1.21928e-15
  212 214.340 0.00000 1.42948e-14
  213 214.340 0.00000 -5.27275e-16
  214 214.340 0.00000 -1.20061e-14
  215 214.340 0.00000 -3.13665e-13
  216 214.340 0.00000 -8.79544e-14
  217 214.340 0.00000 -1.28057e-13
  218 214.340 0.00000 -2.16137e-14
  219 214.340 0.00000 -1.01334e-13
  220 214.340 0.00000 -5.19649e-14
  221 214.340 0.00000 1.26279e-13
  222 214.340 0.00000 -7.01918e-14
  223 214.340 0.00000 1.23726e-14
  224 214.340 0.00000 -4.83083e-14
  225 214.340 0.00000 -2.62509e-14
  226 214.340 0.00000 6.39128e-15
  227 214.340 0.00000 -1.43694e-13
  228 214.340 0.00000 5.52640e-14
  229 214.340 0.00000 -8.01934e-15
  230 214.340 0.00000 -1.48079e-14
  231 214.340 0.00000 -2.73531e-13
  232 214.340 0.00000 -1.33994e-14
  233 214.340 0.00000 4.60568e-14
  234 214.340 0.00000 -6.51360e-14
  235 214.340 0.00000 1.30384e-13
  236 214.340 0.00000 -2.79622e-14
  237 214.340 0.00000 -5.71924e-14
  238 214.340 0.00000 3.17752e-14
  239 214.340 0.00000 -1.22918e-13
  240 214.340 0.00000 -1.08324e-13
  241 214.340 0.00000 -9.52431e-14
</Section>

newXOutput 13

<Section columns = "stress_xx | stress_yy | stress_xy">
  1 233.872 0.00000 2.75203e-14
  2 233.872 0.00000 1.69031e-13
  3 233.872 0.00000 1.49898e-13
  4 233.872 0.00000 3.80540e-14
  5 233.872 0.00000 2.75408e-14
  6 233.872 0.00000 6.70166e-14
  7 233.872 0.00000 1.56411e-13
  8 233.872 0.00000 7.66139e-14
  9 233.872 0.00000 9.69362e-14
  10 233.872 0.00000 1.18603e-13
  11 233.872 0.00000 7.74205e-14
  12 233.872 0.00000 -1.95679e-14
  13 233.872 0.00000 -2.79011e-14
  14 233.872 0.00000 1.89570e-13
  15 233.872 0.00000 4.08989e-13
  16 233.872 0.00000 5.02792e-13
  17 233.872 0.00000 -4.61265e-14
  18 233.872 0.00000 4.97864e-14
  19 233.872 0.00000 -3.36538e-14
  20 233.872 0.00000 -4.28478e-14
  21 233.872 0.00000 -1.59352e-13
  22 233.872 0.00000 -2.47094e-13
  23 233.872 0.00000 -8.18270e-14
  24 233.872 0.00000 -2.60209e-14
  25 233.872 0.00000 4.22579e-14
  26 233.872 0.00000 1.12101e-13
  27 233.872 0.00000 -1.76074e-14
  28 233.872 0.00000 -1.44530e-13
  29 233.872 0.00000 4.75401e-14
  30 233.872 0.00000 2.50956e-13
  31 233.872 0.00000 6.50670e-15
  32 233.872 0.00000 7.80865e-14
  33 233.872 0.00000 4.52543e-14
  34 233.872 0.00000 -5.55211e-14
  35 233.872 0.00000 -1.06267e-13
  36 233.872 0.00000 -2.45331e-13
  37 233.872 0.00000 -1.16508e-13
  38 233.872 0.00000 2.59078e-14
  39 233.872 0.00000 1.67090e-13
  40 233.872 0.00000 3.47158e-13
  41 233.872 0.00000 2.72023e-13
  42 233.872 0.00000 2.15336e-14
  43 233.872 0.00000 -4.36803e-14
  44 233.872 0.00000 -4.31352e-14
  45 233.872 0.00000 -2.12434e-14
  46 233.872 0.00000 -3.00768e-14
  47 233.872 0.00000 -2.02059e-13
  48 233.872 0.00000 -9.24040e-15
  49 233.872 0.00000 2.92765e-14
  50 233.872 0.00000 -1.02956e-14
  51 233.872 0.00000 -4.22579e-14
  52 233.872 0.00000 -8.63194e-14
  53 233.872 0.00000 2.55915e-14
  54 233.872 0.00000 5.66279e-14
  55 233.872 0.00000 6.33868e-14
  56 233.872 0.00000 6.48721e-14
  57 233.872 0.00000 6.86038e-14
  58 233.872 0.00000 1.87218e-13
  59 233.872 0.00000 -4.80522e-15
  60 233.872 0.00000 9.72788e-14
  61 233.872 0.00000 -9.13786e-15
  62 233.872 0.00000 -1.85834e-14
  63 233.872 0.00000 1.17645e-13
  64 233.872 0.00000 1.27696e-14
  65 233.872 0.00000 -2.86094e-13
  66 233.872 0.00000 1.17455e-13
  67 233.872 0.00000 7.05619e-14
  68 233.872 0.00000 -6.02862e-14
  69 233.872 0.00000 1.81492e-14
  70 233.872 0.00000 8.03879e-14
  71 233.872 0.00000 2.01737e-13
  72 233.872 0.00000 1.67854e-14
  73 233.872 0.00000 8.07500e-14
  74 233.872 0.00000 -3.68594e-13
  75 233.872 0.00000 2.86462e-14
  76 233.872 0.00000 1.89072e-13
  77 233.872 0.00000 4.86334e-14
  78 233.872 0.00000 -7.23777e-14
  79 233.872 0.00000 3.09893e-14
  80 233.872 0.00000 2.56499e-14
  81 233.872 0.00000 -3.23108e-15
  82 233.872 0.00000 8.95277e-14
  83 233.872 0.00000 6.90201e-14
  84 233.872 0.00000 1.57789e-13
  85 233.872 0.00000 2.23601e-13
  86 233.872 0.00000 4.59007e-14
  87 233.872 0.00000 -4.51986e-14
  88 233.872 0.00000 9.59777e-14
  89 233.872 0.00000 1.15077e-13
  90 233.872 0.00000 1.11795e-13
  91 233.872 0.00000 -1.03200e-13
  92 233.872 0.00000 -5.60280e-14
  93 233.872 0.00000 4.53880e-14
  94 233.872 0.00000 1.81722e-13
  95 233.872 0.00000 4.95475e-14
  96 233.872 0.00000 -8.29309e-14
  97 233.872 0.00000 1.02855e-13
  98 233.872 0.00000 3.98521e-14
  99 233.872 0.00000 -1.20568e-13
  100 233.872 0.00000 1.70533e-13
  101 233.872 0.00000 -5.60058e-14
  102 233.872 0.00000 1.53468e-13
  103 233.872 0.00000 1.24980e-13
  104 233.872 0.00000 -3.05904e-14
  105 233.872 0.00000 -5.66691e-14
  106 233.872 0.00000 4.45041e-14
  107 233.872 0.00000 2.49733e-13
  108 233.872 0.00000 -2.03427e-13
  109 233.872 0.00000 8.68589e-14
  110 233.872 0.00000 -1.56123e-13
  111 233.872 0.00000 4.19092e-14
  112 233.872 0.00000 7.30789e-14
  113 233.872 0.00000 9.81339e-14
  114 233.872 0.00000 9.24356e-15
  115 233.872 0.00000 2.75554e-14
  116 233.872 0.00000 1.61573e-13
  117 233.872 0.00000 2.45476e-13
  118 233.872 0.00000 -4.29749e-13
  119 233.872 0.00000 -1.17319e-14
  120 233.872 0.00000 -2.01414e-14
  121 233.872 0.00000 1.31222e-13
  122 233.872 0.00000 6.28755e-14
  123 233.872 0.00000 5.61702e-14
  124 233.872 0.00000 1.33018e-14
  125 233.872 0.00000 5.67879e-14
  126 233.872 0.00000 1.24600e-13
  127 233.872 0.00000 1.12631e-14
  128 233.872 0.00000 -6.56070e-15
  129 233.872 0.00000 -6.15525e-14
  130 233.872 0.00000 4.60632e-14
  131 233.872 0.00000 -1.11373e-13
  132 233.872 0.00000 4.18691e-14
  133 233.872 0.00000 1.25807e-13
  134 233.872 0.00000 1.23532e-13
  135 233.872 0.00000 1.26647e-13
  136 233.872 0.00000 -1.49462e-13
  137 233.872 0.00000 7.99905e-14
  138 233.872 0.00000 6.10594e-14
  139 233.872 0.00000 7.00903e-14
  140 233.872 0.00000 -7.70832e-14
  141 233.872 0.00000 3.42086e-14
  142 233.872 0.00000 9.57132e-14
  143 233.872 0.00000 -9.23901e-14
  144 233.872 0.00000 1.06019e-13
  145 233.872 0.00000 -1.17953e-13
  146 233.872 0.00000 -2.09893e-14
  147 233.872 0.00000 1.05054e-13
  148 233.872 0.00000 4.33236e-14
  149 233.872 0.00000 1.05145e-14
  150 233.872 0.00000 1.55354e-14
  151 233.872 0.00000 -2.52534e-14
  152 233.872 0.00000 2.53259e-13
  153 233.872 0.00000 -1.25972e-13
  154 233.872 0.00000 9.17025e-14
  155 233.872 0.00000 9.94191e-14
  156 233.872 0.00000 2.48740e-14
  157 233.872 0.00000 -2.54430e-13
  158 233.872 0.00000 3.05288e-14
  159 233.872 0.00000 -6.10429e-14
  160 233.872 0.00000 2.27089e-15
  161 233.872 0.00000 1.29709e-13
  162 233.872 0.00000 -8.73192e-14
  163 233.872 0.00000 9.04310e-14
  164 233.872 0.00000 1.56777e-13
  165 233.872 0.00000 1.65777e-13
  166 233.872 0.00000 -1.26842e-13
  167 233.872 0.00000 4.82519e-14
  168 233.872 0.00000 1.62639e-13
  169 233.872 0.00000 7.30298e-14
  170 233.872 0.00000 1.15944e-13
  171 233.872 0.00000 5.42468e-14
  172 233.872 0.00000 -8.50104e-14
  173 233.872 0.00000 -9.48594e-14
  174 233.872 0.00000 -3.49721e-14
  175 233.872 0.00000 6.60293e-14
  176 233.872 0.00000 6.55411e-14
  177 233.872 0.00000 8.85797e-14
  178 233.872 0.00000 6.28879e-14
  179 233.872 0.00000 1.58718e-13
  180 233.872 0.00000 1.19932e-13
  181 233.872 0.00000 2.51425e-14
  182 233.872 0.00000 1.39028e-14
  183 233.872 0.00000 6.26808e-14
  184 233.872 0.00000 1.64452e-13
  185 233.872 0.00000 1.33312e-13
  186 233.872 0.00000 1.42162e-13
  187 233.872 0.00000 -9.07941e-14
  188 233.872 0.00000 -4.39314e-15
  189 233.872 0.00000 9.19367e-14
  190 233.872 0.00000 -1.89020e-13
  191 233.872 0.00000 -6.94868e-14
  192 233.872 0.00000 2.22891e-13
  193 233.872 0.00000 -8.57245e-14
  194 233.872 0.00000 -5.94209e-14
  195 233.872 0.00000 -2.22301e-13
  196 233.872 0.00000 1.89783e-13
  197 233.872 0.00000 1.30057e-13
  198 233.872 0.00000 1.39194e-13
  199 233.872 0.00000 -4.58241e-14
  200 233.872 0.00000 -2.74240e-14
  201 233.872 0.00000 -1.74277e-14
  202 233.872 0.00000 -8.01459e-15
  203 233.872 0.00000 4.08482e-14
  204 233.872 0.00000 5.22687e-14
  205 233.872 0.00000 1.64416e-13
  206 233.872 0.00000 7.92061e-15
  207 233.872 0.00000 -4.55116e-14
  208 233.872 0.00000 -1.94034e-13
  209 233.872 0.00000 1.28736e-13
  210 233.872 0.00000 -2.14792e-14
  211 233.872 0.00000 1.10063e-13
  212 233.872 0.00000 -1.65160e-13
  213 233.872 0.00000 1.35523e-13
  214 233.872 0.00000 -1.22890e-14
  215 233.872 0.00000 3.85494e-14
  216 233.872 0.00000 1.51387e-13
  217 233.872 0.00000 5.43820e-15
  218 233.872 0.00000 -1.76259e-13
  219 233.872 0.00000 6.39851e-14
  220 233.872 0.00000 -6.17716e-14
  221 233.872 0.00000 2.75082e-14
  222 233.872 0.00000 3.07378e-13
  223 233.872 0.00000 8.50737e-14
  224 233.872 0.00000 1.55500e-13
  225 233.872 0.00000 1.01650e-13
  226 233.872 0.00000 1.13323e-13
  227 233.872 0.00000 -4.19936e-14
  228 233.872 0.00000 3.17349e-14
  229 233.872 0.00000 1.05192e-13
  230 233.872 0.00000 1.64797e-14
  231 233.872 0.00000 -9.75784e-14
  232 233.872 0.00000 -2.57268e-13
  233 233.872 0.00000 3.00111e-13
  234 233.872 0.00000 8.84030e-14
  235 233.872 0.00000 1.97086e-13
  236 233.872 0.00000 1.50759e-13
  237 233.872 0.00000 -1.32180e-13
  238 233.872 0.00000 -1.15951e-14
  239 233.872 0.00000 4.83748e-14
  240 233.872 0.00000 -8.75136e-14
  241 233.872 0.00000 2.24690e-13
</Section>

newXOutput 14

<Section columns = "stress_xx | stress_yy | stress_xy">
  1 253.413 0.00000 -1.07960e-14
  2 253.413 0.00000 -3.38479e-13
  3 253.413 0.00000 -2.25990e-13
  4 253.413 0.00000 4.03308e-15
  5 253.413 0.00000 -5.06725e-14
  6 253.413 0.00000 -8.76788e-14
  7 253.413 0.00000 -1.26448e-13
  8 253.413 0.00000 -7.60518e-14
  9 253.413 0.00000 -1.30134e-13
  10 253.413 0.00000 -1.28095e-13
  11 253.413 0.00000 -8.95724e-14
  12 253.413 0.00000 -9.90519e-15
  13 253.413 0.00000 1.48830e-13
  14 253.413 0.00000 2.58760e-14
  15 253.413 0.00000 3.24776e-14
  16 253.413 0.00000 -1.20984e-13
  17 253.413 0.00000 -2.13880e-13
  18 253.413 0.00000 -4.07861e-15
  19 253.413 0.00000 -1.58632e-13
  20 253.413 0.00000 -1.55077e-13
  21 253.413 0.00000 -2.92673e-13
  22 253.413 0.00000 2.28103e-13
  23 253.413 0.00000 5.36343e-15
  24 253.413 0.00000 -1.15157e-13
  25 253.413 0.00000 -4.23099e-14
  26 253.413 0.00000 -9.03792e-14
  27 253.413 0.00000 1.32846e-13
  28 253.413 0.00000 -5.57446e-14
  29 253.413 0.00000 -1.32218e-13
  30 253.413 0.00000 -2.81939e-13
  31 253.413 0.00000 -4.68846e-14
  32 253.413 0.00000 -1.14607e-13
  33 253.413 0.00000 -8.77758e-14
  34 253.413 0.00000 2.76454e-13
  35 253.413 0.00000 8.56626e-14
  36 253.413 0.00000 2.54662e-13
  37 253.413 0.00000 -2.76018e-14
  38 253.413 0.00000 -1.75594e-13
  39 253.413 0.00000 1.11559e-13
  40 253.413 0.00000 8.06514e-14
  41 253.413 0.00000 -8.58386e-14
  42 253.413 0.00000 1.17617e-13
  43 253.413 0.00000 9.97416e-14
  44 253.413 0.00000 -3.82287e-14
  45 253.413 0.00000 -9.91206e-14
  46 253.413 0.00000 -6.34796e-14
  47 253.413 0.00000 -9.80280e-14
  48 253.413 0.00000 -4.92363e-14
  49 253.413 0.00000 -2.36063e-14
  50 253.413 0.00000 -1.56477e-14
  51 253.413 0.00000 -3.17324e-14
  52 253.413 0.00000 -1.85694e-14
  53 253.413 0.00000 2.02810e-14
  54 253.413 0.00000 4.84950e-14
  55 253.413 0.00000 2.11550e-14
  56 253.413 0.00000 1.57934e-14
  57 253.413 0.00000 1.41840e-13
  58 253.413 0.00000 -1.82174e-14
  59 253.413 0.00000 -1.32323e-13
  60 253.413 0.00000 -5.10759e-14
  61 253.413 0.00000 5.03467e-14
  62 253.413 0.00000 2.59124e-14
  63 253.413 0.00000 1.13049e-13
  64 253.413 0.00000 -2.22039e-13
  65 253.413 0.00000 -1.08583e-13
  66 253.413 0.00000 1.84707e-13
  67 253.413 0.00000 -1.53086e-13
  68 253.413 0.00000 2.06470e-14
  69 253.413 0.00000 -2.33257e-13
  70 253.413 0.00000 -2.51197e-13
  71 253.413 0.00000 7.46325e-14
  72 253.413 0.00000 2.18168e-14
  73 253.413 0.00000 -1.20072e-13
  74 253.413 0.00000 -5.21397e-14
  75 253.413 0.00000 -1.57385e-13
  76 253.413 0.00000 -1.06933e-14
  77 253.413 0.00000 -2.18212e-14
  78 253.413 0.00000 -8.99889e-14
  79 253.413 0.00000 -1.36907e-13
  80 253.413 0.00000 -2.11804e-13
  81 253.413 0.00000 -2.54435e-13
  82 253.413 0.00000 4.58891e-14
  83 253.413 0.00000 -2.20418e-13
  84 253.413 0.00000 -1.06801e-13
  85 253.413 0.00000 1.42740e-13
  86 253.413 0.00000 -1.37492e-13
  87 253.413 0.00000 -4.70162e-14
  88 253.413 0.00000 -7.67147e-14
  89 253.413 0.00000 -1.09376e-13
  90 253.413 0.00000 -1.23826e-13
  91 253.413 0.00000 -1.45048e-14
  92 253.413 0.00000 1.80686e-13
  93 253.413 0.00000 1.12368e-13
  94 253.413 0.00000 1.03202e-13
  95 253.413 0.00000 -1.67562e-13
  96 253.413 0.00000 -3.71108e-14
  97 253.413 0.00000 1.05497e-13
  98 253.413 0.00000 -6.30671e-14
  99 253.413 0.00000 2.46897e-13
  100 253.413 0.00000 1.55919e-13
  101 253.413 0.00000 5.47399e-14
  102 253.413 0.00000 1.58684e-14
  103 253.413 0.00000 -7.65691e-14
  104 253.413 0.00000 -6.63087e-14
  105 253.413 0.00000 -7.74206e-14
  106 253.413 0.00000 -9.96942e-14
  107 253.413 0.00000 -1.26631e-13
  108 253.413 0.00000 -3.90311e-14
  109 253.413 0.00000 1.45848e-13
  110 253.413 0.00000 -1.63772e-14
  111 253.413 0.00000 -2.22443e-13
  112 253.413 0.00000 -2.58180e-13
  113 253.413 0.00000 1.42290e-14
  114 253.413 0.00000 -1.77417e-13
  115 253.413 0.00000 1.00943e-13
  116 253.413 0.00000 -1.18781e-13
  117 253.413 0.00000 -5.14655e-13
  118 253.413 0.00000 -1.15219e-13
  119 253.413 0.00000 1.06501e-13
  120 253.413 0.00000 -1.04933e-13
  121 253.413 0.00000 1.03329e-13
  122 253.413 0.00000 -1.58068e-13
  123 253.413 0.00000 -2.63070e-13
  124 253.413 0.00000 -1.57079e-13
  125 253.413 0.00000 -1.41660e-13
  126 253.413 0.00000 -1.33921e-13
  127 253.413 0.00000 4.56714e-14
  128 253.413 0.00000 -1.72192e-14
  129 253.413 0.00000 -1.03326e-13
  130 253.413 0.00000 -2.26241e-13
  131 253.413 0.00000 3.76327e-14
  132 253.413 0.00000 -6.09447e-14
  133 253.413 0.00000 7.57423e-14
  134 253.413 0.00000 1.12280e-13
  135 253.413 0.00000 -9.39231e-14
  136 253.413 0.00000 4.07815e-15
  137 253.413 0.00000 -8.79413e-14
  138 253.413 0.00000 -3.23975e-13
  139 253.413 0.00000 2.05716e-13
  140 253.413 0.00000 2.55135e-13
  141 253.413 0.00000 -7.54177e-14
  142 253.413 0.00000 -2.25216e-13
  143 253.413 0.00000 1.35980e-14
  144 253.413 0.00000 -1.65539e-13
  145 253.413 0.00000 7.08020e-15
  146 253.413 0.00000 -8.48995e-14
  147 253.413 0.00000 3.57804e-14
  148 253.413 0.00000 6.04787e-14
  149 253.413 0.00000 1.90895e-13
  150 253.413 0.00000 3.65740e-14
  151 253.413 0.00000 4.14957e-14
  152 253.413 0.00000 -2.48905e-13
  153 253.413 0.00000 -1.07478e-13
  154 253.413 0.00000 -2.31405e-13
  155 253.413 0.00000 -1.63899e-13
  156 253.413 0.00000 -8.39091e-15
  157 253.413 0.00000 -7.47841e-14
  158 253.413 0.00000 1.07792e-14
  159 253.413 0.00000 3.49931e-14
  160 253.413 0.00000 3.35291e-14
  161 253.413 0.00000 1.37543e-13
  162 253.413 0.00000 -9.66819e-14
  163 253.413 0.00000 3.88438e-15
  164 253.413 0.00000 1.25131e-13
  165 253.413 0.00000 -3.32376e-14
  166 253.413 0.00000 -6.43292e-14
  167 253.413 0.00000 2.74809e-14
  168 253.413 0.00000 -2.26619e-13
  169 253.413 0.00000 -6.81822e-15
  170 253.413 0.00000 -3.49949e-13
  171 253.413 0.00000 6.12110e-15
  172 253.413 0.00000 2.98777e-17
  173 253.413 0.00000 -8.33435e-14
  174 253.413 0.00000 -1.47472e-13
  175 253.413 0.00000 -2.29230e-14
  176 253.413 0.00000 -4.90992e-14
  177 253.413 0.00000 -2.14693e-13
  178 253.413 0.00000 -9.03152e-14
  179 253.413 0.00000 -9.64287e-14
  180 253.413 0.00000 2.32032e-13
  181 253.413 0.00000 -2.08496e-13
  182 253.413 0.00000 -7.17882e-14
  183 253.413 0.00000 -1.29139e-13
  184 253.413 0.00000 -6.57014e-14
  185 253.413 0.00000 4.75748e-14
  186 253.413 0.00000 1.29036e-14
  187 253.413 0.00000 -8.77057e-14
  188 253.413 0.00000 -6.90100e-15
  189 253.413 0.00000 6.42974e-14
  190 253.413 0.00000 6.81181e-15
  191 253.413 0.00000 -1.46220e-14
  192 253.413 0.00000 1.14406e-13
  193 253.413 0.00000 -1.78829e-13
  194 253.413 0.00000 -6.83446e-14
  195 253.413 0.00000 -8.62231e-14
  196 253.413 0.00000 -1.87348e-13
  197 253.413 0.00000 6.27814e-14
  198 253.413 0.00000 6.32333e-14
  199 253.413 0.00000 6.08653e-14
  200 253.413 0.00000 2.99305e-13
  201 253.413 0.00000 -2.02156e-13
  202 253.413 0.00000 -2.28299e-13
  203 253.413 0.00000 -7.25259e-14
  204 253.413 0.00000 2.13410e-13
  205 253.413 0.00000 1.46225e-13
  206 253.413 0.00000 -2.46446e-13
  207 253.413 0.00000 1.67568e-14
  208 253.413 0.00000 1.36929e-13
  209 253.413 0.00000 -1.78028e-14
  210 253.413 0.00000 -9.22074e-15
  211 253.413 0.00000 -9.05136e-14
  212 253.413 0.00000 -6.55266e-14
  213 253.413 0.00000 -2.09828e-15
  214 253.413 0.00000 -1.03022e-14
  215 253.413 0.00000 -4.43156e-14
  216 253.413 0.00000 -9.79167e-14
  217 253.413 0.00000 -1.14690e-13
  218 253.413 0.00000 -6.04430e-14
  219 253.413 0.00000 -1.47368e-14
  220 253.413 0.00000 6.64398e-14
  221 253.413 0.00000 -1.59932e-13
  222 253.413 0.00000 -1.15346e-13
  223 253.413 0.00000 -1.44902e-13
  224 253.413 0.00000 -1.84555e-13
  225 253.413 0.00000 1.01822e-13
  226 253.413 0.00000 1.48699e-13
  227 253.413 0.00000 1.33488e-13
  228 253.413 0.00000 -2.23866e-13
  229 253.413 0.00000 1.90699e-13
  230 253.413 0.00000 4.07225e-14
  231 253.413 0.00000 -4.95125e-14
  232 253.413 0.00000 -2.90111e-13
  233 253.413 0.00000 -3.01642e-13
  234 253.413 0.00000 -1.38451e-13
  235 253.413 0.00000 4.64790e-14
  236 253.413 0.00000 -1.36554e-13
  237 253.413 0.00000 1.31003e-13
  238 253.413 0.00000 1.10436e-13
  239 253.413 0.00000 7.21356e-14
  240 253.413 0.00000 1.55780e-13
  241 253.413 0.00000 -8.72493e-15
</Section>

newXOutput 15

<Section columns = "stress_xx | stress_yy | stress_xy">
  1 272.960 0.00000 4.33033e-14
  2 272.960 0.00000 6.35429e-14
  3 272.960 0.00000 -1.16732e-13
  4 272.960 0.00000 -2.65950e-14
  5 272.960 0.00000 3.01240e-14
  6 272.960 0.00000 1.07317e-13
  7 272.960 0.00000 1.49679e-13
  8 272.960 0.00000 1.57524e-13
  9 272.960 0.00000 1.65839e-13
  10 272.960 0.00000 1.30851e-13
  11 272.960 0.00000 -4.54999e-14
  12 272.960 0.00000 -8.47240e-14
  13 272.960 0.00000 -1.88040e-13
  14 272.960 0.00000 2.37541e-13
  15 272.960 0.00000 1.04610e-13
  16 272.960 0.00000 1.15476e-13
  17 272.960 0.00000 7.31136e-14
  18 272.960 0.00000 1.78861e-14
  19 272.960 0.00000 8.84894e-14
  20 272.960 0.00000 2.62487e-13
  21 272.960 0.00000 -1.06689e-13
  22 272.960 0.00000 -5.38154e-13
  23 272.960 0.00000 -3.57723e-13
  24 272.960 0.00000 8.47239e-14
  25 272.960 0.00000 6.35429e-14
  26 272.960 0.00000 2.31667e-14
  27 272.960 0.00000 -6.80929e-14
  28 272.960 0.00000 -6.60140e-14
  29 272.960 0.00000 -2.11810e-14
  30 272.960 0.00000 1.19722e-13
  31 272.960 0.00000 3.57784e-14
  32 272.960 0.00000 1.49750e-13
  33 272.960 0.00000 2.21213e-13
  34 272.960 0.00000 1.30138e-13
  35 272.960 0.00000 7.82161e-14
  36 272.960 0.00000 -9.58912e-14
  37 272.960 0.00000 -7.13928e-14
  38 272.960 0.00000 -2.58174e-14
  39 272.960 0.00000 6.93939e-15
  40 272.960 0.00000 6.69353e-14
  41 272.960 0.00000 -5.31057e-14
  42 272.960 0.00000 -1.22645e-13
  43 272.960 0.00000 -3.88081e-14
  44 272.960 0.00000 -5.23542e-14
  45 272.960 0.00000 9.88762e-14
  46 272.960 0.00000 1.25000e-13
  47 272.960 0.00000 3.15821e-14
  48 272.960 0.00000 1.40975e-14
  49 272.960 0.00000 3.02109e-14
  50 272.960 0.00000 -1.68663e-15
  51 272.960 0.00000 6.88382e-14
  52 272.960 0.00000 4.50758e-14
  53 272.960 0.00000 -3.03594e-14
  54 272.960 0.00000 -7.26331e-14
  55 272.960 0.00000 6.35429e-14
  56 272.960 0.00000 5.84046e-14
  57 272.960 0.00000 -7.87227e-14
  58 272.960 0.00000 -1.46011e-13
  59 272.960 0.00000 1.32045e-13
  60 272.960 0.00000 -2.10903e-14
  61 272.960 0.00000 -4.14991e-14
  62 272.960 0.00000 -5.56148e-14
  63 272.960 0.00000 1.19602e-13
  64 272.960 0.00000 -4.35387e-14
  65 272.960 0.00000 9.86778e-14
  66 272.960 0.00000 -2.17694e-14
  67 272.960 0.00000 -8.71558e-14
  68 272.960 0.00000 1.24330e-13
  69 272.960 0.00000 1.05329e-13
  70 272.960 0.00000 3.38316e-14
  71 272.960 0.00000 8.22230e-15
  72 272.960 0.00000 6.70938e-15
  73 272.960 0.00000 4.65477e-14
  74 272.960 0.00000 -5.11926e-14
  75 272.960 0.00000 1.62623e-14
  76 272.960 0.00000 -4.53430e-14
  77 272.960 0.00000 -2.47112e-14
  78 272.960 0.00000 -1.07386e-13
  79 272.960 0.00000 4.16055e-14
  80 272.960 0.00000 1.17809e-13
  81 272.960 0.00000 -2.29598e-13
  82 272.960 0.00000 -1.11612e-13
  83 272.960 0.00000 1.46247e-13
  84 272.960 0.00000 -2.78491e-14
  85 272.960 0.00000 9.88053e-14
  86 272.960 0.00000 2.20282e-13
  87 272.960 0.00000 6.95491e-14
  88 272.960 0.00000 -5.30260e-14
  89 272.960 0.00000 1.00916e-13
  90 272.960 0.00000 1.56857e-13
  91 272.960 0.00000 -1.02028e-13
  92 272.960 0.00000 -2.67563e-13
  93 272.960 0.00000 -4.48566e-14
  94 272.960 0.00000 6.71319e-14
  95 272.960 0.00000 -1.83104e-13
  96 272.960 0.00000 -1.06130e-13
  97 272.960 0.00000 2.27248e-13
  98 272.960 0.00000 -2.44935e-14
  99 272.960 0.00000 -2.23518e-13
  100 272.960 0.00000 1.63141e-13
  101 272.960 0.00000 6.23662e-14
  102 272.960 0.00000 1.41348e-13
  103 272.960 0.00000 -2.99083e-14
  104 272.960 0.00000 -4.76102e-14
  105 272.960 0.00000 6.64494e-14
  106 272.960 0.00000 1.22536e-13
  107 272.960 0.00000 -1.23762e-13
  108 272.960 0.00000 3.15410e-14
  109 272.960 0.00000 -1.42171e-13
  110 272.960 0.00000 -2.41651e-13
  111 272.960 0.00000 -4.89020e-14
  112 272.960 0.00000 8.64644e-14
  113 272.960 0.00000 -8.83221e-14
  114 272.960 0.00000 6.04685e-15
  115 272.960 0.00000 8.45118e-14
  116 272.960 0.00000 1.59093e-13
  117 272.960 0.00000 5.01871e-14
  118 272.960 0.00000 -4.49526e-14
  119 272.960 0.00000 1.14697e-13
  120 272.960 0.00000 1.16843e-13
  121 272.960 0.00000 -1.62136e-14
  122 272.960 0.00000 1.16411e-13
  123 272.960 0.00000 7.02232e-14
  124 272.960 0.00000 -1.90988e-13
  125 272.960 0.00000 -3.74896e-14
  126 272.960 0.00000 1.01783e-13
  127 272.960 0.00000 2.67410e-13
  128 272.960 0.00000 2.43052e-13
  129 272.960 0.00000 5.23561e-14
  130 272.960 0.00000 1.88256e-13
  131 272.960 0.00000 -1.79401e-13
  132 272.960 0.00000 -2.68236e-14
  133 272.960 0.00000 -2.60896e-14
  134 272.960 0.00000 -5.74324e-14
  135 272.960 0.00000 9.38015e-14
  136 272.960 0.00000 -6.88478e-14
  137 272.960 0.00000 6.02964e-14
  138 272.960 0.00000 6.79948e-14
  139 272.960 0.00000 -1.93318e-13
  140 272.960 0.00000 7.21666e-14
  141 272.960 0.00000 9.25098e-14
  142 272.960 0.00000 1.50738e-13
  143 272.960 0.00000 -1.58151e-13
  144 272.960 0.00000 -6.23589e-14
  145 272.960 0.00000 1.88540e-14
  146 272.960 0.00000 -1.74944e-13
  147 272.960 0.00000 -7.05292e-14
  148 272.960 0.00000 -2.37364e-13
  149 272.960 0.00000 -1.55602e-13
  150 272.960 0.00000 1.07274e-13
  151 272.960 0.00000 9.11174e-14
  152 272.960 0.00000 1.37127e-13
  153 272.960 0.00000 -4.90791e-14
  154 272.960 0.00000 1.29792e-13
  155 272.960 0.00000 -7.04930e-14
  156 272.960 0.00000 -8.64050e-14
  157 272.960 0.00000 -1.31123e-15
  158 272.960 0.00000 -3.84248e-13
  159 272.960 0.00000 -1.03091e-13
  160 272.960 0.00000 5.35643e-14
  161 272.960 0.00000 -1.11365e-13
  162 272.960 0.00000 4.67746e-14
  163 272.960 0.00000 3.64195e-14
  164 272.960 0.00000 1.61690e-13
  165 272.960 0.00000 3.32570e-14
  166 272.960 0.00000 6.41691e-14
  167 272.960 0.00000 2.21055e-15
  168 272.960 0.00000 -1.10570e-14
  169 272.960 0.00000 9.91976e-14
  170 272.960 0.00000 1.45160e-13
  171 272.960 0.00000 8.35808e-14
  172 272.960 0.00000 -1.34813e-13
  173 272.960 0.00000 -7.65462e-14
  174 272.960 0.00000 6.74653e-14
  175 272.960 0.00000 -4.85009e-14
  176 272.960 0.00000 4.95203e-14
  177 272.960 0.00000 8.59444e-15
  178 272.960 0.00000 -7.68795e-15
  179 272.960 0.00000 1.17484e-13
  180 272.960 0.00000 -8.30765e-14
  181 272.960 0.00000 -3.52232e-14
  182 272.960 0.00000 -5.86440e-14
  183 272.960 0.00000 -9.61038e-14
  184 272.960 0.00000 2.82413e-14
  185 272.960 0.00000 6.74261e-14
  186 272.960 0.00000 3.63371e-14
  187 272.960 0.00000 8.87484e-14
  188 272.960 0.00000 6.63244e-14
  189 272.960 0.00000 -2.25931e-14
  190 272.960 0.00000 -8.62978e-14
  191 272.960 0.00000 6.31703e-14
  192 272.960 0.00000 1.89855e-13
  193 272.960 0.00000 1.31206e-13
  194 272.960 0.00000 -8.50769e-14
  195 272.960 0.00000 1.25046e-13
  196 272.960 0.00000 -1.80257e-13
  197 272.960 0.00000 7.11524e-14
  198 272.960 0.00000 1.78861e-14
  199 272.960 0.00000 -1.71782e-13
  200 272.960 0.00000 -2.12810e-13
  201 272.960 0.00000 8.11692e-14
  202 272.960 0.00000 -1.05434e-13
  203 272.960 0.00000 1.41991e-13
  204 272.960 0.00000 -1.48882e-13
  205 272.960 0.00000 8.89993e-14
  206 272.960 0.00000 2.95781e-13
  207 272.960 0.00000 -3.84613e-14
  208 272.960 0.00000 -8.30247e-14
  209 272.960 0.00000 -8.33119e-14
  210 272.960 0.00000 7.80215e-14
  211 272.960 0.00000 9.54152e-14
  212 272.960 0.00000 -7.70046e-14
  213 272.960 0.00000 -9.74505e-14
  214 272.960 0.00000 -1.34115e-13
  215 272.960 0.00000 -3.92657e-13
  216 272.960 0.00000 -7.23389e-14
  217 272.960 0.00000 -1.67663e-13
  218 272.960 0.00000 -4.42956e-14
  219 272.960 0.00000 2.61326e-13
  220 272.960 0.00000 4.78528e-15
  221 272.960 0.00000 4.51076e-14
  222 272.960 0.00000 -9.45302e-15
  223 272.960 0.00000 4.72571e-14
  224 272.960 0.00000 1.21955e-13
  225 272.960 0.00000 4.31739e-14
  226 272.960 0.00000 5.29524e-14
  227 272.960 0.00000 9.23922e-14
  228 272.960 0.00000 -5.40821e-14
  229 272.960 0.00000 -2.84766e-13
  230 272.960 0.00000 -4.16952e-14
  231 272.960 0.00000 1.46761e-13
  232 272.960 0.00000 1.15625e-13
  233 272.960 0.00000 5.80358e-14
  234 272.960 0.00000 -5.35849e-14
  235 272.960 0.00000 3.67624e-15
  236 272.960 0.00000 1.27624e-13
  237 272.960 0.00000 -2.95910e-13
  238 272.960 0.00000 6.47196e-14
  239 272.960 0.00000 4.63628e-14
  240 272.960 0.00000 -1.63423e-13
  241 272.960 0.00000 3.45171e-14
</Section>

newXOutput 16

<Section columns = "stress_xx | stress_yy | stress_xy">
  1 292.515 0.00000 -5.04392e-16
  2 292.515 0.00000 2.04000e-13
  3 292.515 0.00000 -5.31914e-13
  4 292.515 0.00000 1.16937e-13
  5 292.515 0.00000 -2.32246e-14
  6 292.515 0.00000 -2.57465e-14
  7 292.515 0.00000 -4.94755e-14
  8 292.515 0.00000 1.91969e-14
  9 292.515 0.00000 5.45419e-14
  10 292.515 0.00000 -2.22083e-14
  11 292.515 0.00000 -1.17475e-13
  12 292.515 0.00000 1.70037e-14
  13 292.515 0.00000 5.78205e-14
  14 292.515 0.00000 -3.36562e-14
  15 292.515 0.00000 -8.81065e-14
  16 292.515 0.00000 -1.27242e-13
  17 292.515 0.00000 -1.44070e-13
  18 292.515 0.00000 -3.36562e-14
  19 292.515 0.00000 -8.34829e-14
  20 292.515 0.00000 -2.69009e-15
  21 292.515 0.00000 6.79999e-14
  22 292.515 0.00000 1.20517e-13
  23 292.515 0.00000 3.10378e-13
  24 292.515 0.00000 -7.06900e-14
  25 292.515 0.00000 -6.36210e-14
  26 292.515 0.00000 -3.11184e-14
  27 292.515 0.00000 -5.65520e-14
  28 292.515 0.00000 -2.67679e-13
  29 292.515 0.00000 -1.74958e-13
  30 292.515 0.00000 -2.80551e-13
  31 292.515 0.00000 -3.72503e-13
  32 292.515 0.00000 -2.44995e-13
  33 292.515 0.00000 -7.17907e-14
  34 292.515 0.00000 -1.11009e-13
  35 292.515 0.00000 -7.21347e-14
  36 292.515 0.00000 -1.40921e-13
  37 292.515 0.00000 5.74639e-14
  38 292.515 0.00000 1.15550e-13
  39 292.515 0.00000 8.59057e-14
  40 292.515 0.00000 3.31748e-14
  41 292.515 0.00000 7.20616e-14
  42 292.515 0.00000 -1.50338e-13
  43 292.515 0.00000 -4.55828e-14
  44 292.515 0.00000 1.13874e-13
  45 292.515 0.00000 6.21759e-14
  46 292.515 0.00000 -2.21344e-13
  47 292.515 0.00000 -1.26286e-13
  48 292.515 0.00000 5.67614e-14
  49 292.515 0.00000 8.91511e-14
  50 292.515 0.00000 -1.38877e-14
  51 292.515 0.00000 -6.89227e-14
  52 292.515 0.00000 1.65961e-15
  53 292.515 0.00000 1.51693e-15
  54 292.515 0.00000 -8.13561e-14
  55 292.515 0.00000 -8.48280e-14
  56 292.515 0.00000 -1.41380e-14
  57 292.515 0.00000 -1.28712e-13
  58 292.515 0.00000 -2.62438e-13
  59 292.515 0.00000 1.28125e-14
  60 292.515 0.00000 -1.06683e-13
  61 292.515 0.00000 -1.80047e-13
  62 292.515 0.00000 -1.20654e-13
  63 292.515 0.00000 5.87788e-14
  64 292.515 0.00000 5.63242e-18
  65 292.515 0.00000 -2.59700e-14
  66 292.515 0.00000 -1.18634e-13
  67 292.515 0.00000 -1.05761e-13
  68 292.515 0.00000 -1.12977e-13
  69 292.515 0.00000 -9.28995e-14
  70 292.515 0.00000 1.95363e-14
  71 292.515 0.00000 -8.70842e-14
  72 292.515 0.00000 -1.27582e-13
  73 292.515 0.00000 1.46002e-13
  74 292.515 0.00000 8.33002e-14
  75 292.515 0.00000 4.05568e-14
  76 292.515 0.00000 2.57353e-13
  77 292.515 0.00000 1.91379e-13
  78 292.515 0.00000 -1.95280e-14
  79 292.515 0.00000 2.75812e-14
  80 292.515 0.00000 -7.72900e-14
  81 292.515 0.00000 7.23788e-14
  82 292.515 0.00000 -6.72029e-14
  83 292.515 0.00000 2.14457e-14
  84 292.515 0.00000 -3.35282e-14
  85 292.515 0.00000 -5.07421e-14
  86 292.515 0.00000 6.58964e-14
  87 292.515 0.00000 4.74165e-14
  88 292.515 0.00000 -2.85961e-13
  89 292.515 0.00000 -8.78302e-14
  90 292.515 0.00000 -4.51424e-14
  91 292.515 0.00000 2.55280e-14
  92 292.515 0.00000 -1.14165e-13
  93 292.515 0.00000 -2.34999e-13
  94 292.515 0.00000 -1.16484e-13
  95 292.515 0.00000 -1.26696e-13
  96 292.515 0.00000 2.39767e-13
  97 292.515 0.00000 -1.94297e-13
  98 292.515 0.00000 2.49318e-13
  99 292.515 0.00000 -2.34749e-14
  100 292.515 0.00000 -7.90666e-14
  101 292.515 0.00000 2.19711e-14
  102 292.515 0.00000 -5.19056e-14
  103 292.515 0.00000 -1.85479e-13
  104 292.515 0.00000 -4.28130e-14
  105 292.515 0.00000 -9.92385e-14
  106 292.515 0.00000 -5.94924e-14
  107 292.515 0.00000 -2.25128e-14
  108 292.515 0.00000 4.39006e-14
  109 292.515 0.00000 -1.18355e-13
  110 292.515 0.00000 -8.63950e-14
  111 292.515 0.00000 -8.51432e-14
  112 292.515 0.00000 1.41944e-13
  113 292.515 0.00000 2.25734e-14
  114 292.515 0.00000 -6.85412e-14
  115 292.515 0.00000 -5.10372e-14
  116 292.515 0.00000 -1.07241e-13
  117 292.515 0.00000 1.25525e-13
  118 292.515 0.00000 9.90109e-14
  119 292.515 0.00000 1.54409e-14
  120 292.515 0.00000 -6.27257e-14
  121 292.515 0.00000 -8.25878e-14
  122 292.515 0.00000 -7.34246e-14
  123 292.515 0.00000 -3.24155e-14
  124 292.515 0.00000 -1.39392e-13
  125 292.515 0.00000 3.04315e-14
  126 292.515 0.00000 -8.28359e-15
  127 292.515 0.00000 8.11211e-14
  128 292.515 0.00000 4.22907e-14
  129 292.515 0.00000 9.97656e-14
  130 292.515 0.00000 4.40664e-14
  131 292.515 0.00000 -1.34558e-13
  132 292.515 0.00000 -8.00546e-14
  133 292.515 0.00000 -1.89851e-13
  134 292.515 0.00000 -1.04517e-13
  135 292.515 0.00000 1.21116e-13
  136 292.515 0.00000 1.84359e-13
  137 292.515 0.00000 -1.27878e-13
  138 292.515 0.00000 1.28810e-13
  139 292.515 0.00000 8.23641e-14
  140 292.515 0.00000 -2.43957e-13
  141 292.515 0.00000 -3.52544e-14
  142 292.515 0.00000 -2.26413e-15
  143 292.515 0.00000 -8.17231e-14
  144 292.515 0.00000 5.44751e-14
  145 292.515 0.00000 -1.80483e-14
  146 292.515 0.00000 -7.43921e-14
  147 292.515 0.00000 -3.33849e-14
  148 292.515 0.00000 4.66276e-14
  149 292.515 0.00000 -6.98064e-14
  150 292.515 0.00000 -8.53979e-14
  151 292.515 0.00000 -3.21411e-14
  152 292.515 0.00000 -2.28313e-13
  153 292.515 0.00000 4.96157e-14
  154 292.515 0.00000 2.12160e-14
  155 292.515 0.00000 4.24852e-14
  156 292.515 0.00000 -1.17144e-13
  157 292.515 0.00000 -2.40548e-14
  158 292.515 0.00000 3.24438e-14
  159 292.515 0.00000 1.24513e-13
  160 292.515 0.00000 1.32299e-13
  161 292.515 0.00000 2.64186e-13
  162 292.515 0.00000 1.62157e-13
  163 292.515 0.00000 -9.23584e-14
  164 292.515 0.00000 1.85390e-13
  165 292.515 0.00000 -6.20046e-14
  166 292.515 0.00000 -1.21467e-13
  167 292.515 0.00000 -2.01004e-13
  168 292.515 0.00000 -1.03393e-13
  169 292.515 0.00000 -1.02266e-13
  170 292.515 0.00000 -4.06923e-14
  171 292.515 0.00000 7.03994e-15
  172 292.515 0.00000 -8.25526e-14
  173 292.515 0.00000 3.50893e-15
  174 292.515 0.00000 1.21189e-13
  175 292.515 0.00000 6.99415e-14
  176 292.515 0.00000 -3.26511e-14
  177 292.515 0.00000 -4.55848e-13
  178 292.515 0.00000 -1.66361e-14
  179 292.515 0.00000 -7.69941e-14
  180 292.515 0.00000 -5.93616e-14
  181 292.515 0.00000 -1.60104e-13
  182 292.515 0.00000 2.75252e-14
  183 292.515 0.00000 -1.72201e-13
  184 292.515 0.00000 -9.53283e-14
  185 292.515 0.00000 -8.59591e-14
  186 292.515 0.00000 -5.59407e-14
  187 292.515 0.00000 -2.02425e-13
  188 292.515 0.00000 -4.57944e-14
  189 292.515 0.00000 -1.60717e-13
  190 292.515 0.00000 1.74369e-15
  191 292.515 0.00000 1.68165e-14
  192 292.515 0.00000 8.01270e-15
  193 292.515 0.00000 -1.86177e-13
  194 292.515 0.00000 -2.51123e-13
  195 292.515 0.00000 -1.77350e-13
  196 292.515 0.00000 2.45384e-14
  197 292.515 0.00000 -1.53392e-13
  198 292.515 0.00000 -1.14449e-13
  199 292.515 0.00000 -9.16429e-14
  200 292.515 0.00000 -4.53311e-13
  201 292.515 0.00000 4.10617e-14
  202 292.515 0.00000 -6.49301e-14
  203 292.515 0.00000 -6.30490e-15
  204 292.515 0.00000 -1.04331e-13
  205 292.515 0.00000 -9.52577e-14
  206 292.515 0.00000 -4.05937e-14
  207 292.515 0.00000 1.54408e-13
  208 292.515 0.00000 -2.55936e-15
  209 292.515 0.00000 -3.71926e-14
  210 292.515 0.00000 -4.75348e-14
  211 292.515 0.00000 -3.42588e-14
  212 292.515 0.00000 1.51489e-13
  213 292.515 0.00000 1.48345e-13
  214 292.515 0.00000 -7.42705e-14
  215 292.515 0.00000 -3.08362e-13
  216 292.515 0.00000 -2.37745e-13
  217 292.515 0.00000 1.97900e-13
  218 292.515 0.00000 -1.26278e-15
  219 292.515 0.00000 -9.50257e-14
  220 292.515 0.00000 -4.52292e-14
  221 292.515 0.00000 -1.90863e-13
  222 292.515 0.00000 -1.06623e-13
  223 292.515 0.00000 -9.70915e-14
  224 292.515 0.00000 2.41437e-14
  225 292.515 0.00000 2.26014e-13
  226 292.515 0.00000 -4.00870e-14
  227 292.515 0.00000 -9.11385e-14
  228 292.515 0.00000 1.87494e-13
  229 292.515 0.00000 5.09416e-14
  230 292.515 0.00000 -6.22759e-14
  231 292.515 0.00000 1.70068e-13
  232 292.515 0.00000 1.76988e-15
  233 292.515 0.00000 -5.27126e-14
  234 292.515 0.00000 -9.20478e-14
  235 292.515 0.00000 -2.47507e-14
  236 292.515 0.00000 -9.47421e-14
  237 292.515 0.00000 -2.49633e-13
  238 292.515 0.00000 -8.86098e-14
  239 292.515 0.00000 -1.69962e-14
  240 292.515 0.00000 2.45450e-14
  241 292.515 0.00000 -5.43625e-14
</Section>

newXOutput 17

<Section columns = "stress_xx | stress_yy | stress_xy">
  1 312.077 0.00000 -1.03475e-14
  2 312.077 0.00000 1.01860e-13
  3 312.077 0.00000 -2.90990e-13
  4 312.077 0.00000 8.57681e-14
  5 312.077 0.00000 -4.28248e-14
  6 312.077 0.00000 1.80044e-14
  7 312.077 0.00000 -1.54595e-14
  8 312.077 0.00000 -3.36918e-14
  9 312.077 0.00000 -7.36466e-14
  10 312.077 0.00000 -6.79068e-14
  11 312.077 0.00000 -7.07767e-14
  12 312.077 0.00000 8.09859e-14
  13 312.077 0.00000 2.21332e-13
  14 312.077 0.00000 4.24660e-14
  15 312.077 0.00000 -5.44278e-15
  16 312.077 0.00000 -2.83107e-14
  17 312.077 0.00000 -5.66214e-14
  18 312.077 0.00000 3.18398e-13
  19 312.077 0.00000 2.37771e-13
  20 312.077 0.00000 1.81150e-13
  21 312.077 0.00000 -5.23165e-14
  22 312.077 0.00000 1.64124e-13
  23 312.077 0.00000 1.72540e-13
  24 312.077 0.00000 2.83107e-14
  25 312.077 0.00000 -4.24660e-14
  26 312.077 0.00000 3.64942e-14
  27 312.077 0.00000 2.77367e-13
  28 312.077 0.00000 -5.01685e-16
  29 312.077 0.00000 0.00000
  30 312.077 0.00000 -9.24521e-14
  31 312.077 0.00000 -4.76293e-14
  32 312.077 0.00000 -1.61363e-13
  33 312.077 0.00000 -3.50078e-13
  34 312.077 0.00000 -2.31697e-13
  35 312.077 0.00000 7.43487e-14
  36 312.077 0.00000 1.25826e-13
  37 312.077 0.00000 7.36069e-14
  38 312.077 0.00000 -9.87405e-14
  39 312.077 0.00000 1.35744e-13
  40 312.077 0.00000 3.40159e-13
  41 312.077 0.00000 -3.12361e-14
  42 312.077 0.00000 -4.48887e-14
  43 312.077 0.00000 -2.63799e-14
  44 312.077 0.00000 1.14014e-14
  45 312.077 0.00000 -8.28990e-14
  46 312.077 0.00000 -1.17547e-13
  47 312.077 0.00000 -2.77113e-14
  48 312.077 0.00000 6.98072e-15
  49 312.077 0.00000 6.22744e-15
  50 312.077 0.00000 2.33181e-15
  51 312.077 0.00000 -2.65413e-14
  52 312.077 0.00000 -1.29167e-15
  53 312.077 0.00000 1.94393e-14
  54 312.077 0.00000 -1.99970e-15
  55 312.077 0.00000 4.24660e-14
  56 312.077 0.00000 4.07863e-14
  57 312.077 0.00000 -4.97679e-14
  58 312.077 0.00000 4.59395e-14
  59 312.077 0.00000 -6.07769e-16
  60 312.077 0.00000 -2.17050e-14
  61 312.077 0.00000 2.37293e-15
  62 312.077 0.00000 -9.55364e-14
  63 312.077 0.00000 -1.40911e-13
  64 312.077 0.00000 -1.17630e-13
  65 312.077 0.00000 -6.48958e-15
  66 312.077 0.00000 -2.75521e-14
  67 312.077 0.00000 9.53813e-14
  68 312.077 0.00000 -1.08489e-13
  69 312.077 0.00000 -9.17888e-14
  70 312.077 0.00000 -7.82966e-14
  71 312.077 0.00000 4.58484e-14
  72 312.077 0.00000 -2.19928e-13
  73 312.077 0.00000 1.14804e-13
  74 312.077 0.00000 3.04472e-14
  75 312.077 0.00000 -4.45109e-14
  76 312.077 0.00000 1.09752e-14
  77 312.077 0.00000 1.34703e-13
  78 312.077 0.00000 -5.47467e-14
  79 312.077 0.00000 1.87154e-14
  80 312.077 0.00000 4.11983e-14
  81 312.077 0.00000 -6.24313e-14
  82 312.077 0.00000 6.63182e-15
  83 312.077 0.00000 -7.87064e-14
  84 312.077 0.00000 2.58406e-14
  85 312.077 0.00000 -4.72362e-14
  86 312.077 0.00000 -1.75817e-13
  87 312.077 0.00000 -2.51467e-14
  88 312.077 0.00000 -3.46050e-13
  89 312.077 0.00000 -3.12329e-14
  90 312.077 0.00000 2.68963e-14
  91 312.077 0.00000 6.18330e-14
  92 312.077 0.00000 -1.70526e-14
  93 312.077 0.00000 4.80768e-13
  94 312.077 0.00000 -1.78615e-13
  95 312.077 0.00000 -5.79676e-14
  96 312.077 0.00000 -1.74298e-13
  97 312.077 0.00000 8.49321e-15
  98 312.077 0.00000 -4.97754e-14
  99 312.077 0.00000 -7.24976e-14
  100 312.077 0.00000 -2.88159e-14
  101 312.077 0.00000 -1.87934e-13
  102 312.077 0.00000 2.03241e-13
  103 312.077 0.00000 -3.29911e-14
  104 312.077 0.00000 -7.19916e-14
  105 312.077 0.00000 -4.11275e-14
  106 312.077 0.00000 -8.98573e-14
  107 312.077 0.00000 1.31163e-13
  108 312.077 0.00000 3.14920e-14
  109 312.077 0.00000 -3.40412e-14
  110 312.077 0.00000 3.39728e-14
  111 312.077 0.00000 -1.83744e-13
  112 312.077 0.00000 -4.32142e-14
  113 312.077 0.00000 -7.04920e-15
  114 312.077 0.00000 -4.45859e-14
  115 312.077 0.00000 -1.29048e-13
  116 312.077 0.00000 -3.82777e-14
  117 312.077 0.00000 -3.11631e-13
  118 312.077 0.00000 5.25606e-14
  119 312.077 0.00000 1.06144e-13
  120 312.077 0.00000 -2.22964e-14
  121 312.077 0.00000 -1.28922e-15
  122 312.077 0.00000 2.24982e-14
  123 312.077 0.00000 -2.16986e-13
  124 312.077 0.00000 6.05432e-14
  125 312.077 0.00000 9.76681e-14
  126 312.077 0.00000 -2.44753e-14
  127 312.077 0.00000 -1.14937e-13
  128 312.077 0.00000 1.76212e-13
  129 312.077 0.00000 -2.17138e-14
  130 312.077 0.00000 -3.62077e-14
  131 312.077 0.00000 7.41716e-14
  132 312.077 0.00000 -7.96760e-14
  133 312.077 0.00000 -1.42062e-13
  134 312.077 0.00000 1.13973e-13
  135 312.077 0.00000 5.15659e-14
  136 312.077 0.00000 1.01456e-14
  137 312.077 0.00000 3.82698e-14
  138 312.077 0.00000 1.31781e-13
  139 312.077 0.00000 6.75155e-14
  140 312.077 0.00000 5.33548e-14
  141 312.077 0.00000 -9.05991e-14
  142 312.077 0.00000 3.07490e-14
  143 312.077 0.00000 -8.86924e-15
  144 312.077 0.00000 -3.32777e-14
  145 312.077 0.00000 -2.70205e-13
  146 312.077 0.00000 -2.67795e-14
  147 312.077 0.00000 1.52450e-13
  148 312.077 0.00000 5.27976e-14
  149 312.077 0.00000 6.61374e-14
  150 312.077 0.00000 -1.93578e-13
  151 312.077 0.00000 -1.70509e-13
  152 312.077 0.00000 5.78096e-15
  153 312.077 0.00000 -4.88262e-14
  154 312.077 0.00000 -6.60303e-16
  155 312.077 0.00000 1.89916e-14
  156 312.077 0.00000 3.07048e-13
  157 312.077 0.00000 7.53597e-15
  158 312.077 0.00000 -1.47398e-13
  159 312.077 0.00000 -1.23679e-13
  160 312.077 0.00000 9.45340e-14
  161 312.077 0.00000 1.66822e-13
  162 312.077 0.00000 4.76463e-14
  163 312.077 0.00000 -1.39401e-13
  164 312.077 0.00000 5.31438e-14
  165 312.077 0.00000 -5.64409e-15
  166 312.077 0.00000 -7.96845e-14
  167 312.077 0.00000 1.60172e-14
  168 312.077 0.00000 -1.32383e-13
  169 312.077 0.00000 -1.61938e-14
  170 312.077 0.00000 -6.36990e-14
  171 312.077 0.00000 -9.86972e-14
  172 312.077 0.00000 1.58530e-13
  173 312.077 0.00000 3.83126e-16
  174 312.077 0.00000 -1.42940e-13
  175 312.077 0.00000 9.23809e-15
  176 312.077 0.00000 -2.20729e-14
  177 312.077 0.00000 -1.01857e-13
  178 312.077 0.00000 -4.50875e-14
  179 312.077 0.00000 -5.96183e-14
  180 312.077 0.00000 -8.73631e-15
  181 312.077 0.00000 -2.41076e-14
  182 312.077 0.00000 2.05719e-13
  183 312.077 0.00000 -1.29406e-13
  184 312.077 0.00000 -1.80626e-14
  185 312.077 0.00000 -9.00576e-16
  186 312.077 0.00000 7.03627e-14
  187 312.077 0.00000 -1.65954e-13
  188 312.077 0.00000 -3.07025e-14
  189 312.077 0.00000 2.28967e-14
  190 312.077 0.00000 2.97266e-14
  191 312.077 0.00000 -5.69474e-14
  192 312.077 0.00000 -1.58437e-13
  193 312.077 0.00000 -1.15811e-14
  194 312.077 0.00000 1.50866e-13
  195 312.077 0.00000 -8.47765e-14
  196 312.077 0.00000 5.35762e-14
  197 312.077 0.00000 -5.06199e-14
  198 312.077 0.00000 2.26680e-14
  199 312.077 0.00000 8.30898e-15
  200 312.077 0.00000 1.62265e-13
  201 312.077 0.00000 -7.47377e-14
  202 312.077 0.00000 -2.55379e-15
  203 312.077 0.00000 -9.41136e-14
  204 312.077 0.00000 -2.11845e-13
  205 312.077 0.00000 1.70627e-14
  206 312.077 0.00000 5.94524e-14
  207 312.077 0.00000 1.81987e-14
  208 312.077 0.00000 -7.04204e-14
  209 312.077 0.00000 5.67522e-14
  210 312.077 0.00000 -6.62850e-14
  211 312.077 0.00000 -5.57009e-15
  212 312.077 0.00000 -6.20354e-14
  213 312.077 0.00000 2.78035e-14
  214 312.077 0.00000 -6.15116e-14
  215 312.077 0.00000 1.93162e-13
  216 312.077 0.00000 -1.25380e-13
  217 312.077 0.00000 4.97380e-15
  218 312.077 0.00000 -7.53149e-14
  219 312.077 0.00000 4.21432e-14
  220 312.077 0.00000 -1.00510e-13
  221 312.077 0.00000 -1.31940e-13
  222 312.077 0.00000 5.36618e-14
  223 312.077 0.00000 -1.63900e-15
  224 312.077 0.00000 8.54904e-14
  225 312.077 0.00000 -7.30208e-15
  226 312.077 0.00000 2.46971e-14
  227 312.077 0.00000 -2.20363e-13
  228 312.077 0.00000 5.23785e-14
  229 312.077 0.00000 6.34020e-14
  230 312.077 0.00000 9.16510e-14
  231 312.077 0.00000 -9.71831e-14
  232 312.077 0.00000 5.51106e-14
  233 312.077 0.00000 8.42863e-14
  234 312.077 0.00000 -5.80788e-14
  235 312.077 0.00000 5.00392e-14
  236 312.077 0.00000 1.87907e-14
  237 312.077 0.00000 -6.08584e-14
  238 312.077 0.00000 -1.26738e-13
  239 312.077 0.00000 1.00205e-13
  240 312.077 0.00000 5.83762e-14
  241 312.077 0.00000 1.00474e-13
</Section>

newXOutput 18

<Section columns = "stress_xx | stress_yy | stress_xy">
  1 331.647 0.00000 1.09154e-14
  2 331.647 0.00000 1.01720e-13
  3 331.647 0.00000 4.39852e-13
  4 331.647 0.00000 7.16619e-14
  5 331.647 0.00000 -2.83454e-14
  6 331.647 0.00000 -1.71553e-15
  7 331.647 0.00000 -6.63504e-14
  8 331.647 0.00000 -3.04982e-15
  9 331.647 0.00000 -4.25181e-14
  10 331.647 0.00000 -1.34102e-13
  11 331.647 0.00000 4.95596e-15
  12 331.647 0.00000 -5.09723e-14
  13 331.647 0.00000 1.64875e-13
  14 331.647 0.00000 1.73122e-13
  15 331.647 0.00000 -8.79458e-14
  16 331.647 0.00000 -1.18405e-13
  17 331.647 0.00000 -2.55557e-13
  18 331.647 0.00000 1.87474e-14
  19 331.647 0.00000 8.50361e-14
  20 331.647 0.00000 3.46693e-13
  21 331.647 0.00000 5.16765e-13
  22 331.647 0.00000 8.50361e-14
  23 331.647 0.00000 -7.23884e-14
  24 331.647 0.00000 -8.19863e-14
  25 331.647 0.00000 4.25181e-14
  26 331.647 0.00000 5.77980e-14
  27 331.647 0.00000 1.71059e-13
  28 331.647 0.00000 1.48813e-13
  29 331.647 0.00000 1.38184e-13
  30 331.647 0.00000 1.53192e-13
  31 331.647 0.00000 4.62233e-13
  32 331.647 0.00000 -3.55941e-14
  33 331.647 0.00000 4.93260e-14
  34 331.647 0.00000 1.55206e-13
  35 331.647 0.00000 4.69252e-14
  36 331.647 0.00000 1.94592e-13
  37 331.647 0.00000 1.27415e-13
  38 331.647 0.00000 1.21259e-13
  39 331.647 0.00000 1.09611e-13
  40 331.647 0.00000 2.16969e-13
  41 331.647 0.00000 3.10811e-14
  42 331.647 0.00000 1.25492e-13
  43 331.647 0.00000 1.16822e-13
  44 331.647 0.00000 1.87835e-14
  45 331.647 0.00000 -9.77797e-15
  46 331.647 0.00000 -9.64048e-14
  47 331.647 0.00000 -6.53297e-14
  48 331.647 0.00000 -3.53983e-14
  49 331.647 0.00000 -3.44725e-14
  50 331.647 0.00000 1.29169e-14
  51 331.647 0.00000 -1.06295e-14
  52 331.647 0.00000 -1.71847e-14
  53 331.647 0.00000 2.30867e-14
  54 331.647 0.00000 -2.18645e-15
  55 331.647 0.00000 0.00000
  56 331.647 0.00000 4.12230e-14
  57 331.647 0.00000 -3.64969e-14
  58 331.647 0.00000 -1.39243e-13
  59 331.647 0.00000 6.29458e-14
  60 331.647 0.00000 1.58272e-13
  61 331.647 0.00000 5.08350e-14
  62 331.647 0.00000 6.16047e-14
  63 331.647 0.00000 2.06078e-13
  64 331.647 0.00000 2.19598e-13
  65 331.647 0.00000 4.42497e-14
  66 331.647 0.00000 -1.52169e-14
  67 331.647 0.00000 2.25563e-13
  68 331.647 0.00000 -2.39500e-14
  69 331.647 0.00000 6.34473e-14
  70 331.647 0.00000 -7.10122e-14
  71 331.647 0.00000 -4.27367e-14
  72 331.647 0.00000 -2.15885e-14
  73 331.647 0.00000 7.44739e-14
  74 331.647 0.00000 5.93168e-14
  75 331.647 0.00000 -6.03461e-14
  76 331.647 0.00000 2.58764e-13
  77 331.647 0.00000 7.74508e-14
  78 331.647 0.00000 3.64633e-14
  79 331.647 0.00000 9.25638e-14
  80 331.647 0.00000 1.16420e-13
  81 331.647 0.00000 -1.00689e-13
  82 331.647 0.00000 4.49607e-14
  83 331.647 0.00000 -4.35875e-14
  84 331.647 0.00000 5.38876e-14
  85 331.647 0.00000 1.13269e-13
  86 331.647 0.00000 -2.13117e-13
  87 331.647 0.00000 -1.80932e-14
  88 331.647 0.00000 -7.29123e-14
  89 331.647 0.00000 -1.26932e-14
  90 331.647 0.00000 4.41467e-14
  91 331.647 0.00000 7.35657e-14
  92 331.647 0.00000 -2.36977e-15
  93 331.647 0.00000 -1.93336e-13
  94 331.647 0.00000 -1.60048e-14
  95 331.647 0.00000 -3.13503e-15
  96 331.647 0.00000 -7.29097e-14
  97 331.647 0.00000 1.80540e-13
  98 331.647 0.00000 -5.37766e-14
  99 331.647 0.00000 1.06632e-14
  100 331.647 0.00000 6.01644e-14
  101 331.647 0.00000 5.59900e-14
  102 331.647 0.00000 9.01222e-14
  103 331.647 0.00000 1.24622e-13
  104 331.647 0.00000 1.72360e-14
  105 331.647 0.00000 1.85176e-15
  106 331.647 0.00000 1.38700e-13
  107 331.647 0.00000 2.98933e-13
  108 331.647 0.00000 -6.45564e-15
  109 331.647 0.00000 -1.94426e-14
  110 331.647 0.00000 2.85167e-13
  111 331.647 0.00000 1.40522e-13
  112 331.647 0.00000 4.38313e-14
  113 331.647 0.00000 -2.65147e-14
  114 331.647 0.00000 1.01990e-13
  115 331.647 0.00000 7.57182e-15
  116 331.647 0.00000 -6.22701e-14
  117 331.647 0.00000 -2.41407e-14
  118 331.647 0.00000 1.11583e-13
  119 331.647 0.00000 8.54879e-14
  120 331.647 0.00000 4.99969e-14
  121 331.647 0.00000 9.08699e-15
  122 331.647 0.00000 1.05570e-13
  123 331.647 0.00000 -9.94975e-15
  124 331.647 0.00000 -1.73900e-13
  125 331.647 0.00000 2.12117e-14
  126 331.647 0.00000 2.81295e-14
  127 331.647 0.00000 -4.96876e-15
  128 331.647 0.00000 1.01552e-13
  129 331.647 0.00000 7.04358e-15
  130 331.647 0.00000 -4.75973e-15
  131 331.647 0.00000 8.74269e-14
  132 331.647 0.00000 -7.50148e-14
  133 331.647 0.00000 -8.26142e-14
  134 331.647 0.00000 7.81356e-15
  135 331.647 0.00000 1.94330e-14
  136 331.647 0.00000 -1.79326e-14
  137 331.647 0.00000 2.04102e-13
  138 331.647 0.00000 4.53380e-14
  139 331.647 0.00000 4.76971e-14
  140 331.647 0.00000 3.71505e-14
  141 331.647 0.00000 4.73479e-14
  142 331.647 0.00000 5.69599e-15
  143 331.647 0.00000 -4.56992e-15
  144 331.647 0.00000 -8.33288e-14
  145 331.647 0.00000 3.59332e-15
  146 331.647 0.00000 -8.16406e-15
  147 331.647 0.00000 1.04917e-13
  148 331.647 0.00000 3.39909e-14
  149 331.647 0.00000 3.20119e-13
  150 331.647 0.00000 4.45789e-14
  151 331.647 0.00000 5.56705e-15
  152 331.647 0.00000 2.73867e-14
  153 331.647 0.00000 6.46966e-15
  154 331.647 0.00000 1.76450e-13
  155 331.647 0.00000 -4.40472e-14
  156 331.647 0.00000 5.40798e-14
  157 331.647 0.00000 -1.86653e-14
  158 331.647 0.00000 -9.04910e-14
  159 331.647 0.00000 1.20059e-13
  160 331.647 0.00000 4.59323e-14
  161 331.647 0.00000 2.44452e-13
  162 331.647 0.00000 1.24496e-13
  163 331.647 0.00000 1.60900e-14
  164 331.647 0.00000 1.12537e-13
  165 331.647 0.00000 7.07850e-14
  166 331.647 0.00000 -6.92913e-14
  167 331.647 0.00000 1.36286e-13
  168 331.647 0.00000 1.63280e-13
  169 331.647 0.00000 -1.40137e-14
  170 331.647 0.00000 2.91841e-13
  171 331.647 0.00000 -1.19246e-14
  172 331.647 0.00000 7.94971e-14
  173 331.647 0.00000 2.49433e-14
  174 331.647 0.00000 -2.50455e-13
  175 331.647 0.00000 -1.72116e-15
  176 331.647 0.00000 -2.13347e-14
  177 331.647 0.00000 2.58006e-13
  178 331.647 0.00000 -6.28843e-14
  179 331.647 0.00000 -4.54917e-14
  180 331.647 0.00000 1.80923e-14
  181 331.647 0.00000 -8.85457e-14
  182 331.647 0.00000 1.92639e-13
  183 331.647 0.00000 3.71529e-14
  184 331.647 0.00000 -1.84604e-13
  185 331.647 0.00000 6.91563e-14
  186 331.647 0.00000 -1.87025e-15
  187 331.647 0.00000 1.26442e-13
  188 331.647 0.00000 4.90074e-14
  189 331.647 0.00000 5.42341e-14
  190 331.647 0.00000 6.31602e-14
  191 331.647 0.00000 7.04780e-14
  192 331.647 0.00000 2.29082e-13
  193 331.647 0.00000 1.64942e-13
  194 331.647 0.00000 3.54351e-13
  195 331.647 0.00000 -6.80386e-14
  196 331.647 0.00000 1.86230e-13
  197 331.647 0.00000 -7.51102e-15
  198 331.647 0.00000 -7.57969e-15
  199 331.647 0.00000 1.47838e-14
  200 331.647 0.00000 1.88933e-15
  201 331.647 0.00000 -1.51636e-14
  202 331.647 0.00000 2.13277e-13
  203 331.647 0.00000 4.32637e-14
  204 331.647 0.00000 -5.09611e-15
  205 331.647 0.00000 3.59643e-14
  206 331.647 0.00000 2.23058e-13
  207 331.647 0.00000 -8.57227e-15
  208 331.647 0.00000 -5.19362e-14
  209 331.647 0.00000 3.46502e-13
  210 331.647 0.00000 -4.05426e-14
  211 331.647 0.00000 -1.34551e-14
  212 331.647 0.00000 -3.47316e-13
  213 331.647 0.00000 -1.26112e-14
  214 331.647 0.00000 1.30389e-14
  215 331.647 0.00000 -4.03988e-15
  216 331.647 0.00000 -4.38148e-14
  217 331.647 0.00000 2.42315e-13
  218 331.647 0.00000 -1.46976e-14
  219 331.647 0.00000 1.00308e-13
  220 331.647 0.00000 8.74356e-14
  221 331.647 0.00000 9.41632e-14
  222 331.647 0.00000 -1.94734e-13
  223 331.647 0.00000 2.96349e-15
  224 331.647 0.00000 -1.13157e-14
  225 331.647 0.00000 -6.50486e-14
  226 331.647 0.00000 4.99924e-14
  227 331.647 0.00000 4.14876e-16
  228 331.647 0.00000 5.71707e-14
  229 331.647 0.00000 5.65212e-14
  230 331.647 0.00000 9.63721e-14
  231 331.647 0.00000 6.27008e-15
  232 331.647 0.00000 4.27989e-14
  233 331.647 0.00000 -1.77244e-13
  234 331.647 0.00000 -5.54027e-14
  235 331.647 0.00000 5.66973e-14
  236 331.647 0.00000 2.15594e-14
  237 331.647 0.00000 -6.56848e-14
  238 331.647 0.00000 -2.86593e-15
  239 331.647 0.00000 1.81083e-13
  240 331.647 0.00000 3.19155e-14
  241 331.647 0.00000 -6.67821e-14
</Section>

newXOutput 19

<Section columns = "stress_xx | stress_yy | stress_xy">
  1 351.225 0.00000 -3.16248e-14
  2 351.225 0.00000 -3.40561e-13
  3 351.225 0.00000 -2.09660e-13
  4 351.225 0.00000 4.25319e-14
  5 351.225 0.00000 -1.45938e-14
  6 351.225 0.00000 1.82571e-14
  7 351.225 0.00000 -3.70751e-14
  8 351.225 0.00000 -4.74148e-14
  9 351.225 0.00000 9.28707e-14
  10 351.225 0.00000 1.09483e-13
  11 351.225 0.00000 2.79764e-14
  12 351.225 0.00000 -1.21654e-13
  13 351.225 0.00000 -1.71839e-13
  14 351.225 0.00000 -1.63821e-13
  15 351.225 0.00000 -1.34719e-13
  16 351.225 0.00000 -1.41900e-14
  17 351.225 0.00000 -2.36386e-13
  18 351.225 0.00000 1.25751e-14
  19 351.225 0.00000 -1.26095e-13
  20 351.225 0.00000 -1.45130e-13
  21 351.225 0.00000 -1.16750e-13
  22 351.225 0.00000 -1.78011e-13
  23 351.225 0.00000 -3.85209e-13
  24 351.225 0.00000 -3.48397e-14
  25 351.225 0.00000 -1.27710e-13
  26 351.225 0.00000 1.62021e-14
  27 351.225 0.00000 -9.99657e-14
  28 351.225 0.00000 4.10015e-14
  29 351.225 0.00000 -2.12851e-14
  30 351.225 0.00000 -5.85339e-14
  31 351.225 0.00000 -2.73672e-13
  32 351.225 0.00000 -3.58930e-13
  33 351.225 0.00000 -7.62567e-14
  34 351.225 0.00000 2.24426e-13
  35 351.225 0.00000 4.49162e-14
  36 351.225 0.00000 4.21950e-14
  37 351.225 0.00000 1.35996e-13
  38 351.225 0.00000 1.74662e-13
  39 351.225 0.00000 4.90060e-14
  40 351.225 0.00000 -2.01750e-13
  41 351.225 0.00000 -2.26867e-14
  42 351.225 0.00000 9.78973e-15
  43 351.225 0.00000 2.81372e-14
  44 351.225 0.00000 -1.19374e-14
  45 351.225 0.00000 -5.97656e-14
  46 351.225 0.00000 -7.06287e-14
  47 351.225 0.00000 5.82858e-15
  48 351.225 0.00000 -2.96449e-14
  49 351.225 0.00000 -2.95593e-14
  50 351.225 0.00000 7.33988e-15
  51 351.225 0.00000 0.00000
  52 351.225 0.00000 -2.33128e-14
  53 351.225 0.00000 -2.99950e-14
  54 351.225 0.00000 -2.24962e-14
  55 351.225 0.00000 -2.12851e-14
  56 351.225 0.00000 -1.37863e-14
  57 351.225 0.00000 -1.90571e-14
  58 351.225 0.00000 1.41050e-13
  59 351.225 0.00000 -1.51789e-13
  60 351.225 0.00000 -1.44278e-13
  61 351.225 0.00000 4.30822e-14
  62 351.225 0.00000 -6.29253e-14
  63 351.225 0.00000 1.96410e-14
  64 351.225 0.00000 1.37921e-13
  65 351.225 0.00000 3.96067e-14
  66 351.225 0.00000 -2.86212e-14
  67 351.225 0.00000 -1.04202e-13
  68 351.225 0.00000 9.16661e-14
  69 351.225 0.00000 -1.74000e-13
  70 351.225 0.00000 -1.38439e-13
  71 351.225 0.00000 -9.25165e-14
  72 351.225 0.00000 8.67295e-14
  73 351.225 0.00000 3.81396e-14
  74 351.225 0.00000 -1.33364e-14
  75 351.225 0.00000 -1.08190e-13
  76 351.225 0.00000 7.18305e-14
  77 351.225 0.00000 5.10575e-14
  78 351.225 0.00000 -1.16720e-13
  79 351.225 0.00000 2.00338e-14
  80 351.225 0.00000 -5.77265e-14
  81 351.225 0.00000 -1.71326e-13
  82 351.225 0.00000 2.10463e-14
  83 351.225 0.00000 7.73703e-15
  84 351.225 0.00000 -3.14510e-14
  85 351.225 0.00000 1.90831e-13
  86 351.225 0.00000 7.84489e-14
  87 351.225 0.00000 -1.76506e-14
  88 351.225 0.00000 -4.52883e-14
  89 351.225 0.00000 1.24772e-14
  90 351.225 0.00000 -7.29763e-14
  91 351.225 0.00000 -3.62839e-14
  92 351.225 0.00000 -2.49410e-14
  93 351.225 0.00000 -7.70591e-14
  94 351.225 0.00000 1.90200e-13
  95 351.225 0.00000 -2.63403e-14
  96 351.225 0.00000 5.67602e-14
  97 351.225 0.00000 7.64198e-14
  98 351.225 0.00000 -8.56664e-14
  99 351.225 0.00000 -7.01362e-14
  100 351.225 0.00000 -5.29009e-14
  101 351.225 0.00000 3.94693e-14
  102 351.225 0.00000 -1.15761e-13
  103 351.225 0.00000 -4.84540e-14
  104 351.225 0.00000 -6.01779e-14
  105 351.225 0.00000 -2.06268e-14
  106 351.225 0.00000 2.93464e-14
  107 351.225 0.00000 1.67527e-13
  108 351.225 0.00000 -1.65586e-14
  109 351.225 0.00000 -2.29807e-14
  110 351.225 0.00000 -1.33603e-13
  111 351.225 0.00000 -1.02508e-13
  112 351.225 0.00000 -1.56071e-13
  113 351.225 0.00000 -1.60764e-14
  114 351.225 0.00000 -9.13639e-14
  115 351.225 0.00000 5.58645e-14
  116 351.225 0.00000 -2.72198e-14
  117 351.225 0.00000 4.42579e-14
  118 351.225 0.00000 7.45854e-14
  119 351.225 0.00000 -3.35160e-14
  120 351.225 0.00000 5.78605e-14
  121 351.225 0.00000 2.28983e-14
  122 351.225 0.00000 -1.54880e-13
  123 351.225 0.00000 -1.10057e-13
  124 351.225 0.00000 -7.54586e-14
  125 351.225 0.00000 -5.40642e-14
  126 351.225 0.00000 -2.42534e-14
  127 351.225 0.00000 1.93835e-13
  128 351.225 0.00000 1.34590e-13
  129 351.225 0.00000 -4.68576e-14
  130 351.225 0.00000 -1.14746e-13
  131 351.225 0.00000 -5.81624e-14
  132 351.225 0.00000 -5.47199e-14
  133 351.225 0.00000 -3.37940e-14
  134 351.225 0.00000 -1.10776e-13
  135 351.225 0.00000 -1.96285e-14
  136 351.225 0.00000 -1.47229e-14
  137 351.225 0.00000 1.09671e-13
  138 351.225 0.00000 -8.31646e-14
  139 351.225 0.00000 3.00708e-14
  140 351.225 0.00000 -7.49799e-14
  141 351.225 0.00000 6.10581e-14
  142 351.225 0.00000 8.42468e-14
  143 351.225 0.00000 -5.02031e-14
  144 351.225 0.00000 -1.08386e-13
  145 351.225 0.00000 -1.10000e-14
  146 351.225 0.00000 -2.01381e-14
  147 351.225 0.00000 -5.36036e-14
  148 351.225 0.00000 4.52874e-15
  149 351.225 0.00000 -1.13110e-13
  150 351.225 0.00000 3.10716e-14
  151 351.225 0.00000 -2.00309e-14
  152 351.225 0.00000 -1.90189e-13
  153 351.225 0.00000 3.61171e-14
  154 351.225 0.00000 -5.43722e-14
  155 351.225 0.00000 -3.45568e-14
  156 351.225 0.00000 1.07625e-13
  157 351.225 0.00000 -3.94957e-14
  158 351.225 0.00000 -2.60808e-13
  159 351.225 0.00000 -3.07958e-14
  160 351.225 0.00000 1.24256e-14
  161 351.225 0.00000 7.25598e-14
  162 351.225 0.00000 -5.57181e-14
  163 351.225 0.00000 -2.95396e-13
  164 351.225 0.00000 3.36522e-14
  165 351.225 0.00000 -8.27245e-14
  166 351.225 0.00000 -4.24872e-14
  167 351.225 0.00000 -4.54747e-14
  168 351.225 0.00000 -5.88062e-14
  169 351.225 0.00000 -7.78611e-16
  170 351.225 0.00000 -5.65007e-14
  171 351.225 0.00000 -1.04454e-15
  172 351.225 0.00000 -1.51563e-13
  173 351.225 0.00000 -2.89559e-14
  174 351.225 0.00000 5.23192e-14
  175 351.225 0.00000 -9.28847e-15
  176 351.225 0.00000 -1.38872e-14
  177 351.225 0.00000 -2.02918e-13
  178 351.225 0.00000 -7.35678e-14
  179 351.225 0.00000 -3.98697e-14
  180 351.225 0.00000 5.12981e-15
  181 351.225 0.00000 -1.15734e-13
  182 351.225 0.00000 -4.96641e-14
  183 351.225 0.00000 -2.22116e-14
  184 351.225 0.00000 -1.42316e-13
  185 351.225 0.00000 -5.23903e-14
  186 351.225 0.00000 -8.97785e-14
  187 351.225 0.00000 -2.40497e-13
  188 351.225 0.00000 -4.59640e-14
  189 351.225 0.00000 6.77578e-14
  190 351.225 0.00000 -1.22799e-14
  191 351.225 0.00000 -5.12370e-14
  192 351.225 0.00000 1.58526e-13
  193 351.225 0.00000 -6.70527e-14
  194 351.225 0.00000 6.96381e-14
  195 351.225 0.00000 -4.03571e-14
  196 351.225 0.00000 -1.72164e-14
  197 351.225 0.00000 -1.44349e-14
  198 351.225 0.00000 1.56726e-13
  199 351.225 0.00000 5.42220e-15
  200 351.225 0.00000 1.10463e-14
  201 351.225 0.00000 -1.41196e-13
  202 351.225 0.00000 1.12275e-13
  203 351.225 0.00000 -7.89685e-14
  204 351.225 0.00000 2.78572e-14
  205 351.225 0.00000 3.75161e-14
  206 351.225 0.00000 6.69368e-14
  207 351.225 0.00000 -1.21052e-15
  208 351.225 0.00000 1.30669e-14
  209 351.225 0.00000 -1.38368e-13
  210 351.225 0.00000 -3.01720e-14
  211 351.225 0.00000 1.80841e-14
  212 351.225 0.00000 -2.11818e-14
  213 351.225 0.00000 -1.54914e-14
  214 351.225 0.00000 -5.43710e-14
  215 351.225 0.00000 8.79488e-14
  216 351.225 0.00000 -8.80391e-14
  217 351.225 0.00000 -7.04736e-14
  218 351.225 0.00000 -4.76205e-14
  219 351.225 0.00000 -2.90681e-15
  220 351.225 0.00000 8.22018e-15
  221 351.225 0.00000 2.52363e-14
  222 351.225 0.00000 -1.43747e-13
  223 351.225 0.00000 1.58348e-15
  224 351.225 0.00000 -1.10198e-13
  225 351.225 0.00000 3.36383e-13
  226 351.225 0.00000 1.42423e-14
  227 351.225 0.00000 2.91081e-14
  228 351.225 0.00000 -7.80796e-14
  229 351.225 0.00000 3.50396e-14
  230 351.225 0.00000 -1.36089e-13
  231 351.225 0.00000 2.25518e-13
  232 351.225 0.00000 3.69763e-14
  233 351.225 0.00000 -6.31285e-14
  234 351.225 0.00000 -1.35287e-13
  235 351.225 0.00000 -1.73734e-14
  236 351.225 0.00000 -5.58644e-15
  237 351.225 0.00000 -4.99632e-14
  238 351.225 0.00000 3.85037e-14
  239 351.225 0.00000 -8.09871e-14
  240 351.225 0.00000 -5.45112e-14
  241 351.225 0.00000 -4.17627e-14
</Section>

newXOutput 20

<Section columns = "stress_xx | stress_yy | stress_xy">
  1 370.809 0.00000 6.39343e-16
  2 370.809 0.00000 -2.13111e-13
  3 370.809 0.00000 -4.23223e-13
  4 370.809 0.00000 -1.03586e-13
  5 370.809 0.00000 1.42074e-14
  6 370.809 0.00000 3.87861e-14
  7 370.809 0.00000 1.52373e-14
  8 370.809 0.00000 5.08623e-14
  9 370.809 0.00000 -3.40983e-15
  10 370.809 0.00000 2.84148e-14
  11 370.809 0.00000 -9.51894e-14
  12 370.809 0.00000 -1.91658e-13
  13 370.809 0.00000 4.51795e-14
  14 370.809 0.00000 1.54576e-13
  15 370.809 0.00000 4.65114e-14
  16 370.809 0.00000 -6.76271e-14
  17 370.809 0.00000 -5.38744e-13
  18 370.809 0.00000 -4.26222e-14
  19 370.809 0.00000 -8.52443e-14
  20 370.809 0.00000 7.38772e-15
  21 370.809 0.00000 -1.27866e-13
  22 370.809 0.00000 -6.76271e-14
  23 370.809 0.00000 2.92672e-14
  24 370.809 0.00000 9.26320e-14
  25 370.809 0.00000 2.13111e-14
  26 370.809 0.00000 1.61272e-13
  27 370.809 0.00000 6.39332e-14
  28 370.809 0.00000 3.85198e-14
  29 370.809 0.00000 -3.19666e-14
  30 370.809 0.00000 -1.23871e-13
  31 370.809 0.00000 -2.65394e-14
  32 370.809 0.00000 -7.66510e-14
  33 370.809 0.00000 -1.23353e-13
  34 370.809 0.00000 8.94672e-14
  35 370.809 0.00000 6.36928e-14
  36 370.809 0.00000 -2.12304e-14
  37 370.809 0.00000 -1.88434e-13
  38 370.809 0.00000 -6.88621e-14
  39 370.809 0.00000 -1.44291e-13
  40 370.809 0.00000 -1.73576e-14
  41 370.809 0.00000 -1.81806e-13
  42 370.809 0.00000 2.28618e-15
  43 370.809 0.00000 -4.26985e-14
  44 370.809 0.00000 -6.05287e-14
  45 370.809 0.00000 2.00037e-14
  46 370.809 0.00000 6.68363e-15
  47 370.809 0.00000 4.51638e-14
  48 370.809 0.00000 3.08770e-15
  49 370.809 0.00000 -6.78825e-14
  50 370.809 0.00000 5.36328e-14
  51 370.809 0.00000 6.39332e-14
  52 370.809 0.00000 -1.01960e-13
  53 370.809 0.00000 8.22607e-14
  54 370.809 0.00000 4.04910e-14
  55 370.809 0.00000 6.39332e-14
  56 370.809 0.00000 3.41688e-14
  57 370.809 0.00000 -1.56388e-13
  58 370.809 0.00000 -2.24548e-13
  59 370.809 0.00000 4.41477e-16
  60 370.809 0.00000 4.55169e-14
  61 370.809 0.00000 8.50667e-15
  62 370.809 0.00000 -3.13805e-14
  63 370.809 0.00000 -1.55315e-13
  64 370.809 0.00000 1.81499e-14
  65 370.809 0.00000 -3.76673e-14
  66 370.809 0.00000 3.48075e-15
  67 370.809 0.00000 2.60351e-14
  68 370.809 0.00000 -9.97358e-14
  69 370.809 0.00000 -1.89159e-13
  70 370.809 0.00000 2.18002e-14
  71 370.809 0.00000 -4.08285e-14
  72 370.809 0.00000 9.55007e-15
  73 370.809 0.00000 -3.54586e-13
  74 370.809 0.00000 5.93647e-14
  75 370.809 0.00000 -1.05021e-13
  76 370.809 0.00000 7.96323e-14
  77 370.809 0.00000 -1.30974e-13
  78 370.809 0.00000 -3.34930e-13
  79 370.809 0.00000 -1.10361e-13
  80 370.809 0.00000 8.18700e-14
  81 370.809 0.00000 3.43108e-14
  82 370.809 0.00000 -1.95149e-13
  83 370.809 0.00000 -8.73576e-14
  84 370.809 0.00000 5.40945e-14
  85 370.809 0.00000 1.02293e-14
  86 370.809 0.00000 1.50385e-13
  87 370.809 0.00000 1.60248e-13
  88 370.809 0.00000 -4.92568e-13
  89 370.809 0.00000 3.23821e-14
  90 370.809 0.00000 -5.79128e-14
  91 370.809 0.00000 4.27287e-14
  92 370.809 0.00000 -2.05439e-13
  93 370.809 0.00000 2.55737e-15
  94 370.809 0.00000 2.98342e-16
  95 370.809 0.00000 6.77479e-14
  96 370.809 0.00000 -1.01441e-13
  97 370.809 0.00000 -7.77428e-14
  98 370.809 0.00000 9.76051e-15
  99 370.809 0.00000 -4.68133e-14
  100 370.809 0.00000 2.34419e-15
  101 370.809 0.00000 7.05397e-14
  102 370.809 0.00000 -7.69330e-14
  103 370.809 0.00000 1.40227e-13
  104 370.809 0.00000 -4.77368e-14
  105 370.809 0.00000 1.40610e-13
  106 370.809 0.00000 2.02207e-13
  107 370.809 0.00000 2.22310e-13
  108 370.809 0.00000 -2.51746e-13
  109 370.809 0.00000 6.92183e-14
  110 370.809 0.00000 -1.20748e-13
  111 370.809 0.00000 -2.77880e-13
  112 370.809 0.00000 5.67895e-14
  113 370.809 0.00000 -7.24220e-14
  114 370.809 0.00000 -2.01739e-13
  115 370.809 0.00000 -2.19587e-14
  116 370.809 0.00000 -2.26751e-14
  117 370.809 0.00000 -1.34721e-13
  118 370.809 0.00000 3.09899e-15
  119 370.809 0.00000 2.98659e-14
  120 370.809 0.00000 -3.24941e-13
  121 370.809 0.00000 -4.06280e-14
  122 370.809 0.00000 5.35820e-15
  123 370.809 0.00000 -2.97840e-13
  124 370.809 0.00000 -2.02002e-13
  125 370.809 0.00000 -2.96359e-15
  126 370.809 0.00000 4.57255e-14
  127 370.809 0.00000 8.73145e-14
  128 370.809 0.00000 -7.44823e-14
  129 370.809 0.00000 3.43321e-14
  130 370.809 0.00000 -7.09658e-14
  131 370.809 0.00000 1.80590e-14
  132 370.809 0.00000 -2.24246e-15
  133 370.809 0.00000 -2.46112e-13
  134 370.809 0.00000 -3.12055e-14
  135 370.809 0.00000 -1.53927e-13
  136 370.809 0.00000 7.29272e-14
  137 370.809 0.00000 -1.60765e-13
  138 370.809 0.00000 -3.00309e-14
  139 370.809 0.00000 -1.39664e-13
  140 370.809 0.00000 -3.11141e-14
  141 370.809 0.00000 -1.33105e-13
  142 370.809 0.00000 5.39878e-15
  143 370.809 0.00000 -3.07031e-14
  144 370.809 0.00000 -1.58598e-13
  145 370.809 0.00000 1.77984e-14
  146 370.809 0.00000 -7.21209e-14
  147 370.809 0.00000 1.85688e-14
  148 370.809 0.00000 1.20727e-13
  149 370.809 0.00000 -4.72040e-14
  150 370.809 0.00000 9.82801e-14
  151 370.809 0.00000 3.75430e-14
  152 370.809 0.00000 8.54218e-14
  153 370.809 0.00000 -8.39656e-14
  154 370.809 0.00000 1.85619e-13
  155 370.809 0.00000 7.29371e-14
  156 370.809 0.00000 1.17089e-13
  157 370.809 0.00000 -2.52719e-13
  158 370.809 0.00000 -1.03643e-13
  159 370.809 0.00000 -9.02879e-14
  160 370.809 0.00000 -7.57182e-14
  161 370.809 0.00000 2.57097e-13
  162 370.809 0.00000 -8.25094e-14
  163 370.809 0.00000 -3.99938e-14
  164 370.809 0.00000 -1.98710e-13
  165 370.809 0.00000 2.05829e-14
  166 370.809 0.00000 9.33653e-14
  167 370.809 0.00000 1.05916e-13
  168 370.809 0.00000 -1.01981e-13
  169 370.809 0.00000 4.30712e-14
  170 370.809 0.00000 -1.48879e-13
  171 370.809 0.00000 -1.63441e-13
  172 370.809 0.00000 7.81413e-15
  173 370.809 0.00000 2.63321e-14
  174 370.809 0.00000 1.74538e-13
  175 370.809 0.00000 4.39736e-14
  176 370.809 0.00000 -7.45887e-15
  177 370.809 0.00000 -3.23843e-13
  178 370.809 0.00000 -5.74511e-14
  179 370.809 0.00000 5.69005e-14
  180 370.809 0.00000 -1.47747e-13
  181 370.809 0.00000 2.78819e-14
  182 370.809 0.00000 2.67370e-14
  183 370.809 0.00000 -1.40120e-14
  184 370.809 0.00000 -3.72347e-13
  185 370.809 0.00000 4.64403e-14
  186 370.809 0.00000 1.41932e-14
  187 370.809 0.00000 -3.00676e-13
  188 370.809 0.00000 -7.91167e-14
  189 370.809 0.00000 1.40866e-14
  190 370.809 0.00000 2.60319e-14
  191 370.809 0.00000 -4.18230e-14
  192 370.809 0.00000 1.41932e-13
  193 370.809 0.00000 -1.06784e-13
  194 370.809 0.00000 -7.21025e-15
  195 370.809 0.00000 4.36880e-15
  196 370.809 0.00000 -1.57262e-13
  197 370.809 0.00000 1.06546e-13
  198 370.809 0.00000 -1.70492e-15
  199 370.809 0.00000 -7.76256e-14
  200 370.809 0.00000 -1.22183e-13
  201 370.809 0.00000 3.48569e-14
  202 370.809 0.00000 -1.26673e-13
  203 370.809 0.00000 -4.41494e-14
  204 370.809 0.00000 4.54370e-14
  205 370.809 0.00000 -8.28823e-14
  206 370.809 0.00000 -1.08601e-13
  207 370.809 0.00000 1.18428e-14
  208 370.809 0.00000 -1.01777e-13
  209 370.809 0.00000 -3.12207e-14
  210 370.809 0.00000 1.17939e-13
  211 370.809 0.00000 2.14328e-14
  212 370.809 0.00000 1.11073e-13
  213 370.809 0.00000 3.15501e-14
  214 370.809 0.00000 5.50048e-15
  215 370.809 0.00000 -3.21760e-13
  216 370.809 0.00000 5.42047e-14
  217 370.809 0.00000 -1.73224e-13
  218 370.809 0.00000 5.84190e-14
  219 370.809 0.00000 1.51820e-13
  220 370.809 0.00000 -3.88572e-14
  221 370.809 0.00000 6.26901e-14
  222 370.809 0.00000 3.22508e-14
  223 370.809 0.00000 -9.14884e-14
  224 370.809 0.00000 -2.04590e-15
  225 370.809 0.00000 -2.82627e-13
  226 370.809 0.00000 -4.30058e-14
  227 370.809 0.00000 -6.94030e-14
  228 370.809 0.00000 1.25735e-13
  229 370.809 0.00000 1.00357e-13
  230 370.809 0.00000 -2.23695e-13
  231 370.809 0.00000 -4.43270e-14
  232 370.809 0.00000 -1.07237e-13
  233 370.809 0.00000 2.50107e-13
  234 370.809 0.00000 9.65213e-15
  235 370.809 0.00000 2.84230e-14
  236 370.809 0.00000 2.84198e-14
  237 370.809 0.00000 -3.22036e-14
  238 370.809 0.00000 -4.79925e-14
  239 370.809 0.00000 2.15952e-14
  240 370.809 0.00000 -2.17372e-14
  241 370.809 0.00000 -8.95062e-15
</Section>

newXOutput 21

<Section columns = "stress_xx | stress_yy | stress_xy">
  1 390.402 0.00000 -1.81029e-13
  2 390.402 0.00000 -9.07333e-14
  3 390.402 0.00000 -2.58649e-13
  4 390.402 0.00000 5.08985e-14
  5 390.402 0.00000 -2.10230e-13
  6 390.402 0.00000 -3.59431e-14
  7 390.402 0.00000 9.20795e-14
  8 390.402 0.00000 -9.50857e-14
  9 390.402 0.00000 -9.59832e-14
  10 390.402 0.00000 -2.06191e-13
  11 390.402 0.00000 -1.48395e-13
  12 390.402 0.00000 3.65221e-13
  13 390.402 0.00000 5.56986e-14
  14 390.402 0.00000 2.29391e-13
  15 390.402 0.00000 2.35590e-15
  16 390.402 0.00000 -1.77742e-13
  17 390.402 0.00000 -1.60197e-14
  18 390.402 0.00000 1.10073e-13
  19 390.402 0.00000 1.43907e-13
  20 390.402 0.00000 3.27034e-13
  21 390.402 0.00000 -1.67107e-13
  22 390.402 0.00000 -3.69708e-13
  23 390.402 0.00000 1.66209e-13
  24 390.402 0.00000 -1.42247e-14
  25 390.402 0.00000 1.49360e-13
  26 390.402 0.00000 -3.85722e-14
  27 390.402 0.00000 1.41572e-14
  28 390.402 0.00000 -6.27284e-14
  29 390.402 0.00000 8.53484e-14
  30 390.402 0.00000 -1.44402e-13
  31 390.402 0.00000 -2.70179e-13
  32 390.402 0.00000 -5.63561e-14
  33 390.402 0.00000 1.62169e-13
  34 390.402 0.00000 1.11109e-13
  35 390.402 0.00000 8.82868e-14
  36 390.402 0.00000 2.60138e-13
  37 390.402 0.00000 -1.52871e-13
  38 390.402 0.00000 -1.51767e-13
  39 390.402 0.00000 -6.56538e-16
  40 390.402 0.00000 -2.41003e-14
  41 390.402 0.00000 3.09107e-13
  42 390.402 0.00000 2.97483e-13
  43 390.402 0.00000 1.98097e-13
  44 390.402 0.00000 1.67820e-14
  45 390.402 0.00000 -1.18655e-13
  46 390.402 0.00000 1.15865e-13
  47 390.402 0.00000 5.37832e-14
  48 390.402 0.00000 8.30057e-14
  49 390.402 0.00000 3.89429e-14
  50 390.402 0.00000 6.89990e-16
  51 390.402 0.00000 3.20056e-14
  52 390.402 0.00000 1.92279e-13
  53 390.402 0.00000 -9.95056e-14
  54 390.402 0.00000 -4.29728e-14
  55 390.402 0.00000 -4.26742e-14
  56 390.402 0.00000 -3.15907e-14
  57 390.402 0.00000 -7.99129e-14
  58 390.402 0.00000 1.39538e-13
  59 390.402 0.00000 1.24609e-13
  60 390.402 0.00000 -1.23120e-13
  61 390.402 0.00000 -4.11529e-13
  62 390.402 0.00000 1.36255e-14
  63 390.402 0.00000 -1.72810e-13
  64 390.402 0.00000 -2.93334e-13
  65 390.402 0.00000 -9.04806e-14
  66 390.402 0.00000 -1.21435e-13
  67 390.402 0.00000 -3.86482e-14
  68 390.402 0.00000 3.97574e-14
  69 390.402 0.00000 -4.97092e-14
  70 390.402 0.00000 -3.54752e-14
  71 390.402 0.00000 -5.97398e-14
  72 390.402 0.00000 -1.48590e-13
  73 390.402 0.00000 -1.64019e-14
  74 390.402 0.00000 3.52425e-14
  75 390.402 0.00000 2.06869e-13
  76 390.402 0.00000 -1.84007e-13
  77 390.402 0.00000 1.31999e-13
  78 390.402 0.00000 -1.56455e-13
  79 390.402 0.00000 2.14333e-14
  80 390.402 0.00000 -1.79497e-15
  81 390.402 0.00000 -2.35098e-13
  82 390.402 0.00000 5.37669e-14
  83 390.402 0.00000 7.33282e-14
  84 390.402 0.00000 -2.24275e-13
  85 390.402 0.00000 7.99972e-14
  86 390.402 0.00000 -1.18599e-13
  87 390.402 0.00000 1.70742e-14
  88 390.402 0.00000 -2.07606e-13
  89 390.402 0.00000 -1.05141e-13
  90 390.402 0.00000 -4.82552e-14
  91 390.402 0.00000 3.42406e-14
  92 390.402 0.00000 6.63940e-14
  93 390.402 0.00000 9.86486e-14
  94 390.402 0.00000 -3.52011e-13
  95 390.402 0.00000 -1.92820e-15
  96 390.402 0.00000 7.37570e-14
  97 390.402 0.00000 3.61718e-14
  98 390.402 0.00000 2.96977e-13
  99 390.402 0.00000 -1.76395e-13
  100 390.402 0.00000 7.85636e-14
  101 390.402 0.00000 -1.22862e-13
  102 390.402 0.00000 -2.53332e-13
  103 390.402 0.00000 2.32105e-14
  104 390.402 0.00000 5.26059e-14
  105 390.402 0.00000 1.19888e-13
  106 390.402 0.00000 5.19796e-14
  107 390.402 0.00000 -1.23527e-13
  108 390.402 0.00000 3.00753e-13
  109 390.402 0.00000 -1.29796e-13
  110 390.402 0.00000 1.56726e-13
  111 390.402 0.00000 1.95457e-14
  112 390.402 0.00000 -2.79661e-13
  113 390.402 0.00000 -6.72732e-15
  114 390.402 0.00000 1.29726e-13
  115 390.402 0.00000 -2.17362e-13
  116 390.402 0.00000 -1.51756e-13
  117 390.402 0.00000 -3.19100e-13
  118 390.402 0.00000 -7.55330e-14
  119 390.402 0.00000 -2.04909e-13
  120 390.402 0.00000 -1.75397e-14
  121 390.402 0.00000 -1.54655e-13
  122 390.402 0.00000 -9.13558e-14
  123 390.402 0.00000 -2.80176e-14
  124 390.402 0.00000 7.88825e-14
  125 390.402 0.00000 -1.32882e-15
  126 390.402 0.00000 -9.03923e-14
  127 390.402 0.00000 1.69499e-13
  128 390.402 0.00000 1.28258e-13
  129 390.402 0.00000 1.79961e-13
  130 390.402 0.00000 1.45841e-15
  131 390.402 0.00000 -1.89116e-13
  132 390.402 0.00000 1.43556e-13
  133 390.402 0.00000 -5.15208e-14
  134 390.402 0.00000 -1.31390e-13
  135 390.402 0.00000 -3.35297e-14
  136 390.402 0.00000 9.07247e-14
  137 390.402 0.00000 -1.10807e-13
  138 390.402 0.00000 -1.83917e-13
  139 390.402 0.00000 1.48410e-13
  140 390.402 0.00000 -3.80058e-14
  141 390.402 0.00000 -4.10361e-14
  142 390.402 0.00000 -1.80417e-13
  143 390.402 0.00000 -3.27579e-14
  144 390.402 0.00000 -1.71530e-14
  145 390.402 0.00000 -6.90304e-14
  146 390.402 0.00000 8.42426e-14
  147 390.402 0.00000 7.36504e-14
  148 390.402 0.00000 -1.22837e-13
  149 390.402 0.00000 -1.50249e-13
  150 390.402 0.00000 6.39069e-14
  151 390.402 0.00000 -3.30668e-13
  152 390.402 0.00000 -3.17280e-13
  153 390.402 0.00000 2.57273e-13
  154 390.402 0.00000 2.15424e-13
  155 390.402 0.00000 -7.42142e-14
  156 390.402 0.00000 1.86157e-14
  157 390.402 0.00000 4.58640e-14
  158 390.402 0.00000 -1.24881e-13
  159 390.402 0.00000 -2.14201e-13
  160 390.402 0.00000 2.99190e-14
  161 390.402 0.00000 5.12090e-14
  162 390.402 0.00000 1.64145e-13
  163 390.402 0.00000 -2.32007e-13
  164 390.402 0.00000 -1.62300e-13
  165 390.402 0.00000 -6.30801e-14
  166 390.402 0.00000 6.51345e-14
  167 390.402 0.00000 -6.62251e-14
  168 390.402 0.00000 1.42665e-14
  169 390.402 0.00000 -1.63675e-13
  170 390.402 0.00000 -3.73602e-14
  171 390.402 0.00000 7.02085e-14
  172 390.402 0.00000 -1.73254e-13
  173 390.402 0.00000 5.37943e-14
  174 390.402 0.00000 1.17320e-13
  175 390.402 0.00000 -7.36953e-14
  176 390.402 0.00000 -1.71654e-15
  177 390.402 0.00000 -4.23286e-13
  178 390.402 0.00000 -3.08808e-14
  179 390.402 0.00000 -8.32886e-14
  180 390.402 0.00000 8.69831e-14
  181 390.402 0.00000 -1.29335e-13
  182 390.402 0.00000 -6.56704e-14
  183 390.402 0.00000 1.08057e-13
  184 390.402 0.00000 -1.23176e-13
  185 390.402 0.00000 -1.72312e-13
  186 390.402 0.00000 -6.79285e-14
  187 390.402 0.00000 -7.52524e-14
  188 390.402 0.00000 3.29775e-14
  189 390.402 0.00000 -3.32966e-13
  190 390.402 0.00000 8.55482e-14
  191 390.402 0.00000 1.12671e-13
  192 390.402 0.00000 -2.01178e-13
  193 390.402 0.00000 8.16023e-14
  194 390.402 0.00000 -3.85728e-13
  195 390.402 0.00000 8.42404e-14
  196 390.402 0.00000 1.84734e-13
  197 390.402 0.00000 -2.83443e-13
  198 390.402 0.00000 -9.69482e-14
  199 390.402 0.00000 -5.81047e-14
  200 390.402 0.00000 1.92079e-13
  201 390.402 0.00000 -2.42476e-14
  202 390.402 0.00000 7.78095e-14
  203 390.402 0.00000 -2.54205e-14
  204 390.402 0.00000 -1.32426e-13
  205 390.402 0.00000 1.20093e-14
  206 390.402 0.00000 1.51392e-13
  207 390.402 0.00000 3.35773e-13
  208 390.402 0.00000 -7.84624e-14
  209 390.402 0.00000 -7.11237e-14
  210 390.402 0.00000 3.84799e-14
  211 390.402 0.00000 5.78633e-17
  212 390.402 0.00000 1.38711e-13
  213 390.402 0.00000 -1.27528e-13
  214 390.402 0.00000 2.71189e-14
  215 390.402 0.00000 2.43742e-13
  216 390.402 0.00000 1.33375e-13
  217 390.402 0.00000 -9.02930e-14
  218 390.402 0.00000 1.29844e-14
  219 390.402 0.00000 -1.57544e-13
  220 390.402 0.00000 5.52052e-14
  221 390.402 0.00000 2.87501e-13
  222 390.402 0.00000 -1.44872e-13
  223 390.402 0.00000 -2.66929e-13
  224 390.402 0.00000 -2.50458e-14
  225 390.402 0.00000 1.61075e-13
  226 390.402 0.00000 2.19697e-14
  227 390.402 0.00000 6.93287e-14
  228 390.402 0.00000 -1.98933e-13
  229 390.402 0.00000 -2.09641e-14
  230 390.402 0.00000 -2.18638e-13
  231 390.402 0.00000 -2.34506e-14
  232 390.402 0.00000 -1.82880e-13
  233 390.402 0.00000 -2.17059e-13
  234 390.402 0.00000 1.82932e-13
  235 390.402 0.00000 1.38608e-13
  236 390.402 0.00000 -2.57809e-13
  237 390.402 0.00000 -2.18176e-13
  238 390.402 0.00000 -3.88153e-13
  239 390.402 0.00000 -2.39577e-13
  240 390.402 0.00000 1.20753e-13
  241 390.402 0.00000 -7.55098e-14
</Section>

newXOutput 22

<Section columns = "stress_xx | stress_yy | stress_xy">
  1 410.001 0.00000 -3.09843e-14
  2 410.001 0.00000 1.59595e-13
  3 410.001 0.00000 8.53723e-14
  4 410.001 0.00000 -6.72958e-14
  5 410.001 0.00000 -9.42528e-16
  6 410.001 0.00000 1.21110e-13
  7 410.001 0.00000 -9.04008e-14
  8 410.001 0.00000 1.00741e-13
  9 410.001 0.00000 3.61285e-14
  10 410.001 0.00000 7.02679e-14
  11 410.001 0.00000 1.81377e-13
  12 410.001 0.00000 4.81680e-15
  13 410.001 0.00000 2.44340e-13
  14 410.001 0.00000 1.79492e-13
  15 410.001 0.00000 2.92171e-14
  16 410.001 0.00000 1.04720e-14
  17 410.001 0.00000 2.12793e-13
  18 410.001 0.00000 -6.26235e-14
  19 410.001 0.00000 -2.95314e-13
  20 410.001 0.00000 -6.45085e-14
  21 410.001 0.00000 -2.63059e-13
  22 410.001 0.00000 2.30805e-13
  23 410.001 0.00000 1.17811e-13
  24 410.001 0.00000 0.00000
  25 410.001 0.00000 -2.13631e-14
  26 410.001 0.00000 1.20168e-14
  27 410.001 0.00000 -9.25735e-14
  28 410.001 0.00000 -8.94581e-14
  29 410.001 0.00000 4.27262e-14
  30 410.001 0.00000 -6.80538e-16
  31 410.001 0.00000 1.58323e-13
  32 410.001 0.00000 -4.48331e-14
  33 410.001 0.00000 1.95755e-13
  34 410.001 0.00000 2.16284e-13
  35 410.001 0.00000 -5.77210e-14
  36 410.001 0.00000 2.58221e-13
  37 410.001 0.00000 1.30060e-13
  38 410.001 0.00000 1.10342e-13
  39 410.001 0.00000 -1.23928e-13
  40 410.001 0.00000 -5.32614e-13
  41 410.001 0.00000 -1.04299e-13
  42 410.001 0.00000 -1.64172e-13
  43 410.001 0.00000 -1.10449e-13
  44 410.001 0.00000 -1.33360e-13
  45 410.001 0.00000 3.35467e-14
  46 410.001 0.00000 1.96686e-13
  47 410.001 0.00000 -1.79692e-13
  48 410.001 0.00000 -1.75953e-13
  49 410.001 0.00000 -1.58683e-13
  50 410.001 0.00000 -1.62580e-14
  51 410.001 0.00000 2.13631e-14
  52 410.001 0.00000 -9.47398e-14
  53 410.001 0.00000 2.70704e-14
  54 410.001 0.00000 2.11864e-14
  55 410.001 0.00000 6.40894e-14
  56 410.001 0.00000 7.75197e-14
  57 410.001 0.00000 -5.02466e-14
  58 410.001 0.00000 1.72526e-14
  59 410.001 0.00000 -4.80503e-14
  60 410.001 0.00000 5.44744e-14
  61 410.001 0.00000 3.62203e-14
  62 410.001 0.00000 1.89165e-13
  63 410.001 0.00000 -9.80188e-14
  64 410.001 0.00000 5.11955e-13
  65 410.001 0.00000 -8.77356e-15
  66 410.001 0.00000 -1.43797e-14
  67 410.001 0.00000 -1.04957e-13
  68 410.001 0.00000 -1.72724e-13
  69 410.001 0.00000 -2.92444e-13
  70 410.001 0.00000 9.13377e-15
  71 410.001 0.00000 -9.14217e-14
  72 410.001 0.00000 -5.81607e-14
  73 410.001 0.00000 2.15785e-13
  74 410.001 0.00000 -4.11163e-14
  75 410.001 0.00000 -5.35336e-14
  76 410.001 0.00000 3.14134e-15
  77 410.001 0.00000 -6.21584e-14
  78 410.001 0.00000 -5.63504e-13
  79 410.001 0.00000 -5.13939e-14
  80 410.001 0.00000 -2.43372e-13
  81 410.001 0.00000 2.33003e-14
  82 410.001 0.00000 -1.20454e-13
  83 410.001 0.00000 -1.53548e-13
  84 410.001 0.00000 -4.87349e-14
  85 410.001 0.00000 8.00590e-14
  86 410.001 0.00000 8.92747e-14
  87 410.001 0.00000 3.69731e-14
  88 410.001 0.00000 -4.20975e-15
  89 410.001 0.00000 8.68581e-14
  90 410.001 0.00000 1.43140e-14
  91 410.001 0.00000 1.57078e-14
  92 410.001 0.00000 -6.63670e-14
  93 410.001 0.00000 -2.91732e-13
  94 410.001 0.00000 1.48473e-13
  95 410.001 0.00000 -1.40730e-13
  96 410.001 0.00000 -2.64264e-13
  97 410.001 0.00000 -3.73729e-13
  98 410.001 0.00000 -1.34933e-14
  99 410.001 0.00000 1.40117e-13
  100 410.001 0.00000 -1.08229e-13
  101 410.001 0.00000 -5.26749e-14
  102 410.001 0.00000 -1.68866e-14
  103 410.001 0.00000 -1.73536e-13
  104 410.001 0.00000 8.66144e-14
  105 410.001 0.00000 1.70981e-14
  106 410.001 0.00000 -1.45565e-14
  107 410.001 0.00000 2.03211e-13
  108 410.001 0.00000 -1.61827e-13
  109 410.001 0.00000 4.17366e-14
  110 410.001 0.00000 -3.23148e-13
  111 410.001 0.00000 -1.22622e-13
  112 410.001 0.00000 -3.39102e-14
  113 410.001 0.00000 1.46358e-13
  114 410.001 0.00000 5.27931e-14
  115 410.001 0.00000 -6.60653e-14
  116 410.001 0.00000 -6.46236e-14
  117 410.001 0.00000 4.54855e-13
  118 410.001 0.00000 2.08197e-14
  119 410.001 0.00000 2.41120e-14
  120 410.001 0.00000 -3.92887e-13
  121 410.001 0.00000 -1.60521e-13
  122 410.001 0.00000 -8.21989e-14
  123 410.001 0.00000 -2.43431e-13
  124 410.001 0.00000 -6.84429e-14
  125 410.001 0.00000 -2.53591e-14
  126 410.001 0.00000 -5.44388e-14
  127 410.001 0.00000 -4.42075e-14
  128 410.001 0.00000 -2.44773e-13
  129 410.001 0.00000 4.71889e-14
  130 410.001 0.00000 -8.82801e-14
  131 410.001 0.00000 1.96148e-13
  132 410.001 0.00000 -1.26625e-13
  133 410.001 0.00000 3.91354e-14
  134 410.001 0.00000 -9.84229e-14
  135 410.001 0.00000 7.06417e-14
  136 410.001 0.00000 -7.69680e-14
  137 410.001 0.00000 -2.50366e-13
  138 410.001 0.00000 -4.40681e-14
  139 410.001 0.00000 -6.19857e-14
  140 410.001 0.00000 -1.69614e-13
  141 410.001 0.00000 -9.30318e-14
  142 410.001 0.00000 5.53449e-14
  143 410.001 0.00000 1.52479e-14
  144 410.001 0.00000 -1.08828e-13
  145 410.001 0.00000 -9.08444e-14
  146 410.001 0.00000 -8.85684e-14
  147 410.001 0.00000 -2.14252e-13
  148 410.001 0.00000 5.20994e-15
  149 410.001 0.00000 -2.21538e-13
  150 410.001 0.00000 -7.36576e-14
  151 410.001 0.00000 -8.60546e-14
  152 410.001 0.00000 -9.92258e-15
  153 410.001 0.00000 -2.77406e-13
  154 410.001 0.00000 -2.33863e-13
  155 410.001 0.00000 -5.28385e-14
  156 410.001 0.00000 1.69198e-14
  157 410.001 0.00000 -8.16711e-14
  158 410.001 0.00000 -1.19330e-13
  159 410.001 0.00000 -6.49795e-14
  160 410.001 0.00000 -1.07923e-13
  161 410.001 0.00000 1.80958e-13
  162 410.001 0.00000 1.80574e-14
  163 410.001 0.00000 -2.96204e-13
  164 410.001 0.00000 -4.62719e-14
  165 410.001 0.00000 -9.10029e-14
  166 410.001 0.00000 6.46278e-15
  167 410.001 0.00000 -5.70430e-14
  168 410.001 0.00000 -1.03741e-13
  169 410.001 0.00000 1.35758e-13
  170 410.001 0.00000 -1.64559e-13
  171 410.001 0.00000 2.20530e-14
  172 410.001 0.00000 2.38869e-13
  173 410.001 0.00000 -1.28575e-14
  174 410.001 0.00000 -5.44558e-15
  175 410.001 0.00000 -3.02599e-14
  176 410.001 0.00000 8.86192e-15
  177 410.001 0.00000 -3.04218e-14
  178 410.001 0.00000 -6.41446e-15
  179 410.001 0.00000 -1.20592e-13
  180 410.001 0.00000 -6.28552e-14
  181 410.001 0.00000 -1.60577e-13
  182 410.001 0.00000 1.16531e-13
  183 410.001 0.00000 1.80247e-14
  184 410.001 0.00000 6.89900e-14
  185 410.001 0.00000 -2.04863e-14
  186 410.001 0.00000 9.80188e-14
  187 410.001 0.00000 6.93036e-14
  188 410.001 0.00000 -1.90219e-14
  189 410.001 0.00000 -9.86945e-14
  190 410.001 0.00000 3.76959e-15
  191 410.001 0.00000 1.31503e-13
  192 410.001 0.00000 5.57863e-14
  193 410.001 0.00000 -8.73145e-14
  194 410.001 0.00000 1.31084e-13
  195 410.001 0.00000 1.44222e-14
  196 410.001 0.00000 -1.51400e-13
  197 410.001 0.00000 2.04618e-13
  198 410.001 0.00000 -1.29121e-13
  199 410.001 0.00000 4.07364e-14
  200 410.001 0.00000 -3.31665e-13
  201 410.001 0.00000 -9.62388e-14
  202 410.001 0.00000 -2.94403e-13
  203 410.001 0.00000 -1.84231e-13
  204 410.001 0.00000 8.89812e-16
  205 410.001 0.00000 -1.42349e-13
  206 410.001 0.00000 -5.26540e-14
  207 410.001 0.00000 -5.83686e-14
  208 410.001 0.00000 -2.46169e-13
  209 410.001 0.00000 6.51100e-14
  210 410.001 0.00000 6.79609e-14
  211 410.001 0.00000 -2.38877e-14
  212 410.001 0.00000 1.87492e-13
  213 410.001 0.00000 -2.09234e-14
  214 410.001 0.00000 -2.21369e-13
  215 410.001 0.00000 -1.66067e-13
  216 410.001 0.00000 -7.58315e-14
  217 410.001 0.00000 4.15214e-14
  218 410.001 0.00000 5.73992e-15
  219 410.001 0.00000 6.82519e-14
  220 410.001 0.00000 1.26751e-13
  221 410.001 0.00000 -1.65459e-13
  222 410.001 0.00000 -1.64020e-13
  223 410.001 0.00000 2.53616e-13
  224 410.001 0.00000 -7.43312e-14
  225 410.001 0.00000 1.89753e-14
  226 410.001 0.00000 -1.01381e-13
  227 410.001 0.00000 -1.02784e-13
  228 410.001 0.00000 -1.66507e-13
  229 410.001 0.00000 1.95698e-15
  230 410.001 0.00000 -2.14626e-13
  231 410.001 0.00000 -1.80330e-13
  232 410.001 0.00000 -1.22367e-14
  233 410.001 0.00000 3.65056e-14
  234 410.001 0.00000 -1.49404e-13
  235 410.001 0.00000 -1.52780e-13
  236 410.001 0.00000 1.44324e-13
  237 410.001 0.00000 6.84308e-14
  238 410.001 0.00000 -7.06240e-14
  239 410.001 0.00000 -3.42832e-14
  240 410.001 0.00000 1.16303e-13
  241 410.001 0.00000 -9.78095e-14
</Section>

newXOutput 23

<Section columns = "stress_xx | stress_yy | stress_xy">
  1 429.608 0.00000 8.33345e-14
  2 429.608 0.00000 -1.71113e-13
  3 429.608 0.00000 -7.95145e-13
  4 429.608 0.00000 6.25409e-14
  5 429.608 0.00000 7.27785e-14
  6 429.608 0.00000 -1.60743e-13
  7 429.608 0.00000 -1.30141e-13
  8 429.608 0.00000 -2.37905e-13
  9 429.608 0.00000 -1.84818e-13
  10 429.608 0.00000 1.36669e-13
  11 429.608 0.00000 2.46794e-13
  12 429.608 0.00000 5.60501e-14
  13 429.608 0.00000 2.36112e-14
  14 429.608 0.00000 6.49384e-14
  15 429.608 0.00000 -1.04678e-13
  16 429.608 0.00000 2.73337e-13
  17 429.608 0.00000 2.28151e-13
  18 429.608 0.00000 -2.00065e-13
  19 429.608 0.00000 -2.55128e-13
  20 429.608 0.00000 1.07717e-13
  21 429.608 0.00000 1.46545e-13
  22 429.608 0.00000 3.88279e-14
  23 429.608 0.00000 -3.62844e-13
  24 429.608 0.00000 1.42594e-14
  25 429.608 0.00000 0.00000
  26 429.608 0.00000 -2.46155e-13
  27 429.608 0.00000 2.27380e-13
  28 429.608 0.00000 -9.46252e-14
  29 429.608 0.00000 -6.41674e-14
  30 429.608 0.00000 -1.82313e-13
  31 429.608 0.00000 -7.45104e-13
  32 429.608 0.00000 -6.66433e-13
  33 429.608 0.00000 -1.33330e-13
  34 429.608 0.00000 2.63527e-13
  35 429.608 0.00000 1.24168e-13
  36 429.608 0.00000 -1.87625e-14
  37 429.608 0.00000 -2.83246e-13
  38 429.608 0.00000 -2.26318e-13
  39 429.608 0.00000 2.37680e-13
  40 429.608 0.00000 -6.10851e-14
  41 429.608 0.00000 -1.65543e-13
  42 429.608 0.00000 5.14435e-15
  43 429.608 0.00000 -9.70620e-14
  44 429.608 0.00000 5.26030e-14
  45 429.608 0.00000 3.99432e-13
  46 429.608 0.00000 -6.56890e-14
  47 429.608 0.00000 -2.07993e-13
  48 429.608 0.00000 -9.83200e-14
  49 429.608 0.00000 1.19325e-13
  50 429.608 0.00000 4.93795e-16
  51 429.608 0.00000 -1.06946e-14
  52 429.608 0.00000 5.49404e-14
  53 429.608 0.00000 -3.51548e-14
  54 429.608 0.00000 -1.61864e-14
  55 429.608 0.00000 -4.27783e-14
  56 429.608 0.00000 -1.00279e-13
  57 429.608 0.00000 1.61729e-14
  58 429.608 0.00000 -1.61352e-15
  59 429.608 0.00000 2.01324e-14
  60 429.608 0.00000 -2.04103e-13
  61 429.608 0.00000 1.04615e-13
  62 429.608 0.00000 -1.15412e-13
  63 429.608 0.00000 2.89577e-13
  64 429.608 0.00000 1.82217e-13
  65 429.608 0.00000 5.18139e-14
  66 429.608 0.00000 -1.54100e-13
  67 429.608 0.00000 -2.17998e-13
  68 429.608 0.00000 -8.74051e-14
  69 429.608 0.00000 4.42497e-16
  70 429.608 0.00000 -1.86084e-13
  71 429.608 0.00000 3.94484e-14
  72 429.608 0.00000 9.32527e-16
  73 429.608 0.00000 1.44108e-13
  74 429.608 0.00000 -1.25300e-14
  75 429.608 0.00000 2.48613e-14
  76 429.608 0.00000 2.04016e-14
  77 429.608 0.00000 1.95096e-13
  78 429.608 0.00000 -1.31954e-13
  79 429.608 0.00000 -5.44456e-14
  80 429.608 0.00000 -3.68507e-15
  81 429.608 0.00000 -6.96468e-14
  82 429.608 0.00000 2.84726e-13
  83 429.608 0.00000 -1.51315e-13
  84 429.608 0.00000 -1.18582e-13
  85 429.608 0.00000 1.04862e-13
  86 429.608 0.00000 -1.06313e-13
  87 429.608 0.00000 -3.74056e-15
  88 429.608 0.00000 -2.36803e-13
  89 429.608 0.00000 -2.18115e-13
  90 429.608 0.00000 -1.96407e-13
  91 429.608 0.00000 -1.60563e-13
  92 429.608 0.00000 3.71686e-13
  93 429.608 0.00000 6.00559e-14
  94 429.608 0.00000 4.06408e-13
  95 429.608 0.00000 1.84641e-13
  96 429.608 0.00000 9.76242e-14
  97 429.608 0.00000 5.79820e-14
  98 429.608 0.00000 1.23923e-13
  99 429.608 0.00000 -7.13210e-14
  100 429.608 0.00000 9.83719e-14
  101 429.608 0.00000 2.14602e-13
  102 429.608 0.00000 1.81743e-13
  103 429.608 0.00000 4.82100e-14
  104 429.608 0.00000 4.91950e-14
  105 429.608 0.00000 -1.33010e-13
  106 429.608 0.00000 -2.95184e-14
  107 429.608 0.00000 -1.55384e-13
  108 429.608 0.00000 1.32061e-13
  109 429.608 0.00000 -5.05608e-14
  110 429.608 0.00000 -7.09597e-14
  111 429.608 0.00000 -1.53733e-13
  112 429.608 0.00000 -2.57425e-13
  113 429.608 0.00000 8.39139e-14
  114 429.608 0.00000 1.14320e-13
  115 429.608 0.00000 1.81926e-14
  116 429.608 0.00000 -4.21675e-14
  117 429.608 0.00000 1.64176e-13
  118 429.608 0.00000 -7.86118e-14
  119 429.608 0.00000 -3.82153e-14
  120 429.608 0.00000 9.15844e-14
  121 429.608 0.00000 6.14255e-14
  122 429.608 0.00000 -3.64417e-13
  123 429.608 0.00000 3.00215e-14
  124 429.608 0.00000 4.07397e-14
  125 429.608 0.00000 -7.54240e-14
  126 429.608 0.00000 -1.27908e-13
  127 429.608 0.00000 7.45937e-14
  128 429.608 0.00000 4.21643e-14
  129 429.608 0.00000 1.32241e-13
  130 429.608 0.00000 -1.00210e-13
  131 429.608 0.00000 6.30874e-14
  132 429.608 0.00000 -1.75261e-13
  133 429.608 0.00000 1.11601e-13
  134 429.608 0.00000 1.05666e-13
  135 429.608 0.00000 4.27783e-14
  136 429.608 0.00000 -9.62446e-14
  137 429.608 0.00000 2.48320e-14
  138 429.608 0.00000 -1.51407e-13
  139 429.608 0.00000 9.73093e-14
  140 429.608 0.00000 -5.40094e-14
  141 429.608 0.00000 -2.41289e-14
  142 429.608 0.00000 -1.99957e-13
  143 429.608 0.00000 2.22208e-15
  144 429.608 0.00000 -9.07834e-14
  145 429.608 0.00000 7.38782e-14
  146 429.608 0.00000 9.80961e-14
  147 429.608 0.00000 -8.53194e-14
  148 429.608 0.00000 -9.75669e-16
  149 429.608 0.00000 3.08095e-13
  150 429.608 0.00000 -6.91464e-14
  151 429.608 0.00000 7.47537e-14
  152 429.608 0.00000 2.51229e-14
  153 429.608 0.00000 1.05744e-14
  154 429.608 0.00000 1.45099e-13
  155 429.608 0.00000 -2.52818e-13
  156 429.608 0.00000 -1.37966e-14
  157 429.608 0.00000 1.89417e-13
  158 429.608 0.00000 -1.16291e-13
  159 429.608 0.00000 9.21686e-14
  160 429.608 0.00000 8.08396e-15
  161 429.608 0.00000 1.27872e-13
  162 429.608 0.00000 -1.17402e-13
  163 429.608 0.00000 -6.02409e-14
  164 429.608 0.00000 2.98261e-13
  165 429.608 0.00000 2.33643e-14
  166 429.608 0.00000 6.71687e-14
  167 429.608 0.00000 -4.32118e-14
  168 429.608 0.00000 -1.80269e-13
  169 429.608 0.00000 -1.91934e-13
  170 429.608 0.00000 -6.34735e-14
  171 429.608 0.00000 2.52782e-14
  172 429.608 0.00000 -2.28391e-13
  173 429.608 0.00000 1.18907e-13
  174 429.608 0.00000 -1.49092e-13
  175 429.608 0.00000 -4.12741e-14
  176 429.608 0.00000 -6.11895e-14
  177 429.608 0.00000 -5.51116e-13
  178 429.608 0.00000 -9.89140e-14
  179 429.608 0.00000 -1.84911e-13
  180 429.608 0.00000 3.47755e-14
  181 429.608 0.00000 1.22030e-13
  182 429.608 0.00000 -4.25797e-14
  183 429.608 0.00000 -2.93495e-14
  184 429.608 0.00000 8.37789e-14
  185 429.608 0.00000 7.65827e-14
  186 429.608 0.00000 -1.71929e-13
  187 429.608 0.00000 -4.65373e-13
  188 429.608 0.00000 6.74708e-14
  189 429.608 0.00000 1.63316e-13
  190 429.608 0.00000 -9.02844e-14
  191 429.608 0.00000 6.05656e-15
  192 429.608 0.00000 2.80691e-13
  193 429.608 0.00000 9.13574e-14
  194 429.608 0.00000 1.52470e-14
  195 429.608 0.00000 1.88166e-13
  196 429.608 0.00000 -1.35842e-13
  197 429.608 0.00000 -2.67674e-13
  198 429.608 0.00000 9.76242e-14
  199 429.608 0.00000 3.83644e-14
  200 429.608 0.00000 1.62888e-13
  201 429.608 0.00000 1.65718e-13
  202 429.608 0.00000 -1.87790e-13
  203 429.608 0.00000 -5.35811e-14
  204 429.608 0.00000 1.25615e-14
  205 429.608 0.00000 1.21800e-13
  206 429.608 0.00000 -3.35263e-15
  207 429.608 0.00000 1.07847e-14
  208 429.608 0.00000 3.25719e-13
  209 429.608 0.00000 -1.64200e-13
  210 429.608 0.00000 1.16857e-13
  211 429.608 0.00000 3.54103e-14
  212 429.608 0.00000 -1.06296e-14
  213 429.608 0.00000 -1.65381e-13
  214 429.608 0.00000 3.38617e-14
  215 429.608 0.00000 1.67103e-13
  216 429.608 0.00000 -1.34448e-13
  217 429.608 0.00000 1.67356e-13
  218 429.608 0.00000 8.64177e-14
  219 429.608 0.00000 1.75687e-13
  220 429.608 0.00000 -8.91453e-14
  221 429.608 0.00000 3.59377e-14
  222 429.608 0.00000 2.31477e-14
  223 429.608 0.00000 -1.46317e-13
  224 429.608 0.00000 1.93516e-14
  225 429.608 0.00000 3.49712e-13
  226 429.608 0.00000 4.13151e-14
  227 429.608 0.00000 8.24855e-14
  228 429.608 0.00000 1.77039e-14
  229 429.608 0.00000 4.38742e-14
  230 429.608 0.00000 -1.15388e-13
  231 429.608 0.00000 2.13761e-13
  232 429.608 0.00000 6.15146e-14
  233 429.608 0.00000 -8.38933e-15
  234 429.608 0.00000 -1.27850e-13
  235 429.608 0.00000 -3.78243e-13
  236 429.608 0.00000 -1.46213e-13
  237 429.608 0.00000 -1.29659e-13
  238 429.608 0.00000 1.24057e-13
  239 429.608 0.00000 1.27378e-13
  240 429.608 0.00000 1.81706e-13
  241 429.608 0.00000 -1.58968e-15
</Section>

newXOutput 24

<Section columns = "stress_xx | stress_yy | stress_xy">
  1 449.223 0.00000 9.59810e-14
  2 449.223 0.00000 -2.14152e-13
  3 449.223 0.00000 -2.52662e-13
  4 449.223 0.00000 -4.62157e-14
  5 449.223 0.00000 3.09800e-15
  6 449.223 0.00000 -1.20746e-13
  7 449.223 0.00000 -6.26965e-14
  8 449.223 0.00000 -1.62027e-13
  9 449.223 0.00000 -1.89548e-13
  10 449.223 0.00000 -2.64882e-14
  11 449.223 0.00000 2.85535e-14
  12 449.223 0.00000 1.17648e-13
  13 449.223 0.00000 1.66674e-13
  14 449.223 0.00000 2.83470e-13
  15 449.223 0.00000 -1.11200e-13
  16 449.223 0.00000 -3.30251e-13
  17 449.223 0.00000 1.28310e-13
  18 449.223 0.00000 3.15974e-13
  19 449.223 0.00000 -1.91614e-13
  20 449.223 0.00000 1.05953e-13
  21 449.223 0.00000 -8.56606e-14
  22 449.223 0.00000 -2.91551e-13
  23 449.223 0.00000 -1.12149e-13
  24 449.223 0.00000 1.10084e-13
  25 449.223 0.00000 8.56606e-14
  26 449.223 0.00000 7.80511e-14
  27 449.223 0.00000 1.55922e-13
  28 449.223 0.00000 1.31243e-13
  29 449.223 0.00000 -2.14152e-14
  30 449.223 0.00000 -9.97068e-14
  31 449.223 0.00000 -2.67699e-13
  32 449.223 0.00000 -2.33226e-13
  33 449.223 0.00000 -1.17870e-13
  34 449.223 0.00000 5.13585e-14
  35 449.223 0.00000 -2.16612e-13
  36 449.223 0.00000 -1.00744e-13
  37 449.223 0.00000 -1.72597e-13
  38 449.223 0.00000 -1.00768e-13
  39 449.223 0.00000 -3.88486e-13
  40 449.223 0.00000 -1.09564e-13
  41 449.223 0.00000 1.24932e-13
  42 449.223 0.00000 -8.23284e-14
  43 449.223 0.00000 -9.31176e-14
  44 449.223 0.00000 -3.13361e-14
  45 449.223 0.00000 -1.11874e-13
  46 449.223 0.00000 -1.50414e-13
  47 449.223 0.00000 1.07903e-13
  48 449.223 0.00000 6.18868e-14
  49 449.223 0.00000 -1.51311e-13
  50 449.223 0.00000 2.31998e-14
  51 449.223 0.00000 1.07076e-14
  52 449.223 0.00000 5.99857e-14
  53 449.223 0.00000 -6.06311e-14
  54 449.223 0.00000 7.31935e-14
  55 449.223 0.00000 8.56606e-14
  56 449.223 0.00000 2.98895e-14
  57 449.223 0.00000 1.12107e-13
  58 449.223 0.00000 2.21671e-13
  59 449.223 0.00000 -1.37887e-13
  60 449.223 0.00000 2.90887e-14
  61 449.223 0.00000 -2.09459e-13
  62 449.223 0.00000 -8.61895e-14
  63 449.223 0.00000 1.39481e-13
  64 449.223 0.00000 -1.67752e-13
  65 449.223 0.00000 -1.11470e-13
  66 449.223 0.00000 -6.93185e-14
  67 449.223 0.00000 8.48636e-14
  68 449.223 0.00000 1.40186e-14
  69 449.223 0.00000 4.05165e-14
  70 449.223 0.00000 2.15528e-13
  71 449.223 0.00000 -9.28717e-14
  72 449.223 0.00000 -1.55664e-13
  73 449.223 0.00000 7.79350e-14
  74 449.223 0.00000 -7.11283e-14
  75 449.223 0.00000 9.54117e-14
  76 449.223 0.00000 4.55672e-15
  77 449.223 0.00000 -4.59703e-14
  78 449.223 0.00000 -8.36029e-14
  79 449.223 0.00000 1.43754e-14
  80 449.223 0.00000 -2.31546e-14
  81 449.223 0.00000 -6.17541e-14
  82 449.223 0.00000 -1.80257e-13
  83 449.223 0.00000 1.80025e-13
  84 449.223 0.00000 5.11819e-15
  85 449.223 0.00000 -1.65170e-13
  86 449.223 0.00000 1.42723e-13
  87 449.223 0.00000 -5.76872e-14
  88 449.223 0.00000 -5.90971e-13
  89 449.223 0.00000 -1.24566e-13
  90 449.223 0.00000 1.92207e-14
  91 449.223 0.00000 5.11708e-14
  92 449.223 0.00000 2.13759e-13
  93 449.223 0.00000 1.66001e-13
  94 449.223 0.00000 -4.13830e-13
  95 449.223 0.00000 6.03023e-14
  96 449.223 0.00000 -5.44302e-14
  97 449.223 0.00000 -8.57690e-14
  98 449.223 0.00000 -1.14249e-14
  99 449.223 0.00000 1.01441e-13
  100 449.223 0.00000 3.60689e-14
  101 449.223 0.00000 -3.08319e-14
  102 449.223 0.00000 5.51064e-14
  103 449.223 0.00000 -2.18686e-13
  104 449.223 0.00000 -1.34524e-13
  105 449.223 0.00000 2.32219e-13
  106 449.223 0.00000 -1.74189e-13
  107 449.223 0.00000 7.13839e-15
  108 449.223 0.00000 9.09887e-14
  109 449.223 0.00000 1.53347e-13
  110 449.223 0.00000 4.59139e-13
  111 449.223 0.00000 -1.58343e-13
  112 449.223 0.00000 4.19110e-14
  113 449.223 0.00000 -5.78094e-14
  114 449.223 0.00000 -1.75982e-13
  115 449.223 0.00000 -1.63157e-13
  116 449.223 0.00000 6.09926e-14
  117 449.223 0.00000 5.67361e-14
  118 449.223 0.00000 -5.29081e-14
  119 449.223 0.00000 2.17417e-15
  120 449.223 0.00000 -1.89403e-13
  121 449.223 0.00000 1.38340e-13
  122 449.223 0.00000 1.48602e-13
  123 449.223 0.00000 -7.23740e-15
  124 449.223 0.00000 -9.38718e-14
  125 449.223 0.00000 3.56277e-14
  126 449.223 0.00000 -2.23156e-14
  127 449.223 0.00000 -3.98097e-14
  128 449.223 0.00000 3.62471e-14
  129 449.223 0.00000 -1.58337e-13
  130 449.223 0.00000 3.13257e-14
  131 449.223 0.00000 4.07893e-14
  132 449.223 0.00000 1.56419e-14
  133 449.223 0.00000 -2.28082e-13
  134 449.223 0.00000 -1.03415e-13
  135 449.223 0.00000 1.91636e-14
  136 449.223 0.00000 4.21542e-14
  137 449.223 0.00000 -4.72560e-14
  138 449.223 0.00000 -1.46592e-13
  139 449.223 0.00000 -5.03873e-14
  140 449.223 0.00000 -1.84106e-13
  141 449.223 0.00000 -7.89032e-15
  142 449.223 0.00000 -2.53653e-15
  143 449.223 0.00000 -3.86259e-14
  144 449.223 0.00000 2.22821e-13
  145 449.223 0.00000 1.01620e-13
  146 449.223 0.00000 -2.42639e-15
  147 449.223 0.00000 4.27387e-14
  148 449.223 0.00000 -1.43076e-13
  149 449.223 0.00000 2.68401e-13
  150 449.223 0.00000 -1.33075e-13
  151 449.223 0.00000 -2.23433e-13
  152 449.223 0.00000 1.99785e-13
  153 449.223 0.00000 -1.82971e-13
  154 449.223 0.00000 -1.09951e-13
  155 449.223 0.00000 1.07543e-13
  156 449.223 0.00000 1.14223e-13
  157 449.223 0.00000 8.28545e-14
  158 449.223 0.00000 1.23518e-14
  159 449.223 0.00000 1.69351e-13
  160 449.223 0.00000 -1.13369e-13
  161 449.223 0.00000 2.47068e-13
  162 449.223 0.00000 -2.58234e-14
  163 449.223 0.00000 -8.27030e-14
  164 449.223 0.00000 3.41766e-14
  165 449.223 0.00000 -6.77695e-14
  166 449.223 0.00000 3.68846e-14
  167 449.223 0.00000 2.18019e-13
  168 449.223 0.00000 -1.08790e-13
  169 449.223 0.00000 1.11885e-13
  170 449.223 0.00000 9.22596e-14
  171 449.223 0.00000 -7.85849e-14
  172 449.223 0.00000 2.33501e-13
  173 449.223 0.00000 -6.37233e-14
  174 449.223 0.00000 3.05737e-14
  175 449.223 0.00000 -8.40642e-15
  176 449.223 0.00000 -8.40439e-14
  177 449.223 0.00000 -3.83075e-13
  178 449.223 0.00000 1.05140e-13
  179 449.223 0.00000 5.17062e-14
  180 449.223 0.00000 5.94159e-14
  181 449.223 0.00000 1.60607e-13
  182 449.223 0.00000 -3.06217e-13
  183 449.223 0.00000 -5.22220e-14
  184 449.223 0.00000 -2.53264e-13
  185 449.223 0.00000 -7.60697e-14
  186 449.223 0.00000 4.43793e-14
  187 449.223 0.00000 -4.13015e-13
  188 449.223 0.00000 -7.87330e-14
  189 449.223 0.00000 -8.80307e-14
  190 449.223 0.00000 -4.93335e-14
  191 449.223 0.00000 -6.15799e-14
  192 449.223 0.00000 -1.20121e-13
  193 449.223 0.00000 -1.77233e-13
  194 449.223 0.00000 -1.55450e-13
  195 449.223 0.00000 7.88952e-15
  196 449.223 0.00000 1.38529e-13
  197 449.223 0.00000 2.09503e-13
  198 449.223 0.00000 -1.82410e-13
  199 449.223 0.00000 7.97071e-16
  200 449.223 0.00000 -1.66461e-13
  201 449.223 0.00000 2.69562e-13
  202 449.223 0.00000 1.75752e-13
  203 449.223 0.00000 -7.62439e-14
  204 449.223 0.00000 -1.51295e-13
  205 449.223 0.00000 1.35755e-13
  206 449.223 0.00000 1.73583e-13
  207 449.223 0.00000 -7.86655e-14
  208 449.223 0.00000 4.44368e-14
  209 449.223 0.00000 -8.16203e-14
  210 449.223 0.00000 -7.83488e-14
  211 449.223 0.00000 -7.01041e-14
  212 449.223 0.00000 -1.63266e-13
  213 449.223 0.00000 5.11437e-14
  214 449.223 0.00000 2.39012e-14
  215 449.223 0.00000 -1.50357e-13
  216 449.223 0.00000 -3.31446e-14
  217 449.223 0.00000 -1.67045e-13
  218 449.223 0.00000 -2.58826e-14
  219 449.223 0.00000 8.40575e-14
  220 449.223 0.00000 -8.51217e-14
  221 449.223 0.00000 -1.93729e-13
  222 449.223 0.00000 3.43921e-13
  223 449.223 0.00000 -2.88969e-14
  224 449.223 0.00000 8.87045e-14
  225 449.223 0.00000 3.13889e-14
  226 449.223 0.00000 -1.24154e-13
  227 449.223 0.00000 -3.00574e-14
  228 449.223 0.00000 1.09163e-13
  229 449.223 0.00000 -4.54959e-14
  230 449.223 0.00000 5.04850e-14
  231 449.223 0.00000 6.61043e-14
  232 449.223 0.00000 -1.25141e-14
  233 449.223 0.00000 3.27408e-13
  234 449.223 0.00000 5.73258e-14
  235 449.223 0.00000 2.70851e-13
  236 449.223 0.00000 4.56962e-15
  237 449.223 0.00000 -1.03956e-14
  238 449.223 0.00000 -2.21033e-13
  239 449.223 0.00000 2.68626e-13
  240 449.223 0.00000 1.12799e-13
  241 449.223 0.00000 -7.58954e-14
</Section>

newXOutput 25

<Section columns = "stress_xx | stress_yy | stress_xy">
  1 468.845 0.00000 -1.01548e-13
  2 468.845 0.00000 1.58596e-13
  3 468.845 0.00000 -6.05424e-14
  4 468.845 0.00000 -3.65094e-14
  5 468.845 0.00000 -4.86822e-14
  6 468.845 0.00000 3.26892e-13
  7 468.845 0.00000 8.09148e-14
  8 468.845 0.00000 -1.58596e-13
  9 468.845 0.00000 -1.00342e-13
  10 468.845 0.00000 1.16508e-13
  11 468.845 0.00000 1.45097e-13
  12 468.845 0.00000 3.34437e-13
  13 468.845 0.00000 -5.70486e-14
  14 468.845 0.00000 -4.20878e-14
  15 468.845 0.00000 -6.29193e-14
  16 468.845 0.00000 -3.78680e-13
  17 468.845 0.00000 -3.30126e-13
  18 468.845 0.00000 2.85882e-14
  19 468.845 0.00000 -1.99661e-14
  20 468.845 0.00000 1.38630e-13
  21 468.845 0.00000 1.91496e-13
  22 468.845 0.00000 4.28824e-14
  23 468.845 0.00000 4.40168e-13
  24 468.845 0.00000 -2.85882e-14
  25 468.845 0.00000 -8.57647e-14
  26 468.845 0.00000 -3.87749e-13
  27 468.845 0.00000 -2.00118e-13
  28 468.845 0.00000 7.87450e-14
  29 468.845 0.00000 0.00000
  30 468.845 0.00000 -2.97933e-14
  31 468.845 0.00000 3.90282e-13
  32 468.845 0.00000 5.35979e-13
  33 468.845 0.00000 -2.86422e-14
  34 468.845 0.00000 -2.65272e-13
  35 468.845 0.00000 -1.59010e-13
  36 468.845 0.00000 5.49868e-14
  37 468.845 0.00000 -1.63384e-13
  38 468.845 0.00000 -7.35035e-14
  39 468.845 0.00000 1.77666e-13
  40 468.845 0.00000 -1.10830e-13
  41 468.845 0.00000 -3.56368e-14
  42 468.845 0.00000 -3.72476e-14
  43 468.845 0.00000 -1.20504e-13
  44 468.845 0.00000 1.48617e-13
  45 468.845 0.00000 1.88450e-13
  46 468.845 0.00000 1.62384e-13
  47 468.845 0.00000 -1.14475e-13
  48 468.845 0.00000 -8.30511e-14
  49 468.845 0.00000 -9.93290e-14
  50 468.845 0.00000 4.46691e-14
  51 468.845 0.00000 7.50441e-14
  52 468.845 0.00000 -1.89524e-14
  53 468.845 0.00000 1.11120e-13
  54 468.845 0.00000 -8.14465e-14
  55 468.845 0.00000 -8.57647e-14
  56 468.845 0.00000 4.76753e-14
  57 468.845 0.00000 -1.69989e-14
  58 468.845 0.00000 -3.58061e-14
  59 468.845 0.00000 8.23523e-14
  60 468.845 0.00000 2.40739e-15
  61 468.845 0.00000 1.36128e-13
  62 468.845 0.00000 -5.99593e-14
  63 468.845 0.00000 4.94372e-13
  64 468.845 0.00000 8.03051e-14
  65 468.845 0.00000 1.39841e-14
  66 468.845 0.00000 -9.71363e-15
  67 468.845 0.00000 1.34192e-13
  68 468.845 0.00000 -1.56710e-13
  69 468.845 0.00000 6.40347e-15
  70 468.845 0.00000 1.46459e-15
  71 468.845 0.00000 6.17356e-14
  72 468.845 0.00000 -2.18376e-14
  73 468.845 0.00000 1.78385e-13
  74 468.845 0.00000 -1.32071e-13
  75 468.845 0.00000 -1.22146e-13
  76 468.845 0.00000 -7.34275e-14
  77 468.845 0.00000 -1.07145e-13
  78 468.845 0.00000 -2.12898e-13
  79 468.845 0.00000 1.08879e-14
  80 468.845 0.00000 2.49041e-13
  81 468.845 0.00000 -7.35976e-14
  82 468.845 0.00000 2.28937e-13
  83 468.845 0.00000 -3.26721e-14
  84 468.845 0.00000 -7.21786e-15
  85 468.845 0.00000 4.25421e-14
  86 468.845 0.00000 3.45767e-13
  87 468.845 0.00000 8.86806e-14
  88 468.845 0.00000 -4.14402e-13
  89 468.845 0.00000 2.54061e-14
  90 468.845 0.00000 -7.40052e-14
  91 468.845 0.00000 2.91925e-14
  92 468.845 0.00000 -1.24005e-13
  93 468.845 0.00000 3.62730e-13
  94 468.845 0.00000 -1.72754e-13
  95 468.845 0.00000 3.74796e-14
  96 468.845 0.00000 -1.38602e-13
  97 468.845 0.00000 -1.44507e-13
  98 468.845 0.00000 1.02433e-13
  99 468.845 0.00000 9.32805e-14
  100 468.845 0.00000 8.56031e-14
  101 468.845 0.00000 -3.26436e-14
  102 468.845 0.00000 2.24860e-13
  103 468.845 0.00000 6.88047e-14
  104 468.845 0.00000 1.38518e-14
  105 468.845 0.00000 2.11412e-13
  106 468.845 0.00000 -2.11859e-13
  107 468.845 0.00000 -3.09947e-13
  108 468.845 0.00000 -3.55615e-14
  109 468.845 0.00000 -9.16183e-14
  110 468.845 0.00000 3.29683e-13
  111 468.845 0.00000 8.21399e-14
  112 468.845 0.00000 -7.06940e-14
  113 468.845 0.00000 1.51109e-13
  114 468.845 0.00000 1.88819e-13
  115 468.845 0.00000 -1.82210e-14
  116 468.845 0.00000 -3.84325e-14
  117 468.845 0.00000 1.18976e-13
  118 468.845 0.00000 -1.13777e-13
  119 468.845 0.00000 1.32865e-13
  120 468.845 0.00000 -3.74085e-14
  121 468.845 0.00000 2.11344e-14
  122 468.845 0.00000 1.21646e-13
  123 468.845 0.00000 3.06269e-14
  124 468.845 0.00000 -1.62782e-13
  125 468.845 0.00000 1.39672e-14
  126 468.845 0.00000 -1.34909e-14
  127 468.845 0.00000 4.12050e-14
  128 468.845 0.00000 3.05451e-14
  129 468.845 0.00000 1.71175e-14
  130 468.845 0.00000 -5.01002e-14
  131 468.845 0.00000 -1.12004e-13
  132 468.845 0.00000 4.31949e-14
  133 468.845 0.00000 -1.66740e-13
  134 468.845 0.00000 1.19727e-14
  135 468.845 0.00000 -1.50672e-13
  136 468.845 0.00000 -1.06110e-14
  137 468.845 0.00000 -7.93271e-14
  138 468.845 0.00000 1.61110e-13
  139 468.845 0.00000 -4.16593e-15
  140 468.845 0.00000 1.72307e-13
  141 468.845 0.00000 -4.25205e-14
  142 468.845 0.00000 2.27176e-14
  143 468.845 0.00000 -5.83370e-14
  144 468.845 0.00000 4.09755e-14
  145 468.845 0.00000 -2.51958e-13
  146 468.845 0.00000 4.79064e-14
  147 468.845 0.00000 1.72563e-13
  148 468.845 0.00000 8.02201e-14
  149 468.845 0.00000 1.13927e-13
  150 468.845 0.00000 -9.41195e-14
  151 468.845 0.00000 7.74298e-15
  152 468.845 0.00000 1.47493e-13
  153 468.845 0.00000 -4.71364e-14
  154 468.845 0.00000 3.00993e-13
  155 468.845 0.00000 8.81693e-15
  156 468.845 0.00000 7.22972e-14
  157 468.845 0.00000 -1.14641e-13
  158 468.845 0.00000 -2.13617e-13
  159 468.845 0.00000 -4.25401e-15
  160 468.845 0.00000 8.12983e-15
  161 468.845 0.00000 -3.16444e-13
  162 468.845 0.00000 6.02077e-14
  163 468.845 0.00000 1.48473e-14
  164 468.845 0.00000 2.80534e-13
  165 468.845 0.00000 7.15628e-14
  166 468.845 0.00000 9.83875e-14
  167 468.845 0.00000 -2.98645e-14
  168 468.845 0.00000 -1.79971e-13
  169 468.845 0.00000 -4.93852e-14
  170 468.845 0.00000 8.38248e-14
  171 468.845 0.00000 1.96122e-13
  172 468.845 0.00000 7.91310e-15
  173 468.845 0.00000 3.94691e-14
  174 468.845 0.00000 1.81044e-13
  175 468.845 0.00000 3.37455e-14
  176 468.845 0.00000 6.88116e-14
  177 468.845 0.00000 -4.11659e-13
  178 468.845 0.00000 2.04770e-14
  179 468.845 0.00000 -1.42430e-14
  180 468.845 0.00000 2.54828e-14
  181 468.845 0.00000 -6.53728e-14
  182 468.845 0.00000 1.31904e-13
  183 468.845 0.00000 -7.48384e-14
  184 468.845 0.00000 -1.77689e-13
  185 468.845 0.00000 -1.17025e-14
  186 468.845 0.00000 1.58903e-13
  187 468.845 0.00000 -8.21302e-15
  188 468.845 0.00000 2.44141e-13
  189 468.845 0.00000 -7.88981e-14
  190 468.845 0.00000 -6.08455e-14
  191 468.845 0.00000 5.81549e-14
  192 468.845 0.00000 1.34773e-13
  193 468.845 0.00000 -2.72694e-14
  194 468.845 0.00000 1.57845e-13
  195 468.845 0.00000 1.19495e-13
  196 468.845 0.00000 1.03610e-13
  197 468.845 0.00000 -1.17260e-13
  198 468.845 0.00000 -6.99956e-14
  199 468.845 0.00000 -1.37559e-13
  200 468.845 0.00000 -5.05398e-14
  201 468.845 0.00000 -1.85044e-15
  202 468.845 0.00000 9.90377e-14
  203 468.845 0.00000 -6.94567e-14
  204 468.845 0.00000 -2.81291e-13
  205 468.845 0.00000 1.20929e-13
  206 468.845 0.00000 3.36116e-13
  207 468.845 0.00000 3.41987e-14
  208 468.845 0.00000 -2.76848e-13
  209 468.845 0.00000 -7.15414e-14
  210 468.845 0.00000 2.06593e-13
  211 468.845 0.00000 9.38597e-14
  212 468.845 0.00000 3.09893e-13
  213 468.845 0.00000 2.67939e-14
  214 468.845 0.00000 -2.22213e-15
  215 468.845 0.00000 -3.70666e-13
  216 468.845 0.00000 -4.90933e-14
  217 468.845 0.00000 2.86875e-13
  218 468.845 0.00000 -5.08182e-15
  219 468.845 0.00000 1.30264e-13
  220 468.845 0.00000 -4.13365e-14
  221 468.845 0.00000 2.64898e-14
  222 468.845 0.00000 1.34787e-13
  223 468.845 0.00000 1.22781e-13
  224 468.845 0.00000 2.53211e-14
  225 468.845 0.00000 -1.05436e-13
  226 468.845 0.00000 5.38838e-14
  227 468.845 0.00000 -3.42605e-13
  228 468.845 0.00000 -5.97627e-14
  229 468.845 0.00000 -2.91660e-14
  230 468.845 0.00000 2.35967e-14
  231 468.845 0.00000 2.61991e-13
  232 468.845 0.00000 -1.55725e-13
  233 468.845 0.00000 -1.57780e-13
  234 468.845 0.00000 3.22931e-14
  235 468.845 0.00000 2.84282e-14
  236 468.845 0.00000 -7.54542e-14
  237 468.845 0.00000 6.88096e-14
  238 468.845 0.00000 3.26385e-14
  239 468.845 0.00000 2.92972e-13
  240 468.845 0.00000 2.11825e-13
  241 468.845 0.00000 3.50548e-14
</Section>

newXOutput 26

<Section columns = "stress_xx | stress_yy | stress_xy">
  1 488.475 0.00000 -9.11284e-14
  2 488.475 0.00000 -3.30001e-13
  3 488.475 0.00000 -2.51482e-14
  4 488.475 0.00000 -3.19635e-14
  5 488.475 0.00000 -8.99366e-14
  6 488.475 0.00000 1.59947e-13
  7 488.475 0.00000 1.80986e-14
  8 488.475 0.00000 3.42373e-14
  9 488.475 0.00000 1.76229e-13
  10 488.475 0.00000 2.00361e-13
  11 488.475 0.00000 -8.13773e-14
  12 488.475 0.00000 -3.92014e-13
  13 488.475 0.00000 2.09619e-13
  14 488.475 0.00000 -2.18857e-14
  15 488.475 0.00000 -2.06643e-16
  16 488.475 0.00000 1.71738e-13
  17 488.475 0.00000 -1.07754e-13
  18 488.475 0.00000 5.94916e-14
  19 488.475 0.00000 -1.34132e-13
  20 488.475 0.00000 -2.24492e-13
  21 488.475 0.00000 2.86229e-14
  22 488.475 0.00000 2.63772e-13
  23 488.475 0.00000 -4.97247e-13
  24 488.475 0.00000 1.62755e-13
  25 488.475 0.00000 -4.29344e-14
  26 488.475 0.00000 2.05223e-13
  27 488.475 0.00000 2.86229e-14
  28 488.475 0.00000 1.27490e-13
  29 488.475 0.00000 1.07336e-13
  30 488.475 0.00000 4.47233e-14
  31 488.475 0.00000 -2.13434e-13
  32 488.475 0.00000 -4.56246e-13
  33 488.475 0.00000 -2.58075e-13
  34 488.475 0.00000 -2.19741e-13
  35 488.475 0.00000 1.58132e-13
  36 488.475 0.00000 1.13300e-13
  37 488.475 0.00000 1.69989e-13
  38 488.475 0.00000 2.27810e-13
  39 488.475 0.00000 2.54757e-14
  40 488.475 0.00000 4.67100e-13
  41 488.475 0.00000 5.24419e-13
  42 488.475 0.00000 8.33942e-14
  43 488.475 0.00000 -6.09386e-14
  44 488.475 0.00000 -1.44501e-13
  45 488.475 0.00000 -1.19727e-13
  46 488.475 0.00000 3.96925e-14
  47 488.475 0.00000 -1.27918e-13
  48 488.475 0.00000 -3.68615e-14
  49 488.475 0.00000 -5.29827e-14
  50 488.475 0.00000 2.50451e-14
  51 488.475 0.00000 3.22008e-14
  52 488.475 0.00000 -4.06649e-14
  53 488.475 0.00000 6.93116e-14
  54 488.475 0.00000 -2.75689e-14
  55 488.475 0.00000 -4.29344e-14
  56 488.475 0.00000 4.17401e-14
  57 488.475 0.00000 -2.08330e-14
  58 488.475 0.00000 8.39753e-14
  59 488.475 0.00000 -2.27271e-14
  60 488.475 0.00000 -7.53728e-14
  61 488.475 0.00000 4.11123e-14
  62 488.475 0.00000 2.06172e-13
  63 488.475 0.00000 3.24109e-13
  64 488.475 0.00000 -6.94649e-15
  65 488.475 0.00000 -2.19996e-14
  66 488.475 0.00000 -8.96059e-15
  67 488.475 0.00000 -3.74143e-13
  68 488.475 0.00000 5.95439e-14
  69 488.475 0.00000 -2.02480e-14
  70 488.475 0.00000 4.52153e-14
  71 488.475 0.00000 -2.26947e-14
  72 488.475 0.00000 -3.07629e-13
  73 488.475 0.00000 -9.07770e-15
  74 488.475 0.00000 2.41387e-16
  75 488.475 0.00000 -6.04021e-14
  76 488.475 0.00000 -2.03938e-13
  77 488.475 0.00000 -7.86059e-14
  78 488.475 0.00000 6.79747e-14
  79 488.475 0.00000 -1.77447e-13
  80 488.475 0.00000 -1.49566e-13
  81 488.475 0.00000 -5.25451e-14
  82 488.475 0.00000 9.35649e-15
  83 488.475 0.00000 7.15216e-14
  84 488.475 0.00000 1.13665e-14
  85 488.475 0.00000 -8.76194e-14
  86 488.475 0.00000 -2.98857e-13
  87 488.475 0.00000 3.46303e-14
  88 488.475 0.00000 -2.35008e-13
  89 488.475 0.00000 2.42034e-14
  90 488.475 0.00000 -1.13928e-13
  91 488.475 0.00000 -6.24202e-14
  92 488.475 0.00000 -8.11512e-14
  93 488.475 0.00000 2.34884e-14
  94 488.475 0.00000 -3.71220e-14
  95 488.475 0.00000 1.75840e-13
  96 488.475 0.00000 -9.81246e-14
  97 488.475 0.00000 -1.60456e-13
  98 488.475 0.00000 5.20894e-14
  99 488.475 0.00000 6.12806e-14
  100 488.475 0.00000 9.74017e-14
  101 488.475 0.00000 -1.22750e-14
  102 488.475 0.00000 3.09841e-13
  103 488.475 0.00000 -4.00221e-13
  104 488.475 0.00000 -7.26914e-14
  105 488.475 0.00000 9.33394e-14
  106 488.475 0.00000 -2.48128e-13
  107 488.475 0.00000 -2.28568e-14
  108 488.475 0.00000 -1.58149e-14
  109 488.475 0.00000 -4.49525e-14
  110 488.475 0.00000 7.94287e-14
  111 488.475 0.00000 -2.41117e-13
  112 488.475 0.00000 1.30521e-13
  113 488.475 0.00000 1.13365e-13
  114 488.475 0.00000 1.08830e-13
  115 488.475 0.00000 -6.69632e-14
  116 488.475 0.00000 -4.19238e-14
  117 488.475 0.00000 -1.47568e-13
  118 488.475 0.00000 -4.89908e-14
  119 488.475 0.00000 -6.90585e-14
  120 488.475 0.00000 -8.04062e-15
  121 488.475 0.00000 8.05315e-14
  122 488.475 0.00000 -1.22863e-13
  123 488.475 0.00000 6.50916e-14
  124 488.475 0.00000 6.44057e-14
  125 488.475 0.00000 8.94120e-14
  126 488.475 0.00000 6.10225e-14
  127 488.475 0.00000 1.68173e-13
  128 488.475 0.00000 -2.44148e-14
  129 488.475 0.00000 -4.58608e-14
  130 488.475 0.00000 8.77117e-15
  131 488.475 0.00000 7.82976e-14
  132 488.475 0.00000 -3.75009e-14
  133 488.475 0.00000 -2.32696e-14
  134 488.475 0.00000 -2.96064e-15
  135 488.475 0.00000 -1.69813e-13
  136 488.475 0.00000 8.06777e-16
  137 488.475 0.00000 -1.41792e-13
  138 488.475 0.00000 -1.35739e-14
  139 488.475 0.00000 2.82033e-14
  140 488.475 0.00000 -8.55953e-14
  141 488.475 0.00000 7.66434e-14
  142 488.475 0.00000 4.28226e-15
  143 488.475 0.00000 -5.91365e-14
  144 488.475 0.00000 -2.36423e-13
  145 488.475 0.00000 -2.04200e-13
  146 488.475 0.00000 -2.27883e-15
  147 488.475 0.00000 2.30682e-13
  148 488.475 0.00000 1.94333e-14
  149 488.475 0.00000 -4.47233e-14
  150 488.475 0.00000 -1.49221e-13
  151 488.475 0.00000 1.44544e-14
  152 488.475 0.00000 1.37884e-14
  153 488.475 0.00000 -2.14405e-13
  154 488.475 0.00000 -1.02197e-13
  155 488.475 0.00000 1.93500e-14
  156 488.475 0.00000 -1.13168e-13
  157 488.475 0.00000 -7.24567e-14
  158 488.475 0.00000 -2.83365e-13
  159 488.475 0.00000 3.06403e-14
  160 488.475 0.00000 -1.59947e-14
  161 488.475 0.00000 3.64482e-14
  162 488.475 0.00000 1.91168e-14
  163 488.475 0.00000 -3.18582e-13
  164 488.475 0.00000 1.36951e-13
  165 488.475 0.00000 6.22796e-14
  166 488.475 0.00000 3.16930e-14
  167 488.475 0.00000 -3.60671e-14
  168 488.475 0.00000 1.54871e-13
  169 488.475 0.00000 -8.41823e-15
  170 488.475 0.00000 -5.06785e-13
  171 488.475 0.00000 -1.65541e-13
  172 488.475 0.00000 5.59138e-14
  173 488.475 0.00000 -1.51930e-13
  174 488.475 0.00000 -3.94964e-13
  175 488.475 0.00000 2.48243e-15
  176 488.475 0.00000 2.03086e-14
  177 488.475 0.00000 -1.19277e-13
  178 488.475 0.00000 -4.72472e-14
  179 488.475 0.00000 6.97056e-14
  180 488.475 0.00000 2.83838e-14
  181 488.475 0.00000 1.24174e-13
  182 488.475 0.00000 2.17969e-13
  183 488.475 0.00000 2.35751e-13
  184 488.475 0.00000 -1.44458e-13
  185 488.475 0.00000 1.71014e-14
  186 488.475 0.00000 8.30086e-14
  187 488.475 0.00000 -4.11211e-13
  188 488.475 0.00000 -3.12704e-13
  189 488.475 0.00000 1.12640e-13
  190 488.475 0.00000 -1.01351e-13
  191 488.475 0.00000 1.33290e-14
  192 488.475 0.00000 1.02826e-13
  193 488.475 0.00000 8.99247e-14
  194 488.475 0.00000 4.35621e-14
  195 488.475 0.00000 3.89096e-14
  196 488.475 0.00000 -1.51964e-14
  197 488.475 0.00000 -7.72724e-14
  198 488.475 0.00000 2.20705e-13
  199 488.475 0.00000 -6.65375e-14
  200 488.475 0.00000 6.99445e-14
  201 488.475 0.00000 -3.74438e-14
  202 488.475 0.00000 -9.07502e-14
  203 488.475 0.00000 -2.84800e-14
  204 488.475 0.00000 -2.32699e-13
  205 488.475 0.00000 1.09825e-13
  206 488.475 0.00000 -1.66348e-13
  207 488.475 0.00000 -3.98545e-16
  208 488.475 0.00000 -2.23570e-14
  209 488.475 0.00000 3.73200e-14
  210 488.475 0.00000 1.11300e-13
  211 488.475 0.00000 -1.44325e-14
  212 488.475 0.00000 -5.19586e-13
  213 488.475 0.00000 3.55266e-14
  214 488.475 0.00000 6.63368e-14
  215 488.475 0.00000 1.02249e-13
  216 488.475 0.00000 1.90918e-13
  217 488.475 0.00000 -7.36985e-14
  218 488.475 0.00000 -2.09829e-14
  219 488.475 0.00000 -9.42592e-15
  220 488.475 0.00000 1.13229e-13
  221 488.475 0.00000 -2.53743e-13
  222 488.475 0.00000 -1.29783e-13
  223 488.475 0.00000 -1.07333e-13
  224 488.475 0.00000 -6.75987e-14
  225 488.475 0.00000 8.32199e-14
  226 488.475 0.00000 9.15097e-14
  227 488.475 0.00000 -2.05441e-13
  228 488.475 0.00000 3.39261e-13
  229 488.475 0.00000 -7.49578e-14
  230 488.475 0.00000 2.24471e-14
  231 488.475 0.00000 2.04738e-13
  232 488.475 0.00000 -1.17097e-13
  233 488.475 0.00000 -2.50195e-13
  234 488.475 0.00000 -7.61535e-14
  235 488.475 0.00000 4.02917e-13
  236 488.475 0.00000 -7.18710e-14
  237 488.475 0.00000 -1.46555e-13
  238 488.475 0.00000 -1.05036e-15
  239 488.475 0.00000 1.88080e-13
  240 488.475 0.00000 2.71748e-13
  241 488.475 0.00000 -1.96706e-13
</Section>

newXOutput 27

<Section columns = "stress_xx | stress_yy | stress_xy">
  1 508.113 0.00000 -2.04420e-13
  2 508.113 0.00000 4.29864e-14
  3 508.113 0.00000 -2.33626e-13
  4 508.113 0.00000 8.79831e-15
  5 508.113 0.00000 -2.17581e-13
  6 508.113 0.00000 7.72129e-14
  7 508.113 0.00000 -3.39918e-14
  8 508.113 0.00000 -4.91392e-14
  9 508.113 0.00000 -2.64876e-15
  10 508.113 0.00000 6.43233e-14
  11 508.113 0.00000 3.01218e-13
  12 508.113 0.00000 -4.56352e-14
  13 508.113 0.00000 1.32463e-13
  14 508.113 0.00000 -2.32223e-13
  15 508.113 0.00000 -2.47876e-13
  16 508.113 0.00000 -3.86272e-14
  17 508.113 0.00000 -1.55594e-13
  18 508.113 0.00000 -1.86587e-13
  19 508.113 0.00000 -1.62602e-13
  20 508.113 0.00000 7.26723e-13
  21 508.113 0.00000 2.57919e-13
  22 508.113 0.00000 1.29272e-13
  23 508.113 0.00000 5.49793e-14
  24 508.113 0.00000 8.59729e-14
  25 508.113 0.00000 8.59729e-14
  26 508.113 0.00000 2.70769e-13
  27 508.113 0.00000 7.16441e-15
  28 508.113 0.00000 -1.77788e-13
  29 508.113 0.00000 1.07466e-14
  30 508.113 0.00000 -2.11857e-13
  31 508.113 0.00000 8.10955e-14
  32 508.113 0.00000 -1.36587e-13
  33 508.113 0.00000 3.08418e-13
  34 508.113 0.00000 9.31374e-14
  35 508.113 0.00000 -2.17807e-13
  36 508.113 0.00000 1.05747e-13
  37 508.113 0.00000 -1.94846e-13
  38 508.113 0.00000 -1.20859e-13
  39 508.113 0.00000 7.24583e-14
  40 508.113 0.00000 3.26032e-13
  41 508.113 0.00000 4.07650e-13
  42 508.113 0.00000 -4.00978e-14
  43 508.113 0.00000 -8.59838e-14
  44 508.113 0.00000 -1.90442e-13
  45 508.113 0.00000 -3.23528e-14
  46 508.113 0.00000 1.56944e-14
  47 508.113 0.00000 -1.25003e-14
  48 508.113 0.00000 1.31706e-14
  49 508.113 0.00000 -6.51867e-14
  50 508.113 0.00000 1.13306e-14
  51 508.113 0.00000 2.14932e-14
  52 508.113 0.00000 -4.26364e-15
  53 508.113 0.00000 4.83988e-14
  54 508.113 0.00000 -6.10929e-14
  55 508.113 0.00000 -4.29864e-14
  56 508.113 0.00000 5.60116e-14
  57 508.113 0.00000 -9.80882e-14
  58 508.113 0.00000 1.61383e-14
  59 508.113 0.00000 -2.11937e-14
  60 508.113 0.00000 -2.16249e-15
  61 508.113 0.00000 -2.08889e-13
  62 508.113 0.00000 1.80961e-14
  63 508.113 0.00000 -8.08414e-15
  64 508.113 0.00000 1.57189e-13
  65 508.113 0.00000 -3.63460e-14
  66 508.113 0.00000 -9.77792e-14
  67 508.113 0.00000 -3.09179e-14
  68 508.113 0.00000 -6.12298e-14
  69 508.113 0.00000 -2.29727e-13
  70 508.113 0.00000 -6.90778e-14
  71 508.113 0.00000 1.14514e-13
  72 508.113 0.00000 -1.37387e-13
  73 508.113 0.00000 2.83590e-15
  74 508.113 0.00000 -5.46099e-14
  75 508.113 0.00000 5.72840e-14
  76 508.113 0.00000 2.81477e-13
  77 508.113 0.00000 3.48288e-14
  78 508.113 0.00000 -7.16844e-14
  79 508.113 0.00000 -1.34584e-13
  80 508.113 0.00000 6.67375e-14
  81 508.113 0.00000 -7.04713e-15
  82 508.113 0.00000 3.31523e-14
  83 508.113 0.00000 -1.07252e-13
  84 508.113 0.00000 9.05771e-14
  85 508.113 0.00000 -9.95246e-14
  86 508.113 0.00000 3.62704e-14
  87 508.113 0.00000 -1.74404e-14
  88 508.113 0.00000 -4.46735e-13
  89 508.113 0.00000 1.73132e-13
  90 508.113 0.00000 -3.33400e-14
  91 508.113 0.00000 -1.33236e-13
  92 508.113 0.00000 -2.77315e-14
  93 508.113 0.00000 -1.99352e-13
  94 508.113 0.00000 -1.58397e-13
  95 508.113 0.00000 -2.45537e-14
  96 508.113 0.00000 1.34799e-13
  97 508.113 0.00000 1.08962e-13
  98 508.113 0.00000 -7.59444e-16
  99 508.113 0.00000 2.00447e-13
  100 508.113 0.00000 1.89466e-14
  101 508.113 0.00000 -1.24522e-13
  102 508.113 0.00000 -5.10237e-14
  103 508.113 0.00000 2.36912e-14
  104 508.113 0.00000 6.50867e-14
  105 508.113 0.00000 -5.19811e-14
  106 508.113 0.00000 -1.66146e-13
  107 508.113 0.00000 3.21621e-13
  108 508.113 0.00000 2.65452e-14
  109 508.113 0.00000 -1.39334e-13
  110 508.113 0.00000 -4.01832e-13
  111 508.113 0.00000 -2.84116e-13
  112 508.113 0.00000 7.49053e-14
  113 508.113 0.00000 -6.22475e-14
  114 508.113 0.00000 2.67850e-14
  115 508.113 0.00000 -3.74316e-14
  116 508.113 0.00000 -6.70263e-14
  117 508.113 0.00000 3.55339e-13
  118 508.113 0.00000 -5.72309e-14
  119 508.113 0.00000 4.19340e-14
  120 508.113 0.00000 -2.79180e-13
  121 508.113 0.00000 -7.48385e-14
  122 508.113 0.00000 -1.90595e-13
  123 508.113 0.00000 8.93987e-14
  124 508.113 0.00000 -3.49942e-13
  125 508.113 0.00000 1.86456e-13
  126 508.113 0.00000 2.80124e-14
  127 508.113 0.00000 1.03561e-13
  128 508.113 0.00000 1.15264e-13
  129 508.113 0.00000 -4.24609e-14
  130 508.113 0.00000 -1.17717e-13
  131 508.113 0.00000 -8.79021e-15
  132 508.113 0.00000 -2.25263e-14
  133 508.113 0.00000 -2.50178e-13
  134 508.113 0.00000 -6.27779e-14
  135 508.113 0.00000 1.35234e-13
  136 508.113 0.00000 2.35505e-14
  137 508.113 0.00000 -9.40258e-14
  138 508.113 0.00000 8.21513e-15
  139 508.113 0.00000 -9.15770e-15
  140 508.113 0.00000 1.60614e-13
  141 508.113 0.00000 -4.56248e-14
  142 508.113 0.00000 -1.12529e-13
  143 508.113 0.00000 -1.59623e-14
  144 508.113 0.00000 -1.36083e-13
  145 508.113 0.00000 5.07562e-14
  146 508.113 0.00000 -3.32285e-14
  147 508.113 0.00000 4.74273e-14
  148 508.113 0.00000 3.96181e-14
  149 508.113 0.00000 -2.09170e-13
  150 508.113 0.00000 -5.74358e-14
  151 508.113 0.00000 -1.35347e-13
  152 508.113 0.00000 3.55436e-13
  153 508.113 0.00000 -4.71232e-15
  154 508.113 0.00000 1.32837e-13
  155 508.113 0.00000 -1.52128e-13
  156 508.113 0.00000 2.90009e-13
  157 508.113 0.00000 -3.17482e-14
  158 508.113 0.00000 6.79055e-14
  159 508.113 0.00000 2.39502e-13
  160 508.113 0.00000 2.63175e-14
  161 508.113 0.00000 3.25765e-13
  162 508.113 0.00000 -4.51086e-14
  163 508.113 0.00000 -2.01423e-13
  164 508.113 0.00000 -6.90864e-14
  165 508.113 0.00000 1.52945e-13
  166 508.113 0.00000 3.04627e-14
  167 508.113 0.00000 9.11797e-14
  168 508.113 0.00000 -6.85026e-14
  169 508.113 0.00000 1.42551e-14
  170 508.113 0.00000 5.91049e-14
  171 508.113 0.00000 2.26195e-14
  172 508.113 0.00000 1.79577e-13
  173 508.113 0.00000 -7.49897e-14
  174 508.113 0.00000 7.79325e-14
  175 508.113 0.00000 3.04815e-15
  176 508.113 0.00000 2.97578e-14
  177 508.113 0.00000 -6.91732e-14
  178 508.113 0.00000 2.32061e-14
  179 508.113 0.00000 4.85115e-14
  180 508.113 0.00000 -7.51435e-14
  181 508.113 0.00000 7.04713e-15
  182 508.113 0.00000 -7.86580e-14
  183 508.113 0.00000 -8.98184e-14
  184 508.113 0.00000 7.99912e-14
  185 508.113 0.00000 1.82878e-14
  186 508.113 0.00000 2.14745e-13
  187 508.113 0.00000 -8.92951e-14
  188 508.113 0.00000 -1.87568e-13
  189 508.113 0.00000 -1.90999e-13
  190 508.113 0.00000 -9.68459e-14
  191 508.113 0.00000 -1.37057e-14
  192 508.113 0.00000 -4.26869e-14
  193 508.113 0.00000 -6.69175e-14
  194 508.113 0.00000 4.24439e-15
  195 508.113 0.00000 3.29138e-14
  196 508.113 0.00000 -3.32330e-13
  197 508.113 0.00000 -6.58483e-14
  198 508.113 0.00000 -6.71284e-14
  199 508.113 0.00000 -5.41136e-14
  200 508.113 0.00000 -2.41548e-13
  201 508.113 0.00000 2.35082e-14
  202 508.113 0.00000 1.06321e-13
  203 508.113 0.00000 -1.85419e-13
  204 508.113 0.00000 -2.11576e-13
  205 508.113 0.00000 -5.15430e-15
  206 508.113 0.00000 4.67432e-13
  207 508.113 0.00000 2.18594e-14
  208 508.113 0.00000 -4.07874e-13
  209 508.113 0.00000 1.42861e-13
  210 508.113 0.00000 3.16969e-14
  211 508.113 0.00000 -4.17350e-14
  212 508.113 0.00000 9.37066e-14
  213 508.113 0.00000 6.20004e-15
  214 508.113 0.00000 2.95798e-15
  215 508.113 0.00000 -4.68707e-13
  216 508.113 0.00000 -5.96305e-15
  217 508.113 0.00000 9.08404e-14
  218 508.113 0.00000 -7.41173e-14
  219 508.113 0.00000 -3.37133e-14
  220 508.113 0.00000 -6.95713e-14
  221 508.113 0.00000 2.69044e-14
  222 508.113 0.00000 2.33641e-13
  223 508.113 0.00000 -3.57094e-14
  224 508.113 0.00000 9.74672e-14
  225 508.113 0.00000 1.01905e-13
  226 508.113 0.00000 -1.23797e-13
  227 508.113 0.00000 -4.06116e-13
  228 508.113 0.00000 2.26520e-13
  229 508.113 0.00000 -8.30293e-14
  230 508.113 0.00000 -1.02950e-13
  231 508.113 0.00000 5.13154e-16
  232 508.113 0.00000 -8.30069e-14
  233 508.113 0.00000 3.34431e-13
  234 508.113 0.00000 2.35522e-14
  235 508.113 0.00000 1.59055e-13
  236 508.113 0.00000 5.89627e-15
  237 508.113 0.00000 -1.18950e-13
  238 508.113 0.00000 -3.60722e-14
  239 508.113 0.00000 8.90493e-14
  240 508.113 0.00000 -3.75677e-14
  241 508.113 0.00000 -4.82840e-14
</Section>

newXOutput 28

<Section columns = "stress_xx | stress_yy | stress_xy">
  1 527.757 0.00000 8.78967e-14
  2 527.757 0.00000 2.84807e-14
  3 527.757 0.00000 2.12305e-13
  4 527.757 0.00000 -1.06043e-14
  5 527.757 0.00000 -5.57624e-14
  6 527.757 0.00000 -2.02454e-13
  7 527.757 0.00000 -1.56845e-13
  8 527.757 0.00000 -1.92354e-13
  9 527.757 0.00000 -1.77739e-14
  10 527.757 0.00000 5.49583e-14
  11 527.757 0.00000 -1.36183e-13
  12 527.757 0.00000 1.21315e-15
  13 527.757 0.00000 2.20334e-13
  14 527.757 0.00000 7.66991e-13
  15 527.757 0.00000 4.41282e-13
  16 527.757 0.00000 3.05910e-13
  17 527.757 0.00000 5.01057e-14
  18 527.757 0.00000 2.91353e-13
  19 527.757 0.00000 1.91141e-13
  20 527.757 0.00000 -4.54013e-13
  21 527.757 0.00000 -2.24686e-13
  22 527.757 0.00000 -9.09296e-14
  23 527.757 0.00000 -2.60657e-13
  24 527.757 0.00000 1.33756e-13
  25 527.757 0.00000 4.30385e-14
  26 527.757 0.00000 -3.33785e-13
  27 527.757 0.00000 -2.53214e-15
  28 527.757 0.00000 -2.65037e-14
  29 527.757 0.00000 -3.22789e-14
  30 527.757 0.00000 -2.08335e-13
  31 527.757 0.00000 3.29841e-13
  32 527.757 0.00000 1.71109e-13
  33 527.757 0.00000 -3.48495e-13
  34 527.757 0.00000 -3.78398e-13
  35 527.757 0.00000 1.89889e-13
  36 527.757 0.00000 1.44891e-14
  37 527.757 0.00000 1.09618e-13
  38 527.757 0.00000 -4.48750e-14
  39 527.757 0.00000 -4.20436e-13
  40 527.757 0.00000 -5.02254e-13
  41 527.757 0.00000 -1.88840e-13
  42 527.757 0.00000 -2.73316e-13
  43 527.757 0.00000 -1.85217e-13
  44 527.757 0.00000 -7.65564e-14
  45 527.757 0.00000 5.52401e-14
  46 527.757 0.00000 4.62299e-14
  47 527.757 0.00000 -1.04323e-13
  48 527.757 0.00000 -8.16645e-14
  49 527.757 0.00000 -7.78650e-14
  50 527.757 0.00000 -1.82360e-14
  51 527.757 0.00000 -4.30385e-14
  52 527.757 0.00000 -5.73880e-14
  53 527.757 0.00000 -7.29440e-14
  54 527.757 0.00000 1.06192e-13
  55 527.757 0.00000 8.60770e-14
  56 527.757 0.00000 -1.04484e-13
  57 527.757 0.00000 2.95793e-14
  58 527.757 0.00000 1.34310e-13
  59 527.757 0.00000 -1.55093e-13
  60 527.757 0.00000 1.24619e-13
  61 527.757 0.00000 4.22345e-14
  62 527.757 0.00000 8.89643e-14
  63 527.757 0.00000 -2.79496e-13
  64 527.757 0.00000 -2.58231e-13
  65 527.757 0.00000 -5.59158e-14
  66 527.757 0.00000 4.51615e-14
  67 527.757 0.00000 -1.04141e-13
  68 527.757 0.00000 4.03142e-13
  69 527.757 0.00000 6.89785e-14
  70 527.757 0.00000 -5.75199e-15
  71 527.757 0.00000 9.83525e-14
  72 527.757 0.00000 7.07711e-14
  73 527.757 0.00000 -3.54211e-14
  74 527.757 0.00000 -7.24076e-14
  75 527.757 0.00000 5.89166e-14
  76 527.757 0.00000 -8.24904e-14
  77 527.757 0.00000 4.54932e-16
  78 527.757 0.00000 -1.54762e-13
  79 527.757 0.00000 1.15395e-14
  80 527.757 0.00000 -1.95255e-13
  81 527.757 0.00000 1.02084e-13
  82 527.757 0.00000 -4.17107e-14
  83 527.757 0.00000 2.85407e-14
  84 527.757 0.00000 -1.89413e-14
  85 527.757 0.00000 5.67252e-14
  86 527.757 0.00000 3.54034e-14
  87 527.757 0.00000 -4.71796e-14
  88 527.757 0.00000 -5.64459e-13
  89 527.757 0.00000 -1.19471e-13
  90 527.757 0.00000 1.50586e-14
  91 527.757 0.00000 -3.89240e-14
  92 527.757 0.00000 6.21456e-15
  93 527.757 0.00000 9.13110e-13
  94 527.757 0.00000 -1.01045e-13
  95 527.757 0.00000 8.22159e-14
  96 527.757 0.00000 -1.41932e-13
  97 527.757 0.00000 1.37469e-13
  98 527.757 0.00000 -3.06973e-15
  99 527.757 0.00000 -3.71315e-14
  100 527.757 0.00000 1.95302e-13
  101 527.757 0.00000 1.00067e-13
  102 527.757 0.00000 2.42677e-13
  103 527.757 0.00000 -3.85950e-14
  104 527.757 0.00000 2.10493e-13
  105 527.757 0.00000 1.83194e-13
  106 527.757 0.00000 7.52115e-14
  107 527.757 0.00000 -4.43623e-13
  108 527.757 0.00000 -2.81056e-14
  109 527.757 0.00000 2.32131e-13
  110 527.757 0.00000 2.82724e-13
  111 527.757 0.00000 -2.74375e-13
  112 527.757 0.00000 -5.19456e-14
  113 527.757 0.00000 -1.32450e-13
  114 527.757 0.00000 -1.41332e-13
  115 527.757 0.00000 1.42731e-13
  116 527.757 0.00000 2.50952e-14
  117 527.757 0.00000 -1.49422e-13
  118 527.757 0.00000 -6.07764e-14
  119 527.757 0.00000 7.23444e-14
  120 527.757 0.00000 3.51662e-14
  121 527.757 0.00000 5.43377e-14
  122 527.757 0.00000 2.23070e-13
  123 527.757 0.00000 2.02926e-14
  124 527.757 0.00000 3.78875e-13
  125 527.757 0.00000 7.48300e-14
  126 527.757 0.00000 -4.72363e-14
  127 527.757 0.00000 6.13021e-14
  128 527.757 0.00000 -5.83474e-14
  129 527.757 0.00000 -4.00354e-14
  130 527.757 0.00000 -2.52996e-13
  131 527.757 0.00000 1.70331e-13
  132 527.757 0.00000 5.78691e-14
  133 527.757 0.00000 -2.92727e-14
  134 527.757 0.00000 4.51635e-14
  135 527.757 0.00000 1.25860e-13
  136 527.757 0.00000 -4.14607e-14
  137 527.757 0.00000 2.94289e-13
  138 527.757 0.00000 1.59620e-13
  139 527.757 0.00000 9.18777e-14
  140 527.757 0.00000 2.17565e-14
  141 527.757 0.00000 1.50885e-13
  142 527.757 0.00000 -1.48469e-14
  143 527.757 0.00000 1.04437e-13
  144 527.757 0.00000 3.60045e-13
  145 527.757 0.00000 -6.46746e-13
  146 527.757 0.00000 2.80842e-14
  147 527.757 0.00000 -7.30314e-14
  148 527.757 0.00000 7.90484e-15
  149 527.757 0.00000 2.09232e-13
  150 527.757 0.00000 2.13683e-14
  151 527.757 0.00000 5.65277e-14
  152 527.757 0.00000 1.80962e-13
  153 527.757 0.00000 -8.72901e-14
  154 527.757 0.00000 -2.88864e-13
  155 527.757 0.00000 1.51966e-13
  156 527.757 0.00000 2.03573e-13
  157 527.757 0.00000 -1.64304e-14
  158 527.757 0.00000 1.90745e-13
  159 527.757 0.00000 -2.37450e-13
  160 527.757 0.00000 -4.34024e-14
  161 527.757 0.00000 -9.32924e-14
  162 527.757 0.00000 5.34419e-14
  163 527.757 0.00000 7.88510e-14
  164 527.757 0.00000 -5.06105e-14
  165 527.757 0.00000 7.83497e-14
  166 527.757 0.00000 -1.56479e-14
  167 527.757 0.00000 -1.43718e-13
  168 527.757 0.00000 -1.57144e-13
  169 527.757 0.00000 -9.01318e-15
  170 527.757 0.00000 3.00224e-13
  171 527.757 0.00000 1.38293e-13
  172 527.757 0.00000 2.43673e-13
  173 527.757 0.00000 5.06886e-14
  174 527.757 0.00000 1.52440e-13
  175 527.757 0.00000 -1.32831e-14
  176 527.757 0.00000 -9.95194e-14
  177 527.757 0.00000 -3.88255e-13
  178 527.757 0.00000 7.48624e-14
  179 527.757 0.00000 -8.80152e-14
  180 527.757 0.00000 9.60340e-14
  181 527.757 0.00000 1.03733e-13
  182 527.757 0.00000 -1.98460e-13
  183 527.757 0.00000 -6.87112e-14
  184 527.757 0.00000 -1.64147e-13
  185 527.757 0.00000 1.41452e-14
  186 527.757 0.00000 1.86695e-13
  187 527.757 0.00000 -2.59844e-13
  188 527.757 0.00000 -8.68908e-14
  189 527.757 0.00000 2.06949e-13
  190 527.757 0.00000 -5.98404e-15
  191 527.757 0.00000 1.24968e-13
  192 527.757 0.00000 8.13977e-14
  193 527.757 0.00000 1.30961e-13
  194 527.757 0.00000 -3.59814e-13
  195 527.757 0.00000 -3.59659e-14
  196 527.757 0.00000 2.39962e-13
  197 527.757 0.00000 5.81429e-14
  198 527.757 0.00000 3.10128e-14
  199 527.757 0.00000 3.78632e-14
  200 527.757 0.00000 2.61250e-13
  201 527.757 0.00000 -6.75771e-14
  202 527.757 0.00000 2.89687e-13
  203 527.757 0.00000 -7.01085e-14
  204 527.757 0.00000 4.23525e-14
  205 527.757 0.00000 1.87604e-13
  206 527.757 0.00000 -1.32027e-13
  207 527.757 0.00000 -3.52458e-14
  208 527.757 0.00000 -1.36977e-13
  209 527.757 0.00000 -2.85657e-13
  210 527.757 0.00000 6.12727e-14
  211 527.757 0.00000 -2.95266e-14
  212 527.757 0.00000 3.39398e-14
  213 527.757 0.00000 -5.76920e-14
  214 527.757 0.00000 -8.09905e-15
  215 527.757 0.00000 3.94094e-13
  216 527.757 0.00000 5.05660e-14
  217 527.757 0.00000 -2.37925e-13
  218 527.757 0.00000 -7.17388e-14
  219 527.757 0.00000 2.40097e-13
  220 527.757 0.00000 8.16070e-14
  221 527.757 0.00000 1.01583e-13
  222 527.757 0.00000 3.44597e-13
  223 527.757 0.00000 -6.52221e-14
  224 527.757 0.00000 6.24376e-14
  225 527.757 0.00000 -2.22154e-13
  226 527.757 0.00000 8.06813e-14
  227 527.757 0.00000 3.20098e-13
  228 527.757 0.00000 9.81971e-14
  229 527.757 0.00000 7.00134e-14
  230 527.757 0.00000 2.42631e-15
  231 527.757 0.00000 -3.94244e-13
  232 527.757 0.00000 -4.89441e-14
  233 527.757 0.00000 2.45002e-13
  234 527.757 0.00000 1.30239e-13
  235 527.757 0.00000 -6.92557e-14
  236 527.757 0.00000 -9.13486e-15
  237 527.757 0.00000 7.96487e-14
  238 527.757 0.00000 8.82289e-14
  239 527.757 0.00000 -7.49612e-14
  240 527.757 0.00000 2.61616e-13
  241 527.757 0.00000 1.37449e-13
</Section>

newXOutput 29

<Section columns = "stress_xx | stress_yy | stress_xy">
  1 547.410 0.00000 -1.25497e-13
  2 547.410 0.00000 1.14172e-13
  3 547.410 0.00000 -8.27665e-14
  4 547.410 0.00000 5.15810e-15
  5 547.410 0.00000 -1.37973e-13
  6 547.410 0.00000 -2.07903e-13
  7 547.410 0.00000 -9.78974e-14
  8 547.410 0.00000 -3.77495e-15
  9 547.410 0.00000 4.88145e-13
  10 547.410 0.00000 2.45960e-13
  11 547.410 0.00000 -2.49521e-14
  12 547.410 0.00000 -2.09790e-13
  13 547.410 0.00000 -2.90952e-14
  14 547.410 0.00000 1.28535e-13
  15 547.410 0.00000 -1.98546e-13
  16 547.410 0.00000 -5.10581e-13
  17 547.410 0.00000 -1.91023e-13
  18 547.410 0.00000 1.66593e-13
  19 547.410 0.00000 -3.15544e-28
  20 547.410 0.00000 -2.05386e-13
  21 547.410 0.00000 -2.48477e-13
  22 547.410 0.00000 2.19750e-13
  23 547.410 0.00000 6.04311e-13
  24 547.410 0.00000 0.00000
  25 547.410 0.00000 0.00000
  26 547.410 0.00000 -2.52869e-13
  27 547.410 0.00000 -7.18176e-15
  28 547.410 0.00000 3.92649e-13
  29 547.410 0.00000 7.54084e-14
  30 547.410 0.00000 9.16882e-15
  31 547.410 0.00000 -6.01580e-14
  32 547.410 0.00000 5.22944e-13
  33 547.410 0.00000 5.12005e-13
  34 547.410 0.00000 4.26090e-13
  35 547.410 0.00000 -7.60610e-14
  36 547.410 0.00000 -1.15390e-13
  37 547.410 0.00000 1.19901e-13
  38 547.410 0.00000 -7.68209e-14
  39 547.410 0.00000 -2.11467e-13
  40 547.410 0.00000 2.91226e-13
  41 547.410 0.00000 4.90235e-13
  42 547.410 0.00000 3.86605e-13
  43 547.410 0.00000 2.08035e-13
  44 547.410 0.00000 4.82945e-14
  45 547.410 0.00000 -1.90592e-13
  46 547.410 0.00000 -1.35169e-13
  47 547.410 0.00000 1.10194e-13
  48 547.410 0.00000 9.24974e-14
  49 547.410 0.00000 3.82809e-15
  50 547.410 0.00000 -8.12549e-15
  51 547.410 0.00000 -3.23179e-14
  52 547.410 0.00000 -4.08692e-14
  53 547.410 0.00000 -5.15306e-14
  54 547.410 0.00000 1.55490e-14
  55 547.410 0.00000 -8.61811e-14
  56 547.410 0.00000 -3.32987e-15
  57 547.410 0.00000 1.60237e-13
  58 547.410 0.00000 1.37566e-13
  59 547.410 0.00000 3.17786e-14
  60 547.410 0.00000 1.71413e-13
  61 547.410 0.00000 1.44840e-13
  62 547.410 0.00000 -9.88412e-14
  63 547.410 0.00000 -1.15682e-13
  64 547.410 0.00000 -6.29324e-14
  65 547.410 0.00000 1.35541e-13
  66 547.410 0.00000 2.28805e-14
  67 547.410 0.00000 3.21115e-13
  68 547.410 0.00000 6.73214e-14
  69 547.410 0.00000 -1.78673e-15
  70 547.410 0.00000 1.52791e-13
  71 547.410 0.00000 -1.48665e-13
  72 547.410 0.00000 -5.29264e-14
  73 547.410 0.00000 -5.74803e-14
  74 547.410 0.00000 4.58903e-14
  75 547.410 0.00000 -2.04160e-13
  76 547.410 0.00000 2.30706e-13
  77 547.410 0.00000 -6.23300e-14
  78 547.410 0.00000 2.67475e-14
  79 547.410 0.00000 7.77216e-15
  80 547.410 0.00000 -1.47932e-13
  81 547.410 0.00000 -3.18728e-14
  82 547.410 0.00000 1.28536e-13
  83 547.410 0.00000 -1.28328e-13
  84 547.410 0.00000 6.95887e-14
  85 547.410 0.00000 5.90132e-13
  86 547.410 0.00000 2.81738e-13
  87 547.410 0.00000 -7.16406e-14
  88 547.410 0.00000 -5.69115e-13
  89 547.410 0.00000 1.69985e-13
  90 547.410 0.00000 8.84868e-14
  91 547.410 0.00000 -4.68193e-14
  92 547.410 0.00000 -1.42388e-13
  93 547.410 0.00000 4.94437e-14
  94 547.410 0.00000 1.87978e-13
  95 547.410 0.00000 -1.88678e-13
  96 547.410 0.00000 -1.52068e-13
  97 547.410 0.00000 -5.27841e-13
  98 547.410 0.00000 -1.57119e-13
  99 547.410 0.00000 8.13168e-14
  100 547.410 0.00000 -9.83532e-14
  101 547.410 0.00000 3.67989e-14
  102 547.410 0.00000 -1.41223e-13
  103 547.410 0.00000 -2.87017e-13
  104 547.410 0.00000 -6.21681e-14
  105 547.410 0.00000 -1.64764e-13
  106 547.410 0.00000 2.36990e-13
  107 547.410 0.00000 -9.67621e-14
  108 547.410 0.00000 -9.31856e-15
  109 547.410 0.00000 -4.45164e-15
  110 547.410 0.00000 4.08476e-13
  111 547.410 0.00000 7.76141e-14
  112 547.410 0.00000 7.22626e-14
  113 547.410 0.00000 -2.50026e-13
  114 547.410 0.00000 8.45161e-14
  115 547.410 0.00000 1.05872e-13
  116 547.410 0.00000 7.82537e-14
  117 547.410 0.00000 -3.83334e-14
  118 547.410 0.00000 4.79404e-14
  119 547.410 0.00000 1.58039e-14
  120 547.410 0.00000 1.71374e-14
  121 547.410 0.00000 -6.77876e-14
  122 547.410 0.00000 3.47217e-14
  123 547.410 0.00000 1.41251e-13
  124 547.410 0.00000 -1.72379e-13
  125 547.410 0.00000 -1.74032e-13
  126 547.410 0.00000 -4.22956e-15
  127 547.410 0.00000 8.52473e-14
  128 547.410 0.00000 -2.26893e-13
  129 547.410 0.00000 5.61277e-15
  130 547.410 0.00000 4.79665e-14
  131 547.410 0.00000 1.26987e-13
  132 547.410 0.00000 2.79105e-15
  133 547.410 0.00000 2.03589e-13
  134 547.410 0.00000 6.76283e-14
  135 547.410 0.00000 -8.71018e-14
  136 547.410 0.00000 -3.19266e-14
  137 547.410 0.00000 -2.62089e-13
  138 547.410 0.00000 -1.91299e-13
  139 547.410 0.00000 2.33524e-14
  140 547.410 0.00000 1.63095e-13
  141 547.410 0.00000 8.48692e-14
  142 547.410 0.00000 5.28659e-14
  143 547.410 0.00000 3.99667e-14
  144 547.410 0.00000 7.61211e-14
  145 547.410 0.00000 4.82250e-13
  146 547.410 0.00000 -8.75627e-14
  147 547.410 0.00000 -1.81897e-13
  148 547.410 0.00000 -1.05769e-14
  149 547.410 0.00000 7.03752e-14
  150 547.410 0.00000 1.62115e-13
  151 547.410 0.00000 6.44517e-14
  152 547.410 0.00000 1.97982e-13
  153 547.410 0.00000 -2.10081e-14
  154 547.410 0.00000 9.02783e-14
  155 547.410 0.00000 2.66556e-13
  156 547.410 0.00000 1.50120e-13
  157 547.410 0.00000 -8.70689e-14
  158 547.410 0.00000 -7.80096e-14
  159 547.410 0.00000 -2.94407e-14
  160 547.410 0.00000 -5.86602e-14
  161 547.410 0.00000 -3.01634e-14
  162 547.410 0.00000 -3.39310e-14
  163 547.410 0.00000 -1.00898e-13
  164 547.410 0.00000 -1.50107e-13
  165 547.410 0.00000 -6.14938e-14
  166 547.410 0.00000 -2.36235e-14
  167 547.410 0.00000 5.00158e-14
  168 547.410 0.00000 3.62474e-14
  169 547.410 0.00000 3.53154e-14
  170 547.410 0.00000 -1.15903e-13
  171 547.410 0.00000 3.50243e-14
  172 547.410 0.00000 1.19021e-13
  173 547.410 0.00000 -9.62012e-15
  174 547.410 0.00000 5.60886e-15
  175 547.410 0.00000 2.60331e-14
  176 547.410 0.00000 2.23434e-14
  177 547.410 0.00000 -3.68788e-13
  178 547.410 0.00000 -4.87530e-14
  179 547.410 0.00000 -4.83433e-14
  180 547.410 0.00000 2.37683e-14
  181 547.410 0.00000 5.00882e-14
  182 547.410 0.00000 5.66756e-14
  183 547.410 0.00000 -1.45116e-13
  184 547.410 0.00000 -6.66634e-15
  185 547.410 0.00000 -2.53003e-15
  186 547.410 0.00000 -9.89516e-14
  187 547.410 0.00000 -1.38967e-13
  188 547.410 0.00000 2.09401e-14
  189 547.410 0.00000 -1.24364e-13
  190 547.410 0.00000 6.28694e-14
  191 547.410 0.00000 -2.79289e-14
  192 547.410 0.00000 1.32731e-13
  193 547.410 0.00000 -1.02493e-13
  194 547.410 0.00000 1.47671e-13
  195 547.410 0.00000 3.25789e-14
  196 547.410 0.00000 3.27900e-13
  197 547.410 0.00000 -1.09969e-14
  198 547.410 0.00000 2.64989e-13
  199 547.410 0.00000 1.95688e-13
  200 547.410 0.00000 -1.07191e-14
  201 547.410 0.00000 4.40411e-15
  202 547.410 0.00000 -2.58543e-14
  203 547.410 0.00000 2.30338e-13
  204 547.410 0.00000 1.35949e-13
  205 547.410 0.00000 -6.66940e-14
  206 547.410 0.00000 -4.50278e-13
  207 547.410 0.00000 -3.03718e-14
  208 547.410 0.00000 2.41765e-13
  209 547.410 0.00000 1.05655e-13
  210 547.410 0.00000 -1.13070e-13
  211 547.410 0.00000 1.95000e-14
  212 547.410 0.00000 3.10943e-13
  213 547.410 0.00000 1.60894e-14
  214 547.410 0.00000 1.28241e-13
  215 547.410 0.00000 -6.15538e-13
  216 547.410 0.00000 -3.41640e-13
  217 547.410 0.00000 -6.55411e-14
  218 547.410 0.00000 7.43474e-14
  219 547.410 0.00000 3.65386e-13
  220 547.410 0.00000 -3.29140e-15
  221 547.410 0.00000 1.34650e-13
  222 547.410 0.00000 3.01841e-13
  223 547.410 0.00000 4.75883e-14
  224 547.410 0.00000 -2.92040e-13
  225 547.410 0.00000 2.67585e-13
  226 547.410 0.00000 2.61675e-14
  227 547.410 0.00000 1.85452e-13
  228 547.410 0.00000 -6.02163e-14
  229 547.410 0.00000 1.03884e-13
  230 547.410 0.00000 -1.51968e-13
  231 547.410 0.00000 -1.73430e-13
  232 547.410 0.00000 -1.16463e-15
  233 547.410 0.00000 -2.11678e-13
  234 547.410 0.00000 -2.46125e-13
  235 547.410 0.00000 1.59524e-13
  236 547.410 0.00000 8.47755e-14
  237 547.410 0.00000 1.62291e-13
  238 547.410 0.00000 1.30984e-13
  239 547.410 0.00000 -6.91168e-14
  240 547.410 0.00000 -3.00068e-14
  241 547.410 0.00000 3.73512e-14
</Section>

newXOutput 30

<Section columns = "stress_xx | stress_yy | stress_xy">
  1 567.070 0.00000 9.77625e-15
  2 567.070 0.00000 -5.88354e-13
  3 567.070 0.00000 4.10613e-13
  4 567.070 0.00000 -2.65797e-14
  5 567.070 0.00000 -3.33663e-14
  6 567.070 0.00000 2.92222e-13
  7 567.070 0.00000 1.72570e-13
  8 567.070 0.00000 1.50326e-13
  9 567.070 0.00000 -1.51714e-13
  10 567.070 0.00000 -2.01417e-13
  11 567.070 0.00000 -1.53018e-13
  12 567.070 0.00000 -3.20628e-14
  13 567.070 0.00000 8.92180e-14
  14 567.070 0.00000 3.47748e-13
  15 567.070 0.00000 1.46079e-13
  16 567.070 0.00000 1.38595e-13
  17 567.070 0.00000 -3.50439e-13
  18 567.070 0.00000 -1.19000e-13
  19 567.070 0.00000 -2.04024e-13
  20 567.070 0.00000 -1.62142e-13
  21 567.070 0.00000 4.44545e-13
  22 567.070 0.00000 1.62142e-13
  23 567.070 0.00000 -4.15784e-13
  24 567.070 0.00000 2.19666e-13
  25 567.070 0.00000 4.31426e-14
  26 567.070 0.00000 2.15713e-13
  27 567.070 0.00000 1.43809e-14
  28 567.070 0.00000 1.51267e-13
  29 567.070 0.00000 6.47139e-14
  30 567.070 0.00000 3.02017e-14
  31 567.070 0.00000 2.43360e-13
  32 567.070 0.00000 -9.31094e-13
  33 567.070 0.00000 -2.20105e-13
  34 567.070 0.00000 8.05408e-14
  35 567.070 0.00000 -1.96643e-13
  36 567.070 0.00000 -5.00736e-13
  37 567.070 0.00000 -3.59606e-14
  38 567.070 0.00000 5.46701e-14
  39 567.070 0.00000 1.18376e-13
  40 567.070 0.00000 -7.76966e-14
  41 567.070 0.00000 -4.92902e-14
  42 567.070 0.00000 -7.41436e-14
  43 567.070 0.00000 2.52118e-14
  44 567.070 0.00000 1.23666e-13
  45 567.070 0.00000 4.74221e-15
  46 567.070 0.00000 -1.31146e-14
  47 567.070 0.00000 -9.51906e-14
  48 567.070 0.00000 1.09954e-13
  49 567.070 0.00000 1.66707e-15
  50 567.070 0.00000 2.61759e-15
  51 567.070 0.00000 2.15713e-14
  52 567.070 0.00000 -1.65490e-14
  53 567.070 0.00000 8.30264e-14
  54 567.070 0.00000 -5.07748e-14
  55 567.070 0.00000 4.31426e-14
  56 567.070 0.00000 1.12766e-13
  57 567.070 0.00000 -6.19969e-14
  58 567.070 0.00000 1.98220e-13
  59 567.070 0.00000 -1.04685e-13
  60 567.070 0.00000 -1.38525e-13
  61 567.070 0.00000 -2.63024e-13
  62 567.070 0.00000 -1.50409e-14
  63 567.070 0.00000 9.29203e-14
  64 567.070 0.00000 1.87950e-13
  65 567.070 0.00000 -8.69703e-14
  66 567.070 0.00000 -1.18945e-13
  67 567.070 0.00000 -4.68067e-13
  68 567.070 0.00000 1.09791e-13
  69 567.070 0.00000 -2.05704e-13
  70 567.070 0.00000 -3.02076e-14
  71 567.070 0.00000 -5.07354e-14
  72 567.070 0.00000 -1.11729e-14
  73 567.070 0.00000 3.26957e-13
  74 567.070 0.00000 -9.62933e-14
  75 567.070 0.00000 1.59615e-13
  76 567.070 0.00000 1.03946e-13
  77 567.070 0.00000 7.44901e-14
  78 567.070 0.00000 3.93250e-14
  79 567.070 0.00000 -1.15331e-13
  80 567.070 0.00000 -8.05770e-14
  81 567.070 0.00000 6.81514e-14
  82 567.070 0.00000 8.85441e-14
  83 567.070 0.00000 -6.11663e-14
  84 567.070 0.00000 -1.65414e-14
  85 567.070 0.00000 -1.69984e-13
  86 567.070 0.00000 3.97167e-13
  87 567.070 0.00000 3.38424e-14
  88 567.070 0.00000 -1.52856e-13
  89 567.070 0.00000 9.16430e-14
  90 567.070 0.00000 1.78914e-13
  91 567.070 0.00000 5.38774e-14
  92 567.070 0.00000 1.08326e-13
  93 567.070 0.00000 5.31865e-13
  94 567.070 0.00000 -7.38788e-14
  95 567.070 0.00000 5.71921e-14
  96 567.070 0.00000 2.52564e-13
  97 567.070 0.00000 7.30397e-13
  98 567.070 0.00000 3.35885e-13
  99 567.070 0.00000 -1.73455e-14
  100 567.070 0.00000 9.39791e-15
  101 567.070 0.00000 -1.18369e-13
  102 567.070 0.00000 -2.42015e-13
  103 567.070 0.00000 -7.86853e-14
  104 567.070 0.00000 2.05520e-13
  105 567.070 0.00000 -5.95356e-14
  106 567.070 0.00000 6.34104e-14
  107 567.070 0.00000 -6.40833e-14
  108 567.070 0.00000 4.48343e-15
  109 567.070 0.00000 -9.37977e-14
  110 567.070 0.00000 2.25742e-13
  111 567.070 0.00000 -2.09373e-13
  112 567.070 0.00000 -5.94646e-14
  113 567.070 0.00000 1.91766e-13
  114 567.070 0.00000 -8.10084e-14
  115 567.070 0.00000 1.07733e-13
  116 567.070 0.00000 -3.49305e-14
  117 567.070 0.00000 1.41990e-13
  118 567.070 0.00000 -9.00560e-14
  119 567.070 0.00000 2.68512e-14
  120 567.070 0.00000 -3.68380e-14
  121 567.070 0.00000 -3.24069e-14
  122 567.070 0.00000 -3.11847e-13
  123 567.070 0.00000 -2.84625e-13
  124 567.070 0.00000 -1.11148e-13
  125 567.070 0.00000 5.85896e-14
  126 567.070 0.00000 3.60958e-14
  127 567.070 0.00000 1.00576e-13
  128 567.070 0.00000 5.49058e-14
  129 567.070 0.00000 1.09524e-13
  130 567.070 0.00000 -3.09735e-13
  131 567.070 0.00000 3.90571e-15
  132 567.070 0.00000 2.56606e-14
  133 567.070 0.00000 -3.19425e-13
  134 567.070 0.00000 -7.48602e-14
  135 567.070 0.00000 5.60926e-13
  136 567.070 0.00000 1.41620e-13
  137 567.070 0.00000 3.09144e-14
  138 567.070 0.00000 -1.56781e-13
  139 567.070 0.00000 -1.31354e-14
  140 567.070 0.00000 3.95870e-13
  141 567.070 0.00000 -1.70663e-13
  142 567.070 0.00000 -2.61971e-14
  143 567.070 0.00000 1.94355e-14
  144 567.070 0.00000 -7.51748e-14
  145 567.070 0.00000 9.13582e-14
  146 567.070 0.00000 5.84545e-14
  147 567.070 0.00000 6.58135e-14
  148 567.070 0.00000 7.22143e-14
  149 567.070 0.00000 -3.97262e-14
  150 567.070 0.00000 1.03102e-13
  151 567.070 0.00000 -3.69933e-14
  152 567.070 0.00000 9.76566e-15
  153 567.070 0.00000 8.66004e-14
  154 567.070 0.00000 1.98670e-13
  155 567.070 0.00000 -7.91830e-14
  156 567.070 0.00000 1.35609e-13
  157 567.070 0.00000 1.20793e-13
  158 567.070 0.00000 1.67582e-13
  159 567.070 0.00000 -2.46253e-14
  160 567.070 0.00000 9.02084e-14
  161 567.070 0.00000 2.35138e-14
  162 567.070 0.00000 2.41518e-14
  163 567.070 0.00000 -6.24645e-14
  164 567.070 0.00000 2.89478e-13
  165 567.070 0.00000 3.52933e-15
  166 567.070 0.00000 3.57990e-14
  167 567.070 0.00000 1.12632e-13
  168 567.070 0.00000 1.93524e-13
  169 567.070 0.00000 -4.45102e-14
  170 567.070 0.00000 -3.87981e-13
  171 567.070 0.00000 3.54158e-14
  172 567.070 0.00000 1.76481e-13
  173 567.070 0.00000 1.85604e-14
  174 567.070 0.00000 2.08239e-13
  175 567.070 0.00000 -7.61619e-15
  176 567.070 0.00000 1.27788e-13
  177 567.070 0.00000 3.83649e-14
  178 567.070 0.00000 -3.56633e-14
  179 567.070 0.00000 9.82249e-14
  180 567.070 0.00000 -9.27207e-15
  181 567.070 0.00000 -1.39099e-13
  182 567.070 0.00000 7.82737e-14
  183 567.070 0.00000 1.36973e-14
  184 567.070 0.00000 -1.43582e-13
  185 567.070 0.00000 7.64747e-15
  186 567.070 0.00000 3.49833e-13
  187 567.070 0.00000 -6.75090e-14
  188 567.070 0.00000 -1.05658e-13
  189 567.070 0.00000 2.83892e-14
  190 567.070 0.00000 2.10152e-14
  191 567.070 0.00000 -9.28715e-14
  192 567.070 0.00000 2.80156e-13
  193 567.070 0.00000 -2.44760e-13
  194 567.070 0.00000 -3.37667e-13
  195 567.070 0.00000 -7.44288e-14
  196 567.070 0.00000 -1.53624e-13
  197 567.070 0.00000 -1.64715e-13
  198 567.070 0.00000 -4.19106e-13
  199 567.070 0.00000 -2.22866e-14
  200 567.070 0.00000 3.93991e-13
  201 567.070 0.00000 2.15286e-13
  202 567.070 0.00000 -6.70856e-14
  203 567.070 0.00000 -2.06957e-13
  204 567.070 0.00000 -3.37588e-13
  205 567.070 0.00000 -5.11795e-14
  206 567.070 0.00000 4.61298e-13
  207 567.070 0.00000 2.30145e-13
  208 567.070 0.00000 2.13410e-13
  209 567.070 0.00000 1.90557e-13
  210 567.070 0.00000 -7.29047e-14
  211 567.070 0.00000 1.44268e-13
  212 567.070 0.00000 5.36999e-13
  213 567.070 0.00000 6.45046e-14
  214 567.070 0.00000 4.44938e-14
  215 567.070 0.00000 -6.73799e-14
  216 567.070 0.00000 1.04939e-13
  217 567.070 0.00000 4.60409e-13
  218 567.070 0.00000 -1.16689e-13
  219 567.070 0.00000 -1.39671e-13
  220 567.070 0.00000 6.32808e-15
  221 567.070 0.00000 1.67672e-13
  222 567.070 0.00000 2.55901e-13
  223 567.070 0.00000 4.52552e-14
  224 567.070 0.00000 1.03517e-13
  225 567.070 0.00000 1.07535e-13
  226 567.070 0.00000 -1.85955e-13
  227 567.070 0.00000 -8.30476e-14
  228 567.070 0.00000 2.49445e-13
  229 567.070 0.00000 -1.57688e-13
  230 567.070 0.00000 2.05915e-13
  231 567.070 0.00000 -3.92575e-14
  232 567.070 0.00000 -5.05578e-15
  233 567.070 0.00000 2.97960e-14
  234 567.070 0.00000 2.08956e-13
  235 567.070 0.00000 -1.41287e-13
  236 567.070 0.00000 -1.29326e-15
  237 567.070 0.00000 -1.75730e-13
  238 567.070 0.00000 -1.87343e-13
  239 567.070 0.00000 1.29291e-15
  240 567.070 0.00000 8.35224e-14
  241 567.070 0.00000 -2.36023e-13
</Section>

newXOutput 31

<Section columns = "stress_xx | stress_yy | stress_xy">
  1 586.737 0.00000 -2.28467e-13
  2 586.737 0.00000 0.00000
  3 586.737 0.00000 1.99585e-13
  4 586.737 0.00000 -1.89356e-14
  5 586.737 0.00000 -2.87527e-13
  6 586.737 0.00000 -2.09904e-13
  7 586.737 0.00000 -8.63892e-14
  8 586.737 0.00000 -3.82373e-14
  9 586.737 0.00000 2.79434e-13
  10 586.737 0.00000 2.14187e-13
  11 586.737 0.00000 7.96457e-14
  12 586.737 0.00000 -7.53628e-14
  13 586.737 0.00000 -1.95387e-13
  14 586.737 0.00000 -5.07546e-13
  15 586.737 0.00000 -5.14645e-13
  16 586.737 0.00000 -2.08792e-13
  17 586.737 0.00000 -1.67384e-13
  18 586.737 0.00000 -1.90785e-13
  19 586.737 0.00000 1.07896e-14
  20 586.737 0.00000 1.22403e-13
  21 586.737 0.00000 -1.43982e-13
  22 586.737 0.00000 -2.01575e-13
  23 586.737 0.00000 -2.27674e-13
  24 586.737 0.00000 -5.75928e-14
  25 586.737 0.00000 -1.29584e-13
  26 586.737 0.00000 -2.29471e-14
  27 586.737 0.00000 4.46362e-13
  28 586.737 0.00000 -1.48488e-13
  29 586.737 0.00000 -1.07987e-13
  30 586.737 0.00000 -2.91573e-13
  31 586.737 0.00000 1.48705e-13
  32 586.737 0.00000 2.38996e-13
  33 586.737 0.00000 -2.40167e-14
  34 586.737 0.00000 -9.55695e-14
  35 586.737 0.00000 8.10485e-15
  36 586.737 0.00000 8.01506e-13
  37 586.737 0.00000 6.89885e-13
  38 586.737 0.00000 1.97631e-13
  39 586.737 0.00000 2.15237e-14
  40 586.737 0.00000 -1.20337e-13
  41 586.737 0.00000 -2.30766e-13
  42 586.737 0.00000 -5.10263e-14
  43 586.737 0.00000 1.77916e-13
  44 586.737 0.00000 -8.75279e-14
  45 586.737 0.00000 -3.39180e-13
  46 586.737 0.00000 -2.02905e-13
  47 586.737 0.00000 -1.50100e-13
  48 586.737 0.00000 -1.09084e-13
  49 586.737 0.00000 -2.33594e-14
  50 586.737 0.00000 -8.54780e-15
  51 586.737 0.00000 -3.23960e-14
  52 586.737 0.00000 -2.27780e-14
  53 586.737 0.00000 -8.57149e-14
  54 586.737 0.00000 6.41221e-14
  55 586.737 0.00000 4.31946e-14
  56 586.737 0.00000 -5.77022e-14
  57 586.737 0.00000 2.41352e-14
  58 586.737 0.00000 -1.85495e-13
  59 586.737 0.00000 1.64210e-13
  60 586.737 0.00000 8.99775e-15
  61 586.737 0.00000 1.90183e-14
  62 586.737 0.00000 8.11117e-14
  63 586.737 0.00000 2.62415e-13
  64 586.737 0.00000 -1.70072e-13
  65 586.737 0.00000 -3.57085e-14
  66 586.737 0.00000 8.32247e-14
  67 586.737 0.00000 1.82228e-13
  68 586.737 0.00000 1.52762e-13
  69 586.737 0.00000 -2.91212e-14
  70 586.737 0.00000 5.34803e-14
  71 586.737 0.00000 -3.88023e-14
  72 586.737 0.00000 -1.31461e-13
  73 586.737 0.00000 9.64185e-14
  74 586.737 0.00000 -7.56877e-14
  75 586.737 0.00000 -3.35775e-13
  76 586.737 0.00000 5.14763e-13
  77 586.737 0.00000 -9.73565e-14
  78 586.737 0.00000 -4.92702e-13
  79 586.737 0.00000 -5.03944e-14
  80 586.737 0.00000 -2.02035e-13
  81 586.737 0.00000 -2.30831e-13
  82 586.737 0.00000 -5.87758e-14
  83 586.737 0.00000 -7.10593e-14
  84 586.737 0.00000 4.28073e-14
  85 586.737 0.00000 2.00208e-14
  86 586.737 0.00000 6.97492e-14
  87 586.737 0.00000 1.18010e-14
  88 586.737 0.00000 -5.23705e-13
  89 586.737 0.00000 3.76011e-14
  90 586.737 0.00000 -9.99354e-14
  91 586.737 0.00000 2.26935e-14
  92 586.737 0.00000 -4.41597e-14
  93 586.737 0.00000 -2.83444e-14
  94 586.737 0.00000 1.75431e-14
  95 586.737 0.00000 -1.23374e-13
  96 586.737 0.00000 -9.89922e-14
  97 586.737 0.00000 -2.64023e-13
  98 586.737 0.00000 -8.09219e-15
  99 586.737 0.00000 -6.88380e-14
  100 586.737 0.00000 -2.15973e-13
  101 586.737 0.00000 6.35617e-14
  102 586.737 0.00000 4.05504e-13
  103 586.737 0.00000 2.77626e-13
  104 586.737 0.00000 -2.21908e-13
  105 586.737 0.00000 1.94756e-13
  106 586.737 0.00000 -1.55232e-13
  107 586.737 0.00000 -1.79955e-14
  108 586.737 0.00000 1.40075e-14
  109 586.737 0.00000 2.15246e-13
  110 586.737 0.00000 -3.65011e-13
  111 586.737 0.00000 -1.92323e-13
  112 586.737 0.00000 2.07101e-13
  113 586.737 0.00000 -1.50959e-13
  114 586.737 0.00000 2.10751e-13
  115 586.737 0.00000 -3.28301e-14
  116 586.737 0.00000 -9.38143e-14
  117 586.737 0.00000 -3.50934e-14
  118 586.737 0.00000 -3.37396e-14
  119 586.737 0.00000 2.23706e-14
  120 586.737 0.00000 -4.04847e-13
  121 586.737 0.00000 -2.66042e-14
  122 586.737 0.00000 2.05186e-13
  123 586.737 0.00000 5.24179e-14
  124 586.737 0.00000 -2.24372e-13
  125 586.737 0.00000 -1.51978e-13
  126 586.737 0.00000 9.66748e-15
  127 586.737 0.00000 6.71079e-14
  128 586.737 0.00000 -2.54110e-13
  129 586.737 0.00000 -1.44230e-13
  130 586.737 0.00000 2.45234e-13
  131 586.737 0.00000 -4.85273e-14
  132 586.737 0.00000 -2.98944e-14
  133 586.737 0.00000 1.73404e-15
  134 586.737 0.00000 -3.54696e-14
  135 586.737 0.00000 1.10697e-13
  136 586.737 0.00000 -6.89478e-14
  137 586.737 0.00000 -1.13099e-13
  138 586.737 0.00000 1.52881e-13
  139 586.737 0.00000 -2.81430e-14
  140 586.737 0.00000 1.17633e-13
  141 586.737 0.00000 -1.51965e-13
  142 586.737 0.00000 2.34663e-13
  143 586.737 0.00000 -2.81957e-14
  144 586.737 0.00000 2.02376e-13
  145 586.737 0.00000 -2.85764e-13
  146 586.737 0.00000 -1.15439e-13
  147 586.737 0.00000 9.97397e-14
  148 586.737 0.00000 -3.52619e-14
  149 586.737 0.00000 7.88338e-13
  150 586.737 0.00000 -6.11766e-14
  151 586.737 0.00000 1.22503e-13
  152 586.737 0.00000 2.26890e-13
  153 586.737 0.00000 -2.21837e-13
  154 586.737 0.00000 -1.30661e-13
  155 586.737 0.00000 -7.20024e-15
  156 586.737 0.00000 1.42519e-13
  157 586.737 0.00000 2.79456e-14
  158 586.737 0.00000 4.45478e-14
  159 586.737 0.00000 9.80946e-14
  160 586.737 0.00000 -8.16652e-14
  161 586.737 0.00000 5.76675e-13
  162 586.737 0.00000 6.90060e-15
  163 586.737 0.00000 -8.18966e-14
  164 586.737 0.00000 1.25922e-13
  165 586.737 0.00000 -1.48930e-13
  166 586.737 0.00000 -1.43165e-14
  167 586.737 0.00000 -1.56584e-13
  168 586.737 0.00000 -4.96761e-13
  169 586.737 0.00000 9.76799e-14
  170 586.737 0.00000 2.19768e-13
  171 586.737 0.00000 -4.10193e-14
  172 586.737 0.00000 -3.20816e-13
  173 586.737 0.00000 -1.16727e-13
  174 586.737 0.00000 -9.94387e-14
  175 586.737 0.00000 2.68029e-14
  176 586.737 0.00000 -1.69124e-13
  177 586.737 0.00000 -4.30237e-13
  178 586.737 0.00000 -3.34849e-13
  179 586.737 0.00000 4.78585e-14
  180 586.737 0.00000 -7.32669e-14
  181 586.737 0.00000 -1.80889e-13
  182 586.737 0.00000 1.33664e-13
  183 586.737 0.00000 3.70138e-14
  184 586.737 0.00000 5.66454e-15
  185 586.737 0.00000 1.29697e-14
  186 586.737 0.00000 -6.03390e-13
  187 586.737 0.00000 -3.74357e-13
  188 586.737 0.00000 -3.15665e-14
  189 586.737 0.00000 -1.29988e-13
  190 586.737 0.00000 2.64346e-14
  191 586.737 0.00000 -9.90674e-14
  192 586.737 0.00000 5.64967e-14
  193 586.737 0.00000 2.86824e-13
  194 586.737 0.00000 -2.26325e-13
  195 586.737 0.00000 7.48612e-15
  196 586.737 0.00000 -3.14032e-13
  197 586.737 0.00000 2.38996e-13
  198 586.737 0.00000 2.13276e-13
  199 586.737 0.00000 7.32986e-14
  200 586.737 0.00000 -4.01368e-13
  201 586.737 0.00000 -1.03714e-13
  202 586.737 0.00000 -6.12817e-14
  203 586.737 0.00000 -1.15067e-13
  204 586.737 0.00000 1.12531e-14
  205 586.737 0.00000 -3.55399e-14
  206 586.737 0.00000 -2.72662e-13
  207 586.737 0.00000 -1.26888e-13
  208 586.737 0.00000 -2.80613e-13
  209 586.737 0.00000 -1.95724e-13
  210 586.737 0.00000 1.40690e-14
  211 586.737 0.00000 -1.79629e-13
  212 586.737 0.00000 4.05045e-14
  213 586.737 0.00000 1.19696e-14
  214 586.737 0.00000 -2.92279e-14
  215 586.737 0.00000 -1.41872e-13
  216 586.737 0.00000 -1.10785e-13
  217 586.737 0.00000 -2.06523e-13
  218 586.737 0.00000 -1.70654e-14
  219 586.737 0.00000 2.15711e-13
  220 586.737 0.00000 7.61691e-14
  221 586.737 0.00000 -3.24420e-13
  222 586.737 0.00000 -3.65705e-13
  223 586.737 0.00000 1.88651e-13
  224 586.737 0.00000 -6.58636e-14
  225 586.737 0.00000 -1.65230e-13
  226 586.737 0.00000 -9.09712e-14
  227 586.737 0.00000 1.11595e-13
  228 586.737 0.00000 -1.03394e-13
  229 586.737 0.00000 1.45627e-13
  230 586.737 0.00000 2.50629e-13
  231 586.737 0.00000 2.59168e-14
  232 586.737 0.00000 1.01015e-14
  233 586.737 0.00000 -6.93739e-14
  234 586.737 0.00000 -2.38945e-13
  235 586.737 0.00000 7.95365e-14
  236 586.737 0.00000 8.32060e-15
  237 586.737 0.00000 -1.86472e-13
  238 586.737 0.00000 -3.88697e-14
  239 586.737 0.00000 1.68286e-13
  240 586.737 0.00000 8.24853e-14
  241 586.737 0.00000 4.40877e-14
</Section>

newXOutput 32

<Section columns = "stress_xx | stress_yy | stress_xy">
  1 606.413 0.00000 3.35519e-13
  2 606.413 0.00000 4.32467e-14
  3 606.413 0.00000 1.39525e-13
  4 606.413 0.00000 -7.47089e-15
  5 606.413 0.00000 2.08567e-13
  6 606.413 0.00000 -3.22974e-13
  7 606.413 0.00000 2.05779e-14
  8 606.413 0.00000 6.04500e-14
  9 606.413 0.00000 1.87879e-13
  10 606.413 0.00000 2.51116e-13
  11 606.413 0.00000 6.88135e-14
  12 606.413 0.00000 -7.95237e-14
  13 606.413 0.00000 8.64933e-14
  14 606.413 0.00000 1.38580e-13
  15 606.413 0.00000 1.99672e-13
  16 606.413 0.00000 1.49731e-13
  17 606.413 0.00000 -4.65109e-14
  18 606.413 0.00000 -1.50684e-13
  19 606.413 0.00000 1.49731e-13
  20 606.413 0.00000 8.95670e-13
  21 606.413 0.00000 5.95255e-13
  22 606.413 0.00000 7.33835e-13
  23 606.413 0.00000 4.10164e-13
  24 606.413 0.00000 1.15324e-13
  25 606.413 0.00000 0.00000
  26 606.413 0.00000 -4.56029e-13
  27 606.413 0.00000 -3.60389e-14
  28 606.413 0.00000 2.94363e-13
  29 606.413 0.00000 1.51363e-13
  30 606.413 0.00000 1.96412e-13
  31 606.413 0.00000 1.73750e-13
  32 606.413 0.00000 1.86341e-13
  33 606.413 0.00000 -1.09385e-13
  34 606.413 0.00000 -9.06648e-14
  35 606.413 0.00000 -3.49039e-13
  36 606.413 0.00000 5.72550e-14
  37 606.413 0.00000 -4.14498e-13
  38 606.413 0.00000 -2.96395e-13
  39 606.413 0.00000 -1.01628e-14
  40 606.413 0.00000 1.27612e-13
  41 606.413 0.00000 1.52649e-13
  42 606.413 0.00000 1.95246e-13
  43 606.413 0.00000 -6.86960e-14
  44 606.413 0.00000 -8.82000e-14
  45 606.413 0.00000 2.72991e-13
  46 606.413 0.00000 2.79868e-13
  47 606.413 0.00000 5.33597e-14
  48 606.413 0.00000 2.06326e-15
  49 606.413 0.00000 -7.13511e-14
  50 606.413 0.00000 1.30216e-14
  51 606.413 0.00000 -1.08117e-14
  52 606.413 0.00000 1.32979e-14
  53 606.413 0.00000 -3.60389e-14
  54 606.413 0.00000 7.26347e-14
  55 606.413 0.00000 0.00000
  56 606.413 0.00000 -2.26776e-14
  57 606.413 0.00000 3.01721e-15
  58 606.413 0.00000 -3.05252e-13
  59 606.413 0.00000 -1.07877e-13
  60 606.413 0.00000 9.09247e-16
  61 606.413 0.00000 -1.32601e-13
  62 606.413 0.00000 -1.22609e-13
  63 606.413 0.00000 1.21091e-13
  64 606.413 0.00000 2.06246e-13
  65 606.413 0.00000 1.56882e-14
  66 606.413 0.00000 2.87484e-14
  67 606.413 0.00000 4.77339e-14
  68 606.413 0.00000 -5.92436e-14
  69 606.413 0.00000 -2.06511e-13
  70 606.413 0.00000 2.95333e-14
  71 606.413 0.00000 -1.21283e-13
  72 606.413 0.00000 -1.49611e-13
  73 606.413 0.00000 2.17035e-13
  74 606.413 0.00000 9.36203e-15
  75 606.413 0.00000 -5.58448e-15
  76 606.413 0.00000 3.78307e-13
  77 606.413 0.00000 -5.37098e-14
  78 606.413 0.00000 -4.21168e-14
  79 606.413 0.00000 4.46059e-15
  80 606.413 0.00000 -5.41267e-14
  81 606.413 0.00000 -2.35715e-13
  82 606.413 0.00000 -1.41936e-13
  83 606.413 0.00000 2.43560e-14
  84 606.413 0.00000 2.80150e-14
  85 606.413 0.00000 1.35554e-13
  86 606.413 0.00000 1.51301e-15
  87 606.413 0.00000 -6.02722e-14
  88 606.413 0.00000 -1.44161e-13
  89 606.413 0.00000 -1.70730e-13
  90 606.413 0.00000 4.58761e-16
  91 606.413 0.00000 1.83768e-13
  92 606.413 0.00000 -6.66194e-14
  93 606.413 0.00000 -1.09668e-13
  94 606.413 0.00000 2.72658e-13
  95 606.413 0.00000 9.77847e-14
  96 606.413 0.00000 1.80194e-13
  97 606.413 0.00000 -5.85868e-14
  98 606.413 0.00000 -1.21672e-13
  99 606.413 0.00000 -2.69374e-13
  100 606.413 0.00000 1.24579e-13
  101 606.413 0.00000 -2.78095e-13
  102 606.413 0.00000 1.86379e-13
  103 606.413 0.00000 -1.00119e-13
  104 606.413 0.00000 1.79688e-13
  105 606.413 0.00000 1.99432e-13
  106 606.413 0.00000 -9.91753e-14
  107 606.413 0.00000 -3.77729e-13
  108 606.413 0.00000 4.38631e-14
  109 606.413 0.00000 2.09614e-13
  110 606.413 0.00000 1.51363e-13
  111 606.413 0.00000 -6.79863e-14
  112 606.413 0.00000 -2.24223e-14
  113 606.413 0.00000 -4.27566e-14
  114 606.413 0.00000 -3.71592e-13
  115 606.413 0.00000 5.25869e-14
  116 606.413 0.00000 1.29189e-13
  117 606.413 0.00000 3.15170e-13
  118 606.413 0.00000 -5.08403e-14
  119 606.413 0.00000 -4.01652e-14
  120 606.413 0.00000 -3.04530e-13
  121 606.413 0.00000 -1.36326e-13
  122 606.413 0.00000 5.35592e-14
  123 606.413 0.00000 -2.55324e-13
  124 606.413 0.00000 -1.60573e-13
  125 606.413 0.00000 1.74494e-14
  126 606.413 0.00000 -5.78323e-14
  127 606.413 0.00000 1.72142e-13
  128 606.413 0.00000 1.23646e-13
  129 606.413 0.00000 1.68150e-13
  130 606.413 0.00000 -9.24307e-14
  131 606.413 0.00000 -1.29251e-13
  132 606.413 0.00000 1.07115e-13
  133 606.413 0.00000 6.01778e-14
  134 606.413 0.00000 -6.51762e-14
  135 606.413 0.00000 1.27059e-13
  136 606.413 0.00000 4.24718e-14
  137 606.413 0.00000 1.00831e-13
  138 606.413 0.00000 -7.51633e-14
  139 606.413 0.00000 -3.54494e-14
  140 606.413 0.00000 -1.00763e-14
  141 606.413 0.00000 -1.91663e-15
  142 606.413 0.00000 -6.48700e-14
  143 606.413 0.00000 -3.83219e-14
  144 606.413 0.00000 -7.81137e-14
  145 606.413 0.00000 -3.88048e-13
  146 606.413 0.00000 7.23300e-14
  147 606.413 0.00000 1.74367e-13
  148 606.413 0.00000 -5.12109e-14
  149 606.413 0.00000 4.46203e-13
  150 606.413 0.00000 8.86682e-14
  151 606.413 0.00000 -6.77857e-14
  152 606.413 0.00000 3.43980e-14
  153 606.413 0.00000 1.31304e-13
  154 606.413 0.00000 -1.71396e-13
  155 606.413 0.00000 -8.30852e-14
  156 606.413 0.00000 1.04037e-13
  157 606.413 0.00000 -4.13562e-14
  158 606.413 0.00000 -9.43473e-14
  159 606.413 0.00000 1.52826e-13
  160 606.413 0.00000 2.30208e-14
  161 606.413 0.00000 2.69273e-14
  162 606.413 0.00000 2.20112e-13
  163 606.413 0.00000 -5.45347e-14
  164 606.413 0.00000 6.05276e-14
  165 606.413 0.00000 4.91454e-14
  166 606.413 0.00000 -3.75922e-15
  167 606.413 0.00000 -1.23271e-13
  168 606.413 0.00000 3.77490e-13
  169 606.413 0.00000 -6.93854e-14
  170 606.413 0.00000 2.52360e-13
  171 606.413 0.00000 -4.04639e-14
  172 606.413 0.00000 -2.98443e-13
  173 606.413 0.00000 2.03226e-13
  174 606.413 0.00000 2.70649e-13
  175 606.413 0.00000 -2.88018e-14
  176 606.413 0.00000 6.10323e-14
  177 606.413 0.00000 -2.38193e-14
  178 606.413 0.00000 9.84651e-14
  179 606.413 0.00000 -1.47896e-14
  180 606.413 0.00000 -1.89426e-15
  181 606.413 0.00000 -4.84915e-14
  182 606.413 0.00000 -3.39089e-13
  183 606.413 0.00000 2.06551e-15
  184 606.413 0.00000 1.74659e-13
  185 606.413 0.00000 5.25453e-14
  186 606.413 0.00000 -2.69955e-13
  187 606.413 0.00000 -4.13227e-13
  188 606.413 0.00000 -1.67021e-13
  189 606.413 0.00000 -2.35710e-13
  190 606.413 0.00000 1.25493e-13
  191 606.413 0.00000 1.67415e-13
  192 606.413 0.00000 -1.41514e-13
  193 606.413 0.00000 -2.74888e-13
  194 606.413 0.00000 -1.64275e-13
  195 606.413 0.00000 -1.72905e-14
  196 606.413 0.00000 3.06162e-13
  197 606.413 0.00000 -5.65341e-14
  198 606.413 0.00000 1.59727e-13
  199 606.413 0.00000 1.13895e-14
  200 606.413 0.00000 -2.33293e-13
  201 606.413 0.00000 6.55245e-14
  202 606.413 0.00000 -1.92387e-13
  203 606.413 0.00000 -1.32656e-13
  204 606.413 0.00000 7.51462e-14
  205 606.413 0.00000 1.52316e-14
  206 606.413 0.00000 6.11170e-14
  207 606.413 0.00000 1.30243e-13
  208 606.413 0.00000 -6.18279e-13
  209 606.413 0.00000 2.27879e-14
  210 606.413 0.00000 -1.03924e-13
  211 606.413 0.00000 1.45287e-13
  212 606.413 0.00000 5.72836e-13
  213 606.413 0.00000 -9.72065e-14
  214 606.413 0.00000 1.93115e-14
  215 606.413 0.00000 -1.83718e-13
  216 606.413 0.00000 -5.35177e-14
  217 606.413 0.00000 4.24002e-13
  218 606.413 0.00000 -1.01616e-13
  219 606.413 0.00000 -1.36166e-13
  220 606.413 0.00000 1.51721e-14
  221 606.413 0.00000 -9.07809e-15
  222 606.413 0.00000 -2.34279e-13
  223 606.413 0.00000 2.59480e-13
  224 606.413 0.00000 -2.65070e-13
  225 606.413 0.00000 1.65520e-13
  226 606.413 0.00000 2.07033e-13
  227 606.413 0.00000 5.60301e-14
  228 606.413 0.00000 2.94363e-14
  229 606.413 0.00000 5.38565e-14
  230 606.413 0.00000 2.00424e-13
  231 606.413 0.00000 -5.30393e-15
  232 606.413 0.00000 -5.54611e-14
  233 606.413 0.00000 2.84041e-13
  234 606.413 0.00000 1.49554e-14
  235 606.413 0.00000 1.99049e-13
  236 606.413 0.00000 -2.98696e-16
  237 606.413 0.00000 -1.97369e-13
  238 606.413 0.00000 -9.62860e-15
  239 606.413 0.00000 1.77874e-13
  240 606.413 0.00000 -8.23116e-14
  241 606.413 0.00000 2.35069e-13
</Section>

newXOutput 33

<Section columns = "stress_xx | stress_yy | stress_xy">
  1 643.161 0.00000 6.95150e-15
  2 643.161 0.00000 1.73417e-13
  3 643.161 0.00000 2.65140e-13
  4 643.161 0.00000 -4.22492e-14
  5 643.161 0.00000 2.21021e-13
  6 643.161 0.00000 2.03541e-13
  7 643.161 0.00000 1.38718e-14
  8 643.161 0.00000 8.06928e-14
  9 643.161 0.00000 -4.56263e-14
  10 643.161 0.00000 -5.16789e-14
  11 643.161 0.00000 -2.75854e-13
  12 643.161 0.00000 -1.44646e-13
  13 643.161 0.00000 8.44387e-14
  14 643.161 0.00000 -1.90695e-13
  15 643.161 0.00000 -1.55592e-13
  16 643.161 0.00000 1.77998e-13
  17 643.161 0.00000 1.55481e-13
  18 643.161 0.00000 -2.88658e-14
  19 643.161 0.00000 1.73639e-13
  20 643.161 0.00000 5.16789e-14
  21 643.161 0.00000 1.42783e-13
  22 643.161 0.00000 -5.09255e-13
  23 643.161 0.00000 -3.23363e-13
  24 643.161 0.00000 2.31370e-13
  25 643.161 0.00000 1.30118e-13
  26 643.161 0.00000 -1.15627e-13
  27 643.161 0.00000 1.44329e-14
  28 643.161 0.00000 1.80686e-13
  29 643.161 0.00000 -1.52101e-13
  30 643.161 0.00000 -3.38479e-13
  31 643.161 0.00000 6.10496e-13
  32 643.161 0.00000 -1.51193e-13
  33 643.161 0.00000 4.40806e-13
  34 643.161 0.00000 4.83963e-13
  35 643.161 0.00000 3.50499e-13
  36 643.161 0.00000 1.31115e-14
  37 643.161 0.00000 2.19431e-14
  38 643.161 0.00000 1.71590e-13
  39 643.161 0.00000 8.13567e-14
  40 643.161 0.00000 9.68380e-14
  41 643.161 0.00000 2.20249e-14
  42 643.161 0.00000 -1.16654e-13
  43 643.161 0.00000 -9.32152e-15
  44 643.161 0.00000 -1.28495e-13
  45 643.161 0.00000 -4.97024e-14
  46 643.161 0.00000 -7.46654e-14
  47 643.161 0.00000 -2.72081e-14
  48 643.161 0.00000 1.24562e-13
  49 643.161 0.00000 -2.46351e-14
  50 643.161 0.00000 -2.05596e-14
  51 643.161 0.00000 -8.65974e-14
  52 643.161 0.00000 -2.71985e-14
  53 643.161 0.00000 2.16493e-14
  54 643.161 0.00000 -5.73292e-14
  55 643.161 0.00000 -8.65974e-14
  56 643.161 0.00000 -4.30766e-14
  57 643.161 0.00000 -1.02310e-13
  58 643.161 0.00000 1.17214e-13
  59 643.161 0.00000 1.44430e-13
  60 643.161 0.00000 1.78970e-13
  61 643.161 0.00000 1.12373e-13
  62 643.161 0.00000 1.11380e-13
  63 643.161 0.00000 3.34148e-13
  64 643.161 0.00000 -1.75808e-13
  65 643.161 0.00000 8.89965e-14
  66 643.161 0.00000 -1.57746e-13
  67 643.161 0.00000 -1.64883e-14
  68 643.161 0.00000 -2.53681e-13
  69 643.161 0.00000 -9.61700e-14
  70 643.161 0.00000 -7.15370e-14
  71 643.161 0.00000 1.56947e-14
  72 643.161 0.00000 -1.51315e-13
  73 643.161 0.00000 -6.01953e-14
  74 643.161 0.00000 1.49113e-13
  75 643.161 0.00000 2.50269e-14
  76 643.161 0.00000 4.71765e-14
  77 643.161 0.00000 1.15833e-13
  78 643.161 0.00000 1.93708e-13
  79 643.161 0.00000 -1.40444e-13
  80 643.161 0.00000 5.18640e-14
  81 643.161 0.00000 -1.70189e-13
  82 643.161 0.00000 -1.85320e-13
  83 643.161 0.00000 -2.95957e-14
  84 643.161 0.00000 1.49630e-13
  85 643.161 0.00000 -1.16627e-13
  86 643.161 0.00000 1.32899e-14
  87 643.161 0.00000 -8.75363e-14
  88 643.161 0.00000 -4.95380e-13
  89 643.161 0.00000 1.07573e-13
  90 643.161 0.00000 -1.54486e-14
  91 643.161 0.00000 7.58327e-14
  92 643.161 0.00000 -1.75229e-14
  93 643.161 0.00000 -1.70096e-13
  94 643.161 0.00000 -3.30291e-13
  95 643.161 0.00000 -1.59916e-13
  96 643.161 0.00000 -3.05481e-13
  97 643.161 0.00000 1.02926e-13
  98 643.161 0.00000 -1.57359e-13
  99 643.161 0.00000 3.33008e-13
  100 643.161 0.00000 -2.64147e-13
  101 643.161 0.00000 -2.54416e-13
  102 643.161 0.00000 4.30973e-13
  103 643.161 0.00000 -1.06416e-13
  104 643.161 0.00000 6.50618e-14
  105 643.161 0.00000 1.59760e-13
  106 643.161 0.00000 6.98895e-14
  107 643.161 0.00000 -1.33800e-13
  108 643.161 0.00000 1.12731e-14
  109 643.161 0.00000 -1.55214e-13
  110 643.161 0.00000 3.94855e-13
  111 643.161 0.00000 -5.98327e-14
  112 643.161 0.00000 -1.67942e-13
  113 643.161 0.00000 -1.90838e-14
  114 643.161 0.00000 -1.23762e-13
  115 643.161 0.00000 -9.48154e-14
  116 643.161 0.00000 1.25426e-13
  117 643.161 0.00000 -2.44745e-13
  118 643.161 0.00000 1.02937e-13
  119 643.161 0.00000 1.78114e-13
  120 643.161 0.00000 2.69325e-13
  121 643.161 0.00000 3.77890e-14
  122 643.161 0.00000 4.09992e-14
  123 643.161 0.00000 9.46900e-14
  124 643.161 0.00000 -1.76558e-13
  125 643.161 0.00000 4.21331e-14
  126 643.161 0.00000 1.48940e-13
  127 643.161 0.00000 -2.47507e-13
  128 643.161 0.00000 8.73747e-14
  129 643.161 0.00000 5.74505e-14
  130 643.161 0.00000 -2.64050e-13
  131 643.161 0.00000 -4.28063e-14
  132 643.161 0.00000 -7.36923e-14
  133 643.161 0.00000 -3.77934e-14
  134 643.161 0.00000 -5.09760e-14
  135 643.161 0.00000 -9.99512e-15
  136 643.161 0.00000 -1.24446e-13
  137 643.161 0.00000 -9.74237e-15
  138 643.161 0.00000 4.65998e-14
  139 643.161 0.00000 -1.29841e-13
  140 643.161 0.00000 -4.05323e-13
  141 643.161 0.00000 -4.15738e-14
  142 643.161 0.00000 1.41747e-13
  143 643.161 0.00000 -8.38038e-15
  144 643.161 0.00000 -1.86603e-13
  145 643.161 0.00000 6.20342e-13
  146 643.161 0.00000 -1.36601e-13
  147 643.161 0.00000 1.33007e-14
  148 643.161 0.00000 3.88228e-14
  149 643.161 0.00000 8.41160e-14
  150 643.161 0.00000 8.29482e-14
  151 643.161 0.00000 2.07077e-14
  152 643.161 0.00000 1.38144e-13
  153 643.161 0.00000 -1.41345e-13
  154 643.161 0.00000 2.04449e-13
  155 643.161 0.00000 1.95916e-13
  156 643.161 0.00000 -1.48461e-13
  157 643.161 0.00000 9.43154e-14
  158 643.161 0.00000 -4.41974e-13
  159 643.161 0.00000 -5.88584e-14
  160 643.161 0.00000 5.88912e-14
  161 643.161 0.00000 4.46952e-14
  162 643.161 0.00000 -1.31091e-13
  163 643.161 0.00000 -2.67801e-13
  164 643.161 0.00000 -9.17147e-14
  165 643.161 0.00000 -2.58634e-14
  166 643.161 0.00000 -6.69445e-14
  167 643.161 0.00000 -6.60725e-14
  168 643.161 0.00000 -1.10480e-13
  169 643.161 0.00000 -9.95078e-14
  170 643.161 0.00000 -2.87580e-13
  171 643.161 0.00000 -2.59274e-13
  172 643.161 0.00000 2.47189e-13
  173 643.161 0.00000 -1.22803e-13
  174 643.161 0.00000 1.10628e-13
  175 643.161 0.00000 5.09009e-15
  176 643.161 0.00000 1.13299e-13
  177 643.161 0.00000 8.69118e-14
  178 643.161 0.00000 -2.24429e-14
  179 643.161 0.00000 -1.45389e-14
  180 643.161 0.00000 -2.49915e-13
  181 643.161 0.00000 2.40205e-13
  182 643.161 0.00000 5.91086e-14
  183 643.161 0.00000 9.74084e-14
  184 643.161 0.00000 2.16366e-13
  185 643.161 0.00000 -2.51625e-14
  186 643.161 0.00000 1.54504e-13
  187 643.161 0.00000 1.63497e-13
  188 643.161 0.00000 2.24534e-14
  189 643.161 0.00000 1.00895e-13
  190 643.161 0.00000 1.09779e-13
  191 643.161 0.00000 -6.21334e-14
  192 643.161 0.00000 2.83971e-14
  193 643.161 0.00000 1.69849e-13
  194 643.161 0.00000 -1.65333e-13
  195 643.161 0.00000 -6.50959e-14
  196 643.161 0.00000 4.62863e-14
  197 643.161 0.00000 -2.16239e-13
  198 643.161 0.00000 6.81964e-14
  199 643.161 0.00000 -5.01551e-15
  200 643.161 0.00000 3.90501e-14
  201 643.161 0.00000 2.76678e-13
  202 643.161 0.00000 6.52271e-14
  203 643.161 0.00000 -9.71466e-14
  204 643.161 0.00000 -1.41187e-13
  205 643.161 0.00000 -1.70327e-13
  206 643.161 0.00000 4.00949e-13
  207 643.161 0.00000 1.60981e-14
  208 643.161 0.00000 5.09402e-13
  209 643.161 0.00000 -3.26940e-13
  210 643.161 0.00000 -2.99098e-13
  211 643.161 0.00000 2.71038e-13
  212 643.161 0.00000 -2.95433e-13
  213 643.161 0.00000 8.52364e-14
  214 643.161 0.00000 -7.70330e-14
  215 643.161 0.00000 -1.11071e-13
  216 643.161 0.00000 -1.09502e-13
  217 643.161 0.00000 -1.71692e-13
  218 643.161 0.00000 7.74202e-14
  219 643.161 0.00000 -1.09199e-13
  220 643.161 0.00000 1.92071e-13
  221 643.161 0.00000 6.60799e-14
  222 643.161 0.00000 2.17234e-14
  223 643.161 0.00000 -1.71924e-13
  224 643.161 0.00000 3.39595e-13
  225 643.161 0.00000 -9.08282e-14
  226 643.161 0.00000 -2.62242e-13
  227 643.161 0.00000 -2.60125e-13
  228 643.161 0.00000 1.82933e-13
  229 643.161 0.00000 -9.90618e-14
  230 643.161 0.00000 3.21792e-13
  231 643.161 0.00000 1.83873e-13
  232 643.161 0.00000 9.00380e-14
  233 643.161 0.00000 -1.66465e-13
  234 643.161 0.00000 -1.31359e-13
  235 643.161 0.00000 -1.51753e-13
  236 643.161 0.00000 2.04484e-13
  237 643.161 0.00000 3.93055e-14
  238 643.161 0.00000 2.24364e-14
  239 643.161 0.00000 2.63166e-13
  240 643.161 0.00000 -2.04659e-13
  241 643.161 0.00000 1.91341e-13
</Section>

newXOutput 34

<Section columns = "stress_xx | stress_yy | stress_xy">
  1 686.249 0.00000 -4.11241e-14
  2 686.249 0.00000 -4.33507e-14
  3 686.249 0.00000 -8.12767e-13
  4 686.249 0.00000 -3.59031e-15
  5 686.249 0.00000 -1.67465e-13
  6 686.249 0.00000 -4.33507e-14
  7 686.249 0.00000 -7.03675e-14
  8 686.249 0.00000 4.62259e-14
  9 686.249 0.00000 -5.83931e-14
  10 686.249 0.00000 1.79217e-14
  11 686.249 0.00000 4.74143e-14
  12 686.249 0.00000 -4.17175e-13
  13 686.249 0.00000 -2.41316e-13
  14 686.249 0.00000 -1.01833e-13
  15 686.249 0.00000 2.54931e-14
  16 686.249 0.00000 -3.17624e-13
  17 686.249 0.00000 -3.21162e-13
  18 686.249 0.00000 -8.72936e-14
  19 686.249 0.00000 -1.45687e-13
  20 686.249 0.00000 -6.28673e-13
  21 686.249 0.00000 -4.29229e-13
  22 686.249 0.00000 6.16026e-13
  23 686.249 0.00000 3.36707e-13
  24 686.249 0.00000 5.78010e-14
  25 686.249 0.00000 8.67015e-14
  26 686.249 0.00000 -2.81578e-13
  27 686.249 0.00000 2.94926e-14
  28 686.249 0.00000 -1.59078e-13
  29 686.249 0.00000 -1.75179e-13
  30 686.249 0.00000 -6.25075e-13
  31 686.249 0.00000 2.81476e-13
  32 686.249 0.00000 2.37008e-13
  33 686.249 0.00000 4.28397e-14
  34 686.249 0.00000 -4.74804e-13
  35 686.249 0.00000 -6.23916e-13
  36 686.249 0.00000 -5.62765e-13
  37 686.249 0.00000 -5.71292e-13
  38 686.249 0.00000 -4.42366e-13
  39 686.249 0.00000 -1.23100e-13
  40 686.249 0.00000 1.10230e-13
  41 686.249 0.00000 1.03252e-13
  42 686.249 0.00000 4.14210e-14
  43 686.249 0.00000 6.76015e-14
  44 686.249 0.00000 4.13260e-14
  45 686.249 0.00000 9.62712e-14
  46 686.249 0.00000 -7.43857e-14
  47 686.249 0.00000 -1.25105e-14
  48 686.249 0.00000 -1.25109e-14
  49 686.249 0.00000 -8.61014e-14
  50 686.249 0.00000 2.88021e-14
  51 686.249 0.00000 -3.25131e-14
  52 686.249 0.00000 -3.19564e-14
  53 686.249 0.00000 1.37080e-14
  54 686.249 0.00000 2.37507e-14
  55 686.249 0.00000 4.33507e-14
  56 686.249 0.00000 1.15452e-13
  57 686.249 0.00000 -3.38708e-14
  58 686.249 0.00000 -2.31396e-13
  59 686.249 0.00000 -9.94453e-14
  60 686.249 0.00000 -3.71136e-13
  61 686.249 0.00000 1.74064e-13
  62 686.249 0.00000 -3.46388e-14
  63 686.249 0.00000 -1.76619e-13
  64 686.249 0.00000 4.75032e-13
  65 686.249 0.00000 4.85812e-14
  66 686.249 0.00000 -3.14901e-14
  67 686.249 0.00000 -7.74942e-14
  68 686.249 0.00000 -7.51187e-15
  69 686.249 0.00000 5.82613e-14
  70 686.249 0.00000 -6.99819e-14
  71 686.249 0.00000 -3.78500e-14
  72 686.249 0.00000 -1.01275e-13
  73 686.249 0.00000 -2.49974e-13
  74 686.249 0.00000 -7.18523e-14
  75 686.249 0.00000 6.28784e-14
  76 686.249 0.00000 -1.59538e-13
  77 686.249 0.00000 8.28719e-14
  78 686.249 0.00000 1.58374e-14
  79 686.249 0.00000 2.97547e-14
  80 686.249 0.00000 -1.11560e-13
  81 686.249 0.00000 -3.84282e-13
  82 686.249 0.00000 2.87659e-13
  83 686.249 0.00000 -4.44079e-14
  84 686.249 0.00000 -3.20387e-14
  85 686.249 0.00000 -1.23128e-13
  86 686.249 0.00000 -2.26160e-13
  87 686.249 0.00000 2.92821e-14
  88 686.249 0.00000 -3.85091e-13
  89 686.249 0.00000 -1.53364e-14
  90 686.249 0.00000 -3.41668e-14
  91 686.249 0.00000 -2.83407e-13
  92 686.249 0.00000 -9.63852e-14
  93 686.249 0.00000 -6.77700e-13
  94 686.249 0.00000 -1.22255e-13
  95 686.249 0.00000 -4.04774e-13
  96 686.249 0.00000 -1.63387e-13
  97 686.249 0.00000 2.14996e-13
  98 686.249 0.00000 1.04696e-13
  99 686.249 0.00000 -1.69587e-13
  100 686.249 0.00000 -3.44666e-14
  101 686.249 0.00000 2.66720e-13
  102 686.249 0.00000 2.32832e-13
  103 686.249 0.00000 -1.31242e-13
  104 686.249 0.00000 -1.22288e-13
  105 686.249 0.00000 -3.41309e-13
  106 686.249 0.00000 -7.21823e-15
  107 686.249 0.00000 -2.15421e-13
  108 686.249 0.00000 -1.38266e-14
  109 686.249 0.00000 1.54941e-14
  110 686.249 0.00000 -1.62298e-13
  111 686.249 0.00000 -3.66436e-14
  112 686.249 0.00000 -8.35235e-14
  113 686.249 0.00000 -1.64332e-13
  114 686.249 0.00000 -1.31223e-13
  115 686.249 0.00000 2.92111e-13
  116 686.249 0.00000 -1.16004e-13
  117 686.249 0.00000 1.32946e-14
  118 686.249 0.00000 -3.10677e-14
  119 686.249 0.00000 -1.63766e-13
  120 686.249 0.00000 -1.79676e-13
  121 686.249 0.00000 -3.28695e-14
  122 686.249 0.00000 -2.86664e-13
  123 686.249 0.00000 1.44673e-13
  124 686.249 0.00000 -2.92360e-13
  125 686.249 0.00000 -2.96399e-14
  126 686.249 0.00000 5.62850e-15
  127 686.249 0.00000 -1.13184e-13
  128 686.249 0.00000 1.18005e-13
  129 686.249 0.00000 7.98159e-15
  130 686.249 0.00000 -5.45633e-14
  131 686.249 0.00000 1.66780e-13
  132 686.249 0.00000 -1.59593e-13
  133 686.249 0.00000 -7.82626e-14
  134 686.249 0.00000 2.99743e-14
  135 686.249 0.00000 2.87324e-14
  136 686.249 0.00000 -3.12154e-14
  137 686.249 0.00000 -2.12480e-14
  138 686.249 0.00000 -9.09425e-14
  139 686.249 0.00000 -2.36343e-14
  140 686.249 0.00000 -2.64599e-13
  141 686.249 0.00000 1.22625e-13
  142 686.249 0.00000 5.84400e-15
  143 686.249 0.00000 -1.02325e-13
  144 686.249 0.00000 9.78303e-14
  145 686.249 0.00000 -2.90858e-13
  146 686.249 0.00000 -2.45218e-13
  147 686.249 0.00000 -1.74556e-13
  148 686.249 0.00000 6.41830e-14
  149 686.249 0.00000 4.10452e-13
  150 686.249 0.00000 9.38834e-14
  151 686.249 0.00000 1.55764e-13
  152 686.249 0.00000 5.00709e-14
  153 686.249 0.00000 -1.02259e-13
  154 686.249 0.00000 -1.32944e-14
  155 686.249 0.00000 -2.97525e-13
  156 686.249 0.00000 -3.51254e-13
  157 686.249 0.00000 -6.72748e-15
  158 686.249 0.00000 -4.84148e-13
  159 686.249 0.00000 -3.13608e-13
  160 686.249 0.00000 4.50942e-14
  161 686.249 0.00000 -3.94313e-13
  162 686.249 0.00000 -1.06651e-13
  163 686.249 0.00000 -1.30170e-13
  164 686.249 0.00000 -2.77653e-13
  165 686.249 0.00000 -7.16659e-15
  166 686.249 0.00000 -3.27558e-15
  167 686.249 0.00000 1.91419e-13
  168 686.249 0.00000 -3.15231e-13
  169 686.249 0.00000 4.58816e-14
  170 686.249 0.00000 2.69132e-13
  171 686.249 0.00000 3.77798e-14
  172 686.249 0.00000 -3.24029e-14
  173 686.249 0.00000 -3.89309e-14
  174 686.249 0.00000 -6.13151e-14
  175 686.249 0.00000 2.98658e-14
  176 686.249 0.00000 -2.81583e-14
  177 686.249 0.00000 -5.58275e-13
  178 686.249 0.00000 -1.06264e-13
  179 686.249 0.00000 -6.66554e-14
  180 686.249 0.00000 -2.75443e-14
  181 686.249 0.00000 6.76428e-14
  182 686.249 0.00000 -5.22926e-13
  183 686.249 0.00000 -1.95542e-13
  184 686.249 0.00000 6.26478e-14
  185 686.249 0.00000 2.47514e-14
  186 686.249 0.00000 -6.79013e-14
  187 686.249 0.00000 1.30049e-13
  188 686.249 0.00000 9.04281e-14
  189 686.249 0.00000 1.77758e-13
  190 686.249 0.00000 -1.12864e-13
  191 686.249 0.00000 -7.88474e-14
  192 686.249 0.00000 -6.12974e-14
  193 686.249 0.00000 -3.95346e-13
  194 686.249 0.00000 2.22746e-13
  195 686.249 0.00000 -2.16044e-14
  196 686.249 0.00000 -3.24374e-13
  197 686.249 0.00000 -7.99112e-14
  198 686.249 0.00000 7.92052e-15
  199 686.249 0.00000 -1.76401e-14
  200 686.249 0.00000 -2.34177e-13
  201 686.249 0.00000 7.01012e-14
  202 686.249 0.00000 3.37421e-14
  203 686.249 0.00000 7.28268e-14
  204 686.249 0.00000 -4.27995e-13
  205 686.249 0.00000 -8.25608e-14
  206 686.249 0.00000 -9.19049e-14
  207 686.249 0.00000 -2.31259e-14
  208 686.249 0.00000 -4.90668e-13
  209 686.249 0.00000 1.36545e-13
  210 686.249 0.00000 -4.85905e-14
  211 686.249 0.00000 -6.21834e-14
  212 686.249 0.00000 2.34033e-13
  213 686.249 0.00000 1.02562e-14
  214 686.249 0.00000 -2.72499e-13
  215 686.249 0.00000 -3.63532e-13
  216 686.249 0.00000 -2.03064e-13
  217 686.249 0.00000 1.07379e-13
  218 686.249 0.00000 -1.15233e-15
  219 686.249 0.00000 1.88540e-15
  220 686.249 0.00000 -1.47370e-14
  221 686.249 0.00000 1.30175e-14
  222 686.249 0.00000 -2.66244e-13
  223 686.249 0.00000 8.17493e-14
  224 686.249 0.00000 -5.22522e-14
  225 686.249 0.00000 -1.08475e-13
  226 686.249 0.00000 -2.20587e-14
  227 686.249 0.00000 -2.35522e-14
  228 686.249 0.00000 9.19787e-14
  229 686.249 0.00000 3.26236e-14
  230 686.249 0.00000 7.22996e-15
  231 686.249 0.00000 -6.84072e-14
  232 686.249 0.00000 6.85848e-14
  233 686.249 0.00000 -1.07188e-13
  234 686.249 0.00000 -1.73078e-13
  235 686.249 0.00000 -3.64771e-13
  236 686.249 0.00000 2.31683e-14
  237 686.249 0.00000 -2.27733e-13
  238 686.249 0.00000 2.11120e-13
  239 686.249 0.00000 -1.58756e-13
  240 686.249 0.00000 8.97964e-14
  241 686.249 0.00000 2.15666e-14
</Section>

newXOutput 35

<Section columns = "stress_xx | stress_yy | stress_xy">
  1 729.467 0.00000 -2.05541e-14
  2 729.467 0.00000 -2.44474e-13
  3 729.467 0.00000 4.45583e-14
  4 729.467 0.00000 3.00032e-14
  5 729.467 0.00000 -8.22166e-14
  6 729.467 0.00000 4.34028e-14
  7 729.467 0.00000 -2.17014e-14
  8 729.467 0.00000 3.94752e-15
  9 729.467 0.00000 -9.85197e-14
  10 729.467 0.00000 -1.01431e-13
  11 729.467 0.00000 9.28255e-14
  12 729.467 0.00000 -5.32814e-14
  13 729.467 0.00000 4.32994e-15
  14 729.467 0.00000 -4.08517e-13
  15 729.467 0.00000 -1.33281e-13
  16 729.467 0.00000 4.09726e-14
  17 729.467 0.00000 2.86342e-13
  18 729.467 0.00000 5.63456e-13
  19 729.467 0.00000 9.35359e-14
  20 729.467 0.00000 4.83085e-13
  21 729.467 0.00000 -8.31975e-13
  22 729.467 0.00000 -1.13238e-12
  23 729.467 0.00000 -3.43502e-13
  24 729.467 0.00000 -4.50213e-14
  25 729.467 0.00000 -1.76276e-13
  26 729.467 0.00000 1.23031e-13
  27 729.467 0.00000 1.74834e-13
  28 729.467 0.00000 3.38947e-13
  29 729.467 0.00000 2.84783e-13
  30 729.467 0.00000 1.82727e-13
  31 729.467 0.00000 -5.02369e-13
  32 729.467 0.00000 4.62350e-13
  33 729.467 0.00000 -3.06764e-13
  34 729.467 0.00000 -4.67088e-13
  35 729.467 0.00000 7.49831e-15
  36 729.467 0.00000 2.23126e-13
  37 729.467 0.00000 8.78371e-13
  38 729.467 0.00000 1.02248e-12
  39 729.467 0.00000 -6.21530e-14
  40 729.467 0.00000 -3.15348e-13
  41 729.467 0.00000 3.31810e-14
  42 729.467 0.00000 -9.62545e-14
  43 729.467 0.00000 1.81055e-13
  44 729.467 0.00000 9.81780e-15
  45 729.467 0.00000 -8.25089e-14
  46 729.467 0.00000 5.98740e-14
  47 729.467 0.00000 7.81325e-14
  48 729.467 0.00000 8.94609e-14
  49 729.467 0.00000 1.42357e-14
  50 729.467 0.00000 2.08723e-15
  51 729.467 0.00000 -4.34028e-14
  52 729.467 0.00000 -6.88623e-15
  53 729.467 0.00000 3.46393e-14
  54 729.467 0.00000 2.50210e-14
  55 729.467 0.00000 0.00000
  56 729.467 0.00000 3.29345e-14
  57 729.467 0.00000 -8.82254e-14
  58 729.467 0.00000 5.61755e-13
  59 729.467 0.00000 1.65465e-13
  60 729.467 0.00000 3.67315e-13
  61 729.467 0.00000 8.71337e-14
  62 729.467 0.00000 2.55710e-13
  63 729.467 0.00000 -2.22491e-13
  64 729.467 0.00000 -1.23611e-13
  65 729.467 0.00000 1.05232e-13
  66 729.467 0.00000 -1.78933e-14
  67 729.467 0.00000 2.81525e-13
  68 729.467 0.00000 1.35547e-14
  69 729.467 0.00000 5.10912e-14
  70 729.467 0.00000 -2.50435e-14
  71 729.467 0.00000 -1.51256e-13
  72 729.467 0.00000 -8.25266e-14
  73 729.467 0.00000 -2.18376e-13
  74 729.467 0.00000 8.48347e-14
  75 729.467 0.00000 4.94039e-14
  76 729.467 0.00000 1.23320e-13
  77 729.467 0.00000 2.09366e-14
  78 729.467 0.00000 2.16085e-13
  79 729.467 0.00000 -9.79935e-14
  80 729.467 0.00000 -1.94537e-14
  81 729.467 0.00000 -3.54386e-14
  82 729.467 0.00000 -2.49213e-13
  83 729.467 0.00000 -2.03399e-13
  84 729.467 0.00000 -2.02235e-14
  85 729.467 0.00000 1.52684e-13
  86 729.467 0.00000 2.07762e-13
  87 729.467 0.00000 -3.37132e-14
  88 729.467 0.00000 -8.66648e-13
  89 729.467 0.00000 1.07575e-14
  90 729.467 0.00000 -1.00144e-13
  91 729.467 0.00000 6.08912e-14
  92 729.467 0.00000 7.88788e-15
  93 729.467 0.00000 -1.12610e-13
  94 729.467 0.00000 8.27942e-15
  95 729.467 0.00000 5.35244e-14
  96 729.467 0.00000 -4.36576e-13
  97 729.467 0.00000 -1.09025e-12
  98 729.467 0.00000 3.75918e-14
  99 729.467 0.00000 3.94163e-13
  100 729.467 0.00000 -2.62045e-14
  101 729.467 0.00000 -5.75669e-14
  102 729.467 0.00000 1.72223e-13
  103 729.467 0.00000 8.51001e-14
  104 729.467 0.00000 3.65370e-14
  105 729.467 0.00000 1.94925e-13
  106 729.467 0.00000 2.78447e-14
  107 729.467 0.00000 2.79198e-13
  108 729.467 0.00000 4.39425e-14
  109 729.467 0.00000 1.77690e-16
  110 729.467 0.00000 1.00169e-12
  111 729.467 0.00000 -9.42575e-14
  112 729.467 0.00000 -2.70021e-13
  113 729.467 0.00000 1.29110e-13
  114 729.467 0.00000 2.07763e-13
  115 729.467 0.00000 2.54803e-13
  116 729.467 0.00000 -4.20261e-14
  117 729.467 0.00000 -2.27919e-14
  118 729.467 0.00000 -2.56229e-14
  119 729.467 0.00000 9.31110e-15
  120 729.467 0.00000 2.48541e-13
  121 729.467 0.00000 -1.59715e-14
  122 729.467 0.00000 4.87123e-13
  123 729.467 0.00000 -9.11626e-15
  124 729.467 0.00000 2.86924e-13
  125 729.467 0.00000 -5.09551e-14
  126 729.467 0.00000 -5.33782e-14
  127 729.467 0.00000 8.67822e-14
  128 729.467 0.00000 -5.46590e-13
  129 729.467 0.00000 7.65767e-14
  130 729.467 0.00000 -5.13976e-14
  131 729.467 0.00000 2.82889e-13
  132 729.467 0.00000 5.01983e-14
  133 729.467 0.00000 4.65411e-14
  134 729.467 0.00000 4.74990e-14
  135 729.467 0.00000 -3.49814e-13
  136 729.467 0.00000 1.89576e-14
  137 729.467 0.00000 -1.41483e-15
  138 729.467 0.00000 -2.50666e-13
  139 729.467 0.00000 -3.33234e-14
  140 729.467 0.00000 1.59584e-13
  141 729.467 0.00000 -2.62304e-13
  142 729.467 0.00000 -4.92253e-14
  143 729.467 0.00000 -7.86596e-14
  144 729.467 0.00000 -1.70964e-14
  145 729.467 0.00000 -4.74254e-14
  146 729.467 0.00000 -7.06756e-14
  147 729.467 0.00000 -1.07937e-13
  148 729.467 0.00000 3.27914e-14
  149 729.467 0.00000 -2.39446e-13
  150 729.467 0.00000 7.57366e-14
  151 729.467 0.00000 1.18117e-13
  152 729.467 0.00000 2.21689e-13
  153 729.467 0.00000 -2.22713e-14
  154 729.467 0.00000 2.23936e-13
  155 729.467 0.00000 1.57895e-13
  156 729.467 0.00000 2.27105e-13
  157 729.467 0.00000 1.35792e-14
  158 729.467 0.00000 -4.07379e-13
  159 729.467 0.00000 -2.60312e-14
  160 729.467 0.00000 3.31161e-14
  161 729.467 0.00000 2.36802e-13
  162 729.467 0.00000 -1.78784e-13
  163 729.467 0.00000 -3.36431e-13
  164 729.467 0.00000 -2.97457e-13
  165 729.467 0.00000 1.92194e-14
  166 729.467 0.00000 -2.82449e-14
  167 729.467 0.00000 -3.75393e-13
  168 729.467 0.00000 2.00824e-13
  169 729.467 0.00000 -2.45266e-14
  170 729.467 0.00000 8.24209e-14
  171 729.467 0.00000 5.89577e-14
  172 729.467 0.00000 2.49581e-13
  173 729.467 0.00000 -5.16326e-14
  174 729.467 0.00000 -1.29430e-14
  175 729.467 0.00000 3.68678e-14
  176 729.467 0.00000 -1.93193e-14
  177 729.467 0.00000 -6.14285e-13
  178 729.467 0.00000 -6.63710e-14
  179 729.467 0.00000 2.74184e-14
  180 729.467 0.00000 -5.84618e-14
  181 729.467 0.00000 2.00669e-13
  182 729.467 0.00000 9.05190e-13
  183 729.467 0.00000 1.20917e-13
  184 729.467 0.00000 -1.08721e-13
  185 729.467 0.00000 2.40495e-14
  186 729.467 0.00000 -2.42404e-13
  187 729.467 0.00000 -5.15542e-13
  188 729.467 0.00000 -2.05096e-14
  189 729.467 0.00000 4.69407e-14
  190 729.467 0.00000 1.39589e-13
  191 729.467 0.00000 -6.21966e-14
  192 729.467 0.00000 1.28796e-13
  193 729.467 0.00000 7.01312e-14
  194 729.467 0.00000 -3.05235e-13
  195 729.467 0.00000 -2.05362e-14
  196 729.467 0.00000 2.73675e-13
  197 729.467 0.00000 -7.08218e-14
  198 729.467 0.00000 1.03720e-14
  199 729.467 0.00000 -5.61852e-14
  200 729.467 0.00000 2.48008e-13
  201 729.467 0.00000 -1.30215e-13
  202 729.467 0.00000 3.53084e-13
  203 729.467 0.00000 -8.33687e-14
  204 729.467 0.00000 -6.02364e-14
  205 729.467 0.00000 -1.05432e-13
  206 729.467 0.00000 -9.22446e-13
  207 729.467 0.00000 1.64427e-14
  208 729.467 0.00000 1.54655e-13
  209 729.467 0.00000 3.34452e-13
  210 729.467 0.00000 2.34679e-14
  211 729.467 0.00000 6.25326e-15
  212 729.467 0.00000 1.29960e-13
  213 729.467 0.00000 9.18875e-14
  214 729.467 0.00000 1.77621e-13
  215 729.467 0.00000 4.90955e-13
  216 729.467 0.00000 2.44740e-13
  217 729.467 0.00000 1.00064e-13
  218 729.467 0.00000 1.56074e-13
  219 729.467 0.00000 -8.59618e-14
  220 729.467 0.00000 1.80065e-13
  221 729.467 0.00000 1.44222e-13
  222 729.467 0.00000 2.63971e-13
  223 729.467 0.00000 9.00480e-15
  224 729.467 0.00000 -5.66071e-14
  225 729.467 0.00000 -3.67282e-13
  226 729.467 0.00000 -2.99230e-14
  227 729.467 0.00000 1.09178e-13
  228 729.467 0.00000 2.50467e-15
  229 729.467 0.00000 -2.28801e-14
  230 729.467 0.00000 4.42105e-13
  231 729.467 0.00000 1.02965e-13
  232 729.467 0.00000 -2.90311e-14
  233 729.467 0.00000 -3.00231e-13
  234 729.467 0.00000 1.28059e-13
  235 729.467 0.00000 7.33657e-14
  236 729.467 0.00000 -1.24521e-14
  237 729.467 0.00000 3.58462e-13
  238 729.467 0.00000 8.85346e-14
  239 729.467 0.00000 5.00864e-14
  240 729.467 0.00000 2.25469e-13
  241 729.467 0.00000 3.51951e-14
</Section>

newXOutput 36

<Section columns = "stress_xx | stress_yy | stress_xy">
  1 772.816 0.00000 -4.34548e-14
  2 772.816 0.00000 1.92263e-14
  3 772.816 0.00000 -4.97744e-13
  4 772.816 0.00000 -7.75571e-15
  5 772.816 0.00000 2.89699e-14
  6 772.816 0.00000 2.07824e-13
  7 772.816 0.00000 1.14414e-13
  8 772.816 0.00000 2.72374e-13
  9 772.816 0.00000 2.10491e-13
  10 772.816 0.00000 1.98673e-13
  11 772.816 0.00000 -1.01096e-13
  12 772.816 0.00000 -3.74166e-13
  13 772.816 0.00000 -4.31609e-13
  14 772.816 0.00000 -4.07573e-13
  15 772.816 0.00000 -1.26822e-13
  16 772.816 0.00000 1.55541e-12
  17 772.816 0.00000 -2.46134e-14
  18 772.816 0.00000 -4.47964e-13
  19 772.816 0.00000 -3.98308e-13
  20 772.816 0.00000 -2.44158e-13
  21 772.816 0.00000 3.04718e-13
  22 772.816 0.00000 -9.04222e-14
  23 772.816 0.00000 -3.41742e-13
  24 772.816 0.00000 -1.77372e-13
  25 772.816 0.00000 0.00000
  26 772.816 0.00000 3.96326e-13
  27 772.816 0.00000 1.40076e-12
  28 772.816 0.00000 1.96413e-13
  29 772.816 0.00000 -4.34548e-14
  30 772.816 0.00000 -7.09915e-13
  31 772.816 0.00000 1.54635e-13
  32 772.816 0.00000 -1.47753e-12
  33 772.816 0.00000 -5.72892e-13
  34 772.816 0.00000 -4.51560e-13
  35 772.816 0.00000 -6.22809e-13
  36 772.816 0.00000 -5.38062e-13
  37 772.816 0.00000 -6.18967e-13
  38 772.816 0.00000 -1.04503e-12
  39 772.816 0.00000 -1.52463e-13
  40 772.816 0.00000 -1.20469e-13
  41 772.816 0.00000 3.10673e-13
  42 772.816 0.00000 3.05941e-13
  43 772.816 0.00000 2.34262e-13
  44 772.816 0.00000 1.91332e-13
  45 772.816 0.00000 -8.02306e-15
  46 772.816 0.00000 -1.18876e-13
  47 772.816 0.00000 -8.57724e-14
  48 772.816 0.00000 -4.50635e-14
  49 772.816 0.00000 -4.20300e-14
  50 772.816 0.00000 -2.25149e-14
  51 772.816 0.00000 -4.34548e-14
  52 772.816 0.00000 6.78982e-16
  53 772.816 0.00000 3.38499e-14
  54 772.816 0.00000 -1.88820e-15
  55 772.816 0.00000 8.69096e-14
  56 772.816 0.00000 4.70761e-14
  57 772.816 0.00000 -2.72942e-16
  58 772.816 0.00000 -6.50092e-13
  59 772.816 0.00000 1.89317e-13
  60 772.816 0.00000 2.93661e-13
  61 772.816 0.00000 1.33186e-13
  62 772.816 0.00000 -2.83376e-15
  63 772.816 0.00000 1.84814e-13
  64 772.816 0.00000 3.08270e-13
  65 772.816 0.00000 8.58177e-15
  66 772.816 0.00000 9.56169e-15
  67 772.816 0.00000 -2.93596e-13
  68 772.816 0.00000 2.39850e-13
  69 772.816 0.00000 -3.85822e-13
  70 772.816 0.00000 9.89973e-14
  71 772.816 0.00000 -8.77374e-14
  72 772.816 0.00000 -4.82207e-15
  73 772.816 0.00000 -2.01595e-14
  74 772.816 0.00000 8.28027e-14
  75 772.816 0.00000 -4.54706e-13
  76 772.816 0.00000 2.07946e-13
  77 772.816 0.00000 3.49118e-14
  78 772.816 0.00000 -2.83118e-13
  79 772.816 0.00000 -1.43166e-13
  80 772.816 0.00000 -8.69962e-14
  81 772.816 0.00000 -6.62033e-14
  82 772.816 0.00000 5.33754e-13
  83 772.816 0.00000 -2.07893e-14
  84 772.816 0.00000 -6.53806e-14
  85 772.816 0.00000 -5.59561e-13
  86 772.816 0.00000 -4.35592e-13
  87 772.816 0.00000 -1.80376e-14
  88 772.816 0.00000 -3.33545e-13
  89 772.816 0.00000 4.64544e-14
  90 772.816 0.00000 -3.03454e-13
  91 772.816 0.00000 -1.09084e-14
  92 772.816 0.00000 -1.07950e-13
  93 772.816 0.00000 6.44342e-14
  94 772.816 0.00000 2.61345e-14
  95 772.816 0.00000 -2.48843e-13
  96 772.816 0.00000 -7.22868e-14
  97 772.816 0.00000 2.84007e-13
  98 772.816 0.00000 -1.41727e-13
  99 772.816 0.00000 -2.74431e-15
  100 772.816 0.00000 1.36915e-14
  101 772.816 0.00000 -1.40659e-13
  102 772.816 0.00000 1.39106e-13
  103 772.816 0.00000 -4.14870e-13
  104 772.816 0.00000 -2.61124e-15
  105 772.816 0.00000 -2.06620e-13
  106 772.816 0.00000 -1.20443e-13
  107 772.816 0.00000 2.67099e-13
  108 772.816 0.00000 -5.37294e-15
  109 772.816 0.00000 -7.54769e-14
  110 772.816 0.00000 -3.96867e-13
  111 772.816 0.00000 1.94621e-13
  112 772.816 0.00000 3.39708e-13
  113 772.816 0.00000 8.28605e-14
  114 772.816 0.00000 -4.12323e-13
  115 772.816 0.00000 -4.25827e-13
  116 772.816 0.00000 6.03124e-14
  117 772.816 0.00000 2.62367e-13
  118 772.816 0.00000 -8.01092e-14
  119 772.816 0.00000 -5.37805e-13
  120 772.816 0.00000 -7.35626e-13
  121 772.816 0.00000 7.42562e-14
  122 772.816 0.00000 -2.50538e-13
  123 772.816 0.00000 -5.42702e-15
  124 772.816 0.00000 -2.47278e-13
  125 772.816 0.00000 1.92189e-13
  126 772.816 0.00000 -2.79893e-14
  127 772.816 0.00000 2.73686e-13
  128 772.816 0.00000 7.12078e-13
  129 772.816 0.00000 -1.93897e-14
  130 772.816 0.00000 1.32594e-13
  131 772.816 0.00000 -2.66972e-13
  132 772.816 0.00000 -4.79972e-14
  133 772.816 0.00000 -3.03243e-13
  134 772.816 0.00000 7.05425e-14
  135 772.816 0.00000 -1.22657e-13
  136 772.816 0.00000 -1.00847e-13
  137 772.816 0.00000 -9.99643e-14
  138 772.816 0.00000 5.37377e-13
  139 772.816 0.00000 -1.61294e-14
  140 772.816 0.00000 -1.52306e-13
  141 772.816 0.00000 -3.53347e-13
  142 772.816 0.00000 -1.75326e-13
  143 772.816 0.00000 -4.89570e-14
  144 772.816 0.00000 1.34630e-13
  145 772.816 0.00000 -7.46446e-13
  146 772.816 0.00000 -6.30623e-14
  147 772.816 0.00000 -6.25738e-14
  148 772.816 0.00000 3.22750e-15
  149 772.816 0.00000 1.13971e-12
  150 772.816 0.00000 -3.01134e-13
  151 772.816 0.00000 1.46395e-13
  152 772.816 0.00000 1.61127e-13
  153 772.816 0.00000 -1.12120e-13
  154 772.816 0.00000 1.31496e-13
  155 772.816 0.00000 2.73979e-13
  156 772.816 0.00000 1.17616e-13
  157 772.816 0.00000 -7.55551e-14
  158 772.816 0.00000 2.43054e-13
  159 772.816 0.00000 -6.33889e-14
  160 772.816 0.00000 3.16927e-14
  161 772.816 0.00000 1.04078e-12
  162 772.816 0.00000 9.38509e-14
  163 772.816 0.00000 -6.28660e-14
  164 772.816 0.00000 2.54148e-14
  165 772.816 0.00000 -5.42440e-14
  166 772.816 0.00000 -2.80867e-14
  167 772.816 0.00000 1.85187e-13
  168 772.816 0.00000 -2.58691e-13
  169 772.816 0.00000 -5.00874e-15
  170 772.816 0.00000 1.48288e-14
  171 772.816 0.00000 -3.42665e-13
  172 772.816 0.00000 -3.41428e-13
  173 772.816 0.00000 -6.09741e-14
  174 772.816 0.00000 -2.60879e-13
  175 772.816 0.00000 1.07826e-14
  176 772.816 0.00000 5.77817e-14
  177 772.816 0.00000 -1.85729e-13
  178 772.816 0.00000 4.66749e-14
  179 772.816 0.00000 1.32623e-13
  180 772.816 0.00000 -4.10259e-14
  181 772.816 0.00000 5.15845e-14
  182 772.816 0.00000 -4.76386e-13
  183 772.816 0.00000 -2.35849e-13
  184 772.816 0.00000 4.03967e-13
  185 772.816 0.00000 4.19559e-14
  186 772.816 0.00000 -3.17858e-13
  187 772.816 0.00000 -1.90690e-13
  188 772.816 0.00000 1.05700e-14
  189 772.816 0.00000 1.42497e-13
  190 772.816 0.00000 -9.12943e-15
  191 772.816 0.00000 -2.63360e-14
  192 772.816 0.00000 3.14860e-13
  193 772.816 0.00000 -7.92029e-13
  194 772.816 0.00000 1.15154e-13
  195 772.816 0.00000 -4.58128e-14
  196 772.816 0.00000 -5.37678e-13
  197 772.816 0.00000 -1.19596e-13
  198 772.816 0.00000 4.98388e-13
  199 772.816 0.00000 -4.84855e-14
  200 772.816 0.00000 -5.70433e-13
  201 772.816 0.00000 -1.34277e-13
  202 772.816 0.00000 -1.83673e-13
  203 772.816 0.00000 -1.71497e-13
  204 772.816 0.00000 -1.32972e-13
  205 772.816 0.00000 -6.65633e-14
  206 772.816 0.00000 8.76489e-13
  207 772.816 0.00000 -1.45429e-13
  208 772.816 0.00000 -6.13698e-13
  209 772.816 0.00000 -1.15284e-12
  210 772.816 0.00000 -7.21429e-14
  211 772.816 0.00000 1.35693e-13
  212 772.816 0.00000 -2.87146e-14
  213 772.816 0.00000 2.02814e-14
  214 772.816 0.00000 8.22896e-14
  215 772.816 0.00000 -4.05844e-13
  216 772.816 0.00000 -1.32679e-13
  217 772.816 0.00000 -4.21104e-13
  218 772.816 0.00000 5.15827e-14
  219 772.816 0.00000 -3.40544e-13
  220 772.816 0.00000 -1.15170e-13
  221 772.816 0.00000 -6.48198e-14
  222 772.816 0.00000 1.11011e-13
  223 772.816 0.00000 -3.65643e-15
  224 772.816 0.00000 -3.18538e-13
  225 772.816 0.00000 5.67715e-13
  226 772.816 0.00000 5.51669e-14
  227 772.816 0.00000 -5.37377e-14
  228 772.816 0.00000 5.95266e-14
  229 772.816 0.00000 -7.40788e-14
  230 772.816 0.00000 -3.69081e-13
  231 772.816 0.00000 2.83656e-13
  232 772.816 0.00000 -1.98681e-13
  233 772.816 0.00000 6.56710e-13
  234 772.816 0.00000 -1.06011e-13
  235 772.816 0.00000 -4.64275e-14
  236 772.816 0.00000 -1.75458e-14
  237 772.816 0.00000 -7.75252e-14
  238 772.816 0.00000 -2.64702e-13
  239 772.816 0.00000 1.44691e-13
  240 772.816 0.00000 -4.78145e-13
  241 772.816 0.00000 -3.23941e-13
</Section>

newXOutput 37

<Section columns = "stress_xx | stress_yy | stress_xy">
  1 816.297 0.00000 1.87481e-13
  2 816.297 0.00000 -5.70182e-13
  3 816.297 0.00000 -2.16518e-13
  4 816.297 0.00000 1.51444e-13
  5 816.297 0.00000 2.65150e-13
  6 816.297 0.00000 1.95871e-13
  7 816.297 0.00000 -1.29200e-13
  8 816.297 0.00000 4.15468e-14
  9 816.297 0.00000 4.55552e-13
  10 816.297 0.00000 7.31851e-13
  11 816.297 0.00000 3.55872e-13
  12 816.297 0.00000 -2.97025e-14
  13 816.297 0.00000 1.56035e-13
  14 816.297 0.00000 4.08150e-13
  15 816.297 0.00000 4.91925e-13
  16 816.297 0.00000 4.88979e-13
  17 816.297 0.00000 5.66464e-13
  18 816.297 0.00000 1.58313e-13
  19 816.297 0.00000 4.45394e-13
  20 816.297 0.00000 4.78649e-13
  21 816.297 0.00000 4.96459e-14
  22 816.297 0.00000 2.29978e-13
  23 816.297 0.00000 -6.52484e-13
  24 816.297 0.00000 3.09623e-13
  25 816.297 0.00000 -8.70137e-14
  26 816.297 0.00000 -2.54084e-13
  27 816.297 0.00000 -1.24249e-12
  28 816.297 0.00000 1.46236e-13
  29 816.297 0.00000 -1.10988e-13
  30 816.297 0.00000 6.34111e-14
  31 816.297 0.00000 -5.12982e-13
  32 816.297 0.00000 -3.95945e-13
  33 816.297 0.00000 2.85391e-13
  34 816.297 0.00000 4.81074e-13
  35 816.297 0.00000 -3.48423e-13
  36 816.297 0.00000 -1.70554e-13
  37 816.297 0.00000 -6.42595e-13
  38 816.297 0.00000 6.98599e-13
  39 816.297 0.00000 1.07708e-13
  40 816.297 0.00000 -1.16063e-14
  41 816.297 0.00000 -1.65700e-13
  42 816.297 0.00000 -2.54326e-13
  43 816.297 0.00000 -9.56903e-14
  44 816.297 0.00000 2.08635e-13
  45 816.297 0.00000 -2.72830e-13
  46 816.297 0.00000 -1.95847e-13
  47 816.297 0.00000 -3.10825e-14
  48 816.297 0.00000 2.01656e-13
  49 816.297 0.00000 2.96355e-13
  50 816.297 0.00000 -1.36111e-13
  51 816.297 0.00000 0.00000
  52 816.297 0.00000 6.15453e-14
  53 816.297 0.00000 -1.08727e-13
  54 816.297 0.00000 -7.64258e-14
  55 816.297 0.00000 0.00000
  56 816.297 0.00000 2.77694e-14
  57 816.297 0.00000 -1.33954e-13
  58 816.297 0.00000 2.18647e-13
  59 816.297 0.00000 2.07972e-13
  60 816.297 0.00000 1.49901e-13
  61 816.297 0.00000 9.06307e-14
  62 816.297 0.00000 9.87550e-14
  63 816.297 0.00000 -3.84055e-13
  64 816.297 0.00000 -2.15747e-13
  65 816.297 0.00000 -5.09526e-14
  66 816.297 0.00000 -1.11340e-13
  67 816.297 0.00000 2.17187e-13
  68 816.297 0.00000 -8.47723e-14
  69 816.297 0.00000 2.66545e-13
  70 816.297 0.00000 -3.37849e-13
  71 816.297 0.00000 -1.73773e-13
  72 816.297 0.00000 2.36602e-13
  73 816.297 0.00000 2.27611e-13
  74 816.297 0.00000 1.75494e-13
  75 816.297 0.00000 3.74237e-13
  76 816.297 0.00000 -3.67596e-15
  77 816.297 0.00000 5.89318e-14
  78 816.297 0.00000 4.31350e-13
  79 816.297 0.00000 2.51337e-13
  80 816.297 0.00000 4.34303e-14
  81 816.297 0.00000 -4.64380e-14
  82 816.297 0.00000 -1.94856e-13
  83 816.297 0.00000 -2.27716e-14
  84 816.297 0.00000 -2.20795e-13
  85 816.297 0.00000 5.19968e-13
  86 816.297 0.00000 6.99074e-13
  87 816.297 0.00000 1.00737e-14
  88 816.297 0.00000 -5.21352e-13
  89 816.297 0.00000 -3.37430e-14
  90 816.297 0.00000 -2.76847e-13
  91 816.297 0.00000 -2.63710e-13
  92 816.297 0.00000 -4.05304e-14
  93 816.297 0.00000 9.32823e-13
  94 816.297 0.00000 7.47063e-13
  95 816.297 0.00000 -7.08479e-14
  96 816.297 0.00000 -1.90212e-13
  97 816.297 0.00000 -2.43637e-14
  98 816.297 0.00000 4.03666e-13
  99 816.297 0.00000 -2.36448e-13
  100 816.297 0.00000 5.78492e-14
  101 816.297 0.00000 -1.37755e-13
  102 816.297 0.00000 5.76462e-13
  103 816.297 0.00000 -2.00012e-13
  104 816.297 0.00000 -1.34560e-13
  105 816.297 0.00000 2.74237e-13
  106 816.297 0.00000 -8.25525e-14
  107 816.297 0.00000 1.08308e-13
  108 816.297 0.00000 9.30060e-14
  109 816.297 0.00000 -1.75669e-13
  110 816.297 0.00000 5.39360e-13
  111 816.297 0.00000 1.54252e-14
  112 816.297 0.00000 -2.80712e-13
  113 816.297 0.00000 -2.17438e-13
  114 816.297 0.00000 9.25506e-14
  115 816.297 0.00000 1.79611e-13
  116 816.297 0.00000 -2.59451e-13
  117 816.297 0.00000 -3.77483e-13
  118 816.297 0.00000 -7.39680e-14
  119 816.297 0.00000 -3.41543e-14
  120 816.297 0.00000 1.12816e-13
  121 816.297 0.00000 -2.17415e-13
  122 816.297 0.00000 4.30092e-14
  123 816.297 0.00000 1.10914e-13
  124 816.297 0.00000 1.33553e-13
  125 816.297 0.00000 1.72357e-13
  126 816.297 0.00000 -9.19277e-14
  127 816.297 0.00000 1.38282e-13
  128 816.297 0.00000 1.76368e-14
  129 816.297 0.00000 3.37579e-14
  130 816.297 0.00000 -1.38569e-14
  131 816.297 0.00000 2.21963e-14
  132 816.297 0.00000 4.71284e-14
  133 816.297 0.00000 9.84039e-13
  134 816.297 0.00000 -1.00415e-13
  135 816.297 0.00000 1.46877e-13
  136 816.297 0.00000 2.35681e-13
  137 816.297 0.00000 3.23205e-13
  138 816.297 0.00000 1.39975e-13
  139 816.297 0.00000 9.61715e-14
  140 816.297 0.00000 -1.69546e-13
  141 816.297 0.00000 2.45580e-13
  142 816.297 0.00000 -3.06238e-14
  143 816.297 0.00000 9.55651e-14
  144 816.297 0.00000 -6.72226e-13
  145 816.297 0.00000 7.84075e-13
  146 816.297 0.00000 2.80744e-15
  147 816.297 0.00000 1.72253e-13
  148 816.297 0.00000 -1.08130e-13
  149 816.297 0.00000 -9.29530e-13
  150 816.297 0.00000 2.56461e-13
  151 816.297 0.00000 2.79294e-13
  152 816.297 0.00000 7.88344e-13
  153 816.297 0.00000 4.93853e-13
  154 816.297 0.00000 -2.04119e-13
  155 816.297 0.00000 1.35107e-13
  156 816.297 0.00000 4.37969e-13
  157 816.297 0.00000 -3.82967e-14
  158 816.297 0.00000 -2.75448e-13
  159 816.297 0.00000 -2.24869e-13
  160 816.297 0.00000 -6.63075e-14
  161 816.297 0.00000 -9.66204e-13
  162 816.297 0.00000 8.85604e-14
  163 816.297 0.00000 -4.51334e-13
  164 816.297 0.00000 -1.39519e-13
  165 816.297 0.00000 -2.05194e-13
  166 816.297 0.00000 -4.01447e-14
  167 816.297 0.00000 2.23029e-13
  168 816.297 0.00000 -1.39794e-13
  169 816.297 0.00000 -2.64428e-14
  170 816.297 0.00000 4.75281e-13
  171 816.297 0.00000 2.95130e-13
  172 816.297 0.00000 1.91073e-13
  173 816.297 0.00000 -5.37417e-14
  174 816.297 0.00000 3.01497e-13
  175 816.297 0.00000 -8.23445e-14
  176 816.297 0.00000 1.48337e-14
  177 816.297 0.00000 -4.21695e-13
  178 816.297 0.00000 -3.93426e-14
  179 816.297 0.00000 2.20956e-14
  180 816.297 0.00000 5.17367e-15
  181 816.297 0.00000 3.95891e-13
  182 816.297 0.00000 2.61327e-13
  183 816.297 0.00000 -1.98050e-13
  184 816.297 0.00000 8.27057e-13
  185 816.297 0.00000 -1.61995e-13
  186 816.297 0.00000 6.62867e-14
  187 816.297 0.00000 -4.33483e-13
  188 816.297 0.00000 2.65844e-13
  189 816.297 0.00000 -3.21793e-13
  190 816.297 0.00000 -4.82541e-14
  191 816.297 0.00000 1.30181e-13
  192 816.297 0.00000 3.97720e-13
  193 816.297 0.00000 -8.89987e-14
  194 816.297 0.00000 2.18456e-13
  195 816.297 0.00000 1.71129e-13
  196 816.297 0.00000 6.45167e-14
  197 816.297 0.00000 -5.28946e-15
  198 816.297 0.00000 3.66247e-13
  199 816.297 0.00000 2.20385e-14
  200 816.297 0.00000 -2.13642e-13
  201 816.297 0.00000 6.83639e-14
  202 816.297 0.00000 -2.30002e-13
  203 816.297 0.00000 3.28428e-13
  204 816.297 0.00000 2.94631e-13
  205 816.297 0.00000 -1.95605e-13
  206 816.297 0.00000 -1.73211e-13
  207 816.297 0.00000 4.69426e-14
  208 816.297 0.00000 1.37142e-13
  209 816.297 0.00000 3.58021e-13
  210 816.297 0.00000 3.58166e-13
  211 816.297 0.00000 -2.18388e-13
  212 816.297 0.00000 3.27587e-13
  213 816.297 0.00000 -2.68225e-14
  214 816.297 0.00000 -8.85422e-14
  215 816.297 0.00000 -5.06952e-14
  216 816.297 0.00000 -2.22256e-13
  217 816.297 0.00000 -2.98475e-13
  218 816.297 0.00000 1.61483e-13
  219 816.297 0.00000 -3.25413e-13
  220 816.297 0.00000 -2.04037e-13
  221 816.297 0.00000 1.80405e-13
  222 816.297 0.00000 4.84529e-13
  223 816.297 0.00000 9.23843e-14
  224 816.297 0.00000 -3.30983e-13
  225 816.297 0.00000 3.14485e-13
  226 816.297 0.00000 7.14473e-14
  227 816.297 0.00000 -1.50181e-13
  228 816.297 0.00000 2.61964e-13
  229 816.297 0.00000 7.42442e-14
  230 816.297 0.00000 3.65653e-13
  231 816.297 0.00000 -5.23009e-13
  232 816.297 0.00000 -1.16046e-13
  233 816.297 0.00000 6.09769e-13
  234 816.297 0.00000 -5.73594e-14
  235 816.297 0.00000 3.67067e-13
  236 816.297 0.00000 -1.37634e-13
  237 816.297 0.00000 2.40106e-13
  238 816.297 0.00000 4.39347e-13
  239 816.297 0.00000 -1.03457e-13
  240 816.297 0.00000 -2.36634e-13
  241 816.297 0.00000 3.33916e-13
</Section>

newXOutput 38

<Section columns = "stress_xx | stress_yy | stress_xy">
  1 859.910 0.00000 -2.90797e-14
  2 859.910 0.00000 -2.67571e-13
  3 859.910 0.00000 -1.00017e-12
  4 859.910 0.00000 -6.47684e-14
  5 859.910 0.00000 4.73822e-14
  6 859.910 0.00000 4.43116e-13
  7 859.910 0.00000 -1.41786e-13
  8 859.910 0.00000 -9.40017e-14
  9 859.910 0.00000 -4.28949e-13
  10 859.910 0.00000 -7.13663e-13
  11 859.910 0.00000 -9.92206e-14
  12 859.910 0.00000 1.54027e-13
  13 859.910 0.00000 -1.11984e-13
  14 859.910 0.00000 -6.28772e-13
  15 859.910 0.00000 -8.09756e-13
  16 859.910 0.00000 -6.00918e-13
  17 859.910 0.00000 -5.41655e-13
  18 859.910 0.00000 -5.92628e-14
  19 859.910 0.00000 -6.02443e-13
  20 859.910 0.00000 -4.13256e-13
  21 859.910 0.00000 -3.91300e-13
  22 859.910 0.00000 -6.49544e-13
  23 859.910 0.00000 -5.90281e-13
  24 859.910 0.00000 -1.69179e-13
  25 859.910 0.00000 -2.24900e-13
  26 859.910 0.00000 -3.59261e-13
  27 859.910 0.00000 2.22123e-12
  28 859.910 0.00000 -7.47835e-13
  29 859.910 0.00000 8.71178e-14
  30 859.910 0.00000 -9.67132e-14
  31 859.910 0.00000 5.13058e-14
  32 859.910 0.00000 -1.67870e-13
  33 859.910 0.00000 -6.84463e-13
  34 859.910 0.00000 -3.45311e-13
  35 859.910 0.00000 1.56377e-13
  36 859.910 0.00000 -3.26787e-13
  37 859.910 0.00000 2.84213e-13
  38 859.910 0.00000 3.33470e-13
  39 859.910 0.00000 2.14622e-13
  40 859.910 0.00000 -5.81699e-13
  41 859.910 0.00000 -1.12887e-12
  42 859.910 0.00000 -6.09466e-13
  43 859.910 0.00000 -3.72802e-13
  44 859.910 0.00000 -7.97622e-14
  45 859.910 0.00000 5.82107e-13
  46 859.910 0.00000 2.73472e-13
  47 859.910 0.00000 -7.31217e-14
  48 859.910 0.00000 -3.64249e-13
  49 859.910 0.00000 -3.61734e-13
  50 859.910 0.00000 1.36088e-13
  51 859.910 0.00000 -4.35589e-14
  52 859.910 0.00000 -1.60576e-13
  53 859.910 0.00000 7.82276e-14
  54 859.910 0.00000 -4.59599e-14
  55 859.910 0.00000 1.81341e-13
  56 859.910 0.00000 9.43495e-15
  57 859.910 0.00000 1.07480e-13
  58 859.910 0.00000 -2.40549e-13
  59 859.910 0.00000 -4.29185e-13
  60 859.910 0.00000 -2.19889e-13
  61 859.910 0.00000 -4.05684e-13
  62 859.910 0.00000 5.11351e-15
  63 859.910 0.00000 8.63368e-13
  64 859.910 0.00000 6.06325e-13
  65 859.910 0.00000 -2.47432e-13
  66 859.910 0.00000 -1.94662e-13
  67 859.910 0.00000 -5.49377e-13
  68 859.910 0.00000 -5.67348e-13
  69 859.910 0.00000 -7.87602e-13
  70 859.910 0.00000 8.70218e-14
  71 859.910 0.00000 2.14675e-13
  72 859.910 0.00000 -8.31697e-13
  73 859.910 0.00000 -1.46301e-13
  74 859.910 0.00000 -2.21182e-13
  75 859.910 0.00000 -8.18078e-13
  76 859.910 0.00000 1.11385e-12
  77 859.910 0.00000 -3.06926e-14
  78 859.910 0.00000 -1.21822e-12
  79 859.910 0.00000 -4.66054e-13
  80 859.910 0.00000 -1.01804e-13
  81 859.910 0.00000 -4.80426e-13
  82 859.910 0.00000 -5.48368e-13
  83 859.910 0.00000 -3.95232e-14
  84 859.910 0.00000 2.49348e-13
  85 859.910 0.00000 -3.93872e-13
  86 859.910 0.00000 2.97674e-13
  87 859.910 0.00000 -6.69396e-14
  88 859.910 0.00000 -1.81526e-13
  89 859.910 0.00000 1.30569e-13
  90 859.910 0.00000 -1.16338e-13
  91 859.910 0.00000 2.97983e-13
  92 859.910 0.00000 1.89137e-14
  93 859.910 0.00000 -9.60835e-13
  94 859.910 0.00000 -7.82606e-14
  95 859.910 0.00000 -2.02184e-13
  96 859.910 0.00000 2.57701e-13
  97 859.910 0.00000 -2.27736e-13
  98 859.910 0.00000 -3.63277e-13
  99 859.910 0.00000 -5.73184e-14
  100 859.910 0.00000 -9.34430e-14
  101 859.910 0.00000 -1.21216e-13
  102 859.910 0.00000 -3.67732e-13
  103 859.910 0.00000 -5.34836e-15
  104 859.910 0.00000 7.41728e-14
  105 859.910 0.00000 -2.70841e-13
  106 859.910 0.00000 -8.23376e-14
  107 859.910 0.00000 -6.98720e-13
  108 859.910 0.00000 -1.52386e-13
  109 859.910 0.00000 1.42984e-13
  110 859.910 0.00000 -2.09244e-12
  111 859.910 0.00000 -6.75217e-13
  112 859.910 0.00000 2.58410e-13
  113 859.910 0.00000 5.40832e-13
  114 859.910 0.00000 -3.28600e-13
  115 859.910 0.00000 -8.27930e-13
  116 859.910 0.00000 -2.38913e-14
  117 859.910 0.00000 -8.70298e-15
  118 859.910 0.00000 -2.04994e-13
  119 859.910 0.00000 -5.50589e-14
  120 859.910 0.00000 -7.71319e-13
  121 859.910 0.00000 2.02111e-13
  122 859.910 0.00000 -3.43103e-13
  123 859.910 0.00000 -5.09575e-13
  124 859.910 0.00000 -5.10863e-13
  125 859.910 0.00000 -4.02816e-14
  126 859.910 0.00000 8.69605e-14
  127 859.910 0.00000 -6.70248e-14
  128 859.910 0.00000 1.25712e-14
  129 859.910 0.00000 1.37289e-13
  130 859.910 0.00000 -5.16560e-13
  131 859.910 0.00000 -2.21151e-13
  132 859.910 0.00000 -3.64480e-13
  133 859.910 0.00000 -4.65088e-13
  134 859.910 0.00000 1.63864e-14
  135 859.910 0.00000 -2.53807e-13
  136 859.910 0.00000 -2.04181e-13
  137 859.910 0.00000 -8.49085e-13
  138 859.910 0.00000 6.18185e-13
  139 859.910 0.00000 -6.32658e-14
  140 859.910 0.00000 3.02985e-13
  141 859.910 0.00000 -7.83216e-13
  142 859.910 0.00000 -1.98958e-13
  143 859.910 0.00000 -5.86075e-14
  144 859.910 0.00000 4.54665e-13
  145 859.910 0.00000 -1.66583e-12
  146 859.910 0.00000 -2.43791e-13
  147 859.910 0.00000 -2.93386e-13
  148 859.910 0.00000 8.76748e-14
  149 859.910 0.00000 1.35177e-12
  150 859.910 0.00000 -5.89114e-13
  151 859.910 0.00000 -5.98537e-13
  152 859.910 0.00000 -7.32976e-13
  153 859.910 0.00000 -1.24402e-13
  154 859.910 0.00000 -2.91167e-13
  155 859.910 0.00000 -7.01153e-13
  156 859.910 0.00000 -1.48367e-13
  157 859.910 0.00000 -9.48741e-14
  158 859.910 0.00000 -2.76985e-13
  159 859.910 0.00000 7.23946e-13
  160 859.910 0.00000 4.02235e-14
  161 859.910 0.00000 2.21315e-12
  162 859.910 0.00000 3.02164e-13
  163 859.910 0.00000 2.63777e-13
  164 859.910 0.00000 4.17461e-13
  165 859.910 0.00000 1.71269e-13
  166 859.910 0.00000 -7.00457e-14
  167 859.910 0.00000 -5.79473e-13
  168 859.910 0.00000 -9.17041e-14
  169 859.910 0.00000 6.97671e-14
  170 859.910 0.00000 -5.11212e-13
  171 859.910 0.00000 -4.22738e-13
  172 859.910 0.00000 -3.42039e-13
  173 859.910 0.00000 3.05664e-13
  174 859.910 0.00000 1.47530e-13
  175 859.910 0.00000 2.29096e-13
  176 859.910 0.00000 -1.18192e-14
  177 859.910 0.00000 -9.86387e-14
  178 859.910 0.00000 3.76854e-14
  179 859.910 0.00000 4.26013e-14
  180 859.910 0.00000 2.47101e-14
  181 859.910 0.00000 -8.80743e-15
  182 859.910 0.00000 4.70203e-14
  183 859.910 0.00000 -5.73395e-14
  184 859.910 0.00000 -7.90068e-13
  185 859.910 0.00000 -8.19785e-14
  186 859.910 0.00000 6.50892e-14
  187 859.910 0.00000 -5.75835e-13
  188 859.910 0.00000 -3.57470e-13
  189 859.910 0.00000 3.09371e-15
  190 859.910 0.00000 1.00896e-13
  191 859.910 0.00000 6.84398e-14
  192 859.910 0.00000 -3.24505e-13
  193 859.910 0.00000 -3.18461e-13
  194 859.910 0.00000 -9.26060e-13
  195 859.910 0.00000 -4.64186e-13
  196 859.910 0.00000 -7.07399e-13
  197 859.910 0.00000 -5.06086e-14
  198 859.910 0.00000 -5.35323e-13
  199 859.910 0.00000 3.20973e-14
  200 859.910 0.00000 8.86936e-14
  201 859.910 0.00000 -5.04999e-13
  202 859.910 0.00000 -6.07241e-13
  203 859.910 0.00000 -6.78384e-13
  204 859.910 0.00000 -6.39462e-13
  205 859.910 0.00000 1.23563e-13
  206 859.910 0.00000 -3.75596e-13
  207 859.910 0.00000 -2.14622e-14
  208 859.910 0.00000 -5.98195e-13
  209 859.910 0.00000 -2.77701e-13
  210 859.910 0.00000 -6.28196e-13
  211 859.910 0.00000 2.35938e-13
  212 859.910 0.00000 -4.31078e-14
  213 859.910 0.00000 2.47557e-13
  214 859.910 0.00000 -3.79836e-13
  215 859.910 0.00000 2.98998e-14
  216 859.910 0.00000 -4.25831e-13
  217 859.910 0.00000 6.28564e-13
  218 859.910 0.00000 -3.01001e-13
  219 859.910 0.00000 1.04131e-13
  220 859.910 0.00000 1.28483e-13
  221 859.910 0.00000 -4.03838e-13
  222 859.910 0.00000 -1.09807e-12
  223 859.910 0.00000 -2.14310e-13
  224 859.910 0.00000 1.08531e-13
  225 859.910 0.00000 3.03720e-13
  226 859.910 0.00000 -3.78790e-14
  227 859.910 0.00000 -3.82574e-13
  228 859.910 0.00000 3.38433e-13
  229 859.910 0.00000 -2.81924e-15
  230 859.910 0.00000 -1.06406e-12
  231 859.910 0.00000 5.82891e-13
  232 859.910 0.00000 -5.76624e-14
  233 859.910 0.00000 -7.86791e-13
  234 859.910 0.00000 -2.53179e-13
  235 859.910 0.00000 -6.13868e-13
  236 859.910 0.00000 -1.23993e-14
  237 859.910 0.00000 -9.48253e-13
  238 859.910 0.00000 -8.86484e-13
  239 859.910 0.00000 1.02520e-12
  240 859.910 0.00000 1.17004e-13
  241 859.910 0.00000 -6.09909e-13
</Section>

newXOutput 39

<Section columns = "stress_xx | stress_yy | stress_xy">
  1 903.657 0.00000 -9.13596e-14
  2 903.657 0.00000 2.12738e-13
  3 903.657 0.00000 6.85154e-13
  4 903.657 0.00000 4.43591e-13
  5 903.657 0.00000 -2.54549e-13
  6 903.657 0.00000 -1.76600e-13
  7 903.657 0.00000 -1.55379e-13
  8 903.657 0.00000 3.07780e-13
  9 903.657 0.00000 6.20759e-13
  10 903.657 0.00000 1.41933e-12
  11 903.657 0.00000 9.07276e-13
  12 903.657 0.00000 3.09895e-13
  13 903.657 0.00000 4.33161e-13
  14 903.657 0.00000 3.81523e-13
  15 903.657 0.00000 2.13031e-13
  16 903.657 0.00000 8.50417e-14
  17 903.657 0.00000 -8.23318e-13
  18 903.657 0.00000 -2.55921e-13
  19 903.657 0.00000 4.41108e-13
  20 903.657 0.00000 9.49152e-13
  21 903.657 0.00000 4.98325e-13
  22 903.657 0.00000 -2.72324e-13
  23 903.657 0.00000 -1.20757e-12
  24 903.657 0.00000 6.50800e-13
  25 903.657 0.00000 3.15935e-13
  26 903.657 0.00000 1.57018e-13
  27 903.657 0.00000 -2.01638e-12
  28 903.657 0.00000 2.80411e-13
  29 903.657 0.00000 1.81549e-13
  30 903.657 0.00000 4.08486e-14
  31 903.657 0.00000 3.33628e-13
  32 903.657 0.00000 -1.05590e-12
  33 903.657 0.00000 -4.67794e-14
  34 903.657 0.00000 3.79175e-13
  35 903.657 0.00000 -5.52565e-13
  36 903.657 0.00000 -2.34071e-13
  37 903.657 0.00000 -3.76817e-14
  38 903.657 0.00000 8.83563e-14
  39 903.657 0.00000 6.92422e-15
  40 903.657 0.00000 3.43959e-13
  41 903.657 0.00000 2.20201e-13
  42 903.657 0.00000 3.03024e-13
  43 903.657 0.00000 4.15381e-13
  44 903.657 0.00000 3.45999e-14
  45 903.657 0.00000 -5.89919e-13
  46 903.657 0.00000 5.14884e-14
  47 903.657 0.00000 8.09365e-13
  48 903.657 0.00000 4.11486e-13
  49 903.657 0.00000 6.25798e-13
  50 903.657 0.00000 -2.31381e-13
  51 903.657 0.00000 -2.18055e-14
  52 903.657 0.00000 1.07248e-13
  53 903.657 0.00000 -2.51866e-14
  54 903.657 0.00000 1.47198e-13
  55 903.657 0.00000 -8.72219e-14
  56 903.657 0.00000 -4.91685e-14
  57 903.657 0.00000 2.67933e-13
  58 903.657 0.00000 4.30912e-13
  59 903.657 0.00000 2.31598e-13
  60 903.657 0.00000 3.91536e-13
  61 903.657 0.00000 2.45704e-13
  62 903.657 0.00000 -2.15203e-13
  63 903.657 0.00000 -6.26703e-13
  64 903.657 0.00000 -4.84370e-14
  65 903.657 0.00000 4.57476e-13
  66 903.657 0.00000 1.51500e-13
  67 903.657 0.00000 -4.09577e-13
  68 903.657 0.00000 -1.32821e-13
  69 903.657 0.00000 2.07503e-13
  70 903.657 0.00000 -2.37012e-14
  71 903.657 0.00000 -1.20087e-13
  72 903.657 0.00000 6.92356e-13
  73 903.657 0.00000 -2.05718e-14
  74 903.657 0.00000 2.71481e-14
  75 903.657 0.00000 8.15931e-14
  76 903.657 0.00000 -3.64770e-13
  77 903.657 0.00000 2.09077e-14
  78 903.657 0.00000 2.74949e-13
  79 903.657 0.00000 1.51940e-15
  80 903.657 0.00000 2.30469e-13
  81 903.657 0.00000 3.46625e-14
  82 903.657 0.00000 -2.98921e-15
  83 903.657 0.00000 -3.19293e-13
  84 903.657 0.00000 -6.61208e-14
  85 903.657 0.00000 4.34702e-13
  86 903.657 0.00000 1.08614e-12
  87 903.657 0.00000 -2.67192e-14
  88 903.657 0.00000 1.70201e-12
  89 903.657 0.00000 -1.64786e-13
  90 903.657 0.00000 9.77542e-14
  91 903.657 0.00000 2.05612e-14
  92 903.657 0.00000 8.45821e-14
  93 903.657 0.00000 1.50848e-13
  94 903.657 0.00000 5.94090e-13
  95 903.657 0.00000 2.58557e-13
  96 903.657 0.00000 3.44204e-13
  97 903.657 0.00000 1.25815e-13
  98 903.657 0.00000 -2.16524e-13
  99 903.657 0.00000 6.95914e-13
  100 903.657 0.00000 -7.78138e-14
  101 903.657 0.00000 1.40699e-13
  102 903.657 0.00000 3.75559e-13
  103 903.657 0.00000 2.00421e-13
  104 903.657 0.00000 -2.72762e-13
  105 903.657 0.00000 3.16590e-13
  106 903.657 0.00000 5.48814e-14
  107 903.657 0.00000 -2.14125e-13
  108 903.657 0.00000 1.54098e-13
  109 903.657 0.00000 9.21784e-14
  110 903.657 0.00000 9.01342e-14
  111 903.657 0.00000 4.59075e-13
  112 903.657 0.00000 -1.52358e-13
  113 903.657 0.00000 -4.91610e-13
  114 903.657 0.00000 1.82262e-13
  115 903.657 0.00000 6.97416e-13
  116 903.657 0.00000 -3.81424e-14
  117 903.657 0.00000 2.27590e-13
  118 903.657 0.00000 6.21400e-13
  119 903.657 0.00000 5.88469e-14
  120 903.657 0.00000 5.42649e-14
  121 903.657 0.00000 -2.28789e-13
  122 903.657 0.00000 3.47942e-13
  123 903.657 0.00000 5.19655e-13
  124 903.657 0.00000 1.46109e-13
  125 903.657 0.00000 -1.98777e-13
  126 903.657 0.00000 4.39189e-14
  127 903.657 0.00000 1.40953e-13
  128 903.657 0.00000 -1.38123e-13
  129 903.657 0.00000 -4.21186e-13
  130 903.657 0.00000 1.57069e-13
  131 903.657 0.00000 4.05403e-13
  132 903.657 0.00000 3.60407e-13
  133 903.657 0.00000 -3.19470e-13
  134 903.657 0.00000 1.13833e-13
  135 903.657 0.00000 6.46643e-13
  136 903.657 0.00000 3.82265e-13
  137 903.657 0.00000 6.81035e-13
  138 903.657 0.00000 -3.46424e-13
  139 903.657 0.00000 1.07838e-13
  140 903.657 0.00000 -5.39227e-13
  141 903.657 0.00000 -5.60866e-15
  142 903.657 0.00000 3.21198e-13
  143 903.657 0.00000 2.61505e-13
  144 903.657 0.00000 -1.89985e-13
  145 903.657 0.00000 6.77517e-13
  146 903.657 0.00000 2.01519e-13
  147 903.657 0.00000 2.66992e-13
  148 903.657 0.00000 -6.31512e-14
  149 903.657 0.00000 -1.25366e-12
  150 903.657 0.00000 5.25851e-13
  151 903.657 0.00000 5.55246e-13
  152 903.657 0.00000 8.02147e-13
  153 903.657 0.00000 8.03974e-13
  154 903.657 0.00000 2.93017e-13
  155 903.657 0.00000 1.05160e-13
  156 903.657 0.00000 -4.22537e-13
  157 903.657 0.00000 1.14578e-13
  158 903.657 0.00000 -4.31030e-13
  159 903.657 0.00000 -1.81337e-13
  160 903.657 0.00000 -8.38403e-14
  161 903.657 0.00000 -1.42707e-12
  162 903.657 0.00000 -5.03438e-13
  163 903.657 0.00000 -4.46302e-13
  164 903.657 0.00000 -9.64857e-15
  165 903.657 0.00000 -3.15653e-13
  166 903.657 0.00000 -1.56391e-13
  167 903.657 0.00000 6.10824e-13
  168 903.657 0.00000 7.26368e-13
  169 903.657 0.00000 -9.12672e-14
  170 903.657 0.00000 4.62959e-14
  171 903.657 0.00000 5.70533e-13
  172 903.657 0.00000 4.26996e-13
  173 903.657 0.00000 -1.73790e-13
  174 903.657 0.00000 3.92215e-13
  175 903.657 0.00000 -8.71314e-14
  176 903.657 0.00000 -1.58699e-13
  177 903.657 0.00000 2.63260e-13
  178 903.657 0.00000 -7.86544e-14
  179 903.657 0.00000 7.31049e-14
  180 903.657 0.00000 2.37820e-13
  181 903.657 0.00000 3.35568e-13
  182 903.657 0.00000 1.38367e-13
  183 903.657 0.00000 -7.20174e-14
  184 903.657 0.00000 3.37170e-13
  185 903.657 0.00000 -4.04003e-14
  186 903.657 0.00000 3.68770e-14
  187 903.657 0.00000 4.42206e-13
  188 903.657 0.00000 7.59953e-14
  189 903.657 0.00000 -5.95682e-14
  190 903.657 0.00000 -9.96419e-14
  191 903.657 0.00000 -2.10124e-13
  192 903.657 0.00000 8.34594e-14
  193 903.657 0.00000 3.90338e-14
  194 903.657 0.00000 5.31996e-14
  195 903.657 0.00000 2.10242e-13
  196 903.657 0.00000 2.34257e-14
  197 903.657 0.00000 1.14797e-13
  198 903.657 0.00000 1.99386e-13
  199 903.657 0.00000 3.32609e-13
  200 903.657 0.00000 1.34535e-13
  201 903.657 0.00000 -2.20656e-13
  202 903.657 0.00000 1.28289e-12
  203 903.657 0.00000 5.74855e-13
  204 903.657 0.00000 1.04746e-12
  205 903.657 0.00000 3.78947e-14
  206 903.657 0.00000 5.23038e-13
  207 903.657 0.00000 -2.55096e-14
  208 903.657 0.00000 -5.01340e-14
  209 903.657 0.00000 4.05275e-13
  210 903.657 0.00000 5.04817e-13
  211 903.657 0.00000 -2.39912e-13
  212 903.657 0.00000 -1.89510e-13
  213 903.657 0.00000 1.12726e-13
  214 903.657 0.00000 5.06614e-13
  215 903.657 0.00000 4.94409e-13
  216 903.657 0.00000 -1.41011e-13
  217 903.657 0.00000 -5.80308e-13
  218 903.657 0.00000 1.68357e-13
  219 903.657 0.00000 -3.72743e-13
  220 903.657 0.00000 -1.00124e-13
  221 903.657 0.00000 3.19173e-13
  222 903.657 0.00000 1.18100e-12
  223 903.657 0.00000 6.64381e-13
  224 903.657 0.00000 6.16557e-14
  225 903.657 0.00000 3.94844e-13
  226 903.657 0.00000 -1.18382e-13
  227 903.657 0.00000 2.61380e-13
  228 903.657 0.00000 -5.00571e-13
  229 903.657 0.00000 7.27198e-14
  230 903.657 0.00000 2.62264e-14
  231 903.657 0.00000 1.24757e-14
  232 903.657 0.00000 1.28029e-13
  233 903.657 0.00000 1.53407e-12
  234 903.657 0.00000 1.84578e-13
  235 903.657 0.00000 4.71804e-13
  236 903.657 0.00000 1.24207e-13
  237 903.657 0.00000 1.34419e-12
  238 903.657 0.00000 6.01560e-13
  239 903.657 0.00000 -5.09862e-13
  240 903.657 0.00000 2.92774e-13
  241 903.657 0.00000 5.06387e-13
</Section>

newXOutput 40

<Section columns = "stress_xx | stress_yy | stress_xy">
  1 947.538 0.00000 1.84629e-13
  2 947.538 0.00000 -1.41583e-13
  3 947.538 0.00000 -7.03622e-13
  4 947.538 0.00000 -2.68639e-13
  5 947.538 0.00000 4.18081e-13
  6 947.538 0.00000 9.57668e-14
  7 947.538 0.00000 2.91247e-13
  8 947.538 0.00000 -3.61739e-14
  9 947.538 0.00000 -4.63488e-13
  10 947.538 0.00000 -7.24108e-13
  11 947.538 0.00000 -5.37908e-13
  12 947.538 0.00000 -1.41118e-13
  13 947.538 0.00000 -2.13028e-13
  14 947.538 0.00000 -1.05610e-12
  15 947.538 0.00000 -3.25983e-13
  16 947.538 0.00000 -1.53749e-13
  17 947.538 0.00000 -4.97590e-13
  18 947.538 0.00000 9.46477e-13
  19 947.538 0.00000 5.82627e-13
  20 947.538 0.00000 -3.94949e-13
  21 947.538 0.00000 -6.11651e-13
  22 947.538 0.00000 8.05847e-13
  23 947.538 0.00000 1.45549e-12
  24 947.538 0.00000 -5.32027e-13
  25 947.538 0.00000 0.00000
  26 947.538 0.00000 2.10251e-13
  27 947.538 0.00000 1.77450e-12
  28 947.538 0.00000 -7.52661e-13
  29 947.538 0.00000 1.14487e-13
  30 947.538 0.00000 -2.61995e-13
  31 947.538 0.00000 -2.73090e-13
  32 947.538 0.00000 -8.02104e-13
  33 947.538 0.00000 -9.38183e-14
  34 947.538 0.00000 -5.32318e-13
  35 947.538 0.00000 4.23926e-13
  36 947.538 0.00000 -1.87825e-13
  37 947.538 0.00000 2.83744e-13
  38 947.538 0.00000 5.49834e-13
  39 947.538 0.00000 1.94734e-13
  40 947.538 0.00000 -3.53017e-13
  41 947.538 0.00000 -1.97620e-13
  42 947.538 0.00000 7.04000e-14
  43 947.538 0.00000 -1.72821e-13
  44 947.538 0.00000 -5.87942e-14
  45 947.538 0.00000 9.69879e-14
  46 947.538 0.00000 1.07275e-14
  47 947.538 0.00000 -8.58147e-13
  48 947.538 0.00000 -4.06225e-13
  49 947.538 0.00000 -3.43014e-13
  50 947.538 0.00000 1.86284e-13
  51 947.538 0.00000 0.00000
  52 947.538 0.00000 -2.65362e-14
  53 947.538 0.00000 -8.10212e-14
  54 947.538 0.00000 -1.68431e-13
  55 947.538 0.00000 0.00000
  56 947.538 0.00000 8.15530e-15
  57 947.538 0.00000 -1.67336e-13
  58 947.538 0.00000 -1.25218e-12
  59 947.538 0.00000 -9.90196e-14
  60 947.538 0.00000 -3.70230e-13
  61 947.538 0.00000 -2.82712e-13
  62 947.538 0.00000 -5.13523e-14
  63 947.538 0.00000 8.72177e-13
  64 947.538 0.00000 8.91474e-13
  65 947.538 0.00000 1.34265e-13
  66 947.538 0.00000 -1.29816e-13
  67 947.538 0.00000 4.38780e-13
  68 947.538 0.00000 6.37194e-13
  69 947.538 0.00000 -4.43838e-13
  70 947.538 0.00000 2.64416e-14
  71 947.538 0.00000 -1.99938e-13
  72 947.538 0.00000 -9.42811e-13
  73 947.538 0.00000 2.80828e-17
  74 947.538 0.00000 -8.84710e-13
  75 947.538 0.00000 -3.69351e-13
  76 947.538 0.00000 8.53988e-14
  77 947.538 0.00000 -2.15321e-13
  78 947.538 0.00000 5.27309e-13
  79 947.538 0.00000 -2.67799e-14
  80 947.538 0.00000 -8.52004e-13
  81 947.538 0.00000 -1.03831e-12
  82 947.538 0.00000 -1.91930e-13
  83 947.538 0.00000 -1.75270e-13
  84 947.538 0.00000 -3.78621e-13
  85 947.538 0.00000 4.82093e-14
  86 947.538 0.00000 -7.36291e-13
  87 947.538 0.00000 -4.86001e-13
  88 947.538 0.00000 -1.71026e-12
  89 947.538 0.00000 2.85459e-13
  90 947.538 0.00000 -2.93287e-13
  91 947.538 0.00000 5.50072e-14
  92 947.538 0.00000 -3.79133e-14
  93 947.538 0.00000 -9.38973e-13
  94 947.538 0.00000 -1.20221e-12
  95 947.538 0.00000 6.60325e-14
  96 947.538 0.00000 7.72338e-14
  97 947.538 0.00000 -1.42879e-12
  98 947.538 0.00000 -1.91657e-13
  99 947.538 0.00000 4.35574e-14
  100 947.538 0.00000 1.17838e-13
  101 947.538 0.00000 -2.51027e-13
  102 947.538 0.00000 -3.43016e-14
  103 947.538 0.00000 -7.16804e-14
  104 947.538 0.00000 -2.16331e-13
  105 947.538 0.00000 -3.39140e-13
  106 947.538 0.00000 -2.26567e-14
  107 947.538 0.00000 5.72409e-13
  108 947.538 0.00000 -5.23143e-14
  109 947.538 0.00000 -2.13368e-13
  110 947.538 0.00000 -6.47187e-13
  111 947.538 0.00000 -1.78045e-13
  112 947.538 0.00000 7.62550e-13
  113 947.538 0.00000 2.55192e-13
  114 947.538 0.00000 -1.03308e-13
  115 947.538 0.00000 -3.58541e-13
  116 947.538 0.00000 -2.23843e-13
  117 947.538 0.00000 1.58550e-13
  118 947.538 0.00000 -4.61671e-13
  119 947.538 0.00000 2.12967e-13
  120 947.538 0.00000 1.57335e-13
  121 947.538 0.00000 -1.49283e-13
  122 947.538 0.00000 -4.36050e-13
  123 947.538 0.00000 -3.23901e-13
  124 947.538 0.00000 -1.29037e-12
  125 947.538 0.00000 -2.60085e-14
  126 947.538 0.00000 -2.61429e-13
  127 947.538 0.00000 7.24795e-13
  128 947.538 0.00000 -2.45901e-13
  129 947.538 0.00000 -9.53594e-14
  130 947.538 0.00000 -3.70102e-13
  131 947.538 0.00000 -4.40951e-13
  132 947.538 0.00000 -4.08454e-13
  133 947.538 0.00000 2.41356e-13
  134 947.538 0.00000 -2.96641e-13
  135 947.538 0.00000 -7.05538e-13
  136 947.538 0.00000 -8.42863e-13
  137 947.538 0.00000 -5.42926e-13
  138 947.538 0.00000 3.73265e-13
  139 947.538 0.00000 -1.92541e-13
  140 947.538 0.00000 3.90594e-13
  141 947.538 0.00000 -2.74926e-13
  142 947.538 0.00000 -5.71945e-13
  143 947.538 0.00000 -6.15443e-13
  144 947.538 0.00000 -4.14353e-13
  145 947.538 0.00000 -9.66214e-14
  146 947.538 0.00000 5.74439e-14
  147 947.538 0.00000 -1.19911e-13
  148 947.538 0.00000 -1.77595e-13
  149 947.538 0.00000 6.58994e-13
  150 947.538 0.00000 -4.68003e-13
  151 947.538 0.00000 -8.90833e-13
  152 947.538 0.00000 -9.51313e-13
  153 947.538 0.00000 -7.07396e-13
  154 947.538 0.00000 -3.50794e-13
  155 947.538 0.00000 -5.16849e-13
  156 947.538 0.00000 4.09470e-13
  157 947.538 0.00000 -1.76610e-14
  158 947.538 0.00000 -2.83129e-13
  159 947.538 0.00000 2.26603e-13
  160 947.538 0.00000 -9.59055e-16
  161 947.538 0.00000 1.30126e-12
  162 947.538 0.00000 1.27119e-13
  163 947.538 0.00000 -1.19161e-13
  164 947.538 0.00000 -1.75138e-13
  165 947.538 0.00000 2.10231e-13
  166 947.538 0.00000 -2.53561e-14
  167 947.538 0.00000 -1.75611e-13
  168 947.538 0.00000 -4.60872e-13
  169 947.538 0.00000 2.06286e-14
  170 947.538 0.00000 -1.15754e-14
  171 947.538 0.00000 -5.28420e-13
  172 947.538 0.00000 -8.70155e-13
  173 947.538 0.00000 -1.10948e-13
  174 947.538 0.00000 -2.59052e-13
  175 947.538 0.00000 4.04123e-14
  176 947.538 0.00000 2.12161e-13
  177 947.538 0.00000 -6.73881e-13
  178 947.538 0.00000 -1.35903e-13
  179 947.538 0.00000 -1.06813e-13
  180 947.538 0.00000 -3.11439e-13
  181 947.538 0.00000 -1.07882e-12
  182 947.538 0.00000 1.20227e-13
  183 947.538 0.00000 8.52449e-15
  184 947.538 0.00000 -5.64793e-13
  185 947.538 0.00000 -2.93994e-14
  186 947.538 0.00000 -4.74071e-13
  187 947.538 0.00000 -7.67091e-13
  188 947.538 0.00000 -5.56439e-14
  189 947.538 0.00000 -1.39575e-13
  190 947.538 0.00000 -2.72968e-13
  191 947.538 0.00000 -1.45699e-13
  192 947.538 0.00000 -1.04966e-13
  193 947.538 0.00000 -7.03145e-14
  194 947.538 0.00000 6.19388e-13
  195 947.538 0.00000 -5.45762e-14
  196 947.538 0.00000 1.97576e-14
  197 947.538 0.00000 -3.95386e-14
  198 947.538 0.00000 4.10595e-14
  199 947.538 0.00000 -4.46579e-13
  200 947.538 0.00000 -6.49778e-13
  201 947.538 0.00000 2.14615e-13
  202 947.538 0.00000 -1.17240e-12
  203 947.538 0.00000 -5.85326e-13
  204 947.538 0.00000 -3.37590e-13
  205 947.538 0.00000 -6.62369e-14
  206 947.538 0.00000 -8.04424e-13
  207 947.538 0.00000 3.80290e-13
  208 947.538 0.00000 1.34435e-13
  209 947.538 0.00000 -5.27801e-13
  210 947.538 0.00000 -9.24059e-13
  211 947.538 0.00000 2.21504e-13
  212 947.538 0.00000 5.11307e-13
  213 947.538 0.00000 -8.33288e-14
  214 947.538 0.00000 -2.53531e-13
  215 947.538 0.00000 -5.95551e-13
  216 947.538 0.00000 8.14374e-15
  217 947.538 0.00000 2.96603e-13
  218 947.538 0.00000 -3.97432e-13
  219 947.538 0.00000 6.11308e-13
  220 947.538 0.00000 -2.07250e-13
  221 947.538 0.00000 -4.22406e-13
  222 947.538 0.00000 -1.50996e-12
  223 947.538 0.00000 -6.07495e-13
  224 947.538 0.00000 -3.50147e-13
  225 947.538 0.00000 -8.59738e-13
  226 947.538 0.00000 1.71299e-13
  227 947.538 0.00000 1.73843e-13
  228 947.538 0.00000 6.51964e-13
  229 947.538 0.00000 -1.50670e-13
  230 947.538 0.00000 -2.00119e-13
  231 947.538 0.00000 1.16801e-12
  232 947.538 0.00000 6.35513e-14
  233 947.538 0.00000 -9.25039e-13
  234 947.538 0.00000 -3.92721e-13
  235 947.538 0.00000 -5.01083e-13
  236 947.538 0.00000 -2.28670e-13
  237 947.538 0.00000 -1.10143e-12
  238 947.538 0.00000 -2.16990e-13
  239 947.538 0.00000 3.15497e-13
  240 947.538 0.00000 -4.60223e-14
  241 947.538 0.00000 -4.30849e-13
</Section>

newXOutput 41

<Section columns = "stress_xx | stress_yy | stress_xy">
  1 991.554 0.00000 -3.39428e-14
  2 991.554 0.00000 9.27591e-14
  3 991.554 0.00000 2.70471e-13
  4 991.554 0.00000 2.71399e-13
  5 991.554 0.00000 -9.93974e-14
  6 991.554 0.00000 1.86184e-14
  7 991.554 0.00000 5.35051e-13
  8 991.554 0.00000 3.56060e-13
  9 991.554 0.00000 3.06411e-13
  10 991.554 0.00000 2.66112e-13
  11 991.554 0.00000 2.48073e-13
  12 991.554 0.00000 6.90328e-13
  13 991.554 0.00000 8.07610e-13
  14 991.554 0.00000 7.44543e-13
  15 991.554 0.00000 2.11652e-13
  16 991.554 0.00000 2.76848e-13
  17 991.554 0.00000 -6.72880e-13
  18 991.554 0.00000 -1.71998e-14
  19 991.554 0.00000 1.65703e-13
  20 991.554 0.00000 1.52822e-13
  21 991.554 0.00000 1.08429e-13
  22 991.554 0.00000 -7.52141e-14
  23 991.554 0.00000 2.19367e-14
  24 991.554 0.00000 -5.82867e-14
  25 991.554 0.00000 -4.37150e-14
  26 991.554 0.00000 -2.36542e-13
  27 991.554 0.00000 -1.35381e-12
  28 991.554 0.00000 2.31203e-13
  29 991.554 0.00000 4.37150e-14
  30 991.554 0.00000 3.12865e-13
  31 991.554 0.00000 -4.66969e-14
  32 991.554 0.00000 -4.73091e-13
  33 991.554 0.00000 -3.71514e-13
  34 991.554 0.00000 4.32793e-13
  35 991.554 0.00000 7.92383e-14
  36 991.554 0.00000 -4.87004e-15
  37 991.554 0.00000 -4.51310e-13
  38 991.554 0.00000 -2.46609e-13
  39 991.554 0.00000 2.38211e-13
  40 991.554 0.00000 2.81572e-14
  41 991.554 0.00000 2.92535e-13
  42 991.554 0.00000 4.17167e-13
  43 991.554 0.00000 4.31041e-13
  44 991.554 0.00000 6.29342e-13
  45 991.554 0.00000 -3.31625e-13
  46 991.554 0.00000 -1.12196e-12
  47 991.554 0.00000 5.01409e-13
  48 991.554 0.00000 2.19012e-13
  49 991.554 0.00000 2.94811e-13
  50 991.554 0.00000 -6.88973e-14
  51 991.554 0.00000 4.37150e-14
  52 991.554 0.00000 -2.61096e-14
  53 991.554 0.00000 2.73417e-14
  54 991.554 0.00000 -1.20556e-14
  55 991.554 0.00000 -4.37150e-14
  56 991.554 0.00000 -8.74697e-14
  57 991.554 0.00000 5.78888e-13
  58 991.554 0.00000 1.01031e-12
  59 991.554 0.00000 2.52029e-13
  60 991.554 0.00000 -6.36311e-13
  61 991.554 0.00000 2.53910e-13
  62 991.554 0.00000 -8.34385e-13
  63 991.554 0.00000 -9.21303e-14
  64 991.554 0.00000 -6.52045e-13
  65 991.554 0.00000 -5.46109e-14
  66 991.554 0.00000 -3.32715e-13
  67 991.554 0.00000 -1.09010e-12
  68 991.554 0.00000 -2.86869e-13
  69 991.554 0.00000 3.03460e-13
  70 991.554 0.00000 -8.26540e-14
  71 991.554 0.00000 1.24228e-13
  72 991.554 0.00000 4.35349e-13
  73 991.554 0.00000 8.50436e-14
  74 991.554 0.00000 5.01040e-13
  75 991.554 0.00000 2.88872e-13
  76 991.554 0.00000 1.57610e-13
  77 991.554 0.00000 1.13950e-13
  78 991.554 0.00000 -1.74270e-13
  79 991.554 0.00000 -3.91035e-14
  80 991.554 0.00000 4.67658e-13
  81 991.554 0.00000 -3.33481e-13
  82 991.554 0.00000 6.37983e-13
  83 991.554 0.00000 3.39309e-13
  84 991.554 0.00000 2.75816e-13
  85 991.554 0.00000 5.14223e-13
  86 991.554 0.00000 7.44018e-13
  87 991.554 0.00000 5.26970e-13
  88 991.554 0.00000 1.00495e-12
  89 991.554 0.00000 -2.52108e-13
  90 991.554 0.00000 9.26378e-13
  91 991.554 0.00000 -4.94842e-13
  92 991.554 0.00000 2.32339e-13
  93 991.554 0.00000 9.50470e-13
  94 991.554 0.00000 2.91622e-13
  95 991.554 0.00000 -5.37557e-13
  96 991.554 0.00000 -1.86871e-13
  97 991.554 0.00000 4.92979e-13
  98 991.554 0.00000 -2.52591e-13
  99 991.554 0.00000 1.01245e-13
  100 991.554 0.00000 -7.48334e-14
  101 991.554 0.00000 -2.00461e-13
  102 991.554 0.00000 6.89897e-13
  103 991.554 0.00000 -2.11548e-13
  104 991.554 0.00000 1.03606e-13
  105 991.554 0.00000 1.10057e-13
  106 991.554 0.00000 -3.15214e-14
  107 991.554 0.00000 -8.80135e-13
  108 991.554 0.00000 -5.78994e-14
  109 991.554 0.00000 -1.34747e-13
  110 991.554 0.00000 2.21000e-13
  111 991.554 0.00000 5.68427e-14
  112 991.554 0.00000 -5.10394e-13
  113 991.554 0.00000 -2.15912e-13
  114 991.554 0.00000 1.31041e-14
  115 991.554 0.00000 1.27682e-13
  116 991.554 0.00000 5.58259e-13
  117 991.554 0.00000 -1.17853e-13
  118 991.554 0.00000 3.06454e-13
  119 991.554 0.00000 -2.86956e-13
  120 991.554 0.00000 -7.71055e-14
  121 991.554 0.00000 2.99277e-13
  122 991.554 0.00000 4.14556e-14
  123 991.554 0.00000 8.73361e-15
  124 991.554 0.00000 9.68160e-13
  125 991.554 0.00000 5.22919e-14
  126 991.554 0.00000 2.45533e-13
  127 991.554 0.00000 -2.83930e-14
  128 991.554 0.00000 5.73271e-15
  129 991.554 0.00000 -4.35381e-13
  130 991.554 0.00000 3.30161e-13
  131 991.554 0.00000 3.19421e-13
  132 991.554 0.00000 -1.66538e-14
  133 991.554 0.00000 -1.37481e-14
  134 991.554 0.00000 3.25040e-13
  135 991.554 0.00000 1.43269e-13
  136 991.554 0.00000 4.98475e-13
  137 991.554 0.00000 2.37263e-14
  138 991.554 0.00000 -1.53904e-13
  139 991.554 0.00000 6.32953e-14
  140 991.554 0.00000 -2.95268e-13
  141 991.554 0.00000 1.79707e-13
  142 991.554 0.00000 8.59072e-13
  143 991.554 0.00000 5.54058e-13
  144 991.554 0.00000 4.69771e-13
  145 991.554 0.00000 -2.13752e-14
  146 991.554 0.00000 -4.09292e-14
  147 991.554 0.00000 1.77607e-13
  148 991.554 0.00000 2.17260e-13
  149 991.554 0.00000 2.75429e-13
  150 991.554 0.00000 1.06123e-13
  151 991.554 0.00000 7.53736e-13
  152 991.554 0.00000 8.14654e-13
  153 991.554 0.00000 4.81573e-13
  154 991.554 0.00000 2.80973e-13
  155 991.554 0.00000 1.16561e-13
  156 991.554 0.00000 -3.96966e-13
  157 991.554 0.00000 -6.49860e-14
  158 991.554 0.00000 -5.73314e-13
  159 991.554 0.00000 -4.95596e-13
  160 991.554 0.00000 -1.54686e-13
  161 991.554 0.00000 -1.14767e-12
  162 991.554 0.00000 1.97906e-14
  163 991.554 0.00000 -4.03152e-13
  164 991.554 0.00000 2.56547e-13
  165 991.554 0.00000 -2.79853e-14
  166 991.554 0.00000 1.50356e-13
  167 991.554 0.00000 3.10815e-13
  168 991.554 0.00000 2.65443e-13
  169 991.554 0.00000 -2.06740e-13
  170 991.554 0.00000 -7.62219e-13
  171 991.554 0.00000 4.87053e-13
  172 991.554 0.00000 8.10870e-13
  173 991.554 0.00000 -9.48310e-15
  174 991.554 0.00000 4.10920e-13
  175 991.554 0.00000 1.29545e-13
  176 991.554 0.00000 -1.72201e-13
  177 991.554 0.00000 1.40280e-13
  178 991.554 0.00000 2.65783e-13
  179 991.554 0.00000 5.41188e-13
  180 991.554 0.00000 2.47248e-13
  181 991.554 0.00000 3.55348e-13
  182 991.554 0.00000 -3.20733e-13
  183 991.554 0.00000 -9.52136e-13
  184 991.554 0.00000 3.05241e-13
  185 991.554 0.00000 -6.81379e-15
  186 991.554 0.00000 3.78648e-13
  187 991.554 0.00000 4.89031e-14
  188 991.554 0.00000 -9.14304e-15
  189 991.554 0.00000 3.72962e-13
  190 991.554 0.00000 -3.58754e-14
  191 991.554 0.00000 2.27265e-13
  192 991.554 0.00000 2.89953e-13
  193 991.554 0.00000 1.43621e-14
  194 991.554 0.00000 -3.61466e-13
  195 991.554 0.00000 3.44724e-13
  196 991.554 0.00000 -3.80557e-13
  197 991.554 0.00000 -3.45768e-13
  198 991.554 0.00000 1.00175e-13
  199 991.554 0.00000 6.91861e-13
  200 991.554 0.00000 7.38054e-13
  201 991.554 0.00000 -3.14999e-13
  202 991.554 0.00000 8.24769e-13
  203 991.554 0.00000 7.57479e-13
  204 991.554 0.00000 -3.09249e-14
  205 991.554 0.00000 4.78794e-13
  206 991.554 0.00000 4.86117e-13
  207 991.554 0.00000 -1.09303e-12
  208 991.554 0.00000 1.43084e-13
  209 991.554 0.00000 2.72620e-14
  210 991.554 0.00000 7.69786e-13
  211 991.554 0.00000 3.68350e-14
  212 991.554 0.00000 2.40803e-13
  213 991.554 0.00000 3.58089e-13
  214 991.554 0.00000 -4.03988e-14
  215 991.554 0.00000 1.00390e-12
  216 991.554 0.00000 -9.36065e-13
  217 991.554 0.00000 -2.88900e-13
  218 991.554 0.00000 5.24864e-13
  219 991.554 0.00000 -3.21112e-13
  220 991.554 0.00000 -5.64627e-13
  221 991.554 0.00000 4.87668e-13
  222 991.554 0.00000 1.62660e-12
  223 991.554 0.00000 3.13338e-13
  224 991.554 0.00000 7.56755e-13
  225 991.554 0.00000 -1.85019e-13
  226 991.554 0.00000 -1.89610e-13
  227 991.554 0.00000 -1.37011e-13
  228 991.554 0.00000 -2.83605e-13
  229 991.554 0.00000 6.33322e-14
  230 991.554 0.00000 4.52262e-13
  231 991.554 0.00000 9.61504e-14
  232 991.554 0.00000 -6.82593e-14
  233 991.554 0.00000 1.17948e-12
  234 991.554 0.00000 -3.02739e-13
  235 991.554 0.00000 4.39157e-14
  236 991.554 0.00000 -1.60641e-14
  237 991.554 0.00000 9.23963e-13
  238 991.554 0.00000 -4.32630e-14
  239 991.554 0.00000 -1.66314e-13
  240 991.554 0.00000 1.74577e-13
  241 991.554 0.00000 3.70827e-13
</Section>

newXOutput 42

<Section columns = "stress_xx | stress_yy | stress_xy">
  1 1035.70 0.00000 4.34769e-13
  2 1035.70 0.00000 8.47504e-13
  3 1035.70 0.00000 -2.39294e-12
  4 1035.70 0.00000 -2.70216e-13
  5 1035.70 0.00000 5.25030e-13
  6 1035.70 0.00000 8.18665e-13
  7 1035.70 0.00000 1.03458e-13
  8 1035.70 0.00000 -3.02744e-13
  9 1035.70 0.00000 2.11195e-13
  10 1035.70 0.00000 2.14381e-14
  11 1035.70 0.00000 4.74152e-14
  12 1035.70 0.00000 -1.45979e-13
  13 1035.70 0.00000 -3.83742e-13
  14 1035.70 0.00000 -6.01333e-13
  15 1035.70 0.00000 2.35079e-13
  16 1035.70 0.00000 9.32781e-13
  17 1035.70 0.00000 7.10389e-13
  18 1035.70 0.00000 1.71378e-13
  19 1035.70 0.00000 -1.20265e-13
  20 1035.70 0.00000 4.69881e-13
  21 1035.70 0.00000 -4.04229e-13
  22 1035.70 0.00000 -6.59497e-13
  23 1035.70 0.00000 2.65025e-13
  24 1035.70 0.00000 1.90544e-13
  25 1035.70 0.00000 5.19532e-13
  26 1035.70 0.00000 8.38268e-13
  27 1035.70 0.00000 1.42274e-12
  28 1035.70 0.00000 1.22038e-13
  29 1035.70 0.00000 8.75341e-14
  30 1035.70 0.00000 -5.12661e-13
  31 1035.70 0.00000 -1.76862e-12
  32 1035.70 0.00000 -2.93714e-13
  33 1035.70 0.00000 1.92043e-13
  34 1035.70 0.00000 -1.83390e-12
  35 1035.70 0.00000 -3.71044e-13
  36 1035.70 0.00000 1.82672e-13
  37 1035.70 0.00000 1.32572e-13
  38 1035.70 0.00000 -6.36313e-14
  39 1035.70 0.00000 -3.34536e-13
  40 1035.70 0.00000 -3.40706e-13
  41 1035.70 0.00000 -2.66495e-14
  42 1035.70 0.00000 -1.60520e-12
  43 1035.70 0.00000 -1.42580e-12
  44 1035.70 0.00000 -6.55893e-13
  45 1035.70 0.00000 8.00818e-13
  46 1035.70 0.00000 6.23237e-13
  47 1035.70 0.00000 -1.19126e-12
  48 1035.70 0.00000 -9.22837e-13
  49 1035.70 0.00000 -6.45064e-13
  50 1035.70 0.00000 8.75836e-14
  51 1035.70 0.00000 -2.07610e-13
  52 1035.70 0.00000 -5.60408e-14
  53 1035.70 0.00000 2.73310e-14
  54 1035.70 0.00000 1.57786e-13
  55 1035.70 0.00000 1.36630e-13
  56 1035.70 0.00000 2.77980e-13
  57 1035.70 0.00000 -5.64605e-13
  58 1035.70 0.00000 -9.03078e-13
  59 1035.70 0.00000 -8.28428e-13
  60 1035.70 0.00000 6.16046e-14
  61 1035.70 0.00000 3.27508e-14
  62 1035.70 0.00000 3.15172e-13
  63 1035.70 0.00000 4.57734e-13
  64 1035.70 0.00000 6.15029e-13
  65 1035.70 0.00000 4.70066e-14
  66 1035.70 0.00000 4.34079e-13
  67 1035.70 0.00000 5.02314e-13
  68 1035.70 0.00000 5.89471e-13
  69 1035.70 0.00000 -1.35755e-13
  70 1035.70 0.00000 -2.20628e-13
  71 1035.70 0.00000 -5.14399e-13
  72 1035.70 0.00000 4.94057e-14
  73 1035.70 0.00000 -4.62224e-13
  74 1035.70 0.00000 -8.87670e-13
  75 1035.70 0.00000 1.53629e-13
  76 1035.70 0.00000 3.11417e-13
  77 1035.70 0.00000 -3.86523e-13
  78 1035.70 0.00000 5.37665e-13
  79 1035.70 0.00000 -3.19145e-13
  80 1035.70 0.00000 -7.85125e-13
  81 1035.70 0.00000 3.69616e-13
  82 1035.70 0.00000 -4.73358e-13
  83 1035.70 0.00000 -6.01151e-13
  84 1035.70 0.00000 -7.05890e-14
  85 1035.70 0.00000 -2.71421e-13
  86 1035.70 0.00000 -1.60809e-12
  87 1035.70 0.00000 -4.52172e-13
  88 1035.70 0.00000 -1.55995e-12
  89 1035.70 0.00000 5.68501e-13
  90 1035.70 0.00000 -7.04320e-13
  91 1035.70 0.00000 9.42178e-13
  92 1035.70 0.00000 -6.87461e-13
  93 1035.70 0.00000 -1.52381e-12
  94 1035.70 0.00000 1.33234e-13
  95 1035.70 0.00000 1.49182e-12
  96 1035.70 0.00000 3.55704e-13
  97 1035.70 0.00000 2.56199e-13
  98 1035.70 0.00000 1.31218e-12
  99 1035.70 0.00000 -6.13089e-13
  100 1035.70 0.00000 1.20628e-13
  101 1035.70 0.00000 6.14340e-13
  102 1035.70 0.00000 1.40412e-13
  103 1035.70 0.00000 -4.84330e-13
  104 1035.70 0.00000 4.42038e-13
  105 1035.70 0.00000 -1.63158e-14
  106 1035.70 0.00000 3.10850e-13
  107 1035.70 0.00000 9.14499e-13
  108 1035.70 0.00000 -3.03324e-13
  109 1035.70 0.00000 5.80478e-13
  110 1035.70 0.00000 -3.80633e-13
  111 1035.70 0.00000 -4.22891e-13
  112 1035.70 0.00000 7.33852e-13
  113 1035.70 0.00000 -1.31944e-13
  114 1035.70 0.00000 -2.99971e-13
  115 1035.70 0.00000 1.64827e-14
  116 1035.70 0.00000 1.69007e-14
  117 1035.70 0.00000 3.08824e-13
  118 1035.70 0.00000 -5.04969e-13
  119 1035.70 0.00000 -1.40975e-13
  120 1035.70 0.00000 -1.07439e-13
  121 1035.70 0.00000 -5.21046e-13
  122 1035.70 0.00000 -3.76495e-13
  123 1035.70 0.00000 -2.85288e-13
  124 1035.70 0.00000 -5.18276e-13
  125 1035.70 0.00000 3.34754e-13
  126 1035.70 0.00000 1.50949e-13
  127 1035.70 0.00000 8.91744e-13
  128 1035.70 0.00000 -3.11956e-14
  129 1035.70 0.00000 3.66404e-13
  130 1035.70 0.00000 -5.77699e-13
  131 1035.70 0.00000 -1.28993e-13
  132 1035.70 0.00000 -2.00201e-13
  133 1035.70 0.00000 8.46799e-15
  134 1035.70 0.00000 -5.82160e-13
  135 1035.70 0.00000 -5.54060e-13
  136 1035.70 0.00000 -3.02529e-13
  137 1035.70 0.00000 -8.15489e-14
  138 1035.70 0.00000 3.92763e-13
  139 1035.70 0.00000 -1.63039e-13
  140 1035.70 0.00000 -7.51904e-14
  141 1035.70 0.00000 -1.57428e-13
  142 1035.70 0.00000 -5.18090e-13
  143 1035.70 0.00000 -4.22402e-13
  144 1035.70 0.00000 -8.76835e-13
  145 1035.70 0.00000 -8.36400e-14
  146 1035.70 0.00000 2.62647e-13
  147 1035.70 0.00000 3.71910e-14
  148 1035.70 0.00000 -9.06405e-14
  149 1035.70 0.00000 9.35241e-13
  150 1035.70 0.00000 -6.03969e-13
  151 1035.70 0.00000 -1.08479e-13
  152 1035.70 0.00000 -1.20647e-13
  153 1035.70 0.00000 -4.53910e-13
  154 1035.70 0.00000 -5.73663e-13
  155 1035.70 0.00000 5.81546e-13
  156 1035.70 0.00000 4.60868e-13
  157 1035.70 0.00000 -4.17863e-13
  158 1035.70 0.00000 -7.57040e-14
  159 1035.70 0.00000 1.04308e-12
  160 1035.70 0.00000 -8.52211e-14
  161 1035.70 0.00000 1.28202e-12
  162 1035.70 0.00000 -5.05688e-13
  163 1035.70 0.00000 -1.16262e-13
  164 1035.70 0.00000 -4.56048e-13
  165 1035.70 0.00000 4.78877e-14
  166 1035.70 0.00000 -2.09139e-13
  167 1035.70 0.00000 -2.71700e-13
  168 1035.70 0.00000 -7.19134e-13
  169 1035.70 0.00000 4.00931e-13
  170 1035.70 0.00000 -4.90301e-13
  171 1035.70 0.00000 -2.57662e-13
  172 1035.70 0.00000 -1.05763e-12
  173 1035.70 0.00000 -4.46412e-14
  174 1035.70 0.00000 -5.50323e-13
  175 1035.70 0.00000 -1.40706e-13
  176 1035.70 0.00000 4.64435e-13
  177 1035.70 0.00000 -1.08927e-12
  178 1035.70 0.00000 -8.21268e-14
  179 1035.70 0.00000 -4.70595e-13
  180 1035.70 0.00000 -5.64877e-13
  181 1035.70 0.00000 -6.32749e-14
  182 1035.70 0.00000 3.50876e-13
  183 1035.70 0.00000 1.32091e-12
  184 1035.70 0.00000 1.48854e-13
  185 1035.70 0.00000 -7.06209e-14
  186 1035.70 0.00000 -2.04258e-13
  187 1035.70 0.00000 -6.34091e-13
  188 1035.70 0.00000 -9.65985e-13
  189 1035.70 0.00000 1.04454e-14
  190 1035.70 0.00000 -1.26892e-13
  191 1035.70 0.00000 -3.04573e-13
  192 1035.70 0.00000 -5.39122e-14
  193 1035.70 0.00000 -4.66744e-13
  194 1035.70 0.00000 1.76921e-13
  195 1035.70 0.00000 -4.51083e-13
  196 1035.70 0.00000 -3.90984e-13
  197 1035.70 0.00000 8.26979e-13
  198 1035.70 0.00000 2.29448e-13
  199 1035.70 0.00000 -6.01886e-13
  200 1035.70 0.00000 -1.00683e-12
  201 1035.70 0.00000 4.74953e-13
  202 1035.70 0.00000 -1.21346e-12
  203 1035.70 0.00000 -6.10757e-13
  204 1035.70 0.00000 1.18916e-13
  205 1035.70 0.00000 -1.06746e-12
  206 1035.70 0.00000 1.88030e-13
  207 1035.70 0.00000 1.13420e-12
  208 1035.70 0.00000 -2.40209e-13
  209 1035.70 0.00000 -1.33869e-14
  210 1035.70 0.00000 -3.50996e-14
  211 1035.70 0.00000 6.28822e-13
  212 1035.70 0.00000 -1.43899e-12
  213 1035.70 0.00000 -5.75463e-13
  214 1035.70 0.00000 -6.82205e-13
  215 1035.70 0.00000 -4.35816e-13
  216 1035.70 0.00000 1.17429e-12
  217 1035.70 0.00000 -1.49347e-13
  218 1035.70 0.00000 -4.21344e-13
  219 1035.70 0.00000 3.10131e-13
  220 1035.70 0.00000 6.59553e-13
  221 1035.70 0.00000 -2.26855e-13
  222 1035.70 0.00000 -8.80235e-13
  223 1035.70 0.00000 -1.35624e-13
  224 1035.70 0.00000 -3.67487e-13
  225 1035.70 0.00000 2.03146e-13
  226 1035.70 0.00000 1.82055e-13
  227 1035.70 0.00000 -3.63759e-14
  228 1035.70 0.00000 1.48479e-12
  229 1035.70 0.00000 4.03075e-13
  230 1035.70 0.00000 4.83081e-13
  231 1035.70 0.00000 9.61049e-13
  232 1035.70 0.00000 -1.40662e-13
  233 1035.70 0.00000 -8.06171e-13
  234 1035.70 0.00000 7.26364e-13
  235 1035.70 0.00000 4.46816e-13
  236 1035.70 0.00000 2.72765e-13
  237 1035.70 0.00000 -1.13725e-12
  238 1035.70 0.00000 3.13776e-13
  239 1035.70 0.00000 8.45371e-13
  240 1035.70 0.00000 3.41242e-13
  241 1035.70 0.00000 -2.72725e-13
</Section>

newXOutput 43

<Section columns = "stress_xx | stress_yy | stress_xy">
  1 1079.99 0.00000 -9.30951e-13
  2 1079.99 0.00000 -4.68192e-13
  3 1079.99 0.00000 2.25979e-12
  4 1079.99 0.00000 -1.10899e-13
  5 1079.99 0.00000 -9.94853e-13
  6 1079.99 0.00000 -9.85593e-13
  7 1079.99 0.00000 1.82276e-13
  8 1079.99 0.00000 1.74016e-13
  9 1079.99 0.00000 4.56543e-13
  10 1079.99 0.00000 6.01710e-13
  11 1079.99 0.00000 -1.23813e-13
  12 1079.99 0.00000 -1.82686e-13
  13 1079.99 0.00000 2.48841e-13
  14 1079.99 0.00000 3.80450e-13
  15 1079.99 0.00000 -4.36784e-13
  16 1079.99 0.00000 6.53074e-13
  17 1079.99 0.00000 5.58192e-13
  18 1079.99 0.00000 7.26660e-13
  19 1079.99 0.00000 4.76134e-13
  20 1079.99 0.00000 -5.96077e-13
  21 1079.99 0.00000 1.25141e-13
  22 1079.99 0.00000 2.80541e-13
  23 1079.99 0.00000 -1.43989e-13
  24 1079.99 0.00000 -5.99636e-13
  25 1079.99 0.00000 -8.06487e-13
  26 1079.99 0.00000 -1.29628e-12
  27 1079.99 0.00000 -1.37990e-12
  28 1079.99 0.00000 -4.36056e-13
  29 1079.99 0.00000 1.42115e-13
  30 1079.99 0.00000 9.48003e-13
  31 1079.99 0.00000 1.83460e-12
  32 1079.99 0.00000 -9.07794e-13
  33 1079.99 0.00000 -9.05181e-13
  34 1079.99 0.00000 -9.18121e-13
  35 1079.99 0.00000 -8.46009e-13
  36 1079.99 0.00000 5.61519e-14
  37 1079.99 0.00000 -4.30795e-13
  38 1079.99 0.00000 5.60662e-14
  39 1079.99 0.00000 5.91226e-13
  40 1079.99 0.00000 4.71986e-14
  41 1079.99 0.00000 5.61520e-13
  42 1079.99 0.00000 1.01293e-12
  43 1079.99 0.00000 2.47653e-14
  44 1079.99 0.00000 -2.82376e-13
  45 1079.99 0.00000 -6.07901e-13
  46 1079.99 0.00000 -6.04718e-13
  47 1079.99 0.00000 1.85526e-12
  48 1079.99 0.00000 1.43488e-12
  49 1079.99 0.00000 4.94314e-13
  50 1079.99 0.00000 3.17159e-14
  51 1079.99 0.00000 6.57287e-14
  52 1079.99 0.00000 -1.69044e-13
  53 1079.99 0.00000 1.28386e-13
  54 1079.99 0.00000 -1.53753e-13
  55 1079.99 0.00000 -1.38563e-13
  56 1079.99 0.00000 -2.91349e-13
  57 1079.99 0.00000 1.62994e-13
  58 1079.99 0.00000 7.74306e-13
  59 1079.99 0.00000 6.77320e-13
  60 1079.99 0.00000 -4.53490e-13
  61 1079.99 0.00000 5.05676e-13
  62 1079.99 0.00000 2.13953e-13
  63 1079.99 0.00000 -9.42386e-13
  64 1079.99 0.00000 -7.29846e-13
  65 1079.99 0.00000 -1.94937e-13
  66 1079.99 0.00000 1.02096e-13
  67 1079.99 0.00000 3.23379e-13
  68 1079.99 0.00000 -7.90570e-13
  69 1079.99 0.00000 -1.36138e-15
  70 1079.99 0.00000 -2.40483e-13
  71 1079.99 0.00000 5.09567e-13
  72 1079.99 0.00000 3.04232e-14
  73 1079.99 0.00000 6.11641e-13
  74 1079.99 0.00000 1.14472e-12
  75 1079.99 0.00000 -3.47847e-13
  76 1079.99 0.00000 -6.67329e-13
  77 1079.99 0.00000 -2.80628e-14
  78 1079.99 0.00000 1.60314e-13
  79 1079.99 0.00000 8.96022e-13
  80 1079.99 0.00000 5.24021e-13
  81 1079.99 0.00000 -1.47288e-13
  82 1079.99 0.00000 8.16424e-13
  83 1079.99 0.00000 7.96074e-13
  84 1079.99 0.00000 4.92280e-13
  85 1079.99 0.00000 4.45574e-13
  86 1079.99 0.00000 2.85168e-13
  87 1079.99 0.00000 8.23559e-13
  88 1079.99 0.00000 8.56573e-13
  89 1079.99 0.00000 -4.06467e-13
  90 1079.99 0.00000 3.51266e-13
  91 1079.99 0.00000 -1.71208e-13
  92 1079.99 0.00000 -6.87424e-13
  93 1079.99 0.00000 9.21360e-13
  94 1079.99 0.00000 -3.39172e-13
  95 1079.99 0.00000 -1.41510e-12
  96 1079.99 0.00000 -1.15990e-12
  97 1079.99 0.00000 -3.23432e-13
  98 1079.99 0.00000 -7.01633e-13
  99 1079.99 0.00000 8.65718e-13
  100 1079.99 0.00000 -1.60271e-13
  101 1079.99 0.00000 -6.55145e-13
  102 1079.99 0.00000 2.85689e-13
  103 1079.99 0.00000 6.11157e-13
  104 1079.99 0.00000 -8.26928e-13
  105 1079.99 0.00000 -2.55040e-13
  106 1079.99 0.00000 -1.45404e-13
  107 1079.99 0.00000 -1.00622e-12
  108 1079.99 0.00000 -1.23799e-13
  109 1079.99 0.00000 -5.09469e-13
  110 1079.99 0.00000 4.30550e-13
  111 1079.99 0.00000 6.34800e-13
  112 1079.99 0.00000 -6.35350e-13
  113 1079.99 0.00000 1.22643e-13
  114 1079.99 0.00000 4.00695e-13
  115 1079.99 0.00000 -3.11052e-13
  116 1079.99 0.00000 2.60660e-13
  117 1079.99 0.00000 -7.53969e-14
  118 1079.99 0.00000 6.17057e-13
  119 1079.99 0.00000 -3.91125e-13
  120 1079.99 0.00000 1.19740e-13
  121 1079.99 0.00000 5.52541e-13
  122 1079.99 0.00000 2.58998e-14
  123 1079.99 0.00000 6.59116e-14
  124 1079.99 0.00000 3.67586e-13
  125 1079.99 0.00000 7.96903e-13
  126 1079.99 0.00000 4.07890e-14
  127 1079.99 0.00000 -7.75142e-13
  128 1079.99 0.00000 -1.64253e-13
  129 1079.99 0.00000 5.46199e-14
  130 1079.99 0.00000 2.36123e-13
  131 1079.99 0.00000 5.23217e-13
  132 1079.99 0.00000 -1.76885e-13
  133 1079.99 0.00000 -2.39596e-13
  134 1079.99 0.00000 4.43870e-13
  135 1079.99 0.00000 2.04970e-14
  136 1079.99 0.00000 8.07890e-13
  137 1079.99 0.00000 4.71918e-13
  138 1079.99 0.00000 8.68607e-13
  139 1079.99 0.00000 -5.70730e-13
  140 1079.99 0.00000 9.03513e-14
  141 1079.99 0.00000 9.03123e-13
  142 1079.99 0.00000 4.27844e-13
  143 1079.99 0.00000 4.41204e-13
  144 1079.99 0.00000 5.78275e-13
  145 1079.99 0.00000 -3.68201e-13
  146 1079.99 0.00000 -7.43067e-13
  147 1079.99 0.00000 -3.72053e-14
  148 1079.99 0.00000 1.38708e-14
  149 1079.99 0.00000 -8.69843e-13
  150 1079.99 0.00000 4.09046e-13
  151 1079.99 0.00000 1.58595e-14
  152 1079.99 0.00000 7.54382e-13
  153 1079.99 0.00000 1.82673e-13
  154 1079.99 0.00000 2.41956e-13
  155 1079.99 0.00000 -5.06527e-13
  156 1079.99 0.00000 -3.84705e-13
  157 1079.99 0.00000 -2.79672e-13
  158 1079.99 0.00000 -5.54532e-13
  159 1079.99 0.00000 -1.41548e-12
  160 1079.99 0.00000 1.03060e-13
  161 1079.99 0.00000 -1.34854e-12
  162 1079.99 0.00000 8.23766e-13
  163 1079.99 0.00000 -5.63166e-13
  164 1079.99 0.00000 -1.42080e-13
  165 1079.99 0.00000 2.46432e-13
  166 1079.99 0.00000 1.59865e-13
  167 1079.99 0.00000 -1.70249e-13
  168 1079.99 0.00000 8.72088e-13
  169 1079.99 0.00000 -2.77993e-13
  170 1079.99 0.00000 1.55813e-12
  171 1079.99 0.00000 1.20620e-13
  172 1079.99 0.00000 1.33790e-12
  173 1079.99 0.00000 3.42839e-13
  174 1079.99 0.00000 -5.13855e-14
  175 1079.99 0.00000 3.49796e-13
  176 1079.99 0.00000 -3.99216e-13
  177 1079.99 0.00000 1.16731e-12
  178 1079.99 0.00000 -4.87859e-14
  179 1079.99 0.00000 5.22763e-13
  180 1079.99 0.00000 -9.54808e-14
  181 1079.99 0.00000 2.47600e-13
  182 1079.99 0.00000 -5.41670e-14
  183 1079.99 0.00000 -8.83568e-13
  184 1079.99 0.00000 1.11540e-12
  185 1079.99 0.00000 8.75389e-13
  186 1079.99 0.00000 -3.10936e-13
  187 1079.99 0.00000 9.08171e-14
  188 1079.99 0.00000 1.19787e-12
  189 1079.99 0.00000 8.64619e-13
  190 1079.99 0.00000 2.73289e-13
  191 1079.99 0.00000 4.04337e-13
  192 1079.99 0.00000 -3.46540e-13
  193 1079.99 0.00000 9.32940e-15
  194 1079.99 0.00000 3.61964e-14
  195 1079.99 0.00000 2.57797e-13
  196 1079.99 0.00000 6.14928e-13
  197 1079.99 0.00000 -7.63929e-13
  198 1079.99 0.00000 1.61746e-13
  199 1079.99 0.00000 4.82429e-14
  200 1079.99 0.00000 8.24016e-13
  201 1079.99 0.00000 -4.98432e-13
  202 1079.99 0.00000 8.77109e-13
  203 1079.99 0.00000 3.79439e-13
  204 1079.99 0.00000 2.54314e-13
  205 1079.99 0.00000 9.09289e-13
  206 1079.99 0.00000 -3.94833e-13
  207 1079.99 0.00000 -1.95795e-13
  208 1079.99 0.00000 -7.33139e-13
  209 1079.99 0.00000 -6.51979e-13
  210 1079.99 0.00000 -2.06439e-13
  211 1079.99 0.00000 -6.36320e-13
  212 1079.99 0.00000 4.69290e-13
  213 1079.99 0.00000 8.00915e-13
  214 1079.99 0.00000 -2.55177e-13
  215 1079.99 0.00000 -1.88368e-13
  216 1079.99 0.00000 -8.38890e-13
  217 1079.99 0.00000 1.33042e-13
  218 1079.99 0.00000 3.81194e-13
  219 1079.99 0.00000 -5.61642e-13
  220 1079.99 0.00000 -5.21861e-13
  221 1079.99 0.00000 2.20644e-13
  222 1079.99 0.00000 1.15506e-12
  223 1079.99 0.00000 2.22516e-13
  224 1079.99 0.00000 -5.65473e-15
  225 1079.99 0.00000 9.60301e-14
  226 1079.99 0.00000 -6.74784e-14
  227 1079.99 0.00000 3.45286e-13
  228 1079.99 0.00000 -4.82755e-13
  229 1079.99 0.00000 -6.07323e-13
  230 1079.99 0.00000 -5.13073e-14
  231 1079.99 0.00000 -1.60626e-12
  232 1079.99 0.00000 -4.23213e-13
  233 1079.99 0.00000 -1.89918e-13
  234 1079.99 0.00000 -6.88085e-13
  235 1079.99 0.00000 -5.81883e-13
  236 1079.99 0.00000 1.70116e-13
  237 1079.99 0.00000 2.05466e-12
  238 1079.99 0.00000 2.61775e-13
  239 1079.99 0.00000 -4.29729e-13
  240 1079.99 0.00000 -7.24656e-13
  241 1079.99 0.00000 5.45807e-13
</Section>

newXOutput 44

<Section columns = "stress_xx | stress_yy | stress_xy">
  1 1124.42 0.00000 8.79306e-13
  2 1124.42 0.00000 -6.62535e-13
  3 1124.42 0.00000 -2.88697e-12
  4 1124.42 0.00000 -3.55104e-13
  5 1124.42 0.00000 8.82443e-13
  6 1124.42 0.00000 8.94536e-13
  7 1124.42 0.00000 6.84175e-14
  8 1124.42 0.00000 2.41873e-13
  9 1124.42 0.00000 -2.55166e-14
  10 1124.42 0.00000 -6.51628e-13
  11 1124.42 0.00000 3.48743e-13
  12 1124.42 0.00000 4.54178e-13
  13 1124.42 0.00000 -7.92126e-13
  14 1124.42 0.00000 -1.32995e-12
  15 1124.42 0.00000 -5.46412e-15
  16 1124.42 0.00000 -3.44939e-13
  17 1124.42 0.00000 -7.13528e-13
  18 1124.42 0.00000 5.94313e-13
  19 1124.42 0.00000 -3.38301e-13
  20 1124.42 0.00000 -1.56895e-13
  21 1124.42 0.00000 -9.93711e-14
  22 1124.42 0.00000 6.89412e-13
  23 1124.42 0.00000 -1.13631e-12
  24 1124.42 0.00000 4.71870e-13
  25 1124.42 0.00000 3.79391e-13
  26 1124.42 0.00000 8.31259e-13
  27 1124.42 0.00000 1.96727e-12
  28 1124.42 0.00000 -4.74210e-14
  29 1124.42 0.00000 1.16783e-13
  30 1124.42 0.00000 -4.92797e-13
  31 1124.42 0.00000 -2.58134e-12
  32 1124.42 0.00000 -1.02525e-13
  33 1124.42 0.00000 4.39429e-13
  34 1124.42 0.00000 3.47673e-13
  35 1124.42 0.00000 6.23330e-13
  36 1124.42 0.00000 3.06687e-13
  37 1124.42 0.00000 -2.70477e-13
  38 1124.42 0.00000 9.29989e-14
  39 1124.42 0.00000 -2.73884e-13
  40 1124.42 0.00000 6.52829e-13
  41 1124.42 0.00000 6.32831e-13
  42 1124.42 0.00000 9.67851e-14
  43 1124.42 0.00000 4.24870e-13
  44 1124.42 0.00000 4.43408e-13
  45 1124.42 0.00000 3.26849e-13
  46 1124.42 0.00000 3.46418e-13
  47 1124.42 0.00000 -1.51930e-12
  48 1124.42 0.00000 -1.89957e-12
  49 1124.42 0.00000 -1.17864e-12
  50 1124.42 0.00000 5.47044e-14
  51 1124.42 0.00000 0.00000
  52 1124.42 0.00000 2.04004e-14
  53 1124.42 0.00000 -4.63957e-13
  54 1124.42 0.00000 5.02209e-13
  55 1124.42 0.00000 7.70189e-13
  56 1124.42 0.00000 6.55926e-14
  57 1124.42 0.00000 -9.21473e-14
  58 1124.42 0.00000 -1.87309e-13
  59 1124.42 0.00000 -6.76280e-13
  60 1124.42 0.00000 6.94927e-13
  61 1124.42 0.00000 -2.88319e-13
  62 1124.42 0.00000 -2.00078e-13
  63 1124.42 0.00000 1.04872e-12
  64 1124.42 0.00000 -5.86012e-14
  65 1124.42 0.00000 1.12144e-13
  66 1124.42 0.00000 -2.71097e-13
  67 1124.42 0.00000 -5.15045e-14
  68 1124.42 0.00000 1.12989e-12
  69 1124.42 0.00000 -3.96461e-13
  70 1124.42 0.00000 6.00985e-13
  71 1124.42 0.00000 -1.62312e-13
  72 1124.42 0.00000 -4.13673e-13
  73 1124.42 0.00000 -4.30661e-13
  74 1124.42 0.00000 -7.73750e-13
  75 1124.42 0.00000 -3.00353e-13
  76 1124.42 0.00000 1.12443e-12
  77 1124.42 0.00000 -1.46440e-13
  78 1124.42 0.00000 -2.50349e-13
  79 1124.42 0.00000 -3.91234e-13
  80 1124.42 0.00000 -4.01166e-13
  81 1124.42 0.00000 5.27973e-13
  82 1124.42 0.00000 -9.93695e-13
  83 1124.42 0.00000 -5.85944e-13
  84 1124.42 0.00000 9.82197e-14
  85 1124.42 0.00000 -2.74281e-13
  86 1124.42 0.00000 1.97743e-13
  87 1124.42 0.00000 -6.33581e-13
  88 1124.42 0.00000 -1.44175e-12
  89 1124.42 0.00000 2.65087e-13
  90 1124.42 0.00000 -4.05381e-14
  91 1124.42 0.00000 -8.01074e-14
  92 1124.42 0.00000 6.78454e-13
  93 1124.42 0.00000 -1.02619e-12
  94 1124.42 0.00000 -8.21719e-14
  95 1124.42 0.00000 2.38248e-13
  96 1124.42 0.00000 1.35890e-12
  97 1124.42 0.00000 5.03562e-13
  98 1124.42 0.00000 7.15212e-14
  99 1124.42 0.00000 -2.69648e-14
  100 1124.42 0.00000 -2.47686e-13
  101 1124.42 0.00000 2.07208e-13
  102 1124.42 0.00000 -1.71522e-13
  103 1124.42 0.00000 -3.89241e-13
  104 1124.42 0.00000 8.71816e-13
  105 1124.42 0.00000 -1.62553e-13
  106 1124.42 0.00000 1.93455e-13
  107 1124.42 0.00000 4.24157e-13
  108 1124.42 0.00000 2.44361e-13
  109 1124.42 0.00000 1.08907e-12
  110 1124.42 0.00000 -3.21641e-13
  111 1124.42 0.00000 -4.31275e-13
  112 1124.42 0.00000 1.98011e-13
  113 1124.42 0.00000 3.42294e-13
  114 1124.42 0.00000 -7.86987e-13
  115 1124.42 0.00000 4.85634e-14
  116 1124.42 0.00000 1.29674e-13
  117 1124.42 0.00000 -4.21139e-13
  118 1124.42 0.00000 -5.30227e-13
  119 1124.42 0.00000 3.37828e-13
  120 1124.42 0.00000 4.77632e-14
  121 1124.42 0.00000 -3.53843e-13
  122 1124.42 0.00000 2.12289e-13
  123 1124.42 0.00000 -7.19430e-13
  124 1124.42 0.00000 -4.25234e-13
  125 1124.42 0.00000 -9.86707e-13
  126 1124.42 0.00000 1.24308e-13
  127 1124.42 0.00000 1.17754e-12
  128 1124.42 0.00000 1.00217e-13
  129 1124.42 0.00000 -2.38858e-14
  130 1124.42 0.00000 -3.12355e-13
  131 1124.42 0.00000 -6.67897e-13
  132 1124.42 0.00000 -1.70032e-13
  133 1124.42 0.00000 8.48757e-15
  134 1124.42 0.00000 -2.52165e-14
  135 1124.42 0.00000 6.66055e-13
  136 1124.42 0.00000 -9.74990e-13
  137 1124.42 0.00000 2.78443e-13
  138 1124.42 0.00000 -1.04325e-12
  139 1124.42 0.00000 6.19974e-13
  140 1124.42 0.00000 -2.19855e-13
  141 1124.42 0.00000 -4.83278e-13
  142 1124.42 0.00000 -2.64349e-13
  143 1124.42 0.00000 -1.83753e-13
  144 1124.42 0.00000 -1.80886e-13
  145 1124.42 0.00000 -1.52952e-13
  146 1124.42 0.00000 4.40790e-13
  147 1124.42 0.00000 -1.82283e-13
  148 1124.42 0.00000 1.32505e-13
  149 1124.42 0.00000 1.26541e-12
  150 1124.42 0.00000 -7.05980e-13
  151 1124.42 0.00000 -2.72476e-13
  152 1124.42 0.00000 3.12533e-14
  153 1124.42 0.00000 -1.72195e-13
  154 1124.42 0.00000 -6.92839e-13
  155 1124.42 0.00000 6.87635e-13
  156 1124.42 0.00000 -6.70517e-13
  157 1124.42 0.00000 3.10619e-13
  158 1124.42 0.00000 8.83231e-13
  159 1124.42 0.00000 1.54037e-12
  160 1124.42 0.00000 -6.20628e-13
  161 1124.42 0.00000 2.08881e-12
  162 1124.42 0.00000 -8.81249e-13
  163 1124.42 0.00000 1.11908e-12
  164 1124.42 0.00000 1.61252e-14
  165 1124.42 0.00000 1.96599e-13
  166 1124.42 0.00000 1.20826e-13
  167 1124.42 0.00000 3.09964e-13
  168 1124.42 0.00000 -2.33271e-13
  169 1124.42 0.00000 3.08214e-13
  170 1124.42 0.00000 -1.39142e-12
  171 1124.42 0.00000 -1.93283e-13
  172 1124.42 0.00000 -1.15132e-12
  173 1124.42 0.00000 -5.34100e-13
  174 1124.42 0.00000 -4.79416e-13
  175 1124.42 0.00000 -5.39444e-13
  176 1124.42 0.00000 -7.78762e-14
  177 1124.42 0.00000 -1.51907e-12
  178 1124.42 0.00000 3.14376e-13
  179 1124.42 0.00000 -5.15127e-13
  180 1124.42 0.00000 2.66972e-13
  181 1124.42 0.00000 1.76065e-13
  182 1124.42 0.00000 -2.62704e-13
  183 1124.42 0.00000 3.16178e-13
  184 1124.42 0.00000 -1.42429e-12
  185 1124.42 0.00000 -5.93276e-13
  186 1124.42 0.00000 8.84675e-13
  187 1124.42 0.00000 -8.25885e-13
  188 1124.42 0.00000 -8.19516e-13
  189 1124.42 0.00000 -6.13787e-13
  190 1124.42 0.00000 -8.62373e-14
  191 1124.42 0.00000 -2.44454e-13
  192 1124.42 0.00000 9.04528e-13
  193 1124.42 0.00000 -5.68165e-13
  194 1124.42 0.00000 3.36911e-13
  195 1124.42 0.00000 4.19168e-13
  196 1124.42 0.00000 6.43601e-14
  197 1124.42 0.00000 9.22205e-13
  198 1124.42 0.00000 8.02240e-14
  199 1124.42 0.00000 3.85421e-14
  200 1124.42 0.00000 -6.74508e-13
  201 1124.42 0.00000 5.59118e-13
  202 1124.42 0.00000 -9.99008e-13
  203 1124.42 0.00000 -3.23058e-13
  204 1124.42 0.00000 -5.39786e-13
  205 1124.42 0.00000 -5.35735e-13
  206 1124.42 0.00000 1.76086e-13
  207 1124.42 0.00000 2.66198e-13
  208 1124.42 0.00000 4.62225e-13
  209 1124.42 0.00000 7.70336e-13
  210 1124.42 0.00000 -2.81660e-13
  211 1124.42 0.00000 7.56895e-13
  212 1124.42 0.00000 -2.08364e-13
  213 1124.42 0.00000 -1.08795e-12
  214 1124.42 0.00000 2.32146e-13
  215 1124.42 0.00000 1.22635e-13
  216 1124.42 0.00000 -2.32048e-15
  217 1124.42 0.00000 -5.40175e-13
  218 1124.42 0.00000 -7.56380e-13
  219 1124.42 0.00000 1.03312e-12
  220 1124.42 0.00000 5.15126e-13
  221 1124.42 0.00000 -3.93081e-13
  222 1124.42 0.00000 1.15213e-13
  223 1124.42 0.00000 -6.73373e-14
  224 1124.42 0.00000 -3.51721e-14
  225 1124.42 0.00000 2.35849e-13
  226 1124.42 0.00000 -5.03829e-13
  227 1124.42 0.00000 -6.02881e-13
  228 1124.42 0.00000 -1.10141e-13
  229 1124.42 0.00000 8.57230e-13
  230 1124.42 0.00000 4.99735e-13
  231 1124.42 0.00000 1.48525e-12
  232 1124.42 0.00000 -8.00583e-14
  233 1124.42 0.00000 1.01780e-13
  234 1124.42 0.00000 -1.57649e-13
  235 1124.42 0.00000 2.28298e-13
  236 1124.42 0.00000 3.26923e-13
  237 1124.42 0.00000 -1.36253e-12
  238 1124.42 0.00000 -3.53390e-14
  239 1124.42 0.00000 5.46566e-13
  240 1124.42 0.00000 4.39486e-13
  241 1124.42 0.00000 -1.04659e-12
</Section>

newXOutput 45

<Section columns = "stress_xx | stress_yy | stress_xy">
  1 1168.98 0.00000 -1.99438e-13
  2 1168.98 0.00000 -4.71206e-13
  3 1168.98 0.00000 2.13735e-12
  4 1168.98 0.00000 7.00541e-14
  5 1168.98 0.00000 -6.20513e-13
  6 1168.98 0.00000 -1.53323e-12
  7 1168.98 0.00000 -6.22688e-13
  8 1168.98 0.00000 -3.25838e-13
  9 1168.98 0.00000 8.13753e-14
  10 1168.98 0.00000 4.10256e-13
  11 1168.98 0.00000 -8.50996e-13
  12 1168.98 0.00000 -5.51120e-13
  13 1168.98 0.00000 4.37757e-13
  14 1168.98 0.00000 -1.40016e-13
  15 1168.98 0.00000 -1.05290e-12
  16 1168.98 0.00000 -6.27462e-13
  17 1168.98 0.00000 -5.03705e-14
  18 1168.98 0.00000 -4.61957e-13
  19 1168.98 0.00000 -5.36598e-13
  20 1168.98 0.00000 -6.56697e-14
  21 1168.98 0.00000 -6.57540e-13
  22 1168.98 0.00000 -7.19268e-13
  23 1168.98 0.00000 -2.50836e-13
  24 1168.98 0.00000 -3.74275e-13
  25 1168.98 0.00000 -1.38875e-13
  26 1168.98 0.00000 -8.38460e-13
  27 1168.98 0.00000 -1.32244e-12
  28 1168.98 0.00000 2.75005e-13
  29 1168.98 0.00000 -1.89904e-13
  30 1168.98 0.00000 4.77110e-13
  31 1168.98 0.00000 1.64816e-12
  32 1168.98 0.00000 -1.62122e-12
  33 1168.98 0.00000 -1.06162e-12
  34 1168.98 0.00000 -8.20210e-13
  35 1168.98 0.00000 -1.23178e-13
  36 1168.98 0.00000 3.77308e-13
  37 1168.98 0.00000 1.17870e-12
  38 1168.98 0.00000 1.65082e-13
  39 1168.98 0.00000 -2.20487e-13
  40 1168.98 0.00000 -8.20971e-13
  41 1168.98 0.00000 -1.04841e-13
  42 1168.98 0.00000 3.53147e-15
  43 1168.98 0.00000 -4.23534e-13
  44 1168.98 0.00000 -4.19835e-13
  45 1168.98 0.00000 -6.99066e-13
  46 1168.98 0.00000 -1.15908e-12
  47 1168.98 0.00000 9.23113e-13
  48 1168.98 0.00000 1.32846e-12
  49 1168.98 0.00000 4.68784e-13
  50 1168.98 0.00000 2.43363e-14
  51 1168.98 0.00000 2.19616e-14
  52 1168.98 0.00000 1.75002e-13
  53 1168.98 0.00000 5.46083e-13
  54 1168.98 0.00000 -9.66467e-13
  55 1168.98 0.00000 -8.51347e-13
  56 1168.98 0.00000 2.00959e-13
  57 1168.98 0.00000 -2.27088e-13
  58 1168.98 0.00000 7.61875e-13
  59 1168.98 0.00000 2.71655e-13
  60 1168.98 0.00000 -7.10472e-13
  61 1168.98 0.00000 5.75819e-14
  62 1168.98 0.00000 2.65526e-13
  63 1168.98 0.00000 -7.39585e-13
  64 1168.98 0.00000 2.81876e-13
  65 1168.98 0.00000 -9.31712e-14
  66 1168.98 0.00000 -4.06369e-13
  67 1168.98 0.00000 -4.95051e-13
  68 1168.98 0.00000 -9.15655e-13
  69 1168.98 0.00000 -1.04934e-13
  70 1168.98 0.00000 1.35204e-13
  71 1168.98 0.00000 7.68476e-15
  72 1168.98 0.00000 9.47617e-15
  73 1168.98 0.00000 3.84410e-13
  74 1168.98 0.00000 4.71361e-13
  75 1168.98 0.00000 2.57683e-13
  76 1168.98 0.00000 -3.16026e-13
  77 1168.98 0.00000 1.30550e-13
  78 1168.98 0.00000 -3.24572e-13
  79 1168.98 0.00000 8.60684e-14
  80 1168.98 0.00000 -2.92109e-13
  81 1168.98 0.00000 -1.03759e-12
  82 1168.98 0.00000 9.32238e-13
  83 1168.98 0.00000 1.92923e-14
  84 1168.98 0.00000 1.91540e-13
  85 1168.98 0.00000 1.91852e-13
  86 1168.98 0.00000 3.27396e-13
  87 1168.98 0.00000 9.41374e-13
  88 1168.98 0.00000 6.00521e-13
  89 1168.98 0.00000 2.70692e-13
  90 1168.98 0.00000 -1.78633e-13
  91 1168.98 0.00000 6.21318e-14
  92 1168.98 0.00000 -4.76548e-13
  93 1168.98 0.00000 1.25168e-12
  94 1168.98 0.00000 -4.50221e-13
  95 1168.98 0.00000 2.27270e-13
  96 1168.98 0.00000 -1.60487e-12
  97 1168.98 0.00000 -5.95898e-13
  98 1168.98 0.00000 2.38750e-13
  99 1168.98 0.00000 5.24473e-13
  100 1168.98 0.00000 -2.23738e-13
  101 1168.98 0.00000 -2.82932e-13
  102 1168.98 0.00000 3.35034e-13
  103 1168.98 0.00000 -1.61405e-13
  104 1168.98 0.00000 -5.54763e-13
  105 1168.98 0.00000 -3.40947e-13
  106 1168.98 0.00000 -2.94260e-13
  107 1168.98 0.00000 -6.38091e-13
  108 1168.98 0.00000 -8.89598e-14
  109 1168.98 0.00000 -1.72632e-12
  110 1168.98 0.00000 4.84183e-13
  111 1168.98 0.00000 1.40038e-13
  112 1168.98 0.00000 -7.60491e-14
  113 1168.98 0.00000 -4.63806e-13
  114 1168.98 0.00000 9.71165e-13
  115 1168.98 0.00000 1.71367e-15
  116 1168.98 0.00000 1.97500e-13
  117 1168.98 0.00000 7.74423e-13
  118 1168.98 0.00000 4.42965e-13
  119 1168.98 0.00000 4.62846e-15
  120 1168.98 0.00000 6.51483e-14
  121 1168.98 0.00000 -2.36139e-14
  122 1168.98 0.00000 -3.22812e-13
  123 1168.98 0.00000 3.22866e-13
  124 1168.98 0.00000 -1.25107e-13
  125 1168.98 0.00000 5.55096e-13
  126 1168.98 0.00000 -4.52613e-13
  127 1168.98 0.00000 -1.26318e-12
  128 1168.98 0.00000 -2.21660e-13
  129 1168.98 0.00000 -3.81483e-13
  130 1168.98 0.00000 -3.63044e-14
  131 1168.98 0.00000 7.12919e-13
  132 1168.98 0.00000 3.46130e-14
  133 1168.98 0.00000 -6.86922e-13
  134 1168.98 0.00000 -7.75398e-14
  135 1168.98 0.00000 -5.92990e-13
  136 1168.98 0.00000 8.03463e-13
  137 1168.98 0.00000 -9.25319e-13
  138 1168.98 0.00000 3.02955e-13
  139 1168.98 0.00000 -5.28637e-13
  140 1168.98 0.00000 -6.45609e-14
  141 1168.98 0.00000 1.51726e-13
  142 1168.98 0.00000 6.06182e-14
  143 1168.98 0.00000 2.46034e-13
  144 1168.98 0.00000 3.34070e-13
  145 1168.98 0.00000 4.35378e-13
  146 1168.98 0.00000 -8.56228e-14
  147 1168.98 0.00000 -4.54361e-13
  148 1168.98 0.00000 -4.24724e-13
  149 1168.98 0.00000 -8.50461e-13
  150 1168.98 0.00000 7.03052e-13
  151 1168.98 0.00000 1.06866e-13
  152 1168.98 0.00000 8.77091e-13
  153 1168.98 0.00000 -2.58371e-13
  154 1168.98 0.00000 6.48711e-14
  155 1168.98 0.00000 -7.11267e-13
  156 1168.98 0.00000 5.48165e-13
  157 1168.98 0.00000 -2.30992e-13
  158 1168.98 0.00000 -1.58130e-12
  159 1168.98 0.00000 -1.63079e-12
  160 1168.98 0.00000 9.22473e-13
  161 1168.98 0.00000 -1.76475e-12
  162 1168.98 0.00000 1.81052e-13
  163 1168.98 0.00000 -1.80643e-12
  164 1168.98 0.00000 -3.23280e-13
  165 1168.98 0.00000 -4.20144e-13
  166 1168.98 0.00000 1.46847e-14
  167 1168.98 0.00000 -1.98414e-13
  168 1168.98 0.00000 4.83780e-13
  169 1168.98 0.00000 -4.16499e-13
  170 1168.98 0.00000 -1.36175e-14
  171 1168.98 0.00000 -2.25167e-13
  172 1168.98 0.00000 1.18288e-12
  173 1168.98 0.00000 2.88597e-13
  174 1168.98 0.00000 -1.02471e-13
  175 1168.98 0.00000 5.22042e-13
  176 1168.98 0.00000 5.68820e-13
  177 1168.98 0.00000 6.67132e-13
  178 1168.98 0.00000 -6.65735e-13
  179 1168.98 0.00000 1.83021e-13
  180 1168.98 0.00000 -2.90454e-13
  181 1168.98 0.00000 1.58078e-13
  182 1168.98 0.00000 4.30448e-13
  183 1168.98 0.00000 -2.22136e-14
  184 1168.98 0.00000 9.74986e-14
  185 1168.98 0.00000 6.51808e-14
  186 1168.98 0.00000 -1.23769e-12
  187 1168.98 0.00000 -3.16210e-13
  188 1168.98 0.00000 5.52662e-13
  189 1168.98 0.00000 4.61465e-13
  190 1168.98 0.00000 3.17478e-14
  191 1168.98 0.00000 -1.12111e-14
  192 1168.98 0.00000 -5.02929e-13
  193 1168.98 0.00000 5.05924e-13
  194 1168.98 0.00000 -8.08961e-14
  195 1168.98 0.00000 -3.51343e-13
  196 1168.98 0.00000 -2.51245e-13
  197 1168.98 0.00000 -1.34933e-12
  198 1168.98 0.00000 -3.41163e-13
  199 1168.98 0.00000 -5.72763e-14
  200 1168.98 0.00000 5.67136e-13
  201 1168.98 0.00000 -1.88290e-13
  202 1168.98 0.00000 9.91360e-13
  203 1168.98 0.00000 8.78345e-14
  204 1168.98 0.00000 -9.84685e-15
  205 1168.98 0.00000 4.40133e-13
  206 1168.98 0.00000 -4.51734e-13
  207 1168.98 0.00000 -6.29811e-13
  208 1168.98 0.00000 -1.88662e-13
  209 1168.98 0.00000 -1.05299e-13
  210 1168.98 0.00000 5.22948e-13
  211 1168.98 0.00000 -3.93898e-13
  212 1168.98 0.00000 1.96551e-13
  213 1168.98 0.00000 7.47568e-13
  214 1168.98 0.00000 4.86642e-13
  215 1168.98 0.00000 -7.24193e-13
  216 1168.98 0.00000 -1.90605e-13
  217 1168.98 0.00000 1.99078e-13
  218 1168.98 0.00000 8.13426e-13
  219 1168.98 0.00000 -4.91701e-13
  220 1168.98 0.00000 -2.44147e-13
  221 1168.98 0.00000 7.45303e-14
  222 1168.98 0.00000 1.48113e-12
  223 1168.98 0.00000 -2.09371e-13
  224 1168.98 0.00000 -6.94931e-13
  225 1168.98 0.00000 -3.88190e-13
  226 1168.98 0.00000 4.99722e-14
  227 1168.98 0.00000 8.02780e-13
  228 1168.98 0.00000 -2.17802e-13
  229 1168.98 0.00000 -1.14557e-12
  230 1168.98 0.00000 -3.92395e-13
  231 1168.98 0.00000 -1.48745e-12
  232 1168.98 0.00000 4.78129e-14
  233 1168.98 0.00000 1.48211e-12
  234 1168.98 0.00000 1.19568e-13
  235 1168.98 0.00000 -6.01970e-13
  236 1168.98 0.00000 1.35202e-13
  237 1168.98 0.00000 1.16774e-12
  238 1168.98 0.00000 -6.30074e-14
  239 1168.98 0.00000 -6.60343e-13
  240 1168.98 0.00000 -5.60227e-14
  241 1168.98 0.00000 4.79572e-13
</Section>

newXOutput 46

<Section columns = "stress_xx | stress_yy | stress_xy">
  1 1213.68 0.00000 4.62286e-13
  2 1213.68 0.00000 1.04579e-12
  3 1213.68 0.00000 -1.14916e-12
  4 1213.68 0.00000 -1.15822e-13
  5 1213.68 0.00000 2.61152e-13
  6 1213.68 0.00000 8.56079e-13
  7 1213.68 0.00000 2.51255e-13
  8 1213.68 0.00000 1.23069e-13
  9 1213.68 0.00000 -3.96688e-13
  10 1213.68 0.00000 -1.28045e-13
  11 1213.68 0.00000 1.49588e-12
  12 1213.68 0.00000 4.04584e-13
  13 1213.68 0.00000 -1.96613e-13
  14 1213.68 0.00000 8.10151e-13
  15 1213.68 0.00000 7.49299e-13
  16 1213.68 0.00000 1.12798e-13
  17 1213.68 0.00000 -1.03168e-12
  18 1213.68 0.00000 -2.98200e-13
  19 1213.68 0.00000 -1.85495e-13
  20 1213.68 0.00000 6.92340e-13
  21 1213.68 0.00000 8.80203e-13
  22 1213.68 0.00000 3.47654e-13
  23 1213.68 0.00000 6.36314e-13
  24 1213.68 0.00000 2.19429e-13
  25 1213.68 0.00000 8.79505e-14
  26 1213.68 0.00000 7.93459e-13
  27 1213.68 0.00000 2.22748e-12
  28 1213.68 0.00000 6.72807e-13
  29 1213.68 0.00000 2.19876e-14
  30 1213.68 0.00000 -8.56123e-13
  31 1213.68 0.00000 -1.15401e-12
  32 1213.68 0.00000 1.56108e-12
  33 1213.68 0.00000 1.08767e-12
  34 1213.68 0.00000 -3.70313e-15
  35 1213.68 0.00000 -1.37671e-13
  36 1213.68 0.00000 -6.20067e-13
  37 1213.68 0.00000 -6.78063e-13
  38 1213.68 0.00000 4.87101e-13
  39 1213.68 0.00000 7.33924e-13
  40 1213.68 0.00000 8.62169e-13
  41 1213.68 0.00000 2.28771e-13
  42 1213.68 0.00000 3.00962e-14
  43 1213.68 0.00000 -2.89772e-13
  44 1213.68 0.00000 -5.18445e-13
  45 1213.68 0.00000 5.53735e-13
  46 1213.68 0.00000 9.13943e-13
  47 1213.68 0.00000 -8.14000e-13
  48 1213.68 0.00000 -1.34487e-12
  49 1213.68 0.00000 -5.87810e-13
  50 1213.68 0.00000 -2.72274e-14
  51 1213.68 0.00000 -8.79505e-14
  52 1213.68 0.00000 -3.24053e-13
  53 1213.68 0.00000 -2.32932e-13
  54 1213.68 0.00000 7.82247e-13
  55 1213.68 0.00000 8.69631e-13
  56 1213.68 0.00000 -6.35695e-15
  57 1213.68 0.00000 2.04549e-13
  58 1213.68 0.00000 -7.82133e-13
  59 1213.68 0.00000 8.62754e-14
  60 1213.68 0.00000 -2.96824e-13
  61 1213.68 0.00000 -5.87835e-13
  62 1213.68 0.00000 -5.32391e-13
  63 1213.68 0.00000 4.79580e-13
  64 1213.68 0.00000 5.39068e-13
  65 1213.68 0.00000 2.80466e-13
  66 1213.68 0.00000 6.29807e-13
  67 1213.68 0.00000 7.30122e-13
  68 1213.68 0.00000 7.44174e-13
  69 1213.68 0.00000 2.33636e-13
  70 1213.68 0.00000 -2.92318e-13
  71 1213.68 0.00000 -3.83049e-13
  72 1213.68 0.00000 -6.44872e-14
  73 1213.68 0.00000 -1.49197e-13
  74 1213.68 0.00000 -7.44097e-13
  75 1213.68 0.00000 -3.37933e-13
  76 1213.68 0.00000 1.41621e-13
  77 1213.68 0.00000 2.11258e-13
  78 1213.68 0.00000 6.53532e-13
  79 1213.68 0.00000 -4.89353e-13
  80 1213.68 0.00000 -9.21746e-14
  81 1213.68 0.00000 4.79976e-14
  82 1213.68 0.00000 -4.52128e-13
  83 1213.68 0.00000 4.31382e-14
  84 1213.68 0.00000 -2.55542e-13
  85 1213.68 0.00000 3.13744e-13
  86 1213.68 0.00000 -6.09241e-13
  87 1213.68 0.00000 -7.33197e-13
  88 1213.68 0.00000 -2.20638e-12
  89 1213.68 0.00000 4.39716e-13
  90 1213.68 0.00000 -7.82131e-14
  91 1213.68 0.00000 -4.93531e-14
  92 1213.68 0.00000 4.60816e-13
  93 1213.68 0.00000 -1.02791e-12
  94 1213.68 0.00000 1.01792e-12
  95 1213.68 0.00000 -7.10323e-13
  96 1213.68 0.00000 1.59012e-12
  97 1213.68 0.00000 5.71651e-13
  98 1213.68 0.00000 -3.28105e-13
  99 1213.68 0.00000 -1.58007e-13
  100 1213.68 0.00000 7.25747e-13
  101 1213.68 0.00000 8.23489e-13
  102 1213.68 0.00000 -4.99684e-13
  103 1213.68 0.00000 -4.00922e-13
  104 1213.68 0.00000 8.76499e-13
  105 1213.68 0.00000 -1.25872e-13
  106 1213.68 0.00000 -1.81364e-13
  107 1213.68 0.00000 9.72392e-13
  108 1213.68 0.00000 -6.56468e-14
  109 1213.68 0.00000 1.25737e-12
  110 1213.68 0.00000 5.94549e-13
  111 1213.68 0.00000 -2.90908e-13
  112 1213.68 0.00000 5.86595e-14
  113 1213.68 0.00000 4.13153e-13
  114 1213.68 0.00000 -2.80600e-13
  115 1213.68 0.00000 3.58493e-14
  116 1213.68 0.00000 -2.49966e-13
  117 1213.68 0.00000 -1.09538e-13
  118 1213.68 0.00000 -2.69458e-13
  119 1213.68 0.00000 1.02750e-12
  120 1213.68 0.00000 -3.67199e-13
  121 1213.68 0.00000 4.02916e-13
  122 1213.68 0.00000 2.94683e-14
  123 1213.68 0.00000 2.68914e-13
  124 1213.68 0.00000 3.76749e-14
  125 1213.68 0.00000 -8.61427e-13
  126 1213.68 0.00000 1.34643e-13
  127 1213.68 0.00000 9.03586e-13
  128 1213.68 0.00000 8.13974e-13
  129 1213.68 0.00000 7.36830e-14
  130 1213.68 0.00000 -5.19406e-13
  131 1213.68 0.00000 -2.80957e-13
  132 1213.68 0.00000 -7.36766e-13
  133 1213.68 0.00000 4.71293e-13
  134 1213.68 0.00000 -1.00056e-13
  135 1213.68 0.00000 2.63861e-13
  136 1213.68 0.00000 -9.85054e-13
  137 1213.68 0.00000 4.11903e-13
  138 1213.68 0.00000 -3.03177e-13
  139 1213.68 0.00000 6.46619e-13
  140 1213.68 0.00000 4.52431e-14
  141 1213.68 0.00000 -7.74794e-13
  142 1213.68 0.00000 -9.39446e-14
  143 1213.68 0.00000 -1.65862e-13
  144 1213.68 0.00000 -9.07460e-13
  145 1213.68 0.00000 -2.71164e-13
  146 1213.68 0.00000 -1.48193e-13
  147 1213.68 0.00000 4.46359e-13
  148 1213.68 0.00000 4.01523e-13
  149 1213.68 0.00000 1.48705e-12
  150 1213.68 0.00000 -2.99820e-13
  151 1213.68 0.00000 -4.90057e-13
  152 1213.68 0.00000 -9.83753e-13
  153 1213.68 0.00000 5.04077e-14
  154 1213.68 0.00000 -2.35074e-13
  155 1213.68 0.00000 2.75999e-13
  156 1213.68 0.00000 -1.62587e-13
  157 1213.68 0.00000 6.40481e-13
  158 1213.68 0.00000 1.67630e-13
  159 1213.68 0.00000 8.66033e-13
  160 1213.68 0.00000 -3.43215e-13
  161 1213.68 0.00000 1.44361e-12
  162 1213.68 0.00000 -2.96251e-13
  163 1213.68 0.00000 9.52146e-13
  164 1213.68 0.00000 2.40644e-13
  165 1213.68 0.00000 1.71957e-13
  166 1213.68 0.00000 -1.65240e-13
  167 1213.68 0.00000 -1.57054e-15
  168 1213.68 0.00000 -7.66614e-13
  169 1213.68 0.00000 5.73098e-13
  170 1213.68 0.00000 1.17610e-14
  171 1213.68 0.00000 4.60258e-13
  172 1213.68 0.00000 -4.72399e-13
  173 1213.68 0.00000 -4.54199e-13
  174 1213.68 0.00000 3.33489e-13
  175 1213.68 0.00000 -5.86823e-13
  176 1213.68 0.00000 -3.47614e-13
  177 1213.68 0.00000 -1.03194e-12
  178 1213.68 0.00000 6.94888e-13
  179 1213.68 0.00000 -2.40891e-13
  180 1213.68 0.00000 1.48699e-13
  181 1213.68 0.00000 -2.45709e-13
  182 1213.68 0.00000 -4.43099e-13
  183 1213.68 0.00000 -4.14925e-13
  184 1213.68 0.00000 -3.77595e-13
  185 1213.68 0.00000 1.86845e-13
  186 1213.68 0.00000 1.09904e-12
  187 1213.68 0.00000 -2.31492e-13
  188 1213.68 0.00000 4.39334e-13
  189 1213.68 0.00000 -8.66415e-14
  190 1213.68 0.00000 7.83468e-14
  191 1213.68 0.00000 2.47348e-13
  192 1213.68 0.00000 8.57828e-13
  193 1213.68 0.00000 -6.84111e-13
  194 1213.68 0.00000 -3.87597e-14
  195 1213.68 0.00000 1.11627e-13
  196 1213.68 0.00000 -6.14560e-14
  197 1213.68 0.00000 1.40108e-12
  198 1213.68 0.00000 4.65923e-13
  199 1213.68 0.00000 2.13149e-14
  200 1213.68 0.00000 -4.91153e-13
  201 1213.68 0.00000 1.24334e-13
  202 1213.68 0.00000 -9.40746e-13
  203 1213.68 0.00000 -6.50719e-13
  204 1213.68 0.00000 -4.78072e-13
  205 1213.68 0.00000 -2.86368e-13
  206 1213.68 0.00000 1.24497e-12
  207 1213.68 0.00000 9.21300e-14
  208 1213.68 0.00000 -4.06438e-13
  209 1213.68 0.00000 -5.01072e-13
  210 1213.68 0.00000 -3.79162e-13
  211 1213.68 0.00000 2.99560e-13
  212 1213.68 0.00000 8.80312e-14
  213 1213.68 0.00000 -1.12384e-12
  214 1213.68 0.00000 -1.18796e-12
  215 1213.68 0.00000 -3.35357e-13
  216 1213.68 0.00000 -6.66887e-13
  217 1213.68 0.00000 8.10779e-14
  218 1213.68 0.00000 -7.66109e-13
  219 1213.68 0.00000 1.01259e-12
  220 1213.68 0.00000 -5.87139e-16
  221 1213.68 0.00000 -4.30880e-13
  222 1213.68 0.00000 -1.02556e-12
  223 1213.68 0.00000 1.88062e-13
  224 1213.68 0.00000 3.11607e-13
  225 1213.68 0.00000 1.15988e-12
  226 1213.68 0.00000 3.73665e-13
  227 1213.68 0.00000 -5.89173e-13
  228 1213.68 0.00000 1.66829e-14
  229 1213.68 0.00000 9.79765e-13
  230 1213.68 0.00000 1.33268e-12
  231 1213.68 0.00000 1.20725e-12
  232 1213.68 0.00000 7.01992e-13
  233 1213.68 0.00000 -4.95612e-13
  234 1213.68 0.00000 -1.06825e-12
  235 1213.68 0.00000 4.26829e-13
  236 1213.68 0.00000 2.00887e-13
  237 1213.68 0.00000 -1.25454e-12
  238 1213.68 0.00000 1.88659e-15
  239 1213.68 0.00000 4.08937e-13
  240 1213.68 0.00000 2.86832e-13
  241 1213.68 0.00000 3.00434e-13
</Section>

newXOutput 47

<Section columns = "stress_xx | stress_yy | stress_xy">
  1 1258.53 0.00000 -1.81074e-13
  2 1258.53 0.00000 -9.68940e-15
  3 1258.53 0.00000 8.82857e-13
  4 1258.53 0.00000 1.69588e-13
  5 1258.53 0.00000 -2.03846e-13
  6 1258.53 0.00000 -1.33393e-12
  7 1258.53 0.00000 -3.42591e-13
  8 1258.53 0.00000 -1.84341e-13
  9 1258.53 0.00000 2.72325e-13
  10 1258.53 0.00000 1.61071e-13
  11 1258.53 0.00000 -1.37300e-12
  12 1258.53 0.00000 4.08000e-13
  13 1258.53 0.00000 6.06182e-13
  14 1258.53 0.00000 -5.30032e-13
  15 1258.53 0.00000 -1.12574e-13
  16 1258.53 0.00000 2.66033e-13
  17 1258.53 0.00000 2.39062e-13
  18 1258.53 0.00000 4.77099e-13
  19 1258.53 0.00000 -5.65685e-13
  20 1258.53 0.00000 -3.82632e-13
  21 1258.53 0.00000 5.59871e-13
  22 1258.53 0.00000 3.09556e-13
  23 1258.53 0.00000 -8.82808e-15
  24 1258.53 0.00000 -1.95057e-13
  25 1258.53 0.00000 0.00000
  26 1258.53 0.00000 -1.37561e-12
  27 1258.53 0.00000 -2.17702e-12
  28 1258.53 0.00000 -4.54728e-13
  29 1258.53 0.00000 -8.59493e-13
  30 1258.53 0.00000 -1.60281e-13
  31 1258.53 0.00000 7.80150e-13
  32 1258.53 0.00000 -3.39430e-12
  33 1258.53 0.00000 -1.89273e-12
  34 1258.53 0.00000 -8.64286e-13
  35 1258.53 0.00000 -4.33281e-13
  36 1258.53 0.00000 7.78136e-13
  37 1258.53 0.00000 1.12594e-12
  38 1258.53 0.00000 -1.59447e-13
  39 1258.53 0.00000 5.87592e-14
  40 1258.53 0.00000 -1.89906e-13
  41 1258.53 0.00000 -1.37068e-13
  42 1258.53 0.00000 7.45942e-13
  43 1258.53 0.00000 9.71882e-13
  44 1258.53 0.00000 1.16923e-12
  45 1258.53 0.00000 -2.59252e-13
  46 1258.53 0.00000 -6.97877e-13
  47 1258.53 0.00000 1.21594e-12
  48 1258.53 0.00000 1.20521e-12
  49 1258.53 0.00000 2.12747e-13
  50 1258.53 0.00000 2.09614e-13
  51 1258.53 0.00000 4.46681e-13
  52 1258.53 0.00000 3.10440e-13
  53 1258.53 0.00000 -1.20984e-13
  54 1258.53 0.00000 -2.66429e-13
  55 1258.53 0.00000 -5.78065e-13
  56 1258.53 0.00000 -2.82123e-13
  57 1258.53 0.00000 -1.61837e-13
  58 1258.53 0.00000 -7.70485e-14
  59 1258.53 0.00000 2.22618e-13
  60 1258.53 0.00000 -5.05309e-14
  61 1258.53 0.00000 5.69858e-13
  62 1258.53 0.00000 9.11867e-13
  63 1258.53 0.00000 -5.25685e-13
  64 1258.53 0.00000 -2.89640e-13
  65 1258.53 0.00000 -2.83417e-13
  66 1258.53 0.00000 -2.12202e-13
  67 1258.53 0.00000 2.82882e-13
  68 1258.53 0.00000 -1.17288e-12
  69 1258.53 0.00000 1.64265e-13
  70 1258.53 0.00000 -1.46107e-13
  71 1258.53 0.00000 9.08092e-13
  72 1258.53 0.00000 -8.82407e-14
  73 1258.53 0.00000 6.43068e-13
  74 1258.53 0.00000 9.28633e-13
  75 1258.53 0.00000 4.69286e-13
  76 1258.53 0.00000 -9.66868e-13
  77 1258.53 0.00000 -6.11597e-13
  78 1258.53 0.00000 -6.47703e-13
  79 1258.53 0.00000 6.20257e-13
  80 1258.53 0.00000 6.40724e-13
  81 1258.53 0.00000 -1.01040e-12
  82 1258.53 0.00000 4.28524e-13
  83 1258.53 0.00000 -1.33479e-13
  84 1258.53 0.00000 3.25040e-15
  85 1258.53 0.00000 3.34735e-13
  86 1258.53 0.00000 9.86245e-13
  87 1258.53 0.00000 9.45815e-13
  88 1258.53 0.00000 1.71901e-12
  89 1258.53 0.00000 -1.25103e-12
  90 1258.53 0.00000 3.53583e-13
  91 1258.53 0.00000 -1.87593e-13
  92 1258.53 0.00000 -4.44003e-13
  93 1258.53 0.00000 -3.36732e-13
  94 1258.53 0.00000 -2.57044e-13
  95 1258.53 0.00000 -3.35618e-13
  96 1258.53 0.00000 -1.11448e-12
  97 1258.53 0.00000 -2.90799e-13
  98 1258.53 0.00000 8.50839e-13
  99 1258.53 0.00000 8.45409e-13
  100 1258.53 0.00000 -1.53178e-14
  101 1258.53 0.00000 -6.35934e-13
  102 1258.53 0.00000 9.27177e-13
  103 1258.53 0.00000 1.24637e-12
  104 1258.53 0.00000 -9.62788e-13
  105 1258.53 0.00000 -4.41771e-13
  106 1258.53 0.00000 7.96861e-14
  107 1258.53 0.00000 -1.31254e-12
  108 1258.53 0.00000 1.26465e-13
  109 1258.53 0.00000 -4.41520e-13
  110 1258.53 0.00000 1.53942e-13
  111 1258.53 0.00000 4.34398e-13
  112 1258.53 0.00000 -2.49363e-13
  113 1258.53 0.00000 -1.37517e-13
  114 1258.53 0.00000 3.23784e-13
  115 1258.53 0.00000 2.79258e-13
  116 1258.53 0.00000 7.63045e-14
  117 1258.53 0.00000 2.44339e-13
  118 1258.53 0.00000 1.15370e-13
  119 1258.53 0.00000 -7.36004e-13
  120 1258.53 0.00000 2.75916e-13
  121 1258.53 0.00000 -3.02015e-13
  122 1258.53 0.00000 1.68671e-14
  123 1258.53 0.00000 -6.07476e-13
  124 1258.53 0.00000 -4.51371e-13
  125 1258.53 0.00000 1.19341e-12
  126 1258.53 0.00000 -2.09343e-13
  127 1258.53 0.00000 -9.72620e-13
  128 1258.53 0.00000 1.25199e-13
  129 1258.53 0.00000 4.59554e-13
  130 1258.53 0.00000 4.73576e-13
  131 1258.53 0.00000 3.51498e-13
  132 1258.53 0.00000 4.61422e-13
  133 1258.53 0.00000 -3.66809e-15
  134 1258.53 0.00000 6.27455e-13
  135 1258.53 0.00000 4.35585e-13
  136 1258.53 0.00000 1.54920e-12
  137 1258.53 0.00000 4.09370e-14
  138 1258.53 0.00000 1.75911e-14
  139 1258.53 0.00000 -3.58033e-13
  140 1258.53 0.00000 -1.40072e-12
  141 1258.53 0.00000 7.64525e-13
  142 1258.53 0.00000 -1.12206e-13
  143 1258.53 0.00000 3.58276e-13
  144 1258.53 0.00000 1.98085e-13
  145 1258.53 0.00000 -5.54094e-13
  146 1258.53 0.00000 1.02196e-13
  147 1258.53 0.00000 -2.95956e-13
  148 1258.53 0.00000 -5.11652e-13
  149 1258.53 0.00000 -5.81642e-13
  150 1258.53 0.00000 7.38694e-13
  151 1258.53 0.00000 3.35739e-13
  152 1258.53 0.00000 7.94527e-13
  153 1258.53 0.00000 -1.87466e-13
  154 1258.53 0.00000 1.00915e-12
  155 1258.53 0.00000 -5.82750e-13
  156 1258.53 0.00000 -5.67178e-13
  157 1258.53 0.00000 -5.97696e-13
  158 1258.53 0.00000 -7.86641e-13
  159 1258.53 0.00000 -1.06980e-12
  160 1258.53 0.00000 -2.00748e-13
  161 1258.53 0.00000 -2.27721e-12
  162 1258.53 0.00000 4.94105e-13
  163 1258.53 0.00000 -3.35315e-13
  164 1258.53 0.00000 1.97052e-13
  165 1258.53 0.00000 -2.77665e-13
  166 1258.53 0.00000 4.50029e-13
  167 1258.53 0.00000 1.04660e-13
  168 1258.53 0.00000 -2.20686e-13
  169 1258.53 0.00000 -5.50922e-13
  170 1258.53 0.00000 1.42815e-12
  171 1258.53 0.00000 -3.73468e-14
  172 1258.53 0.00000 8.92928e-13
  173 1258.53 0.00000 9.82253e-13
  174 1258.53 0.00000 1.28203e-13
  175 1258.53 0.00000 4.55554e-13
  176 1258.53 0.00000 -2.75623e-13
  177 1258.53 0.00000 3.80671e-13
  178 1258.53 0.00000 -9.84045e-13
  179 1258.53 0.00000 2.21671e-13
  180 1258.53 0.00000 2.99295e-13
  181 1258.53 0.00000 -2.45681e-13
  182 1258.53 0.00000 1.54705e-13
  183 1258.53 0.00000 9.65627e-14
  184 1258.53 0.00000 4.65384e-13
  185 1258.53 0.00000 2.77871e-15
  186 1258.53 0.00000 -2.58123e-13
  187 1258.53 0.00000 -6.84117e-13
  188 1258.53 0.00000 -1.07718e-13
  189 1258.53 0.00000 2.78306e-13
  190 1258.53 0.00000 -5.07595e-14
  191 1258.53 0.00000 -2.08928e-13
  192 1258.53 0.00000 -4.59714e-13
  193 1258.53 0.00000 6.33065e-13
  194 1258.53 0.00000 3.78431e-13
  195 1258.53 0.00000 1.03726e-13
  196 1258.53 0.00000 4.62647e-13
  197 1258.53 0.00000 -9.74797e-13
  198 1258.53 0.00000 8.34485e-14
  199 1258.53 0.00000 1.87677e-13
  200 1258.53 0.00000 -4.60311e-13
  201 1258.53 0.00000 -1.19896e-13
  202 1258.53 0.00000 1.83298e-13
  203 1258.53 0.00000 5.15228e-13
  204 1258.53 0.00000 2.32433e-13
  205 1258.53 0.00000 7.24803e-13
  206 1258.53 0.00000 4.77493e-13
  207 1258.53 0.00000 4.19656e-13
  208 1258.53 0.00000 -5.41461e-13
  209 1258.53 0.00000 -4.72688e-14
  210 1258.53 0.00000 7.18294e-13
  211 1258.53 0.00000 -6.70375e-13
  212 1258.53 0.00000 2.79135e-13
  213 1258.53 0.00000 9.22936e-13
  214 1258.53 0.00000 1.16250e-12
  215 1258.53 0.00000 -1.89798e-13
  216 1258.53 0.00000 1.92258e-14
  217 1258.53 0.00000 -7.46798e-13
  218 1258.53 0.00000 6.88041e-13
  219 1258.53 0.00000 -1.09943e-12
  220 1258.53 0.00000 -2.79727e-13
  221 1258.53 0.00000 1.58423e-14
  222 1258.53 0.00000 3.82977e-13
  223 1258.53 0.00000 -2.22701e-13
  224 1258.53 0.00000 4.03539e-14
  225 1258.53 0.00000 1.79453e-13
  226 1258.53 0.00000 2.22102e-13
  227 1258.53 0.00000 -3.03744e-13
  228 1258.53 0.00000 1.77251e-13
  229 1258.53 0.00000 -5.40576e-13
  230 1258.53 0.00000 2.11110e-14
  231 1258.53 0.00000 -1.66909e-12
  232 1258.53 0.00000 -7.98732e-13
  233 1258.53 0.00000 9.75776e-13
  234 1258.53 0.00000 5.50608e-13
  235 1258.53 0.00000 -4.87564e-13
  236 1258.53 0.00000 -4.34153e-13
  237 1258.53 0.00000 9.29394e-13
  238 1258.53 0.00000 3.62534e-13
  239 1258.53 0.00000 -1.49494e-14
  240 1258.53 0.00000 5.44725e-13
  241 1258.53 0.00000 2.66021e-13
</Section>

newXOutput 48

<Section columns = "stress_xx | stress_yy | stress_xy">
  1 1303.51 0.00000 4.32633e-13
  2 1303.51 0.00000 -6.68625e-13
  3 1303.51 0.00000 -1.87857e-12
  4 1303.51 0.00000 -3.19549e-13
  5 1303.51 0.00000 8.67952e-13
  6 1303.51 0.00000 1.11126e-12
  7 1303.51 0.00000 1.33903e-13
  8 1303.51 0.00000 -1.38901e-14
  9 1303.51 0.00000 -2.73086e-13
  10 1303.51 0.00000 -6.23251e-14
  11 1303.51 0.00000 1.29597e-12
  12 1303.51 0.00000 -1.66978e-13
  13 1303.51 0.00000 -5.38917e-13
  14 1303.51 0.00000 7.97710e-13
  15 1303.51 0.00000 4.81746e-13
  16 1303.51 0.00000 5.67396e-13
  17 1303.51 0.00000 7.97382e-13
  18 1303.51 0.00000 -1.48103e-13
  19 1303.51 0.00000 6.58779e-14
  20 1303.51 0.00000 -8.14340e-13
  21 1303.51 0.00000 -5.06878e-13
  22 1303.51 0.00000 -9.22656e-13
  23 1303.51 0.00000 -8.30359e-13
  24 1303.51 0.00000 2.20500e-13
  25 1303.51 0.00000 3.88162e-13
  26 1303.51 0.00000 1.11600e-12
  27 1303.51 0.00000 2.19353e-12
  28 1303.51 0.00000 4.96757e-13
  29 1303.51 0.00000 5.82243e-13
  30 1303.51 0.00000 -3.55996e-13
  31 1303.51 0.00000 -1.20324e-12
  32 1303.51 0.00000 3.06341e-12
  33 1303.51 0.00000 1.74749e-12
  34 1303.51 0.00000 1.58590e-12
  35 1303.51 0.00000 1.22484e-12
  36 1303.51 0.00000 3.61759e-13
  37 1303.51 0.00000 -1.16003e-12
  38 1303.51 0.00000 1.60444e-13
  39 1303.51 0.00000 3.25399e-13
  40 1303.51 0.00000 1.07869e-13
  41 1303.51 0.00000 3.61460e-13
  42 1303.51 0.00000 -7.67971e-14
  43 1303.51 0.00000 -5.48574e-13
  44 1303.51 0.00000 -4.51907e-13
  45 1303.51 0.00000 -1.26431e-13
  46 1303.51 0.00000 -2.05977e-13
  47 1303.51 0.00000 -1.48140e-12
  48 1303.51 0.00000 -1.11776e-12
  49 1303.51 0.00000 -1.10609e-13
  50 1303.51 0.00000 -2.03644e-13
  51 1303.51 0.00000 -4.10201e-13
  52 1303.51 0.00000 -3.69003e-13
  53 1303.51 0.00000 7.29450e-15
  54 1303.51 0.00000 4.80213e-13
  55 1303.51 0.00000 2.92898e-13
  56 1303.51 0.00000 -1.60173e-13
  57 1303.51 0.00000 5.00345e-14
  58 1303.51 0.00000 -2.93242e-13
  59 1303.51 0.00000 7.59619e-14
  60 1303.51 0.00000 3.59921e-13
  61 1303.51 0.00000 -4.30594e-13
  62 1303.51 0.00000 -1.12016e-12
  63 1303.51 0.00000 1.13626e-12
  64 1303.51 0.00000 2.93219e-13
  65 1303.51 0.00000 -6.64976e-14
  66 1303.51 0.00000 2.60728e-13
  67 1303.51 0.00000 -1.17978e-13
  68 1303.51 0.00000 8.94048e-13
  69 1303.51 0.00000 -4.58232e-13
  70 1303.51 0.00000 1.81153e-13
  71 1303.51 0.00000 -6.54099e-13
  72 1303.51 0.00000 -6.41555e-13
  73 1303.51 0.00000 -4.66716e-13
  74 1303.51 0.00000 -8.65361e-13
  75 1303.51 0.00000 -9.90218e-14
  76 1303.51 0.00000 1.22997e-13
  77 1303.51 0.00000 3.30854e-13
  78 1303.51 0.00000 7.83699e-13
  79 1303.51 0.00000 -3.88928e-13
  80 1303.51 0.00000 -6.72021e-13
  81 1303.51 0.00000 7.02862e-13
  82 1303.51 0.00000 3.59417e-13
  83 1303.51 0.00000 4.92434e-13
  84 1303.51 0.00000 3.91184e-13
  85 1303.51 0.00000 -1.70309e-13
  86 1303.51 0.00000 1.32843e-12
  87 1303.51 0.00000 -1.10436e-12
  88 1303.51 0.00000 -1.58776e-12
  89 1303.51 0.00000 5.36010e-13
  90 1303.51 0.00000 -5.93210e-13
  91 1303.51 0.00000 -7.35107e-14
  92 1303.51 0.00000 1.46201e-13
  93 1303.51 0.00000 1.41010e-13
  94 1303.51 0.00000 1.66872e-13
  95 1303.51 0.00000 5.94628e-13
  96 1303.51 0.00000 7.35244e-13
  97 1303.51 0.00000 1.82247e-13
  98 1303.51 0.00000 -4.87023e-13
  99 1303.51 0.00000 -8.60263e-13
  100 1303.51 0.00000 1.30972e-13
  101 1303.51 0.00000 5.47272e-13
  102 1303.51 0.00000 -1.03898e-12
  103 1303.51 0.00000 -1.88542e-12
  104 1303.51 0.00000 5.48969e-13
  105 1303.51 0.00000 9.46998e-13
  106 1303.51 0.00000 -4.71603e-13
  107 1303.51 0.00000 1.03253e-12
  108 1303.51 0.00000 -2.48209e-13
  109 1303.51 0.00000 1.00965e-12
  110 1303.51 0.00000 -7.42791e-13
  111 1303.51 0.00000 -3.72156e-13
  112 1303.51 0.00000 3.55300e-13
  113 1303.51 0.00000 -7.89696e-14
  114 1303.51 0.00000 -2.21305e-13
  115 1303.51 0.00000 -2.87649e-13
  116 1303.51 0.00000 2.07239e-13
  117 1303.51 0.00000 -3.20917e-14
  118 1303.51 0.00000 -4.54082e-13
  119 1303.51 0.00000 6.22377e-13
  120 1303.51 0.00000 9.36674e-14
  121 1303.51 0.00000 5.55069e-13
  122 1303.51 0.00000 1.44147e-13
  123 1303.51 0.00000 1.21419e-12
  124 1303.51 0.00000 -1.58567e-14
  125 1303.51 0.00000 -8.85994e-13
  126 1303.51 0.00000 -1.73247e-14
  127 1303.51 0.00000 8.42554e-13
  128 1303.51 0.00000 -5.08021e-14
  129 1303.51 0.00000 -3.54778e-13
  130 1303.51 0.00000 1.65172e-13
  131 1303.51 0.00000 -1.46139e-13
  132 1303.51 0.00000 3.30966e-13
  133 1303.51 0.00000 3.23368e-13
  134 1303.51 0.00000 -8.14730e-13
  135 1303.51 0.00000 6.32864e-13
  136 1303.51 0.00000 -1.67428e-12
  137 1303.51 0.00000 2.25526e-13
  138 1303.51 0.00000 -6.61488e-14
  139 1303.51 0.00000 1.64528e-13
  140 1303.51 0.00000 -1.08447e-13
  141 1303.51 0.00000 -6.71431e-14
  142 1303.51 0.00000 8.84010e-14
  143 1303.51 0.00000 -4.22981e-13
  144 1303.51 0.00000 1.89142e-13
  145 1303.51 0.00000 6.16705e-13
  146 1303.51 0.00000 3.59688e-13
  147 1303.51 0.00000 2.34080e-13
  148 1303.51 0.00000 5.34045e-13
  149 1303.51 0.00000 8.68028e-13
  150 1303.51 0.00000 -4.73912e-13
  151 1303.51 0.00000 -8.25575e-13
  152 1303.51 0.00000 -9.30251e-13
  153 1303.51 0.00000 -1.56420e-13
  154 1303.51 0.00000 -7.30149e-13
  155 1303.51 0.00000 6.09673e-13
  156 1303.51 0.00000 1.88166e-13
  157 1303.51 0.00000 2.55792e-13
  158 1303.51 0.00000 3.52386e-13
  159 1303.51 0.00000 1.61820e-12
  160 1303.51 0.00000 -2.50940e-14
  161 1303.51 0.00000 1.69585e-12
  162 1303.51 0.00000 -3.51062e-13
  163 1303.51 0.00000 1.73030e-13
  164 1303.51 0.00000 -5.21898e-13
  165 1303.51 0.00000 1.79616e-13
  166 1303.51 0.00000 -3.71363e-13
  167 1303.51 0.00000 5.83851e-13
  168 1303.51 0.00000 -4.06871e-13
  169 1303.51 0.00000 5.15679e-13
  170 1303.51 0.00000 -6.41826e-13
  171 1303.51 0.00000 1.21204e-13
  172 1303.51 0.00000 -5.88019e-13
  173 1303.51 0.00000 -7.89690e-13
  174 1303.51 0.00000 2.56367e-13
  175 1303.51 0.00000 -4.06347e-13
  176 1303.51 0.00000 9.78154e-14
  177 1303.51 0.00000 -1.27778e-12
  178 1303.51 0.00000 5.58583e-13
  179 1303.51 0.00000 1.30318e-13
  180 1303.51 0.00000 -3.56881e-13
  181 1303.51 0.00000 -2.47402e-13
  182 1303.51 0.00000 -4.29378e-13
  183 1303.51 0.00000 -3.74675e-13
  184 1303.51 0.00000 2.75807e-13
  185 1303.51 0.00000 2.02396e-13
  186 1303.51 0.00000 4.38763e-13
  187 1303.51 0.00000 5.30897e-14
  188 1303.51 0.00000 1.80088e-13
  189 1303.51 0.00000 1.55312e-13
  190 1303.51 0.00000 -1.13354e-14
  191 1303.51 0.00000 5.79531e-14
  192 1303.51 0.00000 2.67120e-13
  193 1303.51 0.00000 -3.30069e-13
  194 1303.51 0.00000 6.33696e-13
  195 1303.51 0.00000 -2.08901e-13
  196 1303.51 0.00000 -3.91688e-13
  197 1303.51 0.00000 1.31636e-12
  198 1303.51 0.00000 5.02141e-13
  199 1303.51 0.00000 -2.01014e-13
  200 1303.51 0.00000 -5.42861e-13
  201 1303.51 0.00000 4.07024e-13
  202 1303.51 0.00000 4.98890e-13
  203 1303.51 0.00000 -5.68419e-13
  204 1303.51 0.00000 -9.87321e-13
  205 1303.51 0.00000 -1.90382e-13
  206 1303.51 0.00000 -5.77359e-13
  207 1303.51 0.00000 1.33031e-13
  208 1303.51 0.00000 1.03470e-12
  209 1303.51 0.00000 5.30557e-13
  210 1303.51 0.00000 -1.37876e-12
  211 1303.51 0.00000 5.44953e-13
  212 1303.51 0.00000 4.36091e-13
  213 1303.51 0.00000 -7.12925e-13
  214 1303.51 0.00000 -2.33144e-13
  215 1303.51 0.00000 -1.20807e-12
  216 1303.51 0.00000 -5.69368e-13
  217 1303.51 0.00000 -3.82918e-14
  218 1303.51 0.00000 -1.15154e-12
  219 1303.51 0.00000 5.41936e-13
  220 1303.51 0.00000 -6.83888e-14
  221 1303.51 0.00000 -4.69973e-13
  222 1303.51 0.00000 2.39535e-13
  223 1303.51 0.00000 3.27811e-13
  224 1303.51 0.00000 -5.98185e-13
  225 1303.51 0.00000 -1.26613e-13
  226 1303.51 0.00000 5.57855e-14
  227 1303.51 0.00000 5.17510e-14
  228 1303.51 0.00000 1.47396e-13
  229 1303.51 0.00000 5.24902e-13
  230 1303.51 0.00000 -1.95702e-13
  231 1303.51 0.00000 1.64017e-12
  232 1303.51 0.00000 5.94339e-13
  233 1303.51 0.00000 1.71025e-13
  234 1303.51 0.00000 -1.10819e-13
  235 1303.51 0.00000 6.28034e-13
  236 1303.51 0.00000 4.21922e-13
  237 1303.51 0.00000 -1.40622e-12
  238 1303.51 0.00000 -3.74594e-13
  239 1303.51 0.00000 3.17659e-13
  240 1303.51 0.00000 -4.29569e-13
  241 1303.51 0.00000 -7.94749e-14
</Section>

newXOutput 49

<Section columns = "stress_xx | stress_yy | stress_xy">
  1 1348.63 0.00000 -8.37599e-13
  2 1348.63 0.00000 2.20609e-13
  3 1348.63 0.00000 1.48751e-12
  4 1348.63 0.00000 6.95580e-13
  5 1348.63 0.00000 -1.02365e-12
  6 1348.63 0.00000 -6.58770e-13
  7 1348.63 0.00000 -9.72000e-13
  8 1348.63 0.00000 -2.20080e-13
  9 1348.63 0.00000 4.88873e-13
  10 1348.63 0.00000 -1.78606e-13
  11 1348.63 0.00000 -1.10403e-12
  12 1348.63 0.00000 9.17640e-13
  13 1348.63 0.00000 4.46072e-13
  14 1348.63 0.00000 -2.35929e-13
  15 1348.63 0.00000 6.17732e-14
  16 1348.63 0.00000 8.96764e-13
  17 1348.63 0.00000 -4.72573e-13
  18 1348.63 0.00000 -2.18045e-13
  19 1348.63 0.00000 -7.01063e-13
  20 1348.63 0.00000 -3.12129e-13
  21 1348.63 0.00000 -5.97382e-14
  22 1348.63 0.00000 8.85207e-13
  23 1348.63 0.00000 1.57959e-13
  24 1348.63 0.00000 5.87900e-13
  25 1348.63 0.00000 0.00000
  26 1348.63 0.00000 -1.54101e-12
  27 1348.63 0.00000 -2.30731e-12
  28 1348.63 0.00000 -2.77327e-13
  29 1348.63 0.00000 -5.43399e-13
  30 1348.63 0.00000 -3.74224e-13
  31 1348.63 0.00000 2.07533e-12
  32 1348.63 0.00000 -1.64179e-12
  33 1348.63 0.00000 -1.39104e-12
  34 1348.63 0.00000 -2.43277e-13
  35 1348.63 0.00000 -1.14353e-12
  36 1348.63 0.00000 -4.12701e-13
  37 1348.63 0.00000 1.21126e-12
  38 1348.63 0.00000 4.48397e-13
  39 1348.63 0.00000 -3.32173e-13
  40 1348.63 0.00000 -9.72268e-13
  41 1348.63 0.00000 -1.14972e-12
  42 1348.63 0.00000 -3.38030e-14
  43 1348.63 0.00000 7.31087e-13
  44 1348.63 0.00000 5.07618e-13
  45 1348.63 0.00000 9.74453e-15
  46 1348.63 0.00000 -5.82986e-13
  47 1348.63 0.00000 4.98671e-13
  48 1348.63 0.00000 9.69688e-13
  49 1348.63 0.00000 5.36361e-13
  50 1348.63 0.00000 4.48498e-13
  51 1348.63 0.00000 3.17052e-13
  52 1348.63 0.00000 7.36768e-14
  53 1348.63 0.00000 3.05733e-13
  54 1348.63 0.00000 -4.12586e-13
  55 1348.63 0.00000 -5.79314e-13
  56 1348.63 0.00000 -1.42816e-13
  57 1348.63 0.00000 9.60974e-16
  58 1348.63 0.00000 1.70266e-12
  59 1348.63 0.00000 7.62950e-14
  60 1348.63 0.00000 -7.02825e-13
  61 1348.63 0.00000 1.04175e-13
  62 1348.63 0.00000 1.11070e-12
  63 1348.63 0.00000 -3.82691e-13
  64 1348.63 0.00000 -2.92399e-13
  65 1348.63 0.00000 1.22571e-13
  66 1348.63 0.00000 4.26189e-14
  67 1348.63 0.00000 -5.93103e-14
  68 1348.63 0.00000 -3.46234e-13
  69 1348.63 0.00000 1.63699e-13
  70 1348.63 0.00000 4.16283e-13
  71 1348.63 0.00000 3.22535e-13
  72 1348.63 0.00000 5.06950e-14
  73 1348.63 0.00000 1.87167e-13
  74 1348.63 0.00000 9.75085e-13
  75 1348.63 0.00000 4.27124e-13
  76 1348.63 0.00000 -7.17836e-13
  77 1348.63 0.00000 -4.52704e-14
  78 1348.63 0.00000 -6.97794e-13
  79 1348.63 0.00000 4.08709e-13
  80 1348.63 0.00000 3.85651e-13
  81 1348.63 0.00000 -7.15454e-13
  82 1348.63 0.00000 -4.67061e-13
  83 1348.63 0.00000 -1.32431e-13
  84 1348.63 0.00000 -2.15360e-13
  85 1348.63 0.00000 -1.01434e-13
  86 1348.63 0.00000 -8.25391e-13
  87 1348.63 0.00000 1.58792e-12
  88 1348.63 0.00000 4.67884e-13
  89 1348.63 0.00000 -1.10751e-12
  90 1348.63 0.00000 1.49700e-13
  91 1348.63 0.00000 -3.90804e-13
  92 1348.63 0.00000 -2.65437e-13
  93 1348.63 0.00000 -3.42669e-13
  94 1348.63 0.00000 -4.31269e-14
  95 1348.63 0.00000 1.07845e-13
  96 1348.63 0.00000 -1.01846e-12
  97 1348.63 0.00000 -3.63851e-13
  98 1348.63 0.00000 8.90598e-13
  99 1348.63 0.00000 5.50907e-13
  100 1348.63 0.00000 7.59389e-14
  101 1348.63 0.00000 -1.07885e-12
  102 1348.63 0.00000 8.02809e-13
  103 1348.63 0.00000 1.22468e-12
  104 1348.63 0.00000 -5.47162e-13
  105 1348.63 0.00000 -6.51173e-13
  106 1348.63 0.00000 3.82536e-13
  107 1348.63 0.00000 -1.56779e-12
  108 1348.63 0.00000 -2.17968e-14
  109 1348.63 0.00000 -7.77361e-13
  110 1348.63 0.00000 1.30928e-12
  111 1348.63 0.00000 -1.04504e-13
  112 1348.63 0.00000 5.80480e-15
  113 1348.63 0.00000 1.40380e-13
  114 1348.63 0.00000 8.62873e-14
  115 1348.63 0.00000 2.60551e-13
  116 1348.63 0.00000 -1.17702e-12
  117 1348.63 0.00000 -6.15231e-13
  118 1348.63 0.00000 7.58666e-13
  119 1348.63 0.00000 -4.87594e-13
  120 1348.63 0.00000 4.04527e-13
  121 1348.63 0.00000 -8.19712e-13
  122 1348.63 0.00000 -2.15693e-13
  123 1348.63 0.00000 -1.86451e-12
  124 1348.63 0.00000 1.76866e-15
  125 1348.63 0.00000 6.64034e-13
  126 1348.63 0.00000 6.24374e-14
  127 1348.63 0.00000 -6.42471e-13
  128 1348.63 0.00000 -1.09337e-13
  129 1348.63 0.00000 3.09622e-13
  130 1348.63 0.00000 3.27166e-13
  131 1348.63 0.00000 2.21664e-13
  132 1348.63 0.00000 -1.51842e-13
  133 1348.63 0.00000 -6.27841e-13
  134 1348.63 0.00000 -6.13993e-14
  135 1348.63 0.00000 -1.55848e-13
  136 1348.63 0.00000 1.81645e-12
  137 1348.63 0.00000 -6.03519e-13
  138 1348.63 0.00000 -7.93021e-14
  139 1348.63 0.00000 6.40078e-14
  140 1348.63 0.00000 3.39777e-13
  141 1348.63 0.00000 2.51144e-13
  142 1348.63 0.00000 2.67276e-14
  143 1348.63 0.00000 6.38940e-13
  144 1348.63 0.00000 -9.22310e-14
  145 1348.63 0.00000 1.80119e-14
  146 1348.63 0.00000 -2.49221e-13
  147 1348.63 0.00000 -4.25432e-13
  148 1348.63 0.00000 -3.17533e-13
  149 1348.63 0.00000 -8.98966e-13
  150 1348.63 0.00000 5.96131e-13
  151 1348.63 0.00000 -9.60698e-14
  152 1348.63 0.00000 1.05618e-12
  153 1348.63 0.00000 1.51126e-13
  154 1348.63 0.00000 6.94142e-13
  155 1348.63 0.00000 -1.15786e-12
  156 1348.63 0.00000 -3.89529e-13
  157 1348.63 0.00000 -4.68972e-13
  158 1348.63 0.00000 -1.32409e-12
  159 1348.63 0.00000 -1.21747e-12
  160 1348.63 0.00000 2.27537e-13
  161 1348.63 0.00000 -1.49856e-12
  162 1348.63 0.00000 6.84657e-13
  163 1348.63 0.00000 -3.55787e-13
  164 1348.63 0.00000 -8.24326e-14
  165 1348.63 0.00000 7.06818e-14
  166 1348.63 0.00000 4.75179e-13
  167 1348.63 0.00000 -8.72212e-13
  168 1348.63 0.00000 2.30583e-13
  169 1348.63 0.00000 -2.28420e-13
  170 1348.63 0.00000 -6.05558e-14
  171 1348.63 0.00000 2.82489e-13
  172 1348.63 0.00000 1.10029e-12
  173 1348.63 0.00000 5.89619e-13
  174 1348.63 0.00000 4.37666e-13
  175 1348.63 0.00000 8.57997e-13
  176 1348.63 0.00000 -6.04962e-13
  177 1348.63 0.00000 8.53298e-14
  178 1348.63 0.00000 -5.16255e-13
  179 1348.63 0.00000 -9.17014e-13
  180 1348.63 0.00000 7.51460e-13
  181 1348.63 0.00000 6.24023e-13
  182 1348.63 0.00000 1.14317e-12
  183 1348.63 0.00000 3.41094e-13
  184 1348.63 0.00000 7.39503e-13
  185 1348.63 0.00000 2.28505e-13
  186 1348.63 0.00000 -1.60721e-13
  187 1348.63 0.00000 -3.21545e-14
  188 1348.63 0.00000 1.57496e-13
  189 1348.63 0.00000 -3.47113e-13
  190 1348.63 0.00000 -3.10698e-14
  191 1348.63 0.00000 3.20330e-13
  192 1348.63 0.00000 -8.34551e-13
  193 1348.63 0.00000 5.15566e-13
  194 1348.63 0.00000 -1.60488e-12
  195 1348.63 0.00000 1.98296e-13
  196 1348.63 0.00000 3.45939e-13
  197 1348.63 0.00000 -6.65013e-13
  198 1348.63 0.00000 -6.44430e-14
  199 1348.63 0.00000 6.71892e-13
  200 1348.63 0.00000 1.37080e-12
  201 1348.63 0.00000 6.23531e-13
  202 1348.63 0.00000 -6.25832e-13
  203 1348.63 0.00000 9.96032e-14
  204 1348.63 0.00000 3.14116e-13
  205 1348.63 0.00000 3.24574e-13
  206 1348.63 0.00000 -1.28042e-13
  207 1348.63 0.00000 -1.85745e-13
  208 1348.63 0.00000 -5.92979e-14
  209 1348.63 0.00000 -9.53289e-13
  210 1348.63 0.00000 1.61700e-12
  211 1348.63 0.00000 -1.38568e-12
  212 1348.63 0.00000 9.05594e-13
  213 1348.63 0.00000 1.11177e-12
  214 1348.63 0.00000 4.42960e-13
  215 1348.63 0.00000 5.88407e-13
  216 1348.63 0.00000 5.17736e-13
  217 1348.63 0.00000 -3.93127e-13
  218 1348.63 0.00000 9.73208e-13
  219 1348.63 0.00000 -3.30942e-13
  220 1348.63 0.00000 -1.18343e-13
  221 1348.63 0.00000 2.41890e-13
  222 1348.63 0.00000 5.09852e-13
  223 1348.63 0.00000 -1.71294e-13
  224 1348.63 0.00000 -1.26418e-14
  225 1348.63 0.00000 1.91008e-13
  226 1348.63 0.00000 -4.69989e-14
  227 1348.63 0.00000 -1.73530e-13
  228 1348.63 0.00000 -1.43926e-14
  229 1348.63 0.00000 -6.55623e-13
  230 1348.63 0.00000 5.50381e-14
  231 1348.63 0.00000 -7.48883e-13
  232 1348.63 0.00000 -5.78677e-13
  233 1348.63 0.00000 -2.85575e-13
  234 1348.63 0.00000 4.24352e-13
  235 1348.63 0.00000 -1.79831e-12
  236 1348.63 0.00000 -2.95034e-13
  237 1348.63 0.00000 1.67147e-12
  238 1348.63 0.00000 2.17816e-13
  239 1348.63 0.00000 -1.92302e-13
  240 1348.63 0.00000 2.59352e-13
  241 1348.63 0.00000 1.85886e-13
</Section>

newXOutput 50

<Section columns = "stress_xx | stress_yy | stress_xy">
  1 1393.90 0.00000 1.17894e-12
  2 1393.90 0.00000 -1.26068e-12
  3 1393.90 0.00000 -2.54239e-12
  4 1393.90 0.00000 -5.85498e-13
  5 1393.90 0.00000 1.62207e-12
  6 1393.90 0.00000 1.10751e-12
  7 1393.90 0.00000 7.21079e-13
  8 1393.90 0.00000 1.00403e-13
  9 1393.90 0.00000 -4.93310e-13
  10 1393.90 0.00000 3.25346e-13
  11 1393.90 0.00000 1.74472e-12
  12 1393.90 0.00000 3.18204e-13
  13 1393.90 0.00000 -1.30441e-13
  14 1393.90 0.00000 4.78836e-13
  15 1393.90 0.00000 -1.22365e-13
  16 1393.90 0.00000 1.05687e-13
  17 1393.90 0.00000 1.11780e-12
  18 1393.90 0.00000 5.79213e-14
  19 1393.90 0.00000 1.29665e-13
  20 1393.90 0.00000 1.16893e-12
  21 1393.90 0.00000 4.21559e-13
  22 1393.90 0.00000 -5.87646e-13
  23 1393.90 0.00000 -1.12206e-12
  24 1393.90 0.00000 3.40973e-13
  25 1393.90 0.00000 7.86898e-13
  26 1393.90 0.00000 1.06120e-12
  27 1393.90 0.00000 2.95738e-12
  28 1393.90 0.00000 -4.44166e-13
  29 1393.90 0.00000 6.38333e-13
  30 1393.90 0.00000 -1.99908e-13
  31 1393.90 0.00000 -2.08684e-12
  32 1393.90 0.00000 -3.13824e-13
  33 1393.90 0.00000 1.74120e-13
  34 1393.90 0.00000 9.33543e-14
  35 1393.90 0.00000 3.73929e-13
  36 1393.90 0.00000 5.70510e-13
  37 1393.90 0.00000 -6.64167e-13
  38 1393.90 0.00000 -4.07299e-13
  39 1393.90 0.00000 2.18685e-13
  40 1393.90 0.00000 5.97275e-13
  41 1393.90 0.00000 7.70315e-13
  42 1393.90 0.00000 -8.41870e-13
  43 1393.90 0.00000 -1.44093e-12
  44 1393.90 0.00000 -3.65525e-13
  45 1393.90 0.00000 1.68856e-13
  46 1393.90 0.00000 -7.85671e-14
  47 1393.90 0.00000 -1.16999e-12
  48 1393.90 0.00000 -1.74620e-12
  49 1393.90 0.00000 -1.01049e-12
  50 1393.90 0.00000 -9.07778e-13
  51 1393.90 0.00000 -8.97357e-13
  52 1393.90 0.00000 -1.33070e-13
  53 1393.90 0.00000 -7.73860e-14
  54 1393.90 0.00000 3.16741e-13
  55 1393.90 0.00000 3.92547e-13
  56 1393.90 0.00000 4.61435e-14
  57 1393.90 0.00000 -7.44982e-14
  58 1393.90 0.00000 -1.62765e-12
  59 1393.90 0.00000 -3.86746e-13
  60 1393.90 0.00000 3.89836e-13
  61 1393.90 0.00000 -7.06264e-13
  62 1393.90 0.00000 -8.50334e-13
  63 1393.90 0.00000 4.55154e-13
  64 1393.90 0.00000 3.93361e-13
  65 1393.90 0.00000 3.77383e-13
  66 1393.90 0.00000 1.14845e-13
  67 1393.90 0.00000 3.26650e-13
  68 1393.90 0.00000 2.16946e-13
  69 1393.90 0.00000 -8.01337e-13
  70 1393.90 0.00000 -4.26167e-13
  71 1393.90 0.00000 -4.07238e-13
  72 1393.90 0.00000 -2.48515e-13
  73 1393.90 0.00000 -4.76205e-14
  74 1393.90 0.00000 -9.81061e-13
  75 1393.90 0.00000 -4.84425e-13
  76 1393.90 0.00000 1.02846e-12
  77 1393.90 0.00000 -1.90023e-13
  78 1393.90 0.00000 1.24467e-12
  79 1393.90 0.00000 -6.77935e-13
  80 1393.90 0.00000 -1.24040e-13
  81 1393.90 0.00000 -1.10788e-13
  82 1393.90 0.00000 -3.74382e-13
  83 1393.90 0.00000 -1.69527e-13
  84 1393.90 0.00000 2.40083e-13
  85 1393.90 0.00000 -1.26006e-13
  86 1393.90 0.00000 7.38734e-13
  87 1393.90 0.00000 -1.66229e-12
  88 1393.90 0.00000 -7.65549e-13
  89 1393.90 0.00000 5.01860e-13
  90 1393.90 0.00000 -2.75626e-13
  91 1393.90 0.00000 3.44584e-13
  92 1393.90 0.00000 4.61471e-13
  93 1393.90 0.00000 -6.89833e-13
  94 1393.90 0.00000 5.40341e-13
  95 1393.90 0.00000 -4.02711e-13
  96 1393.90 0.00000 7.68399e-13
  97 1393.90 0.00000 -3.82479e-13
  98 1393.90 0.00000 -5.92491e-13
  99 1393.90 0.00000 -1.30256e-12
  100 1393.90 0.00000 -3.69026e-13
  101 1393.90 0.00000 9.64308e-13
  102 1393.90 0.00000 -1.78028e-12
  103 1393.90 0.00000 -1.51063e-12
  104 1393.90 0.00000 4.79066e-13
  105 1393.90 0.00000 4.21630e-13
  106 1393.90 0.00000 -3.84539e-13
  107 1393.90 0.00000 3.72971e-13
  108 1393.90 0.00000 2.71246e-13
  109 1393.90 0.00000 8.02267e-13
  110 1393.90 0.00000 -1.58876e-12
  111 1393.90 0.00000 -9.27784e-15
  112 1393.90 0.00000 2.45000e-14
  113 1393.90 0.00000 -2.51615e-13
  114 1393.90 0.00000 2.42056e-14
  115 1393.90 0.00000 -1.04715e-13
  116 1393.90 0.00000 4.33506e-13
  117 1393.90 0.00000 1.67021e-13
  118 1393.90 0.00000 -7.83910e-13
  119 1393.90 0.00000 -3.75824e-14
  120 1393.90 0.00000 -8.03035e-13
  121 1393.90 0.00000 4.03398e-13
  122 1393.90 0.00000 -8.82688e-13
  123 1393.90 0.00000 1.08098e-12
  124 1393.90 0.00000 -1.23379e-12
  125 1393.90 0.00000 -9.31618e-13
  126 1393.90 0.00000 -1.31378e-13
  127 1393.90 0.00000 7.78643e-13
  128 1393.90 0.00000 1.88579e-14
  129 1393.90 0.00000 -3.52445e-13
  130 1393.90 0.00000 -8.33380e-13
  131 1393.90 0.00000 -5.83706e-13
  132 1393.90 0.00000 -1.50991e-13
  133 1393.90 0.00000 2.73626e-13
  134 1393.90 0.00000 -5.02680e-13
  135 1393.90 0.00000 4.35713e-13
  136 1393.90 0.00000 -1.90561e-12
  137 1393.90 0.00000 -7.37761e-13
  138 1393.90 0.00000 -1.41971e-13
  139 1393.90 0.00000 8.73011e-15
  140 1393.90 0.00000 -5.58483e-13
  141 1393.90 0.00000 -6.41001e-13
  142 1393.90 0.00000 3.43554e-13
  143 1393.90 0.00000 -6.70140e-13
  144 1393.90 0.00000 -7.37091e-13
  145 1393.90 0.00000 -1.10847e-15
  146 1393.90 0.00000 -3.80082e-13
  147 1393.90 0.00000 4.47709e-14
  148 1393.90 0.00000 2.89782e-13
  149 1393.90 0.00000 1.55324e-12
  150 1393.90 0.00000 -2.10395e-13
  151 1393.90 0.00000 -6.44677e-14
  152 1393.90 0.00000 -1.31303e-12
  153 1393.90 0.00000 4.19338e-13
  154 1393.90 0.00000 -3.44960e-13
  155 1393.90 0.00000 5.84880e-13
  156 1393.90 0.00000 -2.00072e-13
  157 1393.90 0.00000 6.49050e-13
  158 1393.90 0.00000 6.51695e-13
  159 1393.90 0.00000 1.02963e-12
  160 1393.90 0.00000 -3.95498e-13
  161 1393.90 0.00000 2.53107e-12
  162 1393.90 0.00000 -7.85975e-13
  163 1393.90 0.00000 -3.46074e-15
  164 1393.90 0.00000 3.13879e-13
  165 1393.90 0.00000 -1.84413e-13
  166 1393.90 0.00000 -5.16670e-13
  167 1393.90 0.00000 5.59327e-13
  168 1393.90 0.00000 -1.99947e-13
  169 1393.90 0.00000 1.50389e-13
  170 1393.90 0.00000 -2.60474e-14
  171 1393.90 0.00000 1.50448e-13
  172 1393.90 0.00000 -1.31517e-12
  173 1393.90 0.00000 -7.94581e-13
  174 1393.90 0.00000 -1.79509e-13
  175 1393.90 0.00000 -1.26336e-12
  176 1393.90 0.00000 5.28938e-13
  177 1393.90 0.00000 -4.60380e-13
  178 1393.90 0.00000 3.71368e-13
  179 1393.90 0.00000 3.67874e-13
  180 1393.90 0.00000 -6.24335e-13
  181 1393.90 0.00000 -1.75810e-12
  182 1393.90 0.00000 -8.74391e-13
  183 1393.90 0.00000 -4.79482e-14
  184 1393.90 0.00000 -3.22696e-13
  185 1393.90 0.00000 1.02875e-13
  186 1393.90 0.00000 -3.44115e-13
  187 1393.90 0.00000 -4.68718e-13
  188 1393.90 0.00000 -4.29632e-13
  189 1393.90 0.00000 -1.31479e-13
  190 1393.90 0.00000 -1.38527e-14
  191 1393.90 0.00000 -2.01744e-13
  192 1393.90 0.00000 4.76221e-13
  193 1393.90 0.00000 -1.07713e-12
  194 1393.90 0.00000 2.47304e-13
  195 1393.90 0.00000 5.61506e-13
  196 1393.90 0.00000 -3.67096e-13
  197 1393.90 0.00000 8.35412e-13
  198 1393.90 0.00000 -3.00576e-13
  199 1393.90 0.00000 -5.81468e-13
  200 1393.90 0.00000 -2.00390e-12
  201 1393.90 0.00000 3.20707e-14
  202 1393.90 0.00000 -2.26010e-13
  203 1393.90 0.00000 -5.12516e-13
  204 1393.90 0.00000 -6.65946e-13
  205 1393.90 0.00000 -4.00851e-13
  206 1393.90 0.00000 2.33885e-13
  207 1393.90 0.00000 -2.71763e-14
  208 1393.90 0.00000 3.36953e-13
  209 1393.90 0.00000 1.99003e-13
  210 1393.90 0.00000 -9.82213e-13
  211 1393.90 0.00000 1.26300e-12
  212 1393.90 0.00000 3.27105e-13
  213 1393.90 0.00000 -1.54566e-12
  214 1393.90 0.00000 -1.24337e-12
  215 1393.90 0.00000 -1.71332e-12
  216 1393.90 0.00000 -6.18376e-13
  217 1393.90 0.00000 -5.83410e-13
  218 1393.90 0.00000 -6.48149e-13
  219 1393.90 0.00000 9.38687e-14
  220 1393.90 0.00000 6.44507e-13
  221 1393.90 0.00000 -6.47346e-14
  222 1393.90 0.00000 -7.42344e-13
  223 1393.90 0.00000 5.49276e-13
  224 1393.90 0.00000 4.28417e-14
  225 1393.90 0.00000 4.45119e-13
  226 1393.90 0.00000 -1.81900e-13
  227 1393.90 0.00000 -3.27867e-13
  228 1393.90 0.00000 -1.38764e-14
  229 1393.90 0.00000 4.89465e-13
  230 1393.90 0.00000 5.26318e-13
  231 1393.90 0.00000 9.28303e-13
  232 1393.90 0.00000 3.19089e-13
  233 1393.90 0.00000 4.76308e-13
  234 1393.90 0.00000 -6.77948e-13
  235 1393.90 0.00000 6.39257e-13
  236 1393.90 0.00000 3.98411e-13
  237 1393.90 0.00000 -2.31883e-12
  238 1393.90 0.00000 -5.50904e-13
  239 1393.90 0.00000 -2.37955e-13
  240 1393.90 0.00000 1.65655e-13
  241 1393.90 0.00000 -5.90157e-13
</Section>

newXOutput 51

<Section columns = "stress_xx | stress_yy | stress_xy">
  1 1439.31 0.00000 -1.05502e-12
  2 1439.31 0.00000 -2.67757e-13
  3 1439.31 0.00000 1.71899e-12
  4 1439.31 0.00000 6.62096e-13
  5 1439.31 0.00000 -1.06460e-12
  6 1439.31 0.00000 -1.37818e-12
  7 1439.31 0.00000 -8.95706e-13
  8 1439.31 0.00000 3.07432e-13
  9 1439.31 0.00000 4.79917e-13
  10 1439.31 0.00000 5.35051e-13
  11 1439.31 0.00000 -6.40606e-14
  12 1439.31 0.00000 6.07384e-13
  13 1439.31 0.00000 1.06182e-13
  14 1439.31 0.00000 2.13569e-13
  15 1439.31 0.00000 1.77667e-13
  16 1439.31 0.00000 -6.05614e-13
  17 1439.31 0.00000 -6.73536e-13
  18 1439.31 0.00000 3.49641e-13
  19 1439.31 0.00000 -2.96606e-13
  20 1439.31 0.00000 -1.71975e-12
  21 1439.31 0.00000 -1.08615e-12
  22 1439.31 0.00000 2.07129e-13
  23 1439.31 0.00000 -3.73140e-13
  24 1439.31 0.00000 -3.05939e-13
  25 1439.31 0.00000 -9.75997e-13
  26 1439.31 0.00000 -1.39665e-12
  27 1439.31 0.00000 -2.72764e-12
  28 1439.31 0.00000 5.89285e-13
  29 1439.31 0.00000 -1.76140e-13
  30 1439.31 0.00000 9.40693e-13
  31 1439.31 0.00000 1.28739e-12
  32 1439.31 0.00000 1.10186e-12
  33 1439.31 0.00000 -9.13732e-13
  34 1439.31 0.00000 -4.06824e-13
  35 1439.31 0.00000 -9.23755e-13
  36 1439.31 0.00000 -9.48235e-13
  37 1439.31 0.00000 3.58830e-13
  38 1439.31 0.00000 -1.38493e-13
  39 1439.31 0.00000 -7.46757e-13
  40 1439.31 0.00000 -2.89500e-13
  41 1439.31 0.00000 2.25623e-13
  42 1439.31 0.00000 5.73486e-13
  43 1439.31 0.00000 3.46797e-13
  44 1439.31 0.00000 -2.48846e-13
  45 1439.31 0.00000 -2.69240e-13
  46 1439.31 0.00000 1.83898e-13
  47 1439.31 0.00000 8.50596e-13
  48 1439.31 0.00000 1.35639e-12
  49 1439.31 0.00000 1.37860e-12
  50 1439.31 0.00000 5.66519e-13
  51 1439.31 0.00000 1.07324e-12
  52 1439.31 0.00000 2.02586e-13
  53 1439.31 0.00000 7.85748e-14
  54 1439.31 0.00000 -6.80940e-13
  55 1439.31 0.00000 -1.17317e-12
  56 1439.31 0.00000 -4.41949e-13
  57 1439.31 0.00000 -7.28072e-14
  58 1439.31 0.00000 1.50909e-12
  59 1439.31 0.00000 -9.14572e-14
  60 1439.31 0.00000 -3.60070e-13
  61 1439.31 0.00000 4.99493e-13
  62 1439.31 0.00000 4.99264e-13
  63 1439.31 0.00000 -2.24821e-13
  64 1439.31 0.00000 -3.81743e-13
  65 1439.31 0.00000 -2.52449e-13
  66 1439.31 0.00000 -1.31825e-13
  67 1439.31 0.00000 5.81478e-14
  68 1439.31 0.00000 8.28791e-14
  69 1439.31 0.00000 4.48377e-13
  70 1439.31 0.00000 -2.92222e-13
  71 1439.31 0.00000 1.94918e-13
  72 1439.31 0.00000 3.95657e-13
  73 1439.31 0.00000 4.96525e-13
  74 1439.31 0.00000 1.06250e-12
  75 1439.31 0.00000 5.20032e-13
  76 1439.31 0.00000 -8.78080e-13
  77 1439.31 0.00000 4.34455e-14
  78 1439.31 0.00000 -1.79675e-12
  79 1439.31 0.00000 3.25171e-13
  80 1439.31 0.00000 8.51219e-14
  81 1439.31 0.00000 -5.10107e-13
  82 1439.31 0.00000 -7.07692e-13
  83 1439.31 0.00000 1.41154e-13
  84 1439.31 0.00000 -5.44679e-14
  85 1439.31 0.00000 4.47254e-13
  86 1439.31 0.00000 -7.22098e-13
  87 1439.31 0.00000 1.75568e-12
  88 1439.31 0.00000 2.26123e-13
  89 1439.31 0.00000 -7.81300e-13
  90 1439.31 0.00000 4.93672e-13
  91 1439.31 0.00000 -6.24574e-15
  92 1439.31 0.00000 -8.10374e-13
  93 1439.31 0.00000 4.23496e-13
  94 1439.31 0.00000 -6.03479e-13
  95 1439.31 0.00000 9.77955e-13
  96 1439.31 0.00000 -7.10060e-13
  97 1439.31 0.00000 9.41119e-13
  98 1439.31 0.00000 3.57561e-13
  99 1439.31 0.00000 9.49058e-13
  100 1439.31 0.00000 2.89798e-13
  101 1439.31 0.00000 -9.00098e-13
  102 1439.31 0.00000 2.15715e-12
  103 1439.31 0.00000 1.33690e-12
  104 1439.31 0.00000 -5.91923e-13
  105 1439.31 0.00000 -9.81623e-13
  106 1439.31 0.00000 7.39697e-13
  107 1439.31 0.00000 -5.82602e-13
  108 1439.31 0.00000 -3.19285e-13
  109 1439.31 0.00000 -9.74650e-13
  110 1439.31 0.00000 1.63528e-12
  111 1439.31 0.00000 2.03330e-14
  112 1439.31 0.00000 -8.86895e-13
  113 1439.31 0.00000 -4.13878e-13
  114 1439.31 0.00000 -7.44247e-14
  115 1439.31 0.00000 2.62031e-14
  116 1439.31 0.00000 -3.38655e-13
  117 1439.31 0.00000 -4.24354e-14
  118 1439.31 0.00000 7.50041e-13
  119 1439.31 0.00000 2.92526e-13
  120 1439.31 0.00000 2.14631e-13
  121 1439.31 0.00000 -3.33811e-13
  122 1439.31 0.00000 2.96579e-13
  123 1439.31 0.00000 -1.69845e-12
  124 1439.31 0.00000 6.82200e-13
  125 1439.31 0.00000 2.16635e-13
  126 1439.31 0.00000 3.38837e-13
  127 1439.31 0.00000 -2.85156e-13
  128 1439.31 0.00000 1.64915e-13
  129 1439.31 0.00000 6.72114e-14
  130 1439.31 0.00000 3.38116e-13
  131 1439.31 0.00000 1.16400e-13
  132 1439.31 0.00000 2.82744e-13
  133 1439.31 0.00000 1.13691e-13
  134 1439.31 0.00000 3.83792e-13
  135 1439.31 0.00000 -5.02565e-13
  136 1439.31 0.00000 1.58912e-12
  137 1439.31 0.00000 3.51897e-13
  138 1439.31 0.00000 -9.16178e-13
  139 1439.31 0.00000 7.53021e-14
  140 1439.31 0.00000 4.24805e-13
  141 1439.31 0.00000 2.00287e-13
  142 1439.31 0.00000 1.47172e-13
  143 1439.31 0.00000 4.89954e-13
  144 1439.31 0.00000 -6.05134e-13
  145 1439.31 0.00000 -1.35483e-12
  146 1439.31 0.00000 2.17126e-13
  147 1439.31 0.00000 -6.55513e-13
  148 1439.31 0.00000 -2.34353e-13
  149 1439.31 0.00000 -9.89262e-13
  150 1439.31 0.00000 2.25851e-13
  151 1439.31 0.00000 3.24537e-13
  152 1439.31 0.00000 1.30914e-12
  153 1439.31 0.00000 -5.09799e-13
  154 1439.31 0.00000 5.95408e-14
  155 1439.31 0.00000 -7.31205e-13
  156 1439.31 0.00000 1.84938e-13
  157 1439.31 0.00000 -6.33313e-13
  158 1439.31 0.00000 -9.23172e-13
  159 1439.31 0.00000 -1.08921e-12
  160 1439.31 0.00000 1.95387e-13
  161 1439.31 0.00000 -2.57531e-12
  162 1439.31 0.00000 3.63915e-13
  163 1439.31 0.00000 -1.79150e-13
  164 1439.31 0.00000 -7.10180e-14
  165 1439.31 0.00000 3.71867e-14
  166 1439.31 0.00000 5.02646e-13
  167 1439.31 0.00000 -8.58362e-13
  168 1439.31 0.00000 4.41943e-13
  169 1439.31 0.00000 -8.88260e-13
  170 1439.31 0.00000 6.52747e-13
  171 1439.31 0.00000 3.44832e-13
  172 1439.31 0.00000 8.70935e-13
  173 1439.31 0.00000 4.42983e-13
  174 1439.31 0.00000 -4.71177e-13
  175 1439.31 0.00000 1.11875e-12
  176 1439.31 0.00000 -1.06261e-13
  177 1439.31 0.00000 5.42195e-13
  178 1439.31 0.00000 -5.13090e-13
  179 1439.31 0.00000 -9.14459e-15
  180 1439.31 0.00000 2.26348e-13
  181 1439.31 0.00000 1.80018e-12
  182 1439.31 0.00000 2.50365e-13
  183 1439.31 0.00000 5.06610e-13
  184 1439.31 0.00000 1.70274e-13
  185 1439.31 0.00000 -8.90365e-14
  186 1439.31 0.00000 1.72006e-13
  187 1439.31 0.00000 2.05083e-13
  188 1439.31 0.00000 5.95195e-14
  189 1439.31 0.00000 1.08630e-13
  190 1439.31 0.00000 1.08509e-13
  191 1439.31 0.00000 1.25344e-14
  192 1439.31 0.00000 2.41301e-14
  193 1439.31 0.00000 8.80240e-13
  194 1439.31 0.00000 -5.13768e-13
  195 1439.31 0.00000 -2.52634e-13
  196 1439.31 0.00000 -1.43772e-13
  197 1439.31 0.00000 -1.40323e-12
  198 1439.31 0.00000 -1.42180e-13
  199 1439.31 0.00000 2.42547e-13
  200 1439.31 0.00000 1.61394e-12
  201 1439.31 0.00000 -1.38012e-13
  202 1439.31 0.00000 -4.53948e-13
  203 1439.31 0.00000 6.54789e-13
  204 1439.31 0.00000 1.03236e-12
  205 1439.31 0.00000 -1.62314e-13
  206 1439.31 0.00000 -7.26807e-13
  207 1439.31 0.00000 -2.15453e-13
  208 1439.31 0.00000 -1.24293e-12
  209 1439.31 0.00000 -7.66204e-13
  210 1439.31 0.00000 1.14686e-12
  211 1439.31 0.00000 -9.14916e-13
  212 1439.31 0.00000 6.87626e-13
  213 1439.31 0.00000 1.53902e-12
  214 1439.31 0.00000 1.10310e-12
  215 1439.31 0.00000 1.89272e-12
  216 1439.31 0.00000 4.76792e-13
  217 1439.31 0.00000 1.04547e-12
  218 1439.31 0.00000 9.13121e-13
  219 1439.31 0.00000 3.56651e-13
  220 1439.31 0.00000 -1.81925e-13
  221 1439.31 0.00000 4.03898e-13
  222 1439.31 0.00000 4.48953e-13
  223 1439.31 0.00000 4.87701e-13
  224 1439.31 0.00000 -4.54294e-14
  225 1439.31 0.00000 5.85770e-14
  226 1439.31 0.00000 1.71591e-13
  227 1439.31 0.00000 6.46421e-13
  228 1439.31 0.00000 -6.87973e-13
  229 1439.31 0.00000 -1.99156e-13
  230 1439.31 0.00000 -3.88710e-13
  231 1439.31 0.00000 2.28025e-13
  232 1439.31 0.00000 -7.05332e-13
  233 1439.31 0.00000 -2.76685e-13
  234 1439.31 0.00000 5.73016e-13
  235 1439.31 0.00000 -6.83701e-13
  236 1439.31 0.00000 -5.37201e-13
  237 1439.31 0.00000 2.20576e-12
  238 1439.31 0.00000 4.14774e-14
  239 1439.31 0.00000 5.60549e-13
  240 1439.31 0.00000 -3.08462e-13
  241 1439.31 0.00000 5.33894e-13
</Section>

newXOutput 52

<Section columns = "stress_xx | stress_yy | stress_xy">
  1 1484.87 0.00000 1.22228e-12
  2 1484.87 0.00000 -6.63526e-13
  3 1484.87 0.00000 -2.22304e-12
  4 1484.87 0.00000 -5.62608e-13
  5 1484.87 0.00000 2.05778e-12
  6 1484.87 0.00000 1.82176e-12
  7 1484.87 0.00000 1.36764e-12
  8 1484.87 0.00000 2.22623e-13
  9 1484.87 0.00000 -2.95250e-14
  10 1484.87 0.00000 -2.63839e-13
  11 1484.87 0.00000 2.08029e-13
  12 1484.87 0.00000 2.50231e-13
  13 1484.87 0.00000 -4.62646e-13
  14 1484.87 0.00000 8.97523e-14
  15 1484.87 0.00000 6.11160e-13
  16 1484.87 0.00000 8.64701e-13
  17 1484.87 0.00000 -5.00775e-13
  18 1484.87 0.00000 -1.78508e-12
  19 1484.87 0.00000 -5.72169e-13
  20 1484.87 0.00000 1.79021e-12
  21 1484.87 0.00000 1.51411e-12
  22 1484.87 0.00000 1.01734e-12
  23 1484.87 0.00000 -5.20406e-13
  24 1484.87 0.00000 6.16314e-13
  25 1484.87 0.00000 3.96932e-13
  26 1484.87 0.00000 1.06331e-12
  27 1484.87 0.00000 2.26282e-12
  28 1484.87 0.00000 7.74576e-13
  29 1484.87 0.00000 4.92613e-13
  30 1484.87 0.00000 -5.03024e-13
  31 1484.87 0.00000 -1.63639e-12
  32 1484.87 0.00000 1.48398e-12
  33 1484.87 0.00000 5.16368e-13
  34 1484.87 0.00000 -7.89345e-13
  35 1484.87 0.00000 -1.30448e-13
  36 1484.87 0.00000 4.42762e-13
  37 1484.87 0.00000 -7.20906e-13
  38 1484.87 0.00000 7.35840e-13
  39 1484.87 0.00000 9.17862e-13
  40 1484.87 0.00000 -8.76625e-14
  41 1484.87 0.00000 -5.80671e-13
  42 1484.87 0.00000 -5.92374e-13
  43 1484.87 0.00000 -2.21143e-13
  44 1484.87 0.00000 3.40623e-13
  45 1484.87 0.00000 1.38134e-13
  46 1484.87 0.00000 -4.60239e-13
  47 1484.87 0.00000 -1.18912e-12
  48 1484.87 0.00000 -1.26220e-12
  49 1484.87 0.00000 -1.11068e-12
  50 1484.87 0.00000 -3.10632e-13
  51 1484.87 0.00000 -6.17542e-13
  52 1484.87 0.00000 -4.42434e-13
  53 1484.87 0.00000 2.05072e-13
  54 1484.87 0.00000 1.06311e-12
  55 1484.87 0.00000 1.56739e-12
  56 1484.87 0.00000 3.63742e-13
  57 1484.87 0.00000 -1.38303e-13
  58 1484.87 0.00000 -1.23513e-13
  59 1484.87 0.00000 2.59637e-13
  60 1484.87 0.00000 5.34986e-13
  61 1484.87 0.00000 -4.82973e-13
  62 1484.87 0.00000 -1.00145e-12
  63 1484.87 0.00000 3.31626e-13
  64 1484.87 0.00000 5.31362e-13
  65 1484.87 0.00000 -7.20537e-13
  66 1484.87 0.00000 5.56138e-13
  67 1484.87 0.00000 8.27083e-13
  68 1484.87 0.00000 -7.00979e-14
  69 1484.87 0.00000 -4.71865e-13
  70 1484.87 0.00000 3.39232e-14
  71 1484.87 0.00000 -1.64657e-13
  72 1484.87 0.00000 -8.18968e-14
  73 1484.87 0.00000 -9.08015e-13
  74 1484.87 0.00000 -7.83039e-13
  75 1484.87 0.00000 -9.46372e-13
  76 1484.87 0.00000 1.11867e-12
  77 1484.87 0.00000 -1.78084e-13
  78 1484.87 0.00000 2.12337e-12
  79 1484.87 0.00000 2.49872e-13
  80 1484.87 0.00000 -1.17329e-12
  81 1484.87 0.00000 1.48356e-12
  82 1484.87 0.00000 1.16239e-13
  83 1484.87 0.00000 4.91782e-14
  84 1484.87 0.00000 2.12743e-13
  85 1484.87 0.00000 -5.81507e-13
  86 1484.87 0.00000 1.61343e-12
  87 1484.87 0.00000 -1.69312e-12
  88 1484.87 0.00000 -3.16635e-12
  89 1484.87 0.00000 5.13360e-13
  90 1484.87 0.00000 -2.21424e-13
  91 1484.87 0.00000 -4.71066e-13
  92 1484.87 0.00000 2.72583e-13
  93 1484.87 0.00000 8.85299e-13
  94 1484.87 0.00000 4.30202e-13
  95 1484.87 0.00000 -6.10100e-13
  96 1484.87 0.00000 9.30740e-13
  97 1484.87 0.00000 -1.18044e-12
  98 1484.87 0.00000 2.18761e-13
  99 1484.87 0.00000 -5.37383e-13
  100 1484.87 0.00000 9.62687e-14
  101 1484.87 0.00000 6.26569e-13
  102 1484.87 0.00000 -1.51004e-12
  103 1484.87 0.00000 -1.68078e-12
  104 1484.87 0.00000 4.31691e-13
  105 1484.87 0.00000 7.05777e-13
  106 1484.87 0.00000 -7.28533e-13
  107 1484.87 0.00000 1.41711e-12
  108 1484.87 0.00000 -2.24904e-13
  109 1484.87 0.00000 1.34576e-12
  110 1484.87 0.00000 -2.07966e-13
  111 1484.87 0.00000 -5.75958e-13
  112 1484.87 0.00000 3.91115e-13
  113 1484.87 0.00000 2.60373e-13
  114 1484.87 0.00000 -4.23985e-13
  115 1484.87 0.00000 7.26999e-14
  116 1484.87 0.00000 6.66155e-13
  117 1484.87 0.00000 2.66918e-13
  118 1484.87 0.00000 -1.29349e-12
  119 1484.87 0.00000 4.84344e-14
  120 1484.87 0.00000 2.08304e-13
  121 1484.87 0.00000 1.06514e-13
  122 1484.87 0.00000 -3.08814e-13
  123 1484.87 0.00000 1.24566e-12
  124 1484.87 0.00000 6.49412e-13
  125 1484.87 0.00000 -5.93680e-13
  126 1484.87 0.00000 1.96832e-13
  127 1484.87 0.00000 7.28737e-13
  128 1484.87 0.00000 -1.64789e-13
  129 1484.87 0.00000 2.22245e-13
  130 1484.87 0.00000 -8.24510e-13
  131 1484.87 0.00000 1.90518e-13
  132 1484.87 0.00000 -2.25598e-13
  133 1484.87 0.00000 -7.66649e-13
  134 1484.87 0.00000 -4.28230e-13
  135 1484.87 0.00000 1.47823e-12
  136 1484.87 0.00000 -1.24550e-12
  137 1484.87 0.00000 5.88446e-13
  138 1484.87 0.00000 9.72571e-13
  139 1484.87 0.00000 3.90061e-15
  140 1484.87 0.00000 -6.26420e-13
  141 1484.87 0.00000 2.85028e-13
  142 1484.87 0.00000 3.33766e-13
  143 1484.87 0.00000 -7.40661e-13
  144 1484.87 0.00000 3.56244e-13
  145 1484.87 0.00000 3.57540e-13
  146 1484.87 0.00000 -1.97150e-13
  147 1484.87 0.00000 6.30443e-13
  148 1484.87 0.00000 5.87140e-13
  149 1484.87 0.00000 7.97849e-13
  150 1484.87 0.00000 -4.37480e-13
  151 1484.87 0.00000 -6.27855e-13
  152 1484.87 0.00000 -7.12945e-13
  153 1484.87 0.00000 -1.24618e-13
  154 1484.87 0.00000 2.74061e-14
  155 1484.87 0.00000 1.55751e-12
  156 1484.87 0.00000 1.13472e-12
  157 1484.87 0.00000 -1.88178e-13
  158 1484.87 0.00000 1.21086e-12
  159 1484.87 0.00000 1.04403e-12
  160 1484.87 0.00000 -1.02438e-13
  161 1484.87 0.00000 2.75230e-12
  162 1484.87 0.00000 -3.25924e-15
  163 1484.87 0.00000 -4.14852e-13
  164 1484.87 0.00000 -2.45567e-13
  165 1484.87 0.00000 5.04946e-14
  166 1484.87 0.00000 -4.47934e-13
  167 1484.87 0.00000 7.86997e-13
  168 1484.87 0.00000 5.33057e-14
  169 1484.87 0.00000 1.01212e-12
  170 1484.87 0.00000 4.50291e-13
  171 1484.87 0.00000 -1.10596e-14
  172 1484.87 0.00000 -1.18731e-12
  173 1484.87 0.00000 -3.51042e-13
  174 1484.87 0.00000 5.96261e-13
  175 1484.87 0.00000 -1.07658e-12
  176 1484.87 0.00000 3.57144e-13
  177 1484.87 0.00000 -2.21477e-12
  178 1484.87 0.00000 1.82065e-13
  179 1484.87 0.00000 3.93807e-13
  180 1484.87 0.00000 4.66042e-15
  181 1484.87 0.00000 -6.22760e-13
  182 1484.87 0.00000 -8.40647e-14
  183 1484.87 0.00000 -8.58886e-13
  184 1484.87 0.00000 -8.25669e-13
  185 1484.87 0.00000 -5.89085e-15
  186 1484.87 0.00000 -4.55766e-13
  187 1484.87 0.00000 -1.54509e-12
  188 1484.87 0.00000 9.56379e-14
  189 1484.87 0.00000 -2.11629e-13
  190 1484.87 0.00000 1.24952e-13
  191 1484.87 0.00000 5.35357e-14
  192 1484.87 0.00000 2.26682e-13
  193 1484.87 0.00000 -1.13855e-12
  194 1484.87 0.00000 6.40484e-13
  195 1484.87 0.00000 -2.65206e-13
  196 1484.87 0.00000 6.72167e-13
  197 1484.87 0.00000 1.64295e-12
  198 1484.87 0.00000 -5.50918e-13
  199 1484.87 0.00000 -6.52878e-13
  200 1484.87 0.00000 -1.20668e-12
  201 1484.87 0.00000 -3.07293e-13
  202 1484.87 0.00000 9.07174e-13
  203 1484.87 0.00000 -1.13925e-12
  204 1484.87 0.00000 -9.92985e-13
  205 1484.87 0.00000 2.30797e-13
  206 1484.87 0.00000 1.08572e-12
  207 1484.87 0.00000 1.07863e-13
  208 1484.87 0.00000 5.97363e-13
  209 1484.87 0.00000 -1.13719e-13
  210 1484.87 0.00000 -9.63099e-13
  211 1484.87 0.00000 1.21144e-12
  212 1484.87 0.00000 9.28101e-13
  213 1484.87 0.00000 -1.79811e-12
  214 1484.87 0.00000 -6.53733e-13
  215 1484.87 0.00000 -1.11374e-12
  216 1484.87 0.00000 -8.98719e-13
  217 1484.87 0.00000 -1.72014e-12
  218 1484.87 0.00000 -8.29562e-13
  219 1484.87 0.00000 -1.65167e-13
  220 1484.87 0.00000 -1.10696e-13
  221 1484.87 0.00000 -7.36013e-13
  222 1484.87 0.00000 6.81855e-13
  223 1484.87 0.00000 3.54732e-14
  224 1484.87 0.00000 1.65055e-13
  225 1484.87 0.00000 -8.09163e-14
  226 1484.87 0.00000 6.65591e-13
  227 1484.87 0.00000 -4.52845e-14
  228 1484.87 0.00000 1.00089e-13
  229 1484.87 0.00000 6.04188e-13
  230 1484.87 0.00000 -8.91128e-14
  231 1484.87 0.00000 -1.82857e-13
  232 1484.87 0.00000 -2.12978e-13
  233 1484.87 0.00000 1.99527e-12
  234 1484.87 0.00000 -3.66343e-13
  235 1484.87 0.00000 3.52002e-13
  236 1484.87 0.00000 2.77812e-13
  237 1484.87 0.00000 -1.31547e-12
  238 1484.87 0.00000 3.11148e-13
  239 1484.87 0.00000 -2.11725e-13
  240 1484.87 0.00000 6.33933e-13
  241 1484.87 0.00000 -3.79666e-13
</Section>

newXOutput 53

<Section columns = "stress_xx | stress_yy | stress_xy">
  1 1530.57 0.00000 -1.35172e-12
  2 1530.57 0.00000 1.06110e-12
  3 1530.57 0.00000 1.25999e-12
  4 1530.57 0.00000 4.53958e-13
  5 1530.57 0.00000 -1.53838e-12
  6 1530.57 0.00000 -5.05635e-13
  7 1530.57 0.00000 -4.10853e-13
  8 1530.57 0.00000 -1.74664e-13
  9 1530.57 0.00000 -2.12710e-13
  10 1530.57 0.00000 2.87767e-13
  11 1530.57 0.00000 -9.51713e-13
  12 1530.57 0.00000 -6.37430e-13
  13 1530.57 0.00000 -3.91732e-14
  14 1530.57 0.00000 1.57624e-13
  15 1530.57 0.00000 -7.92669e-13
  16 1530.57 0.00000 2.34418e-14
  17 1530.57 0.00000 1.05873e-12
  18 1530.57 0.00000 1.87505e-12
  19 1530.57 0.00000 6.54965e-13
  20 1530.57 0.00000 -9.86388e-13
  21 1530.57 0.00000 -6.57511e-13
  22 1530.57 0.00000 -9.20360e-13
  23 1530.57 0.00000 3.07523e-13
  24 1530.57 0.00000 -4.77364e-13
  25 1530.57 0.00000 0.00000
  26 1530.57 0.00000 -9.32978e-13
  27 1530.57 0.00000 -2.19938e-12
  28 1530.57 0.00000 -1.20618e-12
  29 1530.57 0.00000 -1.38417e-12
  30 1530.57 0.00000 -3.49405e-13
  31 1530.57 0.00000 7.72897e-13
  32 1530.57 0.00000 -1.92668e-12
  33 1530.57 0.00000 -8.64477e-13
  34 1530.57 0.00000 1.92519e-13
  35 1530.57 0.00000 -4.60271e-14
  36 1530.57 0.00000 7.44486e-13
  37 1530.57 0.00000 4.97722e-13
  38 1530.57 0.00000 -6.63784e-13
  39 1530.57 0.00000 -1.08616e-12
  40 1530.57 0.00000 5.35940e-13
  41 1530.57 0.00000 7.11354e-13
  42 1530.57 0.00000 7.20849e-13
  43 1530.57 0.00000 8.67622e-14
  44 1530.57 0.00000 -1.26897e-13
  45 1530.57 0.00000 -4.70590e-13
  46 1530.57 0.00000 6.90590e-13
  47 1530.57 0.00000 1.47450e-12
  48 1530.57 0.00000 1.47490e-12
  49 1530.57 0.00000 1.26723e-12
  50 1530.57 0.00000 3.55009e-13
  51 1530.57 0.00000 2.72289e-13
  52 1530.57 0.00000 2.63785e-13
  53 1530.57 0.00000 -2.64878e-13
  54 1530.57 0.00000 -1.24785e-12
  55 1530.57 0.00000 -1.67152e-12
  56 1530.57 0.00000 -4.65143e-13
  57 1530.57 0.00000 -6.88349e-14
  58 1530.57 0.00000 4.65454e-13
  59 1530.57 0.00000 2.54029e-13
  60 1530.57 0.00000 -4.87332e-13
  61 1530.57 0.00000 5.25032e-13
  62 1530.57 0.00000 3.76166e-13
  63 1530.57 0.00000 1.63339e-12
  64 1530.57 0.00000 -5.42576e-13
  65 1530.57 0.00000 3.11031e-13
  66 1530.57 0.00000 -4.93551e-13
  67 1530.57 0.00000 -1.13086e-12
  68 1530.57 0.00000 2.14099e-13
  69 1530.57 0.00000 -2.02288e-13
  70 1530.57 0.00000 -4.25583e-13
  71 1530.57 0.00000 1.66316e-14
  72 1530.57 0.00000 5.06266e-13
  73 1530.57 0.00000 4.77785e-13
  74 1530.57 0.00000 5.05183e-13
  75 1530.57 0.00000 2.70215e-13
  76 1530.57 0.00000 5.17605e-13
  77 1530.57 0.00000 1.08631e-13
  78 1530.57 0.00000 -2.06328e-12
  79 1530.57 0.00000 2.10316e-13
  80 1530.57 0.00000 6.53229e-13
  81 1530.57 0.00000 -2.55694e-12
  82 1530.57 0.00000 5.75120e-13
  83 1530.57 0.00000 -2.80967e-14
  84 1530.57 0.00000 -5.93386e-13
  85 1530.57 0.00000 6.11567e-13
  86 1530.57 0.00000 -5.01974e-13
  87 1530.57 0.00000 1.78664e-12
  88 1530.57 0.00000 2.35028e-12
  89 1530.57 0.00000 -1.58430e-13
  90 1530.57 0.00000 2.03329e-13
  91 1530.57 0.00000 1.24808e-12
  92 1530.57 0.00000 -1.03250e-12
  93 1530.57 0.00000 -2.78989e-13
  94 1530.57 0.00000 -8.54370e-13
  95 1530.57 0.00000 4.03265e-13
  96 1530.57 0.00000 -1.32698e-12
  97 1530.57 0.00000 1.80839e-13
  98 1530.57 0.00000 3.90751e-14
  99 1530.57 0.00000 7.49780e-13
  100 1530.57 0.00000 -1.26235e-13
  101 1530.57 0.00000 -1.17627e-12
  102 1530.57 0.00000 1.17126e-12
  103 1530.57 0.00000 2.18401e-12
  104 1530.57 0.00000 -6.70944e-13
  105 1530.57 0.00000 -1.90319e-12
  106 1530.57 0.00000 1.49361e-13
  107 1530.57 0.00000 -8.47258e-13
  108 1530.57 0.00000 -1.76532e-13
  109 1530.57 0.00000 -1.66060e-12
  110 1530.57 0.00000 -1.00909e-12
  111 1530.57 0.00000 -7.00140e-14
  112 1530.57 0.00000 6.39954e-13
  113 1530.57 0.00000 -3.16295e-13
  114 1530.57 0.00000 -1.57437e-13
  115 1530.57 0.00000 1.07354e-13
  116 1530.57 0.00000 -9.34591e-13
  117 1530.57 0.00000 2.00579e-13
  118 1530.57 0.00000 9.62069e-13
  119 1530.57 0.00000 2.99220e-13
  120 1530.57 0.00000 -1.03059e-12
  121 1530.57 0.00000 -4.27835e-13
  122 1530.57 0.00000 -9.91987e-14
  123 1530.57 0.00000 -1.10518e-12
  124 1530.57 0.00000 -1.45277e-14
  125 1530.57 0.00000 6.96665e-13
  126 1530.57 0.00000 -3.85901e-13
  127 1530.57 0.00000 -5.60630e-13
  128 1530.57 0.00000 -2.00610e-14
  129 1530.57 0.00000 1.46900e-13
  130 1530.57 0.00000 5.65638e-13
  131 1530.57 0.00000 -5.10287e-13
  132 1530.57 0.00000 -3.63312e-13
  133 1530.57 0.00000 7.62030e-13
  134 1530.57 0.00000 2.33500e-13
  135 1530.57 0.00000 -1.35829e-12
  136 1530.57 0.00000 1.39791e-12
  137 1530.57 0.00000 8.75180e-14
  138 1530.57 0.00000 2.87204e-13
  139 1530.57 0.00000 2.13773e-13
  140 1530.57 0.00000 1.19068e-12
  141 1530.57 0.00000 1.29895e-13
  142 1530.57 0.00000 -4.50841e-13
  143 1530.57 0.00000 3.56560e-13
  144 1530.57 0.00000 3.32459e-13
  145 1530.57 0.00000 -2.18347e-13
  146 1530.57 0.00000 3.19657e-13
  147 1530.57 0.00000 -1.29685e-12
  148 1530.57 0.00000 -6.16763e-13
  149 1530.57 0.00000 -1.25254e-12
  150 1530.57 0.00000 4.61563e-13
  151 1530.57 0.00000 3.48712e-13
  152 1530.57 0.00000 9.01348e-13
  153 1530.57 0.00000 5.05892e-14
  154 1530.57 0.00000 -1.28866e-13
  155 1530.57 0.00000 -2.30630e-13
  156 1530.57 0.00000 -5.79828e-14
  157 1530.57 0.00000 -2.95577e-13
  158 1530.57 0.00000 -2.19439e-12
  159 1530.57 0.00000 -1.00793e-12
  160 1530.57 0.00000 1.10397e-13
  161 1530.57 0.00000 -2.36510e-12
  162 1530.57 0.00000 6.40973e-13
  163 1530.57 0.00000 -6.31150e-13
  164 1530.57 0.00000 2.12262e-13
  165 1530.57 0.00000 -1.79152e-13
  166 1530.57 0.00000 2.78994e-13
  167 1530.57 0.00000 -2.34292e-13
  168 1530.57 0.00000 -1.30671e-13
  169 1530.57 0.00000 -1.05120e-12
  170 1530.57 0.00000 1.99920e-13
  171 1530.57 0.00000 -4.54251e-13
  172 1530.57 0.00000 5.15333e-13
  173 1530.57 0.00000 7.06105e-13
  174 1530.57 0.00000 2.64013e-13
  175 1530.57 0.00000 1.25518e-12
  176 1530.57 0.00000 -2.82818e-13
  177 1530.57 0.00000 1.43688e-12
  178 1530.57 0.00000 -8.87957e-14
  179 1530.57 0.00000 -4.56852e-13
  180 1530.57 0.00000 1.60377e-13
  181 1530.57 0.00000 1.70602e-13
  182 1530.57 0.00000 1.76275e-13
  183 1530.57 0.00000 8.86893e-13
  184 1530.57 0.00000 1.09375e-12
  185 1530.57 0.00000 -1.85734e-13
  186 1530.57 0.00000 -2.22297e-13
  187 1530.57 0.00000 6.59164e-13
  188 1530.57 0.00000 -8.44228e-14
  189 1530.57 0.00000 1.64574e-13
  190 1530.57 0.00000 -8.58497e-14
  191 1530.57 0.00000 5.22824e-14
  192 1530.57 0.00000 -3.84571e-14
  193 1530.57 0.00000 4.74086e-13
  194 1530.57 0.00000 -6.22387e-13
  195 1530.57 0.00000 -2.20525e-13
  196 1530.57 0.00000 -1.80645e-12
  197 1530.57 0.00000 -1.62486e-12
  198 1530.57 0.00000 3.58491e-13
  199 1530.57 0.00000 4.86549e-13
  200 1530.57 0.00000 6.77122e-13
  201 1530.57 0.00000 4.24236e-13
  202 1530.57 0.00000 -4.24087e-13
  203 1530.57 0.00000 2.54160e-13
  204 1530.57 0.00000 1.07086e-12
  205 1530.57 0.00000 -9.69552e-14
  206 1530.57 0.00000 -9.51506e-13
  207 1530.57 0.00000 6.81251e-14
  208 1530.57 0.00000 -1.25005e-12
  209 1530.57 0.00000 -5.51822e-13
  210 1530.57 0.00000 9.62513e-13
  211 1530.57 0.00000 -8.59557e-13
  212 1530.57 0.00000 -1.37144e-13
  213 1530.57 0.00000 1.88433e-12
  214 1530.57 0.00000 2.16120e-13
  215 1530.57 0.00000 1.26039e-12
  216 1530.57 0.00000 4.06693e-13
  217 1530.57 0.00000 7.75234e-13
  218 1530.57 0.00000 7.39013e-13
  219 1530.57 0.00000 1.81378e-13
  220 1530.57 0.00000 -1.41293e-13
  221 1530.57 0.00000 5.60455e-13
  222 1530.57 0.00000 -1.62633e-13
  223 1530.57 0.00000 -3.30744e-13
  224 1530.57 0.00000 -1.03136e-13
  225 1530.57 0.00000 -2.15233e-13
  226 1530.57 0.00000 1.03605e-14
  227 1530.57 0.00000 1.80448e-13
  228 1530.57 0.00000 9.56463e-13
  229 1530.57 0.00000 -6.31600e-13
  230 1530.57 0.00000 -9.60866e-13
  231 1530.57 0.00000 9.90072e-13
  232 1530.57 0.00000 1.57395e-13
  233 1530.57 0.00000 -1.01016e-12
  234 1530.57 0.00000 -2.88425e-13
  235 1530.57 0.00000 -9.55419e-13
  236 1530.57 0.00000 -4.41533e-13
  237 1530.57 0.00000 1.69745e-12
  238 1530.57 0.00000 4.43395e-15
  239 1530.57 0.00000 5.08391e-13
  240 1530.57 0.00000 -8.31571e-13
  241 1530.57 0.00000 5.93628e-13
</Section>

newXOutput 54

<Section columns = "stress_xx | stress_yy | stress_xy">
  1 1576.41 0.00000 9.48962e-13
  2 1576.41 0.00000 1.57400e-13
  3 1576.41 0.00000 -1.13735e-12
  4 1576.41 0.00000 -1.28031e-12
  5 1576.41 0.00000 8.03201e-13
  6 1576.41 0.00000 1.56431e-14
  7 1576.41 0.00000 3.26956e-13
  8 1576.41 0.00000 6.89306e-14
  9 1576.41 0.00000 9.74888e-13
  10 1576.41 0.00000 5.72546e-13
  11 1576.41 0.00000 6.59666e-13
  12 1576.41 0.00000 4.66563e-13
  13 1576.41 0.00000 6.49082e-16
  14 1576.41 0.00000 2.70014e-13
  15 1576.41 0.00000 3.83555e-13
  16 1576.41 0.00000 -7.31605e-13
  17 1576.41 0.00000 -9.85205e-13
  18 1576.41 0.00000 -1.07901e-12
  19 1576.41 0.00000 2.09585e-13
  20 1576.41 0.00000 9.65666e-13
  21 1576.41 0.00000 6.08409e-13
  22 1576.41 0.00000 -6.93466e-13
  23 1576.41 0.00000 -6.26671e-13
  24 1576.41 0.00000 -2.88391e-14
  25 1576.41 0.00000 -2.00659e-13
  26 1576.41 0.00000 1.59612e-12
  27 1576.41 0.00000 2.42580e-12
  28 1576.41 0.00000 1.00521e-12
  29 1576.41 0.00000 1.33720e-12
  30 1576.41 0.00000 3.17239e-13
  31 1576.41 0.00000 -1.10052e-12
  32 1576.41 0.00000 -5.77039e-13
  33 1576.41 0.00000 4.03336e-13
  34 1576.41 0.00000 1.90907e-13
  35 1576.41 0.00000 -4.23927e-14
  36 1576.41 0.00000 -9.56456e-13
  37 1576.41 0.00000 -1.06110e-12
  38 1576.41 0.00000 9.43071e-13
  39 1576.41 0.00000 1.46653e-12
  40 1576.41 0.00000 -6.45932e-13
  41 1576.41 0.00000 8.29349e-13
  42 1576.41 0.00000 4.52828e-13
  43 1576.41 0.00000 1.73806e-13
  44 1576.41 0.00000 -4.52213e-14
  45 1576.41 0.00000 -1.38341e-13
  46 1576.41 0.00000 -8.03140e-13
  47 1576.41 0.00000 -9.72549e-13
  48 1576.41 0.00000 -1.83566e-12
  49 1576.41 0.00000 -1.87100e-12
  50 1576.41 0.00000 -4.81271e-13
  51 1576.41 0.00000 -2.69023e-13
  52 1576.41 0.00000 -2.71334e-14
  53 1576.41 0.00000 6.48522e-13
  54 1576.41 0.00000 1.42065e-12
  55 1576.41 0.00000 1.58409e-12
  56 1576.41 0.00000 2.78466e-13
  57 1576.41 0.00000 -2.02131e-13
  58 1576.41 0.00000 -1.30327e-12
  59 1576.41 0.00000 -2.15887e-13
  60 1576.41 0.00000 1.66845e-12
  61 1576.41 0.00000 2.67569e-13
  62 1576.41 0.00000 -2.80630e-13
  63 1576.41 0.00000 -1.56239e-12
  64 1576.41 0.00000 -4.17506e-14
  65 1576.41 0.00000 -4.44497e-13
  66 1576.41 0.00000 5.04467e-13
  67 1576.41 0.00000 2.64253e-13
  68 1576.41 0.00000 -4.76694e-13
  69 1576.41 0.00000 2.01843e-13
  70 1576.41 0.00000 9.47236e-13
  71 1576.41 0.00000 -1.32154e-13
  72 1576.41 0.00000 -4.44373e-13
  73 1576.41 0.00000 -5.40663e-13
  74 1576.41 0.00000 -1.44797e-13
  75 1576.41 0.00000 -3.43691e-13
  76 1576.41 0.00000 5.06138e-13
  77 1576.41 0.00000 -3.68888e-14
  78 1576.41 0.00000 2.54836e-12
  79 1576.41 0.00000 -9.03350e-14
  80 1576.41 0.00000 -7.69369e-13
  81 1576.41 0.00000 2.15343e-12
  82 1576.41 0.00000 -7.66221e-14
  83 1576.41 0.00000 9.47907e-14
  84 1576.41 0.00000 1.30364e-12
  85 1576.41 0.00000 2.46183e-14
  86 1576.41 0.00000 1.56556e-12
  87 1576.41 0.00000 -1.99705e-12
  88 1576.41 0.00000 -2.06821e-12
  89 1576.41 0.00000 1.21106e-13
  90 1576.41 0.00000 -6.55806e-14
  91 1576.41 0.00000 -1.28572e-12
  92 1576.41 0.00000 8.53592e-13
  93 1576.41 0.00000 -1.20485e-14
  94 1576.41 0.00000 1.80087e-13
  95 1576.41 0.00000 -4.34711e-13
  96 1576.41 0.00000 8.58967e-13
  97 1576.41 0.00000 -1.21683e-12
  98 1576.41 0.00000 3.43470e-13
  99 1576.41 0.00000 -2.75401e-13
  100 1576.41 0.00000 -7.96714e-14
  101 1576.41 0.00000 8.59389e-13
  102 1576.41 0.00000 -1.72873e-12
  103 1576.41 0.00000 -1.16472e-12
  104 1576.41 0.00000 6.88193e-13
  105 1576.41 0.00000 1.44403e-12
  106 1576.41 0.00000 -1.18622e-14
  107 1576.41 0.00000 2.10375e-12
  108 1576.41 0.00000 1.45751e-13
  109 1576.41 0.00000 2.17509e-12
  110 1576.41 0.00000 -3.24361e-13
  111 1576.41 0.00000 -2.43635e-13
  112 1576.41 0.00000 -9.89124e-13
  113 1576.41 0.00000 1.01691e-12
  114 1576.41 0.00000 5.48464e-13
  115 1576.41 0.00000 -4.58635e-14
  116 1576.41 0.00000 1.23614e-12
  117 1576.41 0.00000 -3.66802e-13
  118 1576.41 0.00000 -1.16646e-12
  119 1576.41 0.00000 -1.80928e-13
  120 1576.41 0.00000 6.32516e-13
  121 1576.41 0.00000 3.33736e-13
  122 1576.41 0.00000 4.42130e-13
  123 1576.41 0.00000 1.69813e-12
  124 1576.41 0.00000 1.07301e-12
  125 1576.41 0.00000 -7.51874e-13
  126 1576.41 0.00000 5.38836e-13
  127 1576.41 0.00000 4.74296e-13
  128 1576.41 0.00000 -2.44286e-13
  129 1576.41 0.00000 5.67108e-13
  130 1576.41 0.00000 -1.02502e-12
  131 1576.41 0.00000 5.68326e-13
  132 1576.41 0.00000 6.03660e-13
  133 1576.41 0.00000 -8.01369e-13
  134 1576.41 0.00000 4.18163e-14
  135 1576.41 0.00000 1.03106e-12
  136 1576.41 0.00000 -1.43411e-12
  137 1576.41 0.00000 1.66195e-12
  138 1576.41 0.00000 -8.40684e-13
  139 1576.41 0.00000 -1.21753e-13
  140 1576.41 0.00000 -6.53889e-13
  141 1576.41 0.00000 4.65779e-14
  142 1576.41 0.00000 5.23497e-13
  143 1576.41 0.00000 -6.22800e-13
  144 1576.41 0.00000 5.62649e-13
  145 1576.41 0.00000 1.71040e-14
  146 1576.41 0.00000 -5.11965e-13
  147 1576.41 0.00000 1.03354e-12
  148 1576.41 0.00000 1.19765e-12
  149 1576.41 0.00000 4.91527e-13
  150 1576.41 0.00000 -5.41683e-13
  151 1576.41 0.00000 1.85472e-14
  152 1576.41 0.00000 -1.17124e-12
  153 1576.41 0.00000 8.97851e-14
  154 1576.41 0.00000 5.56957e-13
  155 1576.41 0.00000 1.31065e-12
  156 1576.41 0.00000 5.20817e-13
  157 1576.41 0.00000 3.40736e-13
  158 1576.41 0.00000 1.93471e-12
  159 1576.41 0.00000 6.37987e-13
  160 1576.41 0.00000 4.21496e-13
  161 1576.41 0.00000 3.12761e-12
  162 1576.41 0.00000 -1.44107e-13
  163 1576.41 0.00000 -2.38139e-13
  164 1576.41 0.00000 -3.07406e-13
  165 1576.41 0.00000 4.15095e-13
  166 1576.41 0.00000 -2.23044e-13
  167 1576.41 0.00000 -2.96196e-14
  168 1576.41 0.00000 1.60458e-13
  169 1576.41 0.00000 7.06565e-13
  170 1576.41 0.00000 1.07576e-12
  171 1576.41 0.00000 3.80633e-13
  172 1576.41 0.00000 -2.32722e-13
  173 1576.41 0.00000 -8.47392e-13
  174 1576.41 0.00000 8.75854e-13
  175 1576.41 0.00000 -1.52435e-12
  176 1576.41 0.00000 9.06447e-14
  177 1576.41 0.00000 -8.28091e-13
  178 1576.41 0.00000 1.83970e-13
  179 1576.41 0.00000 2.19327e-13
  180 1576.41 0.00000 -5.44953e-13
  181 1576.41 0.00000 -8.31897e-13
  182 1576.41 0.00000 -2.96796e-13
  183 1576.41 0.00000 -1.13567e-12
  184 1576.41 0.00000 -6.58180e-13
  185 1576.41 0.00000 3.40571e-13
  186 1576.41 0.00000 -3.72909e-13
  187 1576.41 0.00000 -1.06168e-12
  188 1576.41 0.00000 5.04834e-13
  189 1576.41 0.00000 2.09885e-13
  190 1576.41 0.00000 4.07500e-13
  191 1576.41 0.00000 2.79132e-13
  192 1576.41 0.00000 -1.53478e-13
  193 1576.41 0.00000 -7.45179e-13
  194 1576.41 0.00000 -3.81048e-13
  195 1576.41 0.00000 -2.53195e-13
  196 1576.41 0.00000 -1.23524e-13
  197 1576.41 0.00000 1.54359e-12
  198 1576.41 0.00000 -3.18423e-13
  199 1576.41 0.00000 -7.51676e-13
  200 1576.41 0.00000 -1.78551e-12
  201 1576.41 0.00000 -1.71573e-13
  202 1576.41 0.00000 7.24377e-13
  203 1576.41 0.00000 1.19151e-13
  204 1576.41 0.00000 -1.00005e-12
  205 1576.41 0.00000 -2.96138e-13
  206 1576.41 0.00000 5.21090e-13
  207 1576.41 0.00000 -2.06680e-13
  208 1576.41 0.00000 1.37399e-12
  209 1576.41 0.00000 -3.28937e-13
  210 1576.41 0.00000 -7.21683e-13
  211 1576.41 0.00000 9.42832e-13
  212 1576.41 0.00000 7.23707e-13
  213 1576.41 0.00000 -2.31667e-12
  214 1576.41 0.00000 -4.98577e-14
  215 1576.41 0.00000 -6.31559e-13
  216 1576.41 0.00000 -6.17060e-13
  217 1576.41 0.00000 -1.66253e-12
  218 1576.41 0.00000 -2.24446e-13
  219 1576.41 0.00000 2.86236e-13
  220 1576.41 0.00000 7.79190e-14
  221 1576.41 0.00000 -4.35877e-14
  222 1576.41 0.00000 -6.25647e-14
  223 1576.41 0.00000 1.90765e-13
  224 1576.41 0.00000 2.05327e-14
  225 1576.41 0.00000 -2.11001e-13
  226 1576.41 0.00000 3.41479e-14
  227 1576.41 0.00000 -3.52319e-13
  228 1576.41 0.00000 -1.52049e-12
  229 1576.41 0.00000 1.08860e-12
  230 1576.41 0.00000 -9.70377e-14
  231 1576.41 0.00000 -1.47786e-12
  232 1576.41 0.00000 3.53141e-14
  233 1576.41 0.00000 7.30540e-13
  234 1576.41 0.00000 2.15811e-14
  235 1576.41 0.00000 1.10378e-12
  236 1576.41 0.00000 7.77420e-13
  237 1576.41 0.00000 -6.11199e-13
  238 1576.41 0.00000 4.37870e-13
  239 1576.41 0.00000 -1.04006e-12
  240 1576.41 0.00000 8.08979e-13
  241 1576.41 0.00000 2.08221e-13
</Section>

newXOutput 55

<Section columns = "stress_xx | stress_yy | stress_xy">
  1 1622.40 0.00000 -1.35014e-12
  2 1622.40 0.00000 -3.55271e-15
  3 1622.40 0.00000 4.19918e-13
  4 1622.40 0.00000 1.79670e-12
  5 1622.40 0.00000 -1.71217e-12
  6 1622.40 0.00000 -1.42553e-12
  7 1622.40 0.00000 -8.70343e-13
  8 1622.40 0.00000 -7.97724e-13
  9 1622.40 0.00000 -6.07672e-13
  10 1622.40 0.00000 5.37476e-13
  11 1622.40 0.00000 3.53393e-13
  12 1622.40 0.00000 -3.08590e-13
  13 1622.40 0.00000 5.13925e-13
  14 1622.40 0.00000 1.05919e-12
  15 1622.40 0.00000 4.93321e-13
  16 1622.40 0.00000 6.01049e-13
  17 1622.40 0.00000 1.19823e-12
  18 1622.40 0.00000 1.69184e-12
  19 1622.40 0.00000 -1.94095e-13
  20 1622.40 0.00000 9.48167e-13
  21 1622.40 0.00000 2.20428e-12
  22 1622.40 0.00000 1.62868e-12
  23 1622.40 0.00000 2.31689e-14
  24 1622.40 0.00000 -4.16009e-14
  25 1622.40 0.00000 -1.03098e-13
  26 1622.40 0.00000 -1.29101e-12
  27 1622.40 0.00000 -2.08886e-12
  28 1622.40 0.00000 -4.44632e-13
  29 1622.40 0.00000 -5.01280e-13
  30 1622.40 0.00000 -2.73076e-13
  31 1622.40 0.00000 1.08023e-12
  32 1622.40 0.00000 2.43938e-13
  33 1622.40 0.00000 -3.40590e-13
  34 1622.40 0.00000 8.63512e-13
  35 1622.40 0.00000 6.42330e-13
  36 1622.40 0.00000 1.06695e-12
  37 1622.40 0.00000 3.63391e-13
  38 1622.40 0.00000 -2.70388e-12
  39 1622.40 0.00000 -1.77498e-12
  40 1622.40 0.00000 1.32073e-12
  41 1622.40 0.00000 4.34521e-13
  42 1622.40 0.00000 1.77176e-13
  43 1622.40 0.00000 4.04990e-13
  44 1622.40 0.00000 -1.09688e-13
  45 1622.40 0.00000 -4.31445e-13
  46 1622.40 0.00000 6.64180e-14
  47 1622.40 0.00000 6.18610e-13
  48 1622.40 0.00000 2.46249e-12
  49 1622.40 0.00000 2.00253e-12
  50 1622.40 0.00000 4.71734e-13
  51 1622.40 0.00000 3.20858e-13
  52 1622.40 0.00000 1.61566e-13
  53 1622.40 0.00000 -1.14274e-12
  54 1622.40 0.00000 -1.37766e-12
  55 1622.40 0.00000 -1.70265e-12
  56 1622.40 0.00000 -5.46093e-13
  57 1622.40 0.00000 4.98692e-13
  58 1622.40 0.00000 2.13840e-12
  59 1622.40 0.00000 1.75270e-13
  60 1622.40 0.00000 -9.03221e-13
  61 1622.40 0.00000 -3.90054e-13
  62 1622.40 0.00000 -8.72847e-14
  63 1622.40 0.00000 2.55952e-13
  64 1622.40 0.00000 1.09895e-12
  65 1622.40 0.00000 4.71986e-13
  66 1622.40 0.00000 -8.45177e-13
  67 1622.40 0.00000 -1.33893e-13
  68 1622.40 0.00000 9.79154e-14
  69 1622.40 0.00000 -5.94943e-14
  70 1622.40 0.00000 -5.42877e-13
  71 1622.40 0.00000 1.02769e-14
  72 1622.40 0.00000 -2.23288e-13
  73 1622.40 0.00000 1.14488e-12
  74 1622.40 0.00000 1.24904e-13
  75 1622.40 0.00000 4.67533e-13
  76 1622.40 0.00000 -1.03003e-12
  77 1622.40 0.00000 4.41037e-13
  78 1622.40 0.00000 -2.23259e-12
  79 1622.40 0.00000 5.41296e-14
  80 1622.40 0.00000 4.27394e-13
  81 1622.40 0.00000 -2.79347e-12
  82 1622.40 0.00000 1.29963e-12
  83 1622.40 0.00000 -5.29347e-13
  84 1622.40 0.00000 -1.63882e-12
  85 1622.40 0.00000 5.83531e-13
  86 1622.40 0.00000 -1.45297e-12
  87 1622.40 0.00000 1.45297e-12
  88 1622.40 0.00000 2.36095e-12
  89 1622.40 0.00000 -3.95058e-13
  90 1622.40 0.00000 -7.96657e-14
  91 1622.40 0.00000 1.66245e-12
  92 1622.40 0.00000 -5.35308e-13
  93 1622.40 0.00000 -6.70428e-13
  94 1622.40 0.00000 -6.34533e-13
  95 1622.40 0.00000 3.64367e-13
  96 1622.40 0.00000 -4.09098e-13
  97 1622.40 0.00000 2.15404e-14
  98 1622.40 0.00000 7.22184e-13
  99 1622.40 0.00000 7.38531e-13
  100 1622.40 0.00000 -4.98394e-14
  101 1622.40 0.00000 -4.05390e-13
  102 1622.40 0.00000 7.32333e-13
  103 1622.40 0.00000 1.18479e-12
  104 1622.40 0.00000 -7.33534e-13
  105 1622.40 0.00000 -7.10917e-13
  106 1622.40 0.00000 -3.03018e-13
  107 1622.40 0.00000 -5.44966e-13
  108 1622.40 0.00000 5.77918e-13
  109 1622.40 0.00000 -1.70370e-12
  110 1622.40 0.00000 -2.71130e-14
  111 1622.40 0.00000 7.65899e-13
  112 1622.40 0.00000 -1.30862e-13
  113 1622.40 0.00000 -8.45973e-13
  114 1622.40 0.00000 -7.51353e-14
  115 1622.40 0.00000 2.85082e-13
  116 1622.40 0.00000 -1.73926e-12
  117 1622.40 0.00000 5.81874e-13
  118 1622.40 0.00000 8.64169e-13
  119 1622.40 0.00000 4.65399e-13
  120 1622.40 0.00000 3.80072e-13
  121 1622.40 0.00000 -3.18758e-13
  122 1622.40 0.00000 1.51506e-13
  123 1622.40 0.00000 -1.02006e-12
  124 1622.40 0.00000 -1.12572e-12
  125 1622.40 0.00000 -4.01710e-14
  126 1622.40 0.00000 -8.38671e-13
  127 1622.40 0.00000 -4.67686e-13
  128 1622.40 0.00000 5.94310e-13
  129 1622.40 0.00000 -5.09812e-13
  130 1622.40 0.00000 7.48835e-13
  131 1622.40 0.00000 1.80001e-13
  132 1622.40 0.00000 -1.16724e-13
  133 1622.40 0.00000 7.99702e-13
  134 1622.40 0.00000 -9.98497e-14
  135 1622.40 0.00000 2.87306e-13
  136 1622.40 0.00000 1.81782e-12
  137 1622.40 0.00000 -7.16537e-13
  138 1622.40 0.00000 -1.83256e-13
  139 1622.40 0.00000 4.19328e-13
  140 1622.40 0.00000 -1.36225e-12
  141 1622.40 0.00000 -3.44270e-13
  142 1622.40 0.00000 -3.61447e-13
  143 1622.40 0.00000 5.21720e-13
  144 1622.40 0.00000 7.54649e-13
  145 1622.40 0.00000 3.25958e-13
  146 1622.40 0.00000 8.63232e-13
  147 1622.40 0.00000 -3.40412e-13
  148 1622.40 0.00000 -1.35620e-12
  149 1622.40 0.00000 -9.86173e-13
  150 1622.40 0.00000 8.90492e-14
  151 1622.40 0.00000 -5.32712e-13
  152 1622.40 0.00000 1.31970e-12
  153 1622.40 0.00000 -1.15899e-13
  154 1622.40 0.00000 -7.14884e-13
  155 1622.40 0.00000 -1.70369e-12
  156 1622.40 0.00000 4.58744e-13
  157 1622.40 0.00000 -8.49285e-15
  158 1622.40 0.00000 -2.37816e-12
  159 1622.40 0.00000 -1.33140e-12
  160 1622.40 0.00000 -4.96198e-13
  161 1622.40 0.00000 -2.33166e-12
  162 1622.40 0.00000 -1.79414e-13
  163 1622.40 0.00000 -7.57623e-14
  164 1622.40 0.00000 -8.74977e-14
  165 1622.40 0.00000 -3.65481e-13
  166 1622.40 0.00000 2.05782e-13
  167 1622.40 0.00000 -1.66805e-13
  168 1622.40 0.00000 7.08035e-13
  169 1622.40 0.00000 -6.24481e-13
  170 1622.40 0.00000 -2.36437e-13
  171 1622.40 0.00000 2.51845e-13
  172 1622.40 0.00000 9.88553e-13
  173 1622.40 0.00000 1.17953e-12
  174 1622.40 0.00000 -6.90417e-13
  175 1622.40 0.00000 1.30899e-12
  176 1622.40 0.00000 -5.71363e-13
  177 1622.40 0.00000 -1.82159e-13
  178 1622.40 0.00000 -5.85991e-13
  179 1622.40 0.00000 -8.74389e-13
  180 1622.40 0.00000 9.65784e-13
  181 1622.40 0.00000 7.96924e-13
  182 1622.40 0.00000 -3.39803e-14
  183 1622.40 0.00000 5.39760e-13
  184 1622.40 0.00000 1.01341e-12
  185 1622.40 0.00000 -3.45819e-13
  186 1622.40 0.00000 1.21490e-12
  187 1622.40 0.00000 2.58576e-13
  188 1622.40 0.00000 3.49863e-13
  189 1622.40 0.00000 -4.60009e-13
  190 1622.40 0.00000 1.56948e-13
  191 1622.40 0.00000 -1.70713e-13
  192 1622.40 0.00000 3.45822e-13
  193 1622.40 0.00000 1.29145e-12
  194 1622.40 0.00000 3.42509e-13
  195 1622.40 0.00000 5.45069e-13
  196 1622.40 0.00000 1.23277e-12
  197 1622.40 0.00000 -1.71833e-12
  198 1622.40 0.00000 7.95972e-14
  199 1622.40 0.00000 4.56034e-13
  200 1622.40 0.00000 9.51231e-13
  201 1622.40 0.00000 1.03703e-13
  202 1622.40 0.00000 8.93953e-13
  203 1622.40 0.00000 -6.81201e-13
  204 1622.40 0.00000 4.74569e-13
  205 1622.40 0.00000 4.42102e-13
  206 1622.40 0.00000 1.44863e-12
  207 1622.40 0.00000 6.43492e-13
  208 1622.40 0.00000 -1.02378e-12
  209 1622.40 0.00000 -9.72872e-13
  210 1622.40 0.00000 8.22027e-13
  211 1622.40 0.00000 -1.59416e-12
  212 1622.40 0.00000 3.19404e-13
  213 1622.40 0.00000 2.35306e-12
  214 1622.40 0.00000 5.56929e-13
  215 1622.40 0.00000 8.24191e-13
  216 1622.40 0.00000 -2.20802e-13
  217 1622.40 0.00000 1.17789e-12
  218 1622.40 0.00000 5.13502e-14
  219 1622.40 0.00000 -1.06180e-13
  220 1622.40 0.00000 -3.71677e-13
  221 1622.40 0.00000 -1.59177e-13
  222 1622.40 0.00000 1.31172e-12
  223 1622.40 0.00000 3.38680e-13
  224 1622.40 0.00000 -1.09423e-13
  225 1622.40 0.00000 1.08763e-12
  226 1622.40 0.00000 -2.06864e-13
  227 1622.40 0.00000 7.01674e-13
  228 1622.40 0.00000 3.80423e-13
  229 1622.40 0.00000 -9.43820e-13
  230 1622.40 0.00000 -1.28985e-12
  231 1622.40 0.00000 9.33878e-13
  232 1622.40 0.00000 -3.58498e-13
  233 1622.40 0.00000 3.75378e-13
  234 1622.40 0.00000 1.52500e-14
  235 1622.40 0.00000 1.50003e-13
  236 1622.40 0.00000 -1.26274e-12
  237 1622.40 0.00000 8.36193e-13
  238 1622.40 0.00000 9.43905e-14
  239 1622.40 0.00000 -3.05254e-13
  240 1622.40 0.00000 3.41686e-13
  241 1622.40 0.00000 2.93723e-13
</Section>

newXOutput 56

<Section columns = "stress_xx | stress_yy | stress_xy">
  1 1668.54 0.00000 1.09992e-12
  2 1668.54 0.00000 -1.74569e-12
  3 1668.54 0.00000 -8.37973e-13
  4 1668.54 0.00000 -1.80161e-12
  5 1668.54 0.00000 1.58476e-12
  6 1668.54 0.00000 1.93766e-12
  7 1668.54 0.00000 1.55336e-12
  8 1668.54 0.00000 8.38055e-13
  9 1668.54 0.00000 1.10475e-12
  10 1668.54 0.00000 3.12473e-13
  11 1668.54 0.00000 1.91801e-14
  12 1668.54 0.00000 3.15453e-13
  13 1668.54 0.00000 6.19326e-13
  14 1668.54 0.00000 -6.03758e-13
  15 1668.54 0.00000 -1.11268e-12
  16 1668.54 0.00000 -1.32404e-12
  17 1668.54 0.00000 -2.53906e-12
  18 1668.54 0.00000 -1.84176e-12
  19 1668.54 0.00000 -3.30758e-13
  20 1668.54 0.00000 5.09734e-13
  21 1668.54 0.00000 2.28235e-13
  22 1668.54 0.00000 7.54548e-13
  23 1668.54 0.00000 -3.74068e-13
  24 1668.54 0.00000 -7.58092e-13
  25 1668.54 0.00000 -6.04655e-13
  26 1668.54 0.00000 1.42291e-12
  27 1668.54 0.00000 2.26261e-12
  28 1668.54 0.00000 2.01876e-13
  29 1668.54 0.00000 7.08789e-13
  30 1668.54 0.00000 1.60676e-13
  31 1668.54 0.00000 -1.66419e-12
  32 1668.54 0.00000 -1.30368e-12
  33 1668.54 0.00000 -9.83779e-13
  34 1668.54 0.00000 -2.43623e-12
  35 1668.54 0.00000 -1.33912e-12
  36 1668.54 0.00000 -1.66906e-12
  37 1668.54 0.00000 -1.97901e-12
  38 1668.54 0.00000 1.14101e-12
  39 1668.54 0.00000 1.05884e-12
  40 1668.54 0.00000 -1.61584e-12
  41 1668.54 0.00000 7.18908e-13
  42 1668.54 0.00000 5.26371e-13
  43 1668.54 0.00000 1.89095e-13
  44 1668.54 0.00000 1.39595e-13
  45 1668.54 0.00000 3.52772e-13
  46 1668.54 0.00000 2.25026e-13
  47 1668.54 0.00000 -1.09235e-12
  48 1668.54 0.00000 -3.01664e-12
  49 1668.54 0.00000 -2.55997e-12
  50 1668.54 0.00000 -2.98559e-13
  51 1668.54 0.00000 -4.12809e-13
  52 1668.54 0.00000 -1.15522e-13
  53 1668.54 0.00000 9.29830e-13
  54 1668.54 0.00000 1.26551e-12
  55 1668.54 0.00000 2.11681e-12
  56 1668.54 0.00000 5.85408e-13
  57 1668.54 0.00000 -7.25545e-13
  58 1668.54 0.00000 -1.96669e-12
  59 1668.54 0.00000 -3.11475e-13
  60 1668.54 0.00000 1.08525e-12
  61 1668.54 0.00000 8.08756e-14
  62 1668.54 0.00000 8.61854e-15
  63 1668.54 0.00000 -8.38587e-13
  64 1668.54 0.00000 -2.16913e-13
  65 1668.54 0.00000 -5.15583e-13
  66 1668.54 0.00000 1.15836e-12
  67 1668.54 0.00000 -8.96659e-14
  68 1668.54 0.00000 -1.44847e-13
  69 1668.54 0.00000 -5.97938e-13
  70 1668.54 0.00000 8.45382e-13
  71 1668.54 0.00000 -1.09103e-14
  72 1668.54 0.00000 -4.10056e-13
  73 1668.54 0.00000 -2.64518e-13
  74 1668.54 0.00000 -3.54472e-13
  75 1668.54 0.00000 -9.71688e-14
  76 1668.54 0.00000 2.19388e-12
  77 1668.54 0.00000 -4.28314e-13
  78 1668.54 0.00000 1.15102e-12
  79 1668.54 0.00000 -6.75811e-13
  80 1668.54 0.00000 -3.25206e-13
  81 1668.54 0.00000 2.31188e-12
  82 1668.54 0.00000 -1.13574e-12
  83 1668.54 0.00000 4.25376e-13
  84 1668.54 0.00000 1.29120e-12
  85 1668.54 0.00000 -2.66365e-13
  86 1668.54 0.00000 1.05624e-12
  87 1668.54 0.00000 -1.31703e-12
  88 1668.54 0.00000 -2.00560e-12
  89 1668.54 0.00000 1.23748e-12
  90 1668.54 0.00000 5.90710e-14
  91 1668.54 0.00000 -1.61873e-12
  92 1668.54 0.00000 1.81264e-13
  93 1668.54 0.00000 1.02223e-12
  94 1668.54 0.00000 2.20255e-12
  95 1668.54 0.00000 -9.56414e-13
  96 1668.54 0.00000 5.30156e-13
  97 1668.54 0.00000 -2.73415e-13
  98 1668.54 0.00000 -7.55800e-13
  99 1668.54 0.00000 -1.51093e-12
  100 1668.54 0.00000 8.37845e-13
  101 1668.54 0.00000 2.75239e-13
  102 1668.54 0.00000 -1.00750e-12
  103 1668.54 0.00000 -1.78497e-12
  104 1668.54 0.00000 1.03857e-12
  105 1668.54 0.00000 2.02002e-12
  106 1668.54 0.00000 -6.09016e-13
  107 1668.54 0.00000 1.67309e-12
  108 1668.54 0.00000 -4.10682e-13
  109 1668.54 0.00000 1.76508e-12
  110 1668.54 0.00000 -4.71134e-13
  111 1668.54 0.00000 -1.24669e-12
  112 1668.54 0.00000 4.21625e-13
  113 1668.54 0.00000 9.30571e-13
  114 1668.54 0.00000 -7.44266e-13
  115 1668.54 0.00000 -8.03799e-13
  116 1668.54 0.00000 1.61911e-12
  117 1668.54 0.00000 -8.48058e-13
  118 1668.54 0.00000 -7.19582e-13
  119 1668.54 0.00000 -8.54985e-13
  120 1668.54 0.00000 -1.15809e-12
  121 1668.54 0.00000 3.20342e-13
  122 1668.54 0.00000 -4.32292e-13
  123 1668.54 0.00000 5.09089e-13
  124 1668.54 0.00000 1.32034e-13
  125 1668.54 0.00000 2.48924e-13
  126 1668.54 0.00000 5.20027e-13
  127 1668.54 0.00000 8.79167e-13
  128 1668.54 0.00000 -6.06407e-13
  129 1668.54 0.00000 5.50768e-13
  130 1668.54 0.00000 -5.49862e-13
  131 1668.54 0.00000 -3.65484e-13
  132 1668.54 0.00000 5.96779e-13
  133 1668.54 0.00000 -1.30586e-12
  134 1668.54 0.00000 -8.56205e-14
  135 1668.54 0.00000 1.46179e-12
  136 1668.54 0.00000 -2.04344e-12
  137 1668.54 0.00000 -2.29554e-13
  138 1668.54 0.00000 6.68805e-13
  139 1668.54 0.00000 -5.43383e-13
  140 1668.54 0.00000 1.33597e-12
  141 1668.54 0.00000 -3.31977e-13
  142 1668.54 0.00000 6.21036e-13
  143 1668.54 0.00000 -5.20096e-13
  144 1668.54 0.00000 -9.80283e-13
  145 1668.54 0.00000 -1.73978e-12
  146 1668.54 0.00000 -6.84338e-13
  147 1668.54 0.00000 8.21201e-13
  148 1668.54 0.00000 9.58547e-13
  149 1668.54 0.00000 1.46746e-12
  150 1668.54 0.00000 -9.23778e-13
  151 1668.54 0.00000 5.46611e-13
  152 1668.54 0.00000 -1.29957e-12
  153 1668.54 0.00000 -5.01227e-13
  154 1668.54 0.00000 1.99462e-13
  155 1668.54 0.00000 1.29417e-12
  156 1668.54 0.00000 1.08138e-12
  157 1668.54 0.00000 -3.86490e-14
  158 1668.54 0.00000 2.05854e-12
  159 1668.54 0.00000 2.03655e-12
  160 1668.54 0.00000 4.36150e-13
  161 1668.54 0.00000 2.94321e-12
  162 1668.54 0.00000 8.29817e-14
  163 1668.54 0.00000 5.75900e-13
  164 1668.54 0.00000 -1.90912e-14
  165 1668.54 0.00000 9.07977e-13
  166 1668.54 0.00000 -1.13121e-13
  167 1668.54 0.00000 -1.57317e-14
  168 1668.54 0.00000 -6.95175e-13
  169 1668.54 0.00000 1.14054e-12
  170 1668.54 0.00000 6.85523e-13
  171 1668.54 0.00000 -5.50047e-14
  172 1668.54 0.00000 -1.01843e-12
  173 1668.54 0.00000 -9.53717e-13
  174 1668.54 0.00000 -7.38937e-13
  175 1668.54 0.00000 -1.30819e-12
  176 1668.54 0.00000 7.00228e-13
  177 1668.54 0.00000 -5.98918e-13
  178 1668.54 0.00000 7.77257e-13
  179 1668.54 0.00000 5.43433e-13
  180 1668.54 0.00000 -1.30762e-12
  181 1668.54 0.00000 -1.23771e-12
  182 1668.54 0.00000 -9.35083e-13
  183 1668.54 0.00000 -1.19980e-12
  184 1668.54 0.00000 -1.64916e-12
  185 1668.54 0.00000 9.30974e-13
  186 1668.54 0.00000 -1.67426e-12
  187 1668.54 0.00000 -9.33528e-13
  188 1668.54 0.00000 -8.21747e-13
  189 1668.54 0.00000 3.34123e-13
  190 1668.54 0.00000 -6.83899e-14
  191 1668.54 0.00000 9.60593e-13
  192 1668.54 0.00000 -2.09268e-13
  193 1668.54 0.00000 -1.41554e-12
  194 1668.54 0.00000 -3.55849e-13
  195 1668.54 0.00000 -6.00941e-13
  196 1668.54 0.00000 -9.68076e-13
  197 1668.54 0.00000 2.35102e-12
  198 1668.54 0.00000 3.49887e-13
  199 1668.54 0.00000 -7.82721e-13
  200 1668.54 0.00000 -1.19853e-12
  201 1668.54 0.00000 1.84560e-13
  202 1668.54 0.00000 -1.52437e-12
  203 1668.54 0.00000 5.78668e-13
  204 1668.54 0.00000 -8.98161e-13
  205 1668.54 0.00000 9.18235e-14
  206 1668.54 0.00000 3.75036e-13
  207 1668.54 0.00000 -5.22827e-13
  208 1668.54 0.00000 -4.08282e-13
  209 1668.54 0.00000 4.75346e-13
  210 1668.54 0.00000 -9.17341e-13
  211 1668.54 0.00000 2.08281e-12
  212 1668.54 0.00000 5.98962e-13
  213 1668.54 0.00000 -2.83956e-12
  214 1668.54 0.00000 -8.78038e-13
  215 1668.54 0.00000 -2.14305e-12
  216 1668.54 0.00000 -1.94920e-13
  217 1668.54 0.00000 -8.29931e-13
  218 1668.54 0.00000 -4.36200e-13
  219 1668.54 0.00000 6.13113e-13
  220 1668.54 0.00000 3.23888e-13
  221 1668.54 0.00000 7.06403e-14
  222 1668.54 0.00000 -1.53932e-12
  223 1668.54 0.00000 -3.52974e-13
  224 1668.54 0.00000 -3.77633e-15
  225 1668.54 0.00000 2.31930e-13
  226 1668.54 0.00000 6.90649e-13
  227 1668.54 0.00000 -4.53182e-13
  228 1668.54 0.00000 -1.45401e-13
  229 1668.54 0.00000 7.89800e-13
  230 1668.54 0.00000 8.63397e-13
  231 1668.54 0.00000 -1.14590e-12
  232 1668.54 0.00000 6.83969e-13
  233 1668.54 0.00000 -5.91831e-13
  234 1668.54 0.00000 -3.18276e-13
  235 1668.54 0.00000 1.26993e-12
  236 1668.54 0.00000 1.60161e-12
  237 1668.54 0.00000 -1.47165e-12
  238 1668.54 0.00000 -6.72304e-14
  239 1668.54 0.00000 5.85441e-13
  240 1668.54 0.00000 -3.59713e-13
  241 1668.54 0.00000 -1.04212e-12
</Section>

newXOutput 57

<Section columns = "stress_xx | stress_yy | stress_xy">
  1 1714.83 0.00000 -1.83472e-12
  2 1714.83 0.00000 1.24627e-12
  3 1714.83 0.00000 6.56913e-13
  4 1714.83 0.00000 2.33935e-12
  5 1714.83 0.00000 -2.38126e-12
  6 1714.83 0.00000 -2.15241e-12
  7 1714.83 0.00000 -1.45033e-12
  8 1714.83 0.00000 -3.69379e-13
  9 1714.83 0.00000 -1.08123e-12
  10 1714.83 0.00000 -7.50474e-13
  11 1714.83 0.00000 -6.36862e-13
  12 1714.83 0.00000 1.80035e-13
  13 1714.83 0.00000 1.05233e-13
  14 1714.83 0.00000 1.79344e-12
  15 1714.83 0.00000 1.41902e-12
  16 1714.83 0.00000 1.62211e-12
  17 1714.83 0.00000 1.40602e-12
  18 1714.83 0.00000 1.21136e-12
  19 1714.83 0.00000 1.09041e-13
  20 1714.83 0.00000 -4.65146e-13
  21 1714.83 0.00000 5.87786e-13
  22 1714.83 0.00000 8.11991e-13
  23 1714.83 0.00000 7.31648e-13
  24 1714.83 0.00000 6.26974e-13
  25 1714.83 0.00000 1.11450e-12
  26 1714.83 0.00000 -8.05521e-13
  27 1714.83 0.00000 -2.16399e-12
  28 1714.83 0.00000 -1.02787e-12
  29 1714.83 0.00000 -7.31207e-13
  30 1714.83 0.00000 1.48492e-14
  31 1714.83 0.00000 1.89266e-12
  32 1714.83 0.00000 1.05847e-12
  33 1714.83 0.00000 -1.23421e-12
  34 1714.83 0.00000 -2.73385e-13
  35 1714.83 0.00000 1.30602e-12
  36 1714.83 0.00000 1.23550e-12
  37 1714.83 0.00000 7.76210e-13
  38 1714.83 0.00000 -1.69087e-12
  39 1714.83 0.00000 -2.11084e-12
  40 1714.83 0.00000 -2.26297e-14
  41 1714.83 0.00000 -3.62100e-13
  42 1714.83 0.00000 4.34188e-14
  43 1714.83 0.00000 5.20782e-13
  44 1714.83 0.00000 3.02783e-13
  45 1714.83 0.00000 -2.37897e-13
  46 1714.83 0.00000 -2.42535e-13
  47 1714.83 0.00000 1.40736e-12
  48 1714.83 0.00000 3.42791e-12
  49 1714.83 0.00000 2.99020e-12
  50 1714.83 0.00000 4.08232e-13
  51 1714.83 0.00000 3.76740e-13
  52 1714.83 0.00000 -1.33560e-13
  53 1714.83 0.00000 -8.70690e-13
  54 1714.83 0.00000 -1.14816e-12
  55 1714.83 0.00000 -1.68759e-12
  56 1714.83 0.00000 -5.46013e-13
  57 1714.83 0.00000 5.21154e-13
  58 1714.83 0.00000 2.74336e-12
  59 1714.83 0.00000 -3.63646e-13
  60 1714.83 0.00000 -1.07591e-12
  61 1714.83 0.00000 -3.45131e-13
  62 1714.83 0.00000 8.89262e-14
  63 1714.83 0.00000 6.71278e-13
  64 1714.83 0.00000 1.66828e-13
  65 1714.83 0.00000 5.40662e-13
  66 1714.83 0.00000 -1.04020e-12
  67 1714.83 0.00000 1.58292e-13
  68 1714.83 0.00000 2.64199e-13
  69 1714.83 0.00000 4.47005e-13
  70 1714.83 0.00000 -7.02422e-13
  71 1714.83 0.00000 1.41893e-13
  72 1714.83 0.00000 4.82521e-13
  73 1714.83 0.00000 1.58022e-13
  74 1714.83 0.00000 3.97627e-13
  75 1714.83 0.00000 2.92878e-13
  76 1714.83 0.00000 -1.25829e-12
  77 1714.83 0.00000 3.68234e-13
  78 1714.83 0.00000 -8.57238e-13
  79 1714.83 0.00000 2.96645e-13
  80 1714.83 0.00000 4.94330e-13
  81 1714.83 0.00000 -2.46812e-12
  82 1714.83 0.00000 8.58121e-13
  83 1714.83 0.00000 -1.06062e-12
  84 1714.83 0.00000 -1.90357e-12
  85 1714.83 0.00000 1.04557e-12
  86 1714.83 0.00000 -1.29941e-12
  87 1714.83 0.00000 1.44761e-12
  88 1714.83 0.00000 3.96934e-13
  89 1714.83 0.00000 -9.27547e-13
  90 1714.83 0.00000 9.91250e-14
  91 1714.83 0.00000 1.53222e-12
  92 1714.83 0.00000 -3.12026e-13
  93 1714.83 0.00000 1.57539e-12
  94 1714.83 0.00000 -1.73104e-12
  95 1714.83 0.00000 1.23207e-12
  96 1714.83 0.00000 -6.10515e-13
  97 1714.83 0.00000 1.07007e-12
  98 1714.83 0.00000 1.02579e-12
  99 1714.83 0.00000 1.15917e-12
  100 1714.83 0.00000 -1.19287e-12
  101 1714.83 0.00000 -5.97406e-13
  102 1714.83 0.00000 5.87456e-13
  103 1714.83 0.00000 9.18997e-13
  104 1714.83 0.00000 -6.85475e-13
  105 1714.83 0.00000 -1.85949e-12
  106 1714.83 0.00000 7.40438e-13
  107 1714.83 0.00000 -9.16310e-13
  108 1714.83 0.00000 3.44598e-13
  109 1714.83 0.00000 -1.88150e-12
  110 1714.83 0.00000 4.60152e-13
  111 1714.83 0.00000 1.01791e-12
  112 1714.83 0.00000 -4.91256e-13
  113 1714.83 0.00000 -1.24030e-12
  114 1714.83 0.00000 5.80573e-13
  115 1714.83 0.00000 8.17763e-13
  116 1714.83 0.00000 -2.10513e-12
  117 1714.83 0.00000 -4.05129e-13
  118 1714.83 0.00000 1.52091e-12
  119 1714.83 0.00000 5.48002e-13
  120 1714.83 0.00000 1.07080e-12
  121 1714.83 0.00000 -7.68520e-13
  122 1714.83 0.00000 -2.55359e-13
  123 1714.83 0.00000 -9.56260e-13
  124 1714.83 0.00000 -2.57101e-13
  125 1714.83 0.00000 2.56354e-13
  126 1714.83 0.00000 -5.40626e-13
  127 1714.83 0.00000 -4.02595e-13
  128 1714.83 0.00000 1.54321e-12
  129 1714.83 0.00000 -2.37009e-13
  130 1714.83 0.00000 -8.78239e-13
  131 1714.83 0.00000 -4.63405e-13
  132 1714.83 0.00000 -3.76590e-13
  133 1714.83 0.00000 8.57146e-13
  134 1714.83 0.00000 -7.15355e-14
  135 1714.83 0.00000 -2.48381e-13
  136 1714.83 0.00000 2.10330e-12
  137 1714.83 0.00000 4.00207e-13
  138 1714.83 0.00000 -2.59048e-13
  139 1714.83 0.00000 6.30396e-13
  140 1714.83 0.00000 -5.26299e-13
  141 1714.83 0.00000 -1.13263e-13
  142 1714.83 0.00000 -8.12862e-13
  143 1714.83 0.00000 1.06657e-12
  144 1714.83 0.00000 3.11380e-13
  145 1714.83 0.00000 -7.60759e-13
  146 1714.83 0.00000 1.08729e-12
  147 1714.83 0.00000 -1.44831e-12
  148 1714.83 0.00000 -1.09150e-12
  149 1714.83 0.00000 -1.18962e-12
  150 1714.83 0.00000 1.20532e-12
  151 1714.83 0.00000 -5.00082e-13
  152 1714.83 0.00000 1.36487e-12
  153 1714.83 0.00000 9.44754e-13
  154 1714.83 0.00000 -8.25316e-14
  155 1714.83 0.00000 -1.39345e-12
  156 1714.83 0.00000 4.70671e-13
  157 1714.83 0.00000 2.62971e-13
  158 1714.83 0.00000 -1.76963e-12
  159 1714.83 0.00000 -1.87029e-12
  160 1714.83 0.00000 -4.64767e-13
  161 1714.83 0.00000 -2.34846e-12
  162 1714.83 0.00000 -3.14257e-13
  163 1714.83 0.00000 -1.27485e-13
  164 1714.83 0.00000 -5.49093e-13
  165 1714.83 0.00000 -1.18972e-12
  166 1714.83 0.00000 1.16186e-13
  167 1714.83 0.00000 3.82861e-13
  168 1714.83 0.00000 -7.47236e-14
  169 1714.83 0.00000 -8.28736e-13
  170 1714.83 0.00000 7.40899e-13
  171 1714.83 0.00000 -2.81080e-13
  172 1714.83 0.00000 1.06372e-12
  173 1714.83 0.00000 1.66719e-12
  174 1714.83 0.00000 6.86859e-15
  175 1714.83 0.00000 1.65562e-12
  176 1714.83 0.00000 -1.04008e-12
  177 1714.83 0.00000 -1.68538e-13
  178 1714.83 0.00000 -9.56297e-13
  179 1714.83 0.00000 -9.09899e-13
  180 1714.83 0.00000 8.30835e-13
  181 1714.83 0.00000 7.32350e-13
  182 1714.83 0.00000 6.16472e-13
  183 1714.83 0.00000 1.24590e-12
  184 1714.83 0.00000 1.68595e-12
  185 1714.83 0.00000 -1.29001e-12
  186 1714.83 0.00000 2.24302e-12
  187 1714.83 0.00000 -6.05223e-13
  188 1714.83 0.00000 8.07757e-13
  189 1714.83 0.00000 -3.47799e-13
  190 1714.83 0.00000 -2.00295e-13
  191 1714.83 0.00000 -6.46131e-13
  192 1714.83 0.00000 1.83273e-13
  193 1714.83 0.00000 1.18599e-12
  194 1714.83 0.00000 -2.28881e-13
  195 1714.83 0.00000 5.43643e-13
  196 1714.83 0.00000 9.76120e-13
  197 1714.83 0.00000 -2.11679e-12
  198 1714.83 0.00000 4.27389e-13
  199 1714.83 0.00000 1.15837e-12
  200 1714.83 0.00000 1.90499e-12
  201 1714.83 0.00000 1.08477e-13
  202 1714.83 0.00000 4.58530e-14
  203 1714.83 0.00000 -5.14927e-13
  204 1714.83 0.00000 1.13010e-12
  205 1714.83 0.00000 -6.33378e-14
  206 1714.83 0.00000 1.47349e-12
  207 1714.83 0.00000 8.92719e-13
  208 1714.83 0.00000 -2.17572e-13
  209 1714.83 0.00000 -1.58530e-12
  210 1714.83 0.00000 7.59243e-13
  211 1714.83 0.00000 -2.46299e-12
  212 1714.83 0.00000 -3.59868e-13
  213 1714.83 0.00000 3.08295e-12
  214 1714.83 0.00000 7.84105e-13
  215 1714.83 0.00000 9.83629e-13
  216 1714.83 0.00000 8.43916e-13
  217 1714.83 0.00000 5.92102e-13
  218 1714.83 0.00000 4.55107e-13
  219 1714.83 0.00000 -2.13965e-13
  220 1714.83 0.00000 -4.86423e-13
  221 1714.83 0.00000 8.27530e-13
  222 1714.83 0.00000 2.56296e-12
  223 1714.83 0.00000 -8.39527e-14
  224 1714.83 0.00000 1.97218e-13
  225 1714.83 0.00000 -2.02676e-13
  226 1714.83 0.00000 -6.45436e-13
  227 1714.83 0.00000 5.01574e-13
  228 1714.83 0.00000 6.14397e-13
  229 1714.83 0.00000 -8.74077e-13
  230 1714.83 0.00000 -5.55719e-13
  231 1714.83 0.00000 9.02451e-13
  232 1714.83 0.00000 1.89151e-13
  233 1714.83 0.00000 1.79024e-12
  234 1714.83 0.00000 7.66847e-13
  235 1714.83 0.00000 -1.71795e-12
  236 1714.83 0.00000 -1.92956e-12
  237 1714.83 0.00000 7.89284e-13
  238 1714.83 0.00000 -1.70492e-13
  239 1714.83 0.00000 -7.85810e-13
  240 1714.83 0.00000 -8.98709e-14
  241 1714.83 0.00000 9.58286e-13
</Section>

newXOutput 58

<Section columns = "stress_xx | stress_yy | stress_xy">
  1 1761.27 0.00000 2.12163e-12
  2 1761.27 0.00000 -1.35451e-12
  3 1761.27 0.00000 -1.38735e-12
  4 1761.27 0.00000 -2.55009e-12
  5 1761.27 0.00000 1.85510e-12
  6 1761.27 0.00000 2.28867e-12
  7 1761.27 0.00000 2.19066e-12
  8 1761.27 0.00000 1.91098e-12
  9 1761.27 0.00000 1.61459e-12
  10 1761.27 0.00000 9.67852e-13
  11 1761.27 0.00000 6.71141e-13
  12 1761.27 0.00000 4.68759e-13
  13 1761.27 0.00000 -2.76396e-13
  14 1761.27 0.00000 -1.45111e-12
  15 1761.27 0.00000 -4.53469e-13
  16 1761.27 0.00000 -3.95316e-13
  17 1761.27 0.00000 -6.93252e-13
  18 1761.27 0.00000 -5.95137e-13
  19 1761.27 0.00000 -2.86762e-13
  20 1761.27 0.00000 5.25741e-13
  21 1761.27 0.00000 -4.13641e-13
  22 1761.27 0.00000 -6.64296e-13
  23 1761.27 0.00000 -4.60438e-14
  24 1761.27 0.00000 -1.48200e-12
  25 1761.27 0.00000 -9.14956e-13
  26 1761.27 0.00000 1.18028e-12
  27 1761.27 0.00000 2.76279e-12
  28 1761.27 0.00000 6.11148e-13
  29 1761.27 0.00000 5.25141e-13
  30 1761.27 0.00000 2.10602e-14
  31 1761.27 0.00000 -9.26737e-13
  32 1761.27 0.00000 1.76215e-12
  33 1761.27 0.00000 2.62527e-13
  34 1761.27 0.00000 3.57156e-14
  35 1761.27 0.00000 1.39495e-13
  36 1761.27 0.00000 -7.80162e-13
  37 1761.27 0.00000 -6.80703e-13
  38 1761.27 0.00000 2.61990e-12
  39 1761.27 0.00000 2.26100e-12
  40 1761.27 0.00000 -6.29865e-13
  41 1761.27 0.00000 -3.31977e-13
  42 1761.27 0.00000 -4.93526e-13
  43 1761.27 0.00000 -6.91469e-13
  44 1761.27 0.00000 3.68272e-15
  45 1761.27 0.00000 -5.91951e-14
  46 1761.27 0.00000 -3.19402e-13
  47 1761.27 0.00000 -1.70599e-12
  48 1761.27 0.00000 -3.59390e-12
  49 1761.27 0.00000 -2.94565e-12
  50 1761.27 0.00000 -6.83373e-13
  51 1761.27 0.00000 -5.91057e-13
  52 1761.27 0.00000 1.37380e-13
  53 1761.27 0.00000 9.30462e-13
  54 1761.27 0.00000 1.15450e-12
  55 1761.27 0.00000 1.70671e-12
  56 1761.27 0.00000 1.00403e-12
  57 1761.27 0.00000 -4.70834e-13
  58 1761.27 0.00000 -2.48681e-12
  59 1761.27 0.00000 -5.73527e-13
  60 1761.27 0.00000 4.45584e-13
  61 1761.27 0.00000 9.57402e-14
  62 1761.27 0.00000 -9.22083e-13
  63 1761.27 0.00000 5.90876e-13
  64 1761.27 0.00000 -1.02009e-12
  65 1761.27 0.00000 -3.55185e-14
  66 1761.27 0.00000 5.30473e-13
  67 1761.27 0.00000 -2.20006e-13
  68 1761.27 0.00000 -1.46573e-13
  69 1761.27 0.00000 1.82873e-13
  70 1761.27 0.00000 7.07162e-13
  71 1761.27 0.00000 2.96594e-13
  72 1761.27 0.00000 -3.08898e-13
  73 1761.27 0.00000 1.33839e-13
  74 1761.27 0.00000 -8.52908e-13
  75 1761.27 0.00000 1.39293e-12
  76 1761.27 0.00000 7.55555e-13
  77 1761.27 0.00000 -4.09889e-13
  78 1761.27 0.00000 1.04726e-12
  79 1761.27 0.00000 -1.25758e-12
  80 1761.27 0.00000 -1.60495e-12
  81 1761.27 0.00000 2.35991e-12
  82 1761.27 0.00000 -4.82737e-13
  83 1761.27 0.00000 1.14984e-12
  84 1761.27 0.00000 1.48763e-12
  85 1761.27 0.00000 -1.34946e-12
  86 1761.27 0.00000 7.55479e-13
  87 1761.27 0.00000 -1.79393e-12
  88 1761.27 0.00000 -2.97456e-12
  89 1761.27 0.00000 1.65554e-12
  90 1761.27 0.00000 -1.98852e-13
  91 1761.27 0.00000 -1.90977e-12
  92 1761.27 0.00000 2.18431e-13
  93 1761.27 0.00000 -1.21982e-12
  94 1761.27 0.00000 1.30166e-13
  95 1761.27 0.00000 -5.58049e-13
  96 1761.27 0.00000 -1.78161e-13
  97 1761.27 0.00000 2.50873e-14
  98 1761.27 0.00000 -8.61814e-13
  99 1761.27 0.00000 -1.19284e-12
  100 1761.27 0.00000 6.68759e-13
  101 1761.27 0.00000 1.14183e-13
  102 1761.27 0.00000 -1.07970e-12
  103 1761.27 0.00000 -1.02891e-12
  104 1761.27 0.00000 7.26004e-13
  105 1761.27 0.00000 8.37568e-13
  106 1761.27 0.00000 -8.99551e-13
  107 1761.27 0.00000 1.20703e-12
  108 1761.27 0.00000 -2.87446e-13
  109 1761.27 0.00000 1.67181e-12
  110 1761.27 0.00000 -6.12028e-13
  111 1761.27 0.00000 -1.93068e-12
  112 1761.27 0.00000 -1.52334e-13
  113 1761.27 0.00000 1.20346e-12
  114 1761.27 0.00000 -4.24058e-13
  115 1761.27 0.00000 -1.35786e-12
  116 1761.27 0.00000 2.14010e-12
  117 1761.27 0.00000 -8.67346e-13
  118 1761.27 0.00000 -1.28461e-12
  119 1761.27 0.00000 -5.01796e-13
  120 1761.27 0.00000 5.23096e-13
  121 1761.27 0.00000 5.44765e-13
  122 1761.27 0.00000 -5.90421e-13
  123 1761.27 0.00000 8.66853e-13
  124 1761.27 0.00000 -3.52041e-13
  125 1761.27 0.00000 1.02738e-13
  126 1761.27 0.00000 1.07074e-12
  127 1761.27 0.00000 5.62963e-13
  128 1761.27 0.00000 -4.12704e-13
  129 1761.27 0.00000 -1.58842e-13
  130 1761.27 0.00000 -2.02474e-13
  131 1761.27 0.00000 -4.88366e-13
  132 1761.27 0.00000 -6.89359e-14
  133 1761.27 0.00000 -1.70210e-12
  134 1761.27 0.00000 4.57420e-13
  135 1761.27 0.00000 8.92316e-13
  136 1761.27 0.00000 -2.08750e-12
  137 1761.27 0.00000 2.02707e-13
  138 1761.27 0.00000 -1.32539e-12
  139 1761.27 0.00000 -3.41847e-13
  140 1761.27 0.00000 2.34453e-13
  141 1761.27 0.00000 -2.20202e-14
  142 1761.27 0.00000 7.85877e-13
  143 1761.27 0.00000 -1.25089e-12
  144 1761.27 0.00000 -4.85820e-13
  145 1761.27 0.00000 -2.93391e-13
  146 1761.27 0.00000 -5.07900e-13
  147 1761.27 0.00000 4.12961e-13
  148 1761.27 0.00000 9.05245e-13
  149 1761.27 0.00000 9.41611e-13
  150 1761.27 0.00000 -1.24038e-12
  151 1761.27 0.00000 4.29223e-13
  152 1761.27 0.00000 -1.47045e-12
  153 1761.27 0.00000 -1.96393e-12
  154 1761.27 0.00000 -1.27038e-13
  155 1761.27 0.00000 1.51496e-12
  156 1761.27 0.00000 -2.84422e-13
  157 1761.27 0.00000 -1.89846e-13
  158 1761.27 0.00000 1.29272e-12
  159 1761.27 0.00000 1.48518e-12
  160 1761.27 0.00000 7.56831e-13
  161 1761.27 0.00000 2.29470e-12
  162 1761.27 0.00000 3.37637e-13
  163 1761.27 0.00000 -5.31553e-13
  164 1761.27 0.00000 6.32791e-13
  165 1761.27 0.00000 7.77631e-13
  166 1761.27 0.00000 -5.83063e-13
  167 1761.27 0.00000 -3.02988e-13
  168 1761.27 0.00000 -4.98030e-13
  169 1761.27 0.00000 1.09845e-12
  170 1761.27 0.00000 -1.32740e-12
  171 1761.27 0.00000 2.27003e-13
  172 1761.27 0.00000 -1.27744e-12
  173 1761.27 0.00000 -1.18044e-12
  174 1761.27 0.00000 -1.18919e-12
  175 1761.27 0.00000 -1.92676e-12
  176 1761.27 0.00000 1.54848e-12
  177 1761.27 0.00000 -9.47038e-13
  178 1761.27 0.00000 6.90692e-13
  179 1761.27 0.00000 1.54309e-12
  180 1761.27 0.00000 -5.17719e-13
  181 1761.27 0.00000 -1.41614e-12
  182 1761.27 0.00000 6.20944e-13
  183 1761.27 0.00000 -1.53220e-12
  184 1761.27 0.00000 -1.59506e-12
  185 1761.27 0.00000 6.81547e-13
  186 1761.27 0.00000 -1.79245e-12
  187 1761.27 0.00000 -9.19330e-13
  188 1761.27 0.00000 -2.36680e-12
  189 1761.27 0.00000 -3.16557e-14
  190 1761.27 0.00000 -4.58868e-13
  191 1761.27 0.00000 3.43956e-13
  192 1761.27 0.00000 -4.13548e-13
  193 1761.27 0.00000 -8.65591e-14
  194 1761.27 0.00000 3.32254e-13
  195 1761.27 0.00000 -7.26128e-13
  196 1761.27 0.00000 -9.03354e-13
  197 1761.27 0.00000 1.56610e-12
  198 1761.27 0.00000 1.43046e-14
  199 1761.27 0.00000 -1.11112e-12
  200 1761.27 0.00000 -1.92006e-12
  201 1761.27 0.00000 1.05644e-12
  202 1761.27 0.00000 -8.93289e-13
  203 1761.27 0.00000 7.41275e-13
  204 1761.27 0.00000 -1.02644e-12
  205 1761.27 0.00000 -4.87332e-14
  206 1761.27 0.00000 -6.36947e-13
  207 1761.27 0.00000 -9.55166e-13
  208 1761.27 0.00000 1.40197e-13
  209 1761.27 0.00000 1.18445e-12
  210 1761.27 0.00000 -9.65836e-13
  211 1761.27 0.00000 2.81980e-12
  212 1761.27 0.00000 9.98378e-14
  213 1761.27 0.00000 -3.13497e-12
  214 1761.27 0.00000 -7.29161e-13
  215 1761.27 0.00000 -2.14874e-12
  216 1761.27 0.00000 -3.78392e-13
  217 1761.27 0.00000 -6.74838e-13
  218 1761.27 0.00000 -8.20285e-13
  219 1761.27 0.00000 6.25666e-13
  220 1761.27 0.00000 -7.07849e-13
  221 1761.27 0.00000 -1.36126e-12
  222 1761.27 0.00000 -1.60396e-12
  223 1761.27 0.00000 9.26210e-14
  224 1761.27 0.00000 3.48350e-13
  225 1761.27 0.00000 -2.03464e-13
  226 1761.27 0.00000 5.29071e-13
  227 1761.27 0.00000 -7.77636e-13
  228 1761.27 0.00000 1.11410e-13
  229 1761.27 0.00000 6.94942e-13
  230 1761.27 0.00000 5.88013e-13
  231 1761.27 0.00000 -1.36157e-12
  232 1761.27 0.00000 7.10196e-14
  233 1761.27 0.00000 -1.53114e-12
  234 1761.27 0.00000 3.63383e-13
  235 1761.27 0.00000 -1.38418e-13
  236 1761.27 0.00000 1.66426e-12
  237 1761.27 0.00000 -1.09498e-12
  238 1761.27 0.00000 -7.29468e-13
  239 1761.27 0.00000 1.13337e-12
  240 1761.27 0.00000 2.57385e-13
  241 1761.27 0.00000 -8.78825e-13
</Section>

newXOutput 59

<Section columns = "stress_xx | stress_yy | stress_xy">
  1 1807.86 0.00000 -2.26866e-12
  2 1807.86 0.00000 1.78115e-12
  3 1807.86 0.00000 2.24233e-12
  4 1807.86 0.00000 2.45263e-12
  5 1807.86 0.00000 -1.94923e-12
  6 1807.86 0.00000 -2.57676e-12
  7 1807.86 0.00000 -3.14894e-12
  8 1807.86 0.00000 -2.12146e-12
  9 1807.86 0.00000 -2.01844e-12
  10 1807.86 0.00000 -7.48353e-13
  11 1807.86 0.00000 -3.33976e-14
  12 1807.86 0.00000 -1.23484e-12
  13 1807.86 0.00000 -1.11978e-13
  14 1807.86 0.00000 1.66305e-12
  15 1807.86 0.00000 4.74777e-13
  16 1807.86 0.00000 8.94147e-13
  17 1807.86 0.00000 -2.27955e-13
  18 1807.86 0.00000 -9.34225e-14
  19 1807.86 0.00000 -1.12791e-12
  20 1807.86 0.00000 -1.02031e-12
  21 1807.86 0.00000 2.31383e-13
  22 1807.86 0.00000 -3.82582e-13
  23 1807.86 0.00000 5.38951e-13
  24 1807.86 0.00000 1.48311e-12
  25 1807.86 0.00000 9.04818e-13
  26 1807.86 0.00000 -1.56917e-12
  27 1807.86 0.00000 -1.31120e-12
  28 1807.86 0.00000 3.15081e-13
  29 1807.86 0.00000 -5.03361e-13
  30 1807.86 0.00000 -8.89717e-13
  31 1807.86 0.00000 2.69651e-12
  32 1807.86 0.00000 7.36196e-13
  33 1807.86 0.00000 -3.48200e-13
  34 1807.86 0.00000 -5.14608e-14
  35 1807.86 0.00000 -6.23880e-13
  36 1807.86 0.00000 4.01767e-13
  37 1807.86 0.00000 6.06779e-13
  38 1807.86 0.00000 -1.46306e-12
  39 1807.86 0.00000 -8.23127e-13
  40 1807.86 0.00000 8.25456e-13
  41 1807.86 0.00000 7.20900e-13
  42 1807.86 0.00000 4.17203e-13
  43 1807.86 0.00000 5.52663e-13
  44 1807.86 0.00000 1.53657e-14
  45 1807.86 0.00000 2.48951e-13
  46 1807.86 0.00000 1.08272e-12
  47 1807.86 0.00000 2.41881e-12
  48 1807.86 0.00000 4.12119e-12
  49 1807.86 0.00000 2.57975e-12
  50 1807.86 0.00000 9.23544e-13
  51 1807.86 0.00000 8.13904e-13
  52 1807.86 0.00000 -1.32488e-13
  53 1807.86 0.00000 -7.63542e-13
  54 1807.86 0.00000 -1.16438e-12
  55 1807.86 0.00000 -1.80447e-12
  56 1807.86 0.00000 -1.26337e-12
  57 1807.86 0.00000 4.08996e-13
  58 1807.86 0.00000 2.49653e-12
  59 1807.86 0.00000 4.27346e-13
  60 1807.86 0.00000 -1.49632e-12
  61 1807.86 0.00000 -6.52018e-13
  62 1807.86 0.00000 8.51774e-13
  63 1807.86 0.00000 -1.01679e-13
  64 1807.86 0.00000 7.72647e-13
  65 1807.86 0.00000 1.97214e-13
  66 1807.86 0.00000 -1.19855e-12
  67 1807.86 0.00000 1.19889e-12
  68 1807.86 0.00000 4.94064e-13
  69 1807.86 0.00000 -2.60194e-13
  70 1807.86 0.00000 -9.28881e-13
  71 1807.86 0.00000 -9.42292e-13
  72 1807.86 0.00000 5.61116e-13
  73 1807.86 0.00000 1.12580e-12
  74 1807.86 0.00000 5.48259e-13
  75 1807.86 0.00000 -9.86779e-13
  76 1807.86 0.00000 -7.23438e-13
  77 1807.86 0.00000 7.03545e-13
  78 1807.86 0.00000 -1.00761e-12
  79 1807.86 0.00000 9.15044e-13
  80 1807.86 0.00000 1.52790e-12
  81 1807.86 0.00000 -2.58647e-12
  82 1807.86 0.00000 7.06764e-13
  83 1807.86 0.00000 -1.75189e-12
  84 1807.86 0.00000 -1.68347e-12
  85 1807.86 0.00000 1.68349e-12
  86 1807.86 0.00000 -2.31363e-13
  87 1807.86 0.00000 1.99740e-12
  88 1807.86 0.00000 -1.15622e-14
  89 1807.86 0.00000 -2.50133e-12
  90 1807.86 0.00000 -6.92230e-14
  91 1807.86 0.00000 2.26127e-12
  92 1807.86 0.00000 7.77848e-13
  93 1807.86 0.00000 6.12246e-13
  94 1807.86 0.00000 -1.30068e-13
  95 1807.86 0.00000 3.89002e-14
  96 1807.86 0.00000 1.31591e-13
  97 1807.86 0.00000 -2.02562e-13
  98 1807.86 0.00000 4.59257e-13
  99 1807.86 0.00000 8.53372e-13
  100 1807.86 0.00000 -1.00929e-12
  101 1807.86 0.00000 -4.52926e-13
  102 1807.86 0.00000 5.86879e-13
  103 1807.86 0.00000 1.11864e-12
  104 1807.86 0.00000 -7.17004e-13
  105 1807.86 0.00000 -1.72742e-12
  106 1807.86 0.00000 1.10435e-12
  107 1807.86 0.00000 -1.70765e-12
  108 1807.86 0.00000 5.04671e-13
  109 1807.86 0.00000 -1.81511e-12
  110 1807.86 0.00000 2.28462e-12
  111 1807.86 0.00000 1.58736e-12
  112 1807.86 0.00000 4.35561e-14
  113 1807.86 0.00000 -9.61837e-13
  114 1807.86 0.00000 4.67570e-13
  115 1807.86 0.00000 8.01981e-13
  116 1807.86 0.00000 -2.43584e-12
  117 1807.86 0.00000 9.71073e-13
  118 1807.86 0.00000 1.33586e-12
  119 1807.86 0.00000 4.40490e-13
  120 1807.86 0.00000 -1.19191e-12
  121 1807.86 0.00000 -1.36840e-12
  122 1807.86 0.00000 -5.34960e-14
  123 1807.86 0.00000 -1.07263e-12
  124 1807.86 0.00000 1.23839e-12
  125 1807.86 0.00000 2.77560e-13
  126 1807.86 0.00000 -1.41031e-12
  127 1807.86 0.00000 1.21502e-13
  128 1807.86 0.00000 3.93362e-13
  129 1807.86 0.00000 4.58239e-14
  130 1807.86 0.00000 6.68913e-13
  131 1807.86 0.00000 -1.59417e-13
  132 1807.86 0.00000 -3.70880e-14
  133 1807.86 0.00000 8.60536e-13
  134 1807.86 0.00000 -6.04283e-13
  135 1807.86 0.00000 -7.94912e-13
  136 1807.86 0.00000 2.08832e-12
  137 1807.86 0.00000 3.91220e-13
  138 1807.86 0.00000 8.75467e-13
  139 1807.86 0.00000 4.56869e-13
  140 1807.86 0.00000 -5.47583e-14
  141 1807.86 0.00000 -1.00200e-12
  142 1807.86 0.00000 -9.65608e-13
  143 1807.86 0.00000 1.22294e-12
  144 1807.86 0.00000 -5.16534e-13
  145 1807.86 0.00000 2.44477e-14
  146 1807.86 0.00000 1.05882e-12
  147 1807.86 0.00000 -6.51528e-13
  148 1807.86 0.00000 -8.38271e-13
  149 1807.86 0.00000 8.54070e-14
  150 1807.86 0.00000 9.65493e-13
  151 1807.86 0.00000 -5.00210e-13
  152 1807.86 0.00000 6.42640e-13
  153 1807.86 0.00000 1.54483e-12
  154 1807.86 0.00000 3.79781e-13
  155 1807.86 0.00000 -1.25138e-12
  156 1807.86 0.00000 -2.74809e-13
  157 1807.86 0.00000 7.06666e-13
  158 1807.86 0.00000 -2.26195e-12
  159 1807.86 0.00000 -1.58807e-12
  160 1807.86 0.00000 -4.88754e-13
  161 1807.86 0.00000 -1.79447e-12
  162 1807.86 0.00000 -1.98058e-13
  163 1807.86 0.00000 3.05489e-13
  164 1807.86 0.00000 -6.41827e-14
  165 1807.86 0.00000 -1.28718e-12
  166 1807.86 0.00000 8.84153e-13
  167 1807.86 0.00000 -2.15112e-13
  168 1807.86 0.00000 -2.12724e-13
  169 1807.86 0.00000 -1.62761e-12
  170 1807.86 0.00000 1.81017e-12
  171 1807.86 0.00000 -8.50336e-13
  172 1807.86 0.00000 7.48340e-13
  173 1807.86 0.00000 1.71430e-12
  174 1807.86 0.00000 1.56920e-12
  175 1807.86 0.00000 1.96033e-12
  176 1807.86 0.00000 -2.06808e-12
  177 1807.86 0.00000 -8.13820e-14
  178 1807.86 0.00000 -8.69048e-13
  179 1807.86 0.00000 -1.61018e-12
  180 1807.86 0.00000 7.41088e-13
  181 1807.86 0.00000 8.82724e-13
  182 1807.86 0.00000 3.24607e-13
  183 1807.86 0.00000 1.16696e-12
  184 1807.86 0.00000 6.76478e-13
  185 1807.86 0.00000 -1.52811e-12
  186 1807.86 0.00000 1.36465e-12
  187 1807.86 0.00000 5.68966e-13
  188 1807.86 0.00000 1.67047e-12
  189 1807.86 0.00000 -8.47800e-13
  190 1807.86 0.00000 4.54424e-13
  191 1807.86 0.00000 -1.98756e-13
  192 1807.86 0.00000 8.77451e-13
  193 1807.86 0.00000 -9.58055e-13
  194 1807.86 0.00000 -3.85114e-13
  195 1807.86 0.00000 1.02339e-12
  196 1807.86 0.00000 1.66575e-12
  197 1807.86 0.00000 -2.01653e-12
  198 1807.86 0.00000 -3.93797e-13
  199 1807.86 0.00000 1.98129e-12
  200 1807.86 0.00000 2.32498e-12
  201 1807.86 0.00000 -6.82059e-13
  202 1807.86 0.00000 -6.21267e-13
  203 1807.86 0.00000 -1.40648e-12
  204 1807.86 0.00000 1.34745e-12
  205 1807.86 0.00000 -7.57099e-13
  206 1807.86 0.00000 6.64117e-13
  207 1807.86 0.00000 1.19079e-12
  208 1807.86 0.00000 -4.27128e-14
  209 1807.86 0.00000 -1.71628e-12
  210 1807.86 0.00000 8.14096e-13
  211 1807.86 0.00000 -3.41612e-12
  212 1807.86 0.00000 4.20599e-13
  213 1807.86 0.00000 3.03653e-12
  214 1807.86 0.00000 9.51593e-13
  215 1807.86 0.00000 2.20954e-12
  216 1807.86 0.00000 -8.22382e-13
  217 1807.86 0.00000 5.77430e-13
  218 1807.86 0.00000 4.37405e-13
  219 1807.86 0.00000 3.91944e-13
  220 1807.86 0.00000 3.74328e-13
  221 1807.86 0.00000 1.23174e-12
  222 1807.86 0.00000 8.16681e-13
  223 1807.86 0.00000 3.88926e-13
  224 1807.86 0.00000 -6.06853e-13
  225 1807.86 0.00000 1.06220e-12
  226 1807.86 0.00000 -8.73781e-13
  227 1807.86 0.00000 1.17895e-12
  228 1807.86 0.00000 5.42027e-14
  229 1807.86 0.00000 -5.52785e-13
  230 1807.86 0.00000 6.60994e-13
  231 1807.86 0.00000 1.27118e-12
  232 1807.86 0.00000 7.86477e-13
  233 1807.86 0.00000 -5.22149e-13
  234 1807.86 0.00000 -9.40942e-13
  235 1807.86 0.00000 -5.48805e-13
  236 1807.86 0.00000 -2.09252e-12
  237 1807.86 0.00000 9.94213e-13
  238 1807.86 0.00000 1.21385e-13
  239 1807.86 0.00000 -1.23665e-12
  240 1807.86 0.00000 -1.13987e-12
  241 1807.86 0.00000 6.61222e-13
</Section>

newXOutput 60

<Section columns = "stress_xx | stress_yy | stress_xy">
  1 1854.60 0.00000 1.66528e-12
  2 1854.60 0.00000 6.78431e-13
  3 1854.60 0.00000 -2.29010e-12
  4 1854.60 0.00000 -1.96600e-12
  5 1854.60 0.00000 1.49323e-12
  6 1854.60 0.00000 3.19271e-12
  7 1854.60 0.00000 3.61881e-12
  8 1854.60 0.00000 2.27555e-12
  9 1854.60 0.00000 1.82928e-12
  10 1854.60 0.00000 6.26146e-13
  11 1854.60 0.00000 8.85250e-13
  12 1854.60 0.00000 1.89866e-12
  13 1854.60 0.00000 1.54443e-13
  14 1854.60 0.00000 -2.12687e-12
  15 1854.60 0.00000 -5.60625e-14
  16 1854.60 0.00000 -1.20904e-13
  17 1854.60 0.00000 1.02560e-12
  18 1854.60 0.00000 2.96121e-13
  19 1854.60 0.00000 7.83355e-13
  20 1854.60 0.00000 1.40117e-12
  21 1854.60 0.00000 -1.74533e-13
  22 1854.60 0.00000 1.39797e-12
  23 1854.60 0.00000 1.63753e-12
  24 1854.60 0.00000 -6.86053e-13
  25 1854.60 0.00000 -1.03619e-13
  26 1854.60 0.00000 1.49918e-12
  27 1854.60 0.00000 1.87915e-12
  28 1854.60 0.00000 9.36821e-13
  29 1854.60 0.00000 8.58405e-13
  30 1854.60 0.00000 -2.35683e-13
  31 1854.60 0.00000 -1.80402e-12
  32 1854.60 0.00000 7.03681e-13
  33 1854.60 0.00000 -8.57930e-13
  34 1854.60 0.00000 -9.49878e-13
  35 1854.60 0.00000 -7.17845e-13
  36 1854.60 0.00000 -8.91020e-13
  37 1854.60 0.00000 -7.21783e-13
  38 1854.60 0.00000 1.71761e-12
  39 1854.60 0.00000 1.18530e-12
  40 1854.60 0.00000 -4.78605e-13
  41 1854.60 0.00000 6.74944e-13
  42 1854.60 0.00000 -1.37941e-12
  43 1854.60 0.00000 -1.15169e-12
  44 1854.60 0.00000 -1.09635e-12
  45 1854.60 0.00000 1.37761e-13
  46 1854.60 0.00000 7.06494e-13
  47 1854.60 0.00000 -1.65129e-12
  48 1854.60 0.00000 -3.60480e-12
  49 1854.60 0.00000 -1.66832e-12
  50 1854.60 0.00000 -1.32661e-12
  51 1854.60 0.00000 -1.35993e-12
  52 1854.60 0.00000 -1.90473e-13
  53 1854.60 0.00000 8.78238e-13
  54 1854.60 0.00000 1.26484e-12
  55 1854.60 0.00000 1.74612e-12
  56 1854.60 0.00000 1.38817e-12
  57 1854.60 0.00000 -5.15463e-13
  58 1854.60 0.00000 -9.69194e-13
  59 1854.60 0.00000 -3.12049e-13
  60 1854.60 0.00000 1.46962e-12
  61 1854.60 0.00000 1.00526e-12
  62 1854.60 0.00000 -5.43981e-13
  63 1854.60 0.00000 4.86271e-13
  64 1854.60 0.00000 -6.78550e-13
  65 1854.60 0.00000 -5.70661e-13
  66 1854.60 0.00000 8.78912e-13
  67 1854.60 0.00000 -4.27306e-13
  68 1854.60 0.00000 -1.30412e-12
  69 1854.60 0.00000 -1.06833e-13
  70 1854.60 0.00000 1.50755e-12
  71 1854.60 0.00000 6.26363e-13
  72 1854.60 0.00000 -2.22336e-13
  73 1854.60 0.00000 -9.64185e-13
  74 1854.60 0.00000 -1.03926e-12
  75 1854.60 0.00000 1.79693e-12
  76 1854.60 0.00000 2.03454e-12
  77 1854.60 0.00000 3.47542e-15
  78 1854.60 0.00000 1.62467e-12
  79 1854.60 0.00000 -4.81710e-13
  80 1854.60 0.00000 -1.10883e-12
  81 1854.60 0.00000 2.33516e-12
  82 1854.60 0.00000 -4.13851e-13
  83 1854.60 0.00000 1.42554e-12
  84 1854.60 0.00000 1.53662e-12
  85 1854.60 0.00000 -1.71266e-12
  86 1854.60 0.00000 -3.29633e-13
  87 1854.60 0.00000 -2.61220e-12
  88 1854.60 0.00000 -7.39574e-13
  89 1854.60 0.00000 2.79203e-12
  90 1854.60 0.00000 5.24485e-13
  91 1854.60 0.00000 -2.07477e-12
  92 1854.60 0.00000 -9.40851e-13
  93 1854.60 0.00000 6.45826e-13
  94 1854.60 0.00000 1.08434e-12
  95 1854.60 0.00000 6.78691e-13
  96 1854.60 0.00000 1.14062e-12
  97 1854.60 0.00000 2.72825e-14
  98 1854.60 0.00000 -8.55050e-13
  99 1854.60 0.00000 -1.63215e-13
  100 1854.60 0.00000 7.93732e-13
  101 1854.60 0.00000 5.03944e-13
  102 1854.60 0.00000 -1.71984e-12
  103 1854.60 0.00000 -1.32354e-12
  104 1854.60 0.00000 1.47433e-12
  105 1854.60 0.00000 2.49179e-12
  106 1854.60 0.00000 -1.30449e-12
  107 1854.60 0.00000 1.92134e-12
  108 1854.60 0.00000 -8.95709e-13
  109 1854.60 0.00000 1.48407e-12
  110 1854.60 0.00000 -1.61369e-12
  111 1854.60 0.00000 -1.27151e-12
  112 1854.60 0.00000 1.88493e-13
  113 1854.60 0.00000 1.39982e-12
  114 1854.60 0.00000 -5.87670e-13
  115 1854.60 0.00000 -9.44705e-13
  116 1854.60 0.00000 2.28894e-12
  117 1854.60 0.00000 -1.12610e-12
  118 1854.60 0.00000 -1.54147e-12
  119 1854.60 0.00000 -2.89677e-13
  120 1854.60 0.00000 5.13229e-13
  121 1854.60 0.00000 7.25202e-13
  122 1854.60 0.00000 4.20239e-13
  123 1854.60 0.00000 1.11951e-12
  124 1854.60 0.00000 1.67054e-13
  125 1854.60 0.00000 2.03678e-13
  126 1854.60 0.00000 1.60510e-12
  127 1854.60 0.00000 -1.95288e-13
  128 1854.60 0.00000 6.37157e-14
  129 1854.60 0.00000 3.19742e-13
  130 1854.60 0.00000 -3.29939e-13
  131 1854.60 0.00000 2.76889e-13
  132 1854.60 0.00000 4.72007e-13
  133 1854.60 0.00000 -2.69734e-13
  134 1854.60 0.00000 5.82314e-13
  135 1854.60 0.00000 6.15251e-13
  136 1854.60 0.00000 -2.06926e-12
  137 1854.60 0.00000 5.69208e-13
  138 1854.60 0.00000 -7.84708e-13
  139 1854.60 0.00000 -5.43728e-13
  140 1854.60 0.00000 -6.93011e-13
  141 1854.60 0.00000 1.06893e-12
  142 1854.60 0.00000 1.16939e-12
  143 1854.60 0.00000 -8.04342e-13
  144 1854.60 0.00000 4.97650e-13
  145 1854.60 0.00000 -2.79754e-13
  146 1854.60 0.00000 -1.10896e-12
  147 1854.60 0.00000 1.07750e-12
  148 1854.60 0.00000 7.88738e-13
  149 1854.60 0.00000 1.56497e-12
  150 1854.60 0.00000 -1.71393e-12
  151 1854.60 0.00000 4.82980e-13
  152 1854.60 0.00000 -1.34753e-12
  153 1854.60 0.00000 -8.51693e-13
  154 1854.60 0.00000 2.70290e-13
  155 1854.60 0.00000 1.69412e-12
  156 1854.60 0.00000 5.94746e-13
  157 1854.60 0.00000 -1.05287e-12
  158 1854.60 0.00000 2.05662e-12
  159 1854.60 0.00000 2.00244e-12
  160 1854.60 0.00000 9.54408e-13
  161 1854.60 0.00000 3.19409e-12
  162 1854.60 0.00000 1.42114e-13
  163 1854.60 0.00000 -3.45484e-13
  164 1854.60 0.00000 2.94850e-13
  165 1854.60 0.00000 1.00888e-12
  166 1854.60 0.00000 -1.67329e-12
  167 1854.60 0.00000 -6.00733e-14
  168 1854.60 0.00000 2.78367e-13
  169 1854.60 0.00000 2.05087e-12
  170 1854.60 0.00000 -1.52049e-13
  171 1854.60 0.00000 1.44428e-12
  172 1854.60 0.00000 -4.21186e-13
  173 1854.60 0.00000 -1.67192e-12
  174 1854.60 0.00000 -4.09812e-13
  175 1854.60 0.00000 -2.15006e-12
  176 1854.60 0.00000 1.95549e-12
  177 1854.60 0.00000 -1.40882e-12
  178 1854.60 0.00000 1.34731e-12
  179 1854.60 0.00000 1.70147e-12
  180 1854.60 0.00000 -9.23474e-13
  181 1854.60 0.00000 -7.72085e-13
  182 1854.60 0.00000 -1.05241e-13
  183 1854.60 0.00000 -8.15865e-13
  184 1854.60 0.00000 -8.20127e-14
  185 1854.60 0.00000 1.08799e-12
  186 1854.60 0.00000 -1.28872e-12
  187 1854.60 0.00000 -1.94484e-12
  188 1854.60 0.00000 -1.50869e-12
  189 1854.60 0.00000 7.85970e-13
  190 1854.60 0.00000 -4.64944e-13
  191 1854.60 0.00000 1.23689e-12
  192 1854.60 0.00000 -1.27490e-12
  193 1854.60 0.00000 -5.17704e-13
  194 1854.60 0.00000 1.34914e-13
  195 1854.60 0.00000 -1.47250e-12
  196 1854.60 0.00000 -4.39897e-13
  197 1854.60 0.00000 2.29123e-12
  198 1854.60 0.00000 7.35475e-13
  199 1854.60 0.00000 -1.91254e-12
  200 1854.60 0.00000 -1.98296e-12
  201 1854.60 0.00000 1.29523e-12
  202 1854.60 0.00000 8.39997e-13
  203 1854.60 0.00000 1.02395e-12
  204 1854.60 0.00000 -1.42003e-12
  205 1854.60 0.00000 6.06510e-13
  206 1854.60 0.00000 -7.65377e-13
  207 1854.60 0.00000 1.57427e-13
  208 1854.60 0.00000 2.57132e-14
  209 1854.60 0.00000 9.60185e-13
  210 1854.60 0.00000 -9.53058e-13
  211 1854.60 0.00000 3.57373e-12
  212 1854.60 0.00000 -4.57722e-14
  213 1854.60 0.00000 -3.31706e-12
  214 1854.60 0.00000 -6.32032e-13
  215 1854.60 0.00000 -1.42617e-12
  216 1854.60 0.00000 9.36890e-13
  217 1854.60 0.00000 1.18735e-13
  218 1854.60 0.00000 -1.34852e-12
  219 1854.60 0.00000 -8.40629e-13
  220 1854.60 0.00000 9.11425e-14
  221 1854.60 0.00000 -9.81539e-13
  222 1854.60 0.00000 1.82645e-13
  223 1854.60 0.00000 3.32731e-13
  224 1854.60 0.00000 7.17573e-13
  225 1854.60 0.00000 2.77197e-13
  226 1854.60 0.00000 5.61531e-13
  227 1854.60 0.00000 -1.26010e-12
  228 1854.60 0.00000 3.93564e-13
  229 1854.60 0.00000 3.60036e-13
  230 1854.60 0.00000 -5.12629e-13
  231 1854.60 0.00000 -3.97407e-13
  232 1854.60 0.00000 -1.12451e-12
  233 1854.60 0.00000 7.93482e-13
  234 1854.60 0.00000 1.48027e-12
  235 1854.60 0.00000 1.50370e-12
  236 1854.60 0.00000 2.19699e-12
  237 1854.60 0.00000 -2.70645e-13
  238 1854.60 0.00000 5.00315e-13
  239 1854.60 0.00000 6.59759e-13
  240 1854.60 0.00000 1.37530e-12
  241 1854.60 0.00000 1.72891e-14
</Section>

newXOutput 61

<Section columns = "stress_xx | stress_yy | stress_xy">
  1 1901.50 0.00000 -1.48834e-12
  2 1901.50 0.00000 -2.18103e-13
  3 1901.50 0.00000 3.35951e-12
  4 1901.50 0.00000 1.91943e-12
  5 1901.50 0.00000 -1.72163e-12
  6 1901.50 0.00000 -3.84817e-12
  7 1901.50 0.00000 -3.71977e-12
  8 1901.50 0.00000 -2.44110e-12
  9 1901.50 0.00000 -1.65688e-12
  10 1901.50 0.00000 -7.84851e-13
  11 1901.50 0.00000 6.84542e-14
  12 1901.50 0.00000 -1.15114e-12
  13 1901.50 0.00000 2.96843e-13
  14 1901.50 0.00000 1.46007e-12
  15 1901.50 0.00000 2.49630e-13
  16 1901.50 0.00000 9.10848e-13
  17 1901.50 0.00000 7.91068e-13
  18 1901.50 0.00000 1.58197e-12
  19 1901.50 0.00000 -2.65360e-12
  20 1901.50 0.00000 -1.90014e-12
  21 1901.50 0.00000 6.31809e-13
  22 1901.50 0.00000 -6.52429e-13
  23 1901.50 0.00000 -6.33700e-13
  24 1901.50 0.00000 9.62628e-15
  25 1901.50 0.00000 -4.32654e-13
  26 1901.50 0.00000 -1.13676e-12
  27 1901.50 0.00000 -2.63834e-12
  28 1901.50 0.00000 4.94921e-13
  29 1901.50 0.00000 -6.07063e-13
  30 1901.50 0.00000 -2.49390e-13
  31 1901.50 0.00000 2.67529e-12
  32 1901.50 0.00000 -1.75031e-12
  33 1901.50 0.00000 -5.69844e-13
  34 1901.50 0.00000 -9.67724e-13
  35 1901.50 0.00000 -8.70245e-14
  36 1901.50 0.00000 1.65104e-12
  37 1901.50 0.00000 1.79394e-12
  38 1901.50 0.00000 -2.09652e-12
  39 1901.50 0.00000 -2.01507e-12
  40 1901.50 0.00000 3.38205e-13
  41 1901.50 0.00000 -9.93614e-14
  42 1901.50 0.00000 9.36504e-13
  43 1901.50 0.00000 1.05495e-12
  44 1901.50 0.00000 1.03247e-12
  45 1901.50 0.00000 2.55505e-13
  46 1901.50 0.00000 -1.22279e-14
  47 1901.50 0.00000 2.55201e-12
  48 1901.50 0.00000 4.27046e-12
  49 1901.50 0.00000 2.01638e-12
  50 1901.50 0.00000 1.48826e-12
  51 1901.50 0.00000 1.59243e-12
  52 1901.50 0.00000 -3.92124e-13
  53 1901.50 0.00000 -1.13376e-12
  54 1901.50 0.00000 -1.36003e-12
  55 1901.50 0.00000 -1.75340e-12
  56 1901.50 0.00000 -1.36641e-12
  57 1901.50 0.00000 4.42759e-13
  58 1901.50 0.00000 1.65306e-12
  59 1901.50 0.00000 4.98817e-13
  60 1901.50 0.00000 -1.50341e-12
  61 1901.50 0.00000 -9.59900e-13
  62 1901.50 0.00000 5.96059e-13
  63 1901.50 0.00000 -8.42515e-13
  64 1901.50 0.00000 2.76144e-12
  65 1901.50 0.00000 3.22811e-13
  66 1901.50 0.00000 -9.24842e-13
  67 1901.50 0.00000 3.54180e-13
  68 1901.50 0.00000 1.06675e-12
  69 1901.50 0.00000 -1.29178e-13
  70 1901.50 0.00000 -1.94900e-12
  71 1901.50 0.00000 -8.55730e-13
  72 1901.50 0.00000 1.04542e-13
  73 1901.50 0.00000 1.29875e-12
  74 1901.50 0.00000 9.91093e-13
  75 1901.50 0.00000 -3.97348e-13
  76 1901.50 0.00000 -1.55993e-12
  77 1901.50 0.00000 -2.86897e-13
  78 1901.50 0.00000 -9.25637e-13
  79 1901.50 0.00000 3.98170e-13
  80 1901.50 0.00000 1.51666e-12
  81 1901.50 0.00000 -2.77870e-12
  82 1901.50 0.00000 9.10756e-13
  83 1901.50 0.00000 -9.63410e-13
  84 1901.50 0.00000 -1.71776e-12
  85 1901.50 0.00000 6.41369e-13
  86 1901.50 0.00000 4.38299e-13
  87 1901.50 0.00000 3.27177e-12
  88 1901.50 0.00000 7.86080e-13
  89 1901.50 0.00000 -3.06123e-12
  90 1901.50 0.00000 -8.58824e-13
  91 1901.50 0.00000 1.51423e-12
  92 1901.50 0.00000 -1.26866e-13
  93 1901.50 0.00000 -1.45736e-12
  94 1901.50 0.00000 2.66461e-15
  95 1901.50 0.00000 7.97502e-14
  96 1901.50 0.00000 -6.72013e-13
  97 1901.50 0.00000 2.56416e-13
  98 1901.50 0.00000 2.15519e-12
  99 1901.50 0.00000 -2.74694e-13
  100 1901.50 0.00000 -1.05770e-12
  101 1901.50 0.00000 -5.41897e-13
  102 1901.50 0.00000 9.51989e-13
  103 1901.50 0.00000 1.69938e-12
  104 1901.50 0.00000 -1.02022e-12
  105 1901.50 0.00000 -3.07001e-12
  106 1901.50 0.00000 5.29881e-13
  107 1901.50 0.00000 -9.66673e-13
  108 1901.50 0.00000 -5.64610e-14
  109 1901.50 0.00000 -1.23442e-12
  110 1901.50 0.00000 2.74210e-12
  111 1901.50 0.00000 1.46766e-12
  112 1901.50 0.00000 -2.20594e-13
  113 1901.50 0.00000 -1.53013e-12
  114 1901.50 0.00000 4.64902e-13
  115 1901.50 0.00000 9.15465e-13
  116 1901.50 0.00000 -2.14156e-12
  117 1901.50 0.00000 2.01081e-12
  118 1901.50 0.00000 1.41042e-12
  119 1901.50 0.00000 4.11439e-13
  120 1901.50 0.00000 -6.60220e-13
  121 1901.50 0.00000 -7.71196e-13
  122 1901.50 0.00000 -5.68119e-13
  123 1901.50 0.00000 -1.45203e-12
  124 1901.50 0.00000 4.63245e-13
  125 1901.50 0.00000 3.98538e-13
  126 1901.50 0.00000 -1.56882e-12
  127 1901.50 0.00000 5.11932e-13
  128 1901.50 0.00000 1.40906e-13
  129 1901.50 0.00000 3.05307e-13
  130 1901.50 0.00000 1.41741e-13
  131 1901.50 0.00000 -5.27491e-15
  132 1901.50 0.00000 -6.57551e-13
  133 1901.50 0.00000 7.91378e-13
  134 1901.50 0.00000 -8.24432e-13
  135 1901.50 0.00000 5.36394e-14
  136 1901.50 0.00000 2.83991e-12
  137 1901.50 0.00000 4.70031e-13
  138 1901.50 0.00000 2.98730e-13
  139 1901.50 0.00000 1.70996e-13
  140 1901.50 0.00000 -2.64673e-13
  141 1901.50 0.00000 -1.28114e-12
  142 1901.50 0.00000 -1.24603e-12
  143 1901.50 0.00000 1.03577e-12
  144 1901.50 0.00000 1.12644e-13
  145 1901.50 0.00000 -2.13585e-13
  146 1901.50 0.00000 1.36235e-12
  147 1901.50 0.00000 -2.12593e-12
  148 1901.50 0.00000 -9.02858e-13
  149 1901.50 0.00000 -1.03413e-12
  150 1901.50 0.00000 1.77860e-12
  151 1901.50 0.00000 -4.42043e-13
  152 1901.50 0.00000 1.09068e-12
  153 1901.50 0.00000 1.75712e-12
  154 1901.50 0.00000 2.45736e-13
  155 1901.50 0.00000 -1.03578e-12
  156 1901.50 0.00000 2.51925e-13
  157 1901.50 0.00000 1.52132e-13
  158 1901.50 0.00000 -2.60233e-12
  159 1901.50 0.00000 -2.14040e-12
  160 1901.50 0.00000 -1.23910e-12
  161 1901.50 0.00000 -2.32197e-12
  162 1901.50 0.00000 -2.98774e-16
  163 1901.50 0.00000 -1.35975e-13
  164 1901.50 0.00000 -5.23071e-13
  165 1901.50 0.00000 -1.53741e-12
  166 1901.50 0.00000 1.77067e-12
  167 1901.50 0.00000 -6.15814e-13
  168 1901.50 0.00000 1.06419e-13
  169 1901.50 0.00000 -1.97370e-12
  170 1901.50 0.00000 6.12354e-13
  171 1901.50 0.00000 -9.92508e-13
  172 1901.50 0.00000 8.59744e-14
  173 1901.50 0.00000 1.76420e-12
  174 1901.50 0.00000 6.15476e-13
  175 1901.50 0.00000 2.43544e-12
  176 1901.50 0.00000 -2.07821e-12
  177 1901.50 0.00000 1.11569e-12
  178 1901.50 0.00000 -9.91552e-13
  179 1901.50 0.00000 -1.78760e-12
  180 1901.50 0.00000 4.63325e-13
  181 1901.50 0.00000 4.84956e-13
  182 1901.50 0.00000 4.65338e-13
  183 1901.50 0.00000 1.30444e-12
  184 1901.50 0.00000 3.54115e-13
  185 1901.50 0.00000 -1.54956e-12
  186 1901.50 0.00000 7.92343e-13
  187 1901.50 0.00000 1.25952e-12
  188 1901.50 0.00000 1.62811e-12
  189 1901.50 0.00000 -1.04229e-12
  190 1901.50 0.00000 3.95053e-13
  191 1901.50 0.00000 -1.15204e-12
  192 1901.50 0.00000 1.39963e-12
  193 1901.50 0.00000 -3.82687e-13
  194 1901.50 0.00000 2.56490e-13
  195 1901.50 0.00000 1.37385e-12
  196 1901.50 0.00000 3.21564e-13
  197 1901.50 0.00000 -2.08452e-12
  198 1901.50 0.00000 8.10469e-13
  199 1901.50 0.00000 1.18408e-12
  200 1901.50 0.00000 1.41669e-12
  201 1901.50 0.00000 -9.37762e-13
  202 1901.50 0.00000 -4.59458e-13
  203 1901.50 0.00000 -1.18030e-12
  204 1901.50 0.00000 7.69627e-13
  205 1901.50 0.00000 -7.16255e-13
  206 1901.50 0.00000 4.43583e-13
  207 1901.50 0.00000 7.31708e-13
  208 1901.50 0.00000 -3.96681e-13
  209 1901.50 0.00000 1.90505e-13
  210 1901.50 0.00000 1.76099e-12
  211 1901.50 0.00000 -3.75288e-12
  212 1901.50 0.00000 8.19328e-13
  213 1901.50 0.00000 4.06226e-12
  214 1901.50 0.00000 6.57920e-13
  215 1901.50 0.00000 2.71974e-12
  216 1901.50 0.00000 -2.17395e-13
  217 1901.50 0.00000 1.95821e-12
  218 1901.50 0.00000 1.84487e-12
  219 1901.50 0.00000 3.75215e-14
  220 1901.50 0.00000 -3.94856e-14
  221 1901.50 0.00000 1.23396e-12
  222 1901.50 0.00000 -6.12549e-13
  223 1901.50 0.00000 -3.21738e-13
  224 1901.50 0.00000 -4.96436e-13
  225 1901.50 0.00000 2.14778e-12
  226 1901.50 0.00000 -7.02613e-13
  227 1901.50 0.00000 5.43220e-13
  228 1901.50 0.00000 4.44290e-13
  229 1901.50 0.00000 -5.39418e-13
  230 1901.50 0.00000 3.62323e-13
  231 1901.50 0.00000 1.37964e-12
  232 1901.50 0.00000 2.72458e-13
  233 1901.50 0.00000 -2.41393e-13
  234 1901.50 0.00000 -9.55989e-13
  235 1901.50 0.00000 -1.74150e-12
  236 1901.50 0.00000 -2.28026e-12
  237 1901.50 0.00000 -2.80519e-14
  238 1901.50 0.00000 -8.60457e-13
  239 1901.50 0.00000 -1.33245e-12
  240 1901.50 0.00000 -8.29635e-13
  241 1901.50 0.00000 -2.65266e-13
</Section>

newXOutput 62

<Section columns = "stress_xx | stress_yy | stress_xy">
  1 1948.54 0.00000 2.49713e-12
  2 1948.54 0.00000 -1.70711e-12
  3 1948.54 0.00000 -2.15706e-12
  4 1948.54 0.00000 -2.63974e-12
  5 1948.54 0.00000 2.98899e-12
  6 1948.54 0.00000 4.78648e-12
  7 1948.54 0.00000 4.16155e-12
  8 1948.54 0.00000 1.61692e-12
  9 1948.54 0.00000 1.71463e-12
  10 1948.54 0.00000 1.66018e-12
  11 1948.54 0.00000 8.73028e-13
  12 1948.54 0.00000 6.44842e-13
  13 1948.54 0.00000 -1.03123e-12
  14 1948.54 0.00000 -1.41204e-12
  15 1948.54 0.00000 -5.52706e-13
  16 1948.54 0.00000 -4.61871e-13
  17 1948.54 0.00000 -7.45827e-13
  18 1948.54 0.00000 -1.25808e-12
  19 1948.54 0.00000 1.45244e-12
  20 1948.54 0.00000 2.04852e-12
  21 1948.54 0.00000 -6.39889e-13
  22 1948.54 0.00000 -2.37669e-12
  23 1948.54 0.00000 -1.83844e-12
  24 1948.54 0.00000 -3.85198e-13
  25 1948.54 0.00000 -1.07379e-13
  26 1948.54 0.00000 1.02973e-12
  27 1948.54 0.00000 5.61875e-13
  28 1948.54 0.00000 -2.11610e-13
  29 1948.54 0.00000 9.32336e-13
  30 1948.54 0.00000 -1.87943e-13
  31 1948.54 0.00000 -1.65965e-12
  32 1948.54 0.00000 1.21464e-12
  33 1948.54 0.00000 -8.02896e-13
  34 1948.54 0.00000 3.10847e-14
  35 1948.54 0.00000 1.22509e-13
  36 1948.54 0.00000 -1.01530e-12
  37 1948.54 0.00000 -1.10918e-12
  38 1948.54 0.00000 2.38774e-12
  39 1948.54 0.00000 1.34946e-12
  40 1948.54 0.00000 5.80054e-13
  41 1948.54 0.00000 7.11719e-13
  42 1948.54 0.00000 -1.46351e-12
  43 1948.54 0.00000 -1.25091e-12
  44 1948.54 0.00000 -2.23963e-12
  45 1948.54 0.00000 -8.09196e-13
  46 1948.54 0.00000 -1.70816e-13
  47 1948.54 0.00000 -2.82857e-12
  48 1948.54 0.00000 -5.02471e-12
  49 1948.54 0.00000 -3.03831e-12
  50 1948.54 0.00000 -1.52777e-12
  51 1948.54 0.00000 -1.59300e-12
  52 1948.54 0.00000 -9.01053e-14
  53 1948.54 0.00000 1.29846e-12
  54 1948.54 0.00000 9.93551e-13
  55 1948.54 0.00000 1.45357e-12
  56 1948.54 0.00000 1.31812e-12
  57 1948.54 0.00000 -3.57847e-13
  58 1948.54 0.00000 -2.01515e-12
  59 1948.54 0.00000 -5.48425e-13
  60 1948.54 0.00000 1.64460e-12
  61 1948.54 0.00000 7.88811e-13
  62 1948.54 0.00000 -7.97922e-13
  63 1948.54 0.00000 1.31814e-12
  64 1948.54 0.00000 -8.56816e-13
  65 1948.54 0.00000 -5.08877e-13
  66 1948.54 0.00000 1.09400e-12
  67 1948.54 0.00000 -1.38036e-13
  68 1948.54 0.00000 -8.54764e-13
  69 1948.54 0.00000 -4.71773e-13
  70 1948.54 0.00000 1.84779e-12
  71 1948.54 0.00000 5.28422e-13
  72 1948.54 0.00000 -6.61285e-13
  73 1948.54 0.00000 -1.17875e-12
  74 1948.54 0.00000 -1.18814e-12
  75 1948.54 0.00000 1.12912e-13
  76 1948.54 0.00000 1.65522e-12
  77 1948.54 0.00000 -1.27757e-13
  78 1948.54 0.00000 5.30149e-13
  79 1948.54 0.00000 -1.09274e-12
  80 1948.54 0.00000 -1.33140e-12
  81 1948.54 0.00000 3.37533e-12
  82 1948.54 0.00000 -2.92799e-13
  83 1948.54 0.00000 1.22696e-12
  84 1948.54 0.00000 2.38444e-12
  85 1948.54 0.00000 -9.96994e-13
  86 1948.54 0.00000 -1.92157e-13
  87 1948.54 0.00000 -2.67043e-12
  88 1948.54 0.00000 -1.46986e-12
  89 1948.54 0.00000 2.98497e-12
  90 1948.54 0.00000 6.11029e-13
  91 1948.54 0.00000 -1.13237e-12
  92 1948.54 0.00000 7.55893e-14
  93 1948.54 0.00000 -2.88067e-13
  94 1948.54 0.00000 9.44679e-13
  95 1948.54 0.00000 -1.27170e-12
  96 1948.54 0.00000 4.30651e-13
  97 1948.54 0.00000 -2.04512e-12
  98 1948.54 0.00000 -1.87254e-12
  99 1948.54 0.00000 -1.30733e-13
  100 1948.54 0.00000 1.14724e-12
  101 1948.54 0.00000 7.26079e-13
  102 1948.54 0.00000 -1.98482e-12
  103 1948.54 0.00000 -1.40664e-12
  104 1948.54 0.00000 7.62373e-13
  105 1948.54 0.00000 2.39928e-12
  106 1948.54 0.00000 -8.54667e-13
  107 1948.54 0.00000 1.38369e-12
  108 1948.54 0.00000 -6.57408e-13
  109 1948.54 0.00000 1.17247e-12
  110 1948.54 0.00000 -1.80765e-12
  111 1948.54 0.00000 -1.28574e-12
  112 1948.54 0.00000 -3.37650e-15
  113 1948.54 0.00000 1.28919e-12
  114 1948.54 0.00000 -4.67518e-13
  115 1948.54 0.00000 -8.71807e-13
  116 1948.54 0.00000 3.20204e-12
  117 1948.54 0.00000 -1.06081e-12
  118 1948.54 0.00000 -1.56803e-12
  119 1948.54 0.00000 -7.68406e-13
  120 1948.54 0.00000 -4.04952e-13
  121 1948.54 0.00000 7.46572e-13
  122 1948.54 0.00000 7.84217e-13
  123 1948.54 0.00000 1.00441e-12
  124 1948.54 0.00000 -1.94270e-13
  125 1948.54 0.00000 -6.69344e-13
  126 1948.54 0.00000 1.68704e-12
  127 1948.54 0.00000 -1.76785e-13
  128 1948.54 0.00000 -9.18868e-13
  129 1948.54 0.00000 -3.47552e-13
  130 1948.54 0.00000 -2.47030e-13
  131 1948.54 0.00000 -4.57145e-13
  132 1948.54 0.00000 -5.47126e-14
  133 1948.54 0.00000 -4.87577e-13
  134 1948.54 0.00000 5.02170e-13
  135 1948.54 0.00000 -1.03989e-12
  136 1948.54 0.00000 -3.02102e-12
  137 1948.54 0.00000 -3.04664e-13
  138 1948.54 0.00000 -1.31528e-12
  139 1948.54 0.00000 -4.42739e-13
  140 1948.54 0.00000 -6.00261e-13
  141 1948.54 0.00000 5.80666e-13
  142 1948.54 0.00000 1.30250e-12
  143 1948.54 0.00000 -1.28298e-12
  144 1948.54 0.00000 -1.73866e-13
  145 1948.54 0.00000 -6.56066e-14
  146 1948.54 0.00000 -1.54769e-12
  147 1948.54 0.00000 1.96539e-12
  148 1948.54 0.00000 1.16551e-12
  149 1948.54 0.00000 6.44801e-13
  150 1948.54 0.00000 -1.11848e-12
  151 1948.54 0.00000 3.32493e-13
  152 1948.54 0.00000 -1.41619e-12
  153 1948.54 0.00000 -1.13916e-12
  154 1948.54 0.00000 -4.55627e-13
  155 1948.54 0.00000 2.01674e-12
  156 1948.54 0.00000 5.24448e-13
  157 1948.54 0.00000 -4.60120e-13
  158 1948.54 0.00000 2.72163e-12
  159 1948.54 0.00000 2.77024e-12
  160 1948.54 0.00000 1.25453e-12
  161 1948.54 0.00000 1.82917e-12
  162 1948.54 0.00000 4.07832e-16
  163 1948.54 0.00000 -2.42576e-13
  164 1948.54 0.00000 6.79325e-13
  165 1948.54 0.00000 1.29214e-12
  166 1948.54 0.00000 -1.68902e-12
  167 1948.54 0.00000 1.19331e-13
  168 1948.54 0.00000 -8.59550e-14
  169 1948.54 0.00000 1.59139e-12
  170 1948.54 0.00000 -4.80075e-14
  171 1948.54 0.00000 1.37480e-12
  172 1948.54 0.00000 -8.50879e-13
  173 1948.54 0.00000 -1.74236e-12
  174 1948.54 0.00000 -1.14877e-12
  175 1948.54 0.00000 -2.60540e-12
  176 1948.54 0.00000 2.58549e-12
  177 1948.54 0.00000 -1.24896e-12
  178 1948.54 0.00000 9.40100e-13
  179 1948.54 0.00000 2.29442e-12
  180 1948.54 0.00000 -3.43743e-13
  181 1948.54 0.00000 -5.05925e-13
  182 1948.54 0.00000 8.69624e-13
  183 1948.54 0.00000 -1.64068e-12
  184 1948.54 0.00000 -1.13060e-12
  185 1948.54 0.00000 1.41638e-12
  186 1948.54 0.00000 -1.49593e-12
  187 1948.54 0.00000 -1.70458e-12
  188 1948.54 0.00000 -1.19836e-12
  189 1948.54 0.00000 6.69102e-13
  190 1948.54 0.00000 -4.97312e-13
  191 1948.54 0.00000 1.06786e-12
  192 1948.54 0.00000 -3.03112e-13
  193 1948.54 0.00000 4.48028e-14
  194 1948.54 0.00000 2.55510e-14
  195 1948.54 0.00000 -1.48692e-12
  196 1948.54 0.00000 -3.40318e-13
  197 1948.54 0.00000 1.88983e-12
  198 1948.54 0.00000 -1.97933e-13
  199 1948.54 0.00000 -1.15145e-12
  200 1948.54 0.00000 -2.69223e-12
  201 1948.54 0.00000 8.40715e-13
  202 1948.54 0.00000 5.21369e-13
  203 1948.54 0.00000 8.29041e-13
  204 1948.54 0.00000 -1.46600e-12
  205 1948.54 0.00000 6.73441e-13
  206 1948.54 0.00000 -1.35332e-12
  207 1948.54 0.00000 -1.12636e-12
  208 1948.54 0.00000 -2.47224e-14
  209 1948.54 0.00000 -3.28695e-13
  210 1948.54 0.00000 -1.16063e-12
  211 1948.54 0.00000 4.52849e-12
  212 1948.54 0.00000 -1.83315e-12
  213 1948.54 0.00000 -4.47891e-12
  214 1948.54 0.00000 -5.27961e-13
  215 1948.54 0.00000 -3.10892e-12
  216 1948.54 0.00000 -1.24900e-12
  217 1948.54 0.00000 -9.09310e-13
  218 1948.54 0.00000 -1.51388e-12
  219 1948.54 0.00000 -2.00704e-13
  220 1948.54 0.00000 -3.54875e-14
  221 1948.54 0.00000 -1.18305e-12
  222 1948.54 0.00000 -1.05735e-12
  223 1948.54 0.00000 1.04613e-12
  224 1948.54 0.00000 5.50851e-13
  225 1948.54 0.00000 -1.19785e-12
  226 1948.54 0.00000 9.90847e-13
  227 1948.54 0.00000 -6.71248e-13
  228 1948.54 0.00000 1.57509e-13
  229 1948.54 0.00000 5.11681e-13
  230 1948.54 0.00000 -3.30971e-13
  231 1948.54 0.00000 -9.64659e-13
  232 1948.54 0.00000 -2.24854e-13
  233 1948.54 0.00000 -1.41811e-13
  234 1948.54 0.00000 -1.87791e-13
  235 1948.54 0.00000 2.49150e-12
  236 1948.54 0.00000 2.52809e-12
  237 1948.54 0.00000 -2.83333e-13
  238 1948.54 0.00000 3.59950e-13
  239 1948.54 0.00000 1.50111e-12
  240 1948.54 0.00000 3.71758e-13
  241 1948.54 0.00000 -5.57700e-13
</Section>

newXOutput 63

<Section columns = "stress_xx | stress_yy | stress_xy">
  1 1995.75 0.00000 -3.09838e-12
  2 1995.75 0.00000 1.85649e-12
  3 1995.75 0.00000 3.06036e-12
  4 1995.75 0.00000 2.81655e-12
  5 1995.75 0.00000 -3.58822e-12
  6 1995.75 0.00000 -5.23418e-12
  7 1995.75 0.00000 -4.29864e-12
  8 1995.75 0.00000 -2.15562e-12
  9 1995.75 0.00000 -2.01138e-12
  10 1995.75 0.00000 -1.68406e-12
  11 1995.75 0.00000 -1.64374e-12
  12 1995.75 0.00000 -8.52431e-13
  13 1995.75 0.00000 1.17555e-12
  14 1995.75 0.00000 1.65432e-12
  15 1995.75 0.00000 -3.19070e-13
  16 1995.75 0.00000 8.56598e-13
  17 1995.75 0.00000 1.27404e-12
  18 1995.75 0.00000 3.51557e-13
  19 1995.75 0.00000 -1.33966e-12
  20 1995.75 0.00000 -1.81869e-12
  21 1995.75 0.00000 -4.33768e-13
  22 1995.75 0.00000 -8.17197e-13
  23 1995.75 0.00000 6.29765e-13
  24 1995.75 0.00000 8.66203e-13
  25 1995.75 0.00000 -2.07862e-13
  26 1995.75 0.00000 -1.48516e-12
  27 1995.75 0.00000 -9.44833e-13
  28 1995.75 0.00000 -5.34603e-13
  29 1995.75 0.00000 -9.56693e-13
  30 1995.75 0.00000 9.62726e-14
  31 1995.75 0.00000 3.68747e-12
  32 1995.75 0.00000 -7.67861e-13
  33 1995.75 0.00000 -4.28304e-14
  34 1995.75 0.00000 -7.55538e-13
  35 1995.75 0.00000 4.46801e-13
  36 1995.75 0.00000 1.24847e-12
  37 1995.75 0.00000 3.10766e-13
  38 1995.75 0.00000 -2.81561e-12
  39 1995.75 0.00000 -2.33570e-12
  40 1995.75 0.00000 -1.03880e-12
  41 1995.75 0.00000 -4.87187e-13
  42 1995.75 0.00000 1.13179e-12
  43 1995.75 0.00000 1.22366e-12
  44 1995.75 0.00000 2.00209e-12
  45 1995.75 0.00000 1.07902e-12
  46 1995.75 0.00000 7.81981e-13
  47 1995.75 0.00000 3.46890e-12
  48 1995.75 0.00000 5.51007e-12
  49 1995.75 0.00000 3.14995e-12
  50 1995.75 0.00000 1.88461e-12
  51 1995.75 0.00000 1.60626e-12
  52 1995.75 0.00000 1.12522e-13
  53 1995.75 0.00000 -1.43998e-12
  54 1995.75 0.00000 -1.17088e-12
  55 1995.75 0.00000 -1.25427e-12
  56 1995.75 0.00000 -1.61005e-12
  57 1995.75 0.00000 7.28550e-13
  58 1995.75 0.00000 3.44643e-12
  59 1995.75 0.00000 8.20955e-13
  60 1995.75 0.00000 -1.89715e-12
  61 1995.75 0.00000 -5.26323e-13
  62 1995.75 0.00000 1.27430e-12
  63 1995.75 0.00000 -2.17961e-12
  64 1995.75 0.00000 9.48037e-13
  65 1995.75 0.00000 1.00415e-12
  66 1995.75 0.00000 -1.35706e-12
  67 1995.75 0.00000 6.04180e-13
  68 1995.75 0.00000 8.28399e-13
  69 1995.75 0.00000 -3.39640e-14
  70 1995.75 0.00000 -1.69326e-12
  71 1995.75 0.00000 -1.06228e-12
  72 1995.75 0.00000 5.31687e-13
  73 1995.75 0.00000 1.24211e-12
  74 1995.75 0.00000 1.58106e-12
  75 1995.75 0.00000 1.17806e-12
  76 1995.75 0.00000 -2.03924e-12
  77 1995.75 0.00000 -4.99072e-14
  78 1995.75 0.00000 -7.16801e-13
  79 1995.75 0.00000 1.50054e-12
  80 1995.75 0.00000 1.62133e-12
  81 1995.75 0.00000 -2.47188e-12
  82 1995.75 0.00000 1.71160e-13
  83 1995.75 0.00000 -1.34790e-12
  84 1995.75 0.00000 -2.75298e-12
  85 1995.75 0.00000 9.93671e-13
  86 1995.75 0.00000 1.71274e-12
  87 1995.75 0.00000 3.83657e-12
  88 1995.75 0.00000 1.00761e-12
  89 1995.75 0.00000 -3.42686e-12
  90 1995.75 0.00000 -4.35967e-13
  91 1995.75 0.00000 1.65373e-12
  92 1995.75 0.00000 -3.32276e-13
  93 1995.75 0.00000 1.17212e-12
  94 1995.75 0.00000 -1.04509e-12
  95 1995.75 0.00000 2.12576e-12
  96 1995.75 0.00000 1.53897e-13
  97 1995.75 0.00000 -1.60851e-13
  98 1995.75 0.00000 1.71535e-12
  99 1995.75 0.00000 8.85577e-13
  100 1995.75 0.00000 -1.35220e-12
  101 1995.75 0.00000 -1.16311e-12
  102 1995.75 0.00000 9.92244e-13
  103 1995.75 0.00000 1.55445e-12
  104 1995.75 0.00000 -7.29959e-13
  105 1995.75 0.00000 -3.07860e-12
  106 1995.75 0.00000 1.56179e-12
  107 1995.75 0.00000 -1.75125e-12
  108 1995.75 0.00000 7.05602e-13
  109 1995.75 0.00000 -1.38532e-12
  110 1995.75 0.00000 -2.75819e-13
  111 1995.75 0.00000 1.00323e-12
  112 1995.75 0.00000 2.30896e-13
  113 1995.75 0.00000 -1.79318e-12
  114 1995.75 0.00000 -2.91511e-13
  115 1995.75 0.00000 1.36395e-12
  116 1995.75 0.00000 -3.31550e-12
  117 1995.75 0.00000 1.25465e-12
  118 1995.75 0.00000 1.97967e-12
  119 1995.75 0.00000 1.08030e-12
  120 1995.75 0.00000 1.75508e-13
  121 1995.75 0.00000 -1.39782e-12
  122 1995.75 0.00000 -7.63558e-13
  123 1995.75 0.00000 -1.06134e-12
  124 1995.75 0.00000 7.78758e-13
  125 1995.75 0.00000 1.51048e-12
  126 1995.75 0.00000 -1.82942e-12
  127 1995.75 0.00000 -8.36993e-14
  128 1995.75 0.00000 -1.03842e-13
  129 1995.75 0.00000 7.58403e-13
  130 1995.75 0.00000 2.72413e-13
  131 1995.75 0.00000 1.97606e-13
  132 1995.75 0.00000 -1.92574e-13
  133 1995.75 0.00000 3.30000e-14
  134 1995.75 0.00000 -8.10617e-13
  135 1995.75 0.00000 1.04909e-12
  136 1995.75 0.00000 3.54869e-12
  137 1995.75 0.00000 -2.01125e-13
  138 1995.75 0.00000 7.92368e-13
  139 1995.75 0.00000 3.22736e-13
  140 1995.75 0.00000 3.53435e-13
  141 1995.75 0.00000 -6.56425e-13
  142 1995.75 0.00000 -1.30925e-12
  143 1995.75 0.00000 1.35217e-12
  144 1995.75 0.00000 -3.24294e-13
  145 1995.75 0.00000 -8.09026e-13
  146 1995.75 0.00000 1.32040e-12
  147 1995.75 0.00000 -3.25257e-12
  148 1995.75 0.00000 -1.66881e-12
  149 1995.75 0.00000 -1.52007e-12
  150 1995.75 0.00000 1.85300e-12
  151 1995.75 0.00000 -2.32344e-13
  152 1995.75 0.00000 1.32290e-12
  153 1995.75 0.00000 1.43560e-12
  154 1995.75 0.00000 1.37886e-12
  155 1995.75 0.00000 -3.11124e-12
  156 1995.75 0.00000 2.38104e-13
  157 1995.75 0.00000 6.00472e-13
  158 1995.75 0.00000 -3.34131e-12
  159 1995.75 0.00000 -1.28026e-12
  160 1995.75 0.00000 -1.41410e-12
  161 1995.75 0.00000 -2.27262e-12
  162 1995.75 0.00000 6.16376e-13
  163 1995.75 0.00000 9.01508e-14
  164 1995.75 0.00000 -1.60298e-12
  165 1995.75 0.00000 -1.49478e-12
  166 1995.75 0.00000 2.19744e-12
  167 1995.75 0.00000 -2.82903e-13
  168 1995.75 0.00000 -3.87940e-13
  169 1995.75 0.00000 -1.52409e-12
  170 1995.75 0.00000 1.09885e-12
  171 1995.75 0.00000 -1.62482e-12
  172 1995.75 0.00000 4.18925e-13
  173 1995.75 0.00000 1.97877e-12
  174 1995.75 0.00000 2.07247e-12
  175 1995.75 0.00000 3.08282e-12
  176 1995.75 0.00000 -3.29335e-12
  177 1995.75 0.00000 1.96268e-12
  178 1995.75 0.00000 -8.03612e-13
  179 1995.75 0.00000 -2.24542e-12
  180 1995.75 0.00000 2.60830e-13
  181 1995.75 0.00000 1.98411e-12
  182 1995.75 0.00000 -1.85514e-12
  183 1995.75 0.00000 2.70379e-12
  184 1995.75 0.00000 1.50096e-12
  185 1995.75 0.00000 -2.01273e-12
  186 1995.75 0.00000 9.36570e-13
  187 1995.75 0.00000 1.92558e-12
  188 1995.75 0.00000 1.61390e-12
  189 1995.75 0.00000 -1.21115e-12
  190 1995.75 0.00000 8.06756e-13
  191 1995.75 0.00000 -1.02406e-12
  192 1995.75 0.00000 -3.86568e-13
  193 1995.75 0.00000 -1.61840e-13
  194 1995.75 0.00000 -2.28664e-13
  195 1995.75 0.00000 2.31800e-12
  196 1995.75 0.00000 -5.61105e-13
  197 1995.75 0.00000 -1.48532e-12
  198 1995.75 0.00000 -9.47417e-13
  199 1995.75 0.00000 1.29813e-12
  200 1995.75 0.00000 2.48256e-12
  201 1995.75 0.00000 4.63357e-13
  202 1995.75 0.00000 -3.43361e-13
  203 1995.75 0.00000 -1.11070e-12
  204 1995.75 0.00000 2.14511e-12
  205 1995.75 0.00000 -7.35521e-13
  206 1995.75 0.00000 4.76234e-13
  207 1995.75 0.00000 1.58214e-12
  208 1995.75 0.00000 -1.61520e-13
  209 1995.75 0.00000 -2.24337e-13
  210 1995.75 0.00000 1.91990e-12
  211 1995.75 0.00000 -5.29723e-12
  212 1995.75 0.00000 1.83739e-12
  213 1995.75 0.00000 4.67403e-12
  214 1995.75 0.00000 8.07415e-13
  215 1995.75 0.00000 2.21612e-12
  216 1995.75 0.00000 2.42432e-12
  217 1995.75 0.00000 3.82777e-13
  218 1995.75 0.00000 1.95349e-12
  219 1995.75 0.00000 5.05695e-13
  220 1995.75 0.00000 4.28324e-13
  221 1995.75 0.00000 1.92101e-12
  222 1995.75 0.00000 1.23786e-12
  223 1995.75 0.00000 -1.34269e-12
  224 1995.75 0.00000 -2.98714e-13
  225 1995.75 0.00000 8.31934e-13
  226 1995.75 0.00000 -1.37522e-12
  227 1995.75 0.00000 1.51663e-12
  228 1995.75 0.00000 1.04144e-12
  229 1995.75 0.00000 -5.76063e-13
  230 1995.75 0.00000 -5.85139e-13
  231 1995.75 0.00000 8.29745e-13
  232 1995.75 0.00000 3.85780e-13
  233 1995.75 0.00000 8.83253e-13
  234 1995.75 0.00000 1.12537e-12
  235 1995.75 0.00000 -3.06456e-12
  236 1995.75 0.00000 -2.81775e-12
  237 1995.75 0.00000 3.34363e-13
  238 1995.75 0.00000 7.81185e-14
  239 1995.75 0.00000 -1.08376e-12
  240 1995.75 0.00000 -1.39974e-13
  241 1995.75 0.00000 8.66988e-13
</Section>

newXOutput 64

<Section columns = "stress_xx | stress_yy | stress_xy">
  1 2043.10 0.00000 3.45168e-12
  2 2043.10 0.00000 -1.02858e-12
  3 2043.10 0.00000 -2.09029e-12
  4 2043.10 0.00000 -2.98866e-12
  5 2043.10 0.00000 4.32170e-12
  6 2043.10 0.00000 6.30013e-12
  7 2043.10 0.00000 5.28559e-12
  8 2043.10 0.00000 2.42774e-12
  9 2043.10 0.00000 1.89918e-12
  10 2043.10 0.00000 1.01992e-12
  11 2043.10 0.00000 2.10895e-12
  12 2043.10 0.00000 8.70537e-13
  13 2043.10 0.00000 -2.11554e-12
  14 2043.10 0.00000 -1.29187e-12
  15 2043.10 0.00000 -9.33529e-15
  16 2043.10 0.00000 -1.10030e-12
  17 2043.10 0.00000 -2.38994e-12
  18 2043.10 0.00000 -1.06934e-12
  19 2043.10 0.00000 2.24080e-12
  20 2043.10 0.00000 2.72870e-12
  21 2043.10 0.00000 1.12020e-12
  22 2043.10 0.00000 -1.55083e-13
  23 2043.10 0.00000 -1.14087e-12
  24 2043.10 0.00000 -3.40278e-13
  25 2043.10 0.00000 6.36408e-13
  26 2043.10 0.00000 8.36056e-13
  27 2043.10 0.00000 2.33600e-12
  28 2043.10 0.00000 1.91509e-13
  29 2043.10 0.00000 1.77369e-13
  30 2043.10 0.00000 -3.21939e-13
  31 2043.10 0.00000 -2.35559e-12
  32 2043.10 0.00000 1.80583e-12
  33 2043.10 0.00000 1.34609e-12
  34 2043.10 0.00000 6.62832e-13
  35 2043.10 0.00000 6.48096e-13
  36 2043.10 0.00000 -1.27820e-12
  37 2043.10 0.00000 -1.24915e-12
  38 2043.10 0.00000 3.10539e-12
  39 2043.10 0.00000 3.60795e-12
  40 2043.10 0.00000 2.07509e-12
  41 2043.10 0.00000 1.28233e-12
  42 2043.10 0.00000 -5.18628e-13
  43 2043.10 0.00000 -4.30929e-13
  44 2043.10 0.00000 -1.27994e-12
  45 2043.10 0.00000 -7.14049e-13
  46 2043.10 0.00000 -1.28373e-12
  47 2043.10 0.00000 -3.95660e-12
  48 2043.10 0.00000 -5.46457e-12
  49 2043.10 0.00000 -3.64274e-12
  50 2043.10 0.00000 -1.78132e-12
  51 2043.10 0.00000 -1.50448e-12
  52 2043.10 0.00000 -2.59638e-13
  53 2043.10 0.00000 1.45123e-12
  54 2043.10 0.00000 1.32545e-12
  55 2043.10 0.00000 1.97264e-12
  56 2043.10 0.00000 2.03430e-12
  57 2043.10 0.00000 -3.06164e-13
  58 2043.10 0.00000 -3.15925e-12
  59 2043.10 0.00000 -5.65573e-13
  60 2043.10 0.00000 1.92157e-12
  61 2043.10 0.00000 2.54423e-13
  62 2043.10 0.00000 -1.71958e-12
  63 2043.10 0.00000 1.58903e-12
  64 2043.10 0.00000 -7.45094e-13
  65 2043.10 0.00000 -1.19412e-12
  66 2043.10 0.00000 1.13057e-12
  67 2043.10 0.00000 -2.88107e-13
  68 2043.10 0.00000 -8.19914e-13
  69 2043.10 0.00000 -7.10794e-14
  70 2043.10 0.00000 1.62344e-12
  71 2043.10 0.00000 3.83509e-13
  72 2043.10 0.00000 -4.80043e-13
  73 2043.10 0.00000 -9.53095e-13
  74 2043.10 0.00000 -1.30882e-12
  75 2043.10 0.00000 -9.20938e-13
  76 2043.10 0.00000 2.10557e-12
  77 2043.10 0.00000 -4.19420e-13
  78 2043.10 0.00000 1.27465e-12
  79 2043.10 0.00000 -9.07852e-13
  80 2043.10 0.00000 -1.49877e-12
  81 2043.10 0.00000 3.58606e-12
  82 2043.10 0.00000 3.55581e-13
  83 2043.10 0.00000 1.70532e-12
  84 2043.10 0.00000 2.67972e-12
  85 2043.10 0.00000 -7.90910e-13
  86 2043.10 0.00000 -1.36468e-12
  87 2043.10 0.00000 -3.86451e-12
  88 2043.10 0.00000 -3.12824e-12
  89 2043.10 0.00000 3.56342e-12
  90 2043.10 0.00000 3.01895e-13
  91 2043.10 0.00000 -1.87224e-12
  92 2043.10 0.00000 6.59768e-13
  93 2043.10 0.00000 -3.77185e-13
  94 2043.10 0.00000 1.22418e-12
  95 2043.10 0.00000 -1.89946e-12
  96 2043.10 0.00000 5.37270e-13
  97 2043.10 0.00000 6.12574e-15
  98 2043.10 0.00000 -1.48480e-12
  99 2043.10 0.00000 -9.88933e-13
  100 2043.10 0.00000 1.05243e-12
  101 2043.10 0.00000 8.19566e-13
  102 2043.10 0.00000 -1.99986e-12
  103 2043.10 0.00000 -2.14938e-12
  104 2043.10 0.00000 1.02849e-12
  105 2043.10 0.00000 2.59793e-12
  106 2043.10 0.00000 -1.56866e-12
  107 2043.10 0.00000 5.64576e-13
  108 2043.10 0.00000 -1.31729e-12
  109 2043.10 0.00000 1.96937e-12
  110 2043.10 0.00000 3.07080e-13
  111 2043.10 0.00000 -1.20916e-12
  112 2043.10 0.00000 2.20236e-13
  113 2043.10 0.00000 2.16297e-12
  114 2043.10 0.00000 1.13836e-13
  115 2043.10 0.00000 -6.84654e-13
  116 2043.10 0.00000 3.64504e-12
  117 2043.10 0.00000 -5.87878e-14
  118 2043.10 0.00000 -2.05471e-12
  119 2043.10 0.00000 -7.68045e-13
  120 2043.10 0.00000 3.20226e-13
  121 2043.10 0.00000 1.38231e-12
  122 2043.10 0.00000 8.89975e-13
  123 2043.10 0.00000 1.87930e-12
  124 2043.10 0.00000 -5.28182e-13
  125 2043.10 0.00000 -1.42892e-12
  126 2043.10 0.00000 1.85395e-12
  127 2043.10 0.00000 -1.23142e-13
  128 2043.10 0.00000 7.83389e-13
  129 2043.10 0.00000 -5.23482e-13
  130 2043.10 0.00000 1.23479e-13
  131 2043.10 0.00000 -2.98403e-13
  132 2043.10 0.00000 -9.66260e-14
  133 2043.10 0.00000 -8.53761e-13
  134 2043.10 0.00000 6.62986e-13
  135 2043.10 0.00000 -6.50155e-13
  136 2043.10 0.00000 -3.41902e-12
  137 2043.10 0.00000 -1.02910e-12
  138 2043.10 0.00000 -8.58526e-13
  139 2043.10 0.00000 -1.72330e-13
  140 2043.10 0.00000 1.03153e-12
  141 2043.10 0.00000 9.33035e-13
  142 2043.10 0.00000 1.33460e-12
  143 2043.10 0.00000 -1.11268e-12
  144 2043.10 0.00000 1.14523e-12
  145 2043.10 0.00000 4.50726e-13
  146 2043.10 0.00000 -9.98272e-13
  147 2043.10 0.00000 3.20346e-12
  148 2043.10 0.00000 1.57424e-12
  149 2043.10 0.00000 2.41623e-12
  150 2043.10 0.00000 -2.00954e-12
  151 2043.10 0.00000 -7.12449e-13
  152 2043.10 0.00000 -2.01704e-12
  153 2043.10 0.00000 -1.52266e-12
  154 2043.10 0.00000 -7.30158e-13
  155 2043.10 0.00000 3.52407e-12
  156 2043.10 0.00000 -3.49880e-13
  157 2043.10 0.00000 -1.04674e-12
  158 2043.10 0.00000 3.26987e-12
  159 2043.10 0.00000 2.41550e-12
  160 2043.10 0.00000 1.32606e-12
  161 2043.10 0.00000 2.25733e-12
  162 2043.10 0.00000 -2.05707e-13
  163 2043.10 0.00000 -7.03327e-13
  164 2043.10 0.00000 5.64249e-13
  165 2043.10 0.00000 1.32099e-12
  166 2043.10 0.00000 -2.13303e-12
  167 2043.10 0.00000 4.25414e-13
  168 2043.10 0.00000 -4.52267e-13
  169 2043.10 0.00000 1.99223e-12
  170 2043.10 0.00000 -8.74927e-13
  171 2043.10 0.00000 1.72395e-12
  172 2043.10 0.00000 -1.76208e-12
  173 2043.10 0.00000 -1.74618e-12
  174 2043.10 0.00000 -1.20443e-12
  175 2043.10 0.00000 -3.53057e-12
  176 2043.10 0.00000 3.74527e-12
  177 2043.10 0.00000 -1.55610e-12
  178 2043.10 0.00000 9.40812e-13
  179 2043.10 0.00000 2.50006e-12
  180 2043.10 0.00000 -1.87572e-13
  181 2043.10 0.00000 -2.09586e-12
  182 2043.10 0.00000 9.09290e-13
  183 2043.10 0.00000 -2.55862e-12
  184 2043.10 0.00000 -1.83532e-12
  185 2043.10 0.00000 1.96076e-12
  186 2043.10 0.00000 -1.10581e-12
  187 2043.10 0.00000 -1.65145e-12
  188 2043.10 0.00000 -1.40653e-12
  189 2043.10 0.00000 1.23035e-12
  190 2043.10 0.00000 -5.05807e-13
  191 2043.10 0.00000 1.00280e-12
  192 2043.10 0.00000 1.27397e-13
  193 2043.10 0.00000 6.01404e-13
  194 2043.10 0.00000 -6.18409e-13
  195 2043.10 0.00000 -2.39452e-12
  196 2043.10 0.00000 1.60172e-13
  197 2043.10 0.00000 1.84677e-12
  198 2043.10 0.00000 1.30362e-12
  199 2043.10 0.00000 -1.01678e-12
  200 2043.10 0.00000 -1.43222e-12
  201 2043.10 0.00000 -6.78344e-13
  202 2043.10 0.00000 2.12358e-12
  203 2043.10 0.00000 4.78506e-14
  204 2043.10 0.00000 -2.06055e-12
  205 2043.10 0.00000 2.47245e-13
  206 2043.10 0.00000 1.72242e-13
  207 2043.10 0.00000 -1.32275e-12
  208 2043.10 0.00000 5.49516e-13
  209 2043.10 0.00000 -9.55590e-13
  210 2043.10 0.00000 -1.77947e-12
  211 2043.10 0.00000 5.97260e-12
  212 2043.10 0.00000 -1.17705e-12
  213 2043.10 0.00000 -5.37745e-12
  214 2043.10 0.00000 -1.45660e-12
  215 2043.10 0.00000 -2.88419e-12
  216 2043.10 0.00000 -1.74964e-12
  217 2043.10 0.00000 9.86518e-13
  218 2043.10 0.00000 -1.97966e-12
  219 2043.10 0.00000 -7.80400e-14
  220 2043.10 0.00000 -6.69193e-13
  221 2043.10 0.00000 -1.22461e-12
  222 2043.10 0.00000 -1.56096e-12
  223 2043.10 0.00000 1.09732e-12
  224 2043.10 0.00000 6.62455e-13
  225 2043.10 0.00000 -3.73031e-13
  226 2043.10 0.00000 1.61285e-12
  227 2043.10 0.00000 -1.38480e-12
  228 2043.10 0.00000 -1.14461e-12
  229 2043.10 0.00000 5.64945e-13
  230 2043.10 0.00000 1.31086e-12
  231 2043.10 0.00000 -5.37741e-13
  232 2043.10 0.00000 -5.29409e-13
  233 2043.10 0.00000 -1.63726e-12
  234 2043.10 0.00000 -9.08705e-13
  235 2043.10 0.00000 3.16761e-12
  236 2043.10 0.00000 2.62854e-12
  237 2043.10 0.00000 -4.16309e-13
  238 2043.10 0.00000 2.32477e-13
  239 2043.10 0.00000 1.61075e-12
  240 2043.10 0.00000 1.45887e-13
  241 2043.10 0.00000 -1.35523e-12
</Section>

newXOutput 65

<Section columns = "stress_xx | stress_yy | stress_xy">
  1 2090.62 0.00000 -3.55005e-12
  2 2090.62 0.00000 5.98857e-13
  3 2090.62 0.00000 1.45952e-12
  4 2090.62 0.00000 3.44537e-12
  5 2090.62 0.00000 -4.22568e-12
  6 2090.62 0.00000 -6.02898e-12
  7 2090.62 0.00000 -5.13872e-12
  8 2090.62 0.00000 -2.98440e-12
  9 2090.62 0.00000 -2.54519e-12
  10 2090.62 0.00000 -1.61911e-12
  11 2090.62 0.00000 -2.19745e-12
  12 2090.62 0.00000 -1.37994e-12
  13 2090.62 0.00000 1.45645e-12
  14 2090.62 0.00000 1.50413e-12
  15 2090.62 0.00000 1.08296e-12
  16 2090.62 0.00000 2.27115e-12
  17 2090.62 0.00000 3.10263e-12
  18 2090.62 0.00000 2.93513e-12
  19 2090.62 0.00000 -5.19517e-13
  20 2090.62 0.00000 -6.52298e-13
  21 2090.62 0.00000 -2.28483e-13
  22 2090.62 0.00000 7.32233e-13
  23 2090.62 0.00000 9.41176e-13
  24 2090.62 0.00000 -4.41422e-13
  25 2090.62 0.00000 -6.53255e-13
  26 2090.62 0.00000 -1.51364e-12
  27 2090.62 0.00000 -1.67540e-12
  28 2090.62 0.00000 -1.55024e-12
  29 2090.62 0.00000 -1.73972e-13
  30 2090.62 0.00000 4.24515e-13
  31 2090.62 0.00000 3.43650e-12
  32 2090.62 0.00000 8.00280e-13
  33 2090.62 0.00000 -4.53256e-13
  34 2090.62 0.00000 7.32549e-13
  35 2090.62 0.00000 5.46060e-13
  36 2090.62 0.00000 1.71318e-12
  37 2090.62 0.00000 7.58636e-13
  38 2090.62 0.00000 -3.31012e-12
  39 2090.62 0.00000 -3.14055e-12
  40 2090.62 0.00000 -1.32154e-12
  41 2090.62 0.00000 -1.23521e-12
  42 2090.62 0.00000 5.06869e-13
  43 2090.62 0.00000 1.13554e-12
  44 2090.62 0.00000 2.42695e-12
  45 2090.62 0.00000 1.97456e-12
  46 2090.62 0.00000 2.52601e-12
  47 2090.62 0.00000 5.08970e-12
  48 2090.62 0.00000 5.86945e-12
  49 2090.62 0.00000 3.60447e-12
  50 2090.62 0.00000 2.17053e-12
  51 2090.62 0.00000 1.46388e-12
  52 2090.62 0.00000 9.79617e-14
  53 2090.62 0.00000 -1.49947e-12
  54 2090.62 0.00000 -1.08714e-12
  55 2090.62 0.00000 -1.70175e-12
  56 2090.62 0.00000 -2.20438e-12
  57 2090.62 0.00000 7.45555e-13
  58 2090.62 0.00000 2.86436e-12
  59 2090.62 0.00000 1.43452e-12
  60 2090.62 0.00000 -1.96650e-12
  61 2090.62 0.00000 -1.86203e-13
  62 2090.62 0.00000 1.89629e-12
  63 2090.62 0.00000 -6.61095e-14
  64 2090.62 0.00000 -6.61320e-13
  65 2090.62 0.00000 6.14272e-13
  66 2090.62 0.00000 -1.64972e-12
  67 2090.62 0.00000 6.27902e-13
  68 2090.62 0.00000 3.62822e-13
  69 2090.62 0.00000 -7.66518e-13
  70 2090.62 0.00000 -2.00224e-12
  71 2090.62 0.00000 -1.25934e-12
  72 2090.62 0.00000 6.92740e-13
  73 2090.62 0.00000 7.96690e-13
  74 2090.62 0.00000 1.53808e-12
  75 2090.62 0.00000 -6.54307e-14
  76 2090.62 0.00000 -1.79092e-12
  77 2090.62 0.00000 -1.25169e-13
  78 2090.62 0.00000 -3.40359e-13
  79 2090.62 0.00000 1.16994e-12
  80 2090.62 0.00000 8.57357e-13
  81 2090.62 0.00000 -2.77073e-12
  82 2090.62 0.00000 -1.07295e-12
  83 2090.62 0.00000 -1.39990e-12
  84 2090.62 0.00000 -3.07891e-12
  85 2090.62 0.00000 5.64352e-13
  86 2090.62 0.00000 1.38146e-12
  87 2090.62 0.00000 4.59027e-12
  88 2090.62 0.00000 2.96063e-13
  89 2090.62 0.00000 -4.01877e-12
  90 2090.62 0.00000 -2.14860e-13
  91 2090.62 0.00000 1.67752e-12
  92 2090.62 0.00000 -5.54320e-13
  93 2090.62 0.00000 1.44804e-12
  94 2090.62 0.00000 -6.94517e-13
  95 2090.62 0.00000 1.89057e-12
  96 2090.62 0.00000 -8.27256e-13
  97 2090.62 0.00000 -6.78108e-13
  98 2090.62 0.00000 2.54716e-12
  99 2090.62 0.00000 1.56705e-12
  100 2090.62 0.00000 -1.70245e-12
  101 2090.62 0.00000 -6.20763e-13
  102 2090.62 0.00000 2.14168e-12
  103 2090.62 0.00000 1.78894e-12
  104 2090.62 0.00000 -1.19601e-12
  105 2090.62 0.00000 -2.78469e-12
  106 2090.62 0.00000 1.21867e-12
  107 2090.62 0.00000 -1.93376e-12
  108 2090.62 0.00000 1.07132e-12
  109 2090.62 0.00000 -1.82544e-12
  110 2090.62 0.00000 -1.01369e-12
  111 2090.62 0.00000 1.81827e-13
  112 2090.62 0.00000 -3.70632e-13
  113 2090.62 0.00000 -2.96276e-12
  114 2090.62 0.00000 -5.18433e-13
  115 2090.62 0.00000 6.43096e-13
  116 2090.62 0.00000 -3.97510e-12
  117 2090.62 0.00000 -1.23209e-13
  118 2090.62 0.00000 1.35410e-12
  119 2090.62 0.00000 1.36764e-12
  120 2090.62 0.00000 2.66336e-13
  121 2090.62 0.00000 -1.07175e-12
  122 2090.62 0.00000 -7.01569e-13
  123 2090.62 0.00000 -1.98376e-12
  124 2090.62 0.00000 8.61477e-13
  125 2090.62 0.00000 1.10164e-12
  126 2090.62 0.00000 -2.12162e-12
  127 2090.62 0.00000 1.04304e-13
  128 2090.62 0.00000 -9.21738e-13
  129 2090.62 0.00000 1.44870e-12
  130 2090.62 0.00000 1.46451e-13
  131 2090.62 0.00000 3.56674e-14
  132 2090.62 0.00000 -3.39553e-13
  133 2090.62 0.00000 1.32094e-12
  134 2090.62 0.00000 -6.60216e-13
  135 2090.62 0.00000 1.04185e-12
  136 2090.62 0.00000 4.59184e-12
  137 2090.62 0.00000 4.93148e-13
  138 2090.62 0.00000 7.67252e-13
  139 2090.62 0.00000 -2.03722e-13
  140 2090.62 0.00000 -2.03980e-13
  141 2090.62 0.00000 -5.18166e-13
  142 2090.62 0.00000 -1.49542e-12
  143 2090.62 0.00000 6.97863e-13
  144 2090.62 0.00000 -1.17848e-12
  145 2090.62 0.00000 -2.57127e-13
  146 2090.62 0.00000 1.65941e-12
  147 2090.62 0.00000 -3.36303e-12
  148 2090.62 0.00000 -1.95949e-12
  149 2090.62 0.00000 -2.25680e-12
  150 2090.62 0.00000 2.44274e-12
  151 2090.62 0.00000 2.51023e-13
  152 2090.62 0.00000 2.33095e-12
  153 2090.62 0.00000 1.34765e-12
  154 2090.62 0.00000 7.82573e-13
  155 2090.62 0.00000 -2.09665e-12
  156 2090.62 0.00000 -1.87928e-13
  157 2090.62 0.00000 6.68081e-13
  158 2090.62 0.00000 -2.89834e-12
  159 2090.62 0.00000 -1.91147e-12
  160 2090.62 0.00000 -1.41449e-12
  161 2090.62 0.00000 -2.28373e-12
  162 2090.62 0.00000 9.44804e-13
  163 2090.62 0.00000 -3.58851e-13
  164 2090.62 0.00000 -3.74664e-13
  165 2090.62 0.00000 -2.08328e-12
  166 2090.62 0.00000 2.25707e-12
  167 2090.62 0.00000 -3.55499e-13
  168 2090.62 0.00000 -1.65391e-13
  169 2090.62 0.00000 -1.97800e-12
  170 2090.62 0.00000 1.20664e-12
  171 2090.62 0.00000 -1.26543e-12
  172 2090.62 0.00000 1.22706e-12
  173 2090.62 0.00000 2.15844e-12
  174 2090.62 0.00000 6.62345e-13
  175 2090.62 0.00000 3.76381e-12
  176 2090.62 0.00000 -3.88332e-12
  177 2090.62 0.00000 1.14147e-12
  178 2090.62 0.00000 -1.23035e-12
  179 2090.62 0.00000 -2.10490e-12
  180 2090.62 0.00000 1.56974e-13
  181 2090.62 0.00000 1.27741e-12
  182 2090.62 0.00000 -1.87063e-12
  183 2090.62 0.00000 2.65125e-12
  184 2090.62 0.00000 1.51362e-12
  185 2090.62 0.00000 -2.82036e-12
  186 2090.62 0.00000 1.49653e-12
  187 2090.62 0.00000 1.29346e-12
  188 2090.62 0.00000 1.84649e-12
  189 2090.62 0.00000 -8.11531e-13
  190 2090.62 0.00000 6.32234e-13
  191 2090.62 0.00000 -1.14949e-12
  192 2090.62 0.00000 1.64720e-13
  193 2090.62 0.00000 -7.30051e-13
  194 2090.62 0.00000 -4.39230e-13
  195 2090.62 0.00000 2.41118e-12
  196 2090.62 0.00000 -3.80001e-13
  197 2090.62 0.00000 -2.22200e-12
  198 2090.62 0.00000 3.70369e-13
  199 2090.62 0.00000 7.66198e-13
  200 2090.62 0.00000 1.69800e-12
  201 2090.62 0.00000 -8.36316e-14
  202 2090.62 0.00000 -7.19052e-13
  203 2090.62 0.00000 -3.73091e-13
  204 2090.62 0.00000 2.09167e-12
  205 2090.62 0.00000 -4.29978e-13
  206 2090.62 0.00000 1.21651e-12
  207 2090.62 0.00000 2.81609e-12
  208 2090.62 0.00000 7.34584e-13
  209 2090.62 0.00000 -4.80685e-13
  210 2090.62 0.00000 2.37025e-12
  211 2090.62 0.00000 -6.11543e-12
  212 2090.62 0.00000 1.71887e-12
  213 2090.62 0.00000 5.44086e-12
  214 2090.62 0.00000 1.87554e-12
  215 2090.62 0.00000 2.56148e-12
  216 2090.62 0.00000 1.34325e-12
  217 2090.62 0.00000 -2.04234e-12
  218 2090.62 0.00000 2.10838e-12
  219 2090.62 0.00000 1.55766e-13
  220 2090.62 0.00000 7.02505e-13
  221 2090.62 0.00000 1.02758e-12
  222 2090.62 0.00000 1.93807e-12
  223 2090.62 0.00000 -9.15242e-13
  224 2090.62 0.00000 -1.08121e-12
  225 2090.62 0.00000 3.90804e-13
  226 2090.62 0.00000 -1.90771e-12
  227 2090.62 0.00000 1.09571e-12
  228 2090.62 0.00000 2.37637e-13
  229 2090.62 0.00000 -1.04030e-12
  230 2090.62 0.00000 -8.40568e-13
  231 2090.62 0.00000 1.71899e-13
  232 2090.62 0.00000 -2.69841e-13
  233 2090.62 0.00000 5.81619e-13
  234 2090.62 0.00000 2.98641e-13
  235 2090.62 0.00000 -3.14576e-12
  236 2090.62 0.00000 -3.94427e-12
  237 2090.62 0.00000 3.08215e-13
  238 2090.62 0.00000 -4.16080e-13
  239 2090.62 0.00000 -4.61074e-13
  240 2090.62 0.00000 -2.10748e-13
  241 2090.62 0.00000 1.09005e-12
</Section>

newXOutput 66

<Section columns = "stress_xx | stress_yy | stress_xy">
  1 2138.29 0.00000 3.62825e-12
  2 2138.29 0.00000 -1.89238e-12
  3 2138.29 0.00000 -1.82647e-12
  4 2138.29 0.00000 -3.29181e-12
  5 2138.29 0.00000 4.78548e-12
  6 2138.29 0.00000 6.70146e-12
  7 2138.29 0.00000 5.30708e-12
  8 2138.29 0.00000 2.70712e-12
  9 2138.29 0.00000 3.00988e-12
  10 2138.29 0.00000 1.97549e-12
  11 2138.29 0.00000 1.88002e-12
  12 2138.29 0.00000 1.39011e-12
  13 2138.29 0.00000 -7.79191e-13
  14 2138.29 0.00000 -1.65148e-12
  15 2138.29 0.00000 -1.14034e-12
  16 2138.29 0.00000 -1.61239e-12
  17 2138.29 0.00000 -9.18330e-13
  18 2138.29 0.00000 -5.74910e-13
  19 2138.29 0.00000 8.40894e-13
  20 2138.29 0.00000 7.31014e-13
  21 2138.29 0.00000 -1.50768e-12
  22 2138.29 0.00000 -9.96107e-13
  23 2138.29 0.00000 -2.32275e-12
  24 2138.29 0.00000 2.00365e-13
  25 2138.29 0.00000 8.36192e-13
  26 2138.29 0.00000 1.85647e-12
  27 2138.29 0.00000 1.26851e-12
  28 2138.29 0.00000 2.07747e-12
  29 2138.29 0.00000 5.87547e-13
  30 2138.29 0.00000 -3.40937e-14
  31 2138.29 0.00000 -2.42792e-12
  32 2138.29 0.00000 -7.71711e-13
  33 2138.29 0.00000 -6.31075e-13
  34 2138.29 0.00000 -2.13178e-12
  35 2138.29 0.00000 -1.14181e-12
  36 2138.29 0.00000 -1.33163e-12
  37 2138.29 0.00000 -8.34930e-13
  38 2138.29 0.00000 2.63003e-12
  39 2138.29 0.00000 3.48859e-12
  40 2138.29 0.00000 6.51848e-13
  41 2138.29 0.00000 7.74694e-13
  42 2138.29 0.00000 -1.65409e-12
  43 2138.29 0.00000 -2.40724e-12
  44 2138.29 0.00000 -2.23192e-12
  45 2138.29 0.00000 -6.20180e-13
  46 2138.29 0.00000 -1.99281e-12
  47 2138.29 0.00000 -5.41026e-12
  48 2138.29 0.00000 -6.23790e-12
  49 2138.29 0.00000 -3.70918e-12
  50 2138.29 0.00000 -2.04717e-12
  51 2138.29 0.00000 -1.33856e-12
  52 2138.29 0.00000 6.67997e-14
  53 2138.29 0.00000 1.21705e-12
  54 2138.29 0.00000 1.62236e-12
  55 2138.29 0.00000 1.79457e-12
  56 2138.29 0.00000 2.28968e-12
  57 2138.29 0.00000 -9.52667e-13
  58 2138.29 0.00000 -4.21594e-12
  59 2138.29 0.00000 -8.30072e-13
  60 2138.29 0.00000 2.14656e-12
  61 2138.29 0.00000 4.96867e-13
  62 2138.29 0.00000 -2.13461e-12
  63 2138.29 0.00000 1.69399e-13
  64 2138.29 0.00000 8.97576e-13
  65 2138.29 0.00000 -1.00348e-12
  66 2138.29 0.00000 2.23947e-12
  67 2138.29 0.00000 -2.43920e-13
  68 2138.29 0.00000 -2.20727e-12
  69 2138.29 0.00000 5.67321e-13
  70 2138.29 0.00000 2.28361e-12
  71 2138.29 0.00000 1.82173e-12
  72 2138.29 0.00000 -6.27776e-13
  73 2138.29 0.00000 -4.39233e-13
  74 2138.29 0.00000 -1.95592e-12
  75 2138.29 0.00000 -8.72930e-13
  76 2138.29 0.00000 6.46777e-13
  77 2138.29 0.00000 -1.60674e-13
  78 2138.29 0.00000 1.10393e-12
  79 2138.29 0.00000 -1.55835e-12
  80 2138.29 0.00000 1.56415e-14
  81 2138.29 0.00000 1.54909e-12
  82 2138.29 0.00000 5.33613e-13
  83 2138.29 0.00000 1.09313e-12
  84 2138.29 0.00000 3.98026e-12
  85 2138.29 0.00000 -7.50487e-13
  86 2138.29 0.00000 -5.28246e-13
  87 2138.29 0.00000 -5.10517e-12
  88 2138.29 0.00000 -8.08544e-13
  89 2138.29 0.00000 4.53856e-12
  90 2138.29 0.00000 9.26918e-13
  91 2138.29 0.00000 -3.14260e-12
  92 2138.29 0.00000 3.71571e-13
  93 2138.29 0.00000 -2.37493e-12
  94 2138.29 0.00000 -2.58107e-13
  95 2138.29 0.00000 -2.38218e-12
  96 2138.29 0.00000 1.08303e-12
  97 2138.29 0.00000 3.46893e-13
  98 2138.29 0.00000 -3.31154e-12
  99 2138.29 0.00000 -2.22141e-12
  100 2138.29 0.00000 1.66330e-12
  101 2138.29 0.00000 1.46610e-12
  102 2138.29 0.00000 -2.31253e-12
  103 2138.29 0.00000 -2.25702e-12
  104 2138.29 0.00000 1.12382e-12
  105 2138.29 0.00000 2.56963e-12
  106 2138.29 0.00000 -1.49244e-12
  107 2138.29 0.00000 1.71640e-12
  108 2138.29 0.00000 -7.19282e-13
  109 2138.29 0.00000 2.23879e-12
  110 2138.29 0.00000 1.77989e-12
  111 2138.29 0.00000 -6.34353e-13
  112 2138.29 0.00000 1.29436e-12
  113 2138.29 0.00000 2.50207e-12
  114 2138.29 0.00000 5.94336e-13
  115 2138.29 0.00000 -8.45094e-13
  116 2138.29 0.00000 4.82500e-12
  117 2138.29 0.00000 -7.19855e-13
  118 2138.29 0.00000 -2.01424e-12
  119 2138.29 0.00000 -2.19445e-12
  120 2138.29 0.00000 -1.21623e-13
  121 2138.29 0.00000 8.20446e-13
  122 2138.29 0.00000 1.44418e-12
  123 2138.29 0.00000 1.76542e-12
  124 2138.29 0.00000 -1.69206e-12
  125 2138.29 0.00000 -1.42082e-12
  126 2138.29 0.00000 2.88280e-12
  127 2138.29 0.00000 -1.07176e-12
  128 2138.29 0.00000 9.89549e-13
  129 2138.29 0.00000 -1.55509e-12
  130 2138.29 0.00000 3.81132e-13
  131 2138.29 0.00000 9.08957e-15
  132 2138.29 0.00000 6.74070e-14
  133 2138.29 0.00000 -1.21361e-12
  134 2138.29 0.00000 1.32965e-12
  135 2138.29 0.00000 -1.16992e-12
  136 2138.29 0.00000 -5.44432e-12
  137 2138.29 0.00000 -5.71278e-13
  138 2138.29 0.00000 -6.28645e-13
  139 2138.29 0.00000 6.91668e-13
  140 2138.29 0.00000 -2.70883e-14
  141 2138.29 0.00000 6.60588e-13
  142 2138.29 0.00000 1.74602e-12
  143 2138.29 0.00000 -1.17295e-12
  144 2138.29 0.00000 4.18943e-13
  145 2138.29 0.00000 -3.84073e-13
  146 2138.29 0.00000 -2.21662e-12
  147 2138.29 0.00000 2.97893e-12
  148 2138.29 0.00000 1.71656e-12
  149 2138.29 0.00000 1.78813e-12
  150 2138.29 0.00000 -1.87352e-12
  151 2138.29 0.00000 -1.47630e-13
  152 2138.29 0.00000 -2.54180e-12
  153 2138.29 0.00000 -1.18932e-12
  154 2138.29 0.00000 -5.17841e-14
  155 2138.29 0.00000 2.06828e-12
  156 2138.29 0.00000 -5.05842e-13
  157 2138.29 0.00000 -8.29981e-13
  158 2138.29 0.00000 2.39473e-12
  159 2138.29 0.00000 2.36997e-12
  160 2138.29 0.00000 1.15477e-12
  161 2138.29 0.00000 1.34010e-12
  162 2138.29 0.00000 -1.14746e-12
  163 2138.29 0.00000 1.18837e-12
  164 2138.29 0.00000 -2.25510e-13
  165 2138.29 0.00000 2.45885e-12
  166 2138.29 0.00000 -2.39098e-12
  167 2138.29 0.00000 7.98638e-13
  168 2138.29 0.00000 2.20311e-13
  169 2138.29 0.00000 2.24953e-12
  170 2138.29 0.00000 -1.11235e-12
  171 2138.29 0.00000 1.85951e-12
  172 2138.29 0.00000 -1.94677e-12
  173 2138.29 0.00000 -2.17345e-12
  174 2138.29 0.00000 -1.56349e-12
  175 2138.29 0.00000 -3.76261e-12
  176 2138.29 0.00000 4.44577e-12
  177 2138.29 0.00000 -7.96298e-13
  178 2138.29 0.00000 1.12919e-12
  179 2138.29 0.00000 2.72181e-12
  180 2138.29 0.00000 2.44411e-13
  181 2138.29 0.00000 -2.20822e-12
  182 2138.29 0.00000 1.49236e-12
  183 2138.29 0.00000 -3.69755e-12
  184 2138.29 0.00000 -7.80541e-13
  185 2138.29 0.00000 3.03290e-12
  186 2138.29 0.00000 -2.24464e-12
  187 2138.29 0.00000 -7.21671e-13
  188 2138.29 0.00000 -1.85534e-12
  189 2138.29 0.00000 1.07746e-12
  190 2138.29 0.00000 -1.63572e-12
  191 2138.29 0.00000 1.09868e-12
  192 2138.29 0.00000 -1.65871e-12
  193 2138.29 0.00000 3.26388e-13
  194 2138.29 0.00000 1.39489e-12
  195 2138.29 0.00000 -2.82220e-12
  196 2138.29 0.00000 -1.39484e-13
  197 2138.29 0.00000 2.33237e-12
  198 2138.29 0.00000 -1.19143e-13
  199 2138.29 0.00000 -1.08466e-12
  200 2138.29 0.00000 -2.80956e-12
  201 2138.29 0.00000 4.87440e-13
  202 2138.29 0.00000 -2.11433e-13
  203 2138.29 0.00000 1.29916e-12
  204 2138.29 0.00000 -2.81102e-12
  205 2138.29 0.00000 3.62933e-13
  206 2138.29 0.00000 -9.10287e-13
  207 2138.29 0.00000 -3.27729e-12
  208 2138.29 0.00000 -4.41537e-13
  209 2138.29 0.00000 9.95825e-13
  210 2138.29 0.00000 -3.27760e-12
  211 2138.29 0.00000 6.97566e-12
  212 2138.29 0.00000 -2.03159e-12
  213 2138.29 0.00000 -5.46422e-12
  214 2138.29 0.00000 -2.18718e-12
  215 2138.29 0.00000 -3.70856e-12
  216 2138.29 0.00000 -2.52134e-12
  217 2138.29 0.00000 1.36992e-12
  218 2138.29 0.00000 -2.28526e-12
  219 2138.29 0.00000 -1.26208e-12
  220 2138.29 0.00000 -1.60561e-12
  221 2138.29 0.00000 -9.69101e-13
  222 2138.29 0.00000 -2.72628e-12
  223 2138.29 0.00000 1.16638e-12
  224 2138.29 0.00000 1.88990e-12
  225 2138.29 0.00000 -6.57242e-13
  226 2138.29 0.00000 1.84900e-12
  227 2138.29 0.00000 -1.86289e-12
  228 2138.29 0.00000 9.61497e-14
  229 2138.29 0.00000 1.33382e-12
  230 2138.29 0.00000 1.26592e-12
  231 2138.29 0.00000 -1.04744e-12
  232 2138.29 0.00000 -1.17219e-12
  233 2138.29 0.00000 -1.71959e-12
  234 2138.29 0.00000 -1.23302e-12
  235 2138.29 0.00000 2.76574e-12
  236 2138.29 0.00000 4.32004e-12
  237 2138.29 0.00000 -1.22248e-12
  238 2138.29 0.00000 -1.18268e-13
  239 2138.29 0.00000 2.08904e-13
  240 2138.29 0.00000 1.34919e-12
  241 2138.29 0.00000 -1.44951e-12
</Section>

newXOutput 67

<Section columns = "stress_xx | stress_yy | stress_xy">
  1 2186.12 0.00000 -3.49516e-12
  2 2186.12 0.00000 1.21731e-12
  3 2186.12 0.00000 1.18739e-12
  4 2186.12 0.00000 2.99403e-12
  5 2186.12 0.00000 -4.87457e-12
  6 2186.12 0.00000 -7.18598e-12
  7 2186.12 0.00000 -5.68155e-12
  8 2186.12 0.00000 -2.89555e-12
  9 2186.12 0.00000 -2.07177e-12
  10 2186.12 0.00000 -1.49307e-12
  11 2186.12 0.00000 -1.91590e-12
  12 2186.12 0.00000 -1.10459e-12
  13 2186.12 0.00000 -2.24378e-13
  14 2186.12 0.00000 1.15185e-12
  15 2186.12 0.00000 1.23073e-12
  16 2186.12 0.00000 2.31983e-12
  17 2186.12 0.00000 6.51217e-13
  18 2186.12 0.00000 7.69896e-13
  19 2186.12 0.00000 -1.39783e-12
  20 2186.12 0.00000 -5.30761e-13
  21 2186.12 0.00000 1.37776e-12
  22 2186.12 0.00000 3.00007e-13
  23 2186.12 0.00000 1.70156e-12
  24 2186.12 0.00000 -7.40500e-13
  25 2186.12 0.00000 -3.34358e-13
  26 2186.12 0.00000 -1.44080e-12
  27 2186.12 0.00000 -1.63969e-12
  28 2186.12 0.00000 -1.34224e-12
  29 2186.12 0.00000 -6.84144e-13
  30 2186.12 0.00000 -3.37108e-13
  31 2186.12 0.00000 2.00610e-12
  32 2186.12 0.00000 3.67633e-14
  33 2186.12 0.00000 1.95005e-13
  34 2186.12 0.00000 1.18072e-12
  35 2186.12 0.00000 -3.93946e-13
  36 2186.12 0.00000 2.32844e-12
  37 2186.12 0.00000 -1.06683e-13
  38 2186.12 0.00000 -3.94103e-12
  39 2186.12 0.00000 -4.10958e-12
  40 2186.12 0.00000 -1.36399e-12
  41 2186.12 0.00000 -5.98879e-13
  42 2186.12 0.00000 1.78609e-12
  43 2186.12 0.00000 1.77524e-12
  44 2186.12 0.00000 2.28562e-12
  45 2186.12 0.00000 8.59113e-13
  46 2186.12 0.00000 3.00885e-12
  47 2186.12 0.00000 6.02630e-12
  48 2186.12 0.00000 6.76479e-12
  49 2186.12 0.00000 3.98792e-12
  50 2186.12 0.00000 1.91916e-12
  51 2186.12 0.00000 1.79228e-12
  52 2186.12 0.00000 2.62488e-13
  53 2186.12 0.00000 -1.28471e-12
  54 2186.12 0.00000 -2.19896e-12
  55 2186.12 0.00000 -2.21444e-12
  56 2186.12 0.00000 -2.31659e-12
  57 2186.12 0.00000 7.09856e-13
  58 2186.12 0.00000 3.72874e-12
  59 2186.12 0.00000 5.07766e-13
  60 2186.12 0.00000 -1.46721e-12
  61 2186.12 0.00000 -4.44022e-13
  62 2186.12 0.00000 1.65702e-12
  63 2186.12 0.00000 -1.97120e-12
  64 2186.12 0.00000 -2.15619e-13
  65 2186.12 0.00000 1.96316e-12
  66 2186.12 0.00000 -2.53116e-12
  67 2186.12 0.00000 6.26480e-13
  68 2186.12 0.00000 3.28471e-13
  69 2186.12 0.00000 -1.43276e-12
  70 2186.12 0.00000 -2.25021e-12
  71 2186.12 0.00000 -2.05396e-12
  72 2186.12 0.00000 6.04742e-13
  73 2186.12 0.00000 4.82941e-13
  74 2186.12 0.00000 2.02100e-12
  75 2186.12 0.00000 4.86483e-13
  76 2186.12 0.00000 -3.27015e-13
  77 2186.12 0.00000 5.72722e-13
  78 2186.12 0.00000 -1.13265e-12
  79 2186.12 0.00000 1.06812e-12
  80 2186.12 0.00000 1.66712e-13
  81 2186.12 0.00000 -1.09927e-12
  82 2186.12 0.00000 -8.49224e-13
  83 2186.12 0.00000 -2.07249e-12
  84 2186.12 0.00000 -4.41722e-12
  85 2186.12 0.00000 1.31310e-12
  86 2186.12 0.00000 2.09771e-12
  87 2186.12 0.00000 4.98801e-12
  88 2186.12 0.00000 6.66286e-13
  89 2186.12 0.00000 -5.17902e-12
  90 2186.12 0.00000 -1.47299e-12
  91 2186.12 0.00000 3.19479e-12
  92 2186.12 0.00000 2.05438e-13
  93 2186.12 0.00000 9.10363e-13
  94 2186.12 0.00000 -6.79936e-14
  95 2186.12 0.00000 2.28229e-12
  96 2186.12 0.00000 -7.44022e-13
  97 2186.12 0.00000 4.67508e-13
  98 2186.12 0.00000 3.09158e-12
  99 2186.12 0.00000 2.65706e-12
  100 2186.12 0.00000 -2.42764e-12
  101 2186.12 0.00000 -1.30642e-12
  102 2186.12 0.00000 2.08022e-12
  103 2186.12 0.00000 1.99189e-12
  104 2186.12 0.00000 -7.61075e-13
  105 2186.12 0.00000 -2.84626e-12
  106 2186.12 0.00000 6.84904e-13
  107 2186.12 0.00000 -1.74166e-12
  108 2186.12 0.00000 1.24650e-12
  109 2186.12 0.00000 -2.60407e-12
  110 2186.12 0.00000 -1.49364e-12
  111 2186.12 0.00000 1.85849e-13
  112 2186.12 0.00000 -1.20997e-12
  113 2186.12 0.00000 -2.64610e-12
  114 2186.12 0.00000 -7.16691e-13
  115 2186.12 0.00000 4.74922e-13
  116 2186.12 0.00000 -5.38052e-12
  117 2186.12 0.00000 1.38364e-12
  118 2186.12 0.00000 2.02744e-12
  119 2186.12 0.00000 1.68627e-12
  120 2186.12 0.00000 -1.23524e-12
  121 2186.12 0.00000 -1.65270e-12
  122 2186.12 0.00000 -1.24866e-12
  123 2186.12 0.00000 -1.75523e-12
  124 2186.12 0.00000 1.84789e-12
  125 2186.12 0.00000 1.23468e-12
  126 2186.12 0.00000 -2.83027e-12
  127 2186.12 0.00000 -1.72286e-13
  128 2186.12 0.00000 -1.18871e-12
  129 2186.12 0.00000 1.76708e-12
  130 2186.12 0.00000 -4.43189e-13
  131 2186.12 0.00000 4.03848e-13
  132 2186.12 0.00000 1.45639e-13
  133 2186.12 0.00000 1.11450e-12
  134 2186.12 0.00000 -1.48697e-12
  135 2186.12 0.00000 1.51501e-12
  136 2186.12 0.00000 5.47034e-12
  137 2186.12 0.00000 1.10856e-12
  138 2186.12 0.00000 4.16579e-13
  139 2186.12 0.00000 -3.67365e-13
  140 2186.12 0.00000 -1.34608e-12
  141 2186.12 0.00000 -9.57302e-13
  142 2186.12 0.00000 -1.67444e-12
  143 2186.12 0.00000 1.25956e-12
  144 2186.12 0.00000 -7.94408e-13
  145 2186.12 0.00000 -1.05421e-13
  146 2186.12 0.00000 2.00121e-12
  147 2186.12 0.00000 -2.98038e-12
  148 2186.12 0.00000 -1.69580e-12
  149 2186.12 0.00000 -7.31620e-13
  150 2186.12 0.00000 1.33108e-12
  151 2186.12 0.00000 -2.45910e-13
  152 2186.12 0.00000 2.64573e-12
  153 2186.12 0.00000 2.97699e-13
  154 2186.12 0.00000 -3.35035e-14
  155 2186.12 0.00000 -2.05224e-12
  156 2186.12 0.00000 -2.79575e-13
  157 2186.12 0.00000 1.47570e-12
  158 2186.12 0.00000 -2.06209e-12
  159 2186.12 0.00000 -2.20308e-12
  160 2186.12 0.00000 -5.28984e-13
  161 2186.12 0.00000 -2.60648e-14
  162 2186.12 0.00000 9.89547e-13
  163 2186.12 0.00000 -9.85764e-13
  164 2186.12 0.00000 -1.50206e-12
  165 2186.12 0.00000 -2.96905e-12
  166 2186.12 0.00000 2.49089e-12
  167 2186.12 0.00000 -7.85996e-13
  168 2186.12 0.00000 -2.76088e-13
  169 2186.12 0.00000 -2.69503e-12
  170 2186.12 0.00000 2.51224e-12
  171 2186.12 0.00000 -1.27860e-12
  172 2186.12 0.00000 2.33941e-12
  173 2186.12 0.00000 2.34709e-12
  174 2186.12 0.00000 1.01356e-12
  175 2186.12 0.00000 3.59309e-12
  176 2186.12 0.00000 -4.58231e-12
  177 2186.12 0.00000 3.84300e-13
  178 2186.12 0.00000 -1.90024e-12
  179 2186.12 0.00000 -3.21538e-12
  180 2186.12 0.00000 3.70513e-14
  181 2186.12 0.00000 2.63152e-12
  182 2186.12 0.00000 -2.42317e-12
  183 2186.12 0.00000 3.27828e-12
  184 2186.12 0.00000 1.09797e-12
  185 2186.12 0.00000 -3.58775e-12
  186 2186.12 0.00000 2.76891e-12
  187 2186.12 0.00000 1.24480e-13
  188 2186.12 0.00000 1.50875e-12
  189 2186.12 0.00000 -1.44618e-12
  190 2186.12 0.00000 1.86682e-12
  191 2186.12 0.00000 -8.32317e-13
  192 2186.12 0.00000 1.08823e-12
  193 2186.12 0.00000 -1.17596e-12
  194 2186.12 0.00000 -9.51253e-13
  195 2186.12 0.00000 3.29439e-12
  196 2186.12 0.00000 -1.30924e-12
  197 2186.12 0.00000 -2.93091e-12
  198 2186.12 0.00000 1.89333e-13
  199 2186.12 0.00000 1.10442e-12
  200 2186.12 0.00000 1.16627e-12
  201 2186.12 0.00000 -1.31541e-12
  202 2186.12 0.00000 7.91866e-14
  203 2186.12 0.00000 -1.77143e-12
  204 2186.12 0.00000 2.08209e-12
  205 2186.12 0.00000 -1.15863e-12
  206 2186.12 0.00000 1.67380e-12
  207 2186.12 0.00000 4.19500e-12
  208 2186.12 0.00000 -6.38054e-13
  209 2186.12 0.00000 -4.98400e-13
  210 2186.12 0.00000 3.13715e-12
  211 2186.12 0.00000 -7.31907e-12
  212 2186.12 0.00000 1.75542e-12
  213 2186.12 0.00000 5.67763e-12
  214 2186.12 0.00000 2.10426e-12
  215 2186.12 0.00000 2.66925e-12
  216 2186.12 0.00000 1.83611e-12
  217 2186.12 0.00000 -1.53493e-12
  218 2186.12 0.00000 2.31778e-12
  219 2186.12 0.00000 8.85644e-13
  220 2186.12 0.00000 1.99093e-12
  221 2186.12 0.00000 4.85966e-13
  222 2186.12 0.00000 2.37939e-12
  223 2186.12 0.00000 -1.39687e-12
  224 2186.12 0.00000 -1.87629e-12
  225 2186.12 0.00000 1.85943e-13
  226 2186.12 0.00000 -2.23521e-12
  227 2186.12 0.00000 3.50164e-13
  228 2186.12 0.00000 -2.77559e-13
  229 2186.12 0.00000 -1.18943e-12
  230 2186.12 0.00000 -1.88509e-12
  231 2186.12 0.00000 -2.17074e-13
  232 2186.12 0.00000 1.14131e-12
  233 2186.12 0.00000 2.52224e-12
  234 2186.12 0.00000 1.53387e-12
  235 2186.12 0.00000 -2.58188e-12
  236 2186.12 0.00000 -5.00136e-12
  237 2186.12 0.00000 2.82028e-12
  238 2186.12 0.00000 -2.03521e-13
  239 2186.12 0.00000 -1.23429e-12
  240 2186.12 0.00000 -7.36390e-13
  241 2186.12 0.00000 1.72945e-12
</Section>

newXOutput 68

<Section columns = "stress_xx | stress_yy | stress_xy">
  1 2234.11 0.00000 3.31766e-12
  2 2234.11 0.00000 -2.04994e-12
  3 2234.11 0.00000 -1.27748e-12
  4 2234.11 0.00000 -3.54610e-12
  5 2234.11 0.00000 5.24454e-12
  6 2234.11 0.00000 7.68447e-12
  7 2234.11 0.00000 6.03196e-12
  8 2234.11 0.00000 3.76313e-12
  9 2234.11 0.00000 2.92571e-12
  10 2234.11 0.00000 2.70916e-12
  11 2234.11 0.00000 1.55745e-12
  12 2234.11 0.00000 1.52370e-12
  13 2234.11 0.00000 1.15002e-13
  14 2234.11 0.00000 -7.60788e-13
  15 2234.11 0.00000 -1.65126e-12
  16 2234.11 0.00000 -3.50549e-12
  17 2234.11 0.00000 -2.05847e-12
  18 2234.11 0.00000 1.23728e-12
  19 2234.11 0.00000 3.20291e-12
  20 2234.11 0.00000 6.29319e-13
  21 2234.11 0.00000 1.34638e-13
  22 2234.11 0.00000 -2.75977e-13
  23 2234.11 0.00000 -2.06074e-12
  24 2234.11 0.00000 6.18478e-13
  25 2234.11 0.00000 5.57783e-13
  26 2234.11 0.00000 2.40467e-12
  27 2234.11 0.00000 9.88728e-13
  28 2234.11 0.00000 2.11262e-12
  29 2234.11 0.00000 2.23113e-13
  30 2234.11 0.00000 -4.06238e-13
  31 2234.11 0.00000 -3.21972e-12
  32 2234.11 0.00000 -4.25344e-13
  33 2234.11 0.00000 1.11662e-13
  34 2234.11 0.00000 -1.91617e-12
  35 2234.11 0.00000 -9.43036e-14
  36 2234.11 0.00000 -1.12269e-12
  37 2234.11 0.00000 3.04769e-13
  38 2234.11 0.00000 4.75067e-12
  39 2234.11 0.00000 4.36653e-12
  40 2234.11 0.00000 1.73284e-12
  41 2234.11 0.00000 9.47176e-13
  42 2234.11 0.00000 -1.36137e-12
  43 2234.11 0.00000 -1.08812e-12
  44 2234.11 0.00000 -3.59682e-12
  45 2234.11 0.00000 -2.43108e-12
  46 2234.11 0.00000 -4.09180e-12
  47 2234.11 0.00000 -6.23479e-12
  48 2234.11 0.00000 -6.71929e-12
  49 2234.11 0.00000 -4.14620e-12
  50 2234.11 0.00000 -2.26180e-12
  51 2234.11 0.00000 -1.76128e-12
  52 2234.11 0.00000 -3.64079e-13
  53 2234.11 0.00000 1.50529e-12
  54 2234.11 0.00000 1.82884e-12
  55 2234.11 0.00000 1.84317e-12
  56 2234.11 0.00000 2.07541e-12
  57 2234.11 0.00000 -5.30816e-13
  58 2234.11 0.00000 -3.60523e-12
  59 2234.11 0.00000 -2.71325e-13
  60 2234.11 0.00000 1.72362e-12
  61 2234.11 0.00000 5.38519e-13
  62 2234.11 0.00000 -1.63205e-12
  63 2234.11 0.00000 2.90832e-12
  64 2234.11 0.00000 6.02721e-13
  65 2234.11 0.00000 -1.50337e-12
  66 2234.11 0.00000 2.92806e-12
  67 2234.11 0.00000 -6.13394e-13
  68 2234.11 0.00000 -1.01333e-12
  69 2234.11 0.00000 5.86312e-13
  70 2234.11 0.00000 2.83605e-12
  71 2234.11 0.00000 1.45712e-12
  72 2234.11 0.00000 -1.37010e-12
  73 2234.11 0.00000 -4.69943e-13
  74 2234.11 0.00000 -1.64630e-12
  75 2234.11 0.00000 6.89610e-13
  76 2234.11 0.00000 8.45845e-13
  77 2234.11 0.00000 -2.86610e-13
  78 2234.11 0.00000 3.43078e-13
  79 2234.11 0.00000 -1.90710e-12
  80 2234.11 0.00000 2.87361e-13
  81 2234.11 0.00000 1.36553e-12
  82 2234.11 0.00000 1.19965e-12
  83 2234.11 0.00000 1.78040e-12
  84 2234.11 0.00000 4.00226e-12
  85 2234.11 0.00000 8.79319e-14
  86 2234.11 0.00000 -3.86442e-13
  87 2234.11 0.00000 -5.52375e-12
  88 2234.11 0.00000 -6.90514e-13
  89 2234.11 0.00000 5.05290e-12
  90 2234.11 0.00000 9.33354e-13
  91 2234.11 0.00000 -2.51014e-12
  92 2234.11 0.00000 -4.09815e-13
  93 2234.11 0.00000 -2.86347e-13
  94 2234.11 0.00000 2.66441e-13
  95 2234.11 0.00000 -2.24061e-12
  96 2234.11 0.00000 9.44749e-13
  97 2234.11 0.00000 2.28196e-13
  98 2234.11 0.00000 -3.49571e-12
  99 2234.11 0.00000 -2.56061e-12
  100 2234.11 0.00000 2.62930e-12
  101 2234.11 0.00000 5.74284e-13
  102 2234.11 0.00000 -1.27553e-12
  103 2234.11 0.00000 -2.70424e-12
  104 2234.11 0.00000 1.45974e-12
  105 2234.11 0.00000 2.95466e-12
  106 2234.11 0.00000 -1.10508e-12
  107 2234.11 0.00000 2.27363e-12
  108 2234.11 0.00000 -1.61394e-12
  109 2234.11 0.00000 2.23198e-12
  110 2234.11 0.00000 2.81254e-12
  111 2234.11 0.00000 -1.09116e-12
  112 2234.11 0.00000 1.38752e-12
  113 2234.11 0.00000 3.43467e-12
  114 2234.11 0.00000 1.08622e-12
  115 2234.11 0.00000 -1.06658e-12
  116 2234.11 0.00000 4.98268e-12
  117 2234.11 0.00000 -1.43824e-12
  118 2234.11 0.00000 -2.16253e-12
  119 2234.11 0.00000 -1.63687e-12
  120 2234.11 0.00000 7.53994e-13
  121 2234.11 0.00000 1.55765e-12
  122 2234.11 0.00000 1.15566e-12
  123 2234.11 0.00000 1.56826e-12
  124 2234.11 0.00000 -2.66884e-12
  125 2234.11 0.00000 -4.23963e-13
  126 2234.11 0.00000 3.08583e-12
  127 2234.11 0.00000 -3.26122e-13
  128 2234.11 0.00000 1.55080e-12
  129 2234.11 0.00000 -1.92919e-12
  130 2234.11 0.00000 2.93861e-13
  131 2234.11 0.00000 1.74865e-13
  132 2234.11 0.00000 -1.31608e-13
  133 2234.11 0.00000 -8.41695e-13
  134 2234.11 0.00000 1.04367e-12
  135 2234.11 0.00000 1.14225e-14
  136 2234.11 0.00000 -5.65759e-12
  137 2234.11 0.00000 -1.01519e-12
  138 2234.11 0.00000 -2.00154e-13
  139 2234.11 0.00000 7.20562e-13
  140 2234.11 0.00000 5.71237e-13
  141 2234.11 0.00000 4.67668e-14
  142 2234.11 0.00000 2.80682e-12
  143 2234.11 0.00000 -1.20810e-12
  144 2234.11 0.00000 1.05543e-12
  145 2234.11 0.00000 -1.11092e-12
  146 2234.11 0.00000 -2.30214e-12
  147 2234.11 0.00000 3.34340e-12
  148 2234.11 0.00000 1.94792e-12
  149 2234.11 0.00000 1.01323e-12
  150 2234.11 0.00000 -2.44201e-12
  151 2234.11 0.00000 -2.41908e-13
  152 2234.11 0.00000 -2.95915e-12
  153 2234.11 0.00000 1.80972e-13
  154 2234.11 0.00000 1.00646e-12
  155 2234.11 0.00000 1.35403e-12
  156 2234.11 0.00000 1.56091e-13
  157 2234.11 0.00000 -1.64007e-12
  158 2234.11 0.00000 2.27301e-12
  159 2234.11 0.00000 2.55459e-12
  160 2234.11 0.00000 1.00637e-12
  161 2234.11 0.00000 8.42325e-13
  162 2234.11 0.00000 -7.99547e-13
  163 2234.11 0.00000 1.00839e-12
  164 2234.11 0.00000 2.22847e-12
  165 2234.11 0.00000 2.41974e-12
  166 2234.11 0.00000 -2.82526e-12
  167 2234.11 0.00000 7.45422e-13
  168 2234.11 0.00000 -2.01064e-13
  169 2234.11 0.00000 2.35777e-12
  170 2234.11 0.00000 -2.14006e-12
  171 2234.11 0.00000 1.31121e-12
  172 2234.11 0.00000 -2.08226e-12
  173 2234.11 0.00000 -3.03101e-12
  174 2234.11 0.00000 -6.71324e-13
  175 2234.11 0.00000 -3.95906e-12
  176 2234.11 0.00000 4.47715e-12
  177 2234.11 0.00000 -6.07066e-13
  178 2234.11 0.00000 1.56111e-12
  179 2234.11 0.00000 3.80013e-12
  180 2234.11 0.00000 6.31190e-13
  181 2234.11 0.00000 -3.21189e-12
  182 2234.11 0.00000 3.59392e-12
  183 2234.11 0.00000 -2.80206e-12
  184 2234.11 0.00000 -1.41467e-12
  185 2234.11 0.00000 3.93483e-12
  186 2234.11 0.00000 -2.79234e-12
  187 2234.11 0.00000 6.82591e-13
  188 2234.11 0.00000 -1.89717e-12
  189 2234.11 0.00000 1.16320e-12
  190 2234.11 0.00000 -8.07895e-13
  191 2234.11 0.00000 9.93245e-13
  192 2234.11 0.00000 9.29777e-14
  193 2234.11 0.00000 1.45925e-12
  194 2234.11 0.00000 4.36848e-13
  195 2234.11 0.00000 -3.61568e-12
  196 2234.11 0.00000 5.56115e-13
  197 2234.11 0.00000 2.92031e-12
  198 2234.11 0.00000 1.15178e-12
  199 2234.11 0.00000 -1.34053e-12
  200 2234.11 0.00000 -1.04998e-12
  201 2234.11 0.00000 2.24410e-12
  202 2234.11 0.00000 6.23302e-13
  203 2234.11 0.00000 4.34365e-13
  204 2234.11 0.00000 -2.91250e-12
  205 2234.11 0.00000 1.15729e-12
  206 2234.11 0.00000 -8.44353e-14
  207 2234.11 0.00000 -4.22960e-12
  208 2234.11 0.00000 -1.26117e-13
  209 2234.11 0.00000 3.66529e-14
  210 2234.11 0.00000 -3.79465e-12
  211 2234.11 0.00000 7.13520e-12
  212 2234.11 0.00000 -5.40774e-13
  213 2234.11 0.00000 -5.70038e-12
  214 2234.11 0.00000 -1.72549e-12
  215 2234.11 0.00000 -2.64216e-12
  216 2234.11 0.00000 -1.40575e-12
  217 2234.11 0.00000 1.09735e-12
  218 2234.11 0.00000 -2.51306e-12
  219 2234.11 0.00000 -5.84191e-13
  220 2234.11 0.00000 -1.03646e-12
  221 2234.11 0.00000 -4.48992e-13
  222 2234.11 0.00000 -1.84706e-12
  223 2234.11 0.00000 1.68633e-12
  224 2234.11 0.00000 2.07321e-12
  225 2234.11 0.00000 3.23567e-13
  226 2234.11 0.00000 2.80053e-12
  227 2234.11 0.00000 -1.22836e-12
  228 2234.11 0.00000 1.65226e-12
  229 2234.11 0.00000 1.25044e-12
  230 2234.11 0.00000 2.38086e-12
  231 2234.11 0.00000 6.86392e-13
  232 2234.11 0.00000 -1.57888e-12
  233 2234.11 0.00000 -1.41329e-12
  234 2234.11 0.00000 -1.06089e-12
  235 2234.11 0.00000 2.15255e-12
  236 2234.11 0.00000 5.09235e-12
  237 2234.11 0.00000 -2.10518e-12
  238 2234.11 0.00000 -1.90130e-13
  239 2234.11 0.00000 1.82845e-12
  240 2234.11 0.00000 1.92208e-12
  241 2234.11 0.00000 -1.27581e-12
</Section>

newXOutput 69

<Section columns = "stress_xx | stress_yy | stress_xy">
  1 2282.26 0.00000 -3.65155e-12
  2 2282.26 0.00000 2.86430e-12
  3 2282.26 0.00000 5.63927e-13
  4 2282.26 0.00000 4.44307e-12
  5 2282.26 0.00000 -6.53220e-12
  6 2282.26 0.00000 -1.01529e-11
  7 2282.26 0.00000 -8.08609e-12
  8 2282.26 0.00000 -4.66829e-12
  9 2282.26 0.00000 -3.77636e-12
  10 2282.26 0.00000 -1.85905e-12
  11 2282.26 0.00000 1.73577e-13
  12 2282.26 0.00000 -2.37366e-13
  13 2282.26 0.00000 4.53184e-13
  14 2282.26 0.00000 9.12768e-13
  15 2282.26 0.00000 2.09556e-12
  16 2282.26 0.00000 3.49956e-12
  17 2282.26 0.00000 1.07255e-12
  18 2282.26 0.00000 -1.22657e-12
  19 2282.26 0.00000 -4.03507e-12
  20 2282.26 0.00000 -3.23876e-12
  21 2282.26 0.00000 -2.07241e-12
  22 2282.26 0.00000 -1.23598e-12
  23 2282.26 0.00000 1.69041e-12
  24 2282.26 0.00000 -4.12190e-13
  25 2282.26 0.00000 -1.06382e-12
  26 2282.26 0.00000 -2.56334e-12
  27 2282.26 0.00000 -1.94573e-12
  28 2282.26 0.00000 -1.90711e-12
  29 2282.26 0.00000 -2.23321e-13
  30 2282.26 0.00000 -3.30956e-13
  31 2282.26 0.00000 3.38326e-12
  32 2282.26 0.00000 -3.30370e-13
  33 2282.26 0.00000 -8.26626e-13
  34 2282.26 0.00000 -2.63474e-13
  35 2282.26 0.00000 -5.83108e-13
  36 2282.26 0.00000 3.61022e-13
  37 2282.26 0.00000 -1.93880e-12
  38 2282.26 0.00000 -6.23656e-12
  39 2282.26 0.00000 -4.91472e-12
  40 2282.26 0.00000 -1.26929e-12
  41 2282.26 0.00000 -1.41309e-12
  42 2282.26 0.00000 5.65357e-13
  43 2282.26 0.00000 1.12114e-12
  44 2282.26 0.00000 3.68970e-12
  45 2282.26 0.00000 3.00302e-12
  46 2282.26 0.00000 4.11382e-12
  47 2282.26 0.00000 6.68487e-12
  48 2282.26 0.00000 7.85798e-12
  49 2282.26 0.00000 5.23260e-12
  50 2282.26 0.00000 2.70624e-12
  51 2282.26 0.00000 1.50641e-12
  52 2282.26 0.00000 -2.89429e-13
  53 2282.26 0.00000 -1.89626e-12
  54 2282.26 0.00000 -1.85726e-12
  55 2282.26 0.00000 -1.08819e-12
  56 2282.26 0.00000 -1.75140e-12
  57 2282.26 0.00000 4.36834e-13
  58 2282.26 0.00000 3.82623e-12
  59 2282.26 0.00000 5.73239e-13
  60 2282.26 0.00000 -1.76883e-12
  61 2282.26 0.00000 -8.57643e-13
  62 2282.26 0.00000 1.55216e-12
  63 2282.26 0.00000 -2.49382e-12
  64 2282.26 0.00000 -9.60551e-13
  65 2282.26 0.00000 1.16318e-12
  66 2282.26 0.00000 -3.27611e-12
  67 2282.26 0.00000 9.54535e-13
  68 2282.26 0.00000 1.46940e-12
  69 2282.26 0.00000 -7.72211e-13
  70 2282.26 0.00000 -2.85949e-12
  71 2282.26 0.00000 -1.77637e-12
  72 2282.26 0.00000 1.36877e-12
  73 2282.26 0.00000 5.84556e-14
  74 2282.26 0.00000 2.17104e-12
  75 2282.26 0.00000 -2.28011e-13
  76 2282.26 0.00000 -2.24819e-12
  77 2282.26 0.00000 4.66300e-13
  78 2282.26 0.00000 7.93141e-13
  79 2282.26 0.00000 2.52868e-12
  80 2282.26 0.00000 -4.74431e-13
  81 2282.26 0.00000 -1.84883e-12
  82 2282.26 0.00000 -1.45171e-12
  83 2282.26 0.00000 -1.50051e-12
  84 2282.26 0.00000 -4.20958e-12
  85 2282.26 0.00000 -9.14129e-14
  86 2282.26 0.00000 1.49564e-12
  87 2282.26 0.00000 6.11542e-12
  88 2282.26 0.00000 -4.10580e-13
  89 2282.26 0.00000 -5.09135e-12
  90 2282.26 0.00000 -1.75931e-12
  91 2282.26 0.00000 1.50676e-12
  92 2282.26 0.00000 1.89200e-13
  93 2282.26 0.00000 -3.88080e-13
  94 2282.26 0.00000 -9.15167e-13
  95 2282.26 0.00000 2.75919e-12
  96 2282.26 0.00000 -2.54025e-12
  97 2282.26 0.00000 -3.61173e-13
  98 2282.26 0.00000 4.48442e-12
  99 2282.26 0.00000 3.38489e-12
  100 2282.26 0.00000 -2.20063e-12
  101 2282.26 0.00000 -6.14294e-13
  102 2282.26 0.00000 1.90387e-12
  103 2282.26 0.00000 1.83774e-12
  104 2282.26 0.00000 -1.39475e-12
  105 2282.26 0.00000 -3.50828e-12
  106 2282.26 0.00000 2.26013e-12
  107 2282.26 0.00000 -2.68784e-12
  108 2282.26 0.00000 1.08829e-12
  109 2282.26 0.00000 -2.58830e-12
  110 2282.26 0.00000 -2.21494e-12
  111 2282.26 0.00000 6.21935e-13
  112 2282.26 0.00000 -1.30365e-12
  113 2282.26 0.00000 -4.89246e-12
  114 2282.26 0.00000 -1.62297e-12
  115 2282.26 0.00000 1.70450e-12
  116 2282.26 0.00000 -6.05721e-12
  117 2282.26 0.00000 -2.77610e-14
  118 2282.26 0.00000 1.89662e-12
  119 2282.26 0.00000 1.91078e-12
  120 2282.26 0.00000 -5.82462e-14
  121 2282.26 0.00000 -1.40369e-12
  122 2282.26 0.00000 -2.26625e-13
  123 2282.26 0.00000 -1.82166e-12
  124 2282.26 0.00000 2.57827e-12
  125 2282.26 0.00000 9.66413e-13
  126 2282.26 0.00000 -3.52789e-12
  127 2282.26 0.00000 9.81658e-13
  128 2282.26 0.00000 -2.22430e-12
  129 2282.26 0.00000 3.03664e-12
  130 2282.26 0.00000 -8.43857e-13
  131 2282.26 0.00000 4.83433e-13
  132 2282.26 0.00000 -2.14608e-13
  133 2282.26 0.00000 3.81905e-13
  134 2282.26 0.00000 -1.73496e-12
  135 2282.26 0.00000 3.70950e-14
  136 2282.26 0.00000 6.64727e-12
  137 2282.26 0.00000 1.73021e-12
  138 2282.26 0.00000 8.63996e-14
  139 2282.26 0.00000 -6.57215e-13
  140 2282.26 0.00000 -1.71552e-12
  141 2282.26 0.00000 1.08742e-13
  142 2282.26 0.00000 -2.63694e-12
  143 2282.26 0.00000 6.89472e-13
  144 2282.26 0.00000 -7.38016e-13
  145 2282.26 0.00000 7.24134e-13
  146 2282.26 0.00000 2.10790e-12
  147 2282.26 0.00000 -3.97081e-12
  148 2282.26 0.00000 -1.93450e-12
  149 2282.26 0.00000 -3.29747e-12
  150 2282.26 0.00000 3.21152e-12
  151 2282.26 0.00000 1.94955e-13
  152 2282.26 0.00000 2.41586e-12
  153 2282.26 0.00000 9.10754e-14
  154 2282.26 0.00000 -6.32458e-13
  155 2282.26 0.00000 -9.47359e-13
  156 2282.26 0.00000 -1.13266e-12
  157 2282.26 0.00000 1.08239e-12
  158 2282.26 0.00000 -3.08740e-12
  159 2282.26 0.00000 -4.79844e-12
  160 2282.26 0.00000 -1.31055e-12
  161 2282.26 0.00000 -1.54895e-12
  162 2282.26 0.00000 1.54668e-12
  163 2282.26 0.00000 -1.55295e-12
  164 2282.26 0.00000 -2.50808e-12
  165 2282.26 0.00000 -2.12705e-12
  166 2282.26 0.00000 3.02124e-12
  167 2282.26 0.00000 -1.24139e-12
  168 2282.26 0.00000 9.00373e-14
  169 2282.26 0.00000 -2.39101e-12
  170 2282.26 0.00000 3.36336e-12
  171 2282.26 0.00000 -1.42125e-12
  172 2282.26 0.00000 1.95045e-12
  173 2282.26 0.00000 3.07337e-12
  174 2282.26 0.00000 1.41589e-12
  175 2282.26 0.00000 4.93889e-12
  176 2282.26 0.00000 -4.74971e-12
  177 2282.26 0.00000 -2.35224e-13
  178 2282.26 0.00000 -2.18444e-12
  179 2282.26 0.00000 -4.88388e-12
  180 2282.26 0.00000 -5.67663e-14
  181 2282.26 0.00000 2.71857e-12
  182 2282.26 0.00000 -4.79944e-12
  183 2282.26 0.00000 2.66926e-12
  184 2282.26 0.00000 1.11624e-12
  185 2282.26 0.00000 -3.75198e-12
  186 2282.26 0.00000 2.60728e-12
  187 2282.26 0.00000 -7.90437e-14
  188 2282.26 0.00000 2.47078e-12
  189 2282.26 0.00000 -9.27009e-13
  190 2282.26 0.00000 9.71372e-13
  191 2282.26 0.00000 -5.84912e-13
  192 2282.26 0.00000 3.28031e-13
  193 2282.26 0.00000 -1.94252e-12
  194 2282.26 0.00000 -7.54179e-13
  195 2282.26 0.00000 3.35966e-12
  196 2282.26 0.00000 -5.16080e-13
  197 2282.26 0.00000 -3.26856e-12
  198 2282.26 0.00000 -7.41461e-13
  199 2282.26 0.00000 1.15167e-12
  200 2282.26 0.00000 7.39856e-13
  201 2282.26 0.00000 -1.99855e-12
  202 2282.26 0.00000 6.05989e-14
  203 2282.26 0.00000 -1.24268e-12
  204 2282.26 0.00000 3.98191e-12
  205 2282.26 0.00000 -3.77459e-13
  206 2282.26 0.00000 -8.61322e-13
  207 2282.26 0.00000 5.05008e-12
  208 2282.26 0.00000 -1.48967e-13
  209 2282.26 0.00000 -5.07447e-13
  210 2282.26 0.00000 3.92519e-12
  211 2282.26 0.00000 -8.17660e-12
  212 2282.26 0.00000 1.10475e-12
  213 2282.26 0.00000 6.90890e-12
  214 2282.26 0.00000 1.73290e-12
  215 2282.26 0.00000 1.51254e-12
  216 2282.26 0.00000 1.80181e-12
  217 2282.26 0.00000 -1.18064e-12
  218 2282.26 0.00000 2.95066e-12
  219 2282.26 0.00000 5.21048e-13
  220 2282.26 0.00000 3.86957e-13
  221 2282.26 0.00000 1.14626e-12
  222 2282.26 0.00000 1.06903e-12
  223 2282.26 0.00000 -1.30572e-12
  224 2282.26 0.00000 -2.62113e-12
  225 2282.26 0.00000 -7.85694e-14
  226 2282.26 0.00000 -2.91481e-12
  227 2282.26 0.00000 1.73444e-12
  228 2282.26 0.00000 -1.46784e-12
  229 2282.26 0.00000 -1.48534e-12
  230 2282.26 0.00000 -2.67432e-12
  231 2282.26 0.00000 -2.64295e-13
  232 2282.26 0.00000 7.80945e-13
  233 2282.26 0.00000 -3.56209e-13
  234 2282.26 0.00000 1.62800e-12
  235 2282.26 0.00000 -2.47168e-12
  236 2282.26 0.00000 -4.88284e-12
  237 2282.26 0.00000 2.88063e-12
  238 2282.26 0.00000 3.55494e-13
  239 2282.26 0.00000 -2.36816e-12
  240 2282.26 0.00000 -8.96509e-13
  241 2282.26 0.00000 1.34818e-12
</Section>

newXOutput 70

<Section columns = "stress_xx | stress_yy | stress_xy">
  1 2330.57 0.00000 4.16509e-12
  2 2330.57 0.00000 -2.59767e-12
  3 2330.57 0.00000 -9.01956e-13
  4 2330.57 0.00000 -5.12916e-12
  5 2330.57 0.00000 7.06096e-12
  6 2330.57 0.00000 1.03248e-11
  7 2330.57 0.00000 9.61483e-12
  8 2330.57 0.00000 5.35894e-12
  9 2330.57 0.00000 4.19205e-12
  10 2330.57 0.00000 2.92983e-12
  11 2330.57 0.00000 1.97772e-13
  12 2330.57 0.00000 -1.26585e-12
  13 2330.57 0.00000 -1.49106e-12
  14 2330.57 0.00000 -2.66932e-12
  15 2330.57 0.00000 -2.57027e-12
  16 2330.57 0.00000 -3.55946e-12
  17 2330.57 0.00000 -2.38171e-12
  18 2330.57 0.00000 4.53776e-13
  19 2330.57 0.00000 3.49048e-12
  20 2330.57 0.00000 3.12023e-12
  21 2330.57 0.00000 6.28345e-13
  22 2330.57 0.00000 -8.73721e-13
  23 2330.57 0.00000 -2.35744e-12
  24 2330.57 0.00000 8.75895e-13
  25 2330.57 0.00000 1.81887e-12
  26 2330.57 0.00000 2.76952e-12
  27 2330.57 0.00000 2.65914e-12
  28 2330.57 0.00000 1.85882e-12
  29 2330.57 0.00000 5.37508e-13
  30 2330.57 0.00000 -8.28904e-13
  31 2330.57 0.00000 -1.33385e-12
  32 2330.57 0.00000 1.18313e-12
  33 2330.57 0.00000 1.98520e-12
  34 2330.57 0.00000 1.11704e-12
  35 2330.57 0.00000 8.79386e-13
  36 2330.57 0.00000 -1.37386e-14
  37 2330.57 0.00000 4.54246e-13
  38 2330.57 0.00000 5.07879e-12
  39 2330.57 0.00000 4.95048e-12
  40 2330.57 0.00000 2.35596e-12
  41 2330.57 0.00000 2.02096e-12
  42 2330.57 0.00000 -1.15553e-12
  43 2330.57 0.00000 -2.62295e-12
  44 2330.57 0.00000 -4.57228e-12
  45 2330.57 0.00000 -3.72611e-12
  46 2330.57 0.00000 -5.68717e-12
  47 2330.57 0.00000 -9.03075e-12
  48 2330.57 0.00000 -9.23741e-12
  49 2330.57 0.00000 -5.87592e-12
  50 2330.57 0.00000 -3.22194e-12
  51 2330.57 0.00000 -1.63739e-12
  52 2330.57 0.00000 3.49333e-13
  53 2330.57 0.00000 1.85618e-12
  54 2330.57 0.00000 2.39432e-12
  55 2330.57 0.00000 2.18585e-12
  56 2330.57 0.00000 2.47183e-12
  57 2330.57 0.00000 -2.39475e-13
  58 2330.57 0.00000 -4.14579e-12
  59 2330.57 0.00000 -1.37811e-12
  60 2330.57 0.00000 2.31361e-12
  61 2330.57 0.00000 1.08300e-12
  62 2330.57 0.00000 -1.89499e-12
  63 2330.57 0.00000 2.46286e-12
  64 2330.57 0.00000 3.32581e-13
  65 2330.57 0.00000 -1.34341e-12
  66 2330.57 0.00000 3.56368e-12
  67 2330.57 0.00000 -1.12668e-12
  68 2330.57 0.00000 -1.69663e-12
  69 2330.57 0.00000 -1.08807e-13
  70 2330.57 0.00000 3.45779e-12
  71 2330.57 0.00000 1.95812e-12
  72 2330.57 0.00000 -2.30454e-12
  73 2330.57 0.00000 -8.38642e-13
  74 2330.57 0.00000 -3.06110e-12
  75 2330.57 0.00000 6.50909e-13
  76 2330.57 0.00000 1.68080e-12
  77 2330.57 0.00000 -5.48942e-13
  78 2330.57 0.00000 -8.21530e-13
  79 2330.57 0.00000 -2.79985e-12
  80 2330.57 0.00000 2.29405e-13
  81 2330.57 0.00000 1.75947e-12
  82 2330.57 0.00000 2.64453e-12
  83 2330.57 0.00000 1.60242e-12
  84 2330.57 0.00000 4.90131e-12
  85 2330.57 0.00000 -4.22120e-13
  86 2330.57 0.00000 1.84164e-13
  87 2330.57 0.00000 -7.17787e-12
  88 2330.57 0.00000 -1.57352e-12
  89 2330.57 0.00000 6.13551e-12
  90 2330.57 0.00000 1.64340e-12
  91 2330.57 0.00000 -2.31420e-12
  92 2330.57 0.00000 -5.41653e-13
  93 2330.57 0.00000 8.16383e-13
  94 2330.57 0.00000 8.49715e-13
  95 2330.57 0.00000 -3.18140e-12
  96 2330.57 0.00000 1.57756e-12
  97 2330.57 0.00000 7.95198e-13
  98 2330.57 0.00000 -5.24838e-12
  99 2330.57 0.00000 -3.32340e-12
  100 2330.57 0.00000 3.06874e-12
  101 2330.57 0.00000 8.97242e-13
  102 2330.57 0.00000 -7.34998e-13
  103 2330.57 0.00000 -2.15242e-12
  104 2330.57 0.00000 1.00347e-12
  105 2330.57 0.00000 2.17287e-12
  106 2330.57 0.00000 -2.43143e-12
  107 2330.57 0.00000 1.73824e-12
  108 2330.57 0.00000 -9.25529e-13
  109 2330.57 0.00000 3.23993e-12
  110 2330.57 0.00000 2.41186e-12
  111 2330.57 0.00000 -1.14140e-12
  112 2330.57 0.00000 1.73215e-12
  113 2330.57 0.00000 4.88723e-12
  114 2330.57 0.00000 1.42158e-12
  115 2330.57 0.00000 -1.46725e-12
  116 2330.57 0.00000 7.98515e-12
  117 2330.57 0.00000 -3.12608e-13
  118 2330.57 0.00000 -2.38925e-12
  119 2330.57 0.00000 -2.08531e-12
  120 2330.57 0.00000 -4.85576e-13
  121 2330.57 0.00000 1.71773e-12
  122 2330.57 0.00000 6.68510e-13
  123 2330.57 0.00000 2.40501e-12
  124 2330.57 0.00000 -2.26349e-12
  125 2330.57 0.00000 -1.13700e-12
  126 2330.57 0.00000 3.94058e-12
  127 2330.57 0.00000 -7.53410e-14
  128 2330.57 0.00000 2.30220e-12
  129 2330.57 0.00000 -3.90866e-12
  130 2330.57 0.00000 5.44529e-13
  131 2330.57 0.00000 -5.76187e-13
  132 2330.57 0.00000 -4.61633e-13
  133 2330.57 0.00000 -1.35450e-12
  134 2330.57 0.00000 1.54456e-12
  135 2330.57 0.00000 6.62556e-14
  136 2330.57 0.00000 -7.93923e-12
  137 2330.57 0.00000 -1.79537e-12
  138 2330.57 0.00000 -9.05196e-13
  139 2330.57 0.00000 5.60677e-13
  140 2330.57 0.00000 9.34431e-13
  141 2330.57 0.00000 -4.43897e-13
  142 2330.57 0.00000 3.18439e-12
  143 2330.57 0.00000 -1.02180e-12
  144 2330.57 0.00000 1.97760e-12
  145 2330.57 0.00000 -6.16219e-13
  146 2330.57 0.00000 -3.19666e-12
  147 2330.57 0.00000 3.22336e-12
  148 2330.57 0.00000 1.81286e-12
  149 2330.57 0.00000 2.60353e-12
  150 2330.57 0.00000 -2.72357e-12
  151 2330.57 0.00000 -2.12881e-13
  152 2330.57 0.00000 -2.56913e-12
  153 2330.57 0.00000 5.38496e-14
  154 2330.57 0.00000 -2.94052e-13
  155 2330.57 0.00000 1.84167e-12
  156 2330.57 0.00000 1.49372e-12
  157 2330.57 0.00000 -1.35117e-12
  158 2330.57 0.00000 3.23537e-12
  159 2330.57 0.00000 3.49697e-12
  160 2330.57 0.00000 1.59328e-12
  161 2330.57 0.00000 2.33825e-12
  162 2330.57 0.00000 -2.16437e-13
  163 2330.57 0.00000 1.17409e-12
  164 2330.57 0.00000 1.81636e-12
  165 2330.57 0.00000 2.60514e-12
  166 2330.57 0.00000 -3.29293e-12
  167 2330.57 0.00000 1.49099e-12
  168 2330.57 0.00000 1.75836e-13
  169 2330.57 0.00000 3.26901e-12
  170 2330.57 0.00000 -2.62943e-12
  171 2330.57 0.00000 1.47669e-12
  172 2330.57 0.00000 -2.19080e-12
  173 2330.57 0.00000 -3.62777e-12
  174 2330.57 0.00000 -8.88653e-13
  175 2330.57 0.00000 -6.10786e-12
  176 2330.57 0.00000 5.52429e-12
  177 2330.57 0.00000 -1.14896e-12
  178 2330.57 0.00000 3.03278e-12
  179 2330.57 0.00000 5.92209e-12
  180 2330.57 0.00000 4.34331e-13
  181 2330.57 0.00000 -1.73689e-12
  182 2330.57 0.00000 4.20627e-12
  183 2330.57 0.00000 -3.90601e-12
  184 2330.57 0.00000 -2.90410e-12
  185 2330.57 0.00000 4.06717e-12
  186 2330.57 0.00000 -3.23075e-12
  187 2330.57 0.00000 -1.35401e-13
  188 2330.57 0.00000 -2.80728e-12
  189 2330.57 0.00000 8.62825e-13
  190 2330.57 0.00000 -1.94165e-12
  191 2330.57 0.00000 1.95909e-12
  192 2330.57 0.00000 8.84574e-13
  193 2330.57 0.00000 9.50959e-13
  194 2330.57 0.00000 -2.28089e-13
  195 2330.57 0.00000 -3.24120e-12
  196 2330.57 0.00000 1.42047e-12
  197 2330.57 0.00000 4.27235e-12
  198 2330.57 0.00000 8.46139e-13
  199 2330.57 0.00000 -1.49581e-12
  200 2330.57 0.00000 -8.50246e-13
  201 2330.57 0.00000 2.75853e-12
  202 2330.57 0.00000 1.28136e-12
  203 2330.57 0.00000 8.98731e-13
  204 2330.57 0.00000 -4.94678e-12
  205 2330.57 0.00000 1.07732e-12
  206 2330.57 0.00000 1.06193e-12
  207 2330.57 0.00000 -6.35666e-12
  208 2330.57 0.00000 1.37364e-13
  209 2330.57 0.00000 3.66897e-13
  210 2330.57 0.00000 -4.33439e-12
  211 2330.57 0.00000 9.58706e-12
  212 2330.57 0.00000 -9.80567e-13
  213 2330.57 0.00000 -8.48391e-12
  214 2330.57 0.00000 -2.03035e-12
  215 2330.57 0.00000 -2.29657e-12
  216 2330.57 0.00000 -2.73340e-12
  217 2330.57 0.00000 6.29769e-13
  218 2330.57 0.00000 -3.92106e-12
  219 2330.57 0.00000 -2.14105e-13
  220 2330.57 0.00000 -1.58313e-12
  221 2330.57 0.00000 -1.75121e-12
  222 2330.57 0.00000 -1.41370e-12
  223 2330.57 0.00000 1.72480e-12
  224 2330.57 0.00000 2.69927e-12
  225 2330.57 0.00000 -1.47893e-13
  226 2330.57 0.00000 3.30727e-12
  227 2330.57 0.00000 -2.44279e-12
  228 2330.57 0.00000 2.40719e-12
  229 2330.57 0.00000 1.83739e-12
  230 2330.57 0.00000 1.39903e-12
  231 2330.57 0.00000 4.67327e-13
  232 2330.57 0.00000 -1.47297e-12
  233 2330.57 0.00000 8.97949e-13
  234 2330.57 0.00000 -1.85563e-12
  235 2330.57 0.00000 1.52142e-12
  236 2330.57 0.00000 6.01769e-12
  237 2330.57 0.00000 -3.49869e-12
  238 2330.57 0.00000 -3.06620e-13
  239 2330.57 0.00000 2.88466e-12
  240 2330.57 0.00000 5.40260e-13
  241 2330.57 0.00000 -2.01489e-12
</Section>

newXOutput 71

<Section columns = "stress_xx | stress_yy | stress_xy">
  1 2379.05 0.00000 -4.94009e-12
  2 2379.05 0.00000 2.41865e-12
  3 2379.05 0.00000 1.49651e-12
  4 2379.05 0.00000 5.85571e-12
  5 2379.05 0.00000 -8.28576e-12
  6 2379.05 0.00000 -1.16276e-11
  7 2379.05 0.00000 -1.09260e-11
  8 2379.05 0.00000 -7.17293e-12
  9 2379.05 0.00000 -5.29751e-12
  10 2379.05 0.00000 -3.92865e-12
  11 2379.05 0.00000 -1.69760e-12
  12 2379.05 0.00000 -4.27310e-13
  13 2379.05 0.00000 1.93962e-12
  14 2379.05 0.00000 5.04035e-12
  15 2379.05 0.00000 3.99674e-12
  16 2379.05 0.00000 4.50777e-12
  17 2379.05 0.00000 1.41092e-12
  18 2379.05 0.00000 1.81178e-14
  19 2379.05 0.00000 -2.12075e-12
  20 2379.05 0.00000 -2.76151e-12
  21 2379.05 0.00000 -1.43032e-12
  22 2379.05 0.00000 3.62703e-13
  23 2379.05 0.00000 1.56097e-12
  24 2379.05 0.00000 -7.24992e-13
  25 2379.05 0.00000 -1.10092e-12
  26 2379.05 0.00000 -2.52693e-12
  27 2379.05 0.00000 -3.38076e-12
  28 2379.05 0.00000 -1.86336e-12
  29 2379.05 0.00000 -4.54581e-13
  30 2379.05 0.00000 1.13664e-13
  31 2379.05 0.00000 2.75075e-12
  32 2379.05 0.00000 -1.19095e-13
  33 2379.05 0.00000 -5.72981e-14
  34 2379.05 0.00000 -3.95198e-13
  35 2379.05 0.00000 -1.00261e-12
  36 2379.05 0.00000 1.55044e-13
  37 2379.05 0.00000 -2.10348e-12
  38 2379.05 0.00000 -6.56083e-12
  39 2379.05 0.00000 -6.07741e-12
  40 2379.05 0.00000 -2.41422e-12
  41 2379.05 0.00000 -1.66998e-12
  42 2379.05 0.00000 8.78735e-13
  43 2379.05 0.00000 2.90166e-12
  44 2379.05 0.00000 5.05567e-12
  45 2379.05 0.00000 4.72265e-12
  46 2379.05 0.00000 6.76184e-12
  47 2379.05 0.00000 9.95644e-12
  48 2379.05 0.00000 1.07136e-11
  49 2379.05 0.00000 6.56855e-12
  50 2379.05 0.00000 4.18542e-12
  51 2379.05 0.00000 2.24994e-12
  52 2379.05 0.00000 2.27439e-13
  53 2379.05 0.00000 -1.63438e-12
  54 2379.05 0.00000 -3.08938e-12
  55 2379.05 0.00000 -3.14489e-12
  56 2379.05 0.00000 -3.26755e-12
  57 2379.05 0.00000 -3.26224e-13
  58 2379.05 0.00000 4.90640e-12
  59 2379.05 0.00000 1.01306e-12
  60 2379.05 0.00000 -3.63983e-12
  61 2379.05 0.00000 -1.20678e-12
  62 2379.05 0.00000 3.23168e-12
  63 2379.05 0.00000 -2.64489e-12
  64 2379.05 0.00000 -9.06538e-14
  65 2379.05 0.00000 2.75615e-12
  66 2379.05 0.00000 -4.42885e-12
  67 2379.05 0.00000 1.14278e-12
  68 2379.05 0.00000 1.59735e-12
  69 2379.05 0.00000 3.23807e-13
  70 2379.05 0.00000 -3.43158e-12
  71 2379.05 0.00000 -2.32476e-12
  72 2379.05 0.00000 2.60026e-12
  73 2379.05 0.00000 8.54377e-13
  74 2379.05 0.00000 3.76442e-12
  75 2379.05 0.00000 2.74226e-13
  76 2379.05 0.00000 -9.83952e-13
  77 2379.05 0.00000 7.68621e-13
  78 2379.05 0.00000 3.25239e-13
  79 2379.05 0.00000 2.53681e-12
  80 2379.05 0.00000 -5.42176e-13
  81 2379.05 0.00000 -3.59692e-12
  82 2379.05 0.00000 -1.77030e-12
  83 2379.05 0.00000 -2.02406e-12
  84 2379.05 0.00000 -6.27890e-12
  85 2379.05 0.00000 7.81808e-13
  86 2379.05 0.00000 1.20792e-12
  87 2379.05 0.00000 7.74355e-12
  88 2379.05 0.00000 -4.98869e-13
  89 2379.05 0.00000 -7.14291e-12
  90 2379.05 0.00000 -1.12293e-12
  91 2379.05 0.00000 3.12262e-12
  92 2379.05 0.00000 4.34821e-13
  93 2379.05 0.00000 1.07718e-12
  94 2379.05 0.00000 6.94849e-13
  95 2379.05 0.00000 3.38048e-12
  96 2379.05 0.00000 -1.06235e-12
  97 2379.05 0.00000 7.30453e-13
  98 2379.05 0.00000 6.37178e-12
  99 2379.05 0.00000 4.41995e-12
  100 2379.05 0.00000 -3.39767e-12
  101 2379.05 0.00000 -1.54756e-13
  102 2379.05 0.00000 1.03845e-12
  103 2379.05 0.00000 2.48817e-12
  104 2379.05 0.00000 -2.62704e-13
  105 2379.05 0.00000 -2.36995e-12
  106 2379.05 0.00000 1.80403e-12
  107 2379.05 0.00000 -1.25382e-12
  108 2379.05 0.00000 1.51430e-12
  109 2379.05 0.00000 -4.31944e-12
  110 2379.05 0.00000 -1.61075e-12
  111 2379.05 0.00000 1.51482e-12
  112 2379.05 0.00000 -1.58803e-12
  113 2379.05 0.00000 -4.58712e-12
  114 2379.05 0.00000 -1.21616e-12
  115 2379.05 0.00000 1.51539e-12
  116 2379.05 0.00000 -9.15449e-12
  117 2379.05 0.00000 2.10765e-12
  118 2379.05 0.00000 3.47264e-12
  119 2379.05 0.00000 2.64446e-12
  120 2379.05 0.00000 2.68078e-13
  121 2379.05 0.00000 -2.80061e-12
  122 2379.05 0.00000 -2.02486e-12
  123 2379.05 0.00000 -2.60632e-12
  124 2379.05 0.00000 1.34457e-12
  125 2379.05 0.00000 2.10123e-12
  126 2379.05 0.00000 -4.89579e-12
  127 2379.05 0.00000 3.80375e-13
  128 2379.05 0.00000 -1.36617e-12
  129 2379.05 0.00000 5.05764e-12
  130 2379.05 0.00000 -1.05472e-12
  131 2379.05 0.00000 1.69670e-12
  132 2379.05 0.00000 2.34172e-14
  133 2379.05 0.00000 1.36411e-12
  134 2379.05 0.00000 -2.24614e-12
  135 2379.05 0.00000 1.09372e-12
  136 2379.05 0.00000 8.97216e-12
  137 2379.05 0.00000 2.72026e-12
  138 2379.05 0.00000 6.68602e-13
  139 2379.05 0.00000 -6.98803e-13
  140 2379.05 0.00000 -9.99731e-13
  141 2379.05 0.00000 -2.04563e-13
  142 2379.05 0.00000 -3.43251e-12
  143 2379.05 0.00000 1.50022e-12
  144 2379.05 0.00000 -2.86923e-12
  145 2379.05 0.00000 1.51335e-13
  146 2379.05 0.00000 3.38954e-12
  147 2379.05 0.00000 -3.50188e-12
  148 2379.05 0.00000 -2.09685e-12
  149 2379.05 0.00000 -3.14259e-12
  150 2379.05 0.00000 2.98423e-12
  151 2379.05 0.00000 3.77614e-14
  152 2379.05 0.00000 3.47288e-12
  153 2379.05 0.00000 8.92268e-13
  154 2379.05 0.00000 -2.96775e-13
  155 2379.05 0.00000 -3.45036e-12
  156 2379.05 0.00000 4.90339e-13
  157 2379.05 0.00000 2.00465e-12
  158 2379.05 0.00000 -3.74605e-12
  159 2379.05 0.00000 -3.62677e-12
  160 2379.05 0.00000 -1.22156e-12
  161 2379.05 0.00000 -2.71005e-12
  162 2379.05 0.00000 8.54150e-13
  163 2379.05 0.00000 -1.87185e-12
  164 2379.05 0.00000 -1.20708e-12
  165 2379.05 0.00000 -2.99446e-12
  166 2379.05 0.00000 3.82914e-12
  167 2379.05 0.00000 -7.90772e-13
  168 2379.05 0.00000 -4.44967e-13
  169 2379.05 0.00000 -4.19989e-12
  170 2379.05 0.00000 4.02184e-12
  171 2379.05 0.00000 -1.51818e-12
  172 2379.05 0.00000 3.82321e-12
  173 2379.05 0.00000 4.09026e-12
  174 2379.05 0.00000 8.61949e-13
  175 2379.05 0.00000 6.87464e-12
  176 2379.05 0.00000 -6.51900e-12
  177 2379.05 0.00000 3.64042e-13
  178 2379.05 0.00000 -2.49252e-12
  179 2379.05 0.00000 -7.37593e-12
  180 2379.05 0.00000 -1.29949e-12
  181 2379.05 0.00000 1.11800e-12
  182 2379.05 0.00000 -3.92017e-12
  183 2379.05 0.00000 4.12112e-12
  184 2379.05 0.00000 2.69876e-12
  185 2379.05 0.00000 -4.76505e-12
  186 2379.05 0.00000 4.78013e-12
  187 2379.05 0.00000 6.81307e-13
  188 2379.05 0.00000 2.44396e-12
  189 2379.05 0.00000 -1.84791e-12
  190 2379.05 0.00000 2.59982e-12
  191 2379.05 0.00000 -2.58613e-13
  192 2379.05 0.00000 7.29648e-13
  193 2379.05 0.00000 -1.14119e-12
  194 2379.05 0.00000 6.56270e-13
  195 2379.05 0.00000 3.58999e-12
  196 2379.05 0.00000 -8.91872e-13
  197 2379.05 0.00000 -5.55139e-12
  198 2379.05 0.00000 -5.21067e-14
  199 2379.05 0.00000 1.83142e-12
  200 2379.05 0.00000 1.31866e-12
  201 2379.05 0.00000 -2.26147e-12
  202 2379.05 0.00000 -2.36524e-12
  203 2379.05 0.00000 -9.65946e-13
  204 2379.05 0.00000 4.70802e-12
  205 2379.05 0.00000 -2.07331e-12
  206 2379.05 0.00000 -6.18586e-13
  207 2379.05 0.00000 7.48910e-12
  208 2379.05 0.00000 -1.11761e-12
  209 2379.05 0.00000 3.51711e-13
  210 2379.05 0.00000 5.01380e-12
  211 2379.05 0.00000 -1.07829e-11
  212 2379.05 0.00000 8.37205e-13
  213 2379.05 0.00000 9.47550e-12
  214 2379.05 0.00000 2.23749e-12
  215 2379.05 0.00000 2.85020e-12
  216 2379.05 0.00000 2.78543e-12
  217 2379.05 0.00000 -7.00533e-14
  218 2379.05 0.00000 5.13899e-12
  219 2379.05 0.00000 1.83924e-13
  220 2379.05 0.00000 2.91280e-12
  221 2379.05 0.00000 1.70226e-12
  222 2379.05 0.00000 3.58926e-12
  223 2379.05 0.00000 -1.98198e-12
  224 2379.05 0.00000 -2.63825e-12
  225 2379.05 0.00000 3.39199e-13
  226 2379.05 0.00000 -3.68612e-12
  227 2379.05 0.00000 2.74731e-12
  228 2379.05 0.00000 -1.49819e-12
  229 2379.05 0.00000 -2.12447e-12
  230 2379.05 0.00000 -1.07105e-12
  231 2379.05 0.00000 -9.46629e-13
  232 2379.05 0.00000 2.22579e-12
  233 2379.05 0.00000 2.20856e-12
  234 2379.05 0.00000 1.99940e-12
  235 2379.05 0.00000 -1.29988e-12
  236 2379.05 0.00000 -7.40916e-12
  237 2379.05 0.00000 4.76081e-12
  238 2379.05 0.00000 -9.29354e-14
  239 2379.05 0.00000 -3.09871e-12
  240 2379.05 0.00000 -4.75334e-13
  241 2379.05 0.00000 2.38531e-12
</Section>

newXOutput 72

<Section columns = "stress_xx | stress_yy | stress_xy">
  1 2427.68 0.00000 5.38584e-12
  2 2427.68 0.00000 -5.13896e-12
  3 2427.68 0.00000 -5.16547e-13
  4 2427.68 0.00000 -6.92239e-12
  5 2427.68 0.00000 9.58156e-12
  6 2427.68 0.00000 1.44211e-11
  7 2427.68 0.00000 1.25490e-11
  8 2427.68 0.00000 7.74071e-12
  9 2427.68 0.00000 6.23548e-12
  10 2427.68 0.00000 3.85110e-12
  11 2427.68 0.00000 1.97135e-12
  12 2427.68 0.00000 9.20565e-13
  13 2427.68 0.00000 -1.83145e-12
  14 2427.68 0.00000 -3.82909e-12
  15 2427.68 0.00000 -3.28344e-12
  16 2427.68 0.00000 -4.32147e-12
  17 2427.68 0.00000 -3.25343e-12
  18 2427.68 0.00000 -1.11689e-12
  19 2427.68 0.00000 2.99885e-12
  20 2427.68 0.00000 2.51070e-12
  21 2427.68 0.00000 1.29332e-13
  22 2427.68 0.00000 -6.25385e-13
  23 2427.68 0.00000 -4.74667e-12
  24 2427.68 0.00000 2.08584e-13
  25 2427.68 0.00000 1.09841e-12
  26 2427.68 0.00000 2.71016e-12
  27 2427.68 0.00000 3.10133e-12
  28 2427.68 0.00000 1.87605e-12
  29 2427.68 0.00000 1.07697e-12
  30 2427.68 0.00000 4.41844e-13
  31 2427.68 0.00000 -2.75304e-12
  32 2427.68 0.00000 -2.58741e-12
  33 2427.68 0.00000 -2.39919e-12
  34 2427.68 0.00000 -1.48301e-12
  35 2427.68 0.00000 3.65800e-13
  36 2427.68 0.00000 -7.57521e-14
  37 2427.68 0.00000 2.55437e-12
  38 2427.68 0.00000 7.27484e-12
  39 2427.68 0.00000 5.94561e-12
  40 2427.68 0.00000 3.75993e-12
  41 2427.68 0.00000 2.67968e-12
  42 2427.68 0.00000 -2.00876e-12
  43 2427.68 0.00000 -3.17262e-12
  44 2427.68 0.00000 -5.84477e-12
  45 2427.68 0.00000 -5.74356e-12
  46 2427.68 0.00000 -7.43179e-12
  47 2427.68 0.00000 -1.14873e-11
  48 2427.68 0.00000 -1.36505e-11
  49 2427.68 0.00000 -8.27797e-12
  50 2427.68 0.00000 -4.55963e-12
  51 2427.68 0.00000 -2.38965e-12
  52 2427.68 0.00000 -1.92972e-13
  53 2427.68 0.00000 2.08714e-12
  54 2427.68 0.00000 2.86693e-12
  55 2427.68 0.00000 3.51183e-12
  56 2427.68 0.00000 3.90399e-12
  57 2427.68 0.00000 4.44534e-13
  58 2427.68 0.00000 -5.30091e-12
  59 2427.68 0.00000 -1.19832e-12
  60 2427.68 0.00000 3.88050e-12
  61 2427.68 0.00000 2.07165e-12
  62 2427.68 0.00000 -4.14492e-12
  63 2427.68 0.00000 1.98415e-12
  64 2427.68 0.00000 -3.87034e-13
  65 2427.68 0.00000 -3.21546e-12
  66 2427.68 0.00000 4.40717e-12
  67 2427.68 0.00000 -1.49655e-12
  68 2427.68 0.00000 -2.65405e-12
  69 2427.68 0.00000 -3.24230e-14
  70 2427.68 0.00000 3.69202e-12
  71 2427.68 0.00000 3.15317e-12
  72 2427.68 0.00000 -2.64946e-12
  73 2427.68 0.00000 -1.70146e-12
  74 2427.68 0.00000 -4.14077e-12
  75 2427.68 0.00000 -8.82269e-14
  76 2427.68 0.00000 1.79032e-12
  77 2427.68 0.00000 -3.25527e-13
  78 2427.68 0.00000 -6.13167e-14
  79 2427.68 0.00000 -2.87947e-12
  80 2427.68 0.00000 1.11422e-13
  81 2427.68 0.00000 3.42754e-12
  82 2427.68 0.00000 3.15120e-12
  83 2427.68 0.00000 2.18993e-12
  84 2427.68 0.00000 8.14327e-12
  85 2427.68 0.00000 -2.02168e-12
  86 2427.68 0.00000 -4.53835e-13
  87 2427.68 0.00000 -8.37713e-12
  88 2427.68 0.00000 -9.90964e-13
  89 2427.68 0.00000 8.91597e-12
  90 2427.68 0.00000 9.86023e-13
  91 2427.68 0.00000 -4.00485e-12
  92 2427.68 0.00000 -4.53407e-13
  93 2427.68 0.00000 -2.81254e-12
  94 2427.68 0.00000 -1.47940e-12
  95 2427.68 0.00000 -4.20525e-12
  96 2427.68 0.00000 1.81966e-12
  97 2427.68 0.00000 2.79858e-13
  98 2427.68 0.00000 -8.15202e-12
  99 2427.68 0.00000 -4.60514e-12
  100 2427.68 0.00000 3.24266e-12
  101 2427.68 0.00000 3.06433e-13
  102 2427.68 0.00000 -9.19535e-13
  103 2427.68 0.00000 -3.94109e-12
  104 2427.68 0.00000 8.95045e-13
  105 2427.68 0.00000 2.45571e-12
  106 2427.68 0.00000 -1.92882e-12
  107 2427.68 0.00000 1.27904e-12
  108 2427.68 0.00000 -1.29759e-12
  109 2427.68 0.00000 3.84872e-12
  110 2427.68 0.00000 2.69620e-12
  111 2427.68 0.00000 -1.91131e-12
  112 2427.68 0.00000 1.05015e-12
  113 2427.68 0.00000 5.36609e-12
  114 2427.68 0.00000 1.86712e-12
  115 2427.68 0.00000 -1.88913e-12
  116 2427.68 0.00000 1.12024e-11
  117 2427.68 0.00000 -2.15060e-12
  118 2427.68 0.00000 -3.56056e-12
  119 2427.68 0.00000 -3.70240e-12
  120 2427.68 0.00000 -6.53389e-13
  121 2427.68 0.00000 3.33368e-12
  122 2427.68 0.00000 1.86212e-12
  123 2427.68 0.00000 2.52870e-12
  124 2427.68 0.00000 -1.99625e-12
  125 2427.68 0.00000 -2.37646e-12
  126 2427.68 0.00000 6.01614e-12
  127 2427.68 0.00000 -8.77858e-13
  128 2427.68 0.00000 1.70798e-12
  129 2427.68 0.00000 -5.97375e-12
  130 2427.68 0.00000 4.80482e-13
  131 2427.68 0.00000 -9.69498e-13
  132 2427.68 0.00000 -3.87141e-14
  133 2427.68 0.00000 -2.55386e-12
  134 2427.68 0.00000 3.28082e-12
  135 2427.68 0.00000 2.62973e-14
  136 2427.68 0.00000 -1.08910e-11
  137 2427.68 0.00000 -2.66031e-12
  138 2427.68 0.00000 -1.34744e-12
  139 2427.68 0.00000 7.98512e-13
  140 2427.68 0.00000 -6.98161e-14
  141 2427.68 0.00000 6.80943e-14
  142 2427.68 0.00000 3.61846e-12
  143 2427.68 0.00000 -1.63612e-12
  144 2427.68 0.00000 3.98953e-12
  145 2427.68 0.00000 -1.60352e-12
  146 2427.68 0.00000 -4.28657e-12
  147 2427.68 0.00000 3.66667e-12
  148 2427.68 0.00000 2.33790e-12
  149 2427.68 0.00000 2.41437e-12
  150 2427.68 0.00000 -3.70082e-12
  151 2427.68 0.00000 4.87811e-13
  152 2427.68 0.00000 -3.92759e-12
  153 2427.68 0.00000 -4.25330e-13
  154 2427.68 0.00000 2.09544e-13
  155 2427.68 0.00000 3.78411e-12
  156 2427.68 0.00000 3.62518e-14
  157 2427.68 0.00000 -2.20936e-12
  158 2427.68 0.00000 4.38784e-12
  159 2427.68 0.00000 3.40735e-12
  160 2427.68 0.00000 1.89498e-12
  161 2427.68 0.00000 3.18800e-12
  162 2427.68 0.00000 -1.01894e-12
  163 2427.68 0.00000 2.39117e-12
  164 2427.68 0.00000 2.11586e-13
  165 2427.68 0.00000 3.68721e-12
  166 2427.68 0.00000 -4.25299e-12
  167 2427.68 0.00000 1.13725e-12
  168 2427.68 0.00000 1.29606e-12
  169 2427.68 0.00000 4.90781e-12
  170 2427.68 0.00000 -4.59915e-12
  171 2427.68 0.00000 1.57434e-12
  172 2427.68 0.00000 -3.68545e-12
  173 2427.68 0.00000 -5.36796e-12
  174 2427.68 0.00000 -1.67239e-12
  175 2427.68 0.00000 -7.43123e-12
  176 2427.68 0.00000 7.49730e-12
  177 2427.68 0.00000 -6.16057e-13
  178 2427.68 0.00000 2.03898e-12
  179 2427.68 0.00000 8.99889e-12
  180 2427.68 0.00000 1.65217e-12
  181 2427.68 0.00000 -1.47818e-12
  182 2427.68 0.00000 4.67221e-12
  183 2427.68 0.00000 -4.74212e-12
  184 2427.68 0.00000 -3.88955e-12
  185 2427.68 0.00000 5.24754e-12
  186 2427.68 0.00000 -4.17107e-12
  187 2427.68 0.00000 -2.41886e-12
  188 2427.68 0.00000 -2.93925e-12
  189 2427.68 0.00000 2.34236e-12
  190 2427.68 0.00000 -2.53871e-12
  191 2427.68 0.00000 1.32628e-13
  192 2427.68 0.00000 -1.16656e-12
  193 2427.68 0.00000 1.19759e-12
  194 2427.68 0.00000 -2.07999e-12
  195 2427.68 0.00000 -4.54649e-12
  196 2427.68 0.00000 1.53852e-12
  197 2427.68 0.00000 6.05847e-12
  198 2427.68 0.00000 3.38838e-13
  199 2427.68 0.00000 -2.15238e-12
  200 2427.68 0.00000 -2.78760e-12
  201 2427.68 0.00000 1.75304e-12
  202 2427.68 0.00000 1.85217e-12
  203 2427.68 0.00000 1.80866e-12
  204 2427.68 0.00000 -5.44219e-12
  205 2427.68 0.00000 2.90220e-12
  206 2427.68 0.00000 2.88890e-13
  207 2427.68 0.00000 -9.08024e-12
  208 2427.68 0.00000 -2.18393e-13
  209 2427.68 0.00000 -1.63588e-12
  210 2427.68 0.00000 -6.25194e-12
  211 2427.68 0.00000 1.26942e-11
  212 2427.68 0.00000 -1.88581e-12
  213 2427.68 0.00000 -1.06976e-11
  214 2427.68 0.00000 -2.90616e-12
  215 2427.68 0.00000 -2.79228e-12
  216 2427.68 0.00000 -3.83352e-12
  217 2427.68 0.00000 -5.65650e-13
  218 2427.68 0.00000 -5.61780e-12
  219 2427.68 0.00000 -1.29799e-12
  220 2427.68 0.00000 -2.18178e-12
  221 2427.68 0.00000 -9.45794e-13
  222 2427.68 0.00000 -4.35802e-12
  223 2427.68 0.00000 1.66024e-12
  224 2427.68 0.00000 3.13805e-12
  225 2427.68 0.00000 -7.63059e-13
  226 2427.68 0.00000 3.38659e-12
  227 2427.68 0.00000 -3.58100e-12
  228 2427.68 0.00000 6.10308e-13
  229 2427.68 0.00000 1.84418e-12
  230 2427.68 0.00000 2.37532e-12
  231 2427.68 0.00000 8.64199e-13
  232 2427.68 0.00000 -2.80505e-12
  233 2427.68 0.00000 -8.23884e-13
  234 2427.68 0.00000 -2.02573e-12
  235 2427.68 0.00000 2.61587e-12
  236 2427.68 0.00000 9.02657e-12
  237 2427.68 0.00000 -4.20943e-12
  238 2427.68 0.00000 -4.47423e-13
  239 2427.68 0.00000 2.80794e-12
  240 2427.68 0.00000 9.85595e-13
  241 2427.68 0.00000 -3.34453e-12
</Section>

newXOutput 73

<Section columns = "stress_xx | stress_yy | stress_xy">
  1 2476.49 0.00000 -5.64918e-12
  2 2476.49 0.00000 4.75470e-12
  3 2476.49 0.00000 8.46074e-13
  4 2476.49 0.00000 6.99139e-12
  5 2476.49 0.00000 -1.00246e-11
  6 2476.49 0.00000 -1.55891e-11
  7 2476.49 0.00000 -1.37436e-11
  8 2476.49 0.00000 -9.45897e-12
  9 2476.49 0.00000 -7.04674e-12
  10 2476.49 0.00000 -4.87701e-12
  11 2476.49 0.00000 -2.74367e-12
  12 2476.49 0.00000 -1.34998e-12
  13 2476.49 0.00000 1.98177e-12
  14 2476.49 0.00000 4.73122e-12
  15 2476.49 0.00000 4.11079e-12
  16 2476.49 0.00000 6.85222e-12
  17 2476.49 0.00000 6.60837e-12
  18 2476.49 0.00000 4.58246e-12
  19 2476.49 0.00000 -2.99443e-12
  20 2476.49 0.00000 -2.27148e-12
  21 2476.49 0.00000 -2.40491e-13
  22 2476.49 0.00000 1.18942e-12
  23 2476.49 0.00000 4.08275e-12
  24 2476.49 0.00000 2.99664e-13
  25 2476.49 0.00000 -5.67490e-13
  26 2476.49 0.00000 -2.37826e-12
  27 2476.49 0.00000 -3.47744e-12
  28 2476.49 0.00000 -2.50907e-12
  29 2476.49 0.00000 -1.23995e-12
  30 2476.49 0.00000 -1.10777e-12
  31 2476.49 0.00000 5.36360e-12
  32 2476.49 0.00000 3.38555e-12
  33 2476.49 0.00000 1.29809e-12
  34 2476.49 0.00000 2.60119e-12
  35 2476.49 0.00000 8.30133e-13
  36 2476.49 0.00000 1.26723e-12
  37 2476.49 0.00000 -2.00032e-12
  38 2476.49 0.00000 -6.94394e-12
  39 2476.49 0.00000 -6.07397e-12
  40 2476.49 0.00000 -3.32230e-12
  41 2476.49 0.00000 -2.15835e-12
  42 2476.49 0.00000 1.93992e-12
  43 2476.49 0.00000 2.99753e-12
  44 2476.49 0.00000 6.17357e-12
  45 2476.49 0.00000 6.24580e-12
  46 2476.49 0.00000 8.22424e-12
  47 2476.49 0.00000 1.35243e-11
  48 2476.49 0.00000 1.52827e-11
  49 2476.49 0.00000 9.02204e-12
  50 2476.49 0.00000 4.97371e-12
  51 2476.49 0.00000 2.75863e-12
  52 2476.49 0.00000 3.18974e-13
  53 2476.49 0.00000 -2.34546e-12
  54 2476.49 0.00000 -3.39187e-12
  55 2476.49 0.00000 -3.74600e-12
  56 2476.49 0.00000 -4.09332e-12
  57 2476.49 0.00000 1.82623e-13
  58 2476.49 0.00000 5.31571e-12
  59 2476.49 0.00000 1.25228e-12
  60 2476.49 0.00000 -3.58408e-12
  61 2476.49 0.00000 -7.80145e-13
  62 2476.49 0.00000 3.71064e-12
  63 2476.49 0.00000 -1.52418e-12
  64 2476.49 0.00000 8.43898e-13
  65 2476.49 0.00000 4.47723e-12
  66 2476.49 0.00000 -5.77821e-12
  67 2476.49 0.00000 2.06244e-12
  68 2476.49 0.00000 1.99092e-12
  69 2476.49 0.00000 -5.82251e-13
  70 2476.49 0.00000 -3.79369e-12
  71 2476.49 0.00000 -4.13833e-12
  72 2476.49 0.00000 3.15420e-12
  73 2476.49 0.00000 2.34966e-12
  74 2476.49 0.00000 4.76517e-12
  75 2476.49 0.00000 6.64776e-13
  76 2476.49 0.00000 -3.33449e-12
  77 2476.49 0.00000 5.39636e-13
  78 2476.49 0.00000 5.08491e-13
  79 2476.49 0.00000 3.40242e-12
  80 2476.49 0.00000 -1.28185e-13
  81 2476.49 0.00000 -4.07886e-12
  82 2476.49 0.00000 -3.11757e-12
  83 2476.49 0.00000 -1.65333e-12
  84 2476.49 0.00000 -9.46768e-12
  85 2476.49 0.00000 2.51623e-12
  86 2476.49 0.00000 8.03891e-13
  87 2476.49 0.00000 9.63781e-12
  88 2476.49 0.00000 -2.07622e-12
  89 2476.49 0.00000 -1.01390e-11
  90 2476.49 0.00000 -2.37928e-12
  91 2476.49 0.00000 4.05324e-12
  92 2476.49 0.00000 8.51710e-14
  93 2476.49 0.00000 1.03824e-12
  94 2476.49 0.00000 -5.07271e-13
  95 2476.49 0.00000 3.86865e-12
  96 2476.49 0.00000 -2.81689e-12
  97 2476.49 0.00000 -6.33484e-13
  98 2476.49 0.00000 9.13613e-12
  99 2476.49 0.00000 5.34108e-12
  100 2476.49 0.00000 -4.50567e-12
  101 2476.49 0.00000 -4.07903e-13
  102 2476.49 0.00000 1.33800e-12
  103 2476.49 0.00000 3.80989e-12
  104 2476.49 0.00000 -6.26302e-13
  105 2476.49 0.00000 -2.01504e-12
  106 2476.49 0.00000 2.52401e-12
  107 2476.49 0.00000 -1.26785e-12
  108 2476.49 0.00000 1.63700e-12
  109 2476.49 0.00000 -4.96195e-12
  110 2476.49 0.00000 -3.02527e-12
  111 2476.49 0.00000 1.94473e-12
  112 2476.49 0.00000 -9.73906e-13
  113 2476.49 0.00000 -5.89381e-12
  114 2476.49 0.00000 -2.43775e-12
  115 2476.49 0.00000 2.59962e-12
  116 2476.49 0.00000 -1.21671e-11
  117 2476.49 0.00000 2.66954e-12
  118 2476.49 0.00000 5.15298e-12
  119 2476.49 0.00000 4.33792e-12
  120 2476.49 0.00000 1.55978e-14
  121 2476.49 0.00000 -2.93123e-12
  122 2476.49 0.00000 -1.92707e-12
  123 2476.49 0.00000 -3.57245e-12
  124 2476.49 0.00000 2.24709e-12
  125 2476.49 0.00000 2.31223e-12
  126 2476.49 0.00000 -7.01047e-12
  127 2476.49 0.00000 -9.20336e-14
  128 2476.49 0.00000 -1.39771e-12
  129 2476.49 0.00000 6.15576e-12
  130 2476.49 0.00000 -1.16055e-12
  131 2476.49 0.00000 8.64762e-13
  132 2476.49 0.00000 4.11903e-13
  133 2476.49 0.00000 3.22118e-12
  134 2476.49 0.00000 -2.79105e-12
  135 2476.49 0.00000 6.28207e-13
  136 2476.49 0.00000 1.23786e-11
  137 2476.49 0.00000 3.48949e-12
  138 2476.49 0.00000 1.46816e-12
  139 2476.49 0.00000 -1.09949e-12
  140 2476.49 0.00000 -6.15817e-15
  141 2476.49 0.00000 3.26490e-13
  142 2476.49 0.00000 -5.22701e-12
  143 2476.49 0.00000 2.16081e-12
  144 2476.49 0.00000 -3.19179e-12
  145 2476.49 0.00000 1.40051e-12
  146 2476.49 0.00000 4.04225e-12
  147 2476.49 0.00000 -3.78593e-12
  148 2476.49 0.00000 -2.75849e-12
  149 2476.49 0.00000 -4.86868e-12
  150 2476.49 0.00000 4.34510e-12
  151 2476.49 0.00000 2.31893e-13
  152 2476.49 0.00000 4.48824e-12
  153 2476.49 0.00000 7.23662e-13
  154 2476.49 0.00000 8.51397e-14
  155 2476.49 0.00000 -3.07839e-12
  156 2476.49 0.00000 -1.79714e-13
  157 2476.49 0.00000 2.50191e-12
  158 2476.49 0.00000 -4.56773e-12
  159 2476.49 0.00000 -4.81423e-12
  160 2476.49 0.00000 -1.84757e-12
  161 2476.49 0.00000 -4.02546e-12
  162 2476.49 0.00000 2.22769e-12
  163 2476.49 0.00000 -2.46820e-12
  164 2476.49 0.00000 -2.31745e-13
  165 2476.49 0.00000 -5.05599e-12
  166 2476.49 0.00000 4.95776e-12
  167 2476.49 0.00000 -1.14637e-12
  168 2476.49 0.00000 -1.08058e-12
  169 2476.49 0.00000 -5.53862e-12
  170 2476.49 0.00000 5.77477e-12
  171 2476.49 0.00000 -2.04375e-12
  172 2476.49 0.00000 4.26888e-12
  173 2476.49 0.00000 5.94047e-12
  174 2476.49 0.00000 1.29087e-12
  175 2476.49 0.00000 8.09670e-12
  176 2476.49 0.00000 -8.08831e-12
  177 2476.49 0.00000 -7.51071e-14
  178 2476.49 0.00000 -2.02524e-12
  179 2476.49 0.00000 -9.95123e-12
  180 2476.49 0.00000 -1.57904e-12
  181 2476.49 0.00000 1.50187e-12
  182 2476.49 0.00000 -4.07523e-12
  183 2476.49 0.00000 4.66464e-12
  184 2476.49 0.00000 6.09976e-12
  185 2476.49 0.00000 -7.09182e-12
  186 2476.49 0.00000 5.08754e-12
  187 2476.49 0.00000 1.31093e-12
  188 2476.49 0.00000 3.18121e-12
  189 2476.49 0.00000 -1.66755e-12
  190 2476.49 0.00000 2.94461e-12
  191 2476.49 0.00000 1.41038e-13
  192 2476.49 0.00000 -1.77048e-13
  193 2476.49 0.00000 -1.49778e-12
  194 2476.49 0.00000 1.46248e-12
  195 2476.49 0.00000 5.17514e-12
  196 2476.49 0.00000 -1.28109e-12
  197 2476.49 0.00000 -7.22996e-12
  198 2476.49 0.00000 -1.88715e-13
  199 2476.49 0.00000 2.13363e-12
  200 2476.49 0.00000 2.39195e-12
  201 2476.49 0.00000 -1.05183e-12
  202 2476.49 0.00000 -2.42294e-12
  203 2476.49 0.00000 -1.31489e-12
  204 2476.49 0.00000 6.31168e-12
  205 2476.49 0.00000 -2.71676e-12
  206 2476.49 0.00000 -3.01739e-14
  207 2476.49 0.00000 1.03061e-11
  208 2476.49 0.00000 3.80392e-13
  209 2476.49 0.00000 7.42791e-13
  210 2476.49 0.00000 7.34845e-12
  211 2476.49 0.00000 -1.36572e-11
  212 2476.49 0.00000 2.95604e-12
  213 2476.49 0.00000 1.17666e-11
  214 2476.49 0.00000 2.69246e-12
  215 2476.49 0.00000 2.80938e-12
  216 2476.49 0.00000 3.06191e-12
  217 2476.49 0.00000 4.63679e-13
  218 2476.49 0.00000 6.49507e-12
  219 2476.49 0.00000 2.73809e-12
  220 2476.49 0.00000 2.21554e-12
  221 2476.49 0.00000 2.22723e-12
  222 2476.49 0.00000 3.80469e-12
  223 2476.49 0.00000 -3.10021e-12
  224 2476.49 0.00000 -4.72898e-12
  225 2476.49 0.00000 4.00157e-13
  226 2476.49 0.00000 -5.06285e-12
  227 2476.49 0.00000 3.38181e-12
  228 2476.49 0.00000 -3.33079e-13
  229 2476.49 0.00000 -2.72082e-12
  230 2476.49 0.00000 -3.11453e-12
  231 2476.49 0.00000 -1.58381e-12
  232 2476.49 0.00000 3.22869e-12
  233 2476.49 0.00000 9.80328e-13
  234 2476.49 0.00000 1.78194e-12
  235 2476.49 0.00000 -2.88032e-12
  236 2476.49 0.00000 -1.03438e-11
  237 2476.49 0.00000 3.98035e-12
  238 2476.49 0.00000 9.10593e-13
  239 2476.49 0.00000 -2.81887e-12
  240 2476.49 0.00000 -1.04016e-12
  241 2476.49 0.00000 4.99245e-12
</Section>

newXOutput 74

<Section columns = "stress_xx | stress_yy | stress_xy">
  1 2525.46 0.00000 5.95307e-12
  2 2525.46 0.00000 -4.00618e-12
  3 2525.46 0.00000 -9.44019e-13
  4 2525.46 0.00000 -6.91052e-12
  5 2525.46 0.00000 1.08610e-11
  6 2525.46 0.00000 1.70679e-11
  7 2525.46 0.00000 1.68671e-11
  8 2525.46 0.00000 1.16979e-11
  9 2525.46 0.00000 8.57519e-12
  10 2525.46 0.00000 5.65031e-12
  11 2525.46 0.00000 2.51133e-12
  12 2525.46 0.00000 4.97033e-13
  13 2525.46 0.00000 -1.82690e-12
  14 2525.46 0.00000 -4.92116e-12
  15 2525.46 0.00000 -4.66190e-12
  16 2525.46 0.00000 -6.87965e-12
  17 2525.46 0.00000 -7.34685e-12
  18 2525.46 0.00000 -4.56917e-12
  19 2525.46 0.00000 1.83201e-12
  20 2525.46 0.00000 1.09756e-12
  21 2525.46 0.00000 4.72645e-14
  22 2525.46 0.00000 7.53648e-13
  23 2525.46 0.00000 -3.31543e-12
  24 2525.46 0.00000 -4.31151e-13
  25 2525.46 0.00000 1.00252e-12
  26 2525.46 0.00000 2.09927e-12
  27 2525.46 0.00000 3.80018e-12
  28 2525.46 0.00000 2.03948e-12
  29 2525.46 0.00000 9.64197e-13
  30 2525.46 0.00000 2.56570e-13
  31 2525.46 0.00000 -3.76998e-12
  32 2525.46 0.00000 -3.11932e-12
  33 2525.46 0.00000 -1.41573e-12
  34 2525.46 0.00000 -1.89448e-12
  35 2525.46 0.00000 5.01783e-13
  36 2525.46 0.00000 -6.04427e-13
  37 2525.46 0.00000 1.47176e-12
  38 2525.46 0.00000 8.49252e-12
  39 2525.46 0.00000 9.38036e-12
  40 2525.46 0.00000 5.36981e-12
  41 2525.46 0.00000 3.00874e-12
  42 2525.46 0.00000 -1.30784e-12
  43 2525.46 0.00000 -4.28454e-12
  44 2525.46 0.00000 -7.01187e-12
  45 2525.46 0.00000 -6.71253e-12
  46 2525.46 0.00000 -1.02948e-11
  47 2525.46 0.00000 -1.53882e-11
  48 2525.46 0.00000 -1.66444e-11
  49 2525.46 0.00000 -9.41820e-12
  50 2525.46 0.00000 -5.04982e-12
  51 2525.46 0.00000 -3.13924e-12
  52 2525.46 0.00000 -7.78249e-13
  53 2525.46 0.00000 2.21544e-12
  54 2525.46 0.00000 3.75622e-12
  55 2525.46 0.00000 4.72570e-12
  56 2525.46 0.00000 4.90043e-12
  57 2525.46 0.00000 -2.96152e-13
  58 2525.46 0.00000 -5.55263e-12
  59 2525.46 0.00000 -1.30950e-12
  60 2525.46 0.00000 3.68838e-12
  61 2525.46 0.00000 9.34188e-13
  62 2525.46 0.00000 -3.61068e-12
  63 2525.46 0.00000 5.49295e-13
  64 2525.46 0.00000 -1.65308e-12
  65 2525.46 0.00000 -5.37562e-12
  66 2525.46 0.00000 6.51733e-12
  67 2525.46 0.00000 -3.04292e-12
  68 2525.46 0.00000 -2.42116e-12
  69 2525.46 0.00000 5.12201e-13
  70 2525.46 0.00000 4.20451e-12
  71 2525.46 0.00000 4.18272e-12
  72 2525.46 0.00000 -2.98133e-12
  73 2525.46 0.00000 -2.82605e-12
  74 2525.46 0.00000 -5.92529e-12
  75 2525.46 0.00000 -1.88181e-12
  76 2525.46 0.00000 4.80515e-12
  77 2525.46 0.00000 -5.41610e-13
  78 2525.46 0.00000 -3.88290e-13
  79 2525.46 0.00000 -4.03481e-12
  80 2525.46 0.00000 -1.13581e-12
  81 2525.46 0.00000 4.03648e-12
  82 2525.46 0.00000 4.22687e-12
  83 2525.46 0.00000 9.48220e-13
  84 2525.46 0.00000 1.07199e-11
  85 2525.46 0.00000 -1.61616e-12
  86 2525.46 0.00000 -1.57177e-12
  87 2525.46 0.00000 -1.13429e-11
  88 2525.46 0.00000 -2.36704e-13
  89 2525.46 0.00000 1.14422e-11
  90 2525.46 0.00000 2.94774e-12
  91 2525.46 0.00000 -4.66202e-12
  92 2525.46 0.00000 3.26750e-13
  93 2525.46 0.00000 -2.52260e-13
  94 2525.46 0.00000 4.61625e-13
  95 2525.46 0.00000 -3.43728e-12
  96 2525.46 0.00000 2.60135e-12
  97 2525.46 0.00000 1.22952e-13
  98 2525.46 0.00000 -1.08177e-11
  99 2525.46 0.00000 -6.46695e-12
  100 2525.46 0.00000 5.25412e-12
  101 2525.46 0.00000 9.80460e-13
  102 2525.46 0.00000 -2.10563e-12
  103 2525.46 0.00000 -5.26051e-12
  104 2525.46 0.00000 1.22480e-12
  105 2525.46 0.00000 1.94474e-12
  106 2525.46 0.00000 -2.47293e-12
  107 2525.46 0.00000 9.49999e-13
  108 2525.46 0.00000 -2.08811e-12
  109 2525.46 0.00000 5.42274e-12
  110 2525.46 0.00000 2.40171e-12
  111 2525.46 0.00000 -2.47621e-12
  112 2525.46 0.00000 1.51156e-12
  113 2525.46 0.00000 6.82051e-12
  114 2525.46 0.00000 2.20912e-12
  115 2525.46 0.00000 -3.15660e-12
  116 2525.46 0.00000 1.46321e-11
  117 2525.46 0.00000 -2.47060e-12
  118 2525.46 0.00000 -5.51890e-12
  119 2525.46 0.00000 -4.48820e-12
  120 2525.46 0.00000 -6.65235e-13
  121 2525.46 0.00000 3.00068e-12
  122 2525.46 0.00000 1.74075e-12
  123 2525.46 0.00000 4.93976e-12
  124 2525.46 0.00000 -2.59475e-12
  125 2525.46 0.00000 -2.47485e-12
  126 2525.46 0.00000 8.35295e-12
  127 2525.46 0.00000 1.40039e-13
  128 2525.46 0.00000 1.52871e-12
  129 2525.46 0.00000 -7.33403e-12
  130 2525.46 0.00000 6.49139e-13
  131 2525.46 0.00000 -3.71498e-14
  132 2525.46 0.00000 -8.72367e-13
  133 2525.46 0.00000 -3.37817e-12
  134 2525.46 0.00000 2.97920e-12
  135 2525.46 0.00000 -3.33057e-13
  136 2525.46 0.00000 -1.43271e-11
  137 2525.46 0.00000 -3.83074e-12
  138 2525.46 0.00000 -1.12942e-12
  139 2525.46 0.00000 1.26489e-12
  140 2525.46 0.00000 -3.50172e-13
  141 2525.46 0.00000 -1.69412e-12
  142 2525.46 0.00000 6.10263e-12
  143 2525.46 0.00000 -2.16302e-12
  144 2525.46 0.00000 4.94587e-12
  145 2525.46 0.00000 -1.92303e-12
  146 2525.46 0.00000 -4.46674e-12
  147 2525.46 0.00000 5.07066e-12
  148 2525.46 0.00000 2.74144e-12
  149 2525.46 0.00000 5.10234e-12
  150 2525.46 0.00000 -4.51476e-12
  151 2525.46 0.00000 -2.13844e-13
  152 2525.46 0.00000 -5.38929e-12
  153 2525.46 0.00000 -6.08941e-13
  154 2525.46 0.00000 -5.46374e-13
  155 2525.46 0.00000 3.72781e-12
  156 2525.46 0.00000 4.80857e-13
  157 2525.46 0.00000 -2.34103e-12
  158 2525.46 0.00000 3.47383e-12
  159 2525.46 0.00000 4.21172e-12
  160 2525.46 0.00000 1.61767e-12
  161 2525.46 0.00000 4.47363e-12
  162 2525.46 0.00000 -2.43995e-12
  163 2525.46 0.00000 7.42973e-13
  164 2525.46 0.00000 -6.05957e-13
  165 2525.46 0.00000 6.13080e-12
  166 2525.46 0.00000 -5.35661e-12
  167 2525.46 0.00000 6.45604e-13
  168 2525.46 0.00000 8.09185e-13
  169 2525.46 0.00000 6.75379e-12
  170 2525.46 0.00000 -4.17534e-12
  171 2525.46 0.00000 2.73468e-12
  172 2525.46 0.00000 -4.20104e-12
  173 2525.46 0.00000 -6.38607e-12
  174 2525.46 0.00000 -2.20321e-12
  175 2525.46 0.00000 -8.53350e-12
  176 2525.46 0.00000 8.98689e-12
  177 2525.46 0.00000 -1.61739e-13
  178 2525.46 0.00000 1.75726e-12
  179 2525.46 0.00000 1.21019e-11
  180 2525.46 0.00000 1.39971e-12
  181 2525.46 0.00000 -2.05822e-12
  182 2525.46 0.00000 4.43798e-12
  183 2525.46 0.00000 -4.94455e-12
  184 2525.46 0.00000 -5.99063e-12
  185 2525.46 0.00000 8.31780e-12
  186 2525.46 0.00000 -5.55410e-12
  187 2525.46 0.00000 -1.94779e-12
  188 2525.46 0.00000 -3.40042e-12
  189 2525.46 0.00000 1.57118e-12
  190 2525.46 0.00000 -3.34278e-12
  191 2525.46 0.00000 2.43402e-13
  192 2525.46 0.00000 1.48428e-13
  193 2525.46 0.00000 1.44585e-12
  194 2525.46 0.00000 -2.28746e-12
  195 2525.46 0.00000 -6.20727e-12
  196 2525.46 0.00000 1.79555e-13
  197 2525.46 0.00000 8.36382e-12
  198 2525.46 0.00000 4.82452e-13
  199 2525.46 0.00000 -1.79901e-12
  200 2525.46 0.00000 -2.58942e-12
  201 2525.46 0.00000 8.54854e-13
  202 2525.46 0.00000 4.06893e-12
  203 2525.46 0.00000 1.35201e-12
  204 2525.46 0.00000 -6.65161e-12
  205 2525.46 0.00000 2.86930e-12
  206 2525.46 0.00000 1.40424e-12
  207 2525.46 0.00000 -1.20682e-11
  208 2525.46 0.00000 -5.12861e-13
  209 2525.46 0.00000 -3.13909e-12
  210 2525.46 0.00000 -9.45126e-12
  211 2525.46 0.00000 1.55707e-11
  212 2525.46 0.00000 -2.34168e-12
  213 2525.46 0.00000 -1.28982e-11
  214 2525.46 0.00000 -3.16698e-12
  215 2525.46 0.00000 -4.87315e-12
  216 2525.46 0.00000 -4.05920e-12
  217 2525.46 0.00000 -1.43263e-12
  218 2525.46 0.00000 -8.09540e-12
  219 2525.46 0.00000 -2.30751e-12
  220 2525.46 0.00000 -2.24280e-12
  221 2525.46 0.00000 -1.33663e-12
  222 2525.46 0.00000 -3.00321e-12
  223 2525.46 0.00000 4.12113e-12
  224 2525.46 0.00000 4.96526e-12
  225 2525.46 0.00000 -6.08955e-13
  226 2525.46 0.00000 5.54056e-12
  227 2525.46 0.00000 -4.28470e-12
  228 2525.46 0.00000 8.44810e-14
  229 2525.46 0.00000 2.88790e-12
  230 2525.46 0.00000 2.05973e-12
  231 2525.46 0.00000 1.61149e-12
  232 2525.46 0.00000 -2.72678e-12
  233 2525.46 0.00000 -9.69699e-13
  234 2525.46 0.00000 -3.04745e-12
  235 2525.46 0.00000 3.00907e-12
  236 2525.46 0.00000 1.15698e-11
  237 2525.46 0.00000 -4.02494e-12
  238 2525.46 0.00000 -1.02300e-12
  239 2525.46 0.00000 2.38252e-12
  240 2525.46 0.00000 1.60561e-12
  241 2525.46 0.00000 -5.01946e-12
</Section>

newXOutput 75

<Section columns = "stress_xx | stress_yy | stress_xy">
  1 2574.59 0.00000 -7.54823e-12
  2 2574.59 0.00000 4.47570e-12
  3 2574.59 0.00000 -9.37468e-14
  4 2574.59 0.00000 7.98021e-12
  5 2574.59 0.00000 -1.36465e-11
  6 2574.59 0.00000 -2.00080e-11
  7 2574.59 0.00000 -1.92220e-11
  8 2574.59 0.00000 -1.37417e-11
  9 2574.59 0.00000 -9.55667e-12
  10 2574.59 0.00000 -6.51253e-12
  11 2574.59 0.00000 -3.63294e-12
  12 2574.59 0.00000 3.27361e-13
  13 2574.59 0.00000 2.21427e-12
  14 2574.59 0.00000 5.70726e-12
  15 2574.59 0.00000 5.63503e-12
  16 2574.59 0.00000 6.96553e-12
  17 2574.59 0.00000 7.80906e-12
  18 2574.59 0.00000 4.89052e-12
  19 2574.59 0.00000 -2.26137e-12
  20 2574.59 0.00000 -4.42449e-12
  21 2574.59 0.00000 -1.80768e-12
  22 2574.59 0.00000 8.47873e-13
  23 2574.59 0.00000 3.64788e-12
  24 2574.59 0.00000 1.06256e-12
  25 2574.59 0.00000 -1.68073e-12
  26 2574.59 0.00000 -2.54058e-12
  27 2574.59 0.00000 -2.11970e-12
  28 2574.59 0.00000 -1.50888e-12
  29 2574.59 0.00000 -9.01834e-13
  30 2574.59 0.00000 -1.50106e-13
  31 2574.59 0.00000 3.59258e-12
  32 2574.59 0.00000 1.15213e-12
  33 2574.59 0.00000 3.03192e-12
  34 2574.59 0.00000 1.60084e-12
  35 2574.59 0.00000 -6.92822e-13
  36 2574.59 0.00000 -1.75247e-13
  37 2574.59 0.00000 -1.14630e-12
  38 2574.59 0.00000 -8.89698e-12
  39 2574.59 0.00000 -9.94133e-12
  40 2574.59 0.00000 -6.20891e-12
  41 2574.59 0.00000 -4.11590e-12
  42 2574.59 0.00000 1.20446e-12
  43 2574.59 0.00000 4.98733e-12
  44 2574.59 0.00000 8.34318e-12
  45 2574.59 0.00000 8.50037e-12
  46 2574.59 0.00000 1.21330e-11
  47 2574.59 0.00000 1.74103e-11
  48 2574.59 0.00000 1.85206e-11
  49 2574.59 0.00000 1.10237e-11
  50 2574.59 0.00000 4.95523e-12
  51 2574.59 0.00000 2.60388e-12
  52 2574.59 0.00000 8.84180e-13
  53 2574.59 0.00000 -2.27086e-12
  54 2574.59 0.00000 -4.26605e-12
  55 2574.59 0.00000 -4.68250e-12
  56 2574.59 0.00000 -5.17393e-12
  57 2574.59 0.00000 -6.73026e-13
  58 2574.59 0.00000 5.10136e-12
  59 2574.59 0.00000 8.09245e-13
  60 2574.59 0.00000 -5.99950e-12
  61 2574.59 0.00000 -2.17375e-12
  62 2574.59 0.00000 4.79279e-12
  63 2574.59 0.00000 -1.38047e-12
  64 2574.59 0.00000 1.65072e-12
  65 2574.59 0.00000 6.37344e-12
  66 2574.59 0.00000 -7.71235e-12
  67 2574.59 0.00000 2.64886e-12
  68 2574.59 0.00000 3.18263e-12
  69 2574.59 0.00000 -1.70862e-12
  70 2574.59 0.00000 -4.94277e-12
  71 2574.59 0.00000 -5.12069e-12
  72 2574.59 0.00000 3.07232e-12
  73 2574.59 0.00000 4.14206e-12
  74 2574.59 0.00000 6.98924e-12
  75 2574.59 0.00000 1.29518e-12
  76 2574.59 0.00000 -4.10140e-12
  77 2574.59 0.00000 1.47063e-12
  78 2574.59 0.00000 -4.00069e-13
  79 2574.59 0.00000 4.33155e-12
  80 2574.59 0.00000 1.35420e-12
  81 2574.59 0.00000 -3.38571e-12
  82 2574.59 0.00000 -4.64840e-12
  83 2574.59 0.00000 -9.67187e-13
  84 2574.59 0.00000 -1.29432e-11
  85 2574.59 0.00000 2.78841e-12
  86 2574.59 0.00000 1.68993e-12
  87 2574.59 0.00000 1.23904e-11
  88 2574.59 0.00000 -9.18668e-13
  89 2574.59 0.00000 -1.22708e-11
  90 2574.59 0.00000 -3.09491e-12
  91 2574.59 0.00000 4.85310e-12
  92 2574.59 0.00000 -2.92984e-14
  93 2574.59 0.00000 -9.90351e-13
  94 2574.59 0.00000 7.41645e-13
  95 2574.59 0.00000 3.69555e-12
  96 2574.59 0.00000 -1.93157e-12
  97 2574.59 0.00000 -1.24635e-12
  98 2574.59 0.00000 1.27793e-11
  99 2574.59 0.00000 7.01466e-12
  100 2574.59 0.00000 -5.32666e-12
  101 2574.59 0.00000 -6.39818e-13
  102 2574.59 0.00000 2.48007e-12
  103 2574.59 0.00000 5.57214e-12
  104 2574.59 0.00000 -4.67095e-13
  105 2574.59 0.00000 -2.06358e-12
  106 2574.59 0.00000 2.85919e-12
  107 2574.59 0.00000 -1.36460e-12
  108 2574.59 0.00000 3.09951e-12
  109 2574.59 0.00000 -6.40792e-12
  110 2574.59 0.00000 -2.17604e-12
  111 2574.59 0.00000 1.62990e-12
  112 2574.59 0.00000 -1.68093e-12
  113 2574.59 0.00000 -7.97404e-12
  114 2574.59 0.00000 -3.41390e-12
  115 2574.59 0.00000 2.27696e-12
  116 2574.59 0.00000 -1.67391e-11
  117 2574.59 0.00000 2.58819e-12
  118 2574.59 0.00000 6.19967e-12
  119 2574.59 0.00000 5.71259e-12
  120 2574.59 0.00000 1.07351e-12
  121 2574.59 0.00000 -3.91217e-12
  122 2574.59 0.00000 -3.25816e-12
  123 2574.59 0.00000 -6.38310e-12
  124 2574.59 0.00000 2.56845e-12
  125 2574.59 0.00000 4.47789e-12
  126 2574.59 0.00000 -9.80299e-12
  127 2574.59 0.00000 1.13181e-12
  128 2574.59 0.00000 -9.07131e-13
  129 2574.59 0.00000 9.04752e-12
  130 2574.59 0.00000 -1.24309e-12
  131 2574.59 0.00000 1.48268e-12
  132 2574.59 0.00000 2.85083e-13
  133 2574.59 0.00000 3.68996e-12
  134 2574.59 0.00000 -4.13502e-12
  135 2574.59 0.00000 8.37678e-13
  136 2574.59 0.00000 1.62800e-11
  137 2574.59 0.00000 3.06524e-12
  138 2574.59 0.00000 2.12484e-12
  139 2574.59 0.00000 -1.33666e-12
  140 2574.59 0.00000 7.45904e-13
  141 2574.59 0.00000 7.94371e-13
  142 2574.59 0.00000 -6.49887e-12
  143 2574.59 0.00000 2.67892e-12
  144 2574.59 0.00000 -5.43574e-12
  145 2574.59 0.00000 1.65918e-12
  146 2574.59 0.00000 5.54874e-12
  147 2574.59 0.00000 -5.68617e-12
  148 2574.59 0.00000 -2.92477e-12
  149 2574.59 0.00000 -4.31852e-12
  150 2574.59 0.00000 3.59318e-12
  151 2574.59 0.00000 4.80631e-14
  152 2574.59 0.00000 4.57783e-12
  153 2574.59 0.00000 9.81107e-13
  154 2574.59 0.00000 1.63764e-12
  155 2574.59 0.00000 -5.53391e-12
  156 2574.59 0.00000 -1.49449e-12
  157 2574.59 0.00000 3.39708e-12
  158 2574.59 0.00000 -4.45230e-12
  159 2574.59 0.00000 -3.60481e-12
  160 2574.59 0.00000 -9.92745e-13
  161 2574.59 0.00000 -3.45249e-12
  162 2574.59 0.00000 3.86611e-12
  163 2574.59 0.00000 -6.35089e-13
  164 2574.59 0.00000 9.62356e-13
  165 2574.59 0.00000 -7.32187e-12
  166 2574.59 0.00000 5.10788e-12
  167 2574.59 0.00000 -1.16391e-12
  168 2574.59 0.00000 -4.85971e-13
  169 2574.59 0.00000 -7.05495e-12
  170 2574.59 0.00000 3.68781e-12
  171 2574.59 0.00000 -2.70483e-12
  172 2574.59 0.00000 5.17485e-12
  173 2574.59 0.00000 7.68894e-12
  174 2574.59 0.00000 2.32033e-12
  175 2574.59 0.00000 9.23788e-12
  176 2574.59 0.00000 -1.01701e-11
  177 2574.59 0.00000 -8.85646e-14
  178 2574.59 0.00000 -1.57383e-12
  179 2574.59 0.00000 -1.41786e-11
  180 2574.59 0.00000 -1.75517e-12
  181 2574.59 0.00000 1.96305e-12
  182 2574.59 0.00000 -5.93556e-12
  183 2574.59 0.00000 4.81622e-12
  184 2574.59 0.00000 6.49014e-12
  185 2574.59 0.00000 -9.99702e-12
  186 2574.59 0.00000 6.47880e-12
  187 2574.59 0.00000 1.75114e-12
  188 2574.59 0.00000 2.66500e-12
  189 2574.59 0.00000 -2.55117e-12
  190 2574.59 0.00000 3.85117e-12
  191 2574.59 0.00000 9.74865e-13
  192 2574.59 0.00000 8.23338e-13
  193 2574.59 0.00000 -2.00789e-12
  194 2574.59 0.00000 1.65833e-12
  195 2574.59 0.00000 7.24563e-12
  196 2574.59 0.00000 -5.16932e-13
  197 2574.59 0.00000 -9.35326e-12
  198 2574.59 0.00000 3.79838e-13
  199 2574.59 0.00000 2.12598e-12
  200 2574.59 0.00000 3.19650e-12
  201 2574.59 0.00000 -1.16239e-12
  202 2574.59 0.00000 -4.97453e-12
  203 2574.59 0.00000 -2.61195e-12
  204 2574.59 0.00000 5.57750e-12
  205 2574.59 0.00000 -3.85235e-12
  206 2574.59 0.00000 -1.82822e-12
  207 2574.59 0.00000 1.39068e-11
  208 2574.59 0.00000 3.93357e-13
  209 2574.59 0.00000 1.56559e-12
  210 2574.59 0.00000 1.08315e-11
  211 2574.59 0.00000 -1.78748e-11
  212 2574.59 0.00000 2.62229e-12
  213 2574.59 0.00000 1.48515e-11
  214 2574.59 0.00000 3.75141e-12
  215 2574.59 0.00000 5.13073e-12
  216 2574.59 0.00000 3.48978e-12
  217 2574.59 0.00000 2.04291e-12
  218 2574.59 0.00000 9.44098e-12
  219 2574.59 0.00000 4.05705e-12
  220 2574.59 0.00000 2.37055e-12
  221 2574.59 0.00000 2.55645e-12
  222 2574.59 0.00000 1.42194e-12
  223 2574.59 0.00000 -4.31755e-12
  224 2574.59 0.00000 -5.79919e-12
  225 2574.59 0.00000 2.40390e-12
  226 2574.59 0.00000 -6.06667e-12
  227 2574.59 0.00000 4.40670e-12
  228 2574.59 0.00000 1.06785e-12
  229 2574.59 0.00000 -3.36795e-12
  230 2574.59 0.00000 -1.32882e-12
  231 2574.59 0.00000 -1.76262e-12
  232 2574.59 0.00000 3.64861e-12
  233 2574.59 0.00000 -2.39042e-12
  234 2574.59 0.00000 2.53219e-12
  235 2574.59 0.00000 -4.07665e-12
  236 2574.59 0.00000 -1.33356e-11
  237 2574.59 0.00000 5.32194e-12
  238 2574.59 0.00000 -4.28919e-14
  239 2574.59 0.00000 -1.01308e-12
  240 2574.59 0.00000 -5.92061e-13
  241 2574.59 0.00000 5.69332e-12
</Section>

newXOutput 76

<Section columns = "stress_xx | stress_yy | stress_xy">
  1 2623.90 0.00000 8.60099e-12
  2 2623.90 0.00000 -4.09780e-12
  3 2623.90 0.00000 -2.12926e-12
  4 2623.90 0.00000 -9.06034e-12
  5 2623.90 0.00000 1.49498e-11
  6 2623.90 0.00000 2.07524e-11
  7 2623.90 0.00000 2.14028e-11
  8 2623.90 0.00000 1.60431e-11
  9 2623.90 0.00000 1.15908e-11
  10 2623.90 0.00000 7.96904e-12
  11 2623.90 0.00000 4.41224e-12
  12 2623.90 0.00000 3.35063e-13
  13 2623.90 0.00000 -2.12724e-12
  14 2623.90 0.00000 -5.67134e-12
  15 2623.90 0.00000 -6.27018e-12
  16 2623.90 0.00000 -8.36769e-12
  17 2623.90 0.00000 -8.80676e-12
  18 2623.90 0.00000 -4.16492e-12
  19 2623.90 0.00000 3.17667e-12
  20 2623.90 0.00000 4.88084e-12
  21 2623.90 0.00000 3.69165e-12
  22 2623.90 0.00000 6.89021e-13
  23 2623.90 0.00000 -1.54801e-12
  24 2623.90 0.00000 -5.35034e-13
  25 2623.90 0.00000 1.81244e-12
  26 2623.90 0.00000 1.72695e-12
  27 2623.90 0.00000 4.62058e-12
  28 2623.90 0.00000 1.77879e-12
  29 2623.90 0.00000 1.00699e-12
  30 2623.90 0.00000 1.17116e-13
  31 2623.90 0.00000 -6.04514e-12
  32 2623.90 0.00000 -4.10964e-12
  33 2623.90 0.00000 -2.78421e-12
  34 2623.90 0.00000 -6.61187e-13
  35 2623.90 0.00000 7.67010e-13
  36 2623.90 0.00000 -1.11164e-14
  37 2623.90 0.00000 1.77373e-12
  38 2623.90 0.00000 1.06002e-11
  39 2623.90 0.00000 9.69480e-12
  40 2623.90 0.00000 4.30344e-12
  41 2623.90 0.00000 3.03917e-12
  42 2623.90 0.00000 -1.50424e-12
  43 2623.90 0.00000 -5.19479e-12
  44 2623.90 0.00000 -9.76909e-12
  45 2623.90 0.00000 -1.02312e-11
  46 2623.90 0.00000 -1.39188e-11
  47 2623.90 0.00000 -2.06398e-11
  48 2623.90 0.00000 -2.09192e-11
  49 2623.90 0.00000 -1.25875e-11
  50 2623.90 0.00000 -5.66809e-12
  51 2623.90 0.00000 -3.10946e-12
  52 2623.90 0.00000 -1.03026e-12
  53 2623.90 0.00000 2.52834e-12
  54 2623.90 0.00000 4.21430e-12
  55 2623.90 0.00000 5.15378e-12
  56 2623.90 0.00000 5.81252e-12
  57 2623.90 0.00000 4.42520e-13
  58 2623.90 0.00000 -7.92137e-12
  59 2623.90 0.00000 -9.19030e-13
  60 2623.90 0.00000 5.93928e-12
  61 2623.90 0.00000 2.33592e-12
  62 2623.90 0.00000 -5.76064e-12
  63 2623.90 0.00000 2.14025e-12
  64 2623.90 0.00000 -7.42632e-13
  65 2623.90 0.00000 -7.13508e-12
  66 2623.90 0.00000 8.54881e-12
  67 2623.90 0.00000 -3.07059e-12
  68 2623.90 0.00000 -4.42454e-12
  69 2623.90 0.00000 1.10072e-12
  70 2623.90 0.00000 5.96317e-12
  71 2623.90 0.00000 6.37524e-12
  72 2623.90 0.00000 -3.90101e-12
  73 2623.90 0.00000 -2.98574e-12
  74 2623.90 0.00000 -8.21577e-12
  75 2623.90 0.00000 -5.61024e-13
  76 2623.90 0.00000 4.88588e-12
  77 2623.90 0.00000 -5.31134e-13
  78 2623.90 0.00000 2.27451e-13
  79 2623.90 0.00000 -4.51309e-12
  80 2623.90 0.00000 -1.44398e-12
  81 2623.90 0.00000 4.21109e-12
  82 2623.90 0.00000 4.68504e-12
  83 2623.90 0.00000 1.60240e-12
  84 2623.90 0.00000 1.48448e-11
  85 2623.90 0.00000 -3.39867e-12
  86 2623.90 0.00000 -2.43160e-12
  87 2623.90 0.00000 -1.39005e-11
  88 2623.90 0.00000 2.49777e-14
  89 2623.90 0.00000 1.35731e-11
  90 2623.90 0.00000 3.44695e-12
  91 2623.90 0.00000 -5.84638e-12
  92 2623.90 0.00000 -4.15628e-13
  93 2623.90 0.00000 -2.57172e-12
  94 2623.90 0.00000 -2.60778e-13
  95 2623.90 0.00000 -4.34857e-12
  96 2623.90 0.00000 2.78844e-12
  97 2623.90 0.00000 1.61107e-12
  98 2623.90 0.00000 -1.50603e-11
  99 2623.90 0.00000 -7.03027e-12
  100 2623.90 0.00000 6.43161e-12
  101 2623.90 0.00000 8.68050e-13
  102 2623.90 0.00000 -3.55865e-12
  103 2623.90 0.00000 -5.66568e-12
  104 2623.90 0.00000 -3.75287e-13
  105 2623.90 0.00000 3.60004e-12
  106 2623.90 0.00000 -3.34142e-12
  107 2623.90 0.00000 1.45322e-12
  108 2623.90 0.00000 -3.82307e-12
  109 2623.90 0.00000 6.81646e-12
  110 2623.90 0.00000 2.48760e-12
  111 2623.90 0.00000 -3.11734e-12
  112 2623.90 0.00000 2.00305e-12
  113 2623.90 0.00000 8.11576e-12
  114 2623.90 0.00000 3.06474e-12
  115 2623.90 0.00000 -3.38344e-12
  116 2623.90 0.00000 1.96271e-11
  117 2623.90 0.00000 -1.72462e-12
  118 2623.90 0.00000 -7.06160e-12
  119 2623.90 0.00000 -6.37567e-12
  120 2623.90 0.00000 -6.25198e-13
  121 2623.90 0.00000 4.80106e-12
  122 2623.90 0.00000 3.56480e-12
  123 2623.90 0.00000 5.44187e-12
  124 2623.90 0.00000 -3.09705e-12
  125 2623.90 0.00000 -4.61852e-12
  126 2623.90 0.00000 1.14618e-11
  127 2623.90 0.00000 -1.85086e-12
  128 2623.90 0.00000 1.47089e-12
  129 2623.90 0.00000 -1.07183e-11
  130 2623.90 0.00000 1.27626e-12
  131 2623.90 0.00000 -1.93601e-12
  132 2623.90 0.00000 -3.07026e-13
  133 2623.90 0.00000 -4.15951e-12
  134 2623.90 0.00000 5.03682e-12
  135 2623.90 0.00000 5.47300e-13
  136 2623.90 0.00000 -1.87150e-11
  137 2623.90 0.00000 -3.40814e-12
  138 2623.90 0.00000 -2.48763e-12
  139 2623.90 0.00000 1.91594e-12
  140 2623.90 0.00000 -1.80555e-12
  141 2623.90 0.00000 -7.57191e-15
  142 2623.90 0.00000 7.39142e-12
  143 2623.90 0.00000 -3.41360e-12
  144 2623.90 0.00000 6.20967e-12
  145 2623.90 0.00000 -5.31358e-13
  146 2623.90 0.00000 -6.04576e-12
  147 2623.90 0.00000 5.31086e-12
  148 2623.90 0.00000 3.15795e-12
  149 2623.90 0.00000 5.99247e-12
  150 2623.90 0.00000 -4.63492e-12
  151 2623.90 0.00000 -6.87589e-13
  152 2623.90 0.00000 -5.76975e-12
  153 2623.90 0.00000 -1.25290e-12
  154 2623.90 0.00000 -1.28041e-12
  155 2623.90 0.00000 5.81281e-12
  156 2623.90 0.00000 6.71908e-13
  157 2623.90 0.00000 -4.10408e-12
  158 2623.90 0.00000 5.25152e-12
  159 2623.90 0.00000 5.89135e-12
  160 2623.90 0.00000 1.77631e-12
  161 2623.90 0.00000 5.86490e-12
  162 2623.90 0.00000 -3.92739e-12
  163 2623.90 0.00000 1.43947e-12
  164 2623.90 0.00000 -1.35559e-12
  165 2623.90 0.00000 8.23940e-12
  166 2623.90 0.00000 -6.02560e-12
  167 2623.90 0.00000 1.00666e-12
  168 2623.90 0.00000 1.38810e-12
  169 2623.90 0.00000 7.85009e-12
  170 2623.90 0.00000 -5.09482e-12
  171 2623.90 0.00000 3.36594e-12
  172 2623.90 0.00000 -5.76012e-12
  173 2623.90 0.00000 -8.89440e-12
  174 2623.90 0.00000 -3.06683e-12
  175 2623.90 0.00000 -1.05409e-11
  176 2623.90 0.00000 1.17130e-11
  177 2623.90 0.00000 -1.15681e-12
  178 2623.90 0.00000 1.28987e-12
  179 2623.90 0.00000 1.69238e-11
  180 2623.90 0.00000 1.93485e-12
  181 2623.90 0.00000 -3.59640e-12
  182 2623.90 0.00000 6.82234e-12
  183 2623.90 0.00000 -6.12494e-12
  184 2623.90 0.00000 -7.23235e-12
  185 2623.90 0.00000 1.11048e-11
  186 2623.90 0.00000 -7.84713e-12
  187 2623.90 0.00000 -3.22740e-12
  188 2623.90 0.00000 -4.18274e-12
  189 2623.90 0.00000 3.63247e-12
  190 2623.90 0.00000 -5.07075e-12
  191 2623.90 0.00000 -1.30954e-12
  192 2623.90 0.00000 -1.47530e-12
  193 2623.90 0.00000 2.33454e-12
  194 2623.90 0.00000 -1.72570e-12
  195 2623.90 0.00000 -8.54734e-12
  196 2623.90 0.00000 9.75733e-13
  197 2623.90 0.00000 1.02297e-11
  198 2623.90 0.00000 2.55869e-13
  199 2623.90 0.00000 -2.47382e-12
  200 2623.90 0.00000 -5.38633e-12
  201 2623.90 0.00000 2.88013e-12
  202 2623.90 0.00000 5.64175e-12
  203 2623.90 0.00000 2.41186e-12
  204 2623.90 0.00000 -6.25703e-12
  205 2623.90 0.00000 4.17643e-12
  206 2623.90 0.00000 4.57466e-12
  207 2623.90 0.00000 -1.57863e-11
  208 2623.90 0.00000 1.07922e-12
  209 2623.90 0.00000 -1.51652e-12
  210 2623.90 0.00000 -1.25355e-11
  211 2623.90 0.00000 1.96565e-11
  212 2623.90 0.00000 -2.65897e-12
  213 2623.90 0.00000 -1.69068e-11
  214 2623.90 0.00000 -3.61033e-12
  215 2623.90 0.00000 -7.37723e-12
  216 2623.90 0.00000 -4.72987e-12
  217 2623.90 0.00000 -6.62049e-13
  218 2623.90 0.00000 -1.15004e-11
  219 2623.90 0.00000 -4.57384e-12
  220 2623.90 0.00000 -3.58639e-12
  221 2623.90 0.00000 -2.74086e-12
  222 2623.90 0.00000 -5.87817e-12
  223 2623.90 0.00000 5.09412e-12
  224 2623.90 0.00000 6.66854e-12
  225 2623.90 0.00000 -2.35748e-12
  226 2623.90 0.00000 7.22412e-12
  227 2623.90 0.00000 -4.37113e-12
  228 2623.90 0.00000 -6.64803e-13
  229 2623.90 0.00000 4.00835e-12
  230 2623.90 0.00000 9.63456e-13
  231 2623.90 0.00000 1.92548e-12
  232 2623.90 0.00000 -4.38907e-12
  233 2623.90 0.00000 -1.84609e-12
  234 2623.90 0.00000 -2.73836e-12
  235 2623.90 0.00000 3.24400e-12
  236 2623.90 0.00000 1.47981e-11
  237 2623.90 0.00000 -5.26319e-12
  238 2623.90 0.00000 -9.27825e-13
  239 2623.90 0.00000 1.85868e-12
  240 2623.90 0.00000 1.65166e-12
  241 2623.90 0.00000 -6.23980e-12
</Section>

newXOutput 77

<Section columns = "stress_xx | stress_yy | stress_xy">
  1 2673.37 0.00000 -9.71994e-12
  2 2673.37 0.00000 4.14660e-12
  3 2673.37 0.00000 1.57538e-12
  4 2673.37 0.00000 9.99696e-12
  5 2673.37 0.00000 -1.67451e-11
  6 2673.37 0.00000 -2.39518e-11
  7 2673.37 0.00000 -2.46192e-11
  8 2673.37 0.00000 -1.88002e-11
  9 2673.37 0.00000 -1.27564e-11
  10 2673.37 0.00000 -8.21978e-12
  11 2673.37 0.00000 -5.04072e-12
  12 2673.37 0.00000 -1.87459e-12
  13 2673.37 0.00000 2.21037e-12
  14 2673.37 0.00000 7.15497e-12
  15 2673.37 0.00000 6.76074e-12
  16 2673.37 0.00000 8.24304e-12
  17 2673.37 0.00000 9.62114e-12
  18 2673.37 0.00000 5.87701e-12
  19 2673.37 0.00000 -2.34181e-12
  20 2673.37 0.00000 -3.22349e-12
  21 2673.37 0.00000 -1.43942e-12
  22 2673.37 0.00000 9.91691e-13
  23 2673.37 0.00000 3.45249e-12
  24 2673.37 0.00000 1.63103e-13
  25 2673.37 0.00000 -2.57080e-12
  26 2673.37 0.00000 -2.74993e-12
  27 2673.37 0.00000 -5.11907e-12
  28 2673.37 0.00000 -3.19547e-12
  29 2673.37 0.00000 -1.14625e-12
  30 2673.37 0.00000 4.66642e-14
  31 2673.37 0.00000 6.20249e-12
  32 2673.37 0.00000 3.05419e-12
  33 2673.37 0.00000 1.30905e-12
  34 2673.37 0.00000 9.33074e-13
  35 2673.37 0.00000 -5.80533e-13
  36 2673.37 0.00000 1.36238e-12
  37 2673.37 0.00000 -1.23289e-12
  38 2673.37 0.00000 -9.64989e-12
  39 2673.37 0.00000 -1.09188e-11
  40 2673.37 0.00000 -5.88331e-12
  41 2673.37 0.00000 -3.07010e-12
  42 2673.37 0.00000 2.08629e-12
  43 2673.37 0.00000 6.11851e-12
  44 2673.37 0.00000 1.13003e-11
  45 2673.37 0.00000 1.23807e-11
  46 2673.37 0.00000 1.74830e-11
  47 2673.37 0.00000 2.36934e-11
  48 2673.37 0.00000 2.30826e-11
  49 2673.37 0.00000 1.41992e-11
  50 2673.37 0.00000 6.24939e-12
  51 2673.37 0.00000 4.05453e-12
  52 2673.37 0.00000 1.57839e-12
  53 2673.37 0.00000 -2.23404e-12
  54 2673.37 0.00000 -4.44378e-12
  55 2673.37 0.00000 -5.61762e-12
  56 2673.37 0.00000 -6.73862e-12
  57 2673.37 0.00000 1.18873e-14
  58 2673.37 0.00000 7.73647e-12
  59 2673.37 0.00000 1.77249e-12
  60 2673.37 0.00000 -5.64927e-12
  61 2673.37 0.00000 -2.43138e-12
  62 2673.37 0.00000 6.32358e-12
  63 2673.37 0.00000 -8.42636e-13
  64 2673.37 0.00000 2.07989e-13
  65 2673.37 0.00000 7.48485e-12
  66 2673.37 0.00000 -9.71680e-12
  67 2673.37 0.00000 3.70380e-12
  68 2673.37 0.00000 4.41976e-12
  69 2673.37 0.00000 -2.38984e-12
  70 2673.37 0.00000 -6.94971e-12
  71 2673.37 0.00000 -8.01316e-12
  72 2673.37 0.00000 3.68941e-12
  73 2673.37 0.00000 3.25786e-12
  74 2673.37 0.00000 9.53399e-12
  75 2673.37 0.00000 1.43238e-12
  76 2673.37 0.00000 -3.78315e-12
  77 2673.37 0.00000 7.01226e-13
  78 2673.37 0.00000 3.84045e-13
  79 2673.37 0.00000 4.90100e-12
  80 2673.37 0.00000 6.60014e-13
  81 2673.37 0.00000 -5.68722e-12
  82 2673.37 0.00000 -7.55761e-12
  83 2673.37 0.00000 -1.43332e-12
  84 2673.37 0.00000 -1.64927e-11
  85 2673.37 0.00000 4.54936e-12
  86 2673.37 0.00000 2.17465e-12
  87 2673.37 0.00000 1.54462e-11
  88 2673.37 0.00000 -1.91666e-12
  89 2673.37 0.00000 -1.56661e-11
  90 2673.37 0.00000 -3.99392e-12
  91 2673.37 0.00000 6.52707e-12
  92 2673.37 0.00000 8.76914e-13
  93 2673.37 0.00000 2.83232e-12
  94 2673.37 0.00000 1.10539e-12
  95 2673.37 0.00000 4.65848e-12
  96 2673.37 0.00000 -4.29758e-12
  97 2673.37 0.00000 -2.35231e-12
  98 2673.37 0.00000 1.65164e-11
  99 2673.37 0.00000 8.06421e-12
  100 2673.37 0.00000 -6.72501e-12
  101 2673.37 0.00000 -2.84671e-13
  102 2673.37 0.00000 5.62387e-12
  103 2673.37 0.00000 5.74359e-12
  104 2673.37 0.00000 2.64931e-13
  105 2673.37 0.00000 -4.64598e-12
  106 2673.37 0.00000 3.55334e-12
  107 2673.37 0.00000 -1.61003e-12
  108 2673.37 0.00000 4.18090e-12
  109 2673.37 0.00000 -7.48424e-12
  110 2673.37 0.00000 -3.10554e-12
  111 2673.37 0.00000 3.41297e-12
  112 2673.37 0.00000 -2.68875e-12
  113 2673.37 0.00000 -9.64631e-12
  114 2673.37 0.00000 -4.44212e-12
  115 2673.37 0.00000 4.19229e-12
  116 2673.37 0.00000 -2.18306e-11
  117 2673.37 0.00000 2.25870e-12
  118 2673.37 0.00000 7.24448e-12
  119 2673.37 0.00000 7.26262e-12
  120 2673.37 0.00000 -4.20941e-13
  121 2673.37 0.00000 -4.84972e-12
  122 2673.37 0.00000 -3.03120e-12
  123 2673.37 0.00000 -6.56654e-12
  124 2673.37 0.00000 2.14073e-12
  125 2673.37 0.00000 5.05209e-12
  126 2673.37 0.00000 -1.36002e-11
  127 2673.37 0.00000 1.51665e-12
  128 2673.37 0.00000 -2.08355e-12
  129 2673.37 0.00000 1.29618e-11
  130 2673.37 0.00000 -2.02721e-12
  131 2673.37 0.00000 2.24587e-12
  132 2673.37 0.00000 -1.23615e-14
  133 2673.37 0.00000 4.97743e-12
  134 2673.37 0.00000 -6.15857e-12
  135 2673.37 0.00000 2.70618e-13
  136 2673.37 0.00000 2.10181e-11
  137 2673.37 0.00000 4.10377e-12
  138 2673.37 0.00000 2.31597e-12
  139 2673.37 0.00000 -2.33574e-12
  140 2673.37 0.00000 1.82363e-12
  141 2673.37 0.00000 6.15483e-13
  142 2673.37 0.00000 -8.35879e-12
  143 2673.37 0.00000 3.42796e-12
  144 2673.37 0.00000 -7.22154e-12
  145 2673.37 0.00000 9.03931e-13
  146 2673.37 0.00000 6.36698e-12
  147 2673.37 0.00000 -7.48867e-12
  148 2673.37 0.00000 -3.38029e-12
  149 2673.37 0.00000 -7.01934e-12
  150 2673.37 0.00000 5.82736e-12
  151 2673.37 0.00000 1.72499e-13
  152 2673.37 0.00000 7.90221e-12
  153 2673.37 0.00000 4.64260e-13
  154 2673.37 0.00000 1.84700e-12
  155 2673.37 0.00000 -6.94044e-12
  156 2673.37 0.00000 -5.93838e-13
  157 2673.37 0.00000 4.54374e-12
  158 2673.37 0.00000 -6.87554e-12
  159 2673.37 0.00000 -4.82142e-12
  160 2673.37 0.00000 -1.68824e-12
  161 2673.37 0.00000 -4.40608e-12
  162 2673.37 0.00000 3.91554e-12
  163 2673.37 0.00000 -3.53286e-12
  164 2673.37 0.00000 9.20627e-13
  165 2673.37 0.00000 -9.68028e-12
  166 2673.37 0.00000 6.91232e-12
  167 2673.37 0.00000 -1.64904e-12
  168 2673.37 0.00000 -9.67363e-13
  169 2673.37 0.00000 -8.95849e-12
  170 2673.37 0.00000 6.06555e-12
  171 2673.37 0.00000 -3.22916e-12
  172 2673.37 0.00000 6.37031e-12
  173 2673.37 0.00000 1.01966e-11
  174 2673.37 0.00000 2.74503e-12
  175 2673.37 0.00000 1.15742e-11
  176 2673.37 0.00000 -1.33637e-11
  177 2673.37 0.00000 5.30689e-13
  178 2673.37 0.00000 -1.33758e-12
  179 2673.37 0.00000 -1.91442e-11
  180 2673.37 0.00000 -1.72775e-12
  181 2673.37 0.00000 3.26167e-12
  182 2673.37 0.00000 -8.17036e-12
  183 2673.37 0.00000 7.06670e-12
  184 2673.37 0.00000 7.32875e-12
  185 2673.37 0.00000 -1.23338e-11
  186 2673.37 0.00000 8.30370e-12
  187 2673.37 0.00000 2.02161e-12
  188 2673.37 0.00000 5.22614e-12
  189 2673.37 0.00000 -3.70281e-12
  190 2673.37 0.00000 6.43143e-12
  191 2673.37 0.00000 1.28175e-12
  192 2673.37 0.00000 1.22946e-12
  193 2673.37 0.00000 -2.70911e-12
  194 2673.37 0.00000 3.95739e-13
  195 2673.37 0.00000 9.40734e-12
  196 2673.37 0.00000 -1.67239e-13
  197 2673.37 0.00000 -1.13118e-11
  198 2673.37 0.00000 6.76518e-13
  199 2673.37 0.00000 3.22452e-12
  200 2673.37 0.00000 5.15600e-12
  201 2673.37 0.00000 -3.31298e-12
  202 2673.37 0.00000 -5.12512e-12
  203 2673.37 0.00000 -2.98001e-12
  204 2673.37 0.00000 5.92918e-12
  205 2673.37 0.00000 -3.87854e-12
  206 2673.37 0.00000 -2.39948e-12
  207 2673.37 0.00000 1.89017e-11
  208 2673.37 0.00000 -8.75034e-13
  209 2673.37 0.00000 2.67614e-13
  210 2673.37 0.00000 1.42861e-11
  211 2673.37 0.00000 -2.24834e-11
  212 2673.37 0.00000 3.84532e-12
  213 2673.37 0.00000 1.84039e-11
  214 2673.37 0.00000 4.15661e-12
  215 2673.37 0.00000 7.11691e-12
  216 2673.37 0.00000 5.80310e-12
  217 2673.37 0.00000 -1.00240e-12
  218 2673.37 0.00000 1.25626e-11
  219 2673.37 0.00000 6.06672e-12
  220 2673.37 0.00000 4.67508e-12
  221 2673.37 0.00000 2.93989e-12
  222 2673.37 0.00000 5.60388e-12
  223 2673.37 0.00000 -5.20211e-12
  224 2673.37 0.00000 -8.91735e-12
  225 2673.37 0.00000 2.37967e-12
  226 2673.37 0.00000 -8.03497e-12
  227 2673.37 0.00000 4.05776e-12
  228 2673.37 0.00000 1.43181e-12
  229 2673.37 0.00000 -4.53124e-12
  230 2673.37 0.00000 -1.67927e-12
  231 2673.37 0.00000 -1.64950e-12
  232 2673.37 0.00000 4.84425e-12
  233 2673.37 0.00000 8.50966e-13
  234 2673.37 0.00000 3.35821e-12
  235 2673.37 0.00000 -4.69507e-12
  236 2673.37 0.00000 -1.68446e-11
  237 2673.37 0.00000 5.71876e-12
  238 2673.37 0.00000 1.03128e-12
  239 2673.37 0.00000 -1.13970e-12
  240 2673.37 0.00000 -1.21454e-12
  241 2673.37 0.00000 7.00412e-12
</Section>

newXOutput 78

<Section columns = "stress_xx | stress_yy | stress_xy">
  1 2723.02 0.00000 1.05262e-11
  2 2723.02 0.00000 -5.03159e-12
  3 2723.02 0.00000 -1.89226e-12
  4 2723.02 0.00000 -1.09329e-11
  5 2723.02 0.00000 1.80519e-11
  6 2723.02 0.00000 2.66750e-11
  7 2723.02 0.00000 2.85776e-11
  8 2723.02 0.00000 2.25680e-11
  9 2723.02 0.00000 1.61149e-11
  10 2723.02 0.00000 1.04556e-11
  11 2723.02 0.00000 6.78997e-12
  12 2723.02 0.00000 2.33539e-12
  13 2723.02 0.00000 -2.08369e-12
  14 2723.02 0.00000 -7.34413e-12
  15 2723.02 0.00000 -8.28982e-12
  16 2723.02 0.00000 -7.61873e-12
  17 2723.02 0.00000 -8.78604e-12
  18 2723.02 0.00000 -6.20673e-12
  19 2723.02 0.00000 3.07786e-12
  20 2723.02 0.00000 5.54763e-12
  21 2723.02 0.00000 2.71548e-12
  22 2723.02 0.00000 -3.33914e-13
  23 2723.02 0.00000 -3.53268e-12
  24 2723.02 0.00000 -1.21846e-12
  25 2723.02 0.00000 2.46729e-12
  26 2723.02 0.00000 4.25075e-12
  27 2723.02 0.00000 4.64715e-12
  28 2723.02 0.00000 4.12926e-12
  29 2723.02 0.00000 1.21425e-12
  30 2723.02 0.00000 -1.00752e-13
  31 2723.02 0.00000 -5.34505e-12
  32 2723.02 0.00000 -3.40190e-12
  33 2723.02 0.00000 -1.41532e-12
  34 2723.02 0.00000 5.53389e-13
  35 2723.02 0.00000 1.47557e-12
  36 2723.02 0.00000 3.81050e-13
  37 2723.02 0.00000 3.39387e-12
  38 2723.02 0.00000 1.25243e-11
  39 2723.02 0.00000 1.40144e-11
  40 2723.02 0.00000 5.28369e-12
  41 2723.02 0.00000 2.26124e-12
  42 2723.02 0.00000 -2.80276e-12
  43 2723.02 0.00000 -8.13999e-12
  44 2723.02 0.00000 -1.36984e-11
  45 2723.02 0.00000 -1.57527e-11
  46 2723.02 0.00000 -2.16626e-11
  47 2723.02 0.00000 -2.72996e-11
  48 2723.02 0.00000 -2.58918e-11
  49 2723.02 0.00000 -1.54285e-11
  50 2723.02 0.00000 -7.11235e-12
  51 2723.02 0.00000 -4.32569e-12
  52 2723.02 0.00000 -2.39381e-12
  53 2723.02 0.00000 2.66609e-12
  54 2723.02 0.00000 5.06051e-12
  55 2723.02 0.00000 6.63065e-12
  56 2723.02 0.00000 7.67322e-12
  57 2723.02 0.00000 7.37374e-13
  58 2723.02 0.00000 -7.40786e-12
  59 2723.02 0.00000 -1.24558e-12
  60 2723.02 0.00000 5.41586e-12
  61 2723.02 0.00000 1.65612e-12
  62 2723.02 0.00000 -6.19122e-12
  63 2723.02 0.00000 1.07264e-12
  64 2723.02 0.00000 -6.44369e-13
  65 2723.02 0.00000 -9.15150e-12
  66 2723.02 0.00000 1.09807e-11
  67 2723.02 0.00000 -2.67258e-12
  68 2723.02 0.00000 -4.15583e-12
  69 2723.02 0.00000 2.39485e-12
  70 2723.02 0.00000 7.18582e-12
  71 2723.02 0.00000 8.74836e-12
  72 2723.02 0.00000 -3.64562e-12
  73 2723.02 0.00000 -3.08140e-12
  74 2723.02 0.00000 -1.13952e-11
  75 2723.02 0.00000 -2.14995e-12
  76 2723.02 0.00000 3.54586e-12
  77 2723.02 0.00000 -7.68063e-13
  78 2723.02 0.00000 -6.28304e-13
  79 2723.02 0.00000 -4.91320e-12
  80 2723.02 0.00000 -3.29960e-13
  81 2723.02 0.00000 6.65705e-12
  82 2723.02 0.00000 7.06016e-12
  83 2723.02 0.00000 1.86474e-12
  84 2723.02 0.00000 1.85503e-11
  85 2723.02 0.00000 -4.21387e-12
  86 2723.02 0.00000 -1.06298e-12
  87 2723.02 0.00000 -1.76236e-11
  88 2723.02 0.00000 -4.08451e-13
  89 2723.02 0.00000 1.75536e-11
  90 2723.02 0.00000 5.16172e-12
  91 2723.02 0.00000 -8.11331e-12
  92 2723.02 0.00000 -5.63243e-13
  93 2723.02 0.00000 -2.53826e-12
  94 2723.02 0.00000 -1.79482e-12
  95 2723.02 0.00000 -5.87692e-12
  96 2723.02 0.00000 5.63526e-12
  97 2723.02 0.00000 2.44833e-12
  98 2723.02 0.00000 -1.96034e-11
  99 2723.02 0.00000 -8.31627e-12
  100 2723.02 0.00000 8.26179e-12
  101 2723.02 0.00000 9.59727e-13
  102 2723.02 0.00000 -5.29687e-12
  103 2723.02 0.00000 -6.80134e-12
  104 2723.02 0.00000 -2.80135e-13
  105 2723.02 0.00000 5.90100e-12
  106 2723.02 0.00000 -4.00584e-12
  107 2723.02 0.00000 2.84643e-12
  108 2723.02 0.00000 -5.68865e-12
  109 2723.02 0.00000 8.17973e-12
  110 2723.02 0.00000 6.06981e-12
  111 2723.02 0.00000 -3.94359e-12
  112 2723.02 0.00000 3.24090e-12
  113 2723.02 0.00000 9.98523e-12
  114 2723.02 0.00000 5.74392e-12
  115 2723.02 0.00000 -3.88180e-12
  116 2723.02 0.00000 2.52700e-11
  117 2723.02 0.00000 -3.07899e-12
  118 2723.02 0.00000 -8.35270e-12
  119 2723.02 0.00000 -8.69418e-12
  120 2723.02 0.00000 4.35359e-13
  121 2723.02 0.00000 5.50239e-12
  122 2723.02 0.00000 3.48498e-12
  123 2723.02 0.00000 7.52340e-12
  124 2723.02 0.00000 -2.16539e-12
  125 2723.02 0.00000 -4.83784e-12
  126 2723.02 0.00000 1.57890e-11
  127 2723.02 0.00000 -1.01982e-12
  128 2723.02 0.00000 2.18679e-12
  129 2723.02 0.00000 -1.60032e-11
  130 2723.02 0.00000 2.84629e-12
  131 2723.02 0.00000 -2.38939e-12
  132 2723.02 0.00000 -3.85104e-13
  133 2723.02 0.00000 -5.18402e-12
  134 2723.02 0.00000 6.47534e-12
  135 2723.02 0.00000 8.32535e-13
  136 2723.02 0.00000 -2.41923e-11
  137 2723.02 0.00000 -4.72591e-12
  138 2723.02 0.00000 -2.37605e-12
  139 2723.02 0.00000 3.43540e-12
  140 2723.02 0.00000 -1.59855e-12
  141 2723.02 0.00000 -1.14260e-12
  142 2723.02 0.00000 1.04816e-11
  143 2723.02 0.00000 -3.41755e-12
  144 2723.02 0.00000 6.34206e-12
  145 2723.02 0.00000 -1.35052e-12
  146 2723.02 0.00000 -8.28390e-12
  147 2723.02 0.00000 8.73032e-12
  148 2723.02 0.00000 4.22160e-12
  149 2723.02 0.00000 6.26304e-12
  150 2723.02 0.00000 -5.21381e-12
  151 2723.02 0.00000 1.91135e-13
  152 2723.02 0.00000 -7.92718e-12
  153 2723.02 0.00000 8.67715e-13
  154 2723.02 0.00000 -1.68383e-12
  155 2723.02 0.00000 7.73203e-12
  156 2723.02 0.00000 2.02512e-13
  157 2723.02 0.00000 -5.28764e-12
  158 2723.02 0.00000 8.21191e-12
  159 2723.02 0.00000 5.44792e-12
  160 2723.02 0.00000 1.42689e-12
  161 2723.02 0.00000 5.56007e-12
  162 2723.02 0.00000 -3.51581e-12
  163 2723.02 0.00000 4.17529e-12
  164 2723.02 0.00000 -7.89874e-13
  165 2723.02 0.00000 1.10196e-11
  166 2723.02 0.00000 -8.14828e-12
  167 2723.02 0.00000 1.40535e-12
  168 2723.02 0.00000 1.90586e-12
  169 2723.02 0.00000 9.91460e-12
  170 2723.02 0.00000 -5.51225e-12
  171 2723.02 0.00000 3.97126e-12
  172 2723.02 0.00000 -6.96170e-12
  173 2723.02 0.00000 -1.24422e-11
  174 2723.02 0.00000 -3.09913e-12
  175 2723.02 0.00000 -1.26895e-11
  176 2723.02 0.00000 1.43305e-11
  177 2723.02 0.00000 -8.33514e-13
  178 2723.02 0.00000 2.24054e-12
  179 2723.02 0.00000 2.23269e-11
  180 2723.02 0.00000 2.73183e-12
  181 2723.02 0.00000 -3.31343e-12
  182 2723.02 0.00000 8.49639e-12
  183 2723.02 0.00000 -7.87454e-12
  184 2723.02 0.00000 -6.74379e-12
  185 2723.02 0.00000 1.44715e-11
  186 2723.02 0.00000 -9.20152e-12
  187 2723.02 0.00000 -2.90719e-12
  188 2723.02 0.00000 -4.60293e-12
  189 2723.02 0.00000 2.81194e-12
  190 2723.02 0.00000 -7.72847e-12
  191 2723.02 0.00000 -1.27955e-12
  192 2723.02 0.00000 -8.75015e-13
  193 2723.02 0.00000 3.54024e-12
  194 2723.02 0.00000 -6.71944e-13
  195 2723.02 0.00000 -1.13504e-11
  196 2723.02 0.00000 1.54347e-12
  197 2723.02 0.00000 1.25566e-11
  198 2723.02 0.00000 -1.70383e-12
  199 2723.02 0.00000 -3.11461e-12
  200 2723.02 0.00000 -5.58117e-12
  201 2723.02 0.00000 2.66191e-12
  202 2723.02 0.00000 5.90321e-12
  203 2723.02 0.00000 3.46086e-12
  204 2723.02 0.00000 -6.17490e-12
  205 2723.02 0.00000 4.66309e-12
  206 2723.02 0.00000 3.72328e-12
  207 2723.02 0.00000 -2.21378e-11
  208 2723.02 0.00000 1.61934e-12
  209 2723.02 0.00000 7.68236e-14
  210 2723.02 0.00000 -1.71606e-11
  211 2723.02 0.00000 2.50776e-11
  212 2723.02 0.00000 -2.28017e-12
  213 2723.02 0.00000 -2.02799e-11
  214 2723.02 0.00000 -5.92474e-12
  215 2723.02 0.00000 -8.23586e-12
  216 2723.02 0.00000 -5.93786e-12
  217 2723.02 0.00000 9.95454e-13
  218 2723.02 0.00000 -1.50206e-11
  219 2723.02 0.00000 -5.80327e-12
  220 2723.02 0.00000 -5.52122e-12
  221 2723.02 0.00000 -2.59947e-12
  222 2723.02 0.00000 -5.69437e-12
  223 2723.02 0.00000 6.66027e-12
  224 2723.02 0.00000 9.91883e-12
  225 2723.02 0.00000 -2.91460e-12
  226 2723.02 0.00000 1.00929e-11
  227 2723.02 0.00000 -5.31930e-12
  228 2723.02 0.00000 -1.39989e-12
  229 2723.02 0.00000 5.49580e-12
  230 2723.02 0.00000 2.85988e-12
  231 2723.02 0.00000 1.30682e-12
  232 2723.02 0.00000 -5.32460e-12
  233 2723.02 0.00000 -1.23063e-12
  234 2723.02 0.00000 -4.28701e-12
  235 2723.02 0.00000 5.21485e-12
  236 2723.02 0.00000 1.91806e-11
  237 2723.02 0.00000 -6.30263e-12
  238 2723.02 0.00000 -1.46715e-12
  239 2723.02 0.00000 1.75777e-12
  240 2723.02 0.00000 1.59925e-12
  241 2723.02 0.00000 -8.14152e-12
</Section>

newXOutput 79

<Section columns = "stress_xx | stress_yy | stress_xy">
  1 2772.84 0.00000 -1.26586e-11
  2 2772.84 0.00000 7.52598e-12
  3 2772.84 0.00000 2.03559e-12
  4 2772.84 0.00000 1.32089e-11
  5 2772.84 0.00000 -2.12803e-11
  6 2772.84 0.00000 -3.12221e-11
  7 2772.84 0.00000 -3.31192e-11
  8 2772.84 0.00000 -2.58529e-11
  9 2772.84 0.00000 -1.79201e-11
  10 2772.84 0.00000 -9.53821e-12
  11 2772.84 0.00000 -6.53624e-12
  12 2772.84 0.00000 -2.42267e-12
  13 2772.84 0.00000 1.81574e-12
  14 2772.84 0.00000 7.56498e-12
  15 2772.84 0.00000 8.53935e-12
  16 2772.84 0.00000 7.95130e-12
  17 2772.84 0.00000 9.32248e-12
  18 2772.84 0.00000 7.48008e-12
  19 2772.84 0.00000 -2.40375e-12
  20 2772.84 0.00000 -6.17409e-12
  21 2772.84 0.00000 -4.48067e-12
  22 2772.84 0.00000 8.94407e-13
  23 2772.84 0.00000 4.76141e-12
  24 2772.84 0.00000 1.41539e-12
  25 2772.84 0.00000 -2.51693e-12
  26 2772.84 0.00000 -4.73763e-12
  27 2772.84 0.00000 -4.97040e-12
  28 2772.84 0.00000 -3.36193e-12
  29 2772.84 0.00000 -1.15544e-12
  30 2772.84 0.00000 -1.28570e-12
  31 2772.84 0.00000 7.37740e-12
  32 2772.84 0.00000 4.42389e-12
  33 2772.84 0.00000 2.79298e-12
  34 2772.84 0.00000 -6.62012e-13
  35 2772.84 0.00000 -3.65254e-12
  36 2772.84 0.00000 -2.64433e-12
  37 2772.84 0.00000 -5.38995e-12
  38 2772.84 0.00000 -1.44613e-11
  39 2772.84 0.00000 -1.51505e-11
  40 2772.84 0.00000 -7.10922e-12
  41 2772.84 0.00000 -3.84681e-12
  42 2772.84 0.00000 2.56957e-12
  43 2772.84 0.00000 9.90731e-12
  44 2772.84 0.00000 1.55036e-11
  45 2772.84 0.00000 1.85454e-11
  46 2772.84 0.00000 2.42983e-11
  47 2772.84 0.00000 3.07232e-11
  48 2772.84 0.00000 3.02443e-11
  49 2772.84 0.00000 1.88502e-11
  50 2772.84 0.00000 8.28207e-12
  51 2772.84 0.00000 4.91406e-12
  52 2772.84 0.00000 2.64861e-12
  53 2772.84 0.00000 -2.31543e-12
  54 2772.84 0.00000 -5.75666e-12
  55 2772.84 0.00000 -6.81261e-12
  56 2772.84 0.00000 -8.48598e-12
  57 2772.84 0.00000 -1.25532e-12
  58 2772.84 0.00000 8.00845e-12
  59 2772.84 0.00000 1.24605e-12
  60 2772.84 0.00000 -6.94160e-12
  61 2772.84 0.00000 -1.39116e-12
  62 2772.84 0.00000 7.16881e-12
  63 2772.84 0.00000 -1.05727e-12
  64 2772.84 0.00000 1.47019e-12
  65 2772.84 0.00000 1.13597e-11
  66 2772.84 0.00000 -1.30259e-11
  67 2772.84 0.00000 3.02152e-12
  68 2772.84 0.00000 5.20508e-12
  69 2772.84 0.00000 -3.37201e-12
  70 2772.84 0.00000 -8.27093e-12
  71 2772.84 0.00000 -1.01990e-11
  72 2772.84 0.00000 4.56229e-12
  73 2772.84 0.00000 3.93699e-12
  74 2772.84 0.00000 1.32028e-11
  75 2772.84 0.00000 2.37989e-12
  76 2772.84 0.00000 -3.95333e-12
  77 2772.84 0.00000 1.05949e-12
  78 2772.84 0.00000 -6.82323e-13
  79 2772.84 0.00000 4.48166e-12
  80 2772.84 0.00000 1.45575e-12
  81 2772.84 0.00000 -7.00963e-12
  82 2772.84 0.00000 -7.82259e-12
  83 2772.84 0.00000 -2.55933e-12
  84 2772.84 0.00000 -2.20196e-11
  85 2772.84 0.00000 5.68887e-12
  86 2772.84 0.00000 2.03869e-12
  87 2772.84 0.00000 2.00034e-11
  88 2772.84 0.00000 -1.11429e-12
  89 2772.84 0.00000 -1.93737e-11
  90 2772.84 0.00000 -6.88144e-12
  91 2772.84 0.00000 8.99557e-12
  92 2772.84 0.00000 5.59000e-13
  93 2772.84 0.00000 1.67910e-12
  94 2772.84 0.00000 2.54421e-12
  95 2772.84 0.00000 5.74183e-12
  96 2772.84 0.00000 -4.95842e-12
  97 2772.84 0.00000 -3.70490e-12
  98 2772.84 0.00000 2.26028e-11
  99 2772.84 0.00000 9.98491e-12
  100 2772.84 0.00000 -9.87602e-12
  101 2772.84 0.00000 -1.08298e-12
  102 2772.84 0.00000 4.08272e-12
  103 2772.84 0.00000 9.49986e-12
  104 2772.84 0.00000 1.57531e-12
  105 2772.84 0.00000 -5.56090e-12
  106 2772.84 0.00000 4.38028e-12
  107 2772.84 0.00000 -1.80417e-12
  108 2772.84 0.00000 6.59587e-12
  109 2772.84 0.00000 -9.93786e-12
  110 2772.84 0.00000 -5.67678e-12
  111 2772.84 0.00000 3.56404e-12
  112 2772.84 0.00000 -2.96372e-12
  113 2772.84 0.00000 -1.15815e-11
  114 2772.84 0.00000 -7.67576e-12
  115 2772.84 0.00000 3.59937e-12
  116 2772.84 0.00000 -2.89139e-11
  117 2772.84 0.00000 2.86176e-12
  118 2772.84 0.00000 1.05092e-11
  119 2772.84 0.00000 9.31778e-12
  120 2772.84 0.00000 -1.07192e-12
  121 2772.84 0.00000 -5.79942e-12
  122 2772.84 0.00000 -4.76007e-12
  123 2772.84 0.00000 -1.00096e-11
  124 2772.84 0.00000 2.49481e-12
  125 2772.84 0.00000 6.03839e-12
  126 2772.84 0.00000 -1.84669e-11
  127 2772.84 0.00000 1.68953e-12
  128 2772.84 0.00000 -2.31764e-12
  129 2772.84 0.00000 1.81942e-11
  130 2772.84 0.00000 -2.91668e-12
  131 2772.84 0.00000 2.83335e-12
  132 2772.84 0.00000 -6.14151e-13
  133 2772.84 0.00000 5.84943e-12
  134 2772.84 0.00000 -7.18551e-12
  135 2772.84 0.00000 -1.14865e-12
  136 2772.84 0.00000 2.79231e-11
  137 2772.84 0.00000 5.30703e-12
  138 2772.84 0.00000 2.86230e-12
  139 2772.84 0.00000 -4.07967e-12
  140 2772.84 0.00000 1.55682e-12
  141 2772.84 0.00000 9.44705e-13
  142 2772.84 0.00000 -1.12669e-11
  143 2772.84 0.00000 4.90106e-12
  144 2772.84 0.00000 -7.74842e-12
  145 2772.84 0.00000 1.33832e-12
  146 2772.84 0.00000 9.72307e-12
  147 2772.84 0.00000 -9.90992e-12
  148 2772.84 0.00000 -4.47453e-12
  149 2772.84 0.00000 -6.97580e-12
  150 2772.84 0.00000 5.91578e-12
  151 2772.84 0.00000 2.83936e-13
  152 2772.84 0.00000 7.34003e-12
  153 2772.84 0.00000 9.26629e-13
  154 2772.84 0.00000 1.80203e-12
  155 2772.84 0.00000 -8.15745e-12
  156 2772.84 0.00000 2.72165e-14
  157 2772.84 0.00000 6.49367e-12
  158 2772.84 0.00000 -9.63459e-12
  159 2772.84 0.00000 -5.59419e-12
  160 2772.84 0.00000 -8.10736e-13
  161 2772.84 0.00000 -3.84096e-12
  162 2772.84 0.00000 3.84352e-12
  163 2772.84 0.00000 -4.47445e-12
  164 2772.84 0.00000 1.57546e-12
  165 2772.84 0.00000 -1.39965e-11
  166 2772.84 0.00000 9.19289e-12
  167 2772.84 0.00000 -1.78598e-12
  168 2772.84 0.00000 -2.03664e-12
  169 2772.84 0.00000 -1.10408e-11
  170 2772.84 0.00000 5.26397e-12
  171 2772.84 0.00000 -5.17050e-12
  172 2772.84 0.00000 8.16453e-12
  173 2772.84 0.00000 1.42935e-11
  174 2772.84 0.00000 4.69267e-12
  175 2772.84 0.00000 1.48266e-11
  176 2772.84 0.00000 -1.62951e-11
  177 2772.84 0.00000 -9.89552e-14
  178 2772.84 0.00000 -2.48375e-12
  179 2772.84 0.00000 -2.57475e-11
  180 2772.84 0.00000 -3.07357e-12
  181 2772.84 0.00000 2.38479e-12
  182 2772.84 0.00000 -9.75165e-12
  183 2772.84 0.00000 8.71501e-12
  184 2772.84 0.00000 7.35812e-12
  185 2772.84 0.00000 -1.74916e-11
  186 2772.84 0.00000 1.02553e-11
  187 2772.84 0.00000 3.28971e-12
  188 2772.84 0.00000 4.28010e-12
  189 2772.84 0.00000 -2.54842e-12
  190 2772.84 0.00000 8.89782e-12
  191 2772.84 0.00000 1.93638e-12
  192 2772.84 0.00000 2.53694e-12
  193 2772.84 0.00000 -5.66656e-12
  194 2772.84 0.00000 5.17069e-13
  195 2772.84 0.00000 1.32106e-11
  196 2772.84 0.00000 -2.30483e-12
  197 2772.84 0.00000 -1.45954e-11
  198 2772.84 0.00000 2.35875e-12
  199 2772.84 0.00000 3.21207e-12
  200 2772.84 0.00000 6.67561e-12
  201 2772.84 0.00000 -2.68415e-12
  202 2772.84 0.00000 -7.87466e-12
  203 2772.84 0.00000 -3.82321e-12
  204 2772.84 0.00000 7.27859e-12
  205 2772.84 0.00000 -5.32680e-12
  206 2772.84 0.00000 -3.63465e-12
  207 2772.84 0.00000 2.51287e-11
  208 2772.84 0.00000 -1.93676e-12
  209 2772.84 0.00000 -2.28867e-12
  210 2772.84 0.00000 1.98288e-11
  211 2772.84 0.00000 -2.85709e-11
  212 2772.84 0.00000 4.47708e-12
  213 2772.84 0.00000 2.37394e-11
  214 2772.84 0.00000 5.71157e-12
  215 2772.84 0.00000 1.00069e-11
  216 2772.84 0.00000 6.00726e-12
  217 2772.84 0.00000 -1.35284e-12
  218 2772.84 0.00000 1.70284e-11
  219 2772.84 0.00000 7.10099e-12
  220 2772.84 0.00000 5.82731e-12
  221 2772.84 0.00000 4.72862e-12
  222 2772.84 0.00000 4.73711e-12
  223 2772.84 0.00000 -7.55804e-12
  224 2772.84 0.00000 -1.16270e-11
  225 2772.84 0.00000 3.54306e-12
  226 2772.84 0.00000 -1.17965e-11
  227 2772.84 0.00000 6.02704e-12
  228 2772.84 0.00000 3.23775e-12
  229 2772.84 0.00000 -7.08701e-12
  230 2772.84 0.00000 -4.17411e-12
  231 2772.84 0.00000 -8.04359e-13
  232 2772.84 0.00000 6.64553e-12
  233 2772.84 0.00000 1.44401e-12
  234 2772.84 0.00000 3.22211e-12
  235 2772.84 0.00000 -6.01693e-12
  236 2772.84 0.00000 -2.17472e-11
  237 2772.84 0.00000 8.00686e-12
  238 2772.84 0.00000 7.39099e-13
  239 2772.84 0.00000 -2.23703e-12
  240 2772.84 0.00000 -2.07102e-12
  241 2772.84 0.00000 8.72892e-12
</Section>

newXOutput 80

<Section columns = "stress_xx | stress_yy | stress_xy">
  1 2822.83 0.00000 1.45679e-11
  2 2822.83 0.00000 -9.92834e-12
  3 2822.83 0.00000 -2.57433e-13
  4 2822.83 0.00000 -1.47537e-11
  5 2822.83 0.00000 2.38530e-11
  6 2822.83 0.00000 3.57082e-11
  7 2822.83 0.00000 3.85933e-11
  8 2822.83 0.00000 3.02678e-11
  9 2822.83 0.00000 2.12500e-11
  10 2822.83 0.00000 1.34686e-11
  11 2822.83 0.00000 9.25803e-12
  12 2822.83 0.00000 3.15567e-12
  13 2822.83 0.00000 -3.16907e-12
  14 2822.83 0.00000 -8.89520e-12
  15 2822.83 0.00000 -1.09335e-11
  16 2822.83 0.00000 -1.16810e-11
  17 2822.83 0.00000 -1.17405e-11
  18 2822.83 0.00000 -7.79220e-12
  19 2822.83 0.00000 3.22901e-12
  20 2822.83 0.00000 7.12141e-12
  21 2822.83 0.00000 3.59463e-12
  22 2822.83 0.00000 -3.22791e-12
  23 2822.83 0.00000 -8.84936e-12
  24 2822.83 0.00000 -1.42423e-12
  25 2822.83 0.00000 3.29620e-12
  26 2822.83 0.00000 5.72656e-12
  27 2822.83 0.00000 4.30499e-12
  28 2822.83 0.00000 3.50353e-12
  29 2822.83 0.00000 1.61123e-12
  30 2822.83 0.00000 -1.16565e-13
  31 2822.83 0.00000 -6.78437e-12
  32 2822.83 0.00000 -7.05311e-12
  33 2822.83 0.00000 -3.11794e-12
  34 2822.83 0.00000 2.48057e-13
  35 2822.83 0.00000 4.28648e-12
  36 2822.83 0.00000 4.12279e-12
  37 2822.83 0.00000 5.59859e-12
  38 2822.83 0.00000 1.52853e-11
  39 2822.83 0.00000 1.56558e-11
  40 2822.83 0.00000 7.10633e-12
  41 2822.83 0.00000 4.45465e-12
  42 2822.83 0.00000 -3.52782e-12
  43 2822.83 0.00000 -1.07534e-11
  44 2822.83 0.00000 -1.75384e-11
  45 2822.83 0.00000 -2.29504e-11
  46 2822.83 0.00000 -2.87232e-11
  47 2822.83 0.00000 -3.58752e-11
  48 2822.83 0.00000 -3.44460e-11
  49 2822.83 0.00000 -2.10416e-11
  50 2822.83 0.00000 -9.41727e-12
  51 2822.83 0.00000 -5.60916e-12
  52 2822.83 0.00000 -3.13251e-12
  53 2822.83 0.00000 2.39374e-12
  54 2822.83 0.00000 6.04672e-12
  55 2822.83 0.00000 7.56591e-12
  56 2822.83 0.00000 9.70617e-12
  57 2822.83 0.00000 1.20730e-12
  58 2822.83 0.00000 -9.37009e-12
  59 2822.83 0.00000 -2.45005e-13
  60 2822.83 0.00000 8.54809e-12
  61 2822.83 0.00000 2.50697e-12
  62 2822.83 0.00000 -7.64429e-12
  63 2822.83 0.00000 1.15285e-12
  64 2822.83 0.00000 7.13130e-14
  65 2822.83 0.00000 -1.27402e-11
  66 2822.83 0.00000 1.48857e-11
  67 2822.83 0.00000 -1.81554e-12
  68 2822.83 0.00000 -5.67202e-12
  69 2822.83 0.00000 3.38955e-12
  70 2822.83 0.00000 9.13298e-12
  71 2822.83 0.00000 1.24105e-11
  72 2822.83 0.00000 -5.31596e-12
  73 2822.83 0.00000 -4.46868e-12
  74 2822.83 0.00000 -1.55644e-11
  75 2822.83 0.00000 -1.77070e-12
  76 2822.83 0.00000 3.59436e-12
  77 2822.83 0.00000 -1.54851e-12
  78 2822.83 0.00000 3.17574e-13
  79 2822.83 0.00000 -5.39481e-12
  80 2822.83 0.00000 -5.52915e-13
  81 2822.83 0.00000 6.67311e-12
  82 2822.83 0.00000 9.90923e-12
  83 2822.83 0.00000 2.00057e-12
  84 2822.83 0.00000 2.60859e-11
  85 2822.83 0.00000 -6.73888e-12
  86 2822.83 0.00000 -9.94042e-13
  87 2822.83 0.00000 -2.29904e-11
  88 2822.83 0.00000 -1.75279e-12
  89 2822.83 0.00000 2.27071e-11
  90 2822.83 0.00000 7.85869e-12
  91 2822.83 0.00000 -1.16616e-11
  92 2822.83 0.00000 -6.97199e-13
  93 2822.83 0.00000 -5.54188e-13
  94 2822.83 0.00000 -3.58084e-12
  95 2822.83 0.00000 -7.99633e-12
  96 2822.83 0.00000 4.88713e-12
  97 2822.83 0.00000 3.31742e-12
  98 2822.83 0.00000 -2.64547e-11
  99 2822.83 0.00000 -1.10957e-11
  100 2822.83 0.00000 1.14468e-11
  101 2822.83 0.00000 1.26199e-12
  102 2822.83 0.00000 -4.72551e-12
  103 2822.83 0.00000 -8.85392e-12
  104 2822.83 0.00000 -2.62308e-12
  105 2822.83 0.00000 6.77830e-12
  106 2822.83 0.00000 -5.25817e-12
  107 2822.83 0.00000 3.47586e-12
  108 2822.83 0.00000 -7.80148e-12
  109 2822.83 0.00000 1.08275e-11
  110 2822.83 0.00000 8.77039e-12
  111 2822.83 0.00000 -4.24768e-12
  112 2822.83 0.00000 2.91378e-12
  113 2822.83 0.00000 1.32914e-11
  114 2822.83 0.00000 8.76076e-12
  115 2822.83 0.00000 -3.30347e-12
  116 2822.83 0.00000 3.34587e-11
  117 2822.83 0.00000 -2.32772e-12
  118 2822.83 0.00000 -1.18012e-11
  119 2822.83 0.00000 -9.22224e-12
  120 2822.83 0.00000 6.42151e-13
  121 2822.83 0.00000 6.69710e-12
  122 2822.83 0.00000 6.10198e-12
  123 2822.83 0.00000 1.11085e-11
  124 2822.83 0.00000 -2.76323e-12
  125 2822.83 0.00000 -6.41223e-12
  126 2822.83 0.00000 2.13703e-11
  127 2822.83 0.00000 -2.16528e-12
  128 2822.83 0.00000 2.62728e-12
  129 2822.83 0.00000 -2.21020e-11
  130 2822.83 0.00000 4.36240e-12
  131 2822.83 0.00000 -3.34774e-12
  132 2822.83 0.00000 2.04173e-13
  133 2822.83 0.00000 -7.35315e-12
  134 2822.83 0.00000 9.59556e-12
  135 2822.83 0.00000 1.78287e-12
  136 2822.83 0.00000 -3.19536e-11
  137 2822.83 0.00000 -4.94551e-12
  138 2822.83 0.00000 -3.82927e-12
  139 2822.83 0.00000 4.68068e-12
  140 2822.83 0.00000 -2.10144e-12
  141 2822.83 0.00000 -1.32246e-12
  142 2822.83 0.00000 1.39810e-11
  143 2822.83 0.00000 -5.68660e-12
  144 2822.83 0.00000 1.02638e-11
  145 2822.83 0.00000 6.47862e-14
  146 2822.83 0.00000 -1.20865e-11
  147 2822.83 0.00000 1.01789e-11
  148 2822.83 0.00000 4.75567e-12
  149 2822.83 0.00000 7.06321e-12
  150 2822.83 0.00000 -6.13861e-12
  151 2822.83 0.00000 5.46855e-13
  152 2822.83 0.00000 -7.80677e-12
  153 2822.83 0.00000 -8.48720e-13
  154 2822.83 0.00000 -9.95906e-13
  155 2822.83 0.00000 1.00254e-11
  156 2822.83 0.00000 1.91097e-12
  157 2822.83 0.00000 -7.45213e-12
  158 2822.83 0.00000 9.04338e-12
  159 2822.83 0.00000 5.80043e-12
  160 2822.83 0.00000 5.77994e-13
  161 2822.83 0.00000 5.49065e-12
  162 2822.83 0.00000 -4.94672e-12
  163 2822.83 0.00000 4.39239e-12
  164 2822.83 0.00000 -1.93218e-12
  165 2822.83 0.00000 1.63965e-11
  166 2822.83 0.00000 -1.05891e-11
  167 2822.83 0.00000 3.05995e-12
  168 2822.83 0.00000 1.83796e-12
  169 2822.83 0.00000 1.26960e-11
  170 2822.83 0.00000 -5.74292e-12
  171 2822.83 0.00000 5.65723e-12
  172 2822.83 0.00000 -9.54325e-12
  173 2822.83 0.00000 -1.78958e-11
  174 2822.83 0.00000 -5.34009e-12
  175 2822.83 0.00000 -1.70051e-11
  176 2822.83 0.00000 1.90108e-11
  177 2822.83 0.00000 -1.31175e-12
  178 2822.83 0.00000 2.37140e-12
  179 2822.83 0.00000 3.03920e-11
  180 2822.83 0.00000 4.12050e-12
  181 2822.83 0.00000 -4.32557e-12
  182 2822.83 0.00000 1.17949e-11
  183 2822.83 0.00000 -1.05918e-11
  184 2822.83 0.00000 -1.02079e-11
  185 2822.83 0.00000 2.03208e-11
  186 2822.83 0.00000 -1.14112e-11
  187 2822.83 0.00000 -4.83236e-12
  188 2822.83 0.00000 -4.15602e-12
  189 2822.83 0.00000 4.01262e-12
  190 2822.83 0.00000 -1.12726e-11
  191 2822.83 0.00000 -2.50027e-12
  192 2822.83 0.00000 -3.43794e-12
  193 2822.83 0.00000 6.27752e-12
  194 2822.83 0.00000 2.34225e-13
  195 2822.83 0.00000 -1.51496e-11
  196 2822.83 0.00000 3.62301e-12
  197 2822.83 0.00000 1.62913e-11
  198 2822.83 0.00000 -2.12101e-12
  199 2822.83 0.00000 -3.80074e-12
  200 2822.83 0.00000 -6.70020e-12
  201 2822.83 0.00000 3.02562e-12
  202 2822.83 0.00000 9.21564e-12
  203 2822.83 0.00000 4.80498e-12
  204 2822.83 0.00000 -9.56267e-12
  205 2822.83 0.00000 6.42010e-12
  206 2822.83 0.00000 4.84053e-12
  207 2822.83 0.00000 -2.94477e-11
  208 2822.83 0.00000 1.95236e-12
  209 2822.83 0.00000 1.31004e-14
  210 2822.83 0.00000 -2.33885e-11
  211 2822.83 0.00000 3.29376e-11
  212 2822.83 0.00000 -5.44102e-12
  213 2822.83 0.00000 -2.70883e-11
  214 2822.83 0.00000 -7.21032e-12
  215 2822.83 0.00000 -1.04910e-11
  216 2822.83 0.00000 -6.96226e-12
  217 2822.83 0.00000 -2.62405e-13
  218 2822.83 0.00000 -2.01635e-11
  219 2822.83 0.00000 -5.94160e-12
  220 2822.83 0.00000 -7.39506e-12
  221 2822.83 0.00000 -5.18192e-12
  222 2822.83 0.00000 -4.24776e-12
  223 2822.83 0.00000 9.89916e-12
  224 2822.83 0.00000 1.34749e-11
  225 2822.83 0.00000 -4.59757e-12
  226 2822.83 0.00000 1.36683e-11
  227 2822.83 0.00000 -7.15501e-12
  228 2822.83 0.00000 -3.15143e-12
  229 2822.83 0.00000 8.26067e-12
  230 2822.83 0.00000 4.83562e-12
  231 2822.83 0.00000 1.83186e-13
  232 2822.83 0.00000 -7.40238e-12
  233 2822.83 0.00000 -2.49052e-13
  234 2822.83 0.00000 -4.69101e-12
  235 2822.83 0.00000 6.73544e-12
  236 2822.83 0.00000 2.52821e-11
  237 2822.83 0.00000 -9.71209e-12
  238 2822.83 0.00000 -1.12146e-12
  239 2822.83 0.00000 1.66049e-12
  240 2822.83 0.00000 1.64497e-12
  241 2822.83 0.00000 -1.05828e-11
</Section>

newXOutput 81

<Section columns = "stress_xx | stress_yy | stress_xy">
  1 2872.99 0.00000 -1.61865e-11
  2 2872.99 0.00000 8.14048e-12
  3 2872.99 0.00000 6.22007e-13
  4 2872.99 0.00000 1.62081e-11
  5 2872.99 0.00000 -2.69101e-11
  6 2872.99 0.00000 -4.04582e-11
  7 2872.99 0.00000 -4.36765e-11
  8 2872.99 0.00000 -3.49892e-11
  9 2872.99 0.00000 -2.54770e-11
  10 2872.99 0.00000 -1.60572e-11
  11 2872.99 0.00000 -1.06762e-11
  12 2872.99 0.00000 -3.69165e-12
  13 2872.99 0.00000 4.62087e-12
  14 2872.99 0.00000 1.06050e-11
  15 2872.99 0.00000 1.24160e-11
  16 2872.99 0.00000 1.42212e-11
  17 2872.99 0.00000 1.41680e-11
  18 2872.99 0.00000 9.58027e-12
  19 2872.99 0.00000 -4.62318e-12
  20 2872.99 0.00000 -8.41308e-12
  21 2872.99 0.00000 -4.20773e-12
  22 2872.99 0.00000 2.31665e-12
  23 2872.99 0.00000 8.42572e-12
  24 2872.99 0.00000 1.03967e-12
  25 2872.99 0.00000 -3.43303e-12
  26 2872.99 0.00000 -5.89182e-12
  27 2872.99 0.00000 -5.41568e-12
  28 2872.99 0.00000 -5.47021e-12
  29 2872.99 0.00000 -1.74338e-12
  30 2872.99 0.00000 8.33291e-14
  31 2872.99 0.00000 6.96858e-12
  32 2872.99 0.00000 6.62839e-12
  33 2872.99 0.00000 2.63260e-12
  34 2872.99 0.00000 -7.88012e-13
  35 2872.99 0.00000 -3.13165e-12
  36 2872.99 0.00000 -3.97928e-12
  37 2872.99 0.00000 -6.28117e-12
  38 2872.99 0.00000 -1.68894e-11
  39 2872.99 0.00000 -1.78183e-11
  40 2872.99 0.00000 -9.76971e-12
  41 2872.99 0.00000 -5.74762e-12
  42 2872.99 0.00000 3.55473e-12
  43 2872.99 0.00000 1.20369e-11
  44 2872.99 0.00000 2.19074e-11
  45 2872.99 0.00000 2.81416e-11
  46 2872.99 0.00000 3.26964e-11
  47 2872.99 0.00000 4.06744e-11
  48 2872.99 0.00000 3.92883e-11
  49 2872.99 0.00000 2.40739e-11
  50 2872.99 0.00000 1.08221e-11
  51 2872.99 0.00000 6.49575e-12
  52 2872.99 0.00000 3.80713e-12
  53 2872.99 0.00000 -2.29706e-12
  54 2872.99 0.00000 -6.73928e-12
  55 2872.99 0.00000 -8.09464e-12
  56 2872.99 0.00000 -1.11771e-11
  57 2872.99 0.00000 -2.10230e-12
  58 2872.99 0.00000 9.93689e-12
  59 2872.99 0.00000 8.78418e-13
  60 2872.99 0.00000 -9.44407e-12
  61 2872.99 0.00000 -2.95075e-12
  62 2872.99 0.00000 9.64804e-12
  63 2872.99 0.00000 -1.80261e-12
  64 2872.99 0.00000 -1.80809e-12
  65 2872.99 0.00000 1.47605e-11
  66 2872.99 0.00000 -1.61007e-11
  67 2872.99 0.00000 3.13229e-12
  68 2872.99 0.00000 5.43691e-12
  69 2872.99 0.00000 -3.82505e-12
  70 2872.99 0.00000 -1.03273e-11
  71 2872.99 0.00000 -1.43921e-11
  72 2872.99 0.00000 5.65392e-12
  73 2872.99 0.00000 5.52148e-12
  74 2872.99 0.00000 1.79571e-11
  75 2872.99 0.00000 2.16953e-12
  76 2872.99 0.00000 -4.93985e-12
  77 2872.99 0.00000 1.73334e-12
  78 2872.99 0.00000 2.62694e-12
  79 2872.99 0.00000 6.34643e-12
  80 2872.99 0.00000 1.11495e-13
  81 2872.99 0.00000 -8.37037e-12
  82 2872.99 0.00000 -1.12952e-11
  83 2872.99 0.00000 -2.84301e-12
  84 2872.99 0.00000 -2.98089e-11
  85 2872.99 0.00000 9.26669e-12
  86 2872.99 0.00000 6.63362e-13
  87 2872.99 0.00000 2.60385e-11
  88 2872.99 0.00000 1.40180e-12
  89 2872.99 0.00000 -2.54105e-11
  90 2872.99 0.00000 -1.02108e-11
  91 2872.99 0.00000 1.36679e-11
  92 2872.99 0.00000 8.82918e-13
  93 2872.99 0.00000 2.43755e-12
  94 2872.99 0.00000 4.89681e-12
  95 2872.99 0.00000 1.00505e-11
  96 2872.99 0.00000 -4.74305e-12
  97 2872.99 0.00000 -3.64670e-12
  98 2872.99 0.00000 3.06940e-11
  99 2872.99 0.00000 1.31679e-11
  100 2872.99 0.00000 -1.23330e-11
  101 2872.99 0.00000 -1.82466e-12
  102 2872.99 0.00000 5.43056e-12
  103 2872.99 0.00000 8.26858e-12
  104 2872.99 0.00000 3.97699e-12
  105 2872.99 0.00000 -7.69659e-12
  106 2872.99 0.00000 6.77588e-12
  107 2872.99 0.00000 -4.29645e-12
  108 2872.99 0.00000 8.84301e-12
  109 2872.99 0.00000 -1.20375e-11
  110 2872.99 0.00000 -9.03943e-12
  111 2872.99 0.00000 5.46282e-12
  112 2872.99 0.00000 -3.34047e-12
  113 2872.99 0.00000 -1.48908e-11
  114 2872.99 0.00000 -1.00307e-11
  115 2872.99 0.00000 4.37154e-12
  116 2872.99 0.00000 -3.79852e-11
  117 2872.99 0.00000 3.06604e-12
  118 2872.99 0.00000 1.35660e-11
  119 2872.99 0.00000 1.01169e-11
  120 2872.99 0.00000 4.88954e-13
  121 2872.99 0.00000 -8.01523e-12
  122 2872.99 0.00000 -7.27506e-12
  123 2872.99 0.00000 -1.21716e-11
  124 2872.99 0.00000 3.31203e-12
  125 2872.99 0.00000 7.81037e-12
  126 2872.99 0.00000 -2.53828e-11
  127 2872.99 0.00000 3.30287e-12
  128 2872.99 0.00000 -3.21535e-12
  129 2872.99 0.00000 2.58188e-11
  130 2872.99 0.00000 -3.85901e-12
  131 2872.99 0.00000 4.17552e-12
  132 2872.99 0.00000 -1.61858e-13
  133 2872.99 0.00000 9.69056e-12
  134 2872.99 0.00000 -1.03521e-11
  135 2872.99 0.00000 -1.94235e-12
  136 2872.99 0.00000 3.65186e-11
  137 2872.99 0.00000 6.70888e-12
  138 2872.99 0.00000 4.26106e-12
  139 2872.99 0.00000 -5.43597e-12
  140 2872.99 0.00000 1.65771e-12
  141 2872.99 0.00000 6.60398e-13
  142 2872.99 0.00000 -1.71928e-11
  143 2872.99 0.00000 6.34839e-12
  144 2872.99 0.00000 -1.14391e-11
  145 2872.99 0.00000 1.03767e-12
  146 2872.99 0.00000 1.39368e-11
  147 2872.99 0.00000 -1.23882e-11
  148 2872.99 0.00000 -5.15117e-12
  149 2872.99 0.00000 -8.26781e-12
  150 2872.99 0.00000 7.66230e-12
  151 2872.99 0.00000 -4.13709e-13
  152 2872.99 0.00000 9.41216e-12
  153 2872.99 0.00000 1.47999e-13
  154 2872.99 0.00000 1.21953e-12
  155 2872.99 0.00000 -9.43446e-12
  156 2872.99 0.00000 -2.11611e-12
  157 2872.99 0.00000 8.29663e-12
  158 2872.99 0.00000 -1.14886e-11
  159 2872.99 0.00000 -6.60599e-12
  160 2872.99 0.00000 -4.25980e-13
  161 2872.99 0.00000 -6.21047e-12
  162 2872.99 0.00000 5.56962e-12
  163 2872.99 0.00000 -6.05100e-12
  164 2872.99 0.00000 3.03882e-12
  165 2872.99 0.00000 -1.84529e-11
  166 2872.99 0.00000 1.20194e-11
  167 2872.99 0.00000 -2.93240e-12
  168 2872.99 0.00000 -1.43573e-12
  169 2872.99 0.00000 -1.39553e-11
  170 2872.99 0.00000 8.36354e-12
  171 2872.99 0.00000 -7.03242e-12
  172 2872.99 0.00000 1.16764e-11
  173 2872.99 0.00000 2.13121e-11
  174 2872.99 0.00000 5.40700e-12
  175 2872.99 0.00000 1.92806e-11
  176 2872.99 0.00000 -2.15880e-11
  177 2872.99 0.00000 1.39630e-12
  178 2872.99 0.00000 -2.77437e-12
  179 2872.99 0.00000 -3.48691e-11
  180 2872.99 0.00000 -5.22024e-12
  181 2872.99 0.00000 4.07134e-12
  182 2872.99 0.00000 -1.31303e-11
  183 2872.99 0.00000 1.31040e-11
  184 2872.99 0.00000 1.34315e-11
  185 2872.99 0.00000 -2.17017e-11
  186 2872.99 0.00000 1.31054e-11
  187 2872.99 0.00000 4.77199e-12
  188 2872.99 0.00000 5.06506e-12
  189 2872.99 0.00000 -5.06171e-12
  190 2872.99 0.00000 1.36634e-11
  191 2872.99 0.00000 3.32707e-12
  192 2872.99 0.00000 3.36074e-12
  193 2872.99 0.00000 -7.46374e-12
  194 2872.99 0.00000 -1.24581e-12
  195 2872.99 0.00000 1.71785e-11
  196 2872.99 0.00000 -3.65434e-12
  197 2872.99 0.00000 -1.79231e-11
  198 2872.99 0.00000 2.78062e-12
  199 2872.99 0.00000 4.55333e-12
  200 2872.99 0.00000 6.42789e-12
  201 2872.99 0.00000 -3.99820e-12
  202 2872.99 0.00000 -1.13386e-11
  203 2872.99 0.00000 -5.68968e-12
  204 2872.99 0.00000 1.10839e-11
  205 2872.99 0.00000 -7.74796e-12
  206 2872.99 0.00000 -4.90808e-12
  207 2872.99 0.00000 3.38884e-11
  208 2872.99 0.00000 -4.16345e-13
  209 2872.99 0.00000 -1.94085e-12
  210 2872.99 0.00000 2.68946e-11
  211 2872.99 0.00000 -3.73630e-11
  212 2872.99 0.00000 6.28664e-12
  213 2872.99 0.00000 3.06516e-11
  214 2872.99 0.00000 8.22025e-12
  215 2872.99 0.00000 1.08322e-11
  216 2872.99 0.00000 9.86489e-12
  217 2872.99 0.00000 -7.15969e-13
  218 2872.99 0.00000 2.33829e-11
  219 2872.99 0.00000 7.72123e-12
  220 2872.99 0.00000 9.95778e-12
  221 2872.99 0.00000 5.07670e-12
  222 2872.99 0.00000 6.07182e-12
  223 2872.99 0.00000 -1.26113e-11
  224 2872.99 0.00000 -1.61884e-11
  225 2872.99 0.00000 5.65838e-12
  226 2872.99 0.00000 -1.44403e-11
  227 2872.99 0.00000 8.26274e-12
  228 2872.99 0.00000 3.62027e-12
  229 2872.99 0.00000 -8.85900e-12
  230 2872.99 0.00000 -5.05893e-12
  231 2872.99 0.00000 -3.62083e-14
  232 2872.99 0.00000 8.92899e-12
  233 2872.99 0.00000 1.01239e-14
  234 2872.99 0.00000 5.85740e-12
  235 2872.99 0.00000 -8.13660e-12
  236 2872.99 0.00000 -2.84594e-11
  237 2872.99 0.00000 1.08953e-11
  238 2872.99 0.00000 1.31685e-12
  239 2872.99 0.00000 -2.17973e-12
  240 2872.99 0.00000 -1.00232e-12
  241 2872.99 0.00000 1.21275e-11
</Section>

newXOutput 82

<Section columns = "stress_xx | stress_yy | stress_xy">
  1 2923.33 0.00000 1.94294e-11
  2 2923.33 0.00000 -7.54214e-12
  3 2923.33 0.00000 -6.86901e-13
  4 2923.33 0.00000 -1.88697e-11
  5 2923.33 0.00000 3.13722e-11
  6 2923.33 0.00000 4.51822e-11
  7 2923.33 0.00000 5.00559e-11
  8 2923.33 0.00000 4.16507e-11
  9 2923.33 0.00000 3.04663e-11
  10 2923.33 0.00000 1.93510e-11
  11 2923.33 0.00000 1.23189e-11
  12 2923.33 0.00000 4.72134e-12
  13 2923.33 0.00000 -5.32401e-12
  14 2923.33 0.00000 -1.16234e-11
  15 2923.33 0.00000 -1.57835e-11
  16 2923.33 0.00000 -1.89072e-11
  17 2923.33 0.00000 -1.93232e-11
  18 2923.33 0.00000 -1.23849e-11
  19 2923.33 0.00000 2.46228e-12
  20 2923.33 0.00000 7.57272e-12
  21 2923.33 0.00000 5.91979e-12
  22 2923.33 0.00000 -1.34373e-12
  23 2923.33 0.00000 -7.44268e-12
  24 2923.33 0.00000 -9.83034e-13
  25 2923.33 0.00000 4.17066e-12
  26 2923.33 0.00000 6.98620e-12
  27 2923.33 0.00000 7.55219e-12
  28 2923.33 0.00000 4.49152e-12
  29 2923.33 0.00000 2.28428e-12
  30 2923.33 0.00000 1.52759e-13
  31 2923.33 0.00000 -8.03596e-12
  32 2923.33 0.00000 -8.21440e-12
  33 2923.33 0.00000 -3.03998e-12
  34 2923.33 0.00000 3.08824e-12
  35 2923.33 0.00000 5.93760e-12
  36 2923.33 0.00000 5.65191e-12
  37 2923.33 0.00000 8.60528e-12
  38 2923.33 0.00000 2.08626e-11
  39 2923.33 0.00000 2.28993e-11
  40 2923.33 0.00000 1.22084e-11
  41 2923.33 0.00000 6.70896e-12
  42 2923.33 0.00000 -2.95742e-12
  43 2923.33 0.00000 -1.36304e-11
  44 2923.33 0.00000 -2.59455e-11
  45 2923.33 0.00000 -3.33175e-11
  46 2923.33 0.00000 -3.93309e-11
  47 2923.33 0.00000 -4.88010e-11
  48 2923.33 0.00000 -4.62152e-11
  49 2923.33 0.00000 -2.90443e-11
  50 2923.33 0.00000 -1.19211e-11
  51 2923.33 0.00000 -7.33453e-12
  52 2923.33 0.00000 -4.11048e-12
  53 2923.33 0.00000 2.65601e-12
  54 2923.33 0.00000 7.83686e-12
  55 2923.33 0.00000 9.65755e-12
  56 2923.33 0.00000 1.30072e-11
  57 2923.33 0.00000 2.07657e-12
  58 2923.33 0.00000 -1.27930e-11
  59 2923.33 0.00000 -7.71486e-13
  60 2923.33 0.00000 9.75821e-12
  61 2923.33 0.00000 3.04927e-12
  62 2923.33 0.00000 -1.11017e-11
  63 2923.33 0.00000 3.20010e-12
  64 2923.33 0.00000 1.98884e-12
  65 2923.33 0.00000 -1.76513e-11
  66 2923.33 0.00000 1.85220e-11
  67 2923.33 0.00000 -2.89216e-12
  68 2923.33 0.00000 -6.02713e-12
  69 2923.33 0.00000 4.35613e-12
  70 2923.33 0.00000 1.14406e-11
  71 2923.33 0.00000 1.72431e-11
  72 2923.33 0.00000 -7.72703e-12
  73 2923.33 0.00000 -5.18002e-12
  74 2923.33 0.00000 -2.16993e-11
  75 2923.33 0.00000 -3.14645e-12
  76 2923.33 0.00000 7.57831e-12
  77 2923.33 0.00000 -2.01180e-12
  78 2923.33 0.00000 -3.79275e-12
  79 2923.33 0.00000 -6.43166e-12
  80 2923.33 0.00000 -7.54157e-13
  81 2923.33 0.00000 6.54831e-12
  82 2923.33 0.00000 1.29618e-11
  83 2923.33 0.00000 2.80860e-12
  84 2923.33 0.00000 3.40853e-11
  85 2923.33 0.00000 -9.53663e-12
  86 2923.33 0.00000 -6.65272e-13
  87 2923.33 0.00000 -2.91157e-11
  88 2923.33 0.00000 -2.53251e-12
  89 2923.33 0.00000 2.85518e-11
  90 2923.33 0.00000 1.29483e-11
  91 2923.33 0.00000 -1.71369e-11
  92 2923.33 0.00000 -2.30335e-12
  93 2923.33 0.00000 -4.40266e-12
  94 2923.33 0.00000 -5.48871e-12
  95 2923.33 0.00000 -1.31900e-11
  96 2923.33 0.00000 4.34428e-12
  97 2923.33 0.00000 5.40848e-12
  98 2923.33 0.00000 -3.55022e-11
  99 2923.33 0.00000 -1.49902e-11
  100 2923.33 0.00000 1.54818e-11
  101 2923.33 0.00000 2.06763e-12
  102 2923.33 0.00000 -5.92389e-12
  103 2923.33 0.00000 -1.00784e-11
  104 2923.33 0.00000 -4.54877e-12
  105 2923.33 0.00000 9.47737e-12
  106 2923.33 0.00000 -7.66711e-12
  107 2923.33 0.00000 4.72227e-12
  108 2923.33 0.00000 -9.59753e-12
  109 2923.33 0.00000 1.36861e-11
  110 2923.33 0.00000 8.04376e-12
  111 2923.33 0.00000 -6.48853e-12
  112 2923.33 0.00000 3.91054e-12
  113 2923.33 0.00000 1.75137e-11
  114 2923.33 0.00000 1.25331e-11
  115 2923.33 0.00000 -5.48950e-12
  116 2923.33 0.00000 4.36703e-11
  117 2923.33 0.00000 -2.73202e-12
  118 2923.33 0.00000 -1.56466e-11
  119 2923.33 0.00000 -1.12821e-11
  120 2923.33 0.00000 2.52839e-13
  121 2923.33 0.00000 8.70934e-12
  122 2923.33 0.00000 7.20196e-12
  123 2923.33 0.00000 1.31110e-11
  124 2923.33 0.00000 -3.80511e-12
  125 2923.33 0.00000 -8.26133e-12
  126 2923.33 0.00000 3.00758e-11
  127 2923.33 0.00000 -2.67398e-12
  128 2923.33 0.00000 3.79975e-12
  129 2923.33 0.00000 -3.03574e-11
  130 2923.33 0.00000 4.02892e-12
  131 2923.33 0.00000 -5.70870e-12
  132 2923.33 0.00000 6.01883e-13
  133 2923.33 0.00000 -1.16278e-11
  134 2923.33 0.00000 1.25468e-11
  135 2923.33 0.00000 3.58456e-12
  136 2923.33 0.00000 -4.22681e-11
  137 2923.33 0.00000 -7.93539e-12
  138 2923.33 0.00000 -3.56172e-12
  139 2923.33 0.00000 5.84785e-12
  140 2923.33 0.00000 -1.96670e-12
  141 2923.33 0.00000 -1.36876e-12
  142 2923.33 0.00000 2.10472e-11
  143 2923.33 0.00000 -7.63857e-12
  144 2923.33 0.00000 1.22896e-11
  145 2923.33 0.00000 -1.07074e-12
  146 2923.33 0.00000 -1.74881e-11
  147 2923.33 0.00000 1.51719e-11
  148 2923.33 0.00000 5.48129e-12
  149 2923.33 0.00000 1.00661e-11
  150 2923.33 0.00000 -8.43174e-12
  151 2923.33 0.00000 -7.59021e-13
  152 2923.33 0.00000 -1.11328e-11
  153 2923.33 0.00000 4.76792e-13
  154 2923.33 0.00000 -2.29483e-12
  155 2923.33 0.00000 9.25895e-12
  156 2923.33 0.00000 2.40736e-12
  157 2923.33 0.00000 -1.00493e-11
  158 2923.33 0.00000 8.95151e-12
  159 2923.33 0.00000 5.81752e-12
  160 2923.33 0.00000 6.85364e-13
  161 2923.33 0.00000 9.00653e-12
  162 2923.33 0.00000 -5.27655e-12
  163 2923.33 0.00000 4.84345e-12
  164 2923.33 0.00000 -2.69138e-12
  165 2923.33 0.00000 2.15858e-11
  166 2923.33 0.00000 -1.34436e-11
  167 2923.33 0.00000 2.48780e-12
  168 2923.33 0.00000 2.23232e-12
  169 2923.33 0.00000 1.60033e-11
  170 2923.33 0.00000 -9.65568e-12
  171 2923.33 0.00000 8.86454e-12
  172 2923.33 0.00000 -1.38084e-11
  173 2923.33 0.00000 -2.56150e-11
  174 2923.33 0.00000 -5.29671e-12
  175 2923.33 0.00000 -2.16235e-11
  176 2923.33 0.00000 2.49357e-11
  177 2923.33 0.00000 -2.83196e-12
  178 2923.33 0.00000 2.87821e-12
  179 2923.33 0.00000 4.09704e-11
  180 2923.33 0.00000 5.96075e-12
  181 2923.33 0.00000 -5.29942e-12
  182 2923.33 0.00000 1.59285e-11
  183 2923.33 0.00000 -1.57589e-11
  184 2923.33 0.00000 -1.66182e-11
  185 2923.33 0.00000 2.50778e-11
  186 2923.33 0.00000 -1.52528e-11
  187 2923.33 0.00000 -7.71555e-12
  188 2923.33 0.00000 -5.27231e-12
  189 2923.33 0.00000 4.94935e-12
  190 2923.33 0.00000 -1.62243e-11
  191 2923.33 0.00000 -2.87703e-12
  192 2923.33 0.00000 -2.73035e-12
  193 2923.33 0.00000 9.73619e-12
  194 2923.33 0.00000 1.41750e-12
  195 2923.33 0.00000 -1.99644e-11
  196 2923.33 0.00000 4.92904e-12
  197 2923.33 0.00000 2.03359e-11
  198 2923.33 0.00000 -4.49796e-12
  199 2923.33 0.00000 -5.41293e-12
  200 2923.33 0.00000 -9.29378e-12
  201 2923.33 0.00000 4.04590e-12
  202 2923.33 0.00000 1.06114e-11
  203 2923.33 0.00000 6.59891e-12
  204 2923.33 0.00000 -1.27428e-11
  205 2923.33 0.00000 9.75997e-12
  206 2923.33 0.00000 5.75843e-12
  207 2923.33 0.00000 -4.03029e-11
  208 2923.33 0.00000 1.85443e-12
  209 2923.33 0.00000 1.85648e-12
  210 2923.33 0.00000 -3.10533e-11
  211 2923.33 0.00000 4.24715e-11
  212 2923.33 0.00000 -5.01392e-12
  213 2923.33 0.00000 -3.53931e-11
  214 2923.33 0.00000 -9.81370e-12
  215 2923.33 0.00000 -1.18034e-11
  216 2923.33 0.00000 -1.22909e-11
  217 2923.33 0.00000 1.53845e-12
  218 2923.33 0.00000 -2.76933e-11
  219 2923.33 0.00000 -7.78909e-12
  220 2923.33 0.00000 -1.12670e-11
  221 2923.33 0.00000 -6.03929e-12
  222 2923.33 0.00000 -8.29011e-12
  223 2923.33 0.00000 1.50142e-11
  224 2923.33 0.00000 1.93482e-11
  225 2923.33 0.00000 -5.78344e-12
  226 2923.33 0.00000 1.74982e-11
  227 2923.33 0.00000 -9.16850e-12
  228 2923.33 0.00000 -3.23964e-12
  229 2923.33 0.00000 9.74235e-12
  230 2923.33 0.00000 7.28782e-12
  231 2923.33 0.00000 1.24515e-12
  232 2923.33 0.00000 -1.07680e-11
  233 2923.33 0.00000 -7.62820e-14
  234 2923.33 0.00000 -7.76134e-12
  235 2923.33 0.00000 1.02347e-11
  236 2923.33 0.00000 3.22204e-11
  237 2923.33 0.00000 -1.37096e-11
  238 2923.33 0.00000 -2.38664e-12
  239 2923.33 0.00000 2.59699e-12
  240 2923.33 0.00000 2.18773e-12
  241 2923.33 0.00000 -1.49251e-11
</Section>

newXOutput 83

<Section columns = "stress_xx | stress_yy | stress_xy">
  1 2973.84 0.00000 -2.15665e-11
  2 2973.84 0.00000 9.46048e-12
  3 2973.84 0.00000 1.74008e-12
  4 2973.84 0.00000 2.12584e-11
  5 2973.84 0.00000 -3.57505e-11
  6 2973.84 0.00000 -5.16543e-11
  7 2973.84 0.00000 -5.78260e-11
  8 2973.84 0.00000 -4.98365e-11
  9 2973.84 0.00000 -3.75755e-11
  10 2973.84 0.00000 -2.43459e-11
  11 2973.84 0.00000 -1.48872e-11
  12 2973.84 0.00000 -5.48917e-12
  13 2973.84 0.00000 5.79840e-12
  14 2973.84 0.00000 1.32997e-11
  15 2973.84 0.00000 1.74309e-11
  16 2973.84 0.00000 2.07137e-11
  17 2973.84 0.00000 2.07101e-11
  18 2973.84 0.00000 1.31502e-11
  19 2973.84 0.00000 -2.80287e-12
  20 2973.84 0.00000 -9.42345e-12
  21 2973.84 0.00000 -8.83313e-12
  22 2973.84 0.00000 7.10874e-13
  23 2973.84 0.00000 8.68898e-12
  24 2973.84 0.00000 9.48698e-13
  25 2973.84 0.00000 -4.80353e-12
  26 2973.84 0.00000 -7.80654e-12
  27 2973.84 0.00000 -8.21349e-12
  28 2973.84 0.00000 -6.37712e-12
  29 2973.84 0.00000 -2.61109e-12
  30 2973.84 0.00000 -5.95686e-14
  31 2973.84 0.00000 1.03400e-11
  32 2973.84 0.00000 9.31031e-12
  33 2973.84 0.00000 5.40136e-12
  34 2973.84 0.00000 -1.68493e-12
  35 2973.84 0.00000 -6.53506e-12
  36 2973.84 0.00000 -6.52801e-12
  37 2973.84 0.00000 -1.19913e-11
  38 2973.84 0.00000 -2.39486e-11
  39 2973.84 0.00000 -2.43617e-11
  40 2973.84 0.00000 -1.40038e-11
  41 2973.84 0.00000 -6.79113e-12
  42 2973.84 0.00000 4.31680e-12
  43 2973.84 0.00000 1.56802e-11
  44 2973.84 0.00000 3.01213e-11
  45 2973.84 0.00000 3.92217e-11
  46 2973.84 0.00000 4.63260e-11
  47 2973.84 0.00000 5.52555e-11
  48 2973.84 0.00000 5.21023e-11
  49 2973.84 0.00000 3.32084e-11
  50 2973.84 0.00000 1.31141e-11
  51 2973.84 0.00000 8.16439e-12
  52 2973.84 0.00000 4.39582e-12
  53 2973.84 0.00000 -2.92110e-12
  54 2973.84 0.00000 -9.08656e-12
  55 2973.84 0.00000 -1.08815e-11
  56 2973.84 0.00000 -1.45271e-11
  57 2973.84 0.00000 -2.51689e-12
  58 2973.84 0.00000 1.35471e-11
  59 2973.84 0.00000 7.96027e-13
  60 2973.84 0.00000 -1.08355e-11
  61 2973.84 0.00000 -4.98247e-12
  62 2973.84 0.00000 1.17636e-11
  63 2973.84 0.00000 -2.96862e-12
  64 2973.84 0.00000 -1.73102e-12
  65 2973.84 0.00000 2.12508e-11
  66 2973.84 0.00000 -2.15965e-11
  67 2973.84 0.00000 2.29726e-12
  68 2973.84 0.00000 7.21562e-12
  69 2973.84 0.00000 -5.42998e-12
  70 2973.84 0.00000 -1.35551e-11
  71 2973.84 0.00000 -1.97012e-11
  72 2973.84 0.00000 7.61504e-12
  73 2973.84 0.00000 5.21188e-12
  74 2973.84 0.00000 2.50355e-11
  75 2973.84 0.00000 3.14354e-12
  76 2973.84 0.00000 -1.03480e-11
  77 2973.84 0.00000 2.47815e-12
  78 2973.84 0.00000 3.56021e-12
  79 2973.84 0.00000 7.22323e-12
  80 2973.84 0.00000 5.95789e-13
  81 2973.84 0.00000 -7.33331e-12
  82 2973.84 0.00000 -1.49081e-11
  83 2973.84 0.00000 -2.44914e-12
  84 2973.84 0.00000 -4.03318e-11
  85 2973.84 0.00000 1.25959e-11
  86 2973.84 0.00000 2.19923e-12
  87 2973.84 0.00000 3.35817e-11
  88 2973.84 0.00000 3.17473e-12
  89 2973.84 0.00000 -3.30245e-11
  90 2973.84 0.00000 -1.50273e-11
  91 2973.84 0.00000 1.93710e-11
  92 2973.84 0.00000 2.49199e-12
  93 2973.84 0.00000 7.77858e-13
  94 2973.84 0.00000 7.67976e-12
  95 2973.84 0.00000 1.57514e-11
  96 2973.84 0.00000 -3.66685e-12
  97 2973.84 0.00000 -3.77283e-12
  98 2973.84 0.00000 4.22424e-11
  99 2973.84 0.00000 1.64011e-11
  100 2973.84 0.00000 -1.80532e-11
  101 2973.84 0.00000 -1.91387e-12
  102 2973.84 0.00000 6.07906e-12
  103 2973.84 0.00000 1.21931e-11
  104 2973.84 0.00000 5.41954e-12
  105 2973.84 0.00000 -1.16410e-11
  106 2973.84 0.00000 7.74716e-12
  107 2973.84 0.00000 -6.22732e-12
  108 2973.84 0.00000 1.04919e-11
  109 2973.84 0.00000 -1.56882e-11
  110 2973.84 0.00000 -1.05415e-11
  111 2973.84 0.00000 7.16408e-12
  112 2973.84 0.00000 -4.15430e-12
  113 2973.84 0.00000 -2.00543e-11
  114 2973.84 0.00000 -1.39931e-11
  115 2973.84 0.00000 5.29324e-12
  116 2973.84 0.00000 -5.11413e-11
  117 2973.84 0.00000 4.53228e-12
  118 2973.84 0.00000 1.92482e-11
  119 2973.84 0.00000 1.38440e-11
  120 2973.84 0.00000 -7.16569e-13
  121 2973.84 0.00000 -1.05396e-11
  122 2973.84 0.00000 -7.79689e-12
  123 2973.84 0.00000 -1.49891e-11
  124 2973.84 0.00000 3.55207e-12
  125 2973.84 0.00000 9.63922e-12
  126 2973.84 0.00000 -3.54740e-11
  127 2973.84 0.00000 3.22889e-12
  128 2973.84 0.00000 -2.69262e-12
  129 2973.84 0.00000 3.62096e-11
  130 2973.84 0.00000 -4.44782e-12
  131 2973.84 0.00000 6.75262e-12
  132 2973.84 0.00000 -1.37846e-12
  133 2973.84 0.00000 1.32284e-11
  134 2973.84 0.00000 -1.54011e-11
  135 2973.84 0.00000 -2.47384e-12
  136 2973.84 0.00000 4.88677e-11
  137 2973.84 0.00000 9.17026e-12
  138 2973.84 0.00000 4.57878e-12
  139 2973.84 0.00000 -6.48615e-12
  140 2973.84 0.00000 6.12962e-13
  141 2973.84 0.00000 1.39541e-12
  142 2973.84 0.00000 -2.54739e-11
  143 2973.84 0.00000 9.14285e-12
  144 2973.84 0.00000 -1.47779e-11
  145 2973.84 0.00000 1.44950e-12
  146 2973.84 0.00000 2.04840e-11
  147 2973.84 0.00000 -1.75738e-11
  148 2973.84 0.00000 -6.42644e-12
  149 2973.84 0.00000 -1.15460e-11
  150 2973.84 0.00000 8.02375e-12
  151 2973.84 0.00000 -9.78224e-13
  152 2973.84 0.00000 1.34205e-11
  153 2973.84 0.00000 -3.17587e-13
  154 2973.84 0.00000 2.06073e-12
  155 2973.84 0.00000 -1.05096e-11
  156 2973.84 0.00000 -4.03205e-12
  157 2973.84 0.00000 1.15505e-11
  158 2973.84 0.00000 -1.03807e-11
  159 2973.84 0.00000 -6.35432e-12
  160 2973.84 0.00000 -4.63733e-13
  161 2973.84 0.00000 -9.89395e-12
  162 2973.84 0.00000 5.83542e-12
  163 2973.84 0.00000 -6.01310e-12
  164 2973.84 0.00000 2.47523e-12
  165 2973.84 0.00000 -2.53698e-11
  166 2973.84 0.00000 1.47558e-11
  167 2973.84 0.00000 -3.07776e-12
  168 2973.84 0.00000 -2.49787e-12
  169 2973.84 0.00000 -1.82647e-11
  170 2973.84 0.00000 1.07052e-11
  171 2973.84 0.00000 -9.68215e-12
  172 2973.84 0.00000 1.44452e-11
  173 2973.84 0.00000 2.94788e-11
  174 2973.84 0.00000 6.13275e-12
  175 2973.84 0.00000 2.43370e-11
  176 2973.84 0.00000 -2.85808e-11
  177 2973.84 0.00000 3.38829e-12
  178 2973.84 0.00000 -2.16054e-12
  179 2973.84 0.00000 -4.78808e-11
  180 2973.84 0.00000 -6.77204e-12
  181 2973.84 0.00000 6.04643e-12
  182 2973.84 0.00000 -1.85525e-11
  183 2973.84 0.00000 1.81627e-11
  184 2973.84 0.00000 1.93326e-11
  185 2973.84 0.00000 -2.99394e-11
  186 2973.84 0.00000 1.59289e-11
  187 2973.84 0.00000 8.13372e-12
  188 2973.84 0.00000 6.20470e-12
  189 2973.84 0.00000 -6.76369e-12
  190 2973.84 0.00000 1.90720e-11
  191 2973.84 0.00000 3.64189e-12
  192 2973.84 0.00000 3.67854e-12
  193 2973.84 0.00000 -1.09494e-11
  194 2973.84 0.00000 -2.10078e-12
  195 2973.84 0.00000 2.26854e-11
  196 2973.84 0.00000 -5.30621e-12
  197 2973.84 0.00000 -2.32070e-11
  198 2973.84 0.00000 5.31159e-12
  199 2973.84 0.00000 6.80243e-12
  200 2973.84 0.00000 8.80812e-12
  201 2973.84 0.00000 -5.69775e-12
  202 2973.84 0.00000 -1.22868e-11
  203 2973.84 0.00000 -8.33422e-12
  204 2973.84 0.00000 1.29560e-11
  205 2973.84 0.00000 -1.15013e-11
  206 2973.84 0.00000 -5.64064e-12
  207 2973.84 0.00000 4.74200e-11
  208 2973.84 0.00000 -1.80689e-12
  209 2973.84 0.00000 -1.58497e-12
  210 2973.84 0.00000 3.62748e-11
  211 2973.84 0.00000 -4.88090e-11
  212 2973.84 0.00000 6.33323e-12
  213 2973.84 0.00000 4.04793e-11
  214 2973.84 0.00000 1.12566e-11
  215 2973.84 0.00000 1.31059e-11
  216 2973.84 0.00000 1.42686e-11
  217 2973.84 0.00000 -2.18140e-12
  218 2973.84 0.00000 3.24398e-11
  219 2973.84 0.00000 1.06917e-11
  220 2973.84 0.00000 1.25855e-11
  221 2973.84 0.00000 6.46961e-12
  222 2973.84 0.00000 9.21770e-12
  223 2973.84 0.00000 -1.82416e-11
  224 2973.84 0.00000 -2.26643e-11
  225 2973.84 0.00000 8.16915e-12
  226 2973.84 0.00000 -2.02843e-11
  227 2973.84 0.00000 1.14009e-11
  228 2973.84 0.00000 3.90025e-12
  229 2973.84 0.00000 -1.12134e-11
  230 2973.84 0.00000 -9.20427e-12
  231 2973.84 0.00000 -7.77768e-13
  232 2973.84 0.00000 1.31235e-11
  233 2973.84 0.00000 -6.03464e-14
  234 2973.84 0.00000 8.90711e-12
  235 2973.84 0.00000 -1.21016e-11
  236 2973.84 0.00000 -3.76093e-11
  237 2973.84 0.00000 1.39041e-11
  238 2973.84 0.00000 1.50510e-12
  239 2973.84 0.00000 -2.12729e-12
  240 2973.84 0.00000 -2.38202e-12
  241 2973.84 0.00000 1.84116e-11
</Section>

newXOutput 84

<Section columns = "stress_xx | stress_yy | stress_xy">
  1 3024.53 0.00000 2.34302e-11
  2 3024.53 0.00000 -9.94289e-12
  3 3024.53 0.00000 -2.11902e-12
  4 3024.53 0.00000 -2.37382e-11
  5 3024.53 0.00000 3.97842e-11
  6 3024.53 0.00000 5.86137e-11
  7 3024.53 0.00000 6.71244e-11
  8 3024.53 0.00000 5.81276e-11
  9 3024.53 0.00000 4.42522e-11
  10 3024.53 0.00000 2.90271e-11
  11 3024.53 0.00000 1.68942e-11
  12 3024.53 0.00000 5.50663e-12
  13 3024.53 0.00000 -7.24899e-12
  14 3024.53 0.00000 -1.65255e-11
  15 3024.53 0.00000 -2.14003e-11
  16 3024.53 0.00000 -2.31720e-11
  17 3024.53 0.00000 -2.24054e-11
  18 3024.53 0.00000 -1.59136e-11
  19 3024.53 0.00000 2.94737e-12
  20 3024.53 0.00000 1.14557e-11
  21 3024.53 0.00000 6.71389e-12
  22 3024.53 0.00000 -3.70569e-12
  23 3024.53 0.00000 -9.01099e-12
  24 3024.53 0.00000 -2.50814e-12
  25 3024.53 0.00000 4.09963e-12
  26 3024.53 0.00000 9.19751e-12
  27 3024.53 0.00000 1.09006e-11
  28 3024.53 0.00000 7.95475e-12
  29 3024.53 0.00000 3.49799e-12
  30 3024.53 0.00000 8.72472e-13
  31 3024.53 0.00000 -1.07989e-11
  32 3024.53 0.00000 -9.15517e-12
  33 3024.53 0.00000 -5.25883e-12
  34 3024.53 0.00000 2.67933e-13
  35 3024.53 0.00000 6.66546e-12
  36 3024.53 0.00000 8.82560e-12
  37 3024.53 0.00000 1.28462e-11
  38 3024.53 0.00000 2.68771e-11
  39 3024.53 0.00000 2.75181e-11
  40 3024.53 0.00000 1.70808e-11
  41 3024.53 0.00000 8.89150e-12
  42 3024.53 0.00000 -4.94906e-12
  43 3024.53 0.00000 -1.93810e-11
  44 3024.53 0.00000 -3.61471e-11
  45 3024.53 0.00000 -4.66655e-11
  46 3024.53 0.00000 -5.44091e-11
  47 3024.53 0.00000 -6.38253e-11
  48 3024.53 0.00000 -5.84982e-11
  49 3024.53 0.00000 -3.70256e-11
  50 3024.53 0.00000 -1.48063e-11
  51 3024.53 0.00000 -9.14481e-12
  52 3024.53 0.00000 -4.97927e-12
  53 3024.53 0.00000 2.75066e-12
  54 3024.53 0.00000 9.98050e-12
  55 3024.53 0.00000 1.18034e-11
  56 3024.53 0.00000 1.57839e-11
  57 3024.53 0.00000 3.07095e-12
  58 3024.53 0.00000 -1.67061e-11
  59 3024.53 0.00000 -1.16510e-12
  60 3024.53 0.00000 1.23985e-11
  61 3024.53 0.00000 6.15621e-12
  62 3024.53 0.00000 -1.25817e-11
  63 3024.53 0.00000 2.03307e-12
  64 3024.53 0.00000 2.41323e-12
  65 3024.53 0.00000 -2.45918e-11
  66 3024.53 0.00000 2.46147e-11
  67 3024.53 0.00000 -2.66435e-12
  68 3024.53 0.00000 -8.02120e-12
  69 3024.53 0.00000 6.20106e-12
  70 3024.53 0.00000 1.54133e-11
  71 3024.53 0.00000 2.32971e-11
  72 3024.53 0.00000 -7.36360e-12
  73 3024.53 0.00000 -6.69480e-12
  74 3024.53 0.00000 -2.92981e-11
  75 3024.53 0.00000 -3.07080e-12
  76 3024.53 0.00000 9.05410e-12
  77 3024.53 0.00000 -2.60342e-12
  78 3024.53 0.00000 -3.77240e-12
  79 3024.53 0.00000 -8.30612e-12
  80 3024.53 0.00000 -4.85814e-13
  81 3024.53 0.00000 8.00103e-12
  82 3024.53 0.00000 1.99838e-11
  83 3024.53 0.00000 2.19534e-12
  84 3024.53 0.00000 4.69899e-11
  85 3024.53 0.00000 -1.51170e-11
  86 3024.53 0.00000 -1.18390e-12
  87 3024.53 0.00000 -3.91443e-11
  88 3024.53 0.00000 -2.80368e-12
  89 3024.53 0.00000 3.85443e-11
  90 3024.53 0.00000 1.77256e-11
  91 3024.53 0.00000 -2.25506e-11
  92 3024.53 0.00000 -3.52240e-12
  93 3024.53 0.00000 -2.09330e-12
  94 3024.53 0.00000 -7.14076e-12
  95 3024.53 0.00000 -1.75252e-11
  96 3024.53 0.00000 4.07656e-12
  97 3024.53 0.00000 5.93867e-12
  98 3024.53 0.00000 -4.91762e-11
  99 3024.53 0.00000 -1.94983e-11
  100 3024.53 0.00000 2.17696e-11
  101 3024.53 0.00000 3.33319e-12
  102 3024.53 0.00000 -6.46127e-12
  103 3024.53 0.00000 -1.31687e-11
  104 3024.53 0.00000 -6.02706e-12
  105 3024.53 0.00000 1.32320e-11
  106 3024.53 0.00000 -8.58087e-12
  107 3024.53 0.00000 8.16966e-12
  108 3024.53 0.00000 -1.14912e-11
  109 3024.53 0.00000 1.77703e-11
  110 3024.53 0.00000 1.18952e-11
  111 3024.53 0.00000 -8.19046e-12
  112 3024.53 0.00000 4.56237e-12
  113 3024.53 0.00000 2.40103e-11
  114 3024.53 0.00000 1.62471e-11
  115 3024.53 0.00000 -5.48195e-12
  116 3024.53 0.00000 5.94896e-11
  117 3024.53 0.00000 -4.13003e-12
  118 3024.53 0.00000 -2.30460e-11
  119 3024.53 0.00000 -1.64075e-11
  120 3024.53 0.00000 8.96476e-13
  121 3024.53 0.00000 1.22486e-11
  122 3024.53 0.00000 8.47510e-12
  123 3024.53 0.00000 1.78302e-11
  124 3024.53 0.00000 -4.37777e-12
  125 3024.53 0.00000 -1.03397e-11
  126 3024.53 0.00000 4.12827e-11
  127 3024.53 0.00000 -4.02495e-12
  128 3024.53 0.00000 4.63698e-12
  129 3024.53 0.00000 -4.22034e-11
  130 3024.53 0.00000 4.56043e-12
  131 3024.53 0.00000 -7.09210e-12
  132 3024.53 0.00000 1.14640e-12
  133 3024.53 0.00000 -1.50702e-11
  134 3024.53 0.00000 1.81625e-11
  135 3024.53 0.00000 2.21638e-12
  136 3024.53 0.00000 -5.63429e-11
  137 3024.53 0.00000 -9.44003e-12
  138 3024.53 0.00000 -6.04241e-12
  139 3024.53 0.00000 7.57350e-12
  140 3024.53 0.00000 -8.63723e-13
  141 3024.53 0.00000 -2.17039e-12
  142 3024.53 0.00000 2.99038e-11
  143 3024.53 0.00000 -1.09849e-11
  144 3024.53 0.00000 1.73730e-11
  145 3024.53 0.00000 -3.66648e-12
  146 3024.53 0.00000 -2.40141e-11
  147 3024.53 0.00000 1.96836e-11
  148 3024.53 0.00000 7.05502e-12
  149 3024.53 0.00000 1.22323e-11
  150 3024.53 0.00000 -8.82221e-12
  151 3024.53 0.00000 2.09564e-12
  152 3024.53 0.00000 -1.49345e-11
  153 3024.53 0.00000 7.97245e-14
  154 3024.53 0.00000 -2.46210e-12
  155 3024.53 0.00000 1.17590e-11
  156 3024.53 0.00000 4.91106e-12
  157 3024.53 0.00000 -1.32723e-11
  158 3024.53 0.00000 1.11783e-11
  159 3024.53 0.00000 6.81102e-12
  160 3024.53 0.00000 4.61313e-13
  161 3024.53 0.00000 1.13073e-11
  162 3024.53 0.00000 -6.42816e-12
  163 3024.53 0.00000 6.61947e-12
  164 3024.53 0.00000 -4.14670e-12
  165 3024.53 0.00000 2.98627e-11
  166 3024.53 0.00000 -1.67941e-11
  167 3024.53 0.00000 2.89343e-12
  168 3024.53 0.00000 3.05697e-12
  169 3024.53 0.00000 2.08356e-11
  170 3024.53 0.00000 -1.11073e-11
  171 3024.53 0.00000 1.14794e-11
  172 3024.53 0.00000 -1.74611e-11
  173 3024.53 0.00000 -3.48905e-11
  174 3024.53 0.00000 -7.02200e-12
  175 3024.53 0.00000 -2.75339e-11
  176 3024.53 0.00000 3.20969e-11
  177 3024.53 0.00000 -2.25015e-12
  178 3024.53 0.00000 2.34606e-12
  179 3024.53 0.00000 5.65566e-11
  180 3024.53 0.00000 7.95969e-12
  181 3024.53 0.00000 -7.35812e-12
  182 3024.53 0.00000 2.17703e-11
  183 3024.53 0.00000 -2.03899e-11
  184 3024.53 0.00000 -2.17592e-11
  185 3024.53 0.00000 3.50657e-11
  186 3024.53 0.00000 -2.06234e-11
  187 3024.53 0.00000 -6.62647e-12
  188 3024.53 0.00000 -7.59074e-12
  189 3024.53 0.00000 7.87066e-12
  190 3024.53 0.00000 -2.23669e-11
  191 3024.53 0.00000 -3.71314e-12
  192 3024.53 0.00000 -4.44099e-12
  193 3024.53 0.00000 1.24391e-11
  194 3024.53 0.00000 2.32360e-12
  195 3024.53 0.00000 -2.62723e-11
  196 3024.53 0.00000 4.99966e-12
  197 3024.53 0.00000 2.65742e-11
  198 3024.53 0.00000 -5.27357e-12
  199 3024.53 0.00000 -8.23629e-12
  200 3024.53 0.00000 -1.09892e-11
  201 3024.53 0.00000 7.33393e-12
  202 3024.53 0.00000 1.55403e-11
  203 3024.53 0.00000 1.01697e-11
  204 3024.53 0.00000 -1.40220e-11
  205 3024.53 0.00000 1.37071e-11
  206 3024.53 0.00000 8.15254e-12
  207 3024.53 0.00000 -5.47271e-11
  208 3024.53 0.00000 9.52323e-13
  209 3024.53 0.00000 9.60690e-13
  210 3024.53 0.00000 -4.27369e-11
  211 3024.53 0.00000 5.58597e-11
  212 3024.53 0.00000 -6.03583e-12
  213 3024.53 0.00000 -4.55434e-11
  214 3024.53 0.00000 -1.33155e-11
  215 3024.53 0.00000 -1.44267e-11
  216 3024.53 0.00000 -1.57031e-11
  217 3024.53 0.00000 2.27790e-12
  218 3024.53 0.00000 -3.81588e-11
  219 3024.53 0.00000 -1.19936e-11
  220 3024.53 0.00000 -1.40104e-11
  221 3024.53 0.00000 -7.11190e-12
  222 3024.53 0.00000 -1.12929e-11
  223 3024.53 0.00000 2.19212e-11
  224 3024.53 0.00000 2.59675e-11
  225 3024.53 0.00000 -8.08746e-12
  226 3024.53 0.00000 2.37837e-11
  227 3024.53 0.00000 -1.27669e-11
  228 3024.53 0.00000 -4.36801e-12
  229 3024.53 0.00000 1.28260e-11
  230 3024.53 0.00000 9.21990e-12
  231 3024.53 0.00000 1.75683e-13
  232 3024.53 0.00000 -1.56489e-11
  233 3024.53 0.00000 1.26564e-12
  234 3024.53 0.00000 -9.93433e-12
  235 3024.53 0.00000 1.36253e-11
  236 3024.53 0.00000 4.37012e-11
  237 3024.53 0.00000 -1.51785e-11
  238 3024.53 0.00000 -2.01648e-12
  239 3024.53 0.00000 2.81216e-12
  240 3024.53 0.00000 2.29843e-12
  241 3024.53 0.00000 -2.17125e-11
</Section>

newXOutput 85

<Section columns = "stress_xx | stress_yy | stress_xy">
  1 3075.41 0.00000 -2.62355e-11
  2 3075.41 0.00000 1.22731e-11
  3 3075.41 0.00000 1.30358e-12
  4 3075.41 0.00000 2.67924e-11
  5 3075.41 0.00000 -4.57633e-11
  6 3075.41 0.00000 -6.89468e-11
  7 3075.41 0.00000 -7.82221e-11
  8 3075.41 0.00000 -6.85368e-11
  9 3075.41 0.00000 -5.14634e-11
  10 3075.41 0.00000 -3.60320e-11
  11 3075.41 0.00000 -2.29795e-11
  12 3075.41 0.00000 -7.25848e-12
  13 3075.41 0.00000 7.03989e-12
  14 3075.41 0.00000 2.05785e-11
  15 3075.41 0.00000 2.55468e-11
  16 3075.41 0.00000 2.65440e-11
  17 3075.41 0.00000 2.63474e-11
  18 3075.41 0.00000 1.79291e-11
  19 3075.41 0.00000 -2.43705e-12
  20 3075.41 0.00000 -1.29288e-11
  21 3075.41 0.00000 -7.38389e-12
  22 3075.41 0.00000 4.04889e-12
  23 3075.41 0.00000 1.00737e-11
  24 3075.41 0.00000 1.85662e-12
  25 3075.41 0.00000 -4.37214e-12
  26 3075.41 0.00000 -8.40055e-12
  27 3075.41 0.00000 -1.29933e-11
  28 3075.41 0.00000 -8.13577e-12
  29 3075.41 0.00000 -3.02500e-12
  30 3075.41 0.00000 -7.35830e-13
  31 3075.41 0.00000 9.28582e-12
  32 3075.41 0.00000 8.79643e-12
  33 3075.41 0.00000 7.02204e-12
  34 3075.41 0.00000 -5.13141e-13
  35 3075.41 0.00000 -8.15911e-12
  36 3075.41 0.00000 -8.93791e-12
  37 3075.41 0.00000 -1.42370e-11
  38 3075.41 0.00000 -3.01712e-11
  39 3075.41 0.00000 -3.20057e-11
  40 3075.41 0.00000 -2.04313e-11
  41 3075.41 0.00000 -9.86707e-12
  42 3075.41 0.00000 6.93489e-12
  43 3075.41 0.00000 2.45762e-11
  44 3075.41 0.00000 4.42964e-11
  45 3075.41 0.00000 5.58751e-11
  46 3075.41 0.00000 6.32394e-11
  47 3075.41 0.00000 7.41507e-11
  48 3075.41 0.00000 6.81472e-11
  49 3075.41 0.00000 4.27797e-11
  50 3075.41 0.00000 1.69818e-11
  51 3075.41 0.00000 1.06652e-11
  52 3075.41 0.00000 6.12059e-12
  53 3075.41 0.00000 -2.99038e-12
  54 3075.41 0.00000 -1.09301e-11
  55 3075.41 0.00000 -1.34074e-11
  56 3075.41 0.00000 -1.76207e-11
  57 3075.41 0.00000 -3.74131e-12
  58 3075.41 0.00000 1.87805e-11
  59 3075.41 0.00000 1.68218e-12
  60 3075.41 0.00000 -1.50130e-11
  61 3075.41 0.00000 -6.98308e-12
  62 3075.41 0.00000 1.43491e-11
  63 3075.41 0.00000 -2.13435e-12
  64 3075.41 0.00000 -3.61336e-12
  65 3075.41 0.00000 2.95638e-11
  66 3075.41 0.00000 -2.91082e-11
  67 3075.41 0.00000 3.19737e-12
  68 3075.41 0.00000 9.28847e-12
  69 3075.41 0.00000 -8.19663e-12
  70 3075.41 0.00000 -1.74629e-11
  71 3075.41 0.00000 -2.72615e-11
  72 3075.41 0.00000 8.92967e-12
  73 3075.41 0.00000 6.94835e-12
  74 3075.41 0.00000 3.55134e-11
  75 3075.41 0.00000 3.21640e-12
  76 3075.41 0.00000 -1.14977e-11
  77 3075.41 0.00000 2.35168e-12
  78 3075.41 0.00000 4.39988e-12
  79 3075.41 0.00000 9.18486e-12
  80 3075.41 0.00000 -3.05935e-13
  81 3075.41 0.00000 -9.67345e-12
  82 3075.41 0.00000 -2.28914e-11
  83 3075.41 0.00000 -2.99263e-12
  84 3075.41 0.00000 -5.45729e-11
  85 3075.41 0.00000 1.92189e-11
  86 3075.41 0.00000 1.58801e-12
  87 3075.41 0.00000 4.47430e-11
  88 3075.41 0.00000 2.81731e-12
  89 3075.41 0.00000 -4.37485e-11
  90 3075.41 0.00000 -2.24486e-11
  91 3075.41 0.00000 2.57706e-11
  92 3075.41 0.00000 4.65225e-12
  93 3075.41 0.00000 1.79524e-12
  94 3075.41 0.00000 9.05696e-12
  95 3075.41 0.00000 1.97524e-11
  96 3075.41 0.00000 -6.54856e-12
  97 3075.41 0.00000 -7.38859e-12
  98 3075.41 0.00000 5.84670e-11
  99 3075.41 0.00000 2.24811e-11
  100 3075.41 0.00000 -2.58277e-11
  101 3075.41 0.00000 -4.21690e-12
  102 3075.41 0.00000 8.42349e-12
  103 3075.41 0.00000 1.43505e-11
  104 3075.41 0.00000 8.42103e-12
  105 3075.41 0.00000 -1.64002e-11
  106 3075.41 0.00000 9.57780e-12
  107 3075.41 0.00000 -6.99705e-12
  108 3075.41 0.00000 1.37793e-11
  109 3075.41 0.00000 -2.01081e-11
  110 3075.41 0.00000 -1.17523e-11
  111 3075.41 0.00000 9.23092e-12
  112 3075.41 0.00000 -3.99176e-12
  113 3075.41 0.00000 -2.80094e-11
  114 3075.41 0.00000 -1.82570e-11
  115 3075.41 0.00000 6.70270e-12
  116 3075.41 0.00000 -6.89633e-11
  117 3075.41 0.00000 3.31173e-12
  118 3075.41 0.00000 2.69554e-11
  119 3075.41 0.00000 1.94146e-11
  120 3075.41 0.00000 -1.01788e-12
  121 3075.41 0.00000 -1.46274e-11
  122 3075.41 0.00000 -1.04300e-11
  123 3075.41 0.00000 -2.16017e-11
  124 3075.41 0.00000 4.59005e-12
  125 3075.41 0.00000 1.17458e-11
  126 3075.41 0.00000 -4.92600e-11
  127 3075.41 0.00000 6.02468e-12
  128 3075.41 0.00000 -4.58121e-12
  129 3075.41 0.00000 5.04434e-11
  130 3075.41 0.00000 -4.91323e-12
  131 3075.41 0.00000 6.88629e-12
  132 3075.41 0.00000 -2.10169e-12
  133 3075.41 0.00000 1.73608e-11
  134 3075.41 0.00000 -2.05448e-11
  135 3075.41 0.00000 -2.12936e-12
  136 3075.41 0.00000 6.57431e-11
  137 3075.41 0.00000 9.48881e-12
  138 3075.41 0.00000 6.43097e-12
  139 3075.41 0.00000 -8.44466e-12
  140 3075.41 0.00000 2.26968e-13
  141 3075.41 0.00000 1.48815e-12
  142 3075.41 0.00000 -3.76167e-11
  143 3075.41 0.00000 1.29316e-11
  144 3075.41 0.00000 -2.06163e-11
  145 3075.41 0.00000 4.91111e-12
  146 3075.41 0.00000 2.90669e-11
  147 3075.41 0.00000 -2.40065e-11
  148 3075.41 0.00000 -8.09101e-12
  149 3075.41 0.00000 -1.51891e-11
  150 3075.41 0.00000 1.15580e-11
  151 3075.41 0.00000 -1.69359e-12
  152 3075.41 0.00000 1.59217e-11
  153 3075.41 0.00000 -7.23382e-13
  154 3075.41 0.00000 2.54891e-12
  155 3075.41 0.00000 -1.50802e-11
  156 3075.41 0.00000 -5.13360e-12
  157 3075.41 0.00000 1.59819e-11
  158 3075.41 0.00000 -1.46897e-11
  159 3075.41 0.00000 -8.77633e-12
  160 3075.41 0.00000 -8.04867e-13
  161 3075.41 0.00000 -1.31211e-11
  162 3075.41 0.00000 7.91824e-12
  163 3075.41 0.00000 -8.60430e-12
  164 3075.41 0.00000 5.48585e-12
  165 3075.41 0.00000 -3.48919e-11
  166 3075.41 0.00000 1.95359e-11
  167 3075.41 0.00000 -3.23837e-12
  168 3075.41 0.00000 -2.21556e-12
  169 3075.41 0.00000 -2.35167e-11
  170 3075.41 0.00000 1.27669e-11
  171 3075.41 0.00000 -1.48252e-11
  172 3075.41 0.00000 1.97222e-11
  173 3075.41 0.00000 4.13055e-11
  174 3075.41 0.00000 7.26506e-12
  175 3075.41 0.00000 3.15282e-11
  176 3075.41 0.00000 -3.61963e-11
  177 3075.41 0.00000 1.79514e-12
  178 3075.41 0.00000 -2.72848e-12
  179 3075.41 0.00000 -6.62555e-11
  180 3075.41 0.00000 -9.22324e-12
  181 3075.41 0.00000 8.60374e-12
  182 3075.41 0.00000 -2.46899e-11
  183 3075.41 0.00000 2.25374e-11
  184 3075.41 0.00000 2.52890e-11
  185 3075.41 0.00000 -4.09279e-11
  186 3075.41 0.00000 2.41491e-11
  187 3075.41 0.00000 6.47300e-12
  188 3075.41 0.00000 8.65364e-12
  189 3075.41 0.00000 -9.52159e-12
  190 3075.41 0.00000 2.70257e-11
  191 3075.41 0.00000 6.29075e-12
  192 3075.41 0.00000 6.59948e-12
  193 3075.41 0.00000 -1.35834e-11
  194 3075.41 0.00000 -3.72124e-12
  195 3075.41 0.00000 3.09420e-11
  196 3075.41 0.00000 -4.46089e-12
  197 3075.41 0.00000 -3.09649e-11
  198 3075.41 0.00000 6.41527e-12
  199 3075.41 0.00000 1.01237e-11
  200 3075.41 0.00000 1.21731e-11
  201 3075.41 0.00000 -7.98068e-12
  202 3075.41 0.00000 -1.86831e-11
  203 3075.41 0.00000 -1.13160e-11
  204 3075.41 0.00000 1.77415e-11
  205 3075.41 0.00000 -1.61126e-11
  206 3075.41 0.00000 -1.02715e-11
  207 3075.41 0.00000 6.41476e-11
  208 3075.41 0.00000 -9.17544e-13
  209 3075.41 0.00000 -2.08178e-12
  210 3075.41 0.00000 5.01166e-11
  211 3075.41 0.00000 -6.45770e-11
  212 3075.41 0.00000 7.23856e-12
  213 3075.41 0.00000 5.26766e-11
  214 3075.41 0.00000 1.60384e-11
  215 3075.41 0.00000 1.58946e-11
  216 3075.41 0.00000 1.61167e-11
  217 3075.41 0.00000 -3.04326e-12
  218 3075.41 0.00000 4.52556e-11
  219 3075.41 0.00000 1.64165e-11
  220 3075.41 0.00000 1.71048e-11
  221 3075.41 0.00000 6.77042e-12
  222 3075.41 0.00000 1.09923e-11
  223 3075.41 0.00000 -2.88774e-11
  224 3075.41 0.00000 -3.21021e-11
  225 3075.41 0.00000 9.30276e-12
  226 3075.41 0.00000 -2.84227e-11
  227 3075.41 0.00000 1.39298e-11
  228 3075.41 0.00000 5.30923e-12
  229 3075.41 0.00000 -1.46945e-11
  230 3075.41 0.00000 -1.15124e-11
  231 3075.41 0.00000 -7.47034e-14
  232 3075.41 0.00000 1.83148e-11
  233 3075.41 0.00000 -1.71189e-12
  234 3075.41 0.00000 1.00939e-11
  235 3075.41 0.00000 -1.66235e-11
  236 3075.41 0.00000 -5.08353e-11
  237 3075.41 0.00000 1.81547e-11
  238 3075.41 0.00000 2.08581e-12
  239 3075.41 0.00000 -1.93176e-12
  240 3075.41 0.00000 -3.89103e-12
  241 3075.41 0.00000 2.50845e-11
</Section>

newXOutput 86

<Section columns = "stress_xx | stress_yy | stress_xy">
  1 3126.46 0.00000 2.91617e-11
  2 3126.46 0.00000 -1.28149e-11
  3 3126.46 0.00000 -2.63288e-12
  4 3126.46 0.00000 -3.03684e-11
  5 3126.46 0.00000 5.26442e-11
  6 3126.46 0.00000 7.89663e-11
  7 3126.46 0.00000 9.11005e-11
  8 3126.46 0.00000 8.17499e-11
  9 3126.46 0.00000 6.11065e-11
  10 3126.46 0.00000 4.39965e-11
  11 3126.46 0.00000 2.71778e-11
  12 3126.46 0.00000 7.48590e-12
  13 3126.46 0.00000 -9.28438e-12
  14 3126.46 0.00000 -2.36604e-11
  15 3126.46 0.00000 -2.80706e-11
  16 3126.46 0.00000 -3.21318e-11
  17 3126.46 0.00000 -3.16438e-11
  18 3126.46 0.00000 -2.18118e-11
  19 3126.46 0.00000 6.93492e-13
  20 3126.46 0.00000 1.29365e-11
  21 3126.46 0.00000 7.74319e-12
  22 3126.46 0.00000 -5.62621e-12
  23 3126.46 0.00000 -1.03749e-11
  24 3126.46 0.00000 -3.88699e-12
  25 3126.46 0.00000 4.33346e-12
  26 3126.46 0.00000 1.09944e-11
  27 3126.46 0.00000 1.41346e-11
  28 3126.46 0.00000 8.07477e-12
  29 3126.46 0.00000 3.37499e-12
  30 3126.46 0.00000 1.01210e-12
  31 3126.46 0.00000 -9.66256e-12
  32 3126.46 0.00000 -1.08943e-11
  33 3126.46 0.00000 -7.16724e-12
  34 3126.46 0.00000 1.75680e-12
  35 3126.46 0.00000 1.00790e-11
  36 3126.46 0.00000 1.24758e-11
  37 3126.46 0.00000 1.84535e-11
  38 3126.46 0.00000 3.55534e-11
  39 3126.46 0.00000 3.73905e-11
  40 3126.46 0.00000 2.26971e-11
  41 3126.46 0.00000 9.63511e-12
  42 3126.46 0.00000 -9.95505e-12
  43 3126.46 0.00000 -2.95867e-11
  44 3126.46 0.00000 -5.14130e-11
  45 3126.46 0.00000 -6.65369e-11
  46 3126.46 0.00000 -7.45833e-11
  47 3126.46 0.00000 -8.67683e-11
  48 3126.46 0.00000 -7.94224e-11
  49 3126.46 0.00000 -4.94687e-11
  50 3126.46 0.00000 -1.93235e-11
  51 3126.46 0.00000 -1.19001e-11
  52 3126.46 0.00000 -6.95994e-12
  53 3126.46 0.00000 3.58182e-12
  54 3126.46 0.00000 1.20965e-11
  55 3126.46 0.00000 1.54674e-11
  56 3126.46 0.00000 1.96349e-11
  57 3126.46 0.00000 3.89134e-12
  58 3126.46 0.00000 -2.08237e-11
  59 3126.46 0.00000 -2.07970e-12
  60 3126.46 0.00000 1.91861e-11
  61 3126.46 0.00000 7.68012e-12
  62 3126.46 0.00000 -1.78438e-11
  63 3126.46 0.00000 1.29558e-12
  64 3126.46 0.00000 4.80897e-12
  65 3126.46 0.00000 -3.44203e-11
  66 3126.46 0.00000 3.33928e-11
  67 3126.46 0.00000 -4.38989e-12
  68 3126.46 0.00000 -1.06942e-11
  69 3126.46 0.00000 8.70868e-12
  70 3126.46 0.00000 1.94372e-11
  71 3126.46 0.00000 3.19899e-11
  72 3126.46 0.00000 -1.07774e-11
  73 3126.46 0.00000 -8.71791e-12
  74 3126.46 0.00000 -4.16553e-11
  75 3126.46 0.00000 -3.96642e-12
  76 3126.46 0.00000 1.40571e-11
  77 3126.46 0.00000 -2.40231e-12
  78 3126.46 0.00000 -2.74264e-12
  79 3126.46 0.00000 -1.07020e-11
  80 3126.46 0.00000 1.18634e-12
  81 3126.46 0.00000 1.03722e-11
  82 3126.46 0.00000 2.57180e-11
  83 3126.46 0.00000 3.53569e-12
  84 3126.46 0.00000 6.38251e-11
  85 3126.46 0.00000 -2.14516e-11
  86 3126.46 0.00000 1.53898e-13
  87 3126.46 0.00000 -5.15747e-11
  88 3126.46 0.00000 -3.13313e-12
  89 3126.46 0.00000 5.06656e-11
  90 3126.46 0.00000 2.70036e-11
  91 3126.46 0.00000 -3.04496e-11
  92 3126.46 0.00000 -6.28052e-12
  93 3126.46 0.00000 -3.35899e-12
  94 3126.46 0.00000 -1.03650e-11
  95 3126.46 0.00000 -2.26622e-11
  96 3126.46 0.00000 7.13247e-12
  97 3126.46 0.00000 7.50440e-12
  98 3126.46 0.00000 -6.82007e-11
  99 3126.46 0.00000 -2.42016e-11
  100 3126.46 0.00000 3.01050e-11
  101 3126.46 0.00000 4.97472e-12
  102 3126.46 0.00000 -1.06876e-11
  103 3126.46 0.00000 -1.77532e-11
  104 3126.46 0.00000 -9.93503e-12
  105 3126.46 0.00000 1.86045e-11
  106 3126.46 0.00000 -1.08542e-11
  107 3126.46 0.00000 9.45893e-12
  108 3126.46 0.00000 -1.57264e-11
  109 3126.46 0.00000 2.18631e-11
  110 3126.46 0.00000 1.22075e-11
  111 3126.46 0.00000 -9.25631e-12
  112 3126.46 0.00000 3.72725e-12
  113 3126.46 0.00000 3.12624e-11
  114 3126.46 0.00000 2.19153e-11
  115 3126.46 0.00000 -8.18365e-12
  116 3126.46 0.00000 8.08112e-11
  117 3126.46 0.00000 -4.26202e-12
  118 3126.46 0.00000 -3.13063e-11
  119 3126.46 0.00000 -2.11762e-11
  120 3126.46 0.00000 2.11095e-12
  121 3126.46 0.00000 1.67057e-11
  122 3126.46 0.00000 1.38998e-11
  123 3126.46 0.00000 2.40041e-11
  124 3126.46 0.00000 -5.92581e-12
  125 3126.46 0.00000 -1.44390e-11
  126 3126.46 0.00000 5.82663e-11
  127 3126.46 0.00000 -7.60334e-12
  128 3126.46 0.00000 5.25355e-12
  129 3126.46 0.00000 -5.99066e-11
  130 3126.46 0.00000 5.32191e-12
  131 3126.46 0.00000 -7.59329e-12
  132 3126.46 0.00000 1.64100e-12
  133 3126.46 0.00000 -1.99889e-11
  134 3126.46 0.00000 2.41044e-11
  135 3126.46 0.00000 2.33126e-12
  136 3126.46 0.00000 -7.65926e-11
  137 3126.46 0.00000 -1.13895e-11
  138 3126.46 0.00000 -7.95678e-12
  139 3126.46 0.00000 1.00331e-11
  140 3126.46 0.00000 -2.21679e-12
  141 3126.46 0.00000 -2.14010e-12
  142 3126.46 0.00000 4.40457e-11
  143 3126.46 0.00000 -1.48767e-11
  144 3126.46 0.00000 2.35469e-11
  145 3126.46 0.00000 -3.88042e-12
  146 3126.46 0.00000 -3.38762e-11
  147 3126.46 0.00000 2.71614e-11
  148 3126.46 0.00000 8.94728e-12
  149 3126.46 0.00000 1.69962e-11
  150 3126.46 0.00000 -1.32915e-11
  151 3126.46 0.00000 1.30966e-12
  152 3126.46 0.00000 -1.76195e-11
  153 3126.46 0.00000 3.66658e-13
  154 3126.46 0.00000 -2.98824e-12
  155 3126.46 0.00000 1.66967e-11
  156 3126.46 0.00000 6.31935e-12
  157 3126.46 0.00000 -1.81508e-11
  158 3126.46 0.00000 1.63425e-11
  159 3126.46 0.00000 1.00032e-11
  160 3126.46 0.00000 1.00942e-12
  161 3126.46 0.00000 1.65175e-11
  162 3126.46 0.00000 -8.78915e-12
  163 3126.46 0.00000 1.11434e-11
  164 3126.46 0.00000 -7.48715e-12
  165 3126.46 0.00000 4.05310e-11
  166 3126.46 0.00000 -2.24210e-11
  167 3126.46 0.00000 2.92790e-12
  168 3126.46 0.00000 3.20460e-12
  169 3126.46 0.00000 2.70114e-11
  170 3126.46 0.00000 -1.49498e-11
  171 3126.46 0.00000 1.79876e-11
  172 3126.46 0.00000 -2.10535e-11
  173 3126.46 0.00000 -4.88745e-11
  174 3126.46 0.00000 -6.62242e-12
  175 3126.46 0.00000 -3.62443e-11
  176 3126.46 0.00000 4.15533e-11
  177 3126.46 0.00000 -1.83304e-12
  178 3126.46 0.00000 3.54363e-12
  179 3126.46 0.00000 7.84546e-11
  180 3126.46 0.00000 1.03026e-11
  181 3126.46 0.00000 -8.35753e-12
  182 3126.46 0.00000 2.84616e-11
  183 3126.46 0.00000 -2.68793e-11
  184 3126.46 0.00000 -2.98731e-11
  185 3126.46 0.00000 4.72713e-11
  186 3126.46 0.00000 -2.56654e-11
  187 3126.46 0.00000 -7.54913e-12
  188 3126.46 0.00000 -9.63064e-12
  189 3126.46 0.00000 1.07320e-11
  190 3126.46 0.00000 -3.16607e-11
  191 3126.46 0.00000 -6.80988e-12
  192 3126.46 0.00000 -8.99202e-12
  193 3126.46 0.00000 1.57031e-11
  194 3126.46 0.00000 3.94505e-12
  195 3126.46 0.00000 -3.58609e-11
  196 3126.46 0.00000 5.67340e-12
  197 3126.46 0.00000 3.48504e-11
  198 3126.46 0.00000 -8.27920e-12
  199 3126.46 0.00000 -1.20868e-11
  200 3126.46 0.00000 -1.57787e-11
  201 3126.46 0.00000 8.60969e-12
  202 3126.46 0.00000 2.23937e-11
  203 3126.46 0.00000 1.33519e-11
  204 3126.46 0.00000 -2.06999e-11
  205 3126.46 0.00000 1.90807e-11
  206 3126.46 0.00000 9.69374e-12
  207 3126.46 0.00000 -7.50709e-11
  208 3126.46 0.00000 3.35901e-12
  209 3126.46 0.00000 3.22854e-12
  210 3126.46 0.00000 -5.82958e-11
  211 3126.46 0.00000 7.47340e-11
  212 3126.46 0.00000 -6.24956e-12
  213 3126.46 0.00000 -6.13867e-11
  214 3126.46 0.00000 -1.88399e-11
  215 3126.46 0.00000 -1.91514e-11
  216 3126.46 0.00000 -2.04360e-11
  217 3126.46 0.00000 4.68936e-12
  218 3126.46 0.00000 -5.32733e-11
  219 3126.46 0.00000 -1.81796e-11
  220 3126.46 0.00000 -2.04342e-11
  221 3126.46 0.00000 -7.61934e-12
  222 3126.46 0.00000 -1.22526e-11
  223 3126.46 0.00000 3.35396e-11
  224 3126.46 0.00000 3.78032e-11
  225 3126.46 0.00000 -9.49338e-12
  226 3126.46 0.00000 3.33636e-11
  227 3126.46 0.00000 -1.61943e-11
  228 3126.46 0.00000 -6.75305e-12
  229 3126.46 0.00000 1.63969e-11
  230 3126.46 0.00000 1.19477e-11
  231 3126.46 0.00000 -3.25169e-13
  232 3126.46 0.00000 -2.05122e-11
  233 3126.46 0.00000 3.41041e-12
  234 3126.46 0.00000 -1.21735e-11
  235 3126.46 0.00000 1.84261e-11
  236 3126.46 0.00000 5.89085e-11
  237 3126.46 0.00000 -2.02228e-11
  238 3126.46 0.00000 -1.97170e-12
  239 3126.46 0.00000 2.92639e-12
  240 3126.46 0.00000 4.31879e-12
  241 3126.46 0.00000 -2.93168e-11
</Section>

newXOutput 87

<Section columns = "stress_xx | stress_yy | stress_xy">
  1 3177.69 0.00000 -3.26906e-11
  2 3177.69 0.00000 1.37296e-11
  3 3177.69 0.00000 3.60455e-12
  4 3177.69 0.00000 3.36873e-11
  5 3177.69 0.00000 -6.00457e-11
  6 3177.69 0.00000 -9.05740e-11
  7 3177.69 0.00000 -1.06401e-10
  8 3177.69 0.00000 -9.55299e-11
  9 3177.69 0.00000 -7.16404e-11
  10 3177.69 0.00000 -5.04919e-11
  11 3177.69 0.00000 -3.24606e-11
  12 3177.69 0.00000 -1.13142e-11
  13 3177.69 0.00000 9.52001e-12
  14 3177.69 0.00000 2.62480e-11
  15 3177.69 0.00000 3.16534e-11
  16 3177.69 0.00000 3.71479e-11
  17 3177.69 0.00000 3.53384e-11
  18 3177.69 0.00000 2.68554e-11
  19 3177.69 0.00000 -7.89279e-13
  20 3177.69 0.00000 -1.36049e-11
  21 3177.69 0.00000 -9.04073e-12
  22 3177.69 0.00000 4.50106e-12
  23 3177.69 0.00000 1.15199e-11
  24 3177.69 0.00000 2.91939e-12
  25 3177.69 0.00000 -5.61429e-12
  26 3177.69 0.00000 -1.18204e-11
  27 3177.69 0.00000 -1.46537e-11
  28 3177.69 0.00000 -1.02137e-11
  29 3177.69 0.00000 -4.05262e-12
  30 3177.69 0.00000 2.60996e-13
  31 3177.69 0.00000 1.43249e-11
  32 3177.69 0.00000 1.31892e-11
  33 3177.69 0.00000 8.02719e-12
  34 3177.69 0.00000 -4.52462e-12
  35 3177.69 0.00000 -1.30943e-11
  36 3177.69 0.00000 -1.69294e-11
  37 3177.69 0.00000 -2.38064e-11
  38 3177.69 0.00000 -4.28128e-11
  39 3177.69 0.00000 -4.22557e-11
  40 3177.69 0.00000 -2.55580e-11
  41 3177.69 0.00000 -1.10844e-11
  42 3177.69 0.00000 1.27265e-11
  43 3177.69 0.00000 3.58985e-11
  44 3177.69 0.00000 6.13630e-11
  45 3177.69 0.00000 7.92065e-11
  46 3177.69 0.00000 8.82822e-11
  47 3177.69 0.00000 1.00868e-10
  48 3177.69 0.00000 9.19206e-11
  49 3177.69 0.00000 5.59764e-11
  50 3177.69 0.00000 2.20590e-11
  51 3177.69 0.00000 1.34352e-11
  52 3177.69 0.00000 7.92637e-12
  53 3177.69 0.00000 -4.09945e-12
  54 3177.69 0.00000 -1.40057e-11
  55 3177.69 0.00000 -1.68775e-11
  56 3177.69 0.00000 -2.20502e-11
  57 3177.69 0.00000 -4.81579e-12
  58 3177.69 0.00000 2.27946e-11
  59 3177.69 0.00000 2.76937e-12
  60 3177.69 0.00000 -2.34690e-11
  61 3177.69 0.00000 -9.90452e-12
  62 3177.69 0.00000 2.08475e-11
  63 3177.69 0.00000 -1.26491e-12
  64 3177.69 0.00000 -4.19411e-12
  65 3177.69 0.00000 4.08207e-11
  66 3177.69 0.00000 -3.91658e-11
  67 3177.69 0.00000 3.89824e-12
  68 3177.69 0.00000 1.31166e-11
  69 3177.69 0.00000 -1.04911e-11
  70 3177.69 0.00000 -2.26783e-11
  71 3177.69 0.00000 -3.87647e-11
  72 3177.69 0.00000 1.15031e-11
  73 3177.69 0.00000 1.20422e-11
  74 3177.69 0.00000 4.95257e-11
  75 3177.69 0.00000 4.83208e-12
  76 3177.69 0.00000 -1.42055e-11
  77 3177.69 0.00000 2.89549e-12
  78 3177.69 0.00000 3.33913e-12
  79 3177.69 0.00000 1.25693e-11
  80 3177.69 0.00000 -9.98796e-13
  81 3177.69 0.00000 -1.23624e-11
  82 3177.69 0.00000 -2.89012e-11
  83 3177.69 0.00000 -4.43173e-12
  84 3177.69 0.00000 -7.49445e-11
  85 3177.69 0.00000 2.58282e-11
  86 3177.69 0.00000 1.70495e-12
  87 3177.69 0.00000 5.98900e-11
  88 3177.69 0.00000 2.52881e-12
  89 3177.69 0.00000 -5.78967e-11
  90 3177.69 0.00000 -3.23701e-11
  91 3177.69 0.00000 3.64140e-11
  92 3177.69 0.00000 7.63950e-12
  93 3177.69 0.00000 3.74448e-12
  94 3177.69 0.00000 1.40520e-11
  95 3177.69 0.00000 2.79911e-11
  96 3177.69 0.00000 -6.41659e-12
  97 3177.69 0.00000 -7.70884e-12
  98 3177.69 0.00000 7.98571e-11
  99 3177.69 0.00000 2.83247e-11
  100 3177.69 0.00000 -3.48923e-11
  101 3177.69 0.00000 -5.31956e-12
  102 3177.69 0.00000 1.34557e-11
  103 3177.69 0.00000 1.85863e-11
  104 3177.69 0.00000 1.31981e-11
  105 3177.69 0.00000 -2.02574e-11
  106 3177.69 0.00000 1.28675e-11
  107 3177.69 0.00000 -1.10370e-11
  108 3177.69 0.00000 1.82417e-11
  109 3177.69 0.00000 -2.50225e-11
  110 3177.69 0.00000 -1.43835e-11
  111 3177.69 0.00000 9.42521e-12
  112 3177.69 0.00000 -5.20994e-12
  113 3177.69 0.00000 -3.59895e-11
  114 3177.69 0.00000 -2.61416e-11
  115 3177.69 0.00000 9.49644e-12
  116 3177.69 0.00000 -9.47308e-11
  117 3177.69 0.00000 5.97246e-12
  118 3177.69 0.00000 3.70975e-11
  119 3177.69 0.00000 2.40174e-11
  120 3177.69 0.00000 -2.19485e-12
  121 3177.69 0.00000 -2.01132e-11
  122 3177.69 0.00000 -1.65012e-11
  123 3177.69 0.00000 -2.84422e-11
  124 3177.69 0.00000 5.00654e-12
  125 3177.69 0.00000 1.64513e-11
  126 3177.69 0.00000 -6.86884e-11
  127 3177.69 0.00000 1.02564e-11
  128 3177.69 0.00000 -4.25619e-12
  129 3177.69 0.00000 7.17072e-11
  130 3177.69 0.00000 -6.81845e-12
  131 3177.69 0.00000 9.94172e-12
  132 3177.69 0.00000 -1.22683e-12
  133 3177.69 0.00000 2.46204e-11
  134 3177.69 0.00000 -2.91384e-11
  135 3177.69 0.00000 -1.74196e-12
  136 3177.69 0.00000 8.86753e-11
  137 3177.69 0.00000 1.24924e-11
  138 3177.69 0.00000 8.33249e-12
  139 3177.69 0.00000 -1.11933e-11
  140 3177.69 0.00000 1.57673e-12
  141 3177.69 0.00000 2.15415e-12
  142 3177.69 0.00000 -5.17423e-11
  143 3177.69 0.00000 1.84549e-11
  144 3177.69 0.00000 -2.71885e-11
  145 3177.69 0.00000 3.46562e-12
  146 3177.69 0.00000 4.02838e-11
  147 3177.69 0.00000 -3.04949e-11
  148 3177.69 0.00000 -1.01359e-11
  149 3177.69 0.00000 -1.77327e-11
  150 3177.69 0.00000 1.54861e-11
  151 3177.69 0.00000 -2.99551e-12
  152 3177.69 0.00000 2.04016e-11
  153 3177.69 0.00000 2.20559e-13
  154 3177.69 0.00000 3.74054e-12
  155 3177.69 0.00000 -2.06305e-11
  156 3177.69 0.00000 -6.70233e-12
  157 3177.69 0.00000 2.16610e-11
  158 3177.69 0.00000 -1.97794e-11
  159 3177.69 0.00000 -9.33127e-12
  160 3177.69 0.00000 -1.15507e-12
  161 3177.69 0.00000 -1.64491e-11
  162 3177.69 0.00000 1.03679e-11
  163 3177.69 0.00000 -1.38305e-11
  164 3177.69 0.00000 9.63441e-12
  165 3177.69 0.00000 -4.84779e-11
  166 3177.69 0.00000 2.60274e-11
  167 3177.69 0.00000 -4.45207e-12
  168 3177.69 0.00000 -3.87260e-12
  169 3177.69 0.00000 -3.03911e-11
  170 3177.69 0.00000 1.54347e-11
  171 3177.69 0.00000 -2.13029e-11
  172 3177.69 0.00000 2.43036e-11
  173 3177.69 0.00000 5.79314e-11
  174 3177.69 0.00000 7.80321e-12
  175 3177.69 0.00000 4.15241e-11
  176 3177.69 0.00000 -4.73439e-11
  177 3177.69 0.00000 3.79917e-12
  178 3177.69 0.00000 -3.57133e-12
  179 3177.69 0.00000 -9.16301e-11
  180 3177.69 0.00000 -1.18318e-11
  181 3177.69 0.00000 9.52539e-12
  182 3177.69 0.00000 -3.29105e-11
  183 3177.69 0.00000 3.25814e-11
  184 3177.69 0.00000 3.47121e-11
  185 3177.69 0.00000 -5.60574e-11
  186 3177.69 0.00000 2.80611e-11
  187 3177.69 0.00000 9.81050e-12
  188 3177.69 0.00000 1.19789e-11
  189 3177.69 0.00000 -1.31900e-11
  190 3177.69 0.00000 3.83734e-11
  191 3177.69 0.00000 8.78838e-12
  192 3177.69 0.00000 1.16629e-11
  193 3177.69 0.00000 -1.91598e-11
  194 3177.69 0.00000 -5.45332e-12
  195 3177.69 0.00000 4.16823e-11
  196 3177.69 0.00000 -8.24196e-12
  197 3177.69 0.00000 -4.00286e-11
  198 3177.69 0.00000 1.12583e-11
  199 3177.69 0.00000 1.48250e-11
  200 3177.69 0.00000 1.71754e-11
  201 3177.69 0.00000 -9.46266e-12
  202 3177.69 0.00000 -2.68206e-11
  203 3177.69 0.00000 -1.70993e-11
  204 3177.69 0.00000 2.32145e-11
  205 3177.69 0.00000 -2.22667e-11
  206 3177.69 0.00000 -1.10208e-11
  207 3177.69 0.00000 8.78445e-11
  208 3177.69 0.00000 -5.27229e-12
  209 3177.69 0.00000 -2.60823e-12
  210 3177.69 0.00000 6.81032e-11
  211 3177.69 0.00000 -8.62429e-11
  212 3177.69 0.00000 7.55632e-12
  213 3177.69 0.00000 7.09491e-11
  214 3177.69 0.00000 2.26461e-11
  215 3177.69 0.00000 1.98514e-11
  216 3177.69 0.00000 2.53693e-11
  217 3177.69 0.00000 -3.42849e-12
  218 3177.69 0.00000 6.31391e-11
  219 3177.69 0.00000 2.06655e-11
  220 3177.69 0.00000 2.45669e-11
  221 3177.69 0.00000 9.40133e-12
  222 3177.69 0.00000 1.48346e-11
  223 3177.69 0.00000 -3.86089e-11
  224 3177.69 0.00000 -4.64089e-11
  225 3177.69 0.00000 1.26510e-11
  226 3177.69 0.00000 -3.80108e-11
  227 3177.69 0.00000 1.97751e-11
  228 3177.69 0.00000 7.17662e-12
  229 3177.69 0.00000 -1.89011e-11
  230 3177.69 0.00000 -1.24495e-11
  231 3177.69 0.00000 1.85821e-12
  232 3177.69 0.00000 2.53579e-11
  233 3177.69 0.00000 -1.36624e-12
  234 3177.69 0.00000 1.55800e-11
  235 3177.69 0.00000 -2.07405e-11
  236 3177.69 0.00000 -6.88721e-11
  237 3177.69 0.00000 2.35133e-11
  238 3177.69 0.00000 1.94324e-12
  239 3177.69 0.00000 -1.86642e-12
  240 3177.69 0.00000 -4.30199e-12
  241 3177.69 0.00000 3.38267e-11
</Section>

newXOutput 88

<Section columns = "stress_xx | stress_yy | stress_xy">
  1 3229.11 0.00000 3.69073e-11
  2 3229.11 0.00000 -1.68780e-11
  3 3229.11 0.00000 -7.14627e-12
  4 3229.11 0.00000 -3.86129e-11
  5 3229.11 0.00000 6.95761e-11
  6 3229.11 0.00000 1.04481e-10
  7 3229.11 0.00000 1.24637e-10
  8 3229.11 0.00000 1.13240e-10
  9 3229.11 0.00000 8.53202e-11
  10 3229.11 0.00000 6.23144e-11
  11 3229.11 0.00000 3.97390e-11
  12 3229.11 0.00000 1.39248e-11
  13 3229.11 0.00000 -9.93064e-12
  14 3229.11 0.00000 -2.73387e-11
  15 3229.11 0.00000 -3.69958e-11
  16 3229.11 0.00000 -4.43086e-11
  17 3229.11 0.00000 -4.33983e-11
  18 3229.11 0.00000 -3.04044e-11
  19 3229.11 0.00000 1.17883e-12
  20 3229.11 0.00000 1.48281e-11
  21 3229.11 0.00000 8.08943e-12
  22 3229.11 0.00000 -7.08264e-12
  23 3229.11 0.00000 -1.44334e-11
  24 3229.11 0.00000 -3.27721e-12
  25 3229.11 0.00000 5.87400e-12
  26 3229.11 0.00000 1.39165e-11
  27 3229.11 0.00000 1.77972e-11
  28 3229.11 0.00000 1.19683e-11
  29 3229.11 0.00000 4.92589e-12
  30 3229.11 0.00000 6.40934e-13
  31 3229.11 0.00000 -1.87955e-11
  32 3229.11 0.00000 -2.02361e-11
  33 3229.11 0.00000 -1.08166e-11
  34 3229.11 0.00000 1.74964e-12
  35 3229.11 0.00000 1.43064e-11
  36 3229.11 0.00000 2.04985e-11
  37 3229.11 0.00000 2.69364e-11
  38 3229.11 0.00000 4.88253e-11
  39 3229.11 0.00000 4.99559e-11
  40 3229.11 0.00000 3.15047e-11
  41 3229.11 0.00000 1.35099e-11
  42 3229.11 0.00000 -1.52632e-11
  43 3229.11 0.00000 -4.39539e-11
  44 3229.11 0.00000 -7.32528e-11
  45 3229.11 0.00000 -9.51056e-11
  46 3229.11 0.00000 -1.05762e-10
  47 3229.11 0.00000 -1.18468e-10
  48 3229.11 0.00000 -1.06958e-10
  49 3229.11 0.00000 -6.57803e-11
  50 3229.11 0.00000 -2.53623e-11
  51 3229.11 0.00000 -1.54097e-11
  52 3229.11 0.00000 -9.41835e-12
  53 3229.11 0.00000 4.81946e-12
  54 3229.11 0.00000 1.63417e-11
  55 3229.11 0.00000 1.96963e-11
  56 3229.11 0.00000 2.52580e-11
  57 3229.11 0.00000 6.01035e-12
  58 3229.11 0.00000 -2.57592e-11
  59 3229.11 0.00000 -2.52736e-12
  60 3229.11 0.00000 2.62540e-11
  61 3229.11 0.00000 1.17301e-11
  62 3229.11 0.00000 -2.47482e-11
  63 3229.11 0.00000 2.41468e-12
  64 3229.11 0.00000 3.26233e-12
  65 3229.11 0.00000 -4.86617e-11
  66 3229.11 0.00000 4.63866e-11
  67 3229.11 0.00000 -5.21067e-12
  68 3229.11 0.00000 -1.49015e-11
  69 3229.11 0.00000 1.11774e-11
  70 3229.11 0.00000 2.56434e-11
  71 3229.11 0.00000 4.64823e-11
  72 3229.11 0.00000 -1.34709e-11
  73 3229.11 0.00000 -1.33648e-11
  74 3229.11 0.00000 -5.96355e-11
  75 3229.11 0.00000 -5.43933e-12
  76 3229.11 0.00000 1.89202e-11
  77 3229.11 0.00000 -3.37263e-12
  78 3229.11 0.00000 -4.80917e-12
  79 3229.11 0.00000 -1.40034e-11
  80 3229.11 0.00000 1.34744e-12
  81 3229.11 0.00000 1.35914e-11
  82 3229.11 0.00000 3.34619e-11
  83 3229.11 0.00000 5.54688e-12
  84 3229.11 0.00000 8.74636e-11
  85 3229.11 0.00000 -3.12609e-11
  86 3229.11 0.00000 -7.19692e-13
  87 3229.11 0.00000 -6.94912e-11
  88 3229.11 0.00000 -3.94202e-12
  89 3229.11 0.00000 6.67935e-11
  90 3229.11 0.00000 3.89403e-11
  91 3229.11 0.00000 -4.37297e-11
  92 3229.11 0.00000 -9.87642e-12
  93 3229.11 0.00000 -1.14444e-12
  94 3229.11 0.00000 -1.76064e-11
  95 3229.11 0.00000 -3.26706e-11
  96 3229.11 0.00000 8.51292e-12
  97 3229.11 0.00000 9.07109e-12
  98 3229.11 0.00000 -9.42298e-11
  99 3229.11 0.00000 -3.27757e-11
  100 3229.11 0.00000 4.20415e-11
  101 3229.11 0.00000 7.14828e-12
  102 3229.11 0.00000 -1.50468e-11
  103 3229.11 0.00000 -2.01651e-11
  104 3229.11 0.00000 -1.56121e-11
  105 3229.11 0.00000 2.21255e-11
  106 3229.11 0.00000 -1.46784e-11
  107 3229.11 0.00000 1.29682e-11
  108 3229.11 0.00000 -2.12550e-11
  109 3229.11 0.00000 2.83892e-11
  110 3229.11 0.00000 1.62132e-11
  111 3229.11 0.00000 -1.11648e-11
  112 3229.11 0.00000 5.89628e-12
  113 3229.11 0.00000 4.14203e-11
  114 3229.11 0.00000 3.05183e-11
  115 3229.11 0.00000 -1.06461e-11
  116 3229.11 0.00000 1.09847e-10
  117 3229.11 0.00000 -6.73054e-12
  118 3229.11 0.00000 -4.40725e-11
  119 3229.11 0.00000 -2.93228e-11
  120 3229.11 0.00000 2.48053e-12
  121 3229.11 0.00000 2.48341e-11
  122 3229.11 0.00000 1.91782e-11
  123 3229.11 0.00000 3.25284e-11
  124 3229.11 0.00000 -6.53071e-12
  125 3229.11 0.00000 -1.91370e-11
  126 3229.11 0.00000 8.14948e-11
  127 3229.11 0.00000 -1.17724e-11
  128 3229.11 0.00000 3.43374e-12
  129 3229.11 0.00000 -8.59587e-11
  130 3229.11 0.00000 8.37689e-12
  131 3229.11 0.00000 -1.06625e-11
  132 3229.11 0.00000 6.62295e-13
  133 3229.11 0.00000 -2.93629e-11
  134 3229.11 0.00000 3.44281e-11
  135 3229.11 0.00000 2.40764e-12
  136 3229.11 0.00000 -1.04096e-10
  137 3229.11 0.00000 -1.45592e-11
  138 3229.11 0.00000 -1.00891e-11
  139 3229.11 0.00000 1.34913e-11
  140 3229.11 0.00000 -6.89786e-13
  141 3229.11 0.00000 -8.70787e-13
  142 3229.11 0.00000 6.26115e-11
  143 3229.11 0.00000 -2.10534e-11
  144 3229.11 0.00000 3.03619e-11
  145 3229.11 0.00000 -4.94266e-12
  146 3229.11 0.00000 -4.89688e-11
  147 3229.11 0.00000 3.48500e-11
  148 3229.11 0.00000 1.14607e-11
  149 3229.11 0.00000 2.22035e-11
  150 3229.11 0.00000 -1.68783e-11
  151 3229.11 0.00000 2.79804e-12
  152 3229.11 0.00000 -2.31091e-11
  153 3229.11 0.00000 1.12603e-12
  154 3229.11 0.00000 -4.32656e-12
  155 3229.11 0.00000 2.24733e-11
  156 3229.11 0.00000 8.85235e-12
  157 3229.11 0.00000 -2.58289e-11
  158 3229.11 0.00000 2.14012e-11
  159 3229.11 0.00000 1.14492e-11
  160 3229.11 0.00000 9.22028e-13
  161 3229.11 0.00000 2.03524e-11
  162 3229.11 0.00000 -1.18160e-11
  163 3229.11 0.00000 1.57143e-11
  164 3229.11 0.00000 -1.02623e-11
  165 3229.11 0.00000 5.73078e-11
  166 3229.11 0.00000 -2.99944e-11
  167 3229.11 0.00000 4.75389e-12
  168 3229.11 0.00000 4.68028e-12
  169 3229.11 0.00000 3.49084e-11
  170 3229.11 0.00000 -1.83620e-11
  171 3229.11 0.00000 2.65092e-11
  172 3229.11 0.00000 -2.73781e-11
  173 3229.11 0.00000 -7.00152e-11
  174 3229.11 0.00000 -7.86719e-12
  175 3229.11 0.00000 -4.83682e-11
  176 3229.11 0.00000 5.43932e-11
  177 3229.11 0.00000 -5.03806e-12
  178 3229.11 0.00000 4.38999e-12
  179 3229.11 0.00000 1.08173e-10
  180 3229.11 0.00000 1.33474e-11
  181 3229.11 0.00000 -1.22558e-11
  182 3229.11 0.00000 3.81501e-11
  183 3229.11 0.00000 -3.80236e-11
  184 3229.11 0.00000 -4.11140e-11
  185 3229.11 0.00000 6.69615e-11
  186 3229.11 0.00000 -3.30189e-11
  187 3229.11 0.00000 -1.34991e-11
  188 3229.11 0.00000 -1.32799e-11
  189 3229.11 0.00000 1.72130e-11
  190 3229.11 0.00000 -4.68769e-11
  191 3229.11 0.00000 -1.06093e-11
  192 3229.11 0.00000 -1.35656e-11
  193 3229.11 0.00000 2.16618e-11
  194 3229.11 0.00000 4.34956e-12
  195 3229.11 0.00000 -4.82580e-11
  196 3229.11 0.00000 7.83877e-12
  197 3229.11 0.00000 4.65622e-11
  198 3229.11 0.00000 -1.45832e-11
  199 3229.11 0.00000 -1.70024e-11
  200 3229.11 0.00000 -1.74879e-11
  201 3229.11 0.00000 1.09964e-11
  202 3229.11 0.00000 2.96426e-11
  203 3229.11 0.00000 2.04145e-11
  204 3229.11 0.00000 -2.66781e-11
  205 3229.11 0.00000 2.61791e-11
  206 3229.11 0.00000 1.20130e-11
  207 3229.11 0.00000 -1.03571e-10
  208 3229.11 0.00000 5.37885e-12
  209 3229.11 0.00000 1.27143e-12
  210 3229.11 0.00000 -7.94220e-11
  211 3229.11 0.00000 9.95663e-11
  212 3229.11 0.00000 -8.40591e-12
  213 3229.11 0.00000 -8.34116e-11
  214 3229.11 0.00000 -2.77214e-11
  215 3229.11 0.00000 -2.27631e-11
  216 3229.11 0.00000 -2.98184e-11
  217 3229.11 0.00000 1.29412e-12
  218 3229.11 0.00000 -7.49197e-11
  219 3229.11 0.00000 -2.61770e-11
  220 3229.11 0.00000 -2.96022e-11
  221 3229.11 0.00000 -1.07082e-11
  222 3229.11 0.00000 -1.35177e-11
  223 3229.11 0.00000 4.70120e-11
  224 3229.11 0.00000 5.56360e-11
  225 3229.11 0.00000 -1.57296e-11
  226 3229.11 0.00000 4.53147e-11
  227 3229.11 0.00000 -2.25085e-11
  228 3229.11 0.00000 -8.60473e-12
  229 3229.11 0.00000 2.19330e-11
  230 3229.11 0.00000 1.50741e-11
  231 3229.11 0.00000 -3.67817e-13
  232 3229.11 0.00000 -3.09553e-11
  233 3229.11 0.00000 3.91215e-12
  234 3229.11 0.00000 -1.82661e-11
  235 3229.11 0.00000 2.38782e-11
  236 3229.11 0.00000 8.01605e-11
  237 3229.11 0.00000 -2.68425e-11
  238 3229.11 0.00000 -1.76575e-12
  239 3229.11 0.00000 1.64494e-12
  240 3229.11 0.00000 6.79807e-12
  241 3229.11 0.00000 -4.09136e-11
</Section>

newXOutput 89

<Section columns = "stress_xx | stress_yy | stress_xy">
  1 3280.70 0.00000 -4.30270e-11
  2 3280.70 0.00000 1.81259e-11
  3 3280.70 0.00000 9.47479e-12
  4 3280.70 0.00000 4.50105e-11
  5 3280.70 0.00000 -8.05750e-11
  6 3280.70 0.00000 -1.22463e-10
  7 3280.70 0.00000 -1.45800e-10
  8 3280.70 0.00000 -1.34183e-10
  9 3280.70 0.00000 -1.01925e-10
  10 3280.70 0.00000 -7.39312e-11
  11 3280.70 0.00000 -4.74304e-11
  12 3280.70 0.00000 -1.62070e-11
  13 3280.70 0.00000 1.16710e-11
  14 3280.70 0.00000 3.27094e-11
  15 3280.70 0.00000 4.51806e-11
  16 3280.70 0.00000 5.53322e-11
  17 3280.70 0.00000 5.10464e-11
  18 3280.70 0.00000 3.50826e-11
  19 3280.70 0.00000 -1.94107e-12
  20 3280.70 0.00000 -1.49057e-11
  21 3280.70 0.00000 -7.10817e-12
  22 3280.70 0.00000 8.39242e-12
  23 3280.70 0.00000 1.53771e-11
  24 3280.70 0.00000 4.05864e-12
  25 3280.70 0.00000 -6.52556e-12
  26 3280.70 0.00000 -1.60672e-11
  27 3280.70 0.00000 -1.86993e-11
  28 3280.70 0.00000 -1.38437e-11
  29 3280.70 0.00000 -5.48761e-12
  30 3280.70 0.00000 -9.68135e-13
  31 3280.70 0.00000 2.09012e-11
  32 3280.70 0.00000 1.91675e-11
  33 3280.70 0.00000 1.11851e-11
  34 3280.70 0.00000 -4.50628e-12
  35 3280.70 0.00000 -1.75974e-11
  36 3280.70 0.00000 -2.34308e-11
  37 3280.70 0.00000 -3.36301e-11
  38 3280.70 0.00000 -5.64976e-11
  39 3280.70 0.00000 -5.57619e-11
  40 3280.70 0.00000 -3.60033e-11
  41 3280.70 0.00000 -1.56184e-11
  42 3280.70 0.00000 1.75492e-11
  43 3280.70 0.00000 5.15996e-11
  44 3280.70 0.00000 8.74502e-11
  45 3280.70 0.00000 1.13828e-10
  46 3280.70 0.00000 1.25411e-10
  47 3280.70 0.00000 1.38548e-10
  48 3280.70 0.00000 1.23404e-10
  49 3280.70 0.00000 7.58587e-11
  50 3280.70 0.00000 2.90786e-11
  51 3280.70 0.00000 1.85457e-11
  52 3280.70 0.00000 1.05558e-11
  53 3280.70 0.00000 -5.26129e-12
  54 3280.70 0.00000 -1.83107e-11
  55 3280.70 0.00000 -2.19150e-11
  56 3280.70 0.00000 -2.87535e-11
  57 3280.70 0.00000 -6.89981e-12
  58 3280.70 0.00000 3.04493e-11
  59 3280.70 0.00000 4.09126e-12
  60 3280.70 0.00000 -3.03572e-11
  61 3280.70 0.00000 -1.39004e-11
  62 3280.70 0.00000 2.97007e-11
  63 3280.70 0.00000 -7.53581e-13
  64 3280.70 0.00000 -1.88058e-12
  65 3280.70 0.00000 5.71642e-11
  66 3280.70 0.00000 -5.40124e-11
  67 3280.70 0.00000 6.25630e-12
  68 3280.70 0.00000 1.84918e-11
  69 3280.70 0.00000 -1.40507e-11
  70 3280.70 0.00000 -3.03984e-11
  71 3280.70 0.00000 -5.54193e-11
  72 3280.70 0.00000 1.61104e-11
  73 3280.70 0.00000 1.75351e-11
  74 3280.70 0.00000 7.03113e-11
  75 3280.70 0.00000 6.55075e-12
  76 3280.70 0.00000 -2.12175e-11
  77 3280.70 0.00000 3.52215e-12
  78 3280.70 0.00000 2.82292e-12
  79 3280.70 0.00000 1.55392e-11
  80 3280.70 0.00000 -1.22040e-12
  81 3280.70 0.00000 -1.50812e-11
  82 3280.70 0.00000 -3.93908e-11
  83 3280.70 0.00000 -6.31968e-12
  84 3280.70 0.00000 -1.03239e-10
  85 3280.70 0.00000 3.65650e-11
  86 3280.70 0.00000 -9.21747e-13
  87 3280.70 0.00000 8.03490e-11
  88 3280.70 0.00000 3.00023e-12
  89 3280.70 0.00000 -7.64932e-11
  90 3280.70 0.00000 -4.82949e-11
  91 3280.70 0.00000 5.21242e-11
  92 3280.70 0.00000 1.16397e-11
  93 3280.70 0.00000 4.34730e-12
  94 3280.70 0.00000 2.15800e-11
  95 3280.70 0.00000 3.91822e-11
  96 3280.70 0.00000 -9.45943e-12
  97 3280.70 0.00000 -9.69101e-12
  98 3280.70 0.00000 1.11629e-10
  99 3280.70 0.00000 3.73509e-11
  100 3280.70 0.00000 -4.86342e-11
  101 3280.70 0.00000 -8.91580e-12
  102 3280.70 0.00000 1.81747e-11
  103 3280.70 0.00000 2.18877e-11
  104 3280.70 0.00000 1.95392e-11
  105 3280.70 0.00000 -2.54199e-11
  106 3280.70 0.00000 1.74844e-11
  107 3280.70 0.00000 -1.49487e-11
  108 3280.70 0.00000 2.42360e-11
  109 3280.70 0.00000 -3.26817e-11
  110 3280.70 0.00000 -1.69797e-11
  111 3280.70 0.00000 1.23145e-11
  112 3280.70 0.00000 -7.39929e-12
  113 3280.70 0.00000 -4.88039e-11
  114 3280.70 0.00000 -3.59517e-11
  115 3280.70 0.00000 1.19507e-11
  116 3280.70 0.00000 -1.27696e-10
  117 3280.70 0.00000 9.07440e-12
  118 3280.70 0.00000 5.16461e-11
  119 3280.70 0.00000 3.41177e-11
  120 3280.70 0.00000 -3.73365e-12
  121 3280.70 0.00000 -2.92556e-11
  122 3280.70 0.00000 -2.26685e-11
  123 3280.70 0.00000 -3.78954e-11
  124 3280.70 0.00000 7.29883e-12
  125 3280.70 0.00000 2.27096e-11
  126 3280.70 0.00000 -9.70558e-11
  127 3280.70 0.00000 1.50076e-11
  128 3280.70 0.00000 -2.91826e-12
  129 3280.70 0.00000 1.02284e-10
  130 3280.70 0.00000 -9.81061e-12
  131 3280.70 0.00000 1.18874e-11
  132 3280.70 0.00000 -1.08054e-12
  133 3280.70 0.00000 3.50492e-11
  134 3280.70 0.00000 -4.21317e-11
  135 3280.70 0.00000 -2.58529e-12
  136 3280.70 0.00000 1.21445e-10
  137 3280.70 0.00000 1.52426e-11
  138 3280.70 0.00000 1.18167e-11
  139 3280.70 0.00000 -1.54578e-11
  140 3280.70 0.00000 2.07553e-12
  141 3280.70 0.00000 9.06737e-13
  142 3280.70 0.00000 -7.52445e-11
  143 3280.70 0.00000 2.53809e-11
  144 3280.70 0.00000 -3.61680e-11
  145 3280.70 0.00000 3.65713e-12
  146 3280.70 0.00000 5.79899e-11
  147 3280.70 0.00000 -4.11927e-11
  148 3280.70 0.00000 -1.29791e-11
  149 3280.70 0.00000 -2.43492e-11
  150 3280.70 0.00000 2.07419e-11
  151 3280.70 0.00000 -3.83195e-12
  152 3280.70 0.00000 2.71477e-11
  153 3280.70 0.00000 -3.75645e-13
  154 3280.70 0.00000 5.94198e-12
  155 3280.70 0.00000 -2.51542e-11
  156 3280.70 0.00000 -7.09053e-12
  157 3280.70 0.00000 2.97264e-11
  158 3280.70 0.00000 -2.40252e-11
  159 3280.70 0.00000 -1.26542e-11
  160 3280.70 0.00000 -1.27352e-12
  161 3280.70 0.00000 -2.13441e-11
  162 3280.70 0.00000 1.47117e-11
  163 3280.70 0.00000 -1.69779e-11
  164 3280.70 0.00000 1.40217e-11
  165 3280.70 0.00000 -6.79050e-11
  166 3280.70 0.00000 3.46187e-11
  167 3280.70 0.00000 -6.85299e-12
  168 3280.70 0.00000 -6.22028e-12
  169 3280.70 0.00000 -4.00530e-11
  170 3280.70 0.00000 1.91528e-11
  171 3280.70 0.00000 -3.20703e-11
  172 3280.70 0.00000 3.06007e-11
  173 3280.70 0.00000 8.29285e-11
  174 3280.70 0.00000 8.44323e-12
  175 3280.70 0.00000 5.50883e-11
  176 3280.70 0.00000 -6.26833e-11
  177 3280.70 0.00000 5.25860e-12
  178 3280.70 0.00000 -4.84827e-12
  179 3280.70 0.00000 -1.27530e-10
  180 3280.70 0.00000 -1.56403e-11
  181 3280.70 0.00000 1.37766e-11
  182 3280.70 0.00000 -4.51269e-11
  183 3280.70 0.00000 4.56084e-11
  184 3280.70 0.00000 4.89824e-11
  185 3280.70 0.00000 -7.82167e-11
  186 3280.70 0.00000 3.79325e-11
  187 3280.70 0.00000 1.46177e-11
  188 3280.70 0.00000 1.56522e-11
  189 3280.70 0.00000 -2.03565e-11
  190 3280.70 0.00000 5.61372e-11
  191 3280.70 0.00000 1.32839e-11
  192 3280.70 0.00000 1.76647e-11
  193 3280.70 0.00000 -2.48546e-11
  194 3280.70 0.00000 -5.25829e-12
  195 3280.70 0.00000 5.69125e-11
  196 3280.70 0.00000 -8.36986e-12
  197 3280.70 0.00000 -5.40558e-11
  198 3280.70 0.00000 1.81106e-11
  199 3280.70 0.00000 2.03956e-11
  200 3280.70 0.00000 2.10465e-11
  201 3280.70 0.00000 -1.21784e-11
  202 3280.70 0.00000 -3.56421e-11
  203 3280.70 0.00000 -2.59055e-11
  204 3280.70 0.00000 3.07322e-11
  205 3280.70 0.00000 -3.05103e-11
  206 3280.70 0.00000 -1.09365e-11
  207 3280.70 0.00000 1.22935e-10
  208 3280.70 0.00000 -8.45969e-12
  209 3280.70 0.00000 -2.03687e-12
  210 3280.70 0.00000 9.38188e-11
  211 3280.70 0.00000 -1.15129e-10
  212 3280.70 0.00000 9.00331e-12
  213 3280.70 0.00000 9.57187e-11
  214 3280.70 0.00000 3.16903e-11
  215 3280.70 0.00000 2.42698e-11
  216 3280.70 0.00000 3.55510e-11
  217 3280.70 0.00000 -2.25690e-12
  218 3280.70 0.00000 8.79819e-11
  219 3280.70 0.00000 3.09564e-11
  220 3280.70 0.00000 3.64698e-11
  221 3280.70 0.00000 1.34785e-11
  222 3280.70 0.00000 1.81212e-11
  223 3280.70 0.00000 -5.64213e-11
  224 3280.70 0.00000 -6.76013e-11
  225 3280.70 0.00000 2.05489e-11
  226 3280.70 0.00000 -5.16830e-11
  227 3280.70 0.00000 2.58329e-11
  228 3280.70 0.00000 9.80429e-12
  229 3280.70 0.00000 -2.56162e-11
  230 3280.70 0.00000 -1.63212e-11
  231 3280.70 0.00000 1.51733e-12
  232 3280.70 0.00000 3.62681e-11
  233 3280.70 0.00000 -1.01483e-12
  234 3280.70 0.00000 2.16426e-11
  235 3280.70 0.00000 -2.82615e-11
  236 3280.70 0.00000 -9.33232e-11
  237 3280.70 0.00000 3.09158e-11
  238 3280.70 0.00000 1.23771e-12
  239 3280.70 0.00000 -7.17742e-13
  240 3280.70 0.00000 -7.69293e-12
  241 3280.70 0.00000 4.85859e-11
</Section>

newXOutput 90

<Section columns = "stress_xx | stress_yy | stress_xy">
  1 3332.49 0.00000 4.90174e-11
  2 3332.49 0.00000 -1.72951e-11
  3 3332.49 0.00000 -1.21214e-11
  4 3332.49 0.00000 -5.17997e-11
  5 3332.49 0.00000 9.25083e-11
  6 3332.49 0.00000 1.42832e-10
  7 3332.49 0.00000 1.71191e-10
  8 3332.49 0.00000 1.58864e-10
  9 3332.49 0.00000 1.22559e-10
  10 3332.49 0.00000 9.00846e-11
  11 3332.49 0.00000 5.90205e-11
  12 3332.49 0.00000 2.28221e-11
  13 3332.49 0.00000 -1.28677e-11
  14 3332.49 0.00000 -3.83066e-11
  15 3332.49 0.00000 -5.39015e-11
  16 3332.49 0.00000 -6.41404e-11
  17 3332.49 0.00000 -6.18443e-11
  18 3332.49 0.00000 -4.34462e-11
  19 3332.49 0.00000 -1.67131e-12
  20 3332.49 0.00000 1.65943e-11
  21 3332.49 0.00000 1.02585e-11
  22 3332.49 0.00000 -8.09291e-12
  23 3332.49 0.00000 -1.36004e-11
  24 3332.49 0.00000 -4.62025e-12
  25 3332.49 0.00000 7.96734e-12
  26 3332.49 0.00000 1.70533e-11
  27 3332.49 0.00000 2.30232e-11
  28 3332.49 0.00000 1.44659e-11
  29 3332.49 0.00000 5.98947e-12
  30 3332.49 0.00000 -4.30651e-13
  31 3332.49 0.00000 -2.23983e-11
  32 3332.49 0.00000 -1.83754e-11
  33 3332.49 0.00000 -1.21276e-11
  34 3332.49 0.00000 5.96863e-12
  35 3332.49 0.00000 2.14232e-11
  36 3332.49 0.00000 2.86888e-11
  37 3332.49 0.00000 4.10746e-11
  38 3332.49 0.00000 6.71483e-11
  39 3332.49 0.00000 6.65557e-11
  40 3332.49 0.00000 4.32981e-11
  41 3332.49 0.00000 1.94127e-11
  42 3332.49 0.00000 -2.09381e-11
  43 3332.49 0.00000 -6.04581e-11
  44 3332.49 0.00000 -1.03630e-10
  45 3332.49 0.00000 -1.36099e-10
  46 3332.49 0.00000 -1.48942e-10
  47 3332.49 0.00000 -1.63273e-10
  48 3332.49 0.00000 -1.44266e-10
  49 3332.49 0.00000 -8.81241e-11
  50 3332.49 0.00000 -3.36661e-11
  51 3332.49 0.00000 -2.14193e-11
  52 3332.49 0.00000 -1.28715e-11
  53 3332.49 0.00000 5.68377e-12
  54 3332.49 0.00000 2.11112e-11
  55 3332.49 0.00000 2.55314e-11
  56 3332.49 0.00000 3.34247e-11
  57 3332.49 0.00000 7.59197e-12
  58 3332.49 0.00000 -3.46054e-11
  59 3332.49 0.00000 -5.60330e-12
  60 3332.49 0.00000 3.40118e-11
  61 3332.49 0.00000 1.73636e-11
  62 3332.49 0.00000 -3.45461e-11
  63 3332.49 0.00000 2.26062e-14
  64 3332.49 0.00000 3.99182e-12
  65 3332.49 0.00000 -6.78993e-11
  66 3332.49 0.00000 6.28762e-11
  67 3332.49 0.00000 -5.97770e-12
  68 3332.49 0.00000 -2.10906e-11
  69 3332.49 0.00000 1.57764e-11
  70 3332.49 0.00000 3.48183e-11
  71 3332.49 0.00000 6.68450e-11
  72 3332.49 0.00000 -1.82271e-11
  73 3332.49 0.00000 -1.89785e-11
  74 3332.49 0.00000 -8.32305e-11
  75 3332.49 0.00000 -6.53185e-12
  76 3332.49 0.00000 2.26753e-11
  77 3332.49 0.00000 -4.46562e-12
  78 3332.49 0.00000 -3.57647e-12
  79 3332.49 0.00000 -1.80293e-11
  80 3332.49 0.00000 4.72597e-13
  81 3332.49 0.00000 1.67803e-11
  82 3332.49 0.00000 4.75987e-11
  83 3332.49 0.00000 6.62031e-12
  84 3332.49 0.00000 1.22392e-10
  85 3332.49 0.00000 -4.20857e-11
  86 3332.49 0.00000 4.27555e-13
  87 3332.49 0.00000 -9.31115e-11
  88 3332.49 0.00000 -5.12393e-12
  89 3332.49 0.00000 8.84411e-11
  90 3332.49 0.00000 5.87198e-11
  91 3332.49 0.00000 -6.28296e-11
  92 3332.49 0.00000 -1.49496e-11
  93 3332.49 0.00000 -5.79287e-12
  94 3332.49 0.00000 -2.42077e-11
  95 3332.49 0.00000 -4.75218e-11
  96 3332.49 0.00000 1.11202e-11
  97 3332.49 0.00000 1.04664e-11
  98 3332.49 0.00000 -1.31884e-10
  99 3332.49 0.00000 -4.25034e-11
  100 3332.49 0.00000 5.78379e-11
  101 3332.49 0.00000 1.07990e-11
  102 3332.49 0.00000 -1.95811e-11
  103 3332.49 0.00000 -2.40828e-11
  104 3332.49 0.00000 -2.49405e-11
  105 3332.49 0.00000 2.92753e-11
  106 3332.49 0.00000 -2.09598e-11
  107 3332.49 0.00000 1.61728e-11
  108 3332.49 0.00000 -2.85338e-11
  109 3332.49 0.00000 3.79079e-11
  110 3332.49 0.00000 1.70303e-11
  111 3332.49 0.00000 -1.46378e-11
  112 3332.49 0.00000 8.00900e-12
  113 3332.49 0.00000 5.70002e-11
  114 3332.49 0.00000 4.28342e-11
  115 3332.49 0.00000 -1.25230e-11
  116 3332.49 0.00000 1.51184e-10
  117 3332.49 0.00000 -9.49477e-12
  118 3332.49 0.00000 -6.07479e-11
  119 3332.49 0.00000 -4.01005e-11
  120 3332.49 0.00000 5.69991e-12
  121 3332.49 0.00000 3.50205e-11
  122 3332.49 0.00000 2.56437e-11
  123 3332.49 0.00000 4.33084e-11
  124 3332.49 0.00000 -7.62288e-12
  125 3332.49 0.00000 -2.58674e-11
  126 3332.49 0.00000 1.16040e-10
  127 3332.49 0.00000 -1.72896e-11
  128 3332.49 0.00000 1.76440e-12
  129 3332.49 0.00000 -1.21940e-10
  130 3332.49 0.00000 1.19516e-11
  131 3332.49 0.00000 -1.31947e-11
  132 3332.49 0.00000 1.41087e-12
  133 3332.49 0.00000 -4.10293e-11
  134 3332.49 0.00000 5.11534e-11
  135 3332.49 0.00000 3.27581e-12
  136 3332.49 0.00000 -1.42360e-10
  137 3332.49 0.00000 -1.72493e-11
  138 3332.49 0.00000 -1.51349e-11
  139 3332.49 0.00000 1.77427e-11
  140 3332.49 0.00000 -2.04286e-12
  141 3332.49 0.00000 -1.31582e-12
  142 3332.49 0.00000 9.08808e-11
  143 3332.49 0.00000 -3.07718e-11
  144 3332.49 0.00000 4.33742e-11
  145 3332.49 0.00000 -4.53569e-12
  146 3332.49 0.00000 -6.95129e-11
  147 3332.49 0.00000 4.74748e-11
  148 3332.49 0.00000 1.46727e-11
  149 3332.49 0.00000 2.76713e-11
  150 3332.49 0.00000 -2.33011e-11
  151 3332.49 0.00000 5.13434e-12
  152 3332.49 0.00000 -3.12267e-11
  153 3332.49 0.00000 -3.57262e-13
  154 3332.49 0.00000 -7.06959e-12
  155 3332.49 0.00000 2.83357e-11
  156 3332.49 0.00000 8.35294e-12
  157 3332.49 0.00000 -3.54738e-11
  158 3332.49 0.00000 2.58424e-11
  159 3332.49 0.00000 1.51837e-11
  160 3332.49 0.00000 7.58178e-13
  161 3332.49 0.00000 2.50378e-11
  162 3332.49 0.00000 -1.80300e-11
  163 3332.49 0.00000 1.82214e-11
  164 3332.49 0.00000 -1.59619e-11
  165 3332.49 0.00000 8.03906e-11
  166 3332.49 0.00000 -3.99998e-11
  167 3332.49 0.00000 7.62183e-12
  168 3332.49 0.00000 6.16693e-12
  169 3332.49 0.00000 4.63449e-11
  170 3332.49 0.00000 -2.17174e-11
  171 3332.49 0.00000 4.00061e-11
  172 3332.49 0.00000 -3.53135e-11
  173 3332.49 0.00000 -9.93475e-11
  174 3332.49 0.00000 -8.82127e-12
  175 3332.49 0.00000 -6.37013e-11
  176 3332.49 0.00000 7.22221e-11
  177 3332.49 0.00000 -8.01272e-12
  178 3332.49 0.00000 4.38476e-12
  179 3332.49 0.00000 1.51750e-10
  180 3332.49 0.00000 1.79374e-11
  181 3332.49 0.00000 -1.51237e-11
  182 3332.49 0.00000 5.37401e-11
  183 3332.49 0.00000 -5.49075e-11
  184 3332.49 0.00000 -5.83360e-11
  185 3332.49 0.00000 9.13917e-11
  186 3332.49 0.00000 -4.53837e-11
  187 3332.49 0.00000 -1.69630e-11
  188 3332.49 0.00000 -1.87394e-11
  189 3332.49 0.00000 2.45052e-11
  190 3332.49 0.00000 -6.75710e-11
  191 3332.49 0.00000 -1.66773e-11
  192 3332.49 0.00000 -2.08439e-11
  193 3332.49 0.00000 2.90759e-11
  194 3332.49 0.00000 7.10222e-12
  195 3332.49 0.00000 -6.63828e-11
  196 3332.49 0.00000 9.44470e-12
  197 3332.49 0.00000 6.23845e-11
  198 3332.49 0.00000 -2.16968e-11
  199 3332.49 0.00000 -2.47090e-11
  200 3332.49 0.00000 -2.35161e-11
  201 3332.49 0.00000 1.49897e-11
  202 3332.49 0.00000 4.19456e-11
  203 3332.49 0.00000 3.08707e-11
  204 3332.49 0.00000 -3.54639e-11
  205 3332.49 0.00000 3.67461e-11
  206 3332.49 0.00000 1.34023e-11
  207 3332.49 0.00000 -1.45792e-10
  208 3332.49 0.00000 1.08950e-11
  209 3332.49 0.00000 2.51067e-12
  210 3332.49 0.00000 -1.09876e-10
  211 3332.49 0.00000 1.34150e-10
  212 3332.49 0.00000 -9.02414e-12
  213 3332.49 0.00000 -1.11011e-10
  214 3332.49 0.00000 -3.74725e-11
  215 3332.49 0.00000 -2.81932e-11
  216 3332.49 0.00000 -4.21670e-11
  217 3332.49 0.00000 3.08798e-12
  218 3332.49 0.00000 -1.03341e-10
  219 3332.49 0.00000 -3.48214e-11
  220 3332.49 0.00000 -4.38269e-11
  221 3332.49 0.00000 -1.63202e-11
  222 3332.49 0.00000 -2.17976e-11
  223 3332.49 0.00000 6.96045e-11
  224 3332.49 0.00000 8.11114e-11
  225 3332.49 0.00000 -2.23448e-11
  226 3332.49 0.00000 6.10771e-11
  227 3332.49 0.00000 -2.93750e-11
  228 3332.49 0.00000 -1.08971e-11
  229 3332.49 0.00000 2.97500e-11
  230 3332.49 0.00000 1.72796e-11
  231 3332.49 0.00000 -1.62197e-12
  232 3332.49 0.00000 -4.30579e-11
  233 3332.49 0.00000 6.12147e-13
  234 3332.49 0.00000 -2.56083e-11
  235 3332.49 0.00000 3.28554e-11
  236 3332.49 0.00000 1.08985e-10
  237 3332.49 0.00000 -3.54470e-11
  238 3332.49 0.00000 -2.90382e-13
  239 3332.49 0.00000 1.42466e-12
  240 3332.49 0.00000 1.14113e-11
  241 3332.49 0.00000 -5.66566e-11
</Section>

newXOutput 91

<Section columns = "stress_xx | stress_yy | stress_xy">
  1 3384.46 0.00000 -5.71777e-11
  2 3384.46 0.00000 2.15346e-11
  3 3384.46 0.00000 1.51570e-11
  4 3384.46 0.00000 5.97551e-11
  5 3384.46 0.00000 -1.08724e-10
  6 3384.46 0.00000 -1.66489e-10
  7 3384.46 0.00000 -2.01515e-10
  8 3384.46 0.00000 -1.88803e-10
  9 3384.46 0.00000 -1.46363e-10
  10 3384.46 0.00000 -1.08301e-10
  11 3384.46 0.00000 -7.17764e-11
  12 3384.46 0.00000 -2.76849e-11
  13 3384.46 0.00000 1.47297e-11
  14 3384.46 0.00000 4.55346e-11
  15 3384.46 0.00000 6.35969e-11
  16 3384.46 0.00000 7.76747e-11
  17 3384.46 0.00000 7.07976e-11
  18 3384.46 0.00000 5.19258e-11
  19 3384.46 0.00000 4.82603e-12
  20 3384.46 0.00000 -1.84288e-11
  21 3384.46 0.00000 -9.00884e-12
  22 3384.46 0.00000 1.32548e-11
  23 3384.46 0.00000 2.04649e-11
  24 3384.46 0.00000 3.24528e-12
  25 3384.46 0.00000 -9.43973e-12
  26 3384.46 0.00000 -1.87508e-11
  27 3384.46 0.00000 -2.41348e-11
  28 3384.46 0.00000 -1.74249e-11
  29 3384.46 0.00000 -6.63202e-12
  30 3384.46 0.00000 9.99628e-13
  31 3384.46 0.00000 2.62594e-11
  32 3384.46 0.00000 2.21981e-11
  33 3384.46 0.00000 1.35701e-11
  34 3384.46 0.00000 -9.98283e-12
  35 3384.46 0.00000 -2.71757e-11
  36 3384.46 0.00000 -3.61773e-11
  37 3384.46 0.00000 -4.88733e-11
  38 3384.46 0.00000 -7.83900e-11
  39 3384.46 0.00000 -7.88671e-11
  40 3384.46 0.00000 -5.06304e-11
  41 3384.46 0.00000 -2.05969e-11
  42 3384.46 0.00000 2.63666e-11
  43 3384.46 0.00000 7.42033e-11
  44 3384.46 0.00000 1.25395e-10
  45 3384.46 0.00000 1.63308e-10
  46 3384.46 0.00000 1.77121e-10
  47 3384.46 0.00000 1.91697e-10
  48 3384.46 0.00000 1.67545e-10
  49 3384.46 0.00000 1.02295e-10
  50 3384.46 0.00000 3.84979e-11
  51 3384.46 0.00000 2.47709e-11
  52 3384.46 0.00000 1.54705e-11
  53 3384.46 0.00000 -5.94094e-12
  54 3384.46 0.00000 -2.41306e-11
  55 3384.46 0.00000 -2.90603e-11
  56 3384.46 0.00000 -3.81375e-11
  57 3384.46 0.00000 -8.90945e-12
  58 3384.46 0.00000 4.04602e-11
  59 3384.46 0.00000 7.25825e-12
  60 3384.46 0.00000 -3.94467e-11
  61 3384.46 0.00000 -2.22444e-11
  62 3384.46 0.00000 4.03476e-11
  63 3384.46 0.00000 -7.36587e-13
  64 3384.46 0.00000 -4.46559e-12
  65 3384.46 0.00000 7.95133e-11
  66 3384.46 0.00000 -7.33199e-11
  67 3384.46 0.00000 7.32301e-12
  68 3384.46 0.00000 2.50440e-11
  69 3384.46 0.00000 -1.99526e-11
  70 3384.46 0.00000 -3.96788e-11
  71 3384.46 0.00000 -7.94262e-11
  72 3384.46 0.00000 1.97825e-11
  73 3384.46 0.00000 2.16770e-11
  74 3384.46 0.00000 9.87154e-11
  75 3384.46 0.00000 9.05290e-12
  76 3384.46 0.00000 -2.65896e-11
  77 3384.46 0.00000 5.64063e-12
  78 3384.46 0.00000 5.76611e-12
  79 3384.46 0.00000 2.00262e-11
  80 3384.46 0.00000 -1.44254e-12
  81 3384.46 0.00000 -1.82774e-11
  82 3384.46 0.00000 -5.53857e-11
  83 3384.46 0.00000 -6.64068e-12
  84 3384.46 0.00000 -1.43933e-10
  85 3384.46 0.00000 5.00491e-11
  86 3384.46 0.00000 -9.93579e-13
  87 3384.46 0.00000 1.09333e-10
  88 3384.46 0.00000 2.52327e-12
  89 3384.46 0.00000 -1.02480e-10
  90 3384.46 0.00000 -7.11534e-11
  91 3384.46 0.00000 7.38354e-11
  92 3384.46 0.00000 1.76355e-11
  93 3384.46 0.00000 6.72335e-12
  94 3384.46 0.00000 2.97990e-11
  95 3384.46 0.00000 5.57405e-11
  96 3384.46 0.00000 -1.32259e-11
  97 3384.46 0.00000 -1.24292e-11
  98 3384.46 0.00000 1.55699e-10
  99 3384.46 0.00000 4.83172e-11
  100 3384.46 0.00000 -6.79834e-11
  101 3384.46 0.00000 -1.38532e-11
  102 3384.46 0.00000 2.24699e-11
  103 3384.46 0.00000 2.81543e-11
  104 3384.46 0.00000 2.96079e-11
  105 3384.46 0.00000 -3.40510e-11
  106 3384.46 0.00000 2.49327e-11
  107 3384.46 0.00000 -1.71083e-11
  108 3384.46 0.00000 3.36150e-11
  109 3384.46 0.00000 -4.36175e-11
  110 3384.46 0.00000 -2.00327e-11
  111 3384.46 0.00000 1.62106e-11
  112 3384.46 0.00000 -8.24414e-12
  113 3384.46 0.00000 -6.66753e-11
  114 3384.46 0.00000 -5.01231e-11
  115 3384.46 0.00000 1.42528e-11
  116 3384.46 0.00000 -1.77823e-10
  117 3384.46 0.00000 1.09126e-11
  118 3384.46 0.00000 7.15656e-11
  119 3384.46 0.00000 4.66150e-11
  120 3384.46 0.00000 -6.09065e-12
  121 3384.46 0.00000 -4.08602e-11
  122 3384.46 0.00000 -3.03801e-11
  123 3384.46 0.00000 -5.11519e-11
  124 3384.46 0.00000 8.20576e-12
  125 3384.46 0.00000 3.03257e-11
  126 3384.46 0.00000 -1.37674e-10
  127 3384.46 0.00000 2.13810e-11
  128 3384.46 0.00000 -1.64319e-12
  129 3384.46 0.00000 1.45013e-10
  130 3384.46 0.00000 -1.30493e-11
  131 3384.46 0.00000 1.42920e-11
  132 3384.46 0.00000 -1.44762e-12
  133 3384.46 0.00000 4.89840e-11
  134 3384.46 0.00000 -6.21281e-11
  135 3384.46 0.00000 -1.41356e-12
  136 3384.46 0.00000 1.67553e-10
  137 3384.46 0.00000 1.82339e-11
  138 3384.46 0.00000 1.63413e-11
  139 3384.46 0.00000 -2.06004e-11
  140 3384.46 0.00000 1.10624e-12
  141 3384.46 0.00000 1.21463e-12
  142 3384.46 0.00000 -1.09221e-10
  143 3384.46 0.00000 3.63342e-11
  144 3384.46 0.00000 -5.07890e-11
  145 3384.46 0.00000 4.61052e-12
  146 3384.46 0.00000 8.33628e-11
  147 3384.46 0.00000 -5.57376e-11
  148 3384.46 0.00000 -1.68538e-11
  149 3384.46 0.00000 -3.16237e-11
  150 3384.46 0.00000 2.71495e-11
  151 3384.46 0.00000 -7.87898e-12
  152 3384.46 0.00000 3.57905e-11
  153 3384.46 0.00000 1.80018e-13
  154 3384.46 0.00000 7.85192e-12
  155 3384.46 0.00000 -3.35491e-11
  156 3384.46 0.00000 -8.96173e-12
  157 3384.46 0.00000 4.15935e-11
  158 3384.46 0.00000 -3.08171e-11
  159 3384.46 0.00000 -1.62756e-11
  160 3384.46 0.00000 2.74783e-14
  161 3384.46 0.00000 -2.59036e-11
  162 3384.46 0.00000 2.05899e-11
  163 3384.46 0.00000 -2.26369e-11
  164 3384.46 0.00000 1.86794e-11
  165 3384.46 0.00000 -9.42040e-11
  166 3384.46 0.00000 4.64237e-11
  167 3384.46 0.00000 -9.28767e-12
  168 3384.46 0.00000 -6.49733e-12
  169 3384.46 0.00000 -5.31036e-11
  170 3384.46 0.00000 2.57202e-11
  171 3384.46 0.00000 -4.77030e-11
  172 3384.46 0.00000 4.07769e-11
  173 3384.46 0.00000 1.18419e-10
  174 3384.46 0.00000 1.02094e-11
  175 3384.46 0.00000 7.40094e-11
  176 3384.46 0.00000 -8.37625e-11
  177 3384.46 0.00000 8.05530e-12
  178 3384.46 0.00000 -5.00472e-12
  179 3384.46 0.00000 -1.79368e-10
  180 3384.46 0.00000 -2.12403e-11
  181 3384.46 0.00000 1.80336e-11
  182 3384.46 0.00000 -6.30189e-11
  183 3384.46 0.00000 6.41395e-11
  184 3384.46 0.00000 6.91293e-11
  185 3384.46 0.00000 -1.07593e-10
  186 3384.46 0.00000 5.39070e-11
  187 3384.46 0.00000 1.81568e-11
  188 3384.46 0.00000 2.11611e-11
  189 3384.46 0.00000 -2.84863e-11
  190 3384.46 0.00000 8.04187e-11
  191 3384.46 0.00000 2.03219e-11
  192 3384.46 0.00000 2.48585e-11
  193 3384.46 0.00000 -3.50389e-11
  194 3384.46 0.00000 -8.84070e-12
  195 3384.46 0.00000 7.69129e-11
  196 3384.46 0.00000 -1.06711e-11
  197 3384.46 0.00000 -7.24317e-11
  198 3384.46 0.00000 2.73096e-11
  199 3384.46 0.00000 2.87938e-11
  200 3384.46 0.00000 2.70895e-11
  201 3384.46 0.00000 -1.62970e-11
  202 3384.46 0.00000 -4.94577e-11
  203 3384.46 0.00000 -3.83395e-11
  204 3384.46 0.00000 4.00466e-11
  205 3384.46 0.00000 -4.27713e-11
  206 3384.46 0.00000 -1.45243e-11
  207 3384.46 0.00000 1.72601e-10
  208 3384.46 0.00000 -1.17423e-11
  209 3384.46 0.00000 -4.31810e-12
  210 3384.46 0.00000 1.28795e-10
  211 3384.46 0.00000 -1.56599e-10
  212 3384.46 0.00000 1.32701e-11
  213 3384.46 0.00000 1.29677e-10
  214 3384.46 0.00000 4.55395e-11
  215 3384.46 0.00000 3.17139e-11
  216 3384.46 0.00000 4.93813e-11
  217 3384.46 0.00000 -3.34989e-12
  218 3384.46 0.00000 1.21380e-10
  219 3384.46 0.00000 4.13576e-11
  220 3384.46 0.00000 5.16298e-11
  221 3384.46 0.00000 1.81371e-11
  222 3384.46 0.00000 2.53945e-11
  223 3384.46 0.00000 -8.43994e-11
  224 3384.46 0.00000 -9.79004e-11
  225 3384.46 0.00000 2.64698e-11
  226 3384.46 0.00000 -7.19476e-11
  227 3384.46 0.00000 3.35743e-11
  228 3384.46 0.00000 1.31695e-11
  229 3384.46 0.00000 -3.45285e-11
  230 3384.46 0.00000 -2.13301e-11
  231 3384.46 0.00000 1.96428e-12
  232 3384.46 0.00000 5.08667e-11
  233 3384.46 0.00000 -8.31073e-14
  234 3384.46 0.00000 3.03443e-11
  235 3384.46 0.00000 -3.69678e-11
  236 3384.46 0.00000 -1.27590e-10
  237 3384.46 0.00000 3.84587e-11
  238 3384.46 0.00000 -9.11072e-13
  239 3384.46 0.00000 -7.06374e-13
  240 3384.46 0.00000 -1.34537e-11
  241 3384.46 0.00000 6.71535e-11
</Section>

newXOutput 92

<Section columns = "stress_xx | stress_yy | stress_xy">
  1 3436.62 0.00000 6.41466e-11
  2 3436.62 0.00000 -2.37022e-11
  3 3436.62 0.00000 -1.69998e-11
  4 3436.62 0.00000 -6.88805e-11
  5 3436.62 0.00000 1.25258e-10
  6 3436.62 0.00000 1.94868e-10
  7 3436.62 0.00000 2.37964e-10
  8 3436.62 0.00000 2.24134e-10
  9 3436.62 0.00000 1.75355e-10
  10 3436.62 0.00000 1.31104e-10
  11 3436.62 0.00000 8.74787e-11
  12 3436.62 0.00000 3.53543e-11
  13 3436.62 0.00000 -1.65704e-11
  14 3436.62 0.00000 -5.33126e-11
  15 3436.62 0.00000 -7.42102e-11
  16 3436.62 0.00000 -8.84898e-11
  17 3436.62 0.00000 -8.34784e-11
  18 3436.62 0.00000 -5.93620e-11
  19 3436.62 0.00000 -5.33425e-12
  20 3436.62 0.00000 2.03230e-11
  21 3436.62 0.00000 1.07300e-11
  22 3436.62 0.00000 -1.45844e-11
  23 3436.62 0.00000 -2.52841e-11
  24 3436.62 0.00000 -5.16011e-12
  25 3436.62 0.00000 1.13988e-11
  26 3436.62 0.00000 2.20066e-11
  27 3436.62 0.00000 2.87418e-11
  28 3436.62 0.00000 1.91366e-11
  29 3436.62 0.00000 6.06700e-12
  30 3436.62 0.00000 -1.76214e-12
  31 3436.62 0.00000 -2.95100e-11
  32 3436.62 0.00000 -2.83819e-11
  33 3436.62 0.00000 -1.54009e-11
  34 3436.62 0.00000 1.13117e-11
  35 3436.62 0.00000 3.18733e-11
  36 3436.62 0.00000 4.42179e-11
  37 3436.62 0.00000 5.70529e-11
  38 3436.62 0.00000 9.06927e-11
  39 3436.62 0.00000 9.20980e-11
  40 3436.62 0.00000 5.91128e-11
  41 3436.62 0.00000 2.37641e-11
  42 3436.62 0.00000 -3.21587e-11
  43 3436.62 0.00000 -9.04560e-11
  44 3436.62 0.00000 -1.50043e-10
  45 3436.62 0.00000 -1.94124e-10
  46 3436.62 0.00000 -2.09580e-10
  47 3436.62 0.00000 -2.25067e-10
  48 3436.62 0.00000 -1.96709e-10
  49 3436.62 0.00000 -1.19410e-10
  50 3436.62 0.00000 -4.44964e-11
  51 3436.62 0.00000 -2.84234e-11
  52 3436.62 0.00000 -1.76756e-11
  53 3436.62 0.00000 6.90486e-12
  54 3436.62 0.00000 2.80953e-11
  55 3436.62 0.00000 3.38341e-11
  56 3436.62 0.00000 4.39857e-11
  57 3436.62 0.00000 1.09475e-11
  58 3436.62 0.00000 -4.32880e-11
  59 3436.62 0.00000 -8.64555e-12
  60 3436.62 0.00000 4.65441e-11
  61 3436.62 0.00000 2.66873e-11
  62 3436.62 0.00000 -4.77704e-11
  63 3436.62 0.00000 -1.87192e-12
  64 3436.62 0.00000 4.95390e-12
  65 3436.62 0.00000 -9.45584e-11
  66 3436.62 0.00000 8.57530e-11
  67 3436.62 0.00000 -7.64660e-12
  68 3436.62 0.00000 -2.89070e-11
  69 3436.62 0.00000 2.44396e-11
  70 3436.62 0.00000 4.64532e-11
  71 3436.62 0.00000 9.46644e-11
  72 3436.62 0.00000 -2.28214e-11
  73 3436.62 0.00000 -2.62945e-11
  74 3436.62 0.00000 -1.17635e-10
  75 3436.62 0.00000 -1.12298e-11
  76 3436.62 0.00000 2.84776e-11
  77 3436.62 0.00000 -6.73866e-12
  78 3436.62 0.00000 -5.40718e-12
  79 3436.62 0.00000 -2.29847e-11
  80 3436.62 0.00000 2.09791e-12
  81 3436.62 0.00000 2.09297e-11
  82 3436.62 0.00000 6.73897e-11
  83 3436.62 0.00000 8.15805e-12
  84 3436.62 0.00000 1.68980e-10
  85 3436.62 0.00000 -5.87966e-11
  86 3436.62 0.00000 -1.30451e-13
  87 3436.62 0.00000 -1.28177e-10
  88 3436.62 0.00000 -1.64880e-12
  89 3436.62 0.00000 1.19085e-10
  90 3436.62 0.00000 8.60841e-11
  91 3436.62 0.00000 -8.85416e-11
  92 3436.62 0.00000 -2.09274e-11
  93 3436.62 0.00000 -8.86364e-12
  94 3436.62 0.00000 -3.49725e-11
  95 3436.62 0.00000 -6.67935e-11
  96 3436.62 0.00000 1.42020e-11
  97 3436.62 0.00000 1.13367e-11
  98 3436.62 0.00000 -1.84067e-10
  99 3436.62 0.00000 -5.60013e-11
  100 3436.62 0.00000 8.03642e-11
  101 3436.62 0.00000 1.82352e-11
  102 3436.62 0.00000 -2.78302e-11
  103 3436.62 0.00000 -3.13534e-11
  104 3436.62 0.00000 -3.70816e-11
  105 3436.62 0.00000 3.91620e-11
  106 3436.62 0.00000 -2.81444e-11
  107 3436.62 0.00000 2.16012e-11
  108 3436.62 0.00000 -3.90187e-11
  109 3436.62 0.00000 5.02579e-11
  110 3436.62 0.00000 2.34270e-11
  111 3436.62 0.00000 -1.74557e-11
  112 3436.62 0.00000 1.07911e-11
  113 3436.62 0.00000 7.83871e-11
  114 3436.62 0.00000 6.01254e-11
  115 3436.62 0.00000 -1.57931e-11
  116 3436.62 0.00000 2.09063e-10
  117 3436.62 0.00000 -1.47457e-11
  118 3436.62 0.00000 -8.55897e-11
  119 3436.62 0.00000 -5.49139e-11
  120 3436.62 0.00000 8.55862e-12
  121 3436.62 0.00000 4.90123e-11
  122 3436.62 0.00000 3.58747e-11
  123 3436.62 0.00000 6.05727e-11
  124 3436.62 0.00000 -8.37042e-12
  125 3436.62 0.00000 -3.47407e-11
  126 3436.62 0.00000 1.63583e-10
  127 3436.62 0.00000 -2.43756e-11
  128 3436.62 0.00000 -1.57174e-13
  129 3436.62 0.00000 -1.72756e-10
  130 3436.62 0.00000 1.49306e-11
  131 3436.62 0.00000 -1.51021e-11
  132 3436.62 0.00000 1.73126e-13
  133 3436.62 0.00000 -5.71868e-11
  134 3436.62 0.00000 7.41024e-11
  135 3436.62 0.00000 1.34989e-12
  136 3436.62 0.00000 -1.96643e-10
  137 3436.62 0.00000 -1.91377e-11
  138 3436.62 0.00000 -1.81910e-11
  139 3436.62 0.00000 2.40890e-11
  140 3436.62 0.00000 -3.04604e-12
  141 3436.62 0.00000 -1.15028e-12
  142 3436.62 0.00000 1.32004e-10
  143 3436.62 0.00000 -4.39836e-11
  144 3436.62 0.00000 5.97980e-11
  145 3436.62 0.00000 -5.46727e-12
  146 3436.62 0.00000 -9.98732e-11
  147 3436.62 0.00000 6.44458e-11
  148 3436.62 0.00000 1.88499e-11
  149 3436.62 0.00000 3.63550e-11
  150 3436.62 0.00000 -3.11328e-11
  151 3436.62 0.00000 1.02375e-11
  152 3436.62 0.00000 -4.15660e-11
  153 3436.62 0.00000 2.36883e-14
  154 3436.62 0.00000 -9.52213e-12
  155 3436.62 0.00000 3.93752e-11
  156 3436.62 0.00000 1.01072e-11
  157 3436.62 0.00000 -4.92451e-11
  158 3436.62 0.00000 3.58916e-11
  159 3436.62 0.00000 1.69231e-11
  160 3436.62 0.00000 -1.24063e-12
  161 3436.62 0.00000 2.96146e-11
  162 3436.62 0.00000 -2.39710e-11
  163 3436.62 0.00000 2.63744e-11
  164 3436.62 0.00000 -2.25658e-11
  165 3436.62 0.00000 1.11134e-10
  166 3436.62 0.00000 -5.36410e-11
  167 3436.62 0.00000 9.97810e-12
  168 3436.62 0.00000 6.77076e-12
  169 3436.62 0.00000 6.19501e-11
  170 3436.62 0.00000 -2.73855e-11
  171 3436.62 0.00000 5.89338e-11
  172 3436.62 0.00000 -4.72180e-11
  173 3436.62 0.00000 -1.41333e-10
  174 3436.62 0.00000 -1.39835e-11
  175 3436.62 0.00000 -8.63008e-11
  176 3436.62 0.00000 9.67315e-11
  177 3436.62 0.00000 -7.84184e-12
  178 3436.62 0.00000 4.45761e-12
  179 3436.62 0.00000 2.11761e-10
  180 3436.62 0.00000 2.57250e-11
  181 3436.62 0.00000 -2.09401e-11
  182 3436.62 0.00000 7.40504e-11
  183 3436.62 0.00000 -7.63245e-11
  184 3436.62 0.00000 -8.05668e-11
  185 3436.62 0.00000 1.26302e-10
  186 3436.62 0.00000 -6.16726e-11
  187 3436.62 0.00000 -1.98774e-11
  188 3436.62 0.00000 -2.37707e-11
  189 3436.62 0.00000 3.41225e-11
  190 3436.62 0.00000 -9.69164e-11
  191 3436.62 0.00000 -2.49032e-11
  192 3436.62 0.00000 -2.95807e-11
  193 3436.62 0.00000 4.23270e-11
  194 3436.62 0.00000 1.19213e-11
  195 3436.62 0.00000 -9.01260e-11
  196 3436.62 0.00000 1.25347e-11
  197 3436.62 0.00000 8.43771e-11
  198 3436.62 0.00000 -3.16131e-11
  199 3436.62 0.00000 -3.35892e-11
  200 3436.62 0.00000 -3.01530e-11
  201 3436.62 0.00000 2.01152e-11
  202 3436.62 0.00000 5.81561e-11
  203 3436.62 0.00000 4.60350e-11
  204 3436.62 0.00000 -4.77649e-11
  205 3436.62 0.00000 5.06954e-11
  206 3436.62 0.00000 1.48468e-11
  207 3436.62 0.00000 -2.03355e-10
  208 3436.62 0.00000 1.32377e-11
  209 3436.62 0.00000 4.34748e-12
  210 3436.62 0.00000 -1.51352e-10
  211 3436.62 0.00000 1.82703e-10
  212 3436.62 0.00000 -1.61491e-11
  213 3436.62 0.00000 -1.52401e-10
  214 3436.62 0.00000 -5.55573e-11
  215 3436.62 0.00000 -3.56270e-11
  216 3436.62 0.00000 -5.75475e-11
  217 3436.62 0.00000 2.44012e-12
  218 3436.62 0.00000 -1.44192e-10
  219 3436.62 0.00000 -4.91823e-11
  220 3436.62 0.00000 -6.26399e-11
  221 3436.62 0.00000 -2.01737e-11
  222 3436.62 0.00000 -2.72004e-11
  223 3436.62 0.00000 1.02585e-10
  224 3436.62 0.00000 1.17585e-10
  225 3436.62 0.00000 -3.10272e-11
  226 3436.62 0.00000 8.41258e-11
  227 3436.62 0.00000 -3.96225e-11
  228 3436.62 0.00000 -1.39957e-11
  229 3436.62 0.00000 4.06132e-11
  230 3436.62 0.00000 2.55103e-11
  231 3436.62 0.00000 -3.86895e-12
  232 3436.62 0.00000 -6.09293e-11
  233 3436.62 0.00000 -1.27546e-12
  234 3436.62 0.00000 -3.71777e-11
  235 3436.62 0.00000 4.26073e-11
  236 3436.62 0.00000 1.48916e-10
  237 3436.62 0.00000 -4.51634e-11
  238 3436.62 0.00000 1.27721e-12
  239 3436.62 0.00000 -1.66048e-12
  240 3436.62 0.00000 1.85917e-11
  241 3436.62 0.00000 -7.93228e-11
</Section>

newXOutput 93

<Section columns = "stress_xx | stress_yy | stress_xy">
  1 3488.96 0.00000 -7.40038e-11
  2 3488.96 0.00000 2.69566e-11
  3 3488.96 0.00000 1.76320e-11
  4 3488.96 0.00000 8.04808e-11
  5 3488.96 0.00000 -1.45955e-10
  6 3488.96 0.00000 -2.29032e-10
  7 3488.96 0.00000 -2.79829e-10
  8 3488.96 0.00000 -2.66974e-10
  9 3488.96 0.00000 -2.11099e-10
  10 3488.96 0.00000 -1.58216e-10
  11 3488.96 0.00000 -1.06232e-10
  12 3488.96 0.00000 -4.55053e-11
  13 3488.96 0.00000 1.56260e-11
  14 3488.96 0.00000 6.08681e-11
  15 3488.96 0.00000 8.79557e-11
  16 3488.96 0.00000 1.06088e-10
  17 3488.96 0.00000 9.83710e-11
  18 3488.96 0.00000 7.10935e-11
  19 3488.96 0.00000 9.92475e-12
  20 3488.96 0.00000 -1.88542e-11
  21 3488.96 0.00000 -9.31076e-12
  22 3488.96 0.00000 1.58000e-11
  23 3488.96 0.00000 2.64119e-11
  24 3488.96 0.00000 4.98506e-12
  25 3488.96 0.00000 -1.37029e-11
  26 3488.96 0.00000 -2.61923e-11
  27 3488.96 0.00000 -3.21841e-11
  28 3488.96 0.00000 -2.23218e-11
  29 3488.96 0.00000 -6.34838e-12
  30 3488.96 0.00000 3.06329e-12
  31 3488.96 0.00000 3.16197e-11
  32 3488.96 0.00000 2.78765e-11
  33 3488.96 0.00000 1.66839e-11
  34 3488.96 0.00000 -1.29008e-11
  35 3488.96 0.00000 -3.79392e-11
  36 3488.96 0.00000 -5.26109e-11
  37 3488.96 0.00000 -7.07836e-11
  38 3488.96 0.00000 -1.05944e-10
  39 3488.96 0.00000 -1.05714e-10
  40 3488.96 0.00000 -6.86637e-11
  41 3488.96 0.00000 -2.63138e-11
  42 3488.96 0.00000 4.00114e-11
  43 3488.96 0.00000 1.08849e-10
  44 3488.96 0.00000 1.80660e-10
  45 3488.96 0.00000 2.34059e-10
  46 3488.96 0.00000 2.50662e-10
  47 3488.96 0.00000 2.67562e-10
  48 3488.96 0.00000 2.33591e-10
  49 3488.96 0.00000 1.41969e-10
  50 3488.96 0.00000 5.18337e-11
  51 3488.96 0.00000 3.31350e-11
  52 3488.96 0.00000 2.05505e-11
  53 3488.96 0.00000 -7.55200e-12
  54 3488.96 0.00000 -3.25246e-11
  55 3488.96 0.00000 -3.89277e-11
  56 3488.96 0.00000 -5.04699e-11
  57 3488.96 0.00000 -1.22854e-11
  58 3488.96 0.00000 4.88916e-11
  59 3488.96 0.00000 1.03747e-11
  60 3488.96 0.00000 -5.43887e-11
  61 3488.96 0.00000 -3.29955e-11
  62 3488.96 0.00000 5.77213e-11
  63 3488.96 0.00000 4.01855e-12
  64 3488.96 0.00000 -4.01347e-12
  65 3488.96 0.00000 1.12428e-10
  66 3488.96 0.00000 -1.01399e-10
  67 3488.96 0.00000 8.77934e-12
  68 3488.96 0.00000 3.33780e-11
  69 3488.96 0.00000 -2.99127e-11
  70 3488.96 0.00000 -5.41311e-11
  71 3488.96 0.00000 -1.13481e-10
  72 3488.96 0.00000 2.38787e-11
  73 3488.96 0.00000 3.12006e-11
  74 3488.96 0.00000 1.40520e-10
  75 3488.96 0.00000 1.40154e-11
  76 3488.96 0.00000 -3.38540e-11
  77 3488.96 0.00000 8.41326e-12
  78 3488.96 0.00000 5.45430e-12
  79 3488.96 0.00000 2.60788e-11
  80 3488.96 0.00000 -3.22062e-12
  81 3488.96 0.00000 -2.30411e-11
  82 3488.96 0.00000 -7.92855e-11
  83 3488.96 0.00000 -1.07157e-11
  84 3488.96 0.00000 -2.01191e-10
  85 3488.96 0.00000 7.02623e-11
  86 3488.96 0.00000 3.09316e-14
  87 3488.96 0.00000 1.49529e-10
  88 3488.96 0.00000 3.89143e-12
  89 3488.96 0.00000 -1.39405e-10
  90 3488.96 0.00000 -1.05823e-10
  91 3488.96 0.00000 1.07241e-10
  92 3488.96 0.00000 2.55944e-11
  93 3488.96 0.00000 9.70745e-12
  94 3488.96 0.00000 4.38354e-11
  95 3488.96 0.00000 8.02736e-11
  96 3488.96 0.00000 -1.46173e-11
  97 3488.96 0.00000 -1.31491e-11
  98 3488.96 0.00000 2.17830e-10
  99 3488.96 0.00000 6.63844e-11
  100 3488.96 0.00000 -9.48375e-11
  101 3488.96 0.00000 -2.40374e-11
  102 3488.96 0.00000 3.15434e-11
  103 3488.96 0.00000 3.44644e-11
  104 3488.96 0.00000 4.61889e-11
  105 3488.96 0.00000 -4.65064e-11
  106 3488.96 0.00000 3.23647e-11
  107 3488.96 0.00000 -2.43178e-11
  108 3488.96 0.00000 4.55015e-11
  109 3488.96 0.00000 -5.84406e-11
  110 3488.96 0.00000 -2.81552e-11
  111 3488.96 0.00000 1.98094e-11
  112 3488.96 0.00000 -1.16119e-11
  113 3488.96 0.00000 -9.22076e-11
  114 3488.96 0.00000 -7.14873e-11
  115 3488.96 0.00000 1.59664e-11
  116 3488.96 0.00000 -2.46020e-10
  117 3488.96 0.00000 1.71817e-11
  118 3488.96 0.00000 1.01944e-10
  119 3488.96 0.00000 6.40472e-11
  120 3488.96 0.00000 -1.19231e-11
  121 3488.96 0.00000 -5.90820e-11
  122 3488.96 0.00000 -4.15723e-11
  123 3488.96 0.00000 -7.14200e-11
  124 3488.96 0.00000 8.38020e-12
  125 3488.96 0.00000 4.16401e-11
  126 3488.96 0.00000 -1.96090e-10
  127 3488.96 0.00000 3.02978e-11
  128 3488.96 0.00000 2.19942e-12
  129 3488.96 0.00000 2.06985e-10
  130 3488.96 0.00000 -1.72972e-11
  131 3488.96 0.00000 1.64957e-11
  132 3488.96 0.00000 5.56834e-13
  133 3488.96 0.00000 6.84605e-11
  134 3488.96 0.00000 -8.90392e-11
  135 3488.96 0.00000 -1.41720e-12
  136 3488.96 0.00000 2.32408e-10
  137 3488.96 0.00000 2.07510e-11
  138 3488.96 0.00000 2.17681e-11
  139 3488.96 0.00000 -2.77431e-11
  140 3488.96 0.00000 1.94777e-12
  141 3488.96 0.00000 -1.01985e-13
  142 3488.96 0.00000 -1.60759e-10
  143 3488.96 0.00000 5.30462e-11
  144 3488.96 0.00000 -6.96112e-11
  145 3488.96 0.00000 5.35651e-12
  146 3488.96 0.00000 1.20846e-10
  147 3488.96 0.00000 -7.58148e-11
  148 3488.96 0.00000 -2.12683e-11
  149 3488.96 0.00000 -4.17547e-11
  150 3488.96 0.00000 3.51890e-11
  151 3488.96 0.00000 -1.42899e-11
  152 3488.96 0.00000 4.68277e-11
  153 3488.96 0.00000 1.19494e-12
  154 3488.96 0.00000 1.09821e-11
  155 3488.96 0.00000 -4.62693e-11
  156 3488.96 0.00000 -1.06444e-11
  157 3488.96 0.00000 5.78500e-11
  158 3488.96 0.00000 -4.04891e-11
  159 3488.96 0.00000 -1.57880e-11
  160 3488.96 0.00000 1.52897e-12
  161 3488.96 0.00000 -3.43476e-11
  162 3488.96 0.00000 2.81610e-11
  163 3488.96 0.00000 -3.09175e-11
  164 3488.96 0.00000 2.82841e-11
  165 3488.96 0.00000 -1.32325e-10
  166 3488.96 0.00000 6.21648e-11
  167 3488.96 0.00000 -1.11630e-11
  168 3488.96 0.00000 -7.49692e-12
  169 3488.96 0.00000 -7.22287e-11
  170 3488.96 0.00000 2.99055e-11
  171 3488.96 0.00000 -7.30551e-11
  172 3488.96 0.00000 5.47844e-11
  173 3488.96 0.00000 1.71091e-10
  174 3488.96 0.00000 1.53873e-11
  175 3488.96 0.00000 1.01243e-10
  176 3488.96 0.00000 -1.12302e-10
  177 3488.96 0.00000 1.04244e-11
  178 3488.96 0.00000 -4.36299e-12
  179 3488.96 0.00000 -2.51613e-10
  180 3488.96 0.00000 -2.94560e-11
  181 3488.96 0.00000 2.31332e-11
  182 3488.96 0.00000 -8.84127e-11
  183 3488.96 0.00000 9.17519e-11
  184 3488.96 0.00000 9.56150e-11
  185 3488.96 0.00000 -1.49533e-10
  186 3488.96 0.00000 7.20770e-11
  187 3488.96 0.00000 2.25479e-11
  188 3488.96 0.00000 2.69139e-11
  189 3488.96 0.00000 -4.24171e-11
  190 3488.96 0.00000 1.17248e-10
  191 3488.96 0.00000 3.08573e-11
  192 3488.96 0.00000 3.66887e-11
  193 3488.96 0.00000 -5.06658e-11
  194 3488.96 0.00000 -1.23215e-11
  195 3488.96 0.00000 1.05217e-10
  196 3488.96 0.00000 -1.46595e-11
  197 3488.96 0.00000 -9.89902e-11
  198 3488.96 0.00000 3.86003e-11
  199 3488.96 0.00000 4.07576e-11
  200 3488.96 0.00000 3.40252e-11
  201 3488.96 0.00000 -2.27179e-11
  202 3488.96 0.00000 -6.83248e-11
  203 3488.96 0.00000 -5.65160e-11
  204 3488.96 0.00000 5.40035e-11
  205 3488.96 0.00000 -6.05952e-11
  206 3488.96 0.00000 -1.45325e-11
  207 3488.96 0.00000 2.41880e-10
  208 3488.96 0.00000 -1.64136e-11
  209 3488.96 0.00000 -6.02400e-12
  210 3488.96 0.00000 1.78679e-10
  211 3488.96 0.00000 -2.13768e-10
  212 3488.96 0.00000 1.61986e-11
  213 3488.96 0.00000 1.79920e-10
  214 3488.96 0.00000 6.73525e-11
  215 3488.96 0.00000 4.00122e-11
  216 3488.96 0.00000 6.89683e-11
  217 3488.96 0.00000 -2.12085e-12
  218 3488.96 0.00000 1.70625e-10
  219 3488.96 0.00000 5.67366e-11
  220 3488.96 0.00000 7.58762e-11
  221 3488.96 0.00000 2.31035e-11
  222 3488.96 0.00000 3.10970e-11
  223 3488.96 0.00000 -1.25734e-10
  224 3488.96 0.00000 -1.41334e-10
  225 3488.96 0.00000 3.84501e-11
  226 3488.96 0.00000 -9.97005e-11
  227 3488.96 0.00000 4.53216e-11
  228 3488.96 0.00000 1.71917e-11
  229 3488.96 0.00000 -4.65561e-11
  230 3488.96 0.00000 -2.70223e-11
  231 3488.96 0.00000 7.27974e-12
  232 3488.96 0.00000 7.19690e-11
  233 3488.96 0.00000 3.86238e-12
  234 3488.96 0.00000 4.49129e-11
  235 3488.96 0.00000 -5.00234e-11
  236 3488.96 0.00000 -1.75898e-10
  237 3488.96 0.00000 5.36429e-11
  238 3488.96 0.00000 -2.93973e-12
  239 3488.96 0.00000 3.89972e-12
  240 3488.96 0.00000 -2.44687e-11
  241 3488.96 0.00000 9.32816e-11
</Section>

newXOutput 94

<Section columns = "stress_xx | stress_yy | stress_xy">
  1 3541.50 0.00000 8.69317e-11
  2 3541.50 0.00000 -2.92416e-11
  3 3541.50 0.00000 -2.10298e-11
  4 3541.50 0.00000 -9.29271e-11
  5 3541.50 0.00000 1.71851e-10
  6 3541.50 0.00000 2.71047e-10
  7 3541.50 0.00000 3.31640e-10
  8 3541.50 0.00000 3.19817e-10
  9 3541.50 0.00000 2.54036e-10
  10 3541.50 0.00000 1.91642e-10
  11 3541.50 0.00000 1.29126e-10
  12 3541.50 0.00000 5.59051e-11
  13 3541.50 0.00000 -1.65354e-11
  14 3541.50 0.00000 -7.04355e-11
  15 3541.50 0.00000 -1.03483e-10
  16 3541.50 0.00000 -1.27439e-10
  17 3541.50 0.00000 -1.18774e-10
  18 3541.50 0.00000 -8.75630e-11
  19 3541.50 0.00000 -1.52474e-11
  20 3541.50 0.00000 2.23072e-11
  21 3541.50 0.00000 1.09845e-11
  22 3541.50 0.00000 -1.70854e-11
  23 3541.50 0.00000 -2.88838e-11
  24 3541.50 0.00000 -6.44670e-12
  25 3541.50 0.00000 1.50416e-11
  26 3541.50 0.00000 2.91189e-11
  27 3541.50 0.00000 3.79139e-11
  28 3541.50 0.00000 2.52346e-11
  29 3541.50 0.00000 7.49948e-12
  30 3541.50 0.00000 -2.89092e-12
  31 3541.50 0.00000 -3.55179e-11
  32 3541.50 0.00000 -3.31865e-11
  33 3541.50 0.00000 -1.70868e-11
  34 3541.50 0.00000 2.18756e-11
  35 3541.50 0.00000 4.73691e-11
  36 3541.50 0.00000 6.40888e-11
  37 3541.50 0.00000 8.61982e-11
  38 3541.50 0.00000 1.25457e-10
  39 3541.50 0.00000 1.23947e-10
  40 3541.50 0.00000 7.79430e-11
  41 3541.50 0.00000 2.94553e-11
  42 3541.50 0.00000 -4.86071e-11
  43 3541.50 0.00000 -1.31598e-10
  44 3541.50 0.00000 -2.16778e-10
  45 3541.50 0.00000 -2.81425e-10
  46 3541.50 0.00000 -3.00280e-10
  47 3541.50 0.00000 -3.17669e-10
  48 3541.50 0.00000 -2.75270e-10
  49 3541.50 0.00000 -1.65561e-10
  50 3541.50 0.00000 -6.08804e-11
  51 3541.50 0.00000 -3.93024e-11
  52 3541.50 0.00000 -2.43725e-11
  53 3541.50 0.00000 8.77925e-12
  54 3541.50 0.00000 3.78324e-11
  55 3541.50 0.00000 4.56992e-11
  56 3541.50 0.00000 5.92506e-11
  57 3541.50 0.00000 1.41149e-11
  58 3541.50 0.00000 -5.52132e-11
  59 3541.50 0.00000 -1.26568e-11
  60 3541.50 0.00000 6.30542e-11
  61 3541.50 0.00000 4.03385e-11
  62 3541.50 0.00000 -6.96636e-11
  63 3541.50 0.00000 -6.47632e-12
  64 3541.50 0.00000 3.41479e-12
  65 3541.50 0.00000 -1.32953e-10
  66 3541.50 0.00000 1.18873e-10
  67 3541.50 0.00000 -1.02269e-11
  68 3541.50 0.00000 -4.00434e-11
  69 3541.50 0.00000 3.54622e-11
  70 3541.50 0.00000 6.30826e-11
  71 3541.50 0.00000 1.35339e-10
  72 3541.50 0.00000 -2.73216e-11
  73 3541.50 0.00000 -3.79950e-11
  74 3541.50 0.00000 -1.67515e-10
  75 3541.50 0.00000 -1.82116e-11
  76 3541.50 0.00000 3.82637e-11
  77 3541.50 0.00000 -1.02479e-11
  78 3541.50 0.00000 -4.45788e-12
  79 3541.50 0.00000 -2.97096e-11
  80 3541.50 0.00000 3.38310e-12
  81 3541.50 0.00000 2.57337e-11
  82 3541.50 0.00000 9.26155e-11
  83 3541.50 0.00000 1.22978e-11
  84 3541.50 0.00000 2.38648e-10
  85 3541.50 0.00000 -8.41703e-11
  86 3541.50 0.00000 -1.48128e-12
  87 3541.50 0.00000 -1.76521e-10
  88 3541.50 0.00000 -4.07415e-12
  89 3541.50 0.00000 1.62991e-10
  90 3541.50 0.00000 1.28578e-10
  91 3541.50 0.00000 -1.30937e-10
  92 3541.50 0.00000 -3.07901e-11
  93 3541.50 0.00000 -1.04423e-11
  94 3541.50 0.00000 -5.33119e-11
  95 3541.50 0.00000 -9.63553e-11
  96 3541.50 0.00000 1.62743e-11
  97 3541.50 0.00000 1.23380e-11
  98 3541.50 0.00000 -2.59111e-10
  99 3541.50 0.00000 -7.61825e-11
  100 3541.50 0.00000 1.11790e-10
  101 3541.50 0.00000 2.98024e-11
  102 3541.50 0.00000 -3.75729e-11
  103 3541.50 0.00000 -4.13610e-11
  104 3541.50 0.00000 -5.69121e-11
  105 3541.50 0.00000 5.26714e-11
  106 3541.50 0.00000 -3.74517e-11
  107 3541.50 0.00000 2.73776e-11
  108 3541.50 0.00000 -5.29864e-11
  109 3541.50 0.00000 6.80345e-11
  110 3541.50 0.00000 3.13049e-11
  111 3541.50 0.00000 -2.22079e-11
  112 3541.50 0.00000 1.32439e-11
  113 3541.50 0.00000 1.08607e-10
  114 3541.50 0.00000 8.57843e-11
  115 3541.50 0.00000 -1.68763e-11
  116 3541.50 0.00000 2.91022e-10
  117 3541.50 0.00000 -2.20928e-11
  118 3541.50 0.00000 -1.21212e-10
  119 3541.50 0.00000 -7.58095e-11
  120 3541.50 0.00000 1.67875e-11
  121 3541.50 0.00000 7.02980e-11
  122 3541.50 0.00000 4.89635e-11
  123 3541.50 0.00000 8.20134e-11
  124 3541.50 0.00000 -1.02461e-11
  125 3541.50 0.00000 -4.97086e-11
  126 3541.50 0.00000 2.34559e-10
  127 3541.50 0.00000 -3.74808e-11
  128 3541.50 0.00000 -3.12209e-12
  129 3541.50 0.00000 -2.47992e-10
  130 3541.50 0.00000 1.85486e-11
  131 3541.50 0.00000 -1.89048e-11
  132 3541.50 0.00000 -2.54698e-12
  133 3541.50 0.00000 -8.26653e-11
  134 3541.50 0.00000 1.07057e-10
  135 3541.50 0.00000 1.68157e-12
  136 3541.50 0.00000 -2.75372e-10
  137 3541.50 0.00000 -2.29416e-11
  138 3541.50 0.00000 -2.53438e-11
  139 3541.50 0.00000 3.21787e-11
  140 3541.50 0.00000 -2.21541e-12
  141 3541.50 0.00000 1.47523e-12
  142 3541.50 0.00000 1.94155e-10
  143 3541.50 0.00000 -6.44485e-11
  144 3541.50 0.00000 8.05132e-11
  145 3541.50 0.00000 -2.87543e-12
  146 3541.50 0.00000 -1.45958e-10
  147 3541.50 0.00000 8.85168e-11
  148 3541.50 0.00000 2.37956e-11
  149 3541.50 0.00000 4.67122e-11
  150 3541.50 0.00000 -3.94848e-11
  151 3541.50 0.00000 1.82736e-11
  152 3541.50 0.00000 -5.46059e-11
  153 3541.50 0.00000 -1.55248e-12
  154 3541.50 0.00000 -1.34945e-11
  155 3541.50 0.00000 5.21906e-11
  156 3541.50 0.00000 1.33171e-11
  157 3541.50 0.00000 -6.81961e-11
  158 3541.50 0.00000 4.62659e-11
  159 3541.50 0.00000 1.84226e-11
  160 3541.50 0.00000 -1.86671e-12
  161 3541.50 0.00000 4.10879e-11
  162 3541.50 0.00000 -3.32601e-11
  163 3541.50 0.00000 3.59402e-11
  164 3541.50 0.00000 -3.59665e-11
  165 3541.50 0.00000 1.57013e-10
  166 3541.50 0.00000 -7.33353e-11
  167 3541.50 0.00000 1.07869e-11
  168 3541.50 0.00000 8.79198e-12
  169 3541.50 0.00000 8.45957e-11
  170 3541.50 0.00000 -3.33270e-11
  171 3541.50 0.00000 8.85793e-11
  172 3541.50 0.00000 -6.35489e-11
  173 3541.50 0.00000 -2.05869e-10
  174 3541.50 0.00000 -1.75520e-11
  175 3541.50 0.00000 -1.18498e-10
  176 3541.50 0.00000 1.31312e-10
  177 3541.50 0.00000 -1.17229e-11
  178 3541.50 0.00000 4.20006e-12
  179 3541.50 0.00000 2.99941e-10
  180 3541.50 0.00000 3.44924e-11
  181 3541.50 0.00000 -2.73787e-11
  182 3541.50 0.00000 1.05497e-10
  183 3541.50 0.00000 -1.11238e-10
  184 3541.50 0.00000 -1.15749e-10
  185 3541.50 0.00000 1.76423e-10
  186 3541.50 0.00000 -8.37259e-11
  187 3541.50 0.00000 -2.50626e-11
  188 3541.50 0.00000 -3.00428e-11
  189 3541.50 0.00000 5.10603e-11
  190 3541.50 0.00000 -1.42099e-10
  191 3541.50 0.00000 -3.70380e-11
  192 3541.50 0.00000 -4.46754e-11
  193 3541.50 0.00000 6.14778e-11
  194 3541.50 0.00000 1.24498e-11
  195 3541.50 0.00000 -1.23969e-10
  196 3541.50 0.00000 1.63583e-11
  197 3541.50 0.00000 1.16270e-10
  198 3541.50 0.00000 -4.83599e-11
  199 3541.50 0.00000 -4.99557e-11
  200 3541.50 0.00000 -3.91199e-11
  201 3541.50 0.00000 2.53861e-11
  202 3541.50 0.00000 7.80173e-11
  203 3541.50 0.00000 6.88562e-11
  204 3541.50 0.00000 -6.22785e-11
  205 3541.50 0.00000 7.15269e-11
  206 3541.50 0.00000 1.69308e-11
  207 3541.50 0.00000 -2.88376e-10
  208 3541.50 0.00000 2.35344e-11
  209 3541.50 0.00000 4.59559e-12
  210 3541.50 0.00000 -2.11670e-10
  211 3541.50 0.00000 2.51688e-10
  212 3541.50 0.00000 -1.83771e-11
  213 3541.50 0.00000 -2.11587e-10
  214 3541.50 0.00000 -8.14885e-11
  215 3541.50 0.00000 -4.64451e-11
  216 3541.50 0.00000 -8.33556e-11
  217 3541.50 0.00000 -1.22479e-12
  218 3541.50 0.00000 -2.02233e-10
  219 3541.50 0.00000 -6.90423e-11
  220 3541.50 0.00000 -9.24221e-11
  221 3541.50 0.00000 -2.66894e-11
  222 3541.50 0.00000 -3.67656e-11
  223 3541.50 0.00000 1.52525e-10
  224 3541.50 0.00000 1.70628e-10
  225 3541.50 0.00000 -4.64477e-11
  226 3541.50 0.00000 1.16704e-10
  227 3541.50 0.00000 -5.29210e-11
  228 3541.50 0.00000 -1.95466e-11
  229 3541.50 0.00000 5.39530e-11
  230 3541.50 0.00000 3.08185e-11
  231 3541.50 0.00000 -1.10463e-11
  232 3541.50 0.00000 -8.63511e-11
  233 3541.50 0.00000 -4.91298e-12
  234 3541.50 0.00000 -5.47364e-11
  235 3541.50 0.00000 5.68573e-11
  236 3541.50 0.00000 2.07306e-10
  237 3541.50 0.00000 -6.21658e-11
  238 3541.50 0.00000 5.08126e-12
  239 3541.50 0.00000 -5.04506e-12
  240 3541.50 0.00000 3.03044e-11
  241 3541.50 0.00000 -1.12241e-10
</Section>

newXOutput 95

<Section columns = "stress_xx | stress_yy | stress_xy">
  1 3594.23 0.00000 -1.00874e-10
  2 3594.23 0.00000 3.22947e-11
  3 3594.23 0.00000 2.29933e-11
  4 3594.23 0.00000 1.08877e-10
  5 3594.23 0.00000 -2.01915e-10
  6 3594.23 0.00000 -3.19202e-10
  7 3594.23 0.00000 -3.92876e-10
  8 3594.23 0.00000 -3.81728e-10
  9 3594.23 0.00000 -3.06473e-10
  10 3594.23 0.00000 -2.33009e-10
  11 3594.23 0.00000 -1.58450e-10
  12 3594.23 0.00000 -6.96933e-11
  13 3594.23 0.00000 1.63357e-11
  14 3594.23 0.00000 8.10155e-11
  15 3594.23 0.00000 1.22379e-10
  16 3594.23 0.00000 1.50499e-10
  17 3594.23 0.00000 1.39766e-10
  18 3594.23 0.00000 1.03840e-10
  19 3594.23 0.00000 2.11642e-11
  20 3594.23 0.00000 -2.28469e-11
  21 3594.23 0.00000 -1.01527e-11
  22 3594.23 0.00000 1.64488e-11
  23 3594.23 0.00000 3.10268e-11
  24 3594.23 0.00000 6.27669e-12
  25 3594.23 0.00000 -1.67936e-11
  26 3594.23 0.00000 -3.29552e-11
  27 3594.23 0.00000 -4.07689e-11
  28 3594.23 0.00000 -2.82073e-11
  29 3594.23 0.00000 -8.32505e-12
  30 3594.23 0.00000 2.69455e-12
  31 3594.23 0.00000 4.29307e-11
  32 3594.23 0.00000 3.30428e-11
  33 3594.23 0.00000 1.65940e-11
  34 3594.23 0.00000 -2.63540e-11
  35 3594.23 0.00000 -5.79616e-11
  36 3594.23 0.00000 -7.74571e-11
  37 3594.23 0.00000 -1.03554e-10
  38 3594.23 0.00000 -1.47541e-10
  39 3594.23 0.00000 -1.45092e-10
  40 3594.23 0.00000 -9.30214e-11
  41 3594.23 0.00000 -3.34706e-11
  42 3594.23 0.00000 5.99741e-11
  43 3594.23 0.00000 1.59660e-10
  44 3594.23 0.00000 2.61845e-10
  45 3594.23 0.00000 3.38741e-10
  46 3594.23 0.00000 3.59072e-10
  47 3594.23 0.00000 3.76757e-10
  48 3594.23 0.00000 3.26158e-10
  49 3594.23 0.00000 1.96293e-10
  50 3594.23 0.00000 7.12084e-11
  51 3594.23 0.00000 4.59976e-11
  52 3594.23 0.00000 2.89398e-11
  53 3594.23 0.00000 -9.71725e-12
  54 3594.23 0.00000 -4.44709e-11
  55 3594.23 0.00000 -5.33217e-11
  56 3594.23 0.00000 -6.91446e-11
  57 3594.23 0.00000 -1.58751e-11
  58 3594.23 0.00000 6.30204e-11
  59 3594.23 0.00000 1.47877e-11
  60 3594.23 0.00000 -7.46529e-11
  61 3594.23 0.00000 -5.02374e-11
  62 3594.23 0.00000 8.25968e-11
  63 3594.23 0.00000 1.02188e-11
  64 3594.23 0.00000 -4.68208e-12
  65 3594.23 0.00000 1.58848e-10
  66 3594.23 0.00000 -1.39971e-10
  67 3594.23 0.00000 8.13656e-12
  68 3594.23 0.00000 4.68005e-11
  69 3594.23 0.00000 -4.33789e-11
  70 3594.23 0.00000 -7.32899e-11
  71 3594.23 0.00000 -1.63312e-10
  72 3594.23 0.00000 2.85296e-11
  73 3594.23 0.00000 4.51887e-11
  74 3594.23 0.00000 2.00967e-10
  75 3594.23 0.00000 2.16129e-11
  76 3594.23 0.00000 -4.43057e-11
  77 3594.23 0.00000 1.17366e-11
  78 3594.23 0.00000 3.39934e-12
  79 3594.23 0.00000 3.41361e-11
  80 3594.23 0.00000 -4.70091e-12
  81 3594.23 0.00000 -2.90565e-11
  82 3594.23 0.00000 -1.08109e-10
  83 3594.23 0.00000 -1.40729e-11
  84 3594.23 0.00000 -2.84083e-10
  85 3594.23 0.00000 1.00499e-10
  86 3594.23 0.00000 2.41147e-12
  87 3594.23 0.00000 2.07885e-10
  88 3594.23 0.00000 7.22238e-12
  89 3594.23 0.00000 -1.92093e-10
  90 3594.23 0.00000 -1.56736e-10
  91 3594.23 0.00000 1.57670e-10
  92 3594.23 0.00000 3.70116e-11
  93 3594.23 0.00000 1.21552e-11
  94 3594.23 0.00000 6.25199e-11
  95 3594.23 0.00000 1.17391e-10
  96 3594.23 0.00000 -1.84732e-11
  97 3594.23 0.00000 -9.19081e-12
  98 3594.23 0.00000 3.08298e-10
  99 3594.23 0.00000 8.72007e-11
  100 3594.23 0.00000 -1.32123e-10
  101 3594.23 0.00000 -3.83360e-11
  102 3594.23 0.00000 4.51079e-11
  103 3594.23 0.00000 4.51238e-11
  104 3594.23 0.00000 7.06691e-11
  105 3594.23 0.00000 -6.06032e-11
  106 3594.23 0.00000 4.39747e-11
  107 3594.23 0.00000 -3.05746e-11
  108 3594.23 0.00000 6.23012e-11
  109 3594.23 0.00000 -7.93201e-11
  110 3594.23 0.00000 -3.73921e-11
  111 3594.23 0.00000 2.35809e-11
  112 3594.23 0.00000 -1.52325e-11
  113 3594.23 0.00000 -1.26790e-10
  114 3594.23 0.00000 -1.01371e-10
  115 3594.23 0.00000 1.93702e-11
  116 3594.23 0.00000 -3.45380e-10
  117 3594.23 0.00000 2.48951e-11
  118 3594.23 0.00000 1.44958e-10
  119 3594.23 0.00000 8.83629e-11
  120 3594.23 0.00000 -2.26192e-11
  121 3594.23 0.00000 -8.34265e-11
  122 3594.23 0.00000 -5.86102e-11
  123 3594.23 0.00000 -9.79474e-11
  124 3594.23 0.00000 1.15148e-11
  125 3594.23 0.00000 5.90246e-11
  126 3594.23 0.00000 -2.81148e-10
  127 3594.23 0.00000 4.49181e-11
  128 3594.23 0.00000 7.75253e-12
  129 3594.23 0.00000 2.97393e-10
  130 3594.23 0.00000 -2.28279e-11
  131 3594.23 0.00000 1.87793e-11
  132 3594.23 0.00000 4.47381e-12
  133 3594.23 0.00000 9.85816e-11
  134 3594.23 0.00000 -1.30342e-10
  135 3594.23 0.00000 7.36183e-13
  136 3594.23 0.00000 3.25931e-10
  137 3594.23 0.00000 2.49732e-11
  138 3594.23 0.00000 3.00804e-11
  139 3594.23 0.00000 -3.78010e-11
  140 3594.23 0.00000 1.95457e-12
  141 3594.23 0.00000 -2.96415e-12
  142 3594.23 0.00000 -2.35155e-10
  143 3594.23 0.00000 7.81632e-11
  144 3594.23 0.00000 -9.48763e-11
  145 3594.23 0.00000 1.51506e-12
  146 3594.23 0.00000 1.75982e-10
  147 3594.23 0.00000 -1.04067e-10
  148 3594.23 0.00000 -2.81420e-11
  149 3594.23 0.00000 -5.41843e-11
  150 3594.23 0.00000 4.61538e-11
  151 3594.23 0.00000 -2.43503e-11
  152 3594.23 0.00000 6.29455e-11
  153 3594.23 0.00000 1.91739e-12
  154 3594.23 0.00000 1.56486e-11
  155 3594.23 0.00000 -6.00750e-11
  156 3594.23 0.00000 -1.45506e-11
  157 3594.23 0.00000 8.11144e-11
  158 3594.23 0.00000 -5.41093e-11
  159 3594.23 0.00000 -2.07447e-11
  160 3594.23 0.00000 2.92866e-12
  161 3594.23 0.00000 -4.41569e-11
  162 3594.23 0.00000 3.88723e-11
  163 3594.23 0.00000 -4.24861e-11
  164 3594.23 0.00000 4.15299e-11
  165 3594.23 0.00000 -1.87332e-10
  166 3594.23 0.00000 8.61767e-11
  167 3594.23 0.00000 -1.31871e-11
  168 3594.23 0.00000 -8.61280e-12
  169 3594.23 0.00000 -9.89490e-11
  170 3594.23 0.00000 3.58012e-11
  171 3594.23 0.00000 -1.08681e-10
  172 3594.23 0.00000 7.21746e-11
  173 3594.23 0.00000 2.47717e-10
  174 3594.23 0.00000 1.90477e-11
  175 3594.23 0.00000 1.39200e-10
  176 3594.23 0.00000 -1.54177e-10
  177 3594.23 0.00000 1.39884e-11
  178 3594.23 0.00000 -3.56668e-12
  179 3594.23 0.00000 -3.57056e-10
  180 3594.23 0.00000 -3.98971e-11
  181 3594.23 0.00000 3.08247e-11
  182 3594.23 0.00000 -1.23484e-10
  183 3594.23 0.00000 1.33006e-10
  184 3594.23 0.00000 1.37137e-10
  185 3594.23 0.00000 -2.09557e-10
  186 3594.23 0.00000 9.69243e-11
  187 3594.23 0.00000 2.83738e-11
  188 3594.23 0.00000 3.58477e-11
  189 3594.23 0.00000 -6.14162e-11
  190 3594.23 0.00000 1.72504e-10
  191 3594.23 0.00000 4.53686e-11
  192 3594.23 0.00000 5.31296e-11
  193 3594.23 0.00000 -7.35576e-11
  194 3594.23 0.00000 -1.51307e-11
  195 3594.23 0.00000 1.46815e-10
  196 3594.23 0.00000 -1.94990e-11
  197 3594.23 0.00000 -1.36295e-10
  198 3594.23 0.00000 6.00065e-11
  199 3594.23 0.00000 6.03022e-11
  200 3594.23 0.00000 4.42222e-11
  201 3594.23 0.00000 -2.98228e-11
  202 3594.23 0.00000 -9.27954e-11
  203 3594.23 0.00000 -8.48363e-11
  204 3594.23 0.00000 6.95923e-11
  205 3594.23 0.00000 -8.42052e-11
  206 3594.23 0.00000 -1.57938e-11
  207 3594.23 0.00000 3.43397e-10
  208 3594.23 0.00000 -2.89753e-11
  209 3594.23 0.00000 -2.33309e-12
  210 3594.23 0.00000 2.50549e-10
  211 3594.23 0.00000 -2.97034e-10
  212 3594.23 0.00000 1.89690e-11
  213 3594.23 0.00000 2.49859e-10
  214 3594.23 0.00000 9.97317e-11
  215 3594.23 0.00000 5.20602e-11
  216 3594.23 0.00000 1.00478e-10
  217 3594.23 0.00000 4.30514e-12
  218 3594.23 0.00000 2.40674e-10
  219 3594.23 0.00000 8.19468e-11
  220 3594.23 0.00000 1.12197e-10
  221 3594.23 0.00000 3.24121e-11
  222 3594.23 0.00000 4.25089e-11
  223 3594.23 0.00000 -1.86024e-10
  224 3594.23 0.00000 -2.06549e-10
  225 3594.23 0.00000 5.46460e-11
  226 3594.23 0.00000 -1.37909e-10
  227 3594.23 0.00000 6.07397e-11
  228 3594.23 0.00000 2.32461e-11
  229 3594.23 0.00000 -6.32654e-11
  230 3594.23 0.00000 -3.76139e-11
  231 3594.23 0.00000 1.41568e-11
  232 3594.23 0.00000 1.03795e-10
  233 3594.23 0.00000 5.60951e-12
  234 3594.23 0.00000 6.73432e-11
  235 3594.23 0.00000 -6.72618e-11
  236 3594.23 0.00000 -2.44923e-10
  237 3594.23 0.00000 6.92948e-11
  238 3594.23 0.00000 -7.45785e-12
  239 3594.23 0.00000 7.86237e-12
  240 3594.23 0.00000 -3.91424e-11
  241 3594.23 0.00000 1.32844e-10
</Section>

newXOutput 96

<Section columns = "stress_xx | stress_yy | stress_xy">
  1 3647.15 0.00000 1.17425e-10
  2 3647.15 0.00000 -3.33711e-11
  3 3647.15 0.00000 -2.34965e-11
  4 3647.15 0.00000 -1.27051e-10
  5 3647.15 0.00000 2.38535e-10
  6 3647.15 0.00000 3.77349e-10
  7 3647.15 0.00000 4.66973e-10
  8 3647.15 0.00000 4.56430e-10
  9 3647.15 0.00000 3.69270e-10
  10 3647.15 0.00000 2.84234e-10
  11 3647.15 0.00000 1.94969e-10
  12 3647.15 0.00000 8.88852e-11
  13 3647.15 0.00000 -1.50784e-11
  14 3647.15 0.00000 -9.54225e-11
  15 3647.15 0.00000 -1.44370e-10
  16 3647.15 0.00000 -1.75358e-10
  17 3647.15 0.00000 -1.65088e-10
  18 3647.15 0.00000 -1.23260e-10
  19 3647.15 0.00000 -2.81509e-11
  20 3647.15 0.00000 2.30568e-11
  21 3647.15 0.00000 7.46036e-12
  22 3647.15 0.00000 -2.31508e-11
  23 3647.15 0.00000 -3.45357e-11
  24 3647.15 0.00000 -6.85611e-12
  25 3647.15 0.00000 1.91192e-11
  26 3647.15 0.00000 3.64054e-11
  27 3647.15 0.00000 4.71153e-11
  28 3647.15 0.00000 3.34087e-11
  29 3647.15 0.00000 8.82460e-12
  30 3647.15 0.00000 -3.84408e-12
  31 3647.15 0.00000 -4.78946e-11
  32 3647.15 0.00000 -3.88372e-11
  33 3647.15 0.00000 -1.73131e-11
  34 3647.15 0.00000 3.44064e-11
  35 3647.15 0.00000 7.25007e-11
  36 3647.15 0.00000 9.87460e-11
  37 3647.15 0.00000 1.26118e-10
  38 3647.15 0.00000 1.74502e-10
  39 3647.15 0.00000 1.71836e-10
  40 3647.15 0.00000 1.09609e-10
  41 3647.15 0.00000 3.73486e-11
  42 3647.15 0.00000 -7.64202e-11
  43 3647.15 0.00000 -1.95807e-10
  44 3647.15 0.00000 -3.16528e-10
  45 3647.15 0.00000 -4.08899e-10
  46 3647.15 0.00000 -4.30979e-10
  47 3647.15 0.00000 -4.47201e-10
  48 3647.15 0.00000 -3.84514e-10
  49 3647.15 0.00000 -2.31087e-10
  50 3647.15 0.00000 -8.31512e-11
  51 3647.15 0.00000 -5.42139e-11
  52 3647.15 0.00000 -3.42747e-11
  53 3647.15 0.00000 1.12074e-11
  54 3647.15 0.00000 5.15708e-11
  55 3647.15 0.00000 6.26288e-11
  56 3647.15 0.00000 8.00027e-11
  57 3647.15 0.00000 1.86273e-11
  58 3647.15 0.00000 -7.30691e-11
  59 3647.15 0.00000 -1.77414e-11
  60 3647.15 0.00000 8.80021e-11
  61 3647.15 0.00000 6.25967e-11
  62 3647.15 0.00000 -9.92987e-11
  63 3647.15 0.00000 -1.18171e-11
  64 3647.15 0.00000 5.96422e-12
  65 3647.15 0.00000 -1.89357e-10
  66 3647.15 0.00000 1.65746e-10
  67 3647.15 0.00000 -7.48170e-12
  68 3647.15 0.00000 -5.65451e-11
  69 3647.15 0.00000 5.18179e-11
  70 3647.15 0.00000 8.58163e-11
  71 3647.15 0.00000 1.96544e-10
  72 3647.15 0.00000 -3.16538e-11
  73 3647.15 0.00000 -5.41010e-11
  74 3647.15 0.00000 -2.41794e-10
  75 3647.15 0.00000 -2.71154e-11
  76 3647.15 0.00000 5.12146e-11
  77 3647.15 0.00000 -1.32329e-11
  78 3647.15 0.00000 -2.60459e-12
  79 3647.15 0.00000 -3.93225e-11
  80 3647.15 0.00000 6.45528e-12
  81 3647.15 0.00000 3.15288e-11
  82 3647.15 0.00000 1.30033e-10
  83 3647.15 0.00000 1.67204e-11
  84 3647.15 0.00000 3.38446e-10
  85 3647.15 0.00000 -1.20182e-10
  86 3647.15 0.00000 4.65538e-13
  87 3647.15 0.00000 -2.46107e-10
  88 3647.15 0.00000 -9.30867e-12
  89 3647.15 0.00000 2.26216e-10
  90 3647.15 0.00000 1.90179e-10
  91 3647.15 0.00000 -1.91934e-10
  92 3647.15 0.00000 -4.57129e-11
  93 3647.15 0.00000 -1.66997e-11
  94 3647.15 0.00000 -7.60659e-11
  95 3647.15 0.00000 -1.42429e-10
  96 3647.15 0.00000 1.82346e-11
  97 3647.15 0.00000 9.63978e-12
  98 3647.15 0.00000 -3.68180e-10
  99 3647.15 0.00000 -1.01355e-10
  100 3647.15 0.00000 1.57314e-10
  101 3647.15 0.00000 4.86778e-11
  102 3647.15 0.00000 -5.17536e-11
  103 3647.15 0.00000 -4.85333e-11
  104 3647.15 0.00000 -8.64408e-11
  105 3647.15 0.00000 6.93652e-11
  106 3647.15 0.00000 -5.01904e-11
  107 3647.15 0.00000 3.59887e-11
  108 3647.15 0.00000 -7.33843e-11
  109 3647.15 0.00000 9.17657e-11
  110 3647.15 0.00000 4.38813e-11
  111 3647.15 0.00000 -2.71092e-11
  112 3647.15 0.00000 1.82568e-11
  113 3647.15 0.00000 1.50554e-10
  114 3647.15 0.00000 1.22964e-10
  115 3647.15 0.00000 -2.02820e-11
  116 3647.15 0.00000 4.10253e-10
  117 3647.15 0.00000 -2.69115e-11
  118 3647.15 0.00000 -1.72949e-10
  119 3647.15 0.00000 -1.04825e-10
  120 3647.15 0.00000 2.94096e-11
  121 3647.15 0.00000 1.00003e-10
  122 3647.15 0.00000 6.89793e-11
  123 3647.15 0.00000 1.14474e-10
  124 3647.15 0.00000 -1.32752e-11
  125 3647.15 0.00000 -6.93208e-11
  126 3647.15 0.00000 3.38143e-10
  127 3647.15 0.00000 -5.41251e-11
  128 3647.15 0.00000 -1.26836e-11
  129 3647.15 0.00000 -3.58289e-10
  130 3647.15 0.00000 2.60599e-11
  131 3647.15 0.00000 -1.85689e-11
  132 3647.15 0.00000 -8.60304e-12
  133 3647.15 0.00000 -1.17876e-10
  134 3647.15 0.00000 1.57961e-10
  135 3647.15 0.00000 -1.38007e-12
  136 3647.15 0.00000 -3.86165e-10
  137 3647.15 0.00000 -2.62164e-11
  138 3647.15 0.00000 -3.48699e-11
  139 3647.15 0.00000 4.45381e-11
  140 3647.15 0.00000 -2.07741e-12
  141 3647.15 0.00000 5.14831e-12
  142 3647.15 0.00000 2.85219e-10
  143 3647.15 0.00000 -9.46713e-11
  144 3647.15 0.00000 1.13290e-10
  145 3647.15 0.00000 3.57870e-13
  146 3647.15 0.00000 -2.14315e-10
  147 3647.15 0.00000 1.21547e-10
  148 3647.15 0.00000 3.26252e-11
  149 3647.15 0.00000 6.09066e-11
  150 3647.15 0.00000 -5.21352e-11
  151 3647.15 0.00000 3.15697e-11
  152 3647.15 0.00000 -7.11592e-11
  153 3647.15 0.00000 -4.00226e-12
  154 3647.15 0.00000 -1.75870e-11
  155 3647.15 0.00000 6.90790e-11
  156 3647.15 0.00000 1.77928e-11
  157 3647.15 0.00000 -9.67761e-11
  158 3647.15 0.00000 6.04883e-11
  159 3647.15 0.00000 2.22721e-11
  160 3647.15 0.00000 -2.71136e-12
  161 3647.15 0.00000 5.17018e-11
  162 3647.15 0.00000 -4.56529e-11
  163 3647.15 0.00000 4.75672e-11
  164 3647.15 0.00000 -5.07344e-11
  165 3647.15 0.00000 2.24141e-10
  166 3647.15 0.00000 -1.01723e-10
  167 3647.15 0.00000 1.55009e-11
  168 3647.15 0.00000 1.03569e-11
  169 3647.15 0.00000 1.15963e-10
  170 3647.15 0.00000 -3.98569e-11
  171 3647.15 0.00000 1.33695e-10
  172 3647.15 0.00000 -8.27643e-11
  173 3647.15 0.00000 -2.99802e-10
  174 3647.15 0.00000 -1.91846e-11
  175 3647.15 0.00000 -1.63835e-10
  176 3647.15 0.00000 1.80803e-10
  177 3647.15 0.00000 -1.66821e-11
  178 3647.15 0.00000 2.95802e-12
  179 3647.15 0.00000 4.26671e-10
  180 3647.15 0.00000 4.70427e-11
  181 3647.15 0.00000 -3.63327e-11
  182 3647.15 0.00000 1.47755e-10
  183 3647.15 0.00000 -1.60513e-10
  184 3647.15 0.00000 -1.61427e-10
  185 3647.15 0.00000 2.48668e-10
  186 3647.15 0.00000 -1.14391e-10
  187 3647.15 0.00000 -3.32359e-11
  188 3647.15 0.00000 -4.20623e-11
  189 3647.15 0.00000 7.56342e-11
  190 3647.15 0.00000 -2.09886e-10
  191 3647.15 0.00000 -5.51225e-11
  192 3647.15 0.00000 -6.38512e-11
  193 3647.15 0.00000 8.99422e-11
  194 3647.15 0.00000 1.67456e-11
  195 3647.15 0.00000 -1.74006e-10
  196 3647.15 0.00000 2.24168e-11
  197 3647.15 0.00000 1.60085e-10
  198 3647.15 0.00000 -7.32043e-11
  199 3647.15 0.00000 -7.20429e-11
  200 3647.15 0.00000 -5.16469e-11
  201 3647.15 0.00000 3.49112e-11
  202 3647.15 0.00000 1.10678e-10
  203 3647.15 0.00000 1.03892e-10
  204 3647.15 0.00000 -7.98844e-11
  205 3647.15 0.00000 1.00486e-10
  206 3647.15 0.00000 1.54676e-11
  207 3647.15 0.00000 -4.09237e-10
  208 3647.15 0.00000 3.68225e-11
  209 3647.15 0.00000 2.87998e-12
  210 3647.15 0.00000 -2.98311e-10
  211 3647.15 0.00000 3.51038e-10
  212 3647.15 0.00000 -2.13724e-11
  213 3647.15 0.00000 -2.94923e-10
  214 3647.15 0.00000 -1.23152e-10
  215 3647.15 0.00000 -5.82972e-11
  216 3647.15 0.00000 -1.21527e-10
  217 3647.15 0.00000 -6.85064e-12
  218 3647.15 0.00000 -2.88069e-10
  219 3647.15 0.00000 -9.70246e-11
  220 3647.15 0.00000 -1.36287e-10
  221 3647.15 0.00000 -3.73496e-11
  222 3647.15 0.00000 -4.75342e-11
  223 3647.15 0.00000 2.26928e-10
  224 3647.15 0.00000 2.49919e-10
  225 3647.15 0.00000 -6.79632e-11
  226 3647.15 0.00000 1.63766e-10
  227 3647.15 0.00000 -7.12877e-11
  228 3647.15 0.00000 -2.56380e-11
  229 3647.15 0.00000 7.43990e-11
  230 3647.15 0.00000 4.27939e-11
  231 3647.15 0.00000 -1.75088e-11
  232 3647.15 0.00000 -1.24241e-10
  233 3647.15 0.00000 -2.68743e-12
  234 3647.15 0.00000 -8.24101e-11
  235 3647.15 0.00000 7.74790e-11
  236 3647.15 0.00000 2.89036e-10
  237 3647.15 0.00000 -7.92293e-11
  238 3647.15 0.00000 1.19279e-11
  239 3647.15 0.00000 -1.00836e-11
  240 3647.15 0.00000 5.17622e-11
  241 3647.15 0.00000 -1.56911e-10
</Section>

newXOutput 97

<Section columns = "stress_xx | stress_yy | stress_xy">
  1 3700.27 0.00000 -1.36965e-10
  2 3700.27 0.00000 3.79184e-11
  3 3700.27 0.00000 2.46645e-11
  4 3700.27 0.00000 1.48686e-10
  5 3700.27 0.00000 -2.80285e-10
  6 3700.27 0.00000 -4.47652e-10
  7 3700.27 0.00000 -5.56506e-10
  8 3700.27 0.00000 -5.48636e-10
  9 3700.27 0.00000 -4.45867e-10
  10 3700.27 0.00000 -3.43910e-10
  11 3700.27 0.00000 -2.38402e-10
  12 3700.27 0.00000 -1.10277e-10
  13 3700.27 0.00000 1.49952e-11
  14 3700.27 0.00000 1.13012e-10
  15 3700.27 0.00000 1.71115e-10
  16 3700.27 0.00000 2.08052e-10
  17 3700.27 0.00000 1.93840e-10
  18 3700.27 0.00000 1.47437e-10
  19 3700.27 0.00000 3.85141e-11
  20 3700.27 0.00000 -2.00306e-11
  21 3700.27 0.00000 -3.11766e-12
  22 3700.27 0.00000 3.01367e-11
  23 3700.27 0.00000 3.95307e-11
  24 3700.27 0.00000 8.19218e-12
  25 3700.27 0.00000 -2.17515e-11
  26 3700.27 0.00000 -4.16638e-11
  27 3700.27 0.00000 -5.32294e-11
  28 3700.27 0.00000 -3.99357e-11
  29 3700.27 0.00000 -1.04770e-11
  30 3700.27 0.00000 3.27114e-12
  31 3700.27 0.00000 5.52305e-11
  32 3700.27 0.00000 4.76897e-11
  33 3700.27 0.00000 1.81415e-11
  34 3700.27 0.00000 -4.53411e-11
  35 3700.27 0.00000 -9.08952e-11
  36 3700.27 0.00000 -1.22630e-10
  37 3700.27 0.00000 -1.51985e-10
  38 3700.27 0.00000 -2.05660e-10
  39 3700.27 0.00000 -2.01869e-10
  40 3700.27 0.00000 -1.29295e-10
  41 3700.27 0.00000 -4.22738e-11
  42 3700.27 0.00000 9.40788e-11
  43 3700.27 0.00000 2.37465e-10
  44 3700.27 0.00000 3.82013e-10
  45 3700.27 0.00000 4.94093e-10
  46 3700.27 0.00000 5.17601e-10
  47 3700.27 0.00000 5.33475e-10
  48 3700.27 0.00000 4.57520e-10
  49 3700.27 0.00000 2.73712e-10
  50 3700.27 0.00000 9.83782e-11
  51 3700.27 0.00000 6.40994e-11
  52 3700.27 0.00000 4.05398e-11
  53 3700.27 0.00000 -1.29026e-11
  54 3700.27 0.00000 -6.04384e-11
  55 3700.27 0.00000 -7.34062e-11
  56 3700.27 0.00000 -9.40970e-11
  57 3700.27 0.00000 -2.20212e-11
  58 3700.27 0.00000 8.38241e-11
  59 3700.27 0.00000 2.02873e-11
  60 3700.27 0.00000 -1.02651e-10
  61 3700.27 0.00000 -7.66330e-11
  62 3700.27 0.00000 1.19727e-10
  63 3700.27 0.00000 1.65577e-11
  64 3700.27 0.00000 -6.76100e-12
  65 3700.27 0.00000 2.26555e-10
  66 3700.27 0.00000 -1.96392e-10
  67 3700.27 0.00000 7.79112e-12
  68 3700.27 0.00000 6.72332e-11
  69 3700.27 0.00000 -6.34494e-11
  70 3700.27 0.00000 -1.00610e-10
  71 3700.27 0.00000 -2.37024e-10
  72 3700.27 0.00000 3.44906e-11
  73 3700.27 0.00000 6.57349e-11
  74 3700.27 0.00000 2.91227e-10
  75 3700.27 0.00000 3.41539e-11
  76 3700.27 0.00000 -5.67088e-11
  77 3700.27 0.00000 1.54444e-11
  78 3700.27 0.00000 -3.56582e-13
  79 3700.27 0.00000 4.41521e-11
  80 3700.27 0.00000 -7.84008e-12
  81 3700.27 0.00000 -3.58993e-11
  82 3700.27 0.00000 -1.55174e-10
  83 3700.27 0.00000 -2.06139e-11
  84 3700.27 0.00000 -4.03948e-10
  85 3700.27 0.00000 1.44571e-10
  86 3700.27 0.00000 -1.93890e-13
  87 3700.27 0.00000 2.91762e-10
  88 3700.27 0.00000 6.51190e-12
  89 3700.27 0.00000 -2.66872e-10
  90 3700.27 0.00000 -2.33514e-10
  91 3700.27 0.00000 2.33780e-10
  92 3700.27 0.00000 5.52453e-11
  93 3700.27 0.00000 1.93411e-11
  94 3700.27 0.00000 9.33091e-11
  95 3700.27 0.00000 1.71682e-10
  96 3700.27 0.00000 -2.07402e-11
  97 3700.27 0.00000 -1.31026e-11
  98 3700.27 0.00000 4.39594e-10
  99 3700.27 0.00000 1.17377e-10
  100 3700.27 0.00000 -1.88206e-10
  101 3700.27 0.00000 -6.24774e-11
  102 3700.27 0.00000 6.06899e-11
  103 3700.27 0.00000 5.33514e-11
  104 3700.27 0.00000 1.07009e-10
  105 3700.27 0.00000 -7.97512e-11
  106 3700.27 0.00000 5.75704e-11
  107 3700.27 0.00000 -4.09047e-11
  108 3700.27 0.00000 8.61453e-11
  109 3700.27 0.00000 -1.08265e-10
  110 3700.27 0.00000 -5.34398e-11
  111 3700.27 0.00000 2.75058e-11
  112 3700.27 0.00000 -2.00500e-11
  113 3700.27 0.00000 -1.78207e-10
  114 3700.27 0.00000 -1.47930e-10
  115 3700.27 0.00000 2.21523e-11
  116 3700.27 0.00000 -4.87939e-10
  117 3700.27 0.00000 3.28071e-11
  118 3700.27 0.00000 2.06751e-10
  119 3700.27 0.00000 1.25096e-10
  120 3700.27 0.00000 -3.85623e-11
  121 3700.27 0.00000 -1.20202e-10
  122 3700.27 0.00000 -8.19527e-11
  123 3700.27 0.00000 -1.36255e-10
  124 3700.27 0.00000 1.44045e-11
  125 3700.27 0.00000 8.36808e-11
  126 3700.27 0.00000 -4.06769e-10
  127 3700.27 0.00000 6.60795e-11
  128 3700.27 0.00000 1.76792e-11
  129 3700.27 0.00000 4.31670e-10
  130 3700.27 0.00000 -3.23501e-11
  131 3700.27 0.00000 1.68155e-11
  132 3700.27 0.00000 1.27881e-11
  133 3700.27 0.00000 1.41621e-10
  134 3700.27 0.00000 -1.90835e-10
  135 3700.27 0.00000 3.24008e-12
  136 3700.27 0.00000 4.59701e-10
  137 3700.27 0.00000 2.65674e-11
  138 3700.27 0.00000 4.12164e-11
  139 3700.27 0.00000 -5.30663e-11
  140 3700.27 0.00000 2.79499e-12
  141 3700.27 0.00000 -8.58530e-12
  142 3700.27 0.00000 -3.45942e-10
  143 3700.27 0.00000 1.14261e-10
  144 3700.27 0.00000 -1.33708e-10
  145 3700.27 0.00000 -3.51203e-12
  146 3700.27 0.00000 2.60493e-10
  147 3700.27 0.00000 -1.42554e-10
  148 3700.27 0.00000 -3.77404e-11
  149 3700.27 0.00000 -6.97605e-11
  150 3700.27 0.00000 6.01717e-11
  151 3700.27 0.00000 -4.02566e-11
  152 3700.27 0.00000 8.20793e-11
  153 3700.27 0.00000 5.29805e-12
  154 3700.27 0.00000 1.98773e-11
  155 3700.27 0.00000 -8.04086e-11
  156 3700.27 0.00000 -2.07549e-11
  157 3700.27 0.00000 1.14047e-10
  158 3700.27 0.00000 -7.18486e-11
  159 3700.27 0.00000 -2.55341e-11
  160 3700.27 0.00000 3.87798e-12
  161 3700.27 0.00000 -5.82955e-11
  162 3700.27 0.00000 5.38898e-11
  163 3700.27 0.00000 -5.63961e-11
  164 3700.27 0.00000 6.21476e-11
  165 3700.27 0.00000 -2.68065e-10
  166 3700.27 0.00000 1.20124e-10
  167 3700.27 0.00000 -1.75878e-11
  168 3700.27 0.00000 -1.32338e-11
  169 3700.27 0.00000 -1.37036e-10
  170 3700.27 0.00000 4.31104e-11
  171 3700.27 0.00000 -1.64980e-10
  172 3700.27 0.00000 9.36916e-11
  173 3700.27 0.00000 3.62792e-10
  174 3700.27 0.00000 2.23718e-11
  175 3700.27 0.00000 1.93494e-10
  176 3700.27 0.00000 -2.12473e-10
  177 3700.27 0.00000 1.75549e-11
  178 3700.27 0.00000 -2.38607e-12
  179 3700.27 0.00000 -5.10459e-10
  180 3700.27 0.00000 -5.60789e-11
  181 3700.27 0.00000 4.12958e-11
  182 3700.27 0.00000 -1.75861e-10
  183 3700.27 0.00000 1.93867e-10
  184 3700.27 0.00000 1.91155e-10
  185 3700.27 0.00000 -2.96329e-10
  186 3700.27 0.00000 1.33247e-10
  187 3700.27 0.00000 3.71060e-11
  188 3700.27 0.00000 4.77981e-11
  189 3700.27 0.00000 -9.09142e-11
  190 3700.27 0.00000 2.55475e-10
  191 3700.27 0.00000 6.78587e-11
  192 3700.27 0.00000 7.75608e-11
  193 3700.27 0.00000 -1.09922e-10
  194 3700.27 0.00000 -2.06208e-11
  195 3700.27 0.00000 2.06301e-10
  196 3700.27 0.00000 -2.83286e-11
  197 3700.27 0.00000 -1.89327e-10
  198 3700.27 0.00000 9.00609e-11
  199 3700.27 0.00000 8.76068e-11
  200 3700.27 0.00000 5.83824e-11
  201 3700.27 0.00000 -3.94380e-11
  202 3700.27 0.00000 -1.30532e-10
  203 3700.27 0.00000 -1.27287e-10
  204 3700.27 0.00000 9.25667e-11
  205 3700.27 0.00000 -1.20858e-10
  206 3700.27 0.00000 -1.58932e-11
  207 3700.27 0.00000 4.88791e-10
  208 3700.27 0.00000 -4.71888e-11
  209 3700.27 0.00000 -4.06125e-12
  210 3700.27 0.00000 3.55846e-10
  211 3700.27 0.00000 -4.15140e-10
  212 3700.27 0.00000 2.60933e-11
  213 3700.27 0.00000 3.49954e-10
  214 3700.27 0.00000 1.49580e-10
  215 3700.27 0.00000 6.42387e-11
  216 3700.27 0.00000 1.45862e-10
  217 3700.27 0.00000 9.80375e-12
  218 3700.27 0.00000 3.45526e-10
  219 3700.27 0.00000 1.17125e-10
  220 3700.27 0.00000 1.66213e-10
  221 3700.27 0.00000 4.33637e-11
  222 3700.27 0.00000 5.55331e-11
  223 3700.27 0.00000 -2.77593e-10
  224 3700.27 0.00000 -3.03250e-10
  225 3700.27 0.00000 8.18320e-11
  226 3700.27 0.00000 -1.94586e-10
  227 3700.27 0.00000 8.41900e-11
  228 3700.27 0.00000 3.24433e-11
  229 3700.27 0.00000 -8.70387e-11
  230 3700.27 0.00000 -4.83081e-11
  231 3700.27 0.00000 2.20367e-11
  232 3700.27 0.00000 1.49114e-10
  233 3700.27 0.00000 4.09932e-12
  234 3700.27 0.00000 1.00209e-10
  235 3700.27 0.00000 -8.96806e-11
  236 3700.27 0.00000 -3.43117e-10
  237 3700.27 0.00000 8.93366e-11
  238 3700.27 0.00000 -1.72531e-11
  239 3700.27 0.00000 1.38187e-11
  240 3700.27 0.00000 -6.58509e-11
  241 3700.27 0.00000 1.86628e-10
</Section>

newXOutput 98

<Section columns = "stress_xx | stress_yy | stress_xy">
  1 3753.58 0.00000 1.61043e-10
  2 3753.58 0.00000 -4.14282e-11
  3 3753.58 0.00000 -2.78387e-11
  4 3753.58 0.00000 -1.75345e-10
  5 3753.58 0.00000 3.30597e-10
  6 3753.58 0.00000 5.30654e-10
  7 3753.58 0.00000 6.64311e-10
  8 3753.58 0.00000 6.59463e-10
  9 3753.58 0.00000 5.39000e-10
  10 3753.58 0.00000 4.17786e-10
  11 3753.58 0.00000 2.91394e-10
  12 3753.58 0.00000 1.39638e-10
  13 3753.58 0.00000 -1.07597e-11
  14 3753.58 0.00000 -1.29390e-10
  15 3753.58 0.00000 -2.03557e-10
  16 3753.58 0.00000 -2.48440e-10
  17 3753.58 0.00000 -2.32841e-10
  18 3753.58 0.00000 -1.76655e-10
  19 3753.58 0.00000 -5.14564e-11
  20 3753.58 0.00000 1.59103e-11
  21 3753.58 0.00000 -2.39814e-14
  22 3753.58 0.00000 -3.26764e-11
  23 3753.58 0.00000 -4.26773e-11
  24 3753.58 0.00000 -8.47781e-12
  25 3753.58 0.00000 2.45494e-11
  26 3753.58 0.00000 4.81050e-11
  27 3753.58 0.00000 6.10028e-11
  28 3753.58 0.00000 4.35537e-11
  29 3753.58 0.00000 1.30587e-11
  30 3753.58 0.00000 -3.05571e-12
  31 3753.58 0.00000 -5.99033e-11
  32 3753.58 0.00000 -5.47556e-11
  33 3753.58 0.00000 -1.94443e-11
  34 3753.58 0.00000 5.81512e-11
  35 3753.58 0.00000 1.12214e-10
  36 3753.58 0.00000 1.50508e-10
  37 3753.58 0.00000 1.85669e-10
  38 3753.58 0.00000 2.44893e-10
  39 3753.58 0.00000 2.38095e-10
  40 3753.58 0.00000 1.51655e-10
  41 3753.58 0.00000 4.50807e-11
  42 3753.58 0.00000 -1.19481e-10
  43 3753.58 0.00000 -2.91850e-10
  44 3753.58 0.00000 -4.63671e-10
  45 3753.58 0.00000 -5.97920e-10
  46 3753.58 0.00000 -6.23971e-10
  47 3753.58 0.00000 -6.37566e-10
  48 3753.58 0.00000 -5.45052e-10
  49 3753.58 0.00000 -3.25239e-10
  50 3753.58 0.00000 -1.15882e-10
  51 3753.58 0.00000 -7.56119e-11
  52 3753.58 0.00000 -4.84319e-11
  53 3753.58 0.00000 1.45319e-11
  54 3753.58 0.00000 7.14174e-11
  55 3753.58 0.00000 8.68387e-11
  56 3753.58 0.00000 1.11230e-10
  57 3753.58 0.00000 2.43245e-11
  58 3753.58 0.00000 -9.67257e-11
  59 3753.58 0.00000 -2.37814e-11
  60 3753.58 0.00000 1.21434e-10
  61 3753.58 0.00000 9.35624e-11
  62 3753.58 0.00000 -1.44997e-10
  63 3753.58 0.00000 -2.16606e-11
  64 3753.58 0.00000 7.93580e-12
  65 3753.58 0.00000 -2.71619e-10
  66 3753.58 0.00000 2.33649e-10
  67 3753.58 0.00000 -7.16215e-12
  68 3753.58 0.00000 -8.08210e-11
  69 3753.58 0.00000 7.64569e-11
  70 3753.58 0.00000 1.16621e-10
  71 3753.58 0.00000 2.85914e-10
  72 3753.58 0.00000 -3.83713e-11
  73 3753.58 0.00000 -7.88817e-11
  74 3753.58 0.00000 -3.50900e-10
  75 3753.58 0.00000 -4.29248e-11
  76 3753.58 0.00000 6.52417e-11
  77 3753.58 0.00000 -1.78364e-11
  78 3753.58 0.00000 4.16828e-12
  79 3753.58 0.00000 -5.13165e-11
  80 3753.58 0.00000 1.01779e-11
  81 3753.58 0.00000 3.90632e-11
  82 3753.58 0.00000 1.84025e-10
  83 3753.58 0.00000 2.46336e-11
  84 3753.58 0.00000 4.82283e-10
  85 3753.58 0.00000 -1.73332e-10
  86 3753.58 0.00000 -1.37627e-12
  87 3753.58 0.00000 -3.46096e-10
  88 3753.58 0.00000 -8.16040e-12
  89 3753.58 0.00000 3.15258e-10
  90 3753.58 0.00000 2.84566e-10
  91 3753.58 0.00000 -2.84680e-10
  92 3753.58 0.00000 -6.70530e-11
  93 3753.58 0.00000 -2.30529e-11
  94 3753.58 0.00000 -1.12698e-10
  95 3753.58 0.00000 -2.07589e-10
  96 3753.58 0.00000 2.30689e-11
  97 3753.58 0.00000 1.12002e-11
  98 3753.58 0.00000 -5.26121e-10
  99 3753.58 0.00000 -1.38229e-10
  100 3753.58 0.00000 2.25480e-10
  101 3753.58 0.00000 7.84021e-11
  102 3753.58 0.00000 -7.18544e-11
  103 3753.58 0.00000 -5.96230e-11
  104 3753.58 0.00000 -1.31789e-10
  105 3753.58 0.00000 9.18287e-11
  106 3753.58 0.00000 -6.78302e-11
  107 3753.58 0.00000 4.85328e-11
  108 3753.58 0.00000 -1.01986e-10
  109 3753.58 0.00000 1.27972e-10
  110 3753.58 0.00000 5.95490e-11
  111 3753.58 0.00000 -3.02551e-11
  112 3753.58 0.00000 2.39512e-11
  113 3753.58 0.00000 2.09878e-10
  114 3753.58 0.00000 1.77340e-10
  115 3753.58 0.00000 -2.35150e-11
  116 3753.58 0.00000 5.81799e-10
  117 3753.58 0.00000 -4.10223e-11
  118 3753.58 0.00000 -2.48219e-10
  119 3753.58 0.00000 -1.48048e-10
  120 3753.58 0.00000 4.88310e-11
  121 3753.58 0.00000 1.43061e-10
  122 3753.58 0.00000 9.68252e-11
  123 3753.58 0.00000 1.60017e-10
  124 3753.58 0.00000 -1.61486e-11
  125 3753.58 0.00000 -9.98898e-11
  126 3753.58 0.00000 4.89793e-10
  127 3753.58 0.00000 -8.01312e-11
  128 3753.58 0.00000 -2.44434e-11
  129 3753.58 0.00000 -5.20085e-10
  130 3753.58 0.00000 3.86692e-11
  131 3753.58 0.00000 -1.76732e-11
  132 3753.58 0.00000 -2.06402e-11
  133 3753.58 0.00000 -1.70639e-10
  134 3753.58 0.00000 2.31456e-10
  135 3753.58 0.00000 -4.92024e-12
  136 3753.58 0.00000 -5.48084e-10
  137 3753.58 0.00000 -2.75488e-11
  138 3753.58 0.00000 -4.89391e-11
  139 3753.58 0.00000 6.30364e-11
  140 3753.58 0.00000 -2.15329e-12
  141 3753.58 0.00000 1.16915e-11
  142 3753.58 0.00000 4.19883e-10
  143 3753.58 0.00000 -1.38693e-10
  144 3753.58 0.00000 1.56947e-10
  145 3753.58 0.00000 8.38289e-12
  146 3753.58 0.00000 -3.16641e-10
  147 3753.58 0.00000 1.68085e-10
  148 3753.58 0.00000 4.42640e-11
  149 3753.58 0.00000 7.72522e-11
  150 3753.58 0.00000 -6.90450e-11
  151 3753.58 0.00000 5.05579e-11
  152 3753.58 0.00000 -9.73239e-11
  153 3753.58 0.00000 -6.95748e-12
  154 3753.58 0.00000 -2.21560e-11
  155 3753.58 0.00000 9.40087e-11
  156 3753.58 0.00000 2.39062e-11
  157 3753.58 0.00000 -1.35632e-10
  158 3753.58 0.00000 8.23973e-11
  159 3753.58 0.00000 2.72108e-11
  160 3753.58 0.00000 -5.44795e-12
  161 3753.58 0.00000 6.77566e-11
  162 3753.58 0.00000 -6.37954e-11
  163 3753.58 0.00000 6.68768e-11
  164 3753.58 0.00000 -7.58953e-11
  165 3753.58 0.00000 3.22439e-10
  166 3753.58 0.00000 -1.42023e-10
  167 3753.58 0.00000 2.00658e-11
  168 3753.58 0.00000 1.61948e-11
  169 3753.58 0.00000 1.62022e-10
  170 3753.58 0.00000 -4.61773e-11
  171 3753.58 0.00000 2.02692e-10
  172 3753.58 0.00000 -1.09172e-10
  173 3753.58 0.00000 -4.39757e-10
  174 3753.58 0.00000 -2.50047e-11
  175 3753.58 0.00000 -2.28728e-10
  176 3753.58 0.00000 2.50522e-10
  177 3753.58 0.00000 -1.84883e-11
  178 3753.58 0.00000 1.95179e-13
  179 3753.58 0.00000 6.11115e-10
  180 3753.58 0.00000 6.53790e-11
  181 3753.58 0.00000 -4.95250e-11
  182 3753.58 0.00000 2.09937e-10
  183 3753.58 0.00000 -2.34132e-10
  184 3753.58 0.00000 -2.29321e-10
  185 3753.58 0.00000 3.53845e-10
  186 3753.58 0.00000 -1.57114e-10
  187 3753.58 0.00000 -4.14814e-11
  188 3753.58 0.00000 -5.60447e-11
  189 3753.58 0.00000 1.09829e-10
  190 3753.58 0.00000 -3.10360e-10
  191 3753.58 0.00000 -8.29959e-11
  192 3753.58 0.00000 -9.39552e-11
  193 3753.58 0.00000 1.32803e-10
  194 3753.58 0.00000 2.35719e-11
  195 3753.58 0.00000 -2.45062e-10
  196 3753.58 0.00000 3.22760e-11
  197 3753.58 0.00000 2.24288e-10
  198 3753.58 0.00000 -1.08034e-10
  199 3753.58 0.00000 -1.05179e-10
  200 3753.58 0.00000 -6.68463e-11
  201 3753.58 0.00000 4.47034e-11
  202 3753.58 0.00000 1.53749e-10
  203 3753.58 0.00000 1.55599e-10
  204 3753.58 0.00000 -1.07292e-10
  205 3753.58 0.00000 1.44052e-10
  206 3753.58 0.00000 1.48833e-11
  207 3753.58 0.00000 -5.85662e-10
  208 3753.58 0.00000 6.06308e-11
  209 3753.58 0.00000 2.16038e-12
  210 3753.58 0.00000 -4.24853e-10
  211 3753.58 0.00000 4.92247e-10
  212 3753.58 0.00000 -2.98602e-11
  213 3753.58 0.00000 -4.15948e-10
  214 3753.58 0.00000 -1.84475e-10
  215 3753.58 0.00000 -7.47146e-11
  216 3753.58 0.00000 -1.75555e-10
  217 3753.58 0.00000 -1.36539e-11
  218 3753.58 0.00000 -4.14069e-10
  219 3753.58 0.00000 -1.41024e-10
  220 3753.58 0.00000 -2.02775e-10
  221 3753.58 0.00000 -5.09075e-11
  222 3753.58 0.00000 -6.48504e-11
  223 3753.58 0.00000 3.38448e-10
  224 3753.58 0.00000 3.67791e-10
  225 3753.58 0.00000 -9.74814e-11
  226 3753.58 0.00000 2.32020e-10
  227 3753.58 0.00000 -9.82193e-11
  228 3753.58 0.00000 -3.74296e-11
  229 3753.58 0.00000 1.04200e-10
  230 3753.58 0.00000 5.58962e-11
  231 3753.58 0.00000 -2.72190e-11
  232 3753.58 0.00000 -1.78416e-10
  233 3753.58 0.00000 -7.63424e-12
  234 3753.58 0.00000 -1.23061e-10
  235 3753.58 0.00000 1.04159e-10
  236 3753.58 0.00000 4.07537e-10
  237 3753.58 0.00000 -1.05559e-10
  238 3753.58 0.00000 2.17393e-11
  239 3753.58 0.00000 -1.82507e-11
  240 3753.58 0.00000 8.56079e-11
  241 3753.58 0.00000 -2.22800e-10
</Section>

newXOutput 99

<Section columns = "stress_xx | stress_yy | stress_xy">
  1 3807.09 0.00000 -1.89663e-10
  2 3807.09 0.00000 4.78102e-11
  3 3807.09 0.00000 3.21785e-11
  4 3807.09 0.00000 2.06636e-10
  5 3807.09 0.00000 -3.92778e-10
  6 3807.09 0.00000 -6.33129e-10
  7 3807.09 0.00000 -7.93933e-10
  8 3807.09 0.00000 -7.93711e-10
  9 3807.09 0.00000 -6.54294e-10
  10 3807.09 0.00000 -5.10309e-10
  11 3807.09 0.00000 -3.58385e-10
  12 3807.09 0.00000 -1.74483e-10
  13 3807.09 0.00000 8.36543e-12
  14 3807.09 0.00000 1.52805e-10
  15 3807.09 0.00000 2.42273e-10
  16 3807.09 0.00000 2.98472e-10
  17 3807.09 0.00000 2.77167e-10
  18 3807.09 0.00000 2.11325e-10
  19 3807.09 0.00000 6.82230e-11
  20 3807.09 0.00000 -1.30848e-11
  21 3807.09 0.00000 2.66479e-12
  22 3807.09 0.00000 3.85891e-11
  23 3807.09 0.00000 4.90700e-11
  24 3807.09 0.00000 1.06347e-11
  25 3807.09 0.00000 -2.80184e-11
  26 3807.09 0.00000 -5.66258e-11
  27 3807.09 0.00000 -7.05535e-11
  28 3807.09 0.00000 -4.94523e-11
  29 3807.09 0.00000 -1.45927e-11
  30 3807.09 0.00000 4.39033e-12
  31 3807.09 0.00000 6.78115e-11
  32 3807.09 0.00000 6.04711e-11
  33 3807.09 0.00000 1.80769e-11
  34 3807.09 0.00000 -7.28553e-11
  35 3807.09 0.00000 -1.34727e-10
  36 3807.09 0.00000 -1.83134e-10
  37 3807.09 0.00000 -2.26114e-10
  38 3807.09 0.00000 -2.89949e-10
  39 3807.09 0.00000 -2.79377e-10
  40 3807.09 0.00000 -1.74503e-10
  41 3807.09 0.00000 -4.58187e-11
  42 3807.09 0.00000 1.49786e-10
  43 3807.09 0.00000 3.57326e-10
  44 3807.09 0.00000 5.63811e-10
  45 3807.09 0.00000 7.25327e-10
  46 3807.09 0.00000 7.54109e-10
  47 3807.09 0.00000 7.65007e-10
  48 3807.09 0.00000 6.49826e-10
  49 3807.09 0.00000 3.86561e-10
  50 3807.09 0.00000 1.37116e-10
  51 3807.09 0.00000 9.02172e-11
  52 3807.09 0.00000 5.71682e-11
  53 3807.09 0.00000 -1.65274e-11
  54 3807.09 0.00000 -8.45494e-11
  55 3807.09 0.00000 -1.03425e-10
  56 3807.09 0.00000 -1.31419e-10
  57 3807.09 0.00000 -2.86722e-11
  58 3807.09 0.00000 1.08468e-10
  59 3807.09 0.00000 2.77633e-11
  60 3807.09 0.00000 -1.44610e-10
  61 3807.09 0.00000 -1.16272e-10
  62 3807.09 0.00000 1.76572e-10
  63 3807.09 0.00000 2.91522e-11
  64 3807.09 0.00000 -7.70563e-12
  65 3807.09 0.00000 3.27088e-10
  66 3807.09 0.00000 -2.77945e-10
  67 3807.09 0.00000 5.71533e-12
  68 3807.09 0.00000 9.62982e-11
  69 3807.09 0.00000 -9.33730e-11
  70 3807.09 0.00000 -1.37311e-10
  71 3807.09 0.00000 -3.45546e-10
  72 3807.09 0.00000 4.05065e-11
  73 3807.09 0.00000 9.64656e-11
  74 3807.09 0.00000 4.22814e-10
  75 3807.09 0.00000 5.46762e-11
  76 3807.09 0.00000 -7.57771e-11
  77 3807.09 0.00000 2.04730e-11
  78 3807.09 0.00000 -9.99853e-12
  79 3807.09 0.00000 5.96236e-11
  80 3807.09 0.00000 -1.19629e-11
  81 3807.09 0.00000 -4.32039e-11
  82 3807.09 0.00000 -2.19798e-10
  83 3807.09 0.00000 -2.96257e-11
  84 3807.09 0.00000 -5.78211e-10
  85 3807.09 0.00000 2.09562e-10
  86 3807.09 0.00000 4.29232e-12
  87 3807.09 0.00000 4.12111e-10
  88 3807.09 0.00000 6.70282e-12
  89 3807.09 0.00000 -3.74201e-10
  90 3807.09 0.00000 -3.48055e-10
  91 3807.09 0.00000 3.46647e-10
  92 3807.09 0.00000 8.02978e-11
  93 3807.09 0.00000 2.60320e-11
  94 3807.09 0.00000 1.36853e-10
  95 3807.09 0.00000 2.52963e-10
  96 3807.09 0.00000 -2.23949e-11
  97 3807.09 0.00000 -5.13677e-12
  98 3807.09 0.00000 6.30561e-10
  99 3807.09 0.00000 1.61654e-10
  100 3807.09 0.00000 -2.70678e-10
  101 3807.09 0.00000 -9.87867e-11
  102 3807.09 0.00000 8.78892e-11
  103 3807.09 0.00000 6.73145e-11
  104 3807.09 0.00000 1.62566e-10
  105 3807.09 0.00000 -1.06890e-10
  106 3807.09 0.00000 7.78775e-11
  107 3807.09 0.00000 -5.76044e-11
  108 3807.09 0.00000 1.20043e-10
  109 3807.09 0.00000 -1.50750e-10
  110 3807.09 0.00000 -6.69935e-11
  111 3807.09 0.00000 3.26391e-11
  112 3807.09 0.00000 -2.56986e-11
  113 3807.09 0.00000 -2.49613e-10
  114 3807.09 0.00000 -2.12171e-10
  115 3807.09 0.00000 2.54226e-11
  116 3807.09 0.00000 -6.94023e-10
  117 3807.09 0.00000 5.02435e-11
  118 3807.09 0.00000 2.99201e-10
  119 3807.09 0.00000 1.76508e-10
  120 3807.09 0.00000 -6.39407e-11
  121 3807.09 0.00000 -1.72907e-10
  122 3807.09 0.00000 -1.13929e-10
  123 3807.09 0.00000 -1.90534e-10
  124 3807.09 0.00000 1.57160e-11
  125 3807.09 0.00000 1.20823e-10
  126 3807.09 0.00000 -5.91078e-10
  127 3807.09 0.00000 9.83519e-11
  128 3807.09 0.00000 3.67671e-11
  129 3807.09 0.00000 6.28195e-10
  130 3807.09 0.00000 -4.48981e-11
  131 3807.09 0.00000 1.57600e-11
  132 3807.09 0.00000 2.84886e-11
  133 3807.09 0.00000 2.05265e-10
  134 3807.09 0.00000 -2.82006e-10
  135 3807.09 0.00000 1.02645e-11
  136 3807.09 0.00000 6.55160e-10
  137 3807.09 0.00000 2.94482e-11
  138 3807.09 0.00000 5.79048e-11
  139 3807.09 0.00000 -7.46490e-11
  140 3807.09 0.00000 8.67923e-13
  141 3807.09 0.00000 -1.56241e-11
  142 3807.09 0.00000 -5.11395e-10
  143 3807.09 0.00000 1.69028e-10
  144 3807.09 0.00000 -1.86874e-10
  145 3807.09 0.00000 -1.61649e-11
  146 3807.09 0.00000 3.85922e-10
  147 3807.09 0.00000 -1.97010e-10
  148 3807.09 0.00000 -5.17678e-11
  149 3807.09 0.00000 -8.85814e-11
  150 3807.09 0.00000 8.06256e-11
  151 3807.09 0.00000 -6.59942e-11
  152 3807.09 0.00000 1.13611e-10
  153 3807.09 0.00000 9.21817e-12
  154 3807.09 0.00000 2.49679e-11
  155 3807.09 0.00000 -1.10987e-10
  156 3807.09 0.00000 -2.78719e-11
  157 3807.09 0.00000 1.61510e-10
  158 3807.09 0.00000 -9.49185e-11
  159 3807.09 0.00000 -2.71940e-11
  160 3807.09 0.00000 6.47154e-12
  161 3807.09 0.00000 -7.92299e-11
  162 3807.09 0.00000 7.64288e-11
  163 3807.09 0.00000 -7.80524e-11
  164 3807.09 0.00000 9.35027e-11
  165 3807.09 0.00000 -3.87187e-10
  166 3807.09 0.00000 1.68735e-10
  167 3807.09 0.00000 -2.26374e-11
  168 3807.09 0.00000 -1.77867e-11
  169 3807.09 0.00000 -1.91899e-10
  170 3807.09 0.00000 5.13908e-11
  171 3807.09 0.00000 -2.49172e-10
  172 3807.09 0.00000 1.26113e-10
  173 3807.09 0.00000 5.34148e-10
  174 3807.09 0.00000 2.93572e-11
  175 3807.09 0.00000 2.71455e-10
  176 3807.09 0.00000 -2.96501e-10
  177 3807.09 0.00000 2.12091e-11
  178 3807.09 0.00000 1.11023e-12
  179 3807.09 0.00000 -7.33562e-10
  180 3807.09 0.00000 -7.83540e-11
  181 3807.09 0.00000 5.74013e-11
  182 3807.09 0.00000 -2.49976e-10
  183 3807.09 0.00000 2.84955e-10
  184 3807.09 0.00000 2.75131e-10
  185 3807.09 0.00000 -4.23671e-10
  186 3807.09 0.00000 1.85470e-10
  187 3807.09 0.00000 4.56593e-11
  188 3807.09 0.00000 6.46783e-11
  189 3807.09 0.00000 -1.33852e-10
  190 3807.09 0.00000 3.77294e-10
  191 3807.09 0.00000 1.02618e-10
  192 3807.09 0.00000 1.16128e-10
  193 3807.09 0.00000 -1.60003e-10
  194 3807.09 0.00000 -2.71793e-11
  195 3807.09 0.00000 2.92355e-10
  196 3807.09 0.00000 -3.91404e-11
  197 3807.09 0.00000 -2.65933e-10
  198 3807.09 0.00000 1.33451e-10
  199 3807.09 0.00000 1.27139e-10
  200 3807.09 0.00000 7.46303e-11
  201 3807.09 0.00000 -5.01971e-11
  202 3807.09 0.00000 -1.82787e-10
  203 3807.09 0.00000 -1.91427e-10
  204 3807.09 0.00000 1.24010e-10
  205 3807.09 0.00000 -1.73163e-10
  206 3807.09 0.00000 -1.06205e-11
  207 3807.09 0.00000 7.04929e-10
  208 3807.09 0.00000 -7.71571e-11
  209 3807.09 0.00000 4.60823e-13
  210 3807.09 0.00000 5.07897e-10
  211 3807.09 0.00000 -5.85159e-10
  212 3807.09 0.00000 3.52099e-11
  213 3807.09 0.00000 4.95623e-10
  214 3807.09 0.00000 2.26112e-10
  215 3807.09 0.00000 8.40641e-11
  216 3807.09 0.00000 2.13581e-10
  217 3807.09 0.00000 1.99100e-11
  218 3807.09 0.00000 4.96362e-10
  219 3807.09 0.00000 1.69197e-10
  220 3807.09 0.00000 2.47870e-10
  221 3807.09 0.00000 5.89842e-11
  222 3807.09 0.00000 7.60533e-11
  223 3807.09 0.00000 -4.14069e-10
  224 3807.09 0.00000 -4.46501e-10
  225 3807.09 0.00000 1.19854e-10
  226 3807.09 0.00000 -2.77616e-10
  227 3807.09 0.00000 1.14364e-10
  228 3807.09 0.00000 4.77976e-11
  229 3807.09 0.00000 -1.23346e-10
  230 3807.09 0.00000 -6.37205e-11
  231 3807.09 0.00000 3.60795e-11
  232 3807.09 0.00000 2.14328e-10
  233 3807.09 0.00000 1.16765e-11
  234 3807.09 0.00000 1.50678e-10
  235 3807.09 0.00000 -1.18817e-10
  236 3807.09 0.00000 -4.84950e-10
  237 3807.09 0.00000 1.20877e-10
  238 3807.09 0.00000 -2.89119e-11
  239 3807.09 0.00000 2.58823e-11
  240 3807.09 0.00000 -1.07473e-10
  241 3807.09 0.00000 2.66328e-10
</Section>

newXOutput 100

<Section columns = "stress_xx | stress_yy | stress_xy">
  1 3860.80 0.00000 2.24050e-10
  2 3860.80 0.00000 -5.50093e-11
  3 3860.80 0.00000 -3.88295e-11
  4 3860.80 0.00000 -2.44422e-10
  5 3860.80 0.00000 4.68179e-10
  6 3860.80 0.00000 7.57682e-10
  7 3860.80 0.00000 9.51004e-10
  8 3860.80 0.00000 9.57942e-10
  9 3860.80 0.00000 7.96094e-10
  10 3860.80 0.00000 6.27004e-10
  11 3860.80 0.00000 4.42941e-10
  12 3860.80 0.00000 2.21134e-10
  13 3860.80 0.00000 -2.25112e-12
  14 3860.80 0.00000 -1.76028e-10
  15 3860.80 0.00000 -2.90706e-10
  16 3860.80 0.00000 -3.58649e-10
  17 3860.80 0.00000 -3.36928e-10
  18 3860.80 0.00000 -2.56484e-10
  19 3860.80 0.00000 -8.94074e-11
  20 3860.80 0.00000 8.33646e-12
  21 3860.80 0.00000 -6.72676e-12
  22 3860.80 0.00000 -4.79839e-11
  23 3860.80 0.00000 -6.00555e-11
  24 3860.80 0.00000 -1.26569e-11
  25 3860.80 0.00000 3.26816e-11
  26 3860.80 0.00000 6.35733e-11
  27 3860.80 0.00000 8.23329e-11
  28 3860.80 0.00000 5.65943e-11
  29 3860.80 0.00000 1.63431e-11
  30 3860.80 0.00000 -3.96116e-12
  31 3860.80 0.00000 -7.87196e-11
  32 3860.80 0.00000 -6.89984e-11
  33 3860.80 0.00000 -1.67940e-11
  34 3860.80 0.00000 9.10470e-11
  35 3860.80 0.00000 1.65065e-10
  36 3860.80 0.00000 2.23915e-10
  37 3860.80 0.00000 2.73954e-10
  38 3860.80 0.00000 3.46062e-10
  39 3860.80 0.00000 3.31335e-10
  40 3860.80 0.00000 2.05288e-10
  41 3860.80 0.00000 4.98377e-11
  42 3860.80 0.00000 -1.88763e-10
  43 3860.80 0.00000 -4.39167e-10
  44 3860.80 0.00000 -6.86467e-10
  45 3860.80 0.00000 -8.80098e-10
  46 3860.80 0.00000 -9.10937e-10
  47 3860.80 0.00000 -9.17755e-10
  48 3860.80 0.00000 -7.77396e-10
  49 3860.80 0.00000 -4.62154e-10
  50 3860.80 0.00000 -1.62458e-10
  51 3860.80 0.00000 -1.07512e-10
  52 3860.80 0.00000 -6.85300e-11
  53 3860.80 0.00000 1.98124e-11
  54 3860.80 0.00000 1.00684e-10
  55 3860.80 0.00000 1.23371e-10
  56 3860.80 0.00000 1.55716e-10
  57 3860.80 0.00000 3.38739e-11
  58 3860.80 0.00000 -1.26753e-10
  59 3860.80 0.00000 -3.41435e-11
  60 3860.80 0.00000 1.69162e-10
  61 3860.80 0.00000 1.43564e-10
  62 3860.80 0.00000 -2.14389e-10
  63 3860.80 0.00000 -3.81659e-11
  64 3860.80 0.00000 6.09642e-12
  65 3860.80 0.00000 -3.93208e-10
  66 3860.80 0.00000 3.32574e-10
  67 3860.80 0.00000 -4.65255e-12
  68 3860.80 0.00000 -1.18012e-10
  69 3860.80 0.00000 1.14352e-10
  70 3860.80 0.00000 1.61612e-10
  71 3860.80 0.00000 4.19772e-10
  72 3860.80 0.00000 -4.24023e-11
  73 3860.80 0.00000 -1.16673e-10
  74 3860.80 0.00000 -5.11173e-10
  75 3860.80 0.00000 -6.99584e-11
  76 3860.80 0.00000 8.95734e-11
  77 3860.80 0.00000 -2.34615e-11
  78 3860.80 0.00000 1.67234e-11
  79 3860.80 0.00000 -7.00156e-11
  80 3860.80 0.00000 1.47249e-11
  81 3860.80 0.00000 4.85910e-11
  82 3860.80 0.00000 2.64181e-10
  83 3860.80 0.00000 3.41808e-11
  84 3860.80 0.00000 6.95303e-10
  85 3860.80 0.00000 -2.51440e-10
  86 3860.80 0.00000 -4.54144e-12
  87 3860.80 0.00000 -4.91635e-10
  88 3860.80 0.00000 -1.02846e-11
  89 3860.80 0.00000 4.45083e-10
  90 3860.80 0.00000 4.26146e-10
  91 3860.80 0.00000 -4.23242e-10
  92 3860.80 0.00000 -9.71718e-11
  93 3860.80 0.00000 -3.17935e-11
  94 3860.80 0.00000 -1.65583e-10
  95 3860.80 0.00000 -3.09617e-10
  96 3860.80 0.00000 2.39012e-11
  97 3860.80 0.00000 3.60588e-13
  98 3860.80 0.00000 -7.59046e-10
  99 3860.80 0.00000 -1.88057e-10
  100 3860.80 0.00000 3.24927e-10
  101 3860.80 0.00000 1.25374e-10
  102 3860.80 0.00000 -1.05287e-10
  103 3860.80 0.00000 -7.40097e-11
  104 3860.80 0.00000 -1.99262e-10
  105 3860.80 0.00000 1.22630e-10
  106 3860.80 0.00000 -9.17324e-11
  107 3860.80 0.00000 6.53076e-11
  108 3860.80 0.00000 -1.42781e-10
  109 3860.80 0.00000 1.78680e-10
  110 3860.80 0.00000 7.85846e-11
  111 3860.80 0.00000 -3.39766e-11
  112 3860.80 0.00000 2.85437e-11
  113 3860.80 0.00000 2.96418e-10
  114 3860.80 0.00000 2.54915e-10
  115 3860.80 0.00000 -2.62964e-11
  116 3860.80 0.00000 8.31781e-10
  117 3860.80 0.00000 -6.07042e-11
  118 3860.80 0.00000 -3.60255e-10
  119 3860.80 0.00000 -2.11627e-10
  120 3860.80 0.00000 8.19042e-11
  121 3860.80 0.00000 2.08670e-10
  122 3860.80 0.00000 1.35721e-10
  123 3860.80 0.00000 2.27139e-10
  124 3860.80 0.00000 -1.61359e-11
  125 3860.80 0.00000 -1.46201e-10
  126 3860.80 0.00000 7.15165e-10
  127 3860.80 0.00000 -1.20469e-10
  128 3860.80 0.00000 -5.12342e-11
  129 3860.80 0.00000 -7.60334e-10
  130 3860.80 0.00000 5.26740e-11
  131 3860.80 0.00000 -1.21825e-11
  132 3860.80 0.00000 -4.10019e-11
  133 3860.80 0.00000 -2.49261e-10
  134 3860.80 0.00000 3.45088e-10
  135 3860.80 0.00000 -1.38137e-11
  136 3860.80 0.00000 -7.84761e-10
  137 3860.80 0.00000 -2.86287e-11
  138 3860.80 0.00000 -6.95984e-11
  139 3860.80 0.00000 9.02179e-11
  140 3860.80 0.00000 -2.08360e-12
  141 3860.80 0.00000 2.02072e-11
  142 3860.80 0.00000 6.24526e-10
  143 3860.80 0.00000 -2.05424e-10
  144 3860.80 0.00000 2.25179e-10
  145 3860.80 0.00000 2.58388e-11
  146 3860.80 0.00000 -4.72530e-10
  147 3860.80 0.00000 2.31675e-10
  148 3860.80 0.00000 6.12756e-11
  149 3860.80 0.00000 1.03709e-10
  150 3860.80 0.00000 -9.31964e-11
  151 3860.80 0.00000 8.45183e-11
  152 3860.80 0.00000 -1.33686e-10
  153 3860.80 0.00000 -1.11874e-11
  154 3860.80 0.00000 -2.94261e-11
  155 3860.80 0.00000 1.30668e-10
  156 3860.80 0.00000 3.11707e-11
  157 3860.80 0.00000 -1.93316e-10
  158 3860.80 0.00000 1.09050e-10
  159 3860.80 0.00000 2.83258e-11
  160 3860.80 0.00000 -7.53134e-12
  161 3860.80 0.00000 9.44921e-11
  162 3860.80 0.00000 -9.28683e-11
  163 3860.80 0.00000 9.09383e-11
  164 3860.80 0.00000 -1.14179e-10
  165 3860.80 0.00000 4.66147e-10
  166 3860.80 0.00000 -2.00721e-10
  167 3860.80 0.00000 2.50814e-11
  168 3860.80 0.00000 2.06237e-11
  169 3860.80 0.00000 2.28134e-10
  170 3860.80 0.00000 -5.67707e-11
  171 3860.80 0.00000 3.08364e-10
  172 3860.80 0.00000 -1.43719e-10
  173 3860.80 0.00000 -6.49616e-10
  174 3860.80 0.00000 -3.53297e-11
  175 3860.80 0.00000 -3.22970e-10
  176 3860.80 0.00000 3.51934e-10
  177 3860.80 0.00000 -2.62566e-11
  178 3860.80 0.00000 -3.98117e-12
  179 3860.80 0.00000 8.82884e-10
  180 3860.80 0.00000 9.40257e-11
  181 3860.80 0.00000 -6.82396e-11
  182 3860.80 0.00000 2.98728e-10
  183 3860.80 0.00000 -3.46773e-10
  184 3860.80 0.00000 -3.31302e-10
  185 3860.80 0.00000 5.07714e-10
  186 3860.80 0.00000 -2.17842e-10
  187 3860.80 0.00000 -5.31088e-11
  188 3860.80 0.00000 -7.61947e-11
  189 3860.80 0.00000 1.62674e-10
  190 3860.80 0.00000 -4.59542e-10
  191 3860.80 0.00000 -1.25956e-10
  192 3860.80 0.00000 -1.40611e-10
  193 3860.80 0.00000 1.94095e-10
  194 3860.80 0.00000 2.84765e-11
  195 3860.80 0.00000 -3.49468e-10
  196 3860.80 0.00000 4.61849e-11
  197 3860.80 0.00000 3.17078e-10
  198 3860.80 0.00000 -1.64706e-10
  199 3860.80 0.00000 -1.53142e-10
  200 3860.80 0.00000 -8.74337e-11
  201 3860.80 0.00000 5.64261e-11
  202 3860.80 0.00000 2.19818e-10
  203 3860.80 0.00000 2.36631e-10
  204 3860.80 0.00000 -1.43498e-10
  205 3860.80 0.00000 2.08537e-10
  206 3860.80 0.00000 6.56152e-12
  207 3860.80 0.00000 -8.48313e-10
  208 3860.80 0.00000 9.67487e-11
  209 3860.80 0.00000 -4.18709e-12
  210 3860.80 0.00000 -6.08952e-10
  211 3860.80 0.00000 6.97919e-10
  212 3860.80 0.00000 -4.39161e-11
  213 3860.80 0.00000 -5.92657e-10
  214 3860.80 0.00000 -2.79557e-10
  215 3860.80 0.00000 -9.44360e-11
  216 3860.80 0.00000 -2.58838e-10
  217 3860.80 0.00000 -2.83376e-11
  218 3860.80 0.00000 -5.97744e-10
  219 3860.80 0.00000 -2.04907e-10
  220 3860.80 0.00000 -3.02356e-10
  221 3860.80 0.00000 -6.97315e-11
  222 3860.80 0.00000 -9.01681e-11
  223 3860.80 0.00000 5.08224e-10
  224 3860.80 0.00000 5.44440e-10
  225 3860.80 0.00000 -1.47610e-10
  226 3860.80 0.00000 3.32638e-10
  227 3860.80 0.00000 -1.35770e-10
  228 3860.80 0.00000 -5.73595e-11
  229 3860.80 0.00000 1.47074e-10
  230 3860.80 0.00000 7.44926e-11
  231 3860.80 0.00000 -4.72548e-11
  232 3860.80 0.00000 -2.58524e-10
  233 3860.80 0.00000 -1.59294e-11
  234 3860.80 0.00000 -1.85928e-10
  235 3860.80 0.00000 1.36889e-10
  236 3860.80 0.00000 5.79931e-10
  237 3860.80 0.00000 -1.37568e-10
  238 3860.80 0.00000 3.84069e-11
  239 3860.80 0.00000 -3.38413e-11
  240 3860.80 0.00000 1.37105e-10
  241 3860.80 0.00000 -3.19056e-10
</Section>

newXOutput 101

<Section columns = "stress_xx | stress_yy | stress_xy">
  1 3914.71 0.00000 -2.65744e-10
  2 3914.71 0.00000 6.28089e-11
  3 3914.71 0.00000 4.33619e-11
  4 3914.71 0.00000 2.90809e-10
  5 3914.71 0.00000 -5.59032e-10
  6 3914.71 0.00000 -9.08075e-10
  7 3914.71 0.00000 -1.14346e-09
  8 3914.71 0.00000 -1.15798e-09
  9 3914.71 0.00000 -9.68537e-10
  10 3914.71 0.00000 -7.65801e-10
  11 3914.71 0.00000 -5.45462e-10
  12 3914.71 0.00000 -2.75179e-10
  13 3914.71 0.00000 -6.01255e-12
  14 3914.71 0.00000 2.04546e-10
  15 3914.71 0.00000 3.47536e-10
  16 3914.71 0.00000 4.36697e-10
  17 3914.71 0.00000 4.08343e-10
  18 3914.71 0.00000 3.11653e-10
  19 3914.71 0.00000 1.18414e-10
  20 3914.71 0.00000 -5.24925e-13
  21 3914.71 0.00000 1.35909e-11
  22 3914.71 0.00000 5.82288e-11
  23 3914.71 0.00000 6.95840e-11
  24 3914.71 0.00000 1.53287e-11
  25 3914.71 0.00000 -3.72350e-11
  26 3914.71 0.00000 -7.37630e-11
  27 3914.71 0.00000 -9.23855e-11
  28 3914.71 0.00000 -6.49516e-11
  29 3914.71 0.00000 -1.87587e-11
  30 3914.71 0.00000 4.77460e-12
  31 3914.71 0.00000 8.83804e-11
  32 3914.71 0.00000 7.37737e-11
  33 3914.71 0.00000 1.08972e-11
  34 3914.71 0.00000 -1.18902e-10
  35 3914.71 0.00000 -2.05284e-10
  36 3914.71 0.00000 -2.76417e-10
  37 3914.71 0.00000 -3.33157e-10
  38 3914.71 0.00000 -4.12444e-10
  39 3914.71 0.00000 -3.90748e-10
  40 3914.71 0.00000 -2.40466e-10
  41 3914.71 0.00000 -5.02834e-11
  42 3914.71 0.00000 2.40226e-10
  43 3914.71 0.00000 5.40787e-10
  44 3914.71 0.00000 8.36961e-10
  45 3914.71 0.00000 1.06995e-09
  46 3914.71 0.00000 1.10254e-09
  47 3914.71 0.00000 1.10450e-09
  48 3914.71 0.00000 9.32664e-10
  49 3914.71 0.00000 5.53252e-10
  50 3914.71 0.00000 1.93173e-10
  51 3914.71 0.00000 1.27668e-10
  52 3914.71 0.00000 8.18160e-11
  53 3914.71 0.00000 -2.37008e-11
  54 3914.71 0.00000 -1.19992e-10
  55 3914.71 0.00000 -1.47463e-10
  56 3914.71 0.00000 -1.85541e-10
  57 3914.71 0.00000 -3.91833e-11
  58 3914.71 0.00000 1.45918e-10
  59 3914.71 0.00000 3.98466e-11
  60 3914.71 0.00000 -1.99806e-10
  61 3914.71 0.00000 -1.78120e-10
  62 3914.71 0.00000 2.60883e-10
  63 3914.71 0.00000 5.15935e-11
  64 3914.71 0.00000 -4.15955e-12
  65 3914.71 0.00000 4.73433e-10
  66 3914.71 0.00000 -3.99061e-10
  67 3914.71 0.00000 2.69502e-12
  68 3914.71 0.00000 1.41368e-10
  69 3914.71 0.00000 -1.41040e-10
  70 3914.71 0.00000 -1.88709e-10
  71 3914.71 0.00000 -5.09645e-10
  72 3914.71 0.00000 4.19890e-11
  73 3914.71 0.00000 1.42712e-10
  74 3914.71 0.00000 6.19318e-10
  75 3914.71 0.00000 9.02061e-11
  76 3914.71 0.00000 -1.03047e-10
  77 3914.71 0.00000 2.78449e-11
  78 3914.71 0.00000 -2.64043e-11
  79 3914.71 0.00000 8.17921e-11
  80 3914.71 0.00000 -1.88754e-11
  81 3914.71 0.00000 -5.48106e-11
  82 3914.71 0.00000 -3.16307e-10
  83 3914.71 0.00000 -4.06531e-11
  84 3914.71 0.00000 -8.37319e-10
  85 3914.71 0.00000 3.02555e-10
  86 3914.71 0.00000 8.84918e-12
  87 3914.71 0.00000 5.87730e-10
  88 3914.71 0.00000 7.41614e-12
  89 3914.71 0.00000 -5.30137e-10
  90 3914.71 0.00000 -5.25097e-10
  91 3914.71 0.00000 5.18488e-10
  92 3914.71 0.00000 1.18697e-10
  93 3914.71 0.00000 3.85395e-11
  94 3914.71 0.00000 2.02669e-10
  95 3914.71 0.00000 3.79233e-10
  96 3914.71 0.00000 -2.50223e-11
  97 3914.71 0.00000 7.02287e-12
  98 3914.71 0.00000 9.14914e-10
  99 3914.71 0.00000 2.19891e-10
  100 3914.71 0.00000 -3.90463e-10
  101 3914.71 0.00000 -1.60780e-10
  102 3914.71 0.00000 1.27669e-10
  103 3914.71 0.00000 8.12986e-11
  104 3914.71 0.00000 2.46514e-10
  105 3914.71 0.00000 -1.41207e-10
  106 3914.71 0.00000 1.07788e-10
  107 3914.71 0.00000 -7.56492e-11
  108 3914.71 0.00000 1.70308e-10
  109 3914.71 0.00000 -2.12783e-10
  110 3914.71 0.00000 -9.06084e-11
  111 3914.71 0.00000 3.51334e-11
  112 3914.71 0.00000 -3.07340e-11
  113 3914.71 0.00000 -3.52417e-10
  114 3914.71 0.00000 -3.08009e-10
  115 3914.71 0.00000 2.67755e-11
  116 3914.71 0.00000 -9.98011e-10
  117 3914.71 0.00000 7.65475e-11
  118 3914.71 0.00000 4.35284e-10
  119 3914.71 0.00000 2.51993e-10
  120 3914.71 0.00000 -1.04956e-10
  121 3914.71 0.00000 -2.51830e-10
  122 3914.71 0.00000 -1.61649e-10
  123 3914.71 0.00000 -2.69442e-10
  124 3914.71 0.00000 1.49908e-11
  125 3914.71 0.00000 1.77889e-10
  126 3914.71 0.00000 -8.67505e-10
  127 3914.71 0.00000 1.47815e-10
  128 3914.71 0.00000 7.00219e-11
  129 3914.71 0.00000 9.20961e-10
  130 3914.71 0.00000 -6.26283e-11
  131 3914.71 0.00000 5.09225e-12
  132 3914.71 0.00000 5.68792e-11
  133 3914.71 0.00000 3.01441e-10
  134 3914.71 0.00000 -4.21279e-10
  135 3914.71 0.00000 2.24072e-11
  136 3914.71 0.00000 9.43175e-10
  137 3914.71 0.00000 2.62013e-11
  138 3914.71 0.00000 8.27651e-11
  139 3914.71 0.00000 -1.07760e-10
  140 3914.71 0.00000 3.51093e-13
  141 3914.71 0.00000 -2.69538e-11
  142 3914.71 0.00000 -7.63948e-10
  143 3914.71 0.00000 2.51854e-10
  144 3914.71 0.00000 -2.67324e-10
  145 3914.71 0.00000 -3.94680e-11
  146 3914.71 0.00000 5.79321e-10
  147 3914.71 0.00000 -2.73017e-10
  148 3914.71 0.00000 -7.26629e-11
  149 3914.71 0.00000 -1.18787e-10
  150 3914.71 0.00000 1.06007e-10
  151 3914.71 0.00000 -1.09475e-10
  152 3914.71 0.00000 1.57183e-10
  153 3914.71 0.00000 1.41625e-11
  154 3914.71 0.00000 3.45243e-11
  155 3914.71 0.00000 -1.53509e-10
  156 3914.71 0.00000 -3.46743e-11
  157 3914.71 0.00000 2.31735e-10
  158 3914.71 0.00000 -1.26785e-10
  159 3914.71 0.00000 -2.99785e-11
  160 3914.71 0.00000 9.51045e-12
  161 3914.71 0.00000 -1.04754e-10
  162 3914.71 0.00000 1.12107e-10
  163 3914.71 0.00000 -1.07271e-10
  164 3914.71 0.00000 1.41430e-10
  165 3914.71 0.00000 -5.63397e-10
  166 3914.71 0.00000 2.38584e-10
  167 3914.71 0.00000 -2.90545e-11
  168 3914.71 0.00000 -2.44184e-11
  169 3914.71 0.00000 -2.71742e-10
  170 3914.71 0.00000 6.02003e-11
  171 3914.71 0.00000 -3.81511e-10
  172 3914.71 0.00000 1.63891e-10
  173 3914.71 0.00000 7.91346e-10
  174 3914.71 0.00000 4.13915e-11
  175 3914.71 0.00000 3.86000e-10
  176 3914.71 0.00000 -4.19291e-10
  177 3914.71 0.00000 2.83343e-11
  178 3914.71 0.00000 8.81734e-12
  179 3914.71 0.00000 -1.06418e-09
  180 3914.71 0.00000 -1.11908e-10
  181 3914.71 0.00000 8.06183e-11
  182 3914.71 0.00000 -3.58263e-10
  183 3914.71 0.00000 4.23709e-10
  184 3914.71 0.00000 4.00397e-10
  185 3914.71 0.00000 -6.11408e-10
  186 3914.71 0.00000 2.56692e-10
  187 3914.71 0.00000 5.79341e-11
  188 3914.71 0.00000 8.83576e-11
  189 3914.71 0.00000 -1.98510e-10
  190 3914.71 0.00000 5.60495e-10
  191 3914.71 0.00000 1.55714e-10
  192 3914.71 0.00000 1.74313e-10
  193 3914.71 0.00000 -2.38029e-10
  194 3914.71 0.00000 -3.42184e-11
  195 3914.71 0.00000 4.17315e-10
  196 3914.71 0.00000 -5.52025e-11
  197 3914.71 0.00000 -3.77777e-10
  198 3914.71 0.00000 2.03635e-10
  199 3914.71 0.00000 1.86451e-10
  200 3914.71 0.00000 1.00699e-10
  201 3914.71 0.00000 -6.03493e-11
  202 3914.71 0.00000 -2.60902e-10
  203 3914.71 0.00000 -2.94125e-10
  204 3914.71 0.00000 1.64636e-10
  205 3914.71 0.00000 -2.51169e-10
  206 3914.71 0.00000 5.92357e-13
  207 3914.71 0.00000 1.02316e-09
  208 3914.71 0.00000 -1.23632e-10
  209 3914.71 0.00000 5.41628e-12
  210 3914.71 0.00000 7.31092e-10
  211 3914.71 0.00000 -8.34938e-10
  212 3914.71 0.00000 5.43851e-11
  213 3914.71 0.00000 7.10713e-10
  214 3914.71 0.00000 3.46554e-10
  215 3914.71 0.00000 1.05036e-10
  216 3914.71 0.00000 3.15109e-10
  217 3914.71 0.00000 3.71371e-11
  218 3914.71 0.00000 7.19888e-10
  219 3914.71 0.00000 2.45966e-10
  220 3914.71 0.00000 3.69649e-10
  221 3914.71 0.00000 8.34508e-11
  222 3914.71 0.00000 1.06593e-10
  223 3914.71 0.00000 -6.24603e-10
  224 3914.71 0.00000 -6.65597e-10
  225 3914.71 0.00000 1.81236e-10
  226 3914.71 0.00000 -3.98898e-10
  227 3914.71 0.00000 1.59199e-10
  228 3914.71 0.00000 7.35260e-11
  229 3914.71 0.00000 -1.75896e-10
  230 3914.71 0.00000 -8.89879e-11
  231 3914.71 0.00000 6.07023e-11
  232 3914.71 0.00000 3.12486e-10
  233 3914.71 0.00000 2.17284e-11
  234 3914.71 0.00000 2.28855e-10
  235 3914.71 0.00000 -1.59231e-10
  236 3914.71 0.00000 -6.94152e-10
  237 3914.71 0.00000 1.55847e-10
  238 3914.71 0.00000 -4.96777e-11
  239 3914.71 0.00000 4.53691e-11
  240 3914.71 0.00000 -1.74339e-10
  241 3914.71 0.00000 3.82039e-10
</Section>

newXOutput 102

<Section columns = "stress_xx | stress_yy | stress_xy">
  1 3968.82 0.00000 3.16574e-10
  2 3968.82 0.00000 -7.31136e-11
  3 3968.82 0.00000 -4.98734e-11
  4 3968.82 0.00000 -3.46129e-10
  5 3968.82 0.00000 6.68508e-10
  6 3968.82 0.00000 1.08929e-09
  7 3968.82 0.00000 1.37633e-09
  8 3968.82 0.00000 1.40344e-09
  9 3968.82 0.00000 1.18210e-09
  10 3968.82 0.00000 9.41899e-10
  11 3968.82 0.00000 6.73722e-10
  12 3968.82 0.00000 3.47053e-10
  13 3968.82 0.00000 2.10738e-11
  14 3968.82 0.00000 -2.38551e-10
  15 3968.82 0.00000 -4.13710e-10
  16 3968.82 0.00000 -5.21828e-10
  17 3968.82 0.00000 -4.90850e-10
  18 3968.82 0.00000 -3.78681e-10
  19 3968.82 0.00000 -1.52681e-10
  20 3968.82 0.00000 -1.64737e-11
  21 3968.82 0.00000 -2.97796e-11
  22 3968.82 0.00000 -7.60444e-11
  23 3968.82 0.00000 -8.66014e-11
  24 3968.82 0.00000 -1.57038e-11
  25 3968.82 0.00000 4.32300e-11
  26 3968.82 0.00000 8.53807e-11
  27 3968.82 0.00000 1.07124e-10
  28 3968.82 0.00000 7.32976e-11
  29 3968.82 0.00000 2.12306e-11
  30 3968.82 0.00000 -6.51950e-12
  31 3968.82 0.00000 -9.78610e-11
  32 3968.82 0.00000 -8.19814e-11
  33 3968.82 0.00000 -5.65060e-12
  34 3968.82 0.00000 1.51811e-10
  35 3968.82 0.00000 2.54868e-10
  36 3968.82 0.00000 3.38864e-10
  37 3968.82 0.00000 4.05190e-10
  38 3968.82 0.00000 4.92248e-10
  39 3968.82 0.00000 4.62155e-10
  40 3968.82 0.00000 2.80039e-10
  41 3968.82 0.00000 4.59548e-11
  42 3968.82 0.00000 -3.04777e-10
  43 3968.82 0.00000 -6.66765e-10
  44 3968.82 0.00000 -1.02385e-09
  45 3968.82 0.00000 -1.30173e-09
  46 3968.82 0.00000 -1.33630e-09
  47 3968.82 0.00000 -1.33180e-09
  48 3968.82 0.00000 -1.12149e-09
  49 3968.82 0.00000 -6.64641e-10
  50 3968.82 0.00000 -2.30292e-10
  51 3968.82 0.00000 -1.52654e-10
  52 3968.82 0.00000 -9.75862e-11
  53 3968.82 0.00000 2.76829e-11
  54 3968.82 0.00000 1.42975e-10
  55 3968.82 0.00000 1.75188e-10
  56 3968.82 0.00000 2.20796e-10
  57 3968.82 0.00000 4.54808e-11
  58 3968.82 0.00000 -1.67343e-10
  59 3968.82 0.00000 -4.77688e-11
  60 3968.82 0.00000 2.37511e-10
  61 3968.82 0.00000 2.21587e-10
  62 3968.82 0.00000 -3.18659e-10
  63 3968.82 0.00000 -6.67690e-11
  64 3968.82 0.00000 4.17351e-12
  65 3968.82 0.00000 -5.71836e-10
  66 3968.82 0.00000 4.78842e-10
  67 3968.82 0.00000 -1.31065e-13
  68 3968.82 0.00000 -1.71067e-10
  69 3968.82 0.00000 1.72796e-10
  70 3968.82 0.00000 2.22279e-10
  71 3968.82 0.00000 6.19129e-10
  72 3968.82 0.00000 -4.25413e-11
  73 3968.82 0.00000 -1.72279e-10
  74 3968.82 0.00000 -7.52146e-10
  75 3968.82 0.00000 -1.13899e-10
  76 3968.82 0.00000 1.20270e-10
  77 3968.82 0.00000 -3.25076e-11
  78 3968.82 0.00000 4.08328e-11
  79 3968.82 0.00000 -9.56947e-11
  80 3968.82 0.00000 2.34091e-11
  81 3968.82 0.00000 6.16143e-11
  82 3968.82 0.00000 3.79907e-10
  83 3968.82 0.00000 4.75443e-11
  84 3968.82 0.00000 1.01018e-09
  85 3968.82 0.00000 -3.65478e-10
  86 3968.82 0.00000 -1.07073e-11
  87 3968.82 0.00000 -7.05124e-10
  88 3968.82 0.00000 -6.91195e-12
  89 3968.82 0.00000 6.34122e-10
  90 3968.82 0.00000 6.45126e-10
  91 3968.82 0.00000 -6.35805e-10
  92 3968.82 0.00000 -1.44269e-10
  93 3968.82 0.00000 -4.13411e-11
  94 3968.82 0.00000 -2.47249e-10
  95 3968.82 0.00000 -4.65644e-10
  96 3968.82 0.00000 2.55588e-11
  97 3968.82 0.00000 -1.62517e-11
  98 3968.82 0.00000 -1.10457e-09
  99 3968.82 0.00000 -2.58700e-10
  100 3968.82 0.00000 4.70229e-10
  101 3968.82 0.00000 2.04664e-10
  102 3968.82 0.00000 -1.52572e-10
  103 3968.82 0.00000 -9.16191e-11
  104 3968.82 0.00000 -3.04211e-10
  105 3968.82 0.00000 1.61680e-10
  106 3968.82 0.00000 -1.24844e-10
  107 3968.82 0.00000 8.84348e-11
  108 3968.82 0.00000 -2.02677e-10
  109 3968.82 0.00000 2.53660e-10
  110 3968.82 0.00000 1.03106e-10
  111 3968.82 0.00000 -3.47573e-11
  112 3968.82 0.00000 3.38423e-11
  113 3968.82 0.00000 4.20131e-10
  114 3968.82 0.00000 3.73069e-10
  115 3968.82 0.00000 -2.64092e-11
  116 3968.82 0.00000 1.20135e-09
  117 3968.82 0.00000 -9.05067e-11
  118 3968.82 0.00000 -5.26207e-10
  119 3968.82 0.00000 -3.01101e-10
  120 3968.82 0.00000 1.35877e-10
  121 3968.82 0.00000 3.05066e-10
  122 3968.82 0.00000 1.91478e-10
  123 3968.82 0.00000 3.21644e-10
  124 3968.82 0.00000 -1.47464e-11
  125 3968.82 0.00000 -2.15397e-10
  126 3968.82 0.00000 1.05256e-09
  127 3968.82 0.00000 -1.81632e-10
  128 3968.82 0.00000 -9.27696e-11
  129 3968.82 0.00000 -1.11793e-09
  130 3968.82 0.00000 7.28846e-11
  131 3968.82 0.00000 5.71491e-12
  132 3968.82 0.00000 -8.04261e-11
  133 3968.82 0.00000 -3.66761e-10
  134 3968.82 0.00000 5.15693e-10
  135 3968.82 0.00000 -3.28364e-11
  136 3968.82 0.00000 -1.13489e-09
  137 3968.82 0.00000 -2.29637e-11
  138 3968.82 0.00000 -9.84092e-11
  139 3968.82 0.00000 1.29488e-10
  140 3968.82 0.00000 -3.47217e-13
  141 3968.82 0.00000 3.44987e-11
  142 3968.82 0.00000 9.34586e-10
  143 3968.82 0.00000 -3.07967e-10
  144 3968.82 0.00000 3.19320e-10
  145 3968.82 0.00000 5.46355e-11
  146 3968.82 0.00000 -7.10972e-10
  147 3968.82 0.00000 3.20971e-10
  148 3968.82 0.00000 8.61276e-11
  149 3968.82 0.00000 1.36438e-10
  150 3968.82 0.00000 -1.21630e-10
  151 3968.82 0.00000 1.39832e-10
  152 3968.82 0.00000 -1.83455e-10
  153 3968.82 0.00000 -1.81194e-11
  154 3968.82 0.00000 -3.98754e-11
  155 3968.82 0.00000 1.81536e-10
  156 3968.82 0.00000 4.13620e-11
  157 3968.82 0.00000 -2.78578e-10
  158 3968.82 0.00000 1.47602e-10
  159 3968.82 0.00000 2.99578e-11
  160 3968.82 0.00000 -1.19123e-11
  161 3968.82 0.00000 1.22942e-10
  162 3968.82 0.00000 -1.35962e-10
  163 3968.82 0.00000 1.27039e-10
  164 3968.82 0.00000 -1.71513e-10
  165 3968.82 0.00000 6.80619e-10
  166 3968.82 0.00000 -2.84872e-10
  167 3968.82 0.00000 3.52922e-11
  168 3968.82 0.00000 2.90933e-11
  169 3968.82 0.00000 3.23841e-10
  170 3968.82 0.00000 -6.29483e-11
  171 3968.82 0.00000 4.73598e-10
  172 3968.82 0.00000 -1.87140e-10
  173 3968.82 0.00000 -9.66111e-10
  174 3968.82 0.00000 -4.78362e-11
  175 3968.82 0.00000 -4.62249e-10
  176 3968.82 0.00000 5.00464e-10
  177 3968.82 0.00000 -3.04602e-11
  178 3968.82 0.00000 -1.47205e-11
  179 3968.82 0.00000 1.28573e-09
  180 3968.82 0.00000 1.33906e-10
  181 3968.82 0.00000 -9.48756e-11
  182 3968.82 0.00000 4.30080e-10
  183 3968.82 0.00000 -5.18280e-10
  184 3968.82 0.00000 -4.82564e-10
  185 3968.82 0.00000 7.36111e-10
  186 3968.82 0.00000 -3.02657e-10
  187 3968.82 0.00000 -6.28737e-11
  188 3968.82 0.00000 -1.03100e-10
  189 3968.82 0.00000 2.43411e-10
  190 3968.82 0.00000 -6.85637e-10
  191 3968.82 0.00000 -1.92086e-10
  192 3968.82 0.00000 -2.11559e-10
  193 3968.82 0.00000 2.91016e-10
  194 3968.82 0.00000 4.01208e-11
  195 3968.82 0.00000 -5.00226e-10
  196 3968.82 0.00000 6.59306e-11
  197 3968.82 0.00000 4.51688e-10
  198 3968.82 0.00000 -2.52269e-10
  199 3968.82 0.00000 -2.26482e-10
  200 3968.82 0.00000 -1.16691e-10
  201 3968.82 0.00000 6.71547e-11
  202 3968.82 0.00000 3.10886e-10
  203 3968.82 0.00000 3.63810e-10
  204 3968.82 0.00000 -1.91453e-10
  205 3968.82 0.00000 3.03313e-10
  206 3968.82 0.00000 -1.29014e-11
  207 3968.82 0.00000 -1.23606e-09
  208 3968.82 0.00000 1.58433e-10
  209 3968.82 0.00000 -1.25015e-11
  210 3968.82 0.00000 -8.80440e-10
  211 3968.82 0.00000 1.00094e-09
  212 3968.82 0.00000 -6.58645e-11
  213 3968.82 0.00000 -8.54478e-10
  214 3968.82 0.00000 -4.30755e-10
  215 3968.82 0.00000 -1.17827e-10
  216 3968.82 0.00000 -3.85251e-10
  217 3968.82 0.00000 -5.08627e-11
  218 3968.82 0.00000 -8.70660e-10
  219 3968.82 0.00000 -2.96462e-10
  220 3968.82 0.00000 -4.53794e-10
  221 3968.82 0.00000 -9.72323e-11
  222 3968.82 0.00000 -1.22536e-10
  223 3968.82 0.00000 7.69716e-10
  224 3968.82 0.00000 8.10478e-10
  225 3968.82 0.00000 -2.21667e-10
  226 3968.82 0.00000 4.78811e-10
  227 3968.82 0.00000 -1.88419e-10
  228 3968.82 0.00000 -8.87339e-11
  229 3968.82 0.00000 2.10871e-10
  230 3968.82 0.00000 1.02228e-10
  231 3968.82 0.00000 -7.80306e-11
  232 3968.82 0.00000 -3.78207e-10
  233 3968.82 0.00000 -2.18349e-11
  234 3968.82 0.00000 -2.83595e-10
  235 3968.82 0.00000 1.80144e-10
  236 3968.82 0.00000 8.34097e-10
  237 3968.82 0.00000 -1.78695e-10
  238 3968.82 0.00000 6.55057e-11
  239 3968.82 0.00000 -5.89671e-11
  240 3968.82 0.00000 2.24703e-10
  241 3968.82 0.00000 -4.58692e-10
</Section>

newXOutput 103

<Section columns = "stress_xx | stress_yy | stress_xy">
  1 4023.13 0.00000 -3.77395e-10
  2 4023.13 0.00000 8.28484e-11
  3 4023.13 0.00000 5.82365e-11
  4 4023.13 0.00000 4.12791e-10
  5 4023.13 0.00000 -8.02070e-10
  6 4023.13 0.00000 -1.31191e-09
  7 4023.13 0.00000 -1.66204e-09
  8 4023.13 0.00000 -1.70552e-09
  9 4023.13 0.00000 -1.44547e-09
  10 4023.13 0.00000 -1.15815e-09
  11 4023.13 0.00000 -8.34401e-10
  12 4023.13 0.00000 -4.37948e-10
  13 4023.13 0.00000 -4.00840e-11
  14 4023.13 0.00000 2.77741e-10
  15 4023.13 0.00000 4.95293e-10
  16 4023.13 0.00000 6.25619e-10
  17 4023.13 0.00000 5.90683e-10
  18 4023.13 0.00000 4.62848e-10
  19 4023.13 0.00000 1.99016e-10
  20 4023.13 0.00000 3.27653e-11
  21 4023.13 0.00000 4.42160e-11
  22 4023.13 0.00000 9.54083e-11
  23 4023.13 0.00000 1.02073e-10
  24 4023.13 0.00000 1.68578e-11
  25 4023.13 0.00000 -4.94494e-11
  26 4023.13 0.00000 -9.83546e-11
  27 4023.13 0.00000 -1.23460e-10
  28 4023.13 0.00000 -8.54222e-11
  29 4023.13 0.00000 -2.48577e-11
  30 4023.13 0.00000 6.90211e-12
  31 4023.13 0.00000 1.15592e-10
  32 4023.13 0.00000 9.62675e-11
  33 4023.13 0.00000 -2.88033e-13
  34 4023.13 0.00000 -1.91804e-10
  35 4023.13 0.00000 -3.12453e-10
  36 4023.13 0.00000 -4.13377e-10
  37 4023.13 0.00000 -4.93448e-10
  38 4023.13 0.00000 -5.88935e-10
  39 4023.13 0.00000 -5.47991e-10
  40 4023.13 0.00000 -3.27754e-10
  41 4023.13 0.00000 -4.37564e-11
  42 4023.13 0.00000 3.84639e-10
  43 4023.13 0.00000 8.23238e-10
  44 4023.13 0.00000 1.25339e-09
  45 4023.13 0.00000 1.58783e-09
  46 4023.13 0.00000 1.62390e-09
  47 4023.13 0.00000 1.60849e-09
  48 4023.13 0.00000 1.34927e-09
  49 4023.13 0.00000 7.99065e-10
  50 4023.13 0.00000 2.75296e-10
  51 4023.13 0.00000 1.82801e-10
  52 4023.13 0.00000 1.17216e-10
  53 4023.13 0.00000 -3.25514e-11
  54 4023.13 0.00000 -1.70959e-10
  55 4023.13 0.00000 -2.08759e-10
  56 4023.13 0.00000 -2.62960e-10
  57 4023.13 0.00000 -5.34581e-11
  58 4023.13 0.00000 1.91228e-10
  59 4023.13 0.00000 5.66640e-11
  60 4023.13 0.00000 -2.83072e-10
  61 4023.13 0.00000 -2.76235e-10
  62 4023.13 0.00000 3.89776e-10
  63 4023.13 0.00000 8.72024e-11
  64 4023.13 0.00000 -8.72146e-13
  65 4023.13 0.00000 6.91194e-10
  66 4023.13 0.00000 -5.76563e-10
  67 4023.13 0.00000 -3.89247e-12
  68 4023.13 0.00000 2.05693e-10
  69 4023.13 0.00000 -2.12015e-10
  70 4023.13 0.00000 -2.61898e-10
  71 4023.13 0.00000 -7.54668e-10
  72 4023.13 0.00000 3.85727e-11
  73 4023.13 0.00000 2.08633e-10
  74 4023.13 0.00000 9.14079e-10
  75 4023.13 0.00000 1.44449e-10
  76 4023.13 0.00000 -1.40922e-10
  77 4023.13 0.00000 3.85077e-11
  78 4023.13 0.00000 -5.83406e-11
  79 4023.13 0.00000 1.11567e-10
  80 4023.13 0.00000 -2.87595e-11
  81 4023.13 0.00000 -7.00452e-11
  82 4023.13 0.00000 -4.58241e-10
  83 4023.13 0.00000 -5.71453e-11
  84 4023.13 0.00000 -1.22194e-09
  85 4023.13 0.00000 4.42284e-10
  86 4023.13 0.00000 1.44557e-11
  87 4023.13 0.00000 8.47350e-10
  88 4023.13 0.00000 1.06401e-12
  89 4023.13 0.00000 -7.59451e-10
  90 4023.13 0.00000 -7.95102e-10
  91 4023.13 0.00000 7.80549e-10
  92 4023.13 0.00000 1.75566e-10
  93 4023.13 0.00000 4.96435e-11
  94 4023.13 0.00000 3.01474e-10
  95 4023.13 0.00000 5.72629e-10
  96 4023.13 0.00000 -2.52535e-11
  97 4023.13 0.00000 3.07938e-11
  98 4023.13 0.00000 1.33644e-09
  99 4023.13 0.00000 2.99697e-10
  100 4023.13 0.00000 -5.68044e-10
  101 4023.13 0.00000 -2.61232e-10
  102 4023.13 0.00000 1.81756e-10
  103 4023.13 0.00000 1.00470e-10
  104 4023.13 0.00000 3.75647e-10
  105 4023.13 0.00000 -1.84144e-10
  106 4023.13 0.00000 1.46303e-10
  107 4023.13 0.00000 -1.03030e-10
  108 4023.13 0.00000 2.42460e-10
  109 4023.13 0.00000 -3.02958e-10
  110 4023.13 0.00000 -1.20458e-10
  111 4023.13 0.00000 3.32327e-11
  112 4023.13 0.00000 -3.82627e-11
  113 4023.13 0.00000 -5.02547e-10
  114 4023.13 0.00000 -4.50989e-10
  115 4023.13 0.00000 2.47233e-11
  116 4023.13 0.00000 -1.44925e-09
  117 4023.13 0.00000 1.08232e-10
  118 4023.13 0.00000 6.37899e-10
  119 4023.13 0.00000 3.60238e-10
  120 4023.13 0.00000 -1.72510e-10
  121 4023.13 0.00000 -3.70990e-10
  122 4023.13 0.00000 -2.28475e-10
  123 4023.13 0.00000 -3.85995e-10
  124 4023.13 0.00000 1.22359e-11
  125 4023.13 0.00000 2.62921e-10
  126 4023.13 0.00000 -1.28100e-09
  127 4023.13 0.00000 2.22187e-10
  128 4023.13 0.00000 1.24025e-10
  129 4023.13 0.00000 1.35968e-09
  130 4023.13 0.00000 -8.68494e-11
  131 4023.13 0.00000 -2.07880e-11
  132 4023.13 0.00000 1.08558e-10
  133 4023.13 0.00000 4.44538e-10
  134 4023.13 0.00000 -6.32658e-10
  135 4023.13 0.00000 4.64961e-11
  136 4023.13 0.00000 1.36819e-09
  137 4023.13 0.00000 1.92730e-11
  138 4023.13 0.00000 1.17061e-10
  139 4023.13 0.00000 -1.55576e-10
  140 4023.13 0.00000 -3.75685e-12
  141 4023.13 0.00000 -4.66534e-11
  142 4023.13 0.00000 -1.14666e-09
  143 4023.13 0.00000 3.77362e-10
  144 4023.13 0.00000 -3.83595e-10
  145 4023.13 0.00000 -7.67081e-11
  146 4023.13 0.00000 8.74061e-10
  147 4023.13 0.00000 -3.78033e-10
  148 4023.13 0.00000 -1.02598e-10
  149 4023.13 0.00000 -1.58188e-10
  150 4023.13 0.00000 1.39721e-10
  151 4023.13 0.00000 -1.79446e-10
  152 4023.13 0.00000 2.15466e-10
  153 4023.13 0.00000 2.50281e-11
  154 4023.13 0.00000 4.57583e-11
  155 4023.13 0.00000 -2.15010e-10
  156 4023.13 0.00000 -4.63365e-11
  157 4023.13 0.00000 3.34814e-10
  158 4023.13 0.00000 -1.71806e-10
  159 4023.13 0.00000 -2.93026e-11
  160 4023.13 0.00000 1.50203e-11
  161 4023.13 0.00000 -1.42096e-10
  162 4023.13 0.00000 1.65264e-10
  163 4023.13 0.00000 -1.48837e-10
  164 4023.13 0.00000 2.09782e-10
  165 4023.13 0.00000 -8.24939e-10
  166 4023.13 0.00000 3.41292e-10
  167 4023.13 0.00000 -4.08011e-11
  168 4023.13 0.00000 -3.51152e-11
  169 4023.13 0.00000 -3.87036e-10
  170 4023.13 0.00000 6.73087e-11
  171 4023.13 0.00000 -5.88617e-10
  172 4023.13 0.00000 2.12022e-10
  173 4023.13 0.00000 1.18137e-09
  174 4023.13 0.00000 5.59198e-11
  175 4023.13 0.00000 5.54387e-10
  176 4023.13 0.00000 -5.98496e-10
  177 4023.13 0.00000 3.35376e-11
  178 4023.13 0.00000 2.18425e-11
  179 4023.13 0.00000 -1.55749e-09
  180 4023.13 0.00000 -1.60503e-10
  181 4023.13 0.00000 1.09532e-10
  182 4023.13 0.00000 -5.16986e-10
  183 4023.13 0.00000 6.34487e-10
  184 4023.13 0.00000 5.80039e-10
  185 4023.13 0.00000 -8.88653e-10
  186 4023.13 0.00000 3.54743e-10
  187 4023.13 0.00000 6.93355e-11
  188 4023.13 0.00000 1.20367e-10
  189 4023.13 0.00000 -3.00033e-10
  190 4023.13 0.00000 8.39762e-10
  191 4023.13 0.00000 2.37376e-10
  192 4023.13 0.00000 2.59204e-10
  193 4023.13 0.00000 -3.53514e-10
  194 4023.13 0.00000 -4.34621e-11
  195 4023.13 0.00000 6.01029e-10
  196 4023.13 0.00000 -7.80165e-11
  197 4023.13 0.00000 -5.41543e-10
  198 4023.13 0.00000 3.12315e-10
  199 4023.13 0.00000 2.75773e-10
  200 4023.13 0.00000 1.30822e-10
  201 4023.13 0.00000 -7.37337e-11
  202 4023.13 0.00000 -3.73369e-10
  203 4023.13 0.00000 -4.51792e-10
  204 4023.13 0.00000 2.19037e-10
  205 4023.13 0.00000 -3.67731e-10
  206 4023.13 0.00000 2.77997e-11
  207 4023.13 0.00000 1.49648e-09
  208 4023.13 0.00000 -2.00799e-10
  209 4023.13 0.00000 1.88691e-11
  210 4023.13 0.00000 1.06197e-09
  211 4023.13 0.00000 -1.20309e-09
  212 4023.13 0.00000 8.09241e-11
  213 4023.13 0.00000 1.02803e-09
  214 4023.13 0.00000 5.34894e-10
  215 4023.13 0.00000 1.32764e-10
  216 4023.13 0.00000 4.70692e-10
  217 4023.13 0.00000 6.58044e-11
  218 4023.13 0.00000 1.05378e-09
  219 4023.13 0.00000 3.59584e-10
  220 4023.13 0.00000 5.57069e-10
  221 4023.13 0.00000 1.14561e-10
  222 4023.13 0.00000 1.43883e-10
  223 4023.13 0.00000 -9.49746e-10
  224 4023.13 0.00000 -9.92189e-10
  225 4023.13 0.00000 2.71260e-10
  226 4023.13 0.00000 -5.76874e-10
  227 4023.13 0.00000 2.21932e-10
  228 4023.13 0.00000 1.09412e-10
  229 4023.13 0.00000 -2.52787e-10
  230 4023.13 0.00000 -1.18752e-10
  231 4023.13 0.00000 9.80172e-11
  232 4023.13 0.00000 4.57463e-10
  233 4023.13 0.00000 2.97814e-11
  234 4023.13 0.00000 3.51829e-10
  235 4023.13 0.00000 -2.06998e-10
  236 4023.13 0.00000 -1.00333e-09
  237 4023.13 0.00000 2.01094e-10
  238 4023.13 0.00000 -8.64470e-11
  239 4023.13 0.00000 7.49955e-11
  240 4023.13 0.00000 -2.86282e-10
  241 4023.13 0.00000 5.50849e-10
</Section>

newXOutput 104

<Section columns = "stress_xx | stress_yy | stress_xy">
  1 4077.65 0.00000 4.49769e-10
  2 4077.65 0.00000 -9.56036e-11
  3 4077.65 0.00000 -6.57470e-11
  4 4077.65 0.00000 -4.93430e-10
  5 4077.65 0.00000 9.63736e-10
  6 4077.65 0.00000 1.58244e-09
  7 4077.65 0.00000 2.00989e-09
  8 4077.65 0.00000 2.07489e-09
  9 4077.65 0.00000 1.77056e-09
  10 4077.65 0.00000 1.42760e-09
  11 4077.65 0.00000 1.03351e-09
  12 4077.65 0.00000 5.54080e-10
  13 4077.65 0.00000 6.82511e-11
  14 4077.65 0.00000 -3.23021e-10
  15 4077.65 0.00000 -5.93788e-10
  16 4077.65 0.00000 -7.54702e-10
  17 4077.65 0.00000 -7.14693e-10
  18 4077.65 0.00000 -5.65068e-10
  19 4077.65 0.00000 -2.57253e-10
  20 4077.65 0.00000 -5.93801e-11
  21 4077.65 0.00000 -6.62202e-11
  22 4077.65 0.00000 -1.18471e-10
  23 4077.65 0.00000 -1.22539e-10
  24 4077.65 0.00000 -1.78269e-11
  25 4077.65 0.00000 5.61853e-11
  26 4077.65 0.00000 1.12150e-10
  27 4077.65 0.00000 1.44657e-10
  28 4077.65 0.00000 9.83684e-11
  29 4077.65 0.00000 2.77855e-11
  30 4077.65 0.00000 -6.89037e-12
  31 4077.65 0.00000 -1.29657e-10
  32 4077.65 0.00000 -1.05721e-10
  33 4077.65 0.00000 1.19679e-11
  34 4077.65 0.00000 2.43785e-10
  35 4077.65 0.00000 3.88716e-10
  36 4077.65 0.00000 5.12809e-10
  37 4077.65 0.00000 6.05655e-10
  38 4077.65 0.00000 7.10663e-10
  39 4077.65 0.00000 6.54180e-10
  40 4077.65 0.00000 3.82799e-10
  41 4077.65 0.00000 3.48582e-11
  42 4077.65 0.00000 -4.84465e-10
  43 4077.65 0.00000 -1.01678e-09
  44 4077.65 0.00000 -1.53758e-09
  45 4077.65 0.00000 -1.94058e-09
  46 4077.65 0.00000 -1.97670e-09
  47 4077.65 0.00000 -1.94791e-09
  48 4077.65 0.00000 -1.63003e-09
  49 4077.65 0.00000 -9.62213e-10
  50 4077.65 0.00000 -3.29601e-10
  51 4077.65 0.00000 -2.19415e-10
  52 4077.65 0.00000 -1.41494e-10
  53 4077.65 0.00000 3.86396e-11
  54 4077.65 0.00000 2.05120e-10
  55 4077.65 0.00000 2.50353e-10
  56 4077.65 0.00000 3.14365e-10
  57 4077.65 0.00000 6.28337e-11
  58 4077.65 0.00000 -2.20800e-10
  59 4077.65 0.00000 -6.75040e-11
  60 4077.65 0.00000 3.37415e-10
  61 4077.65 0.00000 3.43251e-10
  62 4077.65 0.00000 -4.77775e-10
  63 4077.65 0.00000 -1.12097e-10
  64 4077.65 0.00000 -5.66173e-12
  65 4077.65 0.00000 -8.38884e-10
  66 4077.65 0.00000 6.95710e-10
  67 4077.65 0.00000 8.91761e-12
  68 4077.65 0.00000 -2.47513e-10
  69 4077.65 0.00000 2.61096e-10
  70 4077.65 0.00000 3.07966e-10
  71 4077.65 0.00000 9.20956e-10
  72 4077.65 0.00000 -3.18811e-11
  73 4077.65 0.00000 -2.54545e-10
  74 4077.65 0.00000 -1.11504e-09
  75 4077.65 0.00000 -1.83035e-10
  76 4077.65 0.00000 1.68319e-10
  77 4077.65 0.00000 -4.52137e-11
  78 4077.65 0.00000 8.25681e-11
  79 4077.65 0.00000 -1.31843e-10
  80 4077.65 0.00000 3.53783e-11
  81 4077.65 0.00000 7.85293e-11
  82 4077.65 0.00000 5.50373e-10
  83 4077.65 0.00000 6.92296e-11
  84 4077.65 0.00000 1.48099e-09
  85 4077.65 0.00000 -5.35055e-10
  86 4077.65 0.00000 -1.93111e-11
  87 4077.65 0.00000 -1.02099e-09
  88 4077.65 0.00000 3.38196e-12
  89 4077.65 0.00000 9.13531e-10
  90 4077.65 0.00000 9.82729e-10
  91 4077.65 0.00000 -9.59842e-10
  92 4077.65 0.00000 -2.15089e-10
  93 4077.65 0.00000 -5.69390e-11
  94 4077.65 0.00000 -3.72406e-10
  95 4077.65 0.00000 -7.06461e-10
  96 4077.65 0.00000 2.36166e-11
  97 4077.65 0.00000 -4.68187e-11
  98 4077.65 0.00000 -1.61993e-09
  99 4077.65 0.00000 -3.50208e-10
  100 4077.65 0.00000 6.88584e-10
  101 4077.65 0.00000 3.34312e-10
  102 4077.65 0.00000 -2.19428e-10
  103 4077.65 0.00000 -1.11974e-10
  104 4077.65 0.00000 -4.65384e-10
  105 4077.65 0.00000 2.11279e-10
  106 4077.65 0.00000 -1.70378e-10
  107 4077.65 0.00000 1.19431e-10
  108 4077.65 0.00000 -2.91111e-10
  109 4077.65 0.00000 3.62814e-10
  110 4077.65 0.00000 1.39441e-10
  111 4077.65 0.00000 -2.99443e-11
  112 4077.65 0.00000 4.10476e-11
  113 4077.65 0.00000 6.01721e-10
  114 4077.65 0.00000 5.48041e-10
  115 4077.65 0.00000 -2.09120e-11
  116 4077.65 0.00000 1.75168e-09
  117 4077.65 0.00000 -1.35119e-10
  118 4077.65 0.00000 -7.76114e-10
  119 4077.65 0.00000 -4.31698e-10
  120 4077.65 0.00000 2.20436e-10
  121 4077.65 0.00000 4.51080e-10
  122 4077.65 0.00000 2.73053e-10
  123 4077.65 0.00000 4.63225e-10
  124 4077.65 0.00000 -1.05983e-11
  125 4077.65 0.00000 -3.21277e-10
  126 4077.65 0.00000 1.56263e-09
  127 4077.65 0.00000 -2.72007e-10
  128 4077.65 0.00000 -1.62595e-10
  129 4077.65 0.00000 -1.65719e-09
  130 4077.65 0.00000 1.02891e-10
  131 4077.65 0.00000 4.28919e-11
  132 4077.65 0.00000 -1.46088e-10
  133 4077.65 0.00000 -5.42259e-10
  134 4077.65 0.00000 7.77004e-10
  135 4077.65 0.00000 -6.19829e-11
  136 4077.65 0.00000 -1.65363e-09
  137 4077.65 0.00000 -1.06574e-11
  138 4077.65 0.00000 -1.42547e-10
  139 4077.65 0.00000 1.87548e-10
  140 4077.65 0.00000 5.53179e-12
  141 4077.65 0.00000 6.06911e-11
  142 4077.65 0.00000 1.41020e-09
  143 4077.65 0.00000 -4.63898e-10
  144 4077.65 0.00000 4.58390e-10
  145 4077.65 0.00000 1.04951e-10
  146 4077.65 0.00000 -1.07702e-09
  147 4077.65 0.00000 4.45717e-10
  148 4077.65 0.00000 1.22373e-10
  149 4077.65 0.00000 1.86004e-10
  150 4077.65 0.00000 -1.59759e-10
  151 4077.65 0.00000 2.30137e-10
  152 4077.65 0.00000 -2.55338e-10
  153 4077.65 0.00000 -3.17626e-11
  154 4077.65 0.00000 -5.27904e-11
  155 4077.65 0.00000 2.54874e-10
  156 4077.65 0.00000 5.58872e-11
  157 4077.65 0.00000 -4.04308e-10
  158 4077.65 0.00000 1.99892e-10
  159 4077.65 0.00000 2.77307e-11
  160 4077.65 0.00000 -1.88065e-11
  161 4077.65 0.00000 1.68738e-10
  162 4077.65 0.00000 -2.00483e-10
  163 4077.65 0.00000 1.74922e-10
  164 4077.65 0.00000 -2.58537e-10
  165 4077.65 0.00000 1.00197e-09
  166 4077.65 0.00000 -4.10525e-10
  167 4077.65 0.00000 4.49744e-11
  168 4077.65 0.00000 4.18909e-11
  169 4077.65 0.00000 4.64537e-10
  170 4077.65 0.00000 -6.84263e-11
  171 4077.65 0.00000 7.33642e-10
  172 4077.65 0.00000 -2.39458e-10
  173 4077.65 0.00000 -1.44761e-09
  174 4077.65 0.00000 -6.42363e-11
  175 4077.65 0.00000 -6.66001e-10
  176 4077.65 0.00000 7.18017e-10
  177 4077.65 0.00000 -3.60854e-11
  178 4077.65 0.00000 -3.11849e-11
  179 4077.65 0.00000 1.88951e-09
  180 4077.65 0.00000 1.93647e-10
  181 4077.65 0.00000 -1.30867e-10
  182 4077.65 0.00000 6.24586e-10
  183 4077.65 0.00000 -7.79224e-10
  184 4077.65 0.00000 -7.00309e-10
  185 4077.65 0.00000 1.07543e-09
  186 4077.65 0.00000 -4.19020e-10
  187 4077.65 0.00000 -7.48543e-11
  188 4077.65 0.00000 -1.41616e-10
  189 4077.65 0.00000 3.69186e-10
  190 4077.65 0.00000 -1.03072e-09
  191 4077.65 0.00000 -2.93627e-10
  192 4077.65 0.00000 -3.19317e-10
  193 4077.65 0.00000 4.34808e-10
  194 4077.65 0.00000 4.67606e-11
  195 4077.65 0.00000 -7.25292e-10
  196 4077.65 0.00000 9.43831e-11
  197 4077.65 0.00000 6.51273e-10
  198 4077.65 0.00000 -3.87067e-10
  199 4077.65 0.00000 -3.36830e-10
  200 4077.65 0.00000 -1.50815e-10
  201 4077.65 0.00000 8.06621e-11
  202 4077.65 0.00000 4.47518e-10
  203 4077.65 0.00000 5.61847e-10
  204 4077.65 0.00000 -2.51842e-10
  205 4077.65 0.00000 4.45569e-10
  206 4077.65 0.00000 -4.74514e-11
  207 4077.65 0.00000 -1.81624e-09
  208 4077.65 0.00000 2.53795e-10
  209 4077.65 0.00000 -3.02188e-11
  210 4077.65 0.00000 -1.28437e-09
  211 4077.65 0.00000 1.44982e-09
  212 4077.65 0.00000 -9.68823e-11
  213 4077.65 0.00000 -1.23945e-09
  214 4077.65 0.00000 -6.65358e-10
  215 4077.65 0.00000 -1.49012e-10
  216 4077.65 0.00000 -5.77587e-10
  217 4077.65 0.00000 -8.97756e-11
  218 4077.65 0.00000 -1.27884e-09
  219 4077.65 0.00000 -4.33755e-10
  220 4077.65 0.00000 -6.85410e-10
  221 4077.65 0.00000 -1.34965e-10
  222 4077.65 0.00000 -1.68414e-10
  223 4077.65 0.00000 1.17312e-09
  224 4077.65 0.00000 1.21802e-09
  225 4077.65 0.00000 -3.34380e-10
  226 4077.65 0.00000 6.97579e-10
  227 4077.65 0.00000 -2.61165e-10
  228 4077.65 0.00000 -1.35043e-10
  229 4077.65 0.00000 3.04006e-10
  230 4077.65 0.00000 1.39818e-10
  231 4077.65 0.00000 -1.26085e-10
  232 4077.65 0.00000 -5.56249e-10
  233 4077.65 0.00000 -3.59387e-11
  234 4077.65 0.00000 -4.37232e-10
  235 4077.65 0.00000 2.35496e-10
  236 4077.65 0.00000 1.21076e-09
  237 4077.65 0.00000 -2.26631e-10
  238 4077.65 0.00000 1.11875e-10
  239 4077.65 0.00000 -9.53537e-11
  240 4077.65 0.00000 3.66972e-10
  241 4077.65 0.00000 -6.64127e-10
</Section>

newXOutput 105

<Section columns = "stress_xx | stress_yy | stress_xy">
  1 4132.37 0.00000 -5.38734e-10
  2 4132.37 0.00000 1.10354e-10
  3 4132.37 0.00000 7.27882e-11
  4 4132.37 0.00000 5.92252e-10
  5 4132.37 0.00000 -1.16239e-09
  6 4132.37 0.00000 -1.91458e-09
  7 4132.37 0.00000 -2.43693e-09
  8 4132.37 0.00000 -2.52863e-09
  9 4132.37 0.00000 -2.17046e-09
  10 4132.37 0.00000 -1.75926e-09
  11 4132.37 0.00000 -1.28561e-09
  12 4132.37 0.00000 -7.03074e-10
  13 4132.37 0.00000 -1.07609e-10
  14 4132.37 0.00000 3.76044e-10
  15 4132.37 0.00000 7.12113e-10
  16 4132.37 0.00000 9.15441e-10
  17 4132.37 0.00000 8.69061e-10
  18 4132.37 0.00000 6.93836e-10
  19 4132.37 0.00000 3.30580e-10
  20 4132.37 0.00000 9.11136e-11
  21 4132.37 0.00000 9.37696e-11
  22 4132.37 0.00000 1.50704e-10
  23 4132.37 0.00000 1.47094e-10
  24 4132.37 0.00000 2.36691e-11
  25 4132.37 0.00000 -6.31825e-11
  26 4132.37 0.00000 -1.29177e-10
  27 4132.37 0.00000 -1.65249e-10
  28 4132.37 0.00000 -1.14720e-10
  29 4132.37 0.00000 -3.25706e-11
  30 4132.37 0.00000 3.78705e-12
  31 4132.37 0.00000 1.45643e-10
  32 4132.37 0.00000 1.09605e-10
  33 4132.37 0.00000 -2.95597e-11
  34 4132.37 0.00000 -3.08604e-10
  35 4132.37 0.00000 -4.83278e-10
  36 4132.37 0.00000 -6.35335e-10
  37 4132.37 0.00000 -7.41249e-10
  38 4132.37 0.00000 -8.55824e-10
  39 4132.37 0.00000 -7.76515e-10
  40 4132.37 0.00000 -4.44010e-10
  41 4132.37 0.00000 -1.98278e-11
  42 4132.37 0.00000 6.14536e-10
  43 4132.37 0.00000 1.26142e-09
  44 4132.37 0.00000 1.89181e-09
  45 4132.37 0.00000 2.37852e-09
  46 4132.37 0.00000 2.41283e-09
  47 4132.37 0.00000 2.36561e-09
  48 4132.37 0.00000 1.97332e-09
  49 4132.37 0.00000 1.16267e-09
  50 4132.37 0.00000 3.96535e-10
  51 4132.37 0.00000 2.64766e-10
  52 4132.37 0.00000 1.70304e-10
  53 4132.37 0.00000 -4.60073e-11
  54 4132.37 0.00000 -2.46309e-10
  55 4132.37 0.00000 -3.01270e-10
  56 4132.37 0.00000 -3.77052e-10
  57 4132.37 0.00000 -7.33941e-11
  58 4132.37 0.00000 2.55370e-10
  59 4132.37 0.00000 8.13501e-11
  60 4132.37 0.00000 -4.04183e-10
  61 4132.37 0.00000 -4.27647e-10
  62 4132.37 0.00000 5.87132e-10
  63 4132.37 0.00000 1.45714e-10
  64 4132.37 0.00000 1.37521e-11
  65 4132.37 0.00000 1.01938e-09
  66 4132.37 0.00000 -8.41027e-10
  67 4132.37 0.00000 -1.86250e-11
  68 4132.37 0.00000 2.98898e-10
  69 4132.37 0.00000 -3.22269e-10
  70 4132.37 0.00000 -3.63120e-10
  71 4132.37 0.00000 -1.12715e-09
  72 4132.37 0.00000 2.13373e-11
  73 4132.37 0.00000 3.14041e-10
  74 4132.37 0.00000 1.36018e-09
  75 4132.37 0.00000 2.34206e-10
  76 4132.37 0.00000 -1.95011e-10
  77 4132.37 0.00000 5.31431e-11
  78 4132.37 0.00000 -1.17164e-10
  79 4132.37 0.00000 1.54199e-10
  80 4132.37 0.00000 -4.37340e-11
  81 4132.37 0.00000 -8.75611e-11
  82 4132.37 0.00000 -6.61997e-10
  83 4132.37 0.00000 -8.31496e-11
  84 4132.37 0.00000 -1.79888e-09
  85 4132.37 0.00000 6.49170e-10
  86 4132.37 0.00000 2.64982e-11
  87 4132.37 0.00000 1.23321e-09
  88 4132.37 0.00000 -1.04807e-11
  89 4132.37 0.00000 -1.09996e-09
  90 4132.37 0.00000 -1.21489e-09
  91 4132.37 0.00000 1.18230e-09
  92 4132.37 0.00000 2.61975e-10
  93 4132.37 0.00000 6.77829e-11
  94 4132.37 0.00000 4.59198e-10
  95 4132.37 0.00000 8.73950e-10
  96 4132.37 0.00000 -2.04516e-11
  97 4132.37 0.00000 7.25332e-11
  98 4132.37 0.00000 1.96848e-09
  99 4132.37 0.00000 4.10093e-10
  100 4132.37 0.00000 -8.34628e-10
  101 4132.37 0.00000 -4.25568e-10
  102 4132.37 0.00000 2.66310e-10
  103 4132.37 0.00000 1.22344e-10
  104 4132.37 0.00000 5.75702e-10
  105 4132.37 0.00000 -2.41644e-10
  106 4132.37 0.00000 1.98883e-10
  107 4132.37 0.00000 -1.38276e-10
  108 4132.37 0.00000 3.49812e-10
  109 4132.37 0.00000 -4.35931e-10
  110 4132.37 0.00000 -1.64368e-10
  111 4132.37 0.00000 2.19318e-11
  112 4132.37 0.00000 -4.52383e-11
  113 4132.37 0.00000 -7.21373e-10
  114 4132.37 0.00000 -6.66992e-10
  115 4132.37 0.00000 1.45346e-11
  116 4132.37 0.00000 -2.12294e-09
  117 4132.37 0.00000 1.68961e-10
  118 4132.37 0.00000 9.44404e-10
  119 4132.37 0.00000 5.16807e-10
  120 4132.37 0.00000 -2.80347e-10
  121 4132.37 0.00000 -5.50168e-10
  122 4132.37 0.00000 -3.27303e-10
  123 4132.37 0.00000 -5.57236e-10
  124 4132.37 0.00000 6.22926e-12
  125 4132.37 0.00000 3.94294e-10
  126 4132.37 0.00000 -1.90890e-09
  127 4132.37 0.00000 3.33973e-10
  128 4132.37 0.00000 2.12993e-10
  129 4132.37 0.00000 2.02418e-09
  130 4132.37 0.00000 -1.22171e-10
  131 4132.37 0.00000 -7.27800e-11
  132 4132.37 0.00000 1.96190e-10
  133 4132.37 0.00000 6.61008e-10
  134 4132.37 0.00000 -9.56721e-10
  135 4132.37 0.00000 8.59126e-11
  136 4132.37 0.00000 2.00471e-09
  137 4132.37 0.00000 -1.84387e-12
  138 4132.37 0.00000 1.71257e-10
  139 4132.37 0.00000 -2.26887e-10
  140 4132.37 0.00000 -1.02867e-11
  141 4132.37 0.00000 -8.01413e-11
  142 4132.37 0.00000 -1.73568e-09
  143 4132.37 0.00000 5.69824e-10
  144 4132.37 0.00000 -5.48364e-10
  145 4132.37 0.00000 -1.43830e-10
  146 4132.37 0.00000 1.32957e-09
  147 4132.37 0.00000 -5.25365e-10
  148 4132.37 0.00000 -1.46173e-10
  149 4132.37 0.00000 -2.13761e-10
  150 4132.37 0.00000 1.81996e-10
  151 4132.37 0.00000 -2.93261e-10
  152 4132.37 0.00000 3.02306e-10
  153 4132.37 0.00000 4.08288e-11
  154 4132.37 0.00000 6.23496e-11
  155 4132.37 0.00000 -3.03460e-10
  156 4132.37 0.00000 -6.29367e-11
  157 4132.37 0.00000 4.88345e-10
  158 4132.37 0.00000 -2.34302e-10
  159 4132.37 0.00000 -2.33413e-11
  160 4132.37 0.00000 2.31661e-11
  161 4132.37 0.00000 -1.91643e-10
  162 4132.37 0.00000 2.44369e-10
  163 4132.37 0.00000 -2.07305e-10
  164 4132.37 0.00000 3.21425e-10
  165 4132.37 0.00000 -1.21799e-09
  166 4132.37 0.00000 4.94268e-10
  167 4132.37 0.00000 -5.21779e-11
  168 4132.37 0.00000 -5.15820e-11
  169 4132.37 0.00000 -5.58935e-10
  170 4132.37 0.00000 6.72798e-11
  171 4132.37 0.00000 -9.16027e-10
  172 4132.37 0.00000 2.70756e-10
  173 4132.37 0.00000 1.77767e-09
  174 4132.37 0.00000 7.65318e-11
  175 4132.37 0.00000 8.03275e-10
  176 4132.37 0.00000 -8.63127e-10
  177 4132.37 0.00000 3.66848e-11
  178 4132.37 0.00000 4.44897e-11
  179 4132.37 0.00000 -2.29783e-09
  180 4132.37 0.00000 -2.33897e-10
  181 4132.37 0.00000 1.56251e-10
  182 4132.37 0.00000 -7.54962e-10
  183 4132.37 0.00000 9.59530e-10
  184 4132.37 0.00000 8.48485e-10
  185 4132.37 0.00000 -1.30372e-09
  186 4132.37 0.00000 4.93536e-10
  187 4132.37 0.00000 7.76882e-11
  188 4132.37 0.00000 1.65756e-10
  189 4132.37 0.00000 -4.54323e-10
  190 4132.37 0.00000 1.26557e-09
  191 4132.37 0.00000 3.64450e-10
  192 4132.37 0.00000 3.94195e-10
  193 4132.37 0.00000 -5.35414e-10
  194 4132.37 0.00000 -5.33979e-11
  195 4132.37 0.00000 8.75653e-10
  196 4132.37 0.00000 -1.15604e-10
  197 4132.37 0.00000 -7.84941e-10
  198 4132.37 0.00000 4.80455e-10
  199 4132.37 0.00000 4.10369e-10
  200 4132.37 0.00000 1.73836e-10
  201 4132.37 0.00000 -8.57788e-11
  202 4132.37 0.00000 -5.37002e-10
  203 4132.37 0.00000 -6.98952e-10
  204 4132.37 0.00000 2.89630e-10
  205 4132.37 0.00000 -5.40582e-10
  206 4132.37 0.00000 7.17835e-11
  207 4132.37 0.00000 2.20986e-09
  208 4132.37 0.00000 -3.21600e-10
  209 4132.37 0.00000 4.50405e-11
  210 4132.37 0.00000 1.55674e-09
  211 4132.37 0.00000 -1.75071e-09
  212 4132.37 0.00000 1.20400e-10
  213 4132.37 0.00000 1.49981e-09
  214 4132.37 0.00000 8.29987e-10
  215 4132.37 0.00000 1.65825e-10
  216 4132.37 0.00000 7.10876e-10
  217 4132.37 0.00000 1.21188e-10
  218 4132.37 0.00000 1.55432e-09
  219 4132.37 0.00000 5.25004e-10
  220 4132.37 0.00000 8.44031e-10
  221 4132.37 0.00000 1.60584e-10
  222 4132.37 0.00000 1.99381e-10
  223 4132.37 0.00000 -1.45071e-09
  224 4132.37 0.00000 -1.49725e-09
  225 4132.37 0.00000 4.14935e-10
  226 4132.37 0.00000 -8.44312e-10
  227 4132.37 0.00000 3.09213e-10
  228 4132.37 0.00000 1.67596e-10
  229 4132.37 0.00000 -3.66427e-10
  230 4132.37 0.00000 -1.66205e-10
  231 4132.37 0.00000 1.60644e-10
  232 4132.37 0.00000 6.76364e-10
  233 4132.37 0.00000 4.92221e-11
  234 4132.37 0.00000 5.45063e-10
  235 4132.37 0.00000 -2.68409e-10
  236 4132.37 0.00000 -1.46339e-09
  237 4132.37 0.00000 2.57500e-10
  238 4132.37 0.00000 -1.45284e-10
  239 4132.37 0.00000 1.25096e-10
  240 4132.37 0.00000 -4.71213e-10
  241 4132.37 0.00000 8.00551e-10
</Section>

newXOutput 106

<Section columns = "stress_xx | stress_yy | stress_xy">
  1 4187.30 0.00000 6.48302e-10
  2 4187.30 0.00000 -1.27188e-10
  3 4187.30 0.00000 -7.93165e-11
  4 4187.30 0.00000 -7.11760e-10
  5 4187.30 0.00000 1.40565e-09
  6 4187.30 0.00000 2.32213e-09
  7 4187.30 0.00000 2.96170e-09
  8 4187.30 0.00000 3.08927e-09
  9 4187.30 0.00000 2.66810e-09
  10 4187.30 0.00000 2.17615e-09
  11 4187.30 0.00000 1.60133e-09
  12 4187.30 0.00000 8.90758e-10
  13 4187.30 0.00000 1.59281e-10
  14 4187.30 0.00000 -4.32699e-10
  15 4187.30 0.00000 -8.53093e-10
  16 4187.30 0.00000 -1.10861e-09
  17 4187.30 0.00000 -1.05681e-09
  18 4187.30 0.00000 -8.50082e-10
  19 4187.30 0.00000 -4.27069e-10
  20 4187.30 0.00000 -1.40659e-10
  21 4187.30 0.00000 -1.38565e-10
  22 4187.30 0.00000 -1.92564e-10
  23 4187.30 0.00000 -1.76134e-10
  24 4187.30 0.00000 -2.71853e-11
  25 4187.30 0.00000 7.15823e-11
  26 4187.30 0.00000 1.48435e-10
  27 4187.30 0.00000 1.92170e-10
  28 4187.30 0.00000 1.35302e-10
  29 4187.30 0.00000 3.91016e-11
  30 4187.30 0.00000 -2.44715e-12
  31 4187.30 0.00000 -1.61541e-10
  32 4187.30 0.00000 -1.18229e-10
  33 4187.30 0.00000 5.71375e-11
  34 4187.30 0.00000 3.95281e-10
  35 4187.30 0.00000 6.00290e-10
  36 4187.30 0.00000 7.85630e-10
  37 4187.30 0.00000 9.08973e-10
  38 4187.30 0.00000 1.03112e-09
  39 4187.30 0.00000 9.24257e-10
  40 4187.30 0.00000 5.16750e-10
  41 4187.30 0.00000 -2.85241e-12
  42 4187.30 0.00000 -7.80314e-10
  43 4187.30 0.00000 -1.56749e-09
  44 4187.30 0.00000 -2.33119e-09
  45 4187.30 0.00000 -2.91937e-09
  46 4187.30 0.00000 -2.94994e-09
  47 4187.30 0.00000 -2.87705e-09
  48 4187.30 0.00000 -2.39261e-09
  49 4187.30 0.00000 -1.40715e-09
  50 4187.30 0.00000 -4.78100e-10
  51 4187.30 0.00000 -3.20568e-10
  52 4187.30 0.00000 -2.06621e-10
  53 4187.30 0.00000 5.41693e-11
  54 4187.30 0.00000 2.97008e-10
  55 4187.30 0.00000 3.63107e-10
  56 4187.30 0.00000 4.53977e-10
  57 4187.30 0.00000 8.69143e-11
  58 4187.30 0.00000 -2.96593e-10
  59 4187.30 0.00000 -9.77856e-11
  60 4187.30 0.00000 4.82493e-10
  61 4187.30 0.00000 5.34923e-10
  62 4187.30 0.00000 -7.25222e-10
  63 4187.30 0.00000 -1.87935e-10
  64 4187.30 0.00000 -2.19938e-11
  65 4187.30 0.00000 -1.24194e-09
  66 4187.30 0.00000 1.01922e-09
  67 4187.30 0.00000 2.93853e-11
  68 4187.30 0.00000 -3.58980e-10
  69 4187.30 0.00000 3.96710e-10
  70 4187.30 0.00000 4.29867e-10
  71 4187.30 0.00000 1.38224e-09
  72 4187.30 0.00000 -4.22569e-12
  73 4187.30 0.00000 -3.84381e-10
  74 4187.30 0.00000 -1.66469e-09
  75 4187.30 0.00000 -3.00227e-10
  76 4187.30 0.00000 2.26128e-10
  77 4187.30 0.00000 -6.33276e-11
  78 4187.30 0.00000 1.60690e-10
  79 4187.30 0.00000 -1.82820e-10
  80 4187.30 0.00000 5.14522e-11
  81 4187.30 0.00000 9.92939e-11
  82 4187.30 0.00000 8.02651e-10
  83 4187.30 0.00000 1.00090e-10
  84 4187.30 0.00000 2.18992e-09
  85 4187.30 0.00000 -7.89439e-10
  86 4187.30 0.00000 -3.63906e-11
  87 4187.30 0.00000 -1.49394e-09
  88 4187.30 0.00000 1.94505e-11
  89 4187.30 0.00000 1.32964e-09
  90 4187.30 0.00000 1.50549e-09
  91 4187.30 0.00000 -1.46126e-09
  92 4187.30 0.00000 -3.20858e-10
  93 4187.30 0.00000 -8.27103e-11
  94 4187.30 0.00000 -5.66650e-10
  95 4187.30 0.00000 -1.08504e-09
  96 4187.30 0.00000 1.63117e-11
  97 4187.30 0.00000 -1.07382e-10
  98 4187.30 0.00000 -2.39829e-09
  99 4187.30 0.00000 -4.80316e-10
  100 4187.30 0.00000 1.01550e-09
  101 4187.30 0.00000 5.43204e-10
  102 4187.30 0.00000 -3.24033e-10
  103 4187.30 0.00000 -1.33416e-10
  104 4187.30 0.00000 -7.13253e-10
  105 4187.30 0.00000 2.74857e-10
  106 4187.30 0.00000 -2.32927e-10
  107 4187.30 0.00000 1.61122e-10
  108 4187.30 0.00000 -4.21540e-10
  109 4187.30 0.00000 5.25593e-10
  110 4187.30 0.00000 1.95892e-10
  111 4187.30 0.00000 -1.00347e-11
  112 4187.30 0.00000 4.64158e-11
  113 4187.30 0.00000 8.65891e-10
  114 4187.30 0.00000 8.14449e-10
  115 4187.30 0.00000 -3.24233e-12
  116 4187.30 0.00000 2.57845e-09
  117 4187.30 0.00000 -2.07295e-10
  118 4187.30 0.00000 -1.15283e-09
  119 4187.30 0.00000 -6.19673e-10
  120 4187.30 0.00000 3.57361e-10
  121 4187.30 0.00000 6.72645e-10
  122 4187.30 0.00000 3.92769e-10
  123 4187.30 0.00000 6.70580e-10
  124 4187.30 0.00000 -1.26926e-12
  125 4187.30 0.00000 -4.86314e-10
  126 4187.30 0.00000 2.33748e-09
  127 4187.30 0.00000 -4.08969e-10
  128 4187.30 0.00000 -2.77891e-10
  129 4187.30 0.00000 -2.47785e-09
  130 4187.30 0.00000 1.44099e-10
  131 4187.30 0.00000 1.15471e-10
  132 4187.30 0.00000 -2.63444e-10
  133 4187.30 0.00000 -8.09108e-10
  134 4187.30 0.00000 1.18075e-09
  135 4187.30 0.00000 -1.19349e-10
  136 4187.30 0.00000 -2.43404e-09
  137 4187.30 0.00000 1.90578e-11
  138 4187.30 0.00000 -2.09191e-10
  139 4187.30 0.00000 2.75534e-10
  140 4187.30 0.00000 1.44358e-11
  141 4187.30 0.00000 1.03146e-10
  142 4187.30 0.00000 2.14094e-09
  143 4187.30 0.00000 -7.01476e-10
  144 4187.30 0.00000 6.60880e-10
  145 4187.30 0.00000 1.95971e-10
  146 4187.30 0.00000 -1.64532e-09
  147 4187.30 0.00000 6.19420e-10
  148 4187.30 0.00000 1.75405e-10
  149 4187.30 0.00000 2.49668e-10
  150 4187.30 0.00000 -2.07155e-10
  151 4187.30 0.00000 3.76350e-10
  152 4187.30 0.00000 -3.59749e-10
  153 4187.30 0.00000 -5.31945e-11
  154 4187.30 0.00000 -7.50691e-11
  155 4187.30 0.00000 3.61327e-10
  156 4187.30 0.00000 7.26258e-11
  157 4187.30 0.00000 -5.91686e-10
  158 4187.30 0.00000 2.73041e-10
  159 4187.30 0.00000 1.86927e-11
  160 4187.30 0.00000 -2.93829e-11
  161 4187.30 0.00000 2.21354e-10
  162 4187.30 0.00000 -2.98933e-10
  163 4187.30 0.00000 2.44893e-10
  164 4187.30 0.00000 -3.97532e-10
  165 4187.30 0.00000 1.48625e-09
  166 4187.30 0.00000 -5.97431e-10
  167 4187.30 0.00000 5.97899e-11
  168 4187.30 0.00000 6.25740e-11
  169 4187.30 0.00000 6.74795e-10
  170 4187.30 0.00000 -6.47938e-11
  171 4187.30 0.00000 1.14529e-09
  172 4187.30 0.00000 -3.03781e-10
  173 4187.30 0.00000 -2.18774e-09
  174 4187.30 0.00000 -9.03051e-11
  175 4187.30 0.00000 -9.70847e-10
  176 4187.30 0.00000 1.04148e-09
  177 4187.30 0.00000 -3.79851e-11
  178 4187.30 0.00000 -6.08182e-11
  179 4187.30 0.00000 2.80033e-09
  180 4187.30 0.00000 2.83135e-10
  181 4187.30 0.00000 -1.85966e-10
  182 4187.30 0.00000 9.16708e-10
  183 4187.30 0.00000 -1.18667e-09
  184 4187.30 0.00000 -1.03035e-09
  185 4187.30 0.00000 1.58420e-09
  186 4187.30 0.00000 -5.80176e-10
  187 4187.30 0.00000 -7.95231e-11
  188 4187.30 0.00000 -1.93476e-10
  189 4187.30 0.00000 5.60339e-10
  190 4187.30 0.00000 -1.55866e-09
  191 4187.30 0.00000 -4.52077e-10
  192 4187.30 0.00000 -4.87546e-10
  193 4187.30 0.00000 6.58834e-10
  194 4187.30 0.00000 6.00693e-11
  195 4187.30 0.00000 -1.06067e-09
  196 4187.30 0.00000 1.40231e-10
  197 4187.30 0.00000 9.49272e-10
  198 4187.30 0.00000 -5.97287e-10
  199 4187.30 0.00000 -5.02952e-10
  200 4187.30 0.00000 -2.00063e-10
  201 4187.30 0.00000 9.03483e-11
  202 4187.30 0.00000 6.47536e-10
  203 4187.30 0.00000 8.73171e-10
  204 4187.30 0.00000 -3.33386e-10
  205 4187.30 0.00000 6.59369e-10
  206 4187.30 0.00000 -1.10728e-10
  207 4187.30 0.00000 -2.69353e-09
  208 4187.30 0.00000 4.08594e-10
  209 4187.30 0.00000 -6.58742e-11
  210 4187.30 0.00000 -1.89252e-09
  211 4187.30 0.00000 2.11986e-09
  212 4187.30 0.00000 -1.48182e-10
  213 4187.30 0.00000 -1.81730e-09
  214 4187.30 0.00000 -1.03759e-09
  215 4187.30 0.00000 -1.86062e-10
  216 4187.30 0.00000 -8.80235e-10
  217 4187.30 0.00000 -1.59216e-10
  218 4187.30 0.00000 -1.89533e-09
  219 4187.30 0.00000 -6.34955e-10
  220 4187.30 0.00000 -1.04349e-09
  221 4187.30 0.00000 -1.91264e-10
  222 4187.30 0.00000 -2.37899e-10
  223 4187.30 0.00000 1.79967e-09
  224 4187.30 0.00000 1.84307e-09
  225 4187.30 0.00000 -5.12475e-10
  226 4187.30 0.00000 1.02423e-09
  227 4187.30 0.00000 -3.64098e-10
  228 4187.30 0.00000 -2.10336e-10
  229 4187.30 0.00000 4.43694e-10
  230 4187.30 0.00000 1.97050e-10
  231 4187.30 0.00000 -2.04017e-10
  232 4187.30 0.00000 -8.24432e-10
  233 4187.30 0.00000 -6.21574e-11
  234 4187.30 0.00000 -6.83080e-10
  235 4187.30 0.00000 3.01946e-10
  236 4187.30 0.00000 1.77371e-09
  237 4187.30 0.00000 -2.88634e-10
  238 4187.30 0.00000 1.87783e-10
  239 4187.30 0.00000 -1.58034e-10
  240 4187.30 0.00000 6.03155e-10
  241 4187.30 0.00000 -9.68232e-10
</Section>

newXOutput 107

<Section columns = "stress_xx | stress_yy | stress_xy">
  1 4242.44 0.00000 -7.82074e-10
  2 4242.44 0.00000 1.49598e-10
  3 4242.44 0.00000 8.90996e-11
  4 4242.44 0.00000 8.58741e-10
  5 4242.44 0.00000 -1.70410e-09
  6 4242.44 0.00000 -2.82319e-09
  7 4242.44 0.00000 -3.60751e-09
  8 4242.44 0.00000 -3.78491e-09
  9 4242.44 0.00000 -3.28811e-09
  10 4242.44 0.00000 -2.69519e-09
  11 4242.44 0.00000 -1.99754e-09
  12 4242.44 0.00000 -1.12904e-09
  13 4242.44 0.00000 -2.31631e-10
  14 4242.44 0.00000 4.99054e-10
  15 4242.44 0.00000 1.02595e-09
  16 4242.44 0.00000 1.34256e-09
  17 4242.44 0.00000 1.28441e-09
  18 4242.44 0.00000 1.04534e-09
  19 4242.44 0.00000 5.47307e-10
  20 4242.44 0.00000 2.01583e-10
  21 4242.44 0.00000 1.91106e-10
  22 4242.44 0.00000 2.40424e-10
  23 4242.44 0.00000 2.12144e-10
  24 4242.44 0.00000 3.08171e-11
  25 4242.44 0.00000 -8.24865e-11
  26 4242.44 0.00000 -1.72998e-10
  27 4242.44 0.00000 -2.21866e-10
  28 4242.44 0.00000 -1.59373e-10
  29 4242.44 0.00000 -4.58977e-11
  30 4242.44 0.00000 1.83467e-12
  31 4242.44 0.00000 1.80248e-10
  32 4242.44 0.00000 1.25253e-10
  33 4242.44 0.00000 -9.08591e-11
  34 4242.44 0.00000 -5.00629e-10
  35 4242.44 0.00000 -7.47600e-10
  36 4242.44 0.00000 -9.72541e-10
  37 4242.44 0.00000 -1.11443e-09
  38 4242.44 0.00000 -1.24417e-09
  39 4242.44 0.00000 -1.10054e-09
  40 4242.44 0.00000 -6.03518e-10
  41 4242.44 0.00000 3.78051e-11
  42 4242.44 0.00000 9.93693e-10
  43 4242.44 0.00000 1.95350e-09
  44 4242.44 0.00000 2.87949e-09
  45 4242.44 0.00000 3.59110e-09
  46 4242.44 0.00000 3.61574e-09
  47 4242.44 0.00000 3.50990e-09
  48 4242.44 0.00000 2.91097e-09
  49 4242.44 0.00000 1.70854e-09
  50 4242.44 0.00000 5.77480e-10
  51 4242.44 0.00000 3.88104e-10
  52 4242.44 0.00000 2.50549e-10
  53 4242.44 0.00000 -6.44943e-11
  54 4242.44 0.00000 -3.59003e-10
  55 4242.44 0.00000 -4.39823e-10
  56 4242.44 0.00000 -5.48244e-10
  57 4242.44 0.00000 -1.02727e-10
  58 4242.44 0.00000 3.45084e-10
  59 4242.44 0.00000 1.17739e-10
  60 4242.44 0.00000 -5.79538e-10
  61 4242.44 0.00000 -6.67971e-10
  62 4242.44 0.00000 8.96410e-10
  63 4242.44 0.00000 2.39162e-10
  64 4242.44 0.00000 3.40109e-11
  65 4242.44 0.00000 1.51475e-09
  66 4242.44 0.00000 -1.23904e-09
  67 4242.44 0.00000 -4.61645e-11
  68 4242.44 0.00000 4.32668e-10
  69 4242.44 0.00000 -4.90845e-10
  70 4242.44 0.00000 -5.08306e-10
  71 4242.44 0.00000 -1.69809e-09
  72 4242.44 0.00000 -2.22917e-11
  73 4242.44 0.00000 4.74536e-10
  74 4242.44 0.00000 2.04052e-09
  75 4242.44 0.00000 3.86288e-10
  76 4242.44 0.00000 -2.63603e-10
  77 4242.44 0.00000 7.56343e-11
  78 4242.44 0.00000 -2.15386e-10
  79 4242.44 0.00000 2.16747e-10
  80 4242.44 0.00000 -6.32952e-11
  81 4242.44 0.00000 -1.14489e-10
  82 4242.44 0.00000 -9.73450e-10
  83 4242.44 0.00000 -1.20790e-10
  84 4242.44 0.00000 -2.67243e-09
  85 4242.44 0.00000 9.62407e-10
  86 4242.44 0.00000 5.19372e-11
  87 4242.44 0.00000 1.81359e-09
  88 4242.44 0.00000 -3.16687e-11
  89 4242.44 0.00000 -1.61077e-09
  90 4242.44 0.00000 -1.86955e-09
  91 4242.44 0.00000 1.80942e-09
  92 4242.44 0.00000 3.94233e-10
  93 4242.44 0.00000 9.89273e-11
  94 4242.44 0.00000 6.97940e-10
  95 4242.44 0.00000 1.34770e-09
  96 4242.44 0.00000 -9.20610e-12
  97 4242.44 0.00000 1.50769e-10
  98 4242.44 0.00000 2.92801e-09
  99 4242.44 0.00000 5.63269e-10
  100 4242.44 0.00000 -1.23777e-09
  101 4242.44 0.00000 -6.95284e-10
  102 4242.44 0.00000 3.95449e-10
  103 4242.44 0.00000 1.40770e-10
  104 4242.44 0.00000 8.87797e-10
  105 4242.44 0.00000 -3.09793e-10
  106 4242.44 0.00000 2.70520e-10
  107 4242.44 0.00000 -1.87944e-10
  108 4242.44 0.00000 5.09515e-10
  109 4242.44 0.00000 -6.34774e-10
  110 4242.44 0.00000 -2.31651e-10
  111 4242.44 0.00000 -6.78391e-12
  112 4242.44 0.00000 -4.82001e-11
  113 4242.44 0.00000 -1.04038e-09
  114 4242.44 0.00000 -9.94561e-10
  115 4242.44 0.00000 -1.19849e-11
  116 4242.44 0.00000 -3.13877e-09
  117 4242.44 0.00000 2.53786e-10
  118 4242.44 0.00000 1.40947e-09
  119 4242.44 0.00000 7.45729e-10
  120 4242.44 0.00000 -4.53616e-10
  121 4242.44 0.00000 -8.24125e-10
  122 4242.44 0.00000 -4.72671e-10
  123 4242.44 0.00000 -8.10005e-10
  124 4242.44 0.00000 -9.09958e-12
  125 4242.44 0.00000 6.01339e-10
  126 4242.44 0.00000 -2.86930e-09
  127 4242.44 0.00000 5.01361e-10
  128 4242.44 0.00000 3.61535e-10
  129 4242.44 0.00000 3.03900e-09
  130 4242.44 0.00000 -1.70318e-10
  131 4242.44 0.00000 -1.73478e-10
  132 4242.44 0.00000 3.52174e-10
  133 4242.44 0.00000 9.90317e-10
  134 4242.44 0.00000 -1.45972e-09
  135 4242.44 0.00000 1.60521e-10
  136 4242.44 0.00000 2.96453e-09
  137 4242.44 0.00000 -4.49503e-11
  138 4242.44 0.00000 2.55109e-10
  139 4242.44 0.00000 -3.34000e-10
  140 4242.44 0.00000 -1.93869e-11
  141 4242.44 0.00000 -1.32285e-10
  142 4242.44 0.00000 -2.64702e-09
  143 4242.44 0.00000 8.66796e-10
  144 4242.44 0.00000 -7.96830e-10
  145 4242.44 0.00000 -2.60904e-10
  146 4242.44 0.00000 2.04025e-09
  147 4242.44 0.00000 -7.31320e-10
  148 4242.44 0.00000 -2.11286e-10
  149 4242.44 0.00000 -2.90331e-10
  150 4242.44 0.00000 2.35181e-10
  151 4242.44 0.00000 -4.82534e-10
  152 4242.44 0.00000 4.27786e-10
  153 4242.44 0.00000 6.76491e-11
  154 4242.44 0.00000 8.80306e-11
  155 4242.44 0.00000 -4.34534e-10
  156 4242.44 0.00000 -8.15479e-11
  157 4242.44 0.00000 7.18920e-10
  158 4242.44 0.00000 -3.22327e-10
  159 4242.44 0.00000 -1.10191e-11
  160 4242.44 0.00000 3.66752e-11
  161 4242.44 0.00000 -2.56149e-10
  162 4242.44 0.00000 3.66594e-10
  163 4242.44 0.00000 -2.90879e-10
  164 4242.44 0.00000 4.92081e-10
  165 4242.44 0.00000 -1.81611e-09
  166 4242.44 0.00000 7.23211e-10
  167 4242.44 0.00000 -6.88077e-11
  168 4242.44 0.00000 -7.41431e-11
  169 4242.44 0.00000 -8.15995e-10
  170 4242.44 0.00000 5.71872e-11
  171 4242.44 0.00000 -1.43387e-09
  172 4242.44 0.00000 3.39053e-10
  173 4242.44 0.00000 2.69793e-09
  174 4242.44 0.00000 1.09089e-10
  175 4242.44 0.00000 1.17591e-09
  176 4242.44 0.00000 -1.25984e-09
  177 4242.44 0.00000 3.81147e-11
  178 4242.44 0.00000 8.41785e-11
  179 4242.44 0.00000 -3.42075e-09
  180 4242.44 0.00000 -3.43439e-10
  181 4242.44 0.00000 2.22636e-10
  182 4242.44 0.00000 -1.11244e-09
  183 4242.44 0.00000 1.46892e-09
  184 4242.44 0.00000 1.25282e-09
  185 4242.44 0.00000 -1.93067e-09
  186 4242.44 0.00000 6.86437e-10
  187 4242.44 0.00000 7.81844e-11
  188 4242.44 0.00000 2.28220e-10
  189 4242.44 0.00000 -6.91284e-10
  190 4242.44 0.00000 1.92287e-09
  191 4242.44 0.00000 5.63221e-10
  192 4242.44 0.00000 6.00358e-10
  193 4242.44 0.00000 -8.13091e-10
  194 4242.44 0.00000 -6.72583e-11
  195 4242.44 0.00000 1.28719e-09
  196 4242.44 0.00000 -1.70037e-10
  197 4242.44 0.00000 -1.15036e-09
  198 4242.44 0.00000 7.43796e-10
  199 4242.44 0.00000 6.17497e-10
  200 4242.44 0.00000 2.30942e-10
  201 4242.44 0.00000 -9.07850e-11
  202 4242.44 0.00000 -7.81251e-10
  203 4242.44 0.00000 -1.09258e-09
  204 4242.44 0.00000 3.80555e-10
  205 4242.44 0.00000 -8.05216e-10
  206 4242.44 0.00000 1.58059e-10
  207 4242.44 0.00000 3.29152e-09
  208 4242.44 0.00000 -5.16543e-10
  209 4242.44 0.00000 9.09974e-11
  210 4242.44 0.00000 2.30442e-09
  211 4242.44 0.00000 -2.57349e-09
  212 4242.44 0.00000 1.84736e-10
  213 4242.44 0.00000 2.20854e-09
  214 4242.44 0.00000 1.29967e-09
  215 4242.44 0.00000 2.04821e-10
  216 4242.44 0.00000 1.09116e-09
  217 4242.44 0.00000 2.06721e-10
  218 4242.44 0.00000 2.31437e-09
  219 4242.44 0.00000 7.70275e-10
  220 4242.44 0.00000 1.29213e-09
  221 4242.44 0.00000 2.25609e-10
  222 4242.44 0.00000 2.80423e-10
  223 4242.44 0.00000 -2.23532e-09
  224 4242.44 0.00000 -2.27498e-09
  225 4242.44 0.00000 6.36269e-10
  226 4242.44 0.00000 -1.24621e-09
  227 4242.44 0.00000 4.28201e-10
  228 4242.44 0.00000 2.63662e-10
  229 4242.44 0.00000 -5.37983e-10
  230 4242.44 0.00000 -2.33101e-10
  231 4242.44 0.00000 2.56013e-10
  232 4242.44 0.00000 1.00719e-09
  233 4242.44 0.00000 7.81323e-11
  234 4242.44 0.00000 8.56417e-10
  235 4242.44 0.00000 -3.39291e-10
  236 4242.44 0.00000 -2.15572e-09
  237 4242.44 0.00000 3.22899e-10
  238 4242.44 0.00000 -2.42479e-10
  239 4242.44 0.00000 2.02268e-10
  240 4242.44 0.00000 -7.72325e-10
  241 4242.44 0.00000 1.17303e-09
</Section>

newXOutput 108

<Section columns = "stress_xx | stress_yy | stress_xy">
  1 4297.79 0.00000 9.45553e-10
  2 4297.79 0.00000 -1.77287e-10
  3 4297.79 0.00000 -9.97706e-11
  4 4297.79 0.00000 -1.03929e-09
  5 4297.79 0.00000 2.07078e-09
  6 4297.79 0.00000 3.44056e-09
  7 4297.79 0.00000 4.40461e-09
  8 4297.79 0.00000 4.64362e-09
  9 4297.79 0.00000 4.05987e-09
  10 4297.79 0.00000 3.34668e-09
  11 4297.79 0.00000 2.49683e-09
  12 4297.79 0.00000 1.43494e-09
  13 4297.79 0.00000 3.29586e-10
  14 4297.79 0.00000 -5.77689e-10
  15 4297.79 0.00000 -1.23411e-09
  16 4297.79 0.00000 -1.63009e-09
  17 4297.79 0.00000 -1.56906e-09
  18 4297.79 0.00000 -1.28848e-09
  19 4297.79 0.00000 -7.04048e-10
  20 4297.79 0.00000 -2.83188e-10
  21 4297.79 0.00000 -2.60178e-10
  22 4297.79 0.00000 -3.05629e-10
  23 4297.79 0.00000 -2.61316e-10
  24 4297.79 0.00000 -3.75677e-11
  25 4297.79 0.00000 9.31205e-11
  26 4297.79 0.00000 1.99328e-10
  27 4297.79 0.00000 2.59262e-10
  28 4297.79 0.00000 1.84970e-10
  29 4297.79 0.00000 5.52955e-11
  30 4297.79 0.00000 -8.28207e-13
  31 4297.79 0.00000 -1.96955e-10
  32 4297.79 0.00000 -1.28598e-10
  33 4297.79 0.00000 1.35255e-10
  34 4297.79 0.00000 6.37539e-10
  35 4297.79 0.00000 9.34707e-10
  36 4297.79 0.00000 1.20568e-09
  37 4297.79 0.00000 1.36775e-09
  38 4297.79 0.00000 1.50398e-09
  39 4297.79 0.00000 1.31382e-09
  40 4297.79 0.00000 6.99522e-10
  41 4297.79 0.00000 -9.19938e-11
  42 4297.79 0.00000 -1.26663e-09
  43 4297.79 0.00000 -2.43953e-09
  44 4297.79 0.00000 -3.56562e-09
  45 4297.79 0.00000 -4.42705e-09
  46 4297.79 0.00000 -4.44107e-09
  47 4297.79 0.00000 -4.29192e-09
  48 4297.79 0.00000 -3.55073e-09
  49 4297.79 0.00000 -2.08036e-09
  50 4297.79 0.00000 -6.99908e-10
  51 4297.79 0.00000 -4.71206e-10
  52 4297.79 0.00000 -3.04510e-10
  53 4297.79 0.00000 7.76302e-11
  54 4297.79 0.00000 4.35627e-10
  55 4297.79 0.00000 5.34081e-10
  56 4297.79 0.00000 6.64351e-10
  57 4297.79 0.00000 1.21038e-10
  58 4297.79 0.00000 -4.01116e-10
  59 4297.79 0.00000 -1.42081e-10
  60 4297.79 0.00000 6.95191e-10
  61 4297.79 0.00000 8.36811e-10
  62 4297.79 0.00000 -1.11192e-09
  63 4297.79 0.00000 -3.02678e-10
  64 4297.79 0.00000 -5.54991e-11
  65 4297.79 0.00000 -1.85220e-09
  66 4297.79 0.00000 1.51183e-09
  67 4297.79 0.00000 6.80256e-11
  68 4297.79 0.00000 -5.21768e-10
  69 4297.79 0.00000 6.08363e-10
  70 4297.79 0.00000 6.00567e-10
  71 4297.79 0.00000 2.09063e-09
  72 4297.79 0.00000 5.91186e-11
  73 4297.79 0.00000 -5.85647e-10
  74 4297.79 0.00000 -2.50718e-09
  75 4297.79 0.00000 -4.97211e-10
  76 4297.79 0.00000 3.11729e-10
  77 4297.79 0.00000 -9.00984e-11
  78 4297.79 0.00000 2.89003e-10
  79 4297.79 0.00000 -2.58088e-10
  80 4297.79 0.00000 7.64573e-11
  81 4297.79 0.00000 1.30073e-10
  82 4297.79 0.00000 1.18330e-09
  83 4297.79 0.00000 1.47770e-10
  84 4297.79 0.00000 3.26832e-09
  85 4297.79 0.00000 -1.17488e-09
  86 4297.79 0.00000 -6.96416e-11
  87 4297.79 0.00000 -2.20685e-09
  88 4297.79 0.00000 4.97538e-11
  89 4297.79 0.00000 1.95615e-09
  90 4297.79 0.00000 2.32446e-09
  91 4297.79 0.00000 -2.24552e-09
  92 4297.79 0.00000 -4.83987e-10
  93 4297.79 0.00000 -1.18919e-10
  94 4297.79 0.00000 -8.63275e-10
  95 4297.79 0.00000 -1.67983e-09
  96 4297.79 0.00000 1.17193e-13
  97 4297.79 0.00000 -2.09319e-10
  98 4297.79 0.00000 -3.58400e-09
  99 4297.79 0.00000 -6.57286e-10
  100 4297.79 0.00000 1.51369e-09
  101 4297.79 0.00000 8.88381e-10
  102 4297.79 0.00000 -4.81365e-10
  103 4297.79 0.00000 -1.48862e-10
  104 4297.79 0.00000 -1.10482e-09
  105 4297.79 0.00000 3.46294e-10
  106 4297.79 0.00000 -3.16156e-10
  107 4297.79 0.00000 2.16390e-10
  108 4297.79 0.00000 -6.17859e-10
  109 4297.79 0.00000 7.69489e-10
  110 4297.79 0.00000 2.72068e-10
  111 4297.79 0.00000 3.09094e-11
  112 4297.79 0.00000 4.73884e-11
  113 4297.79 0.00000 1.25329e-09
  114 4297.79 0.00000 1.21763e-09
  115 4297.79 0.00000 3.56564e-11
  116 4297.79 0.00000 3.82981e-09
  117 4297.79 0.00000 -3.15808e-10
  118 4297.79 0.00000 -1.72803e-09
  119 4297.79 0.00000 -8.97007e-10
  120 4297.79 0.00000 5.77891e-10
  121 4297.79 0.00000 1.01182e-09
  122 4297.79 0.00000 5.67552e-10
  123 4297.79 0.00000 9.80948e-10
  124 4297.79 0.00000 2.22408e-11
  125 4297.79 0.00000 -7.47202e-10
  126 4297.79 0.00000 3.52888e-09
  127 4297.79 0.00000 -6.13583e-10
  128 4297.79 0.00000 -4.68741e-10
  129 4297.79 0.00000 -3.73572e-09
  130 4297.79 0.00000 2.00323e-10
  131 4297.79 0.00000 2.54896e-10
  132 4297.79 0.00000 -4.70432e-10
  133 4297.79 0.00000 -1.21643e-09
  134 4297.79 0.00000 1.80801e-09
  135 4297.79 0.00000 -2.14312e-10
  136 4297.79 0.00000 -3.61927e-09
  137 4297.79 0.00000 8.04602e-11
  138 4297.79 0.00000 -3.13528e-10
  139 4297.79 0.00000 4.08157e-10
  140 4297.79 0.00000 2.89392e-11
  141 4297.79 0.00000 1.70091e-10
  142 4297.79 0.00000 3.27807e-09
  143 4297.79 0.00000 -1.07244e-09
  144 4297.79 0.00000 9.62477e-10
  145 4297.79 0.00000 3.46121e-10
  146 4297.79 0.00000 -2.53654e-09
  147 4297.79 0.00000 8.63023e-10
  148 4297.79 0.00000 2.55249e-10
  149 4297.79 0.00000 3.41361e-10
  150 4297.79 0.00000 -2.66771e-10
  151 4297.79 0.00000 6.18228e-10
  152 4297.79 0.00000 -5.10227e-10
  153 4297.79 0.00000 -8.52590e-11
  154 4297.79 0.00000 -1.03693e-10
  155 4297.79 0.00000 5.21407e-10
  156 4297.79 0.00000 8.97068e-11
  157 4297.79 0.00000 -8.75117e-10
  158 4297.79 0.00000 3.78630e-10
  159 4297.79 0.00000 4.28805e-13
  160 4297.79 0.00000 -4.57836e-11
  161 4297.79 0.00000 3.00305e-10
  162 4297.79 0.00000 -4.50444e-10
  163 4297.79 0.00000 3.43497e-10
  164 4297.79 0.00000 -6.09656e-10
  165 4297.79 0.00000 2.22554e-09
  166 4297.79 0.00000 -8.77629e-10
  167 4297.79 0.00000 7.72105e-11
  168 4297.79 0.00000 9.17055e-11
  169 4297.79 0.00000 9.90754e-10
  170 4297.79 0.00000 -4.35916e-11
  171 4297.79 0.00000 1.79918e-09
  172 4297.79 0.00000 -3.72998e-10
  173 4297.79 0.00000 -3.33500e-09
  174 4297.79 0.00000 -1.31414e-10
  175 4297.79 0.00000 -1.42851e-09
  176 4297.79 0.00000 1.52755e-09
  177 4297.79 0.00000 -3.67208e-11
  178 4297.79 0.00000 -1.13151e-10
  179 4297.79 0.00000 4.18745e-09
  180 4297.79 0.00000 4.17726e-10
  181 4297.79 0.00000 -2.64451e-10
  182 4297.79 0.00000 1.35249e-09
  183 4297.79 0.00000 -1.82373e-09
  184 4297.79 0.00000 -1.52645e-09
  185 4297.79 0.00000 2.35998e-09
  186 4297.79 0.00000 -8.09773e-10
  187 4297.79 0.00000 -7.42599e-11
  188 4297.79 0.00000 -2.69316e-10
  189 4297.79 0.00000 8.55914e-10
  190 4297.79 0.00000 -2.37649e-09
  191 4297.79 0.00000 -7.00992e-10
  192 4297.79 0.00000 -7.40171e-10
  193 4297.79 0.00000 1.00628e-09
  194 4297.79 0.00000 6.98815e-11
  195 4297.79 0.00000 -1.56621e-09
  196 4297.79 0.00000 2.09415e-10
  197 4297.79 0.00000 1.39926e-09
  198 4297.79 0.00000 -9.26691e-10
  199 4297.79 0.00000 -7.59448e-10
  200 4297.79 0.00000 -2.65436e-10
  201 4297.79 0.00000 8.66011e-11
  202 4297.79 0.00000 9.45588e-10
  203 4297.79 0.00000 1.36776e-09
  204 4297.79 0.00000 -4.37272e-10
  205 4297.79 0.00000 9.85688e-10
  206 4297.79 0.00000 -2.23654e-10
  207 4297.79 0.00000 -4.03198e-09
  208 4297.79 0.00000 6.56872e-10
  209 4297.79 0.00000 -1.27487e-10
  210 4297.79 0.00000 -2.81308e-09
  211 4297.79 0.00000 3.13097e-09
  212 4297.79 0.00000 -2.30054e-10
  213 4297.79 0.00000 -2.69072e-09
  214 4297.79 0.00000 -1.63151e-09
  215 4297.79 0.00000 -2.26680e-10
  216 4297.79 0.00000 -1.35796e-09
  217 4297.79 0.00000 -2.70669e-10
  218 4297.79 0.00000 -2.83263e-09
  219 4297.79 0.00000 -9.37067e-10
  220 4297.79 0.00000 -1.60306e-09
  221 4297.79 0.00000 -2.67098e-10
  222 4297.79 0.00000 -3.33751e-10
  223 4297.79 0.00000 2.78045e-09
  224 4297.79 0.00000 2.81321e-09
  225 4297.79 0.00000 -7.90855e-10
  226 4297.79 0.00000 1.52122e-09
  227 4297.79 0.00000 -5.06276e-10
  228 4297.79 0.00000 -3.31826e-10
  229 4297.79 0.00000 6.54752e-10
  230 4297.79 0.00000 2.80350e-10
  231 4297.79 0.00000 -3.21426e-10
  232 4297.79 0.00000 -1.23347e-09
  233 4297.79 0.00000 -1.01631e-10
  234 4297.79 0.00000 -1.07769e-09
  235 4297.79 0.00000 3.76684e-10
  236 4297.79 0.00000 2.62610e-09
  237 4297.79 0.00000 -3.55788e-10
  238 4297.79 0.00000 3.14342e-10
  239 4297.79 0.00000 -2.55129e-10
  240 4297.79 0.00000 9.91555e-10
  241 4297.79 0.00000 -1.42424e-09
</Section>

newXOutput 109

<Section columns = "stress_xx | stress_yy | stress_xy">
  1 4353.35 0.00000 -1.14722e-09
  2 4353.35 0.00000 2.12371e-10
  3 4353.35 0.00000 1.09890e-10
  4 4353.35 0.00000 1.26102e-09
  5 4353.35 0.00000 -2.52349e-09
  6 4353.35 0.00000 -4.20430e-09
  7 4353.35 0.00000 -5.39231e-09
  8 4353.35 0.00000 -5.71353e-09
  9 4353.35 0.00000 -5.02281e-09
  10 4353.35 0.00000 -4.16142e-09
  11 4353.35 0.00000 -3.12320e-09
  12 4353.35 0.00000 -1.82282e-09
  13 4353.35 0.00000 -4.60932e-10
  14 4353.35 0.00000 6.61013e-10
  15 4353.35 0.00000 1.48626e-09
  16 4353.35 0.00000 1.98536e-09
  17 4353.35 0.00000 1.91955e-09
  18 4353.35 0.00000 1.58935e-09
  19 4353.35 0.00000 9.01470e-10
  20 4353.35 0.00000 3.93509e-10
  21 4353.35 0.00000 3.51830e-10
  22 4353.35 0.00000 3.85182e-10
  23 4353.35 0.00000 3.16484e-10
  24 4353.35 0.00000 4.59191e-11
  25 4353.35 0.00000 -1.06358e-10
  26 4353.35 0.00000 -2.31147e-10
  27 4353.35 0.00000 -2.99949e-10
  28 4353.35 0.00000 -2.18493e-10
  29 4353.35 0.00000 -6.63430e-11
  30 4353.35 0.00000 -2.99353e-12
  31 4353.35 0.00000 2.14754e-10
  32 4353.35 0.00000 1.27546e-10
  33 4353.35 0.00000 -2.00036e-10
  34 4353.35 0.00000 -8.13258e-10
  35 4353.35 0.00000 -1.16961e-09
  36 4353.35 0.00000 -1.49786e-09
  37 4353.35 0.00000 -1.68492e-09
  38 4353.35 0.00000 -1.82301e-09
  39 4353.35 0.00000 -1.57184e-09
  40 4353.35 0.00000 -8.07430e-10
  41 4353.35 0.00000 1.72837e-10
  42 4353.35 0.00000 1.61409e-09
  43 4353.35 0.00000 3.05060e-09
  44 4353.35 0.00000 4.42536e-09
  45 4353.35 0.00000 5.46804e-09
  46 4353.35 0.00000 5.46555e-09
  47 4353.35 0.00000 5.25984e-09
  48 4353.35 0.00000 4.34055e-09
  49 4353.35 0.00000 2.53911e-09
  50 4353.35 0.00000 8.50623e-10
  51 4353.35 0.00000 5.74063e-10
  52 4353.35 0.00000 3.72098e-10
  53 4353.35 0.00000 -9.33998e-11
  54 4353.35 0.00000 -5.29823e-10
  55 4353.35 0.00000 -6.49193e-10
  56 4353.35 0.00000 -8.06736e-10
  57 4353.35 0.00000 -1.42523e-10
  58 4353.35 0.00000 4.66765e-10
  59 4353.35 0.00000 1.70046e-10
  60 4353.35 0.00000 -8.36889e-10
  61 4353.35 0.00000 -1.04987e-09
  62 4353.35 0.00000 1.38113e-09
  63 4353.35 0.00000 3.86291e-10
  64 4353.35 0.00000 8.20168e-11
  65 4353.35 0.00000 2.27094e-09
  66 4353.35 0.00000 -1.84689e-09
  67 4353.35 0.00000 -9.76777e-11
  68 4353.35 0.00000 6.32833e-10
  69 4353.35 0.00000 -7.57308e-10
  70 4353.35 0.00000 -7.10295e-10
  71 4353.35 0.00000 -2.58028e-09
  72 4353.35 0.00000 -1.13031e-10
  73 4353.35 0.00000 7.22728e-10
  74 4353.35 0.00000 3.08871e-09
  75 4353.35 0.00000 6.38769e-10
  76 4353.35 0.00000 -3.64798e-10
  77 4353.35 0.00000 1.07338e-10
  78 4353.35 0.00000 -3.83953e-10
  79 4353.35 0.00000 3.08422e-10
  80 4353.35 0.00000 -9.35162e-11
  81 4353.35 0.00000 -1.47258e-10
  82 4353.35 0.00000 -1.43715e-09
  83 4353.35 0.00000 -1.78599e-10
  84 4353.35 0.00000 -4.00760e-09
  85 4353.35 0.00000 1.43435e-09
  86 4353.35 0.00000 9.63185e-11
  87 4353.35 0.00000 2.69265e-09
  88 4353.35 0.00000 -7.66444e-11
  89 4353.35 0.00000 -2.38267e-09
  90 4353.35 0.00000 -2.89721e-09
  91 4353.35 0.00000 2.79019e-09
  92 4353.35 0.00000 5.95268e-10
  93 4353.35 0.00000 1.42663e-10
  94 4353.35 0.00000 1.06947e-09
  95 4353.35 0.00000 2.09956e-09
  96 4353.35 0.00000 1.25836e-11
  97 4353.35 0.00000 2.90451e-10
  98 4353.35 0.00000 4.39869e-09
  99 4353.35 0.00000 7.68422e-10
  100 4353.35 0.00000 -1.85474e-09
  101 4353.35 0.00000 -1.13812e-09
  102 4353.35 0.00000 5.90959e-10
  103 4353.35 0.00000 1.54700e-10
  104 4353.35 0.00000 1.37681e-09
  105 4353.35 0.00000 -3.83330e-10
  106 4353.35 0.00000 3.69452e-10
  107 4353.35 0.00000 -2.51961e-10
  108 4353.35 0.00000 7.51674e-10
  109 4353.35 0.00000 -9.34939e-10
  110 4353.35 0.00000 -3.24274e-10
  111 4353.35 0.00000 -6.48306e-11
  112 4353.35 0.00000 -4.32425e-11
  113 4353.35 0.00000 -1.51189e-09
  114 4353.35 0.00000 -1.49366e-09
  115 4353.35 0.00000 -6.67359e-11
  116 4353.35 0.00000 -4.68574e-09
  117 4353.35 0.00000 3.91583e-10
  118 4353.35 0.00000 2.12408e-09
  119 4353.35 0.00000 1.07969e-09
  120 4353.35 0.00000 -7.37701e-10
  121 4353.35 0.00000 -1.24322e-09
  122 4353.35 0.00000 -6.83705e-10
  123 4353.35 0.00000 -1.19063e-09
  124 4353.35 0.00000 -4.03980e-11
  125 4353.35 0.00000 9.29848e-10
  126 4353.35 0.00000 -4.35019e-09
  127 4353.35 0.00000 7.55939e-10
  128 4353.35 0.00000 6.08055e-10
  129 4353.35 0.00000 4.60314e-09
  130 4353.35 0.00000 -2.38280e-10
  131 4353.35 0.00000 -3.63946e-10
  132 4353.35 0.00000 6.26247e-10
  133 4353.35 0.00000 1.49404e-09
  134 4353.35 0.00000 -2.24429e-09
  135 4353.35 0.00000 2.86178e-10
  136 4353.35 0.00000 4.42886e-09
  137 4353.35 0.00000 -1.28793e-10
  138 4353.35 0.00000 3.84528e-10
  139 4353.35 0.00000 -4.99406e-10
  140 4353.35 0.00000 -3.89071e-11
  141 4353.35 0.00000 -2.18580e-10
  142 4353.35 0.00000 -4.06859e-09
  143 4353.35 0.00000 1.32880e-09
  144 4353.35 0.00000 -1.16045e-09
  145 4353.35 0.00000 -4.58524e-10
  146 4353.35 0.00000 3.15909e-09
  147 4353.35 0.00000 -1.01791e-09
  148 4353.35 0.00000 -3.09758e-10
  149 4353.35 0.00000 -3.97051e-10
  150 4353.35 0.00000 3.01020e-10
  151 4353.35 0.00000 -7.91750e-10
  152 4353.35 0.00000 6.15136e-10
  153 4353.35 0.00000 1.09263e-10
  154 4353.35 0.00000 1.22634e-10
  155 4353.35 0.00000 -6.26644e-10
  156 4353.35 0.00000 -9.92704e-11
  157 4353.35 0.00000 1.06801e-09
  158 4353.35 0.00000 -4.45929e-10
  159 4353.35 0.00000 1.48176e-11
  160 4353.35 0.00000 5.75425e-11
  161 4353.35 0.00000 -3.49654e-10
  162 4353.35 0.00000 5.55949e-10
  163 4353.35 0.00000 -4.10258e-10
  164 4353.35 0.00000 7.56934e-10
  165 4353.35 0.00000 -2.73331e-09
  166 4353.35 0.00000 1.06866e-09
  167 4353.35 0.00000 -8.62999e-11
  168 4353.35 0.00000 -1.13460e-10
  169 4353.35 0.00000 -1.20506e-09
  170 4353.35 0.00000 2.22392e-11
  171 4353.35 0.00000 -2.26123e-09
  172 4353.35 0.00000 4.05025e-10
  173 4353.35 0.00000 4.12977e-09
  174 4353.35 0.00000 1.61076e-10
  175 4353.35 0.00000 1.74053e-09
  176 4353.35 0.00000 -1.85807e-09
  177 4353.35 0.00000 3.12282e-11
  178 4353.35 0.00000 1.51147e-10
  179 4353.35 0.00000 -5.13964e-09
  180 4353.35 0.00000 -5.10280e-10
  181 4353.35 0.00000 3.21641e-10
  182 4353.35 0.00000 -1.64771e-09
  183 4353.35 0.00000 2.26795e-09
  184 4353.35 0.00000 1.86067e-09
  185 4353.35 0.00000 -2.88942e-09
  186 4353.35 0.00000 9.52823e-10
  187 4353.35 0.00000 6.20668e-11
  188 4353.35 0.00000 3.16648e-10
  189 4353.35 0.00000 -1.06172e-09
  190 4353.35 0.00000 2.94366e-09
  191 4353.35 0.00000 8.74761e-10
  192 4353.35 0.00000 9.17728e-10
  193 4353.35 0.00000 -1.24796e-09
  194 4353.35 0.00000 -7.51454e-11
  195 4353.35 0.00000 1.91070e-09
  196 4353.35 0.00000 -2.57837e-10
  197 4353.35 0.00000 -1.70462e-09
  198 4353.35 0.00000 1.15570e-09
  199 4353.35 0.00000 9.36114e-10
  200 4353.35 0.00000 3.04501e-10
  201 4353.35 0.00000 -7.42989e-11
  202 4353.35 0.00000 -1.14319e-09
  203 4353.35 0.00000 -1.71734e-09
  204 4353.35 0.00000 5.00812e-10
  205 4353.35 0.00000 -1.20849e-09
  206 4353.35 0.00000 3.12394e-10
  207 4353.35 0.00000 4.95061e-09
  208 4353.35 0.00000 -8.34401e-10
  209 4353.35 0.00000 1.75431e-10
  210 4353.35 0.00000 3.44270e-09
  211 4353.35 0.00000 -3.82075e-09
  212 4353.35 0.00000 2.89344e-10
  213 4353.35 0.00000 3.28614e-09
  214 4353.35 0.00000 2.05235e-09
  215 4353.35 0.00000 2.49741e-10
  216 4353.35 0.00000 1.69204e-09
  217 4353.35 0.00000 3.51705e-10
  218 4353.35 0.00000 3.47769e-09
  219 4353.35 0.00000 1.14054e-09
  220 4353.35 0.00000 1.99211e-09
  221 4353.35 0.00000 3.18192e-10
  222 4353.35 0.00000 3.96908e-10
  223 4353.35 0.00000 -3.46675e-09
  224 4353.35 0.00000 -3.48532e-09
  225 4353.35 0.00000 9.83143e-10
  226 4353.35 0.00000 -1.85969e-09
  227 4353.35 0.00000 5.99674e-10
  228 4353.35 0.00000 4.21720e-10
  229 4353.35 0.00000 -7.98453e-10
  230 4353.35 0.00000 -3.35118e-10
  231 4353.35 0.00000 4.04663e-10
  232 4353.35 0.00000 1.51399e-09
  233 4353.35 0.00000 1.33605e-10
  234 4353.35 0.00000 1.35783e-09
  235 4353.35 0.00000 -4.10496e-10
  236 4353.35 0.00000 -3.20790e-09
  237 4353.35 0.00000 3.90192e-10
  238 4353.35 0.00000 -4.03430e-10
  239 4353.35 0.00000 3.24857e-10
  240 4353.35 0.00000 -1.27260e-09
  241 4353.35 0.00000 1.72903e-09
</Section>

newXOutput 110

<Section columns = "stress_xx | stress_yy | stress_xy">
  1 4409.13 0.00000 1.39578e-09
  2 4409.13 0.00000 -2.53621e-10
  3 4409.13 0.00000 -1.20477e-10
  4 4409.13 0.00000 -1.53453e-09
  5 4409.13 0.00000 3.08338e-09
  6 4409.13 0.00000 5.15108e-09
  7 4409.13 0.00000 6.61736e-09
  8 4409.13 0.00000 7.04400e-09
  9 4409.13 0.00000 6.22786e-09
  10 4409.13 0.00000 5.19094e-09
  11 4409.13 0.00000 3.92019e-09
  12 4409.13 0.00000 2.32350e-09
  13 4409.13 0.00000 6.39578e-10
  14 4409.13 0.00000 -7.54662e-10
  15 4409.13 0.00000 -1.79073e-09
  16 4409.13 0.00000 -2.41962e-09
  17 4409.13 0.00000 -2.35262e-09
  18 4409.13 0.00000 -1.96622e-09
  19 4409.13 0.00000 -1.15554e-09
  20 4409.13 0.00000 -5.43975e-10
  21 4409.13 0.00000 -4.78253e-10
  22 4409.13 0.00000 -4.92048e-10
  23 4409.13 0.00000 -3.87375e-10
  24 4409.13 0.00000 -5.90455e-11
  25 4409.13 0.00000 1.18265e-10
  26 4409.13 0.00000 2.65605e-10
  27 4409.13 0.00000 3.53906e-10
  28 4409.13 0.00000 2.61216e-10
  29 4409.13 0.00000 8.07110e-11
  30 4409.13 0.00000 9.06283e-12
  31 4409.13 0.00000 -2.32158e-10
  32 4409.13 0.00000 -1.13379e-10
  33 4409.13 0.00000 2.86407e-10
  34 4409.13 0.00000 1.03821e-09
  35 4409.13 0.00000 1.46736e-09
  36 4409.13 0.00000 1.86665e-09
  37 4409.13 0.00000 2.07887e-09
  38 4409.13 0.00000 2.21605e-09
  39 4409.13 0.00000 1.88310e-09
  40 4409.13 0.00000 9.35383e-10
  41 4409.13 0.00000 -2.79327e-10
  42 4409.13 0.00000 -2.06267e-09
  43 4409.13 0.00000 -3.82434e-09
  44 4409.13 0.00000 -5.50200e-09
  45 4409.13 0.00000 -6.76823e-09
  46 4409.13 0.00000 -6.74281e-09
  47 4409.13 0.00000 -6.46452e-09
  48 4409.13 0.00000 -5.32096e-09
  49 4409.13 0.00000 -3.10745e-09
  50 4409.13 0.00000 -1.03681e-09
  51 4409.13 0.00000 -7.01616e-10
  52 4409.13 0.00000 -4.55060e-10
  53 4409.13 0.00000 1.12816e-10
  54 4409.13 0.00000 6.45385e-10
  55 4409.13 0.00000 7.90295e-10
  56 4409.13 0.00000 9.82044e-10
  57 4409.13 0.00000 1.68861e-10
  58 4409.13 0.00000 -5.45233e-10
  59 4409.13 0.00000 -2.04429e-10
  60 4409.13 0.00000 1.00956e-09
  61 4409.13 0.00000 1.31917e-09
  62 4409.13 0.00000 -1.72162e-09
  63 4409.13 0.00000 -4.90867e-10
  64 4409.13 0.00000 -1.15641e-10
  65 4409.13 0.00000 -2.79040e-09
  66 4409.13 0.00000 2.26133e-09
  67 4409.13 0.00000 1.35743e-10
  68 4409.13 0.00000 -7.65597e-10
  69 4409.13 0.00000 9.41945e-10
  70 4409.13 0.00000 8.41078e-10
  71 4409.13 0.00000 3.19026e-09
  72 4409.13 0.00000 1.90254e-10
  73 4409.13 0.00000 -8.95584e-10
  74 4409.13 0.00000 -3.81299e-09
  75 4409.13 0.00000 -8.21781e-10
  76 4409.13 0.00000 4.30813e-10
  77 4409.13 0.00000 -1.28582e-10
  78 4409.13 0.00000 5.10261e-10
  79 4409.13 0.00000 -3.69864e-10
  80 4409.13 0.00000 1.14476e-10
  81 4409.13 0.00000 1.67572e-10
  82 4409.13 0.00000 1.75289e-09
  83 4409.13 0.00000 2.18886e-10
  84 4409.13 0.00000 4.92534e-09
  85 4409.13 0.00000 -1.75328e-09
  86 4409.13 0.00000 -1.29626e-10
  87 4409.13 0.00000 -3.29432e-09
  88 4409.13 0.00000 1.09546e-10
  89 4409.13 0.00000 2.91050e-09
  90 4409.13 0.00000 3.61783e-09
  91 4409.13 0.00000 -3.47627e-09
  92 4409.13 0.00000 -7.33905e-10
  93 4409.13 0.00000 -1.75354e-10
  94 4409.13 0.00000 -1.32910e-09
  95 4409.13 0.00000 -2.62905e-09
  96 4409.13 0.00000 -3.31034e-11
  97 4409.13 0.00000 -3.94510e-10
  98 4409.13 0.00000 -5.40849e-09
  99 4409.13 0.00000 -8.97275e-10
  100 4409.13 0.00000 2.27792e-09
  101 4409.13 0.00000 1.45958e-09
  102 4409.13 0.00000 -7.24078e-10
  103 4409.13 0.00000 -1.59042e-10
  104 4409.13 0.00000 -1.71905e-09
  105 4409.13 0.00000 4.19314e-10
  106 4409.13 0.00000 -4.30549e-10
  107 4409.13 0.00000 2.90102e-10
  108 4409.13 0.00000 -9.16138e-10
  109 4409.13 0.00000 1.13929e-09
  110 4409.13 0.00000 3.90550e-10
  111 4409.13 0.00000 1.12695e-10
  112 4409.13 0.00000 3.55217e-11
  113 4409.13 0.00000 1.82701e-09
  114 4409.13 0.00000 1.83699e-09
  115 4409.13 0.00000 1.12341e-10
  116 4409.13 0.00000 5.74748e-09
  117 4409.13 0.00000 -4.85209e-10
  118 4409.13 0.00000 -2.61648e-09
  119 4409.13 0.00000 -1.29911e-09
  120 4409.13 0.00000 9.39835e-10
  121 4409.13 0.00000 1.53257e-09
  122 4409.13 0.00000 8.23795e-10
  123 4409.13 0.00000 1.44881e-09
  124 4409.13 0.00000 6.63741e-11
  125 4409.13 0.00000 -1.15946e-09
  126 4409.13 0.00000 5.37370e-09
  127 4409.13 0.00000 -9.31192e-10
  128 4409.13 0.00000 -7.86488e-10
  129 4409.13 0.00000 -5.68299e-09
  130 4409.13 0.00000 2.82802e-10
  131 4409.13 0.00000 5.13098e-10
  132 4409.13 0.00000 -8.31391e-10
  133 4409.13 0.00000 -1.84167e-09
  134 4409.13 0.00000 2.79081e-09
  135 4409.13 0.00000 -3.80322e-10
  136 4409.13 0.00000 -5.43297e-09
  137 4409.13 0.00000 1.94936e-10
  138 4409.13 0.00000 -4.76436e-10
  139 4409.13 0.00000 6.12339e-10
  140 4409.13 0.00000 5.09211e-11
  141 4409.13 0.00000 2.81346e-10
  142 4409.13 0.00000 5.06052e-09
  143 4409.13 0.00000 -1.65091e-09
  144 4409.13 0.00000 1.40416e-09
  145 4409.13 0.00000 6.04924e-10
  146 4409.13 0.00000 -3.94393e-09
  147 4409.13 0.00000 1.20086e-09
  148 4409.13 0.00000 3.76478e-10
  149 4409.13 0.00000 4.72539e-10
  150 4409.13 0.00000 -3.36343e-10
  151 4409.13 0.00000 1.01565e-09
  152 4409.13 0.00000 -7.39597e-10
  153 4409.13 0.00000 -1.38992e-10
  154 4409.13 0.00000 -1.43428e-10
  155 4409.13 0.00000 7.57633e-10
  156 4409.13 0.00000 1.08465e-10
  157 4409.13 0.00000 -1.30691e-09
  158 4409.13 0.00000 5.26527e-10
  159 4409.13 0.00000 -3.78955e-11
  160 4409.13 0.00000 -7.12688e-11
  161 4409.13 0.00000 4.09069e-10
  162 4409.13 0.00000 -6.87497e-10
  163 4409.13 0.00000 4.88915e-10
  164 4409.13 0.00000 -9.41726e-10
  165 4409.13 0.00000 3.36459e-09
  166 4409.13 0.00000 -1.30509e-09
  167 4409.13 0.00000 9.48153e-11
  168 4409.13 0.00000 1.41727e-10
  169 4409.13 0.00000 1.46995e-09
  170 4409.13 0.00000 8.97132e-12
  171 4409.13 0.00000 2.84862e-09
  172 4409.13 0.00000 -4.34474e-10
  173 4409.13 0.00000 -5.12561e-09
  174 4409.13 0.00000 -1.98015e-10
  175 4409.13 0.00000 -2.12644e-09
  176 4409.13 0.00000 2.26622e-09
  177 4409.13 0.00000 -2.47252e-11
  178 4409.13 0.00000 -2.00537e-10
  179 4409.13 0.00000 6.32205e-09
  180 4409.13 0.00000 6.24701e-10
  181 4409.13 0.00000 -3.87497e-10
  182 4409.13 0.00000 2.01306e-09
  183 4409.13 0.00000 -2.82825e-09
  184 4409.13 0.00000 -2.27324e-09
  185 4409.13 0.00000 3.54557e-09
  186 4409.13 0.00000 -1.12247e-09
  187 4409.13 0.00000 -4.37890e-11
  188 4409.13 0.00000 -3.74577e-10
  189 4409.13 0.00000 1.31998e-09
  190 4409.13 0.00000 -3.65352e-09
  191 4409.13 0.00000 -1.09342e-09
  192 4409.13 0.00000 -1.13768e-09
  193 4409.13 0.00000 1.55161e-09
  194 4409.13 0.00000 7.70789e-11
  195 4409.13 0.00000 -2.33707e-09
  196 4409.13 0.00000 3.19617e-10
  197 4409.13 0.00000 2.08235e-09
  198 4409.13 0.00000 -1.44337e-09
  199 4409.13 0.00000 -1.15544e-09
  200 4409.13 0.00000 -3.53147e-10
  201 4409.13 0.00000 5.31463e-11
  202 4409.13 0.00000 1.38707e-09
  203 4409.13 0.00000 2.15873e-09
  204 4409.13 0.00000 -5.70454e-10
  205 4409.13 0.00000 1.48642e-09
  206 4409.13 0.00000 -4.29987e-10
  207 4409.13 0.00000 -6.09311e-09
  208 4409.13 0.00000 1.06302e-09
  209 4409.13 0.00000 -2.37585e-10
  210 4409.13 0.00000 -4.22290e-09
  211 4409.13 0.00000 4.67510e-09
  212 4409.13 0.00000 -3.64062e-10
  213 4409.13 0.00000 -4.02438e-09
  214 4409.13 0.00000 -2.58760e-09
  215 4409.13 0.00000 -2.73255e-10
  216 4409.13 0.00000 -2.11428e-09
  217 4409.13 0.00000 -4.56378e-10
  218 4409.13 0.00000 -4.27797e-09
  219 4409.13 0.00000 -1.38849e-09
  220 4409.13 0.00000 -2.48135e-09
  221 4409.13 0.00000 -3.77323e-10
  222 4409.13 0.00000 -4.74591e-10
  223 4409.13 0.00000 4.33326e-09
  224 4409.13 0.00000 4.32629e-09
  225 4409.13 0.00000 -1.22559e-09
  226 4409.13 0.00000 2.27915e-09
  227 4409.13 0.00000 -7.09260e-10
  228 4409.13 0.00000 -5.34383e-10
  229 4409.13 0.00000 9.76445e-10
  230 4409.13 0.00000 4.05439e-10
  231 4409.13 0.00000 -5.12730e-10
  232 4409.13 0.00000 -1.86244e-09
  233 4409.13 0.00000 -1.72255e-10
  234 4409.13 0.00000 -1.71334e-09
  235 4409.13 0.00000 4.44827e-10
  236 4409.13 0.00000 3.92796e-09
  237 4409.13 0.00000 -4.21325e-10
  238 4409.13 0.00000 5.20528e-10
  239 4409.13 0.00000 -4.10688e-10
  240 4409.13 0.00000 1.63851e-09
  241 4409.13 0.00000 -2.10285e-09
</Section>

newXOutput 111

<Section columns = "stress_xx | stress_yy | stress_xy">
  1 4465.12 0.00000 -1.70383e-09
  2 4465.12 0.00000 3.04252e-10
  3 4465.12 0.00000 1.28370e-10
  4 4465.12 0.00000 1.87272e-09
  5 4465.12 0.00000 -3.77947e-09
  6 4465.12 0.00000 -6.32856e-09
  7 4465.12 0.00000 -8.14011e-09
  8 4465.12 0.00000 -8.70615e-09
  9 4465.12 0.00000 -7.73950e-09
  10 4465.12 0.00000 -6.48341e-09
  11 4465.12 0.00000 -4.92763e-09
  12 4465.12 0.00000 -2.96467e-09
  13 4465.12 0.00000 -8.78235e-10
  14 4465.12 0.00000 8.57253e-10
  15 4465.12 0.00000 2.15778e-09
  16 4465.12 0.00000 2.95250e-09
  17 4465.12 0.00000 2.88807e-09
  18 4465.12 0.00000 2.43908e-09
  19 4465.12 0.00000 1.47826e-09
  20 4465.12 0.00000 7.36159e-10
  21 4465.12 0.00000 6.33718e-10
  22 4465.12 0.00000 6.24765e-10
  23 4465.12 0.00000 4.76766e-10
  24 4465.12 0.00000 7.62268e-11
  25 4465.12 0.00000 -1.32555e-10
  26 4465.12 0.00000 -3.08893e-10
  27 4465.12 0.00000 -4.13421e-10
  28 4465.12 0.00000 -3.10417e-10
  29 4465.12 0.00000 -9.96337e-11
  30 4465.12 0.00000 -1.79598e-11
  31 4465.12 0.00000 2.47830e-10
  32 4465.12 0.00000 9.40898e-11
  33 4465.12 0.00000 -4.03374e-10
  34 4465.12 0.00000 -1.32530e-09
  35 4465.12 0.00000 -1.84296e-09
  36 4465.12 0.00000 -2.32519e-09
  37 4465.12 0.00000 -2.56728e-09
  38 4465.12 0.00000 -2.69706e-09
  39 4465.12 0.00000 -2.25703e-09
  40 4465.12 0.00000 -1.07716e-09
  41 4465.12 0.00000 4.33834e-10
  42 4465.12 0.00000 2.63695e-09
  43 4465.12 0.00000 4.80359e-09
  44 4465.12 0.00000 6.85808e-09
  45 4465.12 0.00000 8.39766e-09
  46 4465.12 0.00000 8.33739e-09
  47 4465.12 0.00000 7.96237e-09
  48 4465.12 0.00000 6.53722e-09
  49 4465.12 0.00000 3.81160e-09
  50 4465.12 0.00000 1.26704e-09
  51 4465.12 0.00000 8.59055e-10
  52 4465.12 0.00000 5.57797e-10
  53 4465.12 0.00000 -1.35871e-10
  54 4465.12 0.00000 -7.90090e-10
  55 4465.12 0.00000 -9.67846e-10
  56 4465.12 0.00000 -1.19951e-09
  57 4465.12 0.00000 -2.01397e-10
  58 4465.12 0.00000 6.38170e-10
  59 4465.12 0.00000 2.45598e-10
  60 4465.12 0.00000 -1.22266e-09
  61 4465.12 0.00000 -1.66132e-09
  62 4465.12 0.00000 2.14922e-09
  63 4465.12 0.00000 6.27099e-10
  64 4465.12 0.00000 1.62616e-10
  65 4465.12 0.00000 3.43630e-09
  66 4465.12 0.00000 -2.77766e-09
  67 4465.12 0.00000 -1.87344e-10
  68 4465.12 0.00000 9.26259e-10
  69 4465.12 0.00000 -1.17503e-09
  70 4465.12 0.00000 -9.96359e-10
  71 4465.12 0.00000 -3.95470e-09
  72 4465.12 0.00000 -2.98062e-10
  73 4465.12 0.00000 1.11497e-09
  74 4465.12 0.00000 4.71683e-09
  75 4465.12 0.00000 1.06116e-09
  76 4465.12 0.00000 -5.07641e-10
  77 4465.12 0.00000 1.55203e-10
  78 4465.12 0.00000 -6.73662e-10
  79 4465.12 0.00000 4.42753e-10
  80 4465.12 0.00000 -1.40737e-10
  81 4465.12 0.00000 -1.92530e-10
  82 4465.12 0.00000 -2.14131e-09
  83 4465.12 0.00000 -2.67674e-10
  84 4465.12 0.00000 -6.06690e-09
  85 4465.12 0.00000 2.15074e-09
  86 4465.12 0.00000 1.80020e-10
  87 4465.12 0.00000 4.04108e-09
  88 4465.12 0.00000 -1.61706e-10
  89 4465.12 0.00000 -3.56328e-09
  90 4465.12 0.00000 -4.52879e-09
  91 4465.12 0.00000 4.33930e-09
  92 4465.12 0.00000 9.04978e-10
  93 4465.12 0.00000 2.13079e-10
  94 4465.12 0.00000 1.65271e-09
  95 4465.12 0.00000 3.29976e-09
  96 4465.12 0.00000 5.98088e-11
  97 4465.12 0.00000 5.30353e-10
  98 4465.12 0.00000 6.66583e-09
  99 4465.12 0.00000 1.04688e-09
  100 4465.12 0.00000 -2.80363e-09
  101 4465.12 0.00000 -1.87264e-09
  102 4465.12 0.00000 8.89933e-10
  103 4465.12 0.00000 1.58545e-10
  104 4465.12 0.00000 2.15013e-09
  105 4465.12 0.00000 -4.55704e-10
  106 4465.12 0.00000 5.00341e-10
  107 4465.12 0.00000 -3.38035e-10
  108 4465.12 0.00000 1.12023e-09
  109 4465.12 0.00000 -1.39419e-09
  110 4465.12 0.00000 -4.65404e-10
  111 4465.12 0.00000 -1.81969e-10
  112 4465.12 0.00000 -2.06508e-11
  113 4465.12 0.00000 -2.21275e-09
  114 4465.12 0.00000 -2.26225e-09
  115 4465.12 0.00000 -1.75592e-10
  116 4465.12 0.00000 -7.06475e-09
  117 4465.12 0.00000 6.06445e-10
  118 4465.12 0.00000 3.23014e-09
  119 4465.12 0.00000 1.56504e-09
  120 4465.12 0.00000 -1.19846e-09
  121 4465.12 0.00000 -1.89395e-09
  122 4465.12 0.00000 -9.96094e-10
  123 4465.12 0.00000 -1.76968e-09
  124 4465.12 0.00000 -1.00835e-10
  125 4465.12 0.00000 1.45103e-09
  126 4465.12 0.00000 -6.65389e-09
  127 4465.12 0.00000 1.14903e-09
  128 4465.12 0.00000 1.01466e-09
  129 4465.12 0.00000 7.03197e-09
  130 4465.12 0.00000 -3.34610e-10
  131 4465.12 0.00000 -7.12475e-10
  132 4465.12 0.00000 1.09999e-09
  133 4465.12 0.00000 2.27394e-09
  134 4465.12 0.00000 -3.47853e-09
  135 4465.12 0.00000 5.03563e-10
  136 4465.12 0.00000 6.68063e-09
  137 4465.12 0.00000 -2.82903e-10
  138 4465.12 0.00000 5.89847e-10
  139 4465.12 0.00000 -7.52584e-10
  140 4465.12 0.00000 -6.75321e-11
  141 4465.12 0.00000 -3.63234e-10
  142 4465.12 0.00000 -6.30827e-09
  143 4465.12 0.00000 2.05425e-09
  144 4465.12 0.00000 -1.70294e-09
  145 4465.12 0.00000 -7.95990e-10
  146 4465.12 0.00000 4.93438e-09
  147 4465.12 0.00000 -1.41889e-09
  148 4465.12 0.00000 -4.59110e-10
  149 4465.12 0.00000 -5.54652e-10
  150 4465.12 0.00000 3.73119e-10
  151 4465.12 0.00000 -1.30364e-09
  152 4465.12 0.00000 8.92962e-10
  153 4465.12 0.00000 1.75360e-10
  154 4465.12 0.00000 1.68717e-10
  155 4465.12 0.00000 -9.18147e-10
  156 4465.12 0.00000 -1.19267e-10
  157 4465.12 0.00000 1.60235e-09
  158 4465.12 0.00000 -6.24662e-10
  159 4465.12 0.00000 6.96226e-11
  160 4465.12 0.00000 8.94814e-11
  161 4465.12 0.00000 -4.78999e-10
  162 4465.12 0.00000 8.52430e-10
  163 4465.12 0.00000 -5.84159e-10
  164 4465.12 0.00000 1.17571e-09
  165 4465.12 0.00000 -4.15219e-09
  166 4465.12 0.00000 1.59793e-09
  167 4465.12 0.00000 -1.02920e-10
  168 4465.12 0.00000 -1.78474e-10
  169 4465.12 0.00000 -1.79867e-09
  170 4465.12 0.00000 -5.45343e-11
  171 4465.12 0.00000 -3.59469e-09
  172 4465.12 0.00000 4.57379e-10
  173 4465.12 0.00000 6.37608e-09
  174 4465.12 0.00000 2.46066e-10
  175 4465.12 0.00000 2.60461e-09
  176 4465.12 0.00000 -2.77135e-09
  177 4465.12 0.00000 9.29122e-12
  178 4465.12 0.00000 2.64714e-10
  179 4465.12 0.00000 -7.79422e-09
  180 4465.12 0.00000 -7.65932e-10
  181 4465.12 0.00000 4.63741e-10
  182 4465.12 0.00000 -2.46407e-09
  183 4465.12 0.00000 3.53356e-09
  184 4465.12 0.00000 2.78308e-09
  185 4465.12 0.00000 -4.36301e-09
  186 4465.12 0.00000 1.32206e-09
  187 4465.12 0.00000 1.27791e-11
  188 4465.12 0.00000 4.42244e-10
  189 4465.12 0.00000 -1.64452e-09
  190 4465.12 0.00000 4.54309e-09
  191 4465.12 0.00000 1.36956e-09
  192 4465.12 0.00000 1.41346e-09
  193 4465.12 0.00000 -1.93230e-09
  194 4465.12 0.00000 -7.64703e-11
  195 4465.12 0.00000 2.86618e-09
  196 4465.12 0.00000 -3.99113e-10
  197 4465.12 0.00000 -2.55296e-09
  198 4465.12 0.00000 1.80744e-09
  199 4465.12 0.00000 1.42941e-09
  200 4465.12 0.00000 4.10486e-10
  201 4465.12 0.00000 -1.73800e-11
  202 4465.12 0.00000 -1.68848e-09
  203 4465.12 0.00000 -2.71966e-09
  204 4465.12 0.00000 6.44991e-10
  205 4465.12 0.00000 -1.83233e-09
  206 4465.12 0.00000 5.84542e-10
  207 4465.12 0.00000 7.51564e-09
  208 4465.12 0.00000 -1.35161e-09
  209 4465.12 0.00000 3.21436e-10
  210 4465.12 0.00000 5.19309e-09
  211 4465.12 0.00000 -5.73401e-09
  212 4465.12 0.00000 4.61487e-10
  213 4465.12 0.00000 4.94019e-09
  214 4465.12 0.00000 3.26833e-09
  215 4465.12 0.00000 2.96253e-10
  216 4465.12 0.00000 2.64577e-09
  217 4465.12 0.00000 5.90438e-10
  218 4465.12 0.00000 5.27486e-09
  219 4465.12 0.00000 1.69451e-09
  220 4465.12 0.00000 3.09646e-09
  221 4465.12 0.00000 4.46973e-10
  222 4465.12 0.00000 5.71607e-10
  223 4465.12 0.00000 -5.42663e-09
  224 4465.12 0.00000 -5.38293e-09
  225 4465.12 0.00000 1.53026e-09
  226 4465.12 0.00000 -2.80014e-09
  227 4465.12 0.00000 8.35551e-10
  228 4465.12 0.00000 6.81107e-10
  229 4465.12 0.00000 -1.19799e-09
  230 4465.12 0.00000 -4.86251e-10
  231 4465.12 0.00000 6.47991e-10
  232 4465.12 0.00000 2.29466e-09
  233 4465.12 0.00000 2.18669e-10
  234 4465.12 0.00000 2.16764e-09
  235 4465.12 0.00000 -4.72675e-10
  236 4465.12 0.00000 -4.82154e-09
  237 4465.12 0.00000 4.47415e-10
  238 4465.12 0.00000 -6.73749e-10
  239 4465.12 0.00000 5.19475e-10
  240 4465.12 0.00000 -2.10690e-09
  241 4465.12 0.00000 2.56080e-09
</Section>

newXOutput 112

<Section columns = "stress_xx | stress_yy | stress_xy">
  1 4521.32 0.00000 2.08521e-09
  2 4521.32 0.00000 -3.68273e-10
  3 4521.32 0.00000 -1.35271e-10
  4 4521.32 0.00000 -2.29255e-09
  5 4521.32 0.00000 4.64366e-09
  6 4521.32 0.00000 7.79343e-09
  7 4521.32 0.00000 1.00376e-08
  8 4521.32 0.00000 1.07832e-08
  9 4521.32 0.00000 9.64026e-09
  10 4521.32 0.00000 8.11950e-09
  11 4521.32 0.00000 6.20972e-09
  12 4521.32 0.00000 3.78848e-09
  13 4521.32 0.00000 1.19988e-09
  14 4521.32 0.00000 -9.64975e-10
  15 4521.32 0.00000 -2.60404e-09
  16 4521.32 0.00000 -3.60995e-09
  17 4521.32 0.00000 -3.55506e-09
  18 4521.32 0.00000 -3.02963e-09
  19 4521.32 0.00000 -1.89555e-09
  20 4521.32 0.00000 -9.86793e-10
  21 4521.32 0.00000 -8.46600e-10
  22 4521.32 0.00000 -8.06531e-10
  23 4521.32 0.00000 -5.93086e-10
  24 4521.32 0.00000 -9.78373e-11
  25 4521.32 0.00000 1.46744e-10
  26 4521.32 0.00000 3.57691e-10
  27 4521.32 0.00000 4.86342e-10
  28 4521.32 0.00000 3.69470e-10
  29 4521.32 0.00000 1.24112e-10
  30 4521.32 0.00000 3.26449e-11
  31 4521.32 0.00000 -2.56085e-10
  32 4521.32 0.00000 -5.55936e-11
  33 4521.32 0.00000 5.59532e-10
  34 4521.32 0.00000 1.69451e-09
  35 4521.32 0.00000 2.31689e-09
  36 4521.32 0.00000 2.90459e-09
  37 4521.32 0.00000 3.17622e-09
  38 4521.32 0.00000 3.28946e-09
  39 4521.32 0.00000 2.71028e-09
  40 4521.32 0.00000 1.23686e-09
  41 4521.32 0.00000 -6.48055e-10
  42 4521.32 0.00000 -3.37837e-09
  43 4521.32 0.00000 -6.04772e-09
  44 4521.32 0.00000 -8.56543e-09
  45 4521.32 0.00000 -1.04401e-08
  46 4521.32 0.00000 -1.03322e-08
  47 4521.32 0.00000 -9.83293e-09
  48 4521.32 0.00000 -8.05361e-09
  49 4521.32 0.00000 -4.68825e-09
  50 4521.32 0.00000 -1.55316e-09
  51 4521.32 0.00000 -1.05415e-09
  52 4521.32 0.00000 -6.85681e-10
  53 4521.32 0.00000 1.64685e-10
  54 4521.32 0.00000 9.68505e-10
  55 4521.32 0.00000 1.18818e-09
  56 4521.32 0.00000 1.46967e-09
  57 4521.32 0.00000 2.38662e-10
  58 4521.32 0.00000 -7.47030e-10
  59 4521.32 0.00000 -2.96076e-10
  60 4521.32 0.00000 1.48103e-09
  61 4521.32 0.00000 2.09700e-09
  62 4521.32 0.00000 -2.69083e-09
  63 4521.32 0.00000 -7.97828e-10
  64 4521.32 0.00000 -2.29587e-10
  65 4521.32 0.00000 -4.24149e-09
  66 4521.32 0.00000 3.41907e-09
  67 4521.32 0.00000 2.57939e-10
  68 4521.32 0.00000 -1.12249e-09
  69 4521.32 0.00000 1.46966e-09
  70 4521.32 0.00000 1.17893e-09
  71 4521.32 0.00000 4.91302e-09
  72 4521.32 0.00000 4.46905e-10
  73 4521.32 0.00000 -1.39115e-09
  74 4521.32 0.00000 -5.84876e-09
  75 4521.32 0.00000 -1.37213e-09
  76 4521.32 0.00000 6.01526e-10
  77 4521.32 0.00000 -1.86814e-10
  78 4521.32 0.00000 8.84177e-10
  79 4521.32 0.00000 -5.34457e-10
  80 4521.32 0.00000 1.71834e-10
  81 4521.32 0.00000 2.18766e-10
  82 4521.32 0.00000 2.62245e-09
  83 4521.32 0.00000 3.27724e-10
  84 4521.32 0.00000 7.49366e-09
  85 4521.32 0.00000 -2.64143e-09
  86 4521.32 0.00000 -2.43102e-10
  87 4521.32 0.00000 -4.97010e-09
  88 4521.32 0.00000 2.27216e-10
  89 4521.32 0.00000 4.37647e-09
  90 4521.32 0.00000 5.67873e-09
  91 4521.32 0.00000 -5.42713e-09
  92 4521.32 0.00000 -1.11885e-09
  93 4521.32 0.00000 -2.57900e-10
  94 4521.32 0.00000 -2.05901e-09
  95 4521.32 0.00000 -4.15383e-09
  96 4521.32 0.00000 -9.65413e-11
  97 4521.32 0.00000 -7.11129e-10
  98 4521.32 0.00000 -8.23678e-09
  99 4521.32 0.00000 -1.21471e-09
  100 4521.32 0.00000 3.46101e-09
  101 4521.32 0.00000 2.40608e-09
  102 4521.32 0.00000 -1.09936e-09
  103 4521.32 0.00000 -1.45843e-10
  104 4521.32 0.00000 -2.69512e-09
  105 4521.32 0.00000 4.81775e-10
  106 4521.32 0.00000 -5.84069e-10
  107 4521.32 0.00000 3.92056e-10
  108 4521.32 0.00000 -1.37291e-09
  109 4521.32 0.00000 1.70859e-09
  110 4521.32 0.00000 5.59102e-10
  111 4521.32 0.00000 2.73489e-10
  112 4521.32 0.00000 -1.36727e-12
  113 4521.32 0.00000 2.68257e-09
  114 4521.32 0.00000 2.79509e-09
  115 4521.32 0.00000 2.64554e-10
  116 4521.32 0.00000 8.70843e-09
  117 4521.32 0.00000 -7.61954e-10
  118 4521.32 0.00000 -3.99756e-09
  119 4521.32 0.00000 -1.88623e-09
  120 4521.32 0.00000 1.52681e-09
  121 4521.32 0.00000 2.34597e-09
  122 4521.32 0.00000 1.20688e-09
  123 4521.32 0.00000 2.16520e-09
  124 4521.32 0.00000 1.49974e-10
  125 4521.32 0.00000 -1.82110e-09
  126 4521.32 0.00000 8.25825e-09
  127 4521.32 0.00000 -1.41790e-09
  128 4521.32 0.00000 -1.31101e-09
  129 4521.32 0.00000 -8.72111e-09
  130 4521.32 0.00000 3.98472e-10
  131 4521.32 0.00000 9.82009e-10
  132 4521.32 0.00000 -1.45584e-09
  133 4521.32 0.00000 -2.81278e-09
  134 4521.32 0.00000 4.34579e-09
  135 4521.32 0.00000 -6.65281e-10
  136 4521.32 0.00000 -8.23634e-09
  137 4521.32 0.00000 4.04203e-10
  138 4521.32 0.00000 -7.31637e-10
  139 4521.32 0.00000 9.27468e-10
  140 4521.32 0.00000 9.27051e-11
  141 4521.32 0.00000 4.66094e-10
  142 4521.32 0.00000 7.88023e-09
  143 4521.32 0.00000 -2.56200e-09
  144 4521.32 0.00000 2.07028e-09
  145 4521.32 0.00000 1.04368e-09
  146 4521.32 0.00000 -6.18773e-09
  147 4521.32 0.00000 1.67403e-09
  148 4521.32 0.00000 5.61351e-10
  149 4521.32 0.00000 6.54344e-10
  150 4521.32 0.00000 -4.10161e-10
  151 4521.32 0.00000 1.67679e-09
  152 4521.32 0.00000 -1.08402e-09
  153 4521.32 0.00000 -2.21315e-10
  154 4521.32 0.00000 -1.99879e-10
  155 4521.32 0.00000 1.11642e-09
  156 4521.32 0.00000 1.29138e-10
  157 4521.32 0.00000 -1.96899e-09
  158 4521.32 0.00000 7.39832e-10
  159 4521.32 0.00000 -1.13059e-10
  160 4521.32 0.00000 -1.11900e-10
  161 4521.32 0.00000 5.62610e-10
  162 4521.32 0.00000 -1.06153e-09
  163 4521.32 0.00000 6.97374e-10
  164 4521.32 0.00000 -1.46818e-09
  165 4521.32 0.00000 5.13609e-09
  166 4521.32 0.00000 -1.96189e-09
  167 4521.32 0.00000 1.09881e-10
  168 4521.32 0.00000 2.26113e-10
  169 4521.32 0.00000 2.20694e-09
  170 4521.32 0.00000 1.22367e-10
  171 4521.32 0.00000 4.54606e-09
  172 4521.32 0.00000 -4.62297e-10
  173 4521.32 0.00000 -7.94824e-09
  174 4521.32 0.00000 -3.07684e-10
  175 4521.32 0.00000 -3.19929e-09
  176 4521.32 0.00000 3.39856e-09
  177 4521.32 0.00000 1.40646e-11
  178 4521.32 0.00000 -3.49318e-10
  179 4521.32 0.00000 9.63382e-09
  180 4521.32 0.00000 9.41286e-10
  181 4521.32 0.00000 -5.61176e-10
  182 4521.32 0.00000 3.02183e-09
  183 4521.32 0.00000 -4.42629e-09
  184 4521.32 0.00000 -3.41437e-09
  185 4521.32 0.00000 5.38129e-09
  186 4521.32 0.00000 -1.55276e-09
  187 4521.32 0.00000 3.65734e-11
  188 4521.32 0.00000 -5.23097e-10
  189 4521.32 0.00000 2.05496e-09
  190 4521.32 0.00000 -5.66053e-09
  191 4521.32 0.00000 -1.71952e-09
  192 4521.32 0.00000 -1.75829e-09
  193 4521.32 0.00000 2.41148e-09
  194 4521.32 0.00000 6.81595e-11
  195 4521.32 0.00000 -3.52344e-09
  196 4521.32 0.00000 5.00316e-10
  197 4521.32 0.00000 3.13696e-09
  198 4521.32 0.00000 -2.26751e-09
  199 4521.32 0.00000 -1.77296e-09
  200 4521.32 0.00000 -4.73716e-10
  201 4521.32 0.00000 -4.01053e-11
  202 4521.32 0.00000 2.06011e-09
  203 4521.32 0.00000 3.43230e-09
  204 4521.32 0.00000 -7.23994e-10
  205 4521.32 0.00000 2.26459e-09
  206 4521.32 0.00000 -7.85855e-10
  207 4521.32 0.00000 -9.29344e-09
  208 4521.32 0.00000 1.71985e-09
  209 4521.32 0.00000 -4.33141e-10
  210 4521.32 0.00000 -6.40134e-09
  211 4521.32 0.00000 7.05213e-09
  212 4521.32 0.00000 -5.87478e-10
  213 4521.32 0.00000 -6.08005e-09
  214 4521.32 0.00000 -4.13841e-09
  215 4521.32 0.00000 -3.15680e-10
  216 4521.32 0.00000 -3.32240e-09
  217 4521.32 0.00000 -7.67868e-10
  218 4521.32 0.00000 -6.51941e-09
  219 4521.32 0.00000 -2.06936e-09
  220 4521.32 0.00000 -3.87223e-09
  221 4521.32 0.00000 -5.33067e-10
  222 4521.32 0.00000 -6.90432e-10
  223 4521.32 0.00000 6.81086e-09
  224 4521.32 0.00000 6.71215e-09
  225 4521.32 0.00000 -1.91559e-09
  226 4521.32 0.00000 3.44936e-09
  227 4521.32 0.00000 -9.85121e-10
  228 4521.32 0.00000 -8.68611e-10
  229 4521.32 0.00000 1.47294e-09
  230 4521.32 0.00000 5.90384e-10
  231 4521.32 0.00000 -8.16802e-10
  232 4521.32 0.00000 -2.83452e-09
  233 4521.32 0.00000 -2.83912e-10
  234 4521.32 0.00000 -2.75019e-09
  235 4521.32 0.00000 4.87799e-10
  236 4521.32 0.00000 5.93461e-09
  237 4521.32 0.00000 -4.60968e-10
  238 4521.32 0.00000 8.70139e-10
  239 4521.32 0.00000 -6.59716e-10
  240 4521.32 0.00000 2.71594e-09
  241 4521.32 0.00000 -3.12297e-09
</Section>

newXOutput 113

<Section columns = "stress_xx | stress_yy | stress_xy">
  1 4577.75 0.00000 -2.55787e-09
  2 4577.75 0.00000 4.47086e-10
  3 4577.75 0.00000 1.39183e-10
  4 4577.75 0.00000 2.81447e-09
  5 4577.75 0.00000 -5.72168e-09
  6 4577.75 0.00000 -9.62329e-09
  7 4577.75 0.00000 -1.24102e-08
  8 4577.75 0.00000 -1.33884e-08
  9 4577.75 0.00000 -1.20336e-08
  10 4577.75 0.00000 -1.01904e-08
  11 4577.75 0.00000 -7.84092e-09
  12 4577.75 0.00000 -4.85028e-09
  13 4577.75 0.00000 -1.63152e-09
  14 4577.75 0.00000 1.07551e-09
  15 4577.75 0.00000 3.14427e-09
  16 4577.75 0.00000 4.42292e-09
  17 4577.75 0.00000 4.38403e-09
  18 4577.75 0.00000 3.77264e-09
  19 4577.75 0.00000 2.43257e-09
  20 4577.75 0.00000 1.32130e-09
  21 4577.75 0.00000 1.12365e-09
  22 4577.75 0.00000 1.03146e-09
  23 4577.75 0.00000 7.37693e-10
  24 4577.75 0.00000 1.28790e-10
  25 4577.75 0.00000 -1.62541e-10
  26 4577.75 0.00000 -4.14346e-10
  27 4577.75 0.00000 -5.72885e-10
  28 4577.75 0.00000 -4.44049e-10
  29 4577.75 0.00000 -1.54533e-10
  30 4577.75 0.00000 -4.92682e-11
  31 4577.75 0.00000 2.54748e-10
  32 4577.75 0.00000 -8.40199e-12
  33 4577.75 0.00000 -7.68045e-10
  34 4577.75 0.00000 -2.17396e-09
  35 4577.75 0.00000 -2.92366e-09
  36 4577.75 0.00000 -3.63261e-09
  37 4577.75 0.00000 -3.93699e-09
  38 4577.75 0.00000 -4.01731e-09
  39 4577.75 0.00000 -3.25509e-09
  40 4577.75 0.00000 -1.40972e-09
  41 4577.75 0.00000 9.45735e-10
  42 4577.75 0.00000 4.33965e-09
  43 4577.75 0.00000 7.63230e-09
  44 4577.75 0.00000 1.07237e-08
  45 4577.75 0.00000 1.30095e-08
  46 4577.75 0.00000 1.28352e-08
  47 4577.75 0.00000 1.21748e-08
  48 4577.75 0.00000 9.94780e-09
  49 4577.75 0.00000 5.78219e-09
  50 4577.75 0.00000 1.90939e-09
  51 4577.75 0.00000 1.29809e-09
  52 4577.75 0.00000 8.44590e-10
  53 4577.75 0.00000 -2.01536e-10
  54 4577.75 0.00000 -1.19120e-09
  55 4577.75 0.00000 -1.46172e-09
  56 4577.75 0.00000 -1.80456e-09
  57 4577.75 0.00000 -2.84185e-10
  58 4577.75 0.00000 8.79128e-10
  59 4577.75 0.00000 3.56826e-10
  60 4577.75 0.00000 -1.79854e-09
  61 4577.75 0.00000 -2.65229e-09
  62 4577.75 0.00000 3.37810e-09
  63 4577.75 0.00000 1.01784e-09
  64 4577.75 0.00000 3.14083e-10
  65 4577.75 0.00000 5.24885e-09
  66 4577.75 0.00000 -4.22029e-09
  67 4577.75 0.00000 -3.49120e-10
  68 4577.75 0.00000 1.35977e-09
  69 4577.75 0.00000 -1.84146e-09
  70 4577.75 0.00000 -1.39271e-09
  71 4577.75 0.00000 -6.11804e-09
  72 4577.75 0.00000 -6.53022e-10
  73 4577.75 0.00000 1.73614e-09
  74 4577.75 0.00000 7.27035e-09
  75 4577.75 0.00000 1.77560e-09
  76 4577.75 0.00000 -7.12091e-10
  77 4577.75 0.00000 2.25068e-10
  78 4577.75 0.00000 -1.16013e-09
  79 4577.75 0.00000 6.44758e-10
  80 4577.75 0.00000 -2.11965e-10
  81 4577.75 0.00000 -2.52151e-10
  82 4577.75 0.00000 -3.21608e-09
  83 4577.75 0.00000 -4.02506e-10
  84 4577.75 0.00000 -9.27896e-09
  85 4577.75 0.00000 3.24869e-09
  86 4577.75 0.00000 3.30652e-10
  87 4577.75 0.00000 6.12865e-09
  88 4577.75 0.00000 -3.17120e-10
  89 4577.75 0.00000 -5.38855e-09
  90 4577.75 0.00000 -7.13472e-09
  91 4577.75 0.00000 6.80405e-09
  92 4577.75 0.00000 1.38580e-09
  93 4577.75 0.00000 3.18218e-10
  94 4577.75 0.00000 2.57163e-09
  95 4577.75 0.00000 5.23884e-09
  96 4577.75 0.00000 1.44268e-10
  97 4577.75 0.00000 9.47980e-10
  98 4577.75 0.00000 1.02014e-08
  99 4577.75 0.00000 1.41010e-09
  100 4577.75 0.00000 -4.28189e-09
  101 4577.75 0.00000 -3.09562e-09
  102 4577.75 0.00000 1.35850e-09
  103 4577.75 0.00000 1.23901e-10
  104 4577.75 0.00000 3.38335e-09
  105 4577.75 0.00000 -4.91536e-10
  106 4577.75 0.00000 6.76854e-10
  107 4577.75 0.00000 -4.53232e-10
  108 4577.75 0.00000 1.68779e-09
  109 4577.75 0.00000 -2.09999e-09
  110 4577.75 0.00000 -6.75937e-10
  111 4577.75 0.00000 -3.99449e-10
  112 4577.75 0.00000 3.80083e-11
  113 4577.75 0.00000 -3.25577e-09
  114 4577.75 0.00000 -3.45997e-09
  115 4577.75 0.00000 -3.85667e-10
  116 4577.75 0.00000 -1.07609e-08
  117 4577.75 0.00000 9.53762e-10
  118 4577.75 0.00000 4.96057e-09
  119 4577.75 0.00000 2.27659e-09
  120 4577.75 0.00000 -1.95065e-09
  121 4577.75 0.00000 -2.91232e-09
  122 4577.75 0.00000 -1.46333e-09
  123 4577.75 0.00000 -2.65432e-09
  124 4577.75 0.00000 -2.12887e-10
  125 4577.75 0.00000 2.29222e-09
  126 4577.75 0.00000 -1.02739e-08
  127 4577.75 0.00000 1.75170e-09
  128 4577.75 0.00000 1.69271e-09
  129 4577.75 0.00000 1.08416e-08
  130 4577.75 0.00000 -4.72512e-10
  131 4577.75 0.00000 -1.34365e-09
  132 4577.75 0.00000 1.92700e-09
  133 4577.75 0.00000 3.48712e-09
  134 4577.75 0.00000 -5.44047e-09
  135 4577.75 0.00000 8.77885e-10
  136 4577.75 0.00000 1.01800e-08
  137 4577.75 0.00000 -5.63779e-10
  138 4577.75 0.00000 9.12044e-10
  139 4577.75 0.00000 -1.14719e-09
  140 4577.75 0.00000 -1.20641e-10
  141 4577.75 0.00000 -6.01444e-10
  142 4577.75 0.00000 -9.86565e-09
  143 4577.75 0.00000 3.20301e-09
  144 4577.75 0.00000 -2.51721e-09
  145 4577.75 0.00000 -1.36771e-09
  146 4577.75 0.00000 7.77661e-09
  147 4577.75 0.00000 -1.96872e-09
  148 4577.75 0.00000 -6.89419e-10
  149 4577.75 0.00000 -7.78398e-10
  150 4577.75 0.00000 4.43525e-10
  151 4577.75 0.00000 -2.15872e-09
  152 4577.75 0.00000 1.31666e-09
  153 4577.75 0.00000 2.78214e-10
  154 4577.75 0.00000 2.35699e-10
  155 4577.75 0.00000 -1.35811e-09
  156 4577.75 0.00000 -1.36782e-10
  157 4577.75 0.00000 2.42708e-09
  158 4577.75 0.00000 -8.80418e-10
  159 4577.75 0.00000 1.69806e-10
  160 4577.75 0.00000 1.38952e-10
  161 4577.75 0.00000 -6.62236e-10
  162 4577.75 0.00000 1.32648e-09
  163 4577.75 0.00000 -8.39026e-10
  164 4577.75 0.00000 1.83718e-09
  165 4577.75 0.00000 -6.37033e-09
  166 4577.75 0.00000 2.41556e-09
  167 4577.75 0.00000 -1.11820e-10
  168 4577.75 0.00000 -2.84281e-10
  169 4577.75 0.00000 -2.71446e-09
  170 4577.75 0.00000 -2.17989e-10
  171 4577.75 0.00000 -5.75947e-09
  172 4577.75 0.00000 4.44325e-10
  173 4577.75 0.00000 9.93174e-09
  174 4577.75 0.00000 3.88357e-10
  175 4577.75 0.00000 3.94085e-09
  176 4577.75 0.00000 -4.17930e-09
  177 4577.75 0.00000 -4.79228e-11
  178 4577.75 0.00000 4.59760e-10
  179 4577.75 0.00000 -1.19365e-08
  180 4577.75 0.00000 -1.16142e-09
  181 4577.75 0.00000 6.78303e-10
  182 4577.75 0.00000 -3.71257e-09
  183 4577.75 0.00000 5.55736e-09
  184 4577.75 0.00000 4.19650e-09
  185 4577.75 0.00000 -6.65479e-09
  186 4577.75 0.00000 1.82266e-09
  187 4577.75 0.00000 -1.09328e-10
  188 4577.75 0.00000 6.18489e-10
  189 4577.75 0.00000 -2.57329e-09
  190 4577.75 0.00000 7.06934e-09
  191 4577.75 0.00000 2.16340e-09
  192 4577.75 0.00000 2.19151e-09
  193 4577.75 0.00000 -3.01700e-09
  194 4577.75 0.00000 -5.38619e-11
  195 4577.75 0.00000 4.34397e-09
  196 4577.75 0.00000 -6.26425e-10
  197 4577.75 0.00000 -3.86410e-09
  198 4577.75 0.00000 2.84958e-09
  199 4577.75 0.00000 2.20355e-09
  200 4577.75 0.00000 5.50909e-10
  201 4577.75 0.00000 1.27687e-10
  202 4577.75 0.00000 -2.51522e-09
  203 4577.75 0.00000 -4.34068e-09
  204 4577.75 0.00000 8.06907e-10
  205 4577.75 0.00000 -2.80461e-09
  206 4577.75 0.00000 1.05429e-09
  207 4577.75 0.00000 1.15208e-08
  208 4577.75 0.00000 -2.19641e-09
  209 4577.75 0.00000 5.79447e-10
  210 4577.75 0.00000 7.90967e-09
  211 4577.75 0.00000 -8.69620e-09
  212 4577.75 0.00000 7.48310e-10
  213 4577.75 0.00000 7.50303e-09
  214 4577.75 0.00000 5.25221e-09
  215 4577.75 0.00000 3.33397e-10
  216 4577.75 0.00000 4.18087e-09
  217 4577.75 0.00000 9.93241e-10
  218 4577.75 0.00000 8.07714e-09
  219 4577.75 0.00000 2.52905e-09
  220 4577.75 0.00000 4.85240e-09
  221 4577.75 0.00000 6.31923e-10
  222 4577.75 0.00000 8.36396e-10
  223 4577.75 0.00000 -8.56629e-09
  224 4577.75 0.00000 -8.38789e-09
  225 4577.75 0.00000 2.40264e-09
  226 4577.75 0.00000 -4.26014e-09
  227 4577.75 0.00000 1.16129e-09
  228 4577.75 0.00000 1.11226e-09
  229 4577.75 0.00000 -1.81582e-09
  230 4577.75 0.00000 -7.16759e-10
  231 4577.75 0.00000 1.03090e-09
  232 4577.75 0.00000 3.51114e-09
  233 4577.75 0.00000 3.65856e-10
  234 4577.75 0.00000 3.49542e-09
  235 4577.75 0.00000 -4.79138e-10
  236 4577.75 0.00000 -7.32214e-09
  237 4577.75 0.00000 4.56270e-10
  238 4577.75 0.00000 -1.12550e-09
  239 4577.75 0.00000 8.36124e-10
  240 4577.75 0.00000 -3.50350e-09
  241 4577.75 0.00000 3.81514e-09
</Section>

newXOutput 114

<Section columns = "stress_xx | stress_yy | stress_xy">
  1 4634.39 0.00000 3.14675e-09
  2 4634.39 0.00000 -5.49632e-10
  3 4634.39 0.00000 -1.41810e-10
  4 4634.39 0.00000 -3.46467e-09
  5 4634.39 0.00000 7.06694e-09
  6 4634.39 0.00000 1.19133e-08
  7 4634.39 0.00000 1.53829e-08
  8 4634.39 0.00000 1.66640e-08
  9 4634.39 0.00000 1.50551e-08
  10 4634.39 0.00000 1.28143e-08
  11 4634.39 0.00000 9.91968e-09
  12 4634.39 0.00000 6.22088e-09
  13 4634.39 0.00000 2.20744e-09
  14 4634.39 0.00000 -1.18599e-09
  15 4634.39 0.00000 -3.80230e-09
  16 4634.39 0.00000 -5.42619e-09
  17 4634.39 0.00000 -5.41816e-09
  18 4634.39 0.00000 -4.70514e-09
  19 4634.39 0.00000 -3.11789e-09
  20 4634.39 0.00000 -1.76232e-09
  21 4634.39 0.00000 -1.48839e-09
  22 4634.39 0.00000 -1.32593e-09
  23 4634.39 0.00000 -9.24499e-10
  24 4634.39 0.00000 -1.69086e-10
  25 4634.39 0.00000 1.77809e-10
  26 4634.39 0.00000 4.81547e-10
  27 4634.39 0.00000 6.80422e-10
  28 4634.39 0.00000 5.35022e-10
  29 4634.39 0.00000 1.93176e-10
  30 4634.39 0.00000 7.25925e-11
  31 4634.39 0.00000 -2.45192e-10
  32 4634.39 0.00000 1.00917e-10
  33 4634.39 0.00000 1.04736e-09
  34 4634.39 0.00000 2.78599e-09
  35 4634.39 0.00000 3.69169e-09
  36 4634.39 0.00000 4.55251e-09
  37 4634.39 0.00000 4.89033e-09
  38 4634.39 0.00000 4.91782e-09
  39 4634.39 0.00000 3.91417e-09
  40 4634.39 0.00000 1.59402e-09
  41 4634.39 0.00000 -1.35675e-09
  42 4634.39 0.00000 -5.57993e-09
  43 4634.39 0.00000 -9.65109e-09
  44 4634.39 0.00000 -1.34579e-08
  45 4634.39 0.00000 -1.62501e-08
  46 4634.39 0.00000 -1.59822e-08
  47 4634.39 0.00000 -1.51112e-08
  48 4634.39 0.00000 -1.23186e-08
  49 4634.39 0.00000 -7.15036e-09
  50 4634.39 0.00000 -2.35309e-09
  51 4634.39 0.00000 -1.60251e-09
  52 4634.39 0.00000 -1.04373e-09
  53 4634.39 0.00000 2.47265e-10
  54 4634.39 0.00000 1.47018e-09
  55 4634.39 0.00000 1.80317e-09
  56 4634.39 0.00000 2.22273e-09
  57 4634.39 0.00000 3.38427e-10
  58 4634.39 0.00000 -1.03461e-09
  59 4634.39 0.00000 -4.33147e-10
  60 4634.39 0.00000 2.18811e-09
  61 4634.39 0.00000 3.35917e-09
  62 4634.39 0.00000 -4.25060e-09
  63 4634.39 0.00000 -1.29521e-09
  64 4634.39 0.00000 -4.31913e-10
  65 4634.39 0.00000 -6.50962e-09
  66 4634.39 0.00000 5.22393e-09
  67 4634.39 0.00000 4.71337e-10
  68 4634.39 0.00000 -1.65108e-09
  69 4634.39 0.00000 2.31172e-09
  70 4634.39 0.00000 1.64482e-09
  71 4634.39 0.00000 7.63504e-09
  72 4634.39 0.00000 9.34764e-10
  73 4634.39 0.00000 -2.17454e-09
  74 4634.39 0.00000 -9.05860e-09
  75 4634.39 0.00000 -2.30276e-09
  76 4634.39 0.00000 8.47664e-10
  77 4634.39 0.00000 -2.72780e-10
  78 4634.39 0.00000 1.51812e-09
  79 4634.39 0.00000 -7.82719e-10
  80 4634.39 0.00000 2.58798e-10
  81 4634.39 0.00000 2.88250e-10
  82 4634.39 0.00000 3.95086e-09
  83 4634.39 0.00000 4.95763e-10
  84 4634.39 0.00000 1.15168e-08
  85 4634.39 0.00000 -4.00535e-09
  86 4634.39 0.00000 -4.46354e-10
  87 4634.39 0.00000 -7.57746e-09
  88 4634.39 0.00000 4.39397e-10
  89 4634.39 0.00000 6.65321e-09
  90 4634.39 0.00000 8.98635e-09
  91 4634.39 0.00000 -8.54900e-09
  92 4634.39 0.00000 -1.72148e-09
  93 4634.39 0.00000 -3.96337e-10
  94 4634.39 0.00000 -3.22293e-09
  95 4634.39 0.00000 -6.62408e-09
  96 4634.39 0.00000 -2.08475e-10
  97 4634.39 0.00000 -1.26036e-09
  98 4634.39 0.00000 -1.26683e-08
  99 4634.39 0.00000 -1.62802e-09
  100 4634.39 0.00000 5.31311e-09
  101 4634.39 0.00000 3.98752e-09
  102 4634.39 0.00000 -1.68437e-09
  103 4634.39 0.00000 -8.43702e-11
  104 4634.39 0.00000 -4.25696e-09
  105 4634.39 0.00000 4.78073e-10
  106 4634.39 0.00000 -7.82433e-10
  107 4634.39 0.00000 5.25602e-10
  108 4634.39 0.00000 -2.08030e-09
  109 4634.39 0.00000 2.58970e-09
  110 4634.39 0.00000 8.17859e-10
  111 4634.39 0.00000 5.71068e-10
  112 4634.39 0.00000 -9.33642e-11
  113 4634.39 0.00000 3.95692e-09
  114 4634.39 0.00000 4.29071e-09
  115 4634.39 0.00000 5.48893e-10
  116 4634.39 0.00000 1.33313e-08
  117 4634.39 0.00000 -1.20043e-09
  118 4634.39 0.00000 -6.16759e-09
  119 4634.39 0.00000 -2.74867e-09
  120 4634.39 0.00000 2.49143e-09
  121 4634.39 0.00000 3.62366e-09
  122 4634.39 0.00000 1.77483e-09
  123 4634.39 0.00000 3.26069e-09
  124 4634.39 0.00000 3.02026e-10
  125 4634.39 0.00000 -2.89247e-09
  126 4634.39 0.00000 1.28113e-08
  127 4634.39 0.00000 -2.16754e-09
  128 4634.39 0.00000 -2.18454e-09
  129 4634.39 0.00000 -1.35102e-08
  130 4634.39 0.00000 5.57661e-10
  131 4634.39 0.00000 1.82825e-09
  132 4634.39 0.00000 -2.54932e-09
  133 4634.39 0.00000 -4.33354e-09
  134 4634.39 0.00000 6.82560e-09
  135 4634.39 0.00000 -1.15583e-09
  136 4634.39 0.00000 -1.26148e-08
  137 4634.39 0.00000 7.78690e-10
  138 4634.39 0.00000 -1.14206e-09
  139 4634.39 0.00000 1.42156e-09
  140 4634.39 0.00000 1.60558e-10
  141 4634.39 0.00000 7.73672e-10
  142 4634.39 0.00000 1.23788e-08
  143 4634.39 0.00000 -4.01306e-09
  144 4634.39 0.00000 3.06880e-09
  145 4634.39 0.00000 1.78782e-09
  146 4634.39 0.00000 -9.79567e-09
  147 4634.39 0.00000 2.31295e-09
  148 4634.39 0.00000 8.50154e-10
  149 4634.39 0.00000 9.28737e-10
  150 4634.39 0.00000 -4.72820e-10
  151 4634.39 0.00000 2.77991e-09
  152 4634.39 0.00000 -1.60664e-09
  153 4634.39 0.00000 -3.47546e-10
  154 4634.39 0.00000 -2.79575e-10
  155 4634.39 0.00000 1.65968e-09
  156 4634.39 0.00000 1.38091e-10
  157 4634.39 0.00000 -2.99888e-09
  158 4634.39 0.00000 1.04958e-09
  159 4634.39 0.00000 -2.47519e-10
  160 4634.39 0.00000 -1.73718e-10
  161 4634.39 0.00000 7.82187e-10
  162 4634.39 0.00000 -1.66094e-09
  163 4634.39 0.00000 1.00864e-09
  164 4634.39 0.00000 -2.30555e-09
  165 4634.39 0.00000 7.91869e-09
  166 4634.39 0.00000 -2.98162e-09
  167 4634.39 0.00000 1.12493e-10
  168 4634.39 0.00000 3.60372e-10
  169 4634.39 0.00000 3.34849e-09
  170 4634.39 0.00000 3.50551e-10
  171 4634.39 0.00000 7.31361e-09
  172 4634.39 0.00000 -3.90410e-10
  173 4634.39 0.00000 -1.24390e-08
  174 4634.39 0.00000 -4.93129e-10
  175 4634.39 0.00000 -4.86703e-09
  176 4634.39 0.00000 5.15310e-09
  177 4634.39 0.00000 9.55024e-11
  178 4634.39 0.00000 -6.03657e-10
  179 4634.39 0.00000 1.48264e-08
  180 4634.39 0.00000 1.43633e-09
  181 4634.39 0.00000 -8.25383e-10
  182 4634.39 0.00000 4.56969e-09
  183 4634.39 0.00000 -6.99508e-09
  184 4634.39 0.00000 -5.16797e-09
  185 4634.39 0.00000 8.25058e-09
  186 4634.39 0.00000 -2.13371e-09
  187 4634.39 0.00000 2.14581e-10
  188 4634.39 0.00000 -7.35641e-10
  189 4634.39 0.00000 3.22860e-09
  190 4634.39 0.00000 -8.84931e-09
  191 4634.39 0.00000 -2.72650e-09
  192 4634.39 0.00000 -2.73491e-09
  193 4634.39 0.00000 3.78099e-09
  194 4634.39 0.00000 2.77953e-11
  195 4634.39 0.00000 -5.36829e-09
  196 4634.39 0.00000 7.87780e-10
  197 4634.39 0.00000 4.77278e-09
  198 4634.39 0.00000 -3.58735e-09
  199 4634.39 0.00000 -2.74533e-09
  200 4634.39 0.00000 -6.39816e-10
  201 4634.39 0.00000 -2.58265e-10
  202 4634.39 0.00000 3.07876e-09
  203 4634.39 0.00000 5.50091e-09
  204 4634.39 0.00000 -8.89244e-10
  205 4634.39 0.00000 3.48455e-09
  206 4634.39 0.00000 -1.40712e-09
  207 4634.39 0.00000 -1.43167e-08
  208 4634.39 0.00000 2.80333e-09
  209 4634.39 0.00000 -7.74990e-10
  210 4634.39 0.00000 -9.79955e-09
  211 4634.39 0.00000 1.07516e-08
  212 4634.39 0.00000 -9.57253e-10
  213 4634.39 0.00000 -9.28332e-09
  214 4634.39 0.00000 -6.67980e-09
  215 4634.39 0.00000 -3.40378e-10
  216 4634.39 0.00000 -5.27503e-09
  217 4634.39 0.00000 -1.28802e-09
  218 4634.39 0.00000 -1.00324e-08
  219 4634.39 0.00000 -3.09868e-09
  220 4634.39 0.00000 -6.09658e-09
  221 4634.39 0.00000 -7.49158e-10
  222 4634.39 0.00000 -1.01707e-09
  223 4634.39 0.00000 1.07965e-08
  224 4634.39 0.00000 1.05049e-08
  225 4634.39 0.00000 -3.02173e-09
  226 4634.39 0.00000 5.27672e-09
  227 4634.39 0.00000 -1.36679e-09
  228 4634.39 0.00000 -1.42926e-09
  229 4634.39 0.00000 2.24551e-09
  230 4634.39 0.00000 8.75027e-10
  231 4634.39 0.00000 -1.30223e-09
  232 4634.39 0.00000 -4.35710e-09
  233 4634.39 0.00000 -4.76117e-10
  234 4634.39 0.00000 -4.45297e-09
  235 4634.39 0.00000 4.36479e-10
  236 4634.39 0.00000 9.05868e-09
  237 4634.39 0.00000 -4.21710e-10
  238 4634.39 0.00000 1.45411e-09
  239 4634.39 0.00000 -1.06033e-09
  240 4634.39 0.00000 4.52683e-09
  241 4634.39 0.00000 -4.66963e-09
</Section>

newXOutput 115

<Section columns = "stress_xx | stress_yy | stress_xy">
  1 4691.26 0.00000 -3.88375e-09
  2 4691.26 0.00000 6.76190e-10
  3 4691.26 0.00000 1.33999e-10
  4 4691.26 0.00000 4.27654e-09
  5 4691.26 0.00000 -8.75369e-09
  6 4691.26 0.00000 -1.47869e-08
  7 4691.26 0.00000 -1.91151e-08
  8 4691.26 0.00000 -2.07891e-08
  9 4691.26 0.00000 -1.88803e-08
  10 4691.26 0.00000 -1.61519e-08
  11 4691.26 0.00000 -1.25799e-08
  12 4691.26 0.00000 -7.99194e-09
  13 4691.26 0.00000 -2.97610e-09
  14 4691.26 0.00000 1.28230e-09
  15 4691.26 0.00000 4.60057e-09
  16 4691.26 0.00000 6.67306e-09
  17 4691.26 0.00000 6.70791e-09
  18 4691.26 0.00000 5.88505e-09
  19 4691.26 0.00000 4.00112e-09
  20 4691.26 0.00000 2.33823e-09
  21 4691.26 0.00000 1.96292e-09
  22 4691.26 0.00000 1.71063e-09
  23 4691.26 0.00000 1.16332e-09
  24 4691.26 0.00000 2.19607e-10
  25 4691.26 0.00000 -1.92070e-10
  26 4691.26 0.00000 -5.58886e-10
  27 4691.26 0.00000 -8.07709e-10
  28 4691.26 0.00000 -6.45893e-10
  29 4691.26 0.00000 -2.42747e-10
  30 4691.26 0.00000 -1.06547e-10
  31 4691.26 0.00000 2.14388e-10
  32 4691.26 0.00000 -2.38650e-10
  33 4691.26 0.00000 -1.41688e-09
  34 4691.26 0.00000 -3.56951e-09
  35 4691.26 0.00000 -4.67014e-09
  36 4691.26 0.00000 -5.71522e-09
  37 4691.26 0.00000 -6.08408e-09
  38 4691.26 0.00000 -6.02849e-09
  39 4691.26 0.00000 -4.70597e-09
  40 4691.26 0.00000 -1.78137e-09
  41 4691.26 0.00000 1.91950e-09
  42 4691.26 0.00000 7.18901e-09
  43 4691.26 0.00000 1.22358e-08
  44 4691.26 0.00000 1.69283e-08
  45 4691.26 0.00000 2.03461e-08
  46 4691.26 0.00000 1.99491e-08
  47 4691.26 0.00000 1.88039e-08
  48 4691.26 0.00000 1.52942e-08
  49 4691.26 0.00000 8.86405e-09
  50 4691.26 0.00000 2.90823e-09
  51 4691.26 0.00000 1.98369e-09
  52 4691.26 0.00000 1.29283e-09
  53 4691.26 0.00000 -3.03599e-10
  54 4691.26 0.00000 -1.81829e-09
  55 4691.26 0.00000 -2.23071e-09
  56 4691.26 0.00000 -2.74579e-09
  57 4691.26 0.00000 -4.04634e-10
  58 4691.26 0.00000 1.21858e-09
  59 4691.26 0.00000 5.25308e-10
  60 4691.26 0.00000 -2.66901e-09
  61 4691.26 0.00000 -4.26269e-09
  62 4691.26 0.00000 5.36431e-09
  63 4691.26 0.00000 1.64866e-09
  64 4691.26 0.00000 5.86828e-10
  65 4691.26 0.00000 8.09354e-09
  66 4691.26 0.00000 -6.48241e-09
  67 4691.26 0.00000 -6.32687e-10
  68 4691.26 0.00000 2.00572e-09
  69 4691.26 0.00000 -2.90640e-09
  70 4691.26 0.00000 -1.94001e-09
  71 4691.26 0.00000 -9.55248e-09
  72 4691.26 0.00000 -1.31902e-09
  73 4691.26 0.00000 2.72867e-09
  74 4691.26 0.00000 1.13142e-08
  75 4691.26 0.00000 2.99018e-09
  76 4691.26 0.00000 -1.00761e-09
  77 4691.26 0.00000 3.30848e-10
  78 4691.26 0.00000 -1.98849e-09
  79 4691.26 0.00000 9.50276e-10
  80 4691.26 0.00000 -3.17052e-10
  81 4691.26 0.00000 -3.32949e-10
  82 4691.26 0.00000 -4.86304e-09
  83 4691.26 0.00000 -6.12346e-10
  84 4691.26 0.00000 -1.43311e-08
  85 4691.26 0.00000 4.94291e-09
  86 4691.26 0.00000 6.02021e-10
  87 4691.26 0.00000 9.39282e-09
  88 4691.26 0.00000 -6.07286e-10
  89 4691.26 0.00000 -8.23709e-09
  90 4691.26 0.00000 -1.13437e-08
  91 4691.26 0.00000 1.07672e-08
  92 4691.26 0.00000 2.14268e-09
  93 4691.26 0.00000 4.92519e-10
  94 4691.26 0.00000 4.04354e-09
  95 4691.26 0.00000 8.39417e-09
  96 4691.26 0.00000 2.94921e-10
  97 4691.26 0.00000 1.66959e-09
  98 4691.26 0.00000 1.57702e-08
  99 4691.26 0.00000 1.87180e-09
  100 4691.26 0.00000 -6.60828e-09
  101 4691.26 0.00000 -5.14485e-09
  102 4691.26 0.00000 2.09131e-09
  103 4691.26 0.00000 2.50325e-11
  104 4691.26 0.00000 5.36714e-09
  105 4691.26 0.00000 -4.29131e-10
  106 4691.26 0.00000 9.02390e-10
  107 4691.26 0.00000 -6.05916e-10
  108 4691.26 0.00000 2.57153e-09
  109 4691.26 0.00000 -3.20215e-09
  110 4691.26 0.00000 -9.93852e-10
  111 4691.26 0.00000 -8.04469e-10
  112 4691.26 0.00000 1.76416e-10
  113 4691.26 0.00000 -4.81849e-09
  114 4691.26 0.00000 -5.33072e-09
  115 4691.26 0.00000 -7.70737e-10
  116 4691.26 0.00000 -1.65598e-08
  117 4691.26 0.00000 1.51433e-09
  118 4691.26 0.00000 7.68686e-09
  119 4691.26 0.00000 3.31960e-09
  120 4691.26 0.00000 -3.18718e-09
  121 4691.26 0.00000 -4.51997e-09
  122 4691.26 0.00000 -2.15667e-09
  123 4691.26 0.00000 -4.01628e-09
  124 4691.26 0.00000 -4.20208e-10
  125 4691.26 0.00000 3.66209e-09
  126 4691.26 0.00000 -1.60137e-08
  127 4691.26 0.00000 2.68760e-09
  128 4691.26 0.00000 2.82227e-09
  129 4691.26 0.00000 1.68766e-08
  130 4691.26 0.00000 -6.58731e-10
  131 4691.26 0.00000 -2.47640e-09
  132 4691.26 0.00000 3.36908e-09
  133 4691.26 0.00000 5.39351e-09
  134 4691.26 0.00000 -8.58233e-09
  135 4691.26 0.00000 1.52276e-09
  136 4691.26 0.00000 1.56717e-08
  137 4691.26 0.00000 -1.06034e-09
  138 4691.26 0.00000 1.43408e-09
  139 4691.26 0.00000 -1.76720e-09
  140 4691.26 0.00000 -2.11777e-10
  141 4691.26 0.00000 -9.97183e-10
  142 4691.26 0.00000 -1.55682e-08
  143 4691.26 0.00000 5.03799e-09
  144 4691.26 0.00000 -3.74476e-09
  145 4691.26 0.00000 -2.33461e-09
  146 4691.26 0.00000 1.23684e-08
  147 4691.26 0.00000 -2.71099e-09
  148 4691.26 0.00000 -1.05058e-09
  149 4691.26 0.00000 -1.10835e-09
  150 4691.26 0.00000 4.92058e-10
  151 4691.26 0.00000 -3.58604e-09
  152 4691.26 0.00000 1.96585e-09
  153 4691.26 0.00000 4.36459e-10
  154 4691.26 0.00000 3.32180e-10
  155 4691.26 0.00000 -2.03422e-09
  156 4691.26 0.00000 -1.34610e-10
  157 4691.26 0.00000 3.71430e-09
  158 4691.26 0.00000 -1.25473e-09
  159 4691.26 0.00000 3.51652e-10
  160 4691.26 0.00000 2.17163e-10
  161 4691.26 0.00000 -9.23830e-10
  162 4691.26 0.00000 2.08456e-09
  163 4691.26 0.00000 -1.21441e-09
  164 4691.26 0.00000 2.89401e-09
  165 4691.26 0.00000 -9.86933e-09
  166 4691.26 0.00000 3.69045e-09
  167 4691.26 0.00000 -1.07278e-10
  168 4691.26 0.00000 -4.61662e-10
  169 4691.26 0.00000 -4.14204e-09
  170 4691.26 0.00000 -5.33639e-10
  171 4691.26 0.00000 -9.30769e-09
  172 4691.26 0.00000 2.81754e-10
  173 4691.26 0.00000 1.56152e-08
  174 4691.26 0.00000 6.25179e-10
  175 4691.26 0.00000 6.02645e-09
  176 4691.26 0.00000 -6.37262e-09
  177 4691.26 0.00000 -1.67903e-10
  178 4691.26 0.00000 7.91134e-10
  179 4691.26 0.00000 -1.84604e-08
  180 4691.26 0.00000 -1.78178e-09
  181 4691.26 0.00000 1.00434e-09
  182 4691.26 0.00000 -5.63467e-09
  183 4691.26 0.00000 8.82604e-09
  184 4691.26 0.00000 6.37497e-09
  185 4691.26 0.00000 -1.02549e-08
  186 4691.26 0.00000 2.48882e-09
  187 4691.26 0.00000 -3.65613e-10
  188 4691.26 0.00000 8.73781e-10
  189 4691.26 0.00000 -4.05876e-09
  190 4691.26 0.00000 1.11024e-08
  191 4691.26 0.00000 3.44530e-09
  192 4691.26 0.00000 3.41836e-09
  193 4691.26 0.00000 -4.74721e-09
  194 4691.26 0.00000 1.49199e-11
  195 4691.26 0.00000 6.65210e-09
  196 4691.26 0.00000 -9.99866e-10
  197 4691.26 0.00000 -5.91123e-09
  198 4691.26 0.00000 4.52557e-09
  199 4691.26 0.00000 3.42796e-09
  200 4691.26 0.00000 7.37222e-10
  201 4691.26 0.00000 4.48579e-10
  202 4691.26 0.00000 -3.77477e-09
  203 4691.26 0.00000 -6.98702e-09
  204 4691.26 0.00000 9.65183e-10
  205 4691.26 0.00000 -4.34024e-09
  206 4691.26 0.00000 1.87281e-09
  207 4691.26 0.00000 1.78362e-08
  208 4691.26 0.00000 -3.58413e-09
  209 4691.26 0.00000 1.03309e-09
  210 4691.26 0.00000 1.21715e-08
  211 4691.26 0.00000 -1.33293e-08
  212 4691.26 0.00000 1.22802e-09
  213 4691.26 0.00000 1.15150e-08
  214 4691.26 0.00000 8.51414e-09
  215 4691.26 0.00000 3.36804e-10
  216 4691.26 0.00000 6.67282e-09
  217 4691.26 0.00000 1.67097e-09
  218 4691.26 0.00000 1.24924e-08
  219 4691.26 0.00000 3.79956e-09
  220 4691.26 0.00000 7.67703e-09
  221 4691.26 0.00000 8.89803e-10
  222 4691.26 0.00000 1.24409e-09
  223 4691.26 0.00000 -1.36395e-08
  224 4691.26 0.00000 -1.31879e-08
  225 4691.26 0.00000 3.80672e-09
  226 4691.26 0.00000 -6.55190e-09
  227 4691.26 0.00000 1.60592e-09
  228 4691.26 0.00000 1.84411e-09
  229 4691.26 0.00000 -2.78367e-09
  230 4691.26 0.00000 -1.07046e-09
  231 4691.26 0.00000 1.64754e-09
  232 4691.26 0.00000 5.41996e-09
  233 4691.26 0.00000 6.20151e-10
  234 4691.26 0.00000 5.68527e-09
  235 4691.26 0.00000 -3.41988e-10
  236 4691.26 0.00000 -1.12370e-08
  237 4691.26 0.00000 3.43012e-10
  238 4691.26 0.00000 -1.88058e-09
  239 4691.26 0.00000 1.34661e-09
  240 4691.26 0.00000 -5.85495e-09
  241 4691.26 0.00000 5.72360e-09
</Section>

newXOutput 116

<Section columns = "stress_xx | stress_yy | stress_xy">
  1 4748.35 0.00000 4.80686e-09
  2 4748.35 0.00000 -8.36548e-10
  3 4748.35 0.00000 -1.13757e-10
  4 4748.35 0.00000 -5.29462e-09
  5 4748.35 0.00000 1.08719e-08
  6 4748.35 0.00000 1.84026e-08
  7 4748.35 0.00000 2.38164e-08
  8 4748.35 0.00000 2.60019e-08
  9 4748.35 0.00000 2.37305e-08
  10 4748.35 0.00000 2.04043e-08
  11 4748.35 0.00000 1.59871e-08
  12 4748.35 0.00000 1.02846e-08
  13 4748.35 0.00000 4.00133e-09
  14 4748.35 0.00000 -1.35559e-09
  15 4748.35 0.00000 -5.56796e-09
  16 4748.35 0.00000 -8.21336e-09
  17 4748.35 0.00000 -8.31820e-09
  18 4748.35 0.00000 -7.37348e-09
  19 4748.35 0.00000 -5.13821e-09
  20 4748.35 0.00000 -3.09987e-09
  21 4748.35 0.00000 -2.59536e-09
  22 4748.35 0.00000 -2.20727e-09
  23 4748.35 0.00000 -1.46944e-09
  24 4748.35 0.00000 -2.85159e-10
  25 4748.35 0.00000 2.06549e-10
  26 4748.35 0.00000 6.46882e-10
  27 4748.35 0.00000 9.56399e-10
  28 4748.35 0.00000 7.82596e-10
  29 4748.35 0.00000 3.08844e-10
  30 4748.35 0.00000 1.55763e-10
  31 4748.35 0.00000 -1.54717e-10
  32 4748.35 0.00000 4.40379e-10
  33 4748.35 0.00000 1.90737e-09
  34 4748.35 0.00000 4.58189e-09
  35 4748.35 0.00000 5.92075e-09
  36 4748.35 0.00000 7.19110e-09
  37 4748.35 0.00000 7.58200e-09
  38 4748.35 0.00000 7.40434e-09
  39 4748.35 0.00000 5.66541e-09
  40 4748.35 0.00000 1.96906e-09
  41 4748.35 0.00000 -2.68839e-09
  42 4748.35 0.00000 -9.27723e-09
  43 4748.35 0.00000 -1.55487e-08
  44 4748.35 0.00000 -2.13459e-08
  45 4748.35 0.00000 -2.55349e-08
  46 4748.35 0.00000 -2.49618e-08
  47 4748.35 0.00000 -2.34601e-08
  48 4748.35 0.00000 -1.90392e-08
  49 4748.35 0.00000 -1.10195e-08
  50 4748.35 0.00000 -3.60470e-09
  51 4748.35 0.00000 -2.46244e-09
  52 4748.35 0.00000 -1.60570e-09
  53 4748.35 0.00000 3.74827e-10
  54 4748.35 0.00000 2.25542e-09
  55 4748.35 0.00000 2.76817e-09
  56 4748.35 0.00000 3.40240e-09
  57 4748.35 0.00000 4.85351e-10
  58 4748.35 0.00000 -1.44077e-09
  59 4748.35 0.00000 -6.38283e-10
  60 4748.35 0.00000 3.26293e-09
  61 4748.35 0.00000 5.42207e-09
  62 4748.35 0.00000 -6.78449e-09
  63 4748.35 0.00000 -2.10067e-09
  64 4748.35 0.00000 -7.94539e-10
  65 4748.35 0.00000 -1.00884e-08
  66 4748.35 0.00000 8.06560e-09
  67 4748.35 0.00000 8.44179e-10
  68 4748.35 0.00000 -2.43563e-09
  69 4748.35 0.00000 3.66248e-09
  70 4748.35 0.00000 2.28354e-09
  71 4748.35 0.00000 1.19796e-08
  72 4748.35 0.00000 1.84197e-09
  73 4748.35 0.00000 -3.43016e-09
  74 4748.35 0.00000 -1.41651e-08
  75 4748.35 0.00000 -3.88777e-09
  76 4748.35 0.00000 1.20259e-09
  77 4748.35 0.00000 -4.02721e-10
  78 4748.35 0.00000 2.60160e-09
  79 4748.35 0.00000 -1.15867e-09
  80 4748.35 0.00000 3.87258e-10
  81 4748.35 0.00000 3.85548e-10
  82 4748.35 0.00000 5.99501e-09
  83 4748.35 0.00000 7.56898e-10
  84 4748.35 0.00000 1.78780e-08
  85 4748.35 0.00000 -6.11365e-09
  86 4748.35 0.00000 -8.12445e-10
  87 4748.35 0.00000 -1.16753e-08
  88 4748.35 0.00000 8.27246e-10
  89 4748.35 0.00000 1.02274e-08
  90 4748.35 0.00000 1.43502e-08
  91 4748.35 0.00000 -1.35923e-08
  92 4748.35 0.00000 -2.67295e-09
  93 4748.35 0.00000 -6.12307e-10
  94 4748.35 0.00000 -5.08197e-09
  95 4748.35 0.00000 -1.06650e-08
  96 4748.35 0.00000 -4.06735e-10
  97 4748.35 0.00000 -2.21007e-09
  98 4748.35 0.00000 -1.96805e-08
  99 4748.35 0.00000 -2.13838e-09
  100 4748.35 0.00000 8.24103e-09
  101 4748.35 0.00000 6.64799e-09
  102 4748.35 0.00000 -2.60654e-09
  103 4748.35 0.00000 6.63953e-11
  104 4748.35 0.00000 -6.78037e-09
  105 4748.35 0.00000 3.20596e-10
  106 4748.35 0.00000 -1.03456e-09
  107 4748.35 0.00000 6.99508e-10
  108 4748.35 0.00000 -3.18682e-09
  109 4748.35 0.00000 3.97025e-09
  110 4748.35 0.00000 1.21246e-09
  111 4748.35 0.00000 1.11741e-09
  112 4748.35 0.00000 -2.95975e-10
  113 4748.35 0.00000 5.87328e-09
  114 4748.35 0.00000 6.63884e-09
  115 4748.35 0.00000 1.07334e-09
  116 4748.35 0.00000 2.06213e-08
  117 4748.35 0.00000 -1.91225e-09
  118 4748.35 0.00000 -9.60584e-09
  119 4748.35 0.00000 -4.00748e-09
  120 4748.35 0.00000 4.08224e-09
  121 4748.35 0.00000 5.65277e-09
  122 4748.35 0.00000 2.62481e-09
  123 4748.35 0.00000 4.95772e-09
  124 4748.35 0.00000 5.74713e-10
  125 4748.35 0.00000 -4.64882e-09
  126 4748.35 0.00000 2.00651e-08
  127 4748.35 0.00000 -3.33389e-09
  128 4748.35 0.00000 -3.64338e-09
  129 4748.35 0.00000 -2.11315e-08
  130 4748.35 0.00000 7.74509e-10
  131 4748.35 0.00000 3.34434e-09
  132 4748.35 0.00000 -4.45575e-09
  133 4748.35 0.00000 -6.72697e-09
  134 4748.35 0.00000 1.08159e-08
  135 4748.35 0.00000 -2.00357e-09
  136 4748.35 0.00000 -1.95204e-08
  137 4748.35 0.00000 1.43662e-09
  138 4748.35 0.00000 -1.80770e-09
  139 4748.35 0.00000 2.20230e-09
  140 4748.35 0.00000 2.76047e-10
  141 4748.35 0.00000 1.28526e-09
  142 4748.35 0.00000 1.96227e-08
  143 4748.35 0.00000 -6.34027e-09
  144 4748.35 0.00000 4.57626e-09
  145 4748.35 0.00000 3.04910e-09
  146 4748.35 0.00000 -1.56541e-08
  147 4748.35 0.00000 3.16962e-09
  148 4748.35 0.00000 1.30191e-09
  149 4748.35 0.00000 1.32397e-09
  150 4748.35 0.00000 -4.90161e-10
  151 4748.35 0.00000 4.63400e-09
  152 4748.35 0.00000 -2.41204e-09
  153 4748.35 0.00000 -5.45917e-10
  154 4748.35 0.00000 -3.94263e-10
  155 4748.35 0.00000 2.49909e-09
  156 4748.35 0.00000 1.25582e-10
  157 4748.35 0.00000 -4.61296e-09
  158 4748.35 0.00000 1.50473e-09
  159 4748.35 0.00000 -4.86890e-10
  160 4748.35 0.00000 -2.71887e-10
  161 4748.35 0.00000 1.09342e-09
  162 4748.35 0.00000 -2.62628e-09
  163 4748.35 0.00000 1.46468e-09
  164 4748.35 0.00000 -3.64192e-09
  165 4748.35 0.00000 1.23316e-08
  166 4748.35 0.00000 -4.58091e-09
  167 4748.35 0.00000 9.12240e-11
  168 4748.35 0.00000 5.92055e-10
  169 4748.35 0.00000 5.13901e-09
  170 4748.35 0.00000 7.83069e-10
  171 4748.35 0.00000 1.18688e-08
  172 4748.35 0.00000 -9.39434e-11
  173 4748.35 0.00000 -1.96485e-08
  174 4748.35 0.00000 -7.99579e-10
  175 4748.35 0.00000 -7.48342e-09
  176 4748.35 0.00000 7.90281e-09
  177 4748.35 0.00000 2.69293e-10
  178 4748.35 0.00000 -1.03619e-09
  179 4748.35 0.00000 2.30446e-08
  180 4748.35 0.00000 2.21638e-09
  181 4748.35 0.00000 -1.22792e-09
  182 4748.35 0.00000 6.96086e-09
  183 4748.35 0.00000 -1.11627e-08
  184 4748.35 0.00000 -7.87799e-09
  185 4748.35 0.00000 1.27792e-08
  186 4748.35 0.00000 -2.89365e-09
  187 4748.35 0.00000 5.79076e-10
  188 4748.35 0.00000 -1.03688e-09
  189 4748.35 0.00000 5.11438e-09
  190 4748.35 0.00000 -1.39614e-08
  191 4748.35 0.00000 -4.36230e-09
  192 4748.35 0.00000 -4.27978e-09
  193 4748.35 0.00000 5.97607e-09
  194 4748.35 0.00000 -8.12057e-11
  195 4748.35 0.00000 -8.26515e-09
  196 4748.35 0.00000 1.26472e-09
  197 4748.35 0.00000 7.34286e-09
  198 4748.35 0.00000 -5.71594e-09
  199 4748.35 0.00000 -4.29110e-09
  200 4748.35 0.00000 -8.59886e-10
  201 4748.35 0.00000 -7.21237e-10
  202 4748.35 0.00000 4.63845e-09
  203 4748.35 0.00000 8.89185e-09
  204 4748.35 0.00000 -1.02552e-09
  205 4748.35 0.00000 5.42098e-09
  206 4748.35 0.00000 -2.48901e-09
  207 4748.35 0.00000 -2.22770e-08
  208 4748.35 0.00000 4.58973e-09
  209 4748.35 0.00000 -1.37622e-09
  210 4748.35 0.00000 -1.51561e-08
  211 4748.35 0.00000 1.65685e-08
  212 4748.35 0.00000 -1.58071e-09
  213 4748.35 0.00000 -1.43221e-08
  214 4748.35 0.00000 -1.08769e-08
  215 4748.35 0.00000 -3.19172e-10
  216 4748.35 0.00000 -8.46336e-09
  217 4748.35 0.00000 -2.16785e-09
  218 4748.35 0.00000 -1.55927e-08
  219 4748.35 0.00000 -4.66346e-09
  220 4748.35 0.00000 -9.68880e-09
  221 4748.35 0.00000 -1.05485e-09
  222 4748.35 0.00000 -1.52336e-09
  223 4748.35 0.00000 1.72681e-08
  224 4748.35 0.00000 1.65936e-08
  225 4748.35 0.00000 -4.80164e-09
  226 4748.35 0.00000 8.15629e-09
  227 4748.35 0.00000 -1.88045e-09
  228 4748.35 0.00000 -2.38107e-09
  229 4748.35 0.00000 3.46090e-09
  230 4748.35 0.00000 1.30993e-09
  231 4748.35 0.00000 -2.08355e-09
  232 4748.35 0.00000 -6.75967e-09
  233 4748.35 0.00000 -8.01362e-10
  234 4748.35 0.00000 -7.27672e-09
  235 4748.35 0.00000 1.70946e-10
  236 4748.35 0.00000 1.39754e-08
  237 4748.35 0.00000 -1.98593e-10
  238 4748.35 0.00000 2.43759e-09
  239 4748.35 0.00000 -1.70986e-09
  240 4748.35 0.00000 7.58334e-09
  241 4748.35 0.00000 -7.02521e-09
</Section>

newXOutput 117

<Section columns = "stress_xx | stress_yy | stress_xy">
  1 4805.66 0.00000 -5.96702e-09
  2 4805.66 0.00000 1.03904e-09
  3 4805.66 0.00000 7.59685e-11
  4 4805.66 0.00000 6.57390e-09
  5 4805.66 0.00000 -1.35426e-08
  6 4805.66 0.00000 -2.29669e-08
  7 4805.66 0.00000 -2.97523e-08
  8 4805.66 0.00000 -3.26046e-08
  9 4805.66 0.00000 -2.99021e-08
  10 4805.66 0.00000 -2.58418e-08
  11 4805.66 0.00000 -2.03659e-08
  12 4805.66 0.00000 -1.32588e-08
  13 4805.66 0.00000 -5.37459e-09
  14 4805.66 0.00000 1.37364e-09
  15 4805.66 0.00000 6.73760e-09
  16 4805.66 0.00000 1.01305e-08
  17 4805.66 0.00000 1.03417e-08
  18 4805.66 0.00000 9.26119e-09
  19 4805.66 0.00000 6.60357e-09
  20 4805.66 0.00000 4.09989e-09
  21 4805.66 0.00000 3.42476e-09
  22 4805.66 0.00000 2.86124e-09
  23 4805.66 0.00000 1.86335e-09
  24 4805.66 0.00000 3.75473e-10
  25 4805.66 0.00000 -2.15215e-10
  26 4805.66 0.00000 -7.48571e-10
  27 4805.66 0.00000 -1.13589e-09
  28 4805.66 0.00000 -9.52837e-10
  29 4805.66 0.00000 -3.95949e-10
  30 4805.66 0.00000 -2.25016e-10
  31 4805.66 0.00000 5.60134e-11
  32 4805.66 0.00000 -7.28595e-10
  33 4805.66 0.00000 -2.56031e-09
  34 4805.66 0.00000 -5.88734e-09
  35 4805.66 0.00000 -7.51703e-09
  36 4805.66 0.00000 -9.06034e-09
  37 4805.66 0.00000 -9.46456e-09
  38 4805.66 0.00000 -9.10636e-09
  39 4805.66 0.00000 -6.81798e-09
  40 4805.66 0.00000 -2.13247e-09
  41 4805.66 0.00000 3.73713e-09
  42 4805.66 0.00000 1.19936e-08
  43 4805.66 0.00000 1.98011e-08
  44 4805.66 0.00000 2.69796e-08
  45 4805.66 0.00000 3.21237e-08
  46 4805.66 0.00000 3.13087e-08
  47 4805.66 0.00000 2.93421e-08
  48 4805.66 0.00000 2.37631e-08
  49 4805.66 0.00000 1.37356e-08
  50 4805.66 0.00000 4.48088e-09
  51 4805.66 0.00000 3.06622e-09
  52 4805.66 0.00000 1.99931e-09
  53 4805.66 0.00000 -4.63803e-10
  54 4805.66 0.00000 -2.80526e-09
  55 4805.66 0.00000 -3.44480e-09
  56 4805.66 0.00000 -4.22817e-09
  57 4805.66 0.00000 -5.82523e-10
  58 4805.66 0.00000 1.70350e-09
  59 4805.66 0.00000 7.76796e-10
  60 4805.66 0.00000 -3.99986e-09
  61 4805.66 0.00000 -6.90816e-09
  62 4805.66 0.00000 8.60115e-09
  63 4805.66 0.00000 2.68058e-09
  64 4805.66 0.00000 1.07326e-09
  65 4805.66 0.00000 1.26062e-08
  66 4805.66 0.00000 -1.00629e-08
  67 4805.66 0.00000 -1.12708e-09
  68 4805.66 0.00000 2.95759e-09
  69 4805.66 0.00000 -4.62463e-09
  70 4805.66 0.00000 -2.68169e-09
  71 4805.66 0.00000 -1.50613e-08
  72 4805.66 0.00000 -2.55250e-09
  73 4805.66 0.00000 4.32540e-09
  74 4805.66 0.00000 1.77785e-08
  75 4805.66 0.00000 5.06569e-09
  76 4805.66 0.00000 -1.43615e-09
  77 4805.66 0.00000 4.90419e-10
  78 4805.66 0.00000 -3.40295e-09
  79 4805.66 0.00000 1.41739e-09
  80 4805.66 0.00000 -4.75354e-10
  81 4805.66 0.00000 -4.46585e-10
  82 4805.66 0.00000 -7.40565e-09
  83 4805.66 0.00000 -9.37588e-10
  84 4805.66 0.00000 -2.23622e-08
  85 4805.66 0.00000 7.57409e-09
  86 4805.66 0.00000 1.09246e-09
  87 4805.66 0.00000 1.45515e-08
  88 4805.66 0.00000 -1.12540e-09
  89 4805.66 0.00000 -1.27332e-08
  90 4805.66 0.00000 -1.81937e-08
  91 4805.66 0.00000 1.71976e-08
  92 4805.66 0.00000 3.34227e-09
  93 4805.66 0.00000 7.66826e-10
  94 4805.66 0.00000 6.39708e-09
  95 4805.66 0.00000 1.35812e-08
  96 4805.66 0.00000 5.56780e-10
  97 4805.66 0.00000 2.91676e-09
  98 4805.66 0.00000 2.46258e-08
  99 4805.66 0.00000 2.42601e-09
  100 4805.66 0.00000 -1.03038e-08
  101 4805.66 0.00000 -8.60450e-09
  102 4805.66 0.00000 3.25347e-09
  103 4805.66 0.00000 -2.07085e-10
  104 4805.66 0.00000 8.58523e-09
  105 4805.66 0.00000 -1.28501e-10
  106 4805.66 0.00000 1.17988e-09
  107 4805.66 0.00000 -8.04059e-10
  108 4805.66 0.00000 3.96040e-09
  109 4805.66 0.00000 -4.93657e-09
  110 4805.66 0.00000 -1.48774e-09
  111 4805.66 0.00000 -1.53798e-09
  112 4805.66 0.00000 4.66432e-10
  113 4805.66 0.00000 -7.16819e-09
  114 4805.66 0.00000 -8.28509e-09
  115 4805.66 0.00000 -1.47937e-09
  116 4805.66 0.00000 -2.57470e-08
  117 4805.66 0.00000 2.42723e-09
  118 4805.66 0.00000 1.20319e-08
  119 4805.66 0.00000 4.84017e-09
  120 4805.66 0.00000 -5.23382e-09
  121 4805.66 0.00000 -7.08579e-09
  122 4805.66 0.00000 -3.19967e-09
  123 4805.66 0.00000 -6.13423e-09
  124 4805.66 0.00000 -7.84753e-10
  125 4805.66 0.00000 5.91776e-09
  126 4805.66 0.00000 -2.52042e-08
  127 4805.66 0.00000 4.14108e-09
  128 4805.66 0.00000 4.70816e-09
  129 4805.66 0.00000 2.65246e-08
  130 4805.66 0.00000 -9.09599e-10
  131 4805.66 0.00000 -4.50663e-09
  132 4805.66 0.00000 5.89216e-09
  133 4805.66 0.00000 8.40708e-09
  134 4805.66 0.00000 -1.36630e-08
  135 4805.66 0.00000 2.64026e-09
  136 4805.66 0.00000 2.43772e-08
  137 4805.66 0.00000 -1.93229e-09
  138 4805.66 0.00000 2.28397e-09
  139 4805.66 0.00000 -2.75198e-09
  140 4805.66 0.00000 -3.60510e-10
  141 4805.66 0.00000 -1.65761e-09
  142 4805.66 0.00000 -2.47928e-08
  143 4805.66 0.00000 7.99713e-09
  144 4805.66 0.00000 -5.59842e-09
  145 4805.66 0.00000 -3.98478e-09
  146 4805.66 0.00000 1.98576e-08
  147 4805.66 0.00000 -3.69123e-09
  148 4805.66 0.00000 -1.61874e-09
  149 4805.66 0.00000 -1.58750e-09
  150 4805.66 0.00000 4.60043e-10
  151 4805.66 0.00000 -5.99499e-09
  152 4805.66 0.00000 2.96848e-09
  153 4805.66 0.00000 6.82622e-10
  154 4805.66 0.00000 4.69842e-10
  155 4805.66 0.00000 -3.08015e-09
  156 4805.66 0.00000 -9.78751e-11
  157 4805.66 0.00000 5.74324e-09
  158 4805.66 0.00000 -1.80643e-09
  159 4805.66 0.00000 6.69482e-10
  160 4805.66 0.00000 3.39825e-10
  161 4805.66 0.00000 -1.29479e-09
  162 4805.66 0.00000 3.31459e-09
  163 4805.66 0.00000 -1.77203e-09
  164 4805.66 0.00000 4.59125e-09
  165 4805.66 0.00000 -1.54482e-08
  166 4805.66 0.00000 5.70266e-09
  167 4805.66 0.00000 -6.20442e-11
  168 4805.66 0.00000 -7.64479e-10
  169 4805.66 0.00000 -6.39317e-09
  170 4805.66 0.00000 -1.12140e-09
  171 4805.66 0.00000 -1.51665e-08
  172 4805.66 0.00000 -2.12437e-10
  173 4805.66 0.00000 2.47827e-08
  174 4805.66 0.00000 1.02406e-09
  175 4805.66 0.00000 9.31793e-09
  176 4805.66 0.00000 -9.82760e-09
  177 4805.66 0.00000 -4.13769e-10
  178 4805.66 0.00000 1.35721e-09
  179 4805.66 0.00000 -2.88421e-08
  180 4805.66 0.00000 -2.76474e-09
  181 4805.66 0.00000 1.50121e-09
  182 4805.66 0.00000 -8.61666e-09
  183 4805.66 0.00000 1.41525e-08
  184 4805.66 0.00000 9.75591e-09
  185 4805.66 0.00000 -1.59681e-08
  186 4805.66 0.00000 3.34618e-09
  187 4805.66 0.00000 -8.75566e-10
  188 4805.66 0.00000 1.23272e-09
  189 4805.66 0.00000 -6.45808e-09
  190 4805.66 0.00000 1.75975e-08
  191 4805.66 0.00000 5.53459e-09
  192 4805.66 0.00000 5.36727e-09
  193 4805.66 0.00000 -7.53613e-09
  194 4805.66 0.00000 1.79898e-10
  195 4805.66 0.00000 1.02975e-08
  196 4805.66 0.00000 -1.61259e-09
  197 4805.66 0.00000 -9.14666e-09
  198 4805.66 0.00000 7.23409e-09
  199 4805.66 0.00000 5.38368e-09
  200 4805.66 0.00000 9.94750e-10
  201 4805.66 0.00000 1.10940e-09
  202 4805.66 0.00000 -5.70770e-09
  203 4805.66 0.00000 -1.13407e-08
  204 4805.66 0.00000 1.05660e-09
  205 4805.66 0.00000 -6.78841e-09
  206 4805.66 0.00000 3.29774e-09
  207 4805.66 0.00000 2.78925e-08
  208 4805.66 0.00000 -5.88687e-09
  209 4805.66 0.00000 1.82853e-09
  210 4805.66 0.00000 1.89236e-08
  211 4805.66 0.00000 -2.06510e-08
  212 4805.66 0.00000 2.04174e-09
  213 4805.66 0.00000 1.78603e-08
  214 4805.66 0.00000 1.39245e-08
  215 4805.66 0.00000 2.69885e-10
  216 4805.66 0.00000 1.07605e-08
  217 4805.66 0.00000 2.81356e-09
  218 4805.66 0.00000 1.95141e-08
  219 4805.66 0.00000 5.73151e-09
  220 4805.66 0.00000 1.22558e-08
  221 4805.66 0.00000 1.24867e-09
  222 4805.66 0.00000 1.87184e-09
  223 4805.66 0.00000 -2.19153e-08
  224 4805.66 0.00000 -2.09279e-08
  225 4805.66 0.00000 6.07020e-09
  226 4805.66 0.00000 -1.01800e-08
  227 4805.66 0.00000 2.19330e-09
  228 4805.66 0.00000 3.08513e-09
  229 4805.66 0.00000 -4.31469e-09
  230 4805.66 0.00000 -1.61230e-09
  231 4805.66 0.00000 2.63828e-09
  232 4805.66 0.00000 8.44969e-09
  233 4805.66 0.00000 1.04313e-09
  234 4805.66 0.00000 9.33409e-09
  235 4805.66 0.00000 1.14195e-10
  236 4805.66 0.00000 -1.74292e-08
  237 4805.66 0.00000 -4.32611e-11
  238 4805.66 0.00000 -3.15782e-09
  239 4805.66 0.00000 2.17315e-09
  240 4805.66 0.00000 -9.83749e-09
  241 4805.66 0.00000 8.63564e-09
</Section>

newXOutput 118

<Section columns = "stress_xx | stress_yy | stress_xy">
  1 4863.21 0.00000 7.42844e-09
  2 4863.21 0.00000 -1.29479e-09
  3 4863.21 0.00000 -1.78582e-11
  4 4863.21 0.00000 -8.18577e-09
  5 4863.21 0.00000 1.69142e-08
  6 4863.21 0.00000 2.87364e-08
  7 4863.21 0.00000 3.72657e-08
  8 4863.21 0.00000 4.09852e-08
  9 4863.21 0.00000 3.77694e-08
  10 4863.21 0.00000 3.28006e-08
  11 4863.21 0.00000 2.59994e-08
  12 4863.21 0.00000 1.71260e-08
  13 4863.21 0.00000 7.20672e-09
  14 4863.21 0.00000 -1.31317e-09
  15 4863.21 0.00000 -8.15401e-09
  16 4863.21 0.00000 -1.25113e-08
  17 4863.21 0.00000 -1.28839e-08
  18 4863.21 0.00000 -1.16553e-08
  19 4863.21 0.00000 -8.49591e-09
  20 4863.21 0.00000 -5.40951e-09
  21 4863.21 0.00000 -4.51162e-09
  22 4863.21 0.00000 -3.71072e-09
  23 4863.21 0.00000 -2.36976e-09
  24 4863.21 0.00000 -4.92071e-10
  25 4863.21 0.00000 2.18839e-10
  26 4863.21 0.00000 8.68780e-10
  27 4863.21 0.00000 1.35598e-09
  28 4863.21 0.00000 1.16375e-09
  29 4863.21 0.00000 5.06524e-10
  30 4863.21 0.00000 3.15377e-10
  31 4863.21 0.00000 9.99627e-11
  32 4863.21 0.00000 1.12853e-09
  33 4863.21 0.00000 3.42747e-09
  34 4863.21 0.00000 7.57905e-09
  35 4863.21 0.00000 9.56242e-09
  36 4863.21 0.00000 1.14339e-08
  37 4863.21 0.00000 1.18359e-08
  38 4863.21 0.00000 1.12196e-08
  39 4863.21 0.00000 8.20493e-09
  40 4863.21 0.00000 2.25363e-09
  41 4863.21 0.00000 -5.16329e-09
  42 4863.21 0.00000 -1.55340e-08
  43 4863.21 0.00000 -2.52755e-08
  44 4863.21 0.00000 -3.41855e-08
  45 4863.21 0.00000 -4.05137e-08
  46 4863.21 0.00000 -3.93714e-08
  47 4863.21 0.00000 -3.67989e-08
  48 4863.21 0.00000 -2.97386e-08
  49 4863.21 0.00000 -1.71678e-08
  50 4863.21 0.00000 -5.58501e-09
  51 4863.21 0.00000 -3.82764e-09
  52 4863.21 0.00000 -2.49715e-09
  53 4863.21 0.00000 5.75959e-10
  54 4863.21 0.00000 3.50028e-09
  55 4863.21 0.00000 4.29880e-09
  56 4863.21 0.00000 5.26915e-09
  57 4863.21 0.00000 7.01317e-10
  58 4863.21 0.00000 -2.01837e-09
  59 4863.21 0.00000 -9.49552e-10
  60 4863.21 0.00000 4.91095e-09
  61 4863.21 0.00000 8.82287e-09
  62 4863.21 0.00000 -1.09337e-08
  63 4863.21 0.00000 -3.41903e-09
  64 4863.21 0.00000 -1.44674e-09
  65 4863.21 0.00000 -1.57932e-08
  66 4863.21 0.00000 1.25882e-08
  67 4863.21 0.00000 1.49397e-09
  68 4863.21 0.00000 -3.59619e-09
  69 4863.21 0.00000 5.85131e-09
  70 4863.21 0.00000 3.14010e-09
  71 4863.21 0.00000 1.89832e-08
  72 4863.21 0.00000 3.51219e-09
  73 4863.21 0.00000 -5.46579e-09
  74 4863.21 0.00000 -2.23706e-08
  75 4863.21 0.00000 -6.61163e-09
  76 4863.21 0.00000 1.72378e-09
  77 4863.21 0.00000 -5.99825e-10
  78 4863.21 0.00000 4.44977e-09
  79 4863.21 0.00000 -1.73987e-09
  80 4863.21 0.00000 5.85078e-10
  81 4863.21 0.00000 5.16265e-10
  82 4863.21 0.00000 9.16679e-09
  83 4863.21 0.00000 1.16365e-09
  84 4863.21 0.00000 2.80428e-08
  85 4863.21 0.00000 -9.39770e-09
  86 4863.21 0.00000 -1.46729e-09
  87 4863.21 0.00000 -1.81836e-08
  88 4863.21 0.00000 1.52352e-09
  89 4863.21 0.00000 1.58958e-08
  90 4863.21 0.00000 2.31227e-08
  91 4863.21 0.00000 -2.18114e-08
  92 4863.21 0.00000 -4.18739e-09
  93 4863.21 0.00000 -9.56192e-10
  94 4863.21 0.00000 -8.07014e-09
  95 4863.21 0.00000 -1.73368e-08
  96 4863.21 0.00000 -7.53364e-10
  97 4863.21 0.00000 -3.84904e-09
  98 4863.21 0.00000 -3.08912e-08
  99 4863.21 0.00000 -2.72125e-09
  100 4863.21 0.00000 1.29174e-08
  101 4863.21 0.00000 1.11540e-08
  102 4863.21 0.00000 -4.07224e-09
  103 4863.21 0.00000 4.03585e-10
  104 4863.21 0.00000 -1.08948e-08
  105 4863.21 0.00000 -1.85443e-10
  106 4863.21 0.00000 -1.33677e-09
  107 4863.21 0.00000 9.24179e-10
  108 4863.21 0.00000 -4.93662e-09
  109 4863.21 0.00000 6.15752e-09
  110 4863.21 0.00000 1.83024e-09
  111 4863.21 0.00000 2.10164e-09
  112 4863.21 0.00000 -7.08853e-10
  113 4863.21 0.00000 8.75754e-09
  114 4863.21 0.00000 1.03612e-08
  115 4863.21 0.00000 2.02707e-09
  116 4863.21 0.00000 3.22342e-08
  117 4863.21 0.00000 -3.08646e-09
  118 4863.21 0.00000 -1.51119e-08
  119 4863.21 0.00000 -5.84321e-09
  120 4863.21 0.00000 6.71839e-09
  121 4863.21 0.00000 8.90531e-09
  122 4863.21 0.00000 3.90431e-09
  123 4863.21 0.00000 7.60728e-09
  124 4863.21 0.00000 1.06193e-09
  125 4863.21 0.00000 -7.55302e-09
  126 4863.21 0.00000 3.17400e-08
  127 4863.21 0.00000 -5.15252e-09
  128 4863.21 0.00000 -6.08900e-09
  129 4863.21 0.00000 -3.33777e-08
  130 4863.21 0.00000 1.06344e-09
  131 4863.21 0.00000 6.06061e-09
  132 4863.21 0.00000 -7.79652e-09
  133 4863.21 0.00000 -1.05285e-08
  134 4863.21 0.00000 1.73016e-08
  135 4863.21 0.00000 -3.47290e-09
  136 4863.21 0.00000 -3.05232e-08
  137 4863.21 0.00000 2.59047e-09
  138 4863.21 0.00000 -2.89752e-09
  139 4863.21 0.00000 3.44978e-09
  140 4863.21 0.00000 4.71255e-10
  141 4863.21 0.00000 2.13933e-09
  142 4863.21 0.00000 3.14009e-08
  143 4863.21 0.00000 -1.01115e-08
  144 4863.21 0.00000 6.86003e-09
  145 4863.21 0.00000 5.20635e-09
  146 4863.21 0.00000 -2.52505e-08
  147 4863.21 0.00000 4.27809e-09
  148 4863.21 0.00000 2.01840e-09
  149 4863.21 0.00000 1.91243e-09
  150 4863.21 0.00000 -3.84148e-10
  151 4863.21 0.00000 7.76804e-09
  152 4863.21 0.00000 -3.66218e-09
  153 4863.21 0.00000 -8.52619e-10
  154 4863.21 0.00000 -5.59014e-10
  155 4863.21 0.00000 3.80661e-09
  156 4863.21 0.00000 5.37555e-11
  157 4863.21 0.00000 -7.16978e-09
  158 4863.21 0.00000 2.17342e-09
  159 4863.21 0.00000 -9.10620e-10
  160 4863.21 0.00000 -4.27470e-10
  161 4863.21 0.00000 1.54234e-09
  162 4863.21 0.00000 -4.19676e-09
  163 4863.21 0.00000 2.14735e-09
  164 4863.21 0.00000 -5.79803e-09
  165 4863.21 0.00000 1.94019e-08
  166 4863.21 0.00000 -7.11765e-09
  167 4863.21 0.00000 1.31621e-11
  168 4863.21 0.00000 9.85984e-10
  169 4863.21 0.00000 7.97597e-09
  170 4863.21 0.00000 1.57821e-09
  171 4863.21 0.00000 1.94246e-08
  172 4863.21 0.00000 6.87644e-10
  173 4863.21 0.00000 -3.13360e-08
  174 4863.21 0.00000 -1.31506e-09
  175 4863.21 0.00000 -1.16342e-08
  176 4863.21 0.00000 1.22555e-08
  177 4863.21 0.00000 6.11515e-10
  178 4863.21 0.00000 -1.77715e-09
  179 4863.21 0.00000 3.61913e-08
  180 4863.21 0.00000 3.45975e-09
  181 4863.21 0.00000 -1.84103e-09
  182 4863.21 0.00000 1.06864e-08
  183 4863.21 0.00000 -1.79867e-08
  184 4863.21 0.00000 -1.21011e-08
  185 4863.21 0.00000 2.00032e-08
  186 4863.21 0.00000 -3.84279e-09
  187 4863.21 0.00000 1.28742e-09
  188 4863.21 0.00000 -1.46774e-09
  189 4863.21 0.00000 8.17546e-09
  190 4863.21 0.00000 -2.22342e-08
  191 4863.21 0.00000 -7.03910e-09
  192 4863.21 0.00000 -6.74053e-09
  193 4863.21 0.00000 9.52272e-09
  194 4863.21 0.00000 -3.26857e-10
  195 4863.21 0.00000 -1.28625e-08
  196 4863.21 0.00000 2.05632e-09
  197 4863.21 0.00000 1.14242e-08
  198 4863.21 0.00000 -9.17246e-09
  199 4863.21 0.00000 -6.77055e-09
  200 4863.21 0.00000 -1.15131e-09
  201 4863.21 0.00000 -1.65436e-09
  202 4863.21 0.00000 7.03929e-09
  203 4863.21 0.00000 1.44946e-08
  204 4863.21 0.00000 -1.04113e-09
  205 4863.21 0.00000 8.52265e-09
  206 4863.21 0.00000 -4.36054e-09
  207 4863.21 0.00000 -3.50159e-08
  208 4863.21 0.00000 7.56021e-09
  209 4863.21 0.00000 -2.43036e-09
  210 4863.21 0.00000 -2.36864e-08
  211 4863.21 0.00000 2.58098e-08
  212 4863.21 0.00000 -2.63854e-09
  213 4863.21 0.00000 -2.23327e-08
  214 4863.21 0.00000 -1.78664e-08
  215 4863.21 0.00000 -1.85279e-10
  216 4863.21 0.00000 -1.37171e-08
  217 4863.21 0.00000 -3.65732e-09
  218 4863.21 0.00000 -2.44831e-08
  219 4863.21 0.00000 -7.05285e-09
  220 4863.21 0.00000 -1.55411e-08
  221 4863.21 0.00000 -1.47564e-09
  222 4863.21 0.00000 -2.30458e-09
  223 4863.21 0.00000 2.78758e-08
  224 4863.21 0.00000 2.64607e-08
  225 4863.21 0.00000 -7.68972e-09
  226 4863.21 0.00000 1.27417e-08
  227 4863.21 0.00000 -2.55039e-09
  228 4863.21 0.00000 -4.00492e-09
  229 4863.21 0.00000 5.39493e-09
  230 4863.21 0.00000 1.99214e-09
  231 4863.21 0.00000 -3.34243e-09
  232 4863.21 0.00000 -1.05900e-08
  233 4863.21 0.00000 -1.35407e-09
  234 4863.21 0.00000 -1.20025e-08
  235 4863.21 0.00000 -5.62308e-10
  236 4863.21 0.00000 2.17931e-08
  237 4863.21 0.00000 4.23645e-10
  238 4863.21 0.00000 4.09776e-09
  239 4863.21 0.00000 -2.76545e-09
  240 4863.21 0.00000 1.27821e-08
  241 4863.21 0.00000 -1.06275e-08
</Section>

newXOutput 119

<Section columns = "stress_xx | stress_yy | stress_xy">
  1 4920.98 0.00000 -9.27577e-09
  2 4920.98 0.00000 1.62420e-09
  3 4920.98 0.00000 -7.47902e-11
  4 4920.98 0.00000 1.02213e-08
  5 4920.98 0.00000 -2.11850e-08
  6 4920.98 0.00000 -3.60540e-08
  7 4920.98 0.00000 -4.67994e-08
  8 4920.98 0.00000 -5.16514e-08
  9 4920.98 0.00000 -4.78243e-08
  10 4920.98 0.00000 -4.17360e-08
  11 4920.98 0.00000 -3.32698e-08
  12 4920.98 0.00000 -2.21638e-08
  13 4920.98 0.00000 -9.65964e-09
  14 4920.98 0.00000 1.12296e-09
  15 4920.98 0.00000 9.86927e-09
  16 4920.98 0.00000 1.54796e-08
  17 4920.98 0.00000 1.60794e-08
  18 4920.98 0.00000 1.46997e-08
  19 4920.98 0.00000 1.09360e-08
  20 4920.98 0.00000 7.13019e-09
  21 4920.98 0.00000 5.94442e-09
  22 4920.98 0.00000 4.82089e-09
  23 4920.98 0.00000 3.02828e-09
  24 4920.98 0.00000 6.45490e-10
  25 4920.98 0.00000 -2.14641e-10
  26 4920.98 0.00000 -1.00324e-09
  27 4920.98 0.00000 -1.62113e-09
  28 4920.98 0.00000 -1.42730e-09
  29 4920.98 0.00000 -6.50129e-10
  30 4920.98 0.00000 -4.39282e-10
  31 4920.98 0.00000 -3.35886e-10
  32 4920.98 0.00000 -1.69362e-09
  33 4920.98 0.00000 -4.57616e-09
  34 4920.98 0.00000 -9.76877e-09
  35 4920.98 0.00000 -1.21883e-08
  36 4920.98 0.00000 -1.44562e-08
  37 4920.98 0.00000 -1.48241e-08
  38 4920.98 0.00000 -1.38431e-08
  39 4920.98 0.00000 -9.87125e-09
  40 4920.98 0.00000 -2.29325e-09
  41 4920.98 0.00000 7.10351e-09
  42 4920.98 0.00000 2.01603e-08
  43 4920.98 0.00000 3.23407e-08
  44 4920.98 0.00000 4.34226e-08
  45 4920.98 0.00000 5.12213e-08
  46 4920.98 0.00000 4.96351e-08
  47 4920.98 0.00000 4.62721e-08
  48 4920.98 0.00000 3.73174e-08
  49 4920.98 0.00000 2.15149e-08
  50 4920.98 0.00000 6.98131e-09
  51 4920.98 0.00000 4.79122e-09
  52 4920.98 0.00000 3.12718e-09
  53 4920.98 0.00000 -7.16713e-10
  54 4920.98 0.00000 -4.37957e-09
  55 4920.98 0.00000 -5.38049e-09
  56 4920.98 0.00000 -6.58592e-09
  57 4920.98 0.00000 -8.46768e-10
  58 4920.98 0.00000 2.39589e-09
  59 4920.98 0.00000 1.16277e-09
  60 4920.98 0.00000 -6.04595e-09
  61 4920.98 0.00000 -1.12919e-08
  62 4920.98 0.00000 1.39355e-08
  63 4920.98 0.00000 4.36568e-09
  64 4920.98 0.00000 1.93973e-09
  65 4920.98 0.00000 1.98358e-08
  66 4920.98 0.00000 -1.57909e-08
  67 4920.98 0.00000 -1.98254e-09
  68 4920.98 0.00000 4.36753e-09
  69 4920.98 0.00000 -7.41960e-09
  70 4920.98 0.00000 -3.66109e-09
  71 4920.98 0.00000 -2.39872e-08
  72 4920.98 0.00000 -4.81165e-09
  73 4920.98 0.00000 6.92414e-09
  74 4920.98 0.00000 2.82183e-08
  75 4920.98 0.00000 8.64340e-09
  76 4920.98 0.00000 -2.06645e-09
  77 4920.98 0.00000 7.35793e-10
  78 4920.98 0.00000 -5.81975e-09
  79 4920.98 0.00000 2.14144e-09
  80 4920.98 0.00000 -7.20105e-10
  81 4920.98 0.00000 -6.01477e-10
  82 4920.98 0.00000 -1.13660e-08
  83 4920.98 0.00000 -1.44976e-09
  84 4920.98 0.00000 -3.52600e-08
  85 4920.98 0.00000 1.16826e-08
  86 4920.98 0.00000 1.96872e-09
  87 4920.98 0.00000 2.27843e-08
  88 4920.98 0.00000 -2.05558e-09
  89 4920.98 0.00000 -1.99000e-08
  90 4920.98 0.00000 -2.94529e-08
  91 4920.98 0.00000 2.77313e-08
  92 4920.98 0.00000 5.25960e-09
  93 4920.98 0.00000 1.20304e-09
  94 4920.98 0.00000 1.02001e-08
  95 4920.98 0.00000 2.21867e-08
  96 4920.98 0.00000 1.00823e-09
  97 4920.98 0.00000 5.07652e-09
  98 4920.98 0.00000 3.88521e-08
  99 4920.98 0.00000 3.01191e-09
  100 4920.98 0.00000 -1.62372e-08
  101 4920.98 0.00000 -1.44844e-08
  102 4920.98 0.00000 5.10912e-09
  103 4920.98 0.00000 -6.86922e-10
  104 4920.98 0.00000 1.38560e-08
  105 4920.98 0.00000 6.77281e-10
  106 4920.98 0.00000 1.49767e-09
  107 4920.98 0.00000 -1.05529e-09
  108 4920.98 0.00000 6.17023e-09
  109 4920.98 0.00000 -7.70166e-09
  110 4920.98 0.00000 -2.26152e-09
  111 4920.98 0.00000 -2.85484e-09
  112 4920.98 0.00000 1.05140e-09
  113 4920.98 0.00000 -1.07109e-08
  114 4920.98 0.00000 -1.29828e-08
  115 4920.98 0.00000 -2.76552e-09
  116 4920.98 0.00000 -4.04619e-08
  117 4920.98 0.00000 3.92905e-09
  118 4920.98 0.00000 1.90270e-08
  119 4920.98 0.00000 7.05090e-09
  120 4920.98 0.00000 -8.63594e-09
  121 4920.98 0.00000 -1.12221e-08
  122 4920.98 0.00000 -4.77024e-09
  123 4920.98 0.00000 -9.46042e-09
  124 4920.98 0.00000 -1.42925e-09
  125 4920.98 0.00000 9.66697e-09
  126 4920.98 0.00000 -4.00707e-08
  127 4920.98 0.00000 6.41735e-09
  128 4920.98 0.00000 7.88075e-09
  129 4920.98 0.00000 4.21076e-08
  130 4920.98 0.00000 -1.23683e-09
  131 4920.98 0.00000 -8.14134e-09
  132 4920.98 0.00000 1.03219e-08
  133 4920.98 0.00000 1.32119e-08
  134 4920.98 0.00000 -2.19624e-08
  135 4920.98 0.00000 4.57187e-09
  136 4920.98 0.00000 3.83196e-08
  137 4920.98 0.00000 -3.45815e-09
  138 4920.98 0.00000 3.68679e-09
  139 4920.98 0.00000 -4.33636e-09
  140 4920.98 0.00000 -6.15721e-10
  141 4920.98 0.00000 -2.76748e-09
  142 4920.98 0.00000 -3.98643e-08
  143 4920.98 0.00000 1.28137e-08
  144 4920.98 0.00000 -8.41615e-09
  145 4920.98 0.00000 -6.80402e-09
  146 4920.98 0.00000 3.21876e-08
  147 4920.98 0.00000 -4.92712e-09
  148 4920.98 0.00000 -2.52342e-09
  149 4920.98 0.00000 -2.30981e-09
  150 4920.98 0.00000 2.40963e-10
  151 4920.98 0.00000 -1.00841e-08
  152 4920.98 0.00000 4.53437e-09
  153 4920.98 0.00000 1.06012e-09
  154 4920.98 0.00000 6.65897e-10
  155 4920.98 0.00000 -4.71880e-09
  156 4920.98 0.00000 2.10374e-11
  157 4920.98 0.00000 8.97417e-09
  158 4920.98 0.00000 -2.62331e-09
  159 4920.98 0.00000 1.22508e-09
  160 4920.98 0.00000 5.39084e-10
  161 4920.98 0.00000 -1.83240e-09
  162 4920.98 0.00000 5.32808e-09
  163 4920.98 0.00000 -2.60985e-09
  164 4920.98 0.00000 7.33518e-09
  165 4920.98 0.00000 -2.44323e-08
  166 4920.98 0.00000 8.90879e-09
  167 4920.98 0.00000 6.17116e-11
  168 4920.98 0.00000 -1.27466e-09
  169 4920.98 0.00000 -9.97940e-09
  170 4920.98 0.00000 -2.19605e-09
  171 4920.98 0.00000 -2.49310e-08
  172 4920.98 0.00000 -1.40493e-09
  173 4920.98 0.00000 3.97204e-08
  174 4920.98 0.00000 1.69860e-09
  175 4920.98 0.00000 1.45660e-08
  176 4920.98 0.00000 -1.53267e-08
  177 4920.98 0.00000 -8.84079e-10
  178 4920.98 0.00000 2.32558e-09
  179 4920.98 0.00000 -4.55296e-08
  180 4920.98 0.00000 -4.34197e-09
  181 4920.98 0.00000 2.26314e-09
  182 4920.98 0.00000 -1.32753e-08
  183 4920.98 0.00000 2.29189e-08
  184 4920.98 0.00000 1.50383e-08
  185 4920.98 0.00000 -2.51255e-08
  186 4920.98 0.00000 4.37482e-09
  187 4920.98 0.00000 -1.85163e-09
  188 4920.98 0.00000 1.74882e-09
  189 4920.98 0.00000 -1.03746e-08
  190 4920.98 0.00000 2.81610e-08
  191 4920.98 0.00000 8.97250e-09
  192 4920.98 0.00000 8.48193e-09
  193 4920.98 0.00000 -1.20580e-08
  194 4920.98 0.00000 5.30977e-10
  195 4920.98 0.00000 1.61097e-08
  196 4920.98 0.00000 -2.63289e-09
  197 4920.98 0.00000 -1.43100e-08
  198 4920.98 0.00000 1.16523e-08
  199 4920.98 0.00000 8.53558e-09
  200 4920.98 0.00000 1.33277e-09
  201 4920.98 0.00000 2.41757e-09
  202 4920.98 0.00000 -8.70012e-09
  203 4920.98 0.00000 -1.85701e-08
  204 4920.98 0.00000 9.48612e-10
  205 4920.98 0.00000 -1.07296e-08
  206 4920.98 0.00000 5.76452e-09
  207 4920.98 0.00000 4.40725e-08
  208 4920.98 0.00000 -9.72503e-09
  209 4920.98 0.00000 3.22323e-09
  210 4920.98 0.00000 2.97264e-08
  211 4920.98 0.00000 -3.23450e-08
  212 4920.98 0.00000 3.42372e-09
  213 4920.98 0.00000 2.80000e-08
  214 4920.98 0.00000 2.29786e-08
  215 4920.98 0.00000 4.98943e-11
  216 4920.98 0.00000 1.75300e-08
  217 4920.98 0.00000 4.75270e-09
  218 4920.98 0.00000 3.07976e-08
  219 4920.98 0.00000 8.68682e-09
  220 4920.98 0.00000 1.97554e-08
  221 4920.98 0.00000 1.73730e-09
  222 4920.98 0.00000 2.84693e-09
  223 4920.98 0.00000 -3.55402e-08
  224 4920.98 0.00000 -3.35356e-08
  225 4920.98 0.00000 9.76247e-09
  226 4920.98 0.00000 -1.59904e-08
  227 4920.98 0.00000 2.94808e-09
  228 4920.98 0.00000 5.21451e-09
  229 4920.98 0.00000 -6.76416e-09
  230 4920.98 0.00000 -2.47239e-09
  231 4920.98 0.00000 4.23689e-09
  232 4920.98 0.00000 1.33056e-08
  233 4920.98 0.00000 1.76168e-09
  234 4920.98 0.00000 1.54661e-08
  235 4920.98 0.00000 1.24440e-09
  236 4920.98 0.00000 -2.73250e-08
  237 4920.98 0.00000 -1.00241e-09
  238 4920.98 0.00000 -5.32570e-09
  239 4920.98 0.00000 3.51993e-09
  240 4920.98 0.00000 -1.66338e-08
  241 4920.98 0.00000 1.30977e-08
</Section>

newXOutput 120

<Section columns = "stress_xx | stress_yy | stress_xy">
  1 4978.98 0.00000 1.16152e-08
  2 4978.98 0.00000 -2.04884e-09
  3 4978.98 0.00000 2.14936e-10
  4 4978.98 0.00000 -1.27992e-08
  5 4978.98 0.00000 2.66095e-08
  6 4978.98 0.00000 4.53631e-08
  7 4978.98 0.00000 5.89317e-08
  8 4978.98 0.00000 6.52625e-08
  9 4978.98 0.00000 6.07065e-08
  10 4978.98 0.00000 5.32335e-08
  11 4978.98 0.00000 4.26727e-08
  12 4978.98 0.00000 2.87396e-08
  13 4978.98 0.00000 1.29379e-08
  14 4978.98 0.00000 -7.35846e-10
  15 4978.98 0.00000 -1.19409e-08
  16 4978.98 0.00000 -1.91740e-08
  17 4978.98 0.00000 -2.01055e-08
  18 4978.98 0.00000 -1.85734e-08
  19 4978.98 0.00000 -1.40990e-08
  20 4978.98 0.00000 -9.39298e-09
  21 4978.98 0.00000 -7.82644e-09
  22 4978.98 0.00000 -6.26989e-09
  23 4978.98 0.00000 -3.88470e-09
  24 4978.98 0.00000 -8.51206e-10
  25 4978.98 0.00000 1.95243e-10
  26 4978.98 0.00000 1.15719e-09
  27 4978.98 0.00000 1.94387e-09
  28 4978.98 0.00000 1.75760e-09
  29 4978.98 0.00000 8.38092e-10
  30 4978.98 0.00000 6.09344e-10
  31 4978.98 0.00000 6.85068e-10
  32 4978.98 0.00000 2.46823e-09
  33 4978.98 0.00000 6.09965e-09
  34 4978.98 0.00000 1.26093e-08
  35 4978.98 0.00000 1.55602e-08
  36 4978.98 0.00000 1.83114e-08
  37 4978.98 0.00000 1.85985e-08
  38 4978.98 0.00000 1.71058e-08
  39 4978.98 0.00000 1.18710e-08
  40 4978.98 0.00000 2.19093e-09
  41 4978.98 0.00000 -9.73811e-09
  42 4978.98 0.00000 -2.62134e-08
  43 4978.98 0.00000 -4.14803e-08
  44 4978.98 0.00000 -5.52921e-08
  45 4978.98 0.00000 -6.49226e-08
  46 4978.98 0.00000 -6.27365e-08
  47 4978.98 0.00000 -5.83395e-08
  48 4978.98 0.00000 -4.69540e-08
  49 4978.98 0.00000 -2.70365e-08
  50 4978.98 0.00000 -8.75218e-09
  51 4978.98 0.00000 -6.01508e-09
  52 4978.98 0.00000 -3.92638e-09
  53 4978.98 0.00000 8.94266e-10
  54 4978.98 0.00000 5.49456e-09
  55 4978.98 0.00000 6.75334e-09
  56 4978.98 0.00000 8.25509e-09
  57 4978.98 0.00000 1.02371e-09
  58 4978.98 0.00000 -2.85113e-09
  59 4978.98 0.00000 -1.42522e-09
  60 4978.98 0.00000 7.45366e-09
  61 4978.98 0.00000 1.44847e-08
  62 4978.98 0.00000 -1.78074e-08
  63 4978.98 0.00000 -5.57944e-09
  64 4978.98 0.00000 -2.60312e-09
  65 4978.98 0.00000 -2.49785e-08
  66 4978.98 0.00000 1.98611e-08
  67 4978.98 0.00000 2.62839e-09
  68 4978.98 0.00000 -5.30413e-09
  69 4978.98 0.00000 9.42554e-09
  70 4978.98 0.00000 4.24523e-09
  71 4978.98 0.00000 3.03873e-08
  72 4978.98 0.00000 6.56736e-09
  73 4978.98 0.00000 -8.79026e-09
  74 4978.98 0.00000 -3.56867e-08
  75 4978.98 0.00000 -1.13197e-08
  76 4978.98 0.00000 2.48711e-09
  77 4978.98 0.00000 -9.04576e-10
  78 4978.98 0.00000 7.61059e-09
  79 4978.98 0.00000 -2.64350e-09
  80 4978.98 0.00000 8.91034e-10
  81 4978.98 0.00000 7.01417e-10
  82 4978.98 0.00000 1.41212e-08
  83 4978.98 0.00000 1.80769e-09
  84 4978.98 0.00000 4.44522e-08
  85 4978.98 0.00000 -1.45445e-08
  86 4978.98 0.00000 -2.63717e-09
  87 4978.98 0.00000 -2.86289e-08
  88 4978.98 0.00000 2.76091e-09
  89 4978.98 0.00000 2.49841e-08
  90 4978.98 0.00000 3.76085e-08
  91 4978.98 0.00000 -3.53428e-08
  92 4978.98 0.00000 -6.62213e-09
  93 4978.98 0.00000 -1.51375e-09
  94 4978.98 0.00000 -1.29209e-08
  95 4978.98 0.00000 -2.84635e-08
  96 4978.98 0.00000 -1.33815e-09
  97 4978.98 0.00000 -6.68762e-09
  98 4978.98 0.00000 -4.89926e-08
  99 4978.98 0.00000 -3.27049e-09
  100 4978.98 0.00000 2.04654e-08
  101 4978.98 0.00000 1.88437e-08
  102 4978.98 0.00000 -6.42674e-09
  103 4978.98 0.00000 1.08292e-09
  104 4978.98 0.00000 -1.76634e-08
  105 4978.98 0.00000 -1.42507e-09
  106 4978.98 0.00000 -1.65426e-09
  107 4978.98 0.00000 1.19956e-09
  108 4978.98 0.00000 -7.73344e-09
  109 4978.98 0.00000 9.66005e-09
  110 4978.98 0.00000 2.80595e-09
  111 4978.98 0.00000 3.85937e-09
  112 4978.98 0.00000 -1.53164e-09
  113 4978.98 0.00000 1.31141e-08
  114 4978.98 0.00000 1.63044e-08
  115 4978.98 0.00000 3.76066e-09
  116 4978.98 0.00000 5.09279e-08
  117 4978.98 0.00000 -5.01930e-09
  118 4978.98 0.00000 -2.40189e-08
  119 4978.98 0.00000 -8.50098e-09
  120 4978.98 0.00000 1.11143e-08
  121 4978.98 0.00000 1.41772e-08
  122 4978.98 0.00000 5.83174e-09
  123 4978.98 0.00000 1.17872e-08
  124 4978.98 0.00000 1.91497e-09
  125 4978.98 0.00000 -1.24060e-08
  126 4978.98 0.00000 5.07188e-08
  127 4978.98 0.00000 -8.00031e-09
  128 4978.98 0.00000 -1.02082e-08
  129 4978.98 0.00000 -5.32563e-08
  130 4978.98 0.00000 1.42839e-09
  131 4978.98 0.00000 1.09283e-08
  132 4978.98 0.00000 -1.36754e-08
  133 4978.98 0.00000 -1.66093e-08
  134 4978.98 0.00000 2.79458e-08
  135 4978.98 0.00000 -6.01564e-09
  136 4978.98 0.00000 -4.82371e-08
  137 4978.98 0.00000 4.60837e-09
  138 4978.98 0.00000 -4.70781e-09
  139 4978.98 0.00000 5.46515e-09
  140 4978.98 0.00000 8.03643e-10
  141 4978.98 0.00000 3.58249e-09
  142 4978.98 0.00000 5.07352e-08
  143 4978.98 0.00000 -1.62791e-08
  144 4978.98 0.00000 1.03389e-08
  145 4978.98 0.00000 8.89372e-09
  146 4978.98 0.00000 -4.11304e-08
  147 4978.98 0.00000 5.62935e-09
  148 4978.98 0.00000 3.16397e-09
  149 4978.98 0.00000 2.79983e-09
  150 4978.98 0.00000 4.81343e-12
  151 4978.98 0.00000 1.31098e-08
  152 4978.98 0.00000 -5.63156e-09
  153 4978.98 0.00000 -1.31429e-09
  154 4978.98 0.00000 -7.90438e-10
  155 4978.98 0.00000 5.86260e-09
  156 4978.98 0.00000 -1.35141e-10
  157 4978.98 0.00000 -1.12627e-08
  158 4978.98 0.00000 3.17473e-09
  159 4978.98 0.00000 -1.63855e-09
  160 4978.98 0.00000 -6.80517e-10
  161 4978.98 0.00000 2.18527e-09
  162 4978.98 0.00000 -6.78479e-09
  163 4978.98 0.00000 3.17825e-09
  164 4978.98 0.00000 -9.30120e-09
  165 4978.98 0.00000 3.08487e-08
  166 4978.98 0.00000 -1.11830e-08
  167 4978.98 0.00000 -1.79521e-10
  168 4978.98 0.00000 1.65305e-09
  169 4978.98 0.00000 1.25212e-08
  170 4978.98 0.00000 3.03113e-09
  171 4978.98 0.00000 3.20741e-08
  172 4978.98 0.00000 2.45935e-09
  173 4978.98 0.00000 -5.04720e-08
  174 4978.98 0.00000 -2.20181e-09
  175 4978.98 0.00000 -1.82882e-08
  176 4978.98 0.00000 1.92226e-08
  177 4978.98 0.00000 1.25873e-09
  178 4978.98 0.00000 -3.04648e-09
  179 4978.98 0.00000 5.74298e-08
  180 4978.98 0.00000 5.46375e-09
  181 4978.98 0.00000 -2.79098e-09
  182 4978.98 0.00000 1.65214e-08
  183 4978.98 0.00000 -2.92765e-08
  184 4978.98 0.00000 -1.87198e-08
  185 4978.98 0.00000 3.16430e-08
  186 4978.98 0.00000 -4.92781e-09
  187 4978.98 0.00000 2.62050e-09
  188 4978.98 0.00000 -2.08119e-09
  189 4978.98 0.00000 1.31971e-08
  190 4978.98 0.00000 -3.57547e-08
  191 4978.98 0.00000 -1.14650e-08
  192 4978.98 0.00000 -1.06923e-08
  193 4978.98 0.00000 1.52988e-08
  194 4978.98 0.00000 -8.28193e-10
  195 4978.98 0.00000 -2.02335e-08
  196 4978.98 0.00000 3.37847e-09
  197 4978.98 0.00000 1.79745e-08
  198 4978.98 0.00000 -1.48271e-08
  199 4978.98 0.00000 -1.07881e-08
  200 4978.98 0.00000 -1.54181e-09
  201 4978.98 0.00000 -3.48136e-09
  202 4978.98 0.00000 1.07681e-08
  203 4978.98 0.00000 2.38418e-08
  204 4978.98 0.00000 -7.37443e-10
  205 4978.98 0.00000 1.35450e-08
  206 4978.98 0.00000 -7.60953e-09
  207 4978.98 0.00000 -5.56173e-08
  208 4978.98 0.00000 1.25252e-08
  209 4978.98 0.00000 -4.27330e-09
  210 4978.98 0.00000 -3.74069e-08
  211 4978.98 0.00000 4.06496e-08
  212 4978.98 0.00000 -4.44795e-09
  213 4978.98 0.00000 -3.52008e-08
  214 4978.98 0.00000 -2.96227e-08
  215 4978.98 0.00000 1.57956e-10
  216 4978.98 0.00000 -2.24595e-08
  217 4978.98 0.00000 -6.18451e-09
  218 4978.98 0.00000 -3.88416e-08
  219 4978.98 0.00000 -1.07092e-08
  220 4978.98 0.00000 -2.51730e-08
  221 4978.98 0.00000 -2.03873e-09
  222 4978.98 0.00000 -3.52781e-09
  223 4978.98 0.00000 4.54230e-08
  224 4978.98 0.00000 4.26088e-08
  225 4978.98 0.00000 -1.24195e-08
  226 4978.98 0.00000 2.01212e-08
  227 4978.98 0.00000 -3.38332e-09
  228 4978.98 0.00000 -6.80479e-09
  229 4978.98 0.00000 8.50418e-09
  230 4978.98 0.00000 3.07702e-09
  231 4978.98 0.00000 -5.37775e-09
  232 4978.98 0.00000 -1.67610e-08
  233 4978.98 0.00000 -2.29428e-09
  234 4978.98 0.00000 -1.99774e-08
  235 4978.98 0.00000 -2.25992e-09
  236 4978.98 0.00000 3.43544e-08
  237 4978.98 0.00000 1.86351e-09
  238 4978.98 0.00000 6.93166e-09
  239 4978.98 0.00000 -4.48618e-09
  240 4978.98 0.00000 2.16869e-08
  241 4978.98 0.00000 -1.61630e-08
</Section>

newXOutput 121

<Section columns = "stress_xx | stress_yy | stress_xy">
  1 5037.21 0.00000 -1.45887e-08
  2 5037.21 0.00000 2.59448e-09
  3 5037.21 0.00000 -4.18517e-10
  4 5037.21 0.00000 1.60755e-08
  5 5037.21 0.00000 -3.35175e-08
  6 5037.21 0.00000 -5.72293e-08
  7 5037.21 0.00000 -7.44089e-08
  8 5037.21 0.00000 -8.26770e-08
  9 5037.21 0.00000 -7.72553e-08
  10 5037.21 0.00000 -6.80664e-08
  11 5037.21 0.00000 -5.48636e-08
  12 5037.21 0.00000 -3.73432e-08
  13 5037.21 0.00000 -1.73307e-08
  14 5037.21 0.00000 4.82264e-11
  15 5037.21 0.00000 1.44362e-08
  16 5037.21 0.00000 2.37918e-08
  17 5037.21 0.00000 2.51902e-08
  18 5037.21 0.00000 2.35206e-08
  19 5037.21 0.00000 1.81934e-08
  20 5037.21 0.00000 1.23715e-08
  21 5037.21 0.00000 1.03109e-08
  22 5037.21 0.00000 8.17396e-09
  23 5037.21 0.00000 4.99469e-09
  24 5037.21 0.00000 1.12509e-09
  25 5037.21 0.00000 -1.53345e-10
  26 5037.21 0.00000 -1.33484e-09
  27 5037.21 0.00000 -2.33702e-09
  28 5037.21 0.00000 -2.17467e-09
  29 5037.21 0.00000 -1.08588e-09
  30 5037.21 0.00000 -8.38628e-10
  31 5037.21 0.00000 -1.18155e-09
  32 5037.21 0.00000 -3.53639e-09
  33 5037.21 0.00000 -8.11941e-09
  34 5037.21 0.00000 -1.63033e-08
  35 5037.21 0.00000 -1.99072e-08
  36 5037.21 0.00000 -2.32367e-08
  37 5037.21 0.00000 -2.33753e-08
  38 5037.21 0.00000 -2.11676e-08
  39 5037.21 0.00000 -1.42627e-08
  40 5037.21 0.00000 -1.86972e-09
  41 5037.21 0.00000 1.33110e-08
  42 5037.21 0.00000 3.41577e-08
  43 5037.21 0.00000 5.33353e-08
  44 5037.21 0.00000 7.05853e-08
  45 5037.21 0.00000 8.24983e-08
  46 5037.21 0.00000 7.95014e-08
  47 5037.21 0.00000 7.37519e-08
  48 5037.21 0.00000 5.92402e-08
  49 5037.21 0.00000 3.40703e-08
  50 5037.21 0.00000 1.10035e-08
  51 5037.21 0.00000 7.57292e-09
  52 5037.21 0.00000 4.94439e-09
  53 5037.21 0.00000 -1.11963e-09
  54 5037.21 0.00000 -6.91430e-09
  55 5037.21 0.00000 -8.50049e-09
  56 5037.21 0.00000 -1.03784e-08
  57 5037.21 0.00000 -1.24145e-09
  58 5037.21 0.00000 3.39511e-09
  59 5037.21 0.00000 1.75344e-09
  60 5037.21 0.00000 -9.21280e-09
  61 5037.21 0.00000 -1.86219e-08
  62 5037.21 0.00000 2.28122e-08
  63 5037.21 0.00000 7.13677e-09
  64 5037.21 0.00000 3.48060e-09
  65 5037.21 0.00000 3.15365e-08
  66 5037.21 0.00000 -2.50495e-08
  67 5037.21 0.00000 -3.47778e-09
  68 5037.21 0.00000 6.43630e-09
  69 5037.21 0.00000 -1.19990e-08
  70 5037.21 0.00000 -4.88846e-09
  71 5037.21 0.00000 -3.85946e-08
  72 5037.21 0.00000 -8.94012e-09
  73 5037.21 0.00000 1.11831e-08
  74 5037.21 0.00000 4.52492e-08
  75 5037.21 0.00000 1.48513e-08
  76 5037.21 0.00000 -2.99523e-09
  77 5037.21 0.00000 1.11364e-09
  78 5037.21 0.00000 -9.95338e-09
  79 5037.21 0.00000 3.27416e-09
  80 5037.21 0.00000 -1.10237e-09
  81 5037.21 0.00000 -8.19344e-10
  82 5037.21 0.00000 -1.75715e-08
  83 5037.21 0.00000 -2.26113e-09
  84 5037.21 0.00000 -5.61909e-08
  85 5037.21 0.00000 1.81355e-08
  86 5037.21 0.00000 3.53156e-09
  87 5037.21 0.00000 3.60720e-08
  88 5037.21 0.00000 -3.70646e-09
  89 5037.21 0.00000 -3.14559e-08
  90 5037.21 0.00000 -4.81396e-08
  91 5037.21 0.00000 4.51566e-08
  92 5037.21 0.00000 8.35634e-09
  93 5037.21 0.00000 1.91784e-09
  94 5037.21 0.00000 1.63996e-08
  95 5037.21 0.00000 3.66069e-08
  96 5037.21 0.00000 1.76980e-09
  97 5037.21 0.00000 8.80548e-09
  98 5037.21 0.00000 6.19446e-08
  99 5037.21 0.00000 3.45784e-09
  100 5037.21 0.00000 -2.58640e-08
  101 5037.21 0.00000 -2.45600e-08
  102 5037.21 0.00000 8.10572e-09
  103 5037.21 0.00000 -1.62808e-09
  104 5037.21 0.00000 2.25683e-08
  105 5037.21 0.00000 2.53766e-09
  106 5037.21 0.00000 1.79572e-09
  107 5037.21 0.00000 -1.35577e-09
  108 5037.21 0.00000 9.72038e-09
  109 5037.21 0.00000 -1.21520e-08
  110 5037.21 0.00000 -3.49420e-09
  111 5037.21 0.00000 -5.20054e-09
  112 5037.21 0.00000 2.20123e-09
  113 5037.21 0.00000 -1.60667e-08
  114 5037.21 0.00000 -2.05146e-08
  115 5037.21 0.00000 -5.09966e-09
  116 5037.21 0.00000 -6.42743e-08
  117 5037.21 0.00000 6.42449e-09
  118 5037.21 0.00000 3.03982e-08
  119 5037.21 0.00000 1.02372e-08
  120 5037.21 0.00000 -1.43225e-08
  121 5037.21 0.00000 -1.79576e-08
  122 5037.21 0.00000 -7.13987e-09
  123 5037.21 0.00000 -1.47234e-08
  124 5037.21 0.00000 -2.56130e-09
  125 5037.21 0.00000 1.59635e-08
  126 5037.21 0.00000 -6.43624e-08
  127 5037.21 0.00000 9.98485e-09
  128 5037.21 0.00000 1.32360e-08
  129 5037.21 0.00000 6.75314e-08
  130 5037.21 0.00000 -1.63924e-09
  131 5037.21 0.00000 -1.46607e-08
  132 5037.21 0.00000 1.81355e-08
  133 5037.21 0.00000 2.09214e-08
  134 5037.21 0.00000 -3.56467e-08
  135 5037.21 0.00000 7.92091e-09
  136 5037.21 0.00000 6.08860e-08
  137 5037.21 0.00000 -6.12146e-09
  138 5037.21 0.00000 6.02870e-09
  139 5037.21 0.00000 -6.90765e-09
  140 5037.21 0.00000 -1.04643e-09
  141 5037.21 0.00000 -4.64659e-09
  142 5037.21 0.00000 -6.47318e-08
  143 5037.21 0.00000 2.07308e-08
  144 5037.21 0.00000 -1.27132e-08
  145 5037.21 0.00000 -1.16323e-08
  146 5037.21 0.00000 5.26902e-08
  147 5037.21 0.00000 -6.36286e-09
  148 5037.21 0.00000 -3.98046e-09
  149 5037.21 0.00000 -3.40076e-09
  150 5037.21 0.00000 -3.94194e-10
  151 5037.21 0.00000 -1.70758e-08
  152 5037.21 0.00000 7.01839e-09
  153 5037.21 0.00000 1.62801e-09
  154 5037.21 0.00000 9.40414e-10
  155 5037.21 0.00000 -7.30693e-09
  156 5037.21 0.00000 3.09620e-10
  157 5037.21 0.00000 1.41730e-08
  158 5037.21 0.00000 -3.85076e-09
  159 5037.21 0.00000 2.18342e-09
  160 5037.21 0.00000 8.60796e-10
  161 5037.21 0.00000 -2.61178e-09
  162 5037.21 0.00000 8.66509e-09
  163 5037.21 0.00000 -3.87800e-09
  164 5037.21 0.00000 1.18152e-08
  165 5037.21 0.00000 -3.90538e-08
  166 5037.21 0.00000 1.40773e-08
  167 5037.21 0.00000 3.52285e-10
  168 5037.21 0.00000 -2.15176e-09
  169 5037.21 0.00000 -1.57551e-08
  170 5037.21 0.00000 -4.14529e-09
  171 5037.21 0.00000 -4.13581e-08
  172 5037.21 0.00000 -3.99398e-09
  173 5037.21 0.00000 6.42987e-08
  174 5037.21 0.00000 2.86079e-09
  175 5037.21 0.00000 2.30266e-08
  176 5037.21 0.00000 -2.41777e-08
  177 5037.21 0.00000 -1.76804e-09
  178 5037.21 0.00000 3.99282e-09
  179 5037.21 0.00000 -7.26332e-08
  180 5037.21 0.00000 -6.89659e-09
  181 5037.21 0.00000 3.45141e-09
  182 5037.21 0.00000 -2.05946e-08
  183 5037.21 0.00000 3.74922e-08
  184 5037.21 0.00000 2.33422e-08
  185 5037.21 0.00000 -3.99572e-08
  186 5037.21 0.00000 5.46550e-09
  187 5037.21 0.00000 -3.66835e-09
  188 5037.21 0.00000 2.47908e-09
  189 5037.21 0.00000 -1.68280e-08
  190 5037.21 0.00000 4.55096e-08
  191 5037.21 0.00000 1.46857e-08
  192 5037.21 0.00000 1.34972e-08
  193 5037.21 0.00000 -1.94508e-08
  194 5037.21 0.00000 1.24210e-09
  195 5037.21 0.00000 2.54824e-08
  196 5037.21 0.00000 -4.35015e-09
  197 5037.21 0.00000 -2.26420e-08
  198 5037.21 0.00000 1.89061e-08
  199 5037.21 0.00000 1.36666e-08
  200 5037.21 0.00000 1.77857e-09
  201 5037.21 0.00000 4.95846e-09
  202 5037.21 0.00000 -1.33538e-08
  203 5037.21 0.00000 -3.06822e-08
  204 5037.21 0.00000 3.45825e-10
  205 5037.21 0.00000 -1.71457e-08
  206 5037.21 0.00000 1.00443e-08
  207 5037.21 0.00000 7.03728e-08
  208 5037.21 0.00000 -1.61613e-08
  209 5037.21 0.00000 5.66123e-09
  210 5037.21 0.00000 4.71979e-08
  211 5037.21 0.00000 -5.12263e-08
  212 5037.21 0.00000 5.79445e-09
  213 5037.21 0.00000 4.43754e-08
  214 5037.21 0.00000 3.82786e-08
  215 5037.21 0.00000 -4.74026e-10
  216 5037.21 0.00000 2.88480e-08
  217 5037.21 0.00000 8.04846e-09
  218 5037.21 0.00000 4.91157e-08
  219 5037.21 0.00000 1.32156e-08
  220 5037.21 0.00000 3.21551e-08
  221 5037.21 0.00000 2.38225e-09
  222 5037.21 0.00000 4.39250e-09
  223 5037.21 0.00000 -5.81967e-08
  224 5037.21 0.00000 -5.42715e-08
  225 5037.21 0.00000 1.58326e-08
  226 5037.21 0.00000 -2.53881e-08
  227 5037.21 0.00000 3.84641e-09
  228 5037.21 0.00000 8.90088e-09
  229 5037.21 0.00000 -1.07237e-08
  230 5037.21 0.00000 -3.83996e-09
  231 5037.21 0.00000 6.82845e-09
  232 5037.21 0.00000 2.11648e-08
  233 5037.21 0.00000 2.99821e-09
  234 5037.21 0.00000 2.58639e-08
  235 5037.21 0.00000 3.74450e-09
  236 5037.21 0.00000 -4.33113e-08
  237 5037.21 0.00000 -3.12087e-09
  238 5037.21 0.00000 -9.03701e-09
  239 5037.21 0.00000 5.72900e-09
  240 5037.21 0.00000 -2.83253e-08
  241 5037.21 0.00000 1.99695e-08
</Section>

newXOutput 122

<Section columns = "stress_xx | stress_yy | stress_xy">
  1 5095.67 0.00000 1.83777e-08
  2 5095.67 0.00000 -3.30310e-09
  3 5095.67 0.00000 7.08789e-10
  4 5095.67 0.00000 -2.02478e-08
  5 5095.67 0.00000 4.23385e-08
  6 5095.67 0.00000 7.24012e-08
  7 5095.67 0.00000 9.42086e-08
  8 5095.67 0.00000 1.05016e-07
  9 5095.67 0.00000 9.85688e-08
  10 5095.67 0.00000 8.72540e-08
  11 5095.67 0.00000 7.07064e-08
  12 5095.67 0.00000 4.86229e-08
  13 5095.67 0.00000 2.32170e-08
  14 5095.67 0.00000 1.07920e-09
  15 5095.67 0.00000 -1.74375e-08
  16 5095.67 0.00000 -2.95599e-08
  17 5095.67 0.00000 -3.16189e-08
  18 5095.67 0.00000 -2.98428e-08
  19 5095.67 0.00000 -2.35081e-08
  20 5095.67 0.00000 -1.62822e-08
  21 5095.67 0.00000 -1.35782e-08
  22 5095.67 0.00000 -1.06739e-08
  23 5095.67 0.00000 -6.45071e-09
  24 5095.67 0.00000 -1.48493e-09
  25 5095.67 0.00000 7.93793e-11
  26 5095.67 0.00000 1.53161e-09
  27 5095.67 0.00000 2.81305e-09
  28 5095.67 0.00000 2.70089e-09
  29 5095.67 0.00000 1.41207e-09
  30 5095.67 0.00000 1.14782e-09
  31 5095.67 0.00000 1.89125e-09
  32 5095.67 0.00000 5.00349e-09
  33 5095.67 0.00000 1.07980e-08
  34 5095.67 0.00000 2.11078e-08
  35 5095.67 0.00000 2.55125e-08
  36 5095.67 0.00000 2.95428e-08
  37 5095.67 0.00000 2.94291e-08
  38 5095.67 0.00000 2.62270e-08
  39 5095.67 0.00000 1.71153e-08
  40 5095.67 0.00000 1.20850e-09
  41 5095.67 0.00000 -1.81572e-08
  42 5095.67 0.00000 -4.45940e-08
  43 5095.67 0.00000 -6.87455e-08
  44 5095.67 0.00000 -9.03421e-08
  45 5095.67 0.00000 -1.05102e-07
  46 5095.67 0.00000 -1.01011e-07
  47 5095.67 0.00000 -9.34889e-08
  48 5095.67 0.00000 -7.49466e-08
  49 5095.67 0.00000 -4.30516e-08
  50 5095.67 0.00000 -1.38738e-08
  51 5095.67 0.00000 -9.56177e-09
  52 5095.67 0.00000 -6.24347e-09
  53 5095.67 0.00000 1.40590e-09
  54 5095.67 0.00000 8.72491e-09
  55 5095.67 0.00000 1.07292e-08
  56 5095.67 0.00000 1.30849e-08
  57 5095.67 0.00000 1.50924e-09
  58 5095.67 0.00000 -4.05196e-09
  59 5095.67 0.00000 -2.16282e-09
  60 5095.67 0.00000 1.14113e-08
  61 5095.67 0.00000 2.39968e-08
  62 5095.67 0.00000 -2.92992e-08
  63 5095.67 0.00000 -9.14343e-09
  64 5095.67 0.00000 -4.64680e-09
  65 5095.67 0.00000 -3.99231e-08
  66 5095.67 0.00000 3.16801e-08
  67 5095.67 0.00000 4.60290e-09
  68 5095.67 0.00000 -7.80464e-09
  69 5095.67 0.00000 1.53028e-08
  70 5095.67 0.00000 5.57843e-09
  71 5095.67 0.00000 4.91457e-08
  72 5095.67 0.00000 1.21439e-08
  73 5095.67 0.00000 -1.42620e-08
  74 5095.67 0.00000 -5.75250e-08
  75 5095.67 0.00000 -1.95180e-08
  76 5095.67 0.00000 3.61656e-09
  77 5095.67 0.00000 -1.37477e-09
  78 5095.67 0.00000 1.30239e-08
  79 5095.67 0.00000 -4.06765e-09
  80 5095.67 0.00000 1.36649e-09
  81 5095.67 0.00000 9.57183e-10
  82 5095.67 0.00000 2.19032e-08
  83 5095.67 0.00000 2.83400e-09
  84 5095.67 0.00000 7.12218e-08
  85 5095.67 0.00000 -2.26488e-08
  86 5095.67 0.00000 -4.72188e-09
  87 5095.67 0.00000 -4.55768e-08
  88 5095.67 0.00000 4.96403e-09
  89 5095.67 0.00000 3.97170e-08
  90 5095.67 0.00000 6.17701e-08
  91 5095.67 0.00000 -5.78387e-08
  92 5095.67 0.00000 -1.05711e-08
  93 5095.67 0.00000 -2.43510e-09
  94 5095.67 0.00000 -2.08518e-08
  95 5095.67 0.00000 -4.71997e-08
  96 5095.67 0.00000 -2.32991e-09
  97 5095.67 0.00000 -1.15995e-08
  98 5095.67 0.00000 -7.85301e-08
  99 5095.67 0.00000 -3.51216e-09
  100 5095.67 0.00000 3.27789e-08
  101 5095.67 0.00000 3.20726e-08
  102 5095.67 0.00000 -1.02460e-08
  103 5095.67 0.00000 2.38012e-09
  104 5095.67 0.00000 -2.89072e-08
  105 5095.67 0.00000 -4.16543e-09
  106 5095.67 0.00000 -1.89526e-09
  107 5095.67 0.00000 1.51719e-09
  108 5095.67 0.00000 -1.22529e-08
  109 5095.67 0.00000 1.53309e-08
  110 5095.67 0.00000 4.36780e-09
  111 5095.67 0.00000 6.98563e-09
  112 5095.67 0.00000 -3.13453e-09
  113 5095.67 0.00000 1.96992e-08
  114 5095.67 0.00000 2.58651e-08
  115 5095.67 0.00000 6.90438e-09
  116 5095.67 0.00000 8.13413e-08
  117 5095.67 0.00000 -8.24131e-09
  118 5095.67 0.00000 -3.85752e-08
  119 5095.67 0.00000 -1.23081e-08
  120 5095.67 0.00000 1.84849e-08
  121 5095.67 0.00000 2.28065e-08
  122 5095.67 0.00000 8.74743e-09
  123 5095.67 0.00000 1.84295e-08
  124 5095.67 0.00000 3.41234e-09
  125 5095.67 0.00000 -2.05974e-08
  126 5095.67 0.00000 8.18903e-08
  127 5095.67 0.00000 -1.24753e-08
  128 5095.67 0.00000 -1.71797e-08
  129 5095.67 0.00000 -8.58564e-08
  130 5095.67 0.00000 1.85823e-09
  131 5095.67 0.00000 1.96688e-08
  132 5095.67 0.00000 -2.40744e-08
  133 5095.67 0.00000 -2.64029e-08
  134 5095.67 0.00000 4.55856e-08
  135 5095.67 0.00000 -1.04329e-08
  136 5095.67 0.00000 -7.70606e-08
  137 5095.67 0.00000 8.11964e-09
  138 5095.67 0.00000 -7.75094e-09
  139 5095.67 0.00000 8.75556e-09
  140 5095.67 0.00000 1.36256e-09
  141 5095.67 0.00000 6.03546e-09
  142 5095.67 0.00000 8.27990e-08
  143 5095.67 0.00000 -2.64677e-08
  144 5095.67 0.00000 1.56518e-08
  145 5095.67 0.00000 1.52193e-08
  146 5095.67 0.00000 -6.76690e-08
  147 5095.67 0.00000 7.09065e-09
  148 5095.67 0.00000 5.02203e-09
  149 5095.67 0.00000 4.14281e-09
  150 5095.67 0.00000 9.94540e-10
  151 5095.67 0.00000 2.22813e-08
  152 5095.67 0.00000 -8.77335e-09
  153 5095.67 0.00000 -2.01355e-09
  154 5095.67 0.00000 -1.11485e-09
  155 5095.67 0.00000 9.12926e-09
  156 5095.67 0.00000 -5.64544e-10
  157 5095.67 0.00000 -1.78845e-08
  158 5095.67 0.00000 4.67953e-09
  159 5095.67 0.00000 -2.89791e-09
  160 5095.67 0.00000 -1.09221e-09
  161 5095.67 0.00000 3.12499e-09
  162 5095.67 0.00000 -1.10983e-08
  163 5095.67 0.00000 4.74104e-09
  164 5095.67 0.00000 -1.50398e-08
  165 5095.67 0.00000 4.95755e-08
  166 5095.67 0.00000 -1.77712e-08
  167 5095.67 0.00000 -6.02169e-10
  168 5095.67 0.00000 2.80510e-09
  169 5095.67 0.00000 1.98816e-08
  170 5095.67 0.00000 5.64180e-09
  171 5095.67 0.00000 5.34533e-08
  172 5095.67 0.00000 6.20153e-09
  173 5095.67 0.00000 -8.21226e-08
  174 5095.67 0.00000 -3.72554e-09
  175 5095.67 0.00000 -2.90745e-08
  176 5095.67 0.00000 3.04980e-08
  177 5095.67 0.00000 2.45978e-09
  178 5095.67 0.00000 -5.23970e-09
  179 5095.67 0.00000 9.21087e-08
  180 5095.67 0.00000 8.73153e-09
  181 5095.67 0.00000 -4.27954e-09
  182 5095.67 0.00000 2.57143e-08
  183 5095.67 0.00000 -4.81347e-08
  184 5095.67 0.00000 -2.91574e-08
  185 5095.67 0.00000 5.05956e-08
  186 5095.67 0.00000 -5.93759e-09
  187 5095.67 0.00000 5.09319e-09
  188 5095.67 0.00000 -2.95082e-09
  189 5095.67 0.00000 2.15138e-08
  190 5095.67 0.00000 -5.80722e-08
  191 5095.67 0.00000 -1.88568e-08
  192 5095.67 0.00000 -1.70702e-08
  193 5095.67 0.00000 2.47792e-08
  194 5095.67 0.00000 -1.82290e-09
  195 5095.67 0.00000 -3.21812e-08
  196 5095.67 0.00000 5.61233e-09
  197 5095.67 0.00000 2.86026e-08
  198 5095.67 0.00000 -2.41460e-08
  199 5095.67 0.00000 -1.73576e-08
  200 5095.67 0.00000 -2.04827e-09
  201 5095.67 0.00000 -7.00013e-09
  202 5095.67 0.00000 1.65925e-08
  203 5095.67 0.00000 3.95778e-08
  204 5095.67 0.00000 3.07280e-10
  205 5095.67 0.00000 2.17653e-08
  206 5095.67 0.00000 -1.32512e-08
  207 5095.67 0.00000 -8.92809e-08
  208 5095.67 0.00000 2.08819e-08
  209 5095.67 0.00000 -7.50142e-09
  210 5095.67 0.00000 -5.97125e-08
  211 5095.67 0.00000 6.47359e-08
  212 5095.67 0.00000 -7.56174e-09
  213 5095.67 0.00000 -5.60955e-08
  214 5095.67 0.00000 -4.95790e-08
  215 5095.67 0.00000 9.27926e-10
  216 5095.67 0.00000 -3.71494e-08
  217 5095.67 0.00000 -1.04894e-08
  218 5095.67 0.00000 -6.22743e-08
  219 5095.67 0.00000 -1.63176e-08
  220 5095.67 0.00000 -4.11757e-08
  221 5095.67 0.00000 -2.76510e-09
  222 5095.67 0.00000 -5.48950e-09
  223 5095.67 0.00000 7.47439e-08
  224 5095.67 0.00000 6.93013e-08
  225 5095.67 0.00000 -2.02205e-08
  226 5095.67 0.00000 3.21224e-08
  227 5095.67 0.00000 -4.31948e-09
  228 5095.67 0.00000 -1.16691e-08
  229 5095.67 0.00000 1.35600e-08
  230 5095.67 0.00000 4.81060e-09
  231 5095.67 0.00000 -8.68453e-09
  232 5095.67 0.00000 -2.67988e-08
  233 5095.67 0.00000 -3.91803e-09
  234 5095.67 0.00000 -3.35655e-08
  235 5095.67 0.00000 -5.89071e-09
  236 5095.67 0.00000 5.47551e-08
  237 5095.67 0.00000 4.93452e-09
  238 5095.67 0.00000 1.18004e-08
  239 5095.67 0.00000 -7.32181e-09
  240 5095.67 0.00000 3.70660e-08
  241 5095.67 0.00000 -2.46998e-08
</Section>

newXOutput 123

<Section columns = "stress_xx | stress_yy | stress_xy">
  1 5154.37 0.00000 -2.32168e-08
  2 5154.37 0.00000 4.21894e-09
  3 5154.37 0.00000 -1.12824e-09
  4 5154.37 0.00000 2.55763e-08
  5 5154.37 0.00000 -5.36333e-08
  6 5154.37 0.00000 -9.18506e-08
  7 5154.37 0.00000 -1.19606e-07
  8 5154.37 0.00000 -1.33747e-07
  9 5154.37 0.00000 -1.26086e-07
  10 5154.37 0.00000 -1.12130e-07
  11 5154.37 0.00000 -9.13488e-08
  12 5154.37 0.00000 -6.34473e-08
  13 5154.37 0.00000 -3.11144e-08
  14 5154.37 0.00000 -2.85277e-09
  15 5154.37 0.00000 2.10255e-08
  16 5154.37 0.00000 3.67742e-08
  17 5154.37 0.00000 3.97664e-08
  18 5154.37 0.00000 3.79449e-08
  19 5154.37 0.00000 3.04161e-08
  20 5154.37 0.00000 2.14406e-08
  21 5154.37 0.00000 1.78954e-08
  22 5154.37 0.00000 1.39599e-08
  23 5154.37 0.00000 8.34796e-09
  24 5154.37 0.00000 1.96516e-09
  25 5154.37 0.00000 4.29848e-11
  26 5154.37 0.00000 -1.75235e-09
  27 5154.37 0.00000 -3.39896e-09
  28 5154.37 0.00000 -3.36466e-09
  29 5154.37 0.00000 -1.84033e-09
  30 5154.37 0.00000 -1.56678e-09
  31 5154.37 0.00000 -2.89775e-09
  32 5154.37 0.00000 -7.01387e-09
  33 5154.37 0.00000 -1.43571e-08
  34 5154.37 0.00000 -2.73822e-08
  35 5154.37 0.00000 -3.27660e-08
  36 5154.37 0.00000 -3.76299e-08
  37 5154.37 0.00000 -3.71163e-08
  38 5154.37 0.00000 -3.25384e-08
  39 5154.37 0.00000 -2.04980e-08
  40 5154.37 0.00000 -2.50516e-11
  41 5154.37 0.00000 2.47412e-08
  42 5154.37 0.00000 5.83418e-08
  43 5154.37 0.00000 8.88226e-08
  44 5154.37 0.00000 1.15924e-07
  45 5154.37 0.00000 1.34249e-07
  46 5154.37 0.00000 1.28681e-07
  47 5154.37 0.00000 1.18831e-07
  48 5154.37 0.00000 9.50773e-08
  49 5154.37 0.00000 5.45511e-08
  50 5154.37 0.00000 1.75440e-08
  51 5154.37 0.00000 1.21081e-08
  52 5154.37 0.00000 7.90593e-09
  53 5154.37 0.00000 -1.77017e-09
  54 5154.37 0.00000 -1.10424e-08
  55 5154.37 0.00000 -1.35826e-08
  56 5154.37 0.00000 -1.65454e-08
  57 5154.37 0.00000 -1.83820e-09
  58 5154.37 0.00000 4.84871e-09
  59 5154.37 0.00000 2.67390e-09
  60 5154.37 0.00000 -1.41662e-08
  61 5154.37 0.00000 -3.09968e-08
  62 5154.37 0.00000 3.77298e-08
  63 5154.37 0.00000 1.17235e-08
  64 5154.37 0.00000 6.20669e-09
  65 5154.37 0.00000 5.06748e-08
  66 5154.37 0.00000 -4.01792e-08
  67 5154.37 0.00000 -6.08698e-09
  68 5154.37 0.00000 9.44920e-09
  69 5154.37 0.00000 -1.95556e-08
  70 5154.37 0.00000 -6.29060e-09
  71 5154.37 0.00000 -6.27477e-08
  72 5154.37 0.00000 -1.64737e-08
  73 5154.37 0.00000 1.82287e-08
  74 5154.37 0.00000 7.33229e-08
  75 5154.37 0.00000 2.57010e-08
  76 5154.37 0.00000 -4.37568e-09
  77 5154.37 0.00000 1.70328e-09
  78 5154.37 0.00000 -1.70564e-08
  79 5154.37 0.00000 5.06999e-09
  80 5154.37 0.00000 -1.69811e-09
  81 5154.37 0.00000 -1.12211e-09
  82 5154.37 0.00000 -2.73468e-08
  83 5154.37 0.00000 -3.56018e-09
  84 5154.37 0.00000 -9.05201e-08
  85 5154.37 0.00000 2.83314e-08
  86 5154.37 0.00000 6.32028e-09
  87 5154.37 0.00000 5.77463e-08
  88 5154.37 0.00000 -6.64545e-09
  89 5154.37 0.00000 -5.02905e-08
  90 5154.37 0.00000 -7.94584e-08
  91 5154.37 0.00000 7.42706e-08
  92 5154.37 0.00000 1.34082e-08
  93 5154.37 0.00000 3.10039e-09
  94 5154.37 0.00000 2.65661e-08
  95 5154.37 0.00000 6.10082e-08
  96 5154.37 0.00000 3.05371e-09
  97 5154.37 0.00000 1.52825e-08
  98 5154.37 0.00000 9.98245e-08
  99 5154.37 0.00000 3.33697e-09
  100 5154.37 0.00000 -4.16552e-08
  101 5154.37 0.00000 -4.19663e-08
  102 5154.37 0.00000 1.29849e-08
  103 5154.37 0.00000 -3.40872e-09
  104 5154.37 0.00000 3.71153e-08
  105 5154.37 0.00000 6.51829e-09
  106 5154.37 0.00000 1.92416e-09
  107 5154.37 0.00000 -1.68271e-09
  108 5154.37 0.00000 1.54904e-08
  109 5154.37 0.00000 -1.93973e-08
  110 5154.37 0.00000 -5.47986e-09
  111 5154.37 0.00000 -9.36860e-09
  112 5154.37 0.00000 4.42883e-09
  113 5154.37 0.00000 -2.41649e-08
  114 5154.37 0.00000 -3.26754e-08
  115 5154.37 0.00000 -9.33340e-09
  116 5154.37 0.00000 -1.03225e-07
  117 5154.37 0.00000 1.05968e-08
  118 5154.37 0.00000 4.90804e-08
  119 5154.37 0.00000 1.47636e-08
  120 5154.37 0.00000 -2.38935e-08
  121 5154.37 0.00000 -2.90417e-08
  122 5154.37 0.00000 -1.07290e-08
  123 5154.37 0.00000 -2.31206e-08
  124 5154.37 0.00000 -4.54026e-09
  125 5154.37 0.00000 2.66493e-08
  126 5154.37 0.00000 -1.04469e-07
  127 5154.37 0.00000 1.56036e-08
  128 5154.37 0.00000 2.23281e-08
  129 5154.37 0.00000 1.09441e-07
  130 5154.37 0.00000 -2.07923e-09
  131 5154.37 0.00000 -2.63893e-08
  132 5154.37 0.00000 3.19950e-08
  133 5154.37 0.00000 3.33871e-08
  134 5154.37 0.00000 -5.84424e-08
  135 5154.37 0.00000 1.37518e-08
  136 5154.37 0.00000 9.77984e-08
  137 5154.37 0.00000 -1.07571e-08
  138 5154.37 0.00000 9.99498e-09
  139 5154.37 0.00000 -1.11283e-08
  140 5154.37 0.00000 -1.77986e-09
  141 5154.37 0.00000 -7.85405e-09
  142 5154.37 0.00000 -1.06179e-07
  143 5154.37 0.00000 3.38767e-08
  144 5154.37 0.00000 -1.92855e-08
  145 5154.37 0.00000 -1.99373e-08
  146 5154.37 0.00000 8.71236e-08
  147 5154.37 0.00000 -7.74781e-09
  148 5154.37 0.00000 -6.35378e-09
  149 5154.37 0.00000 -5.06644e-09
  150 5154.37 0.00000 -1.89311e-09
  151 5154.37 0.00000 -2.91338e-08
  152 5154.37 0.00000 1.10021e-08
  153 5154.37 0.00000 2.48001e-09
  154 5154.37 0.00000 1.32208e-09
  155 5154.37 0.00000 -1.14373e-08
  156 5154.37 0.00000 9.32331e-10
  157 5154.37 0.00000 2.26306e-08
  158 5154.37 0.00000 -5.70385e-09
  159 5154.37 0.00000 3.83512e-09
  160 5154.37 0.00000 1.38978e-09
  161 5154.37 0.00000 -3.74868e-09
  162 5154.37 0.00000 1.42556e-08
  163 5154.37 0.00000 -5.81401e-09
  164 5154.37 0.00000 1.91781e-08
  165 5154.37 0.00000 -6.31041e-08
  166 5154.37 0.00000 2.24986e-08
  167 5154.37 0.00000 9.62164e-10
  168 5154.37 0.00000 -3.66277e-09
  169 5154.37 0.00000 -2.51607e-08
  170 5154.37 0.00000 -7.64029e-09
  171 5154.37 0.00000 -6.92512e-08
  172 5154.37 0.00000 -9.34965e-09
  173 5154.37 0.00000 1.05157e-07
  174 5154.37 0.00000 4.86776e-09
  175 5154.37 0.00000 3.68142e-08
  176 5154.37 0.00000 -3.85812e-08
  177 5154.37 0.00000 -3.40255e-09
  178 5154.37 0.00000 6.88245e-09
  179 5154.37 0.00000 -1.17124e-07
  180 5154.37 0.00000 -1.10839e-08
  181 5154.37 0.00000 5.32124e-09
  182 5154.37 0.00000 -3.21616e-08
  183 5154.37 0.00000 6.19569e-08
  184 5154.37 0.00000 3.64854e-08
  185 5154.37 0.00000 -6.42428e-08
  186 5154.37 0.00000 6.25645e-09
  187 5154.37 0.00000 -7.02786e-09
  188 5154.37 0.00000 3.51129e-09
  189 5154.37 0.00000 -2.75728e-08
  190 5154.37 0.00000 7.42920e-08
  191 5154.37 0.00000 2.42727e-08
  192 5154.37 0.00000 2.16214e-08
  193 5154.37 0.00000 -3.16312e-08
  194 5154.37 0.00000 2.62938e-09
  195 5154.37 0.00000 4.07552e-08
  196 5154.37 0.00000 -7.26178e-09
  197 5154.37 0.00000 -3.62338e-08
  198 5154.37 0.00000 3.08998e-08
  199 5154.37 0.00000 2.21031e-08
  200 5154.37 0.00000 2.35391e-09
  201 5154.37 0.00000 9.81970e-09
  202 5154.37 0.00000 -2.06518e-08
  203 5154.37 0.00000 -5.11762e-08
  204 5154.37 0.00000 -1.34634e-09
  205 5154.37 0.00000 -2.77055e-08
  206 5154.37 0.00000 1.74879e-08
  207 5154.37 0.00000 1.13574e-07
  208 5154.37 0.00000 -2.70341e-08
  209 5154.37 0.00000 9.94358e-09
  210 5154.37 0.00000 7.57514e-08
  211 5154.37 0.00000 -8.20401e-08
  212 5154.37 0.00000 9.89017e-09
  213 5154.37 0.00000 7.11061e-08
  214 5154.37 0.00000 6.43671e-08
  215 5154.37 0.00000 -1.57573e-09
  216 5154.37 0.00000 4.79623e-08
  217 5154.37 0.00000 1.36896e-08
  218 5154.37 0.00000 7.91697e-08
  219 5154.37 0.00000 2.01636e-08
  220 5154.37 0.00000 5.28619e-08
  221 5154.37 0.00000 3.18616e-09
  222 5154.37 0.00000 6.88053e-09
  223 5154.37 0.00000 -9.62379e-08
  224 5154.37 0.00000 -8.87230e-08
  225 5154.37 0.00000 2.58772e-08
  226 5154.37 0.00000 -4.07553e-08
  227 5154.37 0.00000 4.76970e-09
  228 5154.37 0.00000 1.53368e-08
  229 5154.37 0.00000 -1.71943e-08
  230 5154.37 0.00000 -6.04889e-09
  231 5154.37 0.00000 1.10529e-08
  232 5154.37 0.00000 3.40206e-08
  233 5154.37 0.00000 5.12919e-09
  234 5154.37 0.00000 4.36615e-08
  235 5154.37 0.00000 8.96955e-09
  236 5154.37 0.00000 -6.94167e-08
  237 5154.37 0.00000 -7.52976e-09
  238 5154.37 0.00000 -1.54371e-08
  239 5154.37 0.00000 9.37283e-09
  240 5154.37 0.00000 -4.85958e-08
  241 5154.37 0.00000 3.05812e-08
</Section>

newXOutput 124

<Section columns = "stress_xx | stress_yy | stress_xy">
  1 5213.31 0.00000 2.94178e-08
  2 5213.31 0.00000 -5.40620e-09
  3 5213.31 0.00000 1.71399e-09
  4 5213.31 0.00000 -3.24022e-08
  5 5213.31 0.00000 6.81344e-08
  6 5213.31 0.00000 1.16850e-07
  7 5213.31 0.00000 1.52272e-07
  8 5213.31 0.00000 1.70797e-07
  9 5213.31 0.00000 1.61708e-07
  10 5213.31 0.00000 1.44469e-07
  11 5213.31 0.00000 1.18311e-07
  12 5213.31 0.00000 8.29676e-08
  13 5213.31 0.00000 4.17221e-08
  14 5213.31 0.00000 5.56320e-09
  15 5213.31 0.00000 -2.53023e-08
  16 5213.31 0.00000 -4.58085e-08
  17 5213.31 0.00000 -5.01048e-08
  18 5213.31 0.00000 -4.83424e-08
  19 5213.31 0.00000 -3.94037e-08
  20 5213.31 0.00000 -2.82385e-08
  21 5213.31 0.00000 -2.36026e-08
  22 5213.31 0.00000 -1.82928e-08
  23 5213.31 0.00000 -1.08340e-08
  24 5213.31 0.00000 -2.60219e-09
  25 5213.31 0.00000 -2.29684e-10
  26 5213.31 0.00000 1.99268e-09
  27 5213.31 0.00000 4.11892e-09
  28 5213.31 0.00000 4.21049e-09
  29 5213.31 0.00000 2.40443e-09
  30 5213.31 0.00000 2.13253e-09
  31 5213.31 0.00000 4.30673e-09
  32 5213.31 0.00000 9.75247e-09
  33 5213.31 0.00000 1.90814e-08
  34 5213.31 0.00000 3.55709e-08
  35 5213.31 0.00000 4.21576e-08
  36 5213.31 0.00000 4.80210e-08
  37 5213.31 0.00000 4.68843e-08
  38 5213.31 0.00000 4.04137e-08
  39 5213.31 0.00000 2.44874e-08
  40 5213.31 0.00000 -1.92529e-09
  41 5213.31 0.00000 -3.36732e-08
  42 5213.31 0.00000 -7.64927e-08
  43 5213.31 0.00000 -1.15057e-07
  44 5213.31 0.00000 -1.49141e-07
  45 5213.31 0.00000 -1.71933e-07
  46 5213.31 0.00000 -1.64371e-07
  47 5213.31 0.00000 -1.51459e-07
  48 5213.31 0.00000 -1.20952e-07
  49 5213.31 0.00000 -6.93173e-08
  50 5213.31 0.00000 -2.22495e-08
  51 5213.31 0.00000 -1.53767e-08
  52 5213.31 0.00000 -1.00408e-08
  53 5213.31 0.00000 2.23619e-09
  54 5213.31 0.00000 1.40144e-08
  55 5213.31 0.00000 1.72447e-08
  56 5213.31 0.00000 2.09832e-08
  57 5213.31 0.00000 2.24666e-09
  58 5213.31 0.00000 -5.80854e-09
  59 5213.31 0.00000 -3.31338e-09
  60 5213.31 0.00000 1.76209e-08
  61 5213.31 0.00000 4.01330e-08
  62 5213.31 0.00000 -4.87143e-08
  63 5213.31 0.00000 -1.50464e-08
  64 5213.31 0.00000 -8.27876e-09
  65 5213.31 0.00000 -6.44962e-08
  66 5213.31 0.00000 5.11020e-08
  67 5213.31 0.00000 8.05133e-09
  68 5213.31 0.00000 -1.14165e-08
  69 5213.31 0.00000 2.50400e-08
  70 5213.31 0.00000 6.97889e-09
  71 5213.31 0.00000 8.03289e-08
  72 5213.31 0.00000 2.23269e-08
  73 5213.31 0.00000 -2.33505e-08
  74 5213.31 0.00000 -9.37115e-08
  75 5213.31 0.00000 -3.39056e-08
  76 5213.31 0.00000 5.30809e-09
  77 5213.31 0.00000 -2.11415e-09
  78 5213.31 0.00000 2.23525e-08
  79 5213.31 0.00000 -6.33997e-09
  80 5213.31 0.00000 2.11460e-09
  81 5213.31 0.00000 1.31981e-09
  82 5213.31 0.00000 3.42001e-08
  83 5213.31 0.00000 4.48455e-09
  84 5213.31 0.00000 1.15364e-07
  85 5213.31 0.00000 -3.54887e-08
  86 5213.31 0.00000 -8.45726e-09
  87 5213.31 0.00000 -7.33719e-08
  88 5213.31 0.00000 8.88857e-09
  89 5213.31 0.00000 6.38627e-08
  90 5213.31 0.00000 1.02468e-07
  91 5213.31 0.00000 -9.56154e-08
  92 5213.31 0.00000 -1.70487e-08
  93 5213.31 0.00000 -3.96367e-09
  94 5213.31 0.00000 -3.39165e-08
  95 5213.31 0.00000 -7.90585e-08
  96 5213.31 0.00000 -3.99121e-09
  97 5213.31 0.00000 -2.01434e-08
  98 5213.31 0.00000 -1.27242e-07
  99 5213.31 0.00000 -2.79148e-09
  100 5213.31 0.00000 5.30836e-08
  101 5213.31 0.00000 5.50244e-08
  102 5213.31 0.00000 -1.64908e-08
  103 5213.31 0.00000 4.81217e-09
  104 5213.31 0.00000 -4.77704e-08
  105 5213.31 0.00000 -9.89338e-09
  106 5213.31 0.00000 -1.82961e-09
  107 5213.31 0.00000 1.83644e-09
  108 5213.31 0.00000 -1.96407e-08
  109 5213.31 0.00000 2.46136e-08
  110 5213.31 0.00000 6.89809e-09
  111 5213.31 0.00000 1.25455e-08
  112 5213.31 0.00000 -6.22120e-09
  113 5213.31 0.00000 2.96514e-08
  114 5213.31 0.00000 4.13614e-08
  115 5213.31 0.00000 1.26040e-08
  116 5213.31 0.00000 1.31361e-07
  117 5213.31 0.00000 -1.36550e-08
  118 5213.31 0.00000 -6.26143e-08
  119 5213.31 0.00000 -1.76551e-08
  120 5213.31 0.00000 3.09295e-08
  121 5213.31 0.00000 3.70831e-08
  122 5213.31 0.00000 1.31668e-08
  123 5213.31 0.00000 2.90697e-08
  124 5213.31 0.00000 6.02935e-09
  125 5213.31 0.00000 -3.45704e-08
  126 5213.31 0.00000 1.33629e-07
  127 5213.31 0.00000 -1.95345e-08
  128 5213.31 0.00000 -2.90549e-08
  129 5213.31 0.00000 -1.39881e-07
  130 5213.31 0.00000 2.28005e-09
  131 5213.31 0.00000 3.54199e-08
  132 5213.31 0.00000 -4.25781e-08
  133 5213.31 0.00000 -4.22987e-08
  134 5213.31 0.00000 7.51194e-08
  135 5213.31 0.00000 -1.81437e-08
  136 5213.31 0.00000 -1.24462e-07
  137 5213.31 0.00000 1.42412e-08
  138 5213.31 0.00000 -1.29293e-08
  139 5213.31 0.00000 1.41860e-08
  140 5213.31 0.00000 2.32140e-09
  141 5213.31 0.00000 1.02377e-08
  142 5213.31 0.00000 1.36510e-07
  143 5213.31 0.00000 -4.34704e-08
  144 5213.31 0.00000 2.37824e-08
  145 5213.31 0.00000 2.61366e-08
  146 5213.31 0.00000 -1.12460e-07
  147 5213.31 0.00000 8.23027e-09
  148 5213.31 0.00000 8.06274e-09
  149 5213.31 0.00000 6.21902e-09
  150 5213.31 0.00000 3.21522e-09
  151 5213.31 0.00000 3.81674e-08
  152 5213.31 0.00000 -1.38344e-08
  153 5213.31 0.00000 -3.04197e-09
  154 5213.31 0.00000 -1.56476e-09
  155 5213.31 0.00000 1.43659e-08
  156 5213.31 0.00000 -1.45430e-09
  157 5213.31 0.00000 -2.87151e-08
  158 5213.31 0.00000 6.96707e-09
  159 5213.31 0.00000 -5.05942e-09
  160 5213.31 0.00000 -1.77151e-09
  161 5213.31 0.00000 4.50468e-09
  162 5213.31 0.00000 -1.83611e-08
  163 5213.31 0.00000 7.14193e-09
  164 5213.31 0.00000 -2.45038e-08
  165 5213.31 0.00000 8.05444e-08
  166 5213.31 0.00000 -2.85663e-08
  167 5213.31 0.00000 -1.47202e-09
  168 5213.31 0.00000 4.79354e-09
  169 5213.31 0.00000 3.19346e-08
  170 5213.31 0.00000 1.03147e-08
  171 5213.31 0.00000 8.99321e-08
  172 5213.31 0.00000 1.38117e-08
  173 5213.31 0.00000 -1.35005e-07
  174 5213.31 0.00000 -6.37245e-09
  175 5213.31 0.00000 -4.67477e-08
  176 5213.31 0.00000 4.89484e-08
  177 5213.31 0.00000 4.68153e-09
  178 5213.31 0.00000 -9.04968e-09
  179 5213.31 0.00000 1.49341e-07
  180 5213.31 0.00000 1.41147e-08
  181 5213.31 0.00000 -6.63246e-09
  182 5213.31 0.00000 4.02869e-08
  183 5213.31 0.00000 -7.99566e-08
  184 5213.31 0.00000 -4.57244e-08
  185 5213.31 0.00000 8.17971e-08
  186 5213.31 0.00000 -6.29377e-09
  187 5213.31 0.00000 9.64837e-09
  188 5213.31 0.00000 -4.17504e-09
  189 5213.31 0.00000 3.54271e-08
  190 5213.31 0.00000 -9.52901e-08
  191 5213.31 0.00000 -3.13210e-08
  192 5213.31 0.00000 -2.74316e-08
  193 5213.31 0.00000 4.04593e-08
  194 5213.31 0.00000 -3.74389e-09
  195 5213.31 0.00000 -5.17593e-08
  196 5213.31 0.00000 9.41484e-09
  197 5213.31 0.00000 4.60344e-08
  198 5213.31 0.00000 -3.96174e-08
  199 5213.31 0.00000 -2.82180e-08
  200 5213.31 0.00000 -2.69573e-09
  201 5213.31 0.00000 -1.37065e-08
  202 5213.31 0.00000 2.57508e-08
  203 5213.31 0.00000 6.63324e-08
  204 5213.31 0.00000 2.94456e-09
  205 5213.31 0.00000 3.53676e-08
  206 5213.31 0.00000 -2.30848e-08
  207 5213.31 0.00000 -1.44872e-07
  208 5213.31 0.00000 3.50502e-08
  209 5213.31 0.00000 -1.31821e-08
  210 5213.31 0.00000 -9.63641e-08
  211 5213.31 0.00000 1.04263e-07
  212 5213.31 0.00000 -1.29640e-08
  213 5213.31 0.00000 -9.03863e-08
  214 5213.31 0.00000 -8.37673e-08
  215 5213.31 0.00000 2.49085e-09
  216 5213.31 0.00000 -6.20877e-08
  217 5213.31 0.00000 -1.78856e-08
  218 5213.31 0.00000 -1.00924e-07
  219 5213.31 0.00000 -2.49279e-08
  220 5213.31 0.00000 -6.80377e-08
  221 5213.31 0.00000 -3.63007e-09
  222 5213.31 0.00000 -8.65106e-09
  223 5213.31 0.00000 1.24224e-07
  224 5213.31 0.00000 1.13884e-07
  225 5213.31 0.00000 -3.31887e-08
  226 5213.31 0.00000 5.18557e-08
  227 5213.31 0.00000 -5.13961e-09
  228 5213.31 0.00000 -2.02005e-08
  229 5213.31 0.00000 2.18653e-08
  230 5213.31 0.00000 7.63211e-09
  231 5213.31 0.00000 -1.40778e-08
  232 5213.31 0.00000 -4.33035e-08
  233 5213.31 0.00000 -6.72022e-09
  234 5213.31 0.00000 -5.69327e-08
  235 5213.31 0.00000 -1.33488e-08
  236 5213.31 0.00000 8.82516e-08
  237 5213.31 0.00000 1.12137e-08
  238 5213.31 0.00000 2.02285e-08
  239 5213.31 0.00000 -1.20098e-08
  240 5213.31 0.00000 6.38378e-08
  241 5213.31 0.00000 -3.78945e-08
</Section>

newXOutput 125

<Section columns = "stress_xx | stress_yy | stress_xy">
  1 5272.49 0.00000 -3.73871e-08
  2 5272.49 0.00000 6.96157e-09
  3 5272.49 0.00000 -2.53159e-09
  4 5272.49 0.00000 4.11706e-08
  5 5272.49 0.00000 -8.68077e-08
  6 5272.49 0.00000 -1.49077e-07
  7 5272.49 0.00000 -1.94406e-07
  8 5272.49 0.00000 -2.18707e-07
  9 5272.49 0.00000 -2.07944e-07
  10 5272.49 0.00000 -1.86616e-07
  11 5272.49 0.00000 -1.53615e-07
  12 5272.49 0.00000 -1.08739e-07
  13 5272.49 0.00000 -5.59952e-08
  14 5272.49 0.00000 -9.62522e-09
  15 5272.49 0.00000 3.03660e-08
  16 5272.49 0.00000 5.71294e-08
  17 5272.49 0.00000 6.32462e-08
  18 5272.49 0.00000 6.17197e-08
  19 5272.49 0.00000 5.11259e-08
  20 5272.49 0.00000 3.72103e-08
  21 5272.49 0.00000 3.11458e-08
  22 5272.49 0.00000 2.40050e-08
  23 5272.49 0.00000 1.41026e-08
  24 5272.49 0.00000 3.45345e-09
  25 5272.49 0.00000 5.11206e-10
  26 5272.49 0.00000 -2.25487e-09
  27 5272.49 0.00000 -5.00110e-09
  28 5272.49 0.00000 -5.29038e-09
  29 5272.49 0.00000 -3.15108e-09
  30 5272.49 0.00000 -2.89295e-09
  31 5272.49 0.00000 -6.26345e-09
  32 5272.49 0.00000 -1.34827e-08
  33 5272.49 0.00000 -2.53563e-08
  34 5272.49 0.00000 -4.62769e-08
  35 5272.49 0.00000 -5.43402e-08
  36 5272.49 0.00000 -6.13905e-08
  37 5272.49 0.00000 -5.93214e-08
  38 5272.49 0.00000 -5.02467e-08
  39 5272.49 0.00000 -2.91513e-08
  40 5272.49 0.00000 5.00896e-09
  41 5272.49 0.00000 4.58084e-08
  42 5272.49 0.00000 1.00505e-07
  43 5272.49 0.00000 1.49415e-07
  44 5272.49 0.00000 1.92382e-07
  45 5272.49 0.00000 2.20783e-07
  46 5272.49 0.00000 2.10531e-07
  47 5272.49 0.00000 1.93582e-07
  48 5272.49 0.00000 1.54301e-07
  49 5272.49 0.00000 8.83303e-08
  50 5272.49 0.00000 2.82994e-08
  51 5272.49 0.00000 1.95842e-08
  52 5272.49 0.00000 1.27882e-08
  53 5272.49 0.00000 -2.83162e-09
  54 5272.49 0.00000 -1.78387e-08
  55 5272.49 0.00000 -2.19583e-08
  56 5272.49 0.00000 -2.66902e-08
  57 5272.49 0.00000 -2.75287e-09
  58 5272.49 0.00000 6.97440e-09
  59 5272.49 0.00000 4.11986e-09
  60 5272.49 0.00000 -2.19605e-08
  61 5272.49 0.00000 -5.20881e-08
  62 5272.49 0.00000 6.30617e-08
  63 5272.49 0.00000 1.93389e-08
  64 5272.49 0.00000 1.10428e-08
  65 5272.49 0.00000 8.23120e-08
  66 5272.49 0.00000 -6.51783e-08
  67 5272.49 0.00000 -1.06541e-08
  68 5272.49 0.00000 1.37573e-08
  69 5272.49 0.00000 -3.21217e-08
  70 5272.49 0.00000 -7.56704e-09
  71 5272.49 0.00000 -1.03115e-07
  72 5272.49 0.00000 -3.02433e-08
  73 5272.49 0.00000 2.99765e-08
  74 5272.49 0.00000 1.20094e-07
  75 5272.49 0.00000 4.48212e-08
  76 5272.49 0.00000 -6.44837e-09
  77 5272.49 0.00000 2.63276e-09
  78 5272.49 0.00000 -2.93174e-08
  79 5272.49 0.00000 7.95450e-09
  80 5272.49 0.00000 -2.64029e-09
  81 5272.49 0.00000 -1.55655e-09
  82 5272.49 0.00000 -4.28397e-08
  83 5272.49 0.00000 -5.66103e-09
  84 5272.49 0.00000 -1.47434e-07
  85 5272.49 0.00000 4.45191e-08
  86 5272.49 0.00000 1.13126e-08
  87 5272.49 0.00000 9.34896e-08
  88 5272.49 0.00000 -1.18851e-08
  89 5272.49 0.00000 -8.13308e-08
  90 5272.49 0.00000 -1.32479e-07
  91 5272.49 0.00000 1.23416e-07
  92 5272.49 0.00000 2.17349e-08
  93 5272.49 0.00000 5.07813e-09
  94 5272.49 0.00000 4.33833e-08
  95 5272.49 0.00000 1.02716e-07
  96 5272.49 0.00000 5.20536e-09
  97 5272.49 0.00000 2.65650e-08
  98 5272.49 0.00000 1.62634e-07
  99 5272.49 0.00000 1.67291e-09
  100 5272.49 0.00000 -6.78381e-08
  101 5272.49 0.00000 -7.22928e-08
  102 5272.49 0.00000 2.10001e-08
  103 5272.49 0.00000 -6.72197e-09
  104 5272.49 0.00000 6.16407e-08
  105 5272.49 0.00000 1.47000e-08
  106 5272.49 0.00000 1.53388e-09
  107 5272.49 0.00000 -1.96542e-09
  108 5272.49 0.00000 2.49746e-08
  109 5272.49 0.00000 -3.13242e-08
  110 5272.49 0.00000 -8.72062e-09
  111 5272.49 0.00000 -1.67817e-08
  112 5272.49 0.00000 8.70396e-09
  113 5272.49 0.00000 -3.63867e-08
  114 5272.49 0.00000 -5.24566e-08
  115 5272.49 0.00000 -1.70139e-08
  116 5272.49 0.00000 -1.67635e-07
  117 5272.49 0.00000 1.76373e-08
  118 5272.49 0.00000 8.00979e-08
  119 5272.49 0.00000 2.10369e-08
  120 5272.49 0.00000 -4.00966e-08
  121 5272.49 0.00000 -4.74804e-08
  122 5272.49 0.00000 -1.61653e-08
  123 5272.49 0.00000 -3.66253e-08
  124 5272.49 0.00000 -7.99956e-09
  125 5272.49 0.00000 4.49701e-08
  126 5272.49 0.00000 -1.71392e-07
  127 5272.49 0.00000 2.44784e-08
  128 5272.49 0.00000 3.78554e-08
  129 5272.49 0.00000 1.79269e-07
  130 5272.49 0.00000 -2.42897e-09
  131 5272.49 0.00000 -4.75713e-08
  132 5272.49 0.00000 5.67395e-08
  133 5272.49 0.00000 5.36871e-08
  134 5272.49 0.00000 -9.68057e-08
  135 5272.49 0.00000 2.39541e-08
  136 5272.49 0.00000 1.58836e-07
  137 5272.49 0.00000 -1.88443e-08
  138 5272.49 0.00000 1.67815e-08
  139 5272.49 0.00000 -1.81347e-08
  140 5272.49 0.00000 -3.03323e-09
  141 5272.49 0.00000 -1.33694e-08
  142 5272.49 0.00000 -1.75966e-07
  143 5272.49 0.00000 5.59263e-08
  144 5272.49 0.00000 -2.93480e-08
  145 5272.49 0.00000 -3.42937e-08
  146 5272.49 0.00000 1.45540e-07
  147 5272.49 0.00000 -8.37585e-09
  148 5272.49 0.00000 -1.02612e-08
  149 5272.49 0.00000 -7.65505e-09
  150 5272.49 0.00000 -5.13505e-09
  151 5272.49 0.00000 -5.01039e-08
  152 5272.49 0.00000 1.74547e-08
  153 5272.49 0.00000 3.71777e-09
  154 5272.49 0.00000 1.84487e-09
  155 5272.49 0.00000 -1.80916e-08
  156 5272.49 0.00000 2.19397e-09
  157 5272.49 0.00000 3.65373e-08
  158 5272.49 0.00000 -8.53293e-09
  159 5272.49 0.00000 6.66647e-09
  160 5272.49 0.00000 2.26573e-09
  161 5272.49 0.00000 -5.41917e-09
  162 5272.49 0.00000 2.37167e-08
  163 5272.49 0.00000 -8.79296e-09
  164 5272.49 0.00000 3.13717e-08
  165 5272.49 0.00000 -1.03093e-07
  166 5272.49 0.00000 3.63755e-08
  167 5272.49 0.00000 2.18652e-09
  168 5272.49 0.00000 -6.28595e-09
  169 5272.49 0.00000 -4.06490e-08
  170 5272.49 0.00000 -1.38881e-08
  171 5272.49 0.00000 -1.17074e-07
  172 5272.49 0.00000 -2.01113e-08
  173 5272.49 0.00000 1.73784e-07
  174 5272.49 0.00000 8.36629e-09
  175 5272.49 0.00000 5.95318e-08
  176 5272.49 0.00000 -6.22826e-08
  177 5272.49 0.00000 -6.41154e-09
  178 5272.49 0.00000 1.19158e-08
  179 5272.49 0.00000 -1.90946e-07
  180 5272.49 0.00000 -1.80273e-08
  181 5272.49 0.00000 8.29331e-09
  182 5272.49 0.00000 -5.05423e-08
  183 5272.49 0.00000 1.03459e-07
  184 5272.49 0.00000 5.73933e-08
  185 5272.49 0.00000 -1.04439e-07
  186 5272.49 0.00000 5.84504e-09
  187 5272.49 0.00000 -1.31938e-08
  188 5272.49 0.00000 4.95852e-09
  189 5272.49 0.00000 -4.56366e-08
  190 5272.49 0.00000 1.22545e-07
  191 5272.49 0.00000 4.05168e-08
  192 5272.49 0.00000 3.48639e-08
  193 5272.49 0.00000 -5.18527e-08
  194 5272.49 0.00000 5.27564e-09
  195 5272.49 0.00000 6.59213e-08
  196 5272.49 0.00000 -1.22412e-08
  197 5272.49 0.00000 -5.86540e-08
  198 5272.49 0.00000 5.08878e-08
  199 5272.49 0.00000 3.61205e-08
  200 5272.49 0.00000 3.07349e-09
  201 5272.49 0.00000 1.90612e-08
  202 5272.49 0.00000 -3.21610e-08
  203 5272.49 0.00000 -8.61869e-08
  204 5272.49 0.00000 -5.34447e-09
  205 5272.49 0.00000 -4.52792e-08
  206 5272.49 0.00000 3.04861e-08
  207 5272.49 0.00000 1.85303e-07
  208 5272.49 0.00000 -4.55149e-08
  209 5272.49 0.00000 1.74797e-08
  210 5272.49 0.00000 1.22926e-07
  211 5272.49 0.00000 -1.32883e-07
  212 5272.49 0.00000 1.70248e-08
  213 5272.49 0.00000 1.15217e-07
  214 5272.49 0.00000 1.09280e-07
  215 5272.49 0.00000 -3.77173e-09
  216 5272.49 0.00000 8.05875e-08
  217 5272.49 0.00000 2.33943e-08
  218 5272.49 0.00000 1.29010e-07
  219 5272.49 0.00000 3.08313e-08
  220 5272.49 0.00000 8.78007e-08
  221 5272.49 0.00000 4.07420e-09
  222 5272.49 0.00000 1.09156e-08
  223 5272.49 0.00000 -1.60759e-07
  224 5272.49 0.00000 -1.46564e-07
  225 5272.49 0.00000 4.26467e-08
  226 5272.49 0.00000 -6.61627e-08
  227 5272.49 0.00000 5.34611e-09
  228 5272.49 0.00000 2.66732e-08
  229 5272.49 0.00000 -2.78860e-08
  230 5272.49 0.00000 -9.66698e-09
  231 5272.49 0.00000 1.79525e-08
  232 5272.49 0.00000 5.52675e-08
  233 5272.49 0.00000 8.81994e-09
  234 5272.49 0.00000 7.44211e-08
  235 5272.49 0.00000 1.95489e-08
  236 5272.49 0.00000 -1.12515e-07
  237 5272.49 0.00000 -1.64168e-08
  238 5272.49 0.00000 -2.65604e-08
  239 5272.49 0.00000 1.54156e-08
  240 5272.49 0.00000 -8.40325e-08
  241 5272.49 0.00000 4.69965e-08
</Section>

newXOutput 126

<Section columns = "stress_xx | stress_yy | stress_xy">
  1 5331.90 0.00000 4.76529e-08
  2 5331.90 0.00000 -8.99801e-09
  3 5331.90 0.00000 3.67122e-09
  4 5331.90 0.00000 -5.24647e-08
  5 5331.90 0.00000 1.10915e-07
  6 5331.90 0.00000 1.90731e-07
  7 5331.90 0.00000 2.48898e-07
  8 5331.90 0.00000 2.80826e-07
  9 5331.90 0.00000 2.68117e-07
  10 5331.90 0.00000 2.41690e-07
  11 5331.90 0.00000 1.99956e-07
  12 5331.90 0.00000 1.42829e-07
  13 5331.90 0.00000 7.52181e-08
  14 5331.90 0.00000 1.56157e-08
  15 5331.90 0.00000 -3.63196e-08
  16 5331.90 0.00000 -7.13257e-08
  17 5331.90 0.00000 -7.99802e-08
  18 5331.90 0.00000 -7.89531e-08
  19 5331.90 0.00000 -6.64284e-08
  20 5331.90 0.00000 -4.90593e-08
  21 5331.90 0.00000 -4.11365e-08
  22 5331.90 0.00000 -3.15519e-08
  23 5331.90 0.00000 -1.84068e-08
  24 5331.90 0.00000 -4.59148e-09
  25 5331.90 0.00000 -9.25674e-10
  26 5331.90 0.00000 2.52762e-09
  27 5331.90 0.00000 6.09093e-09
  28 5331.90 0.00000 6.67201e-09
  29 5331.90 0.00000 4.13923e-09
  30 5331.90 0.00000 3.91970e-09
  31 5331.90 0.00000 8.97966e-09
  32 5331.90 0.00000 1.85489e-08
  33 5331.90 0.00000 3.37044e-08
  34 5331.90 0.00000 6.03097e-08
  35 5331.90 0.00000 7.01819e-08
  36 5331.90 0.00000 7.86327e-08
  37 5331.90 0.00000 7.51819e-08
  38 5331.90 0.00000 6.25293e-08
  39 5331.90 0.00000 3.45547e-08
  40 5331.90 0.00000 -9.74407e-09
  41 5331.90 0.00000 -6.23044e-08
  42 5331.90 0.00000 -1.32349e-07
  43 5331.90 0.00000 -1.94532e-07
  44 5331.90 0.00000 -2.48821e-07
  45 5331.90 0.00000 -2.84279e-07
  46 5331.90 0.00000 -2.70393e-07
  47 5331.90 0.00000 -2.48115e-07
  48 5331.90 0.00000 -1.97403e-07
  49 5331.90 0.00000 -1.12880e-07
  50 5331.90 0.00000 -3.60991e-08
  51 5331.90 0.00000 -2.50153e-08
  52 5331.90 0.00000 -1.63335e-08
  53 5331.90 0.00000 3.59889e-09
  54 5331.90 0.00000 2.27726e-08
  55 5331.90 0.00000 2.80420e-08
  56 5331.90 0.00000 3.40493e-08
  57 5331.90 0.00000 3.38331e-09
  58 5331.90 0.00000 -8.39324e-09
  59 5331.90 0.00000 -5.13650e-09
  60 5331.90 0.00000 2.74202e-08
  61 5331.90 0.00000 6.77721e-08
  62 5331.90 0.00000 -8.18545e-08
  63 5331.90 0.00000 -2.48864e-08
  64 5331.90 0.00000 -1.47284e-08
  65 5331.90 0.00000 -1.05339e-07
  66 5331.90 0.00000 8.33683e-08
  67 5331.90 0.00000 1.41022e-08
  68 5331.90 0.00000 -1.65249e-08
  69 5331.90 0.00000 4.12869e-08
  70 5331.90 0.00000 7.93292e-09
  71 5331.90 0.00000 1.32724e-07
  72 5331.90 0.00000 4.09604e-08
  73 5331.90 0.00000 -3.85709e-08
  74 5331.90 0.00000 -1.54322e-07
  75 5331.90 0.00000 -5.93715e-08
  76 5331.90 0.00000 7.85413e-09
  77 5331.90 0.00000 -3.28471e-09
  78 5331.90 0.00000 3.84896e-08
  79 5331.90 0.00000 -1.00137e-08
  80 5331.90 0.00000 3.30233e-09
  81 5331.90 0.00000 1.83984e-09
  82 5331.90 0.00000 5.37424e-08
  83 5331.90 0.00000 7.16637e-09
  84 5331.90 0.00000 1.88945e-07
  85 5331.90 0.00000 -5.59223e-08
  86 5331.90 0.00000 -1.51366e-08
  87 5331.90 0.00000 -1.19465e-07
  88 5331.90 0.00000 1.58898e-08
  89 5331.90 0.00000 1.03878e-07
  90 5331.90 0.00000 1.71721e-07
  91 5331.90 0.00000 -1.59717e-07
  92 5331.90 0.00000 -2.77799e-08
  93 5331.90 0.00000 -6.52575e-09
  94 5331.90 0.00000 -5.55965e-08
  95 5331.90 0.00000 -1.33799e-07
  96 5331.90 0.00000 -6.76896e-09
  97 5331.90 0.00000 -3.50595e-08
  98 5331.90 0.00000 -2.08448e-07
  99 5331.90 0.00000 3.23194e-10
  100 5331.90 0.00000 8.69398e-08
  101 5331.90 0.00000 9.51854e-08
  102 5331.90 0.00000 -2.68068e-08
  103 5331.90 0.00000 9.31136e-09
  104 5331.90 0.00000 -7.97430e-08
  105 5331.90 0.00000 -2.15139e-08
  106 5331.90 0.00000 -9.29207e-10
  107 5331.90 0.00000 2.04366e-09
  108 5331.90 0.00000 -3.18501e-08
  109 5331.90 0.00000 3.99802e-08
  110 5331.90 0.00000 1.10633e-08
  111 5331.90 0.00000 2.24343e-08
  112 5331.90 0.00000 -1.21345e-08
  113 5331.90 0.00000 4.46449e-08
  114 5331.90 0.00000 6.66593e-08
  115 5331.90 0.00000 2.29620e-08
  116 5331.90 0.00000 2.14531e-07
  117 5331.90 0.00000 -2.28373e-08
  118 5331.90 0.00000 -1.02745e-07
  119 5331.90 0.00000 -2.49424e-08
  120 5331.90 0.00000 5.20645e-08
  121 5331.90 0.00000 6.09612e-08
  122 5331.90 0.00000 1.98505e-08
  123 5331.90 0.00000 4.62427e-08
  124 5331.90 0.00000 1.06054e-08
  125 5331.90 0.00000 -5.86579e-08
  126 5331.90 0.00000 2.20426e-07
  127 5331.90 0.00000 -3.07003e-08
  128 5331.90 0.00000 -4.93894e-08
  129 5331.90 0.00000 -2.30373e-07
  130 5331.90 0.00000 2.47897e-09
  131 5331.90 0.00000 6.39435e-08
  132 5331.90 0.00000 -7.57247e-08
  133 5331.90 0.00000 -6.82733e-08
  134 5331.90 0.00000 1.25080e-07
  135 5331.90 0.00000 -3.16547e-08
  136 5331.90 0.00000 -2.03274e-07
  137 5331.90 0.00000 2.49313e-08
  138 5331.90 0.00000 -2.18507e-08
  139 5331.90 0.00000 2.32506e-08
  140 5331.90 0.00000 3.96442e-09
  141 5331.90 0.00000 1.74955e-08
  142 5331.90 0.00000 2.27424e-07
  143 5331.90 0.00000 -7.21401e-08
  144 5331.90 0.00000 3.62331e-08
  145 5331.90 0.00000 4.50483e-08
  146 5331.90 0.00000 -1.88846e-07
  147 5331.90 0.00000 7.93632e-09
  148 5331.90 0.00000 1.31003e-08
  149 5331.90 0.00000 9.45807e-09
  150 5331.90 0.00000 7.89445e-09
  151 5331.90 0.00000 6.59120e-08
  152 5331.90 0.00000 -2.20904e-08
  153 5331.90 0.00000 -4.52083e-09
  154 5331.90 0.00000 -2.17015e-09
  155 5331.90 0.00000 2.28394e-08
  156 5331.90 0.00000 -3.22830e-09
  157 5331.90 0.00000 -4.66220e-08
  158 5331.90 0.00000 1.04740e-08
  159 5331.90 0.00000 -8.76930e-09
  160 5331.90 0.00000 -2.90289e-09
  161 5331.90 0.00000 6.53440e-09
  162 5331.90 0.00000 -3.07213e-08
  163 5331.90 0.00000 1.08487e-08
  164 5331.90 0.00000 -4.02381e-08
  165 5331.90 0.00000 1.32322e-07
  166 5331.90 0.00000 -4.64533e-08
  167 5331.90 0.00000 -3.18886e-09
  168 5331.90 0.00000 8.26054e-09
  169 5331.90 0.00000 5.18927e-08
  170 5331.90 0.00000 1.86625e-08
  171 5331.90 0.00000 1.52782e-07
  172 5331.90 0.00000 2.89651e-08
  173 5331.90 0.00000 -2.24300e-07
  174 5331.90 0.00000 -1.10096e-08
  175 5331.90 0.00000 -7.60307e-08
  176 5331.90 0.00000 7.94800e-08
  177 5331.90 0.00000 8.75760e-09
  178 5331.90 0.00000 -1.57126e-08
  179 5331.90 0.00000 2.44823e-07
  180 5331.90 0.00000 2.30941e-08
  181 5331.90 0.00000 -1.03966e-08
  182 5331.90 0.00000 6.35020e-08
  183 5331.90 0.00000 -1.34221e-07
  184 5331.90 0.00000 -7.21523e-08
  185 5331.90 0.00000 1.33723e-07
  186 5331.90 0.00000 -4.62194e-09
  187 5331.90 0.00000 1.79890e-08
  188 5331.90 0.00000 -5.87941e-09
  189 5331.90 0.00000 5.89424e-08
  190 5331.90 0.00000 -1.58012e-07
  191 5331.90 0.00000 -5.25463e-08
  192 5331.90 0.00000 -4.43781e-08
  193 5331.90 0.00000 6.65871e-08
  194 5331.90 0.00000 -7.37887e-09
  195 5331.90 0.00000 -8.41966e-08
  196 5331.90 0.00000 1.59510e-08
  197 5331.90 0.00000 7.49488e-08
  198 5331.90 0.00000 -6.54888e-08
  199 5331.90 0.00000 -4.63588e-08
  200 5331.90 0.00000 -3.49031e-09
  201 5331.90 0.00000 -2.64343e-08
  202 5331.90 0.00000 4.02306e-08
  203 5331.90 0.00000 1.12262e-07
  204 5331.90 0.00000 8.89080e-09
  205 5331.90 0.00000 5.81354e-08
  206 5331.90 0.00000 -4.02856e-08
  207 5331.90 0.00000 -2.37675e-07
  208 5331.90 0.00000 5.92079e-08
  209 5331.90 0.00000 -2.31878e-08
  210 5331.90 0.00000 -1.57248e-07
  211 5331.90 0.00000 1.69846e-07
  212 5331.90 0.00000 -2.23953e-08
  213 5331.90 0.00000 -1.47288e-07
  214 5331.90 0.00000 -1.42917e-07
  215 5331.90 0.00000 5.54721e-09
  216 5331.90 0.00000 -1.04879e-07
  217 5331.90 0.00000 -3.06403e-08
  218 5331.90 0.00000 -1.65367e-07
  219 5331.90 0.00000 -3.81363e-08
  220 5331.90 0.00000 -1.13599e-07
  221 5331.90 0.00000 -4.48406e-09
  222 5331.90 0.00000 -1.38198e-08
  223 5331.90 0.00000 2.08575e-07
  224 5331.90 0.00000 1.89121e-07
  225 5331.90 0.00000 -5.49062e-08
  226 5331.90 0.00000 8.46577e-08
  227 5331.90 0.00000 -5.25301e-09
  228 5331.90 0.00000 -3.53032e-08
  229 5331.90 0.00000 3.56675e-08
  230 5331.90 0.00000 1.22844e-08
  231 5331.90 0.00000 -2.29154e-08
  232 5331.90 0.00000 -7.07313e-08
  233 5331.90 0.00000 -1.15909e-08
  234 5331.90 0.00000 -9.75208e-08
  235 5331.90 0.00000 -2.82910e-08
  236 5331.90 0.00000 1.43857e-07
  237 5331.90 0.00000 2.37405e-08
  238 5331.90 0.00000 3.49426e-08
  239 5331.90 0.00000 -1.98175e-08
  240 5331.90 0.00000 1.10844e-07
  241 5331.90 0.00000 -5.83220e-08
</Section>

newXOutput 127

<Section columns = "stress_xx | stress_yy | stress_xy">
  1 5391.56 0.00000 -6.09184e-08
  2 5391.56 0.00000 1.16714e-08
  3 5391.56 0.00000 -5.24628e-09
  4 5391.56 0.00000 6.70547e-08
  5 5391.56 0.00000 -1.42131e-07
  6 5391.56 0.00000 -2.44724e-07
  7 5391.56 0.00000 -3.19569e-07
  8 5391.56 0.00000 -3.61588e-07
  9 5391.56 0.00000 -3.46637e-07
  10 5391.56 0.00000 -3.13846e-07
  11 5391.56 0.00000 -2.60944e-07
  12 5391.56 0.00000 -1.88044e-07
  13 5391.56 0.00000 -1.01156e-07
  14 5391.56 0.00000 -2.43702e-08
  15 5391.56 0.00000 4.32409e-08
  16 5391.56 0.00000 8.91418e-08
  17 5391.56 0.00000 1.01312e-07
  18 5391.56 0.00000 1.01196e-07
  19 5391.56 0.00000 8.64412e-08
  20 5391.56 0.00000 6.47303e-08
  21 5391.56 0.00000 5.43750e-08
  22 5391.56 0.00000 4.15463e-08
  23 5391.56 0.00000 2.40885e-08
  24 5391.56 0.00000 6.10946e-09
  25 5391.56 0.00000 1.52620e-09
  26 5391.56 0.00000 -2.80045e-09
  27 5391.56 0.00000 -7.44326e-09
  28 5391.56 0.00000 -8.44765e-09
  29 5391.56 0.00000 -5.45147e-09
  30 5391.56 0.00000 -5.30317e-09
  31 5391.56 0.00000 -1.27216e-08
  32 5391.56 0.00000 -2.54253e-08
  33 5391.56 0.00000 -4.48126e-08
  34 5391.56 0.00000 -7.87336e-08
  35 5391.56 0.00000 -9.08151e-08
  36 5391.56 0.00000 -1.00898e-07
  37 5391.56 0.00000 -9.54324e-08
  38 5391.56 0.00000 -7.78750e-08
  39 5391.56 0.00000 -4.07206e-08
  40 5391.56 0.00000 1.68644e-08
  41 5391.56 0.00000 8.47441e-08
  42 5391.56 0.00000 1.74673e-07
  43 5391.56 0.00000 2.53927e-07
  44 5391.56 0.00000 3.22684e-07
  45 5391.56 0.00000 3.67034e-07
  46 5391.56 0.00000 3.48234e-07
  47 5391.56 0.00000 3.18903e-07
  48 5391.56 0.00000 2.53260e-07
  49 5391.56 0.00000 1.44664e-07
  50 5391.56 0.00000 4.61844e-08
  51 5391.56 0.00000 3.20460e-08
  52 5391.56 0.00000 2.09224e-08
  53 5391.56 0.00000 -4.58628e-09
  54 5391.56 0.00000 -2.91560e-08
  55 5391.56 0.00000 -3.59157e-08
  56 5391.56 0.00000 -4.35655e-08
  57 5391.56 0.00000 -4.17000e-09
  58 5391.56 0.00000 1.01163e-08
  59 5391.56 0.00000 6.42452e-09
  60 5391.56 0.00000 -3.43024e-08
  61 5391.56 0.00000 -8.83986e-08
  62 5391.56 0.00000 1.06530e-07
  63 5391.56 0.00000 3.20646e-08
  64 5391.56 0.00000 1.96502e-08
  65 5391.56 0.00000 1.35184e-07
  66 5391.56 0.00000 -1.06941e-07
  67 5391.56 0.00000 -1.86795e-08
  68 5391.56 0.00000 1.97622e-08
  69 5391.56 0.00000 -5.31675e-08
  70 5391.56 0.00000 -7.88672e-09
  71 5391.56 0.00000 -1.71308e-07
  72 5391.56 0.00000 -5.54857e-08
  73 5391.56 0.00000 4.97415e-08
  74 5391.56 0.00000 1.98851e-07
  75 5391.56 0.00000 7.88072e-08
  76 5391.56 0.00000 -9.58334e-09
  77 5391.56 0.00000 4.11142e-09
  78 5391.56 0.00000 -5.05848e-08
  79 5391.56 0.00000 1.26463e-08
  80 5391.56 0.00000 -4.13865e-09
  81 5391.56 0.00000 -2.18460e-09
  82 5391.56 0.00000 -6.75181e-08
  83 5391.56 0.00000 -9.09277e-09
  84 5391.56 0.00000 -2.42827e-07
  85 5391.56 0.00000 7.03380e-08
  86 5391.56 0.00000 2.02578e-08
  87 5391.56 0.00000 1.53093e-07
  88 5391.56 0.00000 -2.12470e-08
  89 5391.56 0.00000 -1.33063e-07
  90 5391.56 0.00000 -2.23167e-07
  91 5391.56 0.00000 2.07241e-07
  92 5391.56 0.00000 3.56014e-08
  93 5391.56 0.00000 8.41007e-09
  94 5391.56 0.00000 7.13885e-08
  95 5391.56 0.00000 1.74741e-07
  96 5391.56 0.00000 8.78766e-09
  97 5391.56 0.00000 4.63091e-08
  98 5391.56 0.00000 2.67917e-07
  99 5391.56 0.00000 -3.63542e-09
  100 5391.56 0.00000 -1.11736e-07
  101 5391.56 0.00000 -1.25600e-07
  102 5391.56 0.00000 3.42982e-08
  103 5391.56 0.00000 -1.28212e-08
  104 5391.56 0.00000 1.03424e-07
  105 5391.56 0.00000 3.11354e-08
  106 5391.56 0.00000 -1.46910e-10
  107 5391.56 0.00000 -2.03309e-09
  108 5391.56 0.00000 4.07374e-08
  109 5391.56 0.00000 -5.11787e-08
  110 5391.56 0.00000 -1.40879e-08
  111 5391.56 0.00000 -2.99803e-08
  112 5391.56 0.00000 1.68773e-08
  113 5391.56 0.00000 -5.47492e-08
  114 5391.56 0.00000 -8.48646e-08
  115 5391.56 0.00000 -3.09969e-08
  116 5391.56 0.00000 -2.75326e-07
  117 5391.56 0.00000 2.96330e-08
  118 5391.56 0.00000 1.32157e-07
  119 5391.56 0.00000 2.93831e-08
  120 5391.56 0.00000 -6.77117e-08
  121 5391.56 0.00000 -7.84880e-08
  122 5391.56 0.00000 -2.43754e-08
  123 5391.56 0.00000 -5.85043e-08
  124 5391.56 0.00000 -1.40547e-08
  125 5391.56 0.00000 7.67196e-08
  126 5391.56 0.00000 -2.84271e-07
  127 5391.56 0.00000 3.85293e-08
  128 5391.56 0.00000 6.45302e-08
  129 5391.56 0.00000 2.96862e-07
  130 5391.56 0.00000 -2.35467e-09
  131 5391.56 0.00000 -8.60332e-08
  132 5391.56 0.00000 1.01220e-07
  133 5391.56 0.00000 8.69776e-08
  134 5391.56 0.00000 -1.62045e-07
  135 5391.56 0.00000 4.18733e-08
  136 5391.56 0.00000 2.60880e-07
  137 5391.56 0.00000 -3.29810e-08
  138 5391.56 0.00000 2.85414e-08
  139 5391.56 0.00000 -2.98952e-08
  140 5391.56 0.00000 -5.19252e-09
  141 5391.56 0.00000 -2.29422e-08
  142 5391.56 0.00000 -2.94715e-07
  143 5391.56 0.00000 9.32988e-08
  144 5391.56 0.00000 -4.47450e-08
  145 5391.56 0.00000 -5.92468e-08
  146 5391.56 0.00000 2.45683e-07
  147 5391.56 0.00000 -6.53543e-09
  148 5391.56 0.00000 -1.67728e-08
  149 5391.56 0.00000 -1.17267e-08
  150 5391.56 0.00000 -1.18354e-08
  151 5391.56 0.00000 -8.68956e-08
  152 5391.56 0.00000 2.80377e-08
  153 5391.56 0.00000 5.46098e-09
  154 5391.56 0.00000 2.54151e-09
  155 5391.56 0.00000 -2.89049e-08
  156 5391.56 0.00000 4.67101e-09
  157 5391.56 0.00000 5.96588e-08
  158 5391.56 0.00000 -1.28909e-08
  159 5391.56 0.00000 1.15226e-08
  160 5391.56 0.00000 3.72985e-09
  161 5391.56 0.00000 -7.89474e-09
  162 5391.56 0.00000 3.99080e-08
  163 5391.56 0.00000 -1.34156e-08
  164 5391.56 0.00000 5.17126e-08
  165 5391.56 0.00000 -1.70317e-07
  166 5391.56 0.00000 5.94966e-08
  167 5391.56 0.00000 4.58308e-09
  168 5391.56 0.00000 -1.08762e-08
  169 5391.56 0.00000 -6.64407e-08
  170 5391.56 0.00000 -2.50376e-08
  171 5391.56 0.00000 -1.99878e-07
  172 5391.56 0.00000 -4.13807e-08
  173 5391.56 0.00000 2.90283e-07
  174 5391.56 0.00000 1.45171e-08
  175 5391.56 0.00000 9.73832e-08
  176 5391.56 0.00000 -1.01725e-07
  177 5391.56 0.00000 -1.19285e-08
  178 5391.56 0.00000 2.07513e-08
  179 5391.56 0.00000 -3.14783e-07
  180 5391.56 0.00000 -2.96738e-08
  181 5391.56 0.00000 1.30645e-08
  182 5391.56 0.00000 -7.98939e-08
  183 5391.56 0.00000 1.74594e-07
  184 5391.56 0.00000 9.08343e-08
  185 5391.56 0.00000 -1.71702e-07
  186 5391.56 0.00000 2.17094e-09
  187 5391.56 0.00000 -2.44657e-08
  188 5391.56 0.00000 6.95527e-09
  189 5391.56 0.00000 -7.63303e-08
  190 5391.56 0.00000 2.04292e-07
  191 5391.56 0.00000 6.83219e-08
  192 5391.56 0.00000 5.65822e-08
  193 5391.56 0.00000 -8.56776e-08
  194 5391.56 0.00000 1.02601e-08
  195 5391.56 0.00000 1.07848e-07
  196 5391.56 0.00000 -2.08344e-08
  197 5391.56 0.00000 -9.60499e-08
  198 5391.56 0.00000 8.44336e-08
  199 5391.56 0.00000 5.96573e-08
  200 5391.56 0.00000 3.92643e-09
  201 5391.56 0.00000 3.65821e-08
  202 5391.56 0.00000 -5.04020e-08
  203 5391.56 0.00000 -1.46594e-07
  204 5391.56 0.00000 -1.40715e-08
  205 5391.56 0.00000 -7.48573e-08
  206 5391.56 0.00000 5.32704e-08
  207 5391.56 0.00000 3.05701e-07
  208 5391.56 0.00000 -7.71548e-08
  209 5391.56 0.00000 3.07837e-08
  210 5391.56 0.00000 2.01722e-07
  211 5391.56 0.00000 -2.17716e-07
  212 5391.56 0.00000 2.95178e-08
  213 5391.56 0.00000 1.88821e-07
  214 5391.56 0.00000 1.87372e-07
  215 5391.56 0.00000 -8.00357e-09
  216 5391.56 0.00000 1.36852e-07
  217 5391.56 0.00000 4.01922e-08
  218 5391.56 0.00000 2.12563e-07
  219 5391.56 0.00000 4.71721e-08
  220 5391.56 0.00000 1.47367e-07
  221 5391.56 0.00000 4.79577e-09
  222 5391.56 0.00000 1.75515e-08
  223 5391.56 0.00000 -2.71320e-07
  224 5391.56 0.00000 -2.44693e-07
  225 5391.56 0.00000 7.08330e-08
  226 5391.56 0.00000 -1.08633e-07
  227 5391.56 0.00000 4.65832e-09
  228 5391.56 0.00000 4.68367e-08
  229 5391.56 0.00000 -4.57518e-08
  230 5391.56 0.00000 -1.56607e-08
  231 5391.56 0.00000 2.92810e-08
  232 5391.56 0.00000 9.07680e-08
  233 5391.56 0.00000 1.52542e-08
  234 5391.56 0.00000 1.28105e-07
  235 5391.56 0.00000 4.05772e-08
  236 5391.56 0.00000 -1.84458e-07
  237 5391.56 0.00000 -3.40116e-08
  238 5391.56 0.00000 -4.60636e-08
  239 5391.56 0.00000 2.55133e-08
  240 5391.56 0.00000 -1.46523e-07
  241 5391.56 0.00000 7.24111e-08
</Section>

newXOutput 128

<Section columns = "stress_xx | stress_yy | stress_xy">
  1 5451.47 0.00000 7.81098e-08
  2 5451.47 0.00000 -1.51860e-08
  3 5451.47 0.00000 7.41944e-09
  4 5451.47 0.00000 -8.59593e-08
  5 5451.47 0.00000 1.82667e-07
  6 5451.47 0.00000 3.14909e-07
  7 5451.47 0.00000 4.11484e-07
  8 5451.47 0.00000 4.66881e-07
  9 5451.47 0.00000 4.49377e-07
  10 5451.47 0.00000 4.08636e-07
  11 5451.47 0.00000 3.41417e-07
  12 5451.47 0.00000 2.48152e-07
  13 5451.47 0.00000 1.36214e-07
  14 5451.47 0.00000 3.70554e-08
  15 5451.47 0.00000 -5.11740e-08
  16 5451.47 0.00000 -1.11495e-07
  17 5451.47 0.00000 -1.28555e-07
  18 5451.47 0.00000 -1.29962e-07
  19 5451.47 0.00000 -1.12652e-07
  20 5451.47 0.00000 -8.54755e-08
  21 5451.47 0.00000 -7.19493e-08
  22 5451.47 0.00000 -5.47985e-08
  23 5451.47 0.00000 -3.16026e-08
  24 5451.47 0.00000 -8.14089e-09
  25 5451.47 0.00000 -2.38706e-09
  26 5451.47 0.00000 3.05634e-09
  27 5451.47 0.00000 9.11754e-09
  28 5451.47 0.00000 1.07398e-08
  29 5451.47 0.00000 7.19691e-09
  30 5451.47 0.00000 7.16847e-09
  31 5451.47 0.00000 1.78733e-08
  32 5451.47 0.00000 3.47564e-08
  33 5451.47 0.00000 5.96161e-08
  34 5451.47 0.00000 1.02961e-07
  35 5451.47 0.00000 1.17738e-07
  36 5451.47 0.00000 1.29705e-07
  37 5451.47 0.00000 1.21318e-07
  38 5451.47 0.00000 9.70396e-08
  39 5451.47 0.00000 4.76228e-08
  40 5451.47 0.00000 -2.74302e-08
  41 5451.47 0.00000 -1.15314e-07
  42 5451.47 0.00000 -2.31059e-07
  43 5451.47 0.00000 -3.32325e-07
  44 5451.47 0.00000 -4.19613e-07
  45 5451.47 0.00000 -4.75185e-07
  46 5451.47 0.00000 -4.49738e-07
  47 5451.47 0.00000 -4.11056e-07
  48 5451.47 0.00000 -3.25854e-07
  49 5451.47 0.00000 -1.85936e-07
  50 5451.47 0.00000 -5.92621e-08
  51 5451.47 0.00000 -4.11741e-08
  52 5451.47 0.00000 -2.68796e-08
  53 5451.47 0.00000 5.86119e-09
  54 5451.47 0.00000 3.74391e-08
  55 5451.47 0.00000 4.61363e-08
  56 5451.47 0.00000 5.59084e-08
  57 5451.47 0.00000 5.15470e-09
  58 5451.47 0.00000 -1.22177e-08
  59 5451.47 0.00000 -8.05750e-09
  60 5451.47 0.00000 4.29932e-08
  61 5451.47 0.00000 1.15597e-07
  62 5451.47 0.00000 -1.39021e-07
  63 5451.47 0.00000 -4.13700e-08
  64 5451.47 0.00000 -2.62189e-08
  65 5451.47 0.00000 -1.73973e-07
  66 5451.47 0.00000 1.37576e-07
  67 5451.47 0.00000 2.47599e-08
  68 5451.47 0.00000 -2.35019e-08
  69 5451.47 0.00000 6.85978e-08
  70 5451.47 0.00000 7.13511e-09
  71 5451.47 0.00000 2.21724e-07
  72 5451.47 0.00000 7.51904e-08
  73 5451.47 0.00000 -6.42817e-08
  74 5451.47 0.00000 -2.56944e-07
  75 5451.47 0.00000 -1.04828e-07
  76 5451.47 0.00000 1.17214e-08
  77 5451.47 0.00000 -5.16169e-09
  78 5451.47 0.00000 6.65641e-08
  79 5451.47 0.00000 -1.60239e-08
  80 5451.47 0.00000 5.19955e-09
  81 5451.47 0.00000 2.60261e-09
  82 5451.47 0.00000 8.49387e-08
  83 5451.47 0.00000 1.15695e-08
  84 5451.47 0.00000 3.12964e-07
  85 5451.47 0.00000 -8.85698e-08
  86 5451.47 0.00000 -2.71225e-08
  87 5451.47 0.00000 -1.96757e-07
  88 5451.47 0.00000 2.84124e-08
  89 5451.47 0.00000 1.70947e-07
  90 5451.47 0.00000 2.90794e-07
  91 5451.47 0.00000 -2.69627e-07
  92 5451.47 0.00000 -4.57514e-08
  93 5451.47 0.00000 -1.08666e-08
  94 5451.47 0.00000 -9.18383e-08
  95 5451.47 0.00000 -2.28814e-07
  96 5451.47 0.00000 -1.13885e-08
  97 5451.47 0.00000 -6.12269e-08
  98 5451.47 0.00000 -3.45325e-07
  99 5451.47 0.00000 8.90082e-09
  100 5451.47 0.00000 1.44020e-07
  101 5451.47 0.00000 1.66103e-07
  102 5451.47 0.00000 -4.39898e-08
  103 5451.47 0.00000 1.75688e-08
  104 5451.47 0.00000 -1.34492e-07
  105 5451.47 0.00000 -4.46836e-08
  106 5451.47 0.00000 1.93250e-09
  107 5451.47 0.00000 1.88342e-09
  108 5451.47 0.00000 -5.22596e-08
  109 5451.47 0.00000 6.57076e-08
  110 5451.47 0.00000 1.80068e-08
  111 5451.47 0.00000 4.00603e-08
  112 5451.47 0.00000 -2.34343e-08
  113 5451.47 0.00000 6.70795e-08
  114 5451.47 0.00000 1.08242e-07
  115 5451.47 0.00000 4.18673e-08
  116 5451.47 0.00000 3.54365e-07
  117 5451.47 0.00000 -3.85333e-08
  118 5451.47 0.00000 -1.70465e-07
  119 5451.47 0.00000 -3.43256e-08
  120 5451.47 0.00000 8.82074e-08
  121 5451.47 0.00000 1.01342e-07
  122 5451.47 0.00000 2.99239e-08
  123 5451.47 0.00000 7.41666e-08
  124 5451.47 0.00000 1.86242e-08
  125 5451.47 0.00000 -1.00619e-07
  126 5451.47 0.00000 3.67629e-07
  127 5451.47 0.00000 -4.83821e-08
  128 5451.47 0.00000 -8.44317e-08
  129 5451.47 0.00000 -3.83605e-07
  130 5451.47 0.00000 1.93854e-09
  131 5451.47 0.00000 1.15888e-07
  132 5451.47 0.00000 -1.35528e-07
  133 5451.47 0.00000 -1.11007e-07
  134 5451.47 0.00000 2.10499e-07
  135 5451.47 0.00000 -5.54492e-08
  136 5451.47 0.00000 -3.35768e-07
  137 5451.47 0.00000 4.36486e-08
  138 5451.47 0.00000 -3.73991e-08
  139 5451.47 0.00000 3.85488e-08
  140 5451.47 0.00000 6.80641e-09
  141 5451.47 0.00000 3.01486e-08
  142 5451.47 0.00000 3.82947e-07
  143 5451.47 0.00000 -1.20990e-07
  144 5451.47 0.00000 5.52568e-08
  145 5451.47 0.00000 7.80171e-08
  146 5451.47 0.00000 -3.20482e-07
  147 5451.47 0.00000 3.61425e-09
  148 5451.47 0.00000 2.15375e-08
  149 5451.47 0.00000 1.45892e-08
  150 5451.47 0.00000 1.74357e-08
  151 5451.47 0.00000 1.14813e-07
  152 5451.47 0.00000 -3.56965e-08
  153 5451.47 0.00000 -6.54725e-09
  154 5451.47 0.00000 -2.95590e-09
  155 5451.47 0.00000 3.66738e-08
  156 5451.47 0.00000 -6.67028e-09
  157 5451.47 0.00000 -7.65624e-08
  158 5451.47 0.00000 1.59043e-08
  159 5451.47 0.00000 -1.51282e-08
  160 5451.47 0.00000 -4.80671e-09
  161 5451.47 0.00000 9.55519e-09
  162 5451.47 0.00000 -5.19921e-08
  163 5451.47 0.00000 1.66268e-08
  164 5451.47 0.00000 -6.65851e-08
  165 5451.47 0.00000 2.19847e-07
  166 5451.47 0.00000 -7.64262e-08
  167 5451.47 0.00000 -6.51653e-09
  168 5451.47 0.00000 1.43490e-08
  169 5451.47 0.00000 8.53186e-08
  170 5451.47 0.00000 3.35689e-08
  171 5451.47 0.00000 2.62156e-07
  172 5451.47 0.00000 5.87573e-08
  173 5451.47 0.00000 -3.76701e-07
  174 5451.47 0.00000 -1.91818e-08
  175 5451.47 0.00000 -1.25097e-07
  176 5451.47 0.00000 1.30580e-07
  177 5451.47 0.00000 1.62137e-08
  178 5451.47 0.00000 -2.74528e-08
  179 5451.47 0.00000 4.05882e-07
  180 5451.47 0.00000 3.82429e-08
  181 5451.47 0.00000 -1.64688e-08
  182 5451.47 0.00000 1.00645e-07
  183 5451.47 0.00000 -2.27720e-07
  184 5451.47 0.00000 -1.14507e-07
  185 5451.47 0.00000 2.21099e-07
  186 5451.47 0.00000 2.15916e-09
  187 5451.47 0.00000 3.32132e-08
  188 5451.47 0.00000 -8.19710e-09
  189 5451.47 0.00000 9.91162e-08
  190 5451.47 0.00000 -2.64845e-07
  191 5451.47 0.00000 -8.90669e-08
  192 5451.47 0.00000 -7.22533e-08
  193 5451.47 0.00000 1.10456e-07
  194 5451.47 0.00000 -1.42001e-08
  195 5451.47 0.00000 -1.38542e-07
  196 5451.47 0.00000 2.72754e-08
  197 5451.47 0.00000 1.23451e-07
  198 5451.47 0.00000 -1.09062e-07
  199 5451.47 0.00000 -7.69803e-08
  200 5451.47 0.00000 -4.37862e-09
  201 5451.47 0.00000 -5.05553e-08
  202 5451.47 0.00000 6.32389e-08
  203 5451.47 0.00000 1.91914e-07
  204 5451.47 0.00000 2.15669e-08
  205 5451.47 0.00000 9.66718e-08
  206 5451.47 0.00000 -7.04982e-08
  207 5451.47 0.00000 -3.94308e-07
  208 5451.47 0.00000 1.00716e-07
  209 5451.47 0.00000 -4.08978e-08
  210 5451.47 0.00000 -2.59511e-07
  211 5451.47 0.00000 2.79890e-07
  212 5451.47 0.00000 -3.89727e-08
  213 5451.47 0.00000 -2.42763e-07
  214 5451.47 0.00000 -2.46275e-07
  215 5451.47 0.00000 1.13781e-08
  216 5451.47 0.00000 -1.79055e-07
  217 5451.47 0.00000 -5.27949e-08
  218 5451.47 0.00000 -2.74000e-07
  219 5451.47 0.00000 -5.83232e-08
  220 5451.47 0.00000 -1.91685e-07
  221 5451.47 0.00000 -4.90666e-09
  222 5451.47 0.00000 -2.23607e-08
  223 5451.47 0.00000 3.53876e-07
  224 5451.47 0.00000 3.17453e-07
  225 5451.47 0.00000 -9.15569e-08
  226 5451.47 0.00000 1.39799e-07
  227 5451.47 0.00000 -3.25697e-09
  228 5451.47 0.00000 -6.22884e-08
  229 5451.47 0.00000 5.88570e-08
  230 5451.47 0.00000 2.00349e-08
  231 5451.47 0.00000 -3.74555e-08
  232 5451.47 0.00000 -1.16807e-07
  233 5451.47 0.00000 -2.00997e-08
  234 5451.47 0.00000 -1.68704e-07
  235 5451.47 0.00000 -5.78131e-08
  236 5451.47 0.00000 2.37202e-07
  237 5451.47 0.00000 4.83843e-08
  238 5451.47 0.00000 6.08550e-08
  239 5451.47 0.00000 -3.29003e-08
  240 5451.47 0.00000 1.94112e-07
  241 5451.47 0.00000 -8.99254e-08
</Section>

newXOutput 129

<Section columns = "stress_xx | stress_yy | stress_xy">
  1 5511.62 0.00000 -1.00455e-07
  2 5511.62 0.00000 1.98214e-08
  3 5511.62 0.00000 -1.04078e-08
  4 5511.62 0.00000 1.10521e-07
  5 5511.62 0.00000 -2.35450e-07
  6 5511.62 0.00000 -4.06393e-07
  7 5511.62 0.00000 -5.31364e-07
  8 5511.62 0.00000 -6.04537e-07
  9 5511.62 0.00000 -5.84175e-07
  10 5511.62 0.00000 -5.33493e-07
  11 5511.62 0.00000 -4.47885e-07
  12 5511.62 0.00000 -3.28255e-07
  13 5511.62 0.00000 -1.83672e-07
  14 5511.62 0.00000 -5.53163e-08
  15 5511.62 0.00000 6.00931e-08
  16 5511.62 0.00000 1.39549e-07
  17 5511.62 0.00000 1.63385e-07
  18 5511.62 0.00000 1.67222e-07
  19 5511.62 0.00000 1.47027e-07
  20 5511.62 0.00000 1.12975e-07
  21 5511.62 0.00000 9.53078e-08
  22 5511.62 0.00000 7.23996e-08
  23 5511.62 0.00000 4.15580e-08
  24 5511.62 0.00000 1.08607e-08
  25 5511.62 0.00000 3.60756e-09
  26 5511.62 0.00000 -3.26639e-09
  27 5511.62 0.00000 -1.11999e-08
  28 5511.62 0.00000 -1.37036e-08
  29 5511.62 0.00000 -9.52250e-09
  30 5511.62 0.00000 -9.68450e-09
  31 5511.62 0.00000 -2.49419e-08
  32 5511.62 0.00000 -4.74122e-08
  33 5511.62 0.00000 -7.93673e-08
  34 5511.62 0.00000 -1.34880e-07
  35 5511.62 0.00000 -1.52938e-07
  36 5511.62 0.00000 -1.67043e-07
  37 5511.62 0.00000 -1.54454e-07
  38 5511.62 0.00000 -1.20965e-07
  39 5511.62 0.00000 -5.51388e-08
  40 5511.62 0.00000 4.29275e-08
  41 5511.62 0.00000 1.57001e-07
  42 5511.62 0.00000 3.06363e-07
  43 5511.62 0.00000 4.36075e-07
  44 5511.62 0.00000 5.47153e-07
  45 5511.62 0.00000 6.16918e-07
  46 5511.62 0.00000 5.82462e-07
  47 5511.62 0.00000 5.31354e-07
  48 5511.62 0.00000 4.20468e-07
  49 5511.62 0.00000 2.39675e-07
  50 5511.62 0.00000 7.62700e-08
  51 5511.62 0.00000 5.30602e-08
  52 5511.62 0.00000 3.46340e-08
  53 5511.62 0.00000 -7.51337e-09
  54 5511.62 0.00000 -4.82172e-08
  55 5511.62 0.00000 -5.94436e-08
  56 5511.62 0.00000 -7.19641e-08
  57 5511.62 0.00000 -6.39286e-09
  58 5511.62 0.00000 1.47853e-08
  59 5511.62 0.00000 1.01397e-08
  60 5511.62 0.00000 -5.39806e-08
  61 5511.62 0.00000 -1.51550e-07
  62 5511.62 0.00000 1.81919e-07
  63 5511.62 0.00000 5.34403e-08
  64 5511.62 0.00000 3.50059e-08
  65 5511.62 0.00000 2.24529e-07
  66 5511.62 0.00000 -1.77499e-07
  67 5511.62 0.00000 -3.28509e-08
  68 5511.62 0.00000 2.77433e-08
  69 5511.62 0.00000 -8.86702e-08
  70 5511.62 0.00000 -5.24112e-09
  71 5511.62 0.00000 -2.87784e-07
  72 5511.62 0.00000 -1.01960e-07
  73 5511.62 0.00000 8.32555e-08
  74 5511.62 0.00000 3.32942e-07
  75 5511.62 0.00000 1.39746e-07
  76 5511.62 0.00000 -1.43689e-08
  77 5511.62 0.00000 6.49888e-09
  78 5511.62 0.00000 -8.76955e-08
  79 5511.62 0.00000 2.03710e-08
  80 5511.62 0.00000 -6.54612e-09
  81 5511.62 0.00000 -3.10960e-09
  82 5511.62 0.00000 -1.06994e-07
  83 5511.62 0.00000 -1.47607e-08
  84 5511.62 0.00000 -4.04515e-07
  85 5511.62 0.00000 1.11655e-07
  86 5511.62 0.00000 3.63350e-08
  87 5511.62 0.00000 2.53610e-07
  88 5511.62 0.00000 -3.80133e-08
  89 5511.62 0.00000 -2.20267e-07
  90 5511.62 0.00000 -3.79928e-07
  91 5511.62 0.00000 3.51745e-07
  92 5511.62 0.00000 5.89559e-08
  93 5511.62 0.00000 1.40799e-08
  94 5511.62 0.00000 1.18369e-07
  95 5511.62 0.00000 3.00417e-07
  96 5511.62 0.00000 1.47368e-08
  97 5511.62 0.00000 8.10326e-08
  98 5511.62 0.00000 4.46366e-07
  99 5511.62 0.00000 -1.70253e-08
  100 5511.62 0.00000 -1.86166e-07
  101 5511.62 0.00000 -2.20165e-07
  102 5511.62 0.00000 5.65518e-08
  103 5511.62 0.00000 -2.39798e-08
  104 5511.62 0.00000 1.75355e-07
  105 5511.62 0.00000 6.37219e-08
  106 5511.62 0.00000 -4.76643e-09
  107 5511.62 0.00000 -1.51450e-09
  108 5511.62 0.00000 6.72406e-08
  109 5511.62 0.00000 -8.46106e-08
  110 5511.62 0.00000 -2.30938e-08
  111 5511.62 0.00000 -5.35398e-08
  112 5511.62 0.00000 3.24980e-08
  113 5511.62 0.00000 -8.20797e-08
  114 5511.62 0.00000 -1.38311e-07
  115 5511.62 0.00000 -5.65855e-08
  116 5511.62 0.00000 -4.57413e-07
  117 5511.62 0.00000 5.02201e-08
  118 5511.62 0.00000 2.20497e-07
  119 5511.62 0.00000 3.96617e-08
  120 5511.62 0.00000 -1.15094e-07
  121 5511.62 0.00000 -1.31223e-07
  122 5511.62 0.00000 -3.67125e-08
  123 5511.62 0.00000 -9.42067e-08
  124 5511.62 0.00000 -2.46760e-08
  125 5511.62 0.00000 1.32329e-07
  126 5511.62 0.00000 -4.76767e-07
  127 5511.62 0.00000 6.07839e-08
  128 5511.62 0.00000 1.10636e-07
  129 5511.62 0.00000 4.97086e-07
  130 5511.62 0.00000 -1.06177e-09
  131 5511.62 0.00000 -1.56302e-07
  132 5511.62 0.00000 1.81783e-07
  133 5511.62 0.00000 1.41922e-07
  134 5511.62 0.00000 -2.74185e-07
  135 5511.62 0.00000 7.35138e-08
  136 5511.62 0.00000 4.33395e-07
  137 5511.62 0.00000 -5.77855e-08
  138 5511.62 0.00000 4.91597e-08
  139 5511.62 0.00000 -4.98512e-08
  140 5511.62 0.00000 -8.93550e-09
  141 5511.62 0.00000 -3.97072e-08
  142 5511.62 0.00000 -4.98949e-07
  143 5511.62 0.00000 1.57323e-07
  144 5511.62 0.00000 -6.82222e-08
  145 5511.62 0.00000 -1.02868e-07
  146 5511.62 0.00000 4.19178e-07
  147 5511.62 0.00000 1.65244e-09
  148 5511.62 0.00000 -2.77385e-08
  149 5511.62 0.00000 -1.82136e-08
  150 5511.62 0.00000 -2.53547e-08
  151 5511.62 0.00000 -1.52040e-07
  152 5511.62 0.00000 4.55813e-08
  153 5511.62 0.00000 7.77102e-09
  154 5511.62 0.00000 3.41455e-09
  155 5511.62 0.00000 -4.66385e-08
  156 5511.62 0.00000 9.43619e-09
  157 5511.62 0.00000 9.85402e-08
  158 5511.62 0.00000 -1.96689e-08
  159 5511.62 0.00000 1.98550e-08
  160 5511.62 0.00000 6.21205e-09
  161 5511.62 0.00000 -1.15852e-08
  162 5511.62 0.00000 6.79293e-08
  163 5511.62 0.00000 -2.06516e-08
  164 5511.62 0.00000 8.58941e-08
  165 5511.62 0.00000 -2.84596e-07
  166 5511.62 0.00000 9.84635e-08
  167 5511.62 0.00000 9.18768e-09
  168 5511.62 0.00000 -1.89651e-08
  169 5511.62 0.00000 -1.09886e-07
  170 5511.62 0.00000 -4.49786e-08
  171 5511.62 0.00000 -3.44719e-07
  172 5511.62 0.00000 -8.30395e-08
  173 5511.62 0.00000 4.90194e-07
  174 5511.62 0.00000 2.53970e-08
  175 5511.62 0.00000 1.61170e-07
  176 5511.62 0.00000 -1.68119e-07
  177 5511.62 0.00000 -2.20097e-08
  178 5511.62 0.00000 3.63817e-08
  179 5511.62 0.00000 -5.24842e-07
  180 5511.62 0.00000 -4.94353e-08
  181 5511.62 0.00000 2.08133e-08
  182 5511.62 0.00000 -1.26939e-07
  183 5511.62 0.00000 2.97820e-07
  184 5511.62 0.00000 1.44535e-07
  185 5511.62 0.00000 -2.85526e-07
  186 5511.62 0.00000 -9.31890e-09
  187 5511.62 0.00000 -4.50319e-08
  188 5511.62 0.00000 9.61850e-09
  189 5511.62 0.00000 -1.29051e-07
  190 5511.62 0.00000 3.44288e-07
  191 5511.62 0.00000 1.16418e-07
  192 5511.62 0.00000 9.24064e-08
  193 5511.62 0.00000 -1.42677e-07
  194 5511.62 0.00000 1.95830e-08
  195 5511.62 0.00000 1.78492e-07
  196 5511.62 0.00000 -3.57867e-08
  197 5511.62 0.00000 -1.59138e-07
  198 5511.62 0.00000 1.41134e-07
  199 5511.62 0.00000 9.96066e-08
  200 5511.62 0.00000 4.82020e-09
  201 5511.62 0.00000 6.98000e-08
  202 5511.62 0.00000 -7.94530e-08
  203 5511.62 0.00000 -2.51894e-07
  204 5511.62 0.00000 -3.23403e-08
  205 5511.62 0.00000 -1.25210e-07
  206 5511.62 0.00000 9.33893e-08
  207 5511.62 0.00000 5.10043e-07
  208 5511.62 0.00000 -1.31702e-07
  209 5511.62 0.00000 5.43818e-08
  210 5511.62 0.00000 3.34813e-07
  211 5511.62 0.00000 -3.60869e-07
  212 5511.62 0.00000 5.15511e-08
  213 5511.62 0.00000 3.13018e-07
  214 5511.62 0.00000 3.24520e-07
  215 5511.62 0.00000 -1.59988e-08
  216 5511.62 0.00000 2.34909e-07
  217 5511.62 0.00000 6.94520e-08
  218 5511.62 0.00000 3.54198e-07
  219 5511.62 0.00000 7.20680e-08
  220 5511.62 0.00000 2.50009e-07
  221 5511.62 0.00000 4.66091e-09
  222 5511.62 0.00000 2.85832e-08
  223 5511.62 0.00000 -4.62786e-07
  224 5511.62 0.00000 -4.12982e-07
  225 5511.62 0.00000 1.18578e-07
  226 5511.62 0.00000 -1.80426e-07
  227 5511.62 0.00000 5.96289e-10
  228 5511.62 0.00000 8.30392e-08
  229 5511.62 0.00000 -7.59385e-08
  230 5511.62 0.00000 -2.57133e-08
  231 5511.62 0.00000 4.79563e-08
  232 5511.62 0.00000 1.50737e-07
  233 5511.62 0.00000 2.65307e-08
  234 5511.62 0.00000 2.22732e-07
  235 5511.62 0.00000 8.19485e-08
  236 5511.62 0.00000 -3.05914e-07
  237 5511.62 0.00000 -6.84673e-08
  238 5511.62 0.00000 -8.05672e-08
  239 5511.62 0.00000 4.24927e-08
  240 5511.62 0.00000 -2.57730e-07
  241 5511.62 0.00000 1.11682e-07
</Section>

newXOutput 130

<Section columns = "stress_xx | stress_yy | stress_xy">
  1 5572.02 0.00000 1.29582e-07
  2 5572.02 0.00000 -2.59497e-08
  3 5572.02 0.00000 1.45054e-08
  4 5572.02 0.00000 -1.42526e-07
  5 5572.02 0.00000 3.04386e-07
  6 5572.02 0.00000 5.25995e-07
  7 5572.02 0.00000 6.88167e-07
  8 5572.02 0.00000 7.85012e-07
  9 5572.02 0.00000 7.61528e-07
  10 5572.02 0.00000 6.98402e-07
  11 5572.02 0.00000 5.89105e-07
  12 5572.02 0.00000 4.35256e-07
  13 5572.02 0.00000 2.48040e-07
  14 5572.02 0.00000 8.14902e-08
  15 5572.02 0.00000 -6.98469e-08
  16 5572.02 0.00000 -1.74754e-07
  17 5572.02 0.00000 -2.07980e-07
  18 5572.02 0.00000 -2.15575e-07
  19 5572.02 0.00000 -1.92194e-07
  20 5572.02 0.00000 -1.49477e-07
  21 5572.02 0.00000 -1.26402e-07
  22 5572.02 0.00000 -9.58156e-08
  23 5572.02 0.00000 -5.47782e-08
  24 5572.02 0.00000 -1.45085e-08
  25 5572.02 0.00000 -5.32988e-09
  26 5572.02 0.00000 3.38394e-09
  27 5572.02 0.00000 1.37997e-08
  28 5572.02 0.00000 1.75514e-08
  29 5572.02 0.00000 1.26270e-08
  30 5572.02 0.00000 1.30810e-08
  31 5572.02 0.00000 3.46318e-08
  32 5572.02 0.00000 6.45713e-08
  33 5572.02 0.00000 1.05739e-07
  34 5572.02 0.00000 1.76998e-07
  35 5572.02 0.00000 1.99040e-07
  36 5572.02 0.00000 2.15512e-07
  37 5572.02 0.00000 1.96924e-07
  38 5572.02 0.00000 1.50818e-07
  39 5572.02 0.00000 6.29816e-08
  40 5572.02 0.00000 -6.54902e-08
  41 5572.02 0.00000 -2.13933e-07
  42 5572.02 0.00000 -4.07167e-07
  43 5572.02 0.00000 -5.73743e-07
  44 5572.02 0.00000 -7.15439e-07
  45 5572.02 0.00000 -8.03178e-07
  46 5572.02 0.00000 -7.56503e-07
  47 5572.02 0.00000 -6.88840e-07
  48 5572.02 0.00000 -5.44129e-07
  49 5572.02 0.00000 -3.09848e-07
  50 5572.02 0.00000 -9.84529e-08
  51 5572.02 0.00000 -6.85816e-08
  52 5572.02 0.00000 -4.47597e-08
  53 5572.02 0.00000 9.66021e-09
  54 5572.02 0.00000 6.22829e-08
  55 5572.02 0.00000 7.68155e-08
  56 5572.02 0.00000 9.29094e-08
  57 5572.02 0.00000 7.95303e-09
  58 5572.02 0.00000 -1.79295e-08
  59 5572.02 0.00000 -1.28016e-08
  60 5572.02 0.00000 6.78905e-08
  61 5572.02 0.00000 1.99205e-07
  62 5572.02 0.00000 -2.38705e-07
  63 5572.02 0.00000 -6.91199e-08
  64 5572.02 0.00000 -4.67642e-08
  65 5572.02 0.00000 -2.90605e-07
  66 5572.02 0.00000 2.29680e-07
  67 5572.02 0.00000 4.36247e-08
  68 5572.02 0.00000 -3.24378e-08
  69 5572.02 0.00000 1.14831e-07
  70 5572.02 0.00000 1.54484e-09
  71 5572.02 0.00000 3.74584e-07
  72 5572.02 0.00000 1.38378e-07
  73 5572.02 0.00000 -1.08062e-07
  74 5572.02 0.00000 -4.32638e-07
  75 5572.02 0.00000 -1.86703e-07
  76 5572.02 0.00000 1.76550e-08
  77 5572.02 0.00000 -8.20555e-09
  78 5572.02 0.00000 1.15680e-07
  79 5572.02 0.00000 -2.59857e-08
  80 5572.02 0.00000 8.26365e-09
  81 5572.02 0.00000 3.73214e-09
  82 5572.02 0.00000 1.34930e-07
  83 5572.02 0.00000 1.88830e-08
  84 5572.02 0.00000 5.24357e-07
  85 5572.02 0.00000 -1.40889e-07
  86 5572.02 0.00000 -4.87053e-08
  87 5572.02 0.00000 -3.27850e-07
  88 5572.02 0.00000 5.08852e-08
  89 5572.02 0.00000 2.84657e-07
  90 5572.02 0.00000 4.97723e-07
  91 5572.02 0.00000 -4.60126e-07
  92 5572.02 0.00000 -7.61828e-08
  93 5572.02 0.00000 -1.82912e-08
  94 5572.02 0.00000 -1.52843e-07
  95 5572.02 0.00000 -3.95486e-07
  96 5572.02 0.00000 -1.90358e-08
  97 5572.02 0.00000 -1.07360e-07
  98 5572.02 0.00000 -5.78630e-07
  99 5572.02 0.00000 2.93307e-08
  100 5572.02 0.00000 2.41349e-07
  101 5572.02 0.00000 2.92500e-07
  102 5572.02 0.00000 -7.28674e-08
  103 5572.02 0.00000 3.26393e-08
  104 5572.02 0.00000 -2.29245e-07
  105 5572.02 0.00000 -9.04299e-08
  106 5572.02 0.00000 9.13747e-09
  107 5572.02 0.00000 8.17129e-10
  108 5572.02 0.00000 -8.67774e-08
  109 5572.02 0.00000 1.09279e-07
  110 5572.02 0.00000 2.97205e-08
  111 5572.02 0.00000 7.15741e-08
  112 5572.02 0.00000 -4.50340e-08
  113 5572.02 0.00000 1.00242e-07
  114 5572.02 0.00000 1.77047e-07
  115 5572.02 0.00000 7.65490e-08
  116 5572.02 0.00000 5.92142e-07
  117 5572.02 0.00000 -6.55965e-08
  118 5572.02 0.00000 -2.86023e-07
  119 5572.02 0.00000 -4.51488e-08
  120 5572.02 0.00000 1.50425e-07
  121 5572.02 0.00000 1.70404e-07
  122 5572.02 0.00000 4.49917e-08
  123 5572.02 0.00000 1.19888e-07
  124 5572.02 0.00000 3.26979e-08
  125 5572.02 0.00000 -1.74511e-07
  126 5572.02 0.00000 6.20058e-07
  127 5572.02 0.00000 -7.63825e-08
  128 5572.02 0.00000 -1.45190e-07
  129 5572.02 0.00000 -6.45964e-07
  130 5572.02 0.00000 -5.30198e-10
  131 5572.02 0.00000 2.11110e-07
  132 5572.02 0.00000 -2.44271e-07
  133 5572.02 0.00000 -1.81752e-07
  134 5572.02 0.00000 3.58120e-07
  135 5572.02 0.00000 -9.75791e-08
  136 5572.02 0.00000 -5.61029e-07
  137 5572.02 0.00000 7.65476e-08
  138 5572.02 0.00000 -6.48242e-08
  139 5572.02 0.00000 6.46575e-08
  140 5572.02 0.00000 1.17459e-08
  141 5572.02 0.00000 5.24139e-08
  142 5572.02 0.00000 6.51882e-07
  143 5572.02 0.00000 -2.05127e-07
  144 5572.02 0.00000 8.41748e-08
  145 5572.02 0.00000 1.35816e-07
  146 5572.02 0.00000 -5.49762e-07
  147 5572.02 0.00000 -1.04815e-08
  148 5572.02 0.00000 3.58336e-08
  149 5572.02 0.00000 2.28176e-08
  150 5572.02 0.00000 3.65213e-08
  151 5572.02 0.00000 2.01801e-07
  152 5572.02 0.00000 -5.83716e-08
  153 5572.02 0.00000 -9.10265e-09
  154 5572.02 0.00000 -3.89736e-09
  155 5572.02 0.00000 5.94518e-08
  156 5572.02 0.00000 -1.32454e-08
  157 5572.02 0.00000 -1.27199e-07
  158 5572.02 0.00000 2.43851e-08
  159 5572.02 0.00000 -2.60388e-08
  160 5572.02 0.00000 -8.05123e-09
  161 5572.02 0.00000 1.40726e-08
  162 5572.02 0.00000 -8.90055e-08
  163 5572.02 0.00000 2.57044e-08
  164 5572.02 0.00000 -1.11010e-07
  165 5572.02 0.00000 3.69481e-07
  166 5572.02 0.00000 -1.27234e-07
  167 5572.02 0.00000 -1.28722e-08
  168 5572.02 0.00000 2.51187e-08
  169 5572.02 0.00000 1.41948e-07
  170 5572.02 0.00000 6.02477e-08
  171 5572.02 0.00000 4.54457e-07
  172 5572.02 0.00000 1.16947e-07
  173 5572.02 0.00000 -6.39658e-07
  174 5572.02 0.00000 -3.36896e-08
  175 5572.02 0.00000 -2.08258e-07
  176 5572.02 0.00000 2.17096e-07
  177 5572.02 0.00000 2.98458e-08
  178 5572.02 0.00000 -4.83054e-08
  179 5572.02 0.00000 6.80624e-07
  180 5572.02 0.00000 6.40985e-08
  181 5572.02 0.00000 -2.63782e-08
  182 5572.02 0.00000 1.60279e-07
  183 5572.02 0.00000 -3.90565e-07
  184 5572.02 0.00000 -1.82651e-07
  185 5572.02 0.00000 3.69795e-07
  186 5572.02 0.00000 2.07019e-08
  187 5572.02 0.00000 6.09969e-08
  188 5572.02 0.00000 -1.12219e-08
  189 5572.02 0.00000 1.68489e-07
  190 5572.02 0.00000 -4.48802e-07
  191 5572.02 0.00000 -1.52571e-07
  192 5572.02 0.00000 -1.18355e-07
  193 5572.02 0.00000 1.84650e-07
  194 5572.02 0.00000 -2.69279e-08
  195 5572.02 0.00000 -2.30638e-07
  196 5572.02 0.00000 4.70609e-08
  197 5572.02 0.00000 2.05749e-07
  198 5572.02 0.00000 -1.82975e-07
  199 5572.02 0.00000 -1.29241e-07
  200 5572.02 0.00000 -5.21972e-09
  201 5572.02 0.00000 -9.63172e-08
  202 5572.02 0.00000 9.99478e-08
  203 5572.02 0.00000 3.31483e-07
  204 5572.02 0.00000 4.77476e-08
  205 5572.02 0.00000 1.62654e-07
  206 5572.02 0.00000 -1.23839e-07
  207 5572.02 0.00000 -6.61642e-07
  208 5572.02 0.00000 1.72525e-07
  209 5572.02 0.00000 -7.23803e-08
  210 5572.02 0.00000 -4.33214e-07
  211 5572.02 0.00000 4.66648e-07
  212 5572.02 0.00000 -6.83075e-08
  213 5572.02 0.00000 -4.04782e-07
  214 5572.02 0.00000 -4.28730e-07
  215 5572.02 0.00000 2.23084e-08
  216 5572.02 0.00000 -3.09023e-07
  217 5572.02 0.00000 -9.15063e-08
  218 5572.02 0.00000 -4.59181e-07
  219 5572.02 0.00000 -8.89575e-08
  220 5572.02 0.00000 -3.26968e-07
  221 5572.02 0.00000 -3.81459e-09
  222 5572.02 0.00000 -3.66489e-08
  223 5572.02 0.00000 6.06845e-07
  224 5572.02 0.00000 5.38745e-07
  225 5572.02 0.00000 -1.53874e-07
  226 5572.02 0.00000 2.33540e-07
  227 5572.02 0.00000 3.99099e-09
  228 5572.02 0.00000 -1.10969e-07
  229 5572.02 0.00000 9.82674e-08
  230 5572.02 0.00000 3.31059e-08
  231 5572.02 0.00000 -6.14594e-08
  232 5572.02 0.00000 -1.95077e-07
  233 5572.02 0.00000 -3.50654e-08
  234 5572.02 0.00000 -2.94815e-07
  235 5572.02 0.00000 -1.15713e-07
  236 5572.02 0.00000 3.95689e-07
  237 5572.02 0.00000 9.64995e-08
  238 5572.02 0.00000 1.06905e-07
  239 5572.02 0.00000 -5.49611e-08
  240 5572.02 0.00000 3.42983e-07
  241 5572.02 0.00000 -1.38667e-07
</Section>

newXOutput 131

<Section columns = "stress_xx | stress_yy | stress_xy">
  1 5632.67 0.00000 -1.67662e-07
  2 5632.67 0.00000 3.40765e-08
  3 5632.67 0.00000 -2.01245e-08
  4 5632.67 0.00000 1.84352e-07
  5 5632.67 0.00000 -3.94676e-07
  6 5632.67 0.00000 -6.82798e-07
  7 5632.67 0.00000 -8.93854e-07
  8 5632.67 0.00000 -1.02229e-06
  9 5632.67 0.00000 -9.95514e-07
  10 5632.67 0.00000 -9.16806e-07
  11 5632.67 0.00000 -7.76930e-07
  12 5632.67 0.00000 -5.78554e-07
  13 5632.67 0.00000 -3.35506e-07
  14 5632.67 0.00000 -1.18877e-07
  15 5632.67 0.00000 8.00659e-08
  16 5632.67 0.00000 2.18902e-07
  17 5632.67 0.00000 2.65145e-07
  18 5632.67 0.00000 2.78435e-07
  19 5632.67 0.00000 2.51634e-07
  20 5632.67 0.00000 1.97997e-07
  21 5632.67 0.00000 1.67846e-07
  22 5632.67 0.00000 1.27019e-07
  23 5632.67 0.00000 7.23688e-08
  24 5632.67 0.00000 1.94094e-08
  25 5632.67 0.00000 7.74798e-09
  26 5632.67 0.00000 -3.34493e-09
  27 5632.67 0.00000 -1.70569e-08
  28 5632.67 0.00000 -2.25669e-08
  29 5632.67 0.00000 -1.67811e-08
  30 5632.67 0.00000 -1.76644e-08
  31 5632.67 0.00000 -4.78968e-08
  32 5632.67 0.00000 -8.78366e-08
  33 5632.67 0.00000 -1.40998e-07
  34 5632.67 0.00000 -2.32683e-07
  35 5632.67 0.00000 -2.59529e-07
  36 5632.67 0.00000 -2.78541e-07
  37 5632.67 0.00000 -2.51408e-07
  38 5632.67 0.00000 -1.88007e-07
  39 5632.67 0.00000 -7.06036e-08
  40 5632.67 0.00000 9.81306e-08
  41 5632.67 0.00000 2.91799e-07
  42 5632.67 0.00000 5.42445e-07
  43 5632.67 0.00000 7.56913e-07
  44 5632.67 0.00000 9.38102e-07
  45 5632.67 0.00000 1.04864e-06
  46 5632.67 0.00000 9.85364e-07
  47 5632.67 0.00000 8.95603e-07
  48 5632.67 0.00000 7.06220e-07
  49 5632.67 0.00000 4.01746e-07
  50 5632.67 0.00000 1.27471e-07
  51 5632.67 0.00000 8.89103e-08
  52 5632.67 0.00000 5.80186e-08
  53 5632.67 0.00000 -1.24560e-08
  54 5632.67 0.00000 -8.06905e-08
  55 5632.67 0.00000 -9.95635e-08
  56 5632.67 0.00000 -1.20314e-07
  57 5632.67 0.00000 -9.92514e-09
  58 5632.67 0.00000 2.17818e-08
  59 5632.67 0.00000 1.62158e-08
  60 5632.67 0.00000 -8.55181e-08
  61 5632.67 0.00000 -2.62537e-07
  62 5632.67 0.00000 3.14085e-07
  63 5632.67 0.00000 8.95093e-08
  64 5632.67 0.00000 6.25146e-08
  65 5632.67 0.00000 3.77215e-07
  66 5632.67 0.00000 -2.98074e-07
  67 5632.67 0.00000 -5.79961e-08
  68 5632.67 0.00000 3.74471e-08
  69 5632.67 0.00000 -1.48985e-07
  70 5632.67 0.00000 4.92972e-09
  71 5632.67 0.00000 -4.88962e-07
  72 5632.67 0.00000 -1.88000e-07
  73 5632.67 0.00000 1.40565e-07
  74 5632.67 0.00000 5.63798e-07
  75 5632.67 0.00000 2.50004e-07
  76 5632.67 0.00000 -2.17391e-08
  77 5632.67 0.00000 1.03913e-08
  78 5632.67 0.00000 -1.52794e-07
  79 5632.67 0.00000 3.32595e-08
  80 5632.67 0.00000 -1.04586e-08
  81 5632.67 0.00000 -4.49834e-09
  82 5632.67 0.00000 -1.70339e-07
  83 5632.67 0.00000 -2.42223e-08
  84 5632.67 0.00000 -6.81686e-07
  85 5632.67 0.00000 1.77930e-07
  86 5632.67 0.00000 6.53350e-08
  87 5632.67 0.00000 4.25076e-07
  88 5632.67 0.00000 -6.81638e-08
  89 5632.67 0.00000 -3.68971e-07
  90 5632.67 0.00000 -6.53816e-07
  91 5632.67 0.00000 6.03565e-07
  92 5632.67 0.00000 9.87232e-08
  93 5632.67 0.00000 2.38259e-08
  94 5632.67 0.00000 1.97718e-07
  95 5632.67 0.00000 5.22047e-07
  96 5632.67 0.00000 2.45517e-08
  97 5632.67 0.00000 1.42411e-07
  98 5632.67 0.00000 7.52256e-07
  99 5632.67 0.00000 -4.76992e-08
  100 5632.67 0.00000 -3.13808e-07
  101 5632.67 0.00000 -3.89520e-07
  102 5632.67 0.00000 9.41062e-08
  103 5632.67 0.00000 -4.43255e-08
  104 5632.67 0.00000 3.00513e-07
  105 5632.67 0.00000 1.27866e-07
  106 5632.67 0.00000 -1.57555e-08
  107 5632.67 0.00000 3.72589e-10
  108 5632.67 0.00000 1.12328e-07
  109 5632.67 0.00000 -1.41562e-07
  110 5632.67 0.00000 -3.83890e-08
  111 5632.67 0.00000 -9.57279e-08
  112 5632.67 0.00000 6.23847e-08
  113 5632.67 0.00000 -1.22102e-07
  114 5632.67 0.00000 -2.27024e-07
  115 5632.67 0.00000 -1.03666e-07
  116 5632.67 0.00000 -7.68807e-07
  117 5632.67 0.00000 8.58637e-08
  118 5632.67 0.00000 3.72086e-07
  119 5632.67 0.00000 5.03435e-08
  120 5632.67 0.00000 -1.96929e-07
  121 5632.67 0.00000 -2.21926e-07
  122 5632.67 0.00000 -5.50510e-08
  123 5632.67 0.00000 -1.52855e-07
  124 5632.67 0.00000 -4.33434e-08
  125 5632.67 0.00000 2.30781e-07
  126 5632.67 0.00000 -8.08722e-07
  127 5632.67 0.00000 9.59939e-08
  128 5632.67 0.00000 1.90832e-07
  129 5632.67 0.00000 8.41832e-07
  130 5632.67 0.00000 3.21289e-09
  131 5632.67 0.00000 -2.85572e-07
  132 5632.67 0.00000 3.28866e-07
  133 5632.67 0.00000 2.33153e-07
  134 5632.67 0.00000 -4.69051e-07
  135 5632.67 0.00000 1.29691e-07
  136 5632.67 0.00000 7.28372e-07
  137 5632.67 0.00000 -1.01469e-07
  138 5632.67 0.00000 8.57467e-08
  139 5632.67 0.00000 -8.41070e-08
  140 5632.67 0.00000 -1.54647e-08
  141 5632.67 0.00000 -6.93510e-08
  142 5632.67 0.00000 -8.54055e-07
  143 5632.67 0.00000 2.68199e-07
  144 5632.67 0.00000 -1.03750e-07
  145 5632.67 0.00000 -1.79568e-07
  146 5632.67 0.00000 7.23009e-07
  147 5632.67 0.00000 2.46505e-08
  148 5632.67 0.00000 -4.64281e-08
  149 5632.67 0.00000 -2.86909e-08
  150 5632.67 0.00000 -5.22294e-08
  151 5632.67 0.00000 -2.68479e-07
  152 5632.67 0.00000 7.49692e-08
  153 5632.67 0.00000 1.04839e-08
  154 5632.67 0.00000 4.38183e-09
  155 5632.67 0.00000 -7.59548e-08
  156 5632.67 0.00000 1.84872e-08
  157 5632.67 0.00000 1.64676e-07
  158 5632.67 0.00000 -3.03070e-08
  159 5632.67 0.00000 3.41399e-08
  160 5632.67 0.00000 1.04655e-08
  161 5632.67 0.00000 -1.71267e-08
  162 5632.67 0.00000 1.16960e-07
  163 5632.67 0.00000 -3.20636e-08
  164 5632.67 0.00000 1.43735e-07
  165 5632.67 0.00000 -4.81086e-07
  166 5632.67 0.00000 1.64904e-07
  167 5632.67 0.00000 1.79433e-08
  168 5632.67 0.00000 -3.33309e-08
  169 5632.67 0.00000 -1.83915e-07
  170 5632.67 0.00000 -8.06930e-08
  171 5632.67 0.00000 -6.00697e-07
  172 5632.67 0.00000 -1.64274e-07
  173 5632.67 0.00000 8.37037e-07
  174 5632.67 0.00000 4.47770e-08
  175 5632.67 0.00000 2.69905e-07
  176 5632.67 0.00000 -2.81185e-07
  177 5632.67 0.00000 -4.04452e-08
  178 5632.67 0.00000 6.42642e-08
  179 5632.67 0.00000 -8.85210e-07
  180 5632.67 0.00000 -8.33644e-08
  181 5632.67 0.00000 3.35182e-08
  182 5632.67 0.00000 -2.02564e-07
  183 5632.67 0.00000 5.13603e-07
  184 5632.67 0.00000 2.31059e-07
  185 5632.67 0.00000 -4.80336e-07
  186 5632.67 0.00000 -3.83304e-08
  187 5632.67 0.00000 -8.25759e-08
  188 5632.67 0.00000 1.29918e-08
  189 5632.67 0.00000 -2.20593e-07
  190 5632.67 0.00000 5.86683e-07
  191 5632.67 0.00000 2.00493e-07
  192 5632.67 0.00000 1.51811e-07
  193 5632.67 0.00000 -2.39425e-07
  194 5632.67 0.00000 3.69403e-08
  195 5632.67 0.00000 2.98901e-07
  196 5632.67 0.00000 -6.20231e-08
  197 5632.67 0.00000 -2.66804e-07
  198 5632.67 0.00000 2.37654e-07
  199 5632.67 0.00000 1.68163e-07
  200 5632.67 0.00000 5.51337e-09
  201 5632.67 0.00000 1.32892e-07
  202 5632.67 0.00000 -1.25871e-07
  203 5632.67 0.00000 -4.37370e-07
  204 5632.67 0.00000 -6.96991e-08
  205 5632.67 0.00000 -2.11927e-07
  206 5632.67 0.00000 1.64402e-07
  207 5632.67 0.00000 8.60784e-07
  208 5632.67 0.00000 -2.26399e-07
  209 5632.67 0.00000 9.64333e-08
  210 5632.67 0.00000 5.62172e-07
  211 5632.67 0.00000 -6.05221e-07
  212 5632.67 0.00000 9.06711e-08
  213 5632.67 0.00000 5.24986e-07
  214 5632.67 0.00000 5.67878e-07
  215 5632.67 0.00000 -3.09099e-08
  216 5632.67 0.00000 4.07639e-07
  217 5632.67 0.00000 1.20750e-07
  218 5632.67 0.00000 5.97005e-07
  219 5632.67 0.00000 1.09639e-07
  220 5632.67 0.00000 4.28800e-07
  221 5632.67 0.00000 2.00869e-09
  222 5632.67 0.00000 4.71393e-08
  223 5632.67 0.00000 -7.97918e-07
  224 5632.67 0.00000 -7.04772e-07
  225 5632.67 0.00000 2.00062e-07
  226 5632.67 0.00000 -3.03177e-07
  227 5632.67 0.00000 -1.14855e-08
  228 5632.67 0.00000 1.48659e-07
  229 5632.67 0.00000 -1.27537e-07
  230 5632.67 0.00000 -4.27663e-08
  231 5632.67 0.00000 7.88329e-08
  232 5632.67 0.00000 2.53183e-07
  233 5632.67 0.00000 4.64180e-08
  234 5632.67 0.00000 3.91235e-07
  235 5632.67 0.00000 1.62912e-07
  236 5632.67 0.00000 -5.13318e-07
  237 5632.67 0.00000 -1.35606e-07
  238 5632.67 0.00000 -1.42175e-07
  239 5632.67 0.00000 7.12007e-08
  240 5632.67 0.00000 -4.57492e-07
  241 5632.67 0.00000 1.72070e-07
</Section>

newXOutput 132

<Section columns = "stress_xx | stress_yy | stress_xy">
  1 5693.57 0.00000 2.17593e-07
  2 5693.57 0.00000 -4.48708e-08
  3 5693.57 0.00000 2.78111e-08
  4 5693.57 0.00000 -2.39176e-07
  5 5693.57 0.00000 5.13280e-07
  6 5693.57 0.00000 8.88971e-07
  7 5693.57 0.00000 1.16445e-06
  8 5693.57 0.00000 1.33516e-06
  9 5693.57 0.00000 1.30509e-06
  10 5693.57 0.00000 1.20686e-06
  11 5693.57 0.00000 1.02741e-06
  12 5693.57 0.00000 7.70945e-07
  13 5693.57 0.00000 4.54591e-07
  14 5693.57 0.00000 1.72129e-07
  15 5693.57 0.00000 -9.00473e-08
  16 5693.57 0.00000 -2.74219e-07
  17 5693.57 0.00000 -3.38501e-07
  18 5693.57 0.00000 -3.60283e-07
  19 5693.57 0.00000 -3.29978e-07
  20 5693.57 0.00000 -2.62563e-07
  21 5693.57 0.00000 -2.23160e-07
  22 5693.57 0.00000 -1.68671e-07
  23 5693.57 0.00000 -9.58170e-08
  24 5693.57 0.00000 -2.60018e-08
  25 5693.57 0.00000 -1.11244e-08
  26 5693.57 0.00000 3.04386e-09
  27 5693.57 0.00000 2.11439e-08
  28 5693.57 0.00000 2.91230e-08
  29 5693.57 0.00000 2.23488e-08
  30 5693.57 0.00000 2.38598e-08
  31 5693.57 0.00000 6.60340e-08
  32 5693.57 0.00000 1.19385e-07
  33 5693.57 0.00000 1.88199e-07
  34 5693.57 0.00000 3.06418e-07
  35 5693.57 0.00000 3.39040e-07
  36 5693.57 0.00000 3.60630e-07
  37 5693.57 0.00000 3.21365e-07
  38 5693.57 0.00000 2.34253e-07
  39 5693.57 0.00000 7.70510e-08
  40 5693.57 0.00000 -1.45137e-07
  41 5693.57 0.00000 -3.98463e-07
  42 5693.57 0.00000 -7.24433e-07
  43 5693.57 0.00000 -1.00128e-06
  44 5693.57 0.00000 -1.23353e-06
  45 5693.57 0.00000 -1.37303e-06
  46 5693.57 0.00000 -1.28718e-06
  47 5693.57 0.00000 -1.16784e-06
  48 5693.57 0.00000 -9.19301e-07
  49 5693.57 0.00000 -5.22446e-07
  50 5693.57 0.00000 -1.65541e-07
  51 5693.57 0.00000 -1.15614e-07
  52 5693.57 0.00000 -7.54324e-08
  53 5693.57 0.00000 1.61065e-08
  54 5693.57 0.00000 1.04852e-07
  55 5693.57 0.00000 1.29437e-07
  56 5693.57 0.00000 1.56276e-07
  57 5693.57 0.00000 1.24258e-08
  58 5693.57 0.00000 -2.65176e-08
  59 5693.57 0.00000 -2.06071e-08
  60 5693.57 0.00000 1.07878e-07
  61 5693.57 0.00000 3.46929e-07
  62 5693.57 0.00000 -4.14426e-07
  63 5693.57 0.00000 -1.16062e-07
  64 5693.57 0.00000 -8.36388e-08
  65 5693.57 0.00000 -4.91067e-07
  66 5693.57 0.00000 3.87980e-07
  67 5693.57 0.00000 7.71909e-08
  68 5693.57 0.00000 -4.24805e-08
  69 5693.57 0.00000 1.93645e-07
  70 5693.57 0.00000 -1.56177e-08
  71 5693.57 0.00000 6.40107e-07
  72 5693.57 0.00000 2.55725e-07
  73 5693.57 0.00000 -1.83231e-07
  74 5693.57 0.00000 -7.36839e-07
  75 5693.57 0.00000 -3.35538e-07
  76 5693.57 0.00000 2.68306e-08
  77 5693.57 0.00000 -1.31976e-08
  78 5693.57 0.00000 2.02100e-07
  79 5693.57 0.00000 -4.27118e-08
  80 5693.57 0.00000 1.32657e-08
  81 5693.57 0.00000 5.44564e-09
  82 5693.57 0.00000 2.15233e-07
  83 5693.57 0.00000 3.11543e-08
  84 5693.57 0.00000 8.88821e-07
  85 5693.57 0.00000 -2.24859e-07
  86 5693.57 0.00000 -8.77160e-08
  87 5693.57 0.00000 -5.52777e-07
  88 5693.57 0.00000 9.13759e-08
  89 5693.57 0.00000 4.79695e-07
  90 5693.57 0.00000 8.61235e-07
  91 5693.57 0.00000 -7.93929e-07
  92 5693.57 0.00000 -1.28297e-07
  93 5693.57 0.00000 -3.11216e-08
  94 5693.57 0.00000 -2.56228e-07
  95 5693.57 0.00000 -6.90991e-07
  96 5693.57 0.00000 -3.16175e-08
  97 5693.57 0.00000 -1.89141e-07
  98 5693.57 0.00000 -9.80838e-07
  99 5693.57 0.00000 7.48402e-08
  100 5693.57 0.00000 4.09231e-07
  101 5693.57 0.00000 5.19969e-07
  102 5693.57 0.00000 -1.21810e-07
  103 5693.57 0.00000 6.01007e-08
  104 5693.57 0.00000 -3.95017e-07
  105 5693.57 0.00000 -1.80311e-07
  106 5693.57 0.00000 2.56308e-08
  107 5693.57 0.00000 -2.28581e-09
  108 5693.57 0.00000 -1.45844e-07
  109 5693.57 0.00000 1.83932e-07
  110 5693.57 0.00000 4.97482e-08
  111 5693.57 0.00000 1.28114e-07
  112 5693.57 0.00000 -8.64220e-08
  113 5693.57 0.00000 1.48212e-07
  114 5693.57 0.00000 2.91589e-07
  115 5693.57 0.00000 1.40566e-07
  116 5693.57 0.00000 1.00113e-06
  117 5693.57 0.00000 -1.12639e-07
  118 5693.57 0.00000 -4.85448e-07
  119 5693.57 0.00000 -5.44783e-08
  120 5693.57 0.00000 2.58244e-07
  121 5693.57 0.00000 2.89873e-07
  122 5693.57 0.00000 6.72065e-08
  123 5693.57 0.00000 1.95226e-07
  124 5693.57 0.00000 5.74774e-08
  125 5693.57 0.00000 -3.06050e-07
  126 5693.57 0.00000 1.05783e-06
  127 5693.57 0.00000 -1.20617e-07
  128 5693.57 0.00000 -2.51218e-07
  129 5693.57 0.00000 -1.10026e-06
  130 5693.57 0.00000 -7.53862e-09
  131 5693.57 0.00000 3.86935e-07
  132 5693.57 0.00000 -4.43637e-07
  133 5693.57 0.00000 -2.99567e-07
  134 5693.57 0.00000 6.16069e-07
  135 5693.57 0.00000 -1.72597e-07
  136 5693.57 0.00000 -9.48412e-07
  137 5693.57 0.00000 1.34607e-07
  138 5693.57 0.00000 -1.13778e-07
  139 5693.57 0.00000 1.09731e-07
  140 5693.57 0.00000 2.03933e-08
  141 5693.57 0.00000 9.19794e-08
  142 5693.57 0.00000 1.12207e-06
  143 5693.57 0.00000 -3.51645e-07
  144 5693.57 0.00000 1.27681e-07
  145 5693.57 0.00000 2.37759e-07
  146 5693.57 0.00000 -9.53489e-07
  147 5693.57 0.00000 -4.67489e-08
  148 5693.57 0.00000 6.03350e-08
  149 5693.57 0.00000 3.62057e-08
  150 5693.57 0.00000 7.42935e-08
  151 5693.57 0.00000 3.58045e-07
  152 5693.57 0.00000 -9.65624e-08
  153 5693.57 0.00000 -1.17910e-08
  154 5693.57 0.00000 -4.82145e-09
  155 5693.57 0.00000 9.72548e-08
  156 5693.57 0.00000 -2.56905e-08
  157 5693.57 0.00000 -2.13831e-07
  158 5693.57 0.00000 3.77552e-08
  159 5693.57 0.00000 -4.47591e-08
  160 5693.57 0.00000 -1.36454e-08
  161 5693.57 0.00000 2.08753e-08
  162 5693.57 0.00000 -1.54143e-07
  163 5693.57 0.00000 4.00721e-08
  164 5693.57 0.00000 -1.86449e-07
  165 5693.57 0.00000 6.28244e-07
  166 5693.57 0.00000 -2.14372e-07
  167 5693.57 0.00000 -2.49180e-08
  168 5693.57 0.00000 4.43072e-08
  169 5693.57 0.00000 2.39007e-07
  170 5693.57 0.00000 1.08094e-07
  171 5693.57 0.00000 7.96101e-07
  172 5693.57 0.00000 2.30323e-07
  173 5693.57 0.00000 -1.09843e-06
  174 5693.57 0.00000 -5.96260e-08
  175 5693.57 0.00000 -3.50847e-07
  176 5693.57 0.00000 3.65294e-07
  177 5693.57 0.00000 5.47842e-08
  178 5693.57 0.00000 -8.56711e-08
  179 5693.57 0.00000 1.15467e-06
  180 5693.57 0.00000 1.08755e-07
  181 5693.57 0.00000 -4.27059e-08
  182 5693.57 0.00000 2.56208e-07
  183 5693.57 0.00000 -6.77284e-07
  184 5693.57 0.00000 -2.92562e-07
  185 5693.57 0.00000 6.25756e-07
  186 5693.57 0.00000 6.51263e-08
  187 5693.57 0.00000 1.11747e-07
  188 5693.57 0.00000 -1.48850e-08
  189 5693.57 0.00000 2.89617e-07
  190 5693.57 0.00000 -7.69091e-07
  191 5693.57 0.00000 -2.64185e-07
  192 5693.57 0.00000 -1.94991e-07
  193 5693.57 0.00000 3.11032e-07
  194 5693.57 0.00000 -5.05928e-08
  195 5693.57 0.00000 -3.88523e-07
  196 5693.57 0.00000 8.19148e-08
  197 5693.57 0.00000 3.47013e-07
  198 5693.57 0.00000 -3.09229e-07
  199 5693.57 0.00000 -2.19428e-07
  200 5693.57 0.00000 -5.62445e-09
  201 5693.57 0.00000 -1.83384e-07
  202 5693.57 0.00000 1.58669e-07
  203 5693.57 0.00000 5.78626e-07
  204 5693.57 0.00000 1.00882e-07
  205 5693.57 0.00000 2.76954e-07
  206 5693.57 0.00000 -2.18502e-07
  207 5693.57 0.00000 -1.12313e-06
  208 5693.57 0.00000 2.97626e-07
  209 5693.57 0.00000 -1.28618e-07
  210 5693.57 0.00000 -7.31661e-07
  211 5693.57 0.00000 7.87284e-07
  212 5693.57 0.00000 -1.20566e-07
  213 5693.57 0.00000 -6.82901e-07
  214 5693.57 0.00000 -7.54171e-07
  215 5693.57 0.00000 4.26133e-08
  216 5693.57 0.00000 -5.39214e-07
  217 5693.57 0.00000 -1.59588e-07
  218 5693.57 0.00000 -7.78462e-07
  219 5693.57 0.00000 -1.34841e-07
  220 5693.57 0.00000 -5.63915e-07
  221 5693.57 0.00000 1.30195e-09
  222 5693.57 0.00000 -6.08244e-08
  223 5693.57 0.00000 1.05204e-06
  224 5693.57 0.00000 9.24575e-07
  225 5693.57 0.00000 -2.60617e-07
  226 5693.57 0.00000 3.94740e-07
  227 5693.57 0.00000 2.33195e-08
  228 5693.57 0.00000 -1.99649e-07
  229 5693.57 0.00000 1.66017e-07
  230 5693.57 0.00000 5.54196e-08
  231 5693.57 0.00000 -1.01205e-07
  232 5693.57 0.00000 -3.29551e-07
  233 5693.57 0.00000 -6.15493e-08
  234 5693.57 0.00000 -5.20544e-07
  235 5693.57 0.00000 -2.28884e-07
  236 5693.57 0.00000 6.67895e-07
  237 5693.57 0.00000 1.90151e-07
  238 5693.57 0.00000 1.89525e-07
  239 5693.57 0.00000 -9.23840e-08
  240 5693.57 0.00000 6.11682e-07
  241 5693.57 0.00000 -2.13314e-07
</Section>

newXOutput 133

<Section columns = "stress_xx | stress_yy | stress_xy">
  1 5754.72 0.00000 -2.83261e-07
  2 5754.72 0.00000 5.92423e-08
  3 5754.72 0.00000 -3.83280e-08
  4 5754.72 0.00000 3.11249e-07
  5 5754.72 0.00000 -6.69538e-07
  6 5754.72 0.00000 -1.16085e-06
  7 5754.72 0.00000 -1.52148e-06
  8 5754.72 0.00000 -1.74887e-06
  9 5754.72 0.00000 -1.71584e-06
  10 5754.72 0.00000 -1.59314e-06
  11 5754.72 0.00000 -1.36236e-06
  12 5754.72 0.00000 -1.02992e-06
  13 5754.72 0.00000 -6.17058e-07
  14 5754.72 0.00000 -2.47847e-07
  15 5754.72 0.00000 9.85378e-08
  16 5754.72 0.00000 3.43432e-07
  17 5754.72 0.00000 4.32719e-07
  18 5754.72 0.00000 4.67029e-07
  19 5754.72 0.00000 4.33401e-07
  20 5754.72 0.00000 3.48616e-07
  21 5754.72 0.00000 2.97107e-07
  22 5754.72 0.00000 2.24366e-07
  23 5754.72 0.00000 1.27139e-07
  24 5754.72 0.00000 3.48780e-08
  25 5754.72 0.00000 1.58286e-08
  26 5754.72 0.00000 -2.33644e-09
  27 5754.72 0.00000 -2.62926e-08
  28 5754.72 0.00000 -3.77194e-08
  29 5754.72 0.00000 -2.98237e-08
  30 5754.72 0.00000 -3.22366e-08
  31 5754.72 0.00000 -9.08284e-08
  32 5754.72 0.00000 -1.62192e-07
  33 5754.72 0.00000 -2.51463e-07
  34 5754.72 0.00000 -4.04239e-07
  35 5754.72 0.00000 -4.43741e-07
  36 5754.72 0.00000 -4.67710e-07
  37 5754.72 0.00000 -4.11266e-07
  38 5754.72 0.00000 -2.91622e-07
  39 5754.72 0.00000 -8.07359e-08
  40 5754.72 0.00000 2.12596e-07
  41 5754.72 0.00000 5.44821e-07
  42 5754.72 0.00000 9.69879e-07
  43 5754.72 0.00000 1.32817e-06
  44 5754.72 0.00000 1.62662e-06
  45 5754.72 0.00000 1.80297e-06
  46 5754.72 0.00000 1.68634e-06
  47 5754.72 0.00000 1.52733e-06
  48 5754.72 0.00000 1.20023e-06
  49 5754.72 0.00000 6.81439e-07
  50 5754.72 0.00000 2.15636e-07
  51 5754.72 0.00000 1.50794e-07
  52 5754.72 0.00000 9.83718e-08
  53 5754.72 0.00000 -2.08886e-08
  54 5754.72 0.00000 -1.36659e-07
  55 5754.72 0.00000 -1.68785e-07
  56 5754.72 0.00000 -2.03606e-07
  57 5754.72 0.00000 -1.56091e-08
  58 5754.72 0.00000 3.23522e-08
  59 5754.72 0.00000 2.62814e-08
  60 5754.72 0.00000 -1.36271e-07
  61 5754.72 0.00000 -4.59688e-07
  62 5754.72 0.00000 5.48363e-07
  63 5754.72 0.00000 1.50675e-07
  64 5754.72 0.00000 1.12009e-07
  65 5754.72 0.00000 6.41163e-07
  66 5754.72 0.00000 -5.06511e-07
  67 5754.72 0.00000 -1.02864e-07
  68 5754.72 0.00000 4.70120e-08
  69 5754.72 0.00000 -2.52143e-07
  70 5754.72 0.00000 3.26325e-08
  71 5754.72 0.00000 -8.40414e-07
  72 5754.72 0.00000 -3.48319e-07
  73 5754.72 0.00000 2.39352e-07
  74 5754.72 0.00000 9.65797e-07
  75 5754.72 0.00000 4.51392e-07
  76 5754.72 0.00000 -3.31854e-08
  77 5754.72 0.00000 1.68146e-08
  78 5754.72 0.00000 -2.67694e-07
  79 5754.72 0.00000 5.50385e-08
  80 5754.72 0.00000 -1.68703e-08
  81 5754.72 0.00000 -6.62032e-09
  82 5754.72 0.00000 -2.72157e-07
  83 5754.72 0.00000 -4.01853e-08
  84 5754.72 0.00000 -1.16232e-06
  85 5754.72 0.00000 2.84312e-07
  86 5754.72 0.00000 1.17873e-07
  87 5754.72 0.00000 7.20997e-07
  88 5754.72 0.00000 -1.22608e-07
  89 5754.72 0.00000 -6.25531e-07
  90 5754.72 0.00000 -1.13761e-06
  91 5754.72 0.00000 1.04727e-06
  92 5754.72 0.00000 1.67209e-07
  93 5754.72 0.00000 4.07468e-08
  94 5754.72 0.00000 3.32634e-07
  95 5754.72 0.00000 9.17129e-07
  96 5754.72 0.00000 4.06545e-08
  97 5754.72 0.00000 2.51533e-07
  98 5754.72 0.00000 1.28264e-06
  99 5754.72 0.00000 -1.14618e-07
  100 5754.72 0.00000 -5.35260e-07
  101 5754.72 0.00000 -6.95800e-07
  102 5754.72 0.00000 1.58022e-07
  103 5754.72 0.00000 -8.13891e-08
  104 5754.72 0.00000 5.20684e-07
  105 5754.72 0.00000 2.53780e-07
  106 5754.72 0.00000 -4.02157e-08
  107 5754.72 0.00000 5.24432e-09
  108 5754.72 0.00000 1.89941e-07
  109 5754.72 0.00000 -2.39707e-07
  110 5754.72 0.00000 -6.46893e-08
  111 5754.72 0.00000 -1.71588e-07
  112 5754.72 0.00000 1.19757e-07
  113 5754.72 0.00000 -1.79079e-07
  114 5754.72 0.00000 -3.75115e-07
  115 5754.72 0.00000 -1.90867e-07
  116 5754.72 0.00000 -1.30754e-06
  117 5754.72 0.00000 1.48080e-07
  118 5754.72 0.00000 6.35197e-07
  119 5754.72 0.00000 5.62917e-08
  120 5754.72 0.00000 -3.39216e-07
  121 5754.72 0.00000 -3.79742e-07
  122 5754.72 0.00000 -8.17995e-08
  123 5754.72 0.00000 -2.49764e-07
  124 5754.72 0.00000 -7.62613e-08
  125 5754.72 0.00000 4.07010e-07
  126 5754.72 0.00000 -1.38771e-06
  127 5754.72 0.00000 1.51490e-07
  128 5754.72 0.00000 3.31241e-07
  129 5754.72 0.00000 1.44220e-06
  130 5754.72 0.00000 1.43104e-08
  131 5754.72 0.00000 -5.25189e-07
  132 5754.72 0.00000 5.99686e-07
  133 5754.72 0.00000 3.85493e-07
  134 5754.72 0.00000 -8.11459e-07
  135 5754.72 0.00000 2.30014e-07
  136 5754.72 0.00000 1.23859e-06
  137 5754.72 0.00000 -1.78730e-07
  138 5754.72 0.00000 1.51448e-07
  139 5754.72 0.00000 -1.43584e-07
  140 5754.72 0.00000 -2.69401e-08
  141 5754.72 0.00000 -1.22290e-07
  142 5754.72 0.00000 -1.47837e-06
  143 5754.72 0.00000 4.62358e-07
  144 5754.72 0.00000 -1.56790e-07
  145 5754.72 0.00000 -3.15274e-07
  146 5754.72 0.00000 1.26096e-06
  147 5754.72 0.00000 8.05460e-08
  148 5754.72 0.00000 -7.86445e-08
  149 5754.72 0.00000 -4.58554e-08
  150 5754.72 0.00000 -1.05252e-07
  151 5754.72 0.00000 -4.78654e-07
  152 5754.72 0.00000 1.24724e-07
  153 5754.72 0.00000 1.28115e-08
  154 5754.72 0.00000 5.14350e-09
  155 5754.72 0.00000 -1.24794e-07
  156 5754.72 0.00000 3.55749e-08
  157 5754.72 0.00000 2.78491e-07
  158 5754.72 0.00000 -4.71449e-08
  159 5754.72 0.00000 5.86806e-08
  160 5754.72 0.00000 1.78456e-08
  161 5754.72 0.00000 -2.54858e-08
  162 5754.72 0.00000 2.03739e-07
  163 5754.72 0.00000 -5.01823e-08
  164 5754.72 0.00000 2.42290e-07
  165 5754.72 0.00000 -8.22845e-07
  166 5754.72 0.00000 2.79525e-07
  167 5754.72 0.00000 3.44956e-08
  168 5754.72 0.00000 -5.90099e-08
  169 5754.72 0.00000 -3.11543e-07
  170 5754.72 0.00000 -1.44850e-07
  171 5754.72 0.00000 -1.05790e-06
  172 5754.72 0.00000 -3.22518e-07
  173 5754.72 0.00000 1.44557e-06
  174 5754.72 0.00000 7.95410e-08
  175 5754.72 0.00000 4.57436e-07
  176 5754.72 0.00000 -4.76005e-07
  177 5754.72 0.00000 -7.42003e-08
  178 5754.72 0.00000 1.14452e-07
  179 5754.72 0.00000 -1.51059e-06
  180 5754.72 0.00000 -1.42315e-07
  181 5754.72 0.00000 5.45622e-08
  182 5754.72 0.00000 -3.24257e-07
  183 5754.72 0.00000 8.95639e-07
  184 5754.72 0.00000 3.70720e-07
  185 5754.72 0.00000 -8.17619e-07
  186 5754.72 0.00000 -1.05319e-07
  187 5754.72 0.00000 -1.51219e-07
  188 5754.72 0.00000 1.68210e-08
  189 5754.72 0.00000 -3.81318e-07
  190 5754.72 0.00000 1.01109e-06
  191 5754.72 0.00000 3.49073e-07
  192 5754.72 0.00000 2.50783e-07
  193 5754.72 0.00000 -4.04799e-07
  194 5754.72 0.00000 6.92016e-08
  195 5754.72 0.00000 5.06534e-07
  196 5754.72 0.00000 -1.08423e-07
  197 5754.72 0.00000 -4.52696e-07
  198 5754.72 0.00000 4.03081e-07
  199 5754.72 0.00000 2.87141e-07
  200 5754.72 0.00000 5.42090e-09
  201 5754.72 0.00000 2.53173e-07
  202 5754.72 0.00000 -2.00177e-07
  203 5754.72 0.00000 -7.67571e-07
  204 5754.72 0.00000 -1.45091e-07
  205 5754.72 0.00000 -3.63028e-07
  206 5754.72 0.00000 2.90769e-07
  207 5754.72 0.00000 1.46974e-06
  208 5754.72 0.00000 -3.91957e-07
  209 5754.72 0.00000 1.71747e-07
  210 5754.72 0.00000 9.55072e-07
  211 5754.72 0.00000 -1.02719e-06
  212 5754.72 0.00000 1.60599e-07
  213 5754.72 0.00000 8.90965e-07
  214 5754.72 0.00000 1.00424e-06
  215 5754.72 0.00000 -5.85207e-08
  216 5754.72 0.00000 7.15251e-07
  217 5754.72 0.00000 2.11265e-07
  218 5754.72 0.00000 1.01806e-06
  219 5754.72 0.00000 1.65371e-07
  220 5754.72 0.00000 7.43695e-07
  221 5754.72 0.00000 -6.92649e-09
  222 5754.72 0.00000 7.87198e-08
  223 5754.72 0.00000 -1.39095e-06
  224 5754.72 0.00000 -1.21639e-06
  225 5754.72 0.00000 3.40144e-07
  226 5754.72 0.00000 -5.15485e-07
  227 5754.72 0.00000 -4.15836e-08
  228 5754.72 0.00000 2.68798e-07
  229 5754.72 0.00000 -2.16754e-07
  230 5754.72 0.00000 -7.20432e-08
  231 5754.72 0.00000 1.30022e-07
  232 5754.72 0.00000 4.30204e-07
  233 5754.72 0.00000 8.17451e-08
  234 5754.72 0.00000 6.94420e-07
  235 5754.72 0.00000 3.21104e-07
  236 5754.72 0.00000 -8.71619e-07
  237 5754.72 0.00000 -2.66234e-07
  238 5754.72 0.00000 -2.53244e-07
  239 5754.72 0.00000 1.20058e-07
  240 5754.72 0.00000 -8.19812e-07
  241 5754.72 0.00000 2.64057e-07
</Section>

newXOutput 134

<Section columns = "stress_xx | stress_yy | stress_xy">
  1 5816.13 0.00000 3.69884e-07
  2 5816.13 0.00000 -7.84166e-08
  3 5816.13 0.00000 5.27059e-08
  4 5816.13 0.00000 -4.06282e-07
  5 5816.13 0.00000 8.76012e-07
  6 5816.13 0.00000 1.52044e-06
  7 5816.13 0.00000 1.99393e-06
  8 5816.13 0.00000 2.29754e-06
  9 5816.13 0.00000 2.26238e-06
  10 5816.13 0.00000 2.10902e-06
  11 5816.13 0.00000 1.81150e-06
  12 5816.13 0.00000 1.37940e-06
  13 5816.13 0.00000 8.39184e-07
  14 5816.13 0.00000 3.55372e-07
  15 5816.13 0.00000 -1.03444e-07
  16 5816.13 0.00000 -4.29862e-07
  17 5816.13 0.00000 -5.53831e-07
  18 5816.13 0.00000 -6.06467e-07
  19 5816.13 0.00000 -5.70154e-07
  20 5816.13 0.00000 -4.63471e-07
  21 5816.13 0.00000 -3.96106e-07
  22 5816.13 0.00000 -2.98969e-07
  23 5816.13 0.00000 -1.69060e-07
  24 5816.13 0.00000 -4.68513e-08
  25 5816.13 0.00000 -2.23648e-08
  26 5816.13 0.00000 1.01582e-09
  27 5816.13 0.00000 3.27944e-08
  28 5816.13 0.00000 4.90276e-08
  29 5816.13 0.00000 3.98791e-08
  30 5816.13 0.00000 4.35777e-08
  31 5816.13 0.00000 1.24719e-07
  32 5816.13 0.00000 2.20304e-07
  33 5816.13 0.00000 3.36380e-07
  34 5816.13 0.00000 5.34238e-07
  35 5816.13 0.00000 5.81863e-07
  36 5816.13 0.00000 6.07606e-07
  37 5816.13 0.00000 5.26877e-07
  38 5816.13 0.00000 3.62546e-07
  39 5816.13 0.00000 7.91047e-08
  40 5816.13 0.00000 -3.09163e-07
  41 5816.13 0.00000 -7.46003e-07
  42 5816.13 0.00000 -1.30175e-06
  43 5816.13 0.00000 -1.76668e-06
  44 5816.13 0.00000 -2.15113e-06
  45 5816.13 0.00000 -2.37444e-06
  46 5816.13 0.00000 -2.21579e-06
  47 5816.13 0.00000 -2.00342e-06
  48 5816.13 0.00000 -1.57169e-06
  49 5816.13 0.00000 -8.91492e-07
  50 5816.13 0.00000 -2.81750e-07
  51 5816.13 0.00000 -1.97281e-07
  52 5816.13 0.00000 -1.28680e-07
  53 5816.13 0.00000 2.71701e-08
  54 5816.13 0.00000 1.78655e-07
  55 5816.13 0.00000 2.20765e-07
  56 5816.13 0.00000 2.66088e-07
  57 5816.13 0.00000 1.96756e-08
  58 5816.13 0.00000 -3.95522e-08
  59 5816.13 0.00000 -3.36342e-08
  60 5816.13 0.00000 1.72345e-07
  61 5816.13 0.00000 6.10765e-07
  62 5816.13 0.00000 -7.27645e-07
  63 5816.13 0.00000 -1.95837e-07
  64 5816.13 0.00000 -1.50144e-07
  65 5816.13 0.00000 -8.39621e-07
  66 5816.13 0.00000 6.63243e-07
  67 5816.13 0.00000 1.37255e-07
  68 5816.13 0.00000 -5.01472e-08
  69 5816.13 0.00000 3.28887e-07
  70 5816.13 0.00000 -5.90585e-08
  71 5816.13 0.00000 1.10664e-06
  72 5816.13 0.00000 4.75149e-07
  73 5816.13 0.00000 -3.13312e-07
  74 5816.13 0.00000 -1.26961e-06
  75 5816.13 0.00000 -6.08698e-07
  76 5816.13 0.00000 4.11404e-08
  77 5816.13 0.00000 -2.14893e-08
  78 5816.13 0.00000 3.55094e-07
  79 5816.13 0.00000 -7.11637e-08
  80 5816.13 0.00000 2.15121e-08
  81 5816.13 0.00000 8.08831e-09
  82 5816.13 0.00000 3.44320e-07
  83 5816.13 0.00000 5.19841e-08
  84 5816.13 0.00000 1.52452e-06
  85 5816.13 0.00000 -3.59593e-07
  86 5816.13 0.00000 -1.58553e-07
  87 5816.13 0.00000 -9.43245e-07
  88 5816.13 0.00000 1.64667e-07
  89 5816.13 0.00000 8.18183e-07
  90 5816.13 0.00000 1.50692e-06
  91 5816.13 0.00000 -1.38539e-06
  92 5816.13 0.00000 -2.18561e-07
  93 5816.13 0.00000 -5.34813e-08
  94 5816.13 0.00000 -4.32571e-07
  95 5816.13 0.00000 -1.22066e-06
  96 5816.13 0.00000 -5.21755e-08
  97 5816.13 0.00000 -3.34960e-07
  98 5816.13 0.00000 -1.68229e-06
  99 5816.13 0.00000 1.72590e-07
  100 5816.13 0.00000 7.02203e-07
  101 5816.13 0.00000 9.33408e-07
  102 5816.13 0.00000 -2.05447e-07
  103 5816.13 0.00000 1.10132e-07
  104 5816.13 0.00000 -6.88257e-07
  105 5816.13 0.00000 -3.56712e-07
  106 5816.13 0.00000 6.15918e-08
  107 5816.13 0.00000 -9.70127e-09
  108 5816.13 0.00000 -2.48134e-07
  109 5816.13 0.00000 3.13350e-07
  110 5816.13 0.00000 8.43910e-08
  111 5816.13 0.00000 2.30013e-07
  112 5816.13 0.00000 -1.66039e-07
  113 5816.13 0.00000 2.15061e-07
  114 5816.13 0.00000 4.83311e-07
  115 5816.13 0.00000 2.59569e-07
  116 5816.13 0.00000 1.71284e-06
  117 5816.13 0.00000 -1.95078e-07
  118 5816.13 0.00000 -8.33587e-07
  119 5816.13 0.00000 -5.37632e-08
  120 5816.13 0.00000 4.46331e-07
  121 5816.13 0.00000 4.98957e-07
  122 5816.13 0.00000 9.91595e-08
  123 5816.13 0.00000 3.20053e-07
  124 5816.13 0.00000 1.01246e-07
  125 5816.13 0.00000 -5.42806e-07
  126 5816.13 0.00000 1.82580e-06
  127 5816.13 0.00000 -1.90111e-07
  128 5816.13 0.00000 -4.37454e-07
  129 5816.13 0.00000 -1.89596e-06
  130 5816.13 0.00000 -2.47042e-08
  131 5816.13 0.00000 7.14156e-07
  132 5816.13 0.00000 -8.12341e-07
  133 5816.13 0.00000 -4.96796e-07
  134 5816.13 0.00000 1.07188e-06
  135 5816.13 0.00000 -3.06963e-07
  136 5816.13 0.00000 -1.62237e-06
  137 5816.13 0.00000 2.37544e-07
  138 5816.13 0.00000 -2.02219e-07
  139 5816.13 0.00000 1.88442e-07
  140 5816.13 0.00000 3.56429e-08
  141 5816.13 0.00000 1.63000e-07
  142 5816.13 0.00000 1.95339e-06
  143 5816.13 0.00000 -6.09665e-07
  144 5816.13 0.00000 1.91969e-07
  145 5816.13 0.00000 4.18692e-07
  146 5816.13 0.00000 -1.67229e-06
  147 5816.13 0.00000 -1.31505e-07
  148 5816.13 0.00000 1.02821e-07
  149 5816.13 0.00000 5.82846e-08
  150 5816.13 0.00000 1.48671e-07
  151 5816.13 0.00000 6.41481e-07
  152 5816.13 0.00000 -1.61545e-07
  153 5816.13 0.00000 -1.31784e-08
  154 5816.13 0.00000 -5.21652e-09
  155 5816.13 0.00000 1.60458e-07
  156 5816.13 0.00000 -4.91189e-08
  157 5816.13 0.00000 -3.63800e-07
  158 5816.13 0.00000 5.89964e-08
  159 5816.13 0.00000 -7.69291e-08
  160 5816.13 0.00000 -2.34105e-08
  161 5816.13 0.00000 3.11673e-08
  162 5816.13 0.00000 -2.70080e-07
  163 5816.13 0.00000 6.29590e-08
  164 5816.13 0.00000 -3.15413e-07
  165 5816.13 0.00000 1.08094e-06
  166 5816.13 0.00000 -3.65591e-07
  167 5816.13 0.00000 -4.76433e-08
  168 5816.13 0.00000 7.87371e-08
  169 5816.13 0.00000 4.07331e-07
  170 5816.13 0.00000 1.94208e-07
  171 5816.13 0.00000 1.40959e-06
  172 5816.13 0.00000 4.51283e-07
  173 5816.13 0.00000 -1.90792e-06
  174 5816.13 0.00000 -1.06302e-07
  175 5816.13 0.00000 -5.98216e-07
  176 5816.13 0.00000 6.22165e-07
  177 5816.13 0.00000 1.00507e-07
  178 5816.13 0.00000 -1.53236e-07
  179 5816.13 0.00000 1.98211e-06
  180 5816.13 0.00000 1.86808e-07
  181 5816.13 0.00000 -6.98903e-08
  182 5816.13 0.00000 4.10549e-07
  183 5816.13 0.00000 -1.18774e-06
  184 5816.13 0.00000 -4.70027e-07
  185 5816.13 0.00000 1.07150e-06
  186 5816.13 0.00000 1.65013e-07
  187 5816.13 0.00000 2.04665e-07
  188 5816.13 0.00000 -1.86394e-08
  189 5816.13 0.00000 5.03492e-07
  190 5816.13 0.00000 -1.33308e-06
  191 5816.13 0.00000 -4.62521e-07
  192 5816.13 0.00000 -3.22941e-07
  193 5816.13 0.00000 5.27796e-07
  194 5816.13 0.00000 -9.45678e-08
  195 5816.13 0.00000 -6.62388e-07
  196 5816.13 0.00000 1.43809e-07
  197 5816.13 0.00000 5.92357e-07
  198 5816.13 0.00000 -5.26343e-07
  199 5816.13 0.00000 -3.76836e-07
  200 5816.13 0.00000 -4.72611e-09
  201 5816.13 0.00000 -3.49758e-07
  202 5816.13 0.00000 2.52704e-07
  203 5816.13 0.00000 1.02100e-06
  204 5816.13 0.00000 2.07677e-07
  205 5816.13 0.00000 4.77302e-07
  206 5816.13 0.00000 -3.87442e-07
  207 5816.13 0.00000 -1.92902e-06
  208 5816.13 0.00000 5.17113e-07
  209 5816.13 0.00000 -2.29619e-07
  210 5816.13 0.00000 -1.25042e-06
  211 5816.13 0.00000 1.34425e-06
  212 5816.13 0.00000 -2.14294e-07
  213 5816.13 0.00000 -1.16591e-06
  214 5816.13 0.00000 -1.34083e-06
  215 5816.13 0.00000 8.01224e-08
  216 5816.13 0.00000 -9.51427e-07
  217 5816.13 0.00000 -2.80128e-07
  218 5816.13 0.00000 -1.33534e-06
  219 5816.13 0.00000 -2.02056e-07
  220 5816.13 0.00000 -9.83581e-07
  221 5816.13 0.00000 1.60687e-08
  222 5816.13 0.00000 -1.02182e-07
  223 5816.13 0.00000 1.84421e-06
  224 5816.13 0.00000 1.60492e-06
  225 5816.13 0.00000 -4.44775e-07
  226 5816.13 0.00000 6.75185e-07
  227 5816.13 0.00000 6.93110e-08
  228 5816.13 0.00000 -3.62810e-07
  229 5816.13 0.00000 2.83850e-07
  230 5816.13 0.00000 9.39399e-08
  231 5816.13 0.00000 -1.67149e-07
  232 5816.13 0.00000 -5.63254e-07
  233 5816.13 0.00000 -1.08726e-07
  234 5816.13 0.00000 -9.28849e-07
  235 5816.13 0.00000 -4.50066e-07
  236 5816.13 0.00000 1.14091e-06
  237 5816.13 0.00000 3.72408e-07
  238 5816.13 0.00000 3.39214e-07
  239 5816.13 0.00000 -1.56254e-07
  240 5816.13 0.00000 1.10146e-06
  241 5816.13 0.00000 -3.26198e-07
</Section>

newXOutput 135

<Section columns = "stress_xx | stress_yy | stress_xy">
  1 5877.80 0.00000 -4.84494e-07
  2 5877.80 0.00000 1.04057e-07
  3 5877.80 0.00000 -7.23637e-08
  4 5877.80 0.00000 5.31967e-07
  5 5877.80 0.00000 -1.14966e-06
  6 5877.80 0.00000 -1.99744e-06
  7 5877.80 0.00000 -2.62099e-06
  8 5877.80 0.00000 -3.02731e-06
  9 5877.80 0.00000 -2.99172e-06
  10 5877.80 0.00000 -2.79996e-06
  11 5877.80 0.00000 -2.41543e-06
  12 5877.80 0.00000 -1.85229e-06
  13 5877.80 0.00000 -1.14353e-06
  14 5877.80 0.00000 -5.07952e-07
  15 5877.80 0.00000 1.01368e-07
  16 5877.80 0.00000 5.37502e-07
  17 5877.80 0.00000 7.09615e-07
  18 5877.80 0.00000 7.88880e-07
  19 5877.80 0.00000 7.51247e-07
  20 5877.80 0.00000 6.16986e-07
  21 5877.80 0.00000 5.28853e-07
  22 5877.80 0.00000 3.99070e-07
  23 5877.80 0.00000 2.25272e-07
  24 5877.80 0.00000 6.30230e-08
  25 5877.80 0.00000 3.14299e-08
  26 5877.80 0.00000 1.22709e-09
  27 5877.80 0.00000 -4.10293e-08
  28 5877.80 0.00000 -6.39476e-08
  29 5877.80 0.00000 -5.34333e-08
  30 5877.80 0.00000 -5.89447e-08
  31 5877.80 0.00000 -1.71034e-07
  32 5877.80 0.00000 -2.99245e-07
  33 5877.80 0.00000 -4.50511e-07
  34 5877.80 0.00000 -7.07302e-07
  35 5877.80 0.00000 -7.64386e-07
  36 5877.80 0.00000 -7.90640e-07
  37 5877.80 0.00000 -6.75618e-07
  38 5877.80 0.00000 -4.49848e-07
  39 5877.80 0.00000 -6.81290e-08
  40 5877.80 0.00000 4.47147e-07
  41 5877.80 0.00000 1.02307e-06
  42 5877.80 0.00000 1.75164e-06
  43 5877.80 0.00000 2.35655e-06
  44 5877.80 0.00000 2.85301e-06
  45 5877.80 0.00000 3.13624e-06
  46 5877.80 0.00000 2.92012e-06
  47 5877.80 0.00000 2.63580e-06
  48 5877.80 0.00000 2.06431e-06
  49 5877.80 0.00000 1.16982e-06
  50 5877.80 0.00000 3.69269e-07
  51 5877.80 0.00000 2.58894e-07
  52 5877.80 0.00000 1.68843e-07
  53 5877.80 0.00000 -3.54459e-08
  54 5877.80 0.00000 -2.34268e-07
  55 5877.80 0.00000 -2.89641e-07
  56 5877.80 0.00000 -3.48818e-07
  57 5877.80 0.00000 -2.48871e-08
  58 5877.80 0.00000 4.84581e-08
  59 5877.80 0.00000 4.31986e-08
  60 5877.80 0.00000 -2.18193e-07
  61 5877.80 0.00000 -8.13740e-07
  62 5877.80 0.00000 9.68300e-07
  63 5877.80 0.00000 2.54823e-07
  64 5877.80 0.00000 2.01478e-07
  65 5877.80 0.00000 1.10280e-06
  66 5877.80 0.00000 -8.71101e-07
  67 5877.80 0.00000 -1.83388e-07
  68 5877.80 0.00000 5.04079e-08
  69 5877.80 0.00000 -4.29722e-07
  70 5877.80 0.00000 9.94023e-08
  71 5877.80 0.00000 -1.46153e-06
  72 5877.80 0.00000 -6.49211e-07
  73 5877.80 0.00000 4.10975e-07
  74 5877.80 0.00000 1.67395e-06
  75 5877.80 0.00000 8.22815e-07
  76 5877.80 0.00000 -5.11177e-08
  77 5877.80 0.00000 2.75517e-08
  78 5877.80 0.00000 -4.71727e-07
  79 5877.80 0.00000 9.23306e-08
  80 5877.80 0.00000 -2.75052e-08
  81 5877.80 0.00000 -9.93249e-09
  82 5877.80 0.00000 -4.35748e-07
  83 5877.80 0.00000 -6.74407e-08
  84 5877.80 0.00000 -2.00558e-06
  85 5877.80 0.00000 4.54824e-07
  86 5877.80 0.00000 2.13505e-07
  87 5877.80 0.00000 1.23775e-06
  88 5877.80 0.00000 -2.21401e-07
  89 5877.80 0.00000 -1.07344e-06
  90 5877.80 0.00000 -2.00178e-06
  91 5877.80 0.00000 1.83793e-06
  92 5877.80 0.00000 2.86526e-07
  93 5877.80 0.00000 7.03597e-08
  94 5877.80 0.00000 5.63474e-07
  95 5877.80 0.00000 1.62919e-06
  96 5877.80 0.00000 6.68210e-08
  97 5877.80 0.00000 4.46679e-07
  98 5877.80 0.00000 2.21306e-06
  99 5877.80 0.00000 -2.56693e-07
  100 5877.80 0.00000 -9.23998e-07
  101 5877.80 0.00000 -1.25532e-06
  102 5877.80 0.00000 2.67682e-07
  103 5877.80 0.00000 -1.48957e-07
  104 5877.80 0.00000 9.12338e-07
  105 5877.80 0.00000 5.00989e-07
  106 5877.80 0.00000 -9.27408e-08
  107 5877.80 0.00000 1.63062e-08
  108 5877.80 0.00000 3.25160e-07
  109 5877.80 0.00000 -4.10871e-07
  110 5877.80 0.00000 -1.10442e-07
  111 5877.80 0.00000 -3.08632e-07
  112 5877.80 0.00000 2.30383e-07
  113 5877.80 0.00000 -2.56210e-07
  114 5877.80 0.00000 -6.23615e-07
  115 5877.80 0.00000 -3.53589e-07
  116 5877.80 0.00000 -2.25056e-06
  117 5877.80 0.00000 2.57529e-07
  118 5877.80 0.00000 1.09719e-06
  119 5877.80 0.00000 4.37269e-08
  120 5877.80 0.00000 -5.88253e-07
  121 5877.80 0.00000 -6.57568e-07
  122 5877.80 0.00000 -1.19563e-07
  123 5877.80 0.00000 -4.10733e-07
  124 5877.80 0.00000 -1.34509e-07
  125 5877.80 0.00000 7.25970e-07
  126 5877.80 0.00000 -2.40930e-06
  127 5877.80 0.00000 2.38284e-07
  128 5877.80 0.00000 5.78659e-07
  129 5877.80 0.00000 2.49987e-06
  130 5877.80 0.00000 4.04241e-08
  131 5877.80 0.00000 -9.72988e-07
  132 5877.80 0.00000 1.10280e-06
  133 5877.80 0.00000 6.41123e-07
  134 5877.80 0.00000 -1.41996e-06
  135 5877.80 0.00000 4.10255e-07
  136 5877.80 0.00000 2.13148e-06
  137 5877.80 0.00000 -3.16038e-07
  138 5877.80 0.00000 2.70852e-07
  139 5877.80 0.00000 -2.48056e-07
  140 5877.80 0.00000 -4.72456e-08
  141 5877.80 0.00000 -2.17815e-07
  142 5877.80 0.00000 -2.58848e-06
  143 5877.80 0.00000 8.06220e-07
  144 5877.80 0.00000 -2.34114e-07
  145 5877.80 0.00000 -5.56892e-07
  146 5877.80 0.00000 2.22412e-06
  147 5877.80 0.00000 2.07537e-07
  148 5877.80 0.00000 -1.34840e-07
  149 5877.80 0.00000 -7.43506e-08
  150 5877.80 0.00000 -2.09555e-07
  151 5877.80 0.00000 -8.61869e-07
  152 5877.80 0.00000 2.09804e-07
  153 5877.80 0.00000 1.23106e-08
  154 5877.80 0.00000 4.84894e-09
  155 5877.80 0.00000 -2.06724e-07
  156 5877.80 0.00000 6.76764e-08
  157 5877.80 0.00000 4.76692e-07
  158 5877.80 0.00000 -7.39945e-08
  159 5877.80 0.00000 1.00854e-07
  160 5877.80 0.00000 3.08072e-08
  161 5877.80 0.00000 -3.81707e-08
  162 5877.80 0.00000 3.59080e-07
  163 5877.80 0.00000 -7.91300e-08
  164 5877.80 0.00000 4.11318e-07
  165 5877.80 0.00000 -1.42426e-06
  166 5877.80 0.00000 4.79624e-07
  167 5877.80 0.00000 6.56896e-08
  168 5877.80 0.00000 -1.05250e-07
  169 5877.80 0.00000 -5.34204e-07
  170 5877.80 0.00000 -2.60546e-07
  171 5877.80 0.00000 -1.88336e-06
  172 5877.80 0.00000 -6.31252e-07
  173 5877.80 0.00000 2.52548e-06
  174 5877.80 0.00000 1.42321e-07
  175 5877.80 0.00000 7.84707e-07
  176 5877.80 0.00000 -8.15707e-07
  177 5877.80 0.00000 -1.36182e-07
  178 5877.80 0.00000 2.05625e-07
  179 5877.80 0.00000 -2.60861e-06
  180 5877.80 0.00000 -2.45975e-07
  181 5877.80 0.00000 8.97600e-08
  182 5877.80 0.00000 -5.19899e-07
  183 5877.80 0.00000 1.57962e-06
  184 5877.80 0.00000 5.96150e-07
  185 5877.80 0.00000 -1.40844e-06
  186 5877.80 0.00000 -2.53015e-07
  187 5877.80 0.00000 -2.77094e-07
  188 5877.80 0.00000 2.00797e-08
  189 5877.80 0.00000 -6.66733e-07
  190 5877.80 0.00000 1.76271e-06
  191 5877.80 0.00000 6.14561e-07
  192 5877.80 0.00000 4.16338e-07
  193 5877.80 0.00000 -6.89391e-07
  194 5877.80 0.00000 1.29156e-07
  195 5877.80 0.00000 8.68835e-07
  196 5877.80 0.00000 -1.91144e-07
  197 5877.80 0.00000 -7.77471e-07
  198 5877.80 0.00000 6.88485e-07
  199 5877.80 0.00000 4.95996e-07
  200 5877.80 0.00000 3.26264e-09
  201 5877.80 0.00000 4.83623e-07
  202 5877.80 0.00000 -3.19139e-07
  203 5877.80 0.00000 -1.36185e-06
  204 5877.80 0.00000 -2.96209e-07
  205 5877.80 0.00000 -6.29469e-07
  206 5877.80 0.00000 5.16953e-07
  207 5877.80 0.00000 2.53938e-06
  208 5877.80 0.00000 -6.83452e-07
  209 5877.80 0.00000 3.07383e-07
  210 5877.80 0.00000 1.64203e-06
  211 5877.80 0.00000 -1.76452e-06
  212 5877.80 0.00000 2.86447e-07
  213 5877.80 0.00000 1.53032e-06
  214 5877.80 0.00000 1.79510e-06
  215 5877.80 0.00000 -1.09444e-07
  216 5877.80 0.00000 1.26917e-06
  217 5877.80 0.00000 3.72056e-07
  218 5877.80 0.00000 1.75675e-06
  219 5877.80 0.00000 2.45667e-07
  220 5877.80 0.00000 1.30458e-06
  221 5877.80 0.00000 -3.04957e-08
  222 5877.80 0.00000 1.33025e-07
  223 5877.80 0.00000 -2.45211e-06
  224 5877.80 0.00000 -2.12370e-06
  225 5877.80 0.00000 5.82668e-07
  226 5877.80 0.00000 -8.87031e-07
  227 5877.80 0.00000 -1.10914e-07
  228 5877.80 0.00000 4.90954e-07
  229 5877.80 0.00000 -3.72841e-07
  230 5877.80 0.00000 -1.22861e-07
  231 5877.80 0.00000 2.14984e-07
  232 5877.80 0.00000 7.39646e-07
  233 5877.80 0.00000 1.44848e-07
  234 5877.80 0.00000 1.24576e-06
  235 5877.80 0.00000 6.30516e-07
  236 5877.80 0.00000 -1.49793e-06
  237 5877.80 0.00000 -5.20670e-07
  238 5877.80 0.00000 -4.55496e-07
  239 5877.80 0.00000 2.03674e-07
  240 5877.80 0.00000 -1.48358e-06
  241 5877.80 0.00000 4.01829e-07
</Section>

newXOutput 136

<Section columns = "stress_xx | stress_yy | stress_xy">
  1 5939.73 0.00000 6.36594e-07
  2 5939.73 0.00000 -1.38419e-07
  3 5939.73 0.00000 9.92263e-08
  4 5939.73 0.00000 -6.98692e-07
  5 5939.73 0.00000 1.51342e-06
  6 5939.73 0.00000 2.63209e-06
  7 5939.73 0.00000 3.45572e-06
  8 5939.73 0.00000 4.00083e-06
  9 5939.73 0.00000 3.96782e-06
  10 5939.73 0.00000 3.72798e-06
  11 5939.73 0.00000 3.22977e-06
  12 5939.73 0.00000 2.49386e-06
  13 5939.73 0.00000 1.56146e-06
  14 5939.73 0.00000 7.24380e-07
  15 5939.73 0.00000 -8.69279e-08
  16 5939.73 0.00000 -6.71081e-07
  17 5939.73 0.00000 -9.10077e-07
  18 5939.73 0.00000 -1.02785e-06
  19 5939.73 0.00000 -9.91429e-07
  20 5939.73 0.00000 -8.22471e-07
  21 5939.73 0.00000 -7.07119e-07
  22 5939.73 0.00000 -5.33614e-07
  23 5939.73 0.00000 -3.00800e-07
  24 5939.73 0.00000 -8.48955e-08
  25 5939.73 0.00000 -4.39901e-08
  26 5939.73 0.00000 -4.82907e-09
  27 5939.73 0.00000 5.14971e-08
  28 5939.73 0.00000 8.36859e-08
  29 5939.73 0.00000 7.17306e-08
  30 5939.73 0.00000 7.97919e-08
  31 5939.73 0.00000 2.34335e-07
  32 5939.73 0.00000 4.06554e-07
  33 5939.73 0.00000 6.04119e-07
  34 5939.73 0.00000 9.38098e-07
  35 5939.73 0.00000 1.00600e-06
  36 5939.73 0.00000 1.03043e-06
  37 5939.73 0.00000 8.67026e-07
  38 5939.73 0.00000 5.56678e-07
  39 5939.73 0.00000 4.15632e-08
  40 5939.73 0.00000 -6.44074e-07
  41 5939.73 0.00000 -1.40538e-06
  42 5939.73 0.00000 -2.36311e-06
  43 5939.73 0.00000 -3.15226e-06
  44 5939.73 0.00000 -3.79495e-06
  45 5939.73 0.00000 -4.15473e-06
  46 5939.73 0.00000 -3.85983e-06
  47 5939.73 0.00000 -3.47826e-06
  48 5939.73 0.00000 -2.71957e-06
  49 5939.73 0.00000 -1.53974e-06
  50 5939.73 0.00000 -4.85473e-07
  51 5939.73 0.00000 -3.40802e-07
  52 5939.73 0.00000 -2.22229e-07
  53 5939.73 0.00000 4.63779e-08
  54 5939.73 0.00000 3.08133e-07
  55 5939.73 0.00000 3.81174e-07
  56 5939.73 0.00000 4.58689e-07
  57 5939.73 0.00000 3.15934e-08
  58 5939.73 0.00000 -5.94942e-08
  59 5939.73 0.00000 -5.56867e-08
  60 5939.73 0.00000 2.76464e-07
  61 5939.73 0.00000 1.08721e-06
  62 5939.73 0.00000 -1.29226e-06
  63 5939.73 0.00000 -3.31940e-07
  64 5939.73 0.00000 -2.70662e-07
  65 5939.73 0.00000 -1.45284e-06
  66 5939.73 0.00000 1.14759e-06
  67 5939.73 0.00000 2.45375e-07
  68 5939.73 0.00000 -4.54371e-08
  69 5939.73 0.00000 5.62411e-07
  70 5939.73 0.00000 -1.60229e-07
  71 5939.73 0.00000 1.93598e-06
  72 5939.73 0.00000 8.88577e-07
  73 5939.73 0.00000 -5.40173e-07
  74 5939.73 0.00000 -2.21364e-06
  75 5939.73 0.00000 -1.11499e-06
  76 5939.73 0.00000 6.36638e-08
  77 5939.73 0.00000 -3.54374e-08
  78 5939.73 0.00000 6.27612e-07
  79 5939.73 0.00000 -1.20208e-07
  80 5939.73 0.00000 3.52612e-08
  81 5939.73 0.00000 1.22619e-08
  82 5939.73 0.00000 5.51477e-07
  83 5939.73 0.00000 8.77491e-08
  84 5939.73 0.00000 2.64642e-06
  85 5939.73 0.00000 -5.75120e-07
  86 5939.73 0.00000 -2.87823e-07
  87 5939.73 0.00000 -1.62918e-06
  88 5939.73 0.00000 2.98021e-07
  89 5939.73 0.00000 1.41268e-06
  90 5939.73 0.00000 2.66678e-06
  91 5939.73 0.00000 -2.44535e-06
  92 5939.73 0.00000 -3.76746e-07
  93 5939.73 0.00000 -9.27942e-08
  94 5939.73 0.00000 -7.35184e-07
  95 5939.73 0.00000 -2.18059e-06
  96 5939.73 0.00000 -8.53790e-08
  97 5939.73 0.00000 -5.96519e-07
  98 5939.73 0.00000 -2.92006e-06
  99 5939.73 0.00000 3.78308e-07
  100 5939.73 0.00000 1.21955e-06
  101 5939.73 0.00000 1.69259e-06
  102 5939.73 0.00000 -3.49514e-07
  103 5939.73 0.00000 2.01430e-07
  104 5939.73 0.00000 -1.21284e-06
  105 5939.73 0.00000 -7.03360e-07
  106 5939.73 0.00000 1.37934e-07
  107 5939.73 0.00000 -2.59578e-08
  108 5939.73 0.00000 -4.27427e-07
  109 5939.73 0.00000 5.40399e-07
  110 5939.73 0.00000 1.44981e-07
  111 5939.73 0.00000 4.14558e-07
  112 5939.73 0.00000 -3.19973e-07
  113 5939.73 0.00000 3.01972e-07
  114 5939.73 0.00000 8.05738e-07
  115 5939.73 0.00000 4.82517e-07
  116 5939.73 0.00000 2.96608e-06
  117 5939.73 0.00000 -3.40674e-07
  118 5939.73 0.00000 -1.44847e-06
  119 5939.73 0.00000 -2.12825e-08
  120 5939.73 0.00000 7.76599e-07
  121 5939.73 0.00000 8.69225e-07
  122 5939.73 0.00000 1.43146e-07
  123 5939.73 0.00000 5.27837e-07
  124 5939.73 0.00000 1.78834e-07
  125 5939.73 0.00000 -9.73719e-07
  126 5939.73 0.00000 3.18876e-06
  127 5939.73 0.00000 -2.98143e-07
  128 5939.73 0.00000 -7.66684e-07
  129 5939.73 0.00000 -3.30599e-06
  130 5939.73 0.00000 -6.39576e-08
  131 5939.73 0.00000 1.32830e-06
  132 5939.73 0.00000 -1.50046e-06
  133 5939.73 0.00000 -8.28447e-07
  134 5939.73 0.00000 1.88656e-06
  135 5939.73 0.00000 -5.49112e-07
  136 5939.73 0.00000 -2.80882e-06
  137 5939.73 0.00000 4.20932e-07
  138 5939.73 0.00000 -3.63911e-07
  139 5939.73 0.00000 3.27514e-07
  140 5939.73 0.00000 6.27363e-08
  141 5939.73 0.00000 2.91818e-07
  142 5939.73 0.00000 3.44004e-06
  143 5939.73 0.00000 -1.06924e-06
  144 5939.73 0.00000 2.84027e-07
  145 5939.73 0.00000 7.41862e-07
  146 5939.73 0.00000 -2.96656e-06
  147 5939.73 0.00000 -3.20101e-07
  148 5939.73 0.00000 1.77368e-07
  149 5939.73 0.00000 9.51894e-08
  150 5939.73 0.00000 2.94943e-07
  151 5939.73 0.00000 1.16094e-06
  152 5939.73 0.00000 -2.73209e-07
  153 5939.73 0.00000 -9.27042e-09
  154 5939.73 0.00000 -3.73771e-09
  155 5939.73 0.00000 2.66826e-07
  156 5939.73 0.00000 -9.30968e-08
  157 5939.73 0.00000 -6.26533e-07
  158 5939.73 0.00000 9.29956e-08
  159 5939.73 0.00000 -1.32233e-07
  160 5939.73 0.00000 -4.06680e-08
  161 5939.73 0.00000 4.68235e-08
  162 5939.73 0.00000 -4.78824e-07
  163 5939.73 0.00000 9.96237e-08
  164 5939.73 0.00000 -5.37292e-07
  165 5939.73 0.00000 1.88232e-06
  166 5939.73 0.00000 -6.31170e-07
  167 5939.73 0.00000 -9.04555e-08
  168 5939.73 0.00000 1.40950e-07
  169 5939.73 0.00000 7.02753e-07
  170 5939.73 0.00000 3.49821e-07
  171 5939.73 0.00000 2.52333e-06
  172 5939.73 0.00000 8.83016e-07
  173 5939.73 0.00000 -3.35275e-06
  174 5939.73 0.00000 -1.90884e-07
  175 5939.73 0.00000 -1.03250e-06
  176 5939.73 0.00000 1.07277e-06
  177 5939.73 0.00000 1.84601e-07
  178 5939.73 0.00000 -2.76561e-07
  179 5939.73 0.00000 3.44352e-06
  180 5939.73 0.00000 3.24893e-07
  181 5939.73 0.00000 -1.15574e-07
  182 5939.73 0.00000 6.58295e-07
  183 5939.73 0.00000 -2.10683e-06
  184 5939.73 0.00000 -7.56201e-07
  185 5939.73 0.00000 1.85695e-06
  186 5939.73 0.00000 3.82026e-07
  187 5939.73 0.00000 3.75337e-07
  188 5939.73 0.00000 -2.07190e-08
  189 5939.73 0.00000 8.85476e-07
  190 5939.73 0.00000 -2.33764e-06
  191 5939.73 0.00000 -8.18894e-07
  192 5939.73 0.00000 -5.37304e-07
  193 5939.73 0.00000 9.02028e-07
  194 5939.73 0.00000 -1.76339e-07
  195 5939.73 0.00000 -1.14312e-06
  196 5939.73 0.00000 2.54585e-07
  197 5939.73 0.00000 1.02357e-06
  198 5939.73 0.00000 -9.02102e-07
  199 5939.73 0.00000 -6.54757e-07
  200 5939.73 0.00000 -6.53278e-10
  201 5939.73 0.00000 -6.69444e-07
  202 5939.73 0.00000 4.03090e-07
  203 5939.73 0.00000 1.82157e-06
  204 5939.73 0.00000 4.21388e-07
  205 5939.73 0.00000 8.32708e-07
  206 5939.73 0.00000 -6.90711e-07
  207 5939.73 0.00000 -3.35293e-06
  208 5939.73 0.00000 9.04903e-07
  209 5939.73 0.00000 -4.12030e-07
  210 5939.73 0.00000 -2.16283e-06
  211 5939.73 0.00000 2.32329e-06
  212 5939.73 0.00000 -3.83557e-07
  213 5939.73 0.00000 -2.01473e-06
  214 5939.73 0.00000 -2.40987e-06
  215 5939.73 0.00000 1.49228e-07
  216 5939.73 0.00000 -1.69786e-06
  217 5939.73 0.00000 -4.94968e-07
  218 5939.73 0.00000 -2.31811e-06
  219 5939.73 0.00000 -2.96763e-07
  220 5939.73 0.00000 -1.73534e-06
  221 5939.73 0.00000 5.28110e-08
  222 5939.73 0.00000 -1.73678e-07
  223 5939.73 0.00000 3.26971e-06
  224 5939.73 0.00000 2.81842e-06
  225 5939.73 0.00000 -7.64706e-07
  226 5939.73 0.00000 1.16889e-06
  227 5939.73 0.00000 1.72778e-07
  228 5939.73 0.00000 -6.66071e-07
  229 5939.73 0.00000 4.91223e-07
  230 5939.73 0.00000 1.61164e-07
  231 5939.73 0.00000 -2.76619e-07
  232 5939.73 0.00000 -9.74191e-07
  233 5939.73 0.00000 -1.93286e-07
  234 5939.73 0.00000 -1.67534e-06
  235 5939.73 0.00000 -8.83233e-07
  236 5939.73 0.00000 1.97267e-06
  237 5939.73 0.00000 7.27898e-07
  238 5939.73 0.00000 6.13184e-07
  239 5939.73 0.00000 -2.65879e-07
  240 5939.73 0.00000 2.00333e-06
  241 5939.73 0.00000 -4.93145e-07
</Section>

newXOutput 137

<Section columns = "stress_xx | stress_yy | stress_xy">
  1 6001.93 0.00000 -8.39064e-07
  2 6001.93 0.00000 1.84561e-07
  3 6001.93 0.00000 -1.35960e-07
  4 6001.93 0.00000 9.20534e-07
  5 6001.93 0.00000 -1.99842e-06
  6 6001.93 0.00000 -3.47901e-06
  7 6001.93 0.00000 -4.57025e-06
  8 6001.93 0.00000 -5.30338e-06
  9 6001.93 0.00000 -5.27801e-06
  10 6001.93 0.00000 -4.97806e-06
  11 6001.93 0.00000 -4.33096e-06
  12 6001.93 0.00000 -3.36660e-06
  13 6001.93 0.00000 -2.13668e-06
  14 6001.93 0.00000 -1.03138e-06
  15 6001.93 0.00000 5.17282e-08
  16 6001.93 0.00000 8.36063e-07
  17 6001.93 0.00000 1.16808e-06
  18 6001.93 0.00000 1.34134e-06
  19 6001.93 0.00000 1.31046e-06
  20 6001.93 0.00000 1.09792e-06
  21 6001.93 0.00000 9.46890e-07
  22 6001.93 0.00000 7.14768e-07
  23 6001.93 0.00000 4.02463e-07
  24 6001.93 0.00000 1.14529e-07
  25 6001.93 0.00000 6.13769e-08
  26 6001.93 0.00000 1.04135e-08
  27 6001.93 0.00000 -6.48391e-08
  28 6001.93 0.00000 -1.09889e-07
  29 6001.93 0.00000 -9.64772e-08
  30 6001.93 0.00000 -1.08101e-07
  31 6001.93 0.00000 -3.20890e-07
  32 6001.93 0.00000 -5.52563e-07
  33 6001.93 0.00000 -8.11164e-07
  34 6001.93 0.00000 -1.24641e-06
  35 6001.93 0.00000 -1.32635e-06
  36 6001.93 0.00000 -1.34500e-06
  37 6001.93 0.00000 -1.11334e-06
  38 6001.93 0.00000 -6.86397e-07
  39 6001.93 0.00000 1.01773e-08
  40 6001.93 0.00000 9.24924e-07
  41 6001.93 0.00000 1.93399e-06
  42 6001.93 0.00000 3.19641e-06
  43 6001.93 0.00000 4.22867e-06
  44 6001.93 0.00000 5.06277e-06
  45 6001.93 0.00000 5.52043e-06
  46 6001.93 0.00000 5.11734e-06
  47 6001.93 0.00000 4.60394e-06
  48 6001.93 0.00000 3.59376e-06
  49 6001.93 0.00000 2.03284e-06
  50 6001.93 0.00000 6.40235e-07
  51 6001.93 0.00000 4.50020e-07
  52 6001.93 0.00000 2.93409e-07
  53 6001.93 0.00000 -6.08616e-08
  54 6001.93 0.00000 -4.06538e-07
  55 6001.93 0.00000 -5.03191e-07
  56 6001.93 0.00000 -6.05055e-07
  57 6001.93 0.00000 -4.02551e-08
  58 6001.93 0.00000 7.32077e-08
  59 6001.93 0.00000 7.20493e-08
  60 6001.93 0.00000 -3.50506e-07
  61 6001.93 0.00000 -1.45669e-06
  62 6001.93 0.00000 1.72962e-06
  63 6001.93 0.00000 4.32829e-07
  64 6001.93 0.00000 3.64037e-07
  65 6001.93 0.00000 1.91981e-06
  66 6001.93 0.00000 -1.51646e-06
  67 6001.93 0.00000 -3.28781e-07
  68 6001.93 0.00000 3.15315e-08
  69 6001.93 0.00000 -7.37264e-07
  70 6001.93 0.00000 2.51093e-07
  71 6001.93 0.00000 -2.57219e-06
  72 6001.93 0.00000 -1.21844e-06
  73 6001.93 0.00000 7.11412e-07
  74 6001.93 0.00000 2.93613e-06
  75 6001.93 0.00000 1.51471e-06
  76 6001.93 0.00000 -7.94700e-08
  77 6001.93 0.00000 4.57301e-08
  78 6001.93 0.00000 -8.36283e-07
  79 6001.93 0.00000 1.57046e-07
  80 6001.93 0.00000 -4.53290e-08
  81 6001.93 0.00000 -1.52256e-08
  82 6001.93 0.00000 -6.97737e-07
  83 6001.93 0.00000 -1.14512e-07
  84 6001.93 0.00000 -3.50268e-06
  85 6001.93 0.00000 7.26792e-07
  86 6001.93 0.00000 3.88461e-07
  87 6001.93 0.00000 2.15100e-06
  88 6001.93 0.00000 -4.01640e-07
  89 6001.93 0.00000 -1.86488e-06
  90 6001.93 0.00000 -3.56298e-06
  91 6001.93 0.00000 3.26303e-06
  92 6001.93 0.00000 4.96866e-07
  93 6001.93 0.00000 1.22660e-07
  94 6001.93 0.00000 9.60722e-07
  95 6001.93 0.00000 2.92695e-06
  96 6001.93 0.00000 1.08780e-07
  97 6001.93 0.00000 7.97777e-07
  98 6001.93 0.00000 3.86463e-06
  99 6001.93 0.00000 -5.53741e-07
  100 6001.93 0.00000 -1.61457e-06
  101 6001.93 0.00000 -2.28812e-06
  102 6001.93 0.00000 4.57302e-07
  103 6001.93 0.00000 -2.72393e-07
  104 6001.93 0.00000 1.61698e-06
  105 6001.93 0.00000 9.87476e-07
  106 6001.93 0.00000 -2.03291e-07
  107 6001.93 0.00000 3.99313e-08
  108 6001.93 0.00000 5.63621e-07
  109 6001.93 0.00000 -7.12963e-07
  110 6001.93 0.00000 -1.90915e-07
  111 6001.93 0.00000 -5.57463e-07
  112 6001.93 0.00000 4.44917e-07
  113 6001.93 0.00000 -3.50755e-07
  114 6001.93 0.00000 -1.04234e-06
  115 6001.93 0.00000 -6.59691e-07
  116 6001.93 0.00000 -3.92106e-06
  117 6001.93 0.00000 4.51591e-07
  118 6001.93 0.00000 1.91799e-06
  119 6001.93 0.00000 -2.10627e-08
  120 6001.93 0.00000 -1.02695e-06
  121 6001.93 0.00000 -1.15252e-06
  122 6001.93 0.00000 -1.69766e-07
  123 6001.93 0.00000 -6.79174e-07
  124 6001.93 0.00000 -2.37954e-07
  125 6001.93 0.00000 1.30978e-06
  126 6001.93 0.00000 -4.23310e-06
  127 6001.93 0.00000 3.72152e-07
  128 6001.93 0.00000 1.01745e-06
  129 6001.93 0.00000 4.38519e-06
  130 6001.93 0.00000 9.89051e-08
  131 6001.93 0.00000 -1.81714e-06
  132 6001.93 0.00000 2.04619e-06
  133 6001.93 0.00000 1.07177e-06
  134 6001.93 0.00000 -2.51387e-06
  135 6001.93 0.00000 7.36078e-07
  136 6001.93 0.00000 3.71271e-06
  137 6001.93 0.00000 -5.61278e-07
  138 6001.93 0.00000 4.90471e-07
  139 6001.93 0.00000 -4.33733e-07
  140 6001.93 0.00000 -8.34586e-08
  141 6001.93 0.00000 -3.91999e-07
  142 6001.93 0.00000 -4.58518e-06
  143 6001.93 0.00000 1.42224e-06
  144 6001.93 0.00000 -3.42204e-07
  145 6001.93 0.00000 -9.89830e-07
  146 6001.93 0.00000 3.96830e-06
  147 6001.93 0.00000 4.85777e-07
  148 6001.93 0.00000 -2.34025e-07
  149 6001.93 0.00000 -1.22311e-07
  150 6001.93 0.00000 -4.14756e-07
  151 6001.93 0.00000 -1.56787e-06
  152 6001.93 0.00000 3.56708e-07
  153 6001.93 0.00000 2.59395e-09
  154 6001.93 0.00000 1.41315e-09
  155 6001.93 0.00000 -3.45011e-07
  156 6001.93 0.00000 1.27915e-07
  157 6001.93 0.00000 8.26022e-07
  158 6001.93 0.00000 -1.17114e-07
  159 6001.93 0.00000 1.73379e-07
  160 6001.93 0.00000 5.38574e-08
  161 6001.93 0.00000 -5.75148e-08
  162 6001.93 0.00000 6.40405e-07
  163 6001.93 0.00000 -1.25622e-07
  164 6001.93 0.00000 7.03001e-07
  165 6001.93 0.00000 -2.49528e-06
  166 6001.93 0.00000 8.33182e-07
  167 6001.93 0.00000 1.24444e-07
  168 6001.93 0.00000 -1.89104e-07
  169 6001.93 0.00000 -9.27350e-07
  170 6001.93 0.00000 -4.70085e-07
  171 6001.93 0.00000 -3.39022e-06
  172 6001.93 0.00000 -1.23562e-06
  173 6001.93 0.00000 4.46420e-06
  174 6001.93 0.00000 2.56472e-07
  175 6001.93 0.00000 1.36273e-06
  176 6001.93 0.00000 -1.41522e-06
  177 6001.93 0.00000 -2.50385e-07
  178 6001.93 0.00000 3.72857e-07
  179 6001.93 0.00000 -4.55947e-06
  180 6001.93 0.00000 -4.30475e-07
  181 6001.93 0.00000 1.49189e-07
  182 6001.93 0.00000 -8.33147e-07
  183 6001.93 0.00000 2.81817e-06
  184 6001.93 0.00000 9.59041e-07
  185 6001.93 0.00000 -2.45575e-06
  186 6001.93 0.00000 -5.70361e-07
  187 6001.93 0.00000 -5.08734e-07
  188 6001.93 0.00000 1.98815e-08
  189 6001.93 0.00000 -1.17945e-06
  190 6001.93 0.00000 3.10928e-06
  191 6001.93 0.00000 1.09430e-06
  192 6001.93 0.00000 6.94059e-07
  193 6001.93 0.00000 -1.18225e-06
  194 6001.93 0.00000 2.40735e-07
  195 6001.93 0.00000 1.50865e-06
  196 6001.93 0.00000 -3.39774e-07
  197 6001.93 0.00000 -1.35172e-06
  198 6001.93 0.00000 1.18396e-06
  199 6001.93 0.00000 8.66907e-07
  200 6001.93 0.00000 -3.65952e-09
  201 6001.93 0.00000 9.27824e-07
  202 6001.93 0.00000 -5.09018e-07
  203 6001.93 0.00000 -2.44335e-06
  204 6001.93 0.00000 -5.98377e-07
  205 6001.93 0.00000 -1.10499e-06
  206 6001.93 0.00000 9.24181e-07
  207 6001.93 0.00000 4.44054e-06
  208 6001.93 0.00000 -1.20024e-06
  209 6001.93 0.00000 5.53044e-07
  210 6001.93 0.00000 2.85750e-06
  211 6001.93 0.00000 -3.06843e-06
  212 6001.93 0.00000 5.14490e-07
  213 6001.93 0.00000 2.66062e-06
  214 6001.93 0.00000 3.24416e-06
  215 6001.93 0.00000 -2.03203e-07
  216 6001.93 0.00000 2.27790e-06
  217 6001.93 0.00000 6.59581e-07
  218 6001.93 0.00000 3.06813e-06
  219 6001.93 0.00000 3.55445e-07
  220 6001.93 0.00000 2.31509e-06
  221 6001.93 0.00000 -8.68269e-08
  222 6001.93 0.00000 2.27398e-07
  223 6001.93 0.00000 -4.37253e-06
  224 6001.93 0.00000 -3.75146e-06
  225 6001.93 0.00000 1.00542e-06
  226 6001.93 0.00000 -1.54501e-06
  227 6001.93 0.00000 -2.64164e-07
  228 6001.93 0.00000 9.06011e-07
  229 6001.93 0.00000 -6.49177e-07
  230 6001.93 0.00000 -2.12025e-07
  231 6001.93 0.00000 3.55995e-07
  232 6001.93 0.00000 1.28699e-06
  233 6001.93 0.00000 2.58348e-07
  234 6001.93 0.00000 2.25925e-06
  235 6001.93 0.00000 1.23753e-06
  236 6001.93 0.00000 -2.60586e-06
  237 6001.93 0.00000 -1.01785e-06
  238 6001.93 0.00000 -8.27582e-07
  239 6001.93 0.00000 3.47579e-07
  240 6001.93 0.00000 -2.71215e-06
  241 6001.93 0.00000 6.02222e-07
</Section>

newXOutput 138

<Section columns = "stress_xx | stress_yy | stress_xy">
  1 6064.38 0.00000 1.10941e-06
  2 6064.38 0.00000 -2.46650e-07
  3 6064.38 0.00000 1.86210e-07
  4 6064.38 0.00000 -1.21662e-06
  5 6064.38 0.00000 2.64706e-06
  6 6064.38 0.00000 4.61265e-06
  7 6064.38 0.00000 6.06289e-06
  8 6064.38 0.00000 7.05140e-06
  9 6064.38 0.00000 7.04182e-06
  10 6064.38 0.00000 6.66688e-06
  11 6064.38 0.00000 5.82427e-06
  12 6064.38 0.00000 4.55706e-06
  13 6064.38 0.00000 2.93021e-06
  14 6064.38 0.00000 1.46699e-06
  15 6064.38 0.00000 1.71739e-08
  16 6064.38 0.00000 -1.03855e-06
  17 6064.38 0.00000 -1.50009e-06
  18 6064.38 0.00000 -1.75307e-06
  19 6064.38 0.00000 -1.73485e-06
  20 6064.38 0.00000 -1.46770e-06
  21 6064.38 0.00000 -1.26989e-06
  22 6064.38 0.00000 -9.59097e-07
  23 6064.38 0.00000 -5.39569e-07
  24 6064.38 0.00000 -1.54731e-07
  25 6064.38 0.00000 -8.54289e-08
  26 6064.38 0.00000 -1.88666e-08
  27 6064.38 0.00000 8.19026e-08
  28 6064.38 0.00000 1.44762e-07
  29 6064.38 0.00000 1.30009e-07
  30 6064.38 0.00000 1.46594e-07
  31 6064.38 0.00000 4.39299e-07
  32 6064.38 0.00000 7.51405e-07
  33 6064.38 0.00000 1.09063e-06
  34 6064.38 0.00000 1.65898e-06
  35 6064.38 0.00000 1.75182e-06
  36 6064.38 0.00000 1.75814e-06
  37 6064.38 0.00000 1.43021e-06
  38 6064.38 0.00000 8.42295e-07
  39 6064.38 0.00000 -1.01677e-07
  40 6064.38 0.00000 -1.32535e-06
  41 6064.38 0.00000 -2.66642e-06
  42 6064.38 0.00000 -4.33504e-06
  43 6064.38 0.00000 -5.68898e-06
  44 6064.38 0.00000 -6.77420e-06
  45 6064.38 0.00000 -7.35715e-06
  46 6064.38 0.00000 -6.80516e-06
  47 6064.38 0.00000 -6.11261e-06
  48 6064.38 0.00000 -4.76358e-06
  49 6064.38 0.00000 -2.69216e-06
  50 6064.38 0.00000 -8.46979e-07
  51 6064.38 0.00000 -5.96101e-07
  52 6064.38 0.00000 -3.88605e-07
  53 6064.38 0.00000 8.01073e-08
  54 6064.38 0.00000 5.38030e-07
  55 6064.38 0.00000 6.66340e-07
  56 6064.38 0.00000 8.00632e-07
  57 6064.38 0.00000 5.14840e-08
  58 6064.38 0.00000 -9.02796e-08
  59 6064.38 0.00000 -9.35723e-08
  60 6064.38 0.00000 4.44533e-07
  61 6064.38 0.00000 1.95731e-06
  62 6064.38 0.00000 -2.32179e-06
  63 6064.38 0.00000 -5.64909e-07
  64 6064.38 0.00000 -4.90223e-07
  65 6064.38 0.00000 -2.54464e-06
  66 6064.38 0.00000 2.01010e-06
  67 6064.38 0.00000 4.41190e-07
  68 6064.38 0.00000 -2.95094e-09
  69 6064.38 0.00000 9.67988e-07
  70 6064.38 0.00000 -3.85889e-07
  71 6064.38 0.00000 3.42783e-06
  72 6064.38 0.00000 1.67398e-06
  73 6064.38 0.00000 -9.38777e-07
  74 6064.38 0.00000 -3.90624e-06
  75 6064.38 0.00000 -2.06296e-06
  76 6064.38 0.00000 9.94292e-08
  77 6064.38 0.00000 -5.92089e-08
  78 6064.38 0.00000 1.11605e-06
  79 6064.38 0.00000 -2.05888e-07
  80 6064.38 0.00000 5.84353e-08
  81 6064.38 0.00000 1.90121e-08
  82 6064.38 0.00000 8.82191e-07
  83 6064.38 0.00000 1.49889e-07
  84 6064.38 0.00000 4.65022e-06
  85 6064.38 0.00000 -9.17498e-07
  86 6064.38 0.00000 -5.24933e-07
  87 6064.38 0.00000 -2.84877e-06
  88 6064.38 0.00000 5.41966e-07
  89 6064.38 0.00000 2.46950e-06
  90 6064.38 0.00000 4.77428e-06
  91 6064.38 0.00000 -4.36696e-06
  92 6064.38 0.00000 -6.57279e-07
  93 6064.38 0.00000 -1.62512e-07
  94 6064.38 0.00000 -1.25733e-06
  95 6064.38 0.00000 -3.94006e-06
  96 6064.38 0.00000 -1.38134e-07
  97 6064.38 0.00000 -1.06853e-06
  98 6064.38 0.00000 -5.13040e-06
  99 6064.38 0.00000 8.06380e-07
  100 6064.38 0.00000 2.14415e-06
  101 6064.38 0.00000 3.10135e-06
  102 6064.38 0.00000 -5.99550e-07
  103 6064.38 0.00000 3.68435e-07
  104 6064.38 0.00000 -2.16208e-06
  105 6064.38 0.00000 -1.38680e-06
  106 6064.38 0.00000 2.97599e-07
  107 6064.38 0.00000 -5.99999e-08
  108 6064.38 0.00000 -7.45562e-07
  109 6064.38 0.00000 9.43558e-07
  110 6064.38 0.00000 2.52147e-07
  111 6064.38 0.00000 7.50519e-07
  112 6064.38 0.00000 -6.19462e-07
  113 6064.38 0.00000 3.99207e-07
  114 6064.38 0.00000 1.34994e-06
  115 6064.38 0.00000 9.03707e-07
  116 6064.38 0.00000 5.19951e-06
  117 6064.38 0.00000 -5.99822e-07
  118 6064.38 0.00000 -2.54744e-06
  119 6064.38 0.00000 9.46831e-08
  120 6064.38 0.00000 1.36024e-06
  121 6064.38 0.00000 1.53285e-06
  122 6064.38 0.00000 1.98786e-07
  123 6064.38 0.00000 8.74866e-07
  124 6064.38 0.00000 3.16880e-07
  125 6064.38 0.00000 -1.76695e-06
  126 6064.38 0.00000 5.63650e-06
  127 6064.38 0.00000 -4.63058e-07
  128 6064.38 0.00000 -1.35243e-06
  129 6064.38 0.00000 -5.83435e-06
  130 6064.38 0.00000 -1.50496e-07
  131 6064.38 0.00000 2.49125e-06
  132 6064.38 0.00000 -2.79695e-06
  133 6064.38 0.00000 -1.38803e-06
  134 6064.38 0.00000 3.35970e-06
  135 6064.38 0.00000 -9.88212e-07
  136 6064.38 0.00000 -4.92256e-06
  137 6064.38 0.00000 7.49299e-07
  138 6064.38 0.00000 -6.63110e-07
  139 6064.38 0.00000 5.76154e-07
  140 6064.38 0.00000 1.11229e-07
  141 6064.38 0.00000 5.27989e-07
  142 6064.38 0.00000 6.12962e-06
  143 6064.38 0.00000 -1.89738e-06
  144 6064.38 0.00000 4.08526e-07
  145 6064.38 0.00000 1.32278e-06
  146 6064.38 0.00000 -5.32384e-06
  147 6064.38 0.00000 -7.28554e-07
  148 6064.38 0.00000 3.09733e-07
  149 6064.38 0.00000 1.57723e-07
  150 6064.38 0.00000 5.83003e-07
  151 6064.38 0.00000 2.12302e-06
  152 6064.38 0.00000 -4.66920e-07
  153 6064.38 0.00000 9.98316e-09
  154 6064.38 0.00000 2.83862e-09
  155 6064.38 0.00000 4.46846e-07
  156 6064.38 0.00000 -1.75611e-07
  157 6064.38 0.00000 -1.09243e-06
  158 6064.38 0.00000 1.47761e-07
  159 6064.38 0.00000 -2.27335e-07
  160 6064.38 0.00000 -7.15541e-08
  161 6064.38 0.00000 7.07466e-08
  162 6064.38 0.00000 -8.59079e-07
  163 6064.38 0.00000 1.58628e-07
  164 6064.38 0.00000 -9.21273e-07
  165 6064.38 0.00000 3.31801e-06
  166 6064.38 0.00000 -1.10329e-06
  167 6064.38 0.00000 -1.71107e-07
  168 6064.38 0.00000 2.54172e-07
  169 6064.38 0.00000 1.22755e-06
  170 6064.38 0.00000 6.32306e-07
  171 6064.38 0.00000 4.56780e-06
  172 6064.38 0.00000 1.73008e-06
  173 6064.38 0.00000 -5.96186e-06
  174 6064.38 0.00000 -3.45198e-07
  175 6064.38 0.00000 -1.80418e-06
  176 6064.38 0.00000 1.87285e-06
  177 6064.38 0.00000 3.39857e-07
  178 6064.38 0.00000 -5.03905e-07
  179 6064.38 0.00000 6.05560e-06
  180 6064.38 0.00000 5.72170e-07
  181 6064.38 0.00000 -1.93055e-07
  182 6064.38 0.00000 1.05352e-06
  183 6064.38 0.00000 -3.78073e-06
  184 6064.38 0.00000 -1.21562e-06
  185 6064.38 0.00000 3.25764e-06
  186 6064.38 0.00000 8.44449e-07
  187 6064.38 0.00000 6.90053e-07
  188 6064.38 0.00000 -1.65166e-08
  189 6064.38 0.00000 1.57570e-06
  190 6064.38 0.00000 -4.14799e-06
  191 6064.38 0.00000 -1.46654e-06
  192 6064.38 0.00000 -8.97238e-07
  193 6064.38 0.00000 1.55206e-06
  194 6064.38 0.00000 -3.28684e-07
  195 6064.38 0.00000 -1.99725e-06
  196 6064.38 0.00000 4.54390e-07
  197 6064.38 0.00000 1.79063e-06
  198 6064.38 0.00000 -1.55637e-06
  199 6064.38 0.00000 -1.15124e-06
  200 6064.38 0.00000 1.04551e-08
  201 6064.38 0.00000 -1.28774e-06
  202 6064.38 0.00000 6.42416e-07
  203 6064.38 0.00000 3.28671e-06
  204 6064.38 0.00000 8.48695e-07
  205 6064.38 0.00000 1.47088e-06
  206 6064.38 0.00000 -1.23835e-06
  207 6064.38 0.00000 -5.89892e-06
  208 6064.38 0.00000 1.59475e-06
  209 6064.38 0.00000 -7.43363e-07
  210 6064.38 0.00000 -3.78691e-06
  211 6064.38 0.00000 4.06512e-06
  212 6064.38 0.00000 -6.91317e-07
  213 6064.38 0.00000 -3.52442e-06
  214 6064.38 0.00000 -4.37951e-06
  215 6064.38 0.00000 2.76428e-07
  216 6064.38 0.00000 -3.06495e-06
  217 6064.38 0.00000 -8.80417e-07
  218 6064.38 0.00000 -4.07325e-06
  219 6064.38 0.00000 -4.20906e-07
  220 6064.38 0.00000 -3.09762e-06
  221 6064.38 0.00000 1.38141e-07
  222 6064.38 0.00000 -2.98555e-07
  223 6064.38 0.00000 5.86435e-06
  224 6064.38 0.00000 5.00828e-06
  225 6064.38 0.00000 -1.32422e-06
  226 6064.38 0.00000 2.04846e-06
  227 6064.38 0.00000 3.98488e-07
  228 6064.38 0.00000 -1.23563e-06
  229 6064.38 0.00000 8.60565e-07
  230 6064.38 0.00000 2.79736e-07
  231 6064.38 0.00000 -4.58151e-07
  232 6064.38 0.00000 -1.70542e-06
  233 6064.38 0.00000 -3.45875e-07
  234 6064.38 0.00000 -3.05512e-06
  235 6064.38 0.00000 -1.73483e-06
  236 6064.38 0.00000 3.45295e-06
  237 6064.38 0.00000 1.42405e-06
  238 6064.38 0.00000 1.11987e-06
  239 6064.38 0.00000 -4.55020e-07
  240 6064.38 0.00000 3.68138e-06
  241 6064.38 0.00000 -7.30624e-07
</Section>

newXOutput 139

<Section columns = "stress_xx | stress_yy | stress_xy">
  1 6127.11 0.00000 -1.47152e-06
  2 6127.11 0.00000 3.30367e-07
  3 6127.11 0.00000 -2.54985e-07
  4 6127.11 0.00000 1.61301e-06
  5 6127.11 0.00000 -3.51720e-06
  6 6127.11 0.00000 -6.13469e-06
  7 6127.11 0.00000 -8.06801e-06
  8 6127.11 0.00000 -9.40434e-06
  9 6127.11 0.00000 -9.42341e-06
  10 6127.11 0.00000 -8.95511e-06
  11 6127.11 0.00000 -7.85517e-06
  12 6127.11 0.00000 -6.18537e-06
  13 6127.11 0.00000 -4.02756e-06
  14 6127.11 0.00000 -2.08545e-06
  15 6127.11 0.00000 -1.39553e-07
  16 6127.11 0.00000 1.28502e-06
  17 6127.11 0.00000 1.92716e-06
  18 6127.11 0.00000 2.29447e-06
  19 6127.11 0.00000 2.30020e-06
  20 6127.11 0.00000 1.96483e-06
  21 6127.11 0.00000 1.70569e-06
  22 6127.11 0.00000 1.28920e-06
  23 6127.11 0.00000 7.24824e-07
  24 6127.11 0.00000 2.09358e-07
  25 6127.11 0.00000 1.18692e-07
  26 6127.11 0.00000 3.14408e-08
  27 6127.11 0.00000 -1.03786e-07
  28 6127.11 0.00000 -1.91309e-07
  29 6127.11 0.00000 -1.75525e-07
  30 6127.11 0.00000 -1.99003e-07
  31 6127.11 0.00000 -6.01383e-07
  32 6127.11 0.00000 -1.02249e-06
  33 6127.11 0.00000 -1.46840e-06
  34 6127.11 0.00000 -2.21199e-06
  35 6127.11 0.00000 -2.31776e-06
  36 6127.11 0.00000 -2.30136e-06
  37 6127.11 0.00000 -1.83756e-06
  38 6127.11 0.00000 -1.02707e-06
  39 6127.11 0.00000 2.54967e-07
  40 6127.11 0.00000 1.89629e-06
  41 6127.11 0.00000 3.68348e-06
  42 6127.11 0.00000 5.89511e-06
  43 6127.11 0.00000 7.67583e-06
  44 6127.11 0.00000 9.09132e-06
  45 6127.11 0.00000 9.83478e-06
  46 6127.11 0.00000 9.07739e-06
  47 6127.11 0.00000 8.14070e-06
  48 6127.11 0.00000 6.33375e-06
  49 6127.11 0.00000 3.57642e-06
  50 6127.11 0.00000 1.12402e-06
  51 6127.11 0.00000 7.92089e-07
  52 6127.11 0.00000 5.16314e-07
  53 6127.11 0.00000 -1.05753e-07
  54 6127.11 0.00000 -7.14273e-07
  55 6127.11 0.00000 -8.85157e-07
  56 6127.11 0.00000 -1.06277e-06
  57 6127.11 0.00000 -6.61000e-08
  58 6127.11 0.00000 1.11589e-07
  59 6127.11 0.00000 1.21993e-07
  60 6127.11 0.00000 -5.63789e-07
  61 6127.11 0.00000 -2.63759e-06
  62 6127.11 0.00000 3.12589e-06
  63 6127.11 0.00000 7.37902e-07
  64 6127.11 0.00000 6.60983e-07
  65 6127.11 0.00000 3.38326e-06
  66 6127.11 0.00000 -2.67270e-06
  67 6127.11 0.00000 -5.92923e-07
  68 6127.11 0.00000 -4.91277e-08
  69 6127.11 0.00000 -1.27283e-06
  70 6127.11 0.00000 5.84816e-07
  71 6127.11 0.00000 -4.58207e-06
  72 6127.11 0.00000 -2.30451e-06
  73 6127.11 0.00000 1.24119e-06
  74 6127.11 0.00000 5.21278e-06
  75 6127.11 0.00000 2.81692e-06
  76 6127.11 0.00000 -1.24689e-07
  77 6127.11 0.00000 7.69204e-08
  78 6127.11 0.00000 -1.49170e-06
  79 6127.11 0.00000 2.70866e-07
  80 6127.11 0.00000 -7.55428e-08
  81 6127.11 0.00000 -2.38842e-08
  82 6127.11 0.00000 -1.11414e-06
  83 6127.11 0.00000 -1.96792e-07
  84 6127.11 0.00000 -6.19280e-06
  85 6127.11 0.00000 1.15642e-06
  86 6127.11 0.00000 7.10253e-07
  87 6127.11 0.00000 3.78468e-06
  88 6127.11 0.00000 -7.32280e-07
  89 6127.11 0.00000 -3.28041e-06
  90 6127.11 0.00000 -6.41625e-06
  91 6127.11 0.00000 5.86174e-06
  92 6127.11 0.00000 8.72151e-07
  93 6127.11 0.00000 2.15789e-07
  94 6127.11 0.00000 1.64786e-06
  95 6127.11 0.00000 5.31922e-06
  96 6127.11 0.00000 1.74688e-07
  97 6127.11 0.00000 1.43332e-06
  98 6127.11 0.00000 6.83173e-06
  99 6127.11 0.00000 -1.16981e-06
  100 6127.11 0.00000 -2.85626e-06
  101 6127.11 0.00000 -4.21489e-06
  102 6127.11 0.00000 7.87589e-07
  103 6127.11 0.00000 -4.98521e-07
  104 6127.11 0.00000 2.89947e-06
  105 6127.11 0.00000 1.94876e-06
  106 6127.11 0.00000 -4.33458e-07
  107 6127.11 0.00000 8.86553e-08
  108 6127.11 0.00000 9.89371e-07
  109 6127.11 0.00000 -1.25265e-06
  110 6127.11 0.00000 -3.33998e-07
  111 6127.11 0.00000 -1.01169e-06
  112 6127.11 0.00000 8.63738e-07
  113 6127.11 0.00000 -4.41106e-07
  114 6127.11 0.00000 -1.75003e-06
  115 6127.11 0.00000 -1.24054e-06
  116 6127.11 0.00000 -6.91620e-06
  117 6127.11 0.00000 7.98292e-07
  118 6127.11 0.00000 3.39383e-06
  119 6127.11 0.00000 -2.16744e-07
  120 6127.11 0.00000 -1.80461e-06
  121 6127.11 0.00000 -2.04501e-06
  122 6127.11 0.00000 -2.28694e-07
  123 6127.11 0.00000 -1.12800e-06
  124 6127.11 0.00000 -4.22341e-07
  125 6127.11 0.00000 2.39066e-06
  126 6127.11 0.00000 -7.52809e-06
  127 6127.11 0.00000 5.73754e-07
  128 6127.11 0.00000 1.80058e-06
  129 6127.11 0.00000 7.78612e-06
  130 6127.11 0.00000 2.26311e-07
  131 6127.11 0.00000 -3.42308e-06
  132 6127.11 0.00000 3.83236e-06
  133 6127.11 0.00000 1.79924e-06
  134 6127.11 0.00000 -4.50356e-06
  135 6127.11 0.00000 1.32877e-06
  136 6127.11 0.00000 6.54688e-06
  137 6127.11 0.00000 -1.00150e-06
  138 6127.11 0.00000 8.99314e-07
  139 6127.11 0.00000 -7.67687e-07
  140 6127.11 0.00000 -1.48511e-07
  141 6127.11 0.00000 -7.13103e-07
  142 6127.11 0.00000 -8.21876e-06
  143 6127.11 0.00000 2.53881e-06
  144 6127.11 0.00000 -4.81694e-07
  145 6127.11 0.00000 -1.77055e-06
  146 6127.11 0.00000 7.16349e-06
  147 6127.11 0.00000 1.08315e-06
  148 6127.11 0.00000 -4.11202e-07
  149 6127.11 0.00000 -2.04113e-07
  150 6127.11 0.00000 -8.19486e-07
  151 6127.11 0.00000 -2.88244e-06
  152 6127.11 0.00000 6.12712e-07
  153 6127.11 0.00000 -3.19412e-08
  154 6127.11 0.00000 -1.00901e-08
  155 6127.11 0.00000 -5.79622e-07
  156 6127.11 0.00000 2.40963e-07
  157 6127.11 0.00000 1.44930e-06
  158 6127.11 0.00000 -1.86751e-07
  159 6127.11 0.00000 2.98057e-07
  160 6127.11 0.00000 9.53770e-08
  161 6127.11 0.00000 -8.71302e-08
  162 6127.11 0.00000 1.15590e-06
  163 6127.11 0.00000 -2.00550e-07
  164 6127.11 0.00000 1.20915e-06
  165 6127.11 0.00000 -4.42568e-06
  166 6127.11 0.00000 1.46556e-06
  167 6127.11 0.00000 2.35196e-07
  168 6127.11 0.00000 -3.42248e-07
  169 6127.11 0.00000 -1.63002e-06
  170 6127.11 0.00000 -8.51379e-07
  171 6127.11 0.00000 -6.17199e-06
  172 6127.11 0.00000 -2.42447e-06
  173 6127.11 0.00000 7.98594e-06
  174 6127.11 0.00000 4.65433e-07
  175 6127.11 0.00000 2.39611e-06
  176 6127.11 0.00000 -2.48627e-06
  177 6127.11 0.00000 -4.61684e-07
  178 6127.11 0.00000 6.82706e-07
  179 6127.11 0.00000 -8.06751e-06
  180 6127.11 0.00000 -7.62915e-07
  181 6127.11 0.00000 2.50422e-07
  182 6127.11 0.00000 -1.33037e-06
  183 6127.11 0.00000 5.08704e-06
  184 6127.11 0.00000 1.53933e-06
  185 6127.11 0.00000 -4.33476e-06
  186 6127.11 0.00000 -1.24244e-06
  187 6127.11 0.00000 -9.36800e-07
  188 6127.11 0.00000 9.01692e-09
  189 6127.11 0.00000 -2.11138e-06
  190 6127.11 0.00000 5.55035e-06
  191 6127.11 0.00000 1.97116e-06
  192 6127.11 0.00000 1.16060e-06
  193 6127.11 0.00000 -2.04078e-06
  194 6127.11 0.00000 4.48890e-07
  195 6127.11 0.00000 2.65238e-06
  196 6127.11 0.00000 -6.08889e-07
  197 6127.11 0.00000 -2.37948e-06
  198 6127.11 0.00000 2.04910e-06
  199 6127.11 0.00000 1.53347e-06
  200 6127.11 0.00000 -2.08433e-08
  201 6127.11 0.00000 1.79002e-06
  202 6127.11 0.00000 -8.09933e-07
  203 6127.11 0.00000 -4.43391e-06
  204 6127.11 0.00000 -1.20293e-06
  205 6127.11 0.00000 -1.96408e-06
  206 6127.11 0.00000 1.66176e-06
  207 6127.11 0.00000 7.86038e-06
  208 6127.11 0.00000 -2.12264e-06
  209 6127.11 0.00000 1.00060e-06
  210 6127.11 0.00000 5.03417e-06
  211 6127.11 0.00000 -5.40238e-06
  212 6127.11 0.00000 9.30545e-07
  213 6127.11 0.00000 4.68318e-06
  214 6127.11 0.00000 5.92892e-06
  215 6127.11 0.00000 -3.75789e-07
  216 6127.11 0.00000 4.13601e-06
  217 6127.11 0.00000 1.17716e-06
  218 6127.11 0.00000 5.42431e-06
  219 6127.11 0.00000 4.90738e-07
  220 6127.11 0.00000 4.15699e-06
  221 6127.11 0.00000 -2.14939e-07
  222 6127.11 0.00000 3.93040e-07
  223 6127.11 0.00000 -7.88828e-06
  224 6127.11 0.00000 -6.70627e-06
  225 6127.11 0.00000 1.74709e-06
  226 6127.11 0.00000 -2.72439e-06
  227 6127.11 0.00000 -5.95198e-07
  228 6127.11 0.00000 1.68966e-06
  229 6127.11 0.00000 -1.14433e-06
  230 6127.11 0.00000 -3.70109e-07
  231 6127.11 0.00000 5.89472e-07
  232 6127.11 0.00000 2.26683e-06
  233 6127.11 0.00000 4.63810e-07
  234 6127.11 0.00000 4.14294e-06
  235 6127.11 0.00000 2.43384e-06
  236 6127.11 0.00000 -4.58966e-06
  237 6127.11 0.00000 -1.99391e-06
  238 6127.11 0.00000 -1.51940e-06
  239 6127.11 0.00000 5.96459e-07
  240 6127.11 0.00000 -5.01025e-06
  241 6127.11 0.00000 8.78737e-07
</Section>

newXOutput 140

<Section columns = "stress_xx | stress_yy | stress_xy">
  1 6190.10 0.00000 1.95804e-06
  2 6190.10 0.00000 -4.43472e-07
  3 6190.10 0.00000 3.49175e-07
  4 6190.10 0.00000 -2.14534e-06
  5 6190.10 0.00000 4.68809e-06
  6 6190.10 0.00000 8.18450e-06
  7 6190.10 0.00000 1.07698e-05
  8 6190.10 0.00000 1.25812e-05
  9 6190.10 0.00000 1.26488e-05
  10 6190.10 0.00000 1.20647e-05
  11 6190.10 0.00000 1.06252e-05
  12 6190.10 0.00000 8.41877e-06
  13 6190.10 0.00000 5.54874e-06
  14 6190.10 0.00000 2.96424e-06
  15 6190.10 0.00000 3.45428e-07
  16 6190.10 0.00000 -1.58172e-06
  17 6190.10 0.00000 -2.47603e-06
  18 6190.10 0.00000 -3.00706e-06
  19 6190.10 0.00000 -3.05434e-06
  20 6190.10 0.00000 -2.63414e-06
  21 6190.10 0.00000 -2.29459e-06
  22 6190.10 0.00000 -1.73596e-06
  23 6190.10 0.00000 -9.75590e-07
  24 6190.10 0.00000 -2.83696e-07
  25 6190.10 0.00000 -1.64691e-07
  26 6190.10 0.00000 -4.99200e-08
  27 6190.10 0.00000 1.31950e-07
  28 6190.10 0.00000 2.53610e-07
  29 6190.10 0.00000 2.37419e-07
  30 6190.10 0.00000 2.70443e-07
  31 6190.10 0.00000 8.23415e-07
  32 6190.10 0.00000 1.39244e-06
  33 6190.10 0.00000 1.97982e-06
  34 6190.10 0.00000 2.95448e-06
  35 6190.10 0.00000 3.07171e-06
  36 6190.10 0.00000 3.01627e-06
  37 6190.10 0.00000 2.36067e-06
  38 6190.10 0.00000 1.24187e-06
  39 6190.10 0.00000 -5.03199e-07
  40 6190.10 0.00000 -2.71069e-06
  41 6190.10 0.00000 -5.09894e-06
  42 6190.10 0.00000 -8.03846e-06
  43 6190.10 0.00000 -1.03869e-05
  44 6190.10 0.00000 -1.22378e-05
  45 6190.10 0.00000 -1.31870e-05
  46 6190.10 0.00000 -1.21457e-05
  47 6190.10 0.00000 -1.08754e-05
  48 6190.10 0.00000 -8.44775e-06
  49 6190.10 0.00000 -4.76601e-06
  50 6190.10 0.00000 -1.49641e-06
  51 6190.10 0.00000 -1.05585e-06
  52 6190.10 0.00000 -6.88178e-07
  53 6190.10 0.00000 1.40028e-07
  54 6190.10 0.00000 9.51223e-07
  55 6190.10 0.00000 1.17954e-06
  56 6190.10 0.00000 1.41523e-06
  57 6190.10 0.00000 8.52019e-08
  58 6190.10 0.00000 -1.38250e-07
  59 6190.10 0.00000 -1.59661e-07
  60 6190.10 0.00000 7.14783e-07
  61 6190.10 0.00000 3.56468e-06
  62 6190.10 0.00000 -4.22099e-06
  63 6190.10 0.00000 -9.64537e-07
  64 6190.10 0.00000 -8.92388e-07
  65 6190.10 0.00000 -4.51227e-06
  66 6190.10 0.00000 3.56484e-06
  67 6190.10 0.00000 7.98059e-07
  68 6190.10 0.00000 1.38144e-07
  69 6190.10 0.00000 1.67605e-06
  70 6190.10 0.00000 -8.77251e-07
  71 6190.10 0.00000 6.14385e-06
  72 6190.10 0.00000 3.17925e-06
  73 6190.10 0.00000 -1.64413e-06
  74 6190.10 0.00000 -6.97774e-06
  75 6190.10 0.00000 -3.85651e-06
  76 6190.10 0.00000 1.56726e-07
  77 6190.10 0.00000 -1.00273e-07
  78 6190.10 0.00000 1.99689e-06
  79 6190.10 0.00000 -3.57609e-07
  80 6190.10 0.00000 9.79423e-08
  81 6190.10 0.00000 3.01813e-08
  82 6190.10 0.00000 1.40468e-06
  83 6190.10 0.00000 2.59167e-07
  84 6190.10 0.00000 8.27278e-06
  85 6190.10 0.00000 -1.45433e-06
  86 6190.10 0.00000 -9.62243e-07
  87 6190.10 0.00000 -5.04386e-06
  88 6190.10 0.00000 9.90754e-07
  89 6190.10 0.00000 4.37135e-06
  90 6190.10 0.00000 8.64858e-06
  91 6190.10 0.00000 -7.89176e-06
  92 6190.10 0.00000 -1.16085e-06
  93 6190.10 0.00000 -2.87165e-07
  94 6190.10 0.00000 -2.16256e-06
  95 6190.10 0.00000 -7.20215e-06
  96 6190.10 0.00000 -2.19796e-07
  97 6190.10 0.00000 -1.92558e-06
  98 6190.10 0.00000 -9.12550e-06
  99 6190.10 0.00000 1.69231e-06
  100 6190.10 0.00000 3.81680e-06
  101 6190.10 0.00000 5.74380e-06
  102 6190.10 0.00000 -1.03658e-06
  103 6190.10 0.00000 6.74886e-07
  104 6190.10 0.00000 -3.89991e-06
  105 6190.10 0.00000 -2.74073e-06
  106 6190.10 0.00000 6.28989e-07
  107 6190.10 0.00000 -1.29386e-07
  108 6190.10 0.00000 -1.31711e-06
  109 6190.10 0.00000 1.66822e-06
  110 6190.10 0.00000 4.43689e-07
  111 6190.10 0.00000 1.36549e-06
  112 6190.10 0.00000 -1.20625e-06
  113 6190.10 0.00000 4.65616e-07
  114 6190.10 0.00000 2.27054e-06
  115 6190.10 0.00000 1.70658e-06
  116 6190.10 0.00000 9.22848e-06
  117 6190.10 0.00000 -1.06452e-06
  118 6190.10 0.00000 -4.53541e-06
  119 6190.10 0.00000 4.13024e-07
  120 6190.10 0.00000 2.39794e-06
  121 6190.10 0.00000 2.73683e-06
  122 6190.10 0.00000 2.56549e-07
  123 6190.10 0.00000 1.45544e-06
  124 6190.10 0.00000 5.63379e-07
  125 6190.10 0.00000 -3.24405e-06
  126 6190.10 0.00000 1.00855e-05
  127 6190.10 0.00000 -7.07000e-07
  128 6190.10 0.00000 -2.40105e-06
  129 6190.10 0.00000 -1.04228e-05
  130 6190.10 0.00000 -3.37362e-07
  131 6190.10 0.00000 4.71424e-06
  132 6190.10 0.00000 -5.26394e-06
  133 6190.10 0.00000 -2.33401e-06
  134 6190.10 0.00000 6.05510e-06
  135 6190.10 0.00000 -1.78948e-06
  136 6190.10 0.00000 -8.73434e-06
  137 6190.10 0.00000 1.34024e-06
  138 6190.10 0.00000 -1.22347e-06
  139 6190.10 0.00000 1.02605e-06
  140 6190.10 0.00000 1.98659e-07
  141 6190.10 0.00000 9.65785e-07
  142 6190.10 0.00000 1.10532e-05
  143 6190.10 0.00000 -3.40733e-06
  144 6190.10 0.00000 5.58356e-07
  145 6190.10 0.00000 2.37370e-06
  146 6190.10 0.00000 -9.66751e-06
  147 6190.10 0.00000 -1.59985e-06
  148 6190.10 0.00000 5.47614e-07
  149 6190.10 0.00000 2.65082e-07
  150 6190.10 0.00000 1.15227e-06
  151 6190.10 0.00000 3.92415e-06
  152 6190.10 0.00000 -8.05994e-07
  153 6190.10 0.00000 6.85952e-08
  154 6190.10 0.00000 2.19645e-08
  155 6190.10 0.00000 7.52890e-07
  156 6190.10 0.00000 -3.30551e-07
  157 6190.10 0.00000 -1.92883e-06
  158 6190.10 0.00000 2.36397e-07
  159 6190.10 0.00000 -3.90713e-07
  160 6190.10 0.00000 -1.27549e-07
  161 6190.10 0.00000 1.07438e-07
  162 6190.10 0.00000 -1.56000e-06
  163 6190.10 0.00000 2.53814e-07
  164 6190.10 0.00000 -1.58927e-06
  165 6190.10 0.00000 5.92153e-06
  166 6190.10 0.00000 -1.95295e-06
  167 6190.10 0.00000 -3.23266e-07
  168 6190.10 0.00000 4.61682e-07
  169 6190.10 0.00000 2.17128e-06
  170 6190.10 0.00000 1.14761e-06
  171 6190.10 0.00000 8.36362e-06
  172 6190.10 0.00000 3.40116e-06
  173 6190.10 0.00000 -1.07297e-05
  174 6190.10 0.00000 -6.28634e-07
  175 6190.10 0.00000 -3.19228e-06
  176 6190.10 0.00000 3.31107e-06
  177 6190.10 0.00000 6.27760e-07
  178 6190.10 0.00000 -9.27303e-07
  179 6190.10 0.00000 1.07813e-05
  180 6190.10 0.00000 1.02049e-06
  181 6190.10 0.00000 -3.25604e-07
  182 6190.10 0.00000 1.67664e-06
  183 6190.10 0.00000 -6.86508e-06
  184 6190.10 0.00000 -1.94631e-06
  185 6190.10 0.00000 5.78601e-06
  186 6190.10 0.00000 1.81943e-06
  187 6190.10 0.00000 1.27297e-06
  188 6190.10 0.00000 5.06025e-09
  189 6190.10 0.00000 2.83775e-06
  190 6190.10 0.00000 -7.44939e-06
  191 6190.10 0.00000 -2.65722e-06
  192 6190.10 0.00000 -1.50188e-06
  193 6190.10 0.00000 2.68743e-06
  194 6190.10 0.00000 -6.13317e-07
  195 6190.10 0.00000 -3.53352e-06
  196 6190.10 0.00000 8.17544e-07
  197 6190.10 0.00000 3.17192e-06
  198 6190.10 0.00000 -2.70183e-06
  199 6190.10 0.00000 -2.04885e-06
  200 6190.10 0.00000 3.63936e-08
  201 6190.10 0.00000 -2.49239e-06
  202 6190.10 0.00000 1.01950e-06
  203 6190.10 0.00000 5.99891e-06
  204 6190.10 0.00000 1.70464e-06
  205 6190.10 0.00000 2.63095e-06
  206 6190.10 0.00000 -2.23324e-06
  207 6190.10 0.00000 -1.05065e-05
  208 6190.10 0.00000 2.83015e-06
  209 6190.10 0.00000 -1.34879e-06
  210 6190.10 0.00000 -6.71313e-06
  211 6190.10 0.00000 7.20212e-06
  212 6190.10 0.00000 -1.25472e-06
  213 6190.10 0.00000 -6.24240e-06
  214 6190.10 0.00000 -8.04944e-06
  215 6190.10 0.00000 5.10656e-07
  216 6190.10 0.00000 -5.59781e-06
  217 6190.10 0.00000 -1.57654e-06
  218 6190.10 0.00000 -7.24594e-06
  219 6190.10 0.00000 -5.59816e-07
  220 6190.10 0.00000 -5.59540e-06
  221 6190.10 0.00000 3.29206e-07
  222 6190.10 0.00000 -5.18797e-07
  223 6190.10 0.00000 1.06422e-05
  224 6190.10 0.00000 9.00720e-06
  225 6190.10 0.00000 -2.30882e-06
  226 6190.10 0.00000 3.63466e-06
  227 6190.10 0.00000 8.82485e-07
  228 6190.10 0.00000 -2.31674e-06
  229 6190.10 0.00000 1.52640e-06
  230 6190.10 0.00000 4.91025e-07
  231 6190.10 0.00000 -7.58008e-07
  232 6190.10 0.00000 -3.02240e-06
  233 6190.10 0.00000 -6.22985e-07
  234 6190.10 0.00000 -5.63400e-06
  235 6190.10 0.00000 -3.41786e-06
  236 6190.10 0.00000 6.11972e-06
  237 6190.10 0.00000 2.79463e-06
  238 6190.10 0.00000 2.06703e-06
  239 6190.10 0.00000 -7.82838e-07
  240 6190.10 0.00000 6.83717e-06
  241 6190.10 0.00000 -1.04463e-06
</Section>

newXOutput 141

<Section columns = "stress_xx | stress_yy | stress_xy">
  1 6253.36 0.00000 -2.61377e-06
  2 6253.36 0.00000 5.96569e-07
  3 6253.36 0.00000 -4.78273e-07
  4 6253.36 0.00000 2.86248e-06
  5 6253.36 0.00000 -6.26856e-06
  6 6253.36 0.00000 -1.09536e-05
  7 6253.36 0.00000 -1.44218e-05
  8 6253.36 0.00000 -1.68836e-05
  9 6253.36 0.00000 -1.70303e-05
  10 6253.36 0.00000 -1.63030e-05
  11 6253.36 0.00000 -1.44146e-05
  12 6253.36 0.00000 -1.14907e-05
  13 6253.36 0.00000 -7.66269e-06
  14 6253.36 0.00000 -4.21423e-06
  15 6253.36 0.00000 -6.80142e-07
  16 6253.36 0.00000 1.93351e-06
  17 6253.36 0.00000 3.18050e-06
  18 6253.36 0.00000 3.94577e-06
  19 6253.36 0.00000 4.06167e-06
  20 6253.36 0.00000 3.53655e-06
  21 6253.36 0.00000 3.09163e-06
  22 6253.36 0.00000 2.34160e-06
  23 6253.36 0.00000 1.31564e-06
  24 6253.36 0.00000 3.85015e-07
  25 6253.36 0.00000 2.28313e-07
  26 6253.36 0.00000 7.68161e-08
  27 6253.36 0.00000 -1.68296e-07
  28 6253.36 0.00000 -3.37221e-07
  29 6253.36 0.00000 -3.21730e-07
  30 6253.36 0.00000 -3.67961e-07
  31 6253.36 0.00000 -1.12781e-06
  32 6253.36 0.00000 -1.89788e-06
  33 6253.36 0.00000 -2.67316e-06
  34 6253.36 0.00000 -3.95296e-06
  35 6253.36 0.00000 -4.07758e-06
  36 6253.36 0.00000 -3.95792e-06
  37 6253.36 0.00000 -3.03131e-06
  38 6253.36 0.00000 -1.48471e-06
  39 6253.36 0.00000 8.96072e-07
  40 6253.36 0.00000 3.87312e-06
  41 6253.36 0.00000 7.07339e-06
  42 6253.36 0.00000 1.09914e-05
  43 6253.36 0.00000 1.40971e-05
  44 6253.36 0.00000 1.65235e-05
  45 6253.36 0.00000 1.77365e-05
  46 6253.36 0.00000 1.63017e-05
  47 6253.36 0.00000 1.45742e-05
  48 6253.36 0.00000 1.13027e-05
  49 6253.36 0.00000 6.37133e-06
  50 6253.36 0.00000 1.99854e-06
  51 6253.36 0.00000 1.41194e-06
  52 6253.36 0.00000 9.20189e-07
  53 6253.36 0.00000 -1.85972e-07
  54 6253.36 0.00000 -1.27077e-06
  55 6253.36 0.00000 -1.57682e-06
  56 6253.36 0.00000 -1.89060e-06
  57 6253.36 0.00000 -1.10269e-07
  58 6253.36 0.00000 1.71691e-07
  59 6253.36 0.00000 2.09785e-07
  60 6253.36 0.00000 -9.05479e-07
  61 6253.36 0.00000 -4.83182e-06
  62 6253.36 0.00000 5.71685e-06
  63 6253.36 0.00000 1.26148e-06
  64 6253.36 0.00000 1.20641e-06
  65 6253.36 0.00000 6.03692e-06
  66 6253.36 0.00000 -4.76976e-06
  67 6253.36 0.00000 -1.07583e-06
  68 6253.36 0.00000 -2.84477e-07
  69 6253.36 0.00000 -2.20998e-06
  70 6253.36 0.00000 1.30593e-06
  71 6253.36 0.00000 -8.26354e-06
  72 6253.36 0.00000 -4.39563e-06
  73 6253.36 0.00000 2.18188e-06
  74 6253.36 0.00000 9.36929e-06
  75 6253.36 0.00000 5.29382e-06
  76 6253.36 0.00000 -1.97450e-07
  77 6253.36 0.00000 1.31174e-07
  78 6253.36 0.00000 -2.67729e-06
  79 6253.36 0.00000 4.73799e-07
  80 6253.36 0.00000 -1.27358e-07
  81 6253.36 0.00000 -3.83771e-08
  82 6253.36 0.00000 -1.76671e-06
  83 6253.36 0.00000 -3.42380e-07
  84 6253.36 0.00000 -1.10860e-05
  85 6253.36 0.00000 1.82343e-06
  86 6253.36 0.00000 1.30540e-06
  87 6253.36 0.00000 6.74327e-06
  88 6253.36 0.00000 -1.34233e-06
  89 6253.36 0.00000 -5.84360e-06
  90 6253.36 0.00000 -1.16926e-05
  91 6253.36 0.00000 1.06569e-05
  92 6253.36 0.00000 1.54995e-06
  93 6253.36 0.00000 3.82963e-07
  94 6253.36 0.00000 2.84153e-06
  95 6253.36 0.00000 9.78039e-06
  96 6253.36 0.00000 2.74802e-07
  97 6253.36 0.00000 2.59084e-06
  98 6253.36 0.00000 1.22275e-05
  99 6253.36 0.00000 -2.44337e-06
  100 6253.36 0.00000 -5.11642e-06
  101 6253.36 0.00000 -7.84883e-06
  102 6253.36 0.00000 1.36681e-06
  103 6253.36 0.00000 -9.14202e-07
  104 6253.36 0.00000 5.26130e-06
  105 6253.36 0.00000 3.85860e-06
  106 6253.36 0.00000 -9.10263e-07
  107 6253.36 0.00000 1.87063e-07
  108 6253.36 0.00000 1.75907e-06
  109 6253.36 0.00000 -2.22871e-06
  110 6253.36 0.00000 -5.91055e-07
  111 6253.36 0.00000 -1.84545e-06
  112 6253.36 0.00000 1.68747e-06
  113 6253.36 0.00000 -4.54620e-07
  114 6253.36 0.00000 -2.94771e-06
  115 6253.36 0.00000 -2.35293e-06
  116 6253.36 0.00000 -1.23526e-05
  117 6253.36 0.00000 1.42226e-06
  118 6253.36 0.00000 6.07987e-06
  119 6253.36 0.00000 -7.22124e-07
  120 6253.36 0.00000 -3.19128e-06
  121 6253.36 0.00000 -3.67421e-06
  122 6253.36 0.00000 -2.77081e-07
  123 6253.36 0.00000 -1.87887e-06
  124 6253.36 0.00000 -7.52147e-07
  125 6253.36 0.00000 4.41512e-06
  126 6253.36 0.00000 -1.35535e-05
  127 6253.36 0.00000 8.64887e-07
  128 6253.36 0.00000 3.20679e-06
  129 6253.36 0.00000 1.39958e-05
  130 6253.36 0.00000 4.99626e-07
  131 6253.36 0.00000 -6.50773e-06
  132 6253.36 0.00000 7.24836e-06
  133 6253.36 0.00000 3.02937e-06
  134 6253.36 0.00000 -8.16595e-06
  135 6253.36 0.00000 2.41373e-06
  136 6253.36 0.00000 1.16893e-05
  137 6253.36 0.00000 -1.79575e-06
  138 6253.36 0.00000 1.66969e-06
  139 6253.36 0.00000 -1.37563e-06
  140 6253.36 0.00000 -2.66238e-07
  141 6253.36 0.00000 -1.31169e-06
  142 6253.36 0.00000 -1.49102e-05
  143 6253.36 0.00000 4.58687e-06
  144 6253.36 0.00000 -6.31678e-07
  145 6253.36 0.00000 -3.18739e-06
  146 6253.36 0.00000 1.30860e-05
  147 6253.36 0.00000 2.35154e-06
  148 6253.36 0.00000 -7.31563e-07
  149 6253.36 0.00000 -3.45475e-07
  150 6253.36 0.00000 -1.62121e-06
  151 6253.36 0.00000 -5.35705e-06
  152 6253.36 0.00000 1.06275e-06
  153 6253.36 0.00000 -1.28004e-07
  154 6253.36 0.00000 -4.08871e-08
  155 6253.36 0.00000 -9.79146e-07
  156 6253.36 0.00000 4.53416e-07
  157 6253.36 0.00000 2.57522e-06
  158 6253.36 0.00000 -2.99655e-07
  159 6253.36 0.00000 5.12009e-07
  160 6253.36 0.00000 1.71140e-07
  161 6253.36 0.00000 -1.32618e-07
  162 6253.36 0.00000 2.11180e-06
  163 6253.36 0.00000 -3.21485e-07
  164 6253.36 0.00000 2.09172e-06
  165 6253.36 0.00000 -7.94785e-06
  166 6253.36 0.00000 2.61073e-06
  167 6253.36 0.00000 4.44379e-07
  168 6253.36 0.00000 -6.23916e-07
  169 6253.36 0.00000 -2.90147e-06
  170 6253.36 0.00000 -1.54867e-06
  171 6253.36 0.00000 -1.13665e-05
  172 6253.36 0.00000 -4.77727e-06
  173 6253.36 0.00000 1.44602e-05
  174 6253.36 0.00000 8.50531e-07
  175 6253.36 0.00000 4.26647e-06
  176 6253.36 0.00000 -4.42355e-06
  177 6253.36 0.00000 -8.54438e-07
  178 6253.36 0.00000 1.26279e-06
  179 6253.36 0.00000 -1.44532e-05
  180 6253.36 0.00000 -1.36941e-06
  181 6253.36 0.00000 4.24314e-07
  182 6253.36 0.00000 -2.10727e-06
  183 6253.36 0.00000 9.29241e-06
  184 6253.36 0.00000 2.45561e-06
  185 6253.36 0.00000 -7.74739e-06
  186 6253.36 0.00000 -2.65512e-06
  187 6253.36 0.00000 -1.73154e-06
  188 6253.36 0.00000 -2.94056e-08
  189 6253.36 0.00000 -3.82564e-06
  190 6253.36 0.00000 1.00288e-05
  191 6253.36 0.00000 3.59270e-06
  192 6253.36 0.00000 1.94385e-06
  193 6253.36 0.00000 -3.54404e-06
  194 6253.36 0.00000 8.38436e-07
  195 6253.36 0.00000 4.72233e-06
  196 6253.36 0.00000 -1.09986e-06
  197 6253.36 0.00000 -4.24166e-06
  198 6253.36 0.00000 3.56753e-06
  199 6253.36 0.00000 2.74587e-06
  200 6253.36 0.00000 -5.93199e-08
  201 6253.36 0.00000 3.47655e-06
  202 6253.36 0.00000 -1.28035e-06
  203 6253.36 0.00000 -8.14013e-06
  204 6253.36 0.00000 -2.41596e-06
  205 6253.36 0.00000 -3.53546e-06
  206 6253.36 0.00000 3.00574e-06
  207 6253.36 0.00000 1.40874e-05
  208 6253.36 0.00000 -3.77988e-06
  209 6253.36 0.00000 1.82080e-06
  210 6253.36 0.00000 8.98019e-06
  211 6253.36 0.00000 -9.63180e-06
  212 6253.36 0.00000 1.69477e-06
  213 6253.36 0.00000 8.34698e-06
  214 6253.36 0.00000 1.09599e-05
  215 6253.36 0.00000 -6.93773e-07
  216 6253.36 0.00000 7.59877e-06
  217 6253.36 0.00000 2.11493e-06
  218 6253.36 0.00000 9.70962e-06
  219 6253.36 0.00000 6.18514e-07
  220 6253.36 0.00000 7.55429e-06
  221 6253.36 0.00000 -4.98465e-07
  222 6253.36 0.00000 6.86559e-07
  223 6253.36 0.00000 -1.44006e-05
  224 6253.36 0.00000 -1.21346e-05
  225 6253.36 0.00000 3.05605e-06
  226 6253.36 0.00000 -4.86432e-06
  227 6253.36 0.00000 -1.30125e-06
  228 6253.36 0.00000 3.18518e-06
  229 6253.36 0.00000 -2.04244e-06
  230 6253.36 0.00000 -6.53211e-07
  231 6253.36 0.00000 9.73838e-07
  232 6253.36 0.00000 4.04241e-06
  233 6253.36 0.00000 8.38160e-07
  234 6253.36 0.00000 7.68360e-06
  235 6253.36 0.00000 4.80536e-06
  236 6253.36 0.00000 -8.18563e-06
  237 6253.36 0.00000 -3.92162e-06
  238 6253.36 0.00000 -2.81973e-06
  239 6253.36 0.00000 1.02866e-06
  240 6253.36 0.00000 -9.35573e-06
  241 6253.36 0.00000 1.22215e-06
</Section>

newXOutput 142

<Section columns = "stress_xx | stress_yy | stress_xy">
  1 6316.90 0.00000 3.50036e-06
  2 6316.90 0.00000 -8.04209e-07
  3 6316.90 0.00000 6.55365e-07
  4 6316.90 0.00000 -3.83161e-06
  5 6316.90 0.00000 8.40858e-06
  6 6316.90 0.00000 1.47062e-05
  7 6316.90 0.00000 1.93733e-05
  8 6316.90 0.00000 2.27284e-05
  9 6316.90 0.00000 2.30002e-05
  10 6316.90 0.00000 2.20974e-05
  11 6316.90 0.00000 1.96136e-05
  12 6316.90 0.00000 1.57282e-05
  13 6316.90 0.00000 1.06079e-05
  14 6316.90 0.00000 5.99437e-06
  15 6316.90 0.00000 1.21195e-06
  16 6316.90 0.00000 -2.34186e-06
  17 6316.90 0.00000 -4.08291e-06
  18 6316.90 0.00000 -5.18320e-06
  19 6316.90 0.00000 -5.40882e-06
  20 6316.90 0.00000 -4.75494e-06
  21 6316.90 0.00000 -4.17203e-06
  22 6316.90 0.00000 -3.16404e-06
  23 6316.90 0.00000 -1.77763e-06
  24 6316.90 0.00000 -5.23321e-07
  25 6316.90 0.00000 -3.16345e-07
  26 6316.90 0.00000 -1.15685e-07
  27 6316.90 0.00000 2.15364e-07
  28 6316.90 0.00000 4.49718e-07
  29 6316.90 0.00000 4.36782e-07
  30 6316.90 0.00000 5.01253e-07
  31 6316.90 0.00000 1.54551e-06
  32 6316.90 0.00000 2.58922e-06
  33 6316.90 0.00000 3.61453e-06
  34 6316.90 0.00000 5.29785e-06
  35 6316.90 0.00000 5.42140e-06
  36 6316.90 0.00000 5.19902e-06
  37 6316.90 0.00000 3.88911e-06
  38 6316.90 0.00000 1.74775e-06
  39 6316.90 0.00000 -1.50787e-06
  40 6316.90 0.00000 -5.53379e-06
  41 6316.90 0.00000 -9.83408e-06
  42 6316.90 0.00000 -1.50710e-05
  43 6316.90 0.00000 -1.91897e-05
  44 6316.90 0.00000 -2.23784e-05
  45 6316.90 0.00000 -2.39298e-05
  46 6316.90 0.00000 -2.19484e-05
  47 6316.90 0.00000 -1.95926e-05
  48 6316.90 0.00000 -1.51704e-05
  49 6316.90 0.00000 -8.54441e-06
  50 6316.90 0.00000 -2.67773e-06
  51 6316.90 0.00000 -1.89418e-06
  52 6316.90 0.00000 -1.23439e-06
  53 6316.90 0.00000 2.47735e-07
  54 6316.90 0.00000 1.70306e-06
  55 6316.90 0.00000 2.11465e-06
  56 6316.90 0.00000 2.53376e-06
  57 6316.90 0.00000 1.43298e-07
  58 6316.90 0.00000 -2.13750e-07
  59 6316.90 0.00000 -2.76739e-07
  60 6316.90 0.00000 1.14547e-06
  61 6316.90 0.00000 6.56890e-06
  62 6316.90 0.00000 -7.76623e-06
  63 6316.90 0.00000 -1.65047e-06
  64 6316.90 0.00000 -1.63314e-06
  65 6316.90 0.00000 -8.10225e-06
  66 6316.90 0.00000 6.40217e-06
  67 6316.90 0.00000 1.45253e-06
  68 6316.90 0.00000 5.18889e-07
  69 6316.90 0.00000 2.91763e-06
  70 6316.90 0.00000 -1.93305e-06
  71 6316.90 0.00000 1.11493e-05
  72 6316.90 0.00000 6.09119e-06
  73 6316.90 0.00000 -2.90068e-06
  74 6316.90 0.00000 -1.26199e-05
  75 6316.90 0.00000 -7.28640e-06
  76 6316.90 0.00000 2.49338e-07
  77 6316.90 0.00000 -1.72207e-07
  78 6316.90 0.00000 3.59501e-06
  79 6316.90 0.00000 -6.29972e-07
  80 6316.90 0.00000 1.66097e-07
  81 6316.90 0.00000 4.90947e-08
  82 6316.90 0.00000 2.21473e-06
  83 6316.90 0.00000 4.53734e-07
  84 6316.90 0.00000 1.49029e-05
  85 6316.90 0.00000 -2.27692e-06
  86 6316.90 0.00000 -1.77333e-06
  87 6316.90 0.00000 -9.04399e-06
  88 6316.90 0.00000 1.82123e-06
  89 6316.90 0.00000 7.83667e-06
  90 6316.90 0.00000 1.58558e-05
  91 6316.90 0.00000 -1.44349e-05
  92 6316.90 0.00000 -2.07600e-06
  93 6316.90 0.00000 -5.11790e-07
  94 6316.90 0.00000 -3.73783e-06
  95 6316.90 0.00000 -1.33211e-05
  96 6316.90 0.00000 -3.40811e-07
  97 6316.90 0.00000 -3.49127e-06
  98 6316.90 0.00000 -1.64357e-05
  99 6316.90 0.00000 3.52317e-06
  100 6316.90 0.00000 6.88033e-06
  101 6316.90 0.00000 1.07552e-05
  102 6316.90 0.00000 -1.80541e-06
  103 6316.90 0.00000 1.23927e-06
  104 6316.90 0.00000 -7.11943e-06
  105 6316.90 0.00000 -5.43915e-06
  106 6316.90 0.00000 1.31484e-06
  107 6316.90 0.00000 -2.68510e-07
  108 6316.90 0.00000 -2.35694e-06
  109 6316.90 0.00000 2.98700e-06
  110 6316.90 0.00000 7.89514e-07
  111 6316.90 0.00000 2.49749e-06
  112 6316.90 0.00000 -2.36497e-06
  113 6316.90 0.00000 3.78587e-07
  114 6316.90 0.00000 3.82838e-06
  115 6316.90 0.00000 3.25155e-06
  116 6316.90 0.00000 1.65868e-05
  117 6316.90 0.00000 -1.90383e-06
  118 6316.90 0.00000 -8.17585e-06
  119 6316.90 0.00000 1.20169e-06
  120 6316.90 0.00000 4.25351e-06
  121 6316.90 0.00000 4.94830e-06
  122 6316.90 0.00000 2.81306e-07
  123 6316.90 0.00000 2.42606e-06
  124 6316.90 0.00000 1.00499e-06
  125 6316.90 0.00000 -6.02689e-06
  126 6316.90 0.00000 1.82711e-05
  127 6316.90 0.00000 -1.04787e-06
  128 6316.90 0.00000 -4.28953e-06
  129 6316.90 0.00000 -1.88524e-05
  130 6316.90 0.00000 -7.36324e-07
  131 6316.90 0.00000 9.00527e-06
  132 6316.90 0.00000 -1.00063e-05
  133 6316.90 0.00000 -3.93313e-06
  134 6316.90 0.00000 1.10464e-05
  135 6316.90 0.00000 -3.26087e-06
  136 6316.90 0.00000 -1.56934e-05
  137 6316.90 0.00000 2.40902e-06
  138 6316.90 0.00000 -2.28581e-06
  139 6316.90 0.00000 1.85006e-06
  140 6316.90 0.00000 3.57473e-07
  141 6316.90 0.00000 1.78655e-06
  142 6316.90 0.00000 2.01748e-05
  143 6316.90 0.00000 -6.19367e-06
  144 6316.90 0.00000 6.89144e-07
  145 6316.90 0.00000 4.28681e-06
  146 6316.90 0.00000 -1.77667e-05
  147 6316.90 0.00000 -3.44393e-06
  148 6316.90 0.00000 9.80378e-07
  149 6316.90 0.00000 4.51811e-07
  150 6316.90 0.00000 2.28299e-06
  151 6316.90 0.00000 7.33355e-06
  152 6316.90 0.00000 -1.40453e-06
  153 6316.90 0.00000 2.22358e-07
  154 6316.90 0.00000 7.04901e-08
  155 6316.90 0.00000 1.27471e-06
  156 6316.90 0.00000 -6.22034e-07
  157 6316.90 0.00000 -3.44927e-06
  158 6316.90 0.00000 3.80263e-07
  159 6316.90 0.00000 -6.70625e-07
  160 6316.90 0.00000 -2.30398e-07
  161 6316.90 0.00000 1.63860e-07
  162 6316.90 0.00000 -2.86758e-06
  163 6316.90 0.00000 4.07393e-07
  164 6316.90 0.00000 -2.75648e-06
  165 6316.90 0.00000 1.07013e-05
  166 6316.90 0.00000 -3.50125e-06
  167 6316.90 0.00000 -6.11057e-07
  168 6316.90 0.00000 8.44679e-07
  169 6316.90 0.00000 3.88960e-06
  170 6316.90 0.00000 2.09234e-06
  171 6316.90 0.00000 1.54929e-05
  172 6316.90 0.00000 6.71965e-06
  173 6316.90 0.00000 -1.95480e-05
  174 6316.90 0.00000 -1.15273e-06
  175 6316.90 0.00000 -5.72033e-06
  176 6316.90 0.00000 5.92878e-06
  177 6316.90 0.00000 1.16421e-06
  178 6316.90 0.00000 -1.72421e-06
  179 6316.90 0.00000 1.94367e-05
  180 6316.90 0.00000 1.84353e-06
  181 6316.90 0.00000 -5.54161e-07
  182 6316.90 0.00000 2.63869e-06
  183 6316.90 0.00000 -1.26160e-05
  184 6316.90 0.00000 -3.08901e-06
  185 6316.90 0.00000 1.04064e-05
  186 6316.90 0.00000 3.86489e-06
  187 6316.90 0.00000 2.35784e-06
  188 6316.90 0.00000 6.95531e-08
  189 6316.90 0.00000 5.17332e-06
  190 6316.90 0.00000 -1.35430e-05
  191 6316.90 0.00000 -4.87210e-06
  192 6316.90 0.00000 -2.51562e-06
  193 6316.90 0.00000 4.67994e-06
  194 6316.90 0.00000 -1.14695e-06
  195 6316.90 0.00000 -6.33129e-06
  196 6316.90 0.00000 1.48255e-06
  197 6316.90 0.00000 5.69026e-06
  198 6316.90 0.00000 -4.71686e-06
  199 6316.90 0.00000 -3.69144e-06
  200 6316.90 0.00000 9.27297e-08
  201 6316.90 0.00000 -4.85852e-06
  202 6316.90 0.00000 1.60286e-06
  203 6316.90 0.00000 1.10783e-05
  204 6316.90 0.00000 3.42572e-06
  205 6316.90 0.00000 4.76615e-06
  206 6316.90 0.00000 -4.05149e-06
  207 6316.90 0.00000 -1.89481e-05
  208 6316.90 0.00000 5.05674e-06
  209 6316.90 0.00000 -2.46163e-06
  210 6316.90 0.00000 -1.20509e-05
  211 6316.90 0.00000 1.29222e-05
  212 6316.90 0.00000 -2.29310e-06
  213 6316.90 0.00000 -1.11965e-05
  214 6316.90 0.00000 -1.49662e-05
  215 6316.90 0.00000 9.42511e-07
  216 6316.90 0.00000 -1.03459e-05
  217 6316.90 0.00000 -2.84186e-06
  218 6316.90 0.00000 -1.30520e-05
  219 6316.90 0.00000 -6.49939e-07
  220 6316.90 0.00000 -1.02301e-05
  221 6316.90 0.00000 7.48374e-07
  222 6316.90 0.00000 -9.10853e-07
  223 6316.90 0.00000 1.95450e-05
  224 6316.90 0.00000 1.63981e-05
  225 6316.90 0.00000 -4.05131e-06
  226 6316.90 0.00000 6.53060e-06
  227 6316.90 0.00000 1.91090e-06
  228 6316.90 0.00000 -4.39122e-06
  229 6316.90 0.00000 2.74158e-06
  230 6316.90 0.00000 8.71269e-07
  231 6316.90 0.00000 -1.24942e-06
  232 6316.90 0.00000 -5.42369e-06
  233 6316.90 0.00000 -1.12950e-06
  234 6316.90 0.00000 -1.05091e-05
  235 6316.90 0.00000 -6.76527e-06
  236 6316.90 0.00000 1.09838e-05
  237 6316.90 0.00000 5.51067e-06
  238 6316.90 0.00000 3.85717e-06
  239 6316.90 0.00000 -1.35310e-06
  240 6316.90 0.00000 1.28374e-05
  241 6316.90 0.00000 -1.39796e-06
</Section>

newXOutput 143

<Section columns = "stress_xx | stress_yy | stress_xy">
  1 6380.71 0.00000 -4.70288e-06
  2 6380.71 0.00000 1.08636e-06
  3 6380.71 0.00000 -8.98516e-07
  4 6380.71 0.00000 5.14545e-06
  5 6380.71 0.00000 -1.13154e-05
  6 6380.71 0.00000 -1.98073e-05
  7 6380.71 0.00000 -2.61079e-05
  8 6380.71 0.00000 -3.06932e-05
  9 6380.71 0.00000 -3.11597e-05
  10 6380.71 0.00000 -3.00429e-05
  11 6380.71 0.00000 -2.67679e-05
  12 6380.71 0.00000 -2.15899e-05
  13 6380.71 0.00000 -1.47217e-05
  14 6380.71 0.00000 -8.53302e-06
  15 6380.71 0.00000 -2.04329e-06
  16 6380.71 0.00000 2.80137e-06
  17 6380.71 0.00000 5.23574e-06
  18 6380.71 0.00000 6.81516e-06
  19 6380.71 0.00000 7.21252e-06
  20 6380.71 0.00000 6.40221e-06
  21 6380.71 0.00000 5.63876e-06
  22 6380.71 0.00000 4.28276e-06
  23 6380.71 0.00000 2.40639e-06
  24 6380.71 0.00000 7.12415e-07
  25 6380.71 0.00000 4.38207e-07
  26 6380.71 0.00000 1.71530e-07
  27 6380.71 0.00000 -2.76497e-07
  28 6380.71 0.00000 -6.01478e-07
  29 6380.71 0.00000 -5.94058e-07
  30 6380.71 0.00000 -6.83697e-07
  31 6380.71 0.00000 -2.11922e-06
  32 6380.71 0.00000 -3.53599e-06
  33 6380.71 0.00000 -4.89450e-06
  34 6380.71 0.00000 -7.11209e-06
  35 6380.71 0.00000 -7.21901e-06
  36 6380.71 0.00000 -6.83549e-06
  37 6380.71 0.00000 -4.98288e-06
  38 6380.71 0.00000 -2.01302e-06
  39 6380.71 0.00000 2.44949e-06
  40 6380.71 0.00000 7.90884e-06
  41 6380.71 0.00000 1.37035e-05
  42 6380.71 0.00000 2.07232e-05
  43 6380.71 0.00000 2.62005e-05
  44 6380.71 0.00000 3.04016e-05
  45 6380.71 0.00000 3.23868e-05
  46 6380.71 0.00000 2.96443e-05
  47 6380.71 0.00000 2.64227e-05
  48 6380.71 0.00000 2.04265e-05
  49 6380.71 0.00000 1.14953e-05
  50 6380.71 0.00000 3.59933e-06
  51 6380.71 0.00000 2.54933e-06
  52 6380.71 0.00000 1.66124e-06
  53 6380.71 0.00000 -3.31014e-07
  54 6380.71 0.00000 -2.28970e-06
  55 6380.71 0.00000 -2.84504e-06
  56 6380.71 0.00000 -3.40670e-06
  57 6380.71 0.00000 -1.87011e-07
  58 6380.71 0.00000 2.66792e-07
  59 6380.71 0.00000 3.66532e-07
  60 6380.71 0.00000 -1.44611e-06
  61 6380.71 0.00000 -8.95729e-06
  62 6380.71 0.00000 1.05824e-05
  63 6380.71 0.00000 2.15977e-06
  64 6380.71 0.00000 2.21382e-06
  65 6380.71 0.00000 1.09088e-05
  66 6380.71 0.00000 -8.62070e-06
  67 6380.71 0.00000 -1.96420e-06
  68 6380.71 0.00000 -8.87689e-07
  69 6380.71 0.00000 -3.85625e-06
  70 6380.71 0.00000 2.84926e-06
  71 6380.71 0.00000 -1.50903e-05
  72 6380.71 0.00000 -8.46053e-06
  73 6380.71 0.00000 3.86293e-06
  74 6380.71 0.00000 1.70517e-05
  75 6380.71 0.00000 1.00564e-05
  76 6380.71 0.00000 -3.15579e-07
  77 6380.71 0.00000 2.26891e-07
  78 6380.71 0.00000 -4.83463e-06
  79 6380.71 0.00000 8.40617e-07
  80 6380.71 0.00000 -2.17274e-07
  81 6380.71 0.00000 -6.31816e-08
  82 6380.71 0.00000 -2.76410e-06
  83 6380.71 0.00000 -6.03226e-07
  84 6380.71 0.00000 -2.00976e-05
  85 6380.71 0.00000 2.82786e-06
  86 6380.71 0.00000 2.41234e-06
  87 6380.71 0.00000 1.21686e-05
  88 6380.71 0.00000 -2.47456e-06
  89 6380.71 0.00000 -1.05433e-05
  90 6380.71 0.00000 -2.15670e-05
  91 6380.71 0.00000 1.96123e-05
  92 6380.71 0.00000 2.78944e-06
  93 6380.71 0.00000 6.85345e-07
  94 6380.71 0.00000 4.92167e-06
  95 6380.71 0.00000 1.81981e-05
  96 6380.71 0.00000 4.18279e-07
  97 6380.71 0.00000 4.71178e-06
  98 6380.71 0.00000 2.21623e-05
  99 6380.71 0.00000 -5.07635e-06
  100 6380.71 0.00000 -9.28188e-06
  101 6380.71 0.00000 -1.47794e-05
  102 6380.71 0.00000 2.38877e-06
  103 6380.71 0.00000 -1.68122e-06
  104 6380.71 0.00000 9.66323e-06
  105 6380.71 0.00000 7.67793e-06
  106 6380.71 0.00000 -1.89696e-06
  107 6380.71 0.00000 3.83264e-07
  108 6380.71 0.00000 3.16833e-06
  109 6380.71 0.00000 -4.01612e-06
  110 6380.71 0.00000 -1.05743e-06
  111 6380.71 0.00000 -3.38452e-06
  112 6380.71 0.00000 3.32084e-06
  113 6380.71 0.00000 -1.90283e-07
  114 6380.71 0.00000 -4.97283e-06
  115 6380.71 0.00000 -4.50403e-06
  116 6380.71 0.00000 -2.23434e-05
  117 6380.71 0.00000 2.55316e-06
  118 6380.71 0.00000 1.10292e-05
  119 6380.71 0.00000 -1.93768e-06
  120 6380.71 0.00000 -5.67755e-06
  121 6380.71 0.00000 -6.68547e-06
  122 6380.71 0.00000 -2.54378e-07
  123 6380.71 0.00000 -3.13235e-06
  124 6380.71 0.00000 -1.34386e-06
  125 6380.71 0.00000 8.25181e-06
  126 6380.71 0.00000 -2.47082e-05
  127 6380.71 0.00000 1.25318e-06
  128 6380.71 0.00000 5.74647e-06
  129 6380.71 0.00000 2.54742e-05
  130 6380.71 0.00000 1.08123e-06
  131 6380.71 0.00000 -1.24922e-05
  132 6380.71 0.00000 1.38495e-05
  133 6380.71 0.00000 5.10670e-06
  134 6380.71 0.00000 -1.49893e-05
  135 6380.71 0.00000 4.41228e-06
  136 6380.71 0.00000 2.11363e-05
  137 6380.71 0.00000 -3.23566e-06
  138 6380.71 0.00000 3.13912e-06
  139 6380.71 0.00000 -2.49595e-06
  140 6380.71 0.00000 -4.80860e-07
  141 6380.71 0.00000 -2.44034e-06
  142 6380.71 0.00000 -2.73824e-05
  143 6380.71 0.00000 8.38919e-06
  144 6380.71 0.00000 -7.09037e-07
  145 6380.71 0.00000 -5.77455e-06
  146 6380.71 0.00000 2.41954e-05
  147 6380.71 0.00000 5.03062e-06
  148 6380.71 0.00000 -1.31798e-06
  149 6380.71 0.00000 -5.92906e-07
  150 6380.71 0.00000 -3.21847e-06
  151 6380.71 0.00000 -1.00676e-05
  152 6380.71 0.00000 1.86035e-06
  153 6380.71 0.00000 -3.70049e-07
  154 6380.71 0.00000 -1.16189e-07
  155 6380.71 0.00000 -1.66086e-06
  156 6380.71 0.00000 8.53600e-07
  157 6380.71 0.00000 4.63494e-06
  158 6380.71 0.00000 -4.82964e-07
  159 6380.71 0.00000 8.77739e-07
  160 6380.71 0.00000 3.11224e-07
  161 6380.71 0.00000 -2.02622e-07
  162 6380.71 0.00000 3.90589e-06
  163 6380.71 0.00000 -5.16344e-07
  164 6380.71 0.00000 3.63665e-06
  165 6380.71 0.00000 -1.44545e-05
  166 6380.71 0.00000 4.71067e-06
  167 6380.71 0.00000 8.40634e-07
  168 6380.71 0.00000 -1.14560e-06
  169 6380.71 0.00000 -5.23103e-06
  170 6380.71 0.00000 -2.83027e-06
  171 6380.71 0.00000 -2.11800e-05
  172 6380.71 0.00000 -9.46656e-06
  173 6380.71 0.00000 2.65080e-05
  174 6380.71 0.00000 1.56499e-06
  175 6380.71 0.00000 7.69424e-06
  176 6380.71 0.00000 -7.97186e-06
  177 6380.71 0.00000 -1.58809e-06
  178 6380.71 0.00000 2.36053e-06
  179 6380.71 0.00000 -2.62218e-05
  180 6380.71 0.00000 -2.48984e-06
  181 6380.71 0.00000 7.25257e-07
  182 6380.71 0.00000 -3.28784e-06
  183 6380.71 0.00000 1.71807e-05
  184 6380.71 0.00000 3.87032e-06
  185 6380.71 0.00000 -1.40227e-05
  186 6380.71 0.00000 -5.61604e-06
  187 6380.71 0.00000 -3.21432e-06
  188 6380.71 0.00000 -1.33775e-07
  189 6380.71 0.00000 -7.01746e-06
  190 6380.71 0.00000 1.83455e-05
  191 6380.71 0.00000 6.62710e-06
  192 6380.71 0.00000 3.25416e-06
  193 6380.71 0.00000 -6.18753e-06
  194 6380.71 0.00000 1.57016e-06
  195 6380.71 0.00000 8.51578e-06
  196 6380.71 0.00000 -2.00224e-06
  197 6380.71 0.00000 -7.65807e-06
  198 6380.71 0.00000 6.24413e-06
  199 6380.71 0.00000 4.97818e-06
  200 6380.71 0.00000 -1.40994e-07
  201 6380.71 0.00000 6.80338e-06
  202 6380.71 0.00000 -1.99805e-06
  203 6380.71 0.00000 -1.51222e-05
  204 6380.71 0.00000 -4.86115e-06
  205 6380.71 0.00000 -6.44594e-06
  206 6380.71 0.00000 5.46921e-06
  207 6380.71 0.00000 2.55668e-05
  208 6380.71 0.00000 -6.77595e-06
  209 6380.71 0.00000 3.33292e-06
  210 6380.71 0.00000 1.62232e-05
  211 6380.71 0.00000 -1.73922e-05
  212 6380.71 0.00000 3.10799e-06
  213 6380.71 0.00000 1.50669e-05
  214 6380.71 0.00000 2.04970e-05
  215 6380.71 0.00000 -1.28054e-06
  216 6380.71 0.00000 1.41286e-05
  217 6380.71 0.00000 3.82486e-06
  218 6380.71 0.00000 1.76006e-05
  219 6380.71 0.00000 6.25621e-07
  220 6380.71 0.00000 1.38963e-05
  221 6380.71 0.00000 -1.11650e-06
  222 6380.71 0.00000 1.21137e-06
  223 6380.71 0.00000 -2.66080e-05
  224 6380.71 0.00000 -2.22286e-05
  225 6380.71 0.00000 5.37852e-06
  226 6380.71 0.00000 -8.79561e-06
  227 6380.71 0.00000 -2.79778e-06
  228 6380.71 0.00000 6.07073e-06
  229 6380.71 0.00000 -3.69174e-06
  230 6380.71 0.00000 -1.16513e-06
  231 6380.71 0.00000 1.59991e-06
  232 6380.71 0.00000 7.30004e-06
  233 6380.71 0.00000 1.52458e-06
  234 6380.71 0.00000 1.44155e-05
  235 6380.71 0.00000 9.53892e-06
  236 6380.71 0.00000 -1.47856e-05
  237 6380.71 0.00000 -7.75552e-06
  238 6380.71 0.00000 -5.29113e-06
  239 6380.71 0.00000 1.78154e-06
  240 6380.71 0.00000 -1.76642e-05
  241 6380.71 0.00000 1.54671e-06
</Section>

newXOutput 144

<Section columns = "stress_xx | stress_yy | stress_xy">
  1 6444.79 0.00000 6.33914e-06
  2 6444.79 0.00000 -1.47044e-06
  3 6444.79 0.00000 1.23269e-06
  4 6444.79 0.00000 -6.93229e-06
  5 6444.79 0.00000 1.52762e-05
  6 6444.79 0.00000 2.67636e-05
  7 6444.79 0.00000 3.52968e-05
  8 6444.79 0.00000 4.15811e-05
  9 6444.79 0.00000 4.23463e-05
  10 6444.79 0.00000 4.09716e-05
  11 6444.79 0.00000 3.66426e-05
  12 6444.79 0.00000 2.97224e-05
  13 6444.79 0.00000 2.04830e-05
  14 6444.79 0.00000 1.21589e-05
  15 6444.79 0.00000 3.32764e-06
  16 6444.79 0.00000 -3.29400e-06
  17 6444.79 0.00000 -6.70314e-06
  18 6444.79 0.00000 -8.96793e-06
  19 6444.79 0.00000 -9.63005e-06
  20 6444.79 0.00000 -8.63225e-06
  21 6444.79 0.00000 -7.63295e-06
  22 6444.79 0.00000 -5.80700e-06
  23 6444.79 0.00000 -3.26360e-06
  24 6444.79 0.00000 -9.71340e-07
  25 6444.79 0.00000 -6.07001e-07
  26 6444.79 0.00000 -2.51417e-07
  27 6444.79 0.00000 3.56148e-07
  28 6444.79 0.00000 8.06710e-07
  29 6444.79 0.00000 8.09426e-07
  30 6444.79 0.00000 9.33761e-07
  31 6444.79 0.00000 2.90801e-06
  32 6444.79 0.00000 4.83408e-06
  33 6444.79 0.00000 6.63736e-06
  34 6444.79 0.00000 9.56311e-06
  35 6444.79 0.00000 9.62654e-06
  36 6444.79 0.00000 8.99375e-06
  37 6444.79 0.00000 6.37171e-06
  38 6444.79 0.00000 2.24541e-06
  39 6444.79 0.00000 -3.88617e-06
  40 6444.79 0.00000 -1.13100e-05
  41 6444.79 0.00000 -1.91402e-05
  42 6444.79 0.00000 -2.85767e-05
  43 6444.79 0.00000 -3.58812e-05
  44 6444.79 0.00000 -4.14300e-05
  45 6444.79 0.00000 -4.39711e-05
  46 6444.79 0.00000 -4.01660e-05
  47 6444.79 0.00000 -3.57477e-05
  48 6444.79 0.00000 -2.75918e-05
  49 6444.79 0.00000 -1.55152e-05
  50 6444.79 0.00000 -4.85385e-06
  51 6444.79 0.00000 -3.44221e-06
  52 6444.79 0.00000 -2.24301e-06
  53 6444.79 0.00000 4.43638e-07
  54 6444.79 0.00000 3.08829e-06
  55 6444.79 0.00000 3.84008e-06
  56 6444.79 0.00000 4.59529e-06
  57 6444.79 0.00000 2.45110e-07
  58 6444.79 0.00000 -3.33890e-07
  59 6444.79 0.00000 -4.87431e-07
  60 6444.79 0.00000 1.82033e-06
  61 6444.79 0.00000 1.22511e-05
  62 6444.79 0.00000 -1.44641e-05
  63 6444.79 0.00000 -2.82602e-06
  64 6444.79 0.00000 -3.00507e-06
  65 6444.79 0.00000 -1.47347e-05
  66 6444.79 0.00000 1.16453e-05
  67 6444.79 0.00000 2.66025e-06
  68 6444.79 0.00000 1.46042e-06
  69 6444.79 0.00000 5.10196e-06
  70 6444.79 0.00000 -4.18674e-06
  71 6444.79 0.00000 2.04891e-05
  72 6444.79 0.00000 1.17798e-05
  73 6444.79 0.00000 -5.15292e-06
  74 6444.79 0.00000 -2.31132e-05
  75 6444.79 0.00000 -1.39179e-05
  76 6444.79 0.00000 4.00336e-07
  77 6444.79 0.00000 -3.00037e-07
  78 6444.79 0.00000 6.51137e-06
  79 6444.79 0.00000 -1.12573e-06
  80 6444.79 0.00000 2.85090e-07
  81 6444.79 0.00000 8.18059e-08
  82 6444.79 0.00000 3.42942e-06
  83 6444.79 0.00000 8.04550e-07
  84 6444.79 0.00000 2.71899e-05
  85 6444.79 0.00000 -3.48698e-06
  86 6444.79 0.00000 -3.28622e-06
  87 6444.79 0.00000 -1.64256e-05
  88 6444.79 0.00000 3.36715e-06
  89 6444.79 0.00000 1.42307e-05
  90 6444.79 0.00000 2.94257e-05
  91 6444.79 0.00000 -2.67292e-05
  92 6444.79 0.00000 -3.76009e-06
  93 6444.79 0.00000 -9.19581e-07
  94 6444.79 0.00000 -6.48580e-06
  95 6444.79 0.00000 -2.49357e-05
  96 6444.79 0.00000 -5.06296e-07
  97 6444.79 0.00000 -6.36857e-06
  98 6444.79 0.00000 -2.99796e-05
  99 6444.79 0.00000 7.31213e-06
  100 6444.79 0.00000 1.25619e-05
  101 6444.79 0.00000 2.03672e-05
  102 6444.79 0.00000 -3.16564e-06
  103 6444.79 0.00000 2.28270e-06
  104 6444.79 0.00000 -1.31564e-05
  105 6444.79 0.00000 -1.08552e-05
  106 6444.79 0.00000 2.73501e-06
  107 6444.79 0.00000 -5.44670e-07
  108 6444.79 0.00000 -4.27301e-06
  109 6444.79 0.00000 5.41723e-06
  110 6444.79 0.00000 1.41995e-06
  111 6444.79 0.00000 4.59293e-06
  112 6444.79 0.00000 -4.67246e-06
  113 6444.79 0.00000 -1.84875e-07
  114 6444.79 0.00000 6.45826e-06
  115 6444.79 0.00000 6.25418e-06
  116 6444.79 0.00000 3.01948e-05
  117 6444.79 0.00000 -3.43015e-06
  118 6444.79 0.00000 -1.49256e-05
  119 6444.79 0.00000 3.05811e-06
  120 6444.79 0.00000 7.58888e-06
  121 6444.79 0.00000 9.06155e-06
  122 6444.79 0.00000 1.72294e-07
  123 6444.79 0.00000 4.04236e-06
  124 6444.79 0.00000 1.79832e-06
  125 6444.79 0.00000 -1.13323e-05
  126 6444.79 0.00000 3.35191e-05
  127 6444.79 0.00000 -1.47205e-06
  128 6444.79 0.00000 -7.70951e-06
  129 6444.79 0.00000 -3.45313e-05
  130 6444.79 0.00000 -1.58351e-06
  131 6444.79 0.00000 1.73731e-05
  132 6444.79 0.00000 -1.92194e-05
  133 6444.79 0.00000 -6.62854e-06
  134 6444.79 0.00000 2.04029e-05
  135 6444.79 0.00000 -5.97962e-06
  136 6444.79 0.00000 -2.85582e-05
  137 6444.79 0.00000 4.35115e-06
  138 6444.79 0.00000 -4.32461e-06
  139 6444.79 0.00000 3.37799e-06
  140 6444.79 0.00000 6.48018e-07
  141 6444.79 0.00000 3.34314e-06
  142 6444.79 0.00000 3.72808e-05
  143 6444.79 0.00000 -1.13984e-05
  144 6444.79 0.00000 6.55037e-07
  145 6444.79 0.00000 7.79070e-06
  146 6444.79 0.00000 -3.30514e-05
  147 6444.79 0.00000 -7.33497e-06
  148 6444.79 0.00000 1.77748e-06
  149 6444.79 0.00000 7.80688e-07
  150 6444.79 0.00000 4.54320e-06
  151 6444.79 0.00000 1.38606e-05
  152 6444.79 0.00000 -2.46936e-06
  153 6444.79 0.00000 5.98751e-07
  154 6444.79 0.00000 1.86066e-07
  155 6444.79 0.00000 2.16521e-06
  156 6444.79 0.00000 -1.17185e-06
  157 6444.79 0.00000 -6.24845e-06
  158 6444.79 0.00000 6.13720e-07
  159 6444.79 0.00000 -1.14763e-06
  160 6444.79 0.00000 -4.21836e-07
  161 6444.79 0.00000 2.50724e-07
  162 6444.79 0.00000 -5.33673e-06
  163 6444.79 0.00000 6.54266e-07
  164 6444.79 0.00000 -4.80271e-06
  165 6444.79 0.00000 1.95867e-05
  166 6444.79 0.00000 -6.35844e-06
  167 6444.79 0.00000 -1.15714e-06
  168 6444.79 0.00000 1.55649e-06
  169 6444.79 0.00000 7.05785e-06
  170 6444.79 0.00000 3.83312e-06
  171 6444.79 0.00000 2.90415e-05
  172 6444.79 0.00000 1.33591e-05
  173 6444.79 0.00000 -3.60587e-05
  174 6444.79 0.00000 -2.12828e-06
  175 6444.79 0.00000 -1.03827e-05
  176 6444.79 0.00000 1.07538e-05
  177 6444.79 0.00000 2.16886e-06
  178 6444.79 0.00000 -3.24052e-06
  179 6444.79 0.00000 3.54887e-05
  180 6444.79 0.00000 3.37369e-06
  181 6444.79 0.00000 -9.51054e-07
  182 6444.79 0.00000 4.06986e-06
  183 6444.79 0.00000 -2.34689e-05
  184 6444.79 0.00000 -4.82353e-06
  185 6444.79 0.00000 1.89561e-05
  186 6444.79 0.00000 8.15148e-06
  187 6444.79 0.00000 4.38710e-06
  188 6444.79 0.00000 2.34397e-07
  189 6444.79 0.00000 9.54878e-06
  190 6444.79 0.00000 -2.49290e-05
  191 6444.79 0.00000 -9.04178e-06
  192 6444.79 0.00000 -4.20599e-06
  193 6444.79 0.00000 8.18985e-06
  194 6444.79 0.00000 -2.15131e-06
  195 6444.79 0.00000 -1.14911e-05
  196 6444.79 0.00000 2.70924e-06
  197 6444.79 0.00000 1.03397e-05
  198 6444.79 0.00000 -8.27515e-06
  199 6444.79 0.00000 -6.73465e-06
  200 6444.79 0.00000 2.10219e-07
  201 6444.79 0.00000 -9.54668e-06
  202 6444.79 0.00000 2.47645e-06
  203 6444.79 0.00000 2.07045e-05
  204 6444.79 0.00000 6.90490e-06
  205 6444.79 0.00000 8.74603e-06
  206 6444.79 0.00000 -7.39392e-06
  207 6444.79 0.00000 -3.46075e-05
  208 6444.79 0.00000 9.09407e-06
  209 6444.79 0.00000 -4.51927e-06
  210 6444.79 0.00000 -2.19103e-05
  211 6444.79 0.00000 2.34840e-05
  212 6444.79 0.00000 -4.21964e-06
  213 6444.79 0.00000 -2.03403e-05
  214 6444.79 0.00000 -2.81551e-05
  215 6444.79 0.00000 1.74012e-06
  216 6444.79 0.00000 -1.93532e-05
  217 6444.79 0.00000 -5.15611e-06
  218 6444.79 0.00000 -2.38102e-05
  219 6444.79 0.00000 -4.98799e-07
  220 6444.79 0.00000 -1.89348e-05
  221 6444.79 0.00000 1.65788e-06
  222 6444.79 0.00000 -1.61486e-06
  223 6444.79 0.00000 3.63346e-05
  224 6444.79 0.00000 3.02266e-05
  225 6444.79 0.00000 -7.15031e-06
  226 6444.79 0.00000 1.18842e-05
  227 6444.79 0.00000 4.08760e-06
  228 6444.79 0.00000 -8.41617e-06
  229 6444.79 0.00000 4.98711e-06
  230 6444.79 0.00000 1.56206e-06
  231 6444.79 0.00000 -2.04341e-06
  232 6444.79 0.00000 -9.85696e-06
  233 6444.79 0.00000 -2.06114e-06
  234 6444.79 0.00000 -1.98322e-05
  235 6444.79 0.00000 -1.34719e-05
  236 6444.79 0.00000 1.99674e-05
  237 6444.79 0.00000 1.09332e-05
  238 6444.79 0.00000 7.27882e-06
  239 6444.79 0.00000 -2.34750e-06
  240 6444.79 0.00000 2.43747e-05
  241 6444.79 0.00000 -1.62340e-06
</Section>

newXOutput 145

<Section columns = "stress_xx | stress_yy | stress_xy">
  1 6509.16 0.00000 -8.57276e-06
  2 6509.16 0.00000 1.99424e-06
  3 6509.16 0.00000 -1.69245e-06
  4 6509.16 0.00000 9.37022e-06
  5 6509.16 0.00000 -2.06906e-05
  6 6509.16 0.00000 -3.62801e-05
  7 6509.16 0.00000 -4.78743e-05
  8 6509.16 0.00000 -5.65120e-05
  9 6509.16 0.00000 -5.77308e-05
  10 6509.16 0.00000 -5.60498e-05
  11 6509.16 0.00000 -5.03135e-05
  12 6509.16 0.00000 -4.10380e-05
  13 6509.16 0.00000 -2.85731e-05
  14 6509.16 0.00000 -1.73464e-05
  15 6509.16 0.00000 -5.29465e-06
  16 6509.16 0.00000 3.77960e-06
  17 6509.16 0.00000 8.56188e-06
  18 6509.16 0.00000 1.18076e-05
  19 6509.16 0.00000 1.28733e-05
  20 6509.16 0.00000 1.16551e-05
  21 6509.16 0.00000 1.03482e-05
  22 6509.16 0.00000 7.88711e-06
  23 6509.16 0.00000 4.43432e-06
  24 6509.16 0.00000 1.32643e-06
  25 6509.16 0.00000 8.40965e-07
  26 6509.16 0.00000 3.65292e-07
  27 6509.16 0.00000 -4.60257e-07
  28 6509.16 0.00000 -1.08493e-06
  29 6509.16 0.00000 -1.10485e-06
  30 6509.16 0.00000 -1.27699e-06
  31 6509.16 0.00000 -3.99365e-06
  32 6509.16 0.00000 -6.61604e-06
  33 6509.16 0.00000 -9.01384e-06
  34 6509.16 0.00000 -1.28791e-05
  35 6509.16 0.00000 -1.28544e-05
  36 6509.16 0.00000 -1.18399e-05
  37 6509.16 0.00000 -8.12545e-06
  38 6509.16 0.00000 -2.38153e-06
  39 6509.16 0.00000 6.06410e-06
  40 6509.16 0.00000 1.61875e-05
  41 6509.16 0.00000 2.67984e-05
  42 6509.16 0.00000 3.95204e-05
  43 6509.16 0.00000 4.92890e-05
  44 6509.16 0.00000 5.66361e-05
  45 6509.16 0.00000 5.98887e-05
  46 6509.16 0.00000 5.45965e-05
  47 6509.16 0.00000 4.85193e-05
  48 6509.16 0.00000 3.73910e-05
  49 6509.16 0.00000 2.10086e-05
  50 6509.16 0.00000 6.56704e-06
  51 6509.16 0.00000 4.66302e-06
  52 6509.16 0.00000 3.03846e-06
  53 6509.16 0.00000 -5.96406e-07
  54 6509.16 0.00000 -4.17888e-06
  55 6509.16 0.00000 -5.19999e-06
  56 6509.16 0.00000 -6.21887e-06
  57 6509.16 0.00000 -3.22676e-07
  58 6509.16 0.00000 4.19026e-07
  59 6509.16 0.00000 6.50857e-07
  60 6509.16 0.00000 -2.28227e-06
  61 6509.16 0.00000 -1.68074e-05
  62 6509.16 0.00000 1.98308e-05
  63 6509.16 0.00000 3.69640e-06
  64 6509.16 0.00000 4.08471e-06
  65 6509.16 0.00000 1.99666e-05
  66 6509.16 0.00000 -1.57820e-05
  67 6509.16 0.00000 -3.60856e-06
  68 6509.16 0.00000 -2.34138e-06
  69 6509.16 0.00000 -6.75586e-06
  70 6509.16 0.00000 6.13856e-06
  71 6509.16 0.00000 -2.79084e-05
  72 6509.16 0.00000 -1.64417e-05
  73 6509.16 0.00000 6.88453e-06
  74 6509.16 0.00000 3.14294e-05
  75 6509.16 0.00000 1.93161e-05
  76 6509.16 0.00000 -5.09021e-07
  77 6509.16 0.00000 3.98234e-07
  78 6509.16 0.00000 -8.78241e-06
  79 6509.16 0.00000 1.51297e-06
  80 6509.16 0.00000 -3.75237e-07
  81 6509.16 0.00000 -1.06543e-07
  82 6509.16 0.00000 -4.22151e-06
  83 6509.16 0.00000 -1.07656e-06
  84 6509.16 0.00000 -3.69036e-05
  85 6509.16 0.00000 4.25865e-06
  86 6509.16 0.00000 4.48297e-06
  87 6509.16 0.00000 2.22440e-05
  88 6509.16 0.00000 -4.58842e-06
  89 6509.16 0.00000 -1.92702e-05
  90 6509.16 0.00000 -4.02727e-05
  91 6509.16 0.00000 3.65425e-05
  92 6509.16 0.00000 5.08489e-06
  93 6509.16 0.00000 1.23626e-06
  94 6509.16 0.00000 8.55249e-06
  95 6509.16 0.00000 3.42722e-05
  96 6509.16 0.00000 6.01377e-07
  97 6509.16 0.00000 8.62075e-06
  98 6509.16 0.00000 4.06849e-05
  99 6509.16 0.00000 -1.05337e-05
  100 6509.16 0.00000 -1.70561e-05
  101 6509.16 0.00000 -2.81488e-05
  102 6509.16 0.00000 4.20134e-06
  103 6509.16 0.00000 -3.10206e-06
  104 6509.16 0.00000 1.79679e-05
  105 6509.16 0.00000 1.53733e-05
  106 6509.16 0.00000 -3.94254e-06
  107 6509.16 0.00000 7.71397e-07
  108 6509.16 0.00000 5.78189e-06
  109 6509.16 0.00000 -7.33087e-06
  110 6509.16 0.00000 -1.91159e-06
  111 6509.16 0.00000 -6.24140e-06
  112 6509.16 0.00000 6.58808e-06
  113 6509.16 0.00000 8.63515e-07
  114 6509.16 0.00000 -8.38281e-06
  115 6509.16 0.00000 -8.70612e-06
  116 6509.16 0.00000 -4.09371e-05
  117 6509.16 0.00000 4.61646e-06
  118 6509.16 0.00000 2.02635e-05
  119 6509.16 0.00000 -4.75354e-06
  120 6509.16 0.00000 -1.01571e-05
  121 6509.16 0.00000 -1.23219e-05
  122 6509.16 0.00000 3.16366e-09
  123 6509.16 0.00000 -5.21193e-06
  124 6509.16 0.00000 -2.40802e-06
  125 6509.16 0.00000 1.56104e-05
  126 6509.16 0.00000 -4.56174e-05
  127 6509.16 0.00000 1.68536e-06
  128 6509.16 0.00000 1.03577e-05
  129 6509.16 0.00000 4.69581e-05
  130 6509.16 0.00000 2.31487e-06
  131 6509.16 0.00000 -2.42235e-05
  132 6509.16 0.00000 2.67430e-05
  133 6509.16 0.00000 8.59806e-06
  134 6509.16 0.00000 -2.78590e-05
  135 6509.16 0.00000 8.11635e-06
  136 6509.16 0.00000 3.87109e-05
  137 6509.16 0.00000 -5.85796e-06
  138 6509.16 0.00000 5.97668e-06
  139 6509.16 0.00000 -4.58630e-06
  140 6509.16 0.00000 -8.74864e-07
  141 6509.16 0.00000 -4.59346e-06
  142 6509.16 0.00000 -5.09165e-05
  143 6509.16 0.00000 1.55356e-05
  144 6509.16 0.00000 -4.67795e-07
  145 6509.16 0.00000 -1.05268e-05
  146 6509.16 0.00000 4.52889e-05
  147 6509.16 0.00000 1.06824e-05
  148 6509.16 0.00000 -2.40486e-06
  149 6509.16 0.00000 -1.03136e-06
  150 6509.16 0.00000 -6.42272e-06
  151 6509.16 0.00000 -1.91376e-05
  152 6509.16 0.00000 3.28442e-06
  153 6509.16 0.00000 -9.50068e-07
  154 6509.16 0.00000 -2.92155e-07
  155 6509.16 0.00000 -2.82353e-06
  156 6509.16 0.00000 1.60958e-06
  157 6509.16 0.00000 8.45131e-06
  158 6509.16 0.00000 -7.79970e-07
  159 6509.16 0.00000 1.49842e-06
  160 6509.16 0.00000 5.73721e-07
  161 6509.16 0.00000 -3.10410e-07
  162 6509.16 0.00000 7.31460e-06
  163 6509.16 0.00000 -8.28408e-07
  164 6509.16 0.00000 6.34805e-06
  165 6509.16 0.00000 -2.66266e-05
  166 6509.16 0.00000 8.61065e-06
  167 6509.16 0.00000 1.59389e-06
  168 6509.16 0.00000 -2.11848e-06
  169 6509.16 0.00000 -9.55366e-06
  170 6509.16 0.00000 -5.19762e-06
  171 6509.16 0.00000 -3.99414e-05
  172 6509.16 0.00000 -1.88867e-05
  173 6509.16 0.00000 4.92053e-05
  174 6509.16 0.00000 2.89919e-06
  175 6509.16 0.00000 1.40563e-05
  176 6509.16 0.00000 -1.45541e-05
  177 6509.16 0.00000 -2.96564e-06
  178 6509.16 0.00000 4.46091e-06
  179 6509.16 0.00000 -4.81855e-05
  180 6509.16 0.00000 -4.58623e-06
  181 6509.16 0.00000 1.24946e-06
  182 6509.16 0.00000 -4.99391e-06
  183 6509.16 0.00000 3.21579e-05
  184 6509.16 0.00000 5.96914e-06
  185 6509.16 0.00000 -2.57079e-05
  186 6509.16 0.00000 -1.18245e-05
  187 6509.16 0.00000 -5.99502e-06
  188 6509.16 0.00000 -3.89755e-07
  189 6509.16 0.00000 -1.30342e-05
  190 6509.16 0.00000 3.39821e-05
  191 6509.16 0.00000 1.23743e-05
  192 6509.16 0.00000 5.42903e-06
  193 6509.16 0.00000 -1.08506e-05
  194 6509.16 0.00000 2.95019e-06
  195 6509.16 0.00000 1.55567e-05
  196 6509.16 0.00000 -3.67273e-06
  197 6509.16 0.00000 -1.40056e-05
  198 6509.16 0.00000 1.09776e-05
  199 6509.16 0.00000 9.13984e-06
  200 6509.16 0.00000 -3.08969e-07
  201 6509.16 0.00000 1.34253e-05
  202 6509.16 0.00000 -3.04599e-06
  203 6509.16 0.00000 -2.84339e-05
  204 6509.16 0.00000 -9.81974e-06
  205 6509.16 0.00000 -1.19055e-05
  206 6509.16 0.00000 1.00106e-05
  207 6509.16 0.00000 4.69957e-05
  208 6509.16 0.00000 -1.22240e-05
  209 6509.16 0.00000 6.13694e-06
  210 6509.16 0.00000 2.96867e-05
  211 6509.16 0.00000 -3.18126e-05
  212 6509.16 0.00000 5.73858e-06
  213 6509.16 0.00000 2.75484e-05
  214 6509.16 0.00000 3.87902e-05
  215 6509.16 0.00000 -2.36525e-06
  216 6509.16 0.00000 2.65911e-05
  217 6509.16 0.00000 6.96161e-06
  218 6509.16 0.00000 3.23145e-05
  219 6509.16 0.00000 1.94126e-07
  220 6509.16 0.00000 2.58809e-05
  221 6509.16 0.00000 -2.45329e-06
  222 6509.16 0.00000 2.15767e-06
  223 6509.16 0.00000 -4.97703e-05
  224 6509.16 0.00000 -4.12319e-05
  225 6509.16 0.00000 9.51781e-06
  226 6509.16 0.00000 -1.61092e-05
  227 6509.16 0.00000 -5.96364e-06
  228 6509.16 0.00000 1.17009e-05
  229 6509.16 0.00000 -6.75872e-06
  230 6509.16 0.00000 -2.09939e-06
  231 6509.16 0.00000 2.60084e-06
  232 6509.16 0.00000 1.33524e-05
  233 6509.16 0.00000 2.79096e-06
  234 6509.16 0.00000 2.73652e-05
  235 6509.16 0.00000 1.90605e-05
  236 6509.16 0.00000 -2.70529e-05
  237 6509.16 0.00000 -1.54408e-05
  238 6509.16 0.00000 -1.00420e-05
  239 6509.16 0.00000 3.09518e-06
  240 6509.16 0.00000 -3.37311e-05
  241 6509.16 0.00000 1.55155e-06
</Section>

newXOutput 146

<Section columns = "stress_xx | stress_yy | stress_xy">
  1 6573.81 0.00000 1.16317e-05
  2 6573.81 0.00000 -2.70985e-06
  3 6573.81 0.00000 2.32565e-06
  4 6573.81 0.00000 -1.27072e-05
  5 6573.81 0.00000 2.81156e-05
  6 6573.81 0.00000 4.93405e-05
  7 6573.81 0.00000 6.51452e-05
  8 6573.81 0.00000 7.70520e-05
  9 6573.81 0.00000 7.89553e-05
  10 6573.81 0.00000 7.69179e-05
  11 6573.81 0.00000 6.92977e-05
  12 6573.81 0.00000 5.68296e-05
  13 6573.81 0.00000 3.99641e-05
  14 6573.81 0.00000 2.47813e-05
  15 6573.81 0.00000 8.28768e-06
  16 6573.81 0.00000 -4.18066e-06
  17 6573.81 0.00000 -1.09011e-05
  18 6573.81 0.00000 -1.55519e-05
  19 6573.81 0.00000 -1.72279e-05
  20 6573.81 0.00000 -1.57575e-05
  21 6573.81 0.00000 -1.40506e-05
  22 6573.81 0.00000 -1.07303e-05
  23 6573.81 0.00000 -6.03587e-06
  24 6573.81 0.00000 -1.81414e-06
  25 6573.81 0.00000 -1.16552e-06
  26 6573.81 0.00000 -5.27170e-07
  27 6573.81 0.00000 5.96751e-07
  28 6573.81 0.00000 1.46298e-06
  29 6573.81 0.00000 1.51077e-06
  30 6573.81 0.00000 1.74876e-06
  31 6573.81 0.00000 5.48947e-06
  32 6573.81 0.00000 9.06522e-06
  33 6573.81 0.00000 1.22587e-05
  34 6573.81 0.00000 1.73715e-05
  35 6573.81 0.00000 1.71860e-05
  36 6573.81 0.00000 1.55918e-05
  37 6573.81 0.00000 1.03237e-05
  38 6573.81 0.00000 2.31217e-06
  39 6573.81 0.00000 -9.34987e-06
  40 6573.81 0.00000 -2.31936e-05
  41 6573.81 0.00000 -3.76138e-05
  42 6573.81 0.00000 -5.48148e-05
  43 6573.81 0.00000 -6.79157e-05
  44 6573.81 0.00000 -7.76683e-05
  45 6573.81 0.00000 -8.18301e-05
  46 6573.81 0.00000 -7.44511e-05
  47 6573.81 0.00000 -6.60673e-05
  48 6573.81 0.00000 -5.08350e-05
  49 6573.81 0.00000 -2.85400e-05
  50 6573.81 0.00000 -8.91415e-06
  51 6573.81 0.00000 -6.33756e-06
  52 6573.81 0.00000 -4.12963e-06
  53 6573.81 0.00000 8.04256e-07
  54 6573.81 0.00000 5.67300e-06
  55 6573.81 0.00000 7.06454e-06
  56 6573.81 0.00000 8.44380e-06
  57 6573.81 0.00000 4.26694e-07
  58 6573.81 0.00000 -5.27417e-07
  59 6573.81 0.00000 -8.72656e-07
  60 6573.81 0.00000 2.84600e-06
  61 6573.81 0.00000 2.31293e-05
  62 6573.81 0.00000 -2.72735e-05
  63 6573.81 0.00000 -4.83129e-06
  64 6573.81 0.00000 -5.55981e-06
  65 6573.81 0.00000 -2.71443e-05
  66 6573.81 0.00000 2.14578e-05
  67 6573.81 0.00000 4.90244e-06
  68 6573.81 0.00000 3.68681e-06
  69 6573.81 0.00000 8.95199e-06
  70 6573.81 0.00000 -8.98710e-06
  71 6573.81 0.00000 3.81367e-05
  72 6573.81 0.00000 2.30067e-05
  73 6573.81 0.00000 -9.21175e-06
  74 6573.81 0.00000 -4.28755e-05
  75 6573.81 0.00000 -2.68843e-05
  76 6573.81 0.00000 6.48683e-07
  77 6573.81 0.00000 -5.30562e-07
  78 6573.81 0.00000 1.18623e-05
  79 6573.81 0.00000 -2.04080e-06
  80 6573.81 0.00000 4.95445e-07
  81 6573.81 0.00000 1.39545e-07
  82 6573.81 0.00000 5.14178e-06
  83 6573.81 0.00000 1.44527e-06
  84 6573.81 0.00000 5.02503e-05
  85 6573.81 0.00000 -5.13389e-06
  86 6573.81 0.00000 -6.12419e-06
  87 6573.81 0.00000 -3.02220e-05
  88 6573.81 0.00000 6.26182e-06
  89 6573.81 0.00000 2.61800e-05
  90 6573.81 0.00000 5.52906e-05
  91 6573.81 0.00000 -5.01159e-05
  92 6573.81 0.00000 -6.89889e-06
  93 6573.81 0.00000 -1.66510e-06
  94 6573.81 0.00000 -1.12825e-05
  95 6573.81 0.00000 -4.72494e-05
  96 6573.81 0.00000 -6.95447e-07
  97 6573.81 0.00000 -1.16865e-05
  98 6573.81 0.00000 -5.53919e-05
  99 6573.81 0.00000 1.51813e-05
  100 6573.81 0.00000 2.32335e-05
  101 6573.81 0.00000 3.90170e-05
  102 6573.81 0.00000 -5.58344e-06
  103 6573.81 0.00000 4.21930e-06
  104 6573.81 0.00000 -2.46160e-05
  105 6573.81 0.00000 -2.18118e-05
  106 6573.81 0.00000 5.68434e-06
  107 6573.81 0.00000 -1.08956e-06
  108 6573.81 0.00000 -7.84958e-06
  109 6573.81 0.00000 9.95290e-06
  110 6573.81 0.00000 2.57982e-06
  111 6573.81 0.00000 8.49323e-06
  112 6573.81 0.00000 -9.30940e-06
  113 6573.81 0.00000 -2.02670e-06
  114 6573.81 0.00000 1.08700e-05
  115 6573.81 0.00000 1.21504e-05
  116 6573.81 0.00000 5.56821e-05
  117 6573.81 0.00000 -6.22361e-06
  118 6573.81 0.00000 -2.75993e-05
  119 6573.81 0.00000 7.30754e-06
  120 6573.81 0.00000 1.36111e-05
  121 6573.81 0.00000 1.68100e-05
  122 6573.81 0.00000 -3.32198e-07
  123 6573.81 0.00000 6.70993e-06
  124 6573.81 0.00000 3.22623e-06
  125 6573.81 0.00000 -2.15696e-05
  126 6573.81 0.00000 6.22821e-05
  127 6573.81 0.00000 -1.85648e-06
  128 6573.81 0.00000 -1.39342e-05
  129 6573.81 0.00000 -6.40628e-05
  130 6573.81 0.00000 -3.38000e-06
  131 6573.81 0.00000 3.38641e-05
  132 6573.81 0.00000 -3.73132e-05
  133 6573.81 0.00000 -1.11400e-05
  134 6573.81 0.00000 3.81605e-05
  135 6573.81 0.00000 -1.10336e-05
  136 6573.81 0.00000 -5.26436e-05
  137 6573.81 0.00000 7.89536e-06
  138 6573.81 0.00000 -8.28611e-06
  139 6573.81 0.00000 6.24678e-06
  140 6573.81 0.00000 1.18322e-06
  141 6573.81 0.00000 6.33026e-06
  142 6573.81 0.00000 6.97592e-05
  143 6573.81 0.00000 -2.12416e-05
  144 6573.81 0.00000 5.19560e-08
  145 6573.81 0.00000 1.42451e-05
  146 6573.81 0.00000 -6.22511e-05
  147 6573.81 0.00000 -1.55477e-05
  148 6573.81 0.00000 3.26416e-06
  149 6573.81 0.00000 1.36698e-06
  150 6573.81 0.00000 9.09475e-06
  151 6573.81 0.00000 2.65010e-05
  152 6573.81 0.00000 -4.37700e-06
  153 6573.81 0.00000 1.48648e-06
  154 6573.81 0.00000 4.52388e-07
  155 6573.81 0.00000 3.68181e-06
  156 6573.81 0.00000 -2.21215e-06
  157 6573.81 0.00000 -1.14685e-05
  158 6573.81 0.00000 9.90893e-07
  159 6573.81 0.00000 -1.95280e-06
  160 6573.81 0.00000 -7.82982e-07
  161 6573.81 0.00000 3.84432e-07
  162 6573.81 0.00000 -1.00572e-05
  163 6573.81 0.00000 1.04746e-06
  164 6573.81 0.00000 -8.39625e-06
  165 6573.81 0.00000 3.63146e-05
  166 6573.81 0.00000 -1.16990e-05
  167 6573.81 0.00000 -2.19719e-06
  168 6573.81 0.00000 2.88842e-06
  169 6573.81 0.00000 1.29744e-05
  170 6573.81 0.00000 7.05642e-06
  171 6573.81 0.00000 5.50997e-05
  172 6573.81 0.00000 2.67532e-05
  173 6573.81 0.00000 -6.73587e-05
  174 6573.81 0.00000 -3.95593e-06
  175 6573.81 0.00000 -1.90918e-05
  176 6573.81 0.00000 1.97621e-05
  177 6573.81 0.00000 4.06018e-06
  178 6573.81 0.00000 -6.15820e-06
  179 6573.81 0.00000 6.56371e-05
  180 6573.81 0.00000 6.25507e-06
  181 6573.81 0.00000 -1.64431e-06
  182 6573.81 0.00000 6.05569e-06
  183 6573.81 0.00000 -4.42015e-05
  184 6573.81 0.00000 -7.31722e-06
  185 6573.81 0.00000 3.49779e-05
  186 6573.81 0.00000 1.71499e-05
  187 6573.81 0.00000 8.20240e-06
  188 6573.81 0.00000 6.27077e-07
  189 6573.81 0.00000 1.78483e-05
  190 6573.81 0.00000 -4.64704e-05
  191 6573.81 0.00000 -1.69876e-05
  192 6573.81 0.00000 -6.99423e-06
  193 6573.81 0.00000 1.43875e-05
  194 6573.81 0.00000 -4.04958e-06
  195 6573.81 0.00000 -2.11298e-05
  196 6573.81 0.00000 4.98803e-06
  197 6573.81 0.00000 1.90334e-05
  198 6573.81 0.00000 -1.45746e-05
  199 6573.81 0.00000 -1.24438e-05
  200 6573.81 0.00000 4.49199e-07
  201 6573.81 0.00000 -1.89222e-05
  202 6573.81 0.00000 3.70813e-06
  203 6573.81 0.00000 3.91686e-05
  204 6573.81 0.00000 1.39846e-05
  205 6573.81 0.00000 1.62596e-05
  206 6573.81 0.00000 -1.35726e-05
  207 6573.81 0.00000 -6.40251e-05
  208 6573.81 0.00000 1.64554e-05
  209 6573.81 0.00000 -8.34582e-06
  210 6573.81 0.00000 -4.03541e-05
  211 6573.81 0.00000 4.32357e-05
  212 6573.81 0.00000 -7.81732e-06
  213 6573.81 0.00000 -3.74327e-05
  214 6573.81 0.00000 -5.36041e-05
  215 6573.81 0.00000 3.21595e-06
  216 6573.81 0.00000 -3.66487e-05
  217 6573.81 0.00000 -9.41372e-06
  218 6573.81 0.00000 -4.39984e-05
  219 6573.81 0.00000 4.08236e-07
  220 6573.81 0.00000 -3.54864e-05
  221 6573.81 0.00000 3.62132e-06
  222 6573.81 0.00000 -2.88929e-06
  223 6573.81 0.00000 6.83869e-05
  224 6573.81 0.00000 5.64230e-05
  225 6573.81 0.00000 -1.26838e-05
  226 6573.81 0.00000 2.19072e-05
  227 6573.81 0.00000 8.69350e-06
  228 6573.81 0.00000 -1.63143e-05
  229 6573.81 0.00000 9.18936e-06
  230 6573.81 0.00000 2.82836e-06
  231 6573.81 0.00000 -3.29524e-06
  232 6573.81 0.00000 -1.81460e-05
  233 6573.81 0.00000 -3.78505e-06
  234 6573.81 0.00000 -3.78728e-05
  235 6573.81 0.00000 -2.70185e-05
  236 6573.81 0.00000 3.67722e-05
  237 6573.81 0.00000 2.18488e-05
  238 6573.81 0.00000 1.38946e-05
  239 6573.81 0.00000 -4.08270e-06
  240 6573.81 0.00000 4.68145e-05
  241 6573.81 0.00000 -1.20455e-06
</Section>

newXOutput 147

<Section columns = "stress_xx | stress_yy | stress_xy">
  1 6638.74 0.00000 -1.58346e-05
  2 6638.74 0.00000 3.68920e-06
  3 6638.74 0.00000 -3.19865e-06
  4 6638.74 0.00000 1.72898e-05
  5 6638.74 0.00000 -3.83309e-05
  6 6638.74 0.00000 -6.73226e-05
  7 6638.74 0.00000 -8.89375e-05
  8 6638.74 0.00000 -0.000105399
  9 6638.74 0.00000 -0.000108329
  10 6638.74 0.00000 -0.000105889
  11 6638.74 0.00000 -9.57417e-05
  12 6638.74 0.00000 -7.89334e-05
  13 6638.74 0.00000 -5.60470e-05
  14 6638.74 0.00000 -3.54576e-05
  15 6638.74 0.00000 -1.28200e-05
  16 6638.74 0.00000 4.35787e-06
  17 6638.74 0.00000 1.38198e-05
  18 6638.74 0.00000 2.04850e-05
  19 6638.74 0.00000 2.30782e-05
  20 6638.74 0.00000 2.13313e-05
  21 6638.74 0.00000 1.91059e-05
  22 6638.74 0.00000 1.46227e-05
  23 6638.74 0.00000 8.23046e-06
  24 6638.74 0.00000 2.48503e-06
  25 6638.74 0.00000 1.61611e-06
  26 6638.74 0.00000 7.56791e-07
  27 6638.74 0.00000 -7.76262e-07
  28 6638.74 0.00000 -1.97789e-06
  29 6638.74 0.00000 -2.06947e-06
  30 6638.74 0.00000 -2.39811e-06
  31 6638.74 0.00000 -7.55267e-06
  32 6638.74 0.00000 -1.24355e-05
  33 6638.74 0.00000 -1.66953e-05
  34 6638.74 0.00000 -2.34651e-05
  35 6638.74 0.00000 -2.30035e-05
  36 6638.74 0.00000 -2.05334e-05
  37 6638.74 0.00000 -1.30524e-05
  38 6638.74 0.00000 -1.85477e-06
  39 6638.74 0.00000 1.42895e-05
  40 6638.74 0.00000 3.32746e-05
  41 6638.74 0.00000 5.29278e-05
  42 6638.74 0.00000 7.62527e-05
  43 6638.74 0.00000 9.38727e-05
  44 6638.74 0.00000 0.000106850
  45 6638.74 0.00000 0.000112171
  46 6638.74 0.00000 0.000101856
  47 6638.74 0.00000 9.02554e-05
  48 6638.74 0.00000 6.93390e-05
  49 6638.74 0.00000 3.88986e-05
  50 6638.74 0.00000 1.21402e-05
  51 6638.74 0.00000 8.64192e-06
  52 6638.74 0.00000 5.63132e-06
  53 6638.74 0.00000 -1.08791e-06
  54 6638.74 0.00000 -7.72654e-06
  55 6638.74 0.00000 -9.62928e-06
  56 6638.74 0.00000 -1.15027e-05
  57 6638.74 0.00000 -5.66824e-07
  58 6638.74 0.00000 6.65882e-07
  59 6638.74 0.00000 1.17489e-06
  60 6638.74 0.00000 -3.52324e-06
  61 6638.74 0.00000 -3.19283e-05
  62 6638.74 0.00000 3.76274e-05
  63 6638.74 0.00000 6.30719e-06
  64 6638.74 0.00000 7.57779e-06
  65 6638.74 0.00000 3.70232e-05
  66 6638.74 0.00000 -2.92705e-05
  67 6638.74 0.00000 -6.67035e-06
  68 6638.74 0.00000 -5.73071e-06
  69 6638.74 0.00000 -1.18677e-05
  70 6638.74 0.00000 1.31460e-05
  71 6638.74 0.00000 -5.22825e-05
  72 6638.74 0.00000 -3.22764e-05
  73 6638.74 0.00000 1.23428e-05
  74 6638.74 0.00000 5.86799e-05
  75 6638.74 0.00000 3.75252e-05
  76 6638.74 0.00000 -8.28533e-07
  77 6638.74 0.00000 7.09559e-07
  78 6638.74 0.00000 -1.60442e-05
  79 6638.74 0.00000 2.76280e-06
  80 6638.74 0.00000 -6.56251e-07
  81 6638.74 0.00000 -1.83762e-07
  82 6638.74 0.00000 -6.17264e-06
  83 6638.74 0.00000 -1.94670e-06
  84 6638.74 0.00000 -6.86477e-05
  85 6638.74 0.00000 6.07845e-06
  86 6638.74 0.00000 8.37803e-06
  87 6638.74 0.00000 4.11968e-05
  88 6638.74 0.00000 -8.55804e-06
  89 6638.74 0.00000 -3.56848e-05
  90 6638.74 0.00000 -7.61482e-05
  91 6638.74 0.00000 6.89492e-05
  92 6638.74 0.00000 9.39079e-06
  93 6638.74 0.00000 2.24674e-06
  94 6638.74 0.00000 1.48866e-05
  95 6638.74 0.00000 6.53423e-05
  96 6638.74 0.00000 7.72563e-07
  97 6638.74 0.00000 1.58651e-05
  98 6638.74 0.00000 7.56614e-05
  99 6638.74 0.00000 -2.18953e-05
  100 6638.74 0.00000 -3.17520e-05
  101 6638.74 0.00000 -5.42411e-05
  102 6638.74 0.00000 7.42919e-06
  103 6638.74 0.00000 -5.74409e-06
  104 6638.74 0.00000 3.38305e-05
  105 6638.74 0.00000 3.10071e-05
  106 6638.74 0.00000 -8.20003e-06
  107 6638.74 0.00000 1.53570e-06
  108 6638.74 0.00000 1.06924e-05
  109 6638.74 0.00000 -1.35572e-05
  110 6638.74 0.00000 -3.49003e-06
  111 6638.74 0.00000 -1.15733e-05
  112 6638.74 0.00000 1.31847e-05
  113 6638.74 0.00000 3.95399e-06
  114 6638.74 0.00000 -1.40732e-05
  115 6638.74 0.00000 -1.70016e-05
  116 6638.74 0.00000 -7.59866e-05
  117 6638.74 0.00000 8.40397e-06
  118 6638.74 0.00000 3.77132e-05
  119 6638.74 0.00000 -1.11423e-05
  120 6638.74 0.00000 -1.82603e-05
  121 6638.74 0.00000 -2.30080e-05
  122 6638.74 0.00000 9.08840e-07
  123 6638.74 0.00000 -8.61976e-06
  124 6638.74 0.00000 -4.32438e-06
  125 6638.74 0.00000 2.98960e-05
  126 6638.74 0.00000 -8.53102e-05
  127 6638.74 0.00000 1.91985e-06
  128 6638.74 0.00000 1.87694e-05
  129 6638.74 0.00000 8.76815e-05
  130 6638.74 0.00000 4.93202e-06
  131 6638.74 0.00000 -4.74684e-05
  132 6638.74 0.00000 5.22055e-05
  133 6638.74 0.00000 1.44084e-05
  134 6638.74 0.00000 -5.24380e-05
  135 6638.74 0.00000 1.50221e-05
  136 6638.74 0.00000 7.18253e-05
  137 6638.74 0.00000 -1.06525e-05
  138 6638.74 0.00000 1.15246e-05
  139 6638.74 0.00000 -8.53590e-06
  140 6638.74 0.00000 -1.60303e-06
  141 6638.74 0.00000 -8.75011e-06
  142 6638.74 0.00000 -9.58793e-05
  143 6638.74 0.00000 2.91359e-05
  144 6638.74 0.00000 7.43868e-07
  145 6638.74 0.00000 -1.93047e-05
  146 6638.74 0.00000 8.58356e-05
  147 6638.74 0.00000 2.26248e-05
  148 6638.74 0.00000 -4.44488e-06
  149 6638.74 0.00000 -1.81763e-06
  150 6638.74 0.00000 -1.29015e-05
  151 6638.74 0.00000 -3.68062e-05
  152 6638.74 0.00000 5.84369e-06
  153 6638.74 0.00000 -2.30180e-06
  154 6638.74 0.00000 -6.93478e-07
  155 6638.74 0.00000 -4.79881e-06
  156 6638.74 0.00000 3.04233e-06
  157 6638.74 0.00000 1.56147e-05
  158 6638.74 0.00000 -1.25766e-06
  159 6638.74 0.00000 2.53876e-06
  160 6638.74 0.00000 1.07228e-06
  161 6638.74 0.00000 -4.76177e-07
  162 6638.74 0.00000 1.38720e-05
  163 6638.74 0.00000 -1.32162e-06
  164 6638.74 0.00000 1.11104e-05
  165 6638.74 0.00000 -4.96894e-05
  166 6638.74 0.00000 1.59475e-05
  167 6638.74 0.00000 3.03137e-06
  168 6638.74 0.00000 -3.94497e-06
  169 6638.74 0.00000 -1.76780e-05
  170 6638.74 0.00000 -9.59145e-06
  171 6638.74 0.00000 -7.62447e-05
  172 6638.74 0.00000 -3.79739e-05
  173 6638.74 0.00000 9.25049e-05
  174 6638.74 0.00000 5.40672e-06
  175 6638.74 0.00000 2.60168e-05
  176 6638.74 0.00000 -2.69225e-05
  177 6638.74 0.00000 -5.56575e-06
  178 6638.74 0.00000 8.52558e-06
  179 6638.74 0.00000 -8.97015e-05
  180 6638.74 0.00000 -8.55940e-06
  181 6638.74 0.00000 2.16729e-06
  182 6638.74 0.00000 -7.22462e-06
  183 6638.74 0.00000 6.09469e-05
  184 6638.74 0.00000 8.85535e-06
  185 6638.74 0.00000 -4.77463e-05
  186 6638.74 0.00000 -2.48789e-05
  187 6638.74 0.00000 -1.12366e-05
  188 6638.74 0.00000 -9.86774e-07
  189 6638.74 0.00000 -2.45188e-05
  190 6638.74 0.00000 6.37518e-05
  191 6638.74 0.00000 2.33938e-05
  192 6638.74 0.00000 8.98669e-06
  193 6638.74 0.00000 -1.90889e-05
  194 6638.74 0.00000 5.56410e-06
  195 6638.74 0.00000 2.87943e-05
  196 6638.74 0.00000 -6.78659e-06
  197 6638.74 0.00000 -2.59511e-05
  198 6638.74 0.00000 1.93628e-05
  199 6638.74 0.00000 1.69969e-05
  200 6638.74 0.00000 -6.47615e-07
  201 6638.74 0.00000 2.67321e-05
  202 6638.74 0.00000 -4.45109e-06
  203 6638.74 0.00000 -5.41234e-05
  204 6638.74 0.00000 -1.99471e-05
  205 6638.74 0.00000 -2.22794e-05
  206 6638.74 0.00000 1.84279e-05
  207 6638.74 0.00000 8.75096e-05
  208 6638.74 0.00000 -2.21825e-05
  209 6638.74 0.00000 1.13661e-05
  210 6638.74 0.00000 5.50347e-05
  211 6638.74 0.00000 -5.89540e-05
  212 6638.74 0.00000 1.06666e-05
  213 6638.74 0.00000 5.10303e-05
  214 6638.74 0.00000 7.43013e-05
  215 6638.74 0.00000 -4.37406e-06
  216 6638.74 0.00000 5.06679e-05
  217 6638.74 0.00000 1.27484e-05
  218 6638.74 0.00000 6.01025e-05
  219 6638.74 0.00000 -1.49701e-06
  220 6638.74 0.00000 4.88115e-05
  221 6638.74 0.00000 -5.33641e-06
  222 6638.74 0.00000 3.87719e-06
  223 6638.74 0.00000 -9.42625e-05
  224 6638.74 0.00000 -7.74582e-05
  225 6638.74 0.00000 1.69199e-05
  226 6638.74 0.00000 -2.98896e-05
  227 6638.74 0.00000 -1.26686e-05
  228 6638.74 0.00000 2.28126e-05
  229 6638.74 0.00000 -1.25349e-05
  230 6638.74 0.00000 -3.81941e-06
  231 6638.74 0.00000 4.15002e-06
  232 6638.74 0.00000 2.47412e-05
  233 6638.74 0.00000 5.14100e-06
  234 6638.74 0.00000 5.25737e-05
  235 6638.74 0.00000 3.83761e-05
  236 6638.74 0.00000 -5.01477e-05
  237 6638.74 0.00000 -3.09794e-05
  238 6638.74 0.00000 -1.92819e-05
  239 6638.74 0.00000 5.38628e-06
  240 6638.74 0.00000 -6.51634e-05
  241 6638.74 0.00000 3.76813e-07
</Section>

newXOutput 148

<Section columns = "stress_xx | stress_yy | stress_xy">
  1 0.00000 0.00000 0.00000
  2 0.00000 0.00000 0.00000
  3 0.00000 0.00000 0.00000
  4 0.00000 0.00000 0.00000
  5 0.00000 0.00000 0.00000
  6 0.00000 0.00000 0.00000
  7 0.00000 0.00000 0.00000
  8 0.00000 0.00000 0.00000
  9 0.00000 0.00000 0.00000
  10 0.00000 0.00000 0.00000
  11 0.00000 0.00000 0.00000
  12 0.00000 0.00000 0.00000
  13 0.00000 0.00000 0.00000
  14 0.00000 0.00000 0.00000
  15 0.00000 0.00000 0.00000
  16 0.00000 0.00000 0.00000
  17 0.00000 0.00000 0.00000
  18 0.00000 0.00000 0.00000
  19 0.00000 0.00000 0.00000
  20 0.00000 0.00000 0.00000
  21 0.00000 0.00000 0.00000
  22 0.00000 0.00000 0.00000
  23 0.00000 0.00000 0.00000
  24 0.00000 0.00000 0.00000
  25 0.00000 0.00000 0.00000
  26 0.00000 0.00000 0.00000
  27 0.00000 0.00000 0.00000
  28 0.00000 0.00000 0.00000
  29 0.00000 0.00000 0.00000
  30 0.00000 0.00000 0.00000
  31 0.00000 0.00000 0.00000
  32 0.00000 0.00000 0.00000
  33 0.00000 0.00000 0.00000
  34 0.00000 0.00000 0.00000
  35 0.00000 0.00000 0.00000
  36 0.00000 0.00000 0.00000
  37 0.00000 0.00000 0.00000
  38 0.00000 0.00000 0.00000
  39 0.00000 0.00000 0.00000
  40 0.00000 0.00000 0.00000
  41 0.00000 0.00000 0.00000
  42 0.00000 0.00000 0.00000
  43 0.00000 0.00000 0.00000
  44 0.00000 0.00000 0.00000
  45 0.00000 0.00000 0.00000
  46 0.00000 0.00000 0.00000
  47 0.00000 0.00000 0.00000
  48 0.00000 0.00000 0.00000
  49 0.00000 0.00000 0.00000
  50 0.00000 0.00000 0.00000
  51 0.00000 0.00000 0.00000
  52 0.00000 0.00000 0.00000
  53 0.00000 0.00000 0.00000
  54 0.00000 0.00000 0.00000
  55 0.00000 0.00000 0.00000
  56 0.00000 0.00000 0.00000
  57 0.00000 0.00000 0.00000
  58 0.00000 0.00000 0.00000
  59 0.00000 0.00000 0.00000
  60 0.00000 0.00000 0.00000
  61 0.00000 0.00000 0.00000
  62 0.00000 0.00000 0.00000
  63 0.00000 0.00000 0.00000
  64 0.00000 0.00000 0.00000
  65 0.00000 0.00000 0.00000
  66 0.00000 0.00000 0.00000
  67 0.00000 0.00000 0.00000
  68 0.00000 0.00000 0.00000
  69 0.00000 0.00000 0.00000
  70 0.00000 0.00000 0.00000
  71 0.00000 0.00000 0.00000
  72 0.00000 0.00000 0.00000
  73 0.00000 0.00000 0.00000
  74 0.00000 0.00000 0.00000
  75 0.00000 0.00000 0.00000
  76 0.00000 0.00000 0.00000
  77 0.00000 0.00000 0.00000
  78 0.00000 0.00000 0.00000
  79 0.00000 0.00000 0.00000
  80 0.00000 0.00000 0.00000
  81 0.00000 0.00000 0.00000
  82 0.00000 0.00000 0.00000
  83 0.00000 0.00000 0.00000
  84 0.00000 0.00000 0.00000
  85 0.00000 0.00000 0.00000
  86 0.00000 0.00000 0.00000
  87 0.00000 0.00000 0.00000
  88 0.00000 0.00000 0.00000
  89 0.00000 0.00000 0.00000
  90 0.00000 0.00000 0.00000
  91 0.00000 0.00000 0.00000
  92 0.00000 0.00000 0.00000
  93 0.00000 0.00000 0.00000
  94 0.00000 0.00000 0.00000
  95 0.00000 0.00000 0.00000
  96 0.00000 0.00000 0.00000
  97 0.00000 0.00000 0.00000
  98 0.00000 0.00000 0.00000
  99 0.00000 0.00000 0.00000
  100 0.00000 0.00000 0.00000
  101 0.00000 0.00000 0.00000
  102 0.00000 0.00000 0.00000
  103 0.00000 0.00000 0.00000
  104 0.00000 0.00000 0.00000
  105 0.00000 0.00000 0.00000
  106 0.00000 0.00000 0.00000
  107 0.00000 0.00000 0.00000
  108 0.00000 0.00000 0.00000
  109 0.00000 0.00000 0.00000
  110 0.00000 0.00000 0.00000
  111 0.00000 0.00000 0.00000
  112 0.00000 0.00000 0.00000
  113 0.00000 0.00000 0.00000
  114 0.00000 0.00000 0.00000
  115 0.00000 0.00000 0.00000
  116 0.00000 0.00000 0.00000
  117 0.00000 0.00000 0.00000
  118 0.00000 0.00000 0.00000
  119 0.00000 0.00000 0.00000
  120 0.00000 0.00000 0.00000
  121 0.00000 0.00000 0.00000
  122 0.00000 0.00000 0.00000
  123 0.00000 0.00000 0.00000
  124 0.00000 0.00000 0.00000
  125 0.00000 0.00000 0.00000
  126 0.00000 0.00000 0.00000
  127 0.00000 0.00000 0.00000
  128 0.00000 0.00000 0.00000
  129 0.00000 0.00000 0.00000
  130 0.00000 0.00000 0.00000
  131 0.00000 0.00000 0.00000
  132 0.00000 0.00000 0.00000
  133 0.00000 0.00000 0.00000
  134 0.00000 0.00000 0.00000
  135 0.00000 0.00000 0.00000
  136 0.00000 0.00000 0.00000
  137 0.00000 0.00000 0.00000
  138 0.00000 0.00000 0.00000
  139 0.00000 0.00000 0.00000
  140 0.00000 0.00000 0.00000
  141 0.00000 0.00000 0.00000
  142 0.00000 0.00000 0.00000
  143 0.00000 0.00000 0.00000
  144 0.00000 0.00000 0.00000
  145 0.00000 0.00000 0.00000
  146 0.00000 0.00000 0.00000
  147 0.00000 0.00000 0.00000
  148 0.00000 0.00000 0.00000
  149 0.00000 0.00000 0.00000
  150 0.00000 0.00000 0.00000
  151 0.00000 0.00000 0.00000
  152 0.00000 0.00000 0.00000
  153 0.00000 0.00000 0.00000
  154 0.00000 0.00000 0.00000
  155 0.00000 0.00000 0.00000
  156 0.00000 0.00000 0.00000
  157 0.00000 0.00000 0.00000
  158 0.00000 0.00000 0.00000
  159 0.00000 0.00000 0.00000
  160 0.00000 0.00000 0.00000
  161 0.00000 0.00000 0.00000
  162 0.00000 0.00000 0.00000
  163 0.00000 0.00000 0.00000
  164 0.00000 0.00000 0.00000
  165 0.00000 0.00000 0.00000
  166 0.00000 0.00000 0.00000
  167 0.00000 0.00000 0.00000
  168 0.00000 0.00000 0.00000
  169 0.00000 0.00000 0.00000
  170 0.00000 0.00000 0.00000
  171 0.00000 0.00000 0.00000
  172 0.00000 0.00000 0.00000
  173 0.00000 0.00000 0.00000
  174 0.00000 0.00000 0.00000
  175 0.00000 0.00000 0.00000
  176 0.00000 0.00000 0.00000
  177 0.00000 0.00000 0.00000
  178 0.00000 0.00000 0.00000
  179 0.00000 0.00000 0.00000
  180 0.00000 0.00000 0.00000
  181 0.00000 0.00000 0.00000
  182 0.00000 0.00000 0.00000
  183 0.00000 0.00000 0.00000
  184 0.00000 0.00000 0.00000
  185 0.00000 0.00000 0.00000
  186 0.00000 0.00000 0.00000
  187 0.00000 0.00000 0.00000
  188 0.00000 0.00000 0.00000
  189 0.00000 0.00000 0.00000
  190 0.00000 0.00000 0.00000
  191 0.00000 0.00000 0.00000
  192 0.00000 0.00000 0.00000
  193 0.00000 0.00000 0.00000
  194 0.00000 0.00000 0.00000
  195 0.00000 0.00000 0.00000
  196 0.00000 0.00000 0.00000
  197 0.00000 0.00000 0.00000
  198 0.00000 0.00000 0.00000
  199 0.00000 0.00000 0.00000
  200 0.00000 0.00000 0.00000
  201 0.00000 0.00000 0.00000
  202 0.00000 0.00000 0.00000
  203 0.00000 0.00000 0.00000
  204 0.00000 0.00000 0.00000
  205 0.00000 0.00000 0.00000
  206 0.00000 0.00000 0.00000
  207 0.00000 0.00000 0.00000
  208 0.00000 0.00000 0.00000
  209 0.00000 0.00000 0.00000
  210 0.00000 0.00000 0.00000
  211 0.00000 0.00000 0.00000
  212 0.00000 0.00000 0.00000
  213 0.00000 0.00000 0.00000
  214 0.00000 0.00000 0.00000
  215 0.00000 0.00000 0.00000
  216 0.00000 0.00000 0.00000
  217 0.00000 0.00000 0.00000
  218 0.00000 0.00000 0.00000
  219 0.00000 0.00000 0.00000
  220 0.00000 0.00000 0.00000
  221 0.00000 0.00000 0.00000
  222 0.00000 0.00000 0.00000
  223 0.00000 0.00000 0.00000
  224 0.00000 0.00000 0.00000
  225 0.00000 0.00000 0.00000
  226 0.00000 0.00000 0.00000
  227 0.00000 0.00000 0.00000
  228 0.00000 0.00000 0.00000
  229 0.00000 0.00000 0.00000
  230 0.00000 0.00000 0.00000
  231 0.00000 0.00000 0.00000
  232 0.00000 0.00000 0.00000
  233 0.00000 0.00000 0.00000
  234 0.00000 0.00000 0.00000
  235 0.00000 0.00000 0.00000
  236 0.00000 0.00000 0.00000
  237 0.00000 0.00000 0.00000
  238 0.00000 0.00000 0.00000
  239 0.00000 0.00000 0.00000
  240 0.00000 0.00000 0.00000
  241 0.00000 0.00000 0.00000
</Section>

newXOutput 149

<Section columns = "stress_xx | stress_yy | stress_xy">
  1 0.00000 0.00000 0.00000
  2 0.00000 0.00000 0.00000
  3 0.00000 0.00000 0.00000
  4 0.00000 0.00000 0.00000
  5 0.00000 0.00000 0.00000
  6 0.00000 0.00000 0.00000
  7 0.00000 0.00000 0.00000
  8 0.00000 0.00000 0.00000
  9 0.00000 0.00000 0.00000
  10 0.00000 0.00000 0.00000
  11 0.00000 0.00000 0.00000
  12 0.00000 0.00000 0.00000
  13 0.00000 0.00000 0.00000
  14 0.00000 0.00000 0.00000
  15 0.00000 0.00000 0.00000
  16 0.00000 0.00000 0.00000
  17 0.00000 0.00000 0.00000
  18 0.00000 0.00000 0.00000
  19 0.00000 0.00000 0.00000
  20 0.00000 0.00000 0.00000
  21 0.00000 0.00000 0.00000
  22 0.00000 0.00000 0.00000
  23 0.00000 0.00000 0.00000
  24 0.00000 0.00000 0.00000
  25 0.00000 0.00000 0.00000
  26 0.00000 0.00000 0.00000
  27 0.00000 0.00000 0.00000
  28 0.00000 0.00000 0.00000
  29 0.00000 0.00000 0.00000
  30 0.00000 0.00000 0.00000
  31 0.00000 0.00000 0.00000
  32 0.00000 0.00000 0.00000
  33 0.00000 0.00000 0.00000
  34 0.00000 0.00000 0.00000
  35 0.00000 0.00000 0.00000
  36 0.00000 0.00000 0.00000
  37 0.00000 0.00000 0.00000
  38 0.00000 0.00000 0.00000
  39 0.00000 0.00000 0.00000
  40 0.00000 0.00000 0.00000
  41 0.00000 0.00000 0.00000
  42 0.00000 0.00000 0.00000
  43 0.00000 0.00000 0.00000
  44 0.00000 0.00000 0.00000
  45 0.00000 0.00000 0.00000
  46 0.00000 0.00000 0.00000
  47 0.00000 0.00000 0.00000
  48 0.00000 0.00000 0.00000
  49 0.00000 0.00000 0.00000
  50 0.00000 0.00000 0.00000
  51 0.00000 0.00000 0.00000
  52 0.00000 0.00000 0.00000
  53 0.00000 0.00000 0.00000
  54 0.00000 0.00000 0.00000
  55 0.00000 0.00000 0.00000
  56 0.00000 0.00000 0.00000
  57 0.00000 0.00000 0.00000
  58 0.00000 0.00000 0.00000
  59 0.00000 0.00000 0.00000
  60 0.00000 0.00000 0.00000
  61 0.00000 0.00000 0.00000
  62 0.00000 0.00000 0.00000
  63 0.00000 0.00000 0.00000
  64 0.00000 0.00000 0.00000
  65 0.00000 0.00000 0.00000
  66 0.00000 0.00000 0.00000
  67 0.00000 0.00000 0.00000
  68 0.00000 0.00000 0.00000
  69 0.00000 0.00000 0.00000
  70 0.00000 0.00000 0.00000
  71 0.00000 0.00000 0.00000
  72 0.00000 0.00000 0.00000
  73 0.00000 0.00000 0.00000
  74 0.00000 0.00000 0.00000
  75 0.00000 0.00000 0.00000
  76 0.00000 0.00000 0.00000
  77 0.00000 0.00000 0.00000
  78 0.00000 0.00000 0.00000
  79 0.00000 0.00000 0.00000
  80 0.00000 0.00000 0.00000
  81 0.00000 0.00000 0.00000
  82 0.00000 0.00000 0.00000
  83 0.00000 0.00000 0.00000
  84 0.00000 0.00000 0.00000
  85 0.00000 0.00000 0.00000
  86 0.00000 0.00000 0.00000
  87 0.00000 0.00000 0.00000
  88 0.00000 0.00000 0.00000
  89 0.00000 0.00000 0.00000
  90 0.00000 0.00000 0.00000
  91 0.00000 0.00000 0.00000
  92 0.00000 0.00000 0.00000
  93 0.00000 0.00000 0.00000
  94 0.00000 0.00000 0.00000
  95 0.00000 0.00000 0.00000
  96 0.00000 0.00000 0.00000
  97 0.00000 0.00000 0.00000
  98 0.00000 0.00000 0.00000
  99 0.00000 0.00000 0.00000
  100 0.00000 0.00000 0.00000
  101 0.00000 0.00000 0.00000
  102 0.00000 0.00000 0.00000
  103 0.00000 0.00000 0.00000
  104 0.00000 0.00000 0.00000
  105 0.00000 0.00000 0.00000
  106 0.00000 0.00000 0.00000
  107 0.00000 0.00000 0.00000
  108 0.00000 0.00000 0.00000
  109 0.00000 0.00000 0.00000
  110 0.00000 0.00000 0.00000
  111 0.00000 0.00000 0.00000
  112 0.00000 0.00000 0.00000
  113 0.00000 0.00000 0.00000
  114 0.00000 0.00000 0.00000
  115 0.00000 0.00000 0.00000
  116 0.00000 0.00000 0.00000
  117 0.00000 0.00000 0.00000
  118 0.00000 0.00000 0.00000
  119 0.00000 0.00000 0.00000
  120 0.00000 0.00000 0.00000
  121 0.00000 0.00000 0.00000
  122 0.00000 0.00000 0.00000
  123 0.00000 0.00000 0.00000
  124 0.00000 0.00000 0.00000
  125 0.00000 0.00000 0.00000
  126 0.00000 0.00000 0.00000
  127 0.00000 0.00000 0.00000
  128 0.00000 0.00000 0.00000
  129 0.00000 0.00000 0.00000
  130 0.00000 0.00000 0.00000
  131 0.00000 0.00000 0.00000
  132 0.00000 0.00000 0.00000
  133 0.00000 0.00000 0.00000
  134 0.00000 0.00000 0.00000
  135 0.00000 0.00000 0.00000
  136 0.00000 0.00000 0.00000
  137 0.00000 0.00000 0.00000
  138 0.00000 0.00000 0.00000
  139 0.00000 0.00000 0.00000
  140 0.00000 0.00000 0.00000
  141 0.00000 0.00000 0.00000
  142 0.00000 0.00000 0.00000
  143 0.00000 0.00000 0.00000
  144 0.00000 0.00000 0.00000
  145 0.00000 0.00000 0.00000
  146 0.00000 0.00000 0.00000
  147 0.00000 0.00000 0.00000
  148 0.00000 0.00000 0.00000
  149 0.00000 0.00000 0.00000
  150 0.00000 0.00000 0.00000
  151 0.00000 0.00000 0.00000
  152 0.00000 0.00000 0.00000
  153 0.00000 0.00000 0.00000
  154 0.00000 0.00000 0.00000
  155 0.00000 0.00000 0.00000
  156 0.00000 0.00000 0.00000
  157 0.00000 0.00000 0.00000
  158 0.00000 0.00000 0.00000
  159 0.00000 0.00000 0.00000
  160 0.00000 0.00000 0.00000
  161 0.00000 0.00000 0.00000
  162 0.00000 0.00000 0.00000
  163 0.00000 0.00000 0.00000
  164 0.00000 0.00000 0.00000
  165 0.00000 0.00000 0.00000
  166 0.00000 0.00000 0.00000
  167 0.00000 0.00000 0.00000
  168 0.00000 0.00000 0.00000
  169 0.00000 0.00000 0.00000
  170 0.00000 0.00000 0.00000
  171 0.00000 0.00000 0.00000
  172 0.00000 0.00000 0.00000
  173 0.00000 0.00000 0.00000
  174 0.00000 0.00000 0.00000
  175 0.00000 0.00000 0.00000
  176 0.00000 0.00000 0.00000
  177 0.00000 0.00000 0.00000
  178 0.00000 0.00000 0.00000
  179 0.00000 0.00000 0.00000
  180 0.00000 0.00000 0.00000
  181 0.00000 0.00000 0.00000
  182 0.00000 0.00000 0.00000
  183 0.00000 0.00000 0.00000
  184 0.00000 0.00000 0.00000
  185 0.00000 0.00000 0.00000
  186 0.00000 0.00000 0.00000
  187 0.00000 0.00000 0.00000
  188 0.00000 0.00000 0.00000
  189 0.00000 0.00000 0.00000
  190 0.00000 0.00000 0.00000
  191 0.00000 0.00000 0.00000
  192 0.00000 0.00000 0.00000
  193 0.00000 0.00000 0.00000
  194 0.00000 0.00000 0.00000
  195 0.00000 0.00000 0.00000
  196 0.00000 0.00000 0.00000
  197 0.00000 0.00000 0.00000
  198 0.00000 0.00000 0.00000
  199 0.00000 0.00000 0.00000
  200 0.00000 0.00000 0.00000
  201 0.00000 0.00000 0.00000
  202 0.00000 0.00000 0.00000
  203 0.00000 0.00000 0.00000
  204 0.00000 0.00000 0.00000
  205 0.00000 0.00000 0.00000
  206 0.00000 0.00000 0.00000
  207 0.00000 0.00000 0.00000
  208 0.00000 0.00000 0.00000
  209 0.00000 0.00000 0.00000
  210 0.00000 0.00000 0.00000
  211 0.00000 0.00000 0.00000
  212 0.00000 0.00000 0.00000
  213 0.00000 0.00000 0.00000
  214 0.00000 0.00000 0.00000
  215 0.00000 0.00000 0.00000
  216 0.00000 0.00000 0.00000
  217 0.00000 0.00000 0.00000
  218 0.00000 0.00000 0.00000
  219 0.00000 0.00000 0.00000
  220 0.00000 0.00000 0.00000
  221 0.00000 0.00000 0.00000
  222 0.00000 0.00000 0.00000
  223 0.00000 0.00000 0.00000
  224 0.00000 0.00000 0.00000
  225 0.00000 0.00000 0.00000
  226 0.00000 0.00000 0.00000
  227 0.00000 0.00000 0.00000
  228 0.00000 0.00000 0.00000
  229 0.00000 0.00000 0.00000
  230 0.00000 0.00000 0.00000
  231 0.00000 0.00000 0.00000
  232 0.00000 0.00000 0.00000
  233 0.00000 0.00000 0.00000
  234 0.00000 0.00000 0.00000
  235 0.00000 0.00000 0.00000
  236 0.00000 0.00000 0.00000
  237 0.00000 0.00000 0.00000
  238 0.00000 0.00000 0.00000
  239 0.00000 0.00000 0.00000
  240 0.00000 0.00000 0.00000
  241 0.00000 0.00000 0.00000
</Section>

newXOutput 150

<Section columns = "stress_xx | stress_yy | stress_xy">
  1 0.00000 0.00000 0.00000
  2 0.00000 0.00000 0.00000
  3 0.00000 0.00000 0.00000
  4 0.00000 0.00000 0.00000
  5 0.00000 0.00000 0.00000
  6 0.00000 0.00000 0.00000
  7 0.00000 0.00000 0.00000
  8 0.00000 0.00000 0.00000
  9 0.00000 0.00000 0.00000
  10 0.00000 0.00000 0.00000
  11 0.00000 0.00000 0.00000
  12 0.00000 0.00000 0.00000
  13 0.00000 0.00000 0.00000
  14 0.00000 0.00000 0.00000
  15 0.00000 0.00000 0.00000
  16 0.00000 0.00000 0.00000
  17 0.00000 0.00000 0.00000
  18 0.00000 0.00000 0.00000
  19 0.00000 0.00000 0.00000
  20 0.00000 0.00000 0.00000
  21 0.00000 0.00000 0.00000
  22 0.00000 0.00000 0.00000
  23 0.00000 0.00000 0.00000
  24 0.00000 0.00000 0.00000
  25 0.00000 0.00000 0.00000
  26 0.00000 0.00000 0.00000
  27 0.00000 0.00000 0.00000
  28 0.00000 0.00000 0.00000
  29 0.00000 0.00000 0.00000
  30 0.00000 0.00000 0.00000
  31 0.00000 0.00000 0.00000
  32 0.00000 0.00000 0.00000
  33 0.00000 0.00000 0.00000
  34 0.00000 0.00000 0.00000
  35 0.00000 0.00000 0.00000
  36 0.00000 0.00000 0.00000
  37 0.00000 0.00000 0.00000
  38 0.00000 0.00000 0.00000
  39 0.00000 0.00000 0.00000
  40 0.00000 0.00000 0.00000
  41 0.00000 0.00000 0.00000
  42 0.00000 0.00000 0.00000
  43 0.00000 0.00000 0.00000
  44 0.00000 0.00000 0.00000
  45 0.00000 0.00000 0.00000
  46 0.00000 0.00000 0.00000
  47 0.00000 0.00000 0.00000
  48 0.00000 0.00000 0.00000
  49 0.00000 0.00000 0.00000
  50 0.00000 0.00000 0.00000
  51 0.00000 0.00000 0.00000
  52 0.00000 0.00000 0.00000
  53 0.00000 0.00000 0.00000
  54 0.00000 0.00000 0.00000
  55 0.00000 0.00000 0.00000
  56 0.00000 0.00000 0.00000
  57 0.00000 0.00000 0.00000
  58 0.00000 0.00000 0.00000
  59 0.00000 0.00000 0.00000
  60 0.00000 0.00000 0.00000
  61 0.00000 0.00000 0.00000
  62 0.00000 0.00000 0.00000
  63 0.00000 0.00000 0.00000
  64 0.00000 0.00000 0.00000
  65 0.00000 0.00000 0.00000
  66 0.00000 0.00000 0.00000
  67 0.00000 0.00000 0.00000
  68 0.00000 0.00000 0.00000
  69 0.00000 0.00000 0.00000
  70 0.00000 0.00000 0.00000
  71 0.00000 0.00000 0.00000
  72 0.00000 0.00000 0.00000
  73 0.00000 0.00000 0.00000
  74 0.00000 0.00000 0.00000
  75 0.00000 0.00000 0.00000
  76 0.00000 0.00000 0.00000
  77 0.00000 0.00000 0.00000
  78 0.00000 0.00000 0.00000
  79 0.00000 0.00000 0.00000
  80 0.00000 0.00000 0.00000
  81 0.00000 0.00000 0.00000
  82 0.00000 0.00000 0.00000
  83 0.00000 0.00000 0.00000
  84 0.00000 0.00000 0.00000
  85 0.00000 0.00000 0.00000
  86 0.00000 0.00000 0.00000
  87 0.00000 0.00000 0.00000
  88 0.00000 0.00000 0.00000
  89 0.00000 0.00000 0.00000
  90 0.00000 0.00000 0.00000
  91 0.00000 0.00000 0.00000
  92 0.00000 0.00000 0.00000
  93 0.00000 0.00000 0.00000
  94 0.00000 0.00000 0.00000
  95 0.00000 0.00000 0.00000
  96 0.00000 0.00000 0.00000
  97 0.00000 0.00000 0.00000
  98 0.00000 0.00000 0.00000
  99 0.00000 0.00000 0.00000
  100 0.00000 0.00000 0.00000
  101 0.00000 0.00000 0.00000
  102 0.00000 0.00000 0.00000
  103 0.00000 0.00000 0.00000
  104 0.00000 0.00000 0.00000
  105 0.00000 0.00000 0.00000
  106 0.00000 0.00000 0.00000
  107 0.00000 0.00000 0.00000
  108 0.00000 0.00000 0.00000
  109 0.00000 0.00000 0.00000
  110 0.00000 0.00000 0.00000
  111 0.00000 0.00000 0.00000
  112 0.00000 0.00000 0.00000
  113 0.00000 0.00000 0.00000
  114 0.00000 0.00000 0.00000
  115 0.00000 0.00000 0.00000
  116 0.00000 0.00000 0.00000
  117 0.00000 0.00000 0.00000
  118 0.00000 0.00000 0.00000
  119 0.00000 0.00000 0.00000
  120 0.00000 0.00000 0.00000
  121 0.00000 0.00000 0.00000
  122 0.00000 0.00000 0.00000
  123 0.00000 0.00000 0.00000
  124 0.00000 0.00000 0.00000
  125 0.00000 0.00000 0.00000
  126 0.00000 0.00000 0.00000
  127 0.00000 0.00000 0.00000
  128 0.00000 0.00000 0.00000
  129 0.00000 0.00000 0.00000
  130 0.00000 0.00000 0.00000
  131 0.00000 0.00000 0.00000
  132 0.00000 0.00000 0.00000
  133 0.00000 0.00000 0.00000
  134 0.00000 0.00000 0.00000
  135 0.00000 0.00000 0.00000
  136 0.00000 0.00000 0.00000
  137 0.00000 0.00000 0.00000
  138 0.00000 0.00000 0.00000
  139 0.00000 0.00000 0.00000
  140 0.00000 0.00000 0.00000
  141 0.00000 0.00000 0.00000
  142 0.00000 0.00000 0.00000
  143 0.00000 0.00000 0.00000
  144 0.00000 0.00000 0.00000
  145 0.00000 0.00000 0.00000
  146 0.00000 0.00000 0.00000
  147 0.00000 0.00000 0.00000
  148 0.00000 0.00000 0.00000
  149 0.00000 0.00000 0.00000
  150 0.00000 0.00000 0.00000
  151 0.00000 0.00000 0.00000
  152 0.00000 0.00000 0.00000
  153 0.00000 0.00000 0.00000
  154 0.00000 0.00000 0.00000
  155 0.00000 0.00000 0.00000
  156 0.00000 0.00000 0.00000
  157 0.00000 0.00000 0.00000
  158 0.00000 0.00000 0.00000
  159 0.00000 0.00000 0.00000
  160 0.00000 0.00000 0.00000
  161 0.00000 0.00000 0.00000
  162 0.00000 0.00000 0.00000
  163 0.00000 0.00000 0.00000
  164 0.00000 0.00000 0.00000
  165 0.00000 0.00000 0.00000
  166 0.00000 0.00000 0.00000
  167 0.00000 0.00000 0.00000
  168 0.00000 0.00000 0.00000
  169 0.00000 0.00000 0.00000
  170 0.00000 0.00000 0.00000
  171 0.00000 0.00000 0.00000
  172 0.00000 0.00000 0.00000
  173 0.00000 0.00000 0.00000
  174 0.00000 0.00000 0.00000
  175 0.00000 0.00000 0.00000
  176 0.00000 0.00000 0.00000
  177 0.00000 0.00000 0.00000
  178 0.00000 0.00000 0.00000
  179 0.00000 0.00000 0.00000
  180 0.00000 0.00000 0.00000
  181 0.00000 0.00000 0.00000
  182 0.00000 0.00000 0.00000
  183 0.00000 0.00000 0.00000
  184 0.00000 0.00000 0.00000
  185 0.00000 0.00000 0.00000
  186 0.00000 0.00000 0.00000
  187 0.00000 0.00000 0.00000
  188 0.00000 0.00000 0.00000
  189 0.00000 0.00000 0.00000
  190 0.00000 0.00000 0.00000
  191 0.00000 0.00000 0.00000
  192 0.00000 0.00000 0.00000
  193 0.00000 0.00000 0.00000
  194 0.00000 0.00000 0.00000
  195 0.00000 0.00000 0.00000
  196 0.00000 0.00000 0.00000
  197 0.00000 0.00000 0.00000
  198 0.00000 0.00000 0.00000
  199 0.00000 0.00000 0.00000
  200 0.00000 0.00000 0.00000
  201 0.00000 0.00000 0.00000
  202 0.00000 0.00000 0.00000
  203 0.00000 0.00000 0.00000
  204 0.00000 0.00000 0.00000
  205 0.00000 0.00000 0.00000
  206 0.00000 0.00000 0.00000
  207 0.00000 0.00000 0.00000
  208 0.00000 0.00000 0.00000
  209 0.00000 0.00000 0.00000
  210 0.00000 0.00000 0.00000
  211 0.00000 0.00000 0.00000
  212 0.00000 0.00000 0.00000
  213 0.00000 0.00000 0.00000
  214 0.00000 0.00000 0.00000
  215 0.00000 0.00000 0.00000
  216 0.00000 0.00000 0.00000
  217 0.00000 0.00000 0.00000
  218 0.00000 0.00000 0.00000
  219 0.00000 0.00000 0.00000
  220 0.00000 0.00000 0.00000
  221 0.00000 0.00000 0.00000
  222 0.00000 0.00000 0.00000
  223 0.00000 0.00000 0.00000
  224 0.00000 0.00000 0.00000
  225 0.00000 0.00000 0.00000
  226 0.00000 0.00000 0.00000
  227 0.00000 0.00000 0.00000
  228 0.00000 0.00000 0.00000
  229 0.00000 0.00000 0.00000
  230 0.00000 0.00000 0.00000
  231 0.00000 0.00000 0.00000
  232 0.00000 0.00000 0.00000
  233 0.00000 0.00000 0.00000
  234 0.00000 0.00000 0.00000
  235 0.00000 0.00000 0.00000
  236 0.00000 0.00000 0.00000
  237 0.00000 0.00000 0.00000
  238 0.00000 0.00000 0.00000
  239 0.00000 0.00000 0.00000
  240 0.00000 0.00000 0.00000
  241 0.00000 0.00000 0.00000
</Section>

newXOutput 151

<Section columns = "stress_xx | stress_yy | stress_xy">
  1 0.00000 0.00000 0.00000
  2 0.00000 0.00000 0.00000
  3 0.00000 0.00000 0.00000
  4 0.00000 0.00000 0.00000
  5 0.00000 0.00000 0.00000
  6 0.00000 0.00000 0.00000
  7 0.00000 0.00000 0.00000
  8 0.00000 0.00000 0.00000
  9 0.00000 0.00000 0.00000
  10 0.00000 0.00000 0.00000
  11 0.00000 0.00000 0.00000
  12 0.00000 0.00000 0.00000
  13 0.00000 0.00000 0.00000
  14 0.00000 0.00000 0.00000
  15 0.00000 0.00000 0.00000
  16 0.00000 0.00000 0.00000
  17 0.00000 0.00000 0.00000
  18 0.00000 0.00000 0.00000
  19 0.00000 0.00000 0.00000
  20 0.00000 0.00000 0.00000
  21 0.00000 0.00000 0.00000
  22 0.00000 0.00000 0.00000
  23 0.00000 0.00000 0.00000
  24 0.00000 0.00000 0.00000
  25 0.00000 0.00000 0.00000
  26 0.00000 0.00000 0.00000
  27 0.00000 0.00000 0.00000
  28 0.00000 0.00000 0.00000
  29 0.00000 0.00000 0.00000
  30 0.00000 0.00000 0.00000
  31 0.00000 0.00000 0.00000
  32 0.00000 0.00000 0.00000
  33 0.00000 0.00000 0.00000
  34 0.00000 0.00000 0.00000
  35 0.00000 0.00000 0.00000
  36 0.00000 0.00000 0.00000
  37 0.00000 0.00000 0.00000
  38 0.00000 0.00000 0.00000
  39 0.00000 0.00000 0.00000
  40 0.00000 0.00000 0.00000
  41 0.00000 0.00000 0.00000
  42 0.00000 0.00000 0.00000
  43 0.00000 0.00000 0.00000
  44 0.00000 0.00000 0.00000
  45 0.00000 0.00000 0.00000
  46 0.00000 0.00000 0.00000
  47 0.00000 0.00000 0.00000
  48 0.00000 0.00000 0.00000
  49 0.00000 0.00000 0.00000
  50 0.00000 0.00000 0.00000
  51 0.00000 0.00000 0.00000
  52 0.00000 0.00000 0.00000
  53 0.00000 0.00000 0.00000
  54 0.00000 0.00000 0.00000
  55 0.00000 0.00000 0.00000
  56 0.00000 0.00000 0.00000
  57 0.00000 0.00000 0.00000
  58 0.00000 0.00000 0.00000
  59 0.00000 0.00000 0.00000
  60 0.00000 0.00000 0.00000
  61 0.00000 0.00000 0.00000
  62 0.00000 0.00000 0.00000
  63 0.00000 0.00000 0.00000
  64 0.00000 0.00000 0.00000
  65 0.00000 0.00000 0.00000
  66 0.00000 0.00000 0.00000
  67 0.00000 0.00000 0.00000
  68 0.00000 0.00000 0.00000
  69 0.00000 0.00000 0.00000
  70 0.00000 0.00000 0.00000
  71 0.00000 0.00000 0.00000
  72 0.00000 0.00000 0.00000
  73 0.00000 0.00000 0.00000
  74 0.00000 0.00000 0.00000
  75 0.00000 0.00000 0.00000
  76 0.00000 0.00000 0.00000
  77 0.00000 0.00000 0.00000
  78 0.00000 0.00000 0.00000
  79 0.00000 0.00000 0.00000
  80 0.00000 0.00000 0.00000
  81 0.00000 0.00000 0.00000
  82 0.00000 0.00000 0.00000
  83 0.00000 0.00000 0.00000
  84 0.00000 0.00000 0.00000
  85 0.00000 0.00000 0.00000
  86 0.00000 0.00000 0.00000
  87 0.00000 0.00000 0.00000
  88 0.00000 0.00000 0.00000
  89 0.00000 0.00000 0.00000
  90 0.00000 0.00000 0.00000
  91 0.00000 0.00000 0.00000
  92 0.00000 0.00000 0.00000
  93 0.00000 0.00000 0.00000
  94 0.00000 0.00000 0.00000
  95 0.00000 0.00000 0.00000
  96 0.00000 0.00000 0.00000
  97 0.00000 0.00000 0.00000
  98 0.00000 0.00000 0.00000
  99 0.00000 0.00000 0.00000
  100 0.00000 0.00000 0.00000
  101 0.00000 0.00000 0.00000
  102 0.00000 0.00000 0.00000
  103 0.00000 0.00000 0.00000
  104 0.00000 0.00000 0.00000
  105 0.00000 0.00000 0.00000
  106 0.00000 0.00000 0.00000
  107 0.00000 0.00000 0.00000
  108 0.00000 0.00000 0.00000
  109 0.00000 0.00000 0.00000
  110 0.00000 0.00000 0.00000
  111 0.00000 0.00000 0.00000
  112 0.00000 0.00000 0.00000
  113 0.00000 0.00000 0.00000
  114 0.00000 0.00000 0.00000
  115 0.00000 0.00000 0.00000
  116 0.00000 0.00000 0.00000
  117 0.00000 0.00000 0.00000
  118 0.00000 0.00000 0.00000
  119 0.00000 0.00000 0.00000
  120 0.00000 0.00000 0.00000
  121 0.00000 0.00000 0.00000
  122 0.00000 0.00000 0.00000
  123 0.00000 0.00000 0.00000
  124 0.00000 0.00000 0.00000
  125 0.00000 0.00000 0.00000
  126 0.00000 0.00000 0.00000
  127 0.00000 0.00000 0.00000
  128 0.00000 0.00000 0.00000
  129 0.00000 0.00000 0.00000
  130 0.00000 0.00000 0.00000
  131 0.00000 0.00000 0.00000
  132 0.00000 0.00000 0.00000
  133 0.00000 0.00000 0.00000
  134 0.00000 0.00000 0.00000
  135 0.00000 0.00000 0.00000
  136 0.00000 0.00000 0.00000
  137 0.00000 0.00000 0.00000
  138 0.00000 0.00000 0.00000
  139 0.00000 0.00000 0.00000
  140 0.00000 0.00000 0.00000
  141 0.00000 0.00000 0.00000
  142 0.00000 0.00000 0.00000
  143 0.00000 0.00000 0.00000
  144 0.00000 0.00000 0.00000
  145 0.00000 0.00000 0.00000
  146 0.00000 0.00000 0.00000
  147 0.00000 0.00000 0.00000
  148 0.00000 0.00000 0.00000
  149 0.00000 0.00000 0.00000
  150 0.00000 0.00000 0.00000
  151 0.00000 0.00000 0.00000
  152 0.00000 0.00000 0.00000
  153 0.00000 0.00000 0.00000
  154 0.00000 0.00000 0.00000
  155 0.00000 0.00000 0.00000
  156 0.00000 0.00000 0.00000
  157 0.00000 0.00000 0.00000
  158 0.00000 0.00000 0.00000
  159 0.00000 0.00000 0.00000
  160 0.00000 0.00000 0.00000
  161 0.00000 0.00000 0.00000
  162 0.00000 0.00000 0.00000
  163 0.00000 0.00000 0.00000
  164 0.00000 0.00000 0.00000
  165 0.00000 0.00000 0.00000
  166 0.00000 0.00000 0.00000
  167 0.00000 0.00000 0.00000
  168 0.00000 0.00000 0.00000
  169 0.00000 0.00000 0.00000
  170 0.00000 0.00000 0.00000
  171 0.00000 0.00000 0.00000
  172 0.00000 0.00000 0.00000
  173 0.00000 0.00000 0.00000
  174 0.00000 0.00000 0.00000
  175 0.00000 0.00000 0.00000
  176 0.00000 0.00000 0.00000
  177 0.00000 0.00000 0.00000
  178 0.00000 0.00000 0.00000
  179 0.00000 0.00000 0.00000
  180 0.00000 0.00000 0.00000
  181 0.00000 0.00000 0.00000
  182 0.00000 0.00000 0.00000
  183 0.00000 0.00000 0.00000
  184 0.00000 0.00000 0.00000
  185 0.00000 0.00000 0.00000
  186 0.00000 0.00000 0.00000
  187 0.00000 0.00000 0.00000
  188 0.00000 0.00000 0.00000
  189 0.00000 0.00000 0.00000
  190 0.00000 0.00000 0.00000
  191 0.00000 0.00000 0.00000
  192 0.00000 0.00000 0.00000
  193 0.00000 0.00000 0.00000
  194 0.00000 0.00000 0.00000
  195 0.00000 0.00000 0.00000
  196 0.00000 0.00000 0.00000
  197 0.00000 0.00000 0.00000
  198 0.00000 0.00000 0.00000
  199 0.00000 0.00000 0.00000
  200 0.00000 0.00000 0.00000
  201 0.00000 0.00000 0.00000
  202 0.00000 0.00000 0.00000
  203 0.00000 0.00000 0.00000
  204 0.00000 0.00000 0.00000
  205 0.00000 0.00000 0.00000
  206 0.00000 0.00000 0.00000
  207 0.00000 0.00000 0.00000
  208 0.00000 0.00000 0.00000
  209 0.00000 0.00000 0.00000
  210 0.00000 0.00000 0.00000
  211 0.00000 0.00000 0.00000
  212 0.00000 0.00000 0.00000
  213 0.00000 0.00000 0.00000
  214 0.00000 0.00000 0.00000
  215 0.00000 0.00000 0.00000
  216 0.00000 0.00000 0.00000
  217 0.00000 0.00000 0.00000
  218 0.00000 0.00000 0.00000
  219 0.00000 0.00000 0.00000
  220 0.00000 0.00000 0.00000
  221 0.00000 0.00000 0.00000
  222 0.00000 0.00000 0.00000
  223 0.00000 0.00000 0.00000
  224 0.00000 0.00000 0.00000
  225 0.00000 0.00000 0.00000
  226 0.00000 0.00000 0.00000
  227 0.00000 0.00000 0.00000
  228 0.00000 0.00000 0.00000
  229 0.00000 0.00000 0.00000
  230 0.00000 0.00000 0.00000
  231 0.00000 0.00000 0.00000
  232 0.00000 0.00000 0.00000
  233 0.00000 0.00000 0.00000
  234 0.00000 0.00000 0.00000
  235 0.00000 0.00000 0.00000
  236 0.00000 0.00000 0.00000
  237 0.00000 0.00000 0.00000
  238 0.00000 0.00000 0.00000
  239 0.00000 0.00000 0.00000
  240 0.00000 0.00000 0.00000
  241 0.00000 0.00000 0.00000
</Section>

newXOutput 152

<Section columns = "stress_xx | stress_yy | stress_xy">
  1 0.00000 0.00000 0.00000
  2 0.00000 0.00000 0.00000
  3 0.00000 0.00000 0.00000
  4 0.00000 0.00000 0.00000
  5 0.00000 0.00000 0.00000
  6 0.00000 0.00000 0.00000
  7 0.00000 0.00000 0.00000
  8 0.00000 0.00000 0.00000
  9 0.00000 0.00000 0.00000
  10 0.00000 0.00000 0.00000
  11 0.00000 0.00000 0.00000
  12 0.00000 0.00000 0.00000
  13 0.00000 0.00000 0.00000
  14 0.00000 0.00000 0.00000
  15 0.00000 0.00000 0.00000
  16 0.00000 0.00000 0.00000
  17 0.00000 0.00000 0.00000
  18 0.00000 0.00000 0.00000
  19 0.00000 0.00000 0.00000
  20 0.00000 0.00000 0.00000
  21 0.00000 0.00000 0.00000
  22 0.00000 0.00000 0.00000
  23 0.00000 0.00000 0.00000
  24 0.00000 0.00000 0.00000
  25 0.00000 0.00000 0.00000
  26 0.00000 0.00000 0.00000
  27 0.00000 0.00000 0.00000
  28 0.00000 0.00000 0.00000
  29 0.00000 0.00000 0.00000
  30 0.00000 0.00000 0.00000
  31 0.00000 0.00000 0.00000
  32 0.00000 0.00000 0.00000
  33 0.00000 0.00000 0.00000
  34 0.00000 0.00000 0.00000
  35 0.00000 0.00000 0.00000
  36 0.00000 0.00000 0.00000
  37 0.00000 0.00000 0.00000
  38 0.00000 0.00000 0.00000
  39 0.00000 0.00000 0.00000
  40 0.00000 0.00000 0.00000
  41 0.00000 0.00000 0.00000
  42 0.00000 0.00000 0.00000
  43 0.00000 0.00000 0.00000
  44 0.00000 0.00000 0.00000
  45 0.00000 0.00000 0.00000
  46 0.00000 0.00000 0.00000
  47 0.00000 0.00000 0.00000
  48 0.00000 0.00000 0.00000
  49 0.00000 0.00000 0.00000
  50 0.00000 0.00000 0.00000
  51 0.00000 0.00000 0.00000
  52 0.00000 0.00000 0.00000
  53 0.00000 0.00000 0.00000
  54 0.00000 0.00000 0.00000
  55 0.00000 0.00000 0.00000
  56 0.00000 0.00000 0.00000
  57 0.00000 0.00000 0.00000
  58 0.00000 0.00000 0.00000
  59 0.00000 0.00000 0.00000
  60 0.00000 0.00000 0.00000
  61 0.00000 0.00000 0.00000
  62 0.00000 0.00000 0.00000
  63 0.00000 0.00000 0.00000
  64 0.00000 0.00000 0.00000
  65 0.00000 0.00000 0.00000
  66 0.00000 0.00000 0.00000
  67 0.00000 0.00000 0.00000
  68 0.00000 0.00000 0.00000
  69 0.00000 0.00000 0.00000
  70 0.00000 0.00000 0.00000
  71 0.00000 0.00000 0.00000
  72 0.00000 0.00000 0.00000
  73 0.00000 0.00000 0.00000
  74 0.00000 0.00000 0.00000
  75 0.00000 0.00000 0.00000
  76 0.00000 0.00000 0.00000
  77 0.00000 0.00000 0.00000
  78 0.00000 0.00000 0.00000
  79 0.00000 0.00000 0.00000
  80 0.00000 0.00000 0.00000
  81 0.00000 0.00000 0.00000
  82 0.00000 0.00000 0.00000
  83 0.00000 0.00000 0.00000
  84 0.00000 0.00000 0.00000
  85 0.00000 0.00000 0.00000
  86 0.00000 0.00000 0.00000
  87 0.00000 0.00000 0.00000
  88 0.00000 0.00000 0.00000
  89 0.00000 0.00000 0.00000
  90 0.00000 0.00000 0.00000
  91 0.00000 0.00000 0.00000
  92 0.00000 0.00000 0.00000
  93 0.00000 0.00000 0.00000
  94 0.00000 0.00000 0.00000
  95 0.00000 0.00000 0.00000
  96 0.00000 0.00000 0.00000
  97 0.00000 0.00000 0.00000
  98 0.00000 0.00000 0.00000
  99 0.00000 0.00000 0.00000
  100 0.00000 0.00000 0.00000
  101 0.00000 0.00000 0.00000
  102 0.00000 0.00000 0.00000
  103 0.00000 0.00000 0.00000
  104 0.00000 0.00000 0.00000
  105 0.00000 0.00000 0.00000
  106 0.00000 0.00000 0.00000
  107 0.00000 0.00000 0.00000
  108 0.00000 0.00000 0.00000
  109 0.00000 0.00000 0.00000
  110 0.00000 0.00000 0.00000
  111 0.00000 0.00000 0.00000
  112 0.00000 0.00000 0.00000
  113 0.00000 0.00000 0.00000
  114 0.00000 0.00000 0.00000
  115 0.00000 0.00000 0.00000
  116 0.00000 0.00000 0.00000
  117 0.00000 0.00000 0.00000
  118 0.00000 0.00000 0.00000
  119 0.00000 0.00000 0.00000
  120 0.00000 0.00000 0.00000
  121 0.00000 0.00000 0.00000
  122 0.00000 0.00000 0.00000
  123 0.00000 0.00000 0.00000
  124 0.00000 0.00000 0.00000
  125 0.00000 0.00000 0.00000
  126 0.00000 0.00000 0.00000
  127 0.00000 0.00000 0.00000
  128 0.00000 0.00000 0.00000
  129 0.00000 0.00000 0.00000
  130 0.00000 0.00000 0.00000
  131 0.00000 0.00000 0.00000
  132 0.00000 0.00000 0.00000
  133 0.00000 0.00000 0.00000
  134 0.00000 0.00000 0.00000
  135 0.00000 0.00000 0.00000
  136 0.00000 0.00000 0.00000
  137 0.00000 0.00000 0.00000
  138 0.00000 0.00000 0.00000
  139 0.00000 0.00000 0.00000
  140 0.00000 0.00000 0.00000
  141 0.00000 0.00000 0.00000
  142 0.00000 0.00000 0.00000
  143 0.00000 0.00000 0.00000
  144 0.00000 0.00000 0.00000
  145 0.00000 0.00000 0.00000
  146 0.00000 0.00000 0.00000
  147 0.00000 0.00000 0.00000
  148 0.00000 0.00000 0.00000
  149 0.00000 0.00000 0.00000
  150 0.00000 0.00000 0.00000
  151 0.00000 0.00000 0.00000
  152 0.00000 0.00000 0.00000
  153 0.00000 0.00000 0.00000
  154 0.00000 0.00000 0.00000
  155 0.00000 0.00000 0.00000
  156 0.00000 0.00000 0.00000
  157 0.00000 0.00000 0.00000
  158 0.00000 0.00000 0.00000
  159 0.00000 0.00000 0.00000
  160 0.00000 0.00000 0.00000
  161 0.00000 0.00000 0.00000
  162 0.00000 0.00000 0.00000
  163 0.00000 0.00000 0.00000
  164 0.00000 0.00000 0.00000
  165 0.00000 0.00000 0.00000
  166 0.00000 0.00000 0.00000
  167 0.00000 0.00000 0.00000
  168 0.00000 0.00000 0.00000
  169 0.00000 0.00000 0.00000
  170 0.00000 0.00000 0.00000
  171 0.00000 0.00000 0.00000
  172 0.00000 0.00000 0.00000
  173 0.00000 0.00000 0.00000
  174 0.00000 0.00000 0.00000
  175 0.00000 0.00000 0.00000
  176 0.00000 0.00000 0.00000
  177 0.00000 0.00000 0.00000
  178 0.00000 0.00000 0.00000
  179 0.00000 0.00000 0.00000
  180 0.00000 0.00000 0.00000
  181 0.00000 0.00000 0.00000
  182 0.00000 0.00000 0.00000
  183 0.00000 0.00000 0.00000
  184 0.00000 0.00000 0.00000
  185 0.00000 0.00000 0.00000
  186 0.00000 0.00000 0.00000
  187 0.00000 0.00000 0.00000
  188 0.00000 0.00000 0.00000
  189 0.00000 0.00000 0.00000
  190 0.00000 0.00000 0.00000
  191 0.00000 0.00000 0.00000
  192 0.00000 0.00000 0.00000
  193 0.00000 0.00000 0.00000
  194 0.00000 0.00000 0.00000
  195 0.00000 0.00000 0.00000
  196 0.00000 0.00000 0.00000
  197 0.00000 0.00000 0.00000
  198 0.00000 0.00000 0.00000
  199 0.00000 0.00000 0.00000
  200 0.00000 0.00000 0.00000
  201 0.00000 0.00000 0.00000
  202 0.00000 0.00000 0.00000
  203 0.00000 0.00000 0.00000
  204 0.00000 0.00000 0.00000
  205 0.00000 0.00000 0.00000
  206 0.00000 0.00000 0.00000
  207 0.00000 0.00000 0.00000
  208 0.00000 0.00000 0.00000
  209 0.00000 0.00000 0.00000
  210 0.00000 0.00000 0.00000
  211 0.00000 0.00000 0.00000
  212 0.00000 0.00000 0.00000
  213 0.00000 0.00000 0.00000
  214 0.00000 0.00000 0.00000
  215 0.00000 0.00000 0.00000
  216 0.00000 0.00000 0.00000
  217 0.00000 0.00000 0.00000
  218 0.00000 0.00000 0.00000
  219 0.00000 0.00000 0.00000
  220 0.00000 0.00000 0.00000
  221 0.00000 0.00000 0.00000
  222 0.00000 0.00000 0.00000
  223 0.00000 0.00000 0.00000
  224 0.00000 0.00000 0.00000
  225 0.00000 0.00000 0.00000
  226 0.00000 0.00000 0.00000
  227 0.00000 0.00000 0.00000
  228 0.00000 0.00000 0.00000
  229 0.00000 0.00000 0.00000
  230 0.00000 0.00000 0.00000
  231 0.00000 0.00000 0.00000
  232 0.00000 0.00000 0.00000
  233 0.00000 0.00000 0.00000
  234 0.00000 0.00000 0.00000
  235 0.00000 0.00000 0.00000
  236 0.00000 0.00000 0.00000
  237 0.00000 0.00000 0.00000
  238 0.00000 0.00000 0.00000
  239 0.00000 0.00000 0.00000
  240 0.00000 0.00000 0.00000
  241 0.00000 0.00000 0.00000
</Section>

newXOutput 153

<Section columns = "stress_xx | stress_yy | stress_xy">
  1 0.00000 0.00000 0.00000
  2 0.00000 0.00000 0.00000
  3 0.00000 0.00000 0.00000
  4 0.00000 0.00000 0.00000
  5 0.00000 0.00000 0.00000
  6 0.00000 0.00000 0.00000
  7 0.00000 0.00000 0.00000
  8 0.00000 0.00000 0.00000
  9 0.00000 0.00000 0.00000
  10 0.00000 0.00000 0.00000
  11 0.00000 0.00000 0.00000
  12 0.00000 0.00000 0.00000
  13 0.00000 0.00000 0.00000
  14 0.00000 0.00000 0.00000
  15 0.00000 0.00000 0.00000
  16 0.00000 0.00000 0.00000
  17 0.00000 0.00000 0.00000
  18 0.00000 0.00000 0.00000
  19 0.00000 0.00000 0.00000
  20 0.00000 0.00000 0.00000
  21 0.00000 0.00000 0.00000
  22 0.00000 0.00000 0.00000
  23 0.00000 0.00000 0.00000
  24 0.00000 0.00000 0.00000
  25 0.00000 0.00000 0.00000
  26 0.00000 0.00000 0.00000
  27 0.00000 0.00000 0.00000
  28 0.00000 0.00000 0.00000
  29 0.00000 0.00000 0.00000
  30 0.00000 0.00000 0.00000
  31 0.00000 0.00000 0.00000
  32 0.00000 0.00000 0.00000
  33 0.00000 0.00000 0.00000
  34 0.00000 0.00000 0.00000
  35 0.00000 0.00000 0.00000
  36 0.00000 0.00000 0.00000
  37 0.00000 0.00000 0.00000
  38 0.00000 0.00000 0.00000
  39 0.00000 0.00000 0.00000
  40 0.00000 0.00000 0.00000
  41 0.00000 0.00000 0.00000
  42 0.00000 0.00000 0.00000
  43 0.00000 0.00000 0.00000
  44 0.00000 0.00000 0.00000
  45 0.00000 0.00000 0.00000
  46 0.00000 0.00000 0.00000
  47 0.00000 0.00000 0.00000
  48 0.00000 0.00000 0.00000
  49 0.00000 0.00000 0.00000
  50 0.00000 0.00000 0.00000
  51 0.00000 0.00000 0.00000
  52 0.00000 0.00000 0.00000
  53 0.00000 0.00000 0.00000
  54 0.00000 0.00000 0.00000
  55 0.00000 0.00000 0.00000
  56 0.00000 0.00000 0.00000
  57 0.00000 0.00000 0.00000
  58 0.00000 0.00000 0.00000
  59 0.00000 0.00000 0.00000
  60 0.00000 0.00000 0.00000
  61 0.00000 0.00000 0.00000
  62 0.00000 0.00000 0.00000
  63 0.00000 0.00000 0.00000
  64 0.00000 0.00000 0.00000
  65 0.00000 0.00000 0.00000
  66 0.00000 0.00000 0.00000
  67 0.00000 0.00000 0.00000
  68 0.00000 0.00000 0.00000
  69 0.00000 0.00000 0.00000
  70 0.00000 0.00000 0.00000
  71 0.00000 0.00000 0.00000
  72 0.00000 0.00000 0.00000
  73 0.00000 0.00000 0.00000
  74 0.00000 0.00000 0.00000
  75 0.00000 0.00000 0.00000
  76 0.00000 0.00000 0.00000
  77 0.00000 0.00000 0.00000
  78 0.00000 0.00000 0.00000
  79 0.00000 0.00000 0.00000
  80 0.00000 0.00000 0.00000
  81 0.00000 0.00000 0.00000
  82 0.00000 0.00000 0.00000
  83 0.00000 0.00000 0.00000
  84 0.00000 0.00000 0.00000
  85 0.00000 0.00000 0.00000
  86 0.00000 0.00000 0.00000
  87 0.00000 0.00000 0.00000
  88 0.00000 0.00000 0.00000
  89 0.00000 0.00000 0.00000
  90 0.00000 0.00000 0.00000
  91 0.00000 0.00000 0.00000
  92 0.00000 0.00000 0.00000
  93 0.00000 0.00000 0.00000
  94 0.00000 0.00000 0.00000
  95 0.00000 0.00000 0.00000
  96 0.00000 0.00000 0.00000
  97 0.00000 0.00000 0.00000
  98 0.00000 0.00000 0.00000
  99 0.00000 0.00000 0.00000
  100 0.00000 0.00000 0.00000
  101 0.00000 0.00000 0.00000
  102 0.00000 0.00000 0.00000
  103 0.00000 0.00000 0.00000
  104 0.00000 0.00000 0.00000
  105 0.00000 0.00000 0.00000
  106 0.00000 0.00000 0.00000
  107 0.00000 0.00000 0.00000
  108 0.00000 0.00000 0.00000
  109 0.00000 0.00000 0.00000
  110 0.00000 0.00000 0.00000
  111 0.00000 0.00000 0.00000
  112 0.00000 0.00000 0.00000
  113 0.00000 0.00000 0.00000
  114 0.00000 0.00000 0.00000
  115 0.00000 0.00000 0.00000
  116 0.00000 0.00000 0.00000
  117 0.00000 0.00000 0.00000
  118 0.00000 0.00000 0.00000
  119 0.00000 0.00000 0.00000
  120 0.00000 0.00000 0.00000
  121 0.00000 0.00000 0.00000
  122 0.00000 0.00000 0.00000
  123 0.00000 0.00000 0.00000
  124 0.00000 0.00000 0.00000
  125 0.00000 0.00000 0.00000
  126 0.00000 0.00000 0.00000
  127 0.00000 0.00000 0.00000
  128 0.00000 0.00000 0.00000
  129 0.00000 0.00000 0.00000
  130 0.00000 0.00000 0.00000
  131 0.00000 0.00000 0.00000
  132 0.00000 0.00000 0.00000
  133 0.00000 0.00000 0.00000
  134 0.00000 0.00000 0.00000
  135 0.00000 0.00000 0.00000
  136 0.00000 0.00000 0.00000
  137 0.00000 0.00000 0.00000
  138 0.00000 0.00000 0.00000
  139 0.00000 0.00000 0.00000
  140 0.00000 0.00000 0.00000
  141 0.00000 0.00000 0.00000
  142 0.00000 0.00000 0.00000
  143 0.00000 0.00000 0.00000
  144 0.00000 0.00000 0.00000
  145 0.00000 0.00000 0.00000
  146 0.00000 0.00000 0.00000
  147 0.00000 0.00000 0.00000
  148 0.00000 0.00000 0.00000
  149 0.00000 0.00000 0.00000
  150 0.00000 0.00000 0.00000
  151 0.00000 0.00000 0.00000
  152 0.00000 0.00000 0.00000
  153 0.00000 0.00000 0.00000
  154 0.00000 0.00000 0.00000
  155 0.00000 0.00000 0.00000
  156 0.00000 0.00000 0.00000
  157 0.00000 0.00000 0.00000
  158 0.00000 0.00000 0.00000
  159 0.00000 0.00000 0.00000
  160 0.00000 0.00000 0.00000
  161 0.00000 0.00000 0.00000
  162 0.00000 0.00000 0.00000
  163 0.00000 0.00000 0.00000
  164 0.00000 0.00000 0.00000
  165 0.00000 0.00000 0.00000
  166 0.00000 0.00000 0.00000
  167 0.00000 0.00000 0.00000
  168 0.00000 0.00000 0.00000
  169 0.00000 0.00000 0.00000
  170 0.00000 0.00000 0.00000
  171 0.00000 0.00000 0.00000
  172 0.00000 0.00000 0.00000
  173 0.00000 0.00000 0.00000
  174 0.00000 0.00000 0.00000
  175 0.00000 0.00000 0.00000
  176 0.00000 0.00000 0.00000
  177 0.00000 0.00000 0.00000
  178 0.00000 0.00000 0.00000
  179 0.00000 0.00000 0.00000
  180 0.00000 0.00000 0.00000
  181 0.00000 0.00000 0.00000
  182 0.00000 0.00000 0.00000
  183 0.00000 0.00000 0.00000
  184 0.00000 0.00000 0.00000
  185 0.00000 0.00000 0.00000
  186 0.00000 0.00000 0.00000
  187 0.00000 0.00000 0.00000
  188 0.00000 0.00000 0.00000
  189 0.00000 0.00000 0.00000
  190 0.00000 0.00000 0.00000
  191 0.00000 0.00000 0.00000
  192 0.00000 0.00000 0.00000
  193 0.00000 0.00000 0.00000
  194 0.00000 0.00000 0.00000
  195 0.00000 0.00000 0.00000
  196 0.00000 0.00000 0.00000
  197 0.00000 0.00000 0.00000
  198 0.00000 0.00000 0.00000
  199 0.00000 0.00000 0.00000
  200 0.00000 0.00000 0.00000
  201 0.00000 0.00000 0.00000
  202 0.00000 0.00000 0.00000
  203 0.00000 0.00000 0.00000
  204 0.00000 0.00000 0.00000
  205 0.00000 0.00000 0.00000
  206 0.00000 0.00000 0.00000
  207 0.00000 0.00000 0.00000
  208 0.00000 0.00000 0.00000
  209 0.00000 0.00000 0.00000
  210 0.00000 0.00000 0.00000
  211 0.00000 0.00000 0.00000
  212 0.00000 0.00000 0.00000
  213 0.00000 0.00000 0.00000
  214 0.00000 0.00000 0.00000
  215 0.00000 0.00000 0.00000
  216 0.00000 0.00000 0.00000
  217 0.00000 0.00000 0.00000
  218 0.00000 0.00000 0.00000
  219 0.00000 0.00000 0.00000
  220 0.00000 0.00000 0.00000
  221 0.00000 0.00000 0.00000
  222 0.00000 0.00000 0.00000
  223 0.00000 0.00000 0.00000
  224 0.00000 0.00000 0.00000
  225 0.00000 0.00000 0.00000
  226 0.00000 0.00000 0.00000
  227 0.00000 0.00000 0.00000
  228 0.00000 0.00000 0.00000
  229 0.00000 0.00000 0.00000
  230 0.00000 0.00000 0.00000
  231 0.00000 0.00000 0.00000
  232 0.00000 0.00000 0.00000
  233 0.00000 0.00000 0.00000
  234 0.00000 0.00000 0.00000
  235 0.00000 0.00000 0.00000
  236 0.00000 0.00000 0.00000
  237 0.00000 0.00000 0.00000
  238 0.00000 0.00000 0.00000
  239 0.00000 0.00000 0.00000
  240 0.00000 0.00000 0.00000
  241 0.00000 0.00000 0.00000
</Section>

newXOutput 154

<Section columns = "stress_xx | stress_yy | stress_xy">
  1 0.00000 0.00000 0.00000
  2 0.00000 0.00000 0.00000
  3 0.00000 0.00000 0.00000
  4 0.00000 0.00000 0.00000
  5 0.00000 0.00000 0.00000
  6 0.00000 0.00000 0.00000
  7 0.00000 0.00000 0.00000
  8 0.00000 0.00000 0.00000
  9 0.00000 0.00000 0.00000
  10 0.00000 0.00000 0.00000
  11 0.00000 0.00000 0.00000
  12 0.00000 0.00000 0.00000
  13 0.00000 0.00000 0.00000
  14 0.00000 0.00000 0.00000
  15 0.00000 0.00000 0.00000
  16 0.00000 0.00000 0.00000
  17 0.00000 0.00000 0.00000
  18 0.00000 0.00000 0.00000
  19 0.00000 0.00000 0.00000
  20 0.00000 0.00000 0.00000
  21 0.00000 0.00000 0.00000
  22 0.00000 0.00000 0.00000
  23 0.00000 0.00000 0.00000
  24 0.00000 0.00000 0.00000
  25 0.00000 0.00000 0.00000
  26 0.00000 0.00000 0.00000
  27 0.00000 0.00000 0.00000
  28 0.00000 0.00000 0.00000
  29 0.00000 0.00000 0.00000
  30 0.00000 0.00000 0.00000
  31 0.00000 0.00000 0.00000
  32 0.00000 0.00000 0.00000
  33 0.00000 0.00000 0.00000
  34 0.00000 0.00000 0.00000
  35 0.00000 0.00000 0.00000
  36 0.00000 0.00000 0.00000
  37 0.00000 0.00000 0.00000
  38 0.00000 0.00000 0.00000
  39 0.00000 0.00000 0.00000
  40 0.00000 0.00000 0.00000
  41 0.00000 0.00000 0.00000
  42 0.00000 0.00000 0.00000
  43 0.00000 0.00000 0.00000
  44 0.00000 0.00000 0.00000
  45 0.00000 0.00000 0.00000
  46 0.00000 0.00000 0.00000
  47 0.00000 0.00000 0.00000
  48 0.00000 0.00000 0.00000
  49 0.00000 0.00000 0.00000
  50 0.00000 0.00000 0.00000
  51 0.00000 0.00000 0.00000
  52 0.00000 0.00000 0.00000
  53 0.00000 0.00000 0.00000
  54 0.00000 0.00000 0.00000
  55 0.00000 0.00000 0.00000
  56 0.00000 0.00000 0.00000
  57 0.00000 0.00000 0.00000
  58 0.00000 0.00000 0.00000
  59 0.00000 0.00000 0.00000
  60 0.00000 0.00000 0.00000
  61 0.00000 0.00000 0.00000
  62 0.00000 0.00000 0.00000
  63 0.00000 0.00000 0.00000
  64 0.00000 0.00000 0.00000
  65 0.00000 0.00000 0.00000
  66 0.00000 0.00000 0.00000
  67 0.00000 0.00000 0.00000
  68 0.00000 0.00000 0.00000
  69 0.00000 0.00000 0.00000
  70 0.00000 0.00000 0.00000
  71 0.00000 0.00000 0.00000
  72 0.00000 0.00000 0.00000
  73 0.00000 0.00000 0.00000
  74 0.00000 0.00000 0.00000
  75 0.00000 0.00000 0.00000
  76 0.00000 0.00000 0.00000
  77 0.00000 0.00000 0.00000
  78 0.00000 0.00000 0.00000
  79 0.00000 0.00000 0.00000
  80 0.00000 0.00000 0.00000
  81 0.00000 0.00000 0.00000
  82 0.00000 0.00000 0.00000
  83 0.00000 0.00000 0.00000
  84 0.00000 0.00000 0.00000
  85 0.00000 0.00000 0.00000
  86 0.00000 0.00000 0.00000
  87 0.00000 0.00000 0.00000
  88 0.00000 0.00000 0.00000
  89 0.00000 0.00000 0.00000
  90 0.00000 0.00000 0.00000
  91 0.00000 0.00000 0.00000
  92 0.00000 0.00000 0.00000
  93 0.00000 0.00000 0.00000
  94 0.00000 0.00000 0.00000
  95 0.00000 0.00000 0.00000
  96 0.00000 0.00000 0.00000
  97 0.00000 0.00000 0.00000
  98 0.00000 0.00000 0.00000
  99 0.00000 0.00000 0.00000
  100 0.00000 0.00000 0.00000
  101 0.00000 0.00000 0.00000
  102 0.00000 0.00000 0.00000
  103 0.00000 0.00000 0.00000
  104 0.00000 0.00000 0.00000
  105 0.00000 0.00000 0.00000
  106 0.00000 0.00000 0.00000
  107 0.00000 0.00000 0.00000
  108 0.00000 0.00000 0.00000
  109 0.00000 0.00000 0.00000
  110 0.00000 0.00000 0.00000
  111 0.00000 0.00000 0.00000
  112 0.00000 0.00000 0.00000
  113 0.00000 0.00000 0.00000
  114 0.00000 0.00000 0.00000
  115 0.00000 0.00000 0.00000
  116 0.00000 0.00000 0.00000
  117 0.00000 0.00000 0.00000
  118 0.00000 0.00000 0.00000
  119 0.00000 0.00000 0.00000
  120 0.00000 0.00000 0.00000
  121 0.00000 0.00000 0.00000
  122 0.00000 0.00000 0.00000
  123 0.00000 0.00000 0.00000
  124 0.00000 0.00000 0.00000
  125 0.00000 0.00000 0.00000
  126 0.00000 0.00000 0.00000
  127 0.00000 0.00000 0.00000
  128 0.00000 0.00000 0.00000
  129 0.00000 0.00000 0.00000
  130 0.00000 0.00000 0.00000
  131 0.00000 0.00000 0.00000
  132 0.00000 0.00000 0.00000
  133 0.00000 0.00000 0.00000
  134 0.00000 0.00000 0.00000
  135 0.00000 0.00000 0.00000
  136 0.00000 0.00000 0.00000
  137 0.00000 0.00000 0.00000
  138 0.00000 0.00000 0.00000
  139 0.00000 0.00000 0.00000
  140 0.00000 0.00000 0.00000
  141 0.00000 0.00000 0.00000
  142 0.00000 0.00000 0.00000
  143 0.00000 0.00000 0.00000
  144 0.00000 0.00000 0.00000
  145 0.00000 0.00000 0.00000
  146 0.00000 0.00000 0.00000
  147 0.00000 0.00000 0.00000
  148 0.00000 0.00000 0.00000
  149 0.00000 0.00000 0.00000
  150 0.00000 0.00000 0.00000
  151 0.00000 0.00000 0.00000
  152 0.00000 0.00000 0.00000
  153 0.00000 0.00000 0.00000
  154 0.00000 0.00000 0.00000
  155 0.00000 0.00000 0.00000
  156 0.00000 0.00000 0.00000
  157 0.00000 0.00000 0.00000
  158 0.00000 0.00000 0.00000
  159 0.00000 0.00000 0.00000
  160 0.00000 0.00000 0.00000
  161 0.00000 0.00000 0.00000
  162 0.00000 0.00000 0.00000
  163 0.00000 0.00000 0.00000
  164 0.00000 0.00000 0.00000
  165 0.00000 0.00000 0.00000
  166 0.00000 0.00000 0.00000
  167 0.00000 0.00000 0.00000
  168 0.00000 0.00000 0.00000
  169 0.00000 0.00000 0.00000
  170 0.00000 0.00000 0.00000
  171 0.00000 0.00000 0.00000
  172 0.00000 0.00000 0.00000
  173 0.00000 0.00000 0.00000
  174 0.00000 0.00000 0.00000
  175 0.00000 0.00000 0.00000
  176 0.00000 0.00000 0.00000
  177 0.00000 0.00000 0.00000
  178 0.00000 0.00000 0.00000
  179 0.00000 0.00000 0.00000
  180 0.00000 0.00000 0.00000
  181 0.00000 0.00000 0.00000
  182 0.00000 0.00000 0.00000
  183 0.00000 0.00000 0.00000
  184 0.00000 0.00000 0.00000
  185 0.00000 0.00000 0.00000
  186 0.00000 0.00000 0.00000
  187 0.00000 0.00000 0.00000
  188 0.00000 0.00000 0.00000
  189 0.00000 0.00000 0.00000
  190 0.00000 0.00000 0.00000
  191 0.00000 0.00000 0.00000
  192 0.00000 0.00000 0.00000
  193 0.00000 0.00000 0.00000
  194 0.00000 0.00000 0.00000
  195 0.00000 0.00000 0.00000
  196 0.00000 0.00000 0.00000
  197 0.00000 0.00000 0.00000
  198 0.00000 0.00000 0.00000
  199 0.00000 0.00000 0.00000
  200 0.00000 0.00000 0.00000
  201 0.00000 0.00000 0.00000
  202 0.00000 0.00000 0.00000
  203 0.00000 0.00000 0.00000
  204 0.00000 0.00000 0.00000
  205 0.00000 0.00000 0.00000
  206 0.00000 0.00000 0.00000
  207 0.00000 0.00000 0.00000
  208 0.00000 0.00000 0.00000
  209 0.00000 0.00000 0.00000
  210 0.00000 0.00000 0.00000
  211 0.00000 0.00000 0.00000
  212 0.00000 0.00000 0.00000
  213 0.00000 0.00000 0.00000
  214 0.00000 0.00000 0.00000
  215 0.00000 0.00000 0.00000
  216 0.00000 0.00000 0.00000
  217 0.00000 0.00000 0.00000
  218 0.00000 0.00000 0.00000
  219 0.00000 0.00000 0.00000
  220 0.00000 0.00000 0.00000
  221 0.00000 0.00000 0.00000
  222 0.00000 0.00000 0.00000
  223 0.00000 0.00000 0.00000
  224 0.00000 0.00000 0.00000
  225 0.00000 0.00000 0.00000
  226 0.00000 0.00000 0.00000
  227 0.00000 0.00000 0.00000
  228 0.00000 0.00000 0.00000
  229 0.00000 0.00000 0.00000
  230 0.00000 0.00000 0.00000
  231 0.00000 0.00000 0.00000
  232 0.00000 0.00000 0.00000
  233 0.00000 0.00000 0.00000
  234 0.00000 0.00000 0.00000
  235 0.00000 0.00000 0.00000
  236 0.00000 0.00000 0.00000
  237 0.00000 0.00000 0.00000
  238 0.00000 0.00000 0.00000
  239 0.00000 0.00000 0.00000
  240 0.00000 0.00000 0.00000
  241 0.00000 0.00000 0.00000
</Section>

newXOutput 155

<Section columns = "stress_xx | stress_yy | stress_xy">
  1 0.00000 0.00000 0.00000
  2 0.00000 0.00000 0.00000
  3 0.00000 0.00000 0.00000
  4 0.00000 0.00000 0.00000
  5 0.00000 0.00000 0.00000
  6 0.00000 0.00000 0.00000
  7 0.00000 0.00000 0.00000
  8 0.00000 0.00000 0.00000
  9 0.00000 0.00000 0.00000
  10 0.00000 0.00000 0.00000
  11 0.00000 0.00000 0.00000
  12 0.00000 0.00000 0.00000
  13 0.00000 0.00000 0.00000
  14 0.00000 0.00000 0.00000
  15 0.00000 0.00000 0.00000
  16 0.00000 0.00000 0.00000
  17 0.00000 0.00000 0.00000
  18 0.00000 0.00000 0.00000
  19 0.00000 0.00000 0.00000
  20 0.00000 0.00000 0.00000
  21 0.00000 0.00000 0.00000
  22 0.00000 0.00000 0.00000
  23 0.00000 0.00000 0.00000
  24 0.00000 0.00000 0.00000
  25 0.00000 0.00000 0.00000
  26 0.00000 0.00000 0.00000
  27 0.00000 0.00000 0.00000
  28 0.00000 0.00000 0.00000
  29 0.00000 0.00000 0.00000
  30 0.00000 0.00000 0.00000
  31 0.00000 0.00000 0.00000
  32 0.00000 0.00000 0.00000
  33 0.00000 0.00000 0.00000
  34 0.00000 0.00000 0.00000
  35 0.00000 0.00000 0.00000
  36 0.00000 0.00000 0.00000
  37 0.00000 0.00000 0.00000
  38 0.00000 0.00000 0.00000
  39 0.00000 0.00000 0.00000
  40 0.00000 0.00000 0.00000
  41 0.00000 0.00000 0.00000
  42 0.00000 0.00000 0.00000
  43 0.00000 0.00000 0.00000
  44 0.00000 0.00000 0.00000
  45 0.00000 0.00000 0.00000
  46 0.00000 0.00000 0.00000
  47 0.00000 0.00000 0.00000
  48 0.00000 0.00000 0.00000
  49 0.00000 0.00000 0.00000
  50 0.00000 0.00000 0.00000
  51 0.00000 0.00000 0.00000
  52 0.00000 0.00000 0.00000
  53 0.00000 0.00000 0.00000
  54 0.00000 0.00000 0.00000
  55 0.00000 0.00000 0.00000
  56 0.00000 0.00000 0.00000
  57 0.00000 0.00000 0.00000
  58 0.00000 0.00000 0.00000
  59 0.00000 0.00000 0.00000
  60 0.00000 0.00000 0.00000
  61 0.00000 0.00000 0.00000
  62 0.00000 0.00000 0.00000
  63 0.00000 0.00000 0.00000
  64 0.00000 0.00000 0.00000
  65 0.00000 0.00000 0.00000
  66 0.00000 0.00000 0.00000
  67 0.00000 0.00000 0.00000
  68 0.00000 0.00000 0.00000
  69 0.00000 0.00000 0.00000
  70 0.00000 0.00000 0.00000
  71 0.00000 0.00000 0.00000
  72 0.00000 0.00000 0.00000
  73 0.00000 0.00000 0.00000
  74 0.00000 0.00000 0.00000
  75 0.00000 0.00000 0.00000
  76 0.00000 0.00000 0.00000
  77 0.00000 0.00000 0.00000
  78 0.00000 0.00000 0.00000
  79 0.00000 0.00000 0.00000
  80 0.00000 0.00000 0.00000
  81 0.00000 0.00000 0.00000
  82 0.00000 0.00000 0.00000
  83 0.00000 0.00000 0.00000
  84 0.00000 0.00000 0.00000
  85 0.00000 0.00000 0.00000
  86 0.00000 0.00000 0.00000
  87 0.00000 0.00000 0.00000
  88 0.00000 0.00000 0.00000
  89 0.00000 0.00000 0.00000
  90 0.00000 0.00000 0.00000
  91 0.00000 0.00000 0.00000
  92 0.00000 0.00000 0.00000
  93 0.00000 0.00000 0.00000
  94 0.00000 0.00000 0.00000
  95 0.00000 0.00000 0.00000
  96 0.00000 0.00000 0.00000
  97 0.00000 0.00000 0.00000
  98 0.00000 0.00000 0.00000
  99 0.00000 0.00000 0.00000
  100 0.00000 0.00000 0.00000
  101 0.00000 0.00000 0.00000
  102 0.00000 0.00000 0.00000
  103 0.00000 0.00000 0.00000
  104 0.00000 0.00000 0.00000
  105 0.00000 0.00000 0.00000
  106 0.00000 0.00000 0.00000
  107 0.00000 0.00000 0.00000
  108 0.00000 0.00000 0.00000
  109 0.00000 0.00000 0.00000
  110 0.00000 0.00000 0.00000
  111 0.00000 0.00000 0.00000
  112 0.00000 0.00000 0.00000
  113 0.00000 0.00000 0.00000
  114 0.00000 0.00000 0.00000
  115 0.00000 0.00000 0.00000
  116 0.00000 0.00000 0.00000
  117 0.00000 0.00000 0.00000
  118 0.00000 0.00000 0.00000
  119 0.00000 0.00000 0.00000
  120 0.00000 0.00000 0.00000
  121 0.00000 0.00000 0.00000
  122 0.00000 0.00000 0.00000
  123 0.00000 0.00000 0.00000
  124 0.00000 0.00000 0.00000
  125 0.00000 0.00000 0.00000
  126 0.00000 0.00000 0.00000
  127 0.00000 0.00000 0.00000
  128 0.00000 0.00000 0.00000
  129 0.00000 0.00000 0.00000
  130 0.00000 0.00000 0.00000
  131 0.00000 0.00000 0.00000
  132 0.00000 0.00000 0.00000
  133 0.00000 0.00000 0.00000
  134 0.00000 0.00000 0.00000
  135 0.00000 0.00000 0.00000
  136 0.00000 0.00000 0.00000
  137 0.00000 0.00000 0.00000
  138 0.00000 0.00000 0.00000
  139 0.00000 0.00000 0.00000
  140 0.00000 0.00000 0.00000
  141 0.00000 0.00000 0.00000
  142 0.00000 0.00000 0.00000
  143 0.00000 0.00000 0.00000
  144 0.00000 0.00000 0.00000
  145 0.00000 0.00000 0.00000
  146 0.00000 0.00000 0.00000
  147 0.00000 0.00000 0.00000
  148 0.00000 0.00000 0.00000
  149 0.00000 0.00000 0.00000
  150 0.00000 0.00000 0.00000
  151 0.00000 0.00000 0.00000
  152 0.00000 0.00000 0.00000
  153 0.00000 0.00000 0.00000
  154 0.00000 0.00000 0.00000
  155 0.00000 0.00000 0.00000
  156 0.00000 0.00000 0.00000
  157 0.00000 0.00000 0.00000
  158 0.00000 0.00000 0.00000
  159 0.00000 0.00000 0.00000
  160 0.00000 0.00000 0.00000
  161 0.00000 0.00000 0.00000
  162 0.00000 0.00000 0.00000
  163 0.00000 0.00000 0.00000
  164 0.00000 0.00000 0.00000
  165 0.00000 0.00000 0.00000
  166 0.00000 0.00000 0.00000
  167 0.00000 0.00000 0.00000
  168 0.00000 0.00000 0.00000
  169 0.00000 0.00000 0.00000
  170 0.00000 0.00000 0.00000
  171 0.00000 0.00000 0.00000
  172 0.00000 0.00000 0.00000
  173 0.00000 0.00000 0.00000
  174 0.00000 0.00000 0.00000
  175 0.00000 0.00000 0.00000
  176 0.00000 0.00000 0.00000
  177 0.00000 0.00000 0.00000
  178 0.00000 0.00000 0.00000
  179 0.00000 0.00000 0.00000
  180 0.00000 0.00000 0.00000
  181 0.00000 0.00000 0.00000
  182 0.00000 0.00000 0.00000
  183 0.00000 0.00000 0.00000
  184 0.00000 0.00000 0.00000
  185 0.00000 0.00000 0.00000
  186 0.00000 0.00000 0.00000
  187 0.00000 0.00000 0.00000
  188 0.00000 0.00000 0.00000
  189 0.00000 0.00000 0.00000
  190 0.00000 0.00000 0.00000
  191 0.00000 0.00000 0.00000
  192 0.00000 0.00000 0.00000
  193 0.00000 0.00000 0.00000
  194 0.00000 0.00000 0.00000
  195 0.00000 0.00000 0.00000
  196 0.00000 0.00000 0.00000
  197 0.00000 0.00000 0.00000
  198 0.00000 0.00000 0.00000
  199 0.00000 0.00000 0.00000
  200 0.00000 0.00000 0.00000
  201 0.00000 0.00000 0.00000
  202 0.00000 0.00000 0.00000
  203 0.00000 0.00000 0.00000
  204 0.00000 0.00000 0.00000
  205 0.00000 0.00000 0.00000
  206 0.00000 0.00000 0.00000
  207 0.00000 0.00000 0.00000
  208 0.00000 0.00000 0.00000
  209 0.00000 0.00000 0.00000
  210 0.00000 0.00000 0.00000
  211 0.00000 0.00000 0.00000
  212 0.00000 0.00000 0.00000
  213 0.00000 0.00000 0.00000
  214 0.00000 0.00000 0.00000
  215 0.00000 0.00000 0.00000
  216 0.00000 0.00000 0.00000
  217 0.00000 0.00000 0.00000
  218 0.00000 0.00000 0.00000
  219 0.00000 0.00000 0.00000
  220 0.00000 0.00000 0.00000
  221 0.00000 0.00000 0.00000
  222 0.00000 0.00000 0.00000
  223 0.00000 0.00000 0.00000
  224 0.00000 0.00000 0.00000
  225 0.00000 0.00000 0.00000
  226 0.00000 0.00000 0.00000
  227 0.00000 0.00000 0.00000
  228 0.00000 0.00000 0.00000
  229 0.00000 0.00000 0.00000
  230 0.00000 0.00000 0.00000
  231 0.00000 0.00000 0.00000
  232 0.00000 0.00000 0.00000
  233 0.00000 0.00000 0.00000
  234 0.00000 0.00000 0.00000
  235 0.00000 0.00000 0.00000
  236 0.00000 0.00000 0.00000
  237 0.00000 0.00000 0.00000
  238 0.00000 0.00000 0.00000
  239 0.00000 0.00000 0.00000
  240 0.00000 0.00000 0.00000
  241 0.00000 0.00000 0.00000
</Section>

newXOutput 156

<Section columns = "stress_xx | stress_yy | stress_xy">
  1 0.00000 0.00000 0.00000
  2 0.00000 0.00000 0.00000
  3 0.00000 0.00000 0.00000
  4 0.00000 0.00000 0.00000
  5 0.00000 0.00000 0.00000
  6 0.00000 0.00000 0.00000
  7 0.00000 0.00000 0.00000
  8 0.00000 0.00000 0.00000
  9 0.00000 0.00000 0.00000
  10 0.00000 0.00000 0.00000
  11 0.00000 0.00000 0.00000
  12 0.00000 0.00000 0.00000
  13 0.00000 0.00000 0.00000
  14 0.00000 0.00000 0.00000
  15 0.00000 0.00000 0.00000
  16 0.00000 0.00000 0.00000
  17 0.00000 0.00000 0.00000
  18 0.00000 0.00000 0.00000
  19 0.00000 0.00000 0.00000
  20 0.00000 0.00000 0.00000
  21 0.00000 0.00000 0.00000
  22 0.00000 0.00000 0.00000
  23 0.00000 0.00000 0.00000
  24 0.00000 0.00000 0.00000
  25 0.00000 0.00000 0.00000
  26 0.00000 0.00000 0.00000
  27 0.00000 0.00000 0.00000
  28 0.00000 0.00000 0.00000
  29 0.00000 0.00000 0.00000
  30 0.00000 0.00000 0.00000
  31 0.00000 0.00000 0.00000
  32 0.00000 0.00000 0.00000
  33 0.00000 0.00000 0.00000
  34 0.00000 0.00000 0.00000
  35 0.00000 0.00000 0.00000
  36 0.00000 0.00000 0.00000
  37 0.00000 0.00000 0.00000
  38 0.00000 0.00000 0.00000
  39 0.00000 0.00000 0.00000
  40 0.00000 0.00000 0.00000
  41 0.00000 0.00000 0.00000
  42 0.00000 0.00000 0.00000
  43 0.00000 0.00000 0.00000
  44 0.00000 0.00000 0.00000
  45 0.00000 0.00000 0.00000
  46 0.00000 0.00000 0.00000
  47 0.00000 0.00000 0.00000
  48 0.00000 0.00000 0.00000
  49 0.00000 0.00000 0.00000
  50 0.00000 0.00000 0.00000
  51 0.00000 0.00000 0.00000
  52 0.00000 0.00000 0.00000
  53 0.00000 0.00000 0.00000
  54 0.00000 0.00000 0.00000
  55 0.00000 0.00000 0.00000
  56 0.00000 0.00000 0.00000
  57 0.00000 0.00000 0.00000
  58 0.00000 0.00000 0.00000
  59 0.00000 0.00000 0.00000
  60 0.00000 0.00000 0.00000
  61 0.00000 0.00000 0.00000
  62 0.00000 0.00000 0.00000
  63 0.00000 0.00000 0.00000
  64 0.00000 0.00000 0.00000
  65 0.00000 0.00000 0.00000
  66 0.00000 0.00000 0.00000
  67 0.00000 0.00000 0.00000
  68 0.00000 0.00000 0.00000
  69 0.00000 0.00000 0.00000
  70 0.00000 0.00000 0.00000
  71 0.00000 0.00000 0.00000
  72 0.00000 0.00000 0.00000
  73 0.00000 0.00000 0.00000
  74 0.00000 0.00000 0.00000
  75 0.00000 0.00000 0.00000
  76 0.00000 0.00000 0.00000
  77 0.00000 0.00000 0.00000
  78 0.00000 0.00000 0.00000
  79 0.00000 0.00000 0.00000
  80 0.00000 0.00000 0.00000
  81 0.00000 0.00000 0.00000
  82 0.00000 0.00000 0.00000
  83 0.00000 0.00000 0.00000
  84 0.00000 0.00000 0.00000
  85 0.00000 0.00000 0.00000
  86 0.00000 0.00000 0.00000
  87 0.00000 0.00000 0.00000
  88 0.00000 0.00000 0.00000
  89 0.00000 0.00000 0.00000
  90 0.00000 0.00000 0.00000
  91 0.00000 0.00000 0.00000
  92 0.00000 0.00000 0.00000
  93 0.00000 0.00000 0.00000
  94 0.00000 0.00000 0.00000
  95 0.00000 0.00000 0.00000
  96 0.00000 0.00000 0.00000
  97 0.00000 0.00000 0.00000
  98 0.00000 0.00000 0.00000
  99 0.00000 0.00000 0.00000
  100 0.00000 0.00000 0.00000
  101 0.00000 0.00000 0.00000
  102 0.00000 0.00000 0.00000
  103 0.00000 0.00000 0.00000
  104 0.00000 0.00000 0.00000
  105 0.00000 0.00000 0.00000
  106 0.00000 0.00000 0.00000
  107 0.00000 0.00000 0.00000
  108 0.00000 0.00000 0.00000
  109 0.00000 0.00000 0.00000
  110 0.00000 0.00000 0.00000
  111 0.00000 0.00000 0.00000
  112 0.00000 0.00000 0.00000
  113 0.00000 0.00000 0.00000
  114 0.00000 0.00000 0.00000
  115 0.00000 0.00000 0.00000
  116 0.00000 0.00000 0.00000
  117 0.00000 0.00000 0.00000
  118 0.00000 0.00000 0.00000
  119 0.00000 0.00000 0.00000
  120 0.00000 0.00000 0.00000
  121 0.00000 0.00000 0.00000
  122 0.00000 0.00000 0.00000
  123 0.00000 0.00000 0.00000
  124 0.00000 0.00000 0.00000
  125 0.00000 0.00000 0.00000
  126 0.00000 0.00000 0.00000
  127 0.00000 0.00000 0.00000
  128 0.00000 0.00000 0.00000
  129 0.00000 0.00000 0.00000
  130 0.00000 0.00000 0.00000
  131 0.00000 0.00000 0.00000
  132 0.00000 0.00000 0.00000
  133 0.00000 0.00000 0.00000
  134 0.00000 0.00000 0.00000
  135 0.00000 0.00000 0.00000
  136 0.00000 0.00000 0.00000
  137 0.00000 0.00000 0.00000
  138 0.00000 0.00000 0.00000
  139 0.00000 0.00000 0.00000
  140 0.00000 0.00000 0.00000
  141 0.00000 0.00000 0.00000
  142 0.00000 0.00000 0.00000
  143 0.00000 0.00000 0.00000
  144 0.00000 0.00000 0.00000
  145 0.00000 0.00000 0.00000
  146 0.00000 0.00000 0.00000
  147 0.00000 0.00000 0.00000
  148 0.00000 0.00000 0.00000
  149 0.00000 0.00000 0.00000
  150 0.00000 0.00000 0.00000
  151 0.00000 0.00000 0.00000
  152 0.00000 0.00000 0.00000
  153 0.00000 0.00000 0.00000
  154 0.00000 0.00000 0.00000
  155 0.00000 0.00000 0.00000
  156 0.00000 0.00000 0.00000
  157 0.00000 0.00000 0.00000
  158 0.00000 0.00000 0.00000
  159 0.00000 0.00000 0.00000
  160 0.00000 0.00000 0.00000
  161 0.00000 0.00000 0.00000
  162 0.00000 0.00000 0.00000
  163 0.00000 0.00000 0.00000
  164 0.00000 0.00000 0.00000
  165 0.00000 0.00000 0.00000
  166 0.00000 0.00000 0.00000
  167 0.00000 0.00000 0.00000
  168 0.00000 0.00000 0.00000
  169 0.00000 0.00000 0.00000
  170 0.00000 0.00000 0.00000
  171 0.00000 0.00000 0.00000
  172 0.00000 0.00000 0.00000
  173 0.00000 0.00000 0.00000
  174 0.00000 0.00000 0.00000
  175 0.00000 0.00000 0.00000
  176 0.00000 0.00000 0.00000
  177 0.00000 0.00000 0.00000
  178 0.00000 0.00000 0.00000
  179 0.00000 0.00000 0.00000
  180 0.00000 0.00000 0.00000
  181 0.00000 0.00000 0.00000
  182 0.00000 0.00000 0.00000
  183 0.00000 0.00000 0.00000
  184 0.00000 0.00000 0.00000
  185 0.00000 0.00000 0.00000
  186 0.00000 0.00000 0.00000
  187 0.00000 0.00000 0.00000
  188 0.00000 0.00000 0.00000
  189 0.00000 0.00000 0.00000
  190 0.00000 0.00000 0.00000
  191 0.00000 0.00000 0.00000
  192 0.00000 0.00000 0.00000
  193 0.00000 0.00000 0.00000
  194 0.00000 0.00000 0.00000
  195 0.00000 0.00000 0.00000
  196 0.00000 0.00000 0.00000
  197 0.00000 0.00000 0.00000
  198 0.00000 0.00000 0.00000
  199 0.00000 0.00000 0.00000
  200 0.00000 0.00000 0.00000
  201 0.00000 0.00000 0.00000
  202 0.00000 0.00000 0.00000
  203 0.00000 0.00000 0.00000
  204 0.00000 0.00000 0.00000
  205 0.00000 0.00000 0.00000
  206 0.00000 0.00000 0.00000
  207 0.00000 0.00000 0.00000
  208 0.00000 0.00000 0.00000
  209 0.00000 0.00000 0.00000
  210 0.00000 0.00000 0.00000
  211 0.00000 0.00000 0.00000
  212 0.00000 0.00000 0.00000
  213 0.00000 0.00000 0.00000
  214 0.00000 0.00000 0.00000
  215 0.00000 0.00000 0.00000
  216 0.00000 0.00000 0.00000
  217 0.00000 0.00000 0.00000
  218 0.00000 0.00000 0.00000
  219 0.00000 0.00000 0.00000
  220 0.00000 0.00000 0.00000
  221 0.00000 0.00000 0.00000
  222 0.00000 0.00000 0.00000
  223 0.00000 0.00000 0.00000
  224 0.00000 0.00000 0.00000
  225 0.00000 0.00000 0.00000
  226 0.00000 0.00000 0.00000
  227 0.00000 0.00000 0.00000
  228 0.00000 0.00000 0.00000
  229 0.00000 0.00000 0.00000
  230 0.00000 0.00000 0.00000
  231 0.00000 0.00000 0.00000
  232 0.00000 0.00000 0.00000
  233 0.00000 0.00000 0.00000
  234 0.00000 0.00000 0.00000
  235 0.00000 0.00000 0.00000
  236 0.00000 0.00000 0.00000
  237 0.00000 0.00000 0.00000
  238 0.00000 0.00000 0.00000
  239 0.00000 0.00000 0.00000
  240 0.00000 0.00000 0.00000
  241 0.00000 0.00000 0.00000
</Section>

newXOutput 157

<Section columns = "stress_xx | stress_yy | stress_xy">
  1 0.00000 0.00000 0.00000
  2 0.00000 0.00000 0.00000
  3 0.00000 0.00000 0.00000
  4 0.00000 0.00000 0.00000
  5 0.00000 0.00000 0.00000
  6 0.00000 0.00000 0.00000
  7 0.00000 0.00000 0.00000
  8 0.00000 0.00000 0.00000
  9 0.00000 0.00000 0.00000
  10 0.00000 0.00000 0.00000
  11 0.00000 0.00000 0.00000
  12 0.00000 0.00000 0.00000
  13 0.00000 0.00000 0.00000
  14 0.00000 0.00000 0.00000
  15 0.00000 0.00000 0.00000
  16 0.00000 0.00000 0.00000
  17 0.00000 0.00000 0.00000
  18 0.00000 0.00000 0.00000
  19 0.00000 0.00000 0.00000
  20 0.00000 0.00000 0.00000
  21 0.00000 0.00000 0.00000
  22 0.00000 0.00000 0.00000
  23 0.00000 0.00000 0.00000
  24 0.00000 0.00000 0.00000
  25 0.00000 0.00000 0.00000
  26 0.00000 0.00000 0.00000
  27 0.00000 0.00000 0.00000
  28 0.00000 0.00000 0.00000
  29 0.00000 0.00000 0.00000
  30 0.00000 0.00000 0.00000
  31 0.00000 0.00000 0.00000
  32 0.00000 0.00000 0.00000
  33 0.00000 0.00000 0.00000
  34 0.00000 0.00000 0.00000
  35 0.00000 0.00000 0.00000
  36 0.00000 0.00000 0.00000
  37 0.00000 0.00000 0.00000
  38 0.00000 0.00000 0.00000
  39 0.00000 0.00000 0.00000
  40 0.00000 0.00000 0.00000
  41 0.00000 0.00000 0.00000
  42 0.00000 0.00000 0.00000
  43 0.00000 0.00000 0.00000
  44 0.00000 0.00000 0.00000
  45 0.00000 0.00000 0.00000
  46 0.00000 0.00000 0.00000
  47 0.00000 0.00000 0.00000
  48 0.00000 0.00000 0.00000
  49 0.00000 0.00000 0.00000
  50 0.00000 0.00000 0.00000
  51 0.00000 0.00000 0.00000
  52 0.00000 0.00000 0.00000
  53 0.00000 0.00000 0.00000
  54 0.00000 0.00000 0.00000
  55 0.00000 0.00000 0.00000
  56 0.00000 0.00000 0.00000
  57 0.00000 0.00000 0.00000
  58 0.00000 0.00000 0.00000
  59 0.00000 0.00000 0.00000
  60 0.00000 0.00000 0.00000
  61 0.00000 0.00000 0.00000
  62 0.00000 0.00000 0.00000
  63 0.00000 0.00000 0.00000
  64 0.00000 0.00000 0.00000
  65 0.00000 0.00000 0.00000
  66 0.00000 0.00000 0.00000
  67 0.00000 0.00000 0.00000
  68 0.00000 0.00000 0.00000
  69 0.00000 0.00000 0.00000
  70 0.00000 0.00000 0.00000
  71 0.00000 0.00000 0.00000
  72 0.00000 0.00000 0.00000
  73 0.00000 0.00000 0.00000
  74 0.00000 0.00000 0.00000
  75 0.00000 0.00000 0.00000
  76 0.00000 0.00000 0.00000
  77 0.00000 0.00000 0.00000
  78 0.00000 0.00000 0.00000
  79 0.00000 0.00000 0.00000
  80 0.00000 0.00000 0.00000
  81 0.00000 0.00000 0.00000
  82 0.00000 0.00000 0.00000
  83 0.00000 0.00000 0.00000
  84 0.00000 0.00000 0.00000
  85 0.00000 0.00000 0.00000
  86 0.00000 0.00000 0.00000
  87 0.00000 0.00000 0.00000
  88 0.00000 0.00000 0.00000
  89 0.00000 0.00000 0.00000
  90 0.00000 0.00000 0.00000
  91 0.00000 0.00000 0.00000
  92 0.00000 0.00000 0.00000
  93 0.00000 0.00000 0.00000
  94 0.00000 0.00000 0.00000
  95 0.00000 0.00000 0.00000
  96 0.00000 0.00000 0.00000
  97 0.00000 0.00000 0.00000
  98 0.00000 0.00000 0.00000
  99 0.00000 0.00000 0.00000
  100 0.00000 0.00000 0.00000
  101 0.00000 0.00000 0.00000
  102 0.00000 0.00000 0.00000
  103 0.00000 0.00000 0.00000
  104 0.00000 0.00000 0.00000
  105 0.00000 0.00000 0.00000
  106 0.00000 0.00000 0.00000
  107 0.00000 0.00000 0.00000
  108 0.00000 0.00000 0.00000
  109 0.00000 0.00000 0.00000
  110 0.00000 0.00000 0.00000
  111 0.00000 0.00000 0.00000
  112 0.00000 0.00000 0.00000
  113 0.00000 0.00000 0.00000
  114 0.00000 0.00000 0.00000
  115 0.00000 0.00000 0.00000
  116 0.00000 0.00000 0.00000
  117 0.00000 0.00000 0.00000
  118 0.00000 0.00000 0.00000
  119 0.00000 0.00000 0.00000
  120 0.00000 0.00000 0.00000
  121 0.00000 0.00000 0.00000
  122 0.00000 0.00000 0.00000
  123 0.00000 0.00000 0.00000
  124 0.00000 0.00000 0.00000
  125 0.00000 0.00000 0.00000
  126 0.00000 0.00000 0.00000
  127 0.00000 0.00000 0.00000
  128 0.00000 0.00000 0.00000
  129 0.00000 0.00000 0.00000
  130 0.00000 0.00000 0.00000
  131 0.00000 0.00000 0.00000
  132 0.00000 0.00000 0.00000
  133 0.00000 0.00000 0.00000
  134 0.00000 0.00000 0.00000
  135 0.00000 0.00000 0.00000
  136 0.00000 0.00000 0.00000
  137 0.00000 0.00000 0.00000
  138 0.00000 0.00000 0.00000
  139 0.00000 0.00000 0.00000
  140 0.00000 0.00000 0.00000
  141 0.00000 0.00000 0.00000
  142 0.00000 0.00000 0.00000
  143 0.00000 0.00000 0.00000
  144 0.00000 0.00000 0.00000
  145 0.00000 0.00000 0.00000
  146 0.00000 0.00000 0.00000
  147 0.00000 0.00000 0.00000
  148 0.00000 0.00000 0.00000
  149 0.00000 0.00000 0.00000
  150 0.00000 0.00000 0.00000
  151 0.00000 0.00000 0.00000
  152 0.00000 0.00000 0.00000
  153 0.00000 0.00000 0.00000
  154 0.00000 0.00000 0.00000
  155 0.00000 0.00000 0.00000
  156 0.00000 0.00000 0.00000
  157 0.00000 0.00000 0.00000
  158 0.00000 0.00000 0.00000
  159 0.00000 0.00000 0.00000
  160 0.00000 0.00000 0.00000
  161 0.00000 0.00000 0.00000
  162 0.00000 0.00000 0.00000
  163 0.00000 0.00000 0.00000
  164 0.00000 0.00000 0.00000
  165 0.00000 0.00000 0.00000
  166 0.00000 0.00000 0.00000
  167 0.00000 0.00000 0.00000
  168 0.00000 0.00000 0.00000
  169 0.00000 0.00000 0.00000
  170 0.00000 0.00000 0.00000
  171 0.00000 0.00000 0.00000
  172 0.00000 0.00000 0.00000
  173 0.00000 0.00000 0.00000
  174 0.00000 0.00000 0.00000
  175 0.00000 0.00000 0.00000
  176 0.00000 0.00000 0.00000
  177 0.00000 0.00000 0.00000
  178 0.00000 0.00000 0.00000
  179 0.00000 0.00000 0.00000
  180 0.00000 0.00000 0.00000
  181 0.00000 0.00000 0.00000
  182 0.00000 0.00000 0.00000
  183 0.00000 0.00000 0.00000
  184 0.00000 0.00000 0.00000
  185 0.00000 0.00000 0.00000
  186 0.00000 0.00000 0.00000
  187 0.00000 0.00000 0.00000
  188 0.00000 0.00000 0.00000
  189 0.00000 0.00000 0.00000
  190 0.00000 0.00000 0.00000
  191 0.00000 0.00000 0.00000
  192 0.00000 0.00000 0.00000
  193 0.00000 0.00000 0.00000
  194 0.00000 0.00000 0.00000
  195 0.00000 0.00000 0.00000
  196 0.00000 0.00000 0.00000
  197 0.00000 0.00000 0.00000
  198 0.00000 0.00000 0.00000
  199 0.00000 0.00000 0.00000
  200 0.00000 0.00000 0.00000
  201 0.00000 0.00000 0.00000
  202 0.00000 0.00000 0.00000
  203 0.00000 0.00000 0.00000
  204 0.00000 0.00000 0.00000
  205 0.00000 0.00000 0.00000
  206 0.00000 0.00000 0.00000
  207 0.00000 0.00000 0.00000
  208 0.00000 0.00000 0.00000
  209 0.00000 0.00000 0.00000
  210 0.00000 0.00000 0.00000
  211 0.00000 0.00000 0.00000
  212 0.00000 0.00000 0.00000
  213 0.00000 0.00000 0.00000
  214 0.00000 0.00000 0.00000
  215 0.00000 0.00000 0.00000
  216 0.00000 0.00000 0.00000
  217 0.00000 0.00000 0.00000
  218 0.00000 0.00000 0.00000
  219 0.00000 0.00000 0.00000
  220 0.00000 0.00000 0.00000
  221 0.00000 0.00000 0.00000
  222 0.00000 0.00000 0.00000
  223 0.00000 0.00000 0.00000
  224 0.00000 0.00000 0.00000
  225 0.00000 0.00000 0.00000
  226 0.00000 0.00000 0.00000
  227 0.00000 0.00000 0.00000
  228 0.00000 0.00000 0.00000
  229 0.00000 0.00000 0.00000
  230 0.00000 0.00000 0.00000
  231 0.00000 0.00000 0.00000
  232 0.00000 0.00000 0.00000
  233 0.00000 0.00000 0.00000
  234 0.00000 0.00000 0.00000
  235 0.00000 0.00000 0.00000
  236 0.00000 0.00000 0.00000
  237 0.00000 0.00000 0.00000
  238 0.00000 0.00000 0.00000
  239 0.00000 0.00000 0.00000
  240 0.00000 0.00000 0.00000
  241 0.00000 0.00000 0.00000
</Section>

newXOutput 158

<Section columns = "stress_xx | stress_yy | stress_xy">
  1 0.00000 0.00000 0.00000
  2 0.00000 0.00000 0.00000
  3 0.00000 0.00000 0.00000
  4 0.00000 0.00000 0.00000
  5 0.00000 0.00000 0.00000
  6 0.00000 0.00000 0.00000
  7 0.00000 0.00000 0.00000
  8 0.00000 0.00000 0.00000
  9 0.00000 0.00000 0.00000
  10 0.00000 0.00000 0.00000
  11 0.00000 0.00000 0.00000
  12 0.00000 0.00000 0.00000
  13 0.00000 0.00000 0.00000
  14 0.00000 0.00000 0.00000
  15 0.00000 0.00000 0.00000
  16 0.00000 0.00000 0.00000
  17 0.00000 0.00000 0.00000
  18 0.00000 0.00000 0.00000
  19 0.00000 0.00000 0.00000
  20 0.00000 0.00000 0.00000
  21 0.00000 0.00000 0.00000
  22 0.00000 0.00000 0.00000
  23 0.00000 0.00000 0.00000
  24 0.00000 0.00000 0.00000
  25 0.00000 0.00000 0.00000
  26 0.00000 0.00000 0.00000
  27 0.00000 0.00000 0.00000
  28 0.00000 0.00000 0.00000
  29 0.00000 0.00000 0.00000
  30 0.00000 0.00000 0.00000
  31 0.00000 0.00000 0.00000
  32 0.00000 0.00000 0.00000
  33 0.00000 0.00000 0.00000
  34 0.00000 0.00000 0.00000
  35 0.00000 0.00000 0.00000
  36 0.00000 0.00000 0.00000
  37 0.00000 0.00000 0.00000
  38 0.00000 0.00000 0.00000
  39 0.00000 0.00000 0.00000
  40 0.00000 0.00000 0.00000
  41 0.00000 0.00000 0.00000
  42 0.00000 0.00000 0.00000
  43 0.00000 0.00000 0.00000
  44 0.00000 0.00000 0.00000
  45 0.00000 0.00000 0.00000
  46 0.00000 0.00000 0.00000
  47 0.00000 0.00000 0.00000
  48 0.00000 0.00000 0.00000
  49 0.00000 0.00000 0.00000
  50 0.00000 0.00000 0.00000
  51 0.00000 0.00000 0.00000
  52 0.00000 0.00000 0.00000
  53 0.00000 0.00000 0.00000
  54 0.00000 0.00000 0.00000
  55 0.00000 0.00000 0.00000
  56 0.00000 0.00000 0.00000
  57 0.00000 0.00000 0.00000
  58 0.00000 0.00000 0.00000
  59 0.00000 0.00000 0.00000
  60 0.00000 0.00000 0.00000
  61 0.00000 0.00000 0.00000
  62 0.00000 0.00000 0.00000
  63 0.00000 0.00000 0.00000
  64 0.00000 0.00000 0.00000
  65 0.00000 0.00000 0.00000
  66 0.00000 0.00000 0.00000
  67 0.00000 0.00000 0.00000
  68 0.00000 0.00000 0.00000
  69 0.00000 0.00000 0.00000
  70 0.00000 0.00000 0.00000
  71 0.00000 0.00000 0.00000
  72 0.00000 0.00000 0.00000
  73 0.00000 0.00000 0.00000
  74 0.00000 0.00000 0.00000
  75 0.00000 0.00000 0.00000
  76 0.00000 0.00000 0.00000
  77 0.00000 0.00000 0.00000
  78 0.00000 0.00000 0.00000
  79 0.00000 0.00000 0.00000
  80 0.00000 0.00000 0.00000
  81 0.00000 0.00000 0.00000
  82 0.00000 0.00000 0.00000
  83 0.00000 0.00000 0.00000
  84 0.00000 0.00000 0.00000
  85 0.00000 0.00000 0.00000
  86 0.00000 0.00000 0.00000
  87 0.00000 0.00000 0.00000
  88 0.00000 0.00000 0.00000
  89 0.00000 0.00000 0.00000
  90 0.00000 0.00000 0.00000
  91 0.00000 0.00000 0.00000
  92 0.00000 0.00000 0.00000
  93 0.00000 0.00000 0.00000
  94 0.00000 0.00000 0.00000
  95 0.00000 0.00000 0.00000
  96 0.00000 0.00000 0.00000
  97 0.00000 0.00000 0.00000
  98 0.00000 0.00000 0.00000
  99 0.00000 0.00000 0.00000
  100 0.00000 0.00000 0.00000
  101 0.00000 0.00000 0.00000
  102 0.00000 0.00000 0.00000
  103 0.00000 0.00000 0.00000
  104 0.00000 0.00000 0.00000
  105 0.00000 0.00000 0.00000
  106 0.00000 0.00000 0.00000
  107 0.00000 0.00000 0.00000
  108 0.00000 0.00000 0.00000
  109 0.00000 0.00000 0.00000
  110 0.00000 0.00000 0.00000
  111 0.00000 0.00000 0.00000
  112 0.00000 0.00000 0.00000
  113 0.00000 0.00000 0.00000
  114 0.00000 0.00000 0.00000
  115 0.00000 0.00000 0.00000
  116 0.00000 0.00000 0.00000
  117 0.00000 0.00000 0.00000
  118 0.00000 0.00000 0.00000
  119 0.00000 0.00000 0.00000
  120 0.00000 0.00000 0.00000
  121 0.00000 0.00000 0.00000
  122 0.00000 0.00000 0.00000
  123 0.00000 0.00000 0.00000
  124 0.00000 0.00000 0.00000
  125 0.00000 0.00000 0.00000
  126 0.00000 0.00000 0.00000
  127 0.00000 0.00000 0.00000
  128 0.00000 0.00000 0.00000
  129 0.00000 0.00000 0.00000
  130 0.00000 0.00000 0.00000
  131 0.00000 0.00000 0.00000
  132 0.00000 0.00000 0.00000
  133 0.00000 0.00000 0.00000
  134 0.00000 0.00000 0.00000
  135 0.00000 0.00000 0.00000
  136 0.00000 0.00000 0.00000
  137 0.00000 0.00000 0.00000
  138 0.00000 0.00000 0.00000
  139 0.00000 0.00000 0.00000
  140 0.00000 0.00000 0.00000
  141 0.00000 0.00000 0.00000
  142 0.00000 0.00000 0.00000
  143 0.00000 0.00000 0.00000
  144 0.00000 0.00000 0.00000
  145 0.00000 0.00000 0.00000
  146 0.00000 0.00000 0.00000
  147 0.00000 0.00000 0.00000
  148 0.00000 0.00000 0.00000
  149 0.00000 0.00000 0.00000
  150 0.00000 0.00000 0.00000
  151 0.00000 0.00000 0.00000
  152 0.00000 0.00000 0.00000
  153 0.00000 0.00000 0.00000
  154 0.00000 0.00000 0.00000
  155 0.00000 0.00000 0.00000
  156 0.00000 0.00000 0.00000
  157 0.00000 0.00000 0.00000
  158 0.00000 0.00000 0.00000
  159 0.00000 0.00000 0.00000
  160 0.00000 0.00000 0.00000
  161 0.00000 0.00000 0.00000
  162 0.00000 0.00000 0.00000
  163 0.00000 0.00000 0.00000
  164 0.00000 0.00000 0.00000
  165 0.00000 0.00000 0.00000
  166 0.00000 0.00000 0.00000
  167 0.00000 0.00000 0.00000
  168 0.00000 0.00000 0.00000
  169 0.00000 0.00000 0.00000
  170 0.00000 0.00000 0.00000
  171 0.00000 0.00000 0.00000
  172 0.00000 0.00000 0.00000
  173 0.00000 0.00000 0.00000
  174 0.00000 0.00000 0.00000
  175 0.00000 0.00000 0.00000
  176 0.00000 0.00000 0.00000
  177 0.00000 0.00000 0.00000
  178 0.00000 0.00000 0.00000
  179 0.00000 0.00000 0.00000
  180 0.00000 0.00000 0.00000
  181 0.00000 0.00000 0.00000
  182 0.00000 0.00000 0.00000
  183 0.00000 0.00000 0.00000
  184 0.00000 0.00000 0.00000
  185 0.00000 0.00000 0.00000
  186 0.00000 0.00000 0.00000
  187 0.00000 0.00000 0.00000
  188 0.00000 0.00000 0.00000
  189 0.00000 0.00000 0.00000
  190 0.00000 0.00000 0.00000
  191 0.00000 0.00000 0.00000
  192 0.00000 0.00000 0.00000
  193 0.00000 0.00000 0.00000
  194 0.00000 0.00000 0.00000
  195 0.00000 0.00000 0.00000
  196 0.00000 0.00000 0.00000
  197 0.00000 0.00000 0.00000
  198 0.00000 0.00000 0.00000
  199 0.00000 0.00000 0.00000
  200 0.00000 0.00000 0.00000
  201 0.00000 0.00000 0.00000
  202 0.00000 0.00000 0.00000
  203 0.00000 0.00000 0.00000
  204 0.00000 0.00000 0.00000
  205 0.00000 0.00000 0.00000
  206 0.00000 0.00000 0.00000
  207 0.00000 0.00000 0.00000
  208 0.00000 0.00000 0.00000
  209 0.00000 0.00000 0.00000
  210 0.00000 0.00000 0.00000
  211 0.00000 0.00000 0.00000
  212 0.00000 0.00000 0.00000
  213 0.00000 0.00000 0.00000
  214 0.00000 0.00000 0.00000
  215 0.00000 0.00000 0.00000
  216 0.00000 0.00000 0.00000
  217 0.00000 0.00000 0.00000
  218 0.00000 0.00000 0.00000
  219 0.00000 0.00000 0.00000
  220 0.00000 0.00000 0.00000
  221 0.00000 0.00000 0.00000
  222 0.00000 0.00000 0.00000
  223 0.00000 0.00000 0.00000
  224 0.00000 0.00000 0.00000
  225 0.00000 0.00000 0.00000
  226 0.00000 0.00000 0.00000
  227 0.00000 0.00000 0.00000
  228 0.00000 0.00000 0.00000
  229 0.00000 0.00000 0.00000
  230 0.00000 0.00000 0.00000
  231 0.00000 0.00000 0.00000
  232 0.00000 0.00000 0.00000
  233 0.00000 0.00000 0.00000
  234 0.00000 0.00000 0.00000
  235 0.00000 0.00000 0.00000
  236 0.00000 0.00000 0.00000
  237 0.00000 0.00000 0.00000
  238 0.00000 0.00000 0.00000
  239 0.00000 0.00000 0.00000
  240 0.00000 0.00000 0.00000
  241 0.00000 0.00000 0.00000
</Section>

newXOutput 159

<Section columns = "stress_xx | stress_yy | stress_xy">
  1 0.00000 0.00000 0.00000
  2 0.00000 0.00000 0.00000
  3 0.00000 0.00000 0.00000
  4 0.00000 0.00000 0.00000
  5 0.00000 0.00000 0.00000
  6 0.00000 0.00000 0.00000
  7 0.00000 0.00000 0.00000
  8 0.00000 0.00000 0.00000
  9 0.00000 0.00000 0.00000
  10 0.00000 0.00000 0.00000
  11 0.00000 0.00000 0.00000
  12 0.00000 0.00000 0.00000
  13 0.00000 0.00000 0.00000
  14 0.00000 0.00000 0.00000
  15 0.00000 0.00000 0.00000
  16 0.00000 0.00000 0.00000
  17 0.00000 0.00000 0.00000
  18 0.00000 0.00000 0.00000
  19 0.00000 0.00000 0.00000
  20 0.00000 0.00000 0.00000
  21 0.00000 0.00000 0.00000
  22 0.00000 0.00000 0.00000
  23 0.00000 0.00000 0.00000
  24 0.00000 0.00000 0.00000
  25 0.00000 0.00000 0.00000
  26 0.00000 0.00000 0.00000
  27 0.00000 0.00000 0.00000
  28 0.00000 0.00000 0.00000
  29 0.00000 0.00000 0.00000
  30 0.00000 0.00000 0.00000
  31 0.00000 0.00000 0.00000
  32 0.00000 0.00000 0.00000
  33 0.00000 0.00000 0.00000
  34 0.00000 0.00000 0.00000
  35 0.00000 0.00000 0.00000
  36 0.00000 0.00000 0.00000
  37 0.00000 0.00000 0.00000
  38 0.00000 0.00000 0.00000
  39 0.00000 0.00000 0.00000
  40 0.00000 0.00000 0.00000
  41 0.00000 0.00000 0.00000
  42 0.00000 0.00000 0.00000
  43 0.00000 0.00000 0.00000
  44 0.00000 0.00000 0.00000
  45 0.00000 0.00000 0.00000
  46 0.00000 0.00000 0.00000
  47 0.00000 0.00000 0.00000
  48 0.00000 0.00000 0.00000
  49 0.00000 0.00000 0.00000
  50 0.00000 0.00000 0.00000
  51 0.00000 0.00000 0.00000
  52 0.00000 0.00000 0.00000
  53 0.00000 0.00000 0.00000
  54 0.00000 0.00000 0.00000
  55 0.00000 0.00000 0.00000
  56 0.00000 0.00000 0.00000
  57 0.00000 0.00000 0.00000
  58 0.00000 0.00000 0.00000
  59 0.00000 0.00000 0.00000
  60 0.00000 0.00000 0.00000
  61 0.00000 0.00000 0.00000
  62 0.00000 0.00000 0.00000
  63 0.00000 0.00000 0.00000
  64 0.00000 0.00000 0.00000
  65 0.00000 0.00000 0.00000
  66 0.00000 0.00000 0.00000
  67 0.00000 0.00000 0.00000
  68 0.00000 0.00000 0.00000
  69 0.00000 0.00000 0.00000
  70 0.00000 0.00000 0.00000
  71 0.00000 0.00000 0.00000
  72 0.00000 0.00000 0.00000
  73 0.00000 0.00000 0.00000
  74 0.00000 0.00000 0.00000
  75 0.00000 0.00000 0.00000
  76 0.00000 0.00000 0.00000
  77 0.00000 0.00000 0.00000
  78 0.00000 0.00000 0.00000
  79 0.00000 0.00000 0.00000
  80 0.00000 0.00000 0.00000
  81 0.00000 0.00000 0.00000
  82 0.00000 0.00000 0.00000
  83 0.00000 0.00000 0.00000
  84 0.00000 0.00000 0.00000
  85 0.00000 0.00000 0.00000
  86 0.00000 0.00000 0.00000
  87 0.00000 0.00000 0.00000
  88 0.00000 0.00000 0.00000
  89 0.00000 0.00000 0.00000
  90 0.00000 0.00000 0.00000
  91 0.00000 0.00000 0.00000
  92 0.00000 0.00000 0.00000
  93 0.00000 0.00000 0.00000
  94 0.00000 0.00000 0.00000
  95 0.00000 0.00000 0.00000
  96 0.00000 0.00000 0.00000
  97 0.00000 0.00000 0.00000
  98 0.00000 0.00000 0.00000
  99 0.00000 0.00000 0.00000
  100 0.00000 0.00000 0.00000
  101 0.00000 0.00000 0.00000
  102 0.00000 0.00000 0.00000
  103 0.00000 0.00000 0.00000
  104 0.00000 0.00000 0.00000
  105 0.00000 0.00000 0.00000
  106 0.00000 0.00000 0.00000
  107 0.00000 0.00000 0.00000
  108 0.00000 0.00000 0.00000
  109 0.00000 0.00000 0.00000
  110 0.00000 0.00000 0.00000
  111 0.00000 0.00000 0.00000
  112 0.00000 0.00000 0.00000
  113 0.00000 0.00000 0.00000
  114 0.00000 0.00000 0.00000
  115 0.00000 0.00000 0.00000
  116 0.00000 0.00000 0.00000
  117 0.00000 0.00000 0.00000
  118 0.00000 0.00000 0.00000
  119 0.00000 0.00000 0.00000
  120 0.00000 0.00000 0.00000
  121 0.00000 0.00000 0.00000
  122 0.00000 0.00000 0.00000
  123 0.00000 0.00000 0.00000
  124 0.00000 0.00000 0.00000
  125 0.00000 0.00000 0.00000
  126 0.00000 0.00000 0.00000
  127 0.00000 0.00000 0.00000
  128 0.00000 0.00000 0.00000
  129 0.00000 0.00000 0.00000
  130 0.00000 0.00000 0.00000
  131 0.00000 0.00000 0.00000
  132 0.00000 0.00000 0.00000
  133 0.00000 0.00000 0.00000
  134 0.00000 0.00000 0.00000
  135 0.00000 0.00000 0.00000
  136 0.00000 0.00000 0.00000
  137 0.00000 0.00000 0.00000
  138 0.00000 0.00000 0.00000
  139 0.00000 0.00000 0.00000
  140 0.00000 0.00000 0.00000
  141 0.00000 0.00000 0.00000
  142 0.00000 0.00000 0.00000
  143 0.00000 0.00000 0.00000
  144 0.00000 0.00000 0.00000
  145 0.00000 0.00000 0.00000
  146 0.00000 0.00000 0.00000
  147 0.00000 0.00000 0.00000
  148 0.00000 0.00000 0.00000
  149 0.00000 0.00000 0.00000
  150 0.00000 0.00000 0.00000
  151 0.00000 0.00000 0.00000
  152 0.00000 0.00000 0.00000
  153 0.00000 0.00000 0.00000
  154 0.00000 0.00000 0.00000
  155 0.00000 0.00000 0.00000
  156 0.00000 0.00000 0.00000
  157 0.00000 0.00000 0.00000
  158 0.00000 0.00000 0.00000
  159 0.00000 0.00000 0.00000
  160 0.00000 0.00000 0.00000
  161 0.00000 0.00000 0.00000
  162 0.00000 0.00000 0.00000
  163 0.00000 0.00000 0.00000
  164 0.00000 0.00000 0.00000
  165 0.00000 0.00000 0.00000
  166 0.00000 0.00000 0.00000
  167 0.00000 0.00000 0.00000
  168 0.00000 0.00000 0.00000
  169 0.00000 0.00000 0.00000
  170 0.00000 0.00000 0.00000
  171 0.00000 0.00000 0.00000
  172 0.00000 0.00000 0.00000
  173 0.00000 0.00000 0.00000
  174 0.00000 0.00000 0.00000
  175 0.00000 0.00000 0.00000
  176 0.00000 0.00000 0.00000
  177 0.00000 0.00000 0.00000
  178 0.00000 0.00000 0.00000
  179 0.00000 0.00000 0.00000
  180 0.00000 0.00000 0.00000
  181 0.00000 0.00000 0.00000
  182 0.00000 0.00000 0.00000
  183 0.00000 0.00000 0.00000
  184 0.00000 0.00000 0.00000
  185 0.00000 0.00000 0.00000
  186 0.00000 0.00000 0.00000
  187 0.00000 0.00000 0.00000
  188 0.00000 0.00000 0.00000
  189 0.00000 0.00000 0.00000
  190 0.00000 0.00000 0.00000
  191 0.00000 0.00000 0.00000
  192 0.00000 0.00000 0.00000
  193 0.00000 0.00000 0.00000
  194 0.00000 0.00000 0.00000
  195 0.00000 0.00000 0.00000
  196 0.00000 0.00000 0.00000
  197 0.00000 0.00000 0.00000
  198 0.00000 0.00000 0.00000
  199 0.00000 0.00000 0.00000
  200 0.00000 0.00000 0.00000
  201 0.00000 0.00000 0.00000
  202 0.00000 0.00000 0.00000
  203 0.00000 0.00000 0.00000
  204 0.00000 0.00000 0.00000
  205 0.00000 0.00000 0.00000
  206 0.00000 0.00000 0.00000
  207 0.00000 0.00000 0.00000
  208 0.00000 0.00000 0.00000
  209 0.00000 0.00000 0.00000
  210 0.00000 0.00000 0.00000
  211 0.00000 0.00000 0.00000
  212 0.00000 0.00000 0.00000
  213 0.00000 0.00000 0.00000
  214 0.00000 0.00000 0.00000
  215 0.00000 0.00000 0.00000
  216 0.00000 0.00000 0.00000
  217 0.00000 0.00000 0.00000
  218 0.00000 0.00000 0.00000
  219 0.00000 0.00000 0.00000
  220 0.00000 0.00000 0.00000
  221 0.00000 0.00000 0.00000
  222 0.00000 0.00000 0.00000
  223 0.00000 0.00000 0.00000
  224 0.00000 0.00000 0.00000
  225 0.00000 0.00000 0.00000
  226 0.00000 0.00000 0.00000
  227 0.00000 0.00000 0.00000
  228 0.00000 0.00000 0.00000
  229 0.00000 0.00000 0.00000
  230 0.00000 0.00000 0.00000
  231 0.00000 0.00000 0.00000
  232 0.00000 0.00000 0.00000
  233 0.00000 0.00000 0.00000
  234 0.00000 0.00000 0.00000
  235 0.00000 0.00000 0.00000
  236 0.00000 0.00000 0.00000
  237 0.00000 0.00000 0.00000
  238 0.00000 0.00000 0.00000
  239 0.00000 0.00000 0.00000
  240 0.00000 0.00000 0.00000
  241 0.00000 0.00000 0.00000
</Section>

newXOutput 160

<Section columns = "stress_xx | stress_yy | stress_xy">
  1 0.00000 0.00000 0.00000
  2 0.00000 0.00000 0.00000
  3 0.00000 0.00000 0.00000
  4 0.00000 0.00000 0.00000
  5 0.00000 0.00000 0.00000
  6 0.00000 0.00000 0.00000
  7 0.00000 0.00000 0.00000
  8 0.00000 0.00000 0.00000
  9 0.00000 0.00000 0.00000
  10 0.00000 0.00000 0.00000
  11 0.00000 0.00000 0.00000
  12 0.00000 0.00000 0.00000
  13 0.00000 0.00000 0.00000
  14 0.00000 0.00000 0.00000
  15 0.00000 0.00000 0.00000
  16 0.00000 0.00000 0.00000
  17 0.00000 0.00000 0.00000
  18 0.00000 0.00000 0.00000
  19 0.00000 0.00000 0.00000
  20 0.00000 0.00000 0.00000
  21 0.00000 0.00000 0.00000
  22 0.00000 0.00000 0.00000
  23 0.00000 0.00000 0.00000
  24 0.00000 0.00000 0.00000
  25 0.00000 0.00000 0.00000
  26 0.00000 0.00000 0.00000
  27 0.00000 0.00000 0.00000
  28 0.00000 0.00000 0.00000
  29 0.00000 0.00000 0.00000
  30 0.00000 0.00000 0.00000
  31 0.00000 0.00000 0.00000
  32 0.00000 0.00000 0.00000
  33 0.00000 0.00000 0.00000
  34 0.00000 0.00000 0.00000
  35 0.00000 0.00000 0.00000
  36 0.00000 0.00000 0.00000
  37 0.00000 0.00000 0.00000
  38 0.00000 0.00000 0.00000
  39 0.00000 0.00000 0.00000
  40 0.00000 0.00000 0.00000
  41 0.00000 0.00000 0.00000
  42 0.00000 0.00000 0.00000
  43 0.00000 0.00000 0.00000
  44 0.00000 0.00000 0.00000
  45 0.00000 0.00000 0.00000
  46 0.00000 0.00000 0.00000
  47 0.00000 0.00000 0.00000
  48 0.00000 0.00000 0.00000
  49 0.00000 0.00000 0.00000
  50 0.00000 0.00000 0.00000
  51 0.00000 0.00000 0.00000
  52 0.00000 0.00000 0.00000
  53 0.00000 0.00000 0.00000
  54 0.00000 0.00000 0.00000
  55 0.00000 0.00000 0.00000
  56 0.00000 0.00000 0.00000
  57 0.00000 0.00000 0.00000
  58 0.00000 0.00000 0.00000
  59 0.00000 0.00000 0.00000
  60 0.00000 0.00000 0.00000
  61 0.00000 0.00000 0.00000
  62 0.00000 0.00000 0.00000
  63 0.00000 0.00000 0.00000
  64 0.00000 0.00000 0.00000
  65 0.00000 0.00000 0.00000
  66 0.00000 0.00000 0.00000
  67 0.00000 0.00000 0.00000
  68 0.00000 0.00000 0.00000
  69 0.00000 0.00000 0.00000
  70 0.00000 0.00000 0.00000
  71 0.00000 0.00000 0.00000
  72 0.00000 0.00000 0.00000
  73 0.00000 0.00000 0.00000
  74 0.00000 0.00000 0.00000
  75 0.00000 0.00000 0.00000
  76 0.00000 0.00000 0.00000
  77 0.00000 0.00000 0.00000
  78 0.00000 0.00000 0.00000
  79 0.00000 0.00000 0.00000
  80 0.00000 0.00000 0.00000
  81 0.00000 0.00000 0.00000
  82 0.00000 0.00000 0.00000
  83 0.00000 0.00000 0.00000
  84 0.00000 0.00000 0.00000
  85 0.00000 0.00000 0.00000
  86 0.00000 0.00000 0.00000
  87 0.00000 0.00000 0.00000
  88 0.00000 0.00000 0.00000
  89 0.00000 0.00000 0.00000
  90 0.00000 0.00000 0.00000
  91 0.00000 0.00000 0.00000
  92 0.00000 0.00000 0.00000
  93 0.00000 0.00000 0.00000
  94 0.00000 0.00000 0.00000
  95 0.00000 0.00000 0.00000
  96 0.00000 0.00000 0.00000
  97 0.00000 0.00000 0.00000
  98 0.00000 0.00000 0.00000
  99 0.00000 0.00000 0.00000
  100 0.00000 0.00000 0.00000
  101 0.00000 0.00000 0.00000
  102 0.00000 0.00000 0.00000
  103 0.00000 0.00000 0.00000
  104 0.00000 0.00000 0.00000
  105 0.00000 0.00000 0.00000
  106 0.00000 0.00000 0.00000
  107 0.00000 0.00000 0.00000
  108 0.00000 0.00000 0.00000
  109 0.00000 0.00000 0.00000
  110 0.00000 0.00000 0.00000
  111 0.00000 0.00000 0.00000
  112 0.00000 0.00000 0.00000
  113 0.00000 0.00000 0.00000
  114 0.00000 0.00000 0.00000
  115 0.00000 0.00000 0.00000
  116 0.00000 0.00000 0.00000
  117 0.00000 0.00000 0.00000
  118 0.00000 0.00000 0.00000
  119 0.00000 0.00000 0.00000
  120 0.00000 0.00000 0.00000
  121 0.00000 0.00000 0.00000
  122 0.00000 0.00000 0.00000
  123 0.00000 0.00000 0.00000
  124 0.00000 0.00000 0.00000
  125 0.00000 0.00000 0.00000
  126 0.00000 0.00000 0.00000
  127 0.00000 0.00000 0.00000
  128 0.00000 0.00000 0.00000
  129 0.00000 0.00000 0.00000
  130 0.00000 0.00000 0.00000
  131 0.00000 0.00000 0.00000
  132 0.00000 0.00000 0.00000
  133 0.00000 0.00000 0.00000
  134 0.00000 0.00000 0.00000
  135 0.00000 0.00000 0.00000
  136 0.00000 0.00000 0.00000
  137 0.00000 0.00000 0.00000
  138 0.00000 0.00000 0.00000
  139 0.00000 0.00000 0.00000
  140 0.00000 0.00000 0.00000
  141 0.00000 0.00000 0.00000
  142 0.00000 0.00000 0.00000
  143 0.00000 0.00000 0.00000
  144 0.00000 0.00000 0.00000
  145 0.00000 0.00000 0.00000
  146 0.00000 0.00000 0.00000
  147 0.00000 0.00000 0.00000
  148 0.00000 0.00000 0.00000
  149 0.00000 0.00000 0.00000
  150 0.00000 0.00000 0.00000
  151 0.00000 0.00000 0.00000
  152 0.00000 0.00000 0.00000
  153 0.00000 0.00000 0.00000
  154 0.00000 0.00000 0.00000
  155 0.00000 0.00000 0.00000
  156 0.00000 0.00000 0.00000
  157 0.00000 0.00000 0.00000
  158 0.00000 0.00000 0.00000
  159 0.00000 0.00000 0.00000
  160 0.00000 0.00000 0.00000
  161 0.00000 0.00000 0.00000
  162 0.00000 0.00000 0.00000
  163 0.00000 0.00000 0.00000
  164 0.00000 0.00000 0.00000
  165 0.00000 0.00000 0.00000
  166 0.00000 0.00000 0.00000
  167 0.00000 0.00000 0.00000
  168 0.00000 0.00000 0.00000
  169 0.00000 0.00000 0.00000
  170 0.00000 0.00000 0.00000
  171 0.00000 0.00000 0.00000
  172 0.00000 0.00000 0.00000
  173 0.00000 0.00000 0.00000
  174 0.00000 0.00000 0.00000
  175 0.00000 0.00000 0.00000
  176 0.00000 0.00000 0.00000
  177 0.00000 0.00000 0.00000
  178 0.00000 0.00000 0.00000
  179 0.00000 0.00000 0.00000
  180 0.00000 0.00000 0.00000
  181 0.00000 0.00000 0.00000
  182 0.00000 0.00000 0.00000
  183 0.00000 0.00000 0.00000
  184 0.00000 0.00000 0.00000
  185 0.00000 0.00000 0.00000
  186 0.00000 0.00000 0.00000
  187 0.00000 0.00000 0.00000
  188 0.00000 0.00000 0.00000
  189 0.00000 0.00000 0.00000
  190 0.00000 0.00000 0.00000
  191 0.00000 0.00000 0.00000
  192 0.00000 0.00000 0.00000
  193 0.00000 0.00000 0.00000
  194 0.00000 0.00000 0.00000
  195 0.00000 0.00000 0.00000
  196 0.00000 0.00000 0.00000
  197 0.00000 0.00000 0.00000
  198 0.00000 0.00000 0.00000
  199 0.00000 0.00000 0.00000
  200 0.00000 0.00000 0.00000
  201 0.00000 0.00000 0.00000
  202 0.00000 0.00000 0.00000
  203 0.00000 0.00000 0.00000
  204 0.00000 0.00000 0.00000
  205 0.00000 0.00000 0.00000
  206 0.00000 0.00000 0.00000
  207 0.00000 0.00000 0.00000
  208 0.00000 0.00000 0.00000
  209 0.00000 0.00000 0.00000
  210 0.00000 0.00000 0.00000
  211 0.00000 0.00000 0.00000
  212 0.00000 0.00000 0.00000
  213 0.00000 0.00000 0.00000
  214 0.00000 0.00000 0.00000
  215 0.00000 0.00000 0.00000
  216 0.00000 0.00000 0.00000
  217 0.00000 0.00000 0.00000
  218 0.00000 0.00000 0.00000
  219 0.00000 0.00000 0.00000
  220 0.00000 0.00000 0.00000
  221 0.00000 0.00000 0.00000
  222 0.00000 0.00000 0.00000
  223 0.00000 0.00000 0.00000
  224 0.00000 0.00000 0.00000
  225 0.00000 0.00000 0.00000
  226 0.00000 0.00000 0.00000
  227 0.00000 0.00000 0.00000
  228 0.00000 0.00000 0.00000
  229 0.00000 0.00000 0.00000
  230 0.00000 0.00000 0.00000
  231 0.00000 0.00000 0.00000
  232 0.00000 0.00000 0.00000
  233 0.00000 0.00000 0.00000
  234 0.00000 0.00000 0.00000
  235 0.00000 0.00000 0.00000
  236 0.00000 0.00000 0.00000
  237 0.00000 0.00000 0.00000
  238 0.00000 0.00000 0.00000
  239 0.00000 0.00000 0.00000
  240 0.00000 0.00000 0.00000
  241 0.00000 0.00000 0.00000
</Section>

newXOutput 161

<Section columns = "stress_xx | stress_yy | stress_xy">
  1 0.00000 0.00000 0.00000
  2 0.00000 0.00000 0.00000
  3 0.00000 0.00000 0.00000
  4 0.00000 0.00000 0.00000
  5 0.00000 0.00000 0.00000
  6 0.00000 0.00000 0.00000
  7 0.00000 0.00000 0.00000
  8 0.00000 0.00000 0.00000
  9 0.00000 0.00000 0.00000
  10 0.00000 0.00000 0.00000
  11 0.00000 0.00000 0.00000
  12 0.00000 0.00000 0.00000
  13 0.00000 0.00000 0.00000
  14 0.00000 0.00000 0.00000
  15 0.00000 0.00000 0.00000
  16 0.00000 0.00000 0.00000
  17 0.00000 0.00000 0.00000
  18 0.00000 0.00000 0.00000
  19 0.00000 0.00000 0.00000
  20 0.00000 0.00000 0.00000
  21 0.00000 0.00000 0.00000
  22 0.00000 0.00000 0.00000
  23 0.00000 0.00000 0.00000
  24 0.00000 0.00000 0.00000
  25 0.00000 0.00000 0.00000
  26 0.00000 0.00000 0.00000
  27 0.00000 0.00000 0.00000
  28 0.00000 0.00000 0.00000
  29 0.00000 0.00000 0.00000
  30 0.00000 0.00000 0.00000
  31 0.00000 0.00000 0.00000
  32 0.00000 0.00000 0.00000
  33 0.00000 0.00000 0.00000
  34 0.00000 0.00000 0.00000
  35 0.00000 0.00000 0.00000
  36 0.00000 0.00000 0.00000
  37 0.00000 0.00000 0.00000
  38 0.00000 0.00000 0.00000
  39 0.00000 0.00000 0.00000
  40 0.00000 0.00000 0.00000
  41 0.00000 0.00000 0.00000
  42 0.00000 0.00000 0.00000
  43 0.00000 0.00000 0.00000
  44 0.00000 0.00000 0.00000
  45 0.00000 0.00000 0.00000
  46 0.00000 0.00000 0.00000
  47 0.00000 0.00000 0.00000
  48 0.00000 0.00000 0.00000
  49 0.00000 0.00000 0.00000
  50 0.00000 0.00000 0.00000
  51 0.00000 0.00000 0.00000
  52 0.00000 0.00000 0.00000
  53 0.00000 0.00000 0.00000
  54 0.00000 0.00000 0.00000
  55 0.00000 0.00000 0.00000
  56 0.00000 0.00000 0.00000
  57 0.00000 0.00000 0.00000
  58 0.00000 0.00000 0.00000
  59 0.00000 0.00000 0.00000
  60 0.00000 0.00000 0.00000
  61 0.00000 0.00000 0.00000
  62 0.00000 0.00000 0.00000
  63 0.00000 0.00000 0.00000
  64 0.00000 0.00000 0.00000
  65 0.00000 0.00000 0.00000
  66 0.00000 0.00000 0.00000
  67 0.00000 0.00000 0.00000
  68 0.00000 0.00000 0.00000
  69 0.00000 0.00000 0.00000
  70 0.00000 0.00000 0.00000
  71 0.00000 0.00000 0.00000
  72 0.00000 0.00000 0.00000
  73 0.00000 0.00000 0.00000
  74 0.00000 0.00000 0.00000
  75 0.00000 0.00000 0.00000
  76 0.00000 0.00000 0.00000
  77 0.00000 0.00000 0.00000
  78 0.00000 0.00000 0.00000
  79 0.00000 0.00000 0.00000
  80 0.00000 0.00000 0.00000
  81 0.00000 0.00000 0.00000
  82 0.00000 0.00000 0.00000
  83 0.00000 0.00000 0.00000
  84 0.00000 0.00000 0.00000
  85 0.00000 0.00000 0.00000
  86 0.00000 0.00000 0.00000
  87 0.00000 0.00000 0.00000
  88 0.00000 0.00000 0.00000
  89 0.00000 0.00000 0.00000
  90 0.00000 0.00000 0.00000
  91 0.00000 0.00000 0.00000
  92 0.00000 0.00000 0.00000
  93 0.00000 0.00000 0.00000
  94 0.00000 0.00000 0.00000
  95 0.00000 0.00000 0.00000
  96 0.00000 0.00000 0.00000
  97 0.00000 0.00000 0.00000
  98 0.00000 0.00000 0.00000
  99 0.00000 0.00000 0.00000
  100 0.00000 0.00000 0.00000
  101 0.00000 0.00000 0.00000
  102 0.00000 0.00000 0.00000
  103 0.00000 0.00000 0.00000
  104 0.00000 0.00000 0.00000
  105 0.00000 0.00000 0.00000
  106 0.00000 0.00000 0.00000
  107 0.00000 0.00000 0.00000
  108 0.00000 0.00000 0.00000
  109 0.00000 0.00000 0.00000
  110 0.00000 0.00000 0.00000
  111 0.00000 0.00000 0.00000
  112 0.00000 0.00000 0.00000
  113 0.00000 0.00000 0.00000
  114 0.00000 0.00000 0.00000
  115 0.00000 0.00000 0.00000
  116 0.00000 0.00000 0.00000
  117 0.00000 0.00000 0.00000
  118 0.00000 0.00000 0.00000
  119 0.00000 0.00000 0.00000
  120 0.00000 0.00000 0.00000
  121 0.00000 0.00000 0.00000
  122 0.00000 0.00000 0.00000
  123 0.00000 0.00000 0.00000
  124 0.00000 0.00000 0.00000
  125 0.00000 0.00000 0.00000
  126 0.00000 0.00000 0.00000
  127 0.00000 0.00000 0.00000
  128 0.00000 0.00000 0.00000
  129 0.00000 0.00000 0.00000
  130 0.00000 0.00000 0.00000
  131 0.00000 0.00000 0.00000
  132 0.00000 0.00000 0.00000
  133 0.00000 0.00000 0.00000
  134 0.00000 0.00000 0.00000
  135 0.00000 0.00000 0.00000
  136 0.00000 0.00000 0.00000
  137 0.00000 0.00000 0.00000
  138 0.00000 0.00000 0.00000
  139 0.00000 0.00000 0.00000
  140 0.00000 0.00000 0.00000
  141 0.00000 0.00000 0.00000
  142 0.00000 0.00000 0.00000
  143 0.00000 0.00000 0.00000
  144 0.00000 0.00000 0.00000
  145 0.00000 0.00000 0.00000
  146 0.00000 0.00000 0.00000
  147 0.00000 0.00000 0.00000
  148 0.00000 0.00000 0.00000
  149 0.00000 0.00000 0.00000
  150 0.00000 0.00000 0.00000
  151 0.00000 0.00000 0.00000
  152 0.00000 0.00000 0.00000
  153 0.00000 0.00000 0.00000
  154 0.00000 0.00000 0.00000
  155 0.00000 0.00000 0.00000
  156 0.00000 0.00000 0.00000
  157 0.00000 0.00000 0.00000
  158 0.00000 0.00000 0.00000
  159 0.00000 0.00000 0.00000
  160 0.00000 0.00000 0.00000
  161 0.00000 0.00000 0.00000
  162 0.00000 0.00000 0.00000
  163 0.00000 0.00000 0.00000
  164 0.00000 0.00000 0.00000
  165 0.00000 0.00000 0.00000
  166 0.00000 0.00000 0.00000
  167 0.00000 0.00000 0.00000
  168 0.00000 0.00000 0.00000
  169 0.00000 0.00000 0.00000
  170 0.00000 0.00000 0.00000
  171 0.00000 0.00000 0.00000
  172 0.00000 0.00000 0.00000
  173 0.00000 0.00000 0.00000
  174 0.00000 0.00000 0.00000
  175 0.00000 0.00000 0.00000
  176 0.00000 0.00000 0.00000
  177 0.00000 0.00000 0.00000
  178 0.00000 0.00000 0.00000
  179 0.00000 0.00000 0.00000
  180 0.00000 0.00000 0.00000
  181 0.00000 0.00000 0.00000
  182 0.00000 0.00000 0.00000
  183 0.00000 0.00000 0.00000
  184 0.00000 0.00000 0.00000
  185 0.00000 0.00000 0.00000
  186 0.00000 0.00000 0.00000
  187 0.00000 0.00000 0.00000
  188 0.00000 0.00000 0.00000
  189 0.00000 0.00000 0.00000
  190 0.00000 0.00000 0.00000
  191 0.00000 0.00000 0.00000
  192 0.00000 0.00000 0.00000
  193 0.00000 0.00000 0.00000
  194 0.00000 0.00000 0.00000
  195 0.00000 0.00000 0.00000
  196 0.00000 0.00000 0.00000
  197 0.00000 0.00000 0.00000
  198 0.00000 0.00000 0.00000
  199 0.00000 0.00000 0.00000
  200 0.00000 0.00000 0.00000
  201 0.00000 0.00000 0.00000
  202 0.00000 0.00000 0.00000
  203 0.00000 0.00000 0.00000
  204 0.00000 0.00000 0.00000
  205 0.00000 0.00000 0.00000
  206 0.00000 0.00000 0.00000
  207 0.00000 0.00000 0.00000
  208 0.00000 0.00000 0.00000
  209 0.00000 0.00000 0.00000
  210 0.00000 0.00000 0.00000
  211 0.00000 0.00000 0.00000
  212 0.00000 0.00000 0.00000
  213 0.00000 0.00000 0.00000
  214 0.00000 0.00000 0.00000
  215 0.00000 0.00000 0.00000
  216 0.00000 0.00000 0.00000
  217 0.00000 0.00000 0.00000
  218 0.00000 0.00000 0.00000
  219 0.00000 0.00000 0.00000
  220 0.00000 0.00000 0.00000
  221 0.00000 0.00000 0.00000
  222 0.00000 0.00000 0.00000
  223 0.00000 0.00000 0.00000
  224 0.00000 0.00000 0.00000
  225 0.00000 0.00000 0.00000
  226 0.00000 0.00000 0.00000
  227 0.00000 0.00000 0.00000
  228 0.00000 0.00000 0.00000
  229 0.00000 0.00000 0.00000
  230 0.00000 0.00000 0.00000
  231 0.00000 0.00000 0.00000
  232 0.00000 0.00000 0.00000
  233 0.00000 0.00000 0.00000
  234 0.00000 0.00000 0.00000
  235 0.00000 0.00000 0.00000
  236 0.00000 0.00000 0.00000
  237 0.00000 0.00000 0.00000
  238 0.00000 0.00000 0.00000
  239 0.00000 0.00000 0.00000
  240 0.00000 0.00000 0.00000
  241 0.00000 0.00000 0.00000
</Section>

newXOutput 162

<Section columns = "stress_xx | stress_yy | stress_xy">
  1 0.00000 0.00000 0.00000
  2 0.00000 0.00000 0.00000
  3 0.00000 0.00000 0.00000
  4 0.00000 0.00000 0.00000
  5 0.00000 0.00000 0.00000
  6 0.00000 0.00000 0.00000
  7 0.00000 0.00000 0.00000
  8 0.00000 0.00000 0.00000
  9 0.00000 0.00000 0.00000
  10 0.00000 0.00000 0.00000
  11 0.00000 0.00000 0.00000
  12 0.00000 0.00000 0.00000
  13 0.00000 0.00000 0.00000
  14 0.00000 0.00000 0.00000
  15 0.00000 0.00000 0.00000
  16 0.00000 0.00000 0.00000
  17 0.00000 0.00000 0.00000
  18 0.00000 0.00000 0.00000
  19 0.00000 0.00000 0.00000
  20 0.00000 0.00000 0.00000
  21 0.00000 0.00000 0.00000
  22 0.00000 0.00000 0.00000
  23 0.00000 0.00000 0.00000
  24 0.00000 0.00000 0.00000
  25 0.00000 0.00000 0.00000
  26 0.00000 0.00000 0.00000
  27 0.00000 0.00000 0.00000
  28 0.00000 0.00000 0.00000
  29 0.00000 0.00000 0.00000
  30 0.00000 0.00000 0.00000
  31 0.00000 0.00000 0.00000
  32 0.00000 0.00000 0.00000
  33 0.00000 0.00000 0.00000
  34 0.00000 0.00000 0.00000
  35 0.00000 0.00000 0.00000
  36 0.00000 0.00000 0.00000
  37 0.00000 0.00000 0.00000
  38 0.00000 0.00000 0.00000
  39 0.00000 0.00000 0.00000
  40 0.00000 0.00000 0.00000
  41 0.00000 0.00000 0.00000
  42 0.00000 0.00000 0.00000
  43 0.00000 0.00000 0.00000
  44 0.00000 0.00000 0.00000
  45 0.00000 0.00000 0.00000
  46 0.00000 0.00000 0.00000
  47 0.00000 0.00000 0.00000
  48 0.00000 0.00000 0.00000
  49 0.00000 0.00000 0.00000
  50 0.00000 0.00000 0.00000
  51 0.00000 0.00000 0.00000
  52 0.00000 0.00000 0.00000
  53 0.00000 0.00000 0.00000
  54 0.00000 0.00000 0.00000
  55 0.00000 0.00000 0.00000
  56 0.00000 0.00000 0.00000
  57 0.00000 0.00000 0.00000
  58 0.00000 0.00000 0.00000
  59 0.00000 0.00000 0.00000
  60 0.00000 0.00000 0.00000
  61 0.00000 0.00000 0.00000
  62 0.00000 0.00000 0.00000
  63 0.00000 0.00000 0.00000
  64 0.00000 0.00000 0.00000
  65 0.00000 0.00000 0.00000
  66 0.00000 0.00000 0.00000
  67 0.00000 0.00000 0.00000
  68 0.00000 0.00000 0.00000
  69 0.00000 0.00000 0.00000
  70 0.00000 0.00000 0.00000
  71 0.00000 0.00000 0.00000
  72 0.00000 0.00000 0.00000
  73 0.00000 0.00000 0.00000
  74 0.00000 0.00000 0.00000
  75 0.00000 0.00000 0.00000
  76 0.00000 0.00000 0.00000
  77 0.00000 0.00000 0.00000
  78 0.00000 0.00000 0.00000
  79 0.00000 0.00000 0.00000
  80 0.00000 0.00000 0.00000
  81 0.00000 0.00000 0.00000
  82 0.00000 0.00000 0.00000
  83 0.00000 0.00000 0.00000
  84 0.00000 0.00000 0.00000
  85 0.00000 0.00000 0.00000
  86 0.00000 0.00000 0.00000
  87 0.00000 0.00000 0.00000
  88 0.00000 0.00000 0.00000
  89 0.00000 0.00000 0.00000
  90 0.00000 0.00000 0.00000
  91 0.00000 0.00000 0.00000
  92 0.00000 0.00000 0.00000
  93 0.00000 0.00000 0.00000
  94 0.00000 0.00000 0.00000
  95 0.00000 0.00000 0.00000
  96 0.00000 0.00000 0.00000
  97 0.00000 0.00000 0.00000
  98 0.00000 0.00000 0.00000
  99 0.00000 0.00000 0.00000
  100 0.00000 0.00000 0.00000
  101 0.00000 0.00000 0.00000
  102 0.00000 0.00000 0.00000
  103 0.00000 0.00000 0.00000
  104 0.00000 0.00000 0.00000
  105 0.00000 0.00000 0.00000
  106 0.00000 0.00000 0.00000
  107 0.00000 0.00000 0.00000
  108 0.00000 0.00000 0.00000
  109 0.00000 0.00000 0.00000
  110 0.00000 0.00000 0.00000
  111 0.00000 0.00000 0.00000
  112 0.00000 0.00000 0.00000
  113 0.00000 0.00000 0.00000
  114 0.00000 0.00000 0.00000
  115 0.00000 0.00000 0.00000
  116 0.00000 0.00000 0.00000
  117 0.00000 0.00000 0.00000
  118 0.00000 0.00000 0.00000
  119 0.00000 0.00000 0.00000
  120 0.00000 0.00000 0.00000
  121 0.00000 0.00000 0.00000
  122 0.00000 0.00000 0.00000
  123 0.00000 0.00000 0.00000
  124 0.00000 0.00000 0.00000
  125 0.00000 0.00000 0.00000
  126 0.00000 0.00000 0.00000
  127 0.00000 0.00000 0.00000
  128 0.00000 0.00000 0.00000
  129 0.00000 0.00000 0.00000
  130 0.00000 0.00000 0.00000
  131 0.00000 0.00000 0.00000
  132 0.00000 0.00000 0.00000
  133 0.00000 0.00000 0.00000
  134 0.00000 0.00000 0.00000
  135 0.00000 0.00000 0.00000
  136 0.00000 0.00000 0.00000
  137 0.00000 0.00000 0.00000
  138 0.00000 0.00000 0.00000
  139 0.00000 0.00000 0.00000
  140 0.00000 0.00000 0.00000
  141 0.00000 0.00000 0.00000
  142 0.00000 0.00000 0.00000
  143 0.00000 0.00000 0.00000
  144 0.00000 0.00000 0.00000
  145 0.00000 0.00000 0.00000
  146 0.00000 0.00000 0.00000
  147 0.00000 0.00000 0.00000
  148 0.00000 0.00000 0.00000
  149 0.00000 0.00000 0.00000
  150 0.00000 0.00000 0.00000
  151 0.00000 0.00000 0.00000
  152 0.00000 0.00000 0.00000
  153 0.00000 0.00000 0.00000
  154 0.00000 0.00000 0.00000
  155 0.00000 0.00000 0.00000
  156 0.00000 0.00000 0.00000
  157 0.00000 0.00000 0.00000
  158 0.00000 0.00000 0.00000
  159 0.00000 0.00000 0.00000
  160 0.00000 0.00000 0.00000
  161 0.00000 0.00000 0.00000
  162 0.00000 0.00000 0.00000
  163 0.00000 0.00000 0.00000
  164 0.00000 0.00000 0.00000
  165 0.00000 0.00000 0.00000
  166 0.00000 0.00000 0.00000
  167 0.00000 0.00000 0.00000
  168 0.00000 0.00000 0.00000
  169 0.00000 0.00000 0.00000
  170 0.00000 0.00000 0.00000
  171 0.00000 0.00000 0.00000
  172 0.00000 0.00000 0.00000
  173 0.00000 0.00000 0.00000
  174 0.00000 0.00000 0.00000
  175 0.00000 0.00000 0.00000
  176 0.00000 0.00000 0.00000
  177 0.00000 0.00000 0.00000
  178 0.00000 0.00000 0.00000
  179 0.00000 0.00000 0.00000
  180 0.00000 0.00000 0.00000
  181 0.00000 0.00000 0.00000
  182 0.00000 0.00000 0.00000
  183 0.00000 0.00000 0.00000
  184 0.00000 0.00000 0.00000
  185 0.00000 0.00000 0.00000
  186 0.00000 0.00000 0.00000
  187 0.00000 0.00000 0.00000
  188 0.00000 0.00000 0.00000
  189 0.00000 0.00000 0.00000
  190 0.00000 0.00000 0.00000
  191 0.00000 0.00000 0.00000
  192 0.00000 0.00000 0.00000
  193 0.00000 0.00000 0.00000
  194 0.00000 0.00000 0.00000
  195 0.00000 0.00000 0.00000
  196 0.00000 0.00000 0.00000
  197 0.00000 0.00000 0.00000
  198 0.00000 0.00000 0.00000
  199 0.00000 0.00000 0.00000
  200 0.00000 0.00000 0.00000
  201 0.00000 0.00000 0.00000
  202 0.00000 0.00000 0.00000
  203 0.00000 0.00000 0.00000
  204 0.00000 0.00000 0.00000
  205 0.00000 0.00000 0.00000
  206 0.00000 0.00000 0.00000
  207 0.00000 0.00000 0.00000
  208 0.00000 0.00000 0.00000
  209 0.00000 0.00000 0.00000
  210 0.00000 0.00000 0.00000
  211 0.00000 0.00000 0.00000
  212 0.00000 0.00000 0.00000
  213 0.00000 0.00000 0.00000
  214 0.00000 0.00000 0.00000
  215 0.00000 0.00000 0.00000
  216 0.00000 0.00000 0.00000
  217 0.00000 0.00000 0.00000
  218 0.00000 0.00000 0.00000
  219 0.00000 0.00000 0.00000
  220 0.00000 0.00000 0.00000
  221 0.00000 0.00000 0.00000
  222 0.00000 0.00000 0.00000
  223 0.00000 0.00000 0.00000
  224 0.00000 0.00000 0.00000
  225 0.00000 0.00000 0.00000
  226 0.00000 0.00000 0.00000
  227 0.00000 0.00000 0.00000
  228 0.00000 0.00000 0.00000
  229 0.00000 0.00000 0.00000
  230 0.00000 0.00000 0.00000
  231 0.00000 0.00000 0.00000
  232 0.00000 0.00000 0.00000
  233 0.00000 0.00000 0.00000
  234 0.00000 0.00000 0.00000
  235 0.00000 0.00000 0.00000
  236 0.00000 0.00000 0.00000
  237 0.00000 0.00000 0.00000
  238 0.00000 0.00000 0.00000
  239 0.00000 0.00000 0.00000
  240 0.00000 0.00000 0.00000
  241 0.00000 0.00000 0.00000
</Section>

newXOutput 163

<Section columns = "stress_xx | stress_yy | stress_xy">
  1 0.00000 0.00000 0.00000
  2 0.00000 0.00000 0.00000
  3 0.00000 0.00000 0.00000
  4 0.00000 0.00000 0.00000
  5 0.00000 0.00000 0.00000
  6 0.00000 0.00000 0.00000
  7 0.00000 0.00000 0.00000
  8 0.00000 0.00000 0.00000
  9 0.00000 0.00000 0.00000
  10 0.00000 0.00000 0.00000
  11 0.00000 0.00000 0.00000
  12 0.00000 0.00000 0.00000
  13 0.00000 0.00000 0.00000
  14 0.00000 0.00000 0.00000
  15 0.00000 0.00000 0.00000
  16 0.00000 0.00000 0.00000
  17 0.00000 0.00000 0.00000
  18 0.00000 0.00000 0.00000
  19 0.00000 0.00000 0.00000
  20 0.00000 0.00000 0.00000
  21 0.00000 0.00000 0.00000
  22 0.00000 0.00000 0.00000
  23 0.00000 0.00000 0.00000
  24 0.00000 0.00000 0.00000
  25 0.00000 0.00000 0.00000
  26 0.00000 0.00000 0.00000
  27 0.00000 0.00000 0.00000
  28 0.00000 0.00000 0.00000
  29 0.00000 0.00000 0.00000
  30 0.00000 0.00000 0.00000
  31 0.00000 0.00000 0.00000
  32 0.00000 0.00000 0.00000
  33 0.00000 0.00000 0.00000
  34 0.00000 0.00000 0.00000
  35 0.00000 0.00000 0.00000
  36 0.00000 0.00000 0.00000
  37 0.00000 0.00000 0.00000
  38 0.00000 0.00000 0.00000
  39 0.00000 0.00000 0.00000
  40 0.00000 0.00000 0.00000
  41 0.00000 0.00000 0.00000
  42 0.00000 0.00000 0.00000
  43 0.00000 0.00000 0.00000
  44 0.00000 0.00000 0.00000
  45 0.00000 0.00000 0.00000
  46 0.00000 0.00000 0.00000
  47 0.00000 0.00000 0.00000
  48 0.00000 0.00000 0.00000
  49 0.00000 0.00000 0.00000
  50 0.00000 0.00000 0.00000
  51 0.00000 0.00000 0.00000
  52 0.00000 0.00000 0.00000
  53 0.00000 0.00000 0.00000
  54 0.00000 0.00000 0.00000
  55 0.00000 0.00000 0.00000
  56 0.00000 0.00000 0.00000
  57 0.00000 0.00000 0.00000
  58 0.00000 0.00000 0.00000
  59 0.00000 0.00000 0.00000
  60 0.00000 0.00000 0.00000
  61 0.00000 0.00000 0.00000
  62 0.00000 0.00000 0.00000
  63 0.00000 0.00000 0.00000
  64 0.00000 0.00000 0.00000
  65 0.00000 0.00000 0.00000
  66 0.00000 0.00000 0.00000
  67 0.00000 0.00000 0.00000
  68 0.00000 0.00000 0.00000
  69 0.00000 0.00000 0.00000
  70 0.00000 0.00000 0.00000
  71 0.00000 0.00000 0.00000
  72 0.00000 0.00000 0.00000
  73 0.00000 0.00000 0.00000
  74 0.00000 0.00000 0.00000
  75 0.00000 0.00000 0.00000
  76 0.00000 0.00000 0.00000
  77 0.00000 0.00000 0.00000
  78 0.00000 0.00000 0.00000
  79 0.00000 0.00000 0.00000
  80 0.00000 0.00000 0.00000
  81 0.00000 0.00000 0.00000
  82 0.00000 0.00000 0.00000
  83 0.00000 0.00000 0.00000
  84 0.00000 0.00000 0.00000
  85 0.00000 0.00000 0.00000
  86 0.00000 0.00000 0.00000
  87 0.00000 0.00000 0.00000
  88 0.00000 0.00000 0.00000
  89 0.00000 0.00000 0.00000
  90 0.00000 0.00000 0.00000
  91 0.00000 0.00000 0.00000
  92 0.00000 0.00000 0.00000
  93 0.00000 0.00000 0.00000
  94 0.00000 0.00000 0.00000
  95 0.00000 0.00000 0.00000
  96 0.00000 0.00000 0.00000
  97 0.00000 0.00000 0.00000
  98 0.00000 0.00000 0.00000
  99 0.00000 0.00000 0.00000
  100 0.00000 0.00000 0.00000
  101 0.00000 0.00000 0.00000
  102 0.00000 0.00000 0.00000
  103 0.00000 0.00000 0.00000
  104 0.00000 0.00000 0.00000
  105 0.00000 0.00000 0.00000
  106 0.00000 0.00000 0.00000
  107 0.00000 0.00000 0.00000
  108 0.00000 0.00000 0.00000
  109 0.00000 0.00000 0.00000
  110 0.00000 0.00000 0.00000
  111 0.00000 0.00000 0.00000
  112 0.00000 0.00000 0.00000
  113 0.00000 0.00000 0.00000
  114 0.00000 0.00000 0.00000
  115 0.00000 0.00000 0.00000
  116 0.00000 0.00000 0.00000
  117 0.00000 0.00000 0.00000
  118 0.00000 0.00000 0.00000
  119 0.00000 0.00000 0.00000
  120 0.00000 0.00000 0.00000
  121 0.00000 0.00000 0.00000
  122 0.00000 0.00000 0.00000
  123 0.00000 0.00000 0.00000
  124 0.00000 0.00000 0.00000
  125 0.00000 0.00000 0.00000
  126 0.00000 0.00000 0.00000
  127 0.00000 0.00000 0.00000
  128 0.00000 0.00000 0.00000
  129 0.00000 0.00000 0.00000
  130 0.00000 0.00000 0.00000
  131 0.00000 0.00000 0.00000
  132 0.00000 0.00000 0.00000
  133 0.00000 0.00000 0.00000
  134 0.00000 0.00000 0.00000
  135 0.00000 0.00000 0.00000
  136 0.00000 0.00000 0.00000
  137 0.00000 0.00000 0.00000
  138 0.00000 0.00000 0.00000
  139 0.00000 0.00000 0.00000
  140 0.00000 0.00000 0.00000
  141 0.00000 0.00000 0.00000
  142 0.00000 0.00000 0.00000
  143 0.00000 0.00000 0.00000
  144 0.00000 0.00000 0.00000
  145 0.00000 0.00000 0.00000
  146 0.00000 0.00000 0.00000
  147 0.00000 0.00000 0.00000
  148 0.00000 0.00000 0.00000
  149 0.00000 0.00000 0.00000
  150 0.00000 0.00000 0.00000
  151 0.00000 0.00000 0.00000
  152 0.00000 0.00000 0.00000
  153 0.00000 0.00000 0.00000
  154 0.00000 0.00000 0.00000
  155 0.00000 0.00000 0.00000
  156 0.00000 0.00000 0.00000
  157 0.00000 0.00000 0.00000
  158 0.00000 0.00000 0.00000
  159 0.00000 0.00000 0.00000
  160 0.00000 0.00000 0.00000
  161 0.00000 0.00000 0.00000
  162 0.00000 0.00000 0.00000
  163 0.00000 0.00000 0.00000
  164 0.00000 0.00000 0.00000
  165 0.00000 0.00000 0.00000
  166 0.00000 0.00000 0.00000
  167 0.00000 0.00000 0.00000
  168 0.00000 0.00000 0.00000
  169 0.00000 0.00000 0.00000
  170 0.00000 0.00000 0.00000
  171 0.00000 0.00000 0.00000
  172 0.00000 0.00000 0.00000
  173 0.00000 0.00000 0.00000
  174 0.00000 0.00000 0.00000
  175 0.00000 0.00000 0.00000
  176 0.00000 0.00000 0.00000
  177 0.00000 0.00000 0.00000
  178 0.00000 0.00000 0.00000
  179 0.00000 0.00000 0.00000
  180 0.00000 0.00000 0.00000
  181 0.00000 0.00000 0.00000
  182 0.00000 0.00000 0.00000
  183 0.00000 0.00000 0.00000
  184 0.00000 0.00000 0.00000
  185 0.00000 0.00000 0.00000
  186 0.00000 0.00000 0.00000
  187 0.00000 0.00000 0.00000
  188 0.00000 0.00000 0.00000
  189 0.00000 0.00000 0.00000
  190 0.00000 0.00000 0.00000
  191 0.00000 0.00000 0.00000
  192 0.00000 0.00000 0.00000
  193 0.00000 0.00000 0.00000
  194 0.00000 0.00000 0.00000
  195 0.00000 0.00000 0.00000
  196 0.00000 0.00000 0.00000
  197 0.00000 0.00000 0.00000
  198 0.00000 0.00000 0.00000
  199 0.00000 0.00000 0.00000
  200 0.00000 0.00000 0.00000
  201 0.00000 0.00000 0.00000
  202 0.00000 0.00000 0.00000
  203 0.00000 0.00000 0.00000
  204 0.00000 0.00000 0.00000
  205 0.00000 0.00000 0.00000
  206 0.00000 0.00000 0.00000
  207 0.00000 0.00000 0.00000
  208 0.00000 0.00000 0.00000
  209 0.00000 0.00000 0.00000
  210 0.00000 0.00000 0.00000
  211 0.00000 0.00000 0.00000
  212 0.00000 0.00000 0.00000
  213 0.00000 0.00000 0.00000
  214 0.00000 0.00000 0.00000
  215 0.00000 0.00000 0.00000
  216 0.00000 0.00000 0.00000
  217 0.00000 0.00000 0.00000
  218 0.00000 0.00000 0.00000
  219 0.00000 0.00000 0.00000
  220 0.00000 0.00000 0.00000
  221 0.00000 0.00000 0.00000
  222 0.00000 0.00000 0.00000
  223 0.00000 0.00000 0.00000
  224 0.00000 0.00000 0.00000
  225 0.00000 0.00000 0.00000
  226 0.00000 0.00000 0.00000
  227 0.00000 0.00000 0.00000
  228 0.00000 0.00000 0.00000
  229 0.00000 0.00000 0.00000
  230 0.00000 0.00000 0.00000
  231 0.00000 0.00000 0.00000
  232 0.00000 0.00000 0.00000
  233 0.00000 0.00000 0.00000
  234 0.00000 0.00000 0.00000
  235 0.00000 0.00000 0.00000
  236 0.00000 0.00000 0.00000
  237 0.00000 0.00000 0.00000
  238 0.00000 0.00000 0.00000
  239 0.00000 0.00000 0.00000
  240 0.00000 0.00000 0.00000
  241 0.00000 0.00000 0.00000
</Section>

newXOutput 164

<Section columns = "stress_xx | stress_yy | stress_xy">
  1 0.00000 0.00000 0.00000
  2 0.00000 0.00000 0.00000
  3 0.00000 0.00000 0.00000
  4 0.00000 0.00000 0.00000
  5 0.00000 0.00000 0.00000
  6 0.00000 0.00000 0.00000
  7 0.00000 0.00000 0.00000
  8 0.00000 0.00000 0.00000
  9 0.00000 0.00000 0.00000
  10 0.00000 0.00000 0.00000
  11 0.00000 0.00000 0.00000
  12 0.00000 0.00000 0.00000
  13 0.00000 0.00000 0.00000
  14 0.00000 0.00000 0.00000
  15 0.00000 0.00000 0.00000
  16 0.00000 0.00000 0.00000
  17 0.00000 0.00000 0.00000
  18 0.00000 0.00000 0.00000
  19 0.00000 0.00000 0.00000
  20 0.00000 0.00000 0.00000
  21 0.00000 0.00000 0.00000
  22 0.00000 0.00000 0.00000
  23 0.00000 0.00000 0.00000
  24 0.00000 0.00000 0.00000
  25 0.00000 0.00000 0.00000
  26 0.00000 0.00000 0.00000
  27 0.00000 0.00000 0.00000
  28 0.00000 0.00000 0.00000
  29 0.00000 0.00000 0.00000
  30 0.00000 0.00000 0.00000
  31 0.00000 0.00000 0.00000
  32 0.00000 0.00000 0.00000
  33 0.00000 0.00000 0.00000
  34 0.00000 0.00000 0.00000
  35 0.00000 0.00000 0.00000
  36 0.00000 0.00000 0.00000
  37 0.00000 0.00000 0.00000
  38 0.00000 0.00000 0.00000
  39 0.00000 0.00000 0.00000
  40 0.00000 0.00000 0.00000
  41 0.00000 0.00000 0.00000
  42 0.00000 0.00000 0.00000
  43 0.00000 0.00000 0.00000
  44 0.00000 0.00000 0.00000
  45 0.00000 0.00000 0.00000
  46 0.00000 0.00000 0.00000
  47 0.00000 0.00000 0.00000
  48 0.00000 0.00000 0.00000
  49 0.00000 0.00000 0.00000
  50 0.00000 0.00000 0.00000
  51 0.00000 0.00000 0.00000
  52 0.00000 0.00000 0.00000
  53 0.00000 0.00000 0.00000
  54 0.00000 0.00000 0.00000
  55 0.00000 0.00000 0.00000
  56 0.00000 0.00000 0.00000
  57 0.00000 0.00000 0.00000
  58 0.00000 0.00000 0.00000
  59 0.00000 0.00000 0.00000
  60 0.00000 0.00000 0.00000
  61 0.00000 0.00000 0.00000
  62 0.00000 0.00000 0.00000
  63 0.00000 0.00000 0.00000
  64 0.00000 0.00000 0.00000
  65 0.00000 0.00000 0.00000
  66 0.00000 0.00000 0.00000
  67 0.00000 0.00000 0.00000
  68 0.00000 0.00000 0.00000
  69 0.00000 0.00000 0.00000
  70 0.00000 0.00000 0.00000
  71 0.00000 0.00000 0.00000
  72 0.00000 0.00000 0.00000
  73 0.00000 0.00000 0.00000
  74 0.00000 0.00000 0.00000
  75 0.00000 0.00000 0.00000
  76 0.00000 0.00000 0.00000
  77 0.00000 0.00000 0.00000
  78 0.00000 0.00000 0.00000
  79 0.00000 0.00000 0.00000
  80 0.00000 0.00000 0.00000
  81 0.00000 0.00000 0.00000
  82 0.00000 0.00000 0.00000
  83 0.00000 0.00000 0.00000
  84 0.00000 0.00000 0.00000
  85 0.00000 0.00000 0.00000
  86 0.00000 0.00000 0.00000
  87 0.00000 0.00000 0.00000
  88 0.00000 0.00000 0.00000
  89 0.00000 0.00000 0.00000
  90 0.00000 0.00000 0.00000
  91 0.00000 0.00000 0.00000
  92 0.00000 0.00000 0.00000
  93 0.00000 0.00000 0.00000
  94 0.00000 0.00000 0.00000
  95 0.00000 0.00000 0.00000
  96 0.00000 0.00000 0.00000
  97 0.00000 0.00000 0.00000
  98 0.00000 0.00000 0.00000
  99 0.00000 0.00000 0.00000
  100 0.00000 0.00000 0.00000
  101 0.00000 0.00000 0.00000
  102 0.00000 0.00000 0.00000
  103 0.00000 0.00000 0.00000
  104 0.00000 0.00000 0.00000
  105 0.00000 0.00000 0.00000
  106 0.00000 0.00000 0.00000
  107 0.00000 0.00000 0.00000
  108 0.00000 0.00000 0.00000
  109 0.00000 0.00000 0.00000
  110 0.00000 0.00000 0.00000
  111 0.00000 0.00000 0.00000
  112 0.00000 0.00000 0.00000
  113 0.00000 0.00000 0.00000
  114 0.00000 0.00000 0.00000
  115 0.00000 0.00000 0.00000
  116 0.00000 0.00000 0.00000
  117 0.00000 0.00000 0.00000
  118 0.00000 0.00000 0.00000
  119 0.00000 0.00000 0.00000
  120 0.00000 0.00000 0.00000
  121 0.00000 0.00000 0.00000
  122 0.00000 0.00000 0.00000
  123 0.00000 0.00000 0.00000
  124 0.00000 0.00000 0.00000
  125 0.00000 0.00000 0.00000
  126 0.00000 0.00000 0.00000
  127 0.00000 0.00000 0.00000
  128 0.00000 0.00000 0.00000
  129 0.00000 0.00000 0.00000
  130 0.00000 0.00000 0.00000
  131 0.00000 0.00000 0.00000
  132 0.00000 0.00000 0.00000
  133 0.00000 0.00000 0.00000
  134 0.00000 0.00000 0.00000
  135 0.00000 0.00000 0.00000
  136 0.00000 0.00000 0.00000
  137 0.00000 0.00000 0.00000
  138 0.00000 0.00000 0.00000
  139 0.00000 0.00000 0.00000
  140 0.00000 0.00000 0.00000
  141 0.00000 0.00000 0.00000
  142 0.00000 0.00000 0.00000
  143 0.00000 0.00000 0.00000
  144 0.00000 0.00000 0.00000
  145 0.00000 0.00000 0.00000
  146 0.00000 0.00000 0.00000
  147 0.00000 0.00000 0.00000
  148 0.00000 0.00000 0.00000
  149 0.00000 0.00000 0.00000
  150 0.00000 0.00000 0.00000
  151 0.00000 0.00000 0.00000
  152 0.00000 0.00000 0.00000
  153 0.00000 0.00000 0.00000
  154 0.00000 0.00000 0.00000
  155 0.00000 0.00000 0.00000
  156 0.00000 0.00000 0.00000
  157 0.00000 0.00000 0.00000
  158 0.00000 0.00000 0.00000
  159 0.00000 0.00000 0.00000
  160 0.00000 0.00000 0.00000
  161 0.00000 0.00000 0.00000
  162 0.00000 0.00000 0.00000
  163 0.00000 0.00000 0.00000
  164 0.00000 0.00000 0.00000
  165 0.00000 0.00000 0.00000
  166 0.00000 0.00000 0.00000
  167 0.00000 0.00000 0.00000
  168 0.00000 0.00000 0.00000
  169 0.00000 0.00000 0.00000
  170 0.00000 0.00000 0.00000
  171 0.00000 0.00000 0.00000
  172 0.00000 0.00000 0.00000
  173 0.00000 0.00000 0.00000
  174 0.00000 0.00000 0.00000
  175 0.00000 0.00000 0.00000
  176 0.00000 0.00000 0.00000
  177 0.00000 0.00000 0.00000
  178 0.00000 0.00000 0.00000
  179 0.00000 0.00000 0.00000
  180 0.00000 0.00000 0.00000
  181 0.00000 0.00000 0.00000
  182 0.00000 0.00000 0.00000
  183 0.00000 0.00000 0.00000
  184 0.00000 0.00000 0.00000
  185 0.00000 0.00000 0.00000
  186 0.00000 0.00000 0.00000
  187 0.00000 0.00000 0.00000
  188 0.00000 0.00000 0.00000
  189 0.00000 0.00000 0.00000
  190 0.00000 0.00000 0.00000
  191 0.00000 0.00000 0.00000
  192 0.00000 0.00000 0.00000
  193 0.00000 0.00000 0.00000
  194 0.00000 0.00000 0.00000
  195 0.00000 0.00000 0.00000
  196 0.00000 0.00000 0.00000
  197 0.00000 0.00000 0.00000
  198 0.00000 0.00000 0.00000
  199 0.00000 0.00000 0.00000
  200 0.00000 0.00000 0.00000
  201 0.00000 0.00000 0.00000
  202 0.00000 0.00000 0.00000
  203 0.00000 0.00000 0.00000
  204 0.00000 0.00000 0.00000
  205 0.00000 0.00000 0.00000
  206 0.00000 0.00000 0.00000
  207 0.00000 0.00000 0.00000
  208 0.00000 0.00000 0.00000
  209 0.00000 0.00000 0.00000
  210 0.00000 0.00000 0.00000
  211 0.00000 0.00000 0.00000
  212 0.00000 0.00000 0.00000
  213 0.00000 0.00000 0.00000
  214 0.00000 0.00000 0.00000
  215 0.00000 0.00000 0.00000
  216 0.00000 0.00000 0.00000
  217 0.00000 0.00000 0.00000
  218 0.00000 0.00000 0.00000
  219 0.00000 0.00000 0.00000
  220 0.00000 0.00000 0.00000
  221 0.00000 0.00000 0.00000
  222 0.00000 0.00000 0.00000
  223 0.00000 0.00000 0.00000
  224 0.00000 0.00000 0.00000
  225 0.00000 0.00000 0.00000
  226 0.00000 0.00000 0.00000
  227 0.00000 0.00000 0.00000
  228 0.00000 0.00000 0.00000
  229 0.00000 0.00000 0.00000
  230 0.00000 0.00000 0.00000
  231 0.00000 0.00000 0.00000
  232 0.00000 0.00000 0.00000
  233 0.00000 0.00000 0.00000
  234 0.00000 0.00000 0.00000
  235 0.00000 0.00000 0.00000
  236 0.00000 0.00000 0.00000
  237 0.00000 0.00000 0.00000
  238 0.00000 0.00000 0.00000
  239 0.00000 0.00000 0.00000
  240 0.00000 0.00000 0.00000
  241 0.00000 0.00000 0.00000
</Section>

newXOutput 165

<Section columns = "stress_xx | stress_yy | stress_xy">
  1 0.00000 0.00000 0.00000
  2 0.00000 0.00000 0.00000
  3 0.00000 0.00000 0.00000
  4 0.00000 0.00000 0.00000
  5 0.00000 0.00000 0.00000
  6 0.00000 0.00000 0.00000
  7 0.00000 0.00000 0.00000
  8 0.00000 0.00000 0.00000
  9 0.00000 0.00000 0.00000
  10 0.00000 0.00000 0.00000
  11 0.00000 0.00000 0.00000
  12 0.00000 0.00000 0.00000
  13 0.00000 0.00000 0.00000
  14 0.00000 0.00000 0.00000
  15 0.00000 0.00000 0.00000
  16 0.00000 0.00000 0.00000
  17 0.00000 0.00000 0.00000
  18 0.00000 0.00000 0.00000
  19 0.00000 0.00000 0.00000
  20 0.00000 0.00000 0.00000
  21 0.00000 0.00000 0.00000
  22 0.00000 0.00000 0.00000
  23 0.00000 0.00000 0.00000
  24 0.00000 0.00000 0.00000
  25 0.00000 0.00000 0.00000
  26 0.00000 0.00000 0.00000
  27 0.00000 0.00000 0.00000
  28 0.00000 0.00000 0.00000
  29 0.00000 0.00000 0.00000
  30 0.00000 0.00000 0.00000
  31 0.00000 0.00000 0.00000
  32 0.00000 0.00000 0.00000
  33 0.00000 0.00000 0.00000
  34 0.00000 0.00000 0.00000
  35 0.00000 0.00000 0.00000
  36 0.00000 0.00000 0.00000
  37 0.00000 0.00000 0.00000
  38 0.00000 0.00000 0.00000
  39 0.00000 0.00000 0.00000
  40 0.00000 0.00000 0.00000
  41 0.00000 0.00000 0.00000
  42 0.00000 0.00000 0.00000
  43 0.00000 0.00000 0.00000
  44 0.00000 0.00000 0.00000
  45 0.00000 0.00000 0.00000
  46 0.00000 0.00000 0.00000
  47 0.00000 0.00000 0.00000
  48 0.00000 0.00000 0.00000
  49 0.00000 0.00000 0.00000
  50 0.00000 0.00000 0.00000
  51 0.00000 0.00000 0.00000
  52 0.00000 0.00000 0.00000
  53 0.00000 0.00000 0.00000
  54 0.00000 0.00000 0.00000
  55 0.00000 0.00000 0.00000
  56 0.00000 0.00000 0.00000
  57 0.00000 0.00000 0.00000
  58 0.00000 0.00000 0.00000
  59 0.00000 0.00000 0.00000
  60 0.00000 0.00000 0.00000
  61 0.00000 0.00000 0.00000
  62 0.00000 0.00000 0.00000
  63 0.00000 0.00000 0.00000
  64 0.00000 0.00000 0.00000
  65 0.00000 0.00000 0.00000
  66 0.00000 0.00000 0.00000
  67 0.00000 0.00000 0.00000
  68 0.00000 0.00000 0.00000
  69 0.00000 0.00000 0.00000
  70 0.00000 0.00000 0.00000
  71 0.00000 0.00000 0.00000
  72 0.00000 0.00000 0.00000
  73 0.00000 0.00000 0.00000
  74 0.00000 0.00000 0.00000
  75 0.00000 0.00000 0.00000
  76 0.00000 0.00000 0.00000
  77 0.00000 0.00000 0.00000
  78 0.00000 0.00000 0.00000
  79 0.00000 0.00000 0.00000
  80 0.00000 0.00000 0.00000
  81 0.00000 0.00000 0.00000
  82 0.00000 0.00000 0.00000
  83 0.00000 0.00000 0.00000
  84 0.00000 0.00000 0.00000
  85 0.00000 0.00000 0.00000
  86 0.00000 0.00000 0.00000
  87 0.00000 0.00000 0.00000
  88 0.00000 0.00000 0.00000
  89 0.00000 0.00000 0.00000
  90 0.00000 0.00000 0.00000
  91 0.00000 0.00000 0.00000
  92 0.00000 0.00000 0.00000
  93 0.00000 0.00000 0.00000
  94 0.00000 0.00000 0.00000
  95 0.00000 0.00000 0.00000
  96 0.00000 0.00000 0.00000
  97 0.00000 0.00000 0.00000
  98 0.00000 0.00000 0.00000
  99 0.00000 0.00000 0.00000
  100 0.00000 0.00000 0.00000
  101 0.00000 0.00000 0.00000
  102 0.00000 0.00000 0.00000
  103 0.00000 0.00000 0.00000
  104 0.00000 0.00000 0.00000
  105 0.00000 0.00000 0.00000
  106 0.00000 0.00000 0.00000
  107 0.00000 0.00000 0.00000
  108 0.00000 0.00000 0.00000
  109 0.00000 0.00000 0.00000
  110 0.00000 0.00000 0.00000
  111 0.00000 0.00000 0.00000
  112 0.00000 0.00000 0.00000
  113 0.00000 0.00000 0.00000
  114 0.00000 0.00000 0.00000
  115 0.00000 0.00000 0.00000
  116 0.00000 0.00000 0.00000
  117 0.00000 0.00000 0.00000
  118 0.00000 0.00000 0.00000
  119 0.00000 0.00000 0.00000
  120 0.00000 0.00000 0.00000
  121 0.00000 0.00000 0.00000
  122 0.00000 0.00000 0.00000
  123 0.00000 0.00000 0.00000
  124 0.00000 0.00000 0.00000
  125 0.00000 0.00000 0.00000
  126 0.00000 0.00000 0.00000
  127 0.00000 0.00000 0.00000
  128 0.00000 0.00000 0.00000
  129 0.00000 0.00000 0.00000
  130 0.00000 0.00000 0.00000
  131 0.00000 0.00000 0.00000
  132 0.00000 0.00000 0.00000
  133 0.00000 0.00000 0.00000
  134 0.00000 0.00000 0.00000
  135 0.00000 0.00000 0.00000
  136 0.00000 0.00000 0.00000
  137 0.00000 0.00000 0.00000
  138 0.00000 0.00000 0.00000
  139 0.00000 0.00000 0.00000
  140 0.00000 0.00000 0.00000
  141 0.00000 0.00000 0.00000
  142 0.00000 0.00000 0.00000
  143 0.00000 0.00000 0.00000
  144 0.00000 0.00000 0.00000
  145 0.00000 0.00000 0.00000
  146 0.00000 0.00000 0.00000
  147 0.00000 0.00000 0.00000
  148 0.00000 0.00000 0.00000
  149 0.00000 0.00000 0.00000
  150 0.00000 0.00000 0.00000
  151 0.00000 0.00000 0.00000
  152 0.00000 0.00000 0.00000
  153 0.00000 0.00000 0.00000
  154 0.00000 0.00000 0.00000
  155 0.00000 0.00000 0.00000
  156 0.00000 0.00000 0.00000
  157 0.00000 0.00000 0.00000
  158 0.00000 0.00000 0.00000
  159 0.00000 0.00000 0.00000
  160 0.00000 0.00000 0.00000
  161 0.00000 0.00000 0.00000
  162 0.00000 0.00000 0.00000
  163 0.00000 0.00000 0.00000
  164 0.00000 0.00000 0.00000
  165 0.00000 0.00000 0.00000
  166 0.00000 0.00000 0.00000
  167 0.00000 0.00000 0.00000
  168 0.00000 0.00000 0.00000
  169 0.00000 0.00000 0.00000
  170 0.00000 0.00000 0.00000
  171 0.00000 0.00000 0.00000
  172 0.00000 0.00000 0.00000
  173 0.00000 0.00000 0.00000
  174 0.00000 0.00000 0.00000
  175 0.00000 0.00000 0.00000
  176 0.00000 0.00000 0.00000
  177 0.00000 0.00000 0.00000
  178 0.00000 0.00000 0.00000
  179 0.00000 0.00000 0.00000
  180 0.00000 0.00000 0.00000
  181 0.00000 0.00000 0.00000
  182 0.00000 0.00000 0.00000
  183 0.00000 0.00000 0.00000
  184 0.00000 0.00000 0.00000
  185 0.00000 0.00000 0.00000
  186 0.00000 0.00000 0.00000
  187 0.00000 0.00000 0.00000
  188 0.00000 0.00000 0.00000
  189 0.00000 0.00000 0.00000
  190 0.00000 0.00000 0.00000
  191 0.00000 0.00000 0.00000
  192 0.00000 0.00000 0.00000
  193 0.00000 0.00000 0.00000
  194 0.00000 0.00000 0.00000
  195 0.00000 0.00000 0.00000
  196 0.00000 0.00000 0.00000
  197 0.00000 0.00000 0.00000
  198 0.00000 0.00000 0.00000
  199 0.00000 0.00000 0.00000
  200 0.00000 0.00000 0.00000
  201 0.00000 0.00000 0.00000
  202 0.00000 0.00000 0.00000
  203 0.00000 0.00000 0.00000
  204 0.00000 0.00000 0.00000
  205 0.00000 0.00000 0.00000
  206 0.00000 0.00000 0.00000
  207 0.00000 0.00000 0.00000
  208 0.00000 0.00000 0.00000
  209 0.00000 0.00000 0.00000
  210 0.00000 0.00000 0.00000
  211 0.00000 0.00000 0.00000
  212 0.00000 0.00000 0.00000
  213 0.00000 0.00000 0.00000
  214 0.00000 0.00000 0.00000
  215 0.00000 0.00000 0.00000
  216 0.00000 0.00000 0.00000
  217 0.00000 0.00000 0.00000
  218 0.00000 0.00000 0.00000
  219 0.00000 0.00000 0.00000
  220 0.00000 0.00000 0.00000
  221 0.00000 0.00000 0.00000
  222 0.00000 0.00000 0.00000
  223 0.00000 0.00000 0.00000
  224 0.00000 0.00000 0.00000
  225 0.00000 0.00000 0.00000
  226 0.00000 0.00000 0.00000
  227 0.00000 0.00000 0.00000
  228 0.00000 0.00000 0.00000
  229 0.00000 0.00000 0.00000
  230 0.00000 0.00000 0.00000
  231 0.00000 0.00000 0.00000
  232 0.00000 0.00000 0.00000
  233 0.00000 0.00000 0.00000
  234 0.00000 0.00000 0.00000
  235 0.00000 0.00000 0.00000
  236 0.00000 0.00000 0.00000
  237 0.00000 0.00000 0.00000
  238 0.00000 0.00000 0.00000
  239 0.00000 0.00000 0.00000
  240 0.00000 0.00000 0.00000
  241 0.00000 0.00000 0.00000
</Section>

newXOutput 166

<Section columns = "stress_xx | stress_yy | stress_xy">
  1 0.00000 0.00000 0.00000
  2 0.00000 0.00000 0.00000
  3 0.00000 0.00000 0.00000
  4 0.00000 0.00000 0.00000
  5 0.00000 0.00000 0.00000
  6 0.00000 0.00000 0.00000
  7 0.00000 0.00000 0.00000
  8 0.00000 0.00000 0.00000
  9 0.00000 0.00000 0.00000
  10 0.00000 0.00000 0.00000
  11 0.00000 0.00000 0.00000
  12 0.00000 0.00000 0.00000
  13 0.00000 0.00000 0.00000
  14 0.00000 0.00000 0.00000
  15 0.00000 0.00000 0.00000
  16 0.00000 0.00000 0.00000
  17 0.00000 0.00000 0.00000
  18 0.00000 0.00000 0.00000
  19 0.00000 0.00000 0.00000
  20 0.00000 0.00000 0.00000
  21 0.00000 0.00000 0.00000
  22 0.00000 0.00000 0.00000
  23 0.00000 0.00000 0.00000
  24 0.00000 0.00000 0.00000
  25 0.00000 0.00000 0.00000
  26 0.00000 0.00000 0.00000
  27 0.00000 0.00000 0.00000
  28 0.00000 0.00000 0.00000
  29 0.00000 0.00000 0.00000
  30 0.00000 0.00000 0.00000
  31 0.00000 0.00000 0.00000
  32 0.00000 0.00000 0.00000
  33 0.00000 0.00000 0.00000
  34 0.00000 0.00000 0.00000
  35 0.00000 0.00000 0.00000
  36 0.00000 0.00000 0.00000
  37 0.00000 0.00000 0.00000
  38 0.00000 0.00000 0.00000
  39 0.00000 0.00000 0.00000
  40 0.00000 0.00000 0.00000
  41 0.00000 0.00000 0.00000
  42 0.00000 0.00000 0.00000
  43 0.00000 0.00000 0.00000
  44 0.00000 0.00000 0.00000
  45 0.00000 0.00000 0.00000
  46 0.00000 0.00000 0.00000
  47 0.00000 0.00000 0.00000
  48 0.00000 0.00000 0.00000
  49 0.00000 0.00000 0.00000
  50 0.00000 0.00000 0.00000
  51 0.00000 0.00000 0.00000
  52 0.00000 0.00000 0.00000
  53 0.00000 0.00000 0.00000
  54 0.00000 0.00000 0.00000
  55 0.00000 0.00000 0.00000
  56 0.00000 0.00000 0.00000
  57 0.00000 0.00000 0.00000
  58 0.00000 0.00000 0.00000
  59 0.00000 0.00000 0.00000
  60 0.00000 0.00000 0.00000
  61 0.00000 0.00000 0.00000
  62 0.00000 0.00000 0.00000
  63 0.00000 0.00000 0.00000
  64 0.00000 0.00000 0.00000
  65 0.00000 0.00000 0.00000
  66 0.00000 0.00000 0.00000
  67 0.00000 0.00000 0.00000
  68 0.00000 0.00000 0.00000
  69 0.00000 0.00000 0.00000
  70 0.00000 0.00000 0.00000
  71 0.00000 0.00000 0.00000
  72 0.00000 0.00000 0.00000
  73 0.00000 0.00000 0.00000
  74 0.00000 0.00000 0.00000
  75 0.00000 0.00000 0.00000
  76 0.00000 0.00000 0.00000
  77 0.00000 0.00000 0.00000
  78 0.00000 0.00000 0.00000
  79 0.00000 0.00000 0.00000
  80 0.00000 0.00000 0.00000
  81 0.00000 0.00000 0.00000
  82 0.00000 0.00000 0.00000
  83 0.00000 0.00000 0.00000
  84 0.00000 0.00000 0.00000
  85 0.00000 0.00000 0.00000
  86 0.00000 0.00000 0.00000
  87 0.00000 0.00000 0.00000
  88 0.00000 0.00000 0.00000
  89 0.00000 0.00000 0.00000
  90 0.00000 0.00000 0.00000
  91 0.00000 0.00000 0.00000
  92 0.00000 0.00000 0.00000
  93 0.00000 0.00000 0.00000
  94 0.00000 0.00000 0.00000
  95 0.00000 0.00000 0.00000
  96 0.00000 0.00000 0.00000
  97 0.00000 0.00000 0.00000
  98 0.00000 0.00000 0.00000
  99 0.00000 0.00000 0.00000
  100 0.00000 0.00000 0.00000
  101 0.00000 0.00000 0.00000
  102 0.00000 0.00000 0.00000
  103 0.00000 0.00000 0.00000
  104 0.00000 0.00000 0.00000
  105 0.00000 0.00000 0.00000
  106 0.00000 0.00000 0.00000
  107 0.00000 0.00000 0.00000
  108 0.00000 0.00000 0.00000
  109 0.00000 0.00000 0.00000
  110 0.00000 0.00000 0.00000
  111 0.00000 0.00000 0.00000
  112 0.00000 0.00000 0.00000
  113 0.00000 0.00000 0.00000
  114 0.00000 0.00000 0.00000
  115 0.00000 0.00000 0.00000
  116 0.00000 0.00000 0.00000
  117 0.00000 0.00000 0.00000
  118 0.00000 0.00000 0.00000
  119 0.00000 0.00000 0.00000
  120 0.00000 0.00000 0.00000
  121 0.00000 0.00000 0.00000
  122 0.00000 0.00000 0.00000
  123 0.00000 0.00000 0.00000
  124 0.00000 0.00000 0.00000
  125 0.00000 0.00000 0.00000
  126 0.00000 0.00000 0.00000
  127 0.00000 0.00000 0.00000
  128 0.00000 0.00000 0.00000
  129 0.00000 0.00000 0.00000
  130 0.00000 0.00000 0.00000
  131 0.00000 0.00000 0.00000
  132 0.00000 0.00000 0.00000
  133 0.00000 0.00000 0.00000
  134 0.00000 0.00000 0.00000
  135 0.00000 0.00000 0.00000
  136 0.00000 0.00000 0.00000
  137 0.00000 0.00000 0.00000
  138 0.00000 0.00000 0.00000
  139 0.00000 0.00000 0.00000
  140 0.00000 0.00000 0.00000
  141 0.00000 0.00000 0.00000
  142 0.00000 0.00000 0.00000
  143 0.00000 0.00000 0.00000
  144 0.00000 0.00000 0.00000
  145 0.00000 0.00000 0.00000
  146 0.00000 0.00000 0.00000
  147 0.00000 0.00000 0.00000
  148 0.00000 0.00000 0.00000
  149 0.00000 0.00000 0.00000
  150 0.00000 0.00000 0.00000
  151 0.00000 0.00000 0.00000
  152 0.00000 0.00000 0.00000
  153 0.00000 0.00000 0.00000
  154 0.00000 0.00000 0.00000
  155 0.00000 0.00000 0.00000
  156 0.00000 0.00000 0.00000
  157 0.00000 0.00000 0.00000
  158 0.00000 0.00000 0.00000
  159 0.00000 0.00000 0.00000
  160 0.00000 0.00000 0.00000
  161 0.00000 0.00000 0.00000
  162 0.00000 0.00000 0.00000
  163 0.00000 0.00000 0.00000
  164 0.00000 0.00000 0.00000
  165 0.00000 0.00000 0.00000
  166 0.00000 0.00000 0.00000
  167 0.00000 0.00000 0.00000
  168 0.00000 0.00000 0.00000
  169 0.00000 0.00000 0.00000
  170 0.00000 0.00000 0.00000
  171 0.00000 0.00000 0.00000
  172 0.00000 0.00000 0.00000
  173 0.00000 0.00000 0.00000
  174 0.00000 0.00000 0.00000
  175 0.00000 0.00000 0.00000
  176 0.00000 0.00000 0.00000
  177 0.00000 0.00000 0.00000
  178 0.00000 0.00000 0.00000
  179 0.00000 0.00000 0.00000
  180 0.00000 0.00000 0.00000
  181 0.00000 0.00000 0.00000
  182 0.00000 0.00000 0.00000
  183 0.00000 0.00000 0.00000
  184 0.00000 0.00000 0.00000
  185 0.00000 0.00000 0.00000
  186 0.00000 0.00000 0.00000
  187 0.00000 0.00000 0.00000
  188 0.00000 0.00000 0.00000
  189 0.00000 0.00000 0.00000
  190 0.00000 0.00000 0.00000
  191 0.00000 0.00000 0.00000
  192 0.00000 0.00000 0.00000
  193 0.00000 0.00000 0.00000
  194 0.00000 0.00000 0.00000
  195 0.00000 0.00000 0.00000
  196 0.00000 0.00000 0.00000
  197 0.00000 0.00000 0.00000
  198 0.00000 0.00000 0.00000
  199 0.00000 0.00000 0.00000
  200 0.00000 0.00000 0.00000
  201 0.00000 0.00000 0.00000
  202 0.00000 0.00000 0.00000
  203 0.00000 0.00000 0.00000
  204 0.00000 0.00000 0.00000
  205 0.00000 0.00000 0.00000
  206 0.00000 0.00000 0.00000
  207 0.00000 0.00000 0.00000
  208 0.00000 0.00000 0.00000
  209 0.00000 0.00000 0.00000
  210 0.00000 0.00000 0.00000
  211 0.00000 0.00000 0.00000
  212 0.00000 0.00000 0.00000
  213 0.00000 0.00000 0.00000
  214 0.00000 0.00000 0.00000
  215 0.00000 0.00000 0.00000
  216 0.00000 0.00000 0.00000
  217 0.00000 0.00000 0.00000
  218 0.00000 0.00000 0.00000
  219 0.00000 0.00000 0.00000
  220 0.00000 0.00000 0.00000
  221 0.00000 0.00000 0.00000
  222 0.00000 0.00000 0.00000
  223 0.00000 0.00000 0.00000
  224 0.00000 0.00000 0.00000
  225 0.00000 0.00000 0.00000
  226 0.00000 0.00000 0.00000
  227 0.00000 0.00000 0.00000
  228 0.00000 0.00000 0.00000
  229 0.00000 0.00000 0.00000
  230 0.00000 0.00000 0.00000
  231 0.00000 0.00000 0.00000
  232 0.00000 0.00000 0.00000
  233 0.00000 0.00000 0.00000
  234 0.00000 0.00000 0.00000
  235 0.00000 0.00000 0.00000
  236 0.00000 0.00000 0.00000
  237 0.00000 0.00000 0.00000
  238 0.00000 0.00000 0.00000
  239 0.00000 0.00000 0.00000
  240 0.00000 0.00000 0.00000
  241 0.00000 0.00000 0.00000
</Section>

newXOutput 167

<Section columns = "stress_xx | stress_yy | stress_xy">
  1 0.00000 0.00000 0.00000
  2 0.00000 0.00000 0.00000
  3 0.00000 0.00000 0.00000
  4 0.00000 0.00000 0.00000
  5 0.00000 0.00000 0.00000
  6 0.00000 0.00000 0.00000
  7 0.00000 0.00000 0.00000
  8 0.00000 0.00000 0.00000
  9 0.00000 0.00000 0.00000
  10 0.00000 0.00000 0.00000
  11 0.00000 0.00000 0.00000
  12 0.00000 0.00000 0.00000
  13 0.00000 0.00000 0.00000
  14 0.00000 0.00000 0.00000
  15 0.00000 0.00000 0.00000
  16 0.00000 0.00000 0.00000
  17 0.00000 0.00000 0.00000
  18 0.00000 0.00000 0.00000
  19 0.00000 0.00000 0.00000
  20 0.00000 0.00000 0.00000
  21 0.00000 0.00000 0.00000
  22 0.00000 0.00000 0.00000
  23 0.00000 0.00000 0.00000
  24 0.00000 0.00000 0.00000
  25 0.00000 0.00000 0.00000
  26 0.00000 0.00000 0.00000
  27 0.00000 0.00000 0.00000
  28 0.00000 0.00000 0.00000
  29 0.00000 0.00000 0.00000
  30 0.00000 0.00000 0.00000
  31 0.00000 0.00000 0.00000
  32 0.00000 0.00000 0.00000
  33 0.00000 0.00000 0.00000
  34 0.00000 0.00000 0.00000
  35 0.00000 0.00000 0.00000
  36 0.00000 0.00000 0.00000
  37 0.00000 0.00000 0.00000
  38 0.00000 0.00000 0.00000
  39 0.00000 0.00000 0.00000
  40 0.00000 0.00000 0.00000
  41 0.00000 0.00000 0.00000
  42 0.00000 0.00000 0.00000
  43 0.00000 0.00000 0.00000
  44 0.00000 0.00000 0.00000
  45 0.00000 0.00000 0.00000
  46 0.00000 0.00000 0.00000
  47 0.00000 0.00000 0.00000
  48 0.00000 0.00000 0.00000
  49 0.00000 0.00000 0.00000
  50 0.00000 0.00000 0.00000
  51 0.00000 0.00000 0.00000
  52 0.00000 0.00000 0.00000
  53 0.00000 0.00000 0.00000
  54 0.00000 0.00000 0.00000
  55 0.00000 0.00000 0.00000
  56 0.00000 0.00000 0.00000
  57 0.00000 0.00000 0.00000
  58 0.00000 0.00000 0.00000
  59 0.00000 0.00000 0.00000
  60 0.00000 0.00000 0.00000
  61 0.00000 0.00000 0.00000
  62 0.00000 0.00000 0.00000
  63 0.00000 0.00000 0.00000
  64 0.00000 0.00000 0.00000
  65 0.00000 0.00000 0.00000
  66 0.00000 0.00000 0.00000
  67 0.00000 0.00000 0.00000
  68 0.00000 0.00000 0.00000
  69 0.00000 0.00000 0.00000
  70 0.00000 0.00000 0.00000
  71 0.00000 0.00000 0.00000
  72 0.00000 0.00000 0.00000
  73 0.00000 0.00000 0.00000
  74 0.00000 0.00000 0.00000
  75 0.00000 0.00000 0.00000
  76 0.00000 0.00000 0.00000
  77 0.00000 0.00000 0.00000
  78 0.00000 0.00000 0.00000
  79 0.00000 0.00000 0.00000
  80 0.00000 0.00000 0.00000
  81 0.00000 0.00000 0.00000
  82 0.00000 0.00000 0.00000
  83 0.00000 0.00000 0.00000
  84 0.00000 0.00000 0.00000
  85 0.00000 0.00000 0.00000
  86 0.00000 0.00000 0.00000
  87 0.00000 0.00000 0.00000
  88 0.00000 0.00000 0.00000
  89 0.00000 0.00000 0.00000
  90 0.00000 0.00000 0.00000
  91 0.00000 0.00000 0.00000
  92 0.00000 0.00000 0.00000
  93 0.00000 0.00000 0.00000
  94 0.00000 0.00000 0.00000
  95 0.00000 0.00000 0.00000
  96 0.00000 0.00000 0.00000
  97 0.00000 0.00000 0.00000
  98 0.00000 0.00000 0.00000
  99 0.00000 0.00000 0.00000
  100 0.00000 0.00000 0.00000
  101 0.00000 0.00000 0.00000
  102 0.00000 0.00000 0.00000
  103 0.00000 0.00000 0.00000
  104 0.00000 0.00000 0.00000
  105 0.00000 0.00000 0.00000
  106 0.00000 0.00000 0.00000
  107 0.00000 0.00000 0.00000
  108 0.00000 0.00000 0.00000
  109 0.00000 0.00000 0.00000
  110 0.00000 0.00000 0.00000
  111 0.00000 0.00000 0.00000
  112 0.00000 0.00000 0.00000
  113 0.00000 0.00000 0.00000
  114 0.00000 0.00000 0.00000
  115 0.00000 0.00000 0.00000
  116 0.00000 0.00000 0.00000
  117 0.00000 0.00000 0.00000
  118 0.00000 0.00000 0.00000
  119 0.00000 0.00000 0.00000
  120 0.00000 0.00000 0.00000
  121 0.00000 0.00000 0.00000
  122 0.00000 0.00000 0.00000
  123 0.00000 0.00000 0.00000
  124 0.00000 0.00000 0.00000
  125 0.00000 0.00000 0.00000
  126 0.00000 0.00000 0.00000
  127 0.00000 0.00000 0.00000
  128 0.00000 0.00000 0.00000
  129 0.00000 0.00000 0.00000
  130 0.00000 0.00000 0.00000
  131 0.00000 0.00000 0.00000
  132 0.00000 0.00000 0.00000
  133 0.00000 0.00000 0.00000
  134 0.00000 0.00000 0.00000
  135 0.00000 0.00000 0.00000
  136 0.00000 0.00000 0.00000
  137 0.00000 0.00000 0.00000
  138 0.00000 0.00000 0.00000
  139 0.00000 0.00000 0.00000
  140 0.00000 0.00000 0.00000
  141 0.00000 0.00000 0.00000
  142 0.00000 0.00000 0.00000
  143 0.00000 0.00000 0.00000
  144 0.00000 0.00000 0.00000
  145 0.00000 0.00000 0.00000
  146 0.00000 0.00000 0.00000
  147 0.00000 0.00000 0.00000
  148 0.00000 0.00000 0.00000
  149 0.00000 0.00000 0.00000
  150 0.00000 0.00000 0.00000
  151 0.00000 0.00000 0.00000
  152 0.00000 0.00000 0.00000
  153 0.00000 0.00000 0.00000
  154 0.00000 0.00000 0.00000
  155 0.00000 0.00000 0.00000
  156 0.00000 0.00000 0.00000
  157 0.00000 0.00000 0.00000
  158 0.00000 0.00000 0.00000
  159 0.00000 0.00000 0.00000
  160 0.00000 0.00000 0.00000
  161 0.00000 0.00000 0.00000
  162 0.00000 0.00000 0.00000
  163 0.00000 0.00000 0.00000
  164 0.00000 0.00000 0.00000
  165 0.00000 0.00000 0.00000
  166 0.00000 0.00000 0.00000
  167 0.00000 0.00000 0.00000
  168 0.00000 0.00000 0.00000
  169 0.00000 0.00000 0.00000
  170 0.00000 0.00000 0.00000
  171 0.00000 0.00000 0.00000
  172 0.00000 0.00000 0.00000
  173 0.00000 0.00000 0.00000
  174 0.00000 0.00000 0.00000
  175 0.00000 0.00000 0.00000
  176 0.00000 0.00000 0.00000
  177 0.00000 0.00000 0.00000
  178 0.00000 0.00000 0.00000
  179 0.00000 0.00000 0.00000
  180 0.00000 0.00000 0.00000
  181 0.00000 0.00000 0.00000
  182 0.00000 0.00000 0.00000
  183 0.00000 0.00000 0.00000
  184 0.00000 0.00000 0.00000
  185 0.00000 0.00000 0.00000
  186 0.00000 0.00000 0.00000
  187 0.00000 0.00000 0.00000
  188 0.00000 0.00000 0.00000
  189 0.00000 0.00000 0.00000
  190 0.00000 0.00000 0.00000
  191 0.00000 0.00000 0.00000
  192 0.00000 0.00000 0.00000
  193 0.00000 0.00000 0.00000
  194 0.00000 0.00000 0.00000
  195 0.00000 0.00000 0.00000
  196 0.00000 0.00000 0.00000
  197 0.00000 0.00000 0.00000
  198 0.00000 0.00000 0.00000
  199 0.00000 0.00000 0.00000
  200 0.00000 0.00000 0.00000
  201 0.00000 0.00000 0.00000
  202 0.00000 0.00000 0.00000
  203 0.00000 0.00000 0.00000
  204 0.00000 0.00000 0.00000
  205 0.00000 0.00000 0.00000
  206 0.00000 0.00000 0.00000
  207 0.00000 0.00000 0.00000
  208 0.00000 0.00000 0.00000
  209 0.00000 0.00000 0.00000
  210 0.00000 0.00000 0.00000
  211 0.00000 0.00000 0.00000
  212 0.00000 0.00000 0.00000
  213 0.00000 0.00000 0.00000
  214 0.00000 0.00000 0.00000
  215 0.00000 0.00000 0.00000
  216 0.00000 0.00000 0.00000
  217 0.00000 0.00000 0.00000
  218 0.00000 0.00000 0.00000
  219 0.00000 0.00000 0.00000
  220 0.00000 0.00000 0.00000
  221 0.00000 0.00000 0.00000
  222 0.00000 0.00000 0.00000
  223 0.00000 0.00000 0.00000
  224 0.00000 0.00000 0.00000
  225 0.00000 0.00000 0.00000
  226 0.00000 0.00000 0.00000
  227 0.00000 0.00000 0.00000
  228 0.00000 0.00000 0.00000
  229 0.00000 0.00000 0.00000
  230 0.00000 0.00000 0.00000
  231 0.00000 0.00000 0.00000
  232 0.00000 0.00000 0.00000
  233 0.00000 0.00000 0.00000
  234 0.00000 0.00000 0.00000
  235 0.00000 0.00000 0.00000
  236 0.00000 0.00000 0.00000
  237 0.00000 0.00000 0.00000
  238 0.00000 0.00000 0.00000
  239 0.00000 0.00000 0.00000
  240 0.00000 0.00000 0.00000
  241 0.00000 0.00000 0.00000
</Section>

newXOutput 168

<Section columns = "stress_xx | stress_yy | stress_xy">
  1 0.00000 0.00000 0.00000
  2 0.00000 0.00000 0.00000
  3 0.00000 0.00000 0.00000
  4 0.00000 0.00000 0.00000
  5 0.00000 0.00000 0.00000
  6 0.00000 0.00000 0.00000
  7 0.00000 0.00000 0.00000
  8 0.00000 0.00000 0.00000
  9 0.00000 0.00000 0.00000
  10 0.00000 0.00000 0.00000
  11 0.00000 0.00000 0.00000
  12 0.00000 0.00000 0.00000
  13 0.00000 0.00000 0.00000
  14 0.00000 0.00000 0.00000
  15 0.00000 0.00000 0.00000
  16 0.00000 0.00000 0.00000
  17 0.00000 0.00000 0.00000
  18 0.00000 0.00000 0.00000
  19 0.00000 0.00000 0.00000
  20 0.00000 0.00000 0.00000
  21 0.00000 0.00000 0.00000
  22 0.00000 0.00000 0.00000
  23 0.00000 0.00000 0.00000
  24 0.00000 0.00000 0.00000
  25 0.00000 0.00000 0.00000
  26 0.00000 0.00000 0.00000
  27 0.00000 0.00000 0.00000
  28 0.00000 0.00000 0.00000
  29 0.00000 0.00000 0.00000
  30 0.00000 0.00000 0.00000
  31 0.00000 0.00000 0.00000
  32 0.00000 0.00000 0.00000
  33 0.00000 0.00000 0.00000
  34 0.00000 0.00000 0.00000
  35 0.00000 0.00000 0.00000
  36 0.00000 0.00000 0.00000
  37 0.00000 0.00000 0.00000
  38 0.00000 0.00000 0.00000
  39 0.00000 0.00000 0.00000
  40 0.00000 0.00000 0.00000
  41 0.00000 0.00000 0.00000
  42 0.00000 0.00000 0.00000
  43 0.00000 0.00000 0.00000
  44 0.00000 0.00000 0.00000
  45 0.00000 0.00000 0.00000
  46 0.00000 0.00000 0.00000
  47 0.00000 0.00000 0.00000
  48 0.00000 0.00000 0.00000
  49 0.00000 0.00000 0.00000
  50 0.00000 0.00000 0.00000
  51 0.00000 0.00000 0.00000
  52 0.00000 0.00000 0.00000
  53 0.00000 0.00000 0.00000
  54 0.00000 0.00000 0.00000
  55 0.00000 0.00000 0.00000
  56 0.00000 0.00000 0.00000
  57 0.00000 0.00000 0.00000
  58 0.00000 0.00000 0.00000
  59 0.00000 0.00000 0.00000
  60 0.00000 0.00000 0.00000
  61 0.00000 0.00000 0.00000
  62 0.00000 0.00000 0.00000
  63 0.00000 0.00000 0.00000
  64 0.00000 0.00000 0.00000
  65 0.00000 0.00000 0.00000
  66 0.00000 0.00000 0.00000
  67 0.00000 0.00000 0.00000
  68 0.00000 0.00000 0.00000
  69 0.00000 0.00000 0.00000
  70 0.00000 0.00000 0.00000
  71 0.00000 0.00000 0.00000
  72 0.00000 0.00000 0.00000
  73 0.00000 0.00000 0.00000
  74 0.00000 0.00000 0.00000
  75 0.00000 0.00000 0.00000
  76 0.00000 0.00000 0.00000
  77 0.00000 0.00000 0.00000
  78 0.00000 0.00000 0.00000
  79 0.00000 0.00000 0.00000
  80 0.00000 0.00000 0.00000
  81 0.00000 0.00000 0.00000
  82 0.00000 0.00000 0.00000
  83 0.00000 0.00000 0.00000
  84 0.00000 0.00000 0.00000
  85 0.00000 0.00000 0.00000
  86 0.00000 0.00000 0.00000
  87 0.00000 0.00000 0.00000
  88 0.00000 0.00000 0.00000
  89 0.00000 0.00000 0.00000
  90 0.00000 0.00000 0.00000
  91 0.00000 0.00000 0.00000
  92 0.00000 0.00000 0.00000
  93 0.00000 0.00000 0.00000
  94 0.00000 0.00000 0.00000
  95 0.00000 0.00000 0.00000
  96 0.00000 0.00000 0.00000
  97 0.00000 0.00000 0.00000
  98 0.00000 0.00000 0.00000
  99 0.00000 0.00000 0.00000
  100 0.00000 0.00000 0.00000
  101 0.00000 0.00000 0.00000
  102 0.00000 0.00000 0.00000
  103 0.00000 0.00000 0.00000
  104 0.00000 0.00000 0.00000
  105 0.00000 0.00000 0.00000
  106 0.00000 0.00000 0.00000
  107 0.00000 0.00000 0.00000
  108 0.00000 0.00000 0.00000
  109 0.00000 0.00000 0.00000
  110 0.00000 0.00000 0.00000
  111 0.00000 0.00000 0.00000
  112 0.00000 0.00000 0.00000
  113 0.00000 0.00000 0.00000
  114 0.00000 0.00000 0.00000
  115 0.00000 0.00000 0.00000
  116 0.00000 0.00000 0.00000
  117 0.00000 0.00000 0.00000
  118 0.00000 0.00000 0.00000
  119 0.00000 0.00000 0.00000
  120 0.00000 0.00000 0.00000
  121 0.00000 0.00000 0.00000
  122 0.00000 0.00000 0.00000
  123 0.00000 0.00000 0.00000
  124 0.00000 0.00000 0.00000
  125 0.00000 0.00000 0.00000
  126 0.00000 0.00000 0.00000
  127 0.00000 0.00000 0.00000
  128 0.00000 0.00000 0.00000
  129 0.00000 0.00000 0.00000
  130 0.00000 0.00000 0.00000
  131 0.00000 0.00000 0.00000
  132 0.00000 0.00000 0.00000
  133 0.00000 0.00000 0.00000
  134 0.00000 0.00000 0.00000
  135 0.00000 0.00000 0.00000
  136 0.00000 0.00000 0.00000
  137 0.00000 0.00000 0.00000
  138 0.00000 0.00000 0.00000
  139 0.00000 0.00000 0.00000
  140 0.00000 0.00000 0.00000
  141 0.00000 0.00000 0.00000
  142 0.00000 0.00000 0.00000
  143 0.00000 0.00000 0.00000
  144 0.00000 0.00000 0.00000
  145 0.00000 0.00000 0.00000
  146 0.00000 0.00000 0.00000
  147 0.00000 0.00000 0.00000
  148 0.00000 0.00000 0.00000
  149 0.00000 0.00000 0.00000
  150 0.00000 0.00000 0.00000
  151 0.00000 0.00000 0.00000
  152 0.00000 0.00000 0.00000
  153 0.00000 0.00000 0.00000
  154 0.00000 0.00000 0.00000
  155 0.00000 0.00000 0.00000
  156 0.00000 0.00000 0.00000
  157 0.00000 0.00000 0.00000
  158 0.00000 0.00000 0.00000
  159 0.00000 0.00000 0.00000
  160 0.00000 0.00000 0.00000
  161 0.00000 0.00000 0.00000
  162 0.00000 0.00000 0.00000
  163 0.00000 0.00000 0.00000
  164 0.00000 0.00000 0.00000
  165 0.00000 0.00000 0.00000
  166 0.00000 0.00000 0.00000
  167 0.00000 0.00000 0.00000
  168 0.00000 0.00000 0.00000
  169 0.00000 0.00000 0.00000
  170 0.00000 0.00000 0.00000
  171 0.00000 0.00000 0.00000
  172 0.00000 0.00000 0.00000
  173 0.00000 0.00000 0.00000
  174 0.00000 0.00000 0.00000
  175 0.00000 0.00000 0.00000
  176 0.00000 0.00000 0.00000
  177 0.00000 0.00000 0.00000
  178 0.00000 0.00000 0.00000
  179 0.00000 0.00000 0.00000
  180 0.00000 0.00000 0.00000
  181 0.00000 0.00000 0.00000
  182 0.00000 0.00000 0.00000
  183 0.00000 0.00000 0.00000
  184 0.00000 0.00000 0.00000
  185 0.00000 0.00000 0.00000
  186 0.00000 0.00000 0.00000
  187 0.00000 0.00000 0.00000
  188 0.00000 0.00000 0.00000
  189 0.00000 0.00000 0.00000
  190 0.00000 0.00000 0.00000
  191 0.00000 0.00000 0.00000
  192 0.00000 0.00000 0.00000
  193 0.00000 0.00000 0.00000
  194 0.00000 0.00000 0.00000
  195 0.00000 0.00000 0.00000
  196 0.00000 0.00000 0.00000
  197 0.00000 0.00000 0.00000
  198 0.00000 0.00000 0.00000
  199 0.00000 0.00000 0.00000
  200 0.00000 0.00000 0.00000
  201 0.00000 0.00000 0.00000
  202 0.00000 0.00000 0.00000
  203 0.00000 0.00000 0.00000
  204 0.00000 0.00000 0.00000
  205 0.00000 0.00000 0.00000
  206 0.00000 0.00000 0.00000
  207 0.00000 0.00000 0.00000
  208 0.00000 0.00000 0.00000
  209 0.00000 0.00000 0.00000
  210 0.00000 0.00000 0.00000
  211 0.00000 0.00000 0.00000
  212 0.00000 0.00000 0.00000
  213 0.00000 0.00000 0.00000
  214 0.00000 0.00000 0.00000
  215 0.00000 0.00000 0.00000
  216 0.00000 0.00000 0.00000
  217 0.00000 0.00000 0.00000
  218 0.00000 0.00000 0.00000
  219 0.00000 0.00000 0.00000
  220 0.00000 0.00000 0.00000
  221 0.00000 0.00000 0.00000
  222 0.00000 0.00000 0.00000
  223 0.00000 0.00000 0.00000
  224 0.00000 0.00000 0.00000
  225 0.00000 0.00000 0.00000
  226 0.00000 0.00000 0.00000
  227 0.00000 0.00000 0.00000
  228 0.00000 0.00000 0.00000
  229 0.00000 0.00000 0.00000
  230 0.00000 0.00000 0.00000
  231 0.00000 0.00000 0.00000
  232 0.00000 0.00000 0.00000
  233 0.00000 0.00000 0.00000
  234 0.00000 0.00000 0.00000
  235 0.00000 0.00000 0.00000
  236 0.00000 0.00000 0.00000
  237 0.00000 0.00000 0.00000
  238 0.00000 0.00000 0.00000
  239 0.00000 0.00000 0.00000
  240 0.00000 0.00000 0.00000
  241 0.00000 0.00000 0.00000
</Section>

newXOutput 169

<Section columns = "stress_xx | stress_yy | stress_xy">
  1 0.00000 0.00000 0.00000
  2 0.00000 0.00000 0.00000
  3 0.00000 0.00000 0.00000
  4 0.00000 0.00000 0.00000
  5 0.00000 0.00000 0.00000
  6 0.00000 0.00000 0.00000
  7 0.00000 0.00000 0.00000
  8 0.00000 0.00000 0.00000
  9 0.00000 0.00000 0.00000
  10 0.00000 0.00000 0.00000
  11 0.00000 0.00000 0.00000
  12 0.00000 0.00000 0.00000
  13 0.00000 0.00000 0.00000
  14 0.00000 0.00000 0.00000
  15 0.00000 0.00000 0.00000
  16 0.00000 0.00000 0.00000
  17 0.00000 0.00000 0.00000
  18 0.00000 0.00000 0.00000
  19 0.00000 0.00000 0.00000
  20 0.00000 0.00000 0.00000
  21 0.00000 0.00000 0.00000
  22 0.00000 0.00000 0.00000
  23 0.00000 0.00000 0.00000
  24 0.00000 0.00000 0.00000
  25 0.00000 0.00000 0.00000
  26 0.00000 0.00000 0.00000
  27 0.00000 0.00000 0.00000
  28 0.00000 0.00000 0.00000
  29 0.00000 0.00000 0.00000
  30 0.00000 0.00000 0.00000
  31 0.00000 0.00000 0.00000
  32 0.00000 0.00000 0.00000
  33 0.00000 0.00000 0.00000
  34 0.00000 0.00000 0.00000
  35 0.00000 0.00000 0.00000
  36 0.00000 0.00000 0.00000
  37 0.00000 0.00000 0.00000
  38 0.00000 0.00000 0.00000
  39 0.00000 0.00000 0.00000
  40 0.00000 0.00000 0.00000
  41 0.00000 0.00000 0.00000
  42 0.00000 0.00000 0.00000
  43 0.00000 0.00000 0.00000
  44 0.00000 0.00000 0.00000
  45 0.00000 0.00000 0.00000
  46 0.00000 0.00000 0.00000
  47 0.00000 0.00000 0.00000
  48 0.00000 0.00000 0.00000
  49 0.00000 0.00000 0.00000
  50 0.00000 0.00000 0.00000
  51 0.00000 0.00000 0.00000
  52 0.00000 0.00000 0.00000
  53 0.00000 0.00000 0.00000
  54 0.00000 0.00000 0.00000
  55 0.00000 0.00000 0.00000
  56 0.00000 0.00000 0.00000
  57 0.00000 0.00000 0.00000
  58 0.00000 0.00000 0.00000
  59 0.00000 0.00000 0.00000
  60 0.00000 0.00000 0.00000
  61 0.00000 0.00000 0.00000
  62 0.00000 0.00000 0.00000
  63 0.00000 0.00000 0.00000
  64 0.00000 0.00000 0.00000
  65 0.00000 0.00000 0.00000
  66 0.00000 0.00000 0.00000
  67 0.00000 0.00000 0.00000
  68 0.00000 0.00000 0.00000
  69 0.00000 0.00000 0.00000
  70 0.00000 0.00000 0.00000
  71 0.00000 0.00000 0.00000
  72 0.00000 0.00000 0.00000
  73 0.00000 0.00000 0.00000
  74 0.00000 0.00000 0.00000
  75 0.00000 0.00000 0.00000
  76 0.00000 0.00000 0.00000
  77 0.00000 0.00000 0.00000
  78 0.00000 0.00000 0.00000
  79 0.00000 0.00000 0.00000
  80 0.00000 0.00000 0.00000
  81 0.00000 0.00000 0.00000
  82 0.00000 0.00000 0.00000
  83 0.00000 0.00000 0.00000
  84 0.00000 0.00000 0.00000
  85 0.00000 0.00000 0.00000
  86 0.00000 0.00000 0.00000
  87 0.00000 0.00000 0.00000
  88 0.00000 0.00000 0.00000
  89 0.00000 0.00000 0.00000
  90 0.00000 0.00000 0.00000
  91 0.00000 0.00000 0.00000
  92 0.00000 0.00000 0.00000
  93 0.00000 0.00000 0.00000
  94 0.00000 0.00000 0.00000
  95 0.00000 0.00000 0.00000
  96 0.00000 0.00000 0.00000
  97 0.00000 0.00000 0.00000
  98 0.00000 0.00000 0.00000
  99 0.00000 0.00000 0.00000
  100 0.00000 0.00000 0.00000
  101 0.00000 0.00000 0.00000
  102 0.00000 0.00000 0.00000
  103 0.00000 0.00000 0.00000
  104 0.00000 0.00000 0.00000
  105 0.00000 0.00000 0.00000
  106 0.00000 0.00000 0.00000
  107 0.00000 0.00000 0.00000
  108 0.00000 0.00000 0.00000
  109 0.00000 0.00000 0.00000
  110 0.00000 0.00000 0.00000
  111 0.00000 0.00000 0.00000
  112 0.00000 0.00000 0.00000
  113 0.00000 0.00000 0.00000
  114 0.00000 0.00000 0.00000
  115 0.00000 0.00000 0.00000
  116 0.00000 0.00000 0.00000
  117 0.00000 0.00000 0.00000
  118 0.00000 0.00000 0.00000
  119 0.00000 0.00000 0.00000
  120 0.00000 0.00000 0.00000
  121 0.00000 0.00000 0.00000
  122 0.00000 0.00000 0.00000
  123 0.00000 0.00000 0.00000
  124 0.00000 0.00000 0.00000
  125 0.00000 0.00000 0.00000
  126 0.00000 0.00000 0.00000
  127 0.00000 0.00000 0.00000
  128 0.00000 0.00000 0.00000
  129 0.00000 0.00000 0.00000
  130 0.00000 0.00000 0.00000
  131 0.00000 0.00000 0.00000
  132 0.00000 0.00000 0.00000
  133 0.00000 0.00000 0.00000
  134 0.00000 0.00000 0.00000
  135 0.00000 0.00000 0.00000
  136 0.00000 0.00000 0.00000
  137 0.00000 0.00000 0.00000
  138 0.00000 0.00000 0.00000
  139 0.00000 0.00000 0.00000
  140 0.00000 0.00000 0.00000
  141 0.00000 0.00000 0.00000
  142 0.00000 0.00000 0.00000
  143 0.00000 0.00000 0.00000
  144 0.00000 0.00000 0.00000
  145 0.00000 0.00000 0.00000
  146 0.00000 0.00000 0.00000
  147 0.00000 0.00000 0.00000
  148 0.00000 0.00000 0.00000
  149 0.00000 0.00000 0.00000
  150 0.00000 0.00000 0.00000
  151 0.00000 0.00000 0.00000
  152 0.00000 0.00000 0.00000
  153 0.00000 0.00000 0.00000
  154 0.00000 0.00000 0.00000
  155 0.00000 0.00000 0.00000
  156 0.00000 0.00000 0.00000
  157 0.00000 0.00000 0.00000
  158 0.00000 0.00000 0.00000
  159 0.00000 0.00000 0.00000
  160 0.00000 0.00000 0.00000
  161 0.00000 0.00000 0.00000
  162 0.00000 0.00000 0.00000
  163 0.00000 0.00000 0.00000
  164 0.00000 0.00000 0.00000
  165 0.00000 0.00000 0.00000
  166 0.00000 0.00000 0.00000
  167 0.00000 0.00000 0.00000
  168 0.00000 0.00000 0.00000
  169 0.00000 0.00000 0.00000
  170 0.00000 0.00000 0.00000
  171 0.00000 0.00000 0.00000
  172 0.00000 0.00000 0.00000
  173 0.00000 0.00000 0.00000
  174 0.00000 0.00000 0.00000
  175 0.00000 0.00000 0.00000
  176 0.00000 0.00000 0.00000
  177 0.00000 0.00000 0.00000
  178 0.00000 0.00000 0.00000
  179 0.00000 0.00000 0.00000
  180 0.00000 0.00000 0.00000
  181 0.00000 0.00000 0.00000
  182 0.00000 0.00000 0.00000
  183 0.00000 0.00000 0.00000
  184 0.00000 0.00000 0.00000
  185 0.00000 0.00000 0.00000
  186 0.00000 0.00000 0.00000
  187 0.00000 0.00000 0.00000
  188 0.00000 0.00000 0.00000
  189 0.00000 0.00000 0.00000
  190 0.00000 0.00000 0.00000
  191 0.00000 0.00000 0.00000
  192 0.00000 0.00000 0.00000
  193 0.00000 0.00000 0.00000
  194 0.00000 0.00000 0.00000
  195 0.00000 0.00000 0.00000
  196 0.00000 0.00000 0.00000
  197 0.00000 0.00000 0.00000
  198 0.00000 0.00000 0.00000
  199 0.00000 0.00000 0.00000
  200 0.00000 0.00000 0.00000
  201 0.00000 0.00000 0.00000
  202 0.00000 0.00000 0.00000
  203 0.00000 0.00000 0.00000
  204 0.00000 0.00000 0.00000
  205 0.00000 0.00000 0.00000
  206 0.00000 0.00000 0.00000
  207 0.00000 0.00000 0.00000
  208 0.00000 0.00000 0.00000
  209 0.00000 0.00000 0.00000
  210 0.00000 0.00000 0.00000
  211 0.00000 0.00000 0.00000
  212 0.00000 0.00000 0.00000
  213 0.00000 0.00000 0.00000
  214 0.00000 0.00000 0.00000
  215 0.00000 0.00000 0.00000
  216 0.00000 0.00000 0.00000
  217 0.00000 0.00000 0.00000
  218 0.00000 0.00000 0.00000
  219 0.00000 0.00000 0.00000
  220 0.00000 0.00000 0.00000
  221 0.00000 0.00000 0.00000
  222 0.00000 0.00000 0.00000
  223 0.00000 0.00000 0.00000
  224 0.00000 0.00000 0.00000
  225 0.00000 0.00000 0.00000
  226 0.00000 0.00000 0.00000
  227 0.00000 0.00000 0.00000
  228 0.00000 0.00000 0.00000
  229 0.00000 0.00000 0.00000
  230 0.00000 0.00000 0.00000
  231 0.00000 0.00000 0.00000
  232 0.00000 0.00000 0.00000
  233 0.00000 0.00000 0.00000
  234 0.00000 0.00000 0.00000
  235 0.00000 0.00000 0.00000
  236 0.00000 0.00000 0.00000
  237 0.00000 0.00000 0.00000
  238 0.00000 0.00000 0.00000
  239 0.00000 0.00000 0.00000
  240 0.00000 0.00000 0.00000
  241 0.00000 0.00000 0.00000
</Section>

newXOutput 170

<Section columns = "stress_xx | stress_yy | stress_xy">
  1 0.00000 0.00000 0.00000
  2 0.00000 0.00000 0.00000
  3 0.00000 0.00000 0.00000
  4 0.00000 0.00000 0.00000
  5 0.00000 0.00000 0.00000
  6 0.00000 0.00000 0.00000
  7 0.00000 0.00000 0.00000
  8 0.00000 0.00000 0.00000
  9 0.00000 0.00000 0.00000
  10 0.00000 0.00000 0.00000
  11 0.00000 0.00000 0.00000
  12 0.00000 0.00000 0.00000
  13 0.00000 0.00000 0.00000
  14 0.00000 0.00000 0.00000
  15 0.00000 0.00000 0.00000
  16 0.00000 0.00000 0.00000
  17 0.00000 0.00000 0.00000
  18 0.00000 0.00000 0.00000
  19 0.00000 0.00000 0.00000
  20 0.00000 0.00000 0.00000
  21 0.00000 0.00000 0.00000
  22 0.00000 0.00000 0.00000
  23 0.00000 0.00000 0.00000
  24 0.00000 0.00000 0.00000
  25 0.00000 0.00000 0.00000
  26 0.00000 0.00000 0.00000
  27 0.00000 0.00000 0.00000
  28 0.00000 0.00000 0.00000
  29 0.00000 0.00000 0.00000
  30 0.00000 0.00000 0.00000
  31 0.00000 0.00000 0.00000
  32 0.00000 0.00000 0.00000
  33 0.00000 0.00000 0.00000
  34 0.00000 0.00000 0.00000
  35 0.00000 0.00000 0.00000
  36 0.00000 0.00000 0.00000
  37 0.00000 0.00000 0.00000
  38 0.00000 0.00000 0.00000
  39 0.00000 0.00000 0.00000
  40 0.00000 0.00000 0.00000
  41 0.00000 0.00000 0.00000
  42 0.00000 0.00000 0.00000
  43 0.00000 0.00000 0.00000
  44 0.00000 0.00000 0.00000
  45 0.00000 0.00000 0.00000
  46 0.00000 0.00000 0.00000
  47 0.00000 0.00000 0.00000
  48 0.00000 0.00000 0.00000
  49 0.00000 0.00000 0.00000
  50 0.00000 0.00000 0.00000
  51 0.00000 0.00000 0.00000
  52 0.00000 0.00000 0.00000
  53 0.00000 0.00000 0.00000
  54 0.00000 0.00000 0.00000
  55 0.00000 0.00000 0.00000
  56 0.00000 0.00000 0.00000
  57 0.00000 0.00000 0.00000
  58 0.00000 0.00000 0.00000
  59 0.00000 0.00000 0.00000
  60 0.00000 0.00000 0.00000
  61 0.00000 0.00000 0.00000
  62 0.00000 0.00000 0.00000
  63 0.00000 0.00000 0.00000
  64 0.00000 0.00000 0.00000
  65 0.00000 0.00000 0.00000
  66 0.00000 0.00000 0.00000
  67 0.00000 0.00000 0.00000
  68 0.00000 0.00000 0.00000
  69 0.00000 0.00000 0.00000
  70 0.00000 0.00000 0.00000
  71 0.00000 0.00000 0.00000
  72 0.00000 0.00000 0.00000
  73 0.00000 0.00000 0.00000
  74 0.00000 0.00000 0.00000
  75 0.00000 0.00000 0.00000
  76 0.00000 0.00000 0.00000
  77 0.00000 0.00000 0.00000
  78 0.00000 0.00000 0.00000
  79 0.00000 0.00000 0.00000
  80 0.00000 0.00000 0.00000
  81 0.00000 0.00000 0.00000
  82 0.00000 0.00000 0.00000
  83 0.00000 0.00000 0.00000
  84 0.00000 0.00000 0.00000
  85 0.00000 0.00000 0.00000
  86 0.00000 0.00000 0.00000
  87 0.00000 0.00000 0.00000
  88 0.00000 0.00000 0.00000
  89 0.00000 0.00000 0.00000
  90 0.00000 0.00000 0.00000
  91 0.00000 0.00000 0.00000
  92 0.00000 0.00000 0.00000
  93 0.00000 0.00000 0.00000
  94 0.00000 0.00000 0.00000
  95 0.00000 0.00000 0.00000
  96 0.00000 0.00000 0.00000
  97 0.00000 0.00000 0.00000
  98 0.00000 0.00000 0.00000
  99 0.00000 0.00000 0.00000
  100 0.00000 0.00000 0.00000
  101 0.00000 0.00000 0.00000
  102 0.00000 0.00000 0.00000
  103 0.00000 0.00000 0.00000
  104 0.00000 0.00000 0.00000
  105 0.00000 0.00000 0.00000
  106 0.00000 0.00000 0.00000
  107 0.00000 0.00000 0.00000
  108 0.00000 0.00000 0.00000
  109 0.00000 0.00000 0.00000
  110 0.00000 0.00000 0.00000
  111 0.00000 0.00000 0.00000
  112 0.00000 0.00000 0.00000
  113 0.00000 0.00000 0.00000
  114 0.00000 0.00000 0.00000
  115 0.00000 0.00000 0.00000
  116 0.00000 0.00000 0.00000
  117 0.00000 0.00000 0.00000
  118 0.00000 0.00000 0.00000
  119 0.00000 0.00000 0.00000
  120 0.00000 0.00000 0.00000
  121 0.00000 0.00000 0.00000
  122 0.00000 0.00000 0.00000
  123 0.00000 0.00000 0.00000
  124 0.00000 0.00000 0.00000
  125 0.00000 0.00000 0.00000
  126 0.00000 0.00000 0.00000
  127 0.00000 0.00000 0.00000
  128 0.00000 0.00000 0.00000
  129 0.00000 0.00000 0.00000
  130 0.00000 0.00000 0.00000
  131 0.00000 0.00000 0.00000
  132 0.00000 0.00000 0.00000
  133 0.00000 0.00000 0.00000
  134 0.00000 0.00000 0.00000
  135 0.00000 0.00000 0.00000
  136 0.00000 0.00000 0.00000
  137 0.00000 0.00000 0.00000
  138 0.00000 0.00000 0.00000
  139 0.00000 0.00000 0.00000
  140 0.00000 0.00000 0.00000
  141 0.00000 0.00000 0.00000
  142 0.00000 0.00000 0.00000
  143 0.00000 0.00000 0.00000
  144 0.00000 0.00000 0.00000
  145 0.00000 0.00000 0.00000
  146 0.00000 0.00000 0.00000
  147 0.00000 0.00000 0.00000
  148 0.00000 0.00000 0.00000
  149 0.00000 0.00000 0.00000
  150 0.00000 0.00000 0.00000
  151 0.00000 0.00000 0.00000
  152 0.00000 0.00000 0.00000
  153 0.00000 0.00000 0.00000
  154 0.00000 0.00000 0.00000
  155 0.00000 0.00000 0.00000
  156 0.00000 0.00000 0.00000
  157 0.00000 0.00000 0.00000
  158 0.00000 0.00000 0.00000
  159 0.00000 0.00000 0.00000
  160 0.00000 0.00000 0.00000
  161 0.00000 0.00000 0.00000
  162 0.00000 0.00000 0.00000
  163 0.00000 0.00000 0.00000
  164 0.00000 0.00000 0.00000
  165 0.00000 0.00000 0.00000
  166 0.00000 0.00000 0.00000
  167 0.00000 0.00000 0.00000
  168 0.00000 0.00000 0.00000
  169 0.00000 0.00000 0.00000
  170 0.00000 0.00000 0.00000
  171 0.00000 0.00000 0.00000
  172 0.00000 0.00000 0.00000
  173 0.00000 0.00000 0.00000
  174 0.00000 0.00000 0.00000
  175 0.00000 0.00000 0.00000
  176 0.00000 0.00000 0.00000
  177 0.00000 0.00000 0.00000
  178 0.00000 0.00000 0.00000
  179 0.00000 0.00000 0.00000
  180 0.00000 0.00000 0.00000
  181 0.00000 0.00000 0.00000
  182 0.00000 0.00000 0.00000
  183 0.00000 0.00000 0.00000
  184 0.00000 0.00000 0.00000
  185 0.00000 0.00000 0.00000
  186 0.00000 0.00000 0.00000
  187 0.00000 0.00000 0.00000
  188 0.00000 0.00000 0.00000
  189 0.00000 0.00000 0.00000
  190 0.00000 0.00000 0.00000
  191 0.00000 0.00000 0.00000
  192 0.00000 0.00000 0.00000
  193 0.00000 0.00000 0.00000
  194 0.00000 0.00000 0.00000
  195 0.00000 0.00000 0.00000
  196 0.00000 0.00000 0.00000
  197 0.00000 0.00000 0.00000
  198 0.00000 0.00000 0.00000
  199 0.00000 0.00000 0.00000
  200 0.00000 0.00000 0.00000
  201 0.00000 0.00000 0.00000
  202 0.00000 0.00000 0.00000
  203 0.00000 0.00000 0.00000
  204 0.00000 0.00000 0.00000
  205 0.00000 0.00000 0.00000
  206 0.00000 0.00000 0.00000
  207 0.00000 0.00000 0.00000
  208 0.00000 0.00000 0.00000
  209 0.00000 0.00000 0.00000
  210 0.00000 0.00000 0.00000
  211 0.00000 0.00000 0.00000
  212 0.00000 0.00000 0.00000
  213 0.00000 0.00000 0.00000
  214 0.00000 0.00000 0.00000
  215 0.00000 0.00000 0.00000
  216 0.00000 0.00000 0.00000
  217 0.00000 0.00000 0.00000
  218 0.00000 0.00000 0.00000
  219 0.00000 0.00000 0.00000
  220 0.00000 0.00000 0.00000
  221 0.00000 0.00000 0.00000
  222 0.00000 0.00000 0.00000
  223 0.00000 0.00000 0.00000
  224 0.00000 0.00000 0.00000
  225 0.00000 0.00000 0.00000
  226 0.00000 0.00000 0.00000
  227 0.00000 0.00000 0.00000
  228 0.00000 0.00000 0.00000
  229 0.00000 0.00000 0.00000
  230 0.00000 0.00000 0.00000
  231 0.00000 0.00000 0.00000
  232 0.00000 0.00000 0.00000
  233 0.00000 0.00000 0.00000
  234 0.00000 0.00000 0.00000
  235 0.00000 0.00000 0.00000
  236 0.00000 0.00000 0.00000
  237 0.00000 0.00000 0.00000
  238 0.00000 0.00000 0.00000
  239 0.00000 0.00000 0.00000
  240 0.00000 0.00000 0.00000
  241 0.00000 0.00000 0.00000
</Section>

newXOutput 171

<Section columns = "stress_xx | stress_yy | stress_xy">
  1 0.00000 0.00000 0.00000
  2 0.00000 0.00000 0.00000
  3 0.00000 0.00000 0.00000
  4 0.00000 0.00000 0.00000
  5 0.00000 0.00000 0.00000
  6 0.00000 0.00000 0.00000
  7 0.00000 0.00000 0.00000
  8 0.00000 0.00000 0.00000
  9 0.00000 0.00000 0.00000
  10 0.00000 0.00000 0.00000
  11 0.00000 0.00000 0.00000
  12 0.00000 0.00000 0.00000
  13 0.00000 0.00000 0.00000
  14 0.00000 0.00000 0.00000
  15 0.00000 0.00000 0.00000
  16 0.00000 0.00000 0.00000
  17 0.00000 0.00000 0.00000
  18 0.00000 0.00000 0.00000
  19 0.00000 0.00000 0.00000
  20 0.00000 0.00000 0.00000
  21 0.00000 0.00000 0.00000
  22 0.00000 0.00000 0.00000
  23 0.00000 0.00000 0.00000
  24 0.00000 0.00000 0.00000
  25 0.00000 0.00000 0.00000
  26 0.00000 0.00000 0.00000
  27 0.00000 0.00000 0.00000
  28 0.00000 0.00000 0.00000
  29 0.00000 0.00000 0.00000
  30 0.00000 0.00000 0.00000
  31 0.00000 0.00000 0.00000
  32 0.00000 0.00000 0.00000
  33 0.00000 0.00000 0.00000
  34 0.00000 0.00000 0.00000
  35 0.00000 0.00000 0.00000
  36 0.00000 0.00000 0.00000
  37 0.00000 0.00000 0.00000
  38 0.00000 0.00000 0.00000
  39 0.00000 0.00000 0.00000
  40 0.00000 0.00000 0.00000
  41 0.00000 0.00000 0.00000
  42 0.00000 0.00000 0.00000
  43 0.00000 0.00000 0.00000
  44 0.00000 0.00000 0.00000
  45 0.00000 0.00000 0.00000
  46 0.00000 0.00000 0.00000
  47 0.00000 0.00000 0.00000
  48 0.00000 0.00000 0.00000
  49 0.00000 0.00000 0.00000
  50 0.00000 0.00000 0.00000
  51 0.00000 0.00000 0.00000
  52 0.00000 0.00000 0.00000
  53 0.00000 0.00000 0.00000
  54 0.00000 0.00000 0.00000
  55 0.00000 0.00000 0.00000
  56 0.00000 0.00000 0.00000
  57 0.00000 0.00000 0.00000
  58 0.00000 0.00000 0.00000
  59 0.00000 0.00000 0.00000
  60 0.00000 0.00000 0.00000
  61 0.00000 0.00000 0.00000
  62 0.00000 0.00000 0.00000
  63 0.00000 0.00000 0.00000
  64 0.00000 0.00000 0.00000
  65 0.00000 0.00000 0.00000
  66 0.00000 0.00000 0.00000
  67 0.00000 0.00000 0.00000
  68 0.00000 0.00000 0.00000
  69 0.00000 0.00000 0.00000
  70 0.00000 0.00000 0.00000
  71 0.00000 0.00000 0.00000
  72 0.00000 0.00000 0.00000
  73 0.00000 0.00000 0.00000
  74 0.00000 0.00000 0.00000
  75 0.00000 0.00000 0.00000
  76 0.00000 0.00000 0.00000
  77 0.00000 0.00000 0.00000
  78 0.00000 0.00000 0.00000
  79 0.00000 0.00000 0.00000
  80 0.00000 0.00000 0.00000
  81 0.00000 0.00000 0.00000
  82 0.00000 0.00000 0.00000
  83 0.00000 0.00000 0.00000
  84 0.00000 0.00000 0.00000
  85 0.00000 0.00000 0.00000
  86 0.00000 0.00000 0.00000
  87 0.00000 0.00000 0.00000
  88 0.00000 0.00000 0.00000
  89 0.00000 0.00000 0.00000
  90 0.00000 0.00000 0.00000
  91 0.00000 0.00000 0.00000
  92 0.00000 0.00000 0.00000
  93 0.00000 0.00000 0.00000
  94 0.00000 0.00000 0.00000
  95 0.00000 0.00000 0.00000
  96 0.00000 0.00000 0.00000
  97 0.00000 0.00000 0.00000
  98 0.00000 0.00000 0.00000
  99 0.00000 0.00000 0.00000
  100 0.00000 0.00000 0.00000
  101 0.00000 0.00000 0.00000
  102 0.00000 0.00000 0.00000
  103 0.00000 0.00000 0.00000
  104 0.00000 0.00000 0.00000
  105 0.00000 0.00000 0.00000
  106 0.00000 0.00000 0.00000
  107 0.00000 0.00000 0.00000
  108 0.00000 0.00000 0.00000
  109 0.00000 0.00000 0.00000
  110 0.00000 0.00000 0.00000
  111 0.00000 0.00000 0.00000
  112 0.00000 0.00000 0.00000
  113 0.00000 0.00000 0.00000
  114 0.00000 0.00000 0.00000
  115 0.00000 0.00000 0.00000
  116 0.00000 0.00000 0.00000
  117 0.00000 0.00000 0.00000
  118 0.00000 0.00000 0.00000
  119 0.00000 0.00000 0.00000
  120 0.00000 0.00000 0.00000
  121 0.00000 0.00000 0.00000
  122 0.00000 0.00000 0.00000
  123 0.00000 0.00000 0.00000
  124 0.00000 0.00000 0.00000
  125 0.00000 0.00000 0.00000
  126 0.00000 0.00000 0.00000
  127 0.00000 0.00000 0.00000
  128 0.00000 0.00000 0.00000
  129 0.00000 0.00000 0.00000
  130 0.00000 0.00000 0.00000
  131 0.00000 0.00000 0.00000
  132 0.00000 0.00000 0.00000
  133 0.00000 0.00000 0.00000
  134 0.00000 0.00000 0.00000
  135 0.00000 0.00000 0.00000
  136 0.00000 0.00000 0.00000
  137 0.00000 0.00000 0.00000
  138 0.00000 0.00000 0.00000
  139 0.00000 0.00000 0.00000
  140 0.00000 0.00000 0.00000
  141 0.00000 0.00000 0.00000
  142 0.00000 0.00000 0.00000
  143 0.00000 0.00000 0.00000
  144 0.00000 0.00000 0.00000
  145 0.00000 0.00000 0.00000
  146 0.00000 0.00000 0.00000
  147 0.00000 0.00000 0.00000
  148 0.00000 0.00000 0.00000
  149 0.00000 0.00000 0.00000
  150 0.00000 0.00000 0.00000
  151 0.00000 0.00000 0.00000
  152 0.00000 0.00000 0.00000
  153 0.00000 0.00000 0.00000
  154 0.00000 0.00000 0.00000
  155 0.00000 0.00000 0.00000
  156 0.00000 0.00000 0.00000
  157 0.00000 0.00000 0.00000
  158 0.00000 0.00000 0.00000
  159 0.00000 0.00000 0.00000
  160 0.00000 0.00000 0.00000
  161 0.00000 0.00000 0.00000
  162 0.00000 0.00000 0.00000
  163 0.00000 0.00000 0.00000
  164 0.00000 0.00000 0.00000
  165 0.00000 0.00000 0.00000
  166 0.00000 0.00000 0.00000
  167 0.00000 0.00000 0.00000
  168 0.00000 0.00000 0.00000
  169 0.00000 0.00000 0.00000
  170 0.00000 0.00000 0.00000
  171 0.00000 0.00000 0.00000
  172 0.00000 0.00000 0.00000
  173 0.00000 0.00000 0.00000
  174 0.00000 0.00000 0.00000
  175 0.00000 0.00000 0.00000
  176 0.00000 0.00000 0.00000
  177 0.00000 0.00000 0.00000
  178 0.00000 0.00000 0.00000
  179 0.00000 0.00000 0.00000
  180 0.00000 0.00000 0.00000
  181 0.00000 0.00000 0.00000
  182 0.00000 0.00000 0.00000
  183 0.00000 0.00000 0.00000
  184 0.00000 0.00000 0.00000
  185 0.00000 0.00000 0.00000
  186 0.00000 0.00000 0.00000
  187 0.00000 0.00000 0.00000
  188 0.00000 0.00000 0.00000
  189 0.00000 0.00000 0.00000
  190 0.00000 0.00000 0.00000
  191 0.00000 0.00000 0.00000
  192 0.00000 0.00000 0.00000
  193 0.00000 0.00000 0.00000
  194 0.00000 0.00000 0.00000
  195 0.00000 0.00000 0.00000
  196 0.00000 0.00000 0.00000
  197 0.00000 0.00000 0.00000
  198 0.00000 0.00000 0.00000
  199 0.00000 0.00000 0.00000
  200 0.00000 0.00000 0.00000
  201 0.00000 0.00000 0.00000
  202 0.00000 0.00000 0.00000
  203 0.00000 0.00000 0.00000
  204 0.00000 0.00000 0.00000
  205 0.00000 0.00000 0.00000
  206 0.00000 0.00000 0.00000
  207 0.00000 0.00000 0.00000
  208 0.00000 0.00000 0.00000
  209 0.00000 0.00000 0.00000
  210 0.00000 0.00000 0.00000
  211 0.00000 0.00000 0.00000
  212 0.00000 0.00000 0.00000
  213 0.00000 0.00000 0.00000
  214 0.00000 0.00000 0.00000
  215 0.00000 0.00000 0.00000
  216 0.00000 0.00000 0.00000
  217 0.00000 0.00000 0.00000
  218 0.00000 0.00000 0.00000
  219 0.00000 0.00000 0.00000
  220 0.00000 0.00000 0.00000
  221 0.00000 0.00000 0.00000
  222 0.00000 0.00000 0.00000
  223 0.00000 0.00000 0.00000
  224 0.00000 0.00000 0.00000
  225 0.00000 0.00000 0.00000
  226 0.00000 0.00000 0.00000
  227 0.00000 0.00000 0.00000
  228 0.00000 0.00000 0.00000
  229 0.00000 0.00000 0.00000
  230 0.00000 0.00000 0.00000
  231 0.00000 0.00000 0.00000
  232 0.00000 0.00000 0.00000
  233 0.00000 0.00000 0.00000
  234 0.00000 0.00000 0.00000
  235 0.00000 0.00000 0.00000
  236 0.00000 0.00000 0.00000
  237 0.00000 0.00000 0.00000
  238 0.00000 0.00000 0.00000
  239 0.00000 0.00000 0.00000
  240 0.00000 0.00000 0.00000
  241 0.00000 0.00000 0.00000
</Section>

newXOutput 172

<Section columns = "stress_xx | stress_yy | stress_xy">
  1 0.00000 0.00000 0.00000
  2 0.00000 0.00000 0.00000
  3 0.00000 0.00000 0.00000
  4 0.00000 0.00000 0.00000
  5 0.00000 0.00000 0.00000
  6 0.00000 0.00000 0.00000
  7 0.00000 0.00000 0.00000
  8 0.00000 0.00000 0.00000
  9 0.00000 0.00000 0.00000
  10 0.00000 0.00000 0.00000
  11 0.00000 0.00000 0.00000
  12 0.00000 0.00000 0.00000
  13 0.00000 0.00000 0.00000
  14 0.00000 0.00000 0.00000
  15 0.00000 0.00000 0.00000
  16 0.00000 0.00000 0.00000
  17 0.00000 0.00000 0.00000
  18 0.00000 0.00000 0.00000
  19 0.00000 0.00000 0.00000
  20 0.00000 0.00000 0.00000
  21 0.00000 0.00000 0.00000
  22 0.00000 0.00000 0.00000
  23 0.00000 0.00000 0.00000
  24 0.00000 0.00000 0.00000
  25 0.00000 0.00000 0.00000
  26 0.00000 0.00000 0.00000
  27 0.00000 0.00000 0.00000
  28 0.00000 0.00000 0.00000
  29 0.00000 0.00000 0.00000
  30 0.00000 0.00000 0.00000
  31 0.00000 0.00000 0.00000
  32 0.00000 0.00000 0.00000
  33 0.00000 0.00000 0.00000
  34 0.00000 0.00000 0.00000
  35 0.00000 0.00000 0.00000
  36 0.00000 0.00000 0.00000
  37 0.00000 0.00000 0.00000
  38 0.00000 0.00000 0.00000
  39 0.00000 0.00000 0.00000
  40 0.00000 0.00000 0.00000
  41 0.00000 0.00000 0.00000
  42 0.00000 0.00000 0.00000
  43 0.00000 0.00000 0.00000
  44 0.00000 0.00000 0.00000
  45 0.00000 0.00000 0.00000
  46 0.00000 0.00000 0.00000
  47 0.00000 0.00000 0.00000
  48 0.00000 0.00000 0.00000
  49 0.00000 0.00000 0.00000
  50 0.00000 0.00000 0.00000
  51 0.00000 0.00000 0.00000
  52 0.00000 0.00000 0.00000
  53 0.00000 0.00000 0.00000
  54 0.00000 0.00000 0.00000
  55 0.00000 0.00000 0.00000
  56 0.00000 0.00000 0.00000
  57 0.00000 0.00000 0.00000
  58 0.00000 0.00000 0.00000
  59 0.00000 0.00000 0.00000
  60 0.00000 0.00000 0.00000
  61 0.00000 0.00000 0.00000
  62 0.00000 0.00000 0.00000
  63 0.00000 0.00000 0.00000
  64 0.00000 0.00000 0.00000
  65 0.00000 0.00000 0.00000
  66 0.00000 0.00000 0.00000
  67 0.00000 0.00000 0.00000
  68 0.00000 0.00000 0.00000
  69 0.00000 0.00000 0.00000
  70 0.00000 0.00000 0.00000
  71 0.00000 0.00000 0.00000
  72 0.00000 0.00000 0.00000
  73 0.00000 0.00000 0.00000
  74 0.00000 0.00000 0.00000
  75 0.00000 0.00000 0.00000
  76 0.00000 0.00000 0.00000
  77 0.00000 0.00000 0.00000
  78 0.00000 0.00000 0.00000
  79 0.00000 0.00000 0.00000
  80 0.00000 0.00000 0.00000
  81 0.00000 0.00000 0.00000
  82 0.00000 0.00000 0.00000
  83 0.00000 0.00000 0.00000
  84 0.00000 0.00000 0.00000
  85 0.00000 0.00000 0.00000
  86 0.00000 0.00000 0.00000
  87 0.00000 0.00000 0.00000
  88 0.00000 0.00000 0.00000
  89 0.00000 0.00000 0.00000
  90 0.00000 0.00000 0.00000
  91 0.00000 0.00000 0.00000
  92 0.00000 0.00000 0.00000
  93 0.00000 0.00000 0.00000
  94 0.00000 0.00000 0.00000
  95 0.00000 0.00000 0.00000
  96 0.00000 0.00000 0.00000
  97 0.00000 0.00000 0.00000
  98 0.00000 0.00000 0.00000
  99 0.00000 0.00000 0.00000
  100 0.00000 0.00000 0.00000
  101 0.00000 0.00000 0.00000
  102 0.00000 0.00000 0.00000
  103 0.00000 0.00000 0.00000
  104 0.00000 0.00000 0.00000
  105 0.00000 0.00000 0.00000
  106 0.00000 0.00000 0.00000
  107 0.00000 0.00000 0.00000
  108 0.00000 0.00000 0.00000
  109 0.00000 0.00000 0.00000
  110 0.00000 0.00000 0.00000
  111 0.00000 0.00000 0.00000
  112 0.00000 0.00000 0.00000
  113 0.00000 0.00000 0.00000
  114 0.00000 0.00000 0.00000
  115 0.00000 0.00000 0.00000
  116 0.00000 0.00000 0.00000
  117 0.00000 0.00000 0.00000
  118 0.00000 0.00000 0.00000
  119 0.00000 0.00000 0.00000
  120 0.00000 0.00000 0.00000
  121 0.00000 0.00000 0.00000
  122 0.00000 0.00000 0.00000
  123 0.00000 0.00000 0.00000
  124 0.00000 0.00000 0.00000
  125 0.00000 0.00000 0.00000
  126 0.00000 0.00000 0.00000
  127 0.00000 0.00000 0.00000
  128 0.00000 0.00000 0.00000
  129 0.00000 0.00000 0.00000
  130 0.00000 0.00000 0.00000
  131 0.00000 0.00000 0.00000
  132 0.00000 0.00000 0.00000
  133 0.00000 0.00000 0.00000
  134 0.00000 0.00000 0.00000
  135 0.00000 0.00000 0.00000
  136 0.00000 0.00000 0.00000
  137 0.00000 0.00000 0.00000
  138 0.00000 0.00000 0.00000
  139 0.00000 0.00000 0.00000
  140 0.00000 0.00000 0.00000
  141 0.00000 0.00000 0.00000
  142 0.00000 0.00000 0.00000
  143 0.00000 0.00000 0.00000
  144 0.00000 0.00000 0.00000
  145 0.00000 0.00000 0.00000
  146 0.00000 0.00000 0.00000
  147 0.00000 0.00000 0.00000
  148 0.00000 0.00000 0.00000
  149 0.00000 0.00000 0.00000
  150 0.00000 0.00000 0.00000
  151 0.00000 0.00000 0.00000
  152 0.00000 0.00000 0.00000
  153 0.00000 0.00000 0.00000
  154 0.00000 0.00000 0.00000
  155 0.00000 0.00000 0.00000
  156 0.00000 0.00000 0.00000
  157 0.00000 0.00000 0.00000
  158 0.00000 0.00000 0.00000
  159 0.00000 0.00000 0.00000
  160 0.00000 0.00000 0.00000
  161 0.00000 0.00000 0.00000
  162 0.00000 0.00000 0.00000
  163 0.00000 0.00000 0.00000
  164 0.00000 0.00000 0.00000
  165 0.00000 0.00000 0.00000
  166 0.00000 0.00000 0.00000
  167 0.00000 0.00000 0.00000
  168 0.00000 0.00000 0.00000
  169 0.00000 0.00000 0.00000
  170 0.00000 0.00000 0.00000
  171 0.00000 0.00000 0.00000
  172 0.00000 0.00000 0.00000
  173 0.00000 0.00000 0.00000
  174 0.00000 0.00000 0.00000
  175 0.00000 0.00000 0.00000
  176 0.00000 0.00000 0.00000
  177 0.00000 0.00000 0.00000
  178 0.00000 0.00000 0.00000
  179 0.00000 0.00000 0.00000
  180 0.00000 0.00000 0.00000
  181 0.00000 0.00000 0.00000
  182 0.00000 0.00000 0.00000
  183 0.00000 0.00000 0.00000
  184 0.00000 0.00000 0.00000
  185 0.00000 0.00000 0.00000
  186 0.00000 0.00000 0.00000
  187 0.00000 0.00000 0.00000
  188 0.00000 0.00000 0.00000
  189 0.00000 0.00000 0.00000
  190 0.00000 0.00000 0.00000
  191 0.00000 0.00000 0.00000
  192 0.00000 0.00000 0.00000
  193 0.00000 0.00000 0.00000
  194 0.00000 0.00000 0.00000
  195 0.00000 0.00000 0.00000
  196 0.00000 0.00000 0.00000
  197 0.00000 0.00000 0.00000
  198 0.00000 0.00000 0.00000
  199 0.00000 0.00000 0.00000
  200 0.00000 0.00000 0.00000
  201 0.00000 0.00000 0.00000
  202 0.00000 0.00000 0.00000
  203 0.00000 0.00000 0.00000
  204 0.00000 0.00000 0.00000
  205 0.00000 0.00000 0.00000
  206 0.00000 0.00000 0.00000
  207 0.00000 0.00000 0.00000
  208 0.00000 0.00000 0.00000
  209 0.00000 0.00000 0.00000
  210 0.00000 0.00000 0.00000
  211 0.00000 0.00000 0.00000
  212 0.00000 0.00000 0.00000
  213 0.00000 0.00000 0.00000
  214 0.00000 0.00000 0.00000
  215 0.00000 0.00000 0.00000
  216 0.00000 0.00000 0.00000
  217 0.00000 0.00000 0.00000
  218 0.00000 0.00000 0.00000
  219 0.00000 0.00000 0.00000
  220 0.00000 0.00000 0.00000
  221 0.00000 0.00000 0.00000
  222 0.00000 0.00000 0.00000
  223 0.00000 0.00000 0.00000
  224 0.00000 0.00000 0.00000
  225 0.00000 0.00000 0.00000
  226 0.00000 0.00000 0.00000
  227 0.00000 0.00000 0.00000
  228 0.00000 0.00000 0.00000
  229 0.00000 0.00000 0.00000
  230 0.00000 0.00000 0.00000
  231 0.00000 0.00000 0.00000
  232 0.00000 0.00000 0.00000
  233 0.00000 0.00000 0.00000
  234 0.00000 0.00000 0.00000
  235 0.00000 0.00000 0.00000
  236 0.00000 0.00000 0.00000
  237 0.00000 0.00000 0.00000
  238 0.00000 0.00000 0.00000
  239 0.00000 0.00000 0.00000
  240 0.00000 0.00000 0.00000
  241 0.00000 0.00000 0.00000
</Section>

newXOutput 173

<Section columns = "stress_xx | stress_yy | stress_xy">
  1 0.00000 0.00000 0.00000
  2 0.00000 0.00000 0.00000
  3 0.00000 0.00000 0.00000
  4 0.00000 0.00000 0.00000
  5 0.00000 0.00000 0.00000
  6 0.00000 0.00000 0.00000
  7 0.00000 0.00000 0.00000
  8 0.00000 0.00000 0.00000
  9 0.00000 0.00000 0.00000
  10 0.00000 0.00000 0.00000
  11 0.00000 0.00000 0.00000
  12 0.00000 0.00000 0.00000
  13 0.00000 0.00000 0.00000
  14 0.00000 0.00000 0.00000
  15 0.00000 0.00000 0.00000
  16 0.00000 0.00000 0.00000
  17 0.00000 0.00000 0.00000
  18 0.00000 0.00000 0.00000
  19 0.00000 0.00000 0.00000
  20 0.00000 0.00000 0.00000
  21 0.00000 0.00000 0.00000
  22 0.00000 0.00000 0.00000
  23 0.00000 0.00000 0.00000
  24 0.00000 0.00000 0.00000
  25 0.00000 0.00000 0.00000
  26 0.00000 0.00000 0.00000
  27 0.00000 0.00000 0.00000
  28 0.00000 0.00000 0.00000
  29 0.00000 0.00000 0.00000
  30 0.00000 0.00000 0.00000
  31 0.00000 0.00000 0.00000
  32 0.00000 0.00000 0.00000
  33 0.00000 0.00000 0.00000
  34 0.00000 0.00000 0.00000
  35 0.00000 0.00000 0.00000
  36 0.00000 0.00000 0.00000
  37 0.00000 0.00000 0.00000
  38 0.00000 0.00000 0.00000
  39 0.00000 0.00000 0.00000
  40 0.00000 0.00000 0.00000
  41 0.00000 0.00000 0.00000
  42 0.00000 0.00000 0.00000
  43 0.00000 0.00000 0.00000
  44 0.00000 0.00000 0.00000
  45 0.00000 0.00000 0.00000
  46 0.00000 0.00000 0.00000
  47 0.00000 0.00000 0.00000
  48 0.00000 0.00000 0.00000
  49 0.00000 0.00000 0.00000
  50 0.00000 0.00000 0.00000
  51 0.00000 0.00000 0.00000
  52 0.00000 0.00000 0.00000
  53 0.00000 0.00000 0.00000
  54 0.00000 0.00000 0.00000
  55 0.00000 0.00000 0.00000
  56 0.00000 0.00000 0.00000
  57 0.00000 0.00000 0.00000
  58 0.00000 0.00000 0.00000
  59 0.00000 0.00000 0.00000
  60 0.00000 0.00000 0.00000
  61 0.00000 0.00000 0.00000
  62 0.00000 0.00000 0.00000
  63 0.00000 0.00000 0.00000
  64 0.00000 0.00000 0.00000
  65 0.00000 0.00000 0.00000
  66 0.00000 0.00000 0.00000
  67 0.00000 0.00000 0.00000
  68 0.00000 0.00000 0.00000
  69 0.00000 0.00000 0.00000
  70 0.00000 0.00000 0.00000
  71 0.00000 0.00000 0.00000
  72 0.00000 0.00000 0.00000
  73 0.00000 0.00000 0.00000
  74 0.00000 0.00000 0.00000
  75 0.00000 0.00000 0.00000
  76 0.00000 0.00000 0.00000
  77 0.00000 0.00000 0.00000
  78 0.00000 0.00000 0.00000
  79 0.00000 0.00000 0.00000
  80 0.00000 0.00000 0.00000
  81 0.00000 0.00000 0.00000
  82 0.00000 0.00000 0.00000
  83 0.00000 0.00000 0.00000
  84 0.00000 0.00000 0.00000
  85 0.00000 0.00000 0.00000
  86 0.00000 0.00000 0.00000
  87 0.00000 0.00000 0.00000
  88 0.00000 0.00000 0.00000
  89 0.00000 0.00000 0.00000
  90 0.00000 0.00000 0.00000
  91 0.00000 0.00000 0.00000
  92 0.00000 0.00000 0.00000
  93 0.00000 0.00000 0.00000
  94 0.00000 0.00000 0.00000
  95 0.00000 0.00000 0.00000
  96 0.00000 0.00000 0.00000
  97 0.00000 0.00000 0.00000
  98 0.00000 0.00000 0.00000
  99 0.00000 0.00000 0.00000
  100 0.00000 0.00000 0.00000
  101 0.00000 0.00000 0.00000
  102 0.00000 0.00000 0.00000
  103 0.00000 0.00000 0.00000
  104 0.00000 0.00000 0.00000
  105 0.00000 0.00000 0.00000
  106 0.00000 0.00000 0.00000
  107 0.00000 0.00000 0.00000
  108 0.00000 0.00000 0.00000
  109 0.00000 0.00000 0.00000
  110 0.00000 0.00000 0.00000
  111 0.00000 0.00000 0.00000
  112 0.00000 0.00000 0.00000
  113 0.00000 0.00000 0.00000
  114 0.00000 0.00000 0.00000
  115 0.00000 0.00000 0.00000
  116 0.00000 0.00000 0.00000
  117 0.00000 0.00000 0.00000
  118 0.00000 0.00000 0.00000
  119 0.00000 0.00000 0.00000
  120 0.00000 0.00000 0.00000
  121 0.00000 0.00000 0.00000
  122 0.00000 0.00000 0.00000
  123 0.00000 0.00000 0.00000
  124 0.00000 0.00000 0.00000
  125 0.00000 0.00000 0.00000
  126 0.00000 0.00000 0.00000
  127 0.00000 0.00000 0.00000
  128 0.00000 0.00000 0.00000
  129 0.00000 0.00000 0.00000
  130 0.00000 0.00000 0.00000
  131 0.00000 0.00000 0.00000
  132 0.00000 0.00000 0.00000
  133 0.00000 0.00000 0.00000
  134 0.00000 0.00000 0.00000
  135 0.00000 0.00000 0.00000
  136 0.00000 0.00000 0.00000
  137 0.00000 0.00000 0.00000
  138 0.00000 0.00000 0.00000
  139 0.00000 0.00000 0.00000
  140 0.00000 0.00000 0.00000
  141 0.00000 0.00000 0.00000
  142 0.00000 0.00000 0.00000
  143 0.00000 0.00000 0.00000
  144 0.00000 0.00000 0.00000
  145 0.00000 0.00000 0.00000
  146 0.00000 0.00000 0.00000
  147 0.00000 0.00000 0.00000
  148 0.00000 0.00000 0.00000
  149 0.00000 0.00000 0.00000
  150 0.00000 0.00000 0.00000
  151 0.00000 0.00000 0.00000
  152 0.00000 0.00000 0.00000
  153 0.00000 0.00000 0.00000
  154 0.00000 0.00000 0.00000
  155 0.00000 0.00000 0.00000
  156 0.00000 0.00000 0.00000
  157 0.00000 0.00000 0.00000
  158 0.00000 0.00000 0.00000
  159 0.00000 0.00000 0.00000
  160 0.00000 0.00000 0.00000
  161 0.00000 0.00000 0.00000
  162 0.00000 0.00000 0.00000
  163 0.00000 0.00000 0.00000
  164 0.00000 0.00000 0.00000
  165 0.00000 0.00000 0.00000
  166 0.00000 0.00000 0.00000
  167 0.00000 0.00000 0.00000
  168 0.00000 0.00000 0.00000
  169 0.00000 0.00000 0.00000
  170 0.00000 0.00000 0.00000
  171 0.00000 0.00000 0.00000
  172 0.00000 0.00000 0.00000
  173 0.00000 0.00000 0.00000
  174 0.00000 0.00000 0.00000
  175 0.00000 0.00000 0.00000
  176 0.00000 0.00000 0.00000
  177 0.00000 0.00000 0.00000
  178 0.00000 0.00000 0.00000
  179 0.00000 0.00000 0.00000
  180 0.00000 0.00000 0.00000
  181 0.00000 0.00000 0.00000
  182 0.00000 0.00000 0.00000
  183 0.00000 0.00000 0.00000
  184 0.00000 0.00000 0.00000
  185 0.00000 0.00000 0.00000
  186 0.00000 0.00000 0.00000
  187 0.00000 0.00000 0.00000
  188 0.00000 0.00000 0.00000
  189 0.00000 0.00000 0.00000
  190 0.00000 0.00000 0.00000
  191 0.00000 0.00000 0.00000
  192 0.00000 0.00000 0.00000
  193 0.00000 0.00000 0.00000
  194 0.00000 0.00000 0.00000
  195 0.00000 0.00000 0.00000
  196 0.00000 0.00000 0.00000
  197 0.00000 0.00000 0.00000
  198 0.00000 0.00000 0.00000
  199 0.00000 0.00000 0.00000
  200 0.00000 0.00000 0.00000
  201 0.00000 0.00000 0.00000
  202 0.00000 0.00000 0.00000
  203 0.00000 0.00000 0.00000
  204 0.00000 0.00000 0.00000
  205 0.00000 0.00000 0.00000
  206 0.00000 0.00000 0.00000
  207 0.00000 0.00000 0.00000
  208 0.00000 0.00000 0.00000
  209 0.00000 0.00000 0.00000
  210 0.00000 0.00000 0.00000
  211 0.00000 0.00000 0.00000
  212 0.00000 0.00000 0.00000
  213 0.00000 0.00000 0.00000
  214 0.00000 0.00000 0.00000
  215 0.00000 0.00000 0.00000
  216 0.00000 0.00000 0.00000
  217 0.00000 0.00000 0.00000
  218 0.00000 0.00000 0.00000
  219 0.00000 0.00000 0.00000
  220 0.00000 0.00000 0.00000
  221 0.00000 0.00000 0.00000
  222 0.00000 0.00000 0.00000
  223 0.00000 0.00000 0.00000
  224 0.00000 0.00000 0.00000
  225 0.00000 0.00000 0.00000
  226 0.00000 0.00000 0.00000
  227 0.00000 0.00000 0.00000
  228 0.00000 0.00000 0.00000
  229 0.00000 0.00000 0.00000
  230 0.00000 0.00000 0.00000
  231 0.00000 0.00000 0.00000
  232 0.00000 0.00000 0.00000
  233 0.00000 0.00000 0.00000
  234 0.00000 0.00000 0.00000
  235 0.00000 0.00000 0.00000
  236 0.00000 0.00000 0.00000
  237 0.00000 0.00000 0.00000
  238 0.00000 0.00000 0.00000
  239 0.00000 0.00000 0.00000
  240 0.00000 0.00000 0.00000
  241 0.00000 0.00000 0.00000
</Section>

newXOutput 174

<Section columns = "stress_xx | stress_yy | stress_xy">
  1 0.00000 0.00000 0.00000
  2 0.00000 0.00000 0.00000
  3 0.00000 0.00000 0.00000
  4 0.00000 0.00000 0.00000
  5 0.00000 0.00000 0.00000
  6 0.00000 0.00000 0.00000
  7 0.00000 0.00000 0.00000
  8 0.00000 0.00000 0.00000
  9 0.00000 0.00000 0.00000
  10 0.00000 0.00000 0.00000
  11 0.00000 0.00000 0.00000
  12 0.00000 0.00000 0.00000
  13 0.00000 0.00000 0.00000
  14 0.00000 0.00000 0.00000
  15 0.00000 0.00000 0.00000
  16 0.00000 0.00000 0.00000
  17 0.00000 0.00000 0.00000
  18 0.00000 0.00000 0.00000
  19 0.00000 0.00000 0.00000
  20 0.00000 0.00000 0.00000
  21 0.00000 0.00000 0.00000
  22 0.00000 0.00000 0.00000
  23 0.00000 0.00000 0.00000
  24 0.00000 0.00000 0.00000
  25 0.00000 0.00000 0.00000
  26 0.00000 0.00000 0.00000
  27 0.00000 0.00000 0.00000
  28 0.00000 0.00000 0.00000
  29 0.00000 0.00000 0.00000
  30 0.00000 0.00000 0.00000
  31 0.00000 0.00000 0.00000
  32 0.00000 0.00000 0.00000
  33 0.00000 0.00000 0.00000
  34 0.00000 0.00000 0.00000
  35 0.00000 0.00000 0.00000
  36 0.00000 0.00000 0.00000
  37 0.00000 0.00000 0.00000
  38 0.00000 0.00000 0.00000
  39 0.00000 0.00000 0.00000
  40 0.00000 0.00000 0.00000
  41 0.00000 0.00000 0.00000
  42 0.00000 0.00000 0.00000
  43 0.00000 0.00000 0.00000
  44 0.00000 0.00000 0.00000
  45 0.00000 0.00000 0.00000
  46 0.00000 0.00000 0.00000
  47 0.00000 0.00000 0.00000
  48 0.00000 0.00000 0.00000
  49 0.00000 0.00000 0.00000
  50 0.00000 0.00000 0.00000
  51 0.00000 0.00000 0.00000
  52 0.00000 0.00000 0.00000
  53 0.00000 0.00000 0.00000
  54 0.00000 0.00000 0.00000
  55 0.00000 0.00000 0.00000
  56 0.00000 0.00000 0.00000
  57 0.00000 0.00000 0.00000
  58 0.00000 0.00000 0.00000
  59 0.00000 0.00000 0.00000
  60 0.00000 0.00000 0.00000
  61 0.00000 0.00000 0.00000
  62 0.00000 0.00000 0.00000
  63 0.00000 0.00000 0.00000
  64 0.00000 0.00000 0.00000
  65 0.00000 0.00000 0.00000
  66 0.00000 0.00000 0.00000
  67 0.00000 0.00000 0.00000
  68 0.00000 0.00000 0.00000
  69 0.00000 0.00000 0.00000
  70 0.00000 0.00000 0.00000
  71 0.00000 0.00000 0.00000
  72 0.00000 0.00000 0.00000
  73 0.00000 0.00000 0.00000
  74 0.00000 0.00000 0.00000
  75 0.00000 0.00000 0.00000
  76 0.00000 0.00000 0.00000
  77 0.00000 0.00000 0.00000
  78 0.00000 0.00000 0.00000
  79 0.00000 0.00000 0.00000
  80 0.00000 0.00000 0.00000
  81 0.00000 0.00000 0.00000
  82 0.00000 0.00000 0.00000
  83 0.00000 0.00000 0.00000
  84 0.00000 0.00000 0.00000
  85 0.00000 0.00000 0.00000
  86 0.00000 0.00000 0.00000
  87 0.00000 0.00000 0.00000
  88 0.00000 0.00000 0.00000
  89 0.00000 0.00000 0.00000
  90 0.00000 0.00000 0.00000
  91 0.00000 0.00000 0.00000
  92 0.00000 0.00000 0.00000
  93 0.00000 0.00000 0.00000
  94 0.00000 0.00000 0.00000
  95 0.00000 0.00000 0.00000
  96 0.00000 0.00000 0.00000
  97 0.00000 0.00000 0.00000
  98 0.00000 0.00000 0.00000
  99 0.00000 0.00000 0.00000
  100 0.00000 0.00000 0.00000
  101 0.00000 0.00000 0.00000
  102 0.00000 0.00000 0.00000
  103 0.00000 0.00000 0.00000
  104 0.00000 0.00000 0.00000
  105 0.00000 0.00000 0.00000
  106 0.00000 0.00000 0.00000
  107 0.00000 0.00000 0.00000
  108 0.00000 0.00000 0.00000
  109 0.00000 0.00000 0.00000
  110 0.00000 0.00000 0.00000
  111 0.00000 0.00000 0.00000
  112 0.00000 0.00000 0.00000
  113 0.00000 0.00000 0.00000
  114 0.00000 0.00000 0.00000
  115 0.00000 0.00000 0.00000
  116 0.00000 0.00000 0.00000
  117 0.00000 0.00000 0.00000
  118 0.00000 0.00000 0.00000
  119 0.00000 0.00000 0.00000
  120 0.00000 0.00000 0.00000
  121 0.00000 0.00000 0.00000
  122 0.00000 0.00000 0.00000
  123 0.00000 0.00000 0.00000
  124 0.00000 0.00000 0.00000
  125 0.00000 0.00000 0.00000
  126 0.00000 0.00000 0.00000
  127 0.00000 0.00000 0.00000
  128 0.00000 0.00000 0.00000
  129 0.00000 0.00000 0.00000
  130 0.00000 0.00000 0.00000
  131 0.00000 0.00000 0.00000
  132 0.00000 0.00000 0.00000
  133 0.00000 0.00000 0.00000
  134 0.00000 0.00000 0.00000
  135 0.00000 0.00000 0.00000
  136 0.00000 0.00000 0.00000
  137 0.00000 0.00000 0.00000
  138 0.00000 0.00000 0.00000
  139 0.00000 0.00000 0.00000
  140 0.00000 0.00000 0.00000
  141 0.00000 0.00000 0.00000
  142 0.00000 0.00000 0.00000
  143 0.00000 0.00000 0.00000
  144 0.00000 0.00000 0.00000
  145 0.00000 0.00000 0.00000
  146 0.00000 0.00000 0.00000
  147 0.00000 0.00000 0.00000
  148 0.00000 0.00000 0.00000
  149 0.00000 0.00000 0.00000
  150 0.00000 0.00000 0.00000
  151 0.00000 0.00000 0.00000
  152 0.00000 0.00000 0.00000
  153 0.00000 0.00000 0.00000
  154 0.00000 0.00000 0.00000
  155 0.00000 0.00000 0.00000
  156 0.00000 0.00000 0.00000
  157 0.00000 0.00000 0.00000
  158 0.00000 0.00000 0.00000
  159 0.00000 0.00000 0.00000
  160 0.00000 0.00000 0.00000
  161 0.00000 0.00000 0.00000
  162 0.00000 0.00000 0.00000
  163 0.00000 0.00000 0.00000
  164 0.00000 0.00000 0.00000
  165 0.00000 0.00000 0.00000
  166 0.00000 0.00000 0.00000
  167 0.00000 0.00000 0.00000
  168 0.00000 0.00000 0.00000
  169 0.00000 0.00000 0.00000
  170 0.00000 0.00000 0.00000
  171 0.00000 0.00000 0.00000
  172 0.00000 0.00000 0.00000
  173 0.00000 0.00000 0.00000
  174 0.00000 0.00000 0.00000
  175 0.00000 0.00000 0.00000
  176 0.00000 0.00000 0.00000
  177 0.00000 0.00000 0.00000
  178 0.00000 0.00000 0.00000
  179 0.00000 0.00000 0.00000
  180 0.00000 0.00000 0.00000
  181 0.00000 0.00000 0.00000
  182 0.00000 0.00000 0.00000
  183 0.00000 0.00000 0.00000
  184 0.00000 0.00000 0.00000
  185 0.00000 0.00000 0.00000
  186 0.00000 0.00000 0.00000
  187 0.00000 0.00000 0.00000
  188 0.00000 0.00000 0.00000
  189 0.00000 0.00000 0.00000
  190 0.00000 0.00000 0.00000
  191 0.00000 0.00000 0.00000
  192 0.00000 0.00000 0.00000
  193 0.00000 0.00000 0.00000
  194 0.00000 0.00000 0.00000
  195 0.00000 0.00000 0.00000
  196 0.00000 0.00000 0.00000
  197 0.00000 0.00000 0.00000
  198 0.00000 0.00000 0.00000
  199 0.00000 0.00000 0.00000
  200 0.00000 0.00000 0.00000
  201 0.00000 0.00000 0.00000
  202 0.00000 0.00000 0.00000
  203 0.00000 0.00000 0.00000
  204 0.00000 0.00000 0.00000
  205 0.00000 0.00000 0.00000
  206 0.00000 0.00000 0.00000
  207 0.00000 0.00000 0.00000
  208 0.00000 0.00000 0.00000
  209 0.00000 0.00000 0.00000
  210 0.00000 0.00000 0.00000
  211 0.00000 0.00000 0.00000
  212 0.00000 0.00000 0.00000
  213 0.00000 0.00000 0.00000
  214 0.00000 0.00000 0.00000
  215 0.00000 0.00000 0.00000
  216 0.00000 0.00000 0.00000
  217 0.00000 0.00000 0.00000
  218 0.00000 0.00000 0.00000
  219 0.00000 0.00000 0.00000
  220 0.00000 0.00000 0.00000
  221 0.00000 0.00000 0.00000
  222 0.00000 0.00000 0.00000
  223 0.00000 0.00000 0.00000
  224 0.00000 0.00000 0.00000
  225 0.00000 0.00000 0.00000
  226 0.00000 0.00000 0.00000
  227 0.00000 0.00000 0.00000
  228 0.00000 0.00000 0.00000
  229 0.00000 0.00000 0.00000
  230 0.00000 0.00000 0.00000
  231 0.00000 0.00000 0.00000
  232 0.00000 0.00000 0.00000
  233 0.00000 0.00000 0.00000
  234 0.00000 0.00000 0.00000
  235 0.00000 0.00000 0.00000
  236 0.00000 0.00000 0.00000
  237 0.00000 0.00000 0.00000
  238 0.00000 0.00000 0.00000
  239 0.00000 0.00000 0.00000
  240 0.00000 0.00000 0.00000
  241 0.00000 0.00000 0.00000
</Section>

newXOutput 175

<Section columns = "stress_xx | stress_yy | stress_xy">
  1 0.00000 0.00000 0.00000
  2 0.00000 0.00000 0.00000
  3 0.00000 0.00000 0.00000
  4 0.00000 0.00000 0.00000
  5 0.00000 0.00000 0.00000
  6 0.00000 0.00000 0.00000
  7 0.00000 0.00000 0.00000
  8 0.00000 0.00000 0.00000
  9 0.00000 0.00000 0.00000
  10 0.00000 0.00000 0.00000
  11 0.00000 0.00000 0.00000
  12 0.00000 0.00000 0.00000
  13 0.00000 0.00000 0.00000
  14 0.00000 0.00000 0.00000
  15 0.00000 0.00000 0.00000
  16 0.00000 0.00000 0.00000
  17 0.00000 0.00000 0.00000
  18 0.00000 0.00000 0.00000
  19 0.00000 0.00000 0.00000
  20 0.00000 0.00000 0.00000
  21 0.00000 0.00000 0.00000
  22 0.00000 0.00000 0.00000
  23 0.00000 0.00000 0.00000
  24 0.00000 0.00000 0.00000
  25 0.00000 0.00000 0.00000
  26 0.00000 0.00000 0.00000
  27 0.00000 0.00000 0.00000
  28 0.00000 0.00000 0.00000
  29 0.00000 0.00000 0.00000
  30 0.00000 0.00000 0.00000
  31 0.00000 0.00000 0.00000
  32 0.00000 0.00000 0.00000
  33 0.00000 0.00000 0.00000
  34 0.00000 0.00000 0.00000
  35 0.00000 0.00000 0.00000
  36 0.00000 0.00000 0.00000
  37 0.00000 0.00000 0.00000
  38 0.00000 0.00000 0.00000
  39 0.00000 0.00000 0.00000
  40 0.00000 0.00000 0.00000
  41 0.00000 0.00000 0.00000
  42 0.00000 0.00000 0.00000
  43 0.00000 0.00000 0.00000
  44 0.00000 0.00000 0.00000
  45 0.00000 0.00000 0.00000
  46 0.00000 0.00000 0.00000
  47 0.00000 0.00000 0.00000
  48 0.00000 0.00000 0.00000
  49 0.00000 0.00000 0.00000
  50 0.00000 0.00000 0.00000
  51 0.00000 0.00000 0.00000
  52 0.00000 0.00000 0.00000
  53 0.00000 0.00000 0.00000
  54 0.00000 0.00000 0.00000
  55 0.00000 0.00000 0.00000
  56 0.00000 0.00000 0.00000
  57 0.00000 0.00000 0.00000
  58 0.00000 0.00000 0.00000
  59 0.00000 0.00000 0.00000
  60 0.00000 0.00000 0.00000
  61 0.00000 0.00000 0.00000
  62 0.00000 0.00000 0.00000
  63 0.00000 0.00000 0.00000
  64 0.00000 0.00000 0.00000
  65 0.00000 0.00000 0.00000
  66 0.00000 0.00000 0.00000
  67 0.00000 0.00000 0.00000
  68 0.00000 0.00000 0.00000
  69 0.00000 0.00000 0.00000
  70 0.00000 0.00000 0.00000
  71 0.00000 0.00000 0.00000
  72 0.00000 0.00000 0.00000
  73 0.00000 0.00000 0.00000
  74 0.00000 0.00000 0.00000
  75 0.00000 0.00000 0.00000
  76 0.00000 0.00000 0.00000
  77 0.00000 0.00000 0.00000
  78 0.00000 0.00000 0.00000
  79 0.00000 0.00000 0.00000
  80 0.00000 0.00000 0.00000
  81 0.00000 0.00000 0.00000
  82 0.00000 0.00000 0.00000
  83 0.00000 0.00000 0.00000
  84 0.00000 0.00000 0.00000
  85 0.00000 0.00000 0.00000
  86 0.00000 0.00000 0.00000
  87 0.00000 0.00000 0.00000
  88 0.00000 0.00000 0.00000
  89 0.00000 0.00000 0.00000
  90 0.00000 0.00000 0.00000
  91 0.00000 0.00000 0.00000
  92 0.00000 0.00000 0.00000
  93 0.00000 0.00000 0.00000
  94 0.00000 0.00000 0.00000
  95 0.00000 0.00000 0.00000
  96 0.00000 0.00000 0.00000
  97 0.00000 0.00000 0.00000
  98 0.00000 0.00000 0.00000
  99 0.00000 0.00000 0.00000
  100 0.00000 0.00000 0.00000
  101 0.00000 0.00000 0.00000
  102 0.00000 0.00000 0.00000
  103 0.00000 0.00000 0.00000
  104 0.00000 0.00000 0.00000
  105 0.00000 0.00000 0.00000
  106 0.00000 0.00000 0.00000
  107 0.00000 0.00000 0.00000
  108 0.00000 0.00000 0.00000
  109 0.00000 0.00000 0.00000
  110 0.00000 0.00000 0.00000
  111 0.00000 0.00000 0.00000
  112 0.00000 0.00000 0.00000
  113 0.00000 0.00000 0.00000
  114 0.00000 0.00000 0.00000
  115 0.00000 0.00000 0.00000
  116 0.00000 0.00000 0.00000
  117 0.00000 0.00000 0.00000
  118 0.00000 0.00000 0.00000
  119 0.00000 0.00000 0.00000
  120 0.00000 0.00000 0.00000
  121 0.00000 0.00000 0.00000
  122 0.00000 0.00000 0.00000
  123 0.00000 0.00000 0.00000
  124 0.00000 0.00000 0.00000
  125 0.00000 0.00000 0.00000
  126 0.00000 0.00000 0.00000
  127 0.00000 0.00000 0.00000
  128 0.00000 0.00000 0.00000
  129 0.00000 0.00000 0.00000
  130 0.00000 0.00000 0.00000
  131 0.00000 0.00000 0.00000
  132 0.00000 0.00000 0.00000
  133 0.00000 0.00000 0.00000
  134 0.00000 0.00000 0.00000
  135 0.00000 0.00000 0.00000
  136 0.00000 0.00000 0.00000
  137 0.00000 0.00000 0.00000
  138 0.00000 0.00000 0.00000
  139 0.00000 0.00000 0.00000
  140 0.00000 0.00000 0.00000
  141 0.00000 0.00000 0.00000
  142 0.00000 0.00000 0.00000
  143 0.00000 0.00000 0.00000
  144 0.00000 0.00000 0.00000
  145 0.00000 0.00000 0.00000
  146 0.00000 0.00000 0.00000
  147 0.00000 0.00000 0.00000
  148 0.00000 0.00000 0.00000
  149 0.00000 0.00000 0.00000
  150 0.00000 0.00000 0.00000
  151 0.00000 0.00000 0.00000
  152 0.00000 0.00000 0.00000
  153 0.00000 0.00000 0.00000
  154 0.00000 0.00000 0.00000
  155 0.00000 0.00000 0.00000
  156 0.00000 0.00000 0.00000
  157 0.00000 0.00000 0.00000
  158 0.00000 0.00000 0.00000
  159 0.00000 0.00000 0.00000
  160 0.00000 0.00000 0.00000
  161 0.00000 0.00000 0.00000
  162 0.00000 0.00000 0.00000
  163 0.00000 0.00000 0.00000
  164 0.00000 0.00000 0.00000
  165 0.00000 0.00000 0.00000
  166 0.00000 0.00000 0.00000
  167 0.00000 0.00000 0.00000
  168 0.00000 0.00000 0.00000
  169 0.00000 0.00000 0.00000
  170 0.00000 0.00000 0.00000
  171 0.00000 0.00000 0.00000
  172 0.00000 0.00000 0.00000
  173 0.00000 0.00000 0.00000
  174 0.00000 0.00000 0.00000
  175 0.00000 0.00000 0.00000
  176 0.00000 0.00000 0.00000
  177 0.00000 0.00000 0.00000
  178 0.00000 0.00000 0.00000
  179 0.00000 0.00000 0.00000
  180 0.00000 0.00000 0.00000
  181 0.00000 0.00000 0.00000
  182 0.00000 0.00000 0.00000
  183 0.00000 0.00000 0.00000
  184 0.00000 0.00000 0.00000
  185 0.00000 0.00000 0.00000
  186 0.00000 0.00000 0.00000
  187 0.00000 0.00000 0.00000
  188 0.00000 0.00000 0.00000
  189 0.00000 0.00000 0.00000
  190 0.00000 0.00000 0.00000
  191 0.00000 0.00000 0.00000
  192 0.00000 0.00000 0.00000
  193 0.00000 0.00000 0.00000
  194 0.00000 0.00000 0.00000
  195 0.00000 0.00000 0.00000
  196 0.00000 0.00000 0.00000
  197 0.00000 0.00000 0.00000
  198 0.00000 0.00000 0.00000
  199 0.00000 0.00000 0.00000
  200 0.00000 0.00000 0.00000
  201 0.00000 0.00000 0.00000
  202 0.00000 0.00000 0.00000
  203 0.00000 0.00000 0.00000
  204 0.00000 0.00000 0.00000
  205 0.00000 0.00000 0.00000
  206 0.00000 0.00000 0.00000
  207 0.00000 0.00000 0.00000
  208 0.00000 0.00000 0.00000
  209 0.00000 0.00000 0.00000
  210 0.00000 0.00000 0.00000
  211 0.00000 0.00000 0.00000
  212 0.00000 0.00000 0.00000
  213 0.00000 0.00000 0.00000
  214 0.00000 0.00000 0.00000
  215 0.00000 0.00000 0.00000
  216 0.00000 0.00000 0.00000
  217 0.00000 0.00000 0.00000
  218 0.00000 0.00000 0.00000
  219 0.00000 0.00000 0.00000
  220 0.00000 0.00000 0.00000
  221 0.00000 0.00000 0.00000
  222 0.00000 0.00000 0.00000
  223 0.00000 0.00000 0.00000
  224 0.00000 0.00000 0.00000
  225 0.00000 0.00000 0.00000
  226 0.00000 0.00000 0.00000
  227 0.00000 0.00000 0.00000
  228 0.00000 0.00000 0.00000
  229 0.00000 0.00000 0.00000
  230 0.00000 0.00000 0.00000
  231 0.00000 0.00000 0.00000
  232 0.00000 0.00000 0.00000
  233 0.00000 0.00000 0.00000
  234 0.00000 0.00000 0.00000
  235 0.00000 0.00000 0.00000
  236 0.00000 0.00000 0.00000
  237 0.00000 0.00000 0.00000
  238 0.00000 0.00000 0.00000
  239 0.00000 0.00000 0.00000
  240 0.00000 0.00000 0.00000
  241 0.00000 0.00000 0.00000
</Section>

newXOutput 176

<Section columns = "stress_xx | stress_yy | stress_xy">
  1 0.00000 0.00000 0.00000
  2 0.00000 0.00000 0.00000
  3 0.00000 0.00000 0.00000
  4 0.00000 0.00000 0.00000
  5 0.00000 0.00000 0.00000
  6 0.00000 0.00000 0.00000
  7 0.00000 0.00000 0.00000
  8 0.00000 0.00000 0.00000
  9 0.00000 0.00000 0.00000
  10 0.00000 0.00000 0.00000
  11 0.00000 0.00000 0.00000
  12 0.00000 0.00000 0.00000
  13 0.00000 0.00000 0.00000
  14 0.00000 0.00000 0.00000
  15 0.00000 0.00000 0.00000
  16 0.00000 0.00000 0.00000
  17 0.00000 0.00000 0.00000
  18 0.00000 0.00000 0.00000
  19 0.00000 0.00000 0.00000
  20 0.00000 0.00000 0.00000
  21 0.00000 0.00000 0.00000
  22 0.00000 0.00000 0.00000
  23 0.00000 0.00000 0.00000
  24 0.00000 0.00000 0.00000
  25 0.00000 0.00000 0.00000
  26 0.00000 0.00000 0.00000
  27 0.00000 0.00000 0.00000
  28 0.00000 0.00000 0.00000
  29 0.00000 0.00000 0.00000
  30 0.00000 0.00000 0.00000
  31 0.00000 0.00000 0.00000
  32 0.00000 0.00000 0.00000
  33 0.00000 0.00000 0.00000
  34 0.00000 0.00000 0.00000
  35 0.00000 0.00000 0.00000
  36 0.00000 0.00000 0.00000
  37 0.00000 0.00000 0.00000
  38 0.00000 0.00000 0.00000
  39 0.00000 0.00000 0.00000
  40 0.00000 0.00000 0.00000
  41 0.00000 0.00000 0.00000
  42 0.00000 0.00000 0.00000
  43 0.00000 0.00000 0.00000
  44 0.00000 0.00000 0.00000
  45 0.00000 0.00000 0.00000
  46 0.00000 0.00000 0.00000
  47 0.00000 0.00000 0.00000
  48 0.00000 0.00000 0.00000
  49 0.00000 0.00000 0.00000
  50 0.00000 0.00000 0.00000
  51 0.00000 0.00000 0.00000
  52 0.00000 0.00000 0.00000
  53 0.00000 0.00000 0.00000
  54 0.00000 0.00000 0.00000
  55 0.00000 0.00000 0.00000
  56 0.00000 0.00000 0.00000
  57 0.00000 0.00000 0.00000
  58 0.00000 0.00000 0.00000
  59 0.00000 0.00000 0.00000
  60 0.00000 0.00000 0.00000
  61 0.00000 0.00000 0.00000
  62 0.00000 0.00000 0.00000
  63 0.00000 0.00000 0.00000
  64 0.00000 0.00000 0.00000
  65 0.00000 0.00000 0.00000
  66 0.00000 0.00000 0.00000
  67 0.00000 0.00000 0.00000
  68 0.00000 0.00000 0.00000
  69 0.00000 0.00000 0.00000
  70 0.00000 0.00000 0.00000
  71 0.00000 0.00000 0.00000
  72 0.00000 0.00000 0.00000
  73 0.00000 0.00000 0.00000
  74 0.00000 0.00000 0.00000
  75 0.00000 0.00000 0.00000
  76 0.00000 0.00000 0.00000
  77 0.00000 0.00000 0.00000
  78 0.00000 0.00000 0.00000
  79 0.00000 0.00000 0.00000
  80 0.00000 0.00000 0.00000
  81 0.00000 0.00000 0.00000
  82 0.00000 0.00000 0.00000
  83 0.00000 0.00000 0.00000
  84 0.00000 0.00000 0.00000
  85 0.00000 0.00000 0.00000
  86 0.00000 0.00000 0.00000
  87 0.00000 0.00000 0.00000
  88 0.00000 0.00000 0.00000
  89 0.00000 0.00000 0.00000
  90 0.00000 0.00000 0.00000
  91 0.00000 0.00000 0.00000
  92 0.00000 0.00000 0.00000
  93 0.00000 0.00000 0.00000
  94 0.00000 0.00000 0.00000
  95 0.00000 0.00000 0.00000
  96 0.00000 0.00000 0.00000
  97 0.00000 0.00000 0.00000
  98 0.00000 0.00000 0.00000
  99 0.00000 0.00000 0.00000
  100 0.00000 0.00000 0.00000
  101 0.00000 0.00000 0.00000
  102 0.00000 0.00000 0.00000
  103 0.00000 0.00000 0.00000
  104 0.00000 0.00000 0.00000
  105 0.00000 0.00000 0.00000
  106 0.00000 0.00000 0.00000
  107 0.00000 0.00000 0.00000
  108 0.00000 0.00000 0.00000
  109 0.00000 0.00000 0.00000
  110 0.00000 0.00000 0.00000
  111 0.00000 0.00000 0.00000
  112 0.00000 0.00000 0.00000
  113 0.00000 0.00000 0.00000
  114 0.00000 0.00000 0.00000
  115 0.00000 0.00000 0.00000
  116 0.00000 0.00000 0.00000
  117 0.00000 0.00000 0.00000
  118 0.00000 0.00000 0.00000
  119 0.00000 0.00000 0.00000
  120 0.00000 0.00000 0.00000
  121 0.00000 0.00000 0.00000
  122 0.00000 0.00000 0.00000
  123 0.00000 0.00000 0.00000
  124 0.00000 0.00000 0.00000
  125 0.00000 0.00000 0.00000
  126 0.00000 0.00000 0.00000
  127 0.00000 0.00000 0.00000
  128 0.00000 0.00000 0.00000
  129 0.00000 0.00000 0.00000
  130 0.00000 0.00000 0.00000
  131 0.00000 0.00000 0.00000
  132 0.00000 0.00000 0.00000
  133 0.00000 0.00000 0.00000
  134 0.00000 0.00000 0.00000
  135 0.00000 0.00000 0.00000
  136 0.00000 0.00000 0.00000
  137 0.00000 0.00000 0.00000
  138 0.00000 0.00000 0.00000
  139 0.00000 0.00000 0.00000
  140 0.00000 0.00000 0.00000
  141 0.00000 0.00000 0.00000
  142 0.00000 0.00000 0.00000
  143 0.00000 0.00000 0.00000
  144 0.00000 0.00000 0.00000
  145 0.00000 0.00000 0.00000
  146 0.00000 0.00000 0.00000
  147 0.00000 0.00000 0.00000
  148 0.00000 0.00000 0.00000
  149 0.00000 0.00000 0.00000
  150 0.00000 0.00000 0.00000
  151 0.00000 0.00000 0.00000
  152 0.00000 0.00000 0.00000
  153 0.00000 0.00000 0.00000
  154 0.00000 0.00000 0.00000
  155 0.00000 0.00000 0.00000
  156 0.00000 0.00000 0.00000
  157 0.00000 0.00000 0.00000
  158 0.00000 0.00000 0.00000
  159 0.00000 0.00000 0.00000
  160 0.00000 0.00000 0.00000
  161 0.00000 0.00000 0.00000
  162 0.00000 0.00000 0.00000
  163 0.00000 0.00000 0.00000
  164 0.00000 0.00000 0.00000
  165 0.00000 0.00000 0.00000
  166 0.00000 0.00000 0.00000
  167 0.00000 0.00000 0.00000
  168 0.00000 0.00000 0.00000
  169 0.00000 0.00000 0.00000
  170 0.00000 0.00000 0.00000
  171 0.00000 0.00000 0.00000
  172 0.00000 0.00000 0.00000
  173 0.00000 0.00000 0.00000
  174 0.00000 0.00000 0.00000
  175 0.00000 0.00000 0.00000
  176 0.00000 0.00000 0.00000
  177 0.00000 0.00000 0.00000
  178 0.00000 0.00000 0.00000
  179 0.00000 0.00000 0.00000
  180 0.00000 0.00000 0.00000
  181 0.00000 0.00000 0.00000
  182 0.00000 0.00000 0.00000
  183 0.00000 0.00000 0.00000
  184 0.00000 0.00000 0.00000
  185 0.00000 0.00000 0.00000
  186 0.00000 0.00000 0.00000
  187 0.00000 0.00000 0.00000
  188 0.00000 0.00000 0.00000
  189 0.00000 0.00000 0.00000
  190 0.00000 0.00000 0.00000
  191 0.00000 0.00000 0.00000
  192 0.00000 0.00000 0.00000
  193 0.00000 0.00000 0.00000
  194 0.00000 0.00000 0.00000
  195 0.00000 0.00000 0.00000
  196 0.00000 0.00000 0.00000
  197 0.00000 0.00000 0.00000
  198 0.00000 0.00000 0.00000
  199 0.00000 0.00000 0.00000
  200 0.00000 0.00000 0.00000
  201 0.00000 0.00000 0.00000
  202 0.00000 0.00000 0.00000
  203 0.00000 0.00000 0.00000
  204 0.00000 0.00000 0.00000
  205 0.00000 0.00000 0.00000
  206 0.00000 0.00000 0.00000
  207 0.00000 0.00000 0.00000
  208 0.00000 0.00000 0.00000
  209 0.00000 0.00000 0.00000
  210 0.00000 0.00000 0.00000
  211 0.00000 0.00000 0.00000
  212 0.00000 0.00000 0.00000
  213 0.00000 0.00000 0.00000
  214 0.00000 0.00000 0.00000
  215 0.00000 0.00000 0.00000
  216 0.00000 0.00000 0.00000
  217 0.00000 0.00000 0.00000
  218 0.00000 0.00000 0.00000
  219 0.00000 0.00000 0.00000
  220 0.00000 0.00000 0.00000
  221 0.00000 0.00000 0.00000
  222 0.00000 0.00000 0.00000
  223 0.00000 0.00000 0.00000
  224 0.00000 0.00000 0.00000
  225 0.00000 0.00000 0.00000
  226 0.00000 0.00000 0.00000
  227 0.00000 0.00000 0.00000
  228 0.00000 0.00000 0.00000
  229 0.00000 0.00000 0.00000
  230 0.00000 0.00000 0.00000
  231 0.00000 0.00000 0.00000
  232 0.00000 0.00000 0.00000
  233 0.00000 0.00000 0.00000
  234 0.00000 0.00000 0.00000
  235 0.00000 0.00000 0.00000
  236 0.00000 0.00000 0.00000
  237 0.00000 0.00000 0.00000
  238 0.00000 0.00000 0.00000
  239 0.00000 0.00000 0.00000
  240 0.00000 0.00000 0.00000
  241 0.00000 0.00000 0.00000
</Section>

newXOutput 177

<Section columns = "stress_xx | stress_yy | stress_xy">
  1 0.00000 0.00000 0.00000
  2 0.00000 0.00000 0.00000
  3 0.00000 0.00000 0.00000
  4 0.00000 0.00000 0.00000
  5 0.00000 0.00000 0.00000
  6 0.00000 0.00000 0.00000
  7 0.00000 0.00000 0.00000
  8 0.00000 0.00000 0.00000
  9 0.00000 0.00000 0.00000
  10 0.00000 0.00000 0.00000
  11 0.00000 0.00000 0.00000
  12 0.00000 0.00000 0.00000
  13 0.00000 0.00000 0.00000
  14 0.00000 0.00000 0.00000
  15 0.00000 0.00000 0.00000
  16 0.00000 0.00000 0.00000
  17 0.00000 0.00000 0.00000
  18 0.00000 0.00000 0.00000
  19 0.00000 0.00000 0.00000
  20 0.00000 0.00000 0.00000
  21 0.00000 0.00000 0.00000
  22 0.00000 0.00000 0.00000
  23 0.00000 0.00000 0.00000
  24 0.00000 0.00000 0.00000
  25 0.00000 0.00000 0.00000
  26 0.00000 0.00000 0.00000
  27 0.00000 0.00000 0.00000
  28 0.00000 0.00000 0.00000
  29 0.00000 0.00000 0.00000
  30 0.00000 0.00000 0.00000
  31 0.00000 0.00000 0.00000
  32 0.00000 0.00000 0.00000
  33 0.00000 0.00000 0.00000
  34 0.00000 0.00000 0.00000
  35 0.00000 0.00000 0.00000
  36 0.00000 0.00000 0.00000
  37 0.00000 0.00000 0.00000
  38 0.00000 0.00000 0.00000
  39 0.00000 0.00000 0.00000
  40 0.00000 0.00000 0.00000
  41 0.00000 0.00000 0.00000
  42 0.00000 0.00000 0.00000
  43 0.00000 0.00000 0.00000
  44 0.00000 0.00000 0.00000
  45 0.00000 0.00000 0.00000
  46 0.00000 0.00000 0.00000
  47 0.00000 0.00000 0.00000
  48 0.00000 0.00000 0.00000
  49 0.00000 0.00000 0.00000
  50 0.00000 0.00000 0.00000
  51 0.00000 0.00000 0.00000
  52 0.00000 0.00000 0.00000
  53 0.00000 0.00000 0.00000
  54 0.00000 0.00000 0.00000
  55 0.00000 0.00000 0.00000
  56 0.00000 0.00000 0.00000
  57 0.00000 0.00000 0.00000
  58 0.00000 0.00000 0.00000
  59 0.00000 0.00000 0.00000
  60 0.00000 0.00000 0.00000
  61 0.00000 0.00000 0.00000
  62 0.00000 0.00000 0.00000
  63 0.00000 0.00000 0.00000
  64 0.00000 0.00000 0.00000
  65 0.00000 0.00000 0.00000
  66 0.00000 0.00000 0.00000
  67 0.00000 0.00000 0.00000
  68 0.00000 0.00000 0.00000
  69 0.00000 0.00000 0.00000
  70 0.00000 0.00000 0.00000
  71 0.00000 0.00000 0.00000
  72 0.00000 0.00000 0.00000
  73 0.00000 0.00000 0.00000
  74 0.00000 0.00000 0.00000
  75 0.00000 0.00000 0.00000
  76 0.00000 0.00000 0.00000
  77 0.00000 0.00000 0.00000
  78 0.00000 0.00000 0.00000
  79 0.00000 0.00000 0.00000
  80 0.00000 0.00000 0.00000
  81 0.00000 0.00000 0.00000
  82 0.00000 0.00000 0.00000
  83 0.00000 0.00000 0.00000
  84 0.00000 0.00000 0.00000
  85 0.00000 0.00000 0.00000
  86 0.00000 0.00000 0.00000
  87 0.00000 0.00000 0.00000
  88 0.00000 0.00000 0.00000
  89 0.00000 0.00000 0.00000
  90 0.00000 0.00000 0.00000
  91 0.00000 0.00000 0.00000
  92 0.00000 0.00000 0.00000
  93 0.00000 0.00000 0.00000
  94 0.00000 0.00000 0.00000
  95 0.00000 0.00000 0.00000
  96 0.00000 0.00000 0.00000
  97 0.00000 0.00000 0.00000
  98 0.00000 0.00000 0.00000
  99 0.00000 0.00000 0.00000
  100 0.00000 0.00000 0.00000
  101 0.00000 0.00000 0.00000
  102 0.00000 0.00000 0.00000
  103 0.00000 0.00000 0.00000
  104 0.00000 0.00000 0.00000
  105 0.00000 0.00000 0.00000
  106 0.00000 0.00000 0.00000
  107 0.00000 0.00000 0.00000
  108 0.00000 0.00000 0.00000
  109 0.00000 0.00000 0.00000
  110 0.00000 0.00000 0.00000
  111 0.00000 0.00000 0.00000
  112 0.00000 0.00000 0.00000
  113 0.00000 0.00000 0.00000
  114 0.00000 0.00000 0.00000
  115 0.00000 0.00000 0.00000
  116 0.00000 0.00000 0.00000
  117 0.00000 0.00000 0.00000
  118 0.00000 0.00000 0.00000
  119 0.00000 0.00000 0.00000
  120 0.00000 0.00000 0.00000
  121 0.00000 0.00000 0.00000
  122 0.00000 0.00000 0.00000
  123 0.00000 0.00000 0.00000
  124 0.00000 0.00000 0.00000
  125 0.00000 0.00000 0.00000
  126 0.00000 0.00000 0.00000
  127 0.00000 0.00000 0.00000
  128 0.00000 0.00000 0.00000
  129 0.00000 0.00000 0.00000
  130 0.00000 0.00000 0.00000
  131 0.00000 0.00000 0.00000
  132 0.00000 0.00000 0.00000
  133 0.00000 0.00000 0.00000
  134 0.00000 0.00000 0.00000
  135 0.00000 0.00000 0.00000
  136 0.00000 0.00000 0.00000
  137 0.00000 0.00000 0.00000
  138 0.00000 0.00000 0.00000
  139 0.00000 0.00000 0.00000
  140 0.00000 0.00000 0.00000
  141 0.00000 0.00000 0.00000
  142 0.00000 0.00000 0.00000
  143 0.00000 0.00000 0.00000
  144 0.00000 0.00000 0.00000
  145 0.00000 0.00000 0.00000
  146 0.00000 0.00000 0.00000
  147 0.00000 0.00000 0.00000
  148 0.00000 0.00000 0.00000
  149 0.00000 0.00000 0.00000
  150 0.00000 0.00000 0.00000
  151 0.00000 0.00000 0.00000
  152 0.00000 0.00000 0.00000
  153 0.00000 0.00000 0.00000
  154 0.00000 0.00000 0.00000
  155 0.00000 0.00000 0.00000
  156 0.00000 0.00000 0.00000
  157 0.00000 0.00000 0.00000
  158 0.00000 0.00000 0.00000
  159 0.00000 0.00000 0.00000
  160 0.00000 0.00000 0.00000
  161 0.00000 0.00000 0.00000
  162 0.00000 0.00000 0.00000
  163 0.00000 0.00000 0.00000
  164 0.00000 0.00000 0.00000
  165 0.00000 0.00000 0.00000
  166 0.00000 0.00000 0.00000
  167 0.00000 0.00000 0.00000
  168 0.00000 0.00000 0.00000
  169 0.00000 0.00000 0.00000
  170 0.00000 0.00000 0.00000
  171 0.00000 0.00000 0.00000
  172 0.00000 0.00000 0.00000
  173 0.00000 0.00000 0.00000
  174 0.00000 0.00000 0.00000
  175 0.00000 0.00000 0.00000
  176 0.00000 0.00000 0.00000
  177 0.00000 0.00000 0.00000
  178 0.00000 0.00000 0.00000
  179 0.00000 0.00000 0.00000
  180 0.00000 0.00000 0.00000
  181 0.00000 0.00000 0.00000
  182 0.00000 0.00000 0.00000
  183 0.00000 0.00000 0.00000
  184 0.00000 0.00000 0.00000
  185 0.00000 0.00000 0.00000
  186 0.00000 0.00000 0.00000
  187 0.00000 0.00000 0.00000
  188 0.00000 0.00000 0.00000
  189 0.00000 0.00000 0.00000
  190 0.00000 0.00000 0.00000
  191 0.00000 0.00000 0.00000
  192 0.00000 0.00000 0.00000
  193 0.00000 0.00000 0.00000
  194 0.00000 0.00000 0.00000
  195 0.00000 0.00000 0.00000
  196 0.00000 0.00000 0.00000
  197 0.00000 0.00000 0.00000
  198 0.00000 0.00000 0.00000
  199 0.00000 0.00000 0.00000
  200 0.00000 0.00000 0.00000
  201 0.00000 0.00000 0.00000
  202 0.00000 0.00000 0.00000
  203 0.00000 0.00000 0.00000
  204 0.00000 0.00000 0.00000
  205 0.00000 0.00000 0.00000
  206 0.00000 0.00000 0.00000
  207 0.00000 0.00000 0.00000
  208 0.00000 0.00000 0.00000
  209 0.00000 0.00000 0.00000
  210 0.00000 0.00000 0.00000
  211 0.00000 0.00000 0.00000
  212 0.00000 0.00000 0.00000
  213 0.00000 0.00000 0.00000
  214 0.00000 0.00000 0.00000
  215 0.00000 0.00000 0.00000
  216 0.00000 0.00000 0.00000
  217 0.00000 0.00000 0.00000
  218 0.00000 0.00000 0.00000
  219 0.00000 0.00000 0.00000
  220 0.00000 0.00000 0.00000
  221 0.00000 0.00000 0.00000
  222 0.00000 0.00000 0.00000
  223 0.00000 0.00000 0.00000
  224 0.00000 0.00000 0.00000
  225 0.00000 0.00000 0.00000
  226 0.00000 0.00000 0.00000
  227 0.00000 0.00000 0.00000
  228 0.00000 0.00000 0.00000
  229 0.00000 0.00000 0.00000
  230 0.00000 0.00000 0.00000
  231 0.00000 0.00000 0.00000
  232 0.00000 0.00000 0.00000
  233 0.00000 0.00000 0.00000
  234 0.00000 0.00000 0.00000
  235 0.00000 0.00000 0.00000
  236 0.00000 0.00000 0.00000
  237 0.00000 0.00000 0.00000
  238 0.00000 0.00000 0.00000
  239 0.00000 0.00000 0.00000
  240 0.00000 0.00000 0.00000
  241 0.00000 0.00000 0.00000
</Section>

newXOutput 178

<Section columns = "stress_xx | stress_yy | stress_xy">
  1 0.00000 0.00000 0.00000
  2 0.00000 0.00000 0.00000
  3 0.00000 0.00000 0.00000
  4 0.00000 0.00000 0.00000
  5 0.00000 0.00000 0.00000
  6 0.00000 0.00000 0.00000
  7 0.00000 0.00000 0.00000
  8 0.00000 0.00000 0.00000
  9 0.00000 0.00000 0.00000
  10 0.00000 0.00000 0.00000
  11 0.00000 0.00000 0.00000
  12 0.00000 0.00000 0.00000
  13 0.00000 0.00000 0.00000
  14 0.00000 0.00000 0.00000
  15 0.00000 0.00000 0.00000
  16 0.00000 0.00000 0.00000
  17 0.00000 0.00000 0.00000
  18 0.00000 0.00000 0.00000
  19 0.00000 0.00000 0.00000
  20 0.00000 0.00000 0.00000
  21 0.00000 0.00000 0.00000
  22 0.00000 0.00000 0.00000
  23 0.00000 0.00000 0.00000
  24 0.00000 0.00000 0.00000
  25 0.00000 0.00000 0.00000
  26 0.00000 0.00000 0.00000
  27 0.00000 0.00000 0.00000
  28 0.00000 0.00000 0.00000
  29 0.00000 0.00000 0.00000
  30 0.00000 0.00000 0.00000
  31 0.00000 0.00000 0.00000
  32 0.00000 0.00000 0.00000
  33 0.00000 0.00000 0.00000
  34 0.00000 0.00000 0.00000
  35 0.00000 0.00000 0.00000
  36 0.00000 0.00000 0.00000
  37 0.00000 0.00000 0.00000
  38 0.00000 0.00000 0.00000
  39 0.00000 0.00000 0.00000
  40 0.00000 0.00000 0.00000
  41 0.00000 0.00000 0.00000
  42 0.00000 0.00000 0.00000
  43 0.00000 0.00000 0.00000
  44 0.00000 0.00000 0.00000
  45 0.00000 0.00000 0.00000
  46 0.00000 0.00000 0.00000
  47 0.00000 0.00000 0.00000
  48 0.00000 0.00000 0.00000
  49 0.00000 0.00000 0.00000
  50 0.00000 0.00000 0.00000
  51 0.00000 0.00000 0.00000
  52 0.00000 0.00000 0.00000
  53 0.00000 0.00000 0.00000
  54 0.00000 0.00000 0.00000
  55 0.00000 0.00000 0.00000
  56 0.00000 0.00000 0.00000
  57 0.00000 0.00000 0.00000
  58 0.00000 0.00000 0.00000
  59 0.00000 0.00000 0.00000
  60 0.00000 0.00000 0.00000
  61 0.00000 0.00000 0.00000
  62 0.00000 0.00000 0.00000
  63 0.00000 0.00000 0.00000
  64 0.00000 0.00000 0.00000
  65 0.00000 0.00000 0.00000
  66 0.00000 0.00000 0.00000
  67 0.00000 0.00000 0.00000
  68 0.00000 0.00000 0.00000
  69 0.00000 0.00000 0.00000
  70 0.00000 0.00000 0.00000
  71 0.00000 0.00000 0.00000
  72 0.00000 0.00000 0.00000
  73 0.00000 0.00000 0.00000
  74 0.00000 0.00000 0.00000
  75 0.00000 0.00000 0.00000
  76 0.00000 0.00000 0.00000
  77 0.00000 0.00000 0.00000
  78 0.00000 0.00000 0.00000
  79 0.00000 0.00000 0.00000
  80 0.00000 0.00000 0.00000
  81 0.00000 0.00000 0.00000
  82 0.00000 0.00000 0.00000
  83 0.00000 0.00000 0.00000
  84 0.00000 0.00000 0.00000
  85 0.00000 0.00000 0.00000
  86 0.00000 0.00000 0.00000
  87 0.00000 0.00000 0.00000
  88 0.00000 0.00000 0.00000
  89 0.00000 0.00000 0.00000
  90 0.00000 0.00000 0.00000
  91 0.00000 0.00000 0.00000
  92 0.00000 0.00000 0.00000
  93 0.00000 0.00000 0.00000
  94 0.00000 0.00000 0.00000
  95 0.00000 0.00000 0.00000
  96 0.00000 0.00000 0.00000
  97 0.00000 0.00000 0.00000
  98 0.00000 0.00000 0.00000
  99 0.00000 0.00000 0.00000
  100 0.00000 0.00000 0.00000
  101 0.00000 0.00000 0.00000
  102 0.00000 0.00000 0.00000
  103 0.00000 0.00000 0.00000
  104 0.00000 0.00000 0.00000
  105 0.00000 0.00000 0.00000
  106 0.00000 0.00000 0.00000
  107 0.00000 0.00000 0.00000
  108 0.00000 0.00000 0.00000
  109 0.00000 0.00000 0.00000
  110 0.00000 0.00000 0.00000
  111 0.00000 0.00000 0.00000
  112 0.00000 0.00000 0.00000
  113 0.00000 0.00000 0.00000
  114 0.00000 0.00000 0.00000
  115 0.00000 0.00000 0.00000
  116 0.00000 0.00000 0.00000
  117 0.00000 0.00000 0.00000
  118 0.00000 0.00000 0.00000
  119 0.00000 0.00000 0.00000
  120 0.00000 0.00000 0.00000
  121 0.00000 0.00000 0.00000
  122 0.00000 0.00000 0.00000
  123 0.00000 0.00000 0.00000
  124 0.00000 0.00000 0.00000
  125 0.00000 0.00000 0.00000
  126 0.00000 0.00000 0.00000
  127 0.00000 0.00000 0.00000
  128 0.00000 0.00000 0.00000
  129 0.00000 0.00000 0.00000
  130 0.00000 0.00000 0.00000
  131 0.00000 0.00000 0.00000
  132 0.00000 0.00000 0.00000
  133 0.00000 0.00000 0.00000
  134 0.00000 0.00000 0.00000
  135 0.00000 0.00000 0.00000
  136 0.00000 0.00000 0.00000
  137 0.00000 0.00000 0.00000
  138 0.00000 0.00000 0.00000
  139 0.00000 0.00000 0.00000
  140 0.00000 0.00000 0.00000
  141 0.00000 0.00000 0.00000
  142 0.00000 0.00000 0.00000
  143 0.00000 0.00000 0.00000
  144 0.00000 0.00000 0.00000
  145 0.00000 0.00000 0.00000
  146 0.00000 0.00000 0.00000
  147 0.00000 0.00000 0.00000
  148 0.00000 0.00000 0.00000
  149 0.00000 0.00000 0.00000
  150 0.00000 0.00000 0.00000
  151 0.00000 0.00000 0.00000
  152 0.00000 0.00000 0.00000
  153 0.00000 0.00000 0.00000
  154 0.00000 0.00000 0.00000
  155 0.00000 0.00000 0.00000
  156 0.00000 0.00000 0.00000
  157 0.00000 0.00000 0.00000
  158 0.00000 0.00000 0.00000
  159 0.00000 0.00000 0.00000
  160 0.00000 0.00000 0.00000
  161 0.00000 0.00000 0.00000
  162 0.00000 0.00000 0.00000
  163 0.00000 0.00000 0.00000
  164 0.00000 0.00000 0.00000
  165 0.00000 0.00000 0.00000
  166 0.00000 0.00000 0.00000
  167 0.00000 0.00000 0.00000
  168 0.00000 0.00000 0.00000
  169 0.00000 0.00000 0.00000
  170 0.00000 0.00000 0.00000
  171 0.00000 0.00000 0.00000
  172 0.00000 0.00000 0.00000
  173 0.00000 0.00000 0.00000
  174 0.00000 0.00000 0.00000
  175 0.00000 0.00000 0.00000
  176 0.00000 0.00000 0.00000
  177 0.00000 0.00000 0.00000
  178 0.00000 0.00000 0.00000
  179 0.00000 0.00000 0.00000
  180 0.00000 0.00000 0.00000
  181 0.00000 0.00000 0.00000
  182 0.00000 0.00000 0.00000
  183 0.00000 0.00000 0.00000
  184 0.00000 0.00000 0.00000
  185 0.00000 0.00000 0.00000
  186 0.00000 0.00000 0.00000
  187 0.00000 0.00000 0.00000
  188 0.00000 0.00000 0.00000
  189 0.00000 0.00000 0.00000
  190 0.00000 0.00000 0.00000
  191 0.00000 0.00000 0.00000
  192 0.00000 0.00000 0.00000
  193 0.00000 0.00000 0.00000
  194 0.00000 0.00000 0.00000
  195 0.00000 0.00000 0.00000
  196 0.00000 0.00000 0.00000
  197 0.00000 0.00000 0.00000
  198 0.00000 0.00000 0.00000
  199 0.00000 0.00000 0.00000
  200 0.00000 0.00000 0.00000
  201 0.00000 0.00000 0.00000
  202 0.00000 0.00000 0.00000
  203 0.00000 0.00000 0.00000
  204 0.00000 0.00000 0.00000
  205 0.00000 0.00000 0.00000
  206 0.00000 0.00000 0.00000
  207 0.00000 0.00000 0.00000
  208 0.00000 0.00000 0.00000
  209 0.00000 0.00000 0.00000
  210 0.00000 0.00000 0.00000
  211 0.00000 0.00000 0.00000
  212 0.00000 0.00000 0.00000
  213 0.00000 0.00000 0.00000
  214 0.00000 0.00000 0.00000
  215 0.00000 0.00000 0.00000
  216 0.00000 0.00000 0.00000
  217 0.00000 0.00000 0.00000
  218 0.00000 0.00000 0.00000
  219 0.00000 0.00000 0.00000
  220 0.00000 0.00000 0.00000
  221 0.00000 0.00000 0.00000
  222 0.00000 0.00000 0.00000
  223 0.00000 0.00000 0.00000
  224 0.00000 0.00000 0.00000
  225 0.00000 0.00000 0.00000
  226 0.00000 0.00000 0.00000
  227 0.00000 0.00000 0.00000
  228 0.00000 0.00000 0.00000
  229 0.00000 0.00000 0.00000
  230 0.00000 0.00000 0.00000
  231 0.00000 0.00000 0.00000
  232 0.00000 0.00000 0.00000
  233 0.00000 0.00000 0.00000
  234 0.00000 0.00000 0.00000
  235 0.00000 0.00000 0.00000
  236 0.00000 0.00000 0.00000
  237 0.00000 0.00000 0.00000
  238 0.00000 0.00000 0.00000
  239 0.00000 0.00000 0.00000
  240 0.00000 0.00000 0.00000
  241 0.00000 0.00000 0.00000
</Section>

newXOutput 179

<Section columns = "stress_xx | stress_yy | stress_xy">
  1 0.00000 0.00000 0.00000
  2 0.00000 0.00000 0.00000
  3 0.00000 0.00000 0.00000
  4 0.00000 0.00000 0.00000
  5 0.00000 0.00000 0.00000
  6 0.00000 0.00000 0.00000
  7 0.00000 0.00000 0.00000
  8 0.00000 0.00000 0.00000
  9 0.00000 0.00000 0.00000
  10 0.00000 0.00000 0.00000
  11 0.00000 0.00000 0.00000
  12 0.00000 0.00000 0.00000
  13 0.00000 0.00000 0.00000
  14 0.00000 0.00000 0.00000
  15 0.00000 0.00000 0.00000
  16 0.00000 0.00000 0.00000
  17 0.00000 0.00000 0.00000
  18 0.00000 0.00000 0.00000
  19 0.00000 0.00000 0.00000
  20 0.00000 0.00000 0.00000
  21 0.00000 0.00000 0.00000
  22 0.00000 0.00000 0.00000
  23 0.00000 0.00000 0.00000
  24 0.00000 0.00000 0.00000
  25 0.00000 0.00000 0.00000
  26 0.00000 0.00000 0.00000
  27 0.00000 0.00000 0.00000
  28 0.00000 0.00000 0.00000
  29 0.00000 0.00000 0.00000
  30 0.00000 0.00000 0.00000
  31 0.00000 0.00000 0.00000
  32 0.00000 0.00000 0.00000
  33 0.00000 0.00000 0.00000
  34 0.00000 0.00000 0.00000
  35 0.00000 0.00000 0.00000
  36 0.00000 0.00000 0.00000
  37 0.00000 0.00000 0.00000
  38 0.00000 0.00000 0.00000
  39 0.00000 0.00000 0.00000
  40 0.00000 0.00000 0.00000
  41 0.00000 0.00000 0.00000
  42 0.00000 0.00000 0.00000
  43 0.00000 0.00000 0.00000
  44 0.00000 0.00000 0.00000
  45 0.00000 0.00000 0.00000
  46 0.00000 0.00000 0.00000
  47 0.00000 0.00000 0.00000
  48 0.00000 0.00000 0.00000
  49 0.00000 0.00000 0.00000
  50 0.00000 0.00000 0.00000
  51 0.00000 0.00000 0.00000
  52 0.00000 0.00000 0.00000
  53 0.00000 0.00000 0.00000
  54 0.00000 0.00000 0.00000
  55 0.00000 0.00000 0.00000
  56 0.00000 0.00000 0.00000
  57 0.00000 0.00000 0.00000
  58 0.00000 0.00000 0.00000
  59 0.00000 0.00000 0.00000
  60 0.00000 0.00000 0.00000
  61 0.00000 0.00000 0.00000
  62 0.00000 0.00000 0.00000
  63 0.00000 0.00000 0.00000
  64 0.00000 0.00000 0.00000
  65 0.00000 0.00000 0.00000
  66 0.00000 0.00000 0.00000
  67 0.00000 0.00000 0.00000
  68 0.00000 0.00000 0.00000
  69 0.00000 0.00000 0.00000
  70 0.00000 0.00000 0.00000
  71 0.00000 0.00000 0.00000
  72 0.00000 0.00000 0.00000
  73 0.00000 0.00000 0.00000
  74 0.00000 0.00000 0.00000
  75 0.00000 0.00000 0.00000
  76 0.00000 0.00000 0.00000
  77 0.00000 0.00000 0.00000
  78 0.00000 0.00000 0.00000
  79 0.00000 0.00000 0.00000
  80 0.00000 0.00000 0.00000
  81 0.00000 0.00000 0.00000
  82 0.00000 0.00000 0.00000
  83 0.00000 0.00000 0.00000
  84 0.00000 0.00000 0.00000
  85 0.00000 0.00000 0.00000
  86 0.00000 0.00000 0.00000
  87 0.00000 0.00000 0.00000
  88 0.00000 0.00000 0.00000
  89 0.00000 0.00000 0.00000
  90 0.00000 0.00000 0.00000
  91 0.00000 0.00000 0.00000
  92 0.00000 0.00000 0.00000
  93 0.00000 0.00000 0.00000
  94 0.00000 0.00000 0.00000
  95 0.00000 0.00000 0.00000
  96 0.00000 0.00000 0.00000
  97 0.00000 0.00000 0.00000
  98 0.00000 0.00000 0.00000
  99 0.00000 0.00000 0.00000
  100 0.00000 0.00000 0.00000
  101 0.00000 0.00000 0.00000
  102 0.00000 0.00000 0.00000
  103 0.00000 0.00000 0.00000
  104 0.00000 0.00000 0.00000
  105 0.00000 0.00000 0.00000
  106 0.00000 0.00000 0.00000
  107 0.00000 0.00000 0.00000
  108 0.00000 0.00000 0.00000
  109 0.00000 0.00000 0.00000
  110 0.00000 0.00000 0.00000
  111 0.00000 0.00000 0.00000
  112 0.00000 0.00000 0.00000
  113 0.00000 0.00000 0.00000
  114 0.00000 0.00000 0.00000
  115 0.00000 0.00000 0.00000
  116 0.00000 0.00000 0.00000
  117 0.00000 0.00000 0.00000
  118 0.00000 0.00000 0.00000
  119 0.00000 0.00000 0.00000
  120 0.00000 0.00000 0.00000
  121 0.00000 0.00000 0.00000
  122 0.00000 0.00000 0.00000
  123 0.00000 0.00000 0.00000
  124 0.00000 0.00000 0.00000
  125 0.00000 0.00000 0.00000
  126 0.00000 0.00000 0.00000
  127 0.00000 0.00000 0.00000
  128 0.00000 0.00000 0.00000
  129 0.00000 0.00000 0.00000
  130 0.00000 0.00000 0.00000
  131 0.00000 0.00000 0.00000
  132 0.00000 0.00000 0.00000
  133 0.00000 0.00000 0.00000
  134 0.00000 0.00000 0.00000
  135 0.00000 0.00000 0.00000
  136 0.00000 0.00000 0.00000
  137 0.00000 0.00000 0.00000
  138 0.00000 0.00000 0.00000
  139 0.00000 0.00000 0.00000
  140 0.00000 0.00000 0.00000
  141 0.00000 0.00000 0.00000
  142 0.00000 0.00000 0.00000
  143 0.00000 0.00000 0.00000
  144 0.00000 0.00000 0.00000
  145 0.00000 0.00000 0.00000
  146 0.00000 0.00000 0.00000
  147 0.00000 0.00000 0.00000
  148 0.00000 0.00000 0.00000
  149 0.00000 0.00000 0.00000
  150 0.00000 0.00000 0.00000
  151 0.00000 0.00000 0.00000
  152 0.00000 0.00000 0.00000
  153 0.00000 0.00000 0.00000
  154 0.00000 0.00000 0.00000
  155 0.00000 0.00000 0.00000
  156 0.00000 0.00000 0.00000
  157 0.00000 0.00000 0.00000
  158 0.00000 0.00000 0.00000
  159 0.00000 0.00000 0.00000
  160 0.00000 0.00000 0.00000
  161 0.00000 0.00000 0.00000
  162 0.00000 0.00000 0.00000
  163 0.00000 0.00000 0.00000
  164 0.00000 0.00000 0.00000
  165 0.00000 0.00000 0.00000
  166 0.00000 0.00000 0.00000
  167 0.00000 0.00000 0.00000
  168 0.00000 0.00000 0.00000
  169 0.00000 0.00000 0.00000
  170 0.00000 0.00000 0.00000
  171 0.00000 0.00000 0.00000
  172 0.00000 0.00000 0.00000
  173 0.00000 0.00000 0.00000
  174 0.00000 0.00000 0.00000
  175 0.00000 0.00000 0.00000
  176 0.00000 0.00000 0.00000
  177 0.00000 0.00000 0.00000
  178 0.00000 0.00000 0.00000
  179 0.00000 0.00000 0.00000
  180 0.00000 0.00000 0.00000
  181 0.00000 0.00000 0.00000
  182 0.00000 0.00000 0.00000
  183 0.00000 0.00000 0.00000
  184 0.00000 0.00000 0.00000
  185 0.00000 0.00000 0.00000
  186 0.00000 0.00000 0.00000
  187 0.00000 0.00000 0.00000
  188 0.00000 0.00000 0.00000
  189 0.00000 0.00000 0.00000
  190 0.00000 0.00000 0.00000
  191 0.00000 0.00000 0.00000
  192 0.00000 0.00000 0.00000
  193 0.00000 0.00000 0.00000
  194 0.00000 0.00000 0.00000
  195 0.00000 0.00000 0.00000
  196 0.00000 0.00000 0.00000
  197 0.00000 0.00000 0.00000
  198 0.00000 0.00000 0.00000
  199 0.00000 0.00000 0.00000
  200 0.00000 0.00000 0.00000
  201 0.00000 0.00000 0.00000
  202 0.00000 0.00000 0.00000
  203 0.00000 0.00000 0.00000
  204 0.00000 0.00000 0.00000
  205 0.00000 0.00000 0.00000
  206 0.00000 0.00000 0.00000
  207 0.00000 0.00000 0.00000
  208 0.00000 0.00000 0.00000
  209 0.00000 0.00000 0.00000
  210 0.00000 0.00000 0.00000
  211 0.00000 0.00000 0.00000
  212 0.00000 0.00000 0.00000
  213 0.00000 0.00000 0.00000
  214 0.00000 0.00000 0.00000
  215 0.00000 0.00000 0.00000
  216 0.00000 0.00000 0.00000
  217 0.00000 0.00000 0.00000
  218 0.00000 0.00000 0.00000
  219 0.00000 0.00000 0.00000
  220 0.00000 0.00000 0.00000
  221 0.00000 0.00000 0.00000
  222 0.00000 0.00000 0.00000
  223 0.00000 0.00000 0.00000
  224 0.00000 0.00000 0.00000
  225 0.00000 0.00000 0.00000
  226 0.00000 0.00000 0.00000
  227 0.00000 0.00000 0.00000
  228 0.00000 0.00000 0.00000
  229 0.00000 0.00000 0.00000
  230 0.00000 0.00000 0.00000
  231 0.00000 0.00000 0.00000
  232 0.00000 0.00000 0.00000
  233 0.00000 0.00000 0.00000
  234 0.00000 0.00000 0.00000
  235 0.00000 0.00000 0.00000
  236 0.00000 0.00000 0.00000
  237 0.00000 0.00000 0.00000
  238 0.00000 0.00000 0.00000
  239 0.00000 0.00000 0.00000
  240 0.00000 0.00000 0.00000
  241 0.00000 0.00000 0.00000
</Section>

newXOutput 180

<Section columns = "stress_xx | stress_yy | stress_xy">
  1 0.00000 0.00000 0.00000
  2 0.00000 0.00000 0.00000
  3 0.00000 0.00000 0.00000
  4 0.00000 0.00000 0.00000
  5 0.00000 0.00000 0.00000
  6 0.00000 0.00000 0.00000
  7 0.00000 0.00000 0.00000
  8 0.00000 0.00000 0.00000
  9 0.00000 0.00000 0.00000
  10 0.00000 0.00000 0.00000
  11 0.00000 0.00000 0.00000
  12 0.00000 0.00000 0.00000
  13 0.00000 0.00000 0.00000
  14 0.00000 0.00000 0.00000
  15 0.00000 0.00000 0.00000
  16 0.00000 0.00000 0.00000
  17 0.00000 0.00000 0.00000
  18 0.00000 0.00000 0.00000
  19 0.00000 0.00000 0.00000
  20 0.00000 0.00000 0.00000
  21 0.00000 0.00000 0.00000
  22 0.00000 0.00000 0.00000
  23 0.00000 0.00000 0.00000
  24 0.00000 0.00000 0.00000
  25 0.00000 0.00000 0.00000
  26 0.00000 0.00000 0.00000
  27 0.00000 0.00000 0.00000
  28 0.00000 0.00000 0.00000
  29 0.00000 0.00000 0.00000
  30 0.00000 0.00000 0.00000
  31 0.00000 0.00000 0.00000
  32 0.00000 0.00000 0.00000
  33 0.00000 0.00000 0.00000
  34 0.00000 0.00000 0.00000
  35 0.00000 0.00000 0.00000
  36 0.00000 0.00000 0.00000
  37 0.00000 0.00000 0.00000
  38 0.00000 0.00000 0.00000
  39 0.00000 0.00000 0.00000
  40 0.00000 0.00000 0.00000
  41 0.00000 0.00000 0.00000
  42 0.00000 0.00000 0.00000
  43 0.00000 0.00000 0.00000
  44 0.00000 0.00000 0.00000
  45 0.00000 0.00000 0.00000
  46 0.00000 0.00000 0.00000
  47 0.00000 0.00000 0.00000
  48 0.00000 0.00000 0.00000
  49 0.00000 0.00000 0.00000
  50 0.00000 0.00000 0.00000
  51 0.00000 0.00000 0.00000
  52 0.00000 0.00000 0.00000
  53 0.00000 0.00000 0.00000
  54 0.00000 0.00000 0.00000
  55 0.00000 0.00000 0.00000
  56 0.00000 0.00000 0.00000
  57 0.00000 0.00000 0.00000
  58 0.00000 0.00000 0.00000
  59 0.00000 0.00000 0.00000
  60 0.00000 0.00000 0.00000
  61 0.00000 0.00000 0.00000
  62 0.00000 0.00000 0.00000
  63 0.00000 0.00000 0.00000
  64 0.00000 0.00000 0.00000
  65 0.00000 0.00000 0.00000
  66 0.00000 0.00000 0.00000
  67 0.00000 0.00000 0.00000
  68 0.00000 0.00000 0.00000
  69 0.00000 0.00000 0.00000
  70 0.00000 0.00000 0.00000
  71 0.00000 0.00000 0.00000
  72 0.00000 0.00000 0.00000
  73 0.00000 0.00000 0.00000
  74 0.00000 0.00000 0.00000
  75 0.00000 0.00000 0.00000
  76 0.00000 0.00000 0.00000
  77 0.00000 0.00000 0.00000
  78 0.00000 0.00000 0.00000
  79 0.00000 0.00000 0.00000
  80 0.00000 0.00000 0.00000
  81 0.00000 0.00000 0.00000
  82 0.00000 0.00000 0.00000
  83 0.00000 0.00000 0.00000
  84 0.00000 0.00000 0.00000
  85 0.00000 0.00000 0.00000
  86 0.00000 0.00000 0.00000
  87 0.00000 0.00000 0.00000
  88 0.00000 0.00000 0.00000
  89 0.00000 0.00000 0.00000
  90 0.00000 0.00000 0.00000
  91 0.00000 0.00000 0.00000
  92 0.00000 0.00000 0.00000
  93 0.00000 0.00000 0.00000
  94 0.00000 0.00000 0.00000
  95 0.00000 0.00000 0.00000
  96 0.00000 0.00000 0.00000
  97 0.00000 0.00000 0.00000
  98 0.00000 0.00000 0.00000
  99 0.00000 0.00000 0.00000
  100 0.00000 0.00000 0.00000
  101 0.00000 0.00000 0.00000
  102 0.00000 0.00000 0.00000
  103 0.00000 0.00000 0.00000
  104 0.00000 0.00000 0.00000
  105 0.00000 0.00000 0.00000
  106 0.00000 0.00000 0.00000
  107 0.00000 0.00000 0.00000
  108 0.00000 0.00000 0.00000
  109 0.00000 0.00000 0.00000
  110 0.00000 0.00000 0.00000
  111 0.00000 0.00000 0.00000
  112 0.00000 0.00000 0.00000
  113 0.00000 0.00000 0.00000
  114 0.00000 0.00000 0.00000
  115 0.00000 0.00000 0.00000
  116 0.00000 0.00000 0.00000
  117 0.00000 0.00000 0.00000
  118 0.00000 0.00000 0.00000
  119 0.00000 0.00000 0.00000
  120 0.00000 0.00000 0.00000
  121 0.00000 0.00000 0.00000
  122 0.00000 0.00000 0.00000
  123 0.00000 0.00000 0.00000
  124 0.00000 0.00000 0.00000
  125 0.00000 0.00000 0.00000
  126 0.00000 0.00000 0.00000
  127 0.00000 0.00000 0.00000
  128 0.00000 0.00000 0.00000
  129 0.00000 0.00000 0.00000
  130 0.00000 0.00000 0.00000
  131 0.00000 0.00000 0.00000
  132 0.00000 0.00000 0.00000
  133 0.00000 0.00000 0.00000
  134 0.00000 0.00000 0.00000
  135 0.00000 0.00000 0.00000
  136 0.00000 0.00000 0.00000
  137 0.00000 0.00000 0.00000
  138 0.00000 0.00000 0.00000
  139 0.00000 0.00000 0.00000
  140 0.00000 0.00000 0.00000
  141 0.00000 0.00000 0.00000
  142 0.00000 0.00000 0.00000
  143 0.00000 0.00000 0.00000
  144 0.00000 0.00000 0.00000
  145 0.00000 0.00000 0.00000
  146 0.00000 0.00000 0.00000
  147 0.00000 0.00000 0.00000
  148 0.00000 0.00000 0.00000
  149 0.00000 0.00000 0.00000
  150 0.00000 0.00000 0.00000
  151 0.00000 0.00000 0.00000
  152 0.00000 0.00000 0.00000
  153 0.00000 0.00000 0.00000
  154 0.00000 0.00000 0.00000
  155 0.00000 0.00000 0.00000
  156 0.00000 0.00000 0.00000
  157 0.00000 0.00000 0.00000
  158 0.00000 0.00000 0.00000
  159 0.00000 0.00000 0.00000
  160 0.00000 0.00000 0.00000
  161 0.00000 0.00000 0.00000
  162 0.00000 0.00000 0.00000
  163 0.00000 0.00000 0.00000
  164 0.00000 0.00000 0.00000
  165 0.00000 0.00000 0.00000
  166 0.00000 0.00000 0.00000
  167 0.00000 0.00000 0.00000
  168 0.00000 0.00000 0.00000
  169 0.00000 0.00000 0.00000
  170 0.00000 0.00000 0.00000
  171 0.00000 0.00000 0.00000
  172 0.00000 0.00000 0.00000
  173 0.00000 0.00000 0.00000
  174 0.00000 0.00000 0.00000
  175 0.00000 0.00000 0.00000
  176 0.00000 0.00000 0.00000
  177 0.00000 0.00000 0.00000
  178 0.00000 0.00000 0.00000
  179 0.00000 0.00000 0.00000
  180 0.00000 0.00000 0.00000
  181 0.00000 0.00000 0.00000
  182 0.00000 0.00000 0.00000
  183 0.00000 0.00000 0.00000
  184 0.00000 0.00000 0.00000
  185 0.00000 0.00000 0.00000
  186 0.00000 0.00000 0.00000
  187 0.00000 0.00000 0.00000
  188 0.00000 0.00000 0.00000
  189 0.00000 0.00000 0.00000
  190 0.00000 0.00000 0.00000
  191 0.00000 0.00000 0.00000
  192 0.00000 0.00000 0.00000
  193 0.00000 0.00000 0.00000
  194 0.00000 0.00000 0.00000
  195 0.00000 0.00000 0.00000
  196 0.00000 0.00000 0.00000
  197 0.00000 0.00000 0.00000
  198 0.00000 0.00000 0.00000
  199 0.00000 0.00000 0.00000
  200 0.00000 0.00000 0.00000
  201 0.00000 0.00000 0.00000
  202 0.00000 0.00000 0.00000
  203 0.00000 0.00000 0.00000
  204 0.00000 0.00000 0.00000
  205 0.00000 0.00000 0.00000
  206 0.00000 0.00000 0.00000
  207 0.00000 0.00000 0.00000
  208 0.00000 0.00000 0.00000
  209 0.00000 0.00000 0.00000
  210 0.00000 0.00000 0.00000
  211 0.00000 0.00000 0.00000
  212 0.00000 0.00000 0.00000
  213 0.00000 0.00000 0.00000
  214 0.00000 0.00000 0.00000
  215 0.00000 0.00000 0.00000
  216 0.00000 0.00000 0.00000
  217 0.00000 0.00000 0.00000
  218 0.00000 0.00000 0.00000
  219 0.00000 0.00000 0.00000
  220 0.00000 0.00000 0.00000
  221 0.00000 0.00000 0.00000
  222 0.00000 0.00000 0.00000
  223 0.00000 0.00000 0.00000
  224 0.00000 0.00000 0.00000
  225 0.00000 0.00000 0.00000
  226 0.00000 0.00000 0.00000
  227 0.00000 0.00000 0.00000
  228 0.00000 0.00000 0.00000
  229 0.00000 0.00000 0.00000
  230 0.00000 0.00000 0.00000
  231 0.00000 0.00000 0.00000
  232 0.00000 0.00000 0.00000
  233 0.00000 0.00000 0.00000
  234 0.00000 0.00000 0.00000
  235 0.00000 0.00000 0.00000
  236 0.00000 0.00000 0.00000
  237 0.00000 0.00000 0.00000
  238 0.00000 0.00000 0.00000
  239 0.00000 0.00000 0.00000
  240 0.00000 0.00000 0.00000
  241 0.00000 0.00000 0.00000
</Section>

newXOutput 181

<Section columns = "stress_xx | stress_yy | stress_xy">
  1 0.00000 0.00000 0.00000
  2 0.00000 0.00000 0.00000
  3 0.00000 0.00000 0.00000
  4 0.00000 0.00000 0.00000
  5 0.00000 0.00000 0.00000
  6 0.00000 0.00000 0.00000
  7 0.00000 0.00000 0.00000
  8 0.00000 0.00000 0.00000
  9 0.00000 0.00000 0.00000
  10 0.00000 0.00000 0.00000
  11 0.00000 0.00000 0.00000
  12 0.00000 0.00000 0.00000
  13 0.00000 0.00000 0.00000
  14 0.00000 0.00000 0.00000
  15 0.00000 0.00000 0.00000
  16 0.00000 0.00000 0.00000
  17 0.00000 0.00000 0.00000
  18 0.00000 0.00000 0.00000
  19 0.00000 0.00000 0.00000
  20 0.00000 0.00000 0.00000
  21 0.00000 0.00000 0.00000
  22 0.00000 0.00000 0.00000
  23 0.00000 0.00000 0.00000
  24 0.00000 0.00000 0.00000
  25 0.00000 0.00000 0.00000
  26 0.00000 0.00000 0.00000
  27 0.00000 0.00000 0.00000
  28 0.00000 0.00000 0.00000
  29 0.00000 0.00000 0.00000
  30 0.00000 0.00000 0.00000
  31 0.00000 0.00000 0.00000
  32 0.00000 0.00000 0.00000
  33 0.00000 0.00000 0.00000
  34 0.00000 0.00000 0.00000
  35 0.00000 0.00000 0.00000
  36 0.00000 0.00000 0.00000
  37 0.00000 0.00000 0.00000
  38 0.00000 0.00000 0.00000
  39 0.00000 0.00000 0.00000
  40 0.00000 0.00000 0.00000
  41 0.00000 0.00000 0.00000
  42 0.00000 0.00000 0.00000
  43 0.00000 0.00000 0.00000
  44 0.00000 0.00000 0.00000
  45 0.00000 0.00000 0.00000
  46 0.00000 0.00000 0.00000
  47 0.00000 0.00000 0.00000
  48 0.00000 0.00000 0.00000
  49 0.00000 0.00000 0.00000
  50 0.00000 0.00000 0.00000
  51 0.00000 0.00000 0.00000
  52 0.00000 0.00000 0.00000
  53 0.00000 0.00000 0.00000
  54 0.00000 0.00000 0.00000
  55 0.00000 0.00000 0.00000
  56 0.00000 0.00000 0.00000
  57 0.00000 0.00000 0.00000
  58 0.00000 0.00000 0.00000
  59 0.00000 0.00000 0.00000
  60 0.00000 0.00000 0.00000
  61 0.00000 0.00000 0.00000
  62 0.00000 0.00000 0.00000
  63 0.00000 0.00000 0.00000
  64 0.00000 0.00000 0.00000
  65 0.00000 0.00000 0.00000
  66 0.00000 0.00000 0.00000
  67 0.00000 0.00000 0.00000
  68 0.00000 0.00000 0.00000
  69 0.00000 0.00000 0.00000
  70 0.00000 0.00000 0.00000
  71 0.00000 0.00000 0.00000
  72 0.00000 0.00000 0.00000
  73 0.00000 0.00000 0.00000
  74 0.00000 0.00000 0.00000
  75 0.00000 0.00000 0.00000
  76 0.00000 0.00000 0.00000
  77 0.00000 0.00000 0.00000
  78 0.00000 0.00000 0.00000
  79 0.00000 0.00000 0.00000
  80 0.00000 0.00000 0.00000
  81 0.00000 0.00000 0.00000
  82 0.00000 0.00000 0.00000
  83 0.00000 0.00000 0.00000
  84 0.00000 0.00000 0.00000
  85 0.00000 0.00000 0.00000
  86 0.00000 0.00000 0.00000
  87 0.00000 0.00000 0.00000
  88 0.00000 0.00000 0.00000
  89 0.00000 0.00000 0.00000
  90 0.00000 0.00000 0.00000
  91 0.00000 0.00000 0.00000
  92 0.00000 0.00000 0.00000
  93 0.00000 0.00000 0.00000
  94 0.00000 0.00000 0.00000
  95 0.00000 0.00000 0.00000
  96 0.00000 0.00000 0.00000
  97 0.00000 0.00000 0.00000
  98 0.00000 0.00000 0.00000
  99 0.00000 0.00000 0.00000
  100 0.00000 0.00000 0.00000
  101 0.00000 0.00000 0.00000
  102 0.00000 0.00000 0.00000
  103 0.00000 0.00000 0.00000
  104 0.00000 0.00000 0.00000
  105 0.00000 0.00000 0.00000
  106 0.00000 0.00000 0.00000
  107 0.00000 0.00000 0.00000
  108 0.00000 0.00000 0.00000
  109 0.00000 0.00000 0.00000
  110 0.00000 0.00000 0.00000
  111 0.00000 0.00000 0.00000
  112 0.00000 0.00000 0.00000
  113 0.00000 0.00000 0.00000
  114 0.00000 0.00000 0.00000
  115 0.00000 0.00000 0.00000
  116 0.00000 0.00000 0.00000
  117 0.00000 0.00000 0.00000
  118 0.00000 0.00000 0.00000
  119 0.00000 0.00000 0.00000
  120 0.00000 0.00000 0.00000
  121 0.00000 0.00000 0.00000
  122 0.00000 0.00000 0.00000
  123 0.00000 0.00000 0.00000
  124 0.00000 0.00000 0.00000
  125 0.00000 0.00000 0.00000
  126 0.00000 0.00000 0.00000
  127 0.00000 0.00000 0.00000
  128 0.00000 0.00000 0.00000
  129 0.00000 0.00000 0.00000
  130 0.00000 0.00000 0.00000
  131 0.00000 0.00000 0.00000
  132 0.00000 0.00000 0.00000
  133 0.00000 0.00000 0.00000
  134 0.00000 0.00000 0.00000
  135 0.00000 0.00000 0.00000
  136 0.00000 0.00000 0.00000
  137 0.00000 0.00000 0.00000
  138 0.00000 0.00000 0.00000
  139 0.00000 0.00000 0.00000
  140 0.00000 0.00000 0.00000
  141 0.00000 0.00000 0.00000
  142 0.00000 0.00000 0.00000
  143 0.00000 0.00000 0.00000
  144 0.00000 0.00000 0.00000
  145 0.00000 0.00000 0.00000
  146 0.00000 0.00000 0.00000
  147 0.00000 0.00000 0.00000
  148 0.00000 0.00000 0.00000
  149 0.00000 0.00000 0.00000
  150 0.00000 0.00000 0.00000
  151 0.00000 0.00000 0.00000
  152 0.00000 0.00000 0.00000
  153 0.00000 0.00000 0.00000
  154 0.00000 0.00000 0.00000
  155 0.00000 0.00000 0.00000
  156 0.00000 0.00000 0.00000
  157 0.00000 0.00000 0.00000
  158 0.00000 0.00000 0.00000
  159 0.00000 0.00000 0.00000
  160 0.00000 0.00000 0.00000
  161 0.00000 0.00000 0.00000
  162 0.00000 0.00000 0.00000
  163 0.00000 0.00000 0.00000
  164 0.00000 0.00000 0.00000
  165 0.00000 0.00000 0.00000
  166 0.00000 0.00000 0.00000
  167 0.00000 0.00000 0.00000
  168 0.00000 0.00000 0.00000
  169 0.00000 0.00000 0.00000
  170 0.00000 0.00000 0.00000
  171 0.00000 0.00000 0.00000
  172 0.00000 0.00000 0.00000
  173 0.00000 0.00000 0.00000
  174 0.00000 0.00000 0.00000
  175 0.00000 0.00000 0.00000
  176 0.00000 0.00000 0.00000
  177 0.00000 0.00000 0.00000
  178 0.00000 0.00000 0.00000
  179 0.00000 0.00000 0.00000
  180 0.00000 0.00000 0.00000
  181 0.00000 0.00000 0.00000
  182 0.00000 0.00000 0.00000
  183 0.00000 0.00000 0.00000
  184 0.00000 0.00000 0.00000
  185 0.00000 0.00000 0.00000
  186 0.00000 0.00000 0.00000
  187 0.00000 0.00000 0.00000
  188 0.00000 0.00000 0.00000
  189 0.00000 0.00000 0.00000
  190 0.00000 0.00000 0.00000
  191 0.00000 0.00000 0.00000
  192 0.00000 0.00000 0.00000
  193 0.00000 0.00000 0.00000
  194 0.00000 0.00000 0.00000
  195 0.00000 0.00000 0.00000
  196 0.00000 0.00000 0.00000
  197 0.00000 0.00000 0.00000
  198 0.00000 0.00000 0.00000
  199 0.00000 0.00000 0.00000
  200 0.00000 0.00000 0.00000
  201 0.00000 0.00000 0.00000
  202 0.00000 0.00000 0.00000
  203 0.00000 0.00000 0.00000
  204 0.00000 0.00000 0.00000
  205 0.00000 0.00000 0.00000
  206 0.00000 0.00000 0.00000
  207 0.00000 0.00000 0.00000
  208 0.00000 0.00000 0.00000
  209 0.00000 0.00000 0.00000
  210 0.00000 0.00000 0.00000
  211 0.00000 0.00000 0.00000
  212 0.00000 0.00000 0.00000
  213 0.00000 0.00000 0.00000
  214 0.00000 0.00000 0.00000
  215 0.00000 0.00000 0.00000
  216 0.00000 0.00000 0.00000
  217 0.00000 0.00000 0.00000
  218 0.00000 0.00000 0.00000
  219 0.00000 0.00000 0.00000
  220 0.00000 0.00000 0.00000
  221 0.00000 0.00000 0.00000
  222 0.00000 0.00000 0.00000
  223 0.00000 0.00000 0.00000
  224 0.00000 0.00000 0.00000
  225 0.00000 0.00000 0.00000
  226 0.00000 0.00000 0.00000
  227 0.00000 0.00000 0.00000
  228 0.00000 0.00000 0.00000
  229 0.00000 0.00000 0.00000
  230 0.00000 0.00000 0.00000
  231 0.00000 0.00000 0.00000
  232 0.00000 0.00000 0.00000
  233 0.00000 0.00000 0.00000
  234 0.00000 0.00000 0.00000
  235 0.00000 0.00000 0.00000
  236 0.00000 0.00000 0.00000
  237 0.00000 0.00000 0.00000
  238 0.00000 0.00000 0.00000
  239 0.00000 0.00000 0.00000
  240 0.00000 0.00000 0.00000
  241 0.00000 0.00000 0.00000
</Section>

newXOutput 182

<Section columns = "stress_xx | stress_yy | stress_xy">
  1 0.00000 0.00000 0.00000
  2 0.00000 0.00000 0.00000
  3 0.00000 0.00000 0.00000
  4 0.00000 0.00000 0.00000
  5 0.00000 0.00000 0.00000
  6 0.00000 0.00000 0.00000
  7 0.00000 0.00000 0.00000
  8 0.00000 0.00000 0.00000
  9 0.00000 0.00000 0.00000
  10 0.00000 0.00000 0.00000
  11 0.00000 0.00000 0.00000
  12 0.00000 0.00000 0.00000
  13 0.00000 0.00000 0.00000
  14 0.00000 0.00000 0.00000
  15 0.00000 0.00000 0.00000
  16 0.00000 0.00000 0.00000
  17 0.00000 0.00000 0.00000
  18 0.00000 0.00000 0.00000
  19 0.00000 0.00000 0.00000
  20 0.00000 0.00000 0.00000
  21 0.00000 0.00000 0.00000
  22 0.00000 0.00000 0.00000
  23 0.00000 0.00000 0.00000
  24 0.00000 0.00000 0.00000
  25 0.00000 0.00000 0.00000
  26 0.00000 0.00000 0.00000
  27 0.00000 0.00000 0.00000
  28 0.00000 0.00000 0.00000
  29 0.00000 0.00000 0.00000
  30 0.00000 0.00000 0.00000
  31 0.00000 0.00000 0.00000
  32 0.00000 0.00000 0.00000
  33 0.00000 0.00000 0.00000
  34 0.00000 0.00000 0.00000
  35 0.00000 0.00000 0.00000
  36 0.00000 0.00000 0.00000
  37 0.00000 0.00000 0.00000
  38 0.00000 0.00000 0.00000
  39 0.00000 0.00000 0.00000
  40 0.00000 0.00000 0.00000
  41 0.00000 0.00000 0.00000
  42 0.00000 0.00000 0.00000
  43 0.00000 0.00000 0.00000
  44 0.00000 0.00000 0.00000
  45 0.00000 0.00000 0.00000
  46 0.00000 0.00000 0.00000
  47 0.00000 0.00000 0.00000
  48 0.00000 0.00000 0.00000
  49 0.00000 0.00000 0.00000
  50 0.00000 0.00000 0.00000
  51 0.00000 0.00000 0.00000
  52 0.00000 0.00000 0.00000
  53 0.00000 0.00000 0.00000
  54 0.00000 0.00000 0.00000
  55 0.00000 0.00000 0.00000
  56 0.00000 0.00000 0.00000
  57 0.00000 0.00000 0.00000
  58 0.00000 0.00000 0.00000
  59 0.00000 0.00000 0.00000
  60 0.00000 0.00000 0.00000
  61 0.00000 0.00000 0.00000
  62 0.00000 0.00000 0.00000
  63 0.00000 0.00000 0.00000
  64 0.00000 0.00000 0.00000
  65 0.00000 0.00000 0.00000
  66 0.00000 0.00000 0.00000
  67 0.00000 0.00000 0.00000
  68 0.00000 0.00000 0.00000
  69 0.00000 0.00000 0.00000
  70 0.00000 0.00000 0.00000
  71 0.00000 0.00000 0.00000
  72 0.00000 0.00000 0.00000
  73 0.00000 0.00000 0.00000
  74 0.00000 0.00000 0.00000
  75 0.00000 0.00000 0.00000
  76 0.00000 0.00000 0.00000
  77 0.00000 0.00000 0.00000
  78 0.00000 0.00000 0.00000
  79 0.00000 0.00000 0.00000
  80 0.00000 0.00000 0.00000
  81 0.00000 0.00000 0.00000
  82 0.00000 0.00000 0.00000
  83 0.00000 0.00000 0.00000
  84 0.00000 0.00000 0.00000
  85 0.00000 0.00000 0.00000
  86 0.00000 0.00000 0.00000
  87 0.00000 0.00000 0.00000
  88 0.00000 0.00000 0.00000
  89 0.00000 0.00000 0.00000
  90 0.00000 0.00000 0.00000
  91 0.00000 0.00000 0.00000
  92 0.00000 0.00000 0.00000
  93 0.00000 0.00000 0.00000
  94 0.00000 0.00000 0.00000
  95 0.00000 0.00000 0.00000
  96 0.00000 0.00000 0.00000
  97 0.00000 0.00000 0.00000
  98 0.00000 0.00000 0.00000
  99 0.00000 0.00000 0.00000
  100 0.00000 0.00000 0.00000
  101 0.00000 0.00000 0.00000
  102 0.00000 0.00000 0.00000
  103 0.00000 0.00000 0.00000
  104 0.00000 0.00000 0.00000
  105 0.00000 0.00000 0.00000
  106 0.00000 0.00000 0.00000
  107 0.00000 0.00000 0.00000
  108 0.00000 0.00000 0.00000
  109 0.00000 0.00000 0.00000
  110 0.00000 0.00000 0.00000
  111 0.00000 0.00000 0.00000
  112 0.00000 0.00000 0.00000
  113 0.00000 0.00000 0.00000
  114 0.00000 0.00000 0.00000
  115 0.00000 0.00000 0.00000
  116 0.00000 0.00000 0.00000
  117 0.00000 0.00000 0.00000
  118 0.00000 0.00000 0.00000
  119 0.00000 0.00000 0.00000
  120 0.00000 0.00000 0.00000
  121 0.00000 0.00000 0.00000
  122 0.00000 0.00000 0.00000
  123 0.00000 0.00000 0.00000
  124 0.00000 0.00000 0.00000
  125 0.00000 0.00000 0.00000
  126 0.00000 0.00000 0.00000
  127 0.00000 0.00000 0.00000
  128 0.00000 0.00000 0.00000
  129 0.00000 0.00000 0.00000
  130 0.00000 0.00000 0.00000
  131 0.00000 0.00000 0.00000
  132 0.00000 0.00000 0.00000
  133 0.00000 0.00000 0.00000
  134 0.00000 0.00000 0.00000
  135 0.00000 0.00000 0.00000
  136 0.00000 0.00000 0.00000
  137 0.00000 0.00000 0.00000
  138 0.00000 0.00000 0.00000
  139 0.00000 0.00000 0.00000
  140 0.00000 0.00000 0.00000
  141 0.00000 0.00000 0.00000
  142 0.00000 0.00000 0.00000
  143 0.00000 0.00000 0.00000
  144 0.00000 0.00000 0.00000
  145 0.00000 0.00000 0.00000
  146 0.00000 0.00000 0.00000
  147 0.00000 0.00000 0.00000
  148 0.00000 0.00000 0.00000
  149 0.00000 0.00000 0.00000
  150 0.00000 0.00000 0.00000
  151 0.00000 0.00000 0.00000
  152 0.00000 0.00000 0.00000
  153 0.00000 0.00000 0.00000
  154 0.00000 0.00000 0.00000
  155 0.00000 0.00000 0.00000
  156 0.00000 0.00000 0.00000
  157 0.00000 0.00000 0.00000
  158 0.00000 0.00000 0.00000
  159 0.00000 0.00000 0.00000
  160 0.00000 0.00000 0.00000
  161 0.00000 0.00000 0.00000
  162 0.00000 0.00000 0.00000
  163 0.00000 0.00000 0.00000
  164 0.00000 0.00000 0.00000
  165 0.00000 0.00000 0.00000
  166 0.00000 0.00000 0.00000
  167 0.00000 0.00000 0.00000
  168 0.00000 0.00000 0.00000
  169 0.00000 0.00000 0.00000
  170 0.00000 0.00000 0.00000
  171 0.00000 0.00000 0.00000
  172 0.00000 0.00000 0.00000
  173 0.00000 0.00000 0.00000
  174 0.00000 0.00000 0.00000
  175 0.00000 0.00000 0.00000
  176 0.00000 0.00000 0.00000
  177 0.00000 0.00000 0.00000
  178 0.00000 0.00000 0.00000
  179 0.00000 0.00000 0.00000
  180 0.00000 0.00000 0.00000
  181 0.00000 0.00000 0.00000
  182 0.00000 0.00000 0.00000
  183 0.00000 0.00000 0.00000
  184 0.00000 0.00000 0.00000
  185 0.00000 0.00000 0.00000
  186 0.00000 0.00000 0.00000
  187 0.00000 0.00000 0.00000
  188 0.00000 0.00000 0.00000
  189 0.00000 0.00000 0.00000
  190 0.00000 0.00000 0.00000
  191 0.00000 0.00000 0.00000
  192 0.00000 0.00000 0.00000
  193 0.00000 0.00000 0.00000
  194 0.00000 0.00000 0.00000
  195 0.00000 0.00000 0.00000
  196 0.00000 0.00000 0.00000
  197 0.00000 0.00000 0.00000
  198 0.00000 0.00000 0.00000
  199 0.00000 0.00000 0.00000
  200 0.00000 0.00000 0.00000
  201 0.00000 0.00000 0.00000
  202 0.00000 0.00000 0.00000
  203 0.00000 0.00000 0.00000
  204 0.00000 0.00000 0.00000
  205 0.00000 0.00000 0.00000
  206 0.00000 0.00000 0.00000
  207 0.00000 0.00000 0.00000
  208 0.00000 0.00000 0.00000
  209 0.00000 0.00000 0.00000
  210 0.00000 0.00000 0.00000
  211 0.00000 0.00000 0.00000
  212 0.00000 0.00000 0.00000
  213 0.00000 0.00000 0.00000
  214 0.00000 0.00000 0.00000
  215 0.00000 0.00000 0.00000
  216 0.00000 0.00000 0.00000
  217 0.00000 0.00000 0.00000
  218 0.00000 0.00000 0.00000
  219 0.00000 0.00000 0.00000
  220 0.00000 0.00000 0.00000
  221 0.00000 0.00000 0.00000
  222 0.00000 0.00000 0.00000
  223 0.00000 0.00000 0.00000
  224 0.00000 0.00000 0.00000
  225 0.00000 0.00000 0.00000
  226 0.00000 0.00000 0.00000
  227 0.00000 0.00000 0.00000
  228 0.00000 0.00000 0.00000
  229 0.00000 0.00000 0.00000
  230 0.00000 0.00000 0.00000
  231 0.00000 0.00000 0.00000
  232 0.00000 0.00000 0.00000
  233 0.00000 0.00000 0.00000
  234 0.00000 0.00000 0.00000
  235 0.00000 0.00000 0.00000
  236 0.00000 0.00000 0.00000
  237 0.00000 0.00000 0.00000
  238 0.00000 0.00000 0.00000
  239 0.00000 0.00000 0.00000
  240 0.00000 0.00000 0.00000
  241 0.00000 0.00000 0.00000
</Section>

newXOutput 183

<Section columns = "stress_xx | stress_yy | stress_xy">
  1 0.00000 0.00000 0.00000
  2 0.00000 0.00000 0.00000
  3 0.00000 0.00000 0.00000
  4 0.00000 0.00000 0.00000
  5 0.00000 0.00000 0.00000
  6 0.00000 0.00000 0.00000
  7 0.00000 0.00000 0.00000
  8 0.00000 0.00000 0.00000
  9 0.00000 0.00000 0.00000
  10 0.00000 0.00000 0.00000
  11 0.00000 0.00000 0.00000
  12 0.00000 0.00000 0.00000
  13 0.00000 0.00000 0.00000
  14 0.00000 0.00000 0.00000
  15 0.00000 0.00000 0.00000
  16 0.00000 0.00000 0.00000
  17 0.00000 0.00000 0.00000
  18 0.00000 0.00000 0.00000
  19 0.00000 0.00000 0.00000
  20 0.00000 0.00000 0.00000
  21 0.00000 0.00000 0.00000
  22 0.00000 0.00000 0.00000
  23 0.00000 0.00000 0.00000
  24 0.00000 0.00000 0.00000
  25 0.00000 0.00000 0.00000
  26 0.00000 0.00000 0.00000
  27 0.00000 0.00000 0.00000
  28 0.00000 0.00000 0.00000
  29 0.00000 0.00000 0.00000
  30 0.00000 0.00000 0.00000
  31 0.00000 0.00000 0.00000
  32 0.00000 0.00000 0.00000
  33 0.00000 0.00000 0.00000
  34 0.00000 0.00000 0.00000
  35 0.00000 0.00000 0.00000
  36 0.00000 0.00000 0.00000
  37 0.00000 0.00000 0.00000
  38 0.00000 0.00000 0.00000
  39 0.00000 0.00000 0.00000
  40 0.00000 0.00000 0.00000
  41 0.00000 0.00000 0.00000
  42 0.00000 0.00000 0.00000
  43 0.00000 0.00000 0.00000
  44 0.00000 0.00000 0.00000
  45 0.00000 0.00000 0.00000
  46 0.00000 0.00000 0.00000
  47 0.00000 0.00000 0.00000
  48 0.00000 0.00000 0.00000
  49 0.00000 0.00000 0.00000
  50 0.00000 0.00000 0.00000
  51 0.00000 0.00000 0.00000
  52 0.00000 0.00000 0.00000
  53 0.00000 0.00000 0.00000
  54 0.00000 0.00000 0.00000
  55 0.00000 0.00000 0.00000
  56 0.00000 0.00000 0.00000
  57 0.00000 0.00000 0.00000
  58 0.00000 0.00000 0.00000
  59 0.00000 0.00000 0.00000
  60 0.00000 0.00000 0.00000
  61 0.00000 0.00000 0.00000
  62 0.00000 0.00000 0.00000
  63 0.00000 0.00000 0.00000
  64 0.00000 0.00000 0.00000
  65 0.00000 0.00000 0.00000
  66 0.00000 0.00000 0.00000
  67 0.00000 0.00000 0.00000
  68 0.00000 0.00000 0.00000
  69 0.00000 0.00000 0.00000
  70 0.00000 0.00000 0.00000
  71 0.00000 0.00000 0.00000
  72 0.00000 0.00000 0.00000
  73 0.00000 0.00000 0.00000
  74 0.00000 0.00000 0.00000
  75 0.00000 0.00000 0.00000
  76 0.00000 0.00000 0.00000
  77 0.00000 0.00000 0.00000
  78 0.00000 0.00000 0.00000
  79 0.00000 0.00000 0.00000
  80 0.00000 0.00000 0.00000
  81 0.00000 0.00000 0.00000
  82 0.00000 0.00000 0.00000
  83 0.00000 0.00000 0.00000
  84 0.00000 0.00000 0.00000
  85 0.00000 0.00000 0.00000
  86 0.00000 0.00000 0.00000
  87 0.00000 0.00000 0.00000
  88 0.00000 0.00000 0.00000
  89 0.00000 0.00000 0.00000
  90 0.00000 0.00000 0.00000
  91 0.00000 0.00000 0.00000
  92 0.00000 0.00000 0.00000
  93 0.00000 0.00000 0.00000
  94 0.00000 0.00000 0.00000
  95 0.00000 0.00000 0.00000
  96 0.00000 0.00000 0.00000
  97 0.00000 0.00000 0.00000
  98 0.00000 0.00000 0.00000
  99 0.00000 0.00000 0.00000
  100 0.00000 0.00000 0.00000
  101 0.00000 0.00000 0.00000
  102 0.00000 0.00000 0.00000
  103 0.00000 0.00000 0.00000
  104 0.00000 0.00000 0.00000
  105 0.00000 0.00000 0.00000
  106 0.00000 0.00000 0.00000
  107 0.00000 0.00000 0.00000
  108 0.00000 0.00000 0.00000
  109 0.00000 0.00000 0.00000
  110 0.00000 0.00000 0.00000
  111 0.00000 0.00000 0.00000
  112 0.00000 0.00000 0.00000
  113 0.00000 0.00000 0.00000
  114 0.00000 0.00000 0.00000
  115 0.00000 0.00000 0.00000
  116 0.00000 0.00000 0.00000
  117 0.00000 0.00000 0.00000
  118 0.00000 0.00000 0.00000
  119 0.00000 0.00000 0.00000
  120 0.00000 0.00000 0.00000
  121 0.00000 0.00000 0.00000
  122 0.00000 0.00000 0.00000
  123 0.00000 0.00000 0.00000
  124 0.00000 0.00000 0.00000
  125 0.00000 0.00000 0.00000
  126 0.00000 0.00000 0.00000
  127 0.00000 0.00000 0.00000
  128 0.00000 0.00000 0.00000
  129 0.00000 0.00000 0.00000
  130 0.00000 0.00000 0.00000
  131 0.00000 0.00000 0.00000
  132 0.00000 0.00000 0.00000
  133 0.00000 0.00000 0.00000
  134 0.00000 0.00000 0.00000
  135 0.00000 0.00000 0.00000
  136 0.00000 0.00000 0.00000
  137 0.00000 0.00000 0.00000
  138 0.00000 0.00000 0.00000
  139 0.00000 0.00000 0.00000
  140 0.00000 0.00000 0.00000
  141 0.00000 0.00000 0.00000
  142 0.00000 0.00000 0.00000
  143 0.00000 0.00000 0.00000
  144 0.00000 0.00000 0.00000
  145 0.00000 0.00000 0.00000
  146 0.00000 0.00000 0.00000
  147 0.00000 0.00000 0.00000
  148 0.00000 0.00000 0.00000
  149 0.00000 0.00000 0.00000
  150 0.00000 0.00000 0.00000
  151 0.00000 0.00000 0.00000
  152 0.00000 0.00000 0.00000
  153 0.00000 0.00000 0.00000
  154 0.00000 0.00000 0.00000
  155 0.00000 0.00000 0.00000
  156 0.00000 0.00000 0.00000
  157 0.00000 0.00000 0.00000
  158 0.00000 0.00000 0.00000
  159 0.00000 0.00000 0.00000
  160 0.00000 0.00000 0.00000
  161 0.00000 0.00000 0.00000
  162 0.00000 0.00000 0.00000
  163 0.00000 0.00000 0.00000
  164 0.00000 0.00000 0.00000
  165 0.00000 0.00000 0.00000
  166 0.00000 0.00000 0.00000
  167 0.00000 0.00000 0.00000
  168 0.00000 0.00000 0.00000
  169 0.00000 0.00000 0.00000
  170 0.00000 0.00000 0.00000
  171 0.00000 0.00000 0.00000
  172 0.00000 0.00000 0.00000
  173 0.00000 0.00000 0.00000
  174 0.00000 0.00000 0.00000
  175 0.00000 0.00000 0.00000
  176 0.00000 0.00000 0.00000
  177 0.00000 0.00000 0.00000
  178 0.00000 0.00000 0.00000
  179 0.00000 0.00000 0.00000
  180 0.00000 0.00000 0.00000
  181 0.00000 0.00000 0.00000
  182 0.00000 0.00000 0.00000
  183 0.00000 0.00000 0.00000
  184 0.00000 0.00000 0.00000
  185 0.00000 0.00000 0.00000
  186 0.00000 0.00000 0.00000
  187 0.00000 0.00000 0.00000
  188 0.00000 0.00000 0.00000
  189 0.00000 0.00000 0.00000
  190 0.00000 0.00000 0.00000
  191 0.00000 0.00000 0.00000
  192 0.00000 0.00000 0.00000
  193 0.00000 0.00000 0.00000
  194 0.00000 0.00000 0.00000
  195 0.00000 0.00000 0.00000
  196 0.00000 0.00000 0.00000
  197 0.00000 0.00000 0.00000
  198 0.00000 0.00000 0.00000
  199 0.00000 0.00000 0.00000
  200 0.00000 0.00000 0.00000
  201 0.00000 0.00000 0.00000
  202 0.00000 0.00000 0.00000
  203 0.00000 0.00000 0.00000
  204 0.00000 0.00000 0.00000
  205 0.00000 0.00000 0.00000
  206 0.00000 0.00000 0.00000
  207 0.00000 0.00000 0.00000
  208 0.00000 0.00000 0.00000
  209 0.00000 0.00000 0.00000
  210 0.00000 0.00000 0.00000
  211 0.00000 0.00000 0.00000
  212 0.00000 0.00000 0.00000
  213 0.00000 0.00000 0.00000
  214 0.00000 0.00000 0.00000
  215 0.00000 0.00000 0.00000
  216 0.00000 0.00000 0.00000
  217 0.00000 0.00000 0.00000
  218 0.00000 0.00000 0.00000
  219 0.00000 0.00000 0.00000
  220 0.00000 0.00000 0.00000
  221 0.00000 0.00000 0.00000
  222 0.00000 0.00000 0.00000
  223 0.00000 0.00000 0.00000
  224 0.00000 0.00000 0.00000
  225 0.00000 0.00000 0.00000
  226 0.00000 0.00000 0.00000
  227 0.00000 0.00000 0.00000
  228 0.00000 0.00000 0.00000
  229 0.00000 0.00000 0.00000
  230 0.00000 0.00000 0.00000
  231 0.00000 0.00000 0.00000
  232 0.00000 0.00000 0.00000
  233 0.00000 0.00000 0.00000
  234 0.00000 0.00000 0.00000
  235 0.00000 0.00000 0.00000
  236 0.00000 0.00000 0.00000
  237 0.00000 0.00000 0.00000
  238 0.00000 0.00000 0.00000
  239 0.00000 0.00000 0.00000
  240 0.00000 0.00000 0.00000
  241 0.00000 0.00000 0.00000
</Section>

newXOutput 184

<Section columns = "stress_xx | stress_yy | stress_xy">
  1 0.00000 0.00000 0.00000
  2 0.00000 0.00000 0.00000
  3 0.00000 0.00000 0.00000
  4 0.00000 0.00000 0.00000
  5 0.00000 0.00000 0.00000
  6 0.00000 0.00000 0.00000
  7 0.00000 0.00000 0.00000
  8 0.00000 0.00000 0.00000
  9 0.00000 0.00000 0.00000
  10 0.00000 0.00000 0.00000
  11 0.00000 0.00000 0.00000
  12 0.00000 0.00000 0.00000
  13 0.00000 0.00000 0.00000
  14 0.00000 0.00000 0.00000
  15 0.00000 0.00000 0.00000
  16 0.00000 0.00000 0.00000
  17 0.00000 0.00000 0.00000
  18 0.00000 0.00000 0.00000
  19 0.00000 0.00000 0.00000
  20 0.00000 0.00000 0.00000
  21 0.00000 0.00000 0.00000
  22 0.00000 0.00000 0.00000
  23 0.00000 0.00000 0.00000
  24 0.00000 0.00000 0.00000
  25 0.00000 0.00000 0.00000
  26 0.00000 0.00000 0.00000
  27 0.00000 0.00000 0.00000
  28 0.00000 0.00000 0.00000
  29 0.00000 0.00000 0.00000
  30 0.00000 0.00000 0.00000
  31 0.00000 0.00000 0.00000
  32 0.00000 0.00000 0.00000
  33 0.00000 0.00000 0.00000
  34 0.00000 0.00000 0.00000
  35 0.00000 0.00000 0.00000
  36 0.00000 0.00000 0.00000
  37 0.00000 0.00000 0.00000
  38 0.00000 0.00000 0.00000
  39 0.00000 0.00000 0.00000
  40 0.00000 0.00000 0.00000
  41 0.00000 0.00000 0.00000
  42 0.00000 0.00000 0.00000
  43 0.00000 0.00000 0.00000
  44 0.00000 0.00000 0.00000
  45 0.00000 0.00000 0.00000
  46 0.00000 0.00000 0.00000
  47 0.00000 0.00000 0.00000
  48 0.00000 0.00000 0.00000
  49 0.00000 0.00000 0.00000
  50 0.00000 0.00000 0.00000
  51 0.00000 0.00000 0.00000
  52 0.00000 0.00000 0.00000
  53 0.00000 0.00000 0.00000
  54 0.00000 0.00000 0.00000
  55 0.00000 0.00000 0.00000
  56 0.00000 0.00000 0.00000
  57 0.00000 0.00000 0.00000
  58 0.00000 0.00000 0.00000
  59 0.00000 0.00000 0.00000
  60 0.00000 0.00000 0.00000
  61 0.00000 0.00000 0.00000
  62 0.00000 0.00000 0.00000
  63 0.00000 0.00000 0.00000
  64 0.00000 0.00000 0.00000
  65 0.00000 0.00000 0.00000
  66 0.00000 0.00000 0.00000
  67 0.00000 0.00000 0.00000
  68 0.00000 0.00000 0.00000
  69 0.00000 0.00000 0.00000
  70 0.00000 0.00000 0.00000
  71 0.00000 0.00000 0.00000
  72 0.00000 0.00000 0.00000
  73 0.00000 0.00000 0.00000
  74 0.00000 0.00000 0.00000
  75 0.00000 0.00000 0.00000
  76 0.00000 0.00000 0.00000
  77 0.00000 0.00000 0.00000
  78 0.00000 0.00000 0.00000
  79 0.00000 0.00000 0.00000
  80 0.00000 0.00000 0.00000
  81 0.00000 0.00000 0.00000
  82 0.00000 0.00000 0.00000
  83 0.00000 0.00000 0.00000
  84 0.00000 0.00000 0.00000
  85 0.00000 0.00000 0.00000
  86 0.00000 0.00000 0.00000
  87 0.00000 0.00000 0.00000
  88 0.00000 0.00000 0.00000
  89 0.00000 0.00000 0.00000
  90 0.00000 0.00000 0.00000
  91 0.00000 0.00000 0.00000
  92 0.00000 0.00000 0.00000
  93 0.00000 0.00000 0.00000
  94 0.00000 0.00000 0.00000
  95 0.00000 0.00000 0.00000
  96 0.00000 0.00000 0.00000
  97 0.00000 0.00000 0.00000
  98 0.00000 0.00000 0.00000
  99 0.00000 0.00000 0.00000
  100 0.00000 0.00000 0.00000
  101 0.00000 0.00000 0.00000
  102 0.00000 0.00000 0.00000
  103 0.00000 0.00000 0.00000
  104 0.00000 0.00000 0.00000
  105 0.00000 0.00000 0.00000
  106 0.00000 0.00000 0.00000
  107 0.00000 0.00000 0.00000
  108 0.00000 0.00000 0.00000
  109 0.00000 0.00000 0.00000
  110 0.00000 0.00000 0.00000
  111 0.00000 0.00000 0.00000
  112 0.00000 0.00000 0.00000
  113 0.00000 0.00000 0.00000
  114 0.00000 0.00000 0.00000
  115 0.00000 0.00000 0.00000
  116 0.00000 0.00000 0.00000
  117 0.00000 0.00000 0.00000
  118 0.00000 0.00000 0.00000
  119 0.00000 0.00000 0.00000
  120 0.00000 0.00000 0.00000
  121 0.00000 0.00000 0.00000
  122 0.00000 0.00000 0.00000
  123 0.00000 0.00000 0.00000
  124 0.00000 0.00000 0.00000
  125 0.00000 0.00000 0.00000
  126 0.00000 0.00000 0.00000
  127 0.00000 0.00000 0.00000
  128 0.00000 0.00000 0.00000
  129 0.00000 0.00000 0.00000
  130 0.00000 0.00000 0.00000
  131 0.00000 0.00000 0.00000
  132 0.00000 0.00000 0.00000
  133 0.00000 0.00000 0.00000
  134 0.00000 0.00000 0.00000
  135 0.00000 0.00000 0.00000
  136 0.00000 0.00000 0.00000
  137 0.00000 0.00000 0.00000
  138 0.00000 0.00000 0.00000
  139 0.00000 0.00000 0.00000
  140 0.00000 0.00000 0.00000
  141 0.00000 0.00000 0.00000
  142 0.00000 0.00000 0.00000
  143 0.00000 0.00000 0.00000
  144 0.00000 0.00000 0.00000
  145 0.00000 0.00000 0.00000
  146 0.00000 0.00000 0.00000
  147 0.00000 0.00000 0.00000
  148 0.00000 0.00000 0.00000
  149 0.00000 0.00000 0.00000
  150 0.00000 0.00000 0.00000
  151 0.00000 0.00000 0.00000
  152 0.00000 0.00000 0.00000
  153 0.00000 0.00000 0.00000
  154 0.00000 0.00000 0.00000
  155 0.00000 0.00000 0.00000
  156 0.00000 0.00000 0.00000
  157 0.00000 0.00000 0.00000
  158 0.00000 0.00000 0.00000
  159 0.00000 0.00000 0.00000
  160 0.00000 0.00000 0.00000
  161 0.00000 0.00000 0.00000
  162 0.00000 0.00000 0.00000
  163 0.00000 0.00000 0.00000
  164 0.00000 0.00000 0.00000
  165 0.00000 0.00000 0.00000
  166 0.00000 0.00000 0.00000
  167 0.00000 0.00000 0.00000
  168 0.00000 0.00000 0.00000
  169 0.00000 0.00000 0.00000
  170 0.00000 0.00000 0.00000
  171 0.00000 0.00000 0.00000
  172 0.00000 0.00000 0.00000
  173 0.00000 0.00000 0.00000
  174 0.00000 0.00000 0.00000
  175 0.00000 0.00000 0.00000
  176 0.00000 0.00000 0.00000
  177 0.00000 0.00000 0.00000
  178 0.00000 0.00000 0.00000
  179 0.00000 0.00000 0.00000
  180 0.00000 0.00000 0.00000
  181 0.00000 0.00000 0.00000
  182 0.00000 0.00000 0.00000
  183 0.00000 0.00000 0.00000
  184 0.00000 0.00000 0.00000
  185 0.00000 0.00000 0.00000
  186 0.00000 0.00000 0.00000
  187 0.00000 0.00000 0.00000
  188 0.00000 0.00000 0.00000
  189 0.00000 0.00000 0.00000
  190 0.00000 0.00000 0.00000
  191 0.00000 0.00000 0.00000
  192 0.00000 0.00000 0.00000
  193 0.00000 0.00000 0.00000
  194 0.00000 0.00000 0.00000
  195 0.00000 0.00000 0.00000
  196 0.00000 0.00000 0.00000
  197 0.00000 0.00000 0.00000
  198 0.00000 0.00000 0.00000
  199 0.00000 0.00000 0.00000
  200 0.00000 0.00000 0.00000
  201 0.00000 0.00000 0.00000
  202 0.00000 0.00000 0.00000
  203 0.00000 0.00000 0.00000
  204 0.00000 0.00000 0.00000
  205 0.00000 0.00000 0.00000
  206 0.00000 0.00000 0.00000
  207 0.00000 0.00000 0.00000
  208 0.00000 0.00000 0.00000
  209 0.00000 0.00000 0.00000
  210 0.00000 0.00000 0.00000
  211 0.00000 0.00000 0.00000
  212 0.00000 0.00000 0.00000
  213 0.00000 0.00000 0.00000
  214 0.00000 0.00000 0.00000
  215 0.00000 0.00000 0.00000
  216 0.00000 0.00000 0.00000
  217 0.00000 0.00000 0.00000
  218 0.00000 0.00000 0.00000
  219 0.00000 0.00000 0.00000
  220 0.00000 0.00000 0.00000
  221 0.00000 0.00000 0.00000
  222 0.00000 0.00000 0.00000
  223 0.00000 0.00000 0.00000
  224 0.00000 0.00000 0.00000
  225 0.00000 0.00000 0.00000
  226 0.00000 0.00000 0.00000
  227 0.00000 0.00000 0.00000
  228 0.00000 0.00000 0.00000
  229 0.00000 0.00000 0.00000
  230 0.00000 0.00000 0.00000
  231 0.00000 0.00000 0.00000
  232 0.00000 0.00000 0.00000
  233 0.00000 0.00000 0.00000
  234 0.00000 0.00000 0.00000
  235 0.00000 0.00000 0.00000
  236 0.00000 0.00000 0.00000
  237 0.00000 0.00000 0.00000
  238 0.00000 0.00000 0.00000
  239 0.00000 0.00000 0.00000
  240 0.00000 0.00000 0.00000
  241 0.00000 0.00000 0.00000
</Section>

newXOutput 185

<Section columns = "stress_xx | stress_yy | stress_xy">
  1 0.00000 0.00000 0.00000
  2 0.00000 0.00000 0.00000
  3 0.00000 0.00000 0.00000
  4 0.00000 0.00000 0.00000
  5 0.00000 0.00000 0.00000
  6 0.00000 0.00000 0.00000
  7 0.00000 0.00000 0.00000
  8 0.00000 0.00000 0.00000
  9 0.00000 0.00000 0.00000
  10 0.00000 0.00000 0.00000
  11 0.00000 0.00000 0.00000
  12 0.00000 0.00000 0.00000
  13 0.00000 0.00000 0.00000
  14 0.00000 0.00000 0.00000
  15 0.00000 0.00000 0.00000
  16 0.00000 0.00000 0.00000
  17 0.00000 0.00000 0.00000
  18 0.00000 0.00000 0.00000
  19 0.00000 0.00000 0.00000
  20 0.00000 0.00000 0.00000
  21 0.00000 0.00000 0.00000
  22 0.00000 0.00000 0.00000
  23 0.00000 0.00000 0.00000
  24 0.00000 0.00000 0.00000
  25 0.00000 0.00000 0.00000
  26 0.00000 0.00000 0.00000
  27 0.00000 0.00000 0.00000
  28 0.00000 0.00000 0.00000
  29 0.00000 0.00000 0.00000
  30 0.00000 0.00000 0.00000
  31 0.00000 0.00000 0.00000
  32 0.00000 0.00000 0.00000
  33 0.00000 0.00000 0.00000
  34 0.00000 0.00000 0.00000
  35 0.00000 0.00000 0.00000
  36 0.00000 0.00000 0.00000
  37 0.00000 0.00000 0.00000
  38 0.00000 0.00000 0.00000
  39 0.00000 0.00000 0.00000
  40 0.00000 0.00000 0.00000
  41 0.00000 0.00000 0.00000
  42 0.00000 0.00000 0.00000
  43 0.00000 0.00000 0.00000
  44 0.00000 0.00000 0.00000
  45 0.00000 0.00000 0.00000
  46 0.00000 0.00000 0.00000
  47 0.00000 0.00000 0.00000
  48 0.00000 0.00000 0.00000
  49 0.00000 0.00000 0.00000
  50 0.00000 0.00000 0.00000
  51 0.00000 0.00000 0.00000
  52 0.00000 0.00000 0.00000
  53 0.00000 0.00000 0.00000
  54 0.00000 0.00000 0.00000
  55 0.00000 0.00000 0.00000
  56 0.00000 0.00000 0.00000
  57 0.00000 0.00000 0.00000
  58 0.00000 0.00000 0.00000
  59 0.00000 0.00000 0.00000
  60 0.00000 0.00000 0.00000
  61 0.00000 0.00000 0.00000
  62 0.00000 0.00000 0.00000
  63 0.00000 0.00000 0.00000
  64 0.00000 0.00000 0.00000
  65 0.00000 0.00000 0.00000
  66 0.00000 0.00000 0.00000
  67 0.00000 0.00000 0.00000
  68 0.00000 0.00000 0.00000
  69 0.00000 0.00000 0.00000
  70 0.00000 0.00000 0.00000
  71 0.00000 0.00000 0.00000
  72 0.00000 0.00000 0.00000
  73 0.00000 0.00000 0.00000
  74 0.00000 0.00000 0.00000
  75 0.00000 0.00000 0.00000
  76 0.00000 0.00000 0.00000
  77 0.00000 0.00000 0.00000
  78 0.00000 0.00000 0.00000
  79 0.00000 0.00000 0.00000
  80 0.00000 0.00000 0.00000
  81 0.00000 0.00000 0.00000
  82 0.00000 0.00000 0.00000
  83 0.00000 0.00000 0.00000
  84 0.00000 0.00000 0.00000
  85 0.00000 0.00000 0.00000
  86 0.00000 0.00000 0.00000
  87 0.00000 0.00000 0.00000
  88 0.00000 0.00000 0.00000
  89 0.00000 0.00000 0.00000
  90 0.00000 0.00000 0.00000
  91 0.00000 0.00000 0.00000
  92 0.00000 0.00000 0.00000
  93 0.00000 0.00000 0.00000
  94 0.00000 0.00000 0.00000
  95 0.00000 0.00000 0.00000
  96 0.00000 0.00000 0.00000
  97 0.00000 0.00000 0.00000
  98 0.00000 0.00000 0.00000
  99 0.00000 0.00000 0.00000
  100 0.00000 0.00000 0.00000
  101 0.00000 0.00000 0.00000
  102 0.00000 0.00000 0.00000
  103 0.00000 0.00000 0.00000
  104 0.00000 0.00000 0.00000
  105 0.00000 0.00000 0.00000
  106 0.00000 0.00000 0.00000
  107 0.00000 0.00000 0.00000
  108 0.00000 0.00000 0.00000
  109 0.00000 0.00000 0.00000
  110 0.00000 0.00000 0.00000
  111 0.00000 0.00000 0.00000
  112 0.00000 0.00000 0.00000
  113 0.00000 0.00000 0.00000
  114 0.00000 0.00000 0.00000
  115 0.00000 0.00000 0.00000
  116 0.00000 0.00000 0.00000
  117 0.00000 0.00000 0.00000
  118 0.00000 0.00000 0.00000
  119 0.00000 0.00000 0.00000
  120 0.00000 0.00000 0.00000
  121 0.00000 0.00000 0.00000
  122 0.00000 0.00000 0.00000
  123 0.00000 0.00000 0.00000
  124 0.00000 0.00000 0.00000
  125 0.00000 0.00000 0.00000
  126 0.00000 0.00000 0.00000
  127 0.00000 0.00000 0.00000
  128 0.00000 0.00000 0.00000
  129 0.00000 0.00000 0.00000
  130 0.00000 0.00000 0.00000
  131 0.00000 0.00000 0.00000
  132 0.00000 0.00000 0.00000
  133 0.00000 0.00000 0.00000
  134 0.00000 0.00000 0.00000
  135 0.00000 0.00000 0.00000
  136 0.00000 0.00000 0.00000
  137 0.00000 0.00000 0.00000
  138 0.00000 0.00000 0.00000
  139 0.00000 0.00000 0.00000
  140 0.00000 0.00000 0.00000
  141 0.00000 0.00000 0.00000
  142 0.00000 0.00000 0.00000
  143 0.00000 0.00000 0.00000
  144 0.00000 0.00000 0.00000
  145 0.00000 0.00000 0.00000
  146 0.00000 0.00000 0.00000
  147 0.00000 0.00000 0.00000
  148 0.00000 0.00000 0.00000
  149 0.00000 0.00000 0.00000
  150 0.00000 0.00000 0.00000
  151 0.00000 0.00000 0.00000
  152 0.00000 0.00000 0.00000
  153 0.00000 0.00000 0.00000
  154 0.00000 0.00000 0.00000
  155 0.00000 0.00000 0.00000
  156 0.00000 0.00000 0.00000
  157 0.00000 0.00000 0.00000
  158 0.00000 0.00000 0.00000
  159 0.00000 0.00000 0.00000
  160 0.00000 0.00000 0.00000
  161 0.00000 0.00000 0.00000
  162 0.00000 0.00000 0.00000
  163 0.00000 0.00000 0.00000
  164 0.00000 0.00000 0.00000
  165 0.00000 0.00000 0.00000
  166 0.00000 0.00000 0.00000
  167 0.00000 0.00000 0.00000
  168 0.00000 0.00000 0.00000
  169 0.00000 0.00000 0.00000
  170 0.00000 0.00000 0.00000
  171 0.00000 0.00000 0.00000
  172 0.00000 0.00000 0.00000
  173 0.00000 0.00000 0.00000
  174 0.00000 0.00000 0.00000
  175 0.00000 0.00000 0.00000
  176 0.00000 0.00000 0.00000
  177 0.00000 0.00000 0.00000
  178 0.00000 0.00000 0.00000
  179 0.00000 0.00000 0.00000
  180 0.00000 0.00000 0.00000
  181 0.00000 0.00000 0.00000
  182 0.00000 0.00000 0.00000
  183 0.00000 0.00000 0.00000
  184 0.00000 0.00000 0.00000
  185 0.00000 0.00000 0.00000
  186 0.00000 0.00000 0.00000
  187 0.00000 0.00000 0.00000
  188 0.00000 0.00000 0.00000
  189 0.00000 0.00000 0.00000
  190 0.00000 0.00000 0.00000
  191 0.00000 0.00000 0.00000
  192 0.00000 0.00000 0.00000
  193 0.00000 0.00000 0.00000
  194 0.00000 0.00000 0.00000
  195 0.00000 0.00000 0.00000
  196 0.00000 0.00000 0.00000
  197 0.00000 0.00000 0.00000
  198 0.00000 0.00000 0.00000
  199 0.00000 0.00000 0.00000
  200 0.00000 0.00000 0.00000
  201 0.00000 0.00000 0.00000
  202 0.00000 0.00000 0.00000
  203 0.00000 0.00000 0.00000
  204 0.00000 0.00000 0.00000
  205 0.00000 0.00000 0.00000
  206 0.00000 0.00000 0.00000
  207 0.00000 0.00000 0.00000
  208 0.00000 0.00000 0.00000
  209 0.00000 0.00000 0.00000
  210 0.00000 0.00000 0.00000
  211 0.00000 0.00000 0.00000
  212 0.00000 0.00000 0.00000
  213 0.00000 0.00000 0.00000
  214 0.00000 0.00000 0.00000
  215 0.00000 0.00000 0.00000
  216 0.00000 0.00000 0.00000
  217 0.00000 0.00000 0.00000
  218 0.00000 0.00000 0.00000
  219 0.00000 0.00000 0.00000
  220 0.00000 0.00000 0.00000
  221 0.00000 0.00000 0.00000
  222 0.00000 0.00000 0.00000
  223 0.00000 0.00000 0.00000
  224 0.00000 0.00000 0.00000
  225 0.00000 0.00000 0.00000
  226 0.00000 0.00000 0.00000
  227 0.00000 0.00000 0.00000
  228 0.00000 0.00000 0.00000
  229 0.00000 0.00000 0.00000
  230 0.00000 0.00000 0.00000
  231 0.00000 0.00000 0.00000
  232 0.00000 0.00000 0.00000
  233 0.00000 0.00000 0.00000
  234 0.00000 0.00000 0.00000
  235 0.00000 0.00000 0.00000
  236 0.00000 0.00000 0.00000
  237 0.00000 0.00000 0.00000
  238 0.00000 0.00000 0.00000
  239 0.00000 0.00000 0.00000
  240 0.00000 0.00000 0.00000
  241 0.00000 0.00000 0.00000
</Section>

newXOutput 186

<Section columns = "stress_xx | stress_yy | stress_xy">
  1 0.00000 0.00000 0.00000
  2 0.00000 0.00000 0.00000
  3 0.00000 0.00000 0.00000
  4 0.00000 0.00000 0.00000
  5 0.00000 0.00000 0.00000
  6 0.00000 0.00000 0.00000
  7 0.00000 0.00000 0.00000
  8 0.00000 0.00000 0.00000
  9 0.00000 0.00000 0.00000
  10 0.00000 0.00000 0.00000
  11 0.00000 0.00000 0.00000
  12 0.00000 0.00000 0.00000
  13 0.00000 0.00000 0.00000
  14 0.00000 0.00000 0.00000
  15 0.00000 0.00000 0.00000
  16 0.00000 0.00000 0.00000
  17 0.00000 0.00000 0.00000
  18 0.00000 0.00000 0.00000
  19 0.00000 0.00000 0.00000
  20 0.00000 0.00000 0.00000
  21 0.00000 0.00000 0.00000
  22 0.00000 0.00000 0.00000
  23 0.00000 0.00000 0.00000
  24 0.00000 0.00000 0.00000
  25 0.00000 0.00000 0.00000
  26 0.00000 0.00000 0.00000
  27 0.00000 0.00000 0.00000
  28 0.00000 0.00000 0.00000
  29 0.00000 0.00000 0.00000
  30 0.00000 0.00000 0.00000
  31 0.00000 0.00000 0.00000
  32 0.00000 0.00000 0.00000
  33 0.00000 0.00000 0.00000
  34 0.00000 0.00000 0.00000
  35 0.00000 0.00000 0.00000
  36 0.00000 0.00000 0.00000
  37 0.00000 0.00000 0.00000
  38 0.00000 0.00000 0.00000
  39 0.00000 0.00000 0.00000
  40 0.00000 0.00000 0.00000
  41 0.00000 0.00000 0.00000
  42 0.00000 0.00000 0.00000
  43 0.00000 0.00000 0.00000
  44 0.00000 0.00000 0.00000
  45 0.00000 0.00000 0.00000
  46 0.00000 0.00000 0.00000
  47 0.00000 0.00000 0.00000
  48 0.00000 0.00000 0.00000
  49 0.00000 0.00000 0.00000
  50 0.00000 0.00000 0.00000
  51 0.00000 0.00000 0.00000
  52 0.00000 0.00000 0.00000
  53 0.00000 0.00000 0.00000
  54 0.00000 0.00000 0.00000
  55 0.00000 0.00000 0.00000
  56 0.00000 0.00000 0.00000
  57 0.00000 0.00000 0.00000
  58 0.00000 0.00000 0.00000
  59 0.00000 0.00000 0.00000
  60 0.00000 0.00000 0.00000
  61 0.00000 0.00000 0.00000
  62 0.00000 0.00000 0.00000
  63 0.00000 0.00000 0.00000
  64 0.00000 0.00000 0.00000
  65 0.00000 0.00000 0.00000
  66 0.00000 0.00000 0.00000
  67 0.00000 0.00000 0.00000
  68 0.00000 0.00000 0.00000
  69 0.00000 0.00000 0.00000
  70 0.00000 0.00000 0.00000
  71 0.00000 0.00000 0.00000
  72 0.00000 0.00000 0.00000
  73 0.00000 0.00000 0.00000
  74 0.00000 0.00000 0.00000
  75 0.00000 0.00000 0.00000
  76 0.00000 0.00000 0.00000
  77 0.00000 0.00000 0.00000
  78 0.00000 0.00000 0.00000
  79 0.00000 0.00000 0.00000
  80 0.00000 0.00000 0.00000
  81 0.00000 0.00000 0.00000
  82 0.00000 0.00000 0.00000
  83 0.00000 0.00000 0.00000
  84 0.00000 0.00000 0.00000
  85 0.00000 0.00000 0.00000
  86 0.00000 0.00000 0.00000
  87 0.00000 0.00000 0.00000
  88 0.00000 0.00000 0.00000
  89 0.00000 0.00000 0.00000
  90 0.00000 0.00000 0.00000
  91 0.00000 0.00000 0.00000
  92 0.00000 0.00000 0.00000
  93 0.00000 0.00000 0.00000
  94 0.00000 0.00000 0.00000
  95 0.00000 0.00000 0.00000
  96 0.00000 0.00000 0.00000
  97 0.00000 0.00000 0.00000
  98 0.00000 0.00000 0.00000
  99 0.00000 0.00000 0.00000
  100 0.00000 0.00000 0.00000
  101 0.00000 0.00000 0.00000
  102 0.00000 0.00000 0.00000
  103 0.00000 0.00000 0.00000
  104 0.00000 0.00000 0.00000
  105 0.00000 0.00000 0.00000
  106 0.00000 0.00000 0.00000
  107 0.00000 0.00000 0.00000
  108 0.00000 0.00000 0.00000
  109 0.00000 0.00000 0.00000
  110 0.00000 0.00000 0.00000
  111 0.00000 0.00000 0.00000
  112 0.00000 0.00000 0.00000
  113 0.00000 0.00000 0.00000
  114 0.00000 0.00000 0.00000
  115 0.00000 0.00000 0.00000
  116 0.00000 0.00000 0.00000
  117 0.00000 0.00000 0.00000
  118 0.00000 0.00000 0.00000
  119 0.00000 0.00000 0.00000
  120 0.00000 0.00000 0.00000
  121 0.00000 0.00000 0.00000
  122 0.00000 0.00000 0.00000
  123 0.00000 0.00000 0.00000
  124 0.00000 0.00000 0.00000
  125 0.00000 0.00000 0.00000
  126 0.00000 0.00000 0.00000
  127 0.00000 0.00000 0.00000
  128 0.00000 0.00000 0.00000
  129 0.00000 0.00000 0.00000
  130 0.00000 0.00000 0.00000
  131 0.00000 0.00000 0.00000
  132 0.00000 0.00000 0.00000
  133 0.00000 0.00000 0.00000
  134 0.00000 0.00000 0.00000
  135 0.00000 0.00000 0.00000
  136 0.00000 0.00000 0.00000
  137 0.00000 0.00000 0.00000
  138 0.00000 0.00000 0.00000
  139 0.00000 0.00000 0.00000
  140 0.00000 0.00000 0.00000
  141 0.00000 0.00000 0.00000
  142 0.00000 0.00000 0.00000
  143 0.00000 0.00000 0.00000
  144 0.00000 0.00000 0.00000
  145 0.00000 0.00000 0.00000
  146 0.00000 0.00000 0.00000
  147 0.00000 0.00000 0.00000
  148 0.00000 0.00000 0.00000
  149 0.00000 0.00000 0.00000
  150 0.00000 0.00000 0.00000
  151 0.00000 0.00000 0.00000
  152 0.00000 0.00000 0.00000
  153 0.00000 0.00000 0.00000
  154 0.00000 0.00000 0.00000
  155 0.00000 0.00000 0.00000
  156 0.00000 0.00000 0.00000
  157 0.00000 0.00000 0.00000
  158 0.00000 0.00000 0.00000
  159 0.00000 0.00000 0.00000
  160 0.00000 0.00000 0.00000
  161 0.00000 0.00000 0.00000
  162 0.00000 0.00000 0.00000
  163 0.00000 0.00000 0.00000
  164 0.00000 0.00000 0.00000
  165 0.00000 0.00000 0.00000
  166 0.00000 0.00000 0.00000
  167 0.00000 0.00000 0.00000
  168 0.00000 0.00000 0.00000
  169 0.00000 0.00000 0.00000
  170 0.00000 0.00000 0.00000
  171 0.00000 0.00000 0.00000
  172 0.00000 0.00000 0.00000
  173 0.00000 0.00000 0.00000
  174 0.00000 0.00000 0.00000
  175 0.00000 0.00000 0.00000
  176 0.00000 0.00000 0.00000
  177 0.00000 0.00000 0.00000
  178 0.00000 0.00000 0.00000
  179 0.00000 0.00000 0.00000
  180 0.00000 0.00000 0.00000
  181 0.00000 0.00000 0.00000
  182 0.00000 0.00000 0.00000
  183 0.00000 0.00000 0.00000
  184 0.00000 0.00000 0.00000
  185 0.00000 0.00000 0.00000
  186 0.00000 0.00000 0.00000
  187 0.00000 0.00000 0.00000
  188 0.00000 0.00000 0.00000
  189 0.00000 0.00000 0.00000
  190 0.00000 0.00000 0.00000
  191 0.00000 0.00000 0.00000
  192 0.00000 0.00000 0.00000
  193 0.00000 0.00000 0.00000
  194 0.00000 0.00000 0.00000
  195 0.00000 0.00000 0.00000
  196 0.00000 0.00000 0.00000
  197 0.00000 0.00000 0.00000
  198 0.00000 0.00000 0.00000
  199 0.00000 0.00000 0.00000
  200 0.00000 0.00000 0.00000
  201 0.00000 0.00000 0.00000
  202 0.00000 0.00000 0.00000
  203 0.00000 0.00000 0.00000
  204 0.00000 0.00000 0.00000
  205 0.00000 0.00000 0.00000
  206 0.00000 0.00000 0.00000
  207 0.00000 0.00000 0.00000
  208 0.00000 0.00000 0.00000
  209 0.00000 0.00000 0.00000
  210 0.00000 0.00000 0.00000
  211 0.00000 0.00000 0.00000
  212 0.00000 0.00000 0.00000
  213 0.00000 0.00000 0.00000
  214 0.00000 0.00000 0.00000
  215 0.00000 0.00000 0.00000
  216 0.00000 0.00000 0.00000
  217 0.00000 0.00000 0.00000
  218 0.00000 0.00000 0.00000
  219 0.00000 0.00000 0.00000
  220 0.00000 0.00000 0.00000
  221 0.00000 0.00000 0.00000
  222 0.00000 0.00000 0.00000
  223 0.00000 0.00000 0.00000
  224 0.00000 0.00000 0.00000
  225 0.00000 0.00000 0.00000
  226 0.00000 0.00000 0.00000
  227 0.00000 0.00000 0.00000
  228 0.00000 0.00000 0.00000
  229 0.00000 0.00000 0.00000
  230 0.00000 0.00000 0.00000
  231 0.00000 0.00000 0.00000
  232 0.00000 0.00000 0.00000
  233 0.00000 0.00000 0.00000
  234 0.00000 0.00000 0.00000
  235 0.00000 0.00000 0.00000
  236 0.00000 0.00000 0.00000
  237 0.00000 0.00000 0.00000
  238 0.00000 0.00000 0.00000
  239 0.00000 0.00000 0.00000
  240 0.00000 0.00000 0.00000
  241 0.00000 0.00000 0.00000
</Section>

newXOutput 187

<Section columns = "stress_xx | stress_yy | stress_xy">
  1 0.00000 0.00000 0.00000
  2 0.00000 0.00000 0.00000
  3 0.00000 0.00000 0.00000
  4 0.00000 0.00000 0.00000
  5 0.00000 0.00000 0.00000
  6 0.00000 0.00000 0.00000
  7 0.00000 0.00000 0.00000
  8 0.00000 0.00000 0.00000
  9 0.00000 0.00000 0.00000
  10 0.00000 0.00000 0.00000
  11 0.00000 0.00000 0.00000
  12 0.00000 0.00000 0.00000
  13 0.00000 0.00000 0.00000
  14 0.00000 0.00000 0.00000
  15 0.00000 0.00000 0.00000
  16 0.00000 0.00000 0.00000
  17 0.00000 0.00000 0.00000
  18 0.00000 0.00000 0.00000
  19 0.00000 0.00000 0.00000
  20 0.00000 0.00000 0.00000
  21 0.00000 0.00000 0.00000
  22 0.00000 0.00000 0.00000
  23 0.00000 0.00000 0.00000
  24 0.00000 0.00000 0.00000
  25 0.00000 0.00000 0.00000
  26 0.00000 0.00000 0.00000
  27 0.00000 0.00000 0.00000
  28 0.00000 0.00000 0.00000
  29 0.00000 0.00000 0.00000
  30 0.00000 0.00000 0.00000
  31 0.00000 0.00000 0.00000
  32 0.00000 0.00000 0.00000
  33 0.00000 0.00000 0.00000
  34 0.00000 0.00000 0.00000
  35 0.00000 0.00000 0.00000
  36 0.00000 0.00000 0.00000
  37 0.00000 0.00000 0.00000
  38 0.00000 0.00000 0.00000
  39 0.00000 0.00000 0.00000
  40 0.00000 0.00000 0.00000
  41 0.00000 0.00000 0.00000
  42 0.00000 0.00000 0.00000
  43 0.00000 0.00000 0.00000
  44 0.00000 0.00000 0.00000
  45 0.00000 0.00000 0.00000
  46 0.00000 0.00000 0.00000
  47 0.00000 0.00000 0.00000
  48 0.00000 0.00000 0.00000
  49 0.00000 0.00000 0.00000
  50 0.00000 0.00000 0.00000
  51 0.00000 0.00000 0.00000
  52 0.00000 0.00000 0.00000
  53 0.00000 0.00000 0.00000
  54 0.00000 0.00000 0.00000
  55 0.00000 0.00000 0.00000
  56 0.00000 0.00000 0.00000
  57 0.00000 0.00000 0.00000
  58 0.00000 0.00000 0.00000
  59 0.00000 0.00000 0.00000
  60 0.00000 0.00000 0.00000
  61 0.00000 0.00000 0.00000
  62 0.00000 0.00000 0.00000
  63 0.00000 0.00000 0.00000
  64 0.00000 0.00000 0.00000
  65 0.00000 0.00000 0.00000
  66 0.00000 0.00000 0.00000
  67 0.00000 0.00000 0.00000
  68 0.00000 0.00000 0.00000
  69 0.00000 0.00000 0.00000
  70 0.00000 0.00000 0.00000
  71 0.00000 0.00000 0.00000
  72 0.00000 0.00000 0.00000
  73 0.00000 0.00000 0.00000
  74 0.00000 0.00000 0.00000
  75 0.00000 0.00000 0.00000
  76 0.00000 0.00000 0.00000
  77 0.00000 0.00000 0.00000
  78 0.00000 0.00000 0.00000
  79 0.00000 0.00000 0.00000
  80 0.00000 0.00000 0.00000
  81 0.00000 0.00000 0.00000
  82 0.00000 0.00000 0.00000
  83 0.00000 0.00000 0.00000
  84 0.00000 0.00000 0.00000
  85 0.00000 0.00000 0.00000
  86 0.00000 0.00000 0.00000
  87 0.00000 0.00000 0.00000
  88 0.00000 0.00000 0.00000
  89 0.00000 0.00000 0.00000
  90 0.00000 0.00000 0.00000
  91 0.00000 0.00000 0.00000
  92 0.00000 0.00000 0.00000
  93 0.00000 0.00000 0.00000
  94 0.00000 0.00000 0.00000
  95 0.00000 0.00000 0.00000
  96 0.00000 0.00000 0.00000
  97 0.00000 0.00000 0.00000
  98 0.00000 0.00000 0.00000
  99 0.00000 0.00000 0.00000
  100 0.00000 0.00000 0.00000
  101 0.00000 0.00000 0.00000
  102 0.00000 0.00000 0.00000
  103 0.00000 0.00000 0.00000
  104 0.00000 0.00000 0.00000
  105 0.00000 0.00000 0.00000
  106 0.00000 0.00000 0.00000
  107 0.00000 0.00000 0.00000
  108 0.00000 0.00000 0.00000
  109 0.00000 0.00000 0.00000
  110 0.00000 0.00000 0.00000
  111 0.00000 0.00000 0.00000
  112 0.00000 0.00000 0.00000
  113 0.00000 0.00000 0.00000
  114 0.00000 0.00000 0.00000
  115 0.00000 0.00000 0.00000
  116 0.00000 0.00000 0.00000
  117 0.00000 0.00000 0.00000
  118 0.00000 0.00000 0.00000
  119 0.00000 0.00000 0.00000
  120 0.00000 0.00000 0.00000
  121 0.00000 0.00000 0.00000
  122 0.00000 0.00000 0.00000
  123 0.00000 0.00000 0.00000
  124 0.00000 0.00000 0.00000
  125 0.00000 0.00000 0.00000
  126 0.00000 0.00000 0.00000
  127 0.00000 0.00000 0.00000
  128 0.00000 0.00000 0.00000
  129 0.00000 0.00000 0.00000
  130 0.00000 0.00000 0.00000
  131 0.00000 0.00000 0.00000
  132 0.00000 0.00000 0.00000
  133 0.00000 0.00000 0.00000
  134 0.00000 0.00000 0.00000
  135 0.00000 0.00000 0.00000
  136 0.00000 0.00000 0.00000
  137 0.00000 0.00000 0.00000
  138 0.00000 0.00000 0.00000
  139 0.00000 0.00000 0.00000
  140 0.00000 0.00000 0.00000
  141 0.00000 0.00000 0.00000
  142 0.00000 0.00000 0.00000
  143 0.00000 0.00000 0.00000
  144 0.00000 0.00000 0.00000
  145 0.00000 0.00000 0.00000
  146 0.00000 0.00000 0.00000
  147 0.00000 0.00000 0.00000
  148 0.00000 0.00000 0.00000
  149 0.00000 0.00000 0.00000
  150 0.00000 0.00000 0.00000
  151 0.00000 0.00000 0.00000
  152 0.00000 0.00000 0.00000
  153 0.00000 0.00000 0.00000
  154 0.00000 0.00000 0.00000
  155 0.00000 0.00000 0.00000
  156 0.00000 0.00000 0.00000
  157 0.00000 0.00000 0.00000
  158 0.00000 0.00000 0.00000
  159 0.00000 0.00000 0.00000
  160 0.00000 0.00000 0.00000
  161 0.00000 0.00000 0.00000
  162 0.00000 0.00000 0.00000
  163 0.00000 0.00000 0.00000
  164 0.00000 0.00000 0.00000
  165 0.00000 0.00000 0.00000
  166 0.00000 0.00000 0.00000
  167 0.00000 0.00000 0.00000
  168 0.00000 0.00000 0.00000
  169 0.00000 0.00000 0.00000
  170 0.00000 0.00000 0.00000
  171 0.00000 0.00000 0.00000
  172 0.00000 0.00000 0.00000
  173 0.00000 0.00000 0.00000
  174 0.00000 0.00000 0.00000
  175 0.00000 0.00000 0.00000
  176 0.00000 0.00000 0.00000
  177 0.00000 0.00000 0.00000
  178 0.00000 0.00000 0.00000
  179 0.00000 0.00000 0.00000
  180 0.00000 0.00000 0.00000
  181 0.00000 0.00000 0.00000
  182 0.00000 0.00000 0.00000
  183 0.00000 0.00000 0.00000
  184 0.00000 0.00000 0.00000
  185 0.00000 0.00000 0.00000
  186 0.00000 0.00000 0.00000
  187 0.00000 0.00000 0.00000
  188 0.00000 0.00000 0.00000
  189 0.00000 0.00000 0.00000
  190 0.00000 0.00000 0.00000
  191 0.00000 0.00000 0.00000
  192 0.00000 0.00000 0.00000
  193 0.00000 0.00000 0.00000
  194 0.00000 0.00000 0.00000
  195 0.00000 0.00000 0.00000
  196 0.00000 0.00000 0.00000
  197 0.00000 0.00000 0.00000
  198 0.00000 0.00000 0.00000
  199 0.00000 0.00000 0.00000
  200 0.00000 0.00000 0.00000
  201 0.00000 0.00000 0.00000
  202 0.00000 0.00000 0.00000
  203 0.00000 0.00000 0.00000
  204 0.00000 0.00000 0.00000
  205 0.00000 0.00000 0.00000
  206 0.00000 0.00000 0.00000
  207 0.00000 0.00000 0.00000
  208 0.00000 0.00000 0.00000
  209 0.00000 0.00000 0.00000
  210 0.00000 0.00000 0.00000
  211 0.00000 0.00000 0.00000
  212 0.00000 0.00000 0.00000
  213 0.00000 0.00000 0.00000
  214 0.00000 0.00000 0.00000
  215 0.00000 0.00000 0.00000
  216 0.00000 0.00000 0.00000
  217 0.00000 0.00000 0.00000
  218 0.00000 0.00000 0.00000
  219 0.00000 0.00000 0.00000
  220 0.00000 0.00000 0.00000
  221 0.00000 0.00000 0.00000
  222 0.00000 0.00000 0.00000
  223 0.00000 0.00000 0.00000
  224 0.00000 0.00000 0.00000
  225 0.00000 0.00000 0.00000
  226 0.00000 0.00000 0.00000
  227 0.00000 0.00000 0.00000
  228 0.00000 0.00000 0.00000
  229 0.00000 0.00000 0.00000
  230 0.00000 0.00000 0.00000
  231 0.00000 0.00000 0.00000
  232 0.00000 0.00000 0.00000
  233 0.00000 0.00000 0.00000
  234 0.00000 0.00000 0.00000
  235 0.00000 0.00000 0.00000
  236 0.00000 0.00000 0.00000
  237 0.00000 0.00000 0.00000
  238 0.00000 0.00000 0.00000
  239 0.00000 0.00000 0.00000
  240 0.00000 0.00000 0.00000
  241 0.00000 0.00000 0.00000
</Section>

newXOutput 188

<Section columns = "stress_xx | stress_yy | stress_xy">
  1 0.00000 0.00000 0.00000
  2 0.00000 0.00000 0.00000
  3 0.00000 0.00000 0.00000
  4 0.00000 0.00000 0.00000
  5 0.00000 0.00000 0.00000
  6 0.00000 0.00000 0.00000
  7 0.00000 0.00000 0.00000
  8 0.00000 0.00000 0.00000
  9 0.00000 0.00000 0.00000
  10 0.00000 0.00000 0.00000
  11 0.00000 0.00000 0.00000
  12 0.00000 0.00000 0.00000
  13 0.00000 0.00000 0.00000
  14 0.00000 0.00000 0.00000
  15 0.00000 0.00000 0.00000
  16 0.00000 0.00000 0.00000
  17 0.00000 0.00000 0.00000
  18 0.00000 0.00000 0.00000
  19 0.00000 0.00000 0.00000
  20 0.00000 0.00000 0.00000
  21 0.00000 0.00000 0.00000
  22 0.00000 0.00000 0.00000
  23 0.00000 0.00000 0.00000
  24 0.00000 0.00000 0.00000
  25 0.00000 0.00000 0.00000
  26 0.00000 0.00000 0.00000
  27 0.00000 0.00000 0.00000
  28 0.00000 0.00000 0.00000
  29 0.00000 0.00000 0.00000
  30 0.00000 0.00000 0.00000
  31 0.00000 0.00000 0.00000
  32 0.00000 0.00000 0.00000
  33 0.00000 0.00000 0.00000
  34 0.00000 0.00000 0.00000
  35 0.00000 0.00000 0.00000
  36 0.00000 0.00000 0.00000
  37 0.00000 0.00000 0.00000
  38 0.00000 0.00000 0.00000
  39 0.00000 0.00000 0.00000
  40 0.00000 0.00000 0.00000
  41 0.00000 0.00000 0.00000
  42 0.00000 0.00000 0.00000
  43 0.00000 0.00000 0.00000
  44 0.00000 0.00000 0.00000
  45 0.00000 0.00000 0.00000
  46 0.00000 0.00000 0.00000
  47 0.00000 0.00000 0.00000
  48 0.00000 0.00000 0.00000
  49 0.00000 0.00000 0.00000
  50 0.00000 0.00000 0.00000
  51 0.00000 0.00000 0.00000
  52 0.00000 0.00000 0.00000
  53 0.00000 0.00000 0.00000
  54 0.00000 0.00000 0.00000
  55 0.00000 0.00000 0.00000
  56 0.00000 0.00000 0.00000
  57 0.00000 0.00000 0.00000
  58 0.00000 0.00000 0.00000
  59 0.00000 0.00000 0.00000
  60 0.00000 0.00000 0.00000
  61 0.00000 0.00000 0.00000
  62 0.00000 0.00000 0.00000
  63 0.00000 0.00000 0.00000
  64 0.00000 0.00000 0.00000
  65 0.00000 0.00000 0.00000
  66 0.00000 0.00000 0.00000
  67 0.00000 0.00000 0.00000
  68 0.00000 0.00000 0.00000
  69 0.00000 0.00000 0.00000
  70 0.00000 0.00000 0.00000
  71 0.00000 0.00000 0.00000
  72 0.00000 0.00000 0.00000
  73 0.00000 0.00000 0.00000
  74 0.00000 0.00000 0.00000
  75 0.00000 0.00000 0.00000
  76 0.00000 0.00000 0.00000
  77 0.00000 0.00000 0.00000
  78 0.00000 0.00000 0.00000
  79 0.00000 0.00000 0.00000
  80 0.00000 0.00000 0.00000
  81 0.00000 0.00000 0.00000
  82 0.00000 0.00000 0.00000
  83 0.00000 0.00000 0.00000
  84 0.00000 0.00000 0.00000
  85 0.00000 0.00000 0.00000
  86 0.00000 0.00000 0.00000
  87 0.00000 0.00000 0.00000
  88 0.00000 0.00000 0.00000
  89 0.00000 0.00000 0.00000
  90 0.00000 0.00000 0.00000
  91 0.00000 0.00000 0.00000
  92 0.00000 0.00000 0.00000
  93 0.00000 0.00000 0.00000
  94 0.00000 0.00000 0.00000
  95 0.00000 0.00000 0.00000
  96 0.00000 0.00000 0.00000
  97 0.00000 0.00000 0.00000
  98 0.00000 0.00000 0.00000
  99 0.00000 0.00000 0.00000
  100 0.00000 0.00000 0.00000
  101 0.00000 0.00000 0.00000
  102 0.00000 0.00000 0.00000
  103 0.00000 0.00000 0.00000
  104 0.00000 0.00000 0.00000
  105 0.00000 0.00000 0.00000
  106 0.00000 0.00000 0.00000
  107 0.00000 0.00000 0.00000
  108 0.00000 0.00000 0.00000
  109 0.00000 0.00000 0.00000
  110 0.00000 0.00000 0.00000
  111 0.00000 0.00000 0.00000
  112 0.00000 0.00000 0.00000
  113 0.00000 0.00000 0.00000
  114 0.00000 0.00000 0.00000
  115 0.00000 0.00000 0.00000
  116 0.00000 0.00000 0.00000
  117 0.00000 0.00000 0.00000
  118 0.00000 0.00000 0.00000
  119 0.00000 0.00000 0.00000
  120 0.00000 0.00000 0.00000
  121 0.00000 0.00000 0.00000
  122 0.00000 0.00000 0.00000
  123 0.00000 0.00000 0.00000
  124 0.00000 0.00000 0.00000
  125 0.00000 0.00000 0.00000
  126 0.00000 0.00000 0.00000
  127 0.00000 0.00000 0.00000
  128 0.00000 0.00000 0.00000
  129 0.00000 0.00000 0.00000
  130 0.00000 0.00000 0.00000
  131 0.00000 0.00000 0.00000
  132 0.00000 0.00000 0.00000
  133 0.00000 0.00000 0.00000
  134 0.00000 0.00000 0.00000
  135 0.00000 0.00000 0.00000
  136 0.00000 0.00000 0.00000
  137 0.00000 0.00000 0.00000
  138 0.00000 0.00000 0.00000
  139 0.00000 0.00000 0.00000
  140 0.00000 0.00000 0.00000
  141 0.00000 0.00000 0.00000
  142 0.00000 0.00000 0.00000
  143 0.00000 0.00000 0.00000
  144 0.00000 0.00000 0.00000
  145 0.00000 0.00000 0.00000
  146 0.00000 0.00000 0.00000
  147 0.00000 0.00000 0.00000
  148 0.00000 0.00000 0.00000
  149 0.00000 0.00000 0.00000
  150 0.00000 0.00000 0.00000
  151 0.00000 0.00000 0.00000
  152 0.00000 0.00000 0.00000
  153 0.00000 0.00000 0.00000
  154 0.00000 0.00000 0.00000
  155 0.00000 0.00000 0.00000
  156 0.00000 0.00000 0.00000
  157 0.00000 0.00000 0.00000
  158 0.00000 0.00000 0.00000
  159 0.00000 0.00000 0.00000
  160 0.00000 0.00000 0.00000
  161 0.00000 0.00000 0.00000
  162 0.00000 0.00000 0.00000
  163 0.00000 0.00000 0.00000
  164 0.00000 0.00000 0.00000
  165 0.00000 0.00000 0.00000
  166 0.00000 0.00000 0.00000
  167 0.00000 0.00000 0.00000
  168 0.00000 0.00000 0.00000
  169 0.00000 0.00000 0.00000
  170 0.00000 0.00000 0.00000
  171 0.00000 0.00000 0.00000
  172 0.00000 0.00000 0.00000
  173 0.00000 0.00000 0.00000
  174 0.00000 0.00000 0.00000
  175 0.00000 0.00000 0.00000
  176 0.00000 0.00000 0.00000
  177 0.00000 0.00000 0.00000
  178 0.00000 0.00000 0.00000
  179 0.00000 0.00000 0.00000
  180 0.00000 0.00000 0.00000
  181 0.00000 0.00000 0.00000
  182 0.00000 0.00000 0.00000
  183 0.00000 0.00000 0.00000
  184 0.00000 0.00000 0.00000
  185 0.00000 0.00000 0.00000
  186 0.00000 0.00000 0.00000
  187 0.00000 0.00000 0.00000
  188 0.00000 0.00000 0.00000
  189 0.00000 0.00000 0.00000
  190 0.00000 0.00000 0.00000
  191 0.00000 0.00000 0.00000
  192 0.00000 0.00000 0.00000
  193 0.00000 0.00000 0.00000
  194 0.00000 0.00000 0.00000
  195 0.00000 0.00000 0.00000
  196 0.00000 0.00000 0.00000
  197 0.00000 0.00000 0.00000
  198 0.00000 0.00000 0.00000
  199 0.00000 0.00000 0.00000
  200 0.00000 0.00000 0.00000
  201 0.00000 0.00000 0.00000
  202 0.00000 0.00000 0.00000
  203 0.00000 0.00000 0.00000
  204 0.00000 0.00000 0.00000
  205 0.00000 0.00000 0.00000
  206 0.00000 0.00000 0.00000
  207 0.00000 0.00000 0.00000
  208 0.00000 0.00000 0.00000
  209 0.00000 0.00000 0.00000
  210 0.00000 0.00000 0.00000
  211 0.00000 0.00000 0.00000
  212 0.00000 0.00000 0.00000
  213 0.00000 0.00000 0.00000
  214 0.00000 0.00000 0.00000
  215 0.00000 0.00000 0.00000
  216 0.00000 0.00000 0.00000
  217 0.00000 0.00000 0.00000
  218 0.00000 0.00000 0.00000
  219 0.00000 0.00000 0.00000
  220 0.00000 0.00000 0.00000
  221 0.00000 0.00000 0.00000
  222 0.00000 0.00000 0.00000
  223 0.00000 0.00000 0.00000
  224 0.00000 0.00000 0.00000
  225 0.00000 0.00000 0.00000
  226 0.00000 0.00000 0.00000
  227 0.00000 0.00000 0.00000
  228 0.00000 0.00000 0.00000
  229 0.00000 0.00000 0.00000
  230 0.00000 0.00000 0.00000
  231 0.00000 0.00000 0.00000
  232 0.00000 0.00000 0.00000
  233 0.00000 0.00000 0.00000
  234 0.00000 0.00000 0.00000
  235 0.00000 0.00000 0.00000
  236 0.00000 0.00000 0.00000
  237 0.00000 0.00000 0.00000
  238 0.00000 0.00000 0.00000
  239 0.00000 0.00000 0.00000
  240 0.00000 0.00000 0.00000
  241 0.00000 0.00000 0.00000
</Section>

newXOutput 189

<Section columns = "stress_xx | stress_yy | stress_xy">
  1 0.00000 0.00000 0.00000
  2 0.00000 0.00000 0.00000
  3 0.00000 0.00000 0.00000
  4 0.00000 0.00000 0.00000
  5 0.00000 0.00000 0.00000
  6 0.00000 0.00000 0.00000
  7 0.00000 0.00000 0.00000
  8 0.00000 0.00000 0.00000
  9 0.00000 0.00000 0.00000
  10 0.00000 0.00000 0.00000
  11 0.00000 0.00000 0.00000
  12 0.00000 0.00000 0.00000
  13 0.00000 0.00000 0.00000
  14 0.00000 0.00000 0.00000
  15 0.00000 0.00000 0.00000
  16 0.00000 0.00000 0.00000
  17 0.00000 0.00000 0.00000
  18 0.00000 0.00000 0.00000
  19 0.00000 0.00000 0.00000
  20 0.00000 0.00000 0.00000
  21 0.00000 0.00000 0.00000
  22 0.00000 0.00000 0.00000
  23 0.00000 0.00000 0.00000
  24 0.00000 0.00000 0.00000
  25 0.00000 0.00000 0.00000
  26 0.00000 0.00000 0.00000
  27 0.00000 0.00000 0.00000
  28 0.00000 0.00000 0.00000
  29 0.00000 0.00000 0.00000
  30 0.00000 0.00000 0.00000
  31 0.00000 0.00000 0.00000
  32 0.00000 0.00000 0.00000
  33 0.00000 0.00000 0.00000
  34 0.00000 0.00000 0.00000
  35 0.00000 0.00000 0.00000
  36 0.00000 0.00000 0.00000
  37 0.00000 0.00000 0.00000
  38 0.00000 0.00000 0.00000
  39 0.00000 0.00000 0.00000
  40 0.00000 0.00000 0.00000
  41 0.00000 0.00000 0.00000
  42 0.00000 0.00000 0.00000
  43 0.00000 0.00000 0.00000
  44 0.00000 0.00000 0.00000
  45 0.00000 0.00000 0.00000
  46 0.00000 0.00000 0.00000
  47 0.00000 0.00000 0.00000
  48 0.00000 0.00000 0.00000
  49 0.00000 0.00000 0.00000
  50 0.00000 0.00000 0.00000
  51 0.00000 0.00000 0.00000
  52 0.00000 0.00000 0.00000
  53 0.00000 0.00000 0.00000
  54 0.00000 0.00000 0.00000
  55 0.00000 0.00000 0.00000
  56 0.00000 0.00000 0.00000
  57 0.00000 0.00000 0.00000
  58 0.00000 0.00000 0.00000
  59 0.00000 0.00000 0.00000
  60 0.00000 0.00000 0.00000
  61 0.00000 0.00000 0.00000
  62 0.00000 0.00000 0.00000
  63 0.00000 0.00000 0.00000
  64 0.00000 0.00000 0.00000
  65 0.00000 0.00000 0.00000
  66 0.00000 0.00000 0.00000
  67 0.00000 0.00000 0.00000
  68 0.00000 0.00000 0.00000
  69 0.00000 0.00000 0.00000
  70 0.00000 0.00000 0.00000
  71 0.00000 0.00000 0.00000
  72 0.00000 0.00000 0.00000
  73 0.00000 0.00000 0.00000
  74 0.00000 0.00000 0.00000
  75 0.00000 0.00000 0.00000
  76 0.00000 0.00000 0.00000
  77 0.00000 0.00000 0.00000
  78 0.00000 0.00000 0.00000
  79 0.00000 0.00000 0.00000
  80 0.00000 0.00000 0.00000
  81 0.00000 0.00000 0.00000
  82 0.00000 0.00000 0.00000
  83 0.00000 0.00000 0.00000
  84 0.00000 0.00000 0.00000
  85 0.00000 0.00000 0.00000
  86 0.00000 0.00000 0.00000
  87 0.00000 0.00000 0.00000
  88 0.00000 0.00000 0.00000
  89 0.00000 0.00000 0.00000
  90 0.00000 0.00000 0.00000
  91 0.00000 0.00000 0.00000
  92 0.00000 0.00000 0.00000
  93 0.00000 0.00000 0.00000
  94 0.00000 0.00000 0.00000
  95 0.00000 0.00000 0.00000
  96 0.00000 0.00000 0.00000
  97 0.00000 0.00000 0.00000
  98 0.00000 0.00000 0.00000
  99 0.00000 0.00000 0.00000
  100 0.00000 0.00000 0.00000
  101 0.00000 0.00000 0.00000
  102 0.00000 0.00000 0.00000
  103 0.00000 0.00000 0.00000
  104 0.00000 0.00000 0.00000
  105 0.00000 0.00000 0.00000
  106 0.00000 0.00000 0.00000
  107 0.00000 0.00000 0.00000
  108 0.00000 0.00000 0.00000
  109 0.00000 0.00000 0.00000
  110 0.00000 0.00000 0.00000
  111 0.00000 0.00000 0.00000
  112 0.00000 0.00000 0.00000
  113 0.00000 0.00000 0.00000
  114 0.00000 0.00000 0.00000
  115 0.00000 0.00000 0.00000
  116 0.00000 0.00000 0.00000
  117 0.00000 0.00000 0.00000
  118 0.00000 0.00000 0.00000
  119 0.00000 0.00000 0.00000
  120 0.00000 0.00000 0.00000
  121 0.00000 0.00000 0.00000
  122 0.00000 0.00000 0.00000
  123 0.00000 0.00000 0.00000
  124 0.00000 0.00000 0.00000
  125 0.00000 0.00000 0.00000
  126 0.00000 0.00000 0.00000
  127 0.00000 0.00000 0.00000
  128 0.00000 0.00000 0.00000
  129 0.00000 0.00000 0.00000
  130 0.00000 0.00000 0.00000
  131 0.00000 0.00000 0.00000
  132 0.00000 0.00000 0.00000
  133 0.00000 0.00000 0.00000
  134 0.00000 0.00000 0.00000
  135 0.00000 0.00000 0.00000
  136 0.00000 0.00000 0.00000
  137 0.00000 0.00000 0.00000
  138 0.00000 0.00000 0.00000
  139 0.00000 0.00000 0.00000
  140 0.00000 0.00000 0.00000
  141 0.00000 0.00000 0.00000
  142 0.00000 0.00000 0.00000
  143 0.00000 0.00000 0.00000
  144 0.00000 0.00000 0.00000
  145 0.00000 0.00000 0.00000
  146 0.00000 0.00000 0.00000
  147 0.00000 0.00000 0.00000
  148 0.00000 0.00000 0.00000
  149 0.00000 0.00000 0.00000
  150 0.00000 0.00000 0.00000
  151 0.00000 0.00000 0.00000
  152 0.00000 0.00000 0.00000
  153 0.00000 0.00000 0.00000
  154 0.00000 0.00000 0.00000
  155 0.00000 0.00000 0.00000
  156 0.00000 0.00000 0.00000
  157 0.00000 0.00000 0.00000
  158 0.00000 0.00000 0.00000
  159 0.00000 0.00000 0.00000
  160 0.00000 0.00000 0.00000
  161 0.00000 0.00000 0.00000
  162 0.00000 0.00000 0.00000
  163 0.00000 0.00000 0.00000
  164 0.00000 0.00000 0.00000
  165 0.00000 0.00000 0.00000
  166 0.00000 0.00000 0.00000
  167 0.00000 0.00000 0.00000
  168 0.00000 0.00000 0.00000
  169 0.00000 0.00000 0.00000
  170 0.00000 0.00000 0.00000
  171 0.00000 0.00000 0.00000
  172 0.00000 0.00000 0.00000
  173 0.00000 0.00000 0.00000
  174 0.00000 0.00000 0.00000
  175 0.00000 0.00000 0.00000
  176 0.00000 0.00000 0.00000
  177 0.00000 0.00000 0.00000
  178 0.00000 0.00000 0.00000
  179 0.00000 0.00000 0.00000
  180 0.00000 0.00000 0.00000
  181 0.00000 0.00000 0.00000
  182 0.00000 0.00000 0.00000
  183 0.00000 0.00000 0.00000
  184 0.00000 0.00000 0.00000
  185 0.00000 0.00000 0.00000
  186 0.00000 0.00000 0.00000
  187 0.00000 0.00000 0.00000
  188 0.00000 0.00000 0.00000
  189 0.00000 0.00000 0.00000
  190 0.00000 0.00000 0.00000
  191 0.00000 0.00000 0.00000
  192 0.00000 0.00000 0.00000
  193 0.00000 0.00000 0.00000
  194 0.00000 0.00000 0.00000
  195 0.00000 0.00000 0.00000
  196 0.00000 0.00000 0.00000
  197 0.00000 0.00000 0.00000
  198 0.00000 0.00000 0.00000
  199 0.00000 0.00000 0.00000
  200 0.00000 0.00000 0.00000
  201 0.00000 0.00000 0.00000
  202 0.00000 0.00000 0.00000
  203 0.00000 0.00000 0.00000
  204 0.00000 0.00000 0.00000
  205 0.00000 0.00000 0.00000
  206 0.00000 0.00000 0.00000
  207 0.00000 0.00000 0.00000
  208 0.00000 0.00000 0.00000
  209 0.00000 0.00000 0.00000
  210 0.00000 0.00000 0.00000
  211 0.00000 0.00000 0.00000
  212 0.00000 0.00000 0.00000
  213 0.00000 0.00000 0.00000
  214 0.00000 0.00000 0.00000
  215 0.00000 0.00000 0.00000
  216 0.00000 0.00000 0.00000
  217 0.00000 0.00000 0.00000
  218 0.00000 0.00000 0.00000
  219 0.00000 0.00000 0.00000
  220 0.00000 0.00000 0.00000
  221 0.00000 0.00000 0.00000
  222 0.00000 0.00000 0.00000
  223 0.00000 0.00000 0.00000
  224 0.00000 0.00000 0.00000
  225 0.00000 0.00000 0.00000
  226 0.00000 0.00000 0.00000
  227 0.00000 0.00000 0.00000
  228 0.00000 0.00000 0.00000
  229 0.00000 0.00000 0.00000
  230 0.00000 0.00000 0.00000
  231 0.00000 0.00000 0.00000
  232 0.00000 0.00000 0.00000
  233 0.00000 0.00000 0.00000
  234 0.00000 0.00000 0.00000
  235 0.00000 0.00000 0.00000
  236 0.00000 0.00000 0.00000
  237 0.00000 0.00000 0.00000
  238 0.00000 0.00000 0.00000
  239 0.00000 0.00000 0.00000
  240 0.00000 0.00000 0.00000
  241 0.00000 0.00000 0.00000
</Section>

newXOutput 190

<Section columns = "stress_xx | stress_yy | stress_xy">
  1 0.00000 0.00000 0.00000
  2 0.00000 0.00000 0.00000
  3 0.00000 0.00000 0.00000
  4 0.00000 0.00000 0.00000
  5 0.00000 0.00000 0.00000
  6 0.00000 0.00000 0.00000
  7 0.00000 0.00000 0.00000
  8 0.00000 0.00000 0.00000
  9 0.00000 0.00000 0.00000
  10 0.00000 0.00000 0.00000
  11 0.00000 0.00000 0.00000
  12 0.00000 0.00000 0.00000
  13 0.00000 0.00000 0.00000
  14 0.00000 0.00000 0.00000
  15 0.00000 0.00000 0.00000
  16 0.00000 0.00000 0.00000
  17 0.00000 0.00000 0.00000
  18 0.00000 0.00000 0.00000
  19 0.00000 0.00000 0.00000
  20 0.00000 0.00000 0.00000
  21 0.00000 0.00000 0.00000
  22 0.00000 0.00000 0.00000
  23 0.00000 0.00000 0.00000
  24 0.00000 0.00000 0.00000
  25 0.00000 0.00000 0.00000
  26 0.00000 0.00000 0.00000
  27 0.00000 0.00000 0.00000
  28 0.00000 0.00000 0.00000
  29 0.00000 0.00000 0.00000
  30 0.00000 0.00000 0.00000
  31 0.00000 0.00000 0.00000
  32 0.00000 0.00000 0.00000
  33 0.00000 0.00000 0.00000
  34 0.00000 0.00000 0.00000
  35 0.00000 0.00000 0.00000
  36 0.00000 0.00000 0.00000
  37 0.00000 0.00000 0.00000
  38 0.00000 0.00000 0.00000
  39 0.00000 0.00000 0.00000
  40 0.00000 0.00000 0.00000
  41 0.00000 0.00000 0.00000
  42 0.00000 0.00000 0.00000
  43 0.00000 0.00000 0.00000
  44 0.00000 0.00000 0.00000
  45 0.00000 0.00000 0.00000
  46 0.00000 0.00000 0.00000
  47 0.00000 0.00000 0.00000
  48 0.00000 0.00000 0.00000
  49 0.00000 0.00000 0.00000
  50 0.00000 0.00000 0.00000
  51 0.00000 0.00000 0.00000
  52 0.00000 0.00000 0.00000
  53 0.00000 0.00000 0.00000
  54 0.00000 0.00000 0.00000
  55 0.00000 0.00000 0.00000
  56 0.00000 0.00000 0.00000
  57 0.00000 0.00000 0.00000
  58 0.00000 0.00000 0.00000
  59 0.00000 0.00000 0.00000
  60 0.00000 0.00000 0.00000
  61 0.00000 0.00000 0.00000
  62 0.00000 0.00000 0.00000
  63 0.00000 0.00000 0.00000
  64 0.00000 0.00000 0.00000
  65 0.00000 0.00000 0.00000
  66 0.00000 0.00000 0.00000
  67 0.00000 0.00000 0.00000
  68 0.00000 0.00000 0.00000
  69 0.00000 0.00000 0.00000
  70 0.00000 0.00000 0.00000
  71 0.00000 0.00000 0.00000
  72 0.00000 0.00000 0.00000
  73 0.00000 0.00000 0.00000
  74 0.00000 0.00000 0.00000
  75 0.00000 0.00000 0.00000
  76 0.00000 0.00000 0.00000
  77 0.00000 0.00000 0.00000
  78 0.00000 0.00000 0.00000
  79 0.00000 0.00000 0.00000
  80 0.00000 0.00000 0.00000
  81 0.00000 0.00000 0.00000
  82 0.00000 0.00000 0.00000
  83 0.00000 0.00000 0.00000
  84 0.00000 0.00000 0.00000
  85 0.00000 0.00000 0.00000
  86 0.00000 0.00000 0.00000
  87 0.00000 0.00000 0.00000
  88 0.00000 0.00000 0.00000
  89 0.00000 0.00000 0.00000
  90 0.00000 0.00000 0.00000
  91 0.00000 0.00000 0.00000
  92 0.00000 0.00000 0.00000
  93 0.00000 0.00000 0.00000
  94 0.00000 0.00000 0.00000
  95 0.00000 0.00000 0.00000
  96 0.00000 0.00000 0.00000
  97 0.00000 0.00000 0.00000
  98 0.00000 0.00000 0.00000
  99 0.00000 0.00000 0.00000
  100 0.00000 0.00000 0.00000
  101 0.00000 0.00000 0.00000
  102 0.00000 0.00000 0.00000
  103 0.00000 0.00000 0.00000
  104 0.00000 0.00000 0.00000
  105 0.00000 0.00000 0.00000
  106 0.00000 0.00000 0.00000
  107 0.00000 0.00000 0.00000
  108 0.00000 0.00000 0.00000
  109 0.00000 0.00000 0.00000
  110 0.00000 0.00000 0.00000
  111 0.00000 0.00000 0.00000
  112 0.00000 0.00000 0.00000
  113 0.00000 0.00000 0.00000
  114 0.00000 0.00000 0.00000
  115 0.00000 0.00000 0.00000
  116 0.00000 0.00000 0.00000
  117 0.00000 0.00000 0.00000
  118 0.00000 0.00000 0.00000
  119 0.00000 0.00000 0.00000
  120 0.00000 0.00000 0.00000
  121 0.00000 0.00000 0.00000
  122 0.00000 0.00000 0.00000
  123 0.00000 0.00000 0.00000
  124 0.00000 0.00000 0.00000
  125 0.00000 0.00000 0.00000
  126 0.00000 0.00000 0.00000
  127 0.00000 0.00000 0.00000
  128 0.00000 0.00000 0.00000
  129 0.00000 0.00000 0.00000
  130 0.00000 0.00000 0.00000
  131 0.00000 0.00000 0.00000
  132 0.00000 0.00000 0.00000
  133 0.00000 0.00000 0.00000
  134 0.00000 0.00000 0.00000
  135 0.00000 0.00000 0.00000
  136 0.00000 0.00000 0.00000
  137 0.00000 0.00000 0.00000
  138 0.00000 0.00000 0.00000
  139 0.00000 0.00000 0.00000
  140 0.00000 0.00000 0.00000
  141 0.00000 0.00000 0.00000
  142 0.00000 0.00000 0.00000
  143 0.00000 0.00000 0.00000
  144 0.00000 0.00000 0.00000
  145 0.00000 0.00000 0.00000
  146 0.00000 0.00000 0.00000
  147 0.00000 0.00000 0.00000
  148 0.00000 0.00000 0.00000
  149 0.00000 0.00000 0.00000
  150 0.00000 0.00000 0.00000
  151 0.00000 0.00000 0.00000
  152 0.00000 0.00000 0.00000
  153 0.00000 0.00000 0.00000
  154 0.00000 0.00000 0.00000
  155 0.00000 0.00000 0.00000
  156 0.00000 0.00000 0.00000
  157 0.00000 0.00000 0.00000
  158 0.00000 0.00000 0.00000
  159 0.00000 0.00000 0.00000
  160 0.00000 0.00000 0.00000
  161 0.00000 0.00000 0.00000
  162 0.00000 0.00000 0.00000
  163 0.00000 0.00000 0.00000
  164 0.00000 0.00000 0.00000
  165 0.00000 0.00000 0.00000
  166 0.00000 0.00000 0.00000
  167 0.00000 0.00000 0.00000
  168 0.00000 0.00000 0.00000
  169 0.00000 0.00000 0.00000
  170 0.00000 0.00000 0.00000
  171 0.00000 0.00000 0.00000
  172 0.00000 0.00000 0.00000
  173 0.00000 0.00000 0.00000
  174 0.00000 0.00000 0.00000
  175 0.00000 0.00000 0.00000
  176 0.00000 0.00000 0.00000
  177 0.00000 0.00000 0.00000
  178 0.00000 0.00000 0.00000
  179 0.00000 0.00000 0.00000
  180 0.00000 0.00000 0.00000
  181 0.00000 0.00000 0.00000
  182 0.00000 0.00000 0.00000
  183 0.00000 0.00000 0.00000
  184 0.00000 0.00000 0.00000
  185 0.00000 0.00000 0.00000
  186 0.00000 0.00000 0.00000
  187 0.00000 0.00000 0.00000
  188 0.00000 0.00000 0.00000
  189 0.00000 0.00000 0.00000
  190 0.00000 0.00000 0.00000
  191 0.00000 0.00000 0.00000
  192 0.00000 0.00000 0.00000
  193 0.00000 0.00000 0.00000
  194 0.00000 0.00000 0.00000
  195 0.00000 0.00000 0.00000
  196 0.00000 0.00000 0.00000
  197 0.00000 0.00000 0.00000
  198 0.00000 0.00000 0.00000
  199 0.00000 0.00000 0.00000
  200 0.00000 0.00000 0.00000
  201 0.00000 0.00000 0.00000
  202 0.00000 0.00000 0.00000
  203 0.00000 0.00000 0.00000
  204 0.00000 0.00000 0.00000
  205 0.00000 0.00000 0.00000
  206 0.00000 0.00000 0.00000
  207 0.00000 0.00000 0.00000
  208 0.00000 0.00000 0.00000
  209 0.00000 0.00000 0.00000
  210 0.00000 0.00000 0.00000
  211 0.00000 0.00000 0.00000
  212 0.00000 0.00000 0.00000
  213 0.00000 0.00000 0.00000
  214 0.00000 0.00000 0.00000
  215 0.00000 0.00000 0.00000
  216 0.00000 0.00000 0.00000
  217 0.00000 0.00000 0.00000
  218 0.00000 0.00000 0.00000
  219 0.00000 0.00000 0.00000
  220 0.00000 0.00000 0.00000
  221 0.00000 0.00000 0.00000
  222 0.00000 0.00000 0.00000
  223 0.00000 0.00000 0.00000
  224 0.00000 0.00000 0.00000
  225 0.00000 0.00000 0.00000
  226 0.00000 0.00000 0.00000
  227 0.00000 0.00000 0.00000
  228 0.00000 0.00000 0.00000
  229 0.00000 0.00000 0.00000
  230 0.00000 0.00000 0.00000
  231 0.00000 0.00000 0.00000
  232 0.00000 0.00000 0.00000
  233 0.00000 0.00000 0.00000
  234 0.00000 0.00000 0.00000
  235 0.00000 0.00000 0.00000
  236 0.00000 0.00000 0.00000
  237 0.00000 0.00000 0.00000
  238 0.00000 0.00000 0.00000
  239 0.00000 0.00000 0.00000
  240 0.00000 0.00000 0.00000
  241 0.00000 0.00000 0.00000
</Section>

newXOutput 191

<Section columns = "stress_xx | stress_yy | stress_xy">
  1 0.00000 0.00000 0.00000
  2 0.00000 0.00000 0.00000
  3 0.00000 0.00000 0.00000
  4 0.00000 0.00000 0.00000
  5 0.00000 0.00000 0.00000
  6 0.00000 0.00000 0.00000
  7 0.00000 0.00000 0.00000
  8 0.00000 0.00000 0.00000
  9 0.00000 0.00000 0.00000
  10 0.00000 0.00000 0.00000
  11 0.00000 0.00000 0.00000
  12 0.00000 0.00000 0.00000
  13 0.00000 0.00000 0.00000
  14 0.00000 0.00000 0.00000
  15 0.00000 0.00000 0.00000
  16 0.00000 0.00000 0.00000
  17 0.00000 0.00000 0.00000
  18 0.00000 0.00000 0.00000
  19 0.00000 0.00000 0.00000
  20 0.00000 0.00000 0.00000
  21 0.00000 0.00000 0.00000
  22 0.00000 0.00000 0.00000
  23 0.00000 0.00000 0.00000
  24 0.00000 0.00000 0.00000
  25 0.00000 0.00000 0.00000
  26 0.00000 0.00000 0.00000
  27 0.00000 0.00000 0.00000
  28 0.00000 0.00000 0.00000
  29 0.00000 0.00000 0.00000
  30 0.00000 0.00000 0.00000
  31 0.00000 0.00000 0.00000
  32 0.00000 0.00000 0.00000
  33 0.00000 0.00000 0.00000
  34 0.00000 0.00000 0.00000
  35 0.00000 0.00000 0.00000
  36 0.00000 0.00000 0.00000
  37 0.00000 0.00000 0.00000
  38 0.00000 0.00000 0.00000
  39 0.00000 0.00000 0.00000
  40 0.00000 0.00000 0.00000
  41 0.00000 0.00000 0.00000
  42 0.00000 0.00000 0.00000
  43 0.00000 0.00000 0.00000
  44 0.00000 0.00000 0.00000
  45 0.00000 0.00000 0.00000
  46 0.00000 0.00000 0.00000
  47 0.00000 0.00000 0.00000
  48 0.00000 0.00000 0.00000
  49 0.00000 0.00000 0.00000
  50 0.00000 0.00000 0.00000
  51 0.00000 0.00000 0.00000
  52 0.00000 0.00000 0.00000
  53 0.00000 0.00000 0.00000
  54 0.00000 0.00000 0.00000
  55 0.00000 0.00000 0.00000
  56 0.00000 0.00000 0.00000
  57 0.00000 0.00000 0.00000
  58 0.00000 0.00000 0.00000
  59 0.00000 0.00000 0.00000
  60 0.00000 0.00000 0.00000
  61 0.00000 0.00000 0.00000
  62 0.00000 0.00000 0.00000
  63 0.00000 0.00000 0.00000
  64 0.00000 0.00000 0.00000
  65 0.00000 0.00000 0.00000
  66 0.00000 0.00000 0.00000
  67 0.00000 0.00000 0.00000
  68 0.00000 0.00000 0.00000
  69 0.00000 0.00000 0.00000
  70 0.00000 0.00000 0.00000
  71 0.00000 0.00000 0.00000
  72 0.00000 0.00000 0.00000
  73 0.00000 0.00000 0.00000
  74 0.00000 0.00000 0.00000
  75 0.00000 0.00000 0.00000
  76 0.00000 0.00000 0.00000
  77 0.00000 0.00000 0.00000
  78 0.00000 0.00000 0.00000
  79 0.00000 0.00000 0.00000
  80 0.00000 0.00000 0.00000
  81 0.00000 0.00000 0.00000
  82 0.00000 0.00000 0.00000
  83 0.00000 0.00000 0.00000
  84 0.00000 0.00000 0.00000
  85 0.00000 0.00000 0.00000
  86 0.00000 0.00000 0.00000
  87 0.00000 0.00000 0.00000
  88 0.00000 0.00000 0.00000
  89 0.00000 0.00000 0.00000
  90 0.00000 0.00000 0.00000
  91 0.00000 0.00000 0.00000
  92 0.00000 0.00000 0.00000
  93 0.00000 0.00000 0.00000
  94 0.00000 0.00000 0.00000
  95 0.00000 0.00000 0.00000
  96 0.00000 0.00000 0.00000
  97 0.00000 0.00000 0.00000
  98 0.00000 0.00000 0.00000
  99 0.00000 0.00000 0.00000
  100 0.00000 0.00000 0.00000
  101 0.00000 0.00000 0.00000
  102 0.00000 0.00000 0.00000
  103 0.00000 0.00000 0.00000
  104 0.00000 0.00000 0.00000
  105 0.00000 0.00000 0.00000
  106 0.00000 0.00000 0.00000
  107 0.00000 0.00000 0.00000
  108 0.00000 0.00000 0.00000
  109 0.00000 0.00000 0.00000
  110 0.00000 0.00000 0.00000
  111 0.00000 0.00000 0.00000
  112 0.00000 0.00000 0.00000
  113 0.00000 0.00000 0.00000
  114 0.00000 0.00000 0.00000
  115 0.00000 0.00000 0.00000
  116 0.00000 0.00000 0.00000
  117 0.00000 0.00000 0.00000
  118 0.00000 0.00000 0.00000
  119 0.00000 0.00000 0.00000
  120 0.00000 0.00000 0.00000
  121 0.00000 0.00000 0.00000
  122 0.00000 0.00000 0.00000
  123 0.00000 0.00000 0.00000
  124 0.00000 0.00000 0.00000
  125 0.00000 0.00000 0.00000
  126 0.00000 0.00000 0.00000
  127 0.00000 0.00000 0.00000
  128 0.00000 0.00000 0.00000
  129 0.00000 0.00000 0.00000
  130 0.00000 0.00000 0.00000
  131 0.00000 0.00000 0.00000
  132 0.00000 0.00000 0.00000
  133 0.00000 0.00000 0.00000
  134 0.00000 0.00000 0.00000
  135 0.00000 0.00000 0.00000
  136 0.00000 0.00000 0.00000
  137 0.00000 0.00000 0.00000
  138 0.00000 0.00000 0.00000
  139 0.00000 0.00000 0.00000
  140 0.00000 0.00000 0.00000
  141 0.00000 0.00000 0.00000
  142 0.00000 0.00000 0.00000
  143 0.00000 0.00000 0.00000
  144 0.00000 0.00000 0.00000
  145 0.00000 0.00000 0.00000
  146 0.00000 0.00000 0.00000
  147 0.00000 0.00000 0.00000
  148 0.00000 0.00000 0.00000
  149 0.00000 0.00000 0.00000
  150 0.00000 0.00000 0.00000
  151 0.00000 0.00000 0.00000
  152 0.00000 0.00000 0.00000
  153 0.00000 0.00000 0.00000
  154 0.00000 0.00000 0.00000
  155 0.00000 0.00000 0.00000
  156 0.00000 0.00000 0.00000
  157 0.00000 0.00000 0.00000
  158 0.00000 0.00000 0.00000
  159 0.00000 0.00000 0.00000
  160 0.00000 0.00000 0.00000
  161 0.00000 0.00000 0.00000
  162 0.00000 0.00000 0.00000
  163 0.00000 0.00000 0.00000
  164 0.00000 0.00000 0.00000
  165 0.00000 0.00000 0.00000
  166 0.00000 0.00000 0.00000
  167 0.00000 0.00000 0.00000
  168 0.00000 0.00000 0.00000
  169 0.00000 0.00000 0.00000
  170 0.00000 0.00000 0.00000
  171 0.00000 0.00000 0.00000
  172 0.00000 0.00000 0.00000
  173 0.00000 0.00000 0.00000
  174 0.00000 0.00000 0.00000
  175 0.00000 0.00000 0.00000
  176 0.00000 0.00000 0.00000
  177 0.00000 0.00000 0.00000
  178 0.00000 0.00000 0.00000
  179 0.00000 0.00000 0.00000
  180 0.00000 0.00000 0.00000
  181 0.00000 0.00000 0.00000
  182 0.00000 0.00000 0.00000
  183 0.00000 0.00000 0.00000
  184 0.00000 0.00000 0.00000
  185 0.00000 0.00000 0.00000
  186 0.00000 0.00000 0.00000
  187 0.00000 0.00000 0.00000
  188 0.00000 0.00000 0.00000
  189 0.00000 0.00000 0.00000
  190 0.00000 0.00000 0.00000
  191 0.00000 0.00000 0.00000
  192 0.00000 0.00000 0.00000
  193 0.00000 0.00000 0.00000
  194 0.00000 0.00000 0.00000
  195 0.00000 0.00000 0.00000
  196 0.00000 0.00000 0.00000
  197 0.00000 0.00000 0.00000
  198 0.00000 0.00000 0.00000
  199 0.00000 0.00000 0.00000
  200 0.00000 0.00000 0.00000
  201 0.00000 0.00000 0.00000
  202 0.00000 0.00000 0.00000
  203 0.00000 0.00000 0.00000
  204 0.00000 0.00000 0.00000
  205 0.00000 0.00000 0.00000
  206 0.00000 0.00000 0.00000
  207 0.00000 0.00000 0.00000
  208 0.00000 0.00000 0.00000
  209 0.00000 0.00000 0.00000
  210 0.00000 0.00000 0.00000
  211 0.00000 0.00000 0.00000
  212 0.00000 0.00000 0.00000
  213 0.00000 0.00000 0.00000
  214 0.00000 0.00000 0.00000
  215 0.00000 0.00000 0.00000
  216 0.00000 0.00000 0.00000
  217 0.00000 0.00000 0.00000
  218 0.00000 0.00000 0.00000
  219 0.00000 0.00000 0.00000
  220 0.00000 0.00000 0.00000
  221 0.00000 0.00000 0.00000
  222 0.00000 0.00000 0.00000
  223 0.00000 0.00000 0.00000
  224 0.00000 0.00000 0.00000
  225 0.00000 0.00000 0.00000
  226 0.00000 0.00000 0.00000
  227 0.00000 0.00000 0.00000
  228 0.00000 0.00000 0.00000
  229 0.00000 0.00000 0.00000
  230 0.00000 0.00000 0.00000
  231 0.00000 0.00000 0.00000
  232 0.00000 0.00000 0.00000
  233 0.00000 0.00000 0.00000
  234 0.00000 0.00000 0.00000
  235 0.00000 0.00000 0.00000
  236 0.00000 0.00000 0.00000
  237 0.00000 0.00000 0.00000
  238 0.00000 0.00000 0.00000
  239 0.00000 0.00000 0.00000
  240 0.00000 0.00000 0.00000
  241 0.00000 0.00000 0.00000
</Section>

newXOutput 192

<Section columns = "stress_xx | stress_yy | stress_xy">
  1 0.00000 0.00000 0.00000
  2 0.00000 0.00000 0.00000
  3 0.00000 0.00000 0.00000
  4 0.00000 0.00000 0.00000
  5 0.00000 0.00000 0.00000
  6 0.00000 0.00000 0.00000
  7 0.00000 0.00000 0.00000
  8 0.00000 0.00000 0.00000
  9 0.00000 0.00000 0.00000
  10 0.00000 0.00000 0.00000
  11 0.00000 0.00000 0.00000
  12 0.00000 0.00000 0.00000
  13 0.00000 0.00000 0.00000
  14 0.00000 0.00000 0.00000
  15 0.00000 0.00000 0.00000
  16 0.00000 0.00000 0.00000
  17 0.00000 0.00000 0.00000
  18 0.00000 0.00000 0.00000
  19 0.00000 0.00000 0.00000
  20 0.00000 0.00000 0.00000
  21 0.00000 0.00000 0.00000
  22 0.00000 0.00000 0.00000
  23 0.00000 0.00000 0.00000
  24 0.00000 0.00000 0.00000
  25 0.00000 0.00000 0.00000
  26 0.00000 0.00000 0.00000
  27 0.00000 0.00000 0.00000
  28 0.00000 0.00000 0.00000
  29 0.00000 0.00000 0.00000
  30 0.00000 0.00000 0.00000
  31 0.00000 0.00000 0.00000
  32 0.00000 0.00000 0.00000
  33 0.00000 0.00000 0.00000
  34 0.00000 0.00000 0.00000
  35 0.00000 0.00000 0.00000
  36 0.00000 0.00000 0.00000
  37 0.00000 0.00000 0.00000
  38 0.00000 0.00000 0.00000
  39 0.00000 0.00000 0.00000
  40 0.00000 0.00000 0.00000
  41 0.00000 0.00000 0.00000
  42 0.00000 0.00000 0.00000
  43 0.00000 0.00000 0.00000
  44 0.00000 0.00000 0.00000
  45 0.00000 0.00000 0.00000
  46 0.00000 0.00000 0.00000
  47 0.00000 0.00000 0.00000
  48 0.00000 0.00000 0.00000
  49 0.00000 0.00000 0.00000
  50 0.00000 0.00000 0.00000
  51 0.00000 0.00000 0.00000
  52 0.00000 0.00000 0.00000
  53 0.00000 0.00000 0.00000
  54 0.00000 0.00000 0.00000
  55 0.00000 0.00000 0.00000
  56 0.00000 0.00000 0.00000
  57 0.00000 0.00000 0.00000
  58 0.00000 0.00000 0.00000
  59 0.00000 0.00000 0.00000
  60 0.00000 0.00000 0.00000
  61 0.00000 0.00000 0.00000
  62 0.00000 0.00000 0.00000
  63 0.00000 0.00000 0.00000
  64 0.00000 0.00000 0.00000
  65 0.00000 0.00000 0.00000
  66 0.00000 0.00000 0.00000
  67 0.00000 0.00000 0.00000
  68 0.00000 0.00000 0.00000
  69 0.00000 0.00000 0.00000
  70 0.00000 0.00000 0.00000
  71 0.00000 0.00000 0.00000
  72 0.00000 0.00000 0.00000
  73 0.00000 0.00000 0.00000
  74 0.00000 0.00000 0.00000
  75 0.00000 0.00000 0.00000
  76 0.00000 0.00000 0.00000
  77 0.00000 0.00000 0.00000
  78 0.00000 0.00000 0.00000
  79 0.00000 0.00000 0.00000
  80 0.00000 0.00000 0.00000
  81 0.00000 0.00000 0.00000
  82 0.00000 0.00000 0.00000
  83 0.00000 0.00000 0.00000
  84 0.00000 0.00000 0.00000
  85 0.00000 0.00000 0.00000
  86 0.00000 0.00000 0.00000
  87 0.00000 0.00000 0.00000
  88 0.00000 0.00000 0.00000
  89 0.00000 0.00000 0.00000
  90 0.00000 0.00000 0.00000
  91 0.00000 0.00000 0.00000
  92 0.00000 0.00000 0.00000
  93 0.00000 0.00000 0.00000
  94 0.00000 0.00000 0.00000
  95 0.00000 0.00000 0.00000
  96 0.00000 0.00000 0.00000
  97 0.00000 0.00000 0.00000
  98 0.00000 0.00000 0.00000
  99 0.00000 0.00000 0.00000
  100 0.00000 0.00000 0.00000
  101 0.00000 0.00000 0.00000
  102 0.00000 0.00000 0.00000
  103 0.00000 0.00000 0.00000
  104 0.00000 0.00000 0.00000
  105 0.00000 0.00000 0.00000
  106 0.00000 0.00000 0.00000
  107 0.00000 0.00000 0.00000
  108 0.00000 0.00000 0.00000
  109 0.00000 0.00000 0.00000
  110 0.00000 0.00000 0.00000
  111 0.00000 0.00000 0.00000
  112 0.00000 0.00000 0.00000
  113 0.00000 0.00000 0.00000
  114 0.00000 0.00000 0.00000
  115 0.00000 0.00000 0.00000
  116 0.00000 0.00000 0.00000
  117 0.00000 0.00000 0.00000
  118 0.00000 0.00000 0.00000
  119 0.00000 0.00000 0.00000
  120 0.00000 0.00000 0.00000
  121 0.00000 0.00000 0.00000
  122 0.00000 0.00000 0.00000
  123 0.00000 0.00000 0.00000
  124 0.00000 0.00000 0.00000
  125 0.00000 0.00000 0.00000
  126 0.00000 0.00000 0.00000
  127 0.00000 0.00000 0.00000
  128 0.00000 0.00000 0.00000
  129 0.00000 0.00000 0.00000
  130 0.00000 0.00000 0.00000
  131 0.00000 0.00000 0.00000
  132 0.00000 0.00000 0.00000
  133 0.00000 0.00000 0.00000
  134 0.00000 0.00000 0.00000
  135 0.00000 0.00000 0.00000
  136 0.00000 0.00000 0.00000
  137 0.00000 0.00000 0.00000
  138 0.00000 0.00000 0.00000
  139 0.00000 0.00000 0.00000
  140 0.00000 0.00000 0.00000
  141 0.00000 0.00000 0.00000
  142 0.00000 0.00000 0.00000
  143 0.00000 0.00000 0.00000
  144 0.00000 0.00000 0.00000
  145 0.00000 0.00000 0.00000
  146 0.00000 0.00000 0.00000
  147 0.00000 0.00000 0.00000
  148 0.00000 0.00000 0.00000
  149 0.00000 0.00000 0.00000
  150 0.00000 0.00000 0.00000
  151 0.00000 0.00000 0.00000
  152 0.00000 0.00000 0.00000
  153 0.00000 0.00000 0.00000
  154 0.00000 0.00000 0.00000
  155 0.00000 0.00000 0.00000
  156 0.00000 0.00000 0.00000
  157 0.00000 0.00000 0.00000
  158 0.00000 0.00000 0.00000
  159 0.00000 0.00000 0.00000
  160 0.00000 0.00000 0.00000
  161 0.00000 0.00000 0.00000
  162 0.00000 0.00000 0.00000
  163 0.00000 0.00000 0.00000
  164 0.00000 0.00000 0.00000
  165 0.00000 0.00000 0.00000
  166 0.00000 0.00000 0.00000
  167 0.00000 0.00000 0.00000
  168 0.00000 0.00000 0.00000
  169 0.00000 0.00000 0.00000
  170 0.00000 0.00000 0.00000
  171 0.00000 0.00000 0.00000
  172 0.00000 0.00000 0.00000
  173 0.00000 0.00000 0.00000
  174 0.00000 0.00000 0.00000
  175 0.00000 0.00000 0.00000
  176 0.00000 0.00000 0.00000
  177 0.00000 0.00000 0.00000
  178 0.00000 0.00000 0.00000
  179 0.00000 0.00000 0.00000
  180 0.00000 0.00000 0.00000
  181 0.00000 0.00000 0.00000
  182 0.00000 0.00000 0.00000
  183 0.00000 0.00000 0.00000
  184 0.00000 0.00000 0.00000
  185 0.00000 0.00000 0.00000
  186 0.00000 0.00000 0.00000
  187 0.00000 0.00000 0.00000
  188 0.00000 0.00000 0.00000
  189 0.00000 0.00000 0.00000
  190 0.00000 0.00000 0.00000
  191 0.00000 0.00000 0.00000
  192 0.00000 0.00000 0.00000
  193 0.00000 0.00000 0.00000
  194 0.00000 0.00000 0.00000
  195 0.00000 0.00000 0.00000
  196 0.00000 0.00000 0.00000
  197 0.00000 0.00000 0.00000
  198 0.00000 0.00000 0.00000
  199 0.00000 0.00000 0.00000
  200 0.00000 0.00000 0.00000
  201 0.00000 0.00000 0.00000
  202 0.00000 0.00000 0.00000
  203 0.00000 0.00000 0.00000
  204 0.00000 0.00000 0.00000
  205 0.00000 0.00000 0.00000
  206 0.00000 0.00000 0.00000
  207 0.00000 0.00000 0.00000
  208 0.00000 0.00000 0.00000
  209 0.00000 0.00000 0.00000
  210 0.00000 0.00000 0.00000
  211 0.00000 0.00000 0.00000
  212 0.00000 0.00000 0.00000
  213 0.00000 0.00000 0.00000
  214 0.00000 0.00000 0.00000
  215 0.00000 0.00000 0.00000
  216 0.00000 0.00000 0.00000
  217 0.00000 0.00000 0.00000
  218 0.00000 0.00000 0.00000
  219 0.00000 0.00000 0.00000
  220 0.00000 0.00000 0.00000
  221 0.00000 0.00000 0.00000
  222 0.00000 0.00000 0.00000
  223 0.00000 0.00000 0.00000
  224 0.00000 0.00000 0.00000
  225 0.00000 0.00000 0.00000
  226 0.00000 0.00000 0.00000
  227 0.00000 0.00000 0.00000
  228 0.00000 0.00000 0.00000
  229 0.00000 0.00000 0.00000
  230 0.00000 0.00000 0.00000
  231 0.00000 0.00000 0.00000
  232 0.00000 0.00000 0.00000
  233 0.00000 0.00000 0.00000
  234 0.00000 0.00000 0.00000
  235 0.00000 0.00000 0.00000
  236 0.00000 0.00000 0.00000
  237 0.00000 0.00000 0.00000
  238 0.00000 0.00000 0.00000
  239 0.00000 0.00000 0.00000
  240 0.00000 0.00000 0.00000
  241 0.00000 0.00000 0.00000
</Section>

newXOutput 193

<Section columns = "stress_xx | stress_yy | stress_xy">
  1 0.00000 0.00000 0.00000
  2 0.00000 0.00000 0.00000
  3 0.00000 0.00000 0.00000
  4 0.00000 0.00000 0.00000
  5 0.00000 0.00000 0.00000
  6 0.00000 0.00000 0.00000
  7 0.00000 0.00000 0.00000
  8 0.00000 0.00000 0.00000
  9 0.00000 0.00000 0.00000
  10 0.00000 0.00000 0.00000
  11 0.00000 0.00000 0.00000
  12 0.00000 0.00000 0.00000
  13 0.00000 0.00000 0.00000
  14 0.00000 0.00000 0.00000
  15 0.00000 0.00000 0.00000
  16 0.00000 0.00000 0.00000
  17 0.00000 0.00000 0.00000
  18 0.00000 0.00000 0.00000
  19 0.00000 0.00000 0.00000
  20 0.00000 0.00000 0.00000
  21 0.00000 0.00000 0.00000
  22 0.00000 0.00000 0.00000
  23 0.00000 0.00000 0.00000
  24 0.00000 0.00000 0.00000
  25 0.00000 0.00000 0.00000
  26 0.00000 0.00000 0.00000
  27 0.00000 0.00000 0.00000
  28 0.00000 0.00000 0.00000
  29 0.00000 0.00000 0.00000
  30 0.00000 0.00000 0.00000
  31 0.00000 0.00000 0.00000
  32 0.00000 0.00000 0.00000
  33 0.00000 0.00000 0.00000
  34 0.00000 0.00000 0.00000
  35 0.00000 0.00000 0.00000
  36 0.00000 0.00000 0.00000
  37 0.00000 0.00000 0.00000
  38 0.00000 0.00000 0.00000
  39 0.00000 0.00000 0.00000
  40 0.00000 0.00000 0.00000
  41 0.00000 0.00000 0.00000
  42 0.00000 0.00000 0.00000
  43 0.00000 0.00000 0.00000
  44 0.00000 0.00000 0.00000
  45 0.00000 0.00000 0.00000
  46 0.00000 0.00000 0.00000
  47 0.00000 0.00000 0.00000
  48 0.00000 0.00000 0.00000
  49 0.00000 0.00000 0.00000
  50 0.00000 0.00000 0.00000
  51 0.00000 0.00000 0.00000
  52 0.00000 0.00000 0.00000
  53 0.00000 0.00000 0.00000
  54 0.00000 0.00000 0.00000
  55 0.00000 0.00000 0.00000
  56 0.00000 0.00000 0.00000
  57 0.00000 0.00000 0.00000
  58 0.00000 0.00000 0.00000
  59 0.00000 0.00000 0.00000
  60 0.00000 0.00000 0.00000
  61 0.00000 0.00000 0.00000
  62 0.00000 0.00000 0.00000
  63 0.00000 0.00000 0.00000
  64 0.00000 0.00000 0.00000
  65 0.00000 0.00000 0.00000
  66 0.00000 0.00000 0.00000
  67 0.00000 0.00000 0.00000
  68 0.00000 0.00000 0.00000
  69 0.00000 0.00000 0.00000
  70 0.00000 0.00000 0.00000
  71 0.00000 0.00000 0.00000
  72 0.00000 0.00000 0.00000
  73 0.00000 0.00000 0.00000
  74 0.00000 0.00000 0.00000
  75 0.00000 0.00000 0.00000
  76 0.00000 0.00000 0.00000
  77 0.00000 0.00000 0.00000
  78 0.00000 0.00000 0.00000
  79 0.00000 0.00000 0.00000
  80 0.00000 0.00000 0.00000
  81 0.00000 0.00000 0.00000
  82 0.00000 0.00000 0.00000
  83 0.00000 0.00000 0.00000
  84 0.00000 0.00000 0.00000
  85 0.00000 0.00000 0.00000
  86 0.00000 0.00000 0.00000
  87 0.00000 0.00000 0.00000
  88 0.00000 0.00000 0.00000
  89 0.00000 0.00000 0.00000
  90 0.00000 0.00000 0.00000
  91 0.00000 0.00000 0.00000
  92 0.00000 0.00000 0.00000
  93 0.00000 0.00000 0.00000
  94 0.00000 0.00000 0.00000
  95 0.00000 0.00000 0.00000
  96 0.00000 0.00000 0.00000
  97 0.00000 0.00000 0.00000
  98 0.00000 0.00000 0.00000
  99 0.00000 0.00000 0.00000
  100 0.00000 0.00000 0.00000
  101 0.00000 0.00000 0.00000
  102 0.00000 0.00000 0.00000
  103 0.00000 0.00000 0.00000
  104 0.00000 0.00000 0.00000
  105 0.00000 0.00000 0.00000
  106 0.00000 0.00000 0.00000
  107 0.00000 0.00000 0.00000
  108 0.00000 0.00000 0.00000
  109 0.00000 0.00000 0.00000
  110 0.00000 0.00000 0.00000
  111 0.00000 0.00000 0.00000
  112 0.00000 0.00000 0.00000
  113 0.00000 0.00000 0.00000
  114 0.00000 0.00000 0.00000
  115 0.00000 0.00000 0.00000
  116 0.00000 0.00000 0.00000
  117 0.00000 0.00000 0.00000
  118 0.00000 0.00000 0.00000
  119 0.00000 0.00000 0.00000
  120 0.00000 0.00000 0.00000
  121 0.00000 0.00000 0.00000
  122 0.00000 0.00000 0.00000
  123 0.00000 0.00000 0.00000
  124 0.00000 0.00000 0.00000
  125 0.00000 0.00000 0.00000
  126 0.00000 0.00000 0.00000
  127 0.00000 0.00000 0.00000
  128 0.00000 0.00000 0.00000
  129 0.00000 0.00000 0.00000
  130 0.00000 0.00000 0.00000
  131 0.00000 0.00000 0.00000
  132 0.00000 0.00000 0.00000
  133 0.00000 0.00000 0.00000
  134 0.00000 0.00000 0.00000
  135 0.00000 0.00000 0.00000
  136 0.00000 0.00000 0.00000
  137 0.00000 0.00000 0.00000
  138 0.00000 0.00000 0.00000
  139 0.00000 0.00000 0.00000
  140 0.00000 0.00000 0.00000
  141 0.00000 0.00000 0.00000
  142 0.00000 0.00000 0.00000
  143 0.00000 0.00000 0.00000
  144 0.00000 0.00000 0.00000
  145 0.00000 0.00000 0.00000
  146 0.00000 0.00000 0.00000
  147 0.00000 0.00000 0.00000
  148 0.00000 0.00000 0.00000
  149 0.00000 0.00000 0.00000
  150 0.00000 0.00000 0.00000
  151 0.00000 0.00000 0.00000
  152 0.00000 0.00000 0.00000
  153 0.00000 0.00000 0.00000
  154 0.00000 0.00000 0.00000
  155 0.00000 0.00000 0.00000
  156 0.00000 0.00000 0.00000
  157 0.00000 0.00000 0.00000
  158 0.00000 0.00000 0.00000
  159 0.00000 0.00000 0.00000
  160 0.00000 0.00000 0.00000
  161 0.00000 0.00000 0.00000
  162 0.00000 0.00000 0.00000
  163 0.00000 0.00000 0.00000
  164 0.00000 0.00000 0.00000
  165 0.00000 0.00000 0.00000
  166 0.00000 0.00000 0.00000
  167 0.00000 0.00000 0.00000
  168 0.00000 0.00000 0.00000
  169 0.00000 0.00000 0.00000
  170 0.00000 0.00000 0.00000
  171 0.00000 0.00000 0.00000
  172 0.00000 0.00000 0.00000
  173 0.00000 0.00000 0.00000
  174 0.00000 0.00000 0.00000
  175 0.00000 0.00000 0.00000
  176 0.00000 0.00000 0.00000
  177 0.00000 0.00000 0.00000
  178 0.00000 0.00000 0.00000
  179 0.00000 0.00000 0.00000
  180 0.00000 0.00000 0.00000
  181 0.00000 0.00000 0.00000
  182 0.00000 0.00000 0.00000
  183 0.00000 0.00000 0.00000
  184 0.00000 0.00000 0.00000
  185 0.00000 0.00000 0.00000
  186 0.00000 0.00000 0.00000
  187 0.00000 0.00000 0.00000
  188 0.00000 0.00000 0.00000
  189 0.00000 0.00000 0.00000
  190 0.00000 0.00000 0.00000
  191 0.00000 0.00000 0.00000
  192 0.00000 0.00000 0.00000
  193 0.00000 0.00000 0.00000
  194 0.00000 0.00000 0.00000
  195 0.00000 0.00000 0.00000
  196 0.00000 0.00000 0.00000
  197 0.00000 0.00000 0.00000
  198 0.00000 0.00000 0.00000
  199 0.00000 0.00000 0.00000
  200 0.00000 0.00000 0.00000
  201 0.00000 0.00000 0.00000
  202 0.00000 0.00000 0.00000
  203 0.00000 0.00000 0.00000
  204 0.00000 0.00000 0.00000
  205 0.00000 0.00000 0.00000
  206 0.00000 0.00000 0.00000
  207 0.00000 0.00000 0.00000
  208 0.00000 0.00000 0.00000
  209 0.00000 0.00000 0.00000
  210 0.00000 0.00000 0.00000
  211 0.00000 0.00000 0.00000
  212 0.00000 0.00000 0.00000
  213 0.00000 0.00000 0.00000
  214 0.00000 0.00000 0.00000
  215 0.00000 0.00000 0.00000
  216 0.00000 0.00000 0.00000
  217 0.00000 0.00000 0.00000
  218 0.00000 0.00000 0.00000
  219 0.00000 0.00000 0.00000
  220 0.00000 0.00000 0.00000
  221 0.00000 0.00000 0.00000
  222 0.00000 0.00000 0.00000
  223 0.00000 0.00000 0.00000
  224 0.00000 0.00000 0.00000
  225 0.00000 0.00000 0.00000
  226 0.00000 0.00000 0.00000
  227 0.00000 0.00000 0.00000
  228 0.00000 0.00000 0.00000
  229 0.00000 0.00000 0.00000
  230 0.00000 0.00000 0.00000
  231 0.00000 0.00000 0.00000
  232 0.00000 0.00000 0.00000
  233 0.00000 0.00000 0.00000
  234 0.00000 0.00000 0.00000
  235 0.00000 0.00000 0.00000
  236 0.00000 0.00000 0.00000
  237 0.00000 0.00000 0.00000
  238 0.00000 0.00000 0.00000
  239 0.00000 0.00000 0.00000
  240 0.00000 0.00000 0.00000
  241 0.00000 0.00000 0.00000
</Section>

newXOutput 194

<Section columns = "stress_xx | stress_yy | stress_xy">
  1 0.00000 0.00000 0.00000
  2 0.00000 0.00000 0.00000
  3 0.00000 0.00000 0.00000
  4 0.00000 0.00000 0.00000
  5 0.00000 0.00000 0.00000
  6 0.00000 0.00000 0.00000
  7 0.00000 0.00000 0.00000
  8 0.00000 0.00000 0.00000
  9 0.00000 0.00000 0.00000
  10 0.00000 0.00000 0.00000
  11 0.00000 0.00000 0.00000
  12 0.00000 0.00000 0.00000
  13 0.00000 0.00000 0.00000
  14 0.00000 0.00000 0.00000
  15 0.00000 0.00000 0.00000
  16 0.00000 0.00000 0.00000
  17 0.00000 0.00000 0.00000
  18 0.00000 0.00000 0.00000
  19 0.00000 0.00000 0.00000
  20 0.00000 0.00000 0.00000
  21 0.00000 0.00000 0.00000
  22 0.00000 0.00000 0.00000
  23 0.00000 0.00000 0.00000
  24 0.00000 0.00000 0.00000
  25 0.00000 0.00000 0.00000
  26 0.00000 0.00000 0.00000
  27 0.00000 0.00000 0.00000
  28 0.00000 0.00000 0.00000
  29 0.00000 0.00000 0.00000
  30 0.00000 0.00000 0.00000
  31 0.00000 0.00000 0.00000
  32 0.00000 0.00000 0.00000
  33 0.00000 0.00000 0.00000
  34 0.00000 0.00000 0.00000
  35 0.00000 0.00000 0.00000
  36 0.00000 0.00000 0.00000
  37 0.00000 0.00000 0.00000
  38 0.00000 0.00000 0.00000
  39 0.00000 0.00000 0.00000
  40 0.00000 0.00000 0.00000
  41 0.00000 0.00000 0.00000
  42 0.00000 0.00000 0.00000
  43 0.00000 0.00000 0.00000
  44 0.00000 0.00000 0.00000
  45 0.00000 0.00000 0.00000
  46 0.00000 0.00000 0.00000
  47 0.00000 0.00000 0.00000
  48 0.00000 0.00000 0.00000
  49 0.00000 0.00000 0.00000
  50 0.00000 0.00000 0.00000
  51 0.00000 0.00000 0.00000
  52 0.00000 0.00000 0.00000
  53 0.00000 0.00000 0.00000
  54 0.00000 0.00000 0.00000
  55 0.00000 0.00000 0.00000
  56 0.00000 0.00000 0.00000
  57 0.00000 0.00000 0.00000
  58 0.00000 0.00000 0.00000
  59 0.00000 0.00000 0.00000
  60 0.00000 0.00000 0.00000
  61 0.00000 0.00000 0.00000
  62 0.00000 0.00000 0.00000
  63 0.00000 0.00000 0.00000
  64 0.00000 0.00000 0.00000
  65 0.00000 0.00000 0.00000
  66 0.00000 0.00000 0.00000
  67 0.00000 0.00000 0.00000
  68 0.00000 0.00000 0.00000
  69 0.00000 0.00000 0.00000
  70 0.00000 0.00000 0.00000
  71 0.00000 0.00000 0.00000
  72 0.00000 0.00000 0.00000
  73 0.00000 0.00000 0.00000
  74 0.00000 0.00000 0.00000
  75 0.00000 0.00000 0.00000
  76 0.00000 0.00000 0.00000
  77 0.00000 0.00000 0.00000
  78 0.00000 0.00000 0.00000
  79 0.00000 0.00000 0.00000
  80 0.00000 0.00000 0.00000
  81 0.00000 0.00000 0.00000
  82 0.00000 0.00000 0.00000
  83 0.00000 0.00000 0.00000
  84 0.00000 0.00000 0.00000
  85 0.00000 0.00000 0.00000
  86 0.00000 0.00000 0.00000
  87 0.00000 0.00000 0.00000
  88 0.00000 0.00000 0.00000
  89 0.00000 0.00000 0.00000
  90 0.00000 0.00000 0.00000
  91 0.00000 0.00000 0.00000
  92 0.00000 0.00000 0.00000
  93 0.00000 0.00000 0.00000
  94 0.00000 0.00000 0.00000
  95 0.00000 0.00000 0.00000
  96 0.00000 0.00000 0.00000
  97 0.00000 0.00000 0.00000
  98 0.00000 0.00000 0.00000
  99 0.00000 0.00000 0.00000
  100 0.00000 0.00000 0.00000
  101 0.00000 0.00000 0.00000
  102 0.00000 0.00000 0.00000
  103 0.00000 0.00000 0.00000
  104 0.00000 0.00000 0.00000
  105 0.00000 0.00000 0.00000
  106 0.00000 0.00000 0.00000
  107 0.00000 0.00000 0.00000
  108 0.00000 0.00000 0.00000
  109 0.00000 0.00000 0.00000
  110 0.00000 0.00000 0.00000
  111 0.00000 0.00000 0.00000
  112 0.00000 0.00000 0.00000
  113 0.00000 0.00000 0.00000
  114 0.00000 0.00000 0.00000
  115 0.00000 0.00000 0.00000
  116 0.00000 0.00000 0.00000
  117 0.00000 0.00000 0.00000
  118 0.00000 0.00000 0.00000
  119 0.00000 0.00000 0.00000
  120 0.00000 0.00000 0.00000
  121 0.00000 0.00000 0.00000
  122 0.00000 0.00000 0.00000
  123 0.00000 0.00000 0.00000
  124 0.00000 0.00000 0.00000
  125 0.00000 0.00000 0.00000
  126 0.00000 0.00000 0.00000
  127 0.00000 0.00000 0.00000
  128 0.00000 0.00000 0.00000
  129 0.00000 0.00000 0.00000
  130 0.00000 0.00000 0.00000
  131 0.00000 0.00000 0.00000
  132 0.00000 0.00000 0.00000
  133 0.00000 0.00000 0.00000
  134 0.00000 0.00000 0.00000
  135 0.00000 0.00000 0.00000
  136 0.00000 0.00000 0.00000
  137 0.00000 0.00000 0.00000
  138 0.00000 0.00000 0.00000
  139 0.00000 0.00000 0.00000
  140 0.00000 0.00000 0.00000
  141 0.00000 0.00000 0.00000
  142 0.00000 0.00000 0.00000
  143 0.00000 0.00000 0.00000
  144 0.00000 0.00000 0.00000
  145 0.00000 0.00000 0.00000
  146 0.00000 0.00000 0.00000
  147 0.00000 0.00000 0.00000
  148 0.00000 0.00000 0.00000
  149 0.00000 0.00000 0.00000
  150 0.00000 0.00000 0.00000
  151 0.00000 0.00000 0.00000
  152 0.00000 0.00000 0.00000
  153 0.00000 0.00000 0.00000
  154 0.00000 0.00000 0.00000
  155 0.00000 0.00000 0.00000
  156 0.00000 0.00000 0.00000
  157 0.00000 0.00000 0.00000
  158 0.00000 0.00000 0.00000
  159 0.00000 0.00000 0.00000
  160 0.00000 0.00000 0.00000
  161 0.00000 0.00000 0.00000
  162 0.00000 0.00000 0.00000
  163 0.00000 0.00000 0.00000
  164 0.00000 0.00000 0.00000
  165 0.00000 0.00000 0.00000
  166 0.00000 0.00000 0.00000
  167 0.00000 0.00000 0.00000
  168 0.00000 0.00000 0.00000
  169 0.00000 0.00000 0.00000
  170 0.00000 0.00000 0.00000
  171 0.00000 0.00000 0.00000
  172 0.00000 0.00000 0.00000
  173 0.00000 0.00000 0.00000
  174 0.00000 0.00000 0.00000
  175 0.00000 0.00000 0.00000
  176 0.00000 0.00000 0.00000
  177 0.00000 0.00000 0.00000
  178 0.00000 0.00000 0.00000
  179 0.00000 0.00000 0.00000
  180 0.00000 0.00000 0.00000
  181 0.00000 0.00000 0.00000
  182 0.00000 0.00000 0.00000
  183 0.00000 0.00000 0.00000
  184 0.00000 0.00000 0.00000
  185 0.00000 0.00000 0.00000
  186 0.00000 0.00000 0.00000
  187 0.00000 0.00000 0.00000
  188 0.00000 0.00000 0.00000
  189 0.00000 0.00000 0.00000
  190 0.00000 0.00000 0.00000
  191 0.00000 0.00000 0.00000
  192 0.00000 0.00000 0.00000
  193 0.00000 0.00000 0.00000
  194 0.00000 0.00000 0.00000
  195 0.00000 0.00000 0.00000
  196 0.00000 0.00000 0.00000
  197 0.00000 0.00000 0.00000
  198 0.00000 0.00000 0.00000
  199 0.00000 0.00000 0.00000
  200 0.00000 0.00000 0.00000
  201 0.00000 0.00000 0.00000
  202 0.00000 0.00000 0.00000
  203 0.00000 0.00000 0.00000
  204 0.00000 0.00000 0.00000
  205 0.00000 0.00000 0.00000
  206 0.00000 0.00000 0.00000
  207 0.00000 0.00000 0.00000
  208 0.00000 0.00000 0.00000
  209 0.00000 0.00000 0.00000
  210 0.00000 0.00000 0.00000
  211 0.00000 0.00000 0.00000
  212 0.00000 0.00000 0.00000
  213 0.00000 0.00000 0.00000
  214 0.00000 0.00000 0.00000
  215 0.00000 0.00000 0.00000
  216 0.00000 0.00000 0.00000
  217 0.00000 0.00000 0.00000
  218 0.00000 0.00000 0.00000
  219 0.00000 0.00000 0.00000
  220 0.00000 0.00000 0.00000
  221 0.00000 0.00000 0.00000
  222 0.00000 0.00000 0.00000
  223 0.00000 0.00000 0.00000
  224 0.00000 0.00000 0.00000
  225 0.00000 0.00000 0.00000
  226 0.00000 0.00000 0.00000
  227 0.00000 0.00000 0.00000
  228 0.00000 0.00000 0.00000
  229 0.00000 0.00000 0.00000
  230 0.00000 0.00000 0.00000
  231 0.00000 0.00000 0.00000
  232 0.00000 0.00000 0.00000
  233 0.00000 0.00000 0.00000
  234 0.00000 0.00000 0.00000
  235 0.00000 0.00000 0.00000
  236 0.00000 0.00000 0.00000
  237 0.00000 0.00000 0.00000
  238 0.00000 0.00000 0.00000
  239 0.00000 0.00000 0.00000
  240 0.00000 0.00000 0.00000
  241 0.00000 0.00000 0.00000
</Section>

newXOutput 195

<Section columns = "stress_xx | stress_yy | stress_xy">
  1 0.00000 0.00000 0.00000
  2 0.00000 0.00000 0.00000
  3 0.00000 0.00000 0.00000
  4 0.00000 0.00000 0.00000
  5 0.00000 0.00000 0.00000
  6 0.00000 0.00000 0.00000
  7 0.00000 0.00000 0.00000
  8 0.00000 0.00000 0.00000
  9 0.00000 0.00000 0.00000
  10 0.00000 0.00000 0.00000
  11 0.00000 0.00000 0.00000
  12 0.00000 0.00000 0.00000
  13 0.00000 0.00000 0.00000
  14 0.00000 0.00000 0.00000
  15 0.00000 0.00000 0.00000
  16 0.00000 0.00000 0.00000
  17 0.00000 0.00000 0.00000
  18 0.00000 0.00000 0.00000
  19 0.00000 0.00000 0.00000
  20 0.00000 0.00000 0.00000
  21 0.00000 0.00000 0.00000
  22 0.00000 0.00000 0.00000
  23 0.00000 0.00000 0.00000
  24 0.00000 0.00000 0.00000
  25 0.00000 0.00000 0.00000
  26 0.00000 0.00000 0.00000
  27 0.00000 0.00000 0.00000
  28 0.00000 0.00000 0.00000
  29 0.00000 0.00000 0.00000
  30 0.00000 0.00000 0.00000
  31 0.00000 0.00000 0.00000
  32 0.00000 0.00000 0.00000
  33 0.00000 0.00000 0.00000
  34 0.00000 0.00000 0.00000
  35 0.00000 0.00000 0.00000
  36 0.00000 0.00000 0.00000
  37 0.00000 0.00000 0.00000
  38 0.00000 0.00000 0.00000
  39 0.00000 0.00000 0.00000
  40 0.00000 0.00000 0.00000
  41 0.00000 0.00000 0.00000
  42 0.00000 0.00000 0.00000
  43 0.00000 0.00000 0.00000
  44 0.00000 0.00000 0.00000
  45 0.00000 0.00000 0.00000
  46 0.00000 0.00000 0.00000
  47 0.00000 0.00000 0.00000
  48 0.00000 0.00000 0.00000
  49 0.00000 0.00000 0.00000
  50 0.00000 0.00000 0.00000
  51 0.00000 0.00000 0.00000
  52 0.00000 0.00000 0.00000
  53 0.00000 0.00000 0.00000
  54 0.00000 0.00000 0.00000
  55 0.00000 0.00000 0.00000
  56 0.00000 0.00000 0.00000
  57 0.00000 0.00000 0.00000
  58 0.00000 0.00000 0.00000
  59 0.00000 0.00000 0.00000
  60 0.00000 0.00000 0.00000
  61 0.00000 0.00000 0.00000
  62 0.00000 0.00000 0.00000
  63 0.00000 0.00000 0.00000
  64 0.00000 0.00000 0.00000
  65 0.00000 0.00000 0.00000
  66 0.00000 0.00000 0.00000
  67 0.00000 0.00000 0.00000
  68 0.00000 0.00000 0.00000
  69 0.00000 0.00000 0.00000
  70 0.00000 0.00000 0.00000
  71 0.00000 0.00000 0.00000
  72 0.00000 0.00000 0.00000
  73 0.00000 0.00000 0.00000
  74 0.00000 0.00000 0.00000
  75 0.00000 0.00000 0.00000
  76 0.00000 0.00000 0.00000
  77 0.00000 0.00000 0.00000
  78 0.00000 0.00000 0.00000
  79 0.00000 0.00000 0.00000
  80 0.00000 0.00000 0.00000
  81 0.00000 0.00000 0.00000
  82 0.00000 0.00000 0.00000
  83 0.00000 0.00000 0.00000
  84 0.00000 0.00000 0.00000
  85 0.00000 0.00000 0.00000
  86 0.00000 0.00000 0.00000
  87 0.00000 0.00000 0.00000
  88 0.00000 0.00000 0.00000
  89 0.00000 0.00000 0.00000
  90 0.00000 0.00000 0.00000
  91 0.00000 0.00000 0.00000
  92 0.00000 0.00000 0.00000
  93 0.00000 0.00000 0.00000
  94 0.00000 0.00000 0.00000
  95 0.00000 0.00000 0.00000
  96 0.00000 0.00000 0.00000
  97 0.00000 0.00000 0.00000
  98 0.00000 0.00000 0.00000
  99 0.00000 0.00000 0.00000
  100 0.00000 0.00000 0.00000
  101 0.00000 0.00000 0.00000
  102 0.00000 0.00000 0.00000
  103 0.00000 0.00000 0.00000
  104 0.00000 0.00000 0.00000
  105 0.00000 0.00000 0.00000
  106 0.00000 0.00000 0.00000
  107 0.00000 0.00000 0.00000
  108 0.00000 0.00000 0.00000
  109 0.00000 0.00000 0.00000
  110 0.00000 0.00000 0.00000
  111 0.00000 0.00000 0.00000
  112 0.00000 0.00000 0.00000
  113 0.00000 0.00000 0.00000
  114 0.00000 0.00000 0.00000
  115 0.00000 0.00000 0.00000
  116 0.00000 0.00000 0.00000
  117 0.00000 0.00000 0.00000
  118 0.00000 0.00000 0.00000
  119 0.00000 0.00000 0.00000
  120 0.00000 0.00000 0.00000
  121 0.00000 0.00000 0.00000
  122 0.00000 0.00000 0.00000
  123 0.00000 0.00000 0.00000
  124 0.00000 0.00000 0.00000
  125 0.00000 0.00000 0.00000
  126 0.00000 0.00000 0.00000
  127 0.00000 0.00000 0.00000
  128 0.00000 0.00000 0.00000
  129 0.00000 0.00000 0.00000
  130 0.00000 0.00000 0.00000
  131 0.00000 0.00000 0.00000
  132 0.00000 0.00000 0.00000
  133 0.00000 0.00000 0.00000
  134 0.00000 0.00000 0.00000
  135 0.00000 0.00000 0.00000
  136 0.00000 0.00000 0.00000
  137 0.00000 0.00000 0.00000
  138 0.00000 0.00000 0.00000
  139 0.00000 0.00000 0.00000
  140 0.00000 0.00000 0.00000
  141 0.00000 0.00000 0.00000
  142 0.00000 0.00000 0.00000
  143 0.00000 0.00000 0.00000
  144 0.00000 0.00000 0.00000
  145 0.00000 0.00000 0.00000
  146 0.00000 0.00000 0.00000
  147 0.00000 0.00000 0.00000
  148 0.00000 0.00000 0.00000
  149 0.00000 0.00000 0.00000
  150 0.00000 0.00000 0.00000
  151 0.00000 0.00000 0.00000
  152 0.00000 0.00000 0.00000
  153 0.00000 0.00000 0.00000
  154 0.00000 0.00000 0.00000
  155 0.00000 0.00000 0.00000
  156 0.00000 0.00000 0.00000
  157 0.00000 0.00000 0.00000
  158 0.00000 0.00000 0.00000
  159 0.00000 0.00000 0.00000
  160 0.00000 0.00000 0.00000
  161 0.00000 0.00000 0.00000
  162 0.00000 0.00000 0.00000
  163 0.00000 0.00000 0.00000
  164 0.00000 0.00000 0.00000
  165 0.00000 0.00000 0.00000
  166 0.00000 0.00000 0.00000
  167 0.00000 0.00000 0.00000
  168 0.00000 0.00000 0.00000
  169 0.00000 0.00000 0.00000
  170 0.00000 0.00000 0.00000
  171 0.00000 0.00000 0.00000
  172 0.00000 0.00000 0.00000
  173 0.00000 0.00000 0.00000
  174 0.00000 0.00000 0.00000
  175 0.00000 0.00000 0.00000
  176 0.00000 0.00000 0.00000
  177 0.00000 0.00000 0.00000
  178 0.00000 0.00000 0.00000
  179 0.00000 0.00000 0.00000
  180 0.00000 0.00000 0.00000
  181 0.00000 0.00000 0.00000
  182 0.00000 0.00000 0.00000
  183 0.00000 0.00000 0.00000
  184 0.00000 0.00000 0.00000
  185 0.00000 0.00000 0.00000
  186 0.00000 0.00000 0.00000
  187 0.00000 0.00000 0.00000
  188 0.00000 0.00000 0.00000
  189 0.00000 0.00000 0.00000
  190 0.00000 0.00000 0.00000
  191 0.00000 0.00000 0.00000
  192 0.00000 0.00000 0.00000
  193 0.00000 0.00000 0.00000
  194 0.00000 0.00000 0.00000
  195 0.00000 0.00000 0.00000
  196 0.00000 0.00000 0.00000
  197 0.00000 0.00000 0.00000
  198 0.00000 0.00000 0.00000
  199 0.00000 0.00000 0.00000
  200 0.00000 0.00000 0.00000
  201 0.00000 0.00000 0.00000
  202 0.00000 0.00000 0.00000
  203 0.00000 0.00000 0.00000
  204 0.00000 0.00000 0.00000
  205 0.00000 0.00000 0.00000
  206 0.00000 0.00000 0.00000
  207 0.00000 0.00000 0.00000
  208 0.00000 0.00000 0.00000
  209 0.00000 0.00000 0.00000
  210 0.00000 0.00000 0.00000
  211 0.00000 0.00000 0.00000
  212 0.00000 0.00000 0.00000
  213 0.00000 0.00000 0.00000
  214 0.00000 0.00000 0.00000
  215 0.00000 0.00000 0.00000
  216 0.00000 0.00000 0.00000
  217 0.00000 0.00000 0.00000
  218 0.00000 0.00000 0.00000
  219 0.00000 0.00000 0.00000
  220 0.00000 0.00000 0.00000
  221 0.00000 0.00000 0.00000
  222 0.00000 0.00000 0.00000
  223 0.00000 0.00000 0.00000
  224 0.00000 0.00000 0.00000
  225 0.00000 0.00000 0.00000
  226 0.00000 0.00000 0.00000
  227 0.00000 0.00000 0.00000
  228 0.00000 0.00000 0.00000
  229 0.00000 0.00000 0.00000
  230 0.00000 0.00000 0.00000
  231 0.00000 0.00000 0.00000
  232 0.00000 0.00000 0.00000
  233 0.00000 0.00000 0.00000
  234 0.00000 0.00000 0.00000
  235 0.00000 0.00000 0.00000
  236 0.00000 0.00000 0.00000
  237 0.00000 0.00000 0.00000
  238 0.00000 0.00000 0.00000
  239 0.00000 0.00000 0.00000
  240 0.00000 0.00000 0.00000
  241 0.00000 0.00000 0.00000
</Section>

newXOutput 196

<Section columns = "stress_xx | stress_yy | stress_xy">
  1 0.00000 0.00000 0.00000
  2 0.00000 0.00000 0.00000
  3 0.00000 0.00000 0.00000
  4 0.00000 0.00000 0.00000
  5 0.00000 0.00000 0.00000
  6 0.00000 0.00000 0.00000
  7 0.00000 0.00000 0.00000
  8 0.00000 0.00000 0.00000
  9 0.00000 0.00000 0.00000
  10 0.00000 0.00000 0.00000
  11 0.00000 0.00000 0.00000
  12 0.00000 0.00000 0.00000
  13 0.00000 0.00000 0.00000
  14 0.00000 0.00000 0.00000
  15 0.00000 0.00000 0.00000
  16 0.00000 0.00000 0.00000
  17 0.00000 0.00000 0.00000
  18 0.00000 0.00000 0.00000
  19 0.00000 0.00000 0.00000
  20 0.00000 0.00000 0.00000
  21 0.00000 0.00000 0.00000
  22 0.00000 0.00000 0.00000
  23 0.00000 0.00000 0.00000
  24 0.00000 0.00000 0.00000
  25 0.00000 0.00000 0.00000
  26 0.00000 0.00000 0.00000
  27 0.00000 0.00000 0.00000
  28 0.00000 0.00000 0.00000
  29 0.00000 0.00000 0.00000
  30 0.00000 0.00000 0.00000
  31 0.00000 0.00000 0.00000
  32 0.00000 0.00000 0.00000
  33 0.00000 0.00000 0.00000
  34 0.00000 0.00000 0.00000
  35 0.00000 0.00000 0.00000
  36 0.00000 0.00000 0.00000
  37 0.00000 0.00000 0.00000
  38 0.00000 0.00000 0.00000
  39 0.00000 0.00000 0.00000
  40 0.00000 0.00000 0.00000
  41 0.00000 0.00000 0.00000
  42 0.00000 0.00000 0.00000
  43 0.00000 0.00000 0.00000
  44 0.00000 0.00000 0.00000
  45 0.00000 0.00000 0.00000
  46 0.00000 0.00000 0.00000
  47 0.00000 0.00000 0.00000
  48 0.00000 0.00000 0.00000
  49 0.00000 0.00000 0.00000
  50 0.00000 0.00000 0.00000
  51 0.00000 0.00000 0.00000
  52 0.00000 0.00000 0.00000
  53 0.00000 0.00000 0.00000
  54 0.00000 0.00000 0.00000
  55 0.00000 0.00000 0.00000
  56 0.00000 0.00000 0.00000
  57 0.00000 0.00000 0.00000
  58 0.00000 0.00000 0.00000
  59 0.00000 0.00000 0.00000
  60 0.00000 0.00000 0.00000
  61 0.00000 0.00000 0.00000
  62 0.00000 0.00000 0.00000
  63 0.00000 0.00000 0.00000
  64 0.00000 0.00000 0.00000
  65 0.00000 0.00000 0.00000
  66 0.00000 0.00000 0.00000
  67 0.00000 0.00000 0.00000
  68 0.00000 0.00000 0.00000
  69 0.00000 0.00000 0.00000
  70 0.00000 0.00000 0.00000
  71 0.00000 0.00000 0.00000
  72 0.00000 0.00000 0.00000
  73 0.00000 0.00000 0.00000
  74 0.00000 0.00000 0.00000
  75 0.00000 0.00000 0.00000
  76 0.00000 0.00000 0.00000
  77 0.00000 0.00000 0.00000
  78 0.00000 0.00000 0.00000
  79 0.00000 0.00000 0.00000
  80 0.00000 0.00000 0.00000
  81 0.00000 0.00000 0.00000
  82 0.00000 0.00000 0.00000
  83 0.00000 0.00000 0.00000
  84 0.00000 0.00000 0.00000
  85 0.00000 0.00000 0.00000
  86 0.00000 0.00000 0.00000
  87 0.00000 0.00000 0.00000
  88 0.00000 0.00000 0.00000
  89 0.00000 0.00000 0.00000
  90 0.00000 0.00000 0.00000
  91 0.00000 0.00000 0.00000
  92 0.00000 0.00000 0.00000
  93 0.00000 0.00000 0.00000
  94 0.00000 0.00000 0.00000
  95 0.00000 0.00000 0.00000
  96 0.00000 0.00000 0.00000
  97 0.00000 0.00000 0.00000
  98 0.00000 0.00000 0.00000
  99 0.00000 0.00000 0.00000
  100 0.00000 0.00000 0.00000
  101 0.00000 0.00000 0.00000
  102 0.00000 0.00000 0.00000
  103 0.00000 0.00000 0.00000
  104 0.00000 0.00000 0.00000
  105 0.00000 0.00000 0.00000
  106 0.00000 0.00000 0.00000
  107 0.00000 0.00000 0.00000
  108 0.00000 0.00000 0.00000
  109 0.00000 0.00000 0.00000
  110 0.00000 0.00000 0.00000
  111 0.00000 0.00000 0.00000
  112 0.00000 0.00000 0.00000
  113 0.00000 0.00000 0.00000
  114 0.00000 0.00000 0.00000
  115 0.00000 0.00000 0.00000
  116 0.00000 0.00000 0.00000
  117 0.00000 0.00000 0.00000
  118 0.00000 0.00000 0.00000
  119 0.00000 0.00000 0.00000
  120 0.00000 0.00000 0.00000
  121 0.00000 0.00000 0.00000
  122 0.00000 0.00000 0.00000
  123 0.00000 0.00000 0.00000
  124 0.00000 0.00000 0.00000
  125 0.00000 0.00000 0.00000
  126 0.00000 0.00000 0.00000
  127 0.00000 0.00000 0.00000
  128 0.00000 0.00000 0.00000
  129 0.00000 0.00000 0.00000
  130 0.00000 0.00000 0.00000
  131 0.00000 0.00000 0.00000
  132 0.00000 0.00000 0.00000
  133 0.00000 0.00000 0.00000
  134 0.00000 0.00000 0.00000
  135 0.00000 0.00000 0.00000
  136 0.00000 0.00000 0.00000
  137 0.00000 0.00000 0.00000
  138 0.00000 0.00000 0.00000
  139 0.00000 0.00000 0.00000
  140 0.00000 0.00000 0.00000
  141 0.00000 0.00000 0.00000
  142 0.00000 0.00000 0.00000
  143 0.00000 0.00000 0.00000
  144 0.00000 0.00000 0.00000
  145 0.00000 0.00000 0.00000
  146 0.00000 0.00000 0.00000
  147 0.00000 0.00000 0.00000
  148 0.00000 0.00000 0.00000
  149 0.00000 0.00000 0.00000
  150 0.00000 0.00000 0.00000
  151 0.00000 0.00000 0.00000
  152 0.00000 0.00000 0.00000
  153 0.00000 0.00000 0.00000
  154 0.00000 0.00000 0.00000
  155 0.00000 0.00000 0.00000
  156 0.00000 0.00000 0.00000
  157 0.00000 0.00000 0.00000
  158 0.00000 0.00000 0.00000
  159 0.00000 0.00000 0.00000
  160 0.00000 0.00000 0.00000
  161 0.00000 0.00000 0.00000
  162 0.00000 0.00000 0.00000
  163 0.00000 0.00000 0.00000
  164 0.00000 0.00000 0.00000
  165 0.00000 0.00000 0.00000
  166 0.00000 0.00000 0.00000
  167 0.00000 0.00000 0.00000
  168 0.00000 0.00000 0.00000
  169 0.00000 0.00000 0.00000
  170 0.00000 0.00000 0.00000
  171 0.00000 0.00000 0.00000
  172 0.00000 0.00000 0.00000
  173 0.00000 0.00000 0.00000
  174 0.00000 0.00000 0.00000
  175 0.00000 0.00000 0.00000
  176 0.00000 0.00000 0.00000
  177 0.00000 0.00000 0.00000
  178 0.00000 0.00000 0.00000
  179 0.00000 0.00000 0.00000
  180 0.00000 0.00000 0.00000
  181 0.00000 0.00000 0.00000
  182 0.00000 0.00000 0.00000
  183 0.00000 0.00000 0.00000
  184 0.00000 0.00000 0.00000
  185 0.00000 0.00000 0.00000
  186 0.00000 0.00000 0.00000
  187 0.00000 0.00000 0.00000
  188 0.00000 0.00000 0.00000
  189 0.00000 0.00000 0.00000
  190 0.00000 0.00000 0.00000
  191 0.00000 0.00000 0.00000
  192 0.00000 0.00000 0.00000
  193 0.00000 0.00000 0.00000
  194 0.00000 0.00000 0.00000
  195 0.00000 0.00000 0.00000
  196 0.00000 0.00000 0.00000
  197 0.00000 0.00000 0.00000
  198 0.00000 0.00000 0.00000
  199 0.00000 0.00000 0.00000
  200 0.00000 0.00000 0.00000
  201 0.00000 0.00000 0.00000
  202 0.00000 0.00000 0.00000
  203 0.00000 0.00000 0.00000
  204 0.00000 0.00000 0.00000
  205 0.00000 0.00000 0.00000
  206 0.00000 0.00000 0.00000
  207 0.00000 0.00000 0.00000
  208 0.00000 0.00000 0.00000
  209 0.00000 0.00000 0.00000
  210 0.00000 0.00000 0.00000
  211 0.00000 0.00000 0.00000
  212 0.00000 0.00000 0.00000
  213 0.00000 0.00000 0.00000
  214 0.00000 0.00000 0.00000
  215 0.00000 0.00000 0.00000
  216 0.00000 0.00000 0.00000
  217 0.00000 0.00000 0.00000
  218 0.00000 0.00000 0.00000
  219 0.00000 0.00000 0.00000
  220 0.00000 0.00000 0.00000
  221 0.00000 0.00000 0.00000
  222 0.00000 0.00000 0.00000
  223 0.00000 0.00000 0.00000
  224 0.00000 0.00000 0.00000
  225 0.00000 0.00000 0.00000
  226 0.00000 0.00000 0.00000
  227 0.00000 0.00000 0.00000
  228 0.00000 0.00000 0.00000
  229 0.00000 0.00000 0.00000
  230 0.00000 0.00000 0.00000
  231 0.00000 0.00000 0.00000
  232 0.00000 0.00000 0.00000
  233 0.00000 0.00000 0.00000
  234 0.00000 0.00000 0.00000
  235 0.00000 0.00000 0.00000
  236 0.00000 0.00000 0.00000
  237 0.00000 0.00000 0.00000
  238 0.00000 0.00000 0.00000
  239 0.00000 0.00000 0.00000
  240 0.00000 0.00000 0.00000
  241 0.00000 0.00000 0.00000
</Section>

newXOutput 197

<Section columns = "stress_xx | stress_yy | stress_xy">
  1 0.00000 0.00000 0.00000
  2 0.00000 0.00000 0.00000
  3 0.00000 0.00000 0.00000
  4 0.00000 0.00000 0.00000
  5 0.00000 0.00000 0.00000
  6 0.00000 0.00000 0.00000
  7 0.00000 0.00000 0.00000
  8 0.00000 0.00000 0.00000
  9 0.00000 0.00000 0.00000
  10 0.00000 0.00000 0.00000
  11 0.00000 0.00000 0.00000
  12 0.00000 0.00000 0.00000
  13 0.00000 0.00000 0.00000
  14 0.00000 0.00000 0.00000
  15 0.00000 0.00000 0.00000
  16 0.00000 0.00000 0.00000
  17 0.00000 0.00000 0.00000
  18 0.00000 0.00000 0.00000
  19 0.00000 0.00000 0.00000
  20 0.00000 0.00000 0.00000
  21 0.00000 0.00000 0.00000
  22 0.00000 0.00000 0.00000
  23 0.00000 0.00000 0.00000
  24 0.00000 0.00000 0.00000
  25 0.00000 0.00000 0.00000
  26 0.00000 0.00000 0.00000
  27 0.00000 0.00000 0.00000
  28 0.00000 0.00000 0.00000
  29 0.00000 0.00000 0.00000
  30 0.00000 0.00000 0.00000
  31 0.00000 0.00000 0.00000
  32 0.00000 0.00000 0.00000
  33 0.00000 0.00000 0.00000
  34 0.00000 0.00000 0.00000
  35 0.00000 0.00000 0.00000
  36 0.00000 0.00000 0.00000
  37 0.00000 0.00000 0.00000
  38 0.00000 0.00000 0.00000
  39 0.00000 0.00000 0.00000
  40 0.00000 0.00000 0.00000
  41 0.00000 0.00000 0.00000
  42 0.00000 0.00000 0.00000
  43 0.00000 0.00000 0.00000
  44 0.00000 0.00000 0.00000
  45 0.00000 0.00000 0.00000
  46 0.00000 0.00000 0.00000
  47 0.00000 0.00000 0.00000
  48 0.00000 0.00000 0.00000
  49 0.00000 0.00000 0.00000
  50 0.00000 0.00000 0.00000
  51 0.00000 0.00000 0.00000
  52 0.00000 0.00000 0.00000
  53 0.00000 0.00000 0.00000
  54 0.00000 0.00000 0.00000
  55 0.00000 0.00000 0.00000
  56 0.00000 0.00000 0.00000
  57 0.00000 0.00000 0.00000
  58 0.00000 0.00000 0.00000
  59 0.00000 0.00000 0.00000
  60 0.00000 0.00000 0.00000
  61 0.00000 0.00000 0.00000
  62 0.00000 0.00000 0.00000
  63 0.00000 0.00000 0.00000
  64 0.00000 0.00000 0.00000
  65 0.00000 0.00000 0.00000
  66 0.00000 0.00000 0.00000
  67 0.00000 0.00000 0.00000
  68 0.00000 0.00000 0.00000
  69 0.00000 0.00000 0.00000
  70 0.00000 0.00000 0.00000
  71 0.00000 0.00000 0.00000
  72 0.00000 0.00000 0.00000
  73 0.00000 0.00000 0.00000
  74 0.00000 0.00000 0.00000
  75 0.00000 0.00000 0.00000
  76 0.00000 0.00000 0.00000
  77 0.00000 0.00000 0.00000
  78 0.00000 0.00000 0.00000
  79 0.00000 0.00000 0.00000
  80 0.00000 0.00000 0.00000
  81 0.00000 0.00000 0.00000
  82 0.00000 0.00000 0.00000
  83 0.00000 0.00000 0.00000
  84 0.00000 0.00000 0.00000
  85 0.00000 0.00000 0.00000
  86 0.00000 0.00000 0.00000
  87 0.00000 0.00000 0.00000
  88 0.00000 0.00000 0.00000
  89 0.00000 0.00000 0.00000
  90 0.00000 0.00000 0.00000
  91 0.00000 0.00000 0.00000
  92 0.00000 0.00000 0.00000
  93 0.00000 0.00000 0.00000
  94 0.00000 0.00000 0.00000
  95 0.00000 0.00000 0.00000
  96 0.00000 0.00000 0.00000
  97 0.00000 0.00000 0.00000
  98 0.00000 0.00000 0.00000
  99 0.00000 0.00000 0.00000
  100 0.00000 0.00000 0.00000
  101 0.00000 0.00000 0.00000
  102 0.00000 0.00000 0.00000
  103 0.00000 0.00000 0.00000
  104 0.00000 0.00000 0.00000
  105 0.00000 0.00000 0.00000
  106 0.00000 0.00000 0.00000
  107 0.00000 0.00000 0.00000
  108 0.00000 0.00000 0.00000
  109 0.00000 0.00000 0.00000
  110 0.00000 0.00000 0.00000
  111 0.00000 0.00000 0.00000
  112 0.00000 0.00000 0.00000
  113 0.00000 0.00000 0.00000
  114 0.00000 0.00000 0.00000
  115 0.00000 0.00000 0.00000
  116 0.00000 0.00000 0.00000
  117 0.00000 0.00000 0.00000
  118 0.00000 0.00000 0.00000
  119 0.00000 0.00000 0.00000
  120 0.00000 0.00000 0.00000
  121 0.00000 0.00000 0.00000
  122 0.00000 0.00000 0.00000
  123 0.00000 0.00000 0.00000
  124 0.00000 0.00000 0.00000
  125 0.00000 0.00000 0.00000
  126 0.00000 0.00000 0.00000
  127 0.00000 0.00000 0.00000
  128 0.00000 0.00000 0.00000
  129 0.00000 0.00000 0.00000
  130 0.00000 0.00000 0.00000
  131 0.00000 0.00000 0.00000
  132 0.00000 0.00000 0.00000
  133 0.00000 0.00000 0.00000
  134 0.00000 0.00000 0.00000
  135 0.00000 0.00000 0.00000
  136 0.00000 0.00000 0.00000
  137 0.00000 0.00000 0.00000
  138 0.00000 0.00000 0.00000
  139 0.00000 0.00000 0.00000
  140 0.00000 0.00000 0.00000
  141 0.00000 0.00000 0.00000
  142 0.00000 0.00000 0.00000
  143 0.00000 0.00000 0.00000
  144 0.00000 0.00000 0.00000
  145 0.00000 0.00000 0.00000
  146 0.00000 0.00000 0.00000
  147 0.00000 0.00000 0.00000
  148 0.00000 0.00000 0.00000
  149 0.00000 0.00000 0.00000
  150 0.00000 0.00000 0.00000
  151 0.00000 0.00000 0.00000
  152 0.00000 0.00000 0.00000
  153 0.00000 0.00000 0.00000
  154 0.00000 0.00000 0.00000
  155 0.00000 0.00000 0.00000
  156 0.00000 0.00000 0.00000
  157 0.00000 0.00000 0.00000
  158 0.00000 0.00000 0.00000
  159 0.00000 0.00000 0.00000
  160 0.00000 0.00000 0.00000
  161 0.00000 0.00000 0.00000
  162 0.00000 0.00000 0.00000
  163 0.00000 0.00000 0.00000
  164 0.00000 0.00000 0.00000
  165 0.00000 0.00000 0.00000
  166 0.00000 0.00000 0.00000
  167 0.00000 0.00000 0.00000
  168 0.00000 0.00000 0.00000
  169 0.00000 0.00000 0.00000
  170 0.00000 0.00000 0.00000
  171 0.00000 0.00000 0.00000
  172 0.00000 0.00000 0.00000
  173 0.00000 0.00000 0.00000
  174 0.00000 0.00000 0.00000
  175 0.00000 0.00000 0.00000
  176 0.00000 0.00000 0.00000
  177 0.00000 0.00000 0.00000
  178 0.00000 0.00000 0.00000
  179 0.00000 0.00000 0.00000
  180 0.00000 0.00000 0.00000
  181 0.00000 0.00000 0.00000
  182 0.00000 0.00000 0.00000
  183 0.00000 0.00000 0.00000
  184 0.00000 0.00000 0.00000
  185 0.00000 0.00000 0.00000
  186 0.00000 0.00000 0.00000
  187 0.00000 0.00000 0.00000
  188 0.00000 0.00000 0.00000
  189 0.00000 0.00000 0.00000
  190 0.00000 0.00000 0.00000
  191 0.00000 0.00000 0.00000
  192 0.00000 0.00000 0.00000
  193 0.00000 0.00000 0.00000
  194 0.00000 0.00000 0.00000
  195 0.00000 0.00000 0.00000
  196 0.00000 0.00000 0.00000
  197 0.00000 0.00000 0.00000
  198 0.00000 0.00000 0.00000
  199 0.00000 0.00000 0.00000
  200 0.00000 0.00000 0.00000
  201 0.00000 0.00000 0.00000
  202 0.00000 0.00000 0.00000
  203 0.00000 0.00000 0.00000
  204 0.00000 0.00000 0.00000
  205 0.00000 0.00000 0.00000
  206 0.00000 0.00000 0.00000
  207 0.00000 0.00000 0.00000
  208 0.00000 0.00000 0.00000
  209 0.00000 0.00000 0.00000
  210 0.00000 0.00000 0.00000
  211 0.00000 0.00000 0.00000
  212 0.00000 0.00000 0.00000
  213 0.00000 0.00000 0.00000
  214 0.00000 0.00000 0.00000
  215 0.00000 0.00000 0.00000
  216 0.00000 0.00000 0.00000
  217 0.00000 0.00000 0.00000
  218 0.00000 0.00000 0.00000
  219 0.00000 0.00000 0.00000
  220 0.00000 0.00000 0.00000
  221 0.00000 0.00000 0.00000
  222 0.00000 0.00000 0.00000
  223 0.00000 0.00000 0.00000
  224 0.00000 0.00000 0.00000
  225 0.00000 0.00000 0.00000
  226 0.00000 0.00000 0.00000
  227 0.00000 0.00000 0.00000
  228 0.00000 0.00000 0.00000
  229 0.00000 0.00000 0.00000
  230 0.00000 0.00000 0.00000
  231 0.00000 0.00000 0.00000
  232 0.00000 0.00000 0.00000
  233 0.00000 0.00000 0.00000
  234 0.00000 0.00000 0.00000
  235 0.00000 0.00000 0.00000
  236 0.00000 0.00000 0.00000
  237 0.00000 0.00000 0.00000
  238 0.00000 0.00000 0.00000
  239 0.00000 0.00000 0.00000
  240 0.00000 0.00000 0.00000
  241 0.00000 0.00000 0.00000
</Section>

newXOutput 198

<Section columns = "stress_xx | stress_yy | stress_xy">
  1 0.00000 0.00000 0.00000
  2 0.00000 0.00000 0.00000
  3 0.00000 0.00000 0.00000
  4 0.00000 0.00000 0.00000
  5 0.00000 0.00000 0.00000
  6 0.00000 0.00000 0.00000
  7 0.00000 0.00000 0.00000
  8 0.00000 0.00000 0.00000
  9 0.00000 0.00000 0.00000
  10 0.00000 0.00000 0.00000
  11 0.00000 0.00000 0.00000
  12 0.00000 0.00000 0.00000
  13 0.00000 0.00000 0.00000
  14 0.00000 0.00000 0.00000
  15 0.00000 0.00000 0.00000
  16 0.00000 0.00000 0.00000
  17 0.00000 0.00000 0.00000
  18 0.00000 0.00000 0.00000
  19 0.00000 0.00000 0.00000
  20 0.00000 0.00000 0.00000
  21 0.00000 0.00000 0.00000
  22 0.00000 0.00000 0.00000
  23 0.00000 0.00000 0.00000
  24 0.00000 0.00000 0.00000
  25 0.00000 0.00000 0.00000
  26 0.00000 0.00000 0.00000
  27 0.00000 0.00000 0.00000
  28 0.00000 0.00000 0.00000
  29 0.00000 0.00000 0.00000
  30 0.00000 0.00000 0.00000
  31 0.00000 0.00000 0.00000
  32 0.00000 0.00000 0.00000
  33 0.00000 0.00000 0.00000
  34 0.00000 0.00000 0.00000
  35 0.00000 0.00000 0.00000
  36 0.00000 0.00000 0.00000
  37 0.00000 0.00000 0.00000
  38 0.00000 0.00000 0.00000
  39 0.00000 0.00000 0.00000
  40 0.00000 0.00000 0.00000
  41 0.00000 0.00000 0.00000
  42 0.00000 0.00000 0.00000
  43 0.00000 0.00000 0.00000
  44 0.00000 0.00000 0.00000
  45 0.00000 0.00000 0.00000
  46 0.00000 0.00000 0.00000
  47 0.00000 0.00000 0.00000
  48 0.00000 0.00000 0.00000
  49 0.00000 0.00000 0.00000
  50 0.00000 0.00000 0.00000
  51 0.00000 0.00000 0.00000
  52 0.00000 0.00000 0.00000
  53 0.00000 0.00000 0.00000
  54 0.00000 0.00000 0.00000
  55 0.00000 0.00000 0.00000
  56 0.00000 0.00000 0.00000
  57 0.00000 0.00000 0.00000
  58 0.00000 0.00000 0.00000
  59 0.00000 0.00000 0.00000
  60 0.00000 0.00000 0.00000
  61 0.00000 0.00000 0.00000
  62 0.00000 0.00000 0.00000
  63 0.00000 0.00000 0.00000
  64 0.00000 0.00000 0.00000
  65 0.00000 0.00000 0.00000
  66 0.00000 0.00000 0.00000
  67 0.00000 0.00000 0.00000
  68 0.00000 0.00000 0.00000
  69 0.00000 0.00000 0.00000
  70 0.00000 0.00000 0.00000
  71 0.00000 0.00000 0.00000
  72 0.00000 0.00000 0.00000
  73 0.00000 0.00000 0.00000
  74 0.00000 0.00000 0.00000
  75 0.00000 0.00000 0.00000
  76 0.00000 0.00000 0.00000
  77 0.00000 0.00000 0.00000
  78 0.00000 0.00000 0.00000
  79 0.00000 0.00000 0.00000
  80 0.00000 0.00000 0.00000
  81 0.00000 0.00000 0.00000
  82 0.00000 0.00000 0.00000
  83 0.00000 0.00000 0.00000
  84 0.00000 0.00000 0.00000
  85 0.00000 0.00000 0.00000
  86 0.00000 0.00000 0.00000
  87 0.00000 0.00000 0.00000
  88 0.00000 0.00000 0.00000
  89 0.00000 0.00000 0.00000
  90 0.00000 0.00000 0.00000
  91 0.00000 0.00000 0.00000
  92 0.00000 0.00000 0.00000
  93 0.00000 0.00000 0.00000
  94 0.00000 0.00000 0.00000
  95 0.00000 0.00000 0.00000
  96 0.00000 0.00000 0.00000
  97 0.00000 0.00000 0.00000
  98 0.00000 0.00000 0.00000
  99 0.00000 0.00000 0.00000
  100 0.00000 0.00000 0.00000
  101 0.00000 0.00000 0.00000
  102 0.00000 0.00000 0.00000
  103 0.00000 0.00000 0.00000
  104 0.00000 0.00000 0.00000
  105 0.00000 0.00000 0.00000
  106 0.00000 0.00000 0.00000
  107 0.00000 0.00000 0.00000
  108 0.00000 0.00000 0.00000
  109 0.00000 0.00000 0.00000
  110 0.00000 0.00000 0.00000
  111 0.00000 0.00000 0.00000
  112 0.00000 0.00000 0.00000
  113 0.00000 0.00000 0.00000
  114 0.00000 0.00000 0.00000
  115 0.00000 0.00000 0.00000
  116 0.00000 0.00000 0.00000
  117 0.00000 0.00000 0.00000
  118 0.00000 0.00000 0.00000
  119 0.00000 0.00000 0.00000
  120 0.00000 0.00000 0.00000
  121 0.00000 0.00000 0.00000
  122 0.00000 0.00000 0.00000
  123 0.00000 0.00000 0.00000
  124 0.00000 0.00000 0.00000
  125 0.00000 0.00000 0.00000
  126 0.00000 0.00000 0.00000
  127 0.00000 0.00000 0.00000
  128 0.00000 0.00000 0.00000
  129 0.00000 0.00000 0.00000
  130 0.00000 0.00000 0.00000
  131 0.00000 0.00000 0.00000
  132 0.00000 0.00000 0.00000
  133 0.00000 0.00000 0.00000
  134 0.00000 0.00000 0.00000
  135 0.00000 0.00000 0.00000
  136 0.00000 0.00000 0.00000
  137 0.00000 0.00000 0.00000
  138 0.00000 0.00000 0.00000
  139 0.00000 0.00000 0.00000
  140 0.00000 0.00000 0.00000
  141 0.00000 0.00000 0.00000
  142 0.00000 0.00000 0.00000
  143 0.00000 0.00000 0.00000
  144 0.00000 0.00000 0.00000
  145 0.00000 0.00000 0.00000
  146 0.00000 0.00000 0.00000
  147 0.00000 0.00000 0.00000
  148 0.00000 0.00000 0.00000
  149 0.00000 0.00000 0.00000
  150 0.00000 0.00000 0.00000
  151 0.00000 0.00000 0.00000
  152 0.00000 0.00000 0.00000
  153 0.00000 0.00000 0.00000
  154 0.00000 0.00000 0.00000
  155 0.00000 0.00000 0.00000
  156 0.00000 0.00000 0.00000
  157 0.00000 0.00000 0.00000
  158 0.00000 0.00000 0.00000
  159 0.00000 0.00000 0.00000
  160 0.00000 0.00000 0.00000
  161 0.00000 0.00000 0.00000
  162 0.00000 0.00000 0.00000
  163 0.00000 0.00000 0.00000
  164 0.00000 0.00000 0.00000
  165 0.00000 0.00000 0.00000
  166 0.00000 0.00000 0.00000
  167 0.00000 0.00000 0.00000
  168 0.00000 0.00000 0.00000
  169 0.00000 0.00000 0.00000
  170 0.00000 0.00000 0.00000
  171 0.00000 0.00000 0.00000
  172 0.00000 0.00000 0.00000
  173 0.00000 0.00000 0.00000
  174 0.00000 0.00000 0.00000
  175 0.00000 0.00000 0.00000
  176 0.00000 0.00000 0.00000
  177 0.00000 0.00000 0.00000
  178 0.00000 0.00000 0.00000
  179 0.00000 0.00000 0.00000
  180 0.00000 0.00000 0.00000
  181 0.00000 0.00000 0.00000
  182 0.00000 0.00000 0.00000
  183 0.00000 0.00000 0.00000
  184 0.00000 0.00000 0.00000
  185 0.00000 0.00000 0.00000
  186 0.00000 0.00000 0.00000
  187 0.00000 0.00000 0.00000
  188 0.00000 0.00000 0.00000
  189 0.00000 0.00000 0.00000
  190 0.00000 0.00000 0.00000
  191 0.00000 0.00000 0.00000
  192 0.00000 0.00000 0.00000
  193 0.00000 0.00000 0.00000
  194 0.00000 0.00000 0.00000
  195 0.00000 0.00000 0.00000
  196 0.00000 0.00000 0.00000
  197 0.00000 0.00000 0.00000
  198 0.00000 0.00000 0.00000
  199 0.00000 0.00000 0.00000
  200 0.00000 0.00000 0.00000
  201 0.00000 0.00000 0.00000
  202 0.00000 0.00000 0.00000
  203 0.00000 0.00000 0.00000
  204 0.00000 0.00000 0.00000
  205 0.00000 0.00000 0.00000
  206 0.00000 0.00000 0.00000
  207 0.00000 0.00000 0.00000
  208 0.00000 0.00000 0.00000
  209 0.00000 0.00000 0.00000
  210 0.00000 0.00000 0.00000
  211 0.00000 0.00000 0.00000
  212 0.00000 0.00000 0.00000
  213 0.00000 0.00000 0.00000
  214 0.00000 0.00000 0.00000
  215 0.00000 0.00000 0.00000
  216 0.00000 0.00000 0.00000
  217 0.00000 0.00000 0.00000
  218 0.00000 0.00000 0.00000
  219 0.00000 0.00000 0.00000
  220 0.00000 0.00000 0.00000
  221 0.00000 0.00000 0.00000
  222 0.00000 0.00000 0.00000
  223 0.00000 0.00000 0.00000
  224 0.00000 0.00000 0.00000
  225 0.00000 0.00000 0.00000
  226 0.00000 0.00000 0.00000
  227 0.00000 0.00000 0.00000
  228 0.00000 0.00000 0.00000
  229 0.00000 0.00000 0.00000
  230 0.00000 0.00000 0.00000
  231 0.00000 0.00000 0.00000
  232 0.00000 0.00000 0.00000
  233 0.00000 0.00000 0.00000
  234 0.00000 0.00000 0.00000
  235 0.00000 0.00000 0.00000
  236 0.00000 0.00000 0.00000
  237 0.00000 0.00000 0.00000
  238 0.00000 0.00000 0.00000
  239 0.00000 0.00000 0.00000
  240 0.00000 0.00000 0.00000
  241 0.00000 0.00000 0.00000
</Section>

newXOutput 199

<Section columns = "stress_xx | stress_yy | stress_xy">
  1 0.00000 0.00000 0.00000
  2 0.00000 0.00000 0.00000
  3 0.00000 0.00000 0.00000
  4 0.00000 0.00000 0.00000
  5 0.00000 0.00000 0.00000
  6 0.00000 0.00000 0.00000
  7 0.00000 0.00000 0.00000
  8 0.00000 0.00000 0.00000
  9 0.00000 0.00000 0.00000
  10 0.00000 0.00000 0.00000
  11 0.00000 0.00000 0.00000
  12 0.00000 0.00000 0.00000
  13 0.00000 0.00000 0.00000
  14 0.00000 0.00000 0.00000
  15 0.00000 0.00000 0.00000
  16 0.00000 0.00000 0.00000
  17 0.00000 0.00000 0.00000
  18 0.00000 0.00000 0.00000
  19 0.00000 0.00000 0.00000
  20 0.00000 0.00000 0.00000
  21 0.00000 0.00000 0.00000
  22 0.00000 0.00000 0.00000
  23 0.00000 0.00000 0.00000
  24 0.00000 0.00000 0.00000
  25 0.00000 0.00000 0.00000
  26 0.00000 0.00000 0.00000
  27 0.00000 0.00000 0.00000
  28 0.00000 0.00000 0.00000
  29 0.00000 0.00000 0.00000
  30 0.00000 0.00000 0.00000
  31 0.00000 0.00000 0.00000
  32 0.00000 0.00000 0.00000
  33 0.00000 0.00000 0.00000
  34 0.00000 0.00000 0.00000
  35 0.00000 0.00000 0.00000
  36 0.00000 0.00000 0.00000
  37 0.00000 0.00000 0.00000
  38 0.00000 0.00000 0.00000
  39 0.00000 0.00000 0.00000
  40 0.00000 0.00000 0.00000
  41 0.00000 0.00000 0.00000
  42 0.00000 0.00000 0.00000
  43 0.00000 0.00000 0.00000
  44 0.00000 0.00000 0.00000
  45 0.00000 0.00000 0.00000
  46 0.00000 0.00000 0.00000
  47 0.00000 0.00000 0.00000
  48 0.00000 0.00000 0.00000
  49 0.00000 0.00000 0.00000
  50 0.00000 0.00000 0.00000
  51 0.00000 0.00000 0.00000
  52 0.00000 0.00000 0.00000
  53 0.00000 0.00000 0.00000
  54 0.00000 0.00000 0.00000
  55 0.00000 0.00000 0.00000
  56 0.00000 0.00000 0.00000
  57 0.00000 0.00000 0.00000
  58 0.00000 0.00000 0.00000
  59 0.00000 0.00000 0.00000
  60 0.00000 0.00000 0.00000
  61 0.00000 0.00000 0.00000
  62 0.00000 0.00000 0.00000
  63 0.00000 0.00000 0.00000
  64 0.00000 0.00000 0.00000
  65 0.00000 0.00000 0.00000
  66 0.00000 0.00000 0.00000
  67 0.00000 0.00000 0.00000
  68 0.00000 0.00000 0.00000
  69 0.00000 0.00000 0.00000
  70 0.00000 0.00000 0.00000
  71 0.00000 0.00000 0.00000
  72 0.00000 0.00000 0.00000
  73 0.00000 0.00000 0.00000
  74 0.00000 0.00000 0.00000
  75 0.00000 0.00000 0.00000
  76 0.00000 0.00000 0.00000
  77 0.00000 0.00000 0.00000
  78 0.00000 0.00000 0.00000
  79 0.00000 0.00000 0.00000
  80 0.00000 0.00000 0.00000
  81 0.00000 0.00000 0.00000
  82 0.00000 0.00000 0.00000
  83 0.00000 0.00000 0.00000
  84 0.00000 0.00000 0.00000
  85 0.00000 0.00000 0.00000
  86 0.00000 0.00000 0.00000
  87 0.00000 0.00000 0.00000
  88 0.00000 0.00000 0.00000
  89 0.00000 0.00000 0.00000
  90 0.00000 0.00000 0.00000
  91 0.00000 0.00000 0.00000
  92 0.00000 0.00000 0.00000
  93 0.00000 0.00000 0.00000
  94 0.00000 0.00000 0.00000
  95 0.00000 0.00000 0.00000
  96 0.00000 0.00000 0.00000
  97 0.00000 0.00000 0.00000
  98 0.00000 0.00000 0.00000
  99 0.00000 0.00000 0.00000
  100 0.00000 0.00000 0.00000
  101 0.00000 0.00000 0.00000
  102 0.00000 0.00000 0.00000
  103 0.00000 0.00000 0.00000
  104 0.00000 0.00000 0.00000
  105 0.00000 0.00000 0.00000
  106 0.00000 0.00000 0.00000
  107 0.00000 0.00000 0.00000
  108 0.00000 0.00000 0.00000
  109 0.00000 0.00000 0.00000
  110 0.00000 0.00000 0.00000
  111 0.00000 0.00000 0.00000
  112 0.00000 0.00000 0.00000
  113 0.00000 0.00000 0.00000
  114 0.00000 0.00000 0.00000
  115 0.00000 0.00000 0.00000
  116 0.00000 0.00000 0.00000
  117 0.00000 0.00000 0.00000
  118 0.00000 0.00000 0.00000
  119 0.00000 0.00000 0.00000
  120 0.00000 0.00000 0.00000
  121 0.00000 0.00000 0.00000
  122 0.00000 0.00000 0.00000
  123 0.00000 0.00000 0.00000
  124 0.00000 0.00000 0.00000
  125 0.00000 0.00000 0.00000
  126 0.00000 0.00000 0.00000
  127 0.00000 0.00000 0.00000
  128 0.00000 0.00000 0.00000
  129 0.00000 0.00000 0.00000
  130 0.00000 0.00000 0.00000
  131 0.00000 0.00000 0.00000
  132 0.00000 0.00000 0.00000
  133 0.00000 0.00000 0.00000
  134 0.00000 0.00000 0.00000
  135 0.00000 0.00000 0.00000
  136 0.00000 0.00000 0.00000
  137 0.00000 0.00000 0.00000
  138 0.00000 0.00000 0.00000
  139 0.00000 0.00000 0.00000
  140 0.00000 0.00000 0.00000
  141 0.00000 0.00000 0.00000
  142 0.00000 0.00000 0.00000
  143 0.00000 0.00000 0.00000
  144 0.00000 0.00000 0.00000
  145 0.00000 0.00000 0.00000
  146 0.00000 0.00000 0.00000
  147 0.00000 0.00000 0.00000
  148 0.00000 0.00000 0.00000
  149 0.00000 0.00000 0.00000
  150 0.00000 0.00000 0.00000
  151 0.00000 0.00000 0.00000
  152 0.00000 0.00000 0.00000
  153 0.00000 0.00000 0.00000
  154 0.00000 0.00000 0.00000
  155 0.00000 0.00000 0.00000
  156 0.00000 0.00000 0.00000
  157 0.00000 0.00000 0.00000
  158 0.00000 0.00000 0.00000
  159 0.00000 0.00000 0.00000
  160 0.00000 0.00000 0.00000
  161 0.00000 0.00000 0.00000
  162 0.00000 0.00000 0.00000
  163 0.00000 0.00000 0.00000
  164 0.00000 0.00000 0.00000
  165 0.00000 0.00000 0.00000
  166 0.00000 0.00000 0.00000
  167 0.00000 0.00000 0.00000
  168 0.00000 0.00000 0.00000
  169 0.00000 0.00000 0.00000
  170 0.00000 0.00000 0.00000
  171 0.00000 0.00000 0.00000
  172 0.00000 0.00000 0.00000
  173 0.00000 0.00000 0.00000
  174 0.00000 0.00000 0.00000
  175 0.00000 0.00000 0.00000
  176 0.00000 0.00000 0.00000
  177 0.00000 0.00000 0.00000
  178 0.00000 0.00000 0.00000
  179 0.00000 0.00000 0.00000
  180 0.00000 0.00000 0.00000
  181 0.00000 0.00000 0.00000
  182 0.00000 0.00000 0.00000
  183 0.00000 0.00000 0.00000
  184 0.00000 0.00000 0.00000
  185 0.00000 0.00000 0.00000
  186 0.00000 0.00000 0.00000
  187 0.00000 0.00000 0.00000
  188 0.00000 0.00000 0.00000
  189 0.00000 0.00000 0.00000
  190 0.00000 0.00000 0.00000
  191 0.00000 0.00000 0.00000
  192 0.00000 0.00000 0.00000
  193 0.00000 0.00000 0.00000
  194 0.00000 0.00000 0.00000
  195 0.00000 0.00000 0.00000
  196 0.00000 0.00000 0.00000
  197 0.00000 0.00000 0.00000
  198 0.00000 0.00000 0.00000
  199 0.00000 0.00000 0.00000
  200 0.00000 0.00000 0.00000
  201 0.00000 0.00000 0.00000
  202 0.00000 0.00000 0.00000
  203 0.00000 0.00000 0.00000
  204 0.00000 0.00000 0.00000
  205 0.00000 0.00000 0.00000
  206 0.00000 0.00000 0.00000
  207 0.00000 0.00000 0.00000
  208 0.00000 0.00000 0.00000
  209 0.00000 0.00000 0.00000
  210 0.00000 0.00000 0.00000
  211 0.00000 0.00000 0.00000
  212 0.00000 0.00000 0.00000
  213 0.00000 0.00000 0.00000
  214 0.00000 0.00000 0.00000
  215 0.00000 0.00000 0.00000
  216 0.00000 0.00000 0.00000
  217 0.00000 0.00000 0.00000
  218 0.00000 0.00000 0.00000
  219 0.00000 0.00000 0.00000
  220 0.00000 0.00000 0.00000
  221 0.00000 0.00000 0.00000
  222 0.00000 0.00000 0.00000
  223 0.00000 0.00000 0.00000
  224 0.00000 0.00000 0.00000
  225 0.00000 0.00000 0.00000
  226 0.00000 0.00000 0.00000
  227 0.00000 0.00000 0.00000
  228 0.00000 0.00000 0.00000
  229 0.00000 0.00000 0.00000
  230 0.00000 0.00000 0.00000
  231 0.00000 0.00000 0.00000
  232 0.00000 0.00000 0.00000
  233 0.00000 0.00000 0.00000
  234 0.00000 0.00000 0.00000
  235 0.00000 0.00000 0.00000
  236 0.00000 0.00000 0.00000
  237 0.00000 0.00000 0.00000
  238 0.00000 0.00000 0.00000
  239 0.00000 0.00000 0.00000
  240 0.00000 0.00000 0.00000
  241 0.00000 0.00000 0.00000
</Section>

newXOutput 200

<Section columns = "stress_xx | stress_yy | stress_xy">
  1 0.00000 0.00000 0.00000
  2 0.00000 0.00000 0.00000
  3 0.00000 0.00000 0.00000
  4 0.00000 0.00000 0.00000
  5 0.00000 0.00000 0.00000
  6 0.00000 0.00000 0.00000
  7 0.00000 0.00000 0.00000
  8 0.00000 0.00000 0.00000
  9 0.00000 0.00000 0.00000
  10 0.00000 0.00000 0.00000
  11 0.00000 0.00000 0.00000
  12 0.00000 0.00000 0.00000
  13 0.00000 0.00000 0.00000
  14 0.00000 0.00000 0.00000
  15 0.00000 0.00000 0.00000
  16 0.00000 0.00000 0.00000
  17 0.00000 0.00000 0.00000
  18 0.00000 0.00000 0.00000
  19 0.00000 0.00000 0.00000
  20 0.00000 0.00000 0.00000
  21 0.00000 0.00000 0.00000
  22 0.00000 0.00000 0.00000
  23 0.00000 0.00000 0.00000
  24 0.00000 0.00000 0.00000
  25 0.00000 0.00000 0.00000
  26 0.00000 0.00000 0.00000
  27 0.00000 0.00000 0.00000
  28 0.00000 0.00000 0.00000
  29 0.00000 0.00000 0.00000
  30 0.00000 0.00000 0.00000
  31 0.00000 0.00000 0.00000
  32 0.00000 0.00000 0.00000
  33 0.00000 0.00000 0.00000
  34 0.00000 0.00000 0.00000
  35 0.00000 0.00000 0.00000
  36 0.00000 0.00000 0.00000
  37 0.00000 0.00000 0.00000
  38 0.00000 0.00000 0.00000
  39 0.00000 0.00000 0.00000
  40 0.00000 0.00000 0.00000
  41 0.00000 0.00000 0.00000
  42 0.00000 0.00000 0.00000
  43 0.00000 0.00000 0.00000
  44 0.00000 0.00000 0.00000
  45 0.00000 0.00000 0.00000
  46 0.00000 0.00000 0.00000
  47 0.00000 0.00000 0.00000
  48 0.00000 0.00000 0.00000
  49 0.00000 0.00000 0.00000
  50 0.00000 0.00000 0.00000
  51 0.00000 0.00000 0.00000
  52 0.00000 0.00000 0.00000
  53 0.00000 0.00000 0.00000
  54 0.00000 0.00000 0.00000
  55 0.00000 0.00000 0.00000
  56 0.00000 0.00000 0.00000
  57 0.00000 0.00000 0.00000
  58 0.00000 0.00000 0.00000
  59 0.00000 0.00000 0.00000
  60 0.00000 0.00000 0.00000
  61 0.00000 0.00000 0.00000
  62 0.00000 0.00000 0.00000
  63 0.00000 0.00000 0.00000
  64 0.00000 0.00000 0.00000
  65 0.00000 0.00000 0.00000
  66 0.00000 0.00000 0.00000
  67 0.00000 0.00000 0.00000
  68 0.00000 0.00000 0.00000
  69 0.00000 0.00000 0.00000
  70 0.00000 0.00000 0.00000
  71 0.00000 0.00000 0.00000
  72 0.00000 0.00000 0.00000
  73 0.00000 0.00000 0.00000
  74 0.00000 0.00000 0.00000
  75 0.00000 0.00000 0.00000
  76 0.00000 0.00000 0.00000
  77 0.00000 0.00000 0.00000
  78 0.00000 0.00000 0.00000
  79 0.00000 0.00000 0.00000
  80 0.00000 0.00000 0.00000
  81 0.00000 0.00000 0.00000
  82 0.00000 0.00000 0.00000
  83 0.00000 0.00000 0.00000
  84 0.00000 0.00000 0.00000
  85 0.00000 0.00000 0.00000
  86 0.00000 0.00000 0.00000
  87 0.00000 0.00000 0.00000
  88 0.00000 0.00000 0.00000
  89 0.00000 0.00000 0.00000
  90 0.00000 0.00000 0.00000
  91 0.00000 0.00000 0.00000
  92 0.00000 0.00000 0.00000
  93 0.00000 0.00000 0.00000
  94 0.00000 0.00000 0.00000
  95 0.00000 0.00000 0.00000
  96 0.00000 0.00000 0.00000
  97 0.00000 0.00000 0.00000
  98 0.00000 0.00000 0.00000
  99 0.00000 0.00000 0.00000
  100 0.00000 0.00000 0.00000
  101 0.00000 0.00000 0.00000
  102 0.00000 0.00000 0.00000
  103 0.00000 0.00000 0.00000
  104 0.00000 0.00000 0.00000
  105 0.00000 0.00000 0.00000
  106 0.00000 0.00000 0.00000
  107 0.00000 0.00000 0.00000
  108 0.00000 0.00000 0.00000
  109 0.00000 0.00000 0.00000
  110 0.00000 0.00000 0.00000
  111 0.00000 0.00000 0.00000
  112 0.00000 0.00000 0.00000
  113 0.00000 0.00000 0.00000
  114 0.00000 0.00000 0.00000
  115 0.00000 0.00000 0.00000
  116 0.00000 0.00000 0.00000
  117 0.00000 0.00000 0.00000
  118 0.00000 0.00000 0.00000
  119 0.00000 0.00000 0.00000
  120 0.00000 0.00000 0.00000
  121 0.00000 0.00000 0.00000
  122 0.00000 0.00000 0.00000
  123 0.00000 0.00000 0.00000
  124 0.00000 0.00000 0.00000
  125 0.00000 0.00000 0.00000
  126 0.00000 0.00000 0.00000
  127 0.00000 0.00000 0.00000
  128 0.00000 0.00000 0.00000
  129 0.00000 0.00000 0.00000
  130 0.00000 0.00000 0.00000
  131 0.00000 0.00000 0.00000
  132 0.00000 0.00000 0.00000
  133 0.00000 0.00000 0.00000
  134 0.00000 0.00000 0.00000
  135 0.00000 0.00000 0.00000
  136 0.00000 0.00000 0.00000
  137 0.00000 0.00000 0.00000
  138 0.00000 0.00000 0.00000
  139 0.00000 0.00000 0.00000
  140 0.00000 0.00000 0.00000
  141 0.00000 0.00000 0.00000
  142 0.00000 0.00000 0.00000
  143 0.00000 0.00000 0.00000
  144 0.00000 0.00000 0.00000
  145 0.00000 0.00000 0.00000
  146 0.00000 0.00000 0.00000
  147 0.00000 0.00000 0.00000
  148 0.00000 0.00000 0.00000
  149 0.00000 0.00000 0.00000
  150 0.00000 0.00000 0.00000
  151 0.00000 0.00000 0.00000
  152 0.00000 0.00000 0.00000
  153 0.00000 0.00000 0.00000
  154 0.00000 0.00000 0.00000
  155 0.00000 0.00000 0.00000
  156 0.00000 0.00000 0.00000
  157 0.00000 0.00000 0.00000
  158 0.00000 0.00000 0.00000
  159 0.00000 0.00000 0.00000
  160 0.00000 0.00000 0.00000
  161 0.00000 0.00000 0.00000
  162 0.00000 0.00000 0.00000
  163 0.00000 0.00000 0.00000
  164 0.00000 0.00000 0.00000
  165 0.00000 0.00000 0.00000
  166 0.00000 0.00000 0.00000
  167 0.00000 0.00000 0.00000
  168 0.00000 0.00000 0.00000
  169 0.00000 0.00000 0.00000
  170 0.00000 0.00000 0.00000
  171 0.00000 0.00000 0.00000
  172 0.00000 0.00000 0.00000
  173 0.00000 0.00000 0.00000
  174 0.00000 0.00000 0.00000
  175 0.00000 0.00000 0.00000
  176 0.00000 0.00000 0.00000
  177 0.00000 0.00000 0.00000
  178 0.00000 0.00000 0.00000
  179 0.00000 0.00000 0.00000
  180 0.00000 0.00000 0.00000
  181 0.00000 0.00000 0.00000
  182 0.00000 0.00000 0.00000
  183 0.00000 0.00000 0.00000
  184 0.00000 0.00000 0.00000
  185 0.00000 0.00000 0.00000
  186 0.00000 0.00000 0.00000
  187 0.00000 0.00000 0.00000
  188 0.00000 0.00000 0.00000
  189 0.00000 0.00000 0.00000
  190 0.00000 0.00000 0.00000
  191 0.00000 0.00000 0.00000
  192 0.00000 0.00000 0.00000
  193 0.00000 0.00000 0.00000
  194 0.00000 0.00000 0.00000
  195 0.00000 0.00000 0.00000
  196 0.00000 0.00000 0.00000
  197 0.00000 0.00000 0.00000
  198 0.00000 0.00000 0.00000
  199 0.00000 0.00000 0.00000
  200 0.00000 0.00000 0.00000
  201 0.00000 0.00000 0.00000
  202 0.00000 0.00000 0.00000
  203 0.00000 0.00000 0.00000
  204 0.00000 0.00000 0.00000
  205 0.00000 0.00000 0.00000
  206 0.00000 0.00000 0.00000
  207 0.00000 0.00000 0.00000
  208 0.00000 0.00000 0.00000
  209 0.00000 0.00000 0.00000
  210 0.00000 0.00000 0.00000
  211 0.00000 0.00000 0.00000
  212 0.00000 0.00000 0.00000
  213 0.00000 0.00000 0.00000
  214 0.00000 0.00000 0.00000
  215 0.00000 0.00000 0.00000
  216 0.00000 0.00000 0.00000
  217 0.00000 0.00000 0.00000
  218 0.00000 0.00000 0.00000
  219 0.00000 0.00000 0.00000
  220 0.00000 0.00000 0.00000
  221 0.00000 0.00000 0.00000
  222 0.00000 0.00000 0.00000
  223 0.00000 0.00000 0.00000
  224 0.00000 0.00000 0.00000
  225 0.00000 0.00000 0.00000
  226 0.00000 0.00000 0.00000
  227 0.00000 0.00000 0.00000
  228 0.00000 0.00000 0.00000
  229 0.00000 0.00000 0.00000
  230 0.00000 0.00000 0.00000
  231 0.00000 0.00000 0.00000
  232 0.00000 0.00000 0.00000
  233 0.00000 0.00000 0.00000
  234 0.00000 0.00000 0.00000
  235 0.00000 0.00000 0.00000
  236 0.00000 0.00000 0.00000
  237 0.00000 0.00000 0.00000
  238 0.00000 0.00000 0.00000
  239 0.00000 0.00000 0.00000
  240 0.00000 0.00000 0.00000
  241 0.00000 0.00000 0.00000
</Section>

newXOutput 201

<Section columns = "stress_xx | stress_yy | stress_xy">
  1 0.00000 0.00000 0.00000
  2 0.00000 0.00000 0.00000
  3 0.00000 0.00000 0.00000
  4 0.00000 0.00000 0.00000
  5 0.00000 0.00000 0.00000
  6 0.00000 0.00000 0.00000
  7 0.00000 0.00000 0.00000
  8 0.00000 0.00000 0.00000
  9 0.00000 0.00000 0.00000
  10 0.00000 0.00000 0.00000
  11 0.00000 0.00000 0.00000
  12 0.00000 0.00000 0.00000
  13 0.00000 0.00000 0.00000
  14 0.00000 0.00000 0.00000
  15 0.00000 0.00000 0.00000
  16 0.00000 0.00000 0.00000
  17 0.00000 0.00000 0.00000
  18 0.00000 0.00000 0.00000
  19 0.00000 0.00000 0.00000
  20 0.00000 0.00000 0.00000
  21 0.00000 0.00000 0.00000
  22 0.00000 0.00000 0.00000
  23 0.00000 0.00000 0.00000
  24 0.00000 0.00000 0.00000
  25 0.00000 0.00000 0.00000
  26 0.00000 0.00000 0.00000
  27 0.00000 0.00000 0.00000
  28 0.00000 0.00000 0.00000
  29 0.00000 0.00000 0.00000
  30 0.00000 0.00000 0.00000
  31 0.00000 0.00000 0.00000
  32 0.00000 0.00000 0.00000
  33 0.00000 0.00000 0.00000
  34 0.00000 0.00000 0.00000
  35 0.00000 0.00000 0.00000
  36 0.00000 0.00000 0.00000
  37 0.00000 0.00000 0.00000
  38 0.00000 0.00000 0.00000
  39 0.00000 0.00000 0.00000
  40 0.00000 0.00000 0.00000
  41 0.00000 0.00000 0.00000
  42 0.00000 0.00000 0.00000
  43 0.00000 0.00000 0.00000
  44 0.00000 0.00000 0.00000
  45 0.00000 0.00000 0.00000
  46 0.00000 0.00000 0.00000
  47 0.00000 0.00000 0.00000
  48 0.00000 0.00000 0.00000
  49 0.00000 0.00000 0.00000
  50 0.00000 0.00000 0.00000
  51 0.00000 0.00000 0.00000
  52 0.00000 0.00000 0.00000
  53 0.00000 0.00000 0.00000
  54 0.00000 0.00000 0.00000
  55 0.00000 0.00000 0.00000
  56 0.00000 0.00000 0.00000
  57 0.00000 0.00000 0.00000
  58 0.00000 0.00000 0.00000
  59 0.00000 0.00000 0.00000
  60 0.00000 0.00000 0.00000
  61 0.00000 0.00000 0.00000
  62 0.00000 0.00000 0.00000
  63 0.00000 0.00000 0.00000
  64 0.00000 0.00000 0.00000
  65 0.00000 0.00000 0.00000
  66 0.00000 0.00000 0.00000
  67 0.00000 0.00000 0.00000
  68 0.00000 0.00000 0.00000
  69 0.00000 0.00000 0.00000
  70 0.00000 0.00000 0.00000
  71 0.00000 0.00000 0.00000
  72 0.00000 0.00000 0.00000
  73 0.00000 0.00000 0.00000
  74 0.00000 0.00000 0.00000
  75 0.00000 0.00000 0.00000
  76 0.00000 0.00000 0.00000
  77 0.00000 0.00000 0.00000
  78 0.00000 0.00000 0.00000
  79 0.00000 0.00000 0.00000
  80 0.00000 0.00000 0.00000
  81 0.00000 0.00000 0.00000
  82 0.00000 0.00000 0.00000
  83 0.00000 0.00000 0.00000
  84 0.00000 0.00000 0.00000
  85 0.00000 0.00000 0.00000
  86 0.00000 0.00000 0.00000
  87 0.00000 0.00000 0.00000
  88 0.00000 0.00000 0.00000
  89 0.00000 0.00000 0.00000
  90 0.00000 0.00000 0.00000
  91 0.00000 0.00000 0.00000
  92 0.00000 0.00000 0.00000
  93 0.00000 0.00000 0.00000
  94 0.00000 0.00000 0.00000
  95 0.00000 0.00000 0.00000
  96 0.00000 0.00000 0.00000
  97 0.00000 0.00000 0.00000
  98 0.00000 0.00000 0.00000
  99 0.00000 0.00000 0.00000
  100 0.00000 0.00000 0.00000
  101 0.00000 0.00000 0.00000
  102 0.00000 0.00000 0.00000
  103 0.00000 0.00000 0.00000
  104 0.00000 0.00000 0.00000
  105 0.00000 0.00000 0.00000
  106 0.00000 0.00000 0.00000
  107 0.00000 0.00000 0.00000
  108 0.00000 0.00000 0.00000
  109 0.00000 0.00000 0.00000
  110 0.00000 0.00000 0.00000
  111 0.00000 0.00000 0.00000
  112 0.00000 0.00000 0.00000
  113 0.00000 0.00000 0.00000
  114 0.00000 0.00000 0.00000
  115 0.00000 0.00000 0.00000
  116 0.00000 0.00000 0.00000
  117 0.00000 0.00000 0.00000
  118 0.00000 0.00000 0.00000
  119 0.00000 0.00000 0.00000
  120 0.00000 0.00000 0.00000
  121 0.00000 0.00000 0.00000
  122 0.00000 0.00000 0.00000
  123 0.00000 0.00000 0.00000
  124 0.00000 0.00000 0.00000
  125 0.00000 0.00000 0.00000
  126 0.00000 0.00000 0.00000
  127 0.00000 0.00000 0.00000
  128 0.00000 0.00000 0.00000
  129 0.00000 0.00000 0.00000
  130 0.00000 0.00000 0.00000
  131 0.00000 0.00000 0.00000
  132 0.00000 0.00000 0.00000
  133 0.00000 0.00000 0.00000
  134 0.00000 0.00000 0.00000
  135 0.00000 0.00000 0.00000
  136 0.00000 0.00000 0.00000
  137 0.00000 0.00000 0.00000
  138 0.00000 0.00000 0.00000
  139 0.00000 0.00000 0.00000
  140 0.00000 0.00000 0.00000
  141 0.00000 0.00000 0.00000
  142 0.00000 0.00000 0.00000
  143 0.00000 0.00000 0.00000
  144 0.00000 0.00000 0.00000
  145 0.00000 0.00000 0.00000
  146 0.00000 0.00000 0.00000
  147 0.00000 0.00000 0.00000
  148 0.00000 0.00000 0.00000
  149 0.00000 0.00000 0.00000
  150 0.00000 0.00000 0.00000
  151 0.00000 0.00000 0.00000
  152 0.00000 0.00000 0.00000
  153 0.00000 0.00000 0.00000
  154 0.00000 0.00000 0.00000
  155 0.00000 0.00000 0.00000
  156 0.00000 0.00000 0.00000
  157 0.00000 0.00000 0.00000
  158 0.00000 0.00000 0.00000
  159 0.00000 0.00000 0.00000
  160 0.00000 0.00000 0.00000
  161 0.00000 0.00000 0.00000
  162 0.00000 0.00000 0.00000
  163 0.00000 0.00000 0.00000
  164 0.00000 0.00000 0.00000
  165 0.00000 0.00000 0.00000
  166 0.00000 0.00000 0.00000
  167 0.00000 0.00000 0.00000
  168 0.00000 0.00000 0.00000
  169 0.00000 0.00000 0.00000
  170 0.00000 0.00000 0.00000
  171 0.00000 0.00000 0.00000
  172 0.00000 0.00000 0.00000
  173 0.00000 0.00000 0.00000
  174 0.00000 0.00000 0.00000
  175 0.00000 0.00000 0.00000
  176 0.00000 0.00000 0.00000
  177 0.00000 0.00000 0.00000
  178 0.00000 0.00000 0.00000
  179 0.00000 0.00000 0.00000
  180 0.00000 0.00000 0.00000
  181 0.00000 0.00000 0.00000
  182 0.00000 0.00000 0.00000
  183 0.00000 0.00000 0.00000
  184 0.00000 0.00000 0.00000
  185 0.00000 0.00000 0.00000
  186 0.00000 0.00000 0.00000
  187 0.00000 0.00000 0.00000
  188 0.00000 0.00000 0.00000
  189 0.00000 0.00000 0.00000
  190 0.00000 0.00000 0.00000
  191 0.00000 0.00000 0.00000
  192 0.00000 0.00000 0.00000
  193 0.00000 0.00000 0.00000
  194 0.00000 0.00000 0.00000
  195 0.00000 0.00000 0.00000
  196 0.00000 0.00000 0.00000
  197 0.00000 0.00000 0.00000
  198 0.00000 0.00000 0.00000
  199 0.00000 0.00000 0.00000
  200 0.00000 0.00000 0.00000
  201 0.00000 0.00000 0.00000
  202 0.00000 0.00000 0.00000
  203 0.00000 0.00000 0.00000
  204 0.00000 0.00000 0.00000
  205 0.00000 0.00000 0.00000
  206 0.00000 0.00000 0.00000
  207 0.00000 0.00000 0.00000
  208 0.00000 0.00000 0.00000
  209 0.00000 0.00000 0.00000
  210 0.00000 0.00000 0.00000
  211 0.00000 0.00000 0.00000
  212 0.00000 0.00000 0.00000
  213 0.00000 0.00000 0.00000
  214 0.00000 0.00000 0.00000
  215 0.00000 0.00000 0.00000
  216 0.00000 0.00000 0.00000
  217 0.00000 0.00000 0.00000
  218 0.00000 0.00000 0.00000
  219 0.00000 0.00000 0.00000
  220 0.00000 0.00000 0.00000
  221 0.00000 0.00000 0.00000
  222 0.00000 0.00000 0.00000
  223 0.00000 0.00000 0.00000
  224 0.00000 0.00000 0.00000
  225 0.00000 0.00000 0.00000
  226 0.00000 0.00000 0.00000
  227 0.00000 0.00000 0.00000
  228 0.00000 0.00000 0.00000
  229 0.00000 0.00000 0.00000
  230 0.00000 0.00000 0.00000
  231 0.00000 0.00000 0.00000
  232 0.00000 0.00000 0.00000
  233 0.00000 0.00000 0.00000
  234 0.00000 0.00000 0.00000
  235 0.00000 0.00000 0.00000
  236 0.00000 0.00000 0.00000
  237 0.00000 0.00000 0.00000
  238 0.00000 0.00000 0.00000
  239 0.00000 0.00000 0.00000
  240 0.00000 0.00000 0.00000
  241 0.00000 0.00000 0.00000
</Section>

newXOutput 202

<Section columns = "stress_xx | stress_yy | stress_xy">
  1 0.00000 0.00000 0.00000
  2 0.00000 0.00000 0.00000
  3 0.00000 0.00000 0.00000
  4 0.00000 0.00000 0.00000
  5 0.00000 0.00000 0.00000
  6 0.00000 0.00000 0.00000
  7 0.00000 0.00000 0.00000
  8 0.00000 0.00000 0.00000
  9 0.00000 0.00000 0.00000
  10 0.00000 0.00000 0.00000
  11 0.00000 0.00000 0.00000
  12 0.00000 0.00000 0.00000
  13 0.00000 0.00000 0.00000
  14 0.00000 0.00000 0.00000
  15 0.00000 0.00000 0.00000
  16 0.00000 0.00000 0.00000
  17 0.00000 0.00000 0.00000
  18 0.00000 0.00000 0.00000
  19 0.00000 0.00000 0.00000
  20 0.00000 0.00000 0.00000
  21 0.00000 0.00000 0.00000
  22 0.00000 0.00000 0.00000
  23 0.00000 0.00000 0.00000
  24 0.00000 0.00000 0.00000
  25 0.00000 0.00000 0.00000
  26 0.00000 0.00000 0.00000
  27 0.00000 0.00000 0.00000
  28 0.00000 0.00000 0.00000
  29 0.00000 0.00000 0.00000
  30 0.00000 0.00000 0.00000
  31 0.00000 0.00000 0.00000
  32 0.00000 0.00000 0.00000
  33 0.00000 0.00000 0.00000
  34 0.00000 0.00000 0.00000
  35 0.00000 0.00000 0.00000
  36 0.00000 0.00000 0.00000
  37 0.00000 0.00000 0.00000
  38 0.00000 0.00000 0.00000
  39 0.00000 0.00000 0.00000
  40 0.00000 0.00000 0.00000
  41 0.00000 0.00000 0.00000
  42 0.00000 0.00000 0.00000
  43 0.00000 0.00000 0.00000
  44 0.00000 0.00000 0.00000
  45 0.00000 0.00000 0.00000
  46 0.00000 0.00000 0.00000
  47 0.00000 0.00000 0.00000
  48 0.00000 0.00000 0.00000
  49 0.00000 0.00000 0.00000
  50 0.00000 0.00000 0.00000
  51 0.00000 0.00000 0.00000
  52 0.00000 0.00000 0.00000
  53 0.00000 0.00000 0.00000
  54 0.00000 0.00000 0.00000
  55 0.00000 0.00000 0.00000
  56 0.00000 0.00000 0.00000
  57 0.00000 0.00000 0.00000
  58 0.00000 0.00000 0.00000
  59 0.00000 0.00000 0.00000
  60 0.00000 0.00000 0.00000
  61 0.00000 0.00000 0.00000
  62 0.00000 0.00000 0.00000
  63 0.00000 0.00000 0.00000
  64 0.00000 0.00000 0.00000
  65 0.00000 0.00000 0.00000
  66 0.00000 0.00000 0.00000
  67 0.00000 0.00000 0.00000
  68 0.00000 0.00000 0.00000
  69 0.00000 0.00000 0.00000
  70 0.00000 0.00000 0.00000
  71 0.00000 0.00000 0.00000
  72 0.00000 0.00000 0.00000
  73 0.00000 0.00000 0.00000
  74 0.00000 0.00000 0.00000
  75 0.00000 0.00000 0.00000
  76 0.00000 0.00000 0.00000
  77 0.00000 0.00000 0.00000
  78 0.00000 0.00000 0.00000
  79 0.00000 0.00000 0.00000
  80 0.00000 0.00000 0.00000
  81 0.00000 0.00000 0.00000
  82 0.00000 0.00000 0.00000
  83 0.00000 0.00000 0.00000
  84 0.00000 0.00000 0.00000
  85 0.00000 0.00000 0.00000
  86 0.00000 0.00000 0.00000
  87 0.00000 0.00000 0.00000
  88 0.00000 0.00000 0.00000
  89 0.00000 0.00000 0.00000
  90 0.00000 0.00000 0.00000
  91 0.00000 0.00000 0.00000
  92 0.00000 0.00000 0.00000
  93 0.00000 0.00000 0.00000
  94 0.00000 0.00000 0.00000
  95 0.00000 0.00000 0.00000
  96 0.00000 0.00000 0.00000
  97 0.00000 0.00000 0.00000
  98 0.00000 0.00000 0.00000
  99 0.00000 0.00000 0.00000
  100 0.00000 0.00000 0.00000
  101 0.00000 0.00000 0.00000
  102 0.00000 0.00000 0.00000
  103 0.00000 0.00000 0.00000
  104 0.00000 0.00000 0.00000
  105 0.00000 0.00000 0.00000
  106 0.00000 0.00000 0.00000
  107 0.00000 0.00000 0.00000
  108 0.00000 0.00000 0.00000
  109 0.00000 0.00000 0.00000
  110 0.00000 0.00000 0.00000
  111 0.00000 0.00000 0.00000
  112 0.00000 0.00000 0.00000
  113 0.00000 0.00000 0.00000
  114 0.00000 0.00000 0.00000
  115 0.00000 0.00000 0.00000
  116 0.00000 0.00000 0.00000
  117 0.00000 0.00000 0.00000
  118 0.00000 0.00000 0.00000
  119 0.00000 0.00000 0.00000
  120 0.00000 0.00000 0.00000
  121 0.00000 0.00000 0.00000
  122 0.00000 0.00000 0.00000
  123 0.00000 0.00000 0.00000
  124 0.00000 0.00000 0.00000
  125 0.00000 0.00000 0.00000
  126 0.00000 0.00000 0.00000
  127 0.00000 0.00000 0.00000
  128 0.00000 0.00000 0.00000
  129 0.00000 0.00000 0.00000
  130 0.00000 0.00000 0.00000
  131 0.00000 0.00000 0.00000
  132 0.00000 0.00000 0.00000
  133 0.00000 0.00000 0.00000
  134 0.00000 0.00000 0.00000
  135 0.00000 0.00000 0.00000
  136 0.00000 0.00000 0.00000
  137 0.00000 0.00000 0.00000
  138 0.00000 0.00000 0.00000
  139 0.00000 0.00000 0.00000
  140 0.00000 0.00000 0.00000
  141 0.00000 0.00000 0.00000
  142 0.00000 0.00000 0.00000
  143 0.00000 0.00000 0.00000
  144 0.00000 0.00000 0.00000
  145 0.00000 0.00000 0.00000
  146 0.00000 0.00000 0.00000
  147 0.00000 0.00000 0.00000
  148 0.00000 0.00000 0.00000
  149 0.00000 0.00000 0.00000
  150 0.00000 0.00000 0.00000
  151 0.00000 0.00000 0.00000
  152 0.00000 0.00000 0.00000
  153 0.00000 0.00000 0.00000
  154 0.00000 0.00000 0.00000
  155 0.00000 0.00000 0.00000
  156 0.00000 0.00000 0.00000
  157 0.00000 0.00000 0.00000
  158 0.00000 0.00000 0.00000
  159 0.00000 0.00000 0.00000
  160 0.00000 0.00000 0.00000
  161 0.00000 0.00000 0.00000
  162 0.00000 0.00000 0.00000
  163 0.00000 0.00000 0.00000
  164 0.00000 0.00000 0.00000
  165 0.00000 0.00000 0.00000
  166 0.00000 0.00000 0.00000
  167 0.00000 0.00000 0.00000
  168 0.00000 0.00000 0.00000
  169 0.00000 0.00000 0.00000
  170 0.00000 0.00000 0.00000
  171 0.00000 0.00000 0.00000
  172 0.00000 0.00000 0.00000
  173 0.00000 0.00000 0.00000
  174 0.00000 0.00000 0.00000
  175 0.00000 0.00000 0.00000
  176 0.00000 0.00000 0.00000
  177 0.00000 0.00000 0.00000
  178 0.00000 0.00000 0.00000
  179 0.00000 0.00000 0.00000
  180 0.00000 0.00000 0.00000
  181 0.00000 0.00000 0.00000
  182 0.00000 0.00000 0.00000
  183 0.00000 0.00000 0.00000
  184 0.00000 0.00000 0.00000
  185 0.00000 0.00000 0.00000
  186 0.00000 0.00000 0.00000
  187 0.00000 0.00000 0.00000
  188 0.00000 0.00000 0.00000
  189 0.00000 0.00000 0.00000
  190 0.00000 0.00000 0.00000
  191 0.00000 0.00000 0.00000
  192 0.00000 0.00000 0.00000
  193 0.00000 0.00000 0.00000
  194 0.00000 0.00000 0.00000
  195 0.00000 0.00000 0.00000
  196 0.00000 0.00000 0.00000
  197 0.00000 0.00000 0.00000
  198 0.00000 0.00000 0.00000
  199 0.00000 0.00000 0.00000
  200 0.00000 0.00000 0.00000
  201 0.00000 0.00000 0.00000
  202 0.00000 0.00000 0.00000
  203 0.00000 0.00000 0.00000
  204 0.00000 0.00000 0.00000
  205 0.00000 0.00000 0.00000
  206 0.00000 0.00000 0.00000
  207 0.00000 0.00000 0.00000
  208 0.00000 0.00000 0.00000
  209 0.00000 0.00000 0.00000
  210 0.00000 0.00000 0.00000
  211 0.00000 0.00000 0.00000
  212 0.00000 0.00000 0.00000
  213 0.00000 0.00000 0.00000
  214 0.00000 0.00000 0.00000
  215 0.00000 0.00000 0.00000
  216 0.00000 0.00000 0.00000
  217 0.00000 0.00000 0.00000
  218 0.00000 0.00000 0.00000
  219 0.00000 0.00000 0.00000
  220 0.00000 0.00000 0.00000
  221 0.00000 0.00000 0.00000
  222 0.00000 0.00000 0.00000
  223 0.00000 0.00000 0.00000
  224 0.00000 0.00000 0.00000
  225 0.00000 0.00000 0.00000
  226 0.00000 0.00000 0.00000
  227 0.00000 0.00000 0.00000
  228 0.00000 0.00000 0.00000
  229 0.00000 0.00000 0.00000
  230 0.00000 0.00000 0.00000
  231 0.00000 0.00000 0.00000
  232 0.00000 0.00000 0.00000
  233 0.00000 0.00000 0.00000
  234 0.00000 0.00000 0.00000
  235 0.00000 0.00000 0.00000
  236 0.00000 0.00000 0.00000
  237 0.00000 0.00000 0.00000
  238 0.00000 0.00000 0.00000
  239 0.00000 0.00000 0.00000
  240 0.00000 0.00000 0.00000
  241 0.00000 0.00000 0.00000
</Section>

