newXOutput 1

<Section columns = "stress_xx | stress_yy | stress_xy">
  1 0.00000 0.00000 0.00000
  2 0.00000 0.00000 0.00000
  3 0.00000 0.00000 0.00000
  4 0.00000 0.00000 0.00000
  5 0.00000 0.00000 0.00000
  6 0.00000 0.00000 0.00000
  7 0.00000 0.00000 0.00000
  8 0.00000 0.00000 0.00000
  9 0.00000 0.00000 0.00000
  10 0.00000 0.00000 0.00000
  11 0.00000 0.00000 0.00000
  12 0.00000 0.00000 0.00000
  13 0.00000 0.00000 0.00000
  14 0.00000 0.00000 0.00000
  15 0.00000 0.00000 0.00000
  16 0.00000 0.00000 0.00000
  17 0.00000 0.00000 0.00000
  18 0.00000 0.00000 0.00000
  19 0.00000 0.00000 0.00000
  20 0.00000 0.00000 0.00000
  21 0.00000 0.00000 0.00000
  22 0.00000 0.00000 0.00000
  23 0.00000 0.00000 0.00000
  24 0.00000 0.00000 0.00000
  25 0.00000 0.00000 0.00000
  26 0.00000 0.00000 0.00000
  27 0.00000 0.00000 0.00000
  28 0.00000 0.00000 0.00000
  29 0.00000 0.00000 0.00000
  30 0.00000 0.00000 0.00000
  31 0.00000 0.00000 0.00000
  32 0.00000 0.00000 0.00000
  33 0.00000 0.00000 0.00000
  34 0.00000 0.00000 0.00000
  35 0.00000 0.00000 0.00000
  36 0.00000 0.00000 0.00000
  37 0.00000 0.00000 0.00000
  38 0.00000 0.00000 0.00000
  39 0.00000 0.00000 0.00000
  40 0.00000 0.00000 0.00000
  41 0.00000 0.00000 0.00000
  42 0.00000 0.00000 0.00000
  43 0.00000 0.00000 0.00000
  44 0.00000 0.00000 0.00000
  45 0.00000 0.00000 0.00000
  46 0.00000 0.00000 0.00000
  47 0.00000 0.00000 0.00000
  48 0.00000 0.00000 0.00000
  49 0.00000 0.00000 0.00000
  50 0.00000 0.00000 0.00000
  51 0.00000 0.00000 0.00000
  52 0.00000 0.00000 0.00000
  53 0.00000 0.00000 0.00000
  54 0.00000 0.00000 0.00000
  55 0.00000 0.00000 0.00000
  56 0.00000 0.00000 0.00000
  57 0.00000 0.00000 0.00000
  58 0.00000 0.00000 0.00000
  59 0.00000 0.00000 0.00000
  60 0.00000 0.00000 0.00000
  61 0.00000 0.00000 0.00000
  62 0.00000 0.00000 0.00000
  63 0.00000 0.00000 0.00000
  64 0.00000 0.00000 0.00000
  65 0.00000 0.00000 0.00000
  66 0.00000 0.00000 0.00000
  67 0.00000 0.00000 0.00000
  68 0.00000 0.00000 0.00000
  69 0.00000 0.00000 0.00000
  70 0.00000 0.00000 0.00000
  71 0.00000 0.00000 0.00000
  72 0.00000 0.00000 0.00000
  73 0.00000 0.00000 0.00000
  74 0.00000 0.00000 0.00000
  75 0.00000 0.00000 0.00000
  76 0.00000 0.00000 0.00000
  77 0.00000 0.00000 0.00000
  78 0.00000 0.00000 0.00000
  79 0.00000 0.00000 0.00000
  80 0.00000 0.00000 0.00000
  81 0.00000 0.00000 0.00000
  82 0.00000 0.00000 0.00000
  83 0.00000 0.00000 0.00000
  84 0.00000 0.00000 0.00000
  85 0.00000 0.00000 0.00000
  86 0.00000 0.00000 0.00000
  87 0.00000 0.00000 0.00000
  88 0.00000 0.00000 0.00000
  89 0.00000 0.00000 0.00000
  90 0.00000 0.00000 0.00000
  91 0.00000 0.00000 0.00000
  92 0.00000 0.00000 0.00000
  93 0.00000 0.00000 0.00000
  94 0.00000 0.00000 0.00000
  95 0.00000 0.00000 0.00000
  96 0.00000 0.00000 0.00000
  97 0.00000 0.00000 0.00000
  98 0.00000 0.00000 0.00000
  99 0.00000 0.00000 0.00000
  100 0.00000 0.00000 0.00000
  101 0.00000 0.00000 0.00000
  102 0.00000 0.00000 0.00000
  103 0.00000 0.00000 0.00000
  104 0.00000 0.00000 0.00000
  105 0.00000 0.00000 0.00000
  106 0.00000 0.00000 0.00000
  107 0.00000 0.00000 0.00000
  108 0.00000 0.00000 0.00000
  109 0.00000 0.00000 0.00000
  110 0.00000 0.00000 0.00000
  111 0.00000 0.00000 0.00000
  112 0.00000 0.00000 0.00000
  113 0.00000 0.00000 0.00000
  114 0.00000 0.00000 0.00000
  115 0.00000 0.00000 0.00000
  116 0.00000 0.00000 0.00000
  117 0.00000 0.00000 0.00000
  118 0.00000 0.00000 0.00000
  119 0.00000 0.00000 0.00000
  120 0.00000 0.00000 0.00000
  121 0.00000 0.00000 0.00000
  122 0.00000 0.00000 0.00000
  123 0.00000 0.00000 0.00000
  124 0.00000 0.00000 0.00000
  125 0.00000 0.00000 0.00000
  126 0.00000 0.00000 0.00000
  127 0.00000 0.00000 0.00000
  128 0.00000 0.00000 0.00000
  129 0.00000 0.00000 0.00000
  130 0.00000 0.00000 0.00000
  131 0.00000 0.00000 0.00000
  132 0.00000 0.00000 0.00000
  133 0.00000 0.00000 0.00000
  134 0.00000 0.00000 0.00000
  135 0.00000 0.00000 0.00000
  136 0.00000 0.00000 0.00000
  137 0.00000 0.00000 0.00000
  138 0.00000 0.00000 0.00000
  139 0.00000 0.00000 0.00000
  140 0.00000 0.00000 0.00000
  141 0.00000 0.00000 0.00000
  142 0.00000 0.00000 0.00000
  143 0.00000 0.00000 0.00000
  144 0.00000 0.00000 0.00000
  145 0.00000 0.00000 0.00000
  146 0.00000 0.00000 0.00000
  147 0.00000 0.00000 0.00000
  148 0.00000 0.00000 0.00000
  149 0.00000 0.00000 0.00000
  150 0.00000 0.00000 0.00000
  151 0.00000 0.00000 0.00000
  152 0.00000 0.00000 0.00000
  153 0.00000 0.00000 0.00000
  154 0.00000 0.00000 0.00000
  155 0.00000 0.00000 0.00000
  156 0.00000 0.00000 0.00000
  157 0.00000 0.00000 0.00000
  158 0.00000 0.00000 0.00000
  159 0.00000 0.00000 0.00000
  160 0.00000 0.00000 0.00000
  161 0.00000 0.00000 0.00000
  162 0.00000 0.00000 0.00000
  163 0.00000 0.00000 0.00000
  164 0.00000 0.00000 0.00000
  165 0.00000 0.00000 0.00000
  166 0.00000 0.00000 0.00000
  167 0.00000 0.00000 0.00000
  168 0.00000 0.00000 0.00000
  169 0.00000 0.00000 0.00000
  170 0.00000 0.00000 0.00000
  171 0.00000 0.00000 0.00000
  172 0.00000 0.00000 0.00000
  173 0.00000 0.00000 0.00000
  174 0.00000 0.00000 0.00000
  175 0.00000 0.00000 0.00000
  176 0.00000 0.00000 0.00000
  177 0.00000 0.00000 0.00000
  178 0.00000 0.00000 0.00000
  179 0.00000 0.00000 0.00000
  180 0.00000 0.00000 0.00000
  181 0.00000 0.00000 0.00000
  182 0.00000 0.00000 0.00000
  183 0.00000 0.00000 0.00000
  184 0.00000 0.00000 0.00000
  185 0.00000 0.00000 0.00000
  186 0.00000 0.00000 0.00000
  187 0.00000 0.00000 0.00000
  188 0.00000 0.00000 0.00000
  189 0.00000 0.00000 0.00000
  190 0.00000 0.00000 0.00000
  191 0.00000 0.00000 0.00000
  192 0.00000 0.00000 0.00000
  193 0.00000 0.00000 0.00000
  194 0.00000 0.00000 0.00000
  195 0.00000 0.00000 0.00000
  196 0.00000 0.00000 0.00000
  197 0.00000 0.00000 0.00000
  198 0.00000 0.00000 0.00000
  199 0.00000 0.00000 0.00000
  200 0.00000 0.00000 0.00000
  201 0.00000 0.00000 0.00000
  202 0.00000 0.00000 0.00000
  203 0.00000 0.00000 0.00000
  204 0.00000 0.00000 0.00000
  205 0.00000 0.00000 0.00000
  206 0.00000 0.00000 0.00000
  207 0.00000 0.00000 0.00000
  208 0.00000 0.00000 0.00000
  209 0.00000 0.00000 0.00000
  210 0.00000 0.00000 0.00000
  211 0.00000 0.00000 0.00000
  212 0.00000 0.00000 0.00000
  213 0.00000 0.00000 0.00000
  214 0.00000 0.00000 0.00000
  215 0.00000 0.00000 0.00000
  216 0.00000 0.00000 0.00000
  217 0.00000 0.00000 0.00000
  218 0.00000 0.00000 0.00000
  219 0.00000 0.00000 0.00000
  220 0.00000 0.00000 0.00000
  221 0.00000 0.00000 0.00000
  222 0.00000 0.00000 0.00000
  223 0.00000 0.00000 0.00000
  224 0.00000 0.00000 0.00000
  225 0.00000 0.00000 0.00000
  226 0.00000 0.00000 0.00000
  227 0.00000 0.00000 0.00000
  228 0.00000 0.00000 0.00000
  229 0.00000 0.00000 0.00000
  230 0.00000 0.00000 0.00000
  231 0.00000 0.00000 0.00000
  232 0.00000 0.00000 0.00000
  233 0.00000 0.00000 0.00000
  234 0.00000 0.00000 0.00000
  235 0.00000 0.00000 0.00000
  236 0.00000 0.00000 0.00000
  237 0.00000 0.00000 0.00000
  238 0.00000 0.00000 0.00000
  239 0.00000 0.00000 0.00000
  240 0.00000 0.00000 0.00000
  241 0.00000 0.00000 0.00000
</Section>

newXOutput 2

<Section columns = "stress_xx | stress_yy | stress_xy">
  1 19.3695 -5.49335e-10 -6.41313e-16
  2 19.3695 -5.49335e-10 9.08123e-15
  3 19.3695 -5.49335e-10 -6.82741e-15
  4 19.3695 -5.49335e-10 -5.73927e-16
  5 19.3695 -5.49335e-10 4.56929e-16
  6 19.3695 -5.49335e-10 -1.25744e-15
  7 19.3695 -5.49335e-10 2.00265e-15
  8 19.3695 -5.49335e-10 4.39017e-15
  9 19.3695 -5.49335e-10 7.55681e-17
  10 19.3695 -5.49335e-10 6.15491e-15
  11 19.3695 -5.49335e-10 9.51643e-16
  12 19.3695 -5.49335e-10 -7.89311e-16
  13 19.3695 -5.49335e-10 3.34615e-15
  14 19.3695 -5.49335e-10 8.77194e-15
  15 19.3695 -5.49335e-10 -2.50333e-15
  16 19.3695 -5.49335e-10 9.64802e-15
  17 19.3695 -5.49335e-10 -4.22924e-15
  18 19.3695 -5.49335e-10 -9.42411e-15
  19 19.3695 -5.49335e-10 -5.94780e-15
  20 19.3695 -5.49335e-10 -1.46414e-14
  21 19.3695 -5.49335e-10 -7.74473e-15
  22 19.3695 -5.49335e-10 1.30124e-14
  23 19.3695 -5.49335e-10 8.66559e-15
  24 19.3695 -5.49335e-10 -1.75215e-15
  25 19.3695 -5.49335e-10 0.00000
  26 19.3695 -5.49335e-10 7.84965e-15
  27 19.3695 -5.49335e-10 -4.30201e-15
  28 19.3695 -5.49335e-10 -5.34305e-15
  29 19.3695 -5.49335e-10 2.91897e-15
  30 19.3695 -5.49335e-10 1.78381e-15
  31 19.3695 -5.49335e-10 -5.93742e-15
  32 19.3695 -5.49335e-10 -6.07467e-15
  33 19.3695 -5.49335e-10 1.69697e-15
  34 19.3695 -5.49335e-10 9.91493e-15
  35 19.3695 -5.49335e-10 6.14471e-15
  36 19.3695 -5.49335e-10 5.60119e-15
  37 19.3695 -5.49335e-10 -1.23912e-14
  38 19.3695 -5.49335e-10 -3.08626e-15
  39 19.3695 -5.49335e-10 -3.11009e-15
  40 19.3695 -5.49335e-10 -9.57200e-15
  41 19.3695 -5.49335e-10 -1.40820e-14
  42 19.3695 -5.49335e-10 7.54119e-15
  43 19.3695 -5.49335e-10 1.25763e-14
  44 19.3695 -5.49335e-10 6.02886e-15
  45 19.3695 -5.49335e-10 -3.93291e-15
  46 19.3695 -5.49335e-10 -4.49757e-15
  47 19.3695 -5.49335e-10 -9.93776e-16
  48 19.3695 -5.49335e-10 3.03141e-15
  49 19.3695 -5.49335e-10 2.07373e-15
  50 19.3695 -5.49335e-10 -3.21181e-16
  51 19.3695 -5.49335e-10 -9.72989e-16
  52 19.3695 -5.49335e-10 -3.59623e-16
  53 19.3695 -5.49335e-10 6.54957e-16
  54 19.3695 -5.49335e-10 1.30519e-15
  55 19.3695 -5.49335e-10 2.59464e-15
  56 19.3695 -5.49335e-10 1.84172e-15
  57 19.3695 -5.49335e-10 -1.45809e-15
  58 19.3695 -5.49335e-10 1.27542e-14
  59 19.3695 -5.49335e-10 -6.01757e-15
  60 19.3695 -5.49335e-10 -3.31902e-16
  61 19.3695 -5.49335e-10 -5.86191e-15
  62 19.3695 -5.49335e-10 -3.10051e-15
  63 19.3695 -5.49335e-10 -1.78207e-14
  64 19.3695 -5.49335e-10 1.56577e-14
  65 19.3695 -5.49335e-10 8.77954e-16
  66 19.3695 -5.49335e-10 -8.23947e-16
  67 19.3695 -5.49335e-10 -1.63577e-14
  68 19.3695 -5.49335e-10 6.02109e-15
  69 19.3695 -5.49335e-10 -9.24775e-15
  70 19.3695 -5.49335e-10 7.54075e-15
  71 19.3695 -5.49335e-10 -2.78938e-16
  72 19.3695 -5.49335e-10 -6.83407e-15
  73 19.3695 -5.49335e-10 -2.40721e-15
  74 19.3695 -5.49335e-10 4.43497e-16
  75 19.3695 -5.49335e-10 1.47357e-14
  76 19.3695 -5.49335e-10 -4.39892e-15
  77 19.3695 -5.49335e-10 -1.48765e-15
  78 19.3695 -5.49335e-10 -1.70904e-14
  79 19.3695 -5.49335e-10 -3.84900e-15
  80 19.3695 -5.49335e-10 -1.25178e-14
  81 19.3695 -5.49335e-10 1.67945e-14
  82 19.3695 -5.49335e-10 -1.25482e-14
  83 19.3695 -5.49335e-10 5.60544e-15
  84 19.3695 -5.49335e-10 -4.81422e-15
  85 19.3695 -5.49335e-10 -5.32573e-15
  86 19.3695 -5.49335e-10 -9.30025e-15
  87 19.3695 -5.49335e-10 4.96858e-16
  88 19.3695 -5.49335e-10 -8.55768e-15
  89 19.3695 -5.49335e-10 3.98611e-15
  90 19.3695 -5.49335e-10 -2.83168e-15
  91 19.3695 -5.49335e-10 3.76747e-15
  92 19.3695 -5.49335e-10 -2.68743e-15
  93 19.3695 -5.49335e-10 6.42739e-15
  94 19.3695 -5.49335e-10 1.31294e-14
  95 19.3695 -5.49335e-10 6.76532e-15
  96 19.3695 -5.49335e-10 1.71542e-14
  97 19.3695 -5.49335e-10 9.94527e-15
  98 19.3695 -5.49335e-10 -3.42431e-15
  99 19.3695 -5.49335e-10 4.98110e-15
  100 19.3695 -5.49335e-10 4.60065e-15
  101 19.3695 -5.49335e-10 -3.27059e-15
  102 19.3695 -5.49335e-10 -1.15275e-14
  103 19.3695 -5.49335e-10 -2.06364e-14
  104 19.3695 -5.49335e-10 -3.91928e-16
  105 19.3695 -5.49335e-10 9.53267e-15
  106 19.3695 -5.49335e-10 -3.36576e-15
  107 19.3695 -5.49335e-10 2.40946e-14
  108 19.3695 -5.49335e-10 -1.52290e-15
  109 19.3695 -5.49335e-10 1.46735e-16
  110 19.3695 -5.49335e-10 -1.92583e-15
  111 19.3695 -5.49335e-10 3.28032e-15
  112 19.3695 -5.49335e-10 5.78005e-15
  113 19.3695 -5.49335e-10 1.04315e-16
  114 19.3695 -5.49335e-10 -1.76119e-14
  115 19.3695 -5.49335e-10 -1.11989e-14
  116 19.3695 -5.49335e-10 -2.54342e-15
  117 19.3695 -5.49335e-10 5.06402e-15
  118 19.3695 -5.49335e-10 4.17942e-15
  119 19.3695 -5.49335e-10 -6.29707e-15
  120 19.3695 -5.49335e-10 -1.56751e-14
  121 19.3695 -5.49335e-10 1.92828e-15
  122 19.3695 -5.49335e-10 -7.12536e-15
  123 19.3695 -5.49335e-10 -4.46177e-15
  124 19.3695 -5.49335e-10 1.60657e-14
  125 19.3695 -5.49335e-10 8.76106e-15
  126 19.3695 -5.49335e-10 2.40328e-15
  127 19.3695 -5.49335e-10 2.19653e-15
  128 19.3695 -5.49335e-10 4.32964e-15
  129 19.3695 -5.49335e-10 -1.36236e-15
  130 19.3695 -5.49335e-10 -1.52369e-15
  131 19.3695 -5.49335e-10 -1.25023e-15
  132 19.3695 -5.49335e-10 2.41914e-15
  133 19.3695 -5.49335e-10 -6.33371e-16
  134 19.3695 -5.49335e-10 -1.03102e-15
  135 19.3695 -5.49335e-10 -6.27608e-15
  136 19.3695 -5.49335e-10 7.24887e-16
  137 19.3695 -5.49335e-10 -1.24574e-14
  138 19.3695 -5.49335e-10 2.05933e-15
  139 19.3695 -5.49335e-10 9.19682e-16
  140 19.3695 -5.49335e-10 -1.12800e-14
  141 19.3695 -5.49335e-10 7.42595e-16
  142 19.3695 -5.49335e-10 1.28017e-15
  143 19.3695 -5.49335e-10 -9.21261e-16
  144 19.3695 -5.49335e-10 1.34488e-15
  145 19.3695 -5.49335e-10 -9.56971e-16
  146 19.3695 -5.49335e-10 4.61301e-15
  147 19.3695 -5.49335e-10 -4.41835e-15
  148 19.3695 -5.49335e-10 7.72688e-16
  149 19.3695 -5.49335e-10 -7.76152e-15
  150 19.3695 -5.49335e-10 -7.86747e-15
  151 19.3695 -5.49335e-10 -5.53600e-15
  152 19.3695 -5.49335e-10 1.43989e-15
  153 19.3695 -5.49335e-10 2.11479e-15
  154 19.3695 -5.49335e-10 -1.22456e-14
  155 19.3695 -5.49335e-10 -9.67092e-18
  156 19.3695 -5.49335e-10 2.39917e-14
  157 19.3695 -5.49335e-10 -1.54503e-15
  158 19.3695 -5.49335e-10 2.15861e-15
  159 19.3695 -5.49335e-10 1.95909e-14
  160 19.3695 -5.49335e-10 5.33621e-16
  161 19.3695 -5.49335e-10 -2.30831e-15
  162 19.3695 -5.49335e-10 3.06250e-15
  163 19.3695 -5.49335e-10 -1.26674e-14
  164 19.3695 -5.49335e-10 2.91311e-15
  165 19.3695 -5.49335e-10 1.98472e-15
  166 19.3695 -5.49335e-10 -2.45984e-16
  167 19.3695 -5.49335e-10 6.33403e-15
  168 19.3695 -5.49335e-10 -1.13276e-15
  169 19.3695 -5.49335e-10 2.05011e-15
  170 19.3695 -5.49335e-10 -1.36615e-14
  171 19.3695 -5.49335e-10 -2.05229e-15
  172 19.3695 -5.49335e-10 5.30403e-15
  173 19.3695 -5.49335e-10 2.90075e-15
  174 19.3695 -5.49335e-10 -8.24434e-15
  175 19.3695 -5.49335e-10 5.75169e-16
  176 19.3695 -5.49335e-10 1.58386e-15
  177 19.3695 -5.49335e-10 -3.10806e-15
  178 19.3695 -5.49335e-10 5.86242e-15
  179 19.3695 -5.49335e-10 1.35651e-15
  180 19.3695 -5.49335e-10 -7.86311e-16
  181 19.3695 -5.49335e-10 1.28700e-14
  182 19.3695 -5.49335e-10 -1.35614e-14
  183 19.3695 -5.49335e-10 6.52490e-15
  184 19.3695 -5.49335e-10 -2.49052e-15
  185 19.3695 -5.49335e-10 -7.58434e-16
  186 19.3695 -5.49335e-10 1.14953e-15
  187 19.3695 -5.49335e-10 -1.02111e-15
  188 19.3695 -5.49335e-10 -6.70264e-15
  189 19.3695 -5.49335e-10 2.55580e-15
  190 19.3695 -5.49335e-10 -3.02087e-15
  191 19.3695 -5.49335e-10 4.19372e-15
  192 19.3695 -5.49335e-10 -4.16306e-15
  193 19.3695 -5.49335e-10 -9.57462e-15
  194 19.3695 -5.49335e-10 2.86253e-14
  195 19.3695 -5.49335e-10 -1.35527e-15
  196 19.3695 -5.49335e-10 -9.28800e-15
  197 19.3695 -5.49335e-10 2.95727e-16
  198 19.3695 -5.49335e-10 -2.90673e-15
  199 19.3695 -5.49335e-10 -2.44017e-15
  200 19.3695 -5.49335e-10 -6.32111e-15
  201 19.3695 -5.49335e-10 1.23263e-14
  202 19.3695 -5.49335e-10 -5.73466e-15
  203 19.3695 -5.49335e-10 -4.45910e-15
  204 19.3695 -5.49335e-10 8.30500e-16
  205 19.3695 -5.49335e-10 1.47190e-15
  206 19.3695 -5.49335e-10 -6.69064e-15
  207 19.3695 -5.49335e-10 -2.68791e-15
  208 19.3695 -5.49335e-10 -5.98768e-16
  209 19.3695 -5.49335e-10 1.32625e-14
  210 19.3695 -5.49335e-10 -2.76662e-16
  211 19.3695 -5.49335e-10 1.15157e-15
  212 19.3695 -5.49335e-10 5.22286e-16
  213 19.3695 -5.49335e-10 2.13916e-15
  214 19.3695 -5.49335e-10 1.35848e-15
  215 19.3695 -5.49335e-10 1.84554e-15
  216 19.3695 -5.49335e-10 1.51128e-14
  217 19.3695 -5.49335e-10 3.54068e-15
  218 19.3695 -5.49335e-10 2.22504e-15
  219 19.3695 -5.49335e-10 -8.74242e-15
  220 19.3695 -5.49335e-10 -5.45343e-15
  221 19.3695 -5.49335e-10 1.39808e-15
  222 19.3695 -5.49335e-10 1.00528e-14
  223 19.3695 -5.49335e-10 -5.75250e-15
  224 19.3695 -5.49335e-10 4.89076e-15
  225 19.3695 -5.49335e-10 1.55960e-14
  226 19.3695 -5.49335e-10 1.73647e-15
  227 19.3695 -5.49335e-10 5.63396e-15
  228 19.3695 -5.49335e-10 8.30913e-15
  229 19.3695 -5.49335e-10 4.05586e-16
  230 19.3695 -5.49335e-10 -9.49128e-15
  231 19.3695 -5.49335e-10 6.86193e-15
  232 19.3695 -5.49335e-10 -1.25450e-15
  233 19.3695 -5.49335e-10 3.43735e-14
  234 19.3695 -5.49335e-10 9.07419e-15
  235 19.3695 -5.49335e-10 -9.47635e-15
  236 19.3695 -5.49335e-10 -3.24952e-15
  237 19.3695 -5.49335e-10 -2.55997e-15
  238 19.3695 -5.49335e-10 -4.83913e-15
  239 19.3695 -5.49335e-10 -3.45463e-15
  240 19.3695 -5.49335e-10 5.99534e-16
  241 19.3695 -5.49335e-10 -9.64873e-15
</Section>

newXOutput 3

<Section columns = "stress_xx | stress_yy | stress_xy">
  1 38.6546 -5.50244e-10 2.62909e-15
  2 38.6546 -5.50244e-10 -1.04829e-14
  3 38.6546 -5.50244e-10 -6.19145e-14
  4 38.6546 -5.50244e-10 -2.16079e-15
  5 38.6546 -5.50244e-10 -7.47956e-16
  6 38.6546 -5.50244e-10 -2.41136e-15
  7 38.6546 -5.50244e-10 -2.37367e-15
  8 38.6546 -5.50244e-10 -3.25422e-15
  9 38.6546 -5.50244e-10 1.98163e-15
  10 38.6546 -5.50244e-10 1.58918e-14
  11 38.6546 -5.50244e-10 -1.00977e-14
  12 38.6546 -5.50244e-10 -4.02451e-15
  13 38.6546 -5.50244e-10 1.20570e-14
  14 38.6546 -5.50244e-10 -8.26676e-15
  15 38.6546 -5.50244e-10 -1.70932e-14
  16 38.6546 -5.50244e-10 3.16273e-14
  17 38.6546 -5.50244e-10 9.04838e-15
  18 38.6546 -5.50244e-10 -1.17164e-14
  19 38.6546 -5.50244e-10 -3.06999e-15
  20 38.6546 -5.50244e-10 -3.09350e-14
  21 38.6546 -5.50244e-10 3.58362e-15
  22 38.6546 -5.50244e-10 4.50015e-14
  23 38.6546 -5.50244e-10 1.65782e-15
  24 38.6546 -5.50244e-10 1.20290e-14
  25 38.6546 -5.50244e-10 1.55233e-14
  26 38.6546 -5.50244e-10 7.79516e-15
  27 38.6546 -5.50244e-10 -7.76167e-15
  28 38.6546 -5.50244e-10 -1.45531e-15
  29 38.6546 -5.50244e-10 2.71658e-14
  30 38.6546 -5.50244e-10 5.86591e-15
  31 38.6546 -5.50244e-10 -3.96219e-14
  32 38.6546 -5.50244e-10 -1.35555e-14
  33 38.6546 -5.50244e-10 3.76628e-15
  34 38.6546 -5.50244e-10 1.43584e-14
  35 38.6546 -5.50244e-10 3.07393e-14
  36 38.6546 -5.50244e-10 3.84362e-14
  37 38.6546 -5.50244e-10 3.18261e-14
  38 38.6546 -5.50244e-10 2.40789e-14
  39 38.6546 -5.50244e-10 1.59872e-14
  40 38.6546 -5.50244e-10 1.76385e-14
  41 38.6546 -5.50244e-10 1.50863e-14
  42 38.6546 -5.50244e-10 2.12177e-14
  43 38.6546 -5.50244e-10 6.39416e-15
  44 38.6546 -5.50244e-10 -1.25403e-14
  45 38.6546 -5.50244e-10 -1.66514e-14
  46 38.6546 -5.50244e-10 -1.41489e-15
  47 38.6546 -5.50244e-10 3.07972e-15
  48 38.6546 -5.50244e-10 1.40842e-15
  49 38.6546 -5.50244e-10 -2.72757e-15
  50 38.6546 -5.50244e-10 -2.04436e-16
  51 38.6546 -5.50244e-10 -2.58722e-15
  52 38.6546 -5.50244e-10 -9.82462e-17
  53 38.6546 -5.50244e-10 -4.08872e-16
  54 38.6546 -5.50244e-10 -3.36642e-15
  55 38.6546 -5.50244e-10 -2.58722e-15
  56 38.6546 -5.50244e-10 2.60397e-15
  57 38.6546 -5.50244e-10 2.20421e-15
  58 38.6546 -5.49941e-10 2.15829e-14
  59 38.6546 -5.50244e-10 6.05936e-15
  60 38.6546 -5.50244e-10 -2.52111e-14
  61 38.6546 -5.50244e-10 9.85217e-15
  62 38.6546 -5.50244e-10 1.92950e-14
  63 38.6546 -5.50244e-10 -1.15394e-14
  64 38.6546 -5.50244e-10 1.42760e-15
  65 38.6546 -5.50244e-10 5.23623e-15
  66 38.6546 -5.50244e-10 -2.32554e-15
  67 38.6546 -5.50244e-10 2.51419e-15
  68 38.6546 -5.50244e-10 1.03350e-14
  69 38.6546 -5.50244e-10 1.55955e-14
  70 38.6546 -5.50244e-10 -8.70247e-15
  71 38.6546 -5.50244e-10 5.69292e-15
  72 38.6546 -5.50244e-10 -5.93403e-15
  73 38.6546 -5.50244e-10 -1.39426e-14
  74 38.6546 -5.50244e-10 -5.44249e-15
  75 38.6546 -5.50244e-10 -3.22851e-15
  76 38.6546 -5.50244e-10 1.18435e-14
  77 38.6546 -5.50244e-10 -1.19591e-15
  78 38.6546 -5.50244e-10 1.82648e-15
  79 38.6546 -5.50244e-10 1.24166e-15
  80 38.6546 -5.50244e-10 -7.77242e-15
  81 38.6546 -5.50244e-10 -1.62552e-14
  82 38.6546 -5.50244e-10 2.60548e-14
  83 38.6546 -5.50244e-10 -1.02557e-14
  84 38.6546 -5.50244e-10 2.38073e-15
  85 38.6546 -5.50244e-10 -8.51586e-15
  86 38.6546 -5.50244e-10 -4.79628e-15
  87 38.6546 -5.50244e-10 -7.76918e-16
  88 38.6546 -5.50244e-10 -8.47528e-16
  89 38.6546 -5.50244e-10 -1.03403e-15
  90 38.6546 -5.50244e-10 3.12036e-15
  91 38.6546 -5.50244e-10 -1.27228e-14
  92 38.6546 -5.50244e-10 3.80635e-15
  93 38.6546 -5.50244e-10 -2.78850e-14
  94 38.6546 -5.50244e-10 2.62755e-14
  95 38.6546 -5.50244e-10 -1.73886e-14
  96 38.6546 -5.50244e-10 3.35726e-15
  97 38.6546 -5.50244e-10 -2.44653e-15
  98 38.6546 -5.50244e-10 -4.25089e-15
  99 38.6546 -5.50244e-10 1.23271e-14
  100 38.6546 -5.50244e-10 1.53312e-15
  101 38.6546 -5.50244e-10 4.67353e-15
  102 38.6546 -5.50244e-10 -2.97689e-14
  103 38.6546 -5.50244e-10 8.37817e-15
  104 38.6546 -5.50244e-10 4.18231e-15
  105 38.6546 -5.50244e-10 -1.03555e-14
  106 38.6546 -5.50244e-10 1.02509e-14
  107 38.6546 -5.50244e-10 2.29878e-14
  108 38.6546 -5.50244e-10 7.49126e-16
  109 38.6546 -5.50244e-10 -2.90747e-15
  110 38.6546 -5.50244e-10 -3.91640e-15
  111 38.6546 -5.50244e-10 -8.88431e-15
  112 38.6546 -5.50244e-10 -1.01108e-14
  113 38.6546 -5.50244e-10 1.00588e-14
  114 38.6546 -5.50244e-10 2.63050e-14
  115 38.6546 -5.50244e-10 -5.15916e-15
  116 38.6546 -5.50244e-10 -2.91333e-16
  117 38.6546 -5.50244e-10 -1.52201e-14
  118 38.6546 -5.50244e-10 5.37919e-15
  119 38.6546 -5.50244e-10 -5.02891e-16
  120 38.6546 -5.50244e-10 2.67732e-14
  121 38.6546 -5.50244e-10 3.64227e-15
  122 38.6546 -5.50244e-10 -3.98991e-15
  123 38.6546 -5.50244e-10 -7.06710e-15
  124 38.6546 -5.50244e-10 8.50725e-15
  125 38.6546 -5.50244e-10 7.96505e-15
  126 38.6546 -5.50244e-10 -3.16438e-15
  127 38.6546 -5.50244e-10 -4.24199e-15
  128 38.6546 -5.50244e-10 1.63278e-15
  129 38.6546 -5.50244e-10 -6.13406e-15
  130 38.6546 -5.50244e-10 -2.74798e-15
  131 38.6546 -5.50244e-10 5.38716e-15
  132 38.6546 -5.50244e-10 -9.73564e-15
  133 38.6546 -5.50244e-10 3.71577e-17
  134 38.6546 -5.50244e-10 1.03143e-14
  135 38.6546 -5.50244e-10 -8.48652e-15
  136 38.6546 -5.50244e-10 7.01287e-16
  137 38.6546 -5.50244e-10 1.55026e-14
  138 38.6546 -5.50244e-10 5.81645e-15
  139 38.6546 -5.50244e-10 1.63693e-15
  140 38.6546 -5.50244e-10 1.09865e-14
  141 38.6546 -5.50244e-10 -1.07769e-14
  142 38.6546 -5.50244e-10 5.48709e-15
  143 38.6546 -5.50244e-10 -1.42634e-15
  144 38.6546 -5.50244e-10 1.96589e-14
  145 38.6546 -5.50244e-10 -1.89677e-15
  146 38.6546 -5.50244e-10 -8.23977e-15
  147 38.6546 -5.50244e-10 5.04816e-15
  148 38.6546 -5.50244e-10 -1.35047e-15
  149 38.6546 -5.50244e-10 -2.17449e-15
  150 38.6546 -5.50244e-10 2.36881e-15
  151 38.6546 -5.50244e-10 -2.43574e-15
  152 38.6546 -5.50244e-10 -8.12095e-15
  153 38.6546 -5.50244e-10 1.02973e-14
  154 38.6546 -5.50244e-10 -6.39613e-16
  155 38.6546 -5.50244e-10 3.37670e-15
  156 38.6546 -5.50244e-10 -3.03395e-15
  157 38.6546 -5.50244e-10 1.89678e-15
  158 38.6546 -5.50244e-10 -2.27400e-14
  159 38.6546 -5.50244e-10 -2.57528e-14
  160 38.6546 -5.50244e-10 1.86214e-15
  161 38.6546 -5.50244e-10 3.96123e-15
  162 38.6546 -5.50244e-10 4.05988e-15
  163 38.6546 -5.50244e-10 -3.13623e-14
  164 38.6546 -5.50244e-10 2.37899e-14
  165 38.6546 -5.50244e-10 4.79004e-15
  166 38.6546 -5.50244e-10 9.87784e-16
  167 38.6546 -5.50244e-10 2.54894e-15
  168 38.6546 -5.50244e-10 8.38307e-15
  169 38.6546 -5.50244e-10 1.07234e-15
  170 38.6546 -5.50244e-10 2.28907e-14
  171 38.6546 -5.50244e-10 7.53805e-15
  172 38.6546 -5.50244e-10 4.49841e-15
  173 38.6546 -5.50244e-10 -1.44492e-14
  174 38.6546 -5.50244e-10 -6.60484e-15
  175 38.6546 -5.50244e-10 7.17088e-16
  176 38.6546 -5.50244e-10 1.36619e-15
  177 38.6546 -5.50244e-10 -2.60467e-14
  178 38.6546 -5.50244e-10 6.45904e-15
  179 38.6546 -5.50244e-10 -7.55900e-15
  180 38.6546 -5.50244e-10 4.10694e-15
  181 38.6546 -5.50244e-10 -2.07406e-14
  182 38.6546 -5.50244e-10 2.88071e-14
  183 38.6546 -5.50244e-10 4.02837e-16
  184 38.6546 -5.50244e-10 9.77627e-15
  185 38.6546 -5.50244e-10 1.82952e-15
  186 38.6546 -5.50244e-10 -1.46357e-14
  187 38.6546 -5.50244e-10 -9.62208e-15
  188 38.6546 -5.50244e-10 4.62844e-15
  189 38.6546 -5.50244e-10 1.07073e-14
  190 38.6546 -5.50244e-10 -9.15335e-15
  191 38.6546 -5.50244e-10 1.42989e-14
  192 38.6546 -5.50244e-10 2.02499e-14
  193 38.6546 -5.50244e-10 2.78365e-14
  194 38.6546 -5.50244e-10 3.90809e-17
  195 38.6546 -5.50244e-10 6.40196e-16
  196 38.6546 -5.50244e-10 -2.04246e-14
  197 38.6546 -5.50244e-10 -2.57813e-15
  198 38.6546 -5.50244e-10 4.76984e-15
  199 38.6546 -5.50244e-10 -1.94386e-15
  200 38.6546 -5.49941e-10 1.63219e-14
  201 38.6546 -5.50244e-10 -9.36383e-15
  202 38.6546 -5.50244e-10 8.13684e-15
  203 38.6546 -5.50244e-10 -1.04688e-14
  204 38.6546 -5.50244e-10 1.24911e-14
  205 38.6546 -5.50244e-10 3.94438e-15
  206 38.6546 -5.50244e-10 -3.20079e-14
  207 38.6546 -5.50244e-10 3.06940e-15
  208 38.6546 -5.50244e-10 2.26289e-14
  209 38.6546 -5.50244e-10 3.09100e-15
  210 38.6546 -5.50244e-10 -3.64881e-15
  211 38.6546 -5.50244e-10 -1.67454e-15
  212 38.6546 -5.50244e-10 1.75764e-14
  213 38.6546 -5.50244e-10 -4.52786e-16
  214 38.6546 -5.50244e-10 -5.79510e-15
  215 38.6546 -5.50244e-10 1.50725e-14
  216 38.6546 -5.50244e-10 -1.43043e-15
  217 38.6546 -5.50244e-10 4.21754e-15
  218 38.6546 -5.50244e-10 2.80792e-16
  219 38.6546 -5.50244e-10 -4.85454e-15
  220 38.6546 -5.50244e-10 7.57809e-16
  221 38.6546 -5.50244e-10 9.07482e-16
  222 38.6546 -5.49941e-10 -9.29387e-15
  223 38.6546 -5.50244e-10 1.14759e-14
  224 38.6546 -5.50244e-10 1.83372e-15
  225 38.6546 -5.50244e-10 2.58639e-14
  226 38.6546 -5.50244e-10 1.49292e-15
  227 38.6546 -5.50244e-10 9.73985e-15
  228 38.6546 -5.50244e-10 -9.19084e-15
  229 38.6546 -5.50244e-10 -3.35611e-15
  230 38.6546 -5.50244e-10 1.14430e-14
  231 38.6546 -5.50244e-10 3.52004e-15
  232 38.6546 -5.50244e-10 3.80970e-15
  233 38.6546 -5.50244e-10 -4.53306e-15
  234 38.6546 -5.50244e-10 -1.79722e-14
  235 38.6546 -5.50244e-10 3.48198e-15
  236 38.6546 -5.50244e-10 -1.57108e-15
  237 38.6546 -5.50244e-10 3.02415e-15
  238 38.6546 -5.50244e-10 4.55493e-15
  239 38.6546 -5.50244e-10 -4.32934e-14
  240 38.6546 -5.50244e-10 1.53894e-14
  241 38.6546 -5.50244e-10 8.18597e-15
</Section>

newXOutput 4

<Section columns = "stress_xx | stress_yy | stress_xy">
  1 57.8559 -5.46606e-10 3.96372e-15
  2 57.8559 -5.46606e-10 5.15967e-15
  3 57.8559 -5.46606e-10 -1.85229e-14
  4 57.8559 -5.48425e-10 -2.48832e-15
  5 57.8559 -5.46606e-10 5.41025e-15
  6 57.8559 -5.46606e-10 3.50809e-16
  7 57.8559 -5.46606e-10 -7.32605e-15
  8 57.8559 -5.46606e-10 3.85741e-15
  9 57.8559 -5.46606e-10 9.18413e-15
  10 57.8559 -5.46606e-10 -6.21135e-15
  11 57.8559 -5.46606e-10 -1.31744e-14
  12 57.8559 -5.46606e-10 7.18324e-16
  13 57.8559 -5.46606e-10 2.04165e-15
  14 57.8559 -5.49032e-10 -9.45067e-15
  15 57.8559 -5.47516e-10 -2.35625e-14
  16 57.8559 -5.46606e-10 -2.65159e-14
  17 57.8559 -5.46606e-10 -7.15672e-14
  18 57.8559 -5.46606e-10 1.79339e-14
  19 57.8559 -5.46606e-10 2.83869e-14
  20 57.8559 -5.46606e-10 -1.40697e-13
  21 57.8559 -5.46303e-10 -8.93675e-14
  22 57.8559 -5.46606e-10 1.70737e-13
  23 57.8559 -5.46606e-10 2.06053e-14
  24 57.8559 -5.46606e-10 -3.43978e-15
  25 57.8559 -5.46606e-10 1.54790e-14
  26 57.8559 -5.46606e-10 -1.99937e-14
  27 57.8559 -5.46606e-10 1.40264e-14
  28 57.8559 -5.46606e-10 -3.48779e-14
  29 57.8559 -5.46606e-10 -3.86975e-15
  30 57.8559 -5.46606e-10 3.36976e-14
  31 57.8559 -5.46606e-10 -3.63156e-15
  32 57.8559 -5.46606e-10 -2.19207e-14
  33 57.8559 -5.46606e-10 -5.44101e-14
  34 57.8559 -5.46606e-10 -6.34324e-14
  35 57.8559 -5.46606e-10 -1.92782e-14
  36 57.8559 -5.46606e-10 -6.33213e-15
  37 57.8559 -5.46606e-10 -1.82013e-14
  38 57.8559 -5.46606e-10 -1.37831e-14
  39 57.8559 -5.46606e-10 -1.29819e-14
  40 57.8559 -5.46606e-10 -1.26743e-14
  41 57.8559 -5.46606e-10 -2.97853e-14
  42 57.8559 -5.46606e-10 -2.08008e-14
  43 57.8559 -5.46606e-10 -1.53849e-14
  44 57.8559 -5.46606e-10 1.61224e-14
  45 57.8559 -5.46606e-10 7.97761e-15
  46 57.8559 -5.46606e-10 -1.89196e-15
  47 57.8559 -5.47819e-10 8.21184e-15
  48 57.8559 -5.49032e-10 -2.59122e-15
  49 57.8559 -5.50244e-10 -2.00601e-15
  50 57.8559 -5.46606e-10 -2.12898e-15
  51 57.8559 -5.46606e-10 -3.86975e-15
  52 57.8559 -5.46606e-10 -2.06166e-15
  53 57.8559 -5.46606e-10 1.77001e-15
  54 57.8559 -5.46606e-10 -1.07992e-16
  55 57.8559 -5.46606e-10 -5.15967e-15
  56 57.8559 -5.46606e-10 3.90316e-15
  57 57.8559 -5.46606e-10 -4.66687e-15
  58 57.8559 -5.46606e-10 -1.77476e-14
  59 57.8559 -5.46606e-10 -2.67698e-15
  60 57.8559 -5.47819e-10 -3.57959e-15
  61 57.8559 -5.46606e-10 1.14342e-14
  62 57.8559 -5.46606e-10 -1.09909e-14
  63 57.8559 -5.46606e-10 -2.38343e-14
  64 57.8559 -5.46606e-10 3.39012e-14
  65 57.8559 -5.46606e-10 -6.26310e-16
  66 57.8559 -5.46606e-10 -1.63731e-15
  67 57.8559 -5.46606e-10 -3.72467e-14
  68 57.8559 -5.46606e-10 -2.30407e-14
  69 57.8559 -5.46606e-10 -1.17688e-14
  70 57.8559 -5.46606e-10 1.06531e-14
  71 57.8559 -5.46606e-10 5.47199e-15
  72 57.8559 -5.46606e-10 -1.61862e-14
  73 57.8559 -5.46606e-10 -5.38435e-14
  74 57.8559 -5.46606e-10 -3.15384e-15
  75 57.8559 -5.46606e-10 9.08238e-15
  76 57.8559 -5.46606e-10 8.14192e-16
  77 57.8559 -5.46606e-10 -2.82709e-15
  78 57.8559 -5.46606e-10 -1.58603e-14
  79 57.8559 -5.46606e-10 -4.77827e-15
  80 57.8559 -5.46606e-10 1.10544e-14
  81 57.8559 -5.46606e-10 5.62343e-15
  82 57.8559 -5.46606e-10 1.20336e-14
  83 57.8559 -5.46606e-10 -2.14749e-15
  84 57.8559 -5.46606e-10 1.42436e-14
  85 57.8559 -5.46606e-10 -6.20326e-14
  86 57.8559 -5.47213e-10 -6.79603e-15
  87 57.8559 -5.47819e-10 4.70317e-15
  88 57.8559 -5.46606e-10 6.30820e-14
  89 57.8559 -5.46606e-10 3.11471e-15
  90 57.8559 -5.46606e-10 5.83414e-15
  91 57.8559 -5.46606e-10 -3.12249e-15
  92 57.8559 -5.46606e-10 -4.45634e-15
  93 57.8559 -5.46606e-10 1.52136e-14
  94 57.8559 -5.47152e-10 8.48770e-14
  95 57.8559 -5.46606e-10 7.28020e-15
  96 57.8559 -5.47819e-10 1.31071e-13
  97 57.8559 -5.46970e-10 6.40653e-14
  98 57.8559 -5.48062e-10 -9.96918e-15
  99 57.8559 -5.46606e-10 -1.14755e-15
  100 57.8559 -5.46606e-10 1.03120e-14
  101 57.8559 -5.46606e-10 -6.20718e-15
  102 57.8559 -5.46606e-10 -8.06083e-14
  103 57.8559 -5.46606e-10 -3.99685e-15
  104 57.8559 -5.46606e-10 1.45275e-14
  105 57.8559 -5.46606e-10 5.47625e-16
  106 57.8559 -5.46606e-10 -8.10337e-15
  107 57.8559 -5.46606e-10 -1.18722e-14
  108 57.8559 -5.47213e-10 -1.70731e-15
  109 57.8559 -5.46606e-10 6.32043e-18
  110 57.8559 -5.46606e-10 -7.85072e-14
  111 57.8559 -5.46606e-10 -3.03182e-15
  112 57.8559 -5.46606e-10 -5.57261e-15
  113 57.8559 -5.46606e-10 1.18915e-16
  114 57.8559 -5.46606e-10 3.93031e-16
  115 57.8559 -5.46606e-10 -1.84490e-15
  116 57.8559 -5.46606e-10 7.17114e-15
  117 57.8559 -5.47819e-10 2.89879e-14
  118 57.8559 -5.46606e-10 1.01302e-15
  119 57.8559 -5.46606e-10 -2.82418e-14
  120 57.8559 -5.46606e-10 -7.45025e-15
  121 57.8559 -5.46606e-10 4.35012e-16
  122 57.8559 -5.46606e-10 4.32632e-15
  123 57.8559 -5.46606e-10 -2.06815e-14
  124 57.8559 -5.46606e-10 1.32540e-14
  125 57.8559 -5.46606e-10 5.80127e-15
  126 57.8559 -5.46606e-10 6.25962e-15
  127 57.8559 -5.46476e-10 3.04342e-14
  128 57.8559 -5.46606e-10 3.73109e-14
  129 57.8559 -5.47061e-10 -5.48856e-15
  130 57.8559 -5.46606e-10 1.84546e-15
  131 57.8559 -5.46606e-10 2.55367e-16
  132 57.8559 -5.46606e-10 -3.30097e-17
  133 57.8559 -5.47126e-10 -9.12021e-16
  134 57.8559 -5.46606e-10 5.26551e-15
  135 57.8559 -5.46736e-10 4.19036e-14
  136 57.8559 -5.48165e-10 3.96902e-15
  137 57.8559 -5.46606e-10 8.81434e-15
  138 57.8559 -5.46606e-10 1.07507e-14
  139 57.8559 -5.46606e-10 -3.58159e-15
  140 57.8559 -5.46606e-10 -7.74772e-14
  141 57.8559 -5.46606e-10 -7.75384e-15
  142 57.8559 -5.46606e-10 -3.22660e-15
  143 57.8559 -5.46606e-10 4.90583e-15
  144 57.8559 -5.46606e-10 2.73791e-14
  145 57.8559 -5.46606e-10 -4.17280e-14
  146 57.8559 -5.46606e-10 -1.42854e-15
  147 57.8559 -5.46606e-10 -9.81459e-15
  148 57.8559 -5.46606e-10 1.29310e-15
  149 57.8559 -5.46606e-10 7.21366e-15
  150 57.8559 -5.46606e-10 6.77416e-15
  151 57.8559 -5.46606e-10 5.65465e-15
  152 57.8559 -5.47213e-10 -1.41258e-13
  153 57.8559 -5.46606e-10 6.18601e-14
  154 57.8559 -5.46606e-10 -1.82401e-14
  155 57.8559 -5.47213e-10 -9.86430e-15
  156 57.8559 -5.46606e-10 -1.37686e-14
  157 57.8559 -5.46606e-10 -6.12253e-15
  158 57.8559 -5.48425e-10 2.41289e-14
  159 57.8559 -5.47213e-10 -1.26983e-14
  160 57.8559 -5.46606e-10 3.44525e-15
  161 57.8559 -5.46606e-10 2.15155e-14
  162 57.8559 -5.46606e-10 -4.70018e-15
  163 57.8559 -5.47819e-10 3.89379e-14
  164 57.8559 -5.46606e-10 3.91255e-14
  165 57.8559 -5.46606e-10 3.86685e-15
  166 57.8559 -5.47126e-10 9.06196e-16
  167 57.8559 -5.47126e-10 1.85706e-14
  168 57.8559 -5.46606e-10 2.18004e-14
  169 57.8559 -5.46606e-10 5.27332e-15
  170 57.8559 -5.46606e-10 -2.95151e-14
  171 57.8559 -5.46606e-10 -1.19303e-15
  172 57.8559 -5.47213e-10 -2.15784e-15
  173 57.8559 -5.46606e-10 -3.06712e-15
  174 57.8559 -5.47213e-10 -1.95158e-14
  175 57.8559 -5.48425e-10 7.48028e-16
  176 57.8559 -5.46606e-10 -6.67275e-17
  177 57.8559 -5.46606e-10 3.14134e-14
  178 57.8559 -5.46606e-10 -2.86763e-15
  179 57.8559 -5.46606e-10 6.64766e-15
  180 57.8559 -5.46606e-10 3.74470e-15
  181 57.8559 -5.46606e-10 -6.06989e-14
  182 57.8559 -5.46606e-10 3.55037e-15
  183 57.8559 -5.46606e-10 -5.43439e-15
  184 57.8559 -5.46606e-10 -5.69263e-14
  185 57.8559 -5.46606e-10 1.14101e-14
  186 57.8559 -5.48062e-10 -3.31768e-14
  187 57.8559 -5.46606e-10 -1.60378e-14
  188 57.8559 -5.46606e-10 1.73528e-14
  189 57.8559 -5.46606e-10 1.68845e-15
  190 57.8559 -5.46606e-10 4.59051e-15
  191 57.8559 -5.46606e-10 -7.34893e-15
  192 57.8559 -5.46476e-10 1.01373e-14
  193 57.8559 -5.46606e-10 -2.45249e-15
  194 57.8559 -5.46606e-10 2.10020e-14
  195 57.8559 -5.47213e-10 -6.21136e-16
  196 57.8559 -5.46606e-10 -2.79963e-14
  197 57.8559 -5.46606e-10 3.90430e-15
  198 57.8559 -5.47061e-10 3.87062e-14
  199 57.8559 -5.46606e-10 -4.98208e-15
  200 57.8559 -5.46606e-10 -7.20712e-15
  201 57.8559 -5.46606e-10 -2.37392e-15
  202 57.8559 -5.46606e-10 4.14561e-15
  203 57.8559 -5.46606e-10 7.12615e-15
  204 57.8559 -5.46606e-10 -5.19815e-15
  205 57.8559 -5.46606e-10 6.16180e-15
  206 57.8559 -5.46788e-10 -5.36553e-14
  207 57.8559 -5.48062e-10 2.42206e-15
  208 57.8559 -5.46606e-10 -2.32861e-14
  209 57.8559 -5.46606e-10 2.74182e-14
  210 57.8559 -5.46606e-10 -4.64532e-15
  211 57.8559 -5.46606e-10 3.50809e-16
  212 57.8559 -5.46606e-10 -1.76632e-14
  213 57.8559 -5.49517e-10 1.06854e-15
  214 57.8559 -5.46606e-10 -1.56523e-16
  215 57.8559 -5.46606e-10 7.46130e-14
  216 57.8559 -5.46606e-10 9.23921e-15
  217 57.8559 -5.46606e-10 8.23231e-15
  218 57.8559 -5.46606e-10 -8.09001e-15
  219 57.8559 -5.46606e-10 -5.20122e-14
  220 57.8559 -5.46606e-10 1.25052e-15
  221 57.8559 -5.46606e-10 7.14394e-15
  222 57.8559 -5.47819e-10 5.30497e-14
  223 57.8559 -5.46606e-10 -1.02164e-14
  224 57.8559 -5.46606e-10 2.18938e-15
  225 57.8559 -5.46424e-10 3.15821e-14
  226 57.8559 -5.46606e-10 1.28117e-14
  227 57.8559 -5.46606e-10 3.97871e-15
  228 57.8559 -5.46606e-10 -1.96691e-14
  229 57.8559 -5.46606e-10 -4.53759e-15
  230 57.8559 -5.46606e-10 -3.98037e-14
  231 57.8559 -5.47152e-10 2.77825e-14
  232 57.8559 -5.46606e-10 -3.08558e-16
  233 57.8559 -5.47334e-10 1.53338e-13
  234 57.8559 -5.46606e-10 2.37323e-14
  235 57.8559 -5.46606e-10 -2.70864e-14
  236 57.8559 -5.46606e-10 6.08567e-15
  237 57.8559 -5.46606e-10 2.89630e-15
  238 57.8559 -5.46606e-10 -7.23318e-17
  239 57.8559 -5.46606e-10 1.47322e-14
  240 57.8559 -5.46606e-10 8.00534e-15
  241 57.8559 -5.46606e-10 -1.89101e-14
</Section>

newXOutput 5

<Section columns = "stress_xx | stress_yy | stress_xy">
  1 76.9738 -5.44787e-10 -1.78241e-14
  2 76.9738 -5.43878e-10 -1.92763e-13
  3 76.9738 -5.42968e-10 5.70691e-14
  4 76.9738 -5.44787e-10 -7.96553e-14
  5 76.9738 -5.44787e-10 -1.23492e-14
  6 76.9738 -5.44787e-10 -4.26925e-14
  7 76.9738 -5.43878e-10 -4.54983e-14
  8 76.9738 -5.42968e-10 -6.32946e-14
  9 76.9738 -5.43575e-10 -9.26893e-14
  10 76.9738 -5.44181e-10 -2.94293e-13
  11 76.9738 -5.44181e-10 9.64034e-14
  12 76.9738 -5.42968e-10 1.42764e-13
  13 76.9738 -5.43423e-10 1.90137e-13
  14 76.9738 -5.44787e-10 8.65134e-14
  15 76.9738 -5.44333e-10 1.83997e-13
  16 76.9738 -5.42968e-10 -6.80672e-15
  17 76.9738 -5.42968e-10 2.85593e-14
  18 76.9738 -5.44181e-10 -2.72692e-13
  19 76.9738 -5.44181e-10 -1.40576e-13
  20 76.9738 -5.44181e-10 1.70610e-14
  21 76.9738 -5.42968e-10 1.13278e-13
  22 76.9738 -5.43575e-10 7.82673e-14
  23 76.9738 -5.44181e-10 -3.84503e-13
  24 76.9738 -5.42968e-10 8.97124e-14
  25 76.9738 -5.42968e-10 -3.60147e-14
  26 76.9738 -5.42968e-10 -6.24293e-15
  27 76.9738 -5.42968e-10 6.55249e-14
  28 76.9738 -5.42968e-10 5.49740e-17
  29 76.9738 -5.42968e-10 -7.71743e-15
  30 76.9738 -5.42968e-10 -7.94253e-14
  31 76.9738 -5.42968e-10 6.24183e-14
  32 76.9738 -5.42968e-10 -2.91093e-14
  33 76.9738 -5.42968e-10 2.15907e-14
  34 76.9738 -5.42968e-10 4.83273e-15
  35 76.9738 -5.42968e-10 -7.35495e-15
  36 76.9738 -5.42968e-10 -9.03750e-16
  37 76.9738 -5.42968e-10 1.28417e-13
  38 76.9738 -5.42968e-10 2.23497e-13
  39 76.9738 -5.43575e-10 -1.15746e-13
  40 76.9738 -5.43575e-10 -4.92362e-13
  41 76.9738 -5.44181e-10 4.33791e-14
  42 76.9738 -5.44787e-10 2.17678e-13
  43 76.9738 -5.44787e-10 1.08915e-13
  44 76.9738 -5.44787e-10 5.82046e-14
  45 76.9738 -5.44787e-10 4.03311e-14
  46 76.9738 -5.44787e-10 -1.13903e-14
  47 76.9738 -5.44787e-10 8.51748e-14
  48 76.9738 -5.44787e-10 1.10351e-13
  49 76.9738 -5.44787e-10 6.24178e-14
  50 76.9738 -5.44787e-10 3.09475e-14
  51 76.9738 -5.44787e-10 1.09330e-13
  52 76.9738 -5.44787e-10 2.61376e-14
  53 76.9738 -5.44787e-10 1.33978e-14
  54 76.9738 -5.44787e-10 7.60597e-14
  55 76.9738 -5.44787e-10 8.23193e-14
  56 76.9738 -5.44787e-10 -4.66878e-14
  57 76.9738 -5.44787e-10 9.41014e-15
  58 76.9738 -5.42968e-10 6.10008e-14
  59 76.9738 -5.43228e-10 8.01608e-14
  60 76.9738 -5.43878e-10 7.23747e-14
  61 76.9738 -5.44787e-10 -2.40804e-14
  62 76.9738 -5.44787e-10 1.78082e-13
  63 76.9738 -5.43696e-10 -4.07866e-14
  64 76.9738 -5.43878e-10 1.18847e-15
  65 76.9738 -5.44787e-10 2.17361e-14
  66 76.9738 -5.44787e-10 1.82582e-13
  67 76.9738 -5.42968e-10 -1.08936e-14
  68 76.9738 -5.44484e-10 -8.99757e-14
  69 76.9738 -5.42968e-10 5.04188e-14
  70 76.9738 -5.43650e-10 1.55786e-13
  71 76.9738 -5.44787e-10 -8.83307e-14
  72 76.9738 -5.43228e-10 -2.40551e-13
  73 76.9738 -5.43488e-10 -1.54962e-13
  74 76.9738 -5.44787e-10 1.54663e-13
  75 76.9738 -5.44060e-10 1.99506e-13
  76 76.9738 -5.42968e-10 8.12108e-14
  77 76.9738 -5.44787e-10 -3.52690e-15
  78 76.9738 -5.42968e-10 8.37253e-14
  79 76.9738 -5.43748e-10 -3.76619e-14
  80 76.9738 -5.42968e-10 1.86070e-14
  81 76.9738 -5.42968e-10 1.41875e-13
  82 76.9738 -5.42968e-10 -1.03406e-13
  83 76.9738 -5.44787e-10 -2.38363e-14
  84 76.9738 -5.42968e-10 -1.96459e-13
  85 76.9738 -5.42968e-10 -2.56062e-13
  86 76.9738 -5.44181e-10 6.54604e-14
  87 76.9738 -5.44787e-10 -2.17157e-14
  88 76.9738 -5.42968e-10 4.55548e-14
  89 76.9738 -5.44787e-10 -1.24357e-13
  90 76.9738 -5.43575e-10 -2.10106e-13
  91 76.9738 -5.44787e-10 1.31996e-13
  92 76.9738 -5.44787e-10 1.09883e-14
  93 76.9738 -5.42968e-10 -9.77302e-14
  94 76.9738 -5.44060e-10 -1.32130e-13
  95 76.9738 -5.44787e-10 1.03870e-13
  96 76.9738 -5.43878e-10 1.53361e-13
  97 76.9738 -5.43696e-10 -7.37358e-15
  98 76.9738 -5.44787e-10 6.76332e-14
  99 76.9738 -5.44787e-10 -8.67990e-14
  100 76.9738 -5.44424e-10 -3.05632e-14
  101 76.9738 -5.42968e-10 -4.18178e-13
  102 76.9738 -5.42968e-10 -1.23586e-14
  103 76.9738 -5.42968e-10 1.94968e-14
  104 76.9738 -5.44787e-10 1.52155e-13
  105 76.9738 -5.42968e-10 2.32013e-13
  106 76.9738 -5.43878e-10 -2.60400e-13
  107 76.9738 -5.42968e-10 7.82018e-14
  108 76.9738 -5.44787e-10 -7.55318e-16
  109 76.9738 -5.44787e-10 7.56848e-14
  110 76.9738 -5.42968e-10 -2.44572e-14
  111 76.9738 -5.42968e-10 6.23508e-14
  112 76.9738 -5.42968e-10 2.08686e-14
  113 76.9738 -5.43748e-10 7.68481e-14
  114 76.9738 -5.42968e-10 3.98337e-14
  115 76.9738 -5.43878e-10 1.16062e-13
  116 76.9738 -5.43332e-10 -2.37636e-13
  117 76.9738 -5.43575e-10 4.15969e-15
  118 76.9738 -5.44787e-10 8.83116e-14
  119 76.9738 -5.44787e-10 -6.29792e-14
  120 76.9738 -5.42968e-10 4.83700e-14
  121 76.9738 -5.44787e-10 -1.25248e-13
  122 76.9738 -5.43748e-10 4.50106e-14
  123 76.9738 -5.42968e-10 -1.31113e-14
  124 76.9738 -5.42968e-10 7.37674e-14
  125 76.9738 -5.44560e-10 7.78715e-14
  126 76.9738 -5.43878e-10 -1.48921e-13
  127 76.9738 -5.43488e-10 3.36792e-14
  128 76.9738 -5.44333e-10 8.39717e-15
  129 76.9738 -5.44787e-10 9.62386e-14
  130 76.9738 -5.42968e-10 9.34788e-14
  131 76.9738 -5.42968e-10 -1.56817e-13
  132 76.9738 -5.43878e-10 1.38549e-13
  133 76.9738 -5.43748e-10 -1.76960e-13
  134 76.9738 -5.44527e-10 -3.26568e-15
  135 76.9738 -5.43748e-10 9.58081e-14
  136 76.9738 -5.44787e-10 5.29088e-14
  137 76.9738 -5.42968e-10 3.09769e-14
  138 76.9738 -5.43878e-10 -1.45781e-13
  139 76.9738 -5.44787e-10 2.88580e-14
  140 76.9738 -5.42968e-10 -1.05270e-14
  141 76.9738 -5.44181e-10 -3.71217e-14
  142 76.9738 -5.43878e-10 -2.74422e-13
  143 76.9738 -5.44787e-10 1.02753e-13
  144 76.9738 -5.43696e-10 -7.71716e-14
  145 76.9738 -5.42968e-10 7.72776e-14
  146 76.9738 -5.44787e-10 1.37176e-13
  147 76.9738 -5.43575e-10 -7.53560e-14
  148 76.9738 -5.44787e-10 2.42780e-14
  149 76.9738 -5.42968e-10 3.75153e-14
  150 76.9738 -5.43878e-10 -9.36430e-14
  151 76.9738 -5.43575e-10 -1.19447e-13
  152 76.9738 -5.42968e-10 -5.84395e-14
  153 76.9738 -5.43272e-10 4.57903e-14
  154 76.9738 -5.43332e-10 8.24991e-14
  155 76.9738 -5.42968e-10 1.11847e-13
  156 76.9738 -5.43228e-10 6.69663e-14
  157 76.9738 -5.44787e-10 2.51973e-14
  158 76.9738 -5.43878e-10 6.05731e-14
  159 76.9738 -5.43878e-10 2.12498e-13
  160 76.9738 -5.44787e-10 -1.30933e-14
  161 76.9738 -5.42968e-10 1.02350e-13
  162 76.9738 -5.44181e-10 -1.05044e-14
  163 76.9738 -5.43878e-10 -1.45035e-13
  164 76.9738 -5.43228e-10 -2.41247e-13
  165 76.9738 -5.43878e-10 -1.88946e-13
  166 76.9738 -5.44787e-10 1.91501e-14
  167 76.9738 -5.43228e-10 8.62542e-14
  168 76.9738 -5.42968e-10 2.09776e-14
  169 76.9738 -5.44787e-10 9.74484e-15
  170 76.9738 -5.42968e-10 4.70750e-14
  171 76.9738 -5.43488e-10 -1.23672e-13
  172 76.9738 -5.44181e-10 -4.79531e-14
  173 76.9738 -5.44787e-10 1.15550e-13
  174 76.9738 -5.44181e-10 -6.44496e-17
  175 76.9738 -5.44787e-10 2.92687e-14
  176 76.9738 -5.44787e-10 -7.43692e-14
  177 76.9738 -5.42968e-10 1.13775e-14
  178 76.9738 -5.44787e-10 7.82920e-14
  179 76.9738 -5.42968e-10 -1.04832e-13
  180 76.9738 -5.44787e-10 -5.92761e-15
  181 76.9738 -5.42968e-10 4.66055e-14
  182 76.9738 -5.42968e-10 1.06972e-13
  183 76.9738 -5.44787e-10 9.14240e-14
  184 76.9738 -5.42968e-10 -9.59815e-14
  185 76.9738 -5.43878e-10 7.77155e-14
  186 76.9738 -5.44787e-10 -1.98695e-16
  187 76.9738 -5.42968e-10 -3.34633e-15
  188 76.9738 -5.44060e-10 -3.99983e-14
  189 76.9738 -5.44787e-10 -1.09567e-13
  190 76.9738 -5.44787e-10 1.47167e-13
  191 76.9738 -5.44787e-10 1.84725e-13
  192 76.9738 -5.43748e-10 -1.89295e-13
  193 76.9738 -5.42968e-10 3.54962e-14
  194 76.9738 -5.42968e-10 -6.41076e-14
  195 76.9738 -5.44787e-10 -2.36299e-14
  196 76.9738 -5.42968e-10 3.93202e-15
  197 76.9738 -5.44787e-10 1.12069e-13
  198 76.9738 -5.43878e-10 -1.27078e-13
  199 76.9738 -5.44787e-10 3.92008e-14
  200 76.9738 -5.42968e-10 1.81584e-14
  201 76.9738 -5.42968e-10 2.29312e-13
  202 76.9738 -5.43332e-10 1.57253e-14
  203 76.9738 -5.44181e-10 -2.26554e-13
  204 76.9738 -5.44181e-10 -3.27500e-13
  205 76.9738 -5.44787e-10 -1.14465e-13
  206 76.9738 -5.43696e-10 7.71477e-14
  207 76.9738 -5.44787e-10 5.00236e-14
  208 76.9738 -5.42968e-10 4.93887e-14
  209 76.9738 -5.43272e-10 -1.87662e-13
  210 76.9738 -5.44787e-10 5.45900e-15
  211 76.9738 -5.44527e-10 -1.65263e-13
  212 76.9738 -5.44424e-10 -3.20294e-14
  213 76.9738 -5.44787e-10 3.50510e-14
  214 76.9738 -5.44787e-10 1.31425e-13
  215 76.9738 -5.42968e-10 1.17496e-13
  216 76.9738 -5.44787e-10 5.20733e-14
  217 76.9738 -5.43878e-10 -1.03582e-13
  218 76.9738 -5.44787e-10 8.56788e-14
  219 76.9738 -5.44060e-10 -2.06523e-13
  220 76.9738 -5.44787e-10 1.04235e-13
  221 76.9738 -5.43272e-10 -1.36157e-13
  222 76.9738 -5.42968e-10 -1.03383e-13
  223 76.9738 -5.44060e-10 -1.38594e-13
  224 76.9738 -5.44060e-10 -1.08148e-13
  225 76.9738 -5.43332e-10 -1.93628e-13
  226 76.9738 -5.44787e-10 8.40787e-14
  227 76.9738 -5.44484e-10 -3.02372e-13
  228 76.9738 -5.43696e-10 1.55468e-13
  229 76.9738 -5.44787e-10 5.94208e-14
  230 76.9738 -5.42968e-10 -6.62869e-14
  231 76.9738 -5.44060e-10 1.68509e-13
  232 76.9738 -5.44787e-10 4.31536e-14
  233 76.9738 -5.43696e-10 -3.80834e-14
  234 76.9738 -5.44787e-10 8.03049e-14
  235 76.9738 -5.43332e-10 -1.15690e-13
  236 76.9738 -5.44008e-10 -7.88279e-14
  237 76.9738 -5.43696e-10 -1.24639e-13
  238 76.9738 -5.43696e-10 1.39592e-13
  239 76.9738 -5.42968e-10 1.07665e-13
  240 76.9738 -5.42968e-10 -1.54443e-14
  241 76.9738 -5.43575e-10 -1.18001e-13
</Section>

newXOutput 6

<Section columns = "stress_xx | stress_yy | stress_xy">
  1 96.0088 -5.41149e-10 1.31373e-14
  2 96.0088 -5.41149e-10 -2.66486e-14
  3 96.0088 -5.41149e-10 -1.39554e-13
  4 96.0088 -5.42059e-10 -4.22688e-14
  5 96.0088 -5.41453e-10 -6.59113e-15
  6 96.0088 -5.41604e-10 -1.05930e-14
  7 96.0088 -5.41604e-10 -1.24457e-13
  8 96.0088 -5.41149e-10 -1.65471e-14
  9 96.0088 -5.41149e-10 8.55050e-14
  10 96.0088 -5.41756e-10 -1.61041e-13
  11 96.0088 -5.41453e-10 -1.20386e-13
  12 96.0088 -5.42362e-10 9.58165e-15
  13 96.0088 -5.41831e-10 3.19653e-14
  14 96.0088 -5.42059e-10 -8.59624e-14
  15 96.0088 -5.42059e-10 8.91672e-14
  16 96.0088 -5.41453e-10 7.28071e-14
  17 96.0088 -5.41149e-10 1.96377e-13
  18 96.0088 -5.41756e-10 -5.22035e-14
  19 96.0088 -5.41453e-10 -2.01806e-13
  20 96.0088 -5.41453e-10 -6.33362e-14
  21 96.0088 -5.41453e-10 1.91974e-13
  22 96.0088 -5.41756e-10 -2.36119e-13
  23 96.0088 -5.41756e-10 -1.19389e-13
  24 96.0088 -5.41149e-10 7.86646e-14
  25 96.0088 -5.41149e-10 1.53909e-13
  26 96.0088 -5.41149e-10 3.56032e-14
  27 96.0088 -5.41149e-10 1.36808e-14
  28 96.0088 -5.41149e-10 1.00516e-13
  29 96.0088 -5.41149e-10 7.43894e-14
  30 96.0088 -5.41149e-10 -3.09174e-15
  31 96.0088 -5.41149e-10 -8.98768e-14
  32 96.0088 -5.41149e-10 -1.77449e-13
  33 96.0088 -5.41149e-10 -2.26077e-14
  34 96.0088 -5.41149e-10 3.09558e-14
  35 96.0088 -5.41149e-10 3.43364e-16
  36 96.0088 -5.41149e-10 -9.11487e-14
  37 96.0088 -5.41453e-10 -1.82214e-13
  38 96.0088 -5.42059e-10 -1.32760e-13
  39 96.0088 -5.41453e-10 6.67621e-14
  40 96.0088 -5.41453e-10 -1.27397e-13
  41 96.0088 -5.41453e-10 2.69219e-13
  42 96.0088 -5.41756e-10 1.13853e-13
  43 96.0088 -5.42059e-10 6.93264e-14
  44 96.0088 -5.42059e-10 1.76129e-14
  45 96.0088 -5.42059e-10 1.55582e-14
  46 96.0088 -5.42059e-10 -1.14926e-14
  47 96.0088 -5.42059e-10 1.93010e-16
  48 96.0088 -5.42059e-10 6.65692e-15
  49 96.0088 -5.42059e-10 4.84828e-16
  50 96.0088 -5.42059e-10 1.29088e-14
  51 96.0088 -5.42059e-10 3.33470e-14
  52 96.0088 -5.42059e-10 1.59736e-15
  53 96.0088 -5.42059e-10 4.83948e-15
  54 96.0088 -5.41377e-10 1.85233e-14
  55 96.0088 -5.41149e-10 2.05212e-14
  56 96.0088 -5.41149e-10 -1.38485e-16
  57 96.0088 -5.41907e-10 -1.28519e-14
  58 96.0088 -5.41453e-10 -9.77392e-14
  59 96.0088 -5.41669e-10 -1.67243e-13
  60 96.0088 -5.41453e-10 1.37168e-13
  61 96.0088 -5.41149e-10 -2.94816e-13
  62 96.0088 -5.42059e-10 5.19881e-14
  63 96.0088 -5.41149e-10 -2.82126e-13
  64 96.0088 -5.41604e-10 6.15375e-14
  65 96.0088 -5.42059e-10 -4.08020e-15
  66 96.0088 -5.41907e-10 8.52064e-14
  67 96.0088 -5.41149e-10 6.00122e-14
  68 96.0088 -5.41907e-10 1.09422e-13
  69 96.0088 -5.40630e-10 8.53840e-14
  70 96.0088 -5.41263e-10 1.00338e-13
  71 96.0088 -5.41907e-10 -1.05039e-13
  72 96.0088 -5.41149e-10 9.83743e-14
  73 96.0088 -5.41149e-10 3.88732e-14
  74 96.0088 -5.42059e-10 1.09317e-13
  75 96.0088 -5.41695e-10 5.65805e-14
  76 96.0088 -5.41149e-10 2.14744e-13
  77 96.0088 -5.41604e-10 4.23361e-15
  78 96.0088 -5.41149e-10 1.34841e-13
  79 96.0088 -5.41669e-10 -1.09308e-13
  80 96.0088 -5.41301e-10 -1.56223e-13
  81 96.0088 -5.41756e-10 3.84034e-14
  82 96.0088 -5.41301e-10 -1.38469e-13
  83 96.0088 -5.41907e-10 1.81032e-13
  84 96.0088 -5.41149e-10 -5.82265e-14
  85 96.0088 -5.41149e-10 -1.62945e-13
  86 96.0088 -5.41756e-10 -1.83282e-13
  87 96.0088 -5.41756e-10 -2.62719e-14
  88 96.0088 -5.41149e-10 -7.76900e-14
  89 96.0088 -5.41695e-10 3.13592e-14
  90 96.0088 -5.41301e-10 -5.00415e-14
  91 96.0088 -5.42059e-10 8.97432e-14
  92 96.0088 -5.42059e-10 1.80733e-14
  93 96.0088 -5.41331e-10 -1.80117e-13
  94 96.0088 -5.41513e-10 1.27765e-13
  95 96.0088 -5.42059e-10 1.50047e-13
  96 96.0088 -5.41604e-10 1.80195e-13
  97 96.0088 -5.41149e-10 -1.50573e-13
  98 96.0088 -5.42059e-10 6.44760e-15
  99 96.0088 -5.41756e-10 1.60022e-13
  100 96.0088 -5.41695e-10 -4.11236e-14
  101 96.0088 -5.41149e-10 -5.58556e-14
  102 96.0088 -5.41149e-10 -4.15162e-14
  103 96.0088 -5.41149e-10 1.80856e-14
  104 96.0088 -5.42059e-10 1.88309e-13
  105 96.0088 -5.41331e-10 1.05401e-13
  106 96.0088 -5.41756e-10 -1.43433e-13
  107 96.0088 -5.41149e-10 6.38674e-14
  108 96.0088 -5.41604e-10 -1.05458e-14
  109 96.0088 -5.41149e-10 9.27289e-15
  110 96.0088 -5.41149e-10 5.78395e-14
  111 96.0088 -5.41149e-10 2.43162e-14
  112 96.0088 -5.41301e-10 -1.07916e-13
  113 96.0088 -5.41669e-10 2.69949e-14
  114 96.0088 -5.40630e-10 -6.66936e-14
  115 96.0088 -5.41301e-10 -7.65204e-14
  116 96.0088 -5.41513e-10 -4.96331e-14
  117 96.0088 -5.41149e-10 -6.94047e-14
  118 96.0088 -5.42059e-10 3.46415e-14
  119 96.0088 -5.41799e-10 7.89170e-14
  120 96.0088 -5.41149e-10 1.32848e-13
  121 96.0088 -5.41799e-10 -1.34585e-13
  122 96.0088 -5.41409e-10 8.77794e-14
  123 96.0088 -5.40543e-10 -1.02367e-13
  124 96.0088 -5.40889e-10 -3.77956e-14
  125 96.0088 -5.42059e-10 -6.98183e-14
  126 96.0088 -5.41490e-10 -6.27642e-14
  127 96.0088 -5.41539e-10 -1.12699e-14
  128 96.0088 -5.41149e-10 -3.61044e-14
  129 96.0088 -5.42059e-10 5.83721e-14
  130 96.0088 -5.41453e-10 -7.02668e-14
  131 96.0088 -5.41149e-10 1.34068e-13
  132 96.0088 -5.41490e-10 1.64026e-13
  133 96.0088 -5.41539e-10 6.24237e-14
  134 96.0088 -5.41539e-10 -1.86902e-13
  135 96.0088 -5.41539e-10 -7.50943e-14
  136 96.0088 -5.42059e-10 -1.41278e-15
  137 96.0088 -5.40889e-10 6.43417e-14
  138 96.0088 -5.41604e-10 -2.30435e-13
  139 96.0088 -5.41929e-10 3.43453e-14
  140 96.0088 -5.41149e-10 2.47060e-13
  141 96.0088 -5.41453e-10 9.96270e-14
  142 96.0088 -5.41604e-10 -1.05004e-13
  143 96.0088 -5.42059e-10 1.16626e-13
  144 96.0088 -5.41513e-10 -9.81074e-14
  145 96.0088 -5.41149e-10 7.11972e-14
  146 96.0088 -5.42059e-10 1.23601e-13
  147 96.0088 -5.41301e-10 -5.91333e-14
  148 96.0088 -5.41453e-10 1.20373e-14
  149 96.0088 -5.41149e-10 1.31377e-13
  150 96.0088 -5.41453e-10 5.65155e-14
  151 96.0088 -5.41149e-10 -1.94628e-13
  152 96.0088 -5.41301e-10 -2.28616e-13
  153 96.0088 -5.41907e-10 -1.83511e-15
  154 96.0088 -5.41513e-10 -2.33483e-13
  155 96.0088 -5.41149e-10 1.04213e-13
  156 96.0088 -5.41409e-10 -2.47466e-14
  157 96.0088 -5.41929e-10 1.64891e-15
  158 96.0088 -5.41301e-10 2.59564e-13
  159 96.0088 -5.41756e-10 2.01114e-14
  160 96.0088 -5.41695e-10 -5.66624e-15
  161 96.0088 -5.41149e-10 5.06093e-14
  162 96.0088 -5.41756e-10 9.21063e-14
  163 96.0088 -5.41453e-10 1.23002e-13
  164 96.0088 -5.40889e-10 -1.02339e-13
  165 96.0088 -5.41453e-10 -1.50412e-13
  166 96.0088 -5.41669e-10 -5.43481e-15
  167 96.0088 -5.41149e-10 -4.12457e-14
  168 96.0088 -5.41149e-10 7.55134e-15
  169 96.0088 -5.41149e-10 -4.90782e-15
  170 96.0088 -5.41149e-10 4.88810e-14
  171 96.0088 -5.41409e-10 4.64058e-16
  172 96.0088 -5.41604e-10 1.00042e-13
  173 96.0088 -5.42059e-10 6.59118e-14
  174 96.0088 -5.41453e-10 -4.39573e-14
  175 96.0088 -5.41907e-10 -3.01444e-15
  176 96.0088 -5.41453e-10 9.69394e-17
  177 96.0088 -5.41149e-10 -4.20631e-14
  178 96.0088 -5.42059e-10 1.16281e-13
  179 96.0088 -5.41149e-10 -4.72819e-14
  180 96.0088 -5.42059e-10 5.02881e-14
  181 96.0088 -5.41453e-10 -2.07255e-13
  182 96.0088 -5.41695e-10 -5.37395e-14
  183 96.0088 -5.42059e-10 1.06778e-13
  184 96.0088 -5.41149e-10 4.88103e-14
  185 96.0088 -5.41604e-10 -4.44428e-14
  186 96.0088 -5.42059e-10 8.11290e-14
  187 96.0088 -5.41149e-10 -7.56847e-14
  188 96.0088 -5.41513e-10 -2.46022e-13
  189 96.0088 -5.41695e-10 -1.69255e-13
  190 96.0088 -5.42059e-10 1.19795e-13
  191 96.0088 -5.41907e-10 1.79072e-13
  192 96.0088 -5.41149e-10 -1.57171e-13
  193 96.0088 -5.41149e-10 8.95835e-16
  194 96.0088 -5.41604e-10 -1.12386e-13
  195 96.0088 -5.41604e-10 -1.33178e-14
  196 96.0088 -5.41149e-10 -2.11317e-15
  197 96.0088 -5.41604e-10 4.98317e-14
  198 96.0088 -5.41604e-10 1.03589e-13
  199 96.0088 -5.42059e-10 2.69980e-14
  200 96.0088 -5.41453e-10 1.73198e-13
  201 96.0088 -5.41149e-10 1.82374e-13
  202 96.0088 -5.41513e-10 -2.33384e-13
  203 96.0088 -5.41149e-10 -1.84407e-13
  204 96.0088 -5.41604e-10 3.60843e-14
  205 96.0088 -5.41604e-10 -5.41453e-14
  206 96.0088 -5.41331e-10 4.62682e-14
  207 96.0088 -5.42059e-10 5.26477e-15
  208 96.0088 -5.41149e-10 7.79541e-14
  209 96.0088 -5.41604e-10 -4.74019e-14
  210 96.0088 -5.42059e-10 9.28564e-15
  211 96.0088 -5.41929e-10 -4.36150e-14
  212 96.0088 -5.42059e-10 -1.73899e-13
  213 96.0088 -5.42059e-10 -2.85857e-14
  214 96.0088 -5.42059e-10 9.14284e-14
  215 96.0088 -5.41331e-10 4.92209e-14
  216 96.0088 -5.42059e-10 1.09854e-13
  217 96.0088 -5.41149e-10 3.53305e-14
  218 96.0088 -5.42059e-10 2.94065e-14
  219 96.0088 -5.41513e-10 -1.00982e-13
  220 96.0088 -5.42059e-10 3.23653e-14
  221 96.0088 -5.41604e-10 -1.53210e-13
  222 96.0088 -5.41453e-10 -2.75427e-13
  223 96.0088 -5.41695e-10 -7.86851e-14
  224 96.0088 -5.41695e-10 -1.64596e-13
  225 96.0088 -5.41149e-10 1.76179e-13
  226 96.0088 -5.41877e-10 7.00275e-14
  227 96.0088 -5.41756e-10 -5.00347e-14
  228 96.0088 -5.41513e-10 -2.77850e-14
  229 96.0088 -5.41604e-10 4.69187e-14
  230 96.0088 -5.41149e-10 1.66833e-13
  231 96.0088 -5.41513e-10 -1.57839e-13
  232 96.0088 -5.42059e-10 -9.77991e-15
  233 96.0088 -5.41331e-10 -3.86032e-13
  234 96.0088 -5.42059e-10 1.00549e-13
  235 96.0088 -5.41331e-10 -1.15975e-13
  236 96.0088 -5.41799e-10 -5.80906e-15
  237 96.0088 -5.41149e-10 2.46201e-13
  238 96.0088 -5.41149e-10 -1.12001e-13
  239 96.0088 -5.41756e-10 -5.91096e-14
  240 96.0088 -5.41877e-10 8.85232e-14
  241 96.0088 -5.41453e-10 -4.48887e-14
</Section>

newXOutput 7

<Section columns = "stress_xx | stress_yy | stress_xy">
  1 114.961 -5.42059e-10 3.90882e-13
  2 114.961 -5.41149e-10 -1.30622e-13
  3 114.961 -5.42968e-10 -3.53451e-13
  4 114.961 -5.42059e-10 -2.04674e-14
  5 114.961 -5.42059e-10 4.73133e-13
  6 114.961 -5.42059e-10 3.01286e-13
  7 114.961 -5.42059e-10 1.20147e-13
  8 114.961 -5.42665e-10 -9.78136e-14
  9 114.961 -5.42362e-10 -3.33666e-13
  10 114.961 -5.42059e-10 -2.88750e-14
  11 114.961 -5.42968e-10 1.84895e-13
  12 114.961 -5.42362e-10 5.26343e-13
  13 114.961 -5.41831e-10 1.20120e-13
  14 114.961 -5.42968e-10 2.06087e-13
  15 114.961 -5.43423e-10 6.09190e-14
  16 114.961 -5.41756e-10 2.41385e-13
  17 114.961 -5.43878e-10 -1.32599e-15
  18 114.961 -5.43272e-10 -3.21682e-13
  19 114.961 -5.41756e-10 -1.45892e-13
  20 114.961 -5.41453e-10 -2.28496e-14
  21 114.961 -5.42059e-10 4.44952e-13
  22 114.961 -5.42968e-10 2.21187e-13
  23 114.961 -5.43575e-10 1.68344e-13
  24 114.961 -5.41453e-10 1.31115e-14
  25 114.961 -5.41604e-10 2.66017e-13
  26 114.961 -5.42514e-10 2.27790e-14
  27 114.961 -5.42665e-10 -2.58551e-13
  28 114.961 -5.42514e-10 1.71014e-13
  29 114.961 -5.42514e-10 2.91595e-13
  30 114.961 -5.43878e-10 1.94927e-13
  31 114.961 -5.41149e-10 -3.36695e-13
  32 114.961 -5.41149e-10 3.21612e-13
  33 114.961 -5.42059e-10 8.51368e-14
  34 114.961 -5.42362e-10 -3.64141e-13
  35 114.961 -5.41149e-10 7.90662e-14
  36 114.961 -5.41756e-10 1.62172e-13
  37 114.961 -5.41149e-10 5.41137e-14
  38 114.961 -5.41756e-10 -2.21730e-13
  39 114.961 -5.42362e-10 -9.67286e-14
  40 114.961 -5.43272e-10 5.07949e-14
  41 114.961 -5.41453e-10 2.05944e-13
  42 114.961 -5.41149e-10 7.61238e-14
  43 114.961 -5.41756e-10 -1.12263e-13
  44 114.961 -5.41453e-10 7.41334e-14
  45 114.961 -5.42059e-10 -7.08992e-15
  46 114.961 -5.42059e-10 -1.13440e-13
  47 114.961 -5.42059e-10 -7.34526e-14
  48 114.961 -5.42059e-10 -3.19824e-14
  49 114.961 -5.42059e-10 -2.49926e-14
  50 114.961 -5.42059e-10 1.90228e-14
  51 114.961 -5.42059e-10 -2.81364e-14
  52 114.961 -5.42059e-10 2.33741e-14
  53 114.961 -5.42968e-10 1.05990e-13
  54 114.961 -5.43423e-10 -2.36283e-14
  55 114.961 -5.42968e-10 -1.94397e-13
  56 114.961 -5.42362e-10 -1.95190e-13
  57 114.961 -5.41604e-10 1.72811e-13
  58 114.961 -5.42059e-10 5.00412e-14
  59 114.961 -5.41539e-10 -5.22084e-14
  60 114.961 -5.42665e-10 -6.52777e-14
  61 114.961 -5.41907e-10 -1.50443e-13
  62 114.961 -5.42210e-10 -1.08622e-13
  63 114.961 -5.42968e-10 -1.07883e-14
  64 114.961 -5.42059e-10 -2.30715e-13
  65 114.961 -5.41907e-10 7.63992e-14
  66 114.961 -5.42059e-10 -1.04152e-13
  67 114.961 -5.41149e-10 1.78429e-13
  68 114.961 -5.41907e-10 2.62866e-13
  69 114.961 -5.42189e-10 -1.45135e-13
  70 114.961 -5.42514e-10 -1.91894e-13
  71 114.961 -5.41907e-10 -8.62161e-14
  72 114.961 -5.42968e-10 1.22451e-14
  73 114.961 -5.43098e-10 -9.80508e-14
  74 114.961 -5.41513e-10 3.68296e-14
  75 114.961 -5.42059e-10 -2.88337e-14
  76 114.961 -5.42665e-10 1.21926e-14
  77 114.961 -5.42059e-10 6.43446e-14
  78 114.961 -5.41756e-10 3.56138e-13
  79 114.961 -5.41669e-10 -5.32841e-14
  80 114.961 -5.41604e-10 -1.31051e-13
  81 114.961 -5.42514e-10 2.95725e-13
  82 114.961 -5.42514e-10 -6.92011e-14
  83 114.961 -5.41756e-10 6.61534e-14
  84 114.961 -5.41756e-10 -1.27176e-13
  85 114.961 -5.42514e-10 4.58756e-14
  86 114.961 -5.43423e-10 7.11080e-14
  87 114.961 -5.41907e-10 -1.76226e-13
  88 114.961 -5.41513e-10 -3.29372e-13
  89 114.961 -5.42241e-10 -1.99931e-13
  90 114.961 -5.42059e-10 2.64974e-14
  91 114.961 -5.41695e-10 -5.83630e-14
  92 114.961 -5.42059e-10 -1.81725e-15
  93 114.961 -5.41877e-10 -3.84646e-13
  94 114.961 -5.42605e-10 1.58774e-13
  95 114.961 -5.42605e-10 -1.26181e-13
  96 114.961 -5.43423e-10 1.76918e-14
  97 114.961 -5.41695e-10 -1.04701e-13
  98 114.961 -5.41695e-10 -6.12659e-14
  99 114.961 -5.42665e-10 7.50303e-14
  100 114.961 -5.41513e-10 5.73468e-14
  101 114.961 -5.42362e-10 3.16482e-13
  102 114.961 -5.43696e-10 1.37535e-13
  103 114.961 -5.42362e-10 6.23737e-14
  104 114.961 -5.41331e-10 8.18314e-14
  105 114.961 -5.42241e-10 -3.45531e-14
  106 114.961 -5.41604e-10 2.38742e-13
  107 114.961 -5.42362e-10 2.21395e-14
  108 114.961 -5.42059e-10 4.91953e-14
  109 114.961 -5.41877e-10 7.95178e-14
  110 114.961 -5.41877e-10 1.60661e-13
  111 114.961 -5.41377e-10 -4.45849e-14
  112 114.961 -5.42210e-10 -2.42471e-13
  113 114.961 -5.41929e-10 -1.74376e-13
  114 114.961 -5.41539e-10 6.54627e-14
  115 114.961 -5.42665e-10 -2.96056e-13
  116 114.961 -5.41695e-10 -1.47206e-14
  117 114.961 -5.42059e-10 -6.43202e-14
  118 114.961 -5.41604e-10 6.61940e-14
  119 114.961 -5.42189e-10 1.55477e-13
  120 114.961 -5.41756e-10 1.89427e-13
  121 114.961 -5.41409e-10 1.87531e-13
  122 114.961 -5.42579e-10 -9.55364e-14
  123 114.961 -5.42210e-10 -1.46416e-13
  124 114.961 -5.42968e-10 4.88830e-14
  125 114.961 -5.42173e-10 2.38672e-14
  126 114.961 -5.42059e-10 -1.38755e-13
  127 114.961 -5.42968e-10 6.04465e-14
  128 114.961 -5.41490e-10 -2.59390e-13
  129 114.961 -5.42059e-10 -4.61927e-14
  130 114.961 -5.42059e-10 -1.65043e-13
  131 114.961 -5.42665e-10 2.22363e-13
  132 114.961 -5.41377e-10 9.00012e-14
  133 114.961 -5.43488e-10 -1.63840e-13
  134 114.961 -5.41669e-10 6.95490e-14
  135 114.961 -5.41929e-10 2.60527e-13
  136 114.961 -5.41669e-10 -1.38294e-13
  137 114.961 -5.42449e-10 1.59628e-13
  138 114.961 -5.41604e-10 -6.17624e-14
  139 114.961 -5.41929e-10 7.37430e-14
  140 114.961 -5.41409e-10 9.99551e-14
  141 114.961 -5.41756e-10 -2.23922e-13
  142 114.961 -5.41907e-10 -8.03118e-14
  143 114.961 -5.41669e-10 7.72044e-14
  144 114.961 -5.42241e-10 -1.13277e-13
  145 114.961 -5.42605e-10 -1.01414e-13
  146 114.961 -5.41929e-10 -2.49561e-14
  147 114.961 -5.42665e-10 3.68797e-14
  148 114.961 -5.42514e-10 2.24738e-13
  149 114.961 -5.42817e-10 1.86485e-14
  150 114.961 -5.41453e-10 -3.27834e-14
  151 114.961 -5.42968e-10 -2.51794e-13
  152 114.961 -5.42968e-10 2.49884e-14
  153 114.961 -5.42514e-10 9.70515e-14
  154 114.961 -5.41513e-10 7.23136e-14
  155 114.961 -5.42210e-10 -1.49760e-14
  156 114.961 -5.41799e-10 -3.63127e-13
  157 114.961 -5.42059e-10 9.45848e-14
  158 114.961 -5.42210e-10 3.08126e-14
  159 114.961 -5.42968e-10 4.45208e-14
  160 114.961 -5.42059e-10 7.58721e-14
  161 114.961 -5.43150e-10 -2.30457e-13
  162 114.961 -5.42210e-10 1.95154e-14
  163 114.961 -5.42514e-10 -1.93961e-13
  164 114.961 -5.43228e-10 1.07344e-13
  165 114.961 -5.41756e-10 9.19643e-14
  166 114.961 -5.42059e-10 3.88681e-14
  167 114.961 -5.43098e-10 2.60576e-14
  168 114.961 -5.42449e-10 8.16930e-14
  169 114.961 -5.42189e-10 -2.56510e-13
  170 114.961 -5.41695e-10 3.95637e-13
  171 114.961 -5.41929e-10 2.57590e-13
  172 114.961 -5.42514e-10 -2.94246e-14
  173 114.961 -5.41756e-10 -5.18129e-16
  174 114.961 -5.43120e-10 2.74349e-14
  175 114.961 -5.42059e-10 -3.11849e-14
  176 114.961 -5.42514e-10 -1.05558e-13
  177 114.961 -5.42665e-10 -2.97207e-13
  178 114.961 -5.41604e-10 1.54897e-13
  179 114.961 -5.42241e-10 -1.46779e-13
  180 114.961 -5.41539e-10 9.93863e-14
  181 114.961 -5.42514e-10 1.06423e-13
  182 114.961 -5.41513e-10 -8.89340e-14
  183 114.961 -5.41907e-10 -6.42813e-14
  184 114.961 -5.42423e-10 1.56233e-13
  185 114.961 -5.42210e-10 -9.12725e-14
  186 114.961 -5.42605e-10 2.45554e-14
  187 114.961 -5.41301e-10 -2.48228e-13
  188 114.961 -5.41331e-10 -1.81544e-13
  189 114.961 -5.41695e-10 5.09792e-14
  190 114.961 -5.41669e-10 -3.62428e-14
  191 114.961 -5.42362e-10 -1.27846e-14
  192 114.961 -5.43228e-10 7.60616e-14
  193 114.961 -5.41877e-10 6.73022e-14
  194 114.961 -5.42968e-10 -2.36542e-13
  195 114.961 -5.42059e-10 7.29579e-14
  196 114.961 -5.41149e-10 -4.77658e-14
  197 114.961 -5.41149e-10 -5.94687e-14
  198 114.961 -5.42362e-10 -4.97356e-14
  199 114.961 -5.42059e-10 5.31202e-14
  200 114.961 -5.42210e-10 -2.32951e-14
  201 114.961 -5.41756e-10 -5.16506e-14
  202 114.961 -5.43514e-10 -1.08989e-14
  203 114.961 -5.41604e-10 8.87219e-14
  204 114.961 -5.42362e-10 1.66311e-13
  205 114.961 -5.41604e-10 1.79855e-13
  206 114.961 -5.41513e-10 9.03324e-14
  207 114.961 -5.41877e-10 -7.75139e-14
  208 114.961 -5.41877e-10 1.59744e-14
  209 114.961 -5.42059e-10 -4.18041e-14
  210 114.961 -5.41756e-10 -9.69919e-14
  211 114.961 -5.42449e-10 7.64469e-14
  212 114.961 -5.43696e-10 3.21152e-13
  213 114.961 -5.42059e-10 -1.75828e-13
  214 114.961 -5.41756e-10 -1.39109e-13
  215 114.961 -5.43150e-10 -8.53412e-14
  216 114.961 -5.42241e-10 -1.24182e-14
  217 114.961 -5.41907e-10 -1.37266e-13
  218 114.961 -5.41756e-10 5.88568e-15
  219 114.961 -5.41877e-10 1.22191e-13
  220 114.961 -5.41756e-10 -1.57991e-13
  221 114.961 -5.41907e-10 2.36345e-13
  222 114.961 -5.41756e-10 -1.43540e-13
  223 114.961 -5.41877e-10 3.17460e-14
  224 114.961 -5.42059e-10 -9.37312e-14
  225 114.961 -5.42423e-10 1.81950e-14
  226 114.961 -5.41877e-10 -3.01660e-14
  227 114.961 -5.41453e-10 3.76582e-13
  228 114.961 -5.41695e-10 5.15381e-14
  229 114.961 -5.41453e-10 2.13488e-13
  230 114.961 -5.41604e-10 1.75748e-13
  231 114.961 -5.42786e-10 1.16877e-13
  232 114.961 -5.42059e-10 8.69685e-14
  233 114.961 -5.42059e-10 -5.61672e-13
  234 114.961 -5.42362e-10 -1.48250e-13
  235 114.961 -5.42423e-10 8.52163e-14
  236 114.961 -5.41929e-10 -4.01593e-14
  237 114.961 -5.43696e-10 1.02690e-13
  238 114.961 -5.42605e-10 -4.08869e-13
  239 114.961 -5.42968e-10 7.32847e-14
  240 114.961 -5.41695e-10 5.29733e-13
  241 114.961 -5.42210e-10 1.76908e-13
</Section>

newXOutput 8

<Section columns = "stress_xx | stress_yy | stress_xy">
  1 133.832 -5.38421e-10 6.62573e-14
  2 133.832 -5.37057e-10 2.04972e-13
  3 133.832 -5.37057e-10 -2.28665e-13
  4 133.832 -5.38876e-10 -4.27664e-15
  5 133.832 -5.38421e-10 3.11470e-14
  6 133.832 -5.38421e-10 6.35285e-14
  7 133.832 -5.37057e-10 1.90113e-14
  8 133.832 -5.36602e-10 -1.47603e-14
  9 133.832 -5.35692e-10 -5.16226e-14
  10 133.832 -5.35692e-10 -1.76828e-13
  11 133.832 -5.35692e-10 1.28149e-13
  12 133.832 -5.35692e-10 9.14738e-14
  13 133.832 -5.37057e-10 8.61991e-14
  14 133.832 -5.36602e-10 -5.74984e-14
  15 133.832 -5.37057e-10 4.69278e-14
  16 133.832 -5.35692e-10 1.31698e-13
  17 133.832 -5.36602e-10 -8.16187e-14
  18 133.832 -5.37511e-10 1.97875e-14
  19 133.832 -5.38421e-10 2.65878e-13
  20 133.832 -5.38724e-10 2.42072e-13
  21 133.832 -5.38724e-10 3.38214e-13
  22 133.832 -5.36602e-10 -1.64780e-13
  23 133.832 -5.35692e-10 -7.72734e-15
  24 133.832 -5.36602e-10 -3.46250e-14
  25 133.832 -5.37057e-10 -1.02023e-14
  26 133.832 -5.37739e-10 1.43470e-14
  27 133.832 -5.36602e-10 -3.86429e-14
  28 133.832 -5.37057e-10 -4.75166e-15
  29 133.832 -5.37057e-10 2.34654e-13
  30 133.832 -5.36602e-10 6.60617e-14
  31 133.832 -5.37511e-10 4.42335e-14
  32 133.832 -5.35692e-10 1.38049e-13
  33 133.832 -5.35692e-10 1.61125e-13
  34 133.832 -5.35692e-10 -1.86001e-14
  35 133.832 -5.37057e-10 9.96408e-14
  36 133.832 -5.35692e-10 1.66248e-13
  37 133.832 -5.35692e-10 -9.99476e-15
  38 133.832 -5.35692e-10 4.16927e-14
  39 133.832 -5.35692e-10 3.68325e-15
  40 133.832 -5.35692e-10 -6.96869e-14
  41 133.832 -5.37511e-10 1.95355e-13
  42 133.832 -5.37511e-10 -1.48433e-13
  43 133.832 -5.35692e-10 -1.29978e-13
  44 133.832 -5.37511e-10 3.09239e-13
  45 133.832 -5.38421e-10 2.44837e-13
  46 133.832 -5.37815e-10 -1.38042e-13
  47 133.832 -5.38421e-10 -9.47746e-14
  48 133.832 -5.38724e-10 -6.53873e-14
  49 133.832 -5.38724e-10 -9.67854e-15
  50 133.832 -5.38421e-10 2.04625e-14
  51 133.832 -5.37057e-10 2.29553e-14
  52 133.832 -5.37739e-10 3.35933e-14
  53 133.832 -5.38421e-10 6.73212e-14
  54 133.832 -5.37057e-10 1.68114e-14
  55 133.832 -5.35692e-10 8.16187e-14
  56 133.832 -5.36602e-10 7.08362e-14
  57 133.832 -5.37057e-10 -1.16776e-13
  58 133.832 -5.38421e-10 1.04244e-13
  59 133.832 -5.37252e-10 -6.32233e-14
  60 133.832 -5.37966e-10 -5.47667e-14
  61 133.832 -5.37057e-10 -5.33149e-14
  62 133.832 -5.36602e-10 -8.17211e-14
  63 133.832 -5.37329e-10 2.36320e-13
  64 133.832 -5.38421e-10 -2.21006e-13
  65 133.832 -5.37966e-10 -1.18777e-13
  66 133.832 -5.35844e-10 1.14162e-13
  67 133.832 -5.37057e-10 4.80761e-14
  68 133.832 -5.36602e-10 -1.38540e-13
  69 133.832 -5.35692e-10 -4.56726e-14
  70 133.832 -5.36375e-10 6.97267e-14
  71 133.832 -5.35692e-10 7.98923e-14
  72 133.832 -5.37381e-10 -1.07663e-14
  73 133.832 -5.37641e-10 -3.28243e-14
  74 133.832 -5.36784e-10 -1.86393e-13
  75 133.832 -5.36784e-10 1.35100e-13
  76 133.832 -5.37057e-10 -1.02020e-13
  77 133.832 -5.38421e-10 -3.38849e-14
  78 133.832 -5.36602e-10 -1.80033e-14
  79 133.832 -5.38421e-10 -6.57340e-14
  80 133.832 -5.37966e-10 8.69529e-14
  81 133.832 -5.37057e-10 -1.46114e-13
  82 133.832 -5.35692e-10 7.21697e-14
  83 133.832 -5.37511e-10 -7.56626e-14
  84 133.832 -5.36147e-10 1.49517e-13
  85 133.832 -5.38421e-10 -4.70307e-14
  86 133.832 -5.36905e-10 6.30494e-14
  87 133.832 -5.38421e-10 -6.12220e-14
  88 133.832 -5.36238e-10 -9.00061e-14
  89 133.832 -5.36784e-10 -1.07895e-14
  90 133.832 -5.37057e-10 3.98770e-14
  91 133.832 -5.37148e-10 -1.79847e-13
  92 133.832 -5.38421e-10 4.75073e-14
  93 133.832 -5.37329e-10 -7.32235e-14
  94 133.832 -5.36784e-10 1.15890e-13
  95 133.832 -5.36784e-10 3.92217e-13
  96 133.832 -5.36602e-10 -8.05733e-14
  97 133.832 -5.37329e-10 -9.34874e-14
  98 133.832 -5.38603e-10 -5.55494e-14
  99 133.832 -5.37511e-10 -1.19254e-13
  100 133.832 -5.35692e-10 3.55017e-14
  101 133.832 -5.37511e-10 -4.38968e-14
  102 133.832 -5.37329e-10 1.23826e-14
  103 133.832 -5.37057e-10 -2.63738e-14
  104 133.832 -5.35692e-10 9.38856e-14
  105 133.832 -5.36784e-10 1.58591e-13
  106 133.832 -5.36147e-10 5.80069e-14
  107 133.832 -5.38421e-10 8.49990e-14
  108 133.832 -5.38421e-10 -2.94688e-14
  109 133.832 -5.36238e-10 -5.61351e-14
  110 133.832 -5.37329e-10 -7.31772e-14
  111 133.832 -5.36033e-10 -1.86306e-14
  112 133.832 -5.37057e-10 -7.80296e-14
  113 133.832 -5.35692e-10 -2.73093e-14
  114 133.832 -5.35692e-10 4.07345e-14
  115 133.832 -5.37057e-10 -1.44040e-13
  116 133.832 -5.36784e-10 1.01279e-13
  117 133.832 -5.37511e-10 -9.81172e-14
  118 133.832 -5.37057e-10 -1.40516e-13
  119 133.832 -5.38421e-10 -2.66300e-14
  120 133.832 -5.37057e-10 -6.53938e-14
  121 133.832 -5.36862e-10 -4.19773e-14
  122 133.832 -5.37252e-10 2.32714e-14
  123 133.832 -5.36147e-10 5.67221e-14
  124 133.832 -5.36862e-10 4.23074e-15
  125 133.832 -5.36716e-10 8.49888e-14
  126 133.832 -5.35692e-10 1.21408e-13
  127 133.832 -5.36472e-10 3.43344e-14
  128 133.832 -5.37057e-10 4.72741e-15
  129 133.832 -5.38080e-10 -7.20617e-14
  130 133.832 -5.37511e-10 1.96533e-14
  131 133.832 -5.37208e-10 3.70919e-14
  132 133.832 -5.38080e-10 1.68570e-14
  133 133.832 -5.37641e-10 -1.02354e-14
  134 133.832 -5.36862e-10 -1.08195e-13
  135 133.832 -5.36992e-10 6.05501e-14
  136 133.832 -5.38811e-10 -6.95291e-14
  137 133.832 -5.35692e-10 7.35351e-15
  138 133.832 -5.38421e-10 -5.74510e-14
  139 133.832 -5.37252e-10 9.93977e-14
  140 133.832 -5.38031e-10 -6.22886e-14
  141 133.832 -5.37057e-10 7.24143e-14
  142 133.832 -5.36147e-10 6.80990e-14
  143 133.832 -5.36862e-10 -9.97987e-14
  144 133.832 -5.36238e-10 6.28299e-14
  145 133.832 -5.36238e-10 8.65734e-16
  146 133.832 -5.36082e-10 1.16266e-13
  147 133.832 -5.35692e-10 2.05550e-14
  148 133.832 -5.37511e-10 1.50921e-14
  149 133.832 -5.37057e-10 -1.56354e-13
  150 133.832 -5.36147e-10 -8.69602e-14
  151 133.832 -5.37057e-10 -1.21512e-13
  152 133.832 -5.37511e-10 3.99013e-14
  153 133.832 -5.37057e-10 1.65615e-14
  154 133.832 -5.37329e-10 5.13820e-14
  155 133.832 -5.36147e-10 -8.92012e-14
  156 133.832 -5.38031e-10 -9.60916e-14
  157 133.832 -5.38421e-10 -3.88967e-14
  158 133.832 -5.37057e-10 -1.93145e-13
  159 133.832 -5.37057e-10 -1.24938e-13
  160 133.832 -5.38421e-10 6.55817e-15
  161 133.832 -5.36784e-10 -5.55536e-14
  162 133.832 -5.37511e-10 1.78709e-14
  163 133.832 -5.37966e-10 3.40865e-14
  164 133.832 -5.37252e-10 7.75452e-14
  165 133.832 -5.35692e-10 4.01071e-14
  166 133.832 -5.38031e-10 -5.61332e-15
  167 133.832 -5.37252e-10 -2.55882e-14
  168 133.832 -5.36082e-10 1.23859e-13
  169 133.832 -5.36082e-10 -1.64014e-14
  170 133.832 -5.35692e-10 9.04277e-14
  171 133.832 -5.36862e-10 6.81142e-14
  172 133.832 -5.36602e-10 -1.60526e-13
  173 133.832 -5.37208e-10 5.48404e-14
  174 133.832 -5.36147e-10 -4.31462e-14
  175 133.832 -5.38572e-10 2.73602e-16
  176 133.832 -5.37511e-10 -1.99314e-14
  177 133.832 -5.36602e-10 -3.19051e-14
  178 133.832 -5.37511e-10 -7.88127e-14
  179 133.832 -5.36238e-10 6.19083e-14
  180 133.832 -5.36472e-10 4.41403e-14
  181 133.832 -5.37511e-10 1.92837e-14
  182 133.832 -5.35692e-10 -1.84658e-14
  183 133.832 -5.37511e-10 3.17191e-14
  184 133.832 -5.36784e-10 -4.40108e-14
  185 133.832 -5.35692e-10 -2.38079e-14
  186 133.832 -5.36784e-10 -7.89458e-14
  187 133.832 -5.36602e-10 -3.65850e-14
  188 133.832 -5.37875e-10 -2.42966e-13
  189 133.832 -5.36784e-10 1.29014e-15
  190 133.832 -5.36732e-10 -1.59105e-13
  191 133.832 -5.36602e-10 1.55574e-14
  192 133.832 -5.36862e-10 1.53331e-13
  193 133.832 -5.36238e-10 6.34172e-14
  194 133.832 -5.38572e-10 6.63538e-14
  195 133.832 -5.38421e-10 -3.68610e-14
  196 133.832 -5.36602e-10 6.24525e-14
  197 133.832 -5.35844e-10 5.80680e-14
  198 133.832 -5.37057e-10 8.28562e-14
  199 133.832 -5.37966e-10 1.53846e-14
  200 133.832 -5.38421e-10 6.85379e-14
  201 133.832 -5.37057e-10 8.38935e-15
  202 133.832 -5.36784e-10 4.42422e-14
  203 133.832 -5.37966e-10 -1.91537e-13
  204 133.832 -5.37057e-10 -5.82818e-15
  205 133.832 -5.35692e-10 4.28270e-14
  206 133.832 -5.38603e-10 9.03360e-14
  207 133.832 -5.38421e-10 -1.39664e-13
  208 133.832 -5.37329e-10 -9.31949e-14
  209 133.832 -5.37815e-10 6.44991e-14
  210 133.832 -5.38421e-10 -6.37368e-14
  211 133.832 -5.38031e-10 4.95954e-16
  212 133.832 -5.35692e-10 -1.17996e-13
  213 133.832 -5.38421e-10 -8.28397e-14
  214 133.832 -5.36602e-10 -2.62763e-14
  215 133.832 -5.37329e-10 3.42591e-14
  216 133.832 -5.37329e-10 1.93397e-13
  217 133.832 -5.37511e-10 -1.20801e-13
  218 133.832 -5.37511e-10 -9.21831e-14
  219 133.832 -5.37875e-10 8.98963e-14
  220 133.832 -5.37208e-10 -7.43978e-14
  221 133.832 -5.37057e-10 -9.02340e-14
  222 133.832 -5.37057e-10 6.30494e-14
  223 133.832 -5.36784e-10 9.40870e-14
  224 133.832 -5.35692e-10 5.47710e-15
  225 133.832 -5.36238e-10 4.15537e-14
  226 133.832 -5.35692e-10 1.03483e-13
  227 133.832 -5.37511e-10 -8.56351e-14
  228 133.832 -5.36784e-10 1.62819e-13
  229 133.832 -5.36753e-10 1.22282e-13
  230 133.832 -5.37511e-10 -1.08195e-14
  231 133.832 -5.36238e-10 1.25579e-13
  232 133.832 -5.38421e-10 -6.20261e-14
  233 133.832 -5.36784e-10 -1.83870e-13
  234 133.832 -5.37057e-10 2.32242e-13
  235 133.832 -5.36238e-10 1.17530e-13
  236 133.832 -5.36862e-10 6.16404e-14
  237 133.832 -5.37511e-10 -9.82743e-14
  238 133.832 -5.36784e-10 -1.53905e-14
  239 133.832 -5.37966e-10 4.30513e-14
  240 133.832 -5.35692e-10 1.61405e-13
  241 133.832 -5.37511e-10 5.14746e-14
</Section>

newXOutput 9

<Section columns = "stress_xx | stress_yy | stress_xy">
  1 152.621 -5.34783e-10 6.09084e-14
  2 152.621 -5.34783e-10 -2.85910e-13
  3 152.621 -5.34783e-10 -2.11953e-13
  4 152.621 -5.36602e-10 3.43251e-13
  5 152.621 -5.34783e-10 2.04347e-14
  6 152.621 -5.34783e-10 -2.92010e-14
  7 152.621 -5.34783e-10 -2.92670e-14
  8 152.621 -5.34783e-10 -5.44339e-14
  9 152.621 -5.34783e-10 -1.49737e-13
  10 152.621 -5.34783e-10 -1.31677e-13
  11 152.621 -5.34783e-10 1.75881e-16
  12 152.621 -5.34783e-10 1.18882e-14
  13 152.621 -5.34783e-10 3.30924e-14
  14 152.621 -5.34783e-10 -9.49515e-14
  15 152.621 -5.34783e-10 3.56028e-14
  16 152.621 -5.34783e-10 2.37632e-13
  17 152.621 -5.34783e-10 3.70771e-14
  18 152.621 -5.34783e-10 -9.31927e-14
  19 152.621 -5.34783e-10 -5.02344e-15
  20 152.621 -5.35086e-10 1.17057e-13
  21 152.621 -5.34783e-10 1.64533e-13
  22 152.621 -5.34783e-10 1.08164e-13
  23 152.621 -5.34783e-10 -1.71491e-13
  24 152.621 -5.34783e-10 1.49716e-14
  25 152.621 -5.34783e-10 0.00000
  26 152.621 -5.34783e-10 2.97828e-14
  27 152.621 -5.34783e-10 3.25042e-14
  28 152.621 -5.34783e-10 5.43706e-14
  29 152.621 -5.34783e-10 1.27167e-13
  30 152.621 -5.34783e-10 1.25725e-14
  31 152.621 -5.34783e-10 2.33829e-14
  32 152.621 -5.36147e-10 1.79185e-13
  33 152.621 -5.35465e-10 1.07981e-13
  34 152.621 -5.34783e-10 -3.67719e-14
  35 152.621 -5.34783e-10 -4.91214e-14
  36 152.621 -5.34783e-10 1.13227e-13
  37 152.621 -5.34783e-10 9.51232e-14
  38 152.621 -5.34783e-10 1.75510e-13
  39 152.621 -5.34783e-10 4.86422e-15
  40 152.621 -5.34783e-10 -1.40017e-13
  41 152.621 -5.34783e-10 7.25182e-14
  42 152.621 -5.34783e-10 -1.22439e-13
  43 152.621 -5.34783e-10 -1.71593e-13
  44 152.621 -5.34783e-10 3.71645e-14
  45 152.621 -5.34783e-10 9.53230e-14
  46 152.621 -5.34783e-10 2.76261e-14
  47 152.621 -5.34783e-10 1.42459e-13
  48 152.621 -5.34783e-10 2.09575e-14
  49 152.621 -5.34783e-10 1.39171e-13
  50 152.621 -5.35996e-10 4.37865e-14
  51 152.621 -5.34783e-10 -1.57687e-13
  52 152.621 -5.34783e-10 -1.42208e-13
  53 152.621 -5.34783e-10 -5.13945e-14
  54 152.621 -5.34783e-10 -2.62671e-14
  55 152.621 -5.34783e-10 8.13870e-14
  56 152.621 -5.34783e-10 4.83235e-14
  57 152.621 -5.34783e-10 -1.05489e-13
  58 152.621 -5.34783e-10 1.39841e-13
  59 152.621 -5.34783e-10 1.10809e-14
  60 152.621 -5.34783e-10 -5.39028e-14
  61 152.621 -5.34783e-10 -4.34471e-14
  62 152.621 -5.34783e-10 7.26039e-14
  63 152.621 -5.34783e-10 -6.48902e-14
  64 152.621 -5.34783e-10 4.08378e-14
  65 152.621 -5.34783e-10 -6.80509e-14
  66 152.621 -5.34783e-10 3.22686e-14
  67 152.621 -5.34783e-10 -8.66293e-14
  68 152.621 -5.34783e-10 5.83500e-14
  69 152.621 -5.34783e-10 -3.91371e-14
  70 152.621 -5.34783e-10 -1.18805e-14
  71 152.621 -5.34631e-10 -1.27845e-13
  72 152.621 -5.34783e-10 6.10212e-14
  73 152.621 -5.34783e-10 -8.77975e-14
  74 152.621 -5.34783e-10 7.84211e-14
  75 152.621 -5.34783e-10 1.01919e-13
  76 152.621 -5.34783e-10 -5.56651e-14
  77 152.621 -5.34783e-10 -2.88802e-14
  78 152.621 -5.34783e-10 1.03615e-15
  79 152.621 -5.34783e-10 -5.08021e-14
  80 152.621 -5.34783e-10 2.50165e-14
  81 152.621 -5.34783e-10 5.69120e-14
  82 152.621 -5.34783e-10 6.42796e-14
  83 152.621 -5.34783e-10 1.67569e-15
  84 152.621 -5.34783e-10 5.91002e-14
  85 152.621 -5.34783e-10 -7.13510e-14
  86 152.621 -5.34783e-10 3.40871e-14
  87 152.621 -5.34783e-10 -2.95841e-14
  88 152.621 -5.34783e-10 5.03203e-14
  89 152.621 -5.34783e-10 -5.70501e-14
  90 152.621 -5.34783e-10 -8.46462e-14
  91 152.621 -5.34783e-10 4.88405e-14
  92 152.621 -5.34783e-10 8.82561e-14
  93 152.621 -5.34783e-10 4.43259e-14
  94 152.621 -5.34783e-10 8.42701e-14
  95 152.621 -5.34783e-10 1.52476e-13
  96 152.621 -5.34783e-10 9.80136e-14
  97 152.621 -5.34783e-10 -3.02791e-13
  98 152.621 -5.34783e-10 7.34540e-14
  99 152.621 -5.35389e-10 -8.91771e-14
  100 152.621 -5.34783e-10 4.48684e-14
  101 152.621 -5.34783e-10 4.99601e-14
  102 152.621 -5.34783e-10 -9.39672e-15
  103 152.621 -5.34783e-10 -3.85582e-14
  104 152.621 -5.34783e-10 1.22447e-13
  105 152.621 -5.34783e-10 6.62833e-14
  106 152.621 -5.34783e-10 7.30199e-14
  107 152.621 -5.34783e-10 1.36006e-14
  108 152.621 -5.34783e-10 -5.87034e-14
  109 152.621 -5.34783e-10 -4.41973e-15
  110 152.621 -5.34783e-10 -5.80642e-14
  111 152.621 -5.34783e-10 5.65717e-14
  112 152.621 -5.34783e-10 -4.67102e-14
  113 152.621 -5.34783e-10 3.63344e-14
  114 152.621 -5.34783e-10 7.05895e-14
  115 152.621 -5.34783e-10 -7.81499e-14
  116 152.621 -5.34783e-10 -4.52410e-14
  117 152.621 -5.34783e-10 1.17057e-13
  118 152.621 -5.34783e-10 -1.30860e-13
  119 152.621 -5.34783e-10 3.95718e-14
  120 152.621 -5.34783e-10 -9.46156e-14
  121 152.621 -5.34783e-10 -5.66449e-14
  122 152.621 -5.34783e-10 -2.98140e-15
  123 152.621 -5.34783e-10 -2.85731e-14
  124 152.621 -5.34783e-10 6.81602e-14
  125 152.621 -5.34783e-10 8.66106e-14
  126 152.621 -5.34669e-10 -3.31176e-14
  127 152.621 -5.34783e-10 7.37765e-14
  128 152.621 -5.34897e-10 -1.29032e-13
  129 152.621 -5.34783e-10 1.49590e-13
  130 152.621 -5.34783e-10 9.16282e-15
  131 152.621 -5.34783e-10 1.75767e-13
  132 152.621 -5.34783e-10 5.27223e-15
  133 152.621 -5.34783e-10 8.75309e-15
  134 152.621 -5.34783e-10 -1.14334e-13
  135 152.621 -5.34783e-10 -5.18917e-15
  136 152.621 -5.34783e-10 -4.36382e-15
  137 152.621 -5.34783e-10 1.71638e-14
  138 152.621 -5.34783e-10 2.51477e-16
  139 152.621 -5.34783e-10 1.92138e-14
  140 152.621 -5.34783e-10 -2.73873e-14
  141 152.621 -5.34783e-10 -5.66440e-14
  142 152.621 -5.34783e-10 -6.49590e-14
  143 152.621 -5.34783e-10 -2.80469e-14
  144 152.621 -5.34783e-10 1.26203e-13
  145 152.621 -5.34783e-10 2.75522e-14
  146 152.621 -5.34783e-10 -3.23914e-15
  147 152.621 -5.34783e-10 -4.26729e-14
  148 152.621 -5.34783e-10 -4.13812e-14
  149 152.621 -5.34783e-10 -8.75922e-14
  150 152.621 -5.34783e-10 -9.28540e-14
  151 152.621 -5.34783e-10 6.65998e-15
  152 152.621 -5.34783e-10 2.53744e-14
  153 152.621 -5.34783e-10 -3.51918e-14
  154 152.621 -5.34783e-10 1.01109e-13
  155 152.621 -5.34783e-10 2.92673e-15
  156 152.621 -5.34783e-10 -4.13071e-14
  157 152.621 -5.34783e-10 1.37208e-14
  158 152.621 -5.34783e-10 1.33797e-14
  159 152.621 -5.34783e-10 8.47446e-14
  160 152.621 -5.34783e-10 -7.39219e-14
  161 152.621 -5.34783e-10 -5.42059e-14
  162 152.621 -5.34783e-10 -4.52395e-15
  163 152.621 -5.34783e-10 -2.71063e-14
  164 152.621 -5.34783e-10 -3.25464e-14
  165 152.621 -5.34783e-10 2.08709e-14
  166 152.621 -5.34783e-10 -4.99585e-14
  167 152.621 -5.34783e-10 4.64412e-14
  168 152.621 -5.34783e-10 7.71778e-14
  169 152.621 -5.34783e-10 -2.33606e-15
  170 152.621 -5.34783e-10 -9.93825e-14
  171 152.621 -5.34783e-10 -4.26768e-14
  172 152.621 -5.34783e-10 -6.69431e-14
  173 152.621 -5.34783e-10 5.07565e-14
  174 152.621 -5.34783e-10 -8.79934e-14
  175 152.621 -5.35389e-10 2.06732e-13
  176 152.621 -5.34783e-10 -1.34484e-14
  177 152.621 -5.34783e-10 -5.86378e-14
  178 152.621 -5.34783e-10 4.61526e-14
  179 152.621 -5.34783e-10 5.01513e-14
  180 152.621 -5.34783e-10 5.54425e-14
  181 152.621 -5.34783e-10 8.32812e-14
  182 152.621 -5.34783e-10 6.61204e-14
  183 152.621 -5.34783e-10 1.24810e-13
  184 152.621 -5.34783e-10 5.78614e-14
  185 152.621 -5.34783e-10 1.00628e-14
  186 152.621 -5.34783e-10 -1.83912e-14
  187 152.621 -5.35238e-10 -6.72560e-15
  188 152.621 -5.34783e-10 -6.85047e-14
  189 152.621 -5.34783e-10 1.39826e-15
  190 152.621 -5.34783e-10 1.26393e-13
  191 152.621 -5.34783e-10 8.81089e-14
  192 152.621 -5.34783e-10 -1.13298e-14
  193 152.621 -5.34783e-10 2.70416e-14
  194 152.621 -5.34783e-10 -5.96085e-14
  195 152.621 -5.34783e-10 2.90231e-14
  196 152.621 -5.34783e-10 5.81091e-14
  197 152.621 -5.34783e-10 7.24008e-14
  198 152.621 -5.34783e-10 -1.72441e-14
  199 152.621 -5.34783e-10 -5.06690e-14
  200 152.621 -5.34783e-10 1.01109e-13
  201 152.621 -5.34783e-10 1.29176e-14
  202 152.621 -5.34783e-10 5.08373e-14
  203 152.621 -5.34783e-10 -4.68382e-14
  204 152.621 -5.35389e-10 -1.29770e-13
  205 152.621 -5.34783e-10 -5.08133e-14
  206 152.621 -5.34965e-10 -1.65970e-13
  207 152.621 -5.34783e-10 8.74434e-14
  208 152.621 -5.34783e-10 -7.06479e-14
  209 152.621 -5.34783e-10 -8.10136e-15
  210 152.621 -5.34783e-10 -6.58848e-14
  211 152.621 -5.34783e-10 -7.10817e-14
  212 152.621 -5.34783e-10 7.29447e-15
  213 152.621 -5.34783e-10 -7.21416e-14
  214 152.621 -5.34783e-10 -9.58615e-14
  215 152.621 -5.34783e-10 1.18996e-13
  216 152.621 -5.34783e-10 1.80759e-13
  217 152.621 -5.34783e-10 2.73928e-14
  218 152.621 -5.34783e-10 -1.29569e-15
  219 152.621 -5.34783e-10 1.05922e-14
  220 152.621 -5.34783e-10 1.38974e-13
  221 152.621 -5.34783e-10 6.69659e-14
  222 152.621 -5.34783e-10 1.56253e-13
  223 152.621 -5.34783e-10 -2.54186e-14
  224 152.621 -5.34601e-10 -1.74665e-13
  225 152.621 -5.34783e-10 -2.10285e-14
  226 152.621 -5.34783e-10 4.82898e-14
  227 152.621 -5.34783e-10 1.44290e-13
  228 152.621 -5.34783e-10 1.35842e-13
  229 152.621 -5.34783e-10 5.17903e-14
  230 152.621 -5.34783e-10 -6.09276e-14
  231 152.621 -5.34783e-10 1.24161e-13
  232 152.621 -5.34783e-10 -4.45254e-14
  233 152.621 -5.34783e-10 2.80106e-14
  234 152.621 -5.34783e-10 9.46165e-14
  235 152.621 -5.34783e-10 3.32035e-15
  236 152.621 -5.34783e-10 -1.02222e-14
  237 152.621 -5.35510e-10 -3.93675e-14
  238 152.621 -5.34783e-10 -8.44390e-14
  239 152.621 -5.34783e-10 5.14894e-14
  240 152.621 -5.34783e-10 3.70430e-14
  241 152.621 -5.34783e-10 1.10034e-14
</Section>

newXOutput 10

<Section columns = "stress_xx | stress_yy | stress_xy">
  1 171.329 -5.34783e-10 -5.92060e-16
  2 171.329 -5.36602e-10 -4.05781e-14
  3 171.329 -5.35692e-10 -1.45446e-14
  4 171.329 -5.35692e-10 1.69067e-14
  5 171.329 -5.34783e-10 -1.86344e-14
  6 171.329 -5.34783e-10 2.82134e-14
  7 171.329 -5.36147e-10 1.26289e-13
  8 171.329 -5.36602e-10 1.15859e-13
  9 171.329 -5.35996e-10 -7.28144e-14
  10 171.329 -5.35389e-10 -1.74654e-13
  11 171.329 -5.36602e-10 -1.25393e-14
  12 171.329 -5.35389e-10 2.64600e-14
  13 171.329 -5.36147e-10 5.69051e-14
  14 171.329 -5.35389e-10 -1.34471e-13
  15 171.329 -5.34783e-10 -7.21787e-14
  16 171.329 -5.35389e-10 -2.02891e-14
  17 171.329 -5.36602e-10 6.68408e-14
  18 171.329 -5.36602e-10 -6.12619e-14
  19 171.329 -5.36602e-10 -2.05104e-29
  20 171.329 -5.36602e-10 -1.22129e-13
  21 171.329 -5.36602e-10 -1.09787e-13
  22 171.329 -5.36602e-10 -2.14732e-14
  23 171.329 -5.36602e-10 -2.72494e-14
  24 171.329 -5.35996e-10 1.70654e-13
  25 171.329 -5.35692e-10 1.92746e-13
  26 171.329 -5.35692e-10 -5.63450e-14
  27 171.329 -5.35996e-10 -8.11563e-14
  28 171.329 -5.36147e-10 -2.03441e-13
  29 171.329 -5.34783e-10 1.01445e-14
  30 171.329 -5.34783e-10 9.81633e-14
  31 171.329 -5.36602e-10 1.60136e-13
  32 171.329 -5.36602e-10 4.05495e-13
  33 171.329 -5.36147e-10 3.09675e-14
  34 171.329 -5.34783e-10 -1.15586e-13
  35 171.329 -5.34783e-10 -1.60181e-13
  36 171.329 -5.34783e-10 8.85403e-14
  37 171.329 -5.35389e-10 -7.26174e-14
  38 171.329 -5.36602e-10 1.43402e-13
  39 171.329 -5.35996e-10 2.82881e-15
  40 171.329 -5.35389e-10 -2.50245e-13
  41 171.329 -5.36602e-10 3.18565e-14
  42 171.329 -5.35996e-10 7.40110e-15
  43 171.329 -5.36602e-10 3.21473e-14
  44 171.329 -5.36602e-10 2.22060e-13
  45 171.329 -5.36602e-10 1.40010e-13
  46 171.329 -5.36602e-10 -1.11416e-13
  47 171.329 -5.36602e-10 -1.16495e-13
  48 171.329 -5.36602e-10 -6.79597e-14
  49 171.329 -5.36602e-10 -8.01338e-14
  50 171.329 -5.35996e-10 4.84826e-14
  51 171.329 -5.36602e-10 -4.05781e-14
  52 171.329 -5.36147e-10 -3.68849e-14
  53 171.329 -5.35996e-10 3.83940e-14
  54 171.329 -5.36147e-10 3.65149e-14
  55 171.329 -5.35692e-10 6.08672e-14
  56 171.329 -5.34783e-10 2.45653e-14
  57 171.329 -5.35692e-10 -5.71403e-14
  58 171.329 -5.35996e-10 1.20198e-13
  59 171.329 -5.35822e-10 1.69024e-13
  60 171.329 -5.35389e-10 -8.36109e-14
  61 171.329 -5.36602e-10 -3.00085e-14
  62 171.329 -5.35692e-10 4.48665e-14
  63 171.329 -5.36602e-10 5.47133e-14
  64 171.329 -5.35844e-10 3.10323e-14
  65 171.329 -5.35996e-10 -2.46346e-14
  66 171.329 -5.35996e-10 4.77568e-14
  67 171.329 -5.35996e-10 6.88968e-15
  68 171.329 -5.36602e-10 1.18566e-14
  69 171.329 -5.35562e-10 -7.75830e-14
  70 171.329 -5.36375e-10 4.69105e-16
  71 171.329 -5.35692e-10 -4.61751e-14
  72 171.329 -5.36602e-10 -6.08097e-15
  73 171.329 -5.36082e-10 -5.12718e-15
  74 171.329 -5.35874e-10 -1.11594e-13
  75 171.329 -5.34783e-10 -7.56035e-14
  76 171.329 -5.35996e-10 -2.10275e-13
  77 171.329 -5.36602e-10 -1.41494e-14
  78 171.329 -5.35692e-10 -5.12091e-14
  79 171.329 -5.36082e-10 -8.45337e-14
  80 171.329 -5.35996e-10 -2.30078e-14
  81 171.329 -5.36602e-10 -8.95541e-14
  82 171.329 -5.35692e-10 1.42842e-13
  83 171.329 -5.35996e-10 4.06166e-14
  84 171.329 -5.35996e-10 1.45219e-13
  85 171.329 -5.35692e-10 9.37677e-14
  86 171.329 -5.35692e-10 2.62988e-14
  87 171.329 -5.36602e-10 -1.15503e-13
  88 171.329 -5.35147e-10 9.87843e-14
  89 171.329 -5.34783e-10 5.87085e-14
  90 171.329 -5.36602e-10 -1.52316e-13
  91 171.329 -5.35874e-10 2.09350e-13
  92 171.329 -5.35510e-10 4.19626e-14
  93 171.329 -5.35874e-10 -1.08294e-13
  94 171.329 -5.36238e-10 5.15516e-14
  95 171.329 -5.35147e-10 9.50807e-14
  96 171.329 -5.35692e-10 -1.24327e-13
  97 171.329 -5.35874e-10 -1.38305e-13
  98 171.329 -5.36602e-10 3.42634e-14
  99 171.329 -5.36602e-10 -6.62075e-14
  100 171.329 -5.35510e-10 1.06478e-14
  101 171.329 -5.36602e-10 1.01932e-13
  102 171.329 -5.35874e-10 6.30185e-14
  103 171.329 -5.36602e-10 1.24461e-13
  104 171.329 -5.35874e-10 1.33766e-13
  105 171.329 -5.35147e-10 -5.05965e-14
  106 171.329 -5.35086e-10 2.13895e-13
  107 171.329 -5.35692e-10 -2.96162e-14
  108 171.329 -5.36602e-10 -5.76304e-14
  109 171.329 -5.35510e-10 5.99120e-14
  110 171.329 -5.36602e-10 -8.09884e-14
  111 171.329 -5.35692e-10 3.31079e-14
  112 171.329 -5.36602e-10 -3.80757e-14
  113 171.329 -5.36342e-10 1.62270e-13
  114 171.329 -5.34783e-10 3.21062e-14
  115 171.329 -5.36602e-10 -9.75638e-14
  116 171.329 -5.36238e-10 1.42438e-13
  117 171.329 -5.35996e-10 1.47265e-13
  118 171.329 -5.36299e-10 -8.69348e-14
  119 171.329 -5.36082e-10 9.69831e-16
  120 171.329 -5.35086e-10 -2.18541e-13
  121 171.329 -5.36082e-10 7.28760e-15
  122 171.329 -5.35822e-10 -2.69114e-14
  123 171.329 -5.35389e-10 6.05901e-14
  124 171.329 -5.36602e-10 8.91789e-14
  125 171.329 -5.35010e-10 1.17064e-14
  126 171.329 -5.36602e-10 -5.24375e-15
  127 171.329 -5.36342e-10 -1.18183e-13
  128 171.329 -5.35920e-10 -1.00241e-13
  129 171.329 -5.36147e-10 -2.49973e-15
  130 171.329 -5.36299e-10 8.44629e-14
  131 171.329 -5.36602e-10 3.47933e-14
  132 171.329 -5.35238e-10 -3.35479e-14
  133 171.329 -5.36342e-10 1.43800e-13
  134 171.329 -5.36342e-10 -1.04899e-13
  135 171.329 -5.36082e-10 -1.62797e-14
  136 171.329 -5.36602e-10 -9.82812e-14
  137 171.329 -5.36342e-10 9.44929e-14
  138 171.329 -5.36299e-10 -1.75186e-14
  139 171.329 -5.35822e-10 -1.92766e-14
  140 171.329 -5.36342e-10 -7.55595e-14
  141 171.329 -5.36602e-10 -4.58311e-15
  142 171.329 -5.35996e-10 -1.68638e-13
  143 171.329 -5.35822e-10 -6.65478e-14
  144 171.329 -5.36602e-10 6.54564e-14
  145 171.329 -5.35510e-10 -6.28212e-14
  146 171.329 -5.35822e-10 1.01554e-13
  147 171.329 -5.35692e-10 -1.71509e-13
  148 171.329 -5.35996e-10 3.53825e-14
  149 171.329 -5.36602e-10 -1.23341e-13
  150 171.329 -5.35692e-10 4.53407e-14
  151 171.329 -5.36602e-10 2.89404e-16
  152 171.329 -5.35389e-10 3.98660e-14
  153 171.329 -5.36299e-10 -5.89084e-14
  154 171.329 -5.35874e-10 1.59812e-13
  155 171.329 -5.35996e-10 -8.18921e-14
  156 171.329 -5.36212e-10 -6.72082e-14
  157 171.329 -5.36082e-10 -2.10848e-14
  158 171.329 -5.35996e-10 -1.57283e-13
  159 171.329 -5.36299e-10 -7.09558e-14
  160 171.329 -5.36238e-10 -1.05442e-14
  161 171.329 -5.35510e-10 -1.51560e-13
  162 171.329 -5.35389e-10 2.94815e-14
  163 171.329 -5.35692e-10 -1.35711e-13
  164 171.329 -5.36602e-10 3.69185e-14
  165 171.329 -5.35692e-10 -1.04936e-15
  166 171.329 -5.36602e-10 -8.25900e-15
  167 171.329 -5.36082e-10 1.22001e-13
  168 171.329 -5.35303e-10 7.61746e-14
  169 171.329 -5.35562e-10 4.36193e-14
  170 171.329 -5.35874e-10 1.28413e-13
  171 171.329 -5.36342e-10 -5.34097e-14
  172 171.329 -5.36299e-10 -1.90605e-13
  173 171.329 -5.36299e-10 9.82646e-14
  174 171.329 -5.36602e-10 4.47984e-14
  175 171.329 -5.36299e-10 -3.23343e-16
  176 171.329 -5.34783e-10 2.03171e-14
  177 171.329 -5.35389e-10 1.17387e-13
  178 171.329 -5.35389e-10 5.05424e-14
  179 171.329 -5.36602e-10 1.68547e-13
  180 171.329 -5.35043e-10 2.65723e-14
  181 171.329 -5.35692e-10 1.27945e-13
  182 171.329 -5.35510e-10 7.13661e-14
  183 171.329 -5.35692e-10 1.25346e-13
  184 171.329 -5.35874e-10 1.01801e-13
  185 171.329 -5.35692e-10 3.89235e-14
  186 171.329 -5.35510e-10 -1.35789e-13
  187 171.329 -5.36299e-10 7.97352e-14
  188 171.329 -5.36238e-10 -1.01489e-13
  189 171.329 -5.36602e-10 1.63502e-15
  190 171.329 -5.36342e-10 9.43992e-14
  191 171.329 -5.35389e-10 8.65844e-14
  192 171.329 -5.36602e-10 5.57356e-14
  193 171.329 -5.34783e-10 -6.74063e-14
  194 171.329 -5.35692e-10 6.46795e-14
  195 171.329 -5.36602e-10 -3.09132e-14
  196 171.329 -5.35692e-10 5.57468e-14
  197 171.329 -5.35389e-10 9.68570e-14
  198 171.329 -5.36299e-10 -9.55247e-15
  199 171.329 -5.35692e-10 1.10440e-15
  200 171.329 -5.35996e-10 -1.36181e-14
  201 171.329 -5.35389e-10 -1.07039e-13
  202 171.329 -5.35874e-10 -1.74392e-14
  203 171.329 -5.36602e-10 -9.97053e-14
  204 171.329 -5.35996e-10 5.21531e-14
  205 171.329 -5.35389e-10 2.16402e-14
  206 171.329 -5.35874e-10 -1.56092e-13
  207 171.329 -5.36602e-10 -7.11740e-14
  208 171.329 -5.34783e-10 -1.64858e-13
  209 171.329 -5.35389e-10 -3.19763e-14
  210 171.329 -5.36602e-10 -1.12466e-13
  211 171.329 -5.35043e-10 2.66259e-14
  212 171.329 -5.36602e-10 -2.90560e-14
  213 171.329 -5.36602e-10 -1.10840e-13
  214 171.329 -5.35692e-10 1.18539e-14
  215 171.329 -5.36602e-10 2.15086e-13
  216 171.329 -5.35147e-10 7.15603e-14
  217 171.329 -5.35996e-10 -4.17902e-14
  218 171.329 -5.36299e-10 -3.39450e-14
  219 171.329 -5.35874e-10 4.83818e-14
  220 171.329 -5.36602e-10 1.80212e-13
  221 171.329 -5.36299e-10 2.17972e-14
  222 171.329 -5.35389e-10 1.15169e-13
  223 171.329 -5.36238e-10 -9.22048e-14
  224 171.329 -5.36602e-10 -1.82179e-13
  225 171.329 -5.35874e-10 1.57576e-14
  226 171.329 -5.35874e-10 2.93224e-14
  227 171.329 -5.36299e-10 6.01485e-14
  228 171.329 -5.35874e-10 7.61727e-16
  229 171.329 -5.35692e-10 9.05627e-14
  230 171.329 -5.36602e-10 3.69079e-15
  231 171.329 -5.36238e-10 -9.44113e-14
  232 171.329 -5.35874e-10 -4.41988e-14
  233 171.329 -5.36056e-10 6.25409e-14
  234 171.329 -5.34783e-10 1.64893e-14
  235 171.329 -5.35510e-10 -7.77288e-14
  236 171.329 -5.35303e-10 1.00027e-13
  237 171.329 -5.36602e-10 -1.43107e-13
  238 171.329 -5.36602e-10 -8.85614e-14
  239 171.329 -5.36299e-10 -3.09023e-14
  240 171.329 -5.35874e-10 9.70915e-14
  241 171.329 -5.35389e-10 2.39534e-14
</Section>

newXOutput 11

<Section columns = "stress_xx | stress_yy | stress_xy">
  1 189.956 -5.32964e-10 -1.55838e-14
  2 189.956 -5.33873e-10 5.40075e-13
  3 189.956 -5.33873e-10 2.73859e-13
  4 189.956 -5.32964e-10 4.44954e-14
  5 189.956 -5.32964e-10 -1.29446e-13
  6 189.956 -5.32964e-10 -1.63493e-13
  7 189.956 -5.33419e-10 -3.81939e-14
  8 189.956 -5.34783e-10 2.63667e-13
  9 189.956 -5.33570e-10 1.75158e-13
  10 189.956 -5.32661e-10 3.40511e-13
  11 189.956 -5.32964e-10 1.03783e-13
  12 189.956 -5.32964e-10 -1.44902e-13
  13 189.956 -5.32509e-10 -2.74685e-13
  14 189.956 -5.32661e-10 -1.94078e-13
  15 189.956 -5.32737e-10 -3.29720e-14
  16 189.956 -5.33267e-10 3.27825e-13
  17 189.956 -5.34480e-10 1.30066e-13
  18 189.956 -5.34480e-10 -2.55210e-13
  19 189.956 -5.32964e-10 -5.45014e-13
  20 189.956 -5.33570e-10 2.93231e-13
  21 189.956 -5.34783e-10 6.01954e-13
  22 189.956 -5.34783e-10 9.29195e-14
  23 189.956 -5.33570e-10 5.03858e-13
  24 189.956 -5.33570e-10 -1.07902e-13
  25 189.956 -5.33873e-10 -2.02316e-14
  26 189.956 -5.33873e-10 -2.45380e-13
  27 189.956 -5.32964e-10 -8.09265e-14
  28 189.956 -5.32964e-10 -4.42806e-14
  29 189.956 -5.32964e-10 -8.59844e-14
  30 189.956 -5.32964e-10 -1.51948e-13
  31 189.956 -5.34177e-10 9.24386e-14
  32 189.956 -5.32509e-10 -3.96337e-13
  33 189.956 -5.32737e-10 1.08452e-13
  34 189.956 -5.32964e-10 1.16773e-13
  35 189.956 -5.32737e-10 2.92523e-13
  36 189.956 -5.32964e-10 1.10079e-13
  37 189.956 -5.32964e-10 -2.37528e-13
  38 189.956 -5.32964e-10 -1.93424e-13
  39 189.956 -5.32964e-10 -7.54289e-14
  40 189.956 -5.34177e-10 1.77996e-14
  41 189.956 -5.33873e-10 3.71748e-13
  42 189.956 -5.32661e-10 -1.11496e-13
  43 189.956 -5.33570e-10 3.33757e-14
  44 189.956 -5.33873e-10 1.42485e-13
  45 189.956 -5.32358e-10 -1.35134e-13
  46 189.956 -5.32358e-10 2.87445e-13
  47 189.956 -5.32358e-10 1.84940e-13
  48 189.956 -5.34177e-10 -5.52241e-13
  49 189.956 -5.33570e-10 -1.32883e-13
  50 189.956 -5.32358e-10 2.34167e-14
  51 189.956 -5.32964e-10 1.56795e-13
  52 189.956 -5.33419e-10 -9.71170e-15
  53 189.956 -5.32964e-10 6.31372e-14
  54 189.956 -5.34328e-10 -1.99572e-13
  55 189.956 -5.32964e-10 3.43937e-13
  56 189.956 -5.32964e-10 1.37625e-13
  57 189.956 -5.33873e-10 -4.51880e-13
  58 189.956 -5.32509e-10 -2.55770e-13
  59 189.956 -5.32834e-10 2.50341e-13
  60 189.956 -5.33267e-10 3.34298e-14
  61 189.956 -5.32812e-10 -1.34586e-13
  62 189.956 -5.33267e-10 2.08007e-13
  63 189.956 -5.32964e-10 4.51439e-14
  64 189.956 -5.32812e-10 -1.84344e-13
  65 189.956 -5.32661e-10 -2.83981e-13
  66 189.956 -5.32964e-10 -4.49288e-15
  67 189.956 -5.32812e-10 -7.77993e-14
  68 189.956 -5.32509e-10 -1.51053e-14
  69 189.956 -5.33743e-10 -2.53570e-15
  70 189.956 -5.33419e-10 -2.61003e-14
  71 189.956 -5.32964e-10 1.05428e-13
  72 189.956 -5.32444e-10 -2.37682e-14
  73 189.956 -5.33094e-10 6.14819e-14
  74 189.956 -5.32600e-10 -2.74899e-15
  75 189.956 -5.32964e-10 4.05738e-15
  76 189.956 -5.32964e-10 -1.26621e-13
  77 189.956 -5.33419e-10 9.55124e-14
  78 189.956 -5.32964e-10 1.57906e-13
  79 189.956 -5.33484e-10 1.65766e-13
  80 189.956 -5.32964e-10 -1.83306e-13
  81 189.956 -5.32964e-10 1.05387e-13
  82 189.956 -5.32812e-10 1.72639e-13
  83 189.956 -5.33873e-10 1.82775e-17
  84 189.956 -5.32964e-10 -1.62126e-14
  85 189.956 -5.32964e-10 -2.91554e-13
  86 189.956 -5.32358e-10 5.36812e-13
  87 189.956 -5.33873e-10 2.21467e-13
  88 189.956 -5.32964e-10 -4.28224e-14
  89 189.956 -5.32964e-10 -2.70961e-13
  90 189.956 -5.32812e-10 -2.37175e-13
  91 189.956 -5.32964e-10 1.16027e-13
  92 189.956 -5.33691e-10 5.46473e-14
  93 189.956 -5.32964e-10 -1.32315e-15
  94 189.956 -5.32964e-10 7.62023e-14
  95 189.956 -5.32964e-10 -2.19427e-13
  96 189.956 -5.32964e-10 -2.96000e-14
  97 189.956 -5.32782e-10 1.36525e-13
  98 189.956 -5.34055e-10 3.89910e-14
  99 189.956 -5.32964e-10 -9.52341e-15
  100 189.956 -5.32964e-10 2.28579e-13
  101 189.956 -5.32812e-10 -3.24161e-14
  102 189.956 -5.32964e-10 -5.31024e-14
  103 189.956 -5.32964e-10 -1.38550e-13
  104 189.956 -5.32964e-10 2.97569e-14
  105 189.956 -5.32964e-10 -2.31875e-13
  106 189.956 -5.32964e-10 2.25639e-13
  107 189.956 -5.33570e-10 -3.73430e-13
  108 189.956 -5.33267e-10 -8.49077e-15
  109 189.956 -5.34055e-10 2.16397e-14
  110 189.956 -5.32964e-10 7.63743e-14
  111 189.956 -5.32850e-10 9.90281e-15
  112 189.956 -5.33267e-10 -3.33108e-14
  113 189.956 -5.32964e-10 -8.25216e-14
  114 189.956 -5.32964e-10 5.02465e-15
  115 189.956 -5.32509e-10 9.81457e-14
  116 189.956 -5.32964e-10 -2.19661e-13
  117 189.956 -5.33267e-10 -7.59801e-14
  118 189.956 -5.32964e-10 -8.61619e-14
  119 189.956 -5.32704e-10 -1.59146e-13
  120 189.956 -5.32812e-10 3.13835e-13
  121 189.956 -5.34003e-10 -2.25116e-13
  122 189.956 -5.33224e-10 1.37585e-13
  123 189.956 -5.33267e-10 -7.69236e-14
  124 189.956 -5.33484e-10 -1.37487e-13
  125 189.956 -5.33191e-10 9.11754e-15
  126 189.956 -5.33419e-10 2.00848e-13
  127 189.956 -5.32704e-10 4.01274e-14
  128 189.956 -5.32737e-10 -3.32316e-14
  129 189.956 -5.32964e-10 8.14303e-14
  130 189.956 -5.33570e-10 3.90599e-14
  131 189.956 -5.32509e-10 -8.82206e-14
  132 189.956 -5.33078e-10 3.90792e-14
  133 189.956 -5.33743e-10 -1.36153e-13
  134 189.956 -5.32834e-10 -1.85176e-13
  135 189.956 -5.33484e-10 4.08382e-13
  136 189.956 -5.34003e-10 1.98969e-15
  137 189.956 -5.33224e-10 -3.47831e-14
  138 189.956 -5.32964e-10 1.37033e-13
  139 189.956 -5.33224e-10 2.11905e-13
  140 189.956 -5.32964e-10 2.99575e-15
  141 189.956 -5.33873e-10 4.19761e-14
  142 189.956 -5.32812e-10 9.49791e-14
  143 189.956 -5.33224e-10 -2.54907e-13
  144 189.956 -5.32782e-10 2.60504e-13
  145 189.956 -5.32964e-10 8.06936e-14
  146 189.956 -5.33484e-10 -1.68035e-14
  147 189.956 -5.33267e-10 -2.14411e-13
  148 189.956 -5.33873e-10 5.27913e-14
  149 189.956 -5.32964e-10 -2.90829e-14
  150 189.956 -5.32509e-10 9.79646e-14
  151 189.956 -5.31903e-10 -1.90387e-13
  152 189.956 -5.32661e-10 -3.00606e-13
  153 189.956 -5.32661e-10 -1.36317e-13
  154 189.956 -5.32964e-10 1.23093e-13
  155 189.956 -5.33570e-10 1.28095e-13
  156 189.956 -5.32834e-10 -1.69758e-13
  157 189.956 -5.32964e-10 6.18646e-14
  158 189.956 -5.33267e-10 1.72046e-13
  159 189.956 -5.32964e-10 6.29413e-14
  160 189.956 -5.32600e-10 -1.20695e-13
  161 189.956 -5.32964e-10 -2.81033e-13
  162 189.956 -5.33267e-10 2.13343e-13
  163 189.956 -5.33267e-10 4.52546e-14
  164 189.956 -5.32964e-10 8.29302e-14
  165 189.956 -5.32964e-10 1.19360e-13
  166 189.956 -5.33743e-10 2.04732e-13
  167 189.956 -5.33743e-10 -1.81322e-14
  168 189.956 -5.32964e-10 -6.58977e-14
  169 189.956 -5.33484e-10 -1.33281e-13
  170 189.956 -5.32782e-10 3.97306e-14
  171 189.956 -5.32964e-10 1.02470e-13
  172 189.956 -5.32509e-10 -8.01472e-14
  173 189.956 -5.32812e-10 5.91397e-15
  174 189.956 -5.32964e-10 4.43100e-13
  175 189.956 -5.32964e-10 1.04466e-13
  176 189.956 -5.32964e-10 -9.35872e-14
  177 189.956 -5.33570e-10 1.11834e-13
  178 189.956 -5.33570e-10 -1.80576e-13
  179 189.956 -5.33691e-10 9.58002e-15
  180 189.956 -5.33224e-10 -1.40567e-13
  181 189.956 -5.32964e-10 -9.25208e-14
  182 189.956 -5.32964e-10 7.91912e-15
  183 189.956 -5.32964e-10 -8.28482e-14
  184 189.956 -5.33510e-10 4.23882e-14
  185 189.956 -5.32964e-10 1.31237e-13
  186 189.956 -5.32782e-10 -3.87790e-14
  187 189.956 -5.33115e-10 -3.07196e-14
  188 189.956 -5.32600e-10 3.32099e-13
  189 189.956 -5.33691e-10 -3.02446e-13
  190 189.956 -5.32834e-10 1.05170e-13
  191 189.956 -5.32964e-10 2.48521e-13
  192 189.956 -5.32964e-10 -1.06407e-13
  193 189.956 -5.32964e-10 2.40053e-13
  194 189.956 -5.33115e-10 9.49622e-15
  195 189.956 -5.33722e-10 2.70509e-13
  196 189.956 -5.32964e-10 -2.36569e-14
  197 189.956 -5.33267e-10 -7.41187e-14
  198 189.956 -5.33267e-10 -1.51773e-13
  199 189.956 -5.33873e-10 -3.09872e-13
  200 189.956 -5.32661e-10 -5.39691e-14
  201 189.956 -5.32964e-10 -9.75508e-14
  202 189.956 -5.32782e-10 6.25485e-14
  203 189.956 -5.32661e-10 -1.28863e-13
  204 189.956 -5.32964e-10 -1.20603e-14
  205 189.956 -5.33570e-10 2.73407e-15
  206 189.956 -5.33691e-10 2.40155e-13
  207 189.956 -5.33328e-10 2.19655e-13
  208 189.956 -5.32782e-10 1.60408e-13
  209 189.956 -5.32661e-10 1.87088e-13
  210 189.956 -5.33873e-10 1.12530e-13
  211 189.956 -5.32964e-10 -1.75804e-13
  212 189.956 -5.32964e-10 4.72151e-13
  213 189.956 -5.33691e-10 -3.59295e-13
  214 189.956 -5.32964e-10 -1.66223e-13
  215 189.956 -5.32782e-10 -3.05740e-13
  216 189.956 -5.32964e-10 -6.19750e-14
  217 189.956 -5.33115e-10 4.98751e-14
  218 189.956 -5.32358e-10 -1.84294e-13
  219 189.956 -5.32782e-10 -1.43283e-13
  220 189.956 -5.32964e-10 2.41102e-13
  221 189.956 -5.32964e-10 -5.19710e-14
  222 189.956 -5.32509e-10 -1.08357e-13
  223 189.956 -5.32782e-10 -5.76766e-14
  224 189.956 -5.32964e-10 4.59531e-14
  225 189.956 -5.32782e-10 2.11831e-13
  226 189.956 -5.32964e-10 1.76502e-13
  227 189.956 -5.32964e-10 -1.03158e-13
  228 189.956 -5.32964e-10 -2.05814e-14
  229 189.956 -5.33570e-10 3.04905e-13
  230 189.956 -5.32964e-10 3.00194e-14
  231 189.956 -5.32964e-10 1.68422e-15
  232 189.956 -5.34055e-10 -1.35333e-13
  233 189.956 -5.32964e-10 -8.98938e-14
  234 189.956 -5.32964e-10 -9.85971e-14
  235 189.956 -5.34055e-10 1.00754e-13
  236 189.956 -5.32964e-10 -8.00437e-14
  237 189.956 -5.32600e-10 -5.33663e-14
  238 189.956 -5.33328e-10 1.24763e-13
  239 189.956 -5.32964e-10 7.77779e-14
  240 189.956 -5.32964e-10 -1.22243e-13
  241 189.956 -5.32964e-10 -1.55145e-13
</Section>

newXOutput 12

<Section columns = "stress_xx | stress_yy | stress_xy">
  1 208.503 -5.29781e-10 -9.20446e-14
  2 208.503 -5.31145e-10 -6.34027e-14
  3 208.503 -5.29781e-10 -2.94806e-13
  4 208.503 -5.30690e-10 1.21102e-13
  5 208.503 -5.30539e-10 -6.63452e-14
  6 208.503 -5.30690e-10 -1.85889e-13
  7 208.503 -5.30008e-10 1.56172e-13
  8 208.503 -5.30842e-10 -1.39055e-13
  9 208.503 -5.30842e-10 5.40383e-14
  10 208.503 -5.30842e-10 -7.25271e-14
  11 208.503 -5.31145e-10 -8.78964e-14
  12 208.503 -5.31145e-10 5.21186e-14
  13 208.503 -5.31145e-10 1.31511e-14
  14 208.503 -5.30235e-10 9.31873e-14
  15 208.503 -5.30463e-10 -8.17774e-14
  16 208.503 -5.31145e-10 -7.87779e-14
  17 208.503 -5.30842e-10 1.22966e-13
  18 208.503 -5.30842e-10 2.58422e-13
  19 208.503 -5.31145e-10 1.23926e-13
  20 208.503 -5.30235e-10 -2.01744e-14
  21 208.503 -5.31145e-10 -3.00690e-13
  22 208.503 -5.31145e-10 -1.60435e-13
  23 208.503 -5.31145e-10 -8.26173e-14
  24 208.503 -5.31145e-10 4.80334e-14
  25 208.503 -5.31145e-10 3.02616e-14
  26 208.503 -5.30463e-10 -1.00331e-13
  27 208.503 -5.31145e-10 -8.74224e-14
  28 208.503 -5.31145e-10 8.97922e-14
  29 208.503 -5.31145e-10 -5.04360e-14
  30 208.503 -5.30235e-10 1.04893e-13
  31 208.503 -5.31145e-10 -4.84799e-13
  32 208.503 -5.31145e-10 1.25760e-13
  33 208.503 -5.31145e-10 1.09628e-13
  34 208.503 -5.28720e-10 -1.01774e-13
  35 208.503 -5.29099e-10 -1.36800e-13
  36 208.503 -5.31145e-10 1.56252e-13
  37 208.503 -5.31145e-10 2.50101e-13
  38 208.503 -5.31145e-10 -1.84218e-13
  39 208.503 -5.30842e-10 -2.07656e-14
  40 208.503 -5.30235e-10 -8.61651e-14
  41 208.503 -5.29932e-10 -2.78263e-14
  42 208.503 -5.31145e-10 -1.90021e-13
  43 208.503 -5.30842e-10 1.66842e-14
  44 208.503 -5.30842e-10 2.07170e-13
  45 208.503 -5.31145e-10 1.60878e-13
  46 208.503 -5.31145e-10 -2.04754e-13
  47 208.503 -5.31145e-10 -1.03909e-14
  48 208.503 -5.31145e-10 -3.57079e-14
  49 208.503 -5.29932e-10 4.56174e-14
  50 208.503 -5.31145e-10 -8.05176e-14
  51 208.503 -5.29781e-10 -1.05916e-13
  52 208.503 -5.30463e-10 6.27068e-14
  53 208.503 -5.31145e-10 1.05671e-14
  54 208.503 -5.29781e-10 -2.32822e-14
  55 208.503 -5.29781e-10 3.02616e-14
  56 208.503 -5.29326e-10 -2.65992e-14
  57 208.503 -5.30235e-10 3.57116e-14
  58 208.503 -5.30993e-10 -9.03641e-14
  59 208.503 -5.31145e-10 -8.14303e-14
  60 208.503 -5.31145e-10 2.42847e-13
  61 208.503 -5.30993e-10 -1.03720e-13
  62 208.503 -5.31145e-10 6.99549e-15
  63 208.503 -5.30963e-10 -1.49001e-13
  64 208.503 -5.30235e-10 1.26779e-13
  65 208.503 -5.30993e-10 7.32882e-14
  66 208.503 -5.30690e-10 -1.07259e-13
  67 208.503 -5.30235e-10 5.53276e-14
  68 208.503 -5.31145e-10 3.62061e-14
  69 208.503 -5.30235e-10 -3.46641e-14
  70 208.503 -5.30349e-10 6.65862e-14
  71 208.503 -5.30690e-10 2.05354e-14
  72 208.503 -5.31145e-10 1.39792e-14
  73 208.503 -5.30885e-10 -8.30635e-14
  74 208.503 -5.31145e-10 1.17259e-14
  75 208.503 -5.31145e-10 -1.69823e-13
  76 208.503 -5.31145e-10 -6.83278e-14
  77 208.503 -5.30690e-10 -8.56329e-16
  78 208.503 -5.30993e-10 1.51891e-13
  79 208.503 -5.30885e-10 -1.28120e-13
  80 208.503 -5.31145e-10 1.84331e-13
  81 208.503 -5.31145e-10 7.97363e-14
  82 208.503 -5.30690e-10 1.29133e-13
  83 208.503 -5.31145e-10 3.21388e-15
  84 208.503 -5.30993e-10 -6.99775e-14
  85 208.503 -5.30842e-10 -4.58723e-14
  86 208.503 -5.31145e-10 4.79720e-14
  87 208.503 -5.30993e-10 1.12726e-14
  88 208.503 -5.30963e-10 2.65529e-14
  89 208.503 -5.29508e-10 3.09189e-14
  90 208.503 -5.30993e-10 4.88082e-15
  91 208.503 -5.30963e-10 -8.21198e-15
  92 208.503 -5.30417e-10 -1.04960e-13
  93 208.503 -5.30417e-10 9.11447e-14
  94 208.503 -5.30963e-10 -3.09241e-13
  95 208.503 -5.31145e-10 7.90414e-14
  96 208.503 -5.31145e-10 -1.22006e-13
  97 208.503 -5.31145e-10 -3.05513e-14
  98 208.503 -5.31145e-10 4.16095e-14
  99 208.503 -5.31145e-10 1.73283e-13
  100 208.503 -5.29508e-10 1.00114e-13
  101 208.503 -5.31145e-10 3.33176e-13
  102 208.503 -5.30963e-10 -3.68907e-14
  103 208.503 -5.30690e-10 8.24373e-14
  104 208.503 -5.31145e-10 -9.73388e-14
  105 208.503 -5.30417e-10 -4.32086e-15
  106 208.503 -5.31145e-10 1.10357e-13
  107 208.503 -5.30690e-10 -1.31253e-13
  108 208.503 -5.31145e-10 9.49569e-14
  109 208.503 -5.29690e-10 -3.42613e-14
  110 208.503 -5.31145e-10 2.81934e-13
  111 208.503 -5.30463e-10 1.48955e-13
  112 208.503 -5.30690e-10 -9.65629e-14
  113 208.503 -5.31145e-10 -6.15223e-14
  114 208.503 -5.30235e-10 8.54209e-15
  115 208.503 -5.30993e-10 -1.60105e-13
  116 208.503 -5.30235e-10 1.37258e-13
  117 208.503 -5.31145e-10 -1.37016e-13
  118 208.503 -5.31145e-10 1.66551e-14
  119 208.503 -5.31145e-10 -4.39507e-14
  120 208.503 -5.30084e-10 -5.63504e-14
  121 208.503 -5.31145e-10 1.36756e-13
  122 208.503 -5.30755e-10 1.14895e-13
  123 208.503 -5.30235e-10 4.68102e-14
  124 208.503 -5.30365e-10 -1.95890e-14
  125 208.503 -5.31145e-10 1.52776e-14
  126 208.503 -5.31145e-10 -2.67705e-14
  127 208.503 -5.30885e-10 -2.58861e-14
  128 208.503 -5.30804e-10 1.44087e-14
  129 208.503 -5.31145e-10 9.87831e-15
  130 208.503 -5.30235e-10 -1.35784e-13
  131 208.503 -5.31145e-10 1.28768e-13
  132 208.503 -5.30463e-10 -1.63975e-13
  133 208.503 -5.30885e-10 5.35237e-14
  134 208.503 -5.30755e-10 -3.44799e-14
  135 208.503 -5.31145e-10 -1.36898e-13
  136 208.503 -5.31145e-10 4.12789e-14
  137 208.503 -5.29976e-10 3.66367e-14
  138 208.503 -5.31145e-10 -1.24182e-13
  139 208.503 -5.29846e-10 -2.59615e-13
  140 208.503 -5.30625e-10 1.21817e-13
  141 208.503 -5.30993e-10 -4.90218e-14
  142 208.503 -5.30842e-10 -4.63515e-14
  143 208.503 -5.30365e-10 -1.38233e-13
  144 208.503 -5.31145e-10 2.39039e-13
  145 208.503 -5.30235e-10 1.32668e-13
  146 208.503 -5.31015e-10 2.76893e-14
  147 208.503 -5.30842e-10 -9.66174e-14
  148 208.503 -5.31145e-10 -3.74670e-14
  149 208.503 -5.31145e-10 6.82674e-14
  150 208.503 -5.31145e-10 8.52872e-14
  151 208.503 -5.30993e-10 -3.09793e-14
  152 208.503 -5.30993e-10 -9.51670e-14
  153 208.503 -5.31145e-10 2.92825e-13
  154 208.503 -5.31145e-10 1.34879e-13
  155 208.503 -5.31145e-10 1.34771e-13
  156 208.503 -5.31015e-10 1.22126e-13
  157 208.503 -5.30105e-10 -5.65738e-14
  158 208.503 -5.31145e-10 -7.88957e-14
  159 208.503 -5.30993e-10 -1.44461e-13
  160 208.503 -5.31145e-10 1.69192e-13
  161 208.503 -5.31145e-10 -5.18775e-14
  162 208.503 -5.31145e-10 6.76379e-14
  163 208.503 -5.31145e-10 -2.76176e-15
  164 208.503 -5.30755e-10 -2.21916e-13
  165 208.503 -5.30842e-10 1.21467e-13
  166 208.503 -5.30755e-10 -1.06391e-13
  167 208.503 -5.30755e-10 -1.33706e-13
  168 208.503 -5.31015e-10 1.02130e-13
  169 208.503 -5.28546e-10 4.06628e-14
  170 208.503 -5.30599e-10 9.64016e-14
  171 208.503 -5.31145e-10 1.60329e-13
  172 208.503 -5.31145e-10 3.20650e-14
  173 208.503 -5.30993e-10 2.95533e-15
  174 208.503 -5.31145e-10 1.02672e-14
  175 208.503 -5.30387e-10 4.19419e-14
  176 208.503 -5.29174e-10 -1.86732e-14
  177 208.503 -5.30539e-10 -2.21567e-13
  178 208.503 -5.30690e-10 -1.36577e-14
  179 208.503 -5.30417e-10 6.40199e-14
  180 208.503 -5.29716e-10 -3.56388e-14
  181 208.503 -5.30993e-10 -1.09037e-13
  182 208.503 -5.31145e-10 -1.23321e-13
  183 208.503 -5.31145e-10 1.15133e-13
  184 208.503 -5.30963e-10 4.29404e-14
  185 208.503 -5.30842e-10 -1.00808e-14
  186 208.503 -5.30599e-10 -1.08938e-13
  187 208.503 -5.31145e-10 -2.40074e-14
  188 208.503 -5.30963e-10 -9.94708e-14
  189 208.503 -5.31145e-10 3.08033e-14
  190 208.503 -5.31015e-10 -8.72903e-14
  191 208.503 -5.31145e-10 -2.77676e-14
  192 208.503 -5.30885e-10 -2.29121e-13
  193 208.503 -5.30417e-10 -6.99542e-14
  194 208.503 -5.30690e-10 -9.03736e-15
  195 208.503 -5.31145e-10 -2.12509e-15
  196 208.503 -5.30690e-10 1.10481e-13
  197 208.503 -5.29781e-10 1.94009e-14
  198 208.503 -5.31145e-10 6.77279e-14
  199 208.503 -5.30690e-10 -9.29854e-16
  200 208.503 -5.30690e-10 2.86404e-14
  201 208.503 -5.30993e-10 -2.32957e-14
  202 208.503 -5.31145e-10 2.55635e-13
  203 208.503 -5.30993e-10 9.35487e-14
  204 208.503 -5.31145e-10 1.32874e-13
  205 208.503 -5.30387e-10 1.24724e-13
  206 208.503 -5.30599e-10 -8.58843e-14
  207 208.503 -5.31145e-10 -1.11685e-13
  208 208.503 -5.28962e-10 -4.59747e-14
  209 208.503 -5.30235e-10 1.66046e-13
  210 208.503 -5.31145e-10 3.28807e-14
  211 208.503 -5.30365e-10 4.11985e-14
  212 208.503 -5.31145e-10 1.05894e-14
  213 208.503 -5.30417e-10 2.30431e-14
  214 208.503 -5.31145e-10 -1.27952e-13
  215 208.503 -5.30054e-10 -3.41959e-14
  216 208.503 -5.31145e-10 4.96261e-14
  217 208.503 -5.30690e-10 -4.77949e-14
  218 208.503 -5.31145e-10 1.41272e-13
  219 208.503 -5.31145e-10 -1.40785e-13
  220 208.503 -5.31145e-10 7.85664e-14
  221 208.503 -5.31145e-10 3.46563e-13
  222 208.503 -5.31145e-10 -1.82348e-13
  223 208.503 -5.31145e-10 -6.04288e-14
  224 208.503 -5.30417e-10 -1.97706e-13
  225 208.503 -5.30781e-10 -1.66868e-13
  226 208.503 -5.30054e-10 -5.50845e-14
  227 208.503 -5.31145e-10 9.65468e-14
  228 208.503 -5.31145e-10 -7.51483e-14
  229 208.503 -5.30842e-10 -7.91663e-14
  230 208.503 -5.31145e-10 9.70282e-14
  231 208.503 -5.30963e-10 -2.42379e-13
  232 208.503 -5.30781e-10 1.67462e-15
  233 208.503 -5.31145e-10 4.68453e-15
  234 208.503 -5.31145e-10 -8.39528e-14
  235 208.503 -5.29690e-10 -1.33140e-13
  236 208.503 -5.30625e-10 -5.45968e-14
  237 208.503 -5.31145e-10 1.35355e-13
  238 208.503 -5.30963e-10 -2.87335e-13
  239 208.503 -5.30993e-10 -2.48580e-14
  240 208.503 -5.31145e-10 2.88348e-13
  241 208.503 -5.31145e-10 -5.62009e-14
</Section>

newXOutput 13

<Section columns = "stress_xx | stress_yy | stress_xy">
  1 226.970 -5.31145e-10 -6.07438e-14
  2 226.970 -5.32054e-10 -1.00587e-13
  3 226.970 -5.31600e-10 -2.64697e-14
  4 226.970 -5.32054e-10 2.22321e-13
  5 226.970 -5.31145e-10 5.20798e-14
  6 226.970 -5.31145e-10 5.76106e-14
  7 226.970 -5.31145e-10 8.71992e-14
  8 226.970 -5.31751e-10 8.70926e-14
  9 226.970 -5.32054e-10 -4.54568e-14
  10 226.970 -5.32054e-10 4.18014e-14
  11 226.970 -5.30842e-10 -1.33594e-13
  12 226.970 -5.31448e-10 -4.81155e-14
  13 226.970 -5.31600e-10 3.00906e-13
  14 226.970 -5.29932e-10 3.70468e-13
  15 226.970 -5.30008e-10 -8.08612e-14
  16 226.970 -5.31751e-10 -2.16012e-14
  17 226.970 -5.31751e-10 2.80243e-13
  18 226.970 -5.31448e-10 6.45298e-14
  19 226.970 -5.31145e-10 -2.34264e-13
  20 226.970 -5.31448e-10 -1.24882e-13
  21 226.970 -5.31751e-10 3.26056e-13
  22 226.970 -5.31751e-10 -1.32632e-13
  23 226.970 -5.31751e-10 -2.59520e-13
  24 226.970 -5.32054e-10 2.00130e-13
  25 226.970 -5.31600e-10 4.42583e-13
  26 226.970 -5.30690e-10 -1.12048e-13
  27 226.970 -5.31145e-10 1.73087e-13
  28 226.970 -5.31372e-10 9.47743e-14
  29 226.970 -5.31600e-10 2.51467e-13
  30 226.970 -5.31448e-10 6.62198e-14
  31 226.970 -5.31448e-10 1.40446e-14
  32 226.970 -5.31600e-10 -2.62868e-14
  33 226.970 -5.32282e-10 2.35860e-13
  34 226.970 -5.31448e-10 6.19303e-13
  35 226.970 -5.31827e-10 3.25024e-15
  36 226.970 -5.31751e-10 -3.22517e-13
  37 226.970 -5.32054e-10 -2.87177e-13
  38 226.970 -5.31751e-10 -2.49160e-13
  39 226.970 -5.31448e-10 9.11638e-14
  40 226.970 -5.31448e-10 6.01364e-13
  41 226.970 -5.29932e-10 -8.55585e-14
  42 226.970 -5.30539e-10 2.15620e-14
  43 226.970 -5.31145e-10 2.78901e-13
  44 226.970 -5.31448e-10 -4.33730e-14
  45 226.970 -5.31448e-10 -3.63054e-13
  46 226.970 -5.32054e-10 -1.08599e-13
  47 226.970 -5.32054e-10 -8.86130e-14
  48 226.970 -5.31448e-10 3.11549e-13
  49 226.970 -5.31448e-10 5.32203e-13
  50 226.970 -5.31751e-10 -2.47067e-13
  51 226.970 -5.31145e-10 -2.51467e-14
  52 226.970 -5.31600e-10 3.38141e-14
  53 226.970 -5.31145e-10 6.27912e-14
  54 226.970 -5.31372e-10 2.93740e-13
  55 226.970 -5.32054e-10 4.02348e-14
  56 226.970 -5.31448e-10 -2.01085e-13
  57 226.970 -5.31600e-10 3.80763e-14
  58 226.970 -5.29932e-10 3.27970e-13
  59 226.970 -5.31665e-10 2.17260e-14
  60 226.970 -5.31600e-10 -1.24539e-13
  61 226.970 -5.31751e-10 -3.97986e-14
  62 226.970 -5.31296e-10 1.94776e-13
  63 226.970 -5.30781e-10 1.46618e-13
  64 226.970 -5.31448e-10 3.57722e-14
  65 226.970 -5.31600e-10 -1.74930e-13
  66 226.970 -5.30539e-10 1.51014e-13
  67 226.970 -5.31600e-10 -9.01299e-14
  68 226.970 -5.31600e-10 1.35109e-13
  69 226.970 -5.30625e-10 6.71738e-14
  70 226.970 -5.31259e-10 6.94681e-14
  71 226.970 -5.32054e-10 3.96403e-14
  72 226.970 -5.31665e-10 -4.47552e-14
  73 226.970 -5.31535e-10 5.01993e-14
  74 226.970 -5.31509e-10 1.34672e-14
  75 226.970 -5.30963e-10 3.45830e-13
  76 226.970 -5.31751e-10 1.50269e-13
  77 226.970 -5.31600e-10 -3.79368e-13
  78 226.970 -5.31296e-10 -2.92003e-13
  79 226.970 -5.31795e-10 4.83745e-14
  80 226.970 -5.31600e-10 -1.20540e-13
  81 226.970 -5.31145e-10 -9.01915e-14
  82 226.970 -5.30993e-10 7.98508e-14
  83 226.970 -5.31600e-10 2.58982e-13
  84 226.970 -5.31448e-10 6.44786e-15
  85 226.970 -5.31448e-10 3.56627e-15
  86 226.970 -5.31903e-10 2.40426e-13
  87 226.970 -5.31448e-10 1.87377e-13
  88 226.970 -5.31509e-10 -4.22405e-13
  89 226.970 -5.31145e-10 -2.39432e-13
  90 226.970 -5.32054e-10 -1.80700e-14
  91 226.970 -5.31691e-10 -4.22289e-13
  92 226.970 -5.31327e-10 2.61402e-14
  93 226.970 -5.30781e-10 -5.84992e-15
  94 226.970 -5.32054e-10 8.68430e-14
  95 226.970 -5.31509e-10 -4.27802e-13
  96 226.970 -5.30539e-10 1.33981e-14
  97 226.970 -5.29690e-10 -2.09139e-13
  98 226.970 -5.31873e-10 1.63477e-13
  99 226.970 -5.31145e-10 -8.79587e-14
  100 226.970 -5.31509e-10 -2.49359e-13
  101 226.970 -5.31448e-10 -1.12453e-13
  102 226.970 -5.31327e-10 -2.07419e-13
  103 226.970 -5.31448e-10 4.15403e-14
  104 226.970 -5.31509e-10 3.49165e-13
  105 226.970 -5.31691e-10 -5.40409e-14
  106 226.970 -5.31751e-10 -3.97675e-14
  107 226.970 -5.30993e-10 -1.63440e-13
  108 226.970 -5.31751e-10 -1.16454e-13
  109 226.970 -5.30963e-10 3.38321e-13
  110 226.970 -5.31691e-10 -1.03720e-13
  111 226.970 -5.32054e-10 -9.36070e-14
  112 226.970 -5.31296e-10 -1.65415e-13
  113 226.970 -5.31145e-10 -6.63278e-15
  114 226.970 -5.31145e-10 1.31559e-13
  115 226.970 -5.31600e-10 1.32756e-13
  116 226.970 -5.31145e-10 -4.07317e-15
  117 226.970 -5.31448e-10 2.77452e-13
  118 226.970 -5.31600e-10 -1.71331e-13
  119 226.970 -5.31145e-10 3.68384e-15
  120 226.970 -5.31296e-10 -3.22294e-13
  121 226.970 -5.31924e-10 -1.47364e-13
  122 226.970 -5.31405e-10 1.11348e-13
  123 226.970 -5.31600e-10 1.79694e-14
  124 226.970 -5.30365e-10 2.19875e-13
  125 226.970 -5.31031e-10 1.17883e-14
  126 226.970 -5.32054e-10 9.48437e-14
  127 226.970 -5.31145e-10 1.44415e-13
  128 226.970 -5.30804e-10 -1.59848e-14
  129 226.970 -5.31600e-10 -1.59664e-13
  130 226.970 -5.31903e-10 2.90752e-14
  131 226.970 -5.30993e-10 -2.56078e-13
  132 226.970 -5.30918e-10 2.29385e-14
  133 226.970 -5.31665e-10 2.47487e-13
  134 226.970 -5.31924e-10 -8.75309e-14
  135 226.970 -5.31145e-10 1.40280e-13
  136 226.970 -5.31665e-10 3.07143e-13
  137 226.970 -5.30885e-10 1.40718e-13
  138 226.970 -5.31600e-10 -2.83780e-13
  139 226.970 -5.31405e-10 -1.42242e-13
  140 226.970 -5.31275e-10 3.88920e-14
  141 226.970 -5.31448e-10 6.29974e-14
  142 226.970 -5.32054e-10 2.91317e-14
  143 226.970 -5.31405e-10 1.99364e-13
  144 226.970 -5.31509e-10 1.47420e-13
  145 226.970 -5.31873e-10 -1.01952e-13
  146 226.970 -5.31665e-10 -1.98590e-13
  147 226.970 -5.31448e-10 1.04519e-13
  148 226.970 -5.31600e-10 7.40312e-15
  149 226.970 -5.31600e-10 6.41174e-14
  150 226.970 -5.31448e-10 1.69532e-13
  151 226.970 -5.31903e-10 4.07673e-14
  152 226.970 -5.30539e-10 -2.43247e-13
  153 226.970 -5.31600e-10 -9.51934e-14
  154 226.970 -5.31873e-10 1.35084e-13
  155 226.970 -5.30993e-10 8.60651e-14
  156 226.970 -5.31795e-10 -1.09336e-13
  157 226.970 -5.31145e-10 -3.28033e-13
  158 226.970 -5.30235e-10 2.28396e-13
  159 226.970 -5.30690e-10 1.15531e-13
  160 226.970 -5.31691e-10 -3.77007e-13
  161 226.970 -5.31509e-10 -2.28876e-14
  162 226.970 -5.31600e-10 1.77794e-13
  163 226.970 -5.30690e-10 -1.61303e-13
  164 226.970 -5.31405e-10 -2.47755e-14
  165 226.970 -5.31600e-10 -7.25377e-14
  166 226.970 -5.31795e-10 -5.34884e-15
  167 226.970 -5.31145e-10 2.21903e-14
  168 226.970 -5.31535e-10 -1.70933e-16
  169 226.970 -5.31405e-10 -5.33912e-14
  170 226.970 -5.32054e-10 -6.85958e-15
  171 226.970 -5.31145e-10 -1.36422e-14
  172 226.970 -5.29781e-10 -2.80324e-14
  173 226.970 -5.31448e-10 -3.56171e-13
  174 226.970 -5.31903e-10 -4.06264e-14
  175 226.970 -5.31751e-10 9.47947e-14
  176 226.970 -5.31145e-10 -2.60271e-13
  177 226.970 -5.31448e-10 1.26546e-14
  178 226.970 -5.31600e-10 2.85152e-13
  179 226.970 -5.31509e-10 9.13937e-14
  180 226.970 -5.31665e-10 -1.05930e-13
  181 226.970 -5.30993e-10 -9.93260e-14
  182 226.970 -5.30963e-10 1.44807e-13
  183 226.970 -5.31903e-10 -3.17878e-13
  184 226.970 -5.31509e-10 -1.39832e-13
  185 226.970 -5.31296e-10 -1.46198e-13
  186 226.970 -5.30417e-10 2.03681e-13
  187 226.970 -5.31751e-10 -1.23331e-13
  188 226.970 -5.31327e-10 -8.46325e-14
  189 226.970 -5.31509e-10 -2.88067e-13
  190 226.970 -5.31405e-10 -2.79060e-14
  191 226.970 -5.31751e-10 5.12765e-13
  192 226.970 -5.30365e-10 -3.12419e-14
  193 226.970 -5.31691e-10 -2.65352e-13
  194 226.970 -5.31145e-10 -2.50571e-13
  195 226.970 -5.31448e-10 -3.75124e-14
  196 226.970 -5.31600e-10 -2.83373e-13
  197 226.970 -5.30235e-10 1.18004e-13
  198 226.970 -5.31600e-10 1.37249e-13
  199 226.970 -5.31600e-10 3.64918e-14
  200 226.970 -5.30084e-10 3.27939e-13
  201 226.970 -5.31296e-10 2.26647e-13
  202 226.970 -5.31691e-10 -1.89429e-13
  203 226.970 -5.31751e-10 2.11862e-13
  204 226.970 -5.31600e-10 -8.20463e-14
  205 226.970 -5.31600e-10 -3.16979e-13
  206 226.970 -5.30054e-10 1.31814e-16
  207 226.970 -5.32054e-10 1.55019e-13
  208 226.970 -5.30781e-10 -5.91920e-14
  209 226.970 -5.31296e-10 -1.35638e-13
  210 226.970 -5.31600e-10 1.19741e-13
  211 226.970 -5.31145e-10 -6.52758e-14
  212 226.970 -5.31873e-10 7.99996e-14
  213 226.970 -5.31145e-10 5.61122e-13
  214 226.970 -5.31145e-10 1.16257e-13
  215 226.970 -5.30599e-10 5.00457e-13
  216 226.970 -5.30599e-10 -2.21570e-13
  217 226.970 -5.31448e-10 2.66501e-13
  218 226.970 -5.31600e-10 -5.97104e-14
  219 226.970 -5.32054e-10 1.57877e-13
  220 226.970 -5.31751e-10 2.48831e-13
  221 226.970 -5.31296e-10 -6.76351e-14
  222 226.970 -5.29629e-10 2.84189e-13
  223 226.970 -5.31509e-10 4.25847e-14
  224 226.970 -5.32054e-10 -2.60208e-14
  225 226.970 -5.31509e-10 7.39233e-14
  226 226.970 -5.31691e-10 -4.82923e-14
  227 226.970 -5.31600e-10 -1.82046e-13
  228 226.970 -5.31509e-10 1.17959e-13
  229 226.970 -5.30539e-10 1.86427e-14
  230 226.970 -5.31600e-10 -6.46396e-14
  231 226.970 -5.30235e-10 -1.97620e-13
  232 226.970 -5.31509e-10 -3.99508e-13
  233 226.970 -5.31691e-10 1.00772e-13
  234 226.970 -5.30539e-10 -1.44654e-13
  235 226.970 -5.31145e-10 1.04894e-14
  236 226.970 -5.31145e-10 -5.85971e-14
  237 226.970 -5.29872e-10 -3.30742e-13
  238 226.970 -5.31873e-10 -7.26041e-14
  239 226.970 -5.31296e-10 1.31804e-13
  240 226.970 -5.31509e-10 4.63732e-14
  241 226.970 -5.31296e-10 -9.30565e-14
</Section>

newXOutput 14

<Section columns = "stress_xx | stress_yy | stress_xy">
  1 245.358 -5.28416e-10 -1.61755e-13
  2 245.358 -5.29326e-10 -4.48105e-13
  3 245.358 -5.28416e-10 -1.91971e-14
  4 245.358 -5.31145e-10 9.29409e-14
  5 245.358 -5.28416e-10 5.01095e-14
  6 245.358 -5.28871e-10 1.14439e-13
  7 245.358 -5.29099e-10 3.75354e-13
  8 245.358 -5.29023e-10 -6.46117e-14
  9 245.358 -5.29023e-10 3.92749e-14
  10 245.358 -5.29023e-10 -1.15454e-13
  11 245.358 -5.29023e-10 1.83847e-13
  12 245.358 -5.28720e-10 1.92086e-13
  13 245.358 -5.28871e-10 7.79149e-14
  14 245.358 -5.29023e-10 -9.75661e-14
  15 245.358 -5.28871e-10 -8.38396e-14
  16 245.358 -5.28720e-10 -3.12616e-14
  17 245.358 -5.29023e-10 5.28347e-13
  18 245.358 -5.28720e-10 -5.34950e-14
  19 245.358 -5.28720e-10 -3.00994e-13
  20 245.358 -5.29023e-10 1.60485e-13
  21 245.358 -5.28416e-10 -1.26006e-13
  22 245.358 -5.29023e-10 1.39212e-13
  23 245.358 -5.29326e-10 -2.52013e-13
  24 245.358 -5.29629e-10 2.14570e-28
  25 245.358 -5.29781e-10 3.00909e-13
  26 245.358 -5.29099e-10 6.58239e-14
  27 245.358 -5.28720e-10 -1.56055e-13
  28 245.358 -5.28416e-10 3.72063e-14
  29 245.358 -5.28416e-10 1.30394e-13
  30 245.358 -5.28416e-10 1.33320e-13
  31 245.358 -5.28416e-10 -1.45825e-13
  32 245.358 -5.28871e-10 -2.28168e-13
  33 245.358 -5.30008e-10 -1.82339e-13
  34 245.358 -5.29023e-10 -6.63469e-13
  35 245.358 -5.28416e-10 -1.30983e-13
  36 245.358 -5.28720e-10 7.89402e-14
  37 245.358 -5.29023e-10 1.76032e-13
  38 245.358 -5.29023e-10 1.89006e-13
  39 245.358 -5.28416e-10 -3.53323e-14
  40 245.358 -5.28416e-10 3.80420e-14
  41 245.358 -5.28720e-10 -1.94681e-13
  42 245.358 -5.28416e-10 2.42647e-14
  43 245.358 -5.29932e-10 8.24108e-14
  44 245.358 -5.30842e-10 -3.81559e-13
  45 245.358 -5.30235e-10 -1.58957e-13
  46 245.358 -5.29326e-10 1.88206e-13
  47 245.358 -5.30539e-10 2.14998e-13
  48 245.358 -5.31145e-10 1.05523e-13
  49 245.358 -5.31145e-10 7.28219e-14
  50 245.358 -5.29629e-10 -1.56055e-13
  51 245.358 -5.28416e-10 -1.10333e-13
  52 245.358 -5.29781e-10 9.82736e-14
  53 245.358 -5.29629e-10 -1.82803e-13
  54 245.358 -5.28644e-10 2.18032e-13
  55 245.358 -5.30235e-10 0.00000
  56 245.358 -5.29326e-10 -2.70085e-13
  57 245.358 -5.28871e-10 6.01716e-14
  58 245.358 -5.28720e-10 3.59423e-13
  59 245.358 -5.28546e-10 -3.58162e-14
  60 245.358 -5.28568e-10 -2.12343e-13
  61 245.358 -5.28871e-10 1.72575e-13
  62 245.358 -5.28871e-10 -9.99394e-14
  63 245.358 -5.28962e-10 6.88580e-14
  64 245.358 -5.29023e-10 3.34133e-14
  65 245.358 -5.29932e-10 -8.00885e-14
  66 245.358 -5.28871e-10 -2.87147e-13
  67 245.358 -5.29023e-10 1.48877e-13
  68 245.358 -5.29023e-10 1.91660e-13
  69 245.358 -5.29066e-10 -2.45830e-13
  70 245.358 -5.28644e-10 -8.48687e-14
  71 245.358 -5.29174e-10 7.77791e-14
  72 245.358 -5.29716e-10 5.48166e-15
  73 245.358 -5.28806e-10 9.83776e-14
  74 245.358 -5.29872e-10 -8.57844e-14
  75 245.358 -5.28780e-10 -1.53796e-14
  76 245.358 -5.28871e-10 -2.38999e-13
  77 245.358 -5.29477e-10 -5.17630e-14
  78 245.358 -5.29023e-10 1.29141e-13
  79 245.358 -5.29716e-10 1.66841e-14
  80 245.358 -5.28871e-10 -1.58615e-13
  81 245.358 -5.29174e-10 1.68583e-13
  82 245.358 -5.30539e-10 -1.85005e-13
  83 245.358 -5.28871e-10 3.59704e-14
  84 245.358 -5.29932e-10 -2.18713e-13
  85 245.358 -5.28568e-10 7.46631e-14
  86 245.358 -5.30084e-10 4.39447e-14
  87 245.358 -5.29629e-10 -2.01874e-14
  88 245.358 -5.29326e-10 -7.39739e-14
  89 245.358 -5.28416e-10 -9.29980e-14
  90 245.358 -5.29023e-10 9.69881e-14
  91 245.358 -5.29508e-10 -1.26095e-13
  92 245.358 -5.30235e-10 -1.94388e-16
  93 245.358 -5.28780e-10 -1.02385e-13
  94 245.358 -5.29690e-10 -2.03353e-13
  95 245.358 -5.29326e-10 -2.23186e-13
  96 245.358 -5.28720e-10 4.87514e-14
  97 245.358 -5.28780e-10 1.25053e-13
  98 245.358 -5.29690e-10 2.07537e-13
  99 245.358 -5.28871e-10 4.23046e-14
  100 245.358 -5.28780e-10 -1.84963e-13
  101 245.358 -5.29174e-10 5.37518e-15
  102 245.358 -5.28780e-10 9.55659e-15
  103 245.358 -5.29174e-10 -2.04397e-13
  104 245.358 -5.28780e-10 -1.19098e-13
  105 245.358 -5.28598e-10 1.72230e-14
  106 245.358 -5.28568e-10 2.51751e-13
  107 245.358 -5.28871e-10 1.52539e-15
  108 245.358 -5.29932e-10 6.20278e-14
  109 245.358 -5.28780e-10 2.35767e-13
  110 245.358 -5.28416e-10 1.97600e-14
  111 245.358 -5.30122e-10 2.37428e-13
  112 245.358 -5.28416e-10 -1.72880e-13
  113 245.358 -5.29326e-10 -5.49679e-14
  114 245.358 -5.29326e-10 -1.27005e-13
  115 245.358 -5.29629e-10 1.29777e-14
  116 245.358 -5.29690e-10 2.65985e-13
  117 245.358 -5.28871e-10 -1.91153e-14
  118 245.358 -5.29174e-10 -8.55093e-14
  119 245.358 -5.28806e-10 2.22792e-13
  120 245.358 -5.28720e-10 -1.26957e-13
  121 245.358 -5.28936e-10 -1.41443e-14
  122 245.358 -5.28546e-10 1.68655e-14
  123 245.358 -5.29781e-10 -2.05021e-13
  124 245.358 -5.29066e-10 5.04113e-14
  125 245.358 -5.29099e-10 -2.22962e-13
  126 245.358 -5.29553e-10 2.35559e-15
  127 245.358 -5.28806e-10 3.90736e-14
  128 245.358 -5.28985e-10 2.37004e-14
  129 245.358 -5.29667e-10 -1.31927e-14
  130 245.358 -5.28720e-10 -2.43189e-13
  131 245.358 -5.29781e-10 -1.28560e-13
  132 245.358 -5.28644e-10 5.55598e-14
  133 245.358 -5.28936e-10 1.26821e-13
  134 245.358 -5.29326e-10 1.81383e-13
  135 245.358 -5.29066e-10 -1.53685e-14
  136 245.358 -5.30365e-10 1.56810e-13
  137 245.358 -5.28806e-10 -1.84173e-13
  138 245.358 -5.28871e-10 -6.88363e-14
  139 245.358 -5.29456e-10 -1.44526e-14
  140 245.358 -5.29196e-10 -1.33782e-13
  141 245.358 -5.29174e-10 2.54612e-13
  142 245.358 -5.29174e-10 -3.53103e-14
  143 245.358 -5.29196e-10 4.56810e-14
  144 245.358 -5.29872e-10 6.38367e-14
  145 245.358 -5.29872e-10 -2.69365e-13
  146 245.358 -5.29976e-10 -3.17820e-13
  147 245.358 -5.28416e-10 -1.98215e-14
  148 245.358 -5.29477e-10 -7.51284e-14
  149 245.358 -5.28416e-10 -2.92886e-13
  150 245.358 -5.28871e-10 5.80725e-14
  151 245.358 -5.28720e-10 8.80863e-14
  152 245.358 -5.28720e-10 -1.19672e-13
  153 245.358 -5.28871e-10 -6.14673e-14
  154 245.358 -5.28962e-10 2.52135e-14
  155 245.358 -5.28720e-10 -1.70730e-13
  156 245.358 -5.29066e-10 -5.40208e-14
  157 245.358 -5.29716e-10 -1.60324e-13
  158 245.358 -5.28720e-10 -2.36795e-13
  159 245.358 -5.29023e-10 8.46829e-14
  160 245.358 -5.30054e-10 -2.76735e-13
  161 245.358 -5.28598e-10 -2.12016e-13
  162 245.358 -5.28568e-10 6.57297e-14
  163 245.358 -5.28416e-10 -2.50027e-13
  164 245.358 -5.29196e-10 1.74814e-13
  165 245.358 -5.28871e-10 -2.01866e-13
  166 245.358 -5.29326e-10 1.34017e-13
  167 245.358 -5.29586e-10 1.84253e-13
  168 245.358 -5.28416e-10 4.32916e-14
  169 245.358 -5.28936e-10 9.97595e-15
  170 245.358 -5.28962e-10 3.55098e-13
  171 245.358 -5.28546e-10 1.00971e-14
  172 245.358 -5.29023e-10 -1.87578e-13
  173 245.358 -5.29781e-10 -1.94383e-13
  174 245.358 -5.29932e-10 -1.77569e-13
  175 245.358 -5.30539e-10 -6.52827e-14
  176 245.358 -5.28416e-10 -2.17246e-13
  177 245.358 -5.28416e-10 9.94180e-15
  178 245.358 -5.28871e-10 -8.46260e-14
  179 245.358 -5.29872e-10 -2.69675e-14
  180 245.358 -5.29456e-10 5.69597e-14
  181 245.358 -5.29174e-10 1.74091e-13
  182 245.358 -5.29144e-10 8.38297e-15
  183 245.358 -5.29326e-10 -2.79921e-13
  184 245.358 -5.28780e-10 2.25018e-13
  185 245.358 -5.29023e-10 -3.02270e-13
  186 245.358 -5.29326e-10 -9.88630e-15
  187 245.358 -5.29326e-10 -6.48033e-14
  188 245.358 -5.29326e-10 -6.70392e-14
  189 245.358 -5.28962e-10 8.54566e-14
  190 245.358 -5.29196e-10 -4.28960e-14
  191 245.358 -5.28871e-10 1.32207e-13
  192 245.358 -5.29066e-10 6.11311e-14
  193 245.358 -5.28598e-10 -1.29405e-13
  194 245.358 -5.29326e-10 1.08380e-13
  195 245.358 -5.29781e-10 1.94525e-14
  196 245.358 -5.28720e-10 3.89719e-14
  197 245.358 -5.28568e-10 -3.14803e-14
  198 245.358 -5.28871e-10 -3.68991e-13
  199 245.358 -5.29477e-10 6.96800e-14
  200 245.358 -5.29023e-10 2.12530e-13
  201 245.358 -5.28416e-10 5.00208e-14
  202 245.358 -5.29690e-10 5.23863e-14
  203 245.358 -5.28720e-10 4.82472e-14
  204 245.358 -5.28720e-10 6.84041e-14
  205 245.358 -5.28568e-10 -2.00302e-13
  206 245.358 -5.28780e-10 1.86589e-13
  207 245.358 -5.29690e-10 1.92568e-13
  208 245.358 -5.28598e-10 -3.50273e-13
  209 245.358 -5.28871e-10 -2.48568e-14
  210 245.358 -5.29932e-10 1.06891e-13
  211 245.358 -5.28546e-10 1.37160e-13
  212 245.358 -5.30054e-10 -9.74583e-14
  213 245.358 -5.31145e-10 2.13381e-14
  214 245.358 -5.29174e-10 7.69290e-14
  215 245.358 -5.28962e-10 -4.91487e-14
  216 245.358 -5.29326e-10 -2.92406e-13
  217 245.358 -5.28871e-10 -9.93578e-14
  218 245.358 -5.29932e-10 2.29653e-14
  219 245.358 -5.28780e-10 2.28488e-13
  220 245.358 -5.29174e-10 -1.54803e-15
  221 245.358 -5.28871e-10 1.53641e-13
  222 245.358 -5.28568e-10 8.50250e-14
  223 245.358 -5.29144e-10 -8.41018e-14
  224 245.358 -5.29326e-10 1.80884e-13
  225 245.358 -5.28780e-10 7.48762e-14
  226 245.358 -5.28962e-10 -9.14489e-14
  227 245.358 -5.28568e-10 2.80295e-13
  228 245.358 -5.28780e-10 -3.66675e-14
  229 245.358 -5.28871e-10 -4.51996e-14
  230 245.358 -5.28720e-10 -1.11081e-13
  231 245.358 -5.28598e-10 1.09343e-13
  232 245.358 -5.29144e-10 -3.23102e-13
  233 245.358 -5.28780e-10 -5.42142e-14
  234 245.358 -5.29023e-10 -8.97909e-14
  235 245.358 -5.28780e-10 -1.40891e-14
  236 245.358 -5.29066e-10 -1.50859e-13
  237 245.358 -5.29326e-10 -2.28327e-13
  238 245.358 -5.29508e-10 2.65151e-13
  239 245.358 -5.29174e-10 1.37857e-13
  240 245.358 -5.28962e-10 7.08981e-14
  241 245.358 -5.28416e-10 3.45208e-14
</Section>

newXOutput 15

<Section columns = "stress_xx | stress_yy | stress_xy">
  1 263.667 -5.25233e-10 1.10250e-13
  2 263.667 -5.24778e-10 -2.00041e-14
  3 263.667 -5.25688e-10 2.24791e-13
  4 263.667 -5.25233e-10 1.07532e-13
  5 263.667 -5.25385e-10 -2.32623e-14
  6 263.667 -5.25688e-10 -1.00475e-13
  7 263.667 -5.25915e-10 -2.04594e-14
  8 263.667 -5.25082e-10 -2.24294e-14
  9 263.667 -5.24778e-10 3.00056e-14
  10 263.667 -5.24778e-10 8.30468e-14
  11 263.667 -5.25082e-10 6.63772e-14
  12 263.667 -5.25688e-10 1.09113e-13
  13 263.667 -5.25688e-10 1.87083e-13
  14 263.667 -5.25688e-10 -2.61264e-13
  15 263.667 -5.25688e-10 -1.62306e-13
  16 263.667 -5.25385e-10 2.50959e-13
  17 263.667 -5.25991e-10 -6.66803e-14
  18 263.667 -5.25991e-10 -5.45584e-15
  19 263.667 -5.25688e-10 -1.77005e-13
  20 263.667 -5.25688e-10 -8.12285e-14
  21 263.667 -5.25688e-10 -1.21239e-14
  22 263.667 -5.25082e-10 -6.42559e-14
  23 263.667 -5.24778e-10 -1.46697e-13
  24 263.667 -5.25082e-10 -1.89129e-13
  25 263.667 -5.25688e-10 -2.20045e-13
  26 263.667 -5.25688e-10 -2.31868e-14
  27 263.667 -5.25688e-10 3.64922e-13
  28 263.667 -5.25233e-10 8.25168e-14
  29 263.667 -5.25688e-10 -2.50051e-13
  30 263.667 -5.25991e-10 1.50031e-14
  31 263.667 -5.25688e-10 2.66989e-13
  32 263.667 -5.25688e-10 1.54955e-13
  33 263.667 -5.25233e-10 2.73938e-14
  34 263.667 -5.25688e-10 -2.64535e-13
  35 263.667 -5.25461e-10 -1.92330e-13
  36 263.667 -5.25082e-10 5.45213e-14
  37 263.667 -5.25688e-10 -3.90143e-14
  38 263.667 -5.25688e-10 -6.02125e-15
  39 263.667 -5.25688e-10 3.62981e-14
  40 263.667 -5.25688e-10 -5.84229e-14
  41 263.667 -5.25082e-10 -1.67474e-13
  42 263.667 -5.25385e-10 -8.09570e-14
  43 263.667 -5.25385e-10 5.58775e-14
  44 263.667 -5.25688e-10 2.23066e-13
  45 263.667 -5.25688e-10 -7.90620e-15
  46 263.667 -5.25082e-10 -1.98241e-13
  47 263.667 -5.24778e-10 -2.88477e-14
  48 263.667 -5.24778e-10 2.71771e-14
  49 263.667 -5.25385e-10 9.50470e-14
  50 263.667 -5.25082e-10 8.35016e-14
  51 263.667 -5.25233e-10 -1.95040e-13
  52 263.667 -5.25461e-10 -2.31583e-14
  53 263.667 -5.25385e-10 3.78859e-15
  54 263.667 -5.25688e-10 -7.05823e-14
  55 263.667 -5.25688e-10 -1.20024e-13
  56 263.667 -5.25385e-10 7.47120e-14
  57 263.667 -5.25991e-10 4.56340e-14
  58 263.667 -5.25840e-10 1.09719e-13
  59 263.667 -5.25558e-10 -3.19553e-14
  60 263.667 -5.25536e-10 -8.11814e-14
  61 263.667 -5.25385e-10 4.67515e-14
  62 263.667 -5.25688e-10 -8.75939e-14
  63 263.667 -5.25688e-10 2.38411e-13
  64 263.667 -5.25233e-10 -2.27319e-13
  65 263.667 -5.25233e-10 5.65925e-14
  66 263.667 -5.25536e-10 -7.92775e-14
  67 263.667 -5.25233e-10 -1.34875e-13
  68 263.667 -5.25688e-10 -4.01974e-14
  69 263.667 -5.25558e-10 -4.20541e-14
  70 263.667 -5.25688e-10 4.75626e-14
  71 263.667 -5.24930e-10 1.44535e-14
  72 263.667 -5.25038e-10 -1.08650e-13
  73 263.667 -5.25428e-10 1.90299e-14
  74 263.667 -5.25506e-10 5.17285e-14
  75 263.667 -5.25870e-10 1.18652e-14
  76 263.667 -5.25688e-10 2.50353e-13
  77 263.667 -5.25688e-10 -3.06882e-14
  78 263.667 -5.25385e-10 -8.23841e-14
  79 263.667 -5.25688e-10 1.00783e-13
  80 263.667 -5.25688e-10 2.52320e-14
  81 263.667 -5.25385e-10 -7.50912e-14
  82 263.667 -5.25233e-10 2.62647e-13
  83 263.667 -5.25688e-10 7.66437e-14
  84 263.667 -5.25536e-10 -2.34911e-15
  85 263.667 -5.25385e-10 2.12158e-14
  86 263.667 -5.25688e-10 8.33501e-14
  87 263.667 -5.25082e-10 7.23060e-14
  88 263.667 -5.26234e-10 -4.51016e-13
  89 263.667 -5.25870e-10 8.85400e-14
  90 263.667 -5.24930e-10 -5.19045e-14
  91 263.667 -5.25324e-10 -8.41083e-14
  92 263.667 -5.25324e-10 -2.33686e-14
  93 263.667 -5.25688e-10 3.54980e-13
  94 263.667 -5.25688e-10 1.83218e-13
  95 263.667 -5.25688e-10 -2.42557e-14
  96 263.667 -5.25688e-10 -1.38289e-14
  97 263.667 -5.25870e-10 3.05513e-14
  98 263.667 -5.24960e-10 -9.37011e-14
  99 263.667 -5.25385e-10 1.08962e-13
  100 263.667 -5.25324e-10 1.20115e-13
  101 263.667 -5.25536e-10 -3.27343e-14
  102 263.667 -5.25506e-10 1.70032e-14
  103 263.667 -5.25536e-10 1.06234e-13
  104 263.667 -5.25506e-10 1.16837e-14
  105 263.667 -5.25688e-10 1.92266e-13
  106 263.667 -5.25840e-10 -1.39044e-13
  107 263.667 -5.25688e-10 1.62153e-14
  108 263.667 -5.25385e-10 -3.72993e-14
  109 263.667 -5.25688e-10 -9.95199e-14
  110 263.667 -5.24778e-10 1.21479e-13
  111 263.667 -5.25461e-10 -2.19700e-13
  112 263.667 -5.25385e-10 2.08940e-14
  113 263.667 -5.25558e-10 3.74267e-14
  114 263.667 -5.25168e-10 1.03177e-13
  115 263.667 -5.25233e-10 9.27416e-14
  116 263.667 -5.25688e-10 5.21009e-14
  117 263.667 -5.25385e-10 -3.92882e-13
  118 263.667 -5.25233e-10 1.46968e-13
  119 263.667 -5.25688e-10 -3.51371e-14
  120 263.667 -5.25385e-10 -4.75476e-14
  121 263.667 -5.25428e-10 2.15786e-14
  122 263.667 -5.25428e-10 5.20228e-14
  123 263.667 -5.25385e-10 6.86213e-14
  124 263.667 -5.25948e-10 -7.03676e-14
  125 263.667 -5.25802e-10 -1.05505e-13
  126 263.667 -5.25006e-10 -1.77454e-14
  127 263.667 -5.25688e-10 8.08546e-15
  128 263.667 -5.25802e-10 1.37528e-13
  129 263.667 -5.25233e-10 -4.26090e-14
  130 263.667 -5.25536e-10 7.78181e-14
  131 263.667 -5.25233e-10 6.63103e-14
  132 263.667 -5.25461e-10 -8.75138e-16
  133 263.667 -5.25688e-10 6.31289e-14
  134 263.667 -5.25168e-10 -3.13704e-14
  135 263.667 -5.25558e-10 -1.38992e-14
  136 263.667 -5.24778e-10 1.88634e-14
  137 263.667 -5.25948e-10 3.03672e-14
  138 263.667 -5.25536e-10 -9.71412e-14
  139 263.667 -5.25428e-10 -3.21657e-14
  140 263.667 -5.25428e-10 3.51044e-13
  141 263.667 -5.25688e-10 1.36389e-14
  142 263.667 -5.24778e-10 -1.13662e-14
  143 263.667 -5.25298e-10 1.52298e-14
  144 263.667 -5.25688e-10 1.47865e-13
  145 263.667 -5.25142e-10 -1.42029e-13
  146 263.667 -5.25558e-10 -2.42891e-14
  147 263.667 -5.25688e-10 1.49801e-14
  148 263.667 -5.25385e-10 -3.67506e-15
  149 263.667 -5.25385e-10 2.72782e-13
  150 263.667 -5.25536e-10 -1.20105e-13
  151 263.667 -5.25082e-10 -5.81180e-14
  152 263.667 -5.25536e-10 -5.47836e-14
  153 263.667 -5.25688e-10 -4.46681e-14
  154 263.667 -5.26052e-10 4.02805e-14
  155 263.667 -5.25688e-10 -6.86030e-14
  156 263.667 -5.25688e-10 2.26539e-13
  157 263.667 -5.25428e-10 1.04564e-14
  158 263.667 -5.25688e-10 -1.56509e-13
  159 263.667 -5.25536e-10 1.35823e-13
  160 263.667 -5.25324e-10 5.51017e-14
  161 263.667 -5.25688e-10 2.98787e-13
  162 263.667 -5.25688e-10 -1.06274e-14
  163 263.667 -5.25385e-10 -8.25168e-14
  164 263.667 -5.25688e-10 6.64413e-14
  165 263.667 -5.25536e-10 5.08244e-14
  166 263.667 -5.25168e-10 -4.08364e-14
  167 263.667 -5.25558e-10 -1.66007e-13
  168 263.667 -5.25558e-10 -1.22103e-13
  169 263.667 -5.25688e-10 -4.36615e-14
  170 263.667 -5.25870e-10 -1.95675e-13
  171 263.667 -5.25428e-10 3.85142e-14
  172 263.667 -5.25233e-10 2.10650e-14
  173 263.667 -5.25536e-10 7.92509e-14
  174 263.667 -5.25082e-10 -1.95495e-14
  175 263.667 -5.25082e-10 1.20330e-13
  176 263.667 -5.25385e-10 1.60638e-13
  177 263.667 -5.26294e-10 -1.19540e-13
  178 263.667 -5.25688e-10 5.28131e-14
  179 263.667 -5.25688e-10 6.01026e-14
  180 263.667 -5.25558e-10 -1.87702e-14
  181 263.667 -5.25233e-10 5.56927e-14
  182 263.667 -5.25324e-10 1.55913e-13
  183 263.667 -5.25536e-10 -6.81964e-14
  184 263.667 -5.25142e-10 -7.67434e-14
  185 263.667 -5.25688e-10 3.81136e-14
  186 263.667 -5.25506e-10 -1.34572e-13
  187 263.667 -5.25991e-10 -9.52338e-14
  188 263.667 -5.25688e-10 7.12814e-14
  189 263.667 -5.25688e-10 3.09109e-15
  190 263.667 -5.25298e-10 4.48179e-14
  191 263.667 -5.25536e-10 -4.28500e-14
  192 263.667 -5.25688e-10 4.63720e-14
  193 263.667 -5.25142e-10 -9.62779e-14
  194 263.667 -5.25536e-10 -1.97464e-13
  195 263.667 -5.25233e-10 -5.38960e-15
  196 263.667 -5.25233e-10 -2.01986e-13
  197 263.667 -5.25688e-10 -2.00173e-13
  198 263.667 -5.25688e-10 1.71549e-13
  199 263.667 -5.25536e-10 1.70485e-14
  200 263.667 -5.25840e-10 2.43761e-13
  201 263.667 -5.25688e-10 1.34061e-13
  202 263.667 -5.25688e-10 7.76511e-14
  203 263.667 -5.25385e-10 -1.73524e-14
  204 263.667 -5.25536e-10 -7.72128e-14
  205 263.667 -5.25536e-10 1.26787e-13
  206 263.667 -5.25688e-10 -1.26571e-13
  207 263.667 -5.24778e-10 -6.58361e-14
  208 263.667 -5.25324e-10 -2.56854e-13
  209 263.667 -5.25385e-10 -4.86462e-14
  210 263.667 -5.25082e-10 -1.96098e-15
  211 263.667 -5.25688e-10 3.80265e-14
  212 263.667 -5.25142e-10 3.54613e-14
  213 263.667 -5.24960e-10 4.28394e-14
  214 263.667 -5.25536e-10 -1.77466e-13
  215 263.667 -5.26052e-10 7.38841e-14
  216 263.667 -5.25688e-10 5.52605e-14
  217 263.667 -5.25385e-10 -3.49315e-14
  218 263.667 -5.25536e-10 3.41615e-14
  219 263.667 -5.25688e-10 1.04657e-13
  220 263.667 -5.25233e-10 -6.67183e-14
  221 263.667 -5.25840e-10 1.06091e-15
  222 263.667 -5.25688e-10 4.66755e-14
  223 263.667 -5.24778e-10 2.00950e-14
  224 263.667 -5.24778e-10 -2.20048e-14
  225 263.667 -5.25506e-10 3.75803e-13
  226 263.667 -5.25324e-10 2.73690e-14
  227 263.667 -5.25688e-10 -1.37909e-14
  228 263.667 -5.25688e-10 -1.60487e-13
  229 263.667 -5.25840e-10 -6.86315e-14
  230 263.667 -5.25082e-10 5.36470e-14
  231 263.667 -5.25688e-10 1.12385e-13
  232 263.667 -5.25324e-10 1.21024e-13
  233 263.667 -5.25688e-10 9.91104e-14
  234 263.667 -5.25840e-10 9.12990e-15
  235 263.667 -5.25506e-10 -1.26272e-13
  236 263.667 -5.25688e-10 -4.91662e-14
  237 263.667 -5.24960e-10 -4.15423e-14
  238 263.667 -5.25324e-10 5.18256e-15
  239 263.667 -5.25385e-10 1.21236e-13
  240 263.667 -5.25688e-10 2.15497e-13
  241 263.667 -5.25385e-10 2.65199e-14
</Section>

newXOutput 16

<Section columns = "stress_xx | stress_yy | stress_xy">
  1 281.897 -5.24778e-10 2.87072e-14
  2 281.897 -5.25233e-10 9.97388e-14
  3 281.897 -5.24778e-10 -1.11133e-13
  4 281.897 -5.24778e-10 -2.87552e-14
  5 281.897 -5.24778e-10 -1.12379e-13
  6 281.897 -5.24778e-10 -3.71690e-13
  7 281.897 -5.25233e-10 -8.24629e-14
  8 281.897 -5.24778e-10 3.98955e-14
  9 281.897 -5.25082e-10 1.20031e-14
  10 281.897 -5.24778e-10 1.37519e-13
  11 281.897 -5.24778e-10 1.11570e-13
  12 281.897 -5.24778e-10 -9.40510e-14
  13 281.897 -5.25233e-10 1.59339e-13
  14 281.897 -5.24778e-10 3.94725e-13
  15 281.897 -5.24778e-10 1.81837e-13
  16 281.897 -5.24778e-10 1.75471e-13
  17 281.897 -5.24778e-10 -2.61740e-13
  18 281.897 -5.25385e-10 -3.36005e-13
  19 281.897 -5.25385e-10 -2.66921e-13
  20 281.897 -5.24778e-10 -1.84802e-14
  21 281.897 -5.25082e-10 -1.45939e-14
  22 281.897 -5.25385e-10 -5.18986e-14
  23 281.897 -5.25385e-10 -1.10274e-13
  24 281.897 -5.24778e-10 -2.91879e-14
  25 281.897 -5.24778e-10 1.99478e-14
  26 281.897 -5.25006e-10 8.10378e-15
  27 281.897 -5.24778e-10 -1.14894e-13
  28 281.897 -5.24778e-10 -3.44313e-14
  29 281.897 -5.25233e-10 1.09713e-13
  30 281.897 -5.25082e-10 1.04408e-13
  31 281.897 -5.24778e-10 1.46386e-14
  32 281.897 -5.24778e-10 7.65269e-14
  33 281.897 -5.24778e-10 -2.57274e-13
  34 281.897 -5.24778e-10 -6.39458e-14
  35 281.897 -5.24778e-10 -2.72626e-14
  36 281.897 -5.25385e-10 -6.70010e-14
  37 281.897 -5.25082e-10 -7.63321e-14
  38 281.897 -5.24778e-10 -1.71640e-13
  39 281.897 -5.24778e-10 -2.35018e-13
  40 281.897 -5.25082e-10 -4.42746e-13
  41 281.897 -5.25082e-10 -3.47802e-13
  42 281.897 -5.25385e-10 3.50793e-16
  43 281.897 -5.25082e-10 7.46472e-14
  44 281.897 -5.24778e-10 8.37885e-14
  45 281.897 -5.24778e-10 8.87326e-14
  46 281.897 -5.24778e-10 -8.22223e-14
  47 281.897 -5.25082e-10 -3.56180e-14
  48 281.897 -5.25385e-10 -3.35484e-14
  49 281.897 -5.24778e-10 -1.03165e-14
  50 281.897 -5.24778e-10 -1.54087e-14
  51 281.897 -5.24778e-10 0.00000
  52 281.897 -5.24778e-10 2.38459e-14
  53 281.897 -5.24778e-10 -6.52730e-14
  54 281.897 -5.25006e-10 2.75496e-14
  55 281.897 -5.25233e-10 -7.97911e-14
  56 281.897 -5.24778e-10 -9.52604e-15
  57 281.897 -5.24778e-10 -1.51417e-14
  58 281.897 -5.25385e-10 4.90866e-16
  59 281.897 -5.25038e-10 2.34936e-14
  60 281.897 -5.25233e-10 -9.34491e-14
  61 281.897 -5.24778e-10 1.71115e-14
  62 281.897 -5.24778e-10 -1.09891e-13
  63 281.897 -5.24960e-10 2.12685e-14
  64 281.897 -5.25233e-10 -2.99166e-14
  65 281.897 -5.24778e-10 -8.73455e-14
  66 281.897 -5.24930e-10 3.32893e-14
  67 281.897 -5.25233e-10 1.28667e-13
  68 281.897 -5.24930e-10 -1.25068e-13
  69 281.897 -5.25038e-10 5.25985e-14
  70 281.897 -5.24892e-10 -6.02643e-14
  71 281.897 -5.24930e-10 -7.88240e-15
  72 281.897 -5.25038e-10 1.78960e-14
  73 281.897 -5.25168e-10 1.60983e-14
  74 281.897 -5.24778e-10 -3.93878e-14
  75 281.897 -5.25142e-10 -1.11802e-13
  76 281.897 -5.25082e-10 -2.10899e-13
  77 281.897 -5.24778e-10 2.45704e-14
  78 281.897 -5.25233e-10 6.91451e-14
  79 281.897 -5.24908e-10 1.07173e-13
  80 281.897 -5.25082e-10 9.01318e-14
  81 281.897 -5.25082e-10 -1.27319e-13
  82 281.897 -5.24930e-10 5.67521e-14
  83 281.897 -5.24930e-10 -5.47311e-14
  84 281.897 -5.24778e-10 7.05662e-15
  85 281.897 -5.24930e-10 -1.31518e-13
  86 281.897 -5.24778e-10 7.77619e-14
  87 281.897 -5.24778e-10 -1.89844e-14
  88 281.897 -5.24415e-10 2.10628e-13
  89 281.897 -5.25142e-10 1.24163e-13
  90 281.897 -5.25233e-10 4.63803e-14
  91 281.897 -5.24778e-10 -4.97403e-15
  92 281.897 -5.24778e-10 5.22543e-14
  93 281.897 -5.24960e-10 6.42215e-14
  94 281.897 -5.24960e-10 1.95598e-13
  95 281.897 -5.24960e-10 -2.88855e-14
  96 281.897 -5.24930e-10 1.93892e-13
  97 281.897 -5.25324e-10 -2.34454e-14
  98 281.897 -5.24960e-10 6.60155e-14
  99 281.897 -5.24778e-10 -1.87669e-13
  100 281.897 -5.25324e-10 2.08738e-14
  101 281.897 -5.24930e-10 6.41016e-14
  102 281.897 -5.24960e-10 -1.82095e-13
  103 281.897 -5.25082e-10 8.31157e-14
  104 281.897 -5.24960e-10 -1.92418e-14
  105 281.897 -5.25142e-10 2.10896e-13
  106 281.897 -5.25536e-10 -1.47344e-14
  107 281.897 -5.25233e-10 2.00825e-14
  108 281.897 -5.24930e-10 2.86670e-14
  109 281.897 -5.24778e-10 1.99994e-14
  110 281.897 -5.25142e-10 -1.47991e-14
  111 281.897 -5.25006e-10 8.59766e-14
  112 281.897 -5.24778e-10 -7.93514e-14
  113 281.897 -5.25038e-10 -8.12566e-14
  114 281.897 -5.25038e-10 8.78057e-14
  115 281.897 -5.24778e-10 4.73163e-14
  116 281.897 -5.25142e-10 -8.17342e-15
  117 281.897 -5.25082e-10 -3.02585e-13
  118 281.897 -5.24778e-10 -5.82248e-14
  119 281.897 -5.24778e-10 -8.82295e-14
  120 281.897 -5.24930e-10 1.04340e-13
  121 281.897 -5.24778e-10 4.71857e-15
  122 281.897 -5.24778e-10 -6.36765e-14
  123 281.897 -5.25082e-10 -8.58498e-14
  124 281.897 -5.25428e-10 1.09044e-14
  125 281.897 -5.24778e-10 -5.02138e-14
  126 281.897 -5.25120e-10 6.50480e-15
  127 281.897 -5.24778e-10 -1.01777e-14
  128 281.897 -5.25461e-10 5.74789e-14
  129 281.897 -5.24892e-10 1.16487e-14
  130 281.897 -5.25082e-10 -8.20655e-15
  131 281.897 -5.25385e-10 8.05386e-14
  132 281.897 -5.25461e-10 -4.50310e-14
  133 281.897 -5.25038e-10 -2.41095e-13
  134 281.897 -5.24778e-10 4.90968e-14
  135 281.897 -5.25168e-10 1.56364e-14
  136 281.897 -5.25038e-10 1.55890e-14
  137 281.897 -5.25038e-10 4.31768e-13
  138 281.897 -5.24778e-10 4.30177e-14
  139 281.897 -5.24778e-10 9.54968e-14
  140 281.897 -5.24778e-10 -6.45439e-14
  141 281.897 -5.25082e-10 8.49374e-14
  142 281.897 -5.25385e-10 7.67473e-14
  143 281.897 -5.24778e-10 -5.55482e-14
  144 281.897 -5.25142e-10 -5.22752e-14
  145 281.897 -5.25142e-10 -2.42406e-13
  146 281.897 -5.25038e-10 -3.02049e-14
  147 281.897 -5.25082e-10 -1.16724e-13
  148 281.897 -5.24778e-10 -1.55655e-14
  149 281.897 -5.24930e-10 -2.77483e-13
  150 281.897 -5.24930e-10 -3.75591e-14
  151 281.897 -5.24778e-10 -9.60043e-14
  152 281.897 -5.24930e-10 -3.39701e-13
  153 281.897 -5.25082e-10 1.40753e-14
  154 281.897 -5.25506e-10 1.00127e-13
  155 281.897 -5.25385e-10 -1.92314e-13
  156 281.897 -5.25038e-10 -3.37711e-14
  157 281.897 -5.24908e-10 -1.78257e-14
  158 281.897 -5.25082e-10 -6.73838e-14
  159 281.897 -5.24930e-10 1.83228e-14
  160 281.897 -5.24778e-10 -3.14762e-14
  161 281.897 -5.25142e-10 -1.10827e-13
  162 281.897 -5.25082e-10 -2.39100e-15
  163 281.897 -5.25233e-10 -1.03521e-14
  164 281.897 -5.24908e-10 2.30431e-13
  165 281.897 -5.24778e-10 4.09832e-14
  166 281.897 -5.24778e-10 4.18823e-16
  167 281.897 -5.24778e-10 -5.28443e-14
  168 281.897 -5.24649e-10 2.02589e-13
  169 281.897 -5.25038e-10 3.04270e-15
  170 281.897 -5.25142e-10 2.49244e-13
  171 281.897 -5.24908e-10 2.14767e-14
  172 281.897 -5.24930e-10 -8.26855e-15
  173 281.897 -5.24778e-10 -4.02059e-14
  174 281.897 -5.24930e-10 -2.31863e-14
  175 281.897 -5.24778e-10 1.89361e-14
  176 281.897 -5.24778e-10 4.29203e-14
  177 281.897 -5.24778e-10 1.05804e-13
  178 281.897 -5.24930e-10 -1.14148e-13
  179 281.897 -5.24960e-10 -3.14276e-14
  180 281.897 -5.25038e-10 4.53867e-14
  181 281.897 -5.25233e-10 -5.36697e-14
  182 281.897 -5.24778e-10 4.38380e-14
  183 281.897 -5.24778e-10 -2.40118e-14
  184 281.897 -5.24778e-10 -9.84697e-14
  185 281.897 -5.25082e-10 4.38299e-14
  186 281.897 -5.24778e-10 1.49459e-13
  187 281.897 -5.24778e-10 1.29269e-13
  188 281.897 -5.24778e-10 1.25316e-14
  189 281.897 -5.24778e-10 2.82214e-14
  190 281.897 -5.24778e-10 1.82836e-15
  191 281.897 -5.24930e-10 -4.37262e-14
  192 281.897 -5.24908e-10 1.07455e-13
  193 281.897 -5.24960e-10 7.34855e-14
  194 281.897 -5.25082e-10 -1.26457e-14
  195 281.897 -5.24930e-10 -6.57000e-14
  196 281.897 -5.24930e-10 8.69078e-14
  197 281.897 -5.25082e-10 1.47622e-14
  198 281.897 -5.25536e-10 -2.39677e-13
  199 281.897 -5.24778e-10 2.90715e-14
  200 281.897 -5.25233e-10 5.64756e-14
  201 281.897 -5.24930e-10 -8.19663e-14
  202 281.897 -5.24778e-10 -4.44164e-14
  203 281.897 -5.24930e-10 5.67768e-15
  204 281.897 -5.25082e-10 6.30275e-14
  205 281.897 -5.24930e-10 5.15697e-14
  206 281.897 -5.25324e-10 -3.14245e-14
  207 281.897 -5.24960e-10 -2.06863e-14
  208 281.897 -5.25142e-10 -1.47416e-13
  209 281.897 -5.25082e-10 2.25437e-14
  210 281.897 -5.24778e-10 2.29397e-14
  211 281.897 -5.24908e-10 -7.29032e-14
  212 281.897 -5.25142e-10 4.94292e-14
  213 281.897 -5.24960e-10 -2.73329e-14
  214 281.897 -5.25385e-10 2.87435e-14
  215 281.897 -5.25324e-10 2.61972e-13
  216 281.897 -5.24778e-10 -1.30017e-13
  217 281.897 -5.25385e-10 -7.67521e-15
  218 281.897 -5.24778e-10 -6.35666e-14
  219 281.897 -5.24778e-10 -5.20524e-14
  220 281.897 -5.24778e-10 6.29415e-14
  221 281.897 -5.25233e-10 -8.34509e-14
  222 281.897 -5.24930e-10 -5.24223e-14
  223 281.897 -5.24960e-10 1.10824e-13
  224 281.897 -5.25324e-10 6.77708e-14
  225 281.897 -5.25324e-10 3.22215e-13
  226 281.897 -5.25324e-10 6.31527e-14
  227 281.897 -5.25233e-10 -1.91318e-13
  228 281.897 -5.24778e-10 1.09713e-14
  229 281.897 -5.24778e-10 4.16009e-14
  230 281.897 -5.25233e-10 -1.66221e-13
  231 281.897 -5.24778e-10 7.02574e-14
  232 281.897 -5.24778e-10 -3.40524e-14
  233 281.897 -5.24778e-10 -6.13462e-14
  234 281.897 -5.25082e-10 -7.72520e-14
  235 281.897 -5.25324e-10 -1.43597e-13
  236 281.897 -5.24908e-10 4.35455e-14
  237 281.897 -5.24960e-10 -6.98401e-14
  238 281.897 -5.24778e-10 1.21798e-13
  239 281.897 -5.25082e-10 1.20891e-14
  240 281.897 -5.24960e-10 7.94085e-14
  241 281.897 -5.24778e-10 1.13554e-14
</Section>

newXOutput 17

<Section columns = "stress_xx | stress_yy | stress_xy">
  1 300.049 -5.21140e-10 2.90622e-14
  2 300.049 -5.21140e-10 2.40264e-14
  3 300.049 -5.21140e-10 -3.54635e-14
  4 300.049 -5.21140e-10 -8.91830e-14
  5 300.049 -5.21140e-10 -6.22592e-14
  6 300.049 -5.21140e-10 -2.03051e-13
  7 300.049 -5.21140e-10 3.03543e-14
  8 300.049 -5.21140e-10 5.30445e-14
  9 300.049 -5.21140e-10 -8.02558e-14
  10 300.049 -5.21140e-10 6.83729e-14
  11 300.049 -5.22050e-10 1.90479e-13
  12 300.049 -5.21140e-10 2.68668e-14
  13 300.049 -5.21140e-10 -5.96750e-14
  14 300.049 -5.21140e-10 1.95303e-13
  15 300.049 -5.21140e-10 6.65861e-14
  16 300.049 -5.21140e-10 -6.90621e-14
  17 300.049 -5.22959e-10 2.65222e-14
  18 300.049 -5.22050e-10 1.61890e-13
  19 300.049 -5.21140e-10 2.44213e-13
  20 300.049 -5.21140e-10 1.75151e-13
  21 300.049 -5.22050e-10 2.16313e-13
  22 300.049 -5.22050e-10 2.74870e-13
  23 300.049 -5.21140e-10 2.49037e-13
  24 300.049 -5.21140e-10 2.92787e-14
  25 300.049 -5.21140e-10 -9.94584e-14
  26 300.049 -5.21823e-10 -9.44854e-14
  27 300.049 -5.22050e-10 4.52963e-14
  28 300.049 -5.21140e-10 -8.20531e-14
  29 300.049 -5.21140e-10 -9.94584e-15
  30 300.049 -5.21140e-10 4.08822e-14
  31 300.049 -5.21140e-10 8.50728e-14
  32 300.049 -5.21140e-10 -7.83339e-14
  33 300.049 -5.21140e-10 6.41588e-14
  34 300.049 -5.21140e-10 4.34985e-14
  35 300.049 -5.21140e-10 -2.71474e-14
  36 300.049 -5.21140e-10 -1.50489e-13
  37 300.049 -5.21140e-10 -4.98967e-14
  38 300.049 -5.21140e-10 1.23374e-14
  39 300.049 -5.21140e-10 2.20522e-14
  40 300.049 -5.22050e-10 1.08430e-13
  41 300.049 -5.21140e-10 2.21571e-13
  42 300.049 -5.21140e-10 -1.46353e-13
  43 300.049 -5.21140e-10 5.02634e-14
  44 300.049 -5.21140e-10 1.19567e-13
  45 300.049 -5.21140e-10 4.24188e-14
  46 300.049 -5.21140e-10 1.14941e-14
  47 300.049 -5.21140e-10 6.41549e-14
  48 300.049 -5.21140e-10 7.14939e-14
  49 300.049 -5.21140e-10 -6.37885e-15
  50 300.049 -5.21140e-10 2.62428e-14
  51 300.049 -5.21140e-10 -1.49188e-14
  52 300.049 -5.21140e-10 7.17441e-14
  53 300.049 -5.21140e-10 3.28082e-14
  54 300.049 -5.21140e-10 -1.25615e-14
  55 300.049 -5.21140e-10 -7.95667e-14
  56 300.049 -5.21140e-10 -9.73490e-14
  57 300.049 -5.21140e-10 -2.86327e-14
  58 300.049 -5.21140e-10 -1.72278e-13
  59 300.049 -5.21530e-10 7.05727e-14
  60 300.049 -5.21140e-10 1.20596e-15
  61 300.049 -5.21140e-10 1.06628e-13
  62 300.049 -5.21140e-10 -1.17499e-13
  63 300.049 -5.21140e-10 -2.68359e-13
  64 300.049 -5.22050e-10 3.69197e-14
  65 300.049 -5.21140e-10 -8.02511e-14
  66 300.049 -5.21140e-10 -5.83189e-14
  67 300.049 -5.21140e-10 2.46923e-14
  68 300.049 -5.21140e-10 3.17326e-14
  69 300.049 -5.21140e-10 -2.66391e-14
  70 300.049 -5.21140e-10 -1.20765e-14
  71 300.049 -5.21140e-10 8.48958e-14
  72 300.049 -5.21140e-10 -8.91961e-14
  73 300.049 -5.21140e-10 5.87251e-14
  74 300.049 -5.21140e-10 -2.74460e-14
  75 300.049 -5.21140e-10 -8.56766e-14
  76 300.049 -5.21140e-10 -6.50577e-14
  77 300.049 -5.22050e-10 -6.28600e-15
  78 300.049 -5.21595e-10 8.11160e-14
  79 300.049 -5.21140e-10 6.42518e-14
  80 300.049 -5.22050e-10 2.96326e-14
  81 300.049 -5.21595e-10 9.84153e-14
  82 300.049 -5.21140e-10 -1.12489e-13
  83 300.049 -5.21140e-10 -6.18926e-14
  84 300.049 -5.21595e-10 2.69529e-14
  85 300.049 -5.21140e-10 5.04835e-14
  86 300.049 -5.21140e-10 -1.31019e-13
  87 300.049 -5.21140e-10 4.22912e-14
  88 300.049 -5.21140e-10 1.40862e-14
  89 300.049 -5.21686e-10 -5.24035e-14
  90 300.049 -5.21140e-10 -2.77713e-14
  91 300.049 -5.21140e-10 -6.46870e-14
  92 300.049 -5.21140e-10 -3.93447e-14
  93 300.049 -5.21140e-10 -8.92554e-14
  94 300.049 -5.21140e-10 1.33146e-13
  95 300.049 -5.21140e-10 -7.15038e-14
  96 300.049 -5.21292e-10 6.13280e-14
  97 300.049 -5.21140e-10 -2.01967e-13
  98 300.049 -5.21140e-10 1.16249e-14
  99 300.049 -5.21140e-10 -4.24095e-14
  100 300.049 -5.21140e-10 8.74200e-14
  101 300.049 -5.21140e-10 -1.07188e-13
  102 300.049 -5.21140e-10 1.23471e-13
  103 300.049 -5.21140e-10 4.32709e-14
  104 300.049 -5.21140e-10 -6.65086e-14
  105 300.049 -5.21140e-10 8.70211e-14
  106 300.049 -5.22050e-10 5.29699e-14
  107 300.049 -5.21140e-10 2.05808e-14
  108 300.049 -5.21140e-10 6.46537e-14
  109 300.049 -5.21140e-10 -3.95514e-14
  110 300.049 -5.21140e-10 -1.62486e-14
  111 300.049 -5.21140e-10 1.01706e-13
  112 300.049 -5.21140e-10 -1.88816e-15
  113 300.049 -5.21140e-10 -3.64067e-14
  114 300.049 -5.21140e-10 6.17302e-15
  115 300.049 -5.21140e-10 -3.86296e-14
  116 300.049 -5.21140e-10 6.85620e-14
  117 300.049 -5.21140e-10 8.52939e-14
  118 300.049 -5.21140e-10 -4.48197e-14
  119 300.049 -5.21140e-10 -3.79933e-14
  120 300.049 -5.21595e-10 6.87361e-14
  121 300.049 -5.21140e-10 3.06317e-15
  122 300.049 -5.21140e-10 -2.78908e-14
  123 300.049 -5.21140e-10 -1.43376e-13
  124 300.049 -5.21140e-10 -1.10773e-13
  125 300.049 -5.21140e-10 7.74848e-14
  126 300.049 -5.21140e-10 -1.90762e-14
  127 300.049 -5.21140e-10 1.09867e-13
  128 300.049 -5.21140e-10 6.59400e-14
  129 300.049 -5.21140e-10 -1.73763e-17
  130 300.049 -5.21140e-10 -4.03758e-14
  131 300.049 -5.21140e-10 -7.11200e-14
  132 300.049 -5.21140e-10 -1.01198e-14
  133 300.049 -5.21920e-10 5.42870e-14
  134 300.049 -5.21140e-10 9.86840e-14
  135 300.049 -5.21920e-10 -3.78277e-14
  136 300.049 -5.21140e-10 4.73513e-14
  137 300.049 -5.21140e-10 2.04814e-13
  138 300.049 -5.21140e-10 7.91592e-14
  139 300.049 -5.21530e-10 1.67462e-14
  140 300.049 -5.21140e-10 -8.19852e-14
  141 300.049 -5.21140e-10 4.01710e-14
  142 300.049 -5.21140e-10 -9.71768e-14
  143 300.049 -5.21140e-10 -2.70886e-14
  144 300.049 -5.21140e-10 -9.82961e-14
  145 300.049 -5.21140e-10 -7.03668e-14
  146 300.049 -5.21140e-10 -8.98452e-14
  147 300.049 -5.21595e-10 8.49792e-16
  148 300.049 -5.21595e-10 -7.57810e-15
  149 300.049 -5.21140e-10 1.76752e-14
  150 300.049 -5.21140e-10 -8.16246e-14
  151 300.049 -5.21140e-10 4.02538e-15
  152 300.049 -5.21140e-10 4.94034e-15
  153 300.049 -5.21595e-10 9.72419e-14
  154 300.049 -5.22778e-10 4.89804e-14
  155 300.049 -5.21595e-10 -3.41865e-14
  156 300.049 -5.21140e-10 -4.44529e-14
  157 300.049 -5.21140e-10 -5.31156e-14
  158 300.049 -5.21747e-10 3.05965e-14
  159 300.049 -5.21292e-10 -6.56118e-14
  160 300.049 -5.21140e-10 2.16741e-14
  161 300.049 -5.21686e-10 2.10338e-13
  162 300.049 -5.21140e-10 7.19897e-14
  163 300.049 -5.21595e-10 -6.85126e-14
  164 300.049 -5.21140e-10 2.58424e-14
  165 300.049 -5.21595e-10 3.43913e-14
  166 300.049 -5.21140e-10 7.00688e-14
  167 300.049 -5.21140e-10 -4.99687e-14
  168 300.049 -5.21140e-10 8.93847e-14
  169 300.049 -5.21530e-10 -6.32276e-14
  170 300.049 -5.21140e-10 2.67610e-13
  171 300.049 -5.21530e-10 -2.19401e-14
  172 300.049 -5.21140e-10 -3.70269e-14
  173 300.049 -5.21140e-10 -4.27326e-14
  174 300.049 -5.21140e-10 3.10105e-15
  175 300.049 -5.21140e-10 -6.48539e-15
  176 300.049 -5.21140e-10 -5.03112e-14
  177 300.049 -5.21140e-10 4.72951e-14
  178 300.049 -5.21140e-10 -3.30887e-14
  179 300.049 -5.21140e-10 6.81485e-14
  180 300.049 -5.21140e-10 3.10368e-14
  181 300.049 -5.21140e-10 -9.24948e-14
  182 300.049 -5.21140e-10 -7.68475e-14
  183 300.049 -5.21140e-10 -1.69403e-13
  184 300.049 -5.21686e-10 -8.16340e-14
  185 300.049 -5.21595e-10 1.44991e-14
  186 300.049 -5.21140e-10 7.24900e-14
  187 300.049 -5.21140e-10 6.78153e-14
  188 300.049 -5.21140e-10 -1.06008e-14
  189 300.049 -5.21140e-10 4.30646e-14
  190 300.049 -5.21140e-10 6.52746e-15
  191 300.049 -5.21140e-10 -7.33017e-15
  192 300.049 -5.21140e-10 6.58572e-14
  193 300.049 -5.21140e-10 3.39965e-14
  194 300.049 -5.21595e-10 6.61333e-14
  195 300.049 -5.21140e-10 4.41189e-16
  196 300.049 -5.21140e-10 1.28183e-13
  197 300.049 -5.21595e-10 -7.79422e-14
  198 300.049 -5.21140e-10 9.35169e-14
  199 300.049 -5.21140e-10 -6.88467e-14
  200 300.049 -5.21140e-10 -6.61239e-14
  201 300.049 -5.21140e-10 -2.66992e-14
  202 300.049 -5.21140e-10 -9.85029e-14
  203 300.049 -5.21140e-10 -4.14200e-14
  204 300.049 -5.21140e-10 -9.01632e-14
  205 300.049 -5.21140e-10 7.49173e-14
  206 300.049 -5.21686e-10 1.24569e-13
  207 300.049 -5.21140e-10 4.09532e-14
  208 300.049 -5.21686e-10 -7.86743e-14
  209 300.049 -5.22050e-10 -1.01139e-13
  210 300.049 -5.21140e-10 -3.42219e-16
  211 300.049 -5.21140e-10 -1.01304e-13
  212 300.049 -5.21686e-10 7.61582e-14
  213 300.049 -5.21140e-10 9.70300e-15
  214 300.049 -5.21140e-10 -6.48145e-14
  215 300.049 -5.21140e-10 -1.05520e-13
  216 300.049 -5.21140e-10 -1.72322e-13
  217 300.049 -5.21595e-10 9.60127e-15
  218 300.049 -5.21140e-10 -3.93945e-14
  219 300.049 -5.21140e-10 1.81874e-14
  220 300.049 -5.21140e-10 -1.43180e-15
  221 300.049 -5.22050e-10 9.73816e-14
  222 300.049 -5.21140e-10 -1.00106e-13
  223 300.049 -5.21686e-10 7.06028e-14
  224 300.049 -5.21140e-10 3.68387e-14
  225 300.049 -5.21140e-10 -2.64848e-15
  226 300.049 -5.21140e-10 1.82126e-14
  227 300.049 -5.21140e-10 -4.44117e-14
  228 300.049 -5.21140e-10 3.41008e-14
  229 300.049 -5.22050e-10 -2.16034e-14
  230 300.049 -5.21140e-10 -1.67100e-13
  231 300.049 -5.21140e-10 -3.66320e-14
  232 300.049 -5.21140e-10 -8.95655e-14
  233 300.049 -5.21140e-10 -2.08270e-13
  234 300.049 -5.21140e-10 -6.16696e-14
  235 300.049 -5.21686e-10 1.30749e-13
  236 300.049 -5.21140e-10 -1.69487e-14
  237 300.049 -5.21140e-10 4.88353e-14
  238 300.049 -5.21140e-10 1.38906e-13
  239 300.049 -5.21140e-10 -1.26476e-13
  240 300.049 -5.21140e-10 -5.83843e-14
  241 300.049 -5.21140e-10 -6.43685e-14
</Section>

newXOutput 18

<Section columns = "stress_xx | stress_yy | stress_xy">
  1 318.124 -5.21595e-10 -2.47674e-13
  2 318.124 -5.22959e-10 -1.38851e-13
  3 318.124 -5.19776e-10 -1.53666e-14
  4 318.124 -5.21595e-10 2.01756e-13
  5 318.124 -5.19625e-10 -3.14452e-13
  6 318.124 -5.20231e-10 -1.43585e-14
  7 318.124 -5.19321e-10 -9.47971e-14
  8 318.124 -5.19625e-10 -1.18650e-13
  9 318.124 -5.19625e-10 7.64219e-14
  10 318.124 -5.21140e-10 8.89155e-14
  11 318.124 -5.22959e-10 2.78066e-13
  12 318.124 -5.22959e-10 -2.09900e-13
  13 318.124 -5.20913e-10 7.05208e-14
  14 318.124 -5.19018e-10 6.28825e-13
  15 318.124 -5.21595e-10 8.97012e-14
  16 318.124 -5.20231e-10 -5.37718e-13
  17 318.124 -5.22050e-10 -3.49663e-13
  18 318.124 -5.22050e-10 -2.83544e-13
  19 318.124 -5.18412e-10 -4.96586e-13
  20 318.124 -5.19928e-10 1.35160e-13
  21 318.124 -5.22959e-10 6.18522e-13
  22 318.124 -5.22353e-10 2.10121e-13
  23 318.124 -5.23263e-10 9.25671e-14
  24 318.124 -5.21140e-10 -1.32239e-13
  25 318.124 -5.21595e-10 -1.98358e-14
  26 318.124 -5.22277e-10 -5.51683e-14
  27 318.124 -5.20231e-10 1.52074e-13
  28 318.124 -5.19776e-10 3.65295e-14
  29 318.124 -5.20231e-10 1.68604e-13
  30 318.124 -5.20231e-10 8.09962e-14
  31 318.124 -5.19928e-10 1.79478e-13
  32 318.124 -5.19776e-10 6.35704e-13
  33 318.124 -5.21823e-10 3.83650e-13
  34 318.124 -5.20837e-10 1.87094e-13
  35 318.124 -5.21595e-10 -3.76938e-13
  36 318.124 -5.21140e-10 -6.81452e-13
  37 318.124 -5.22959e-10 -3.19342e-13
  38 318.124 -5.20837e-10 -3.99724e-14
  39 318.124 -5.19928e-10 1.09578e-13
  40 318.124 -5.22050e-10 -1.88865e-13
  41 318.124 -5.22050e-10 -2.32585e-14
  42 318.124 -5.22050e-10 -2.06745e-13
  43 318.124 -5.22050e-10 -6.49857e-14
  44 318.124 -5.22050e-10 2.30311e-13
  45 318.124 -5.21140e-10 5.53773e-15
  46 318.124 -5.22959e-10 4.98027e-14
  47 318.124 -5.22050e-10 9.90171e-14
  48 318.124 -5.19018e-10 -1.07889e-13
  49 318.124 -5.19018e-10 2.26543e-13
  50 318.124 -5.22959e-10 -6.28231e-14
  51 318.124 -5.22959e-10 -1.48768e-14
  52 318.124 -5.22959e-10 5.58242e-14
  53 318.124 -5.22959e-10 9.91790e-15
  54 318.124 -5.22959e-10 -2.12125e-14
  55 318.124 -5.22959e-10 0.00000
  56 318.124 -5.22959e-10 4.05943e-14
  57 318.124 -5.22050e-10 -2.30029e-13
  58 318.124 -5.21595e-10 -3.23196e-13
  59 318.124 -5.22180e-10 -5.11978e-14
  60 318.124 -5.21292e-10 2.08393e-13
  61 318.124 -5.22050e-10 4.84940e-14
  62 318.124 -5.22959e-10 1.39024e-13
  63 318.124 -5.20595e-10 9.45663e-14
  64 318.124 -5.20989e-10 4.74214e-14
  65 318.124 -5.22959e-10 3.59581e-14
  66 318.124 -5.22050e-10 5.88684e-14
  67 318.124 -5.21444e-10 -1.58474e-13
  68 318.124 -5.20989e-10 2.00107e-13
  69 318.124 -5.22570e-10 -3.86432e-14
  70 318.124 -5.21595e-10 8.21113e-14
  71 318.124 -5.22050e-10 7.21786e-14
  72 318.124 -5.21140e-10 -2.66189e-13
  73 318.124 -5.20881e-10 3.77185e-13
  74 318.124 -5.22959e-10 1.26251e-13
  75 318.124 -5.22959e-10 -8.01100e-14
  76 318.124 -5.22050e-10 -3.71171e-13
  77 318.124 -5.21898e-10 3.69688e-14
  78 318.124 -5.22959e-10 1.99982e-13
  79 318.124 -5.21790e-10 -8.76514e-14
  80 318.124 -5.21444e-10 -5.39714e-14
  81 318.124 -5.22959e-10 5.04044e-13
  82 318.124 -5.21140e-10 -1.59193e-13
  83 318.124 -5.22959e-10 3.73714e-14
  84 318.124 -5.21595e-10 -3.52702e-14
  85 318.124 -5.22050e-10 -8.46706e-15
  86 318.124 -5.21444e-10 2.11562e-13
  87 318.124 -5.22050e-10 6.16193e-14
  88 318.124 -5.20231e-10 7.78661e-14
  89 318.124 -5.21868e-10 -2.28845e-13
  90 318.124 -5.20231e-10 -1.85864e-13
  91 318.124 -5.21868e-10 -3.82876e-14
  92 318.124 -5.22414e-10 1.33152e-13
  93 318.124 -5.20231e-10 -6.06893e-13
  94 318.124 -5.21140e-10 1.24112e-13
  95 318.124 -5.21322e-10 1.05660e-13
  96 318.124 -5.22202e-10 2.82055e-13
  97 318.124 -5.18776e-10 -4.82170e-13
  98 318.124 -5.21868e-10 8.07859e-15
  99 318.124 -5.22959e-10 2.06819e-14
  100 318.124 -5.21322e-10 -1.24954e-13
  101 318.124 -5.19625e-10 1.35372e-13
  102 318.124 -5.20413e-10 -2.52877e-13
  103 318.124 -5.22505e-10 1.23344e-13
  104 318.124 -5.21868e-10 -2.39004e-13
  105 318.124 -5.21868e-10 4.31952e-13
  106 318.124 -5.21595e-10 -1.78330e-13
  107 318.124 -5.21595e-10 6.12851e-14
  108 318.124 -5.22808e-10 7.83484e-14
  109 318.124 -5.22414e-10 -7.34961e-14
  110 318.124 -5.20231e-10 -2.06361e-13
  111 318.124 -5.22277e-10 1.02934e-13
  112 318.124 -5.22505e-10 6.46660e-14
  113 318.124 -5.20491e-10 -2.38337e-14
  114 318.124 -5.22570e-10 -3.61688e-13
  115 318.124 -5.22959e-10 -8.29195e-14
  116 318.124 -5.20049e-10 -4.38813e-14
  117 318.124 -5.20383e-10 1.18342e-13
  118 318.124 -5.22959e-10 1.15935e-13
  119 318.124 -5.22570e-10 9.55754e-14
  120 318.124 -5.22959e-10 1.11351e-13
  121 318.124 -5.22570e-10 -5.03300e-15
  122 318.124 -5.20881e-10 -2.07785e-13
  123 318.124 -5.20837e-10 -8.13106e-14
  124 318.124 -5.22959e-10 1.46544e-13
  125 318.124 -5.22277e-10 1.27391e-13
  126 318.124 -5.19549e-10 1.04082e-14
  127 318.124 -5.21920e-10 1.51059e-13
  128 318.124 -5.19435e-10 -9.03419e-14
  129 318.124 -5.22277e-10 6.56651e-14
  130 318.124 -5.20534e-10 -2.75284e-13
  131 318.124 -5.20686e-10 1.37447e-13
  132 318.124 -5.22277e-10 4.85680e-14
  133 318.124 -5.22180e-10 -1.00274e-13
  134 318.124 -5.22570e-10 4.95895e-14
  135 318.124 -5.20751e-10 -4.06888e-15
  136 318.124 -5.21530e-10 -6.52547e-14
  137 318.124 -5.22959e-10 2.29898e-13
  138 318.124 -5.21595e-10 1.06394e-13
  139 318.124 -5.22050e-10 1.88855e-13
  140 318.124 -5.21011e-10 -6.04838e-13
  141 318.124 -5.22959e-10 -1.84110e-13
  142 318.124 -5.19018e-10 -4.93938e-15
  143 318.124 -5.22570e-10 -1.58116e-14
  144 318.124 -5.20231e-10 -1.65131e-13
  145 318.124 -5.22232e-10 8.72099e-14
  146 318.124 -5.21400e-10 2.63912e-13
  147 318.124 -5.21595e-10 2.34696e-13
  148 318.124 -5.22959e-10 -3.60264e-16
  149 318.124 -5.20837e-10 -2.51310e-13
  150 318.124 -5.22505e-10 -9.68594e-14
  151 318.124 -5.20989e-10 -1.42228e-13
  152 318.124 -5.19776e-10 -6.25917e-14
  153 318.124 -5.21595e-10 9.92752e-14
  154 318.124 -5.21322e-10 -2.49354e-13
  155 318.124 -5.21747e-10 2.65979e-13
  156 318.124 -5.20101e-10 -2.21793e-13
  157 318.124 -5.21920e-10 7.54294e-14
  158 318.124 -5.22959e-10 3.18881e-13
  159 318.124 -5.21444e-10 4.29997e-13
  160 318.124 -5.22959e-10 1.31730e-14
  161 318.124 -5.21868e-10 1.20951e-13
  162 318.124 -5.22505e-10 -7.90220e-14
  163 318.124 -5.22959e-10 1.58957e-14
  164 318.124 -5.20881e-10 3.71013e-14
  165 318.124 -5.22050e-10 1.32517e-13
  166 318.124 -5.22570e-10 9.61535e-14
  167 318.124 -5.21400e-10 -2.83613e-14
  168 318.124 -5.20491e-10 1.25226e-13
  169 318.124 -5.22959e-10 -6.19219e-14
  170 318.124 -5.22959e-10 3.43390e-13
  171 318.124 -5.21140e-10 -6.68180e-14
  172 318.124 -5.20989e-10 2.22960e-13
  173 318.124 -5.21595e-10 2.77097e-14
  174 318.124 -5.21898e-10 2.92125e-15
  175 318.124 -5.21747e-10 2.46089e-13
  176 318.124 -5.21292e-10 -2.08454e-13
  177 318.124 -5.20079e-10 7.62587e-14
  178 318.124 -5.22050e-10 -2.42165e-13
  179 318.124 -5.19503e-10 -2.35181e-13
  180 318.124 -5.21790e-10 2.12610e-14
  181 318.124 -5.21292e-10 -2.63173e-14
  182 318.124 -5.21868e-10 -3.17703e-13
  183 318.124 -5.21595e-10 1.11649e-13
  184 318.124 -5.21868e-10 -4.14118e-13
  185 318.124 -5.22050e-10 2.94619e-14
  186 318.124 -5.21140e-10 1.84156e-13
  187 318.124 -5.20534e-10 3.65475e-13
  188 318.124 -5.21868e-10 2.39343e-13
  189 318.124 -5.22959e-10 2.53789e-13
  190 318.124 -5.22959e-10 -1.06323e-13
  191 318.124 -5.22505e-10 -1.18384e-13
  192 318.124 -5.20881e-10 3.96632e-14
  193 318.124 -5.21868e-10 -2.69267e-13
  194 318.124 -5.21444e-10 3.18729e-14
  195 318.124 -5.22353e-10 3.65898e-14
  196 318.124 -5.20837e-10 -1.18151e-13
  197 318.124 -5.22050e-10 -8.80368e-14
  198 318.124 -5.21747e-10 8.83524e-29
  199 318.124 -5.22959e-10 7.77913e-14
  200 318.124 -5.21595e-10 -5.43114e-13
  201 318.124 -5.22959e-10 1.54343e-13
  202 318.124 -5.20231e-10 1.28068e-13
  203 318.124 -5.20383e-10 -9.44841e-14
  204 318.124 -5.21595e-10 -2.67288e-13
  205 318.124 -5.21595e-10 1.68950e-14
  206 318.124 -5.20595e-10 -7.05090e-14
  207 318.124 -5.21868e-10 9.58667e-14
  208 318.124 -5.21868e-10 -6.10704e-15
  209 318.124 -5.21292e-10 -9.41385e-14
  210 318.124 -5.22505e-10 -1.08039e-13
  211 318.124 -5.19711e-10 -1.23274e-13
  212 318.124 -5.21868e-10 3.53492e-13
  213 318.124 -5.20231e-10 6.23363e-14
  214 318.124 -5.22505e-10 -1.27747e-13
  215 318.124 -5.22959e-10 -1.15095e-13
  216 318.124 -5.21868e-10 1.28452e-13
  217 318.124 -5.20534e-10 2.05392e-13
  218 318.124 -5.22959e-10 5.51084e-14
  219 318.124 -5.22959e-10 2.43749e-13
  220 318.124 -5.22959e-10 -2.73006e-13
  221 318.124 -5.20989e-10 -1.04558e-14
  222 318.124 -5.20079e-10 -4.17243e-13
  223 318.124 -5.20595e-10 -2.62130e-14
  224 318.124 -5.20595e-10 3.68116e-14
  225 318.124 -5.21322e-10 3.17292e-13
  226 318.124 -5.21322e-10 1.17392e-17
  227 318.124 -5.20989e-10 -8.75119e-14
  228 318.124 -5.22959e-10 -9.91673e-14
  229 318.124 -5.22050e-10 -8.11413e-14
  230 318.124 -5.20989e-10 -7.79399e-13
  231 318.124 -5.21322e-10 2.58742e-13
  232 318.124 -5.22959e-10 -2.39888e-14
  233 318.124 -5.20049e-10 -2.25909e-13
  234 318.124 -5.22505e-10 1.08092e-14
  235 318.124 -5.21868e-10 1.73586e-14
  236 318.124 -5.22180e-10 4.69626e-15
  237 318.124 -5.21868e-10 -1.39197e-13
  238 318.124 -5.22959e-10 -2.83536e-13
  239 318.124 -5.21140e-10 -1.25689e-13
  240 318.124 -5.21322e-10 1.68780e-14
  241 318.124 -5.22050e-10 -1.97973e-13
</Section>

newXOutput 19

<Section columns = "stress_xx | stress_yy | stress_xy">
  1 336.122 -5.20231e-10 4.74257e-14
  2 336.122 -5.19321e-10 2.44079e-14
  3 336.122 -5.21140e-10 1.77846e-14
  4 336.122 -5.20231e-10 2.18774e-14
  5 336.122 -5.20534e-10 -9.50069e-14
  6 336.122 -5.19321e-10 -7.91206e-14
  7 336.122 -5.19321e-10 1.41353e-13
  8 336.122 -5.19321e-10 -5.42896e-14
  9 336.122 -5.19321e-10 -1.21766e-13
  10 336.122 -5.19928e-10 1.21766e-13
  11 336.122 -5.20534e-10 -9.26930e-14
  12 336.122 -5.19928e-10 -2.69134e-13
  13 336.122 -5.20686e-10 -1.48351e-13
  14 336.122 -5.19928e-10 2.59804e-13
  15 336.122 -5.19776e-10 1.35974e-13
  16 336.122 -5.21140e-10 -8.22057e-14
  17 336.122 -5.19928e-10 -3.12551e-13
  18 336.122 -5.19321e-10 -1.62719e-14
  19 336.122 -5.19928e-10 -9.23074e-14
  20 336.122 -5.19928e-10 1.01563e-13
  21 336.122 -5.19928e-10 3.09466e-13
  22 336.122 -5.19321e-10 6.28487e-14
  23 336.122 -5.19928e-10 -1.37267e-13
  24 336.122 -5.20534e-10 -6.59338e-14
  25 336.122 -5.21140e-10 -5.93404e-14
  26 336.122 -5.20686e-10 7.03081e-14
  27 336.122 -5.20534e-10 5.27471e-14
  28 336.122 -5.21140e-10 -1.71490e-14
  29 336.122 -5.20231e-10 3.95603e-14
  30 336.122 -5.19928e-10 -8.75629e-14
  31 336.122 -5.21140e-10 -3.42428e-14
  32 336.122 -5.21140e-10 -6.78825e-13
  33 336.122 -5.20913e-10 -2.08853e-13
  34 336.122 -5.20534e-10 2.61943e-13
  35 336.122 -5.19776e-10 3.14976e-13
  36 336.122 -5.21140e-10 1.58047e-13
  37 336.122 -5.20837e-10 3.98118e-13
  38 336.122 -5.20534e-10 3.33212e-13
  39 336.122 -5.20534e-10 -6.07183e-14
  40 336.122 -5.19321e-10 -2.43190e-13
  41 336.122 -5.20534e-10 -1.98008e-13
  42 336.122 -5.21140e-10 2.70913e-13
  43 336.122 -5.21140e-10 1.53174e-13
  44 336.122 -5.20534e-10 -6.44086e-14
  45 336.122 -5.19928e-10 1.39022e-14
  46 336.122 -5.21140e-10 4.47635e-14
  47 336.122 -5.21140e-10 2.17716e-14
  48 336.122 -5.20534e-10 8.85422e-14
  49 336.122 -5.19321e-10 4.76777e-14
  50 336.122 -5.21140e-10 -3.20028e-14
  51 336.122 -5.21140e-10 0.00000
  52 336.122 -5.21140e-10 2.02735e-14
  53 336.122 -5.21140e-10 2.03586e-14
  54 336.122 -5.20686e-10 1.01000e-14
  55 336.122 -5.20231e-10 0.00000
  56 336.122 -5.20534e-10 -1.16255e-14
  57 336.122 -5.21140e-10 2.14191e-14
  58 336.122 -5.20079e-10 -4.98360e-14
  59 336.122 -5.20491e-10 4.61208e-14
  60 336.122 -5.20837e-10 7.49942e-14
  61 336.122 -5.21140e-10 5.26895e-14
  62 336.122 -5.21140e-10 -2.38652e-14
  63 336.122 -5.19685e-10 4.88157e-15
  64 336.122 -5.19928e-10 9.96533e-14
  65 336.122 -5.21140e-10 8.87948e-14
  66 336.122 -5.21140e-10 -3.90401e-14
  67 336.122 -5.19928e-10 -1.94573e-13
  68 336.122 -5.20231e-10 -1.52453e-13
  69 336.122 -5.20361e-10 -5.36046e-14
  70 336.122 -5.21140e-10 7.41894e-14
  71 336.122 -5.20837e-10 -5.78414e-14
  72 336.122 -5.20101e-10 4.46462e-14
  73 336.122 -5.20621e-10 1.31695e-13
  74 336.122 -5.21140e-10 1.07930e-14
  75 336.122 -5.21140e-10 -1.95743e-13
  76 336.122 -5.20837e-10 1.23800e-13
  77 336.122 -5.20231e-10 2.03586e-14
  78 336.122 -5.19928e-10 -1.43659e-13
  79 336.122 -5.20881e-10 -6.91399e-14
  80 336.122 -5.20383e-10 -1.54257e-15
  81 336.122 -5.20686e-10 -6.23573e-14
  82 336.122 -5.20231e-10 -1.48786e-13
  83 336.122 -5.21140e-10 5.81119e-14
  84 336.122 -5.19928e-10 6.50568e-14
  85 336.122 -5.19928e-10 5.93404e-14
  86 336.122 -5.20534e-10 9.21145e-14
  87 336.122 -5.21140e-10 3.51840e-14
  88 336.122 -5.20777e-10 -3.38133e-14
  89 336.122 -5.20413e-10 2.16279e-15
  90 336.122 -5.20837e-10 -1.37264e-14
  91 336.122 -5.20777e-10 1.06781e-13
  92 336.122 -5.20777e-10 -1.33904e-13
  93 336.122 -5.20777e-10 1.28422e-13
  94 336.122 -5.20413e-10 -2.70708e-14
  95 336.122 -5.20777e-10 -2.73656e-14
  96 336.122 -5.20231e-10 -1.86611e-13
  97 336.122 -5.19685e-10 -2.18851e-14
  98 336.122 -5.21140e-10 -1.14993e-13
  99 336.122 -5.19321e-10 1.62430e-13
  100 336.122 -5.21140e-10 6.65583e-14
  101 336.122 -5.20231e-10 -1.31955e-13
  102 336.122 -5.20413e-10 1.11146e-13
  103 336.122 -5.20534e-10 -1.58521e-13
  104 336.122 -5.21140e-10 4.96183e-14
  105 336.122 -5.21140e-10 4.73454e-14
  106 336.122 -5.21140e-10 1.56661e-13
  107 336.122 -5.21140e-10 8.72037e-14
  108 336.122 -5.20837e-10 2.63215e-14
  109 336.122 -5.21140e-10 1.67924e-16
  110 336.122 -5.20413e-10 -1.28444e-13
  111 336.122 -5.20117e-10 -1.67701e-13
  112 336.122 -5.21140e-10 -9.45011e-14
  113 336.122 -5.20881e-10 -1.50074e-14
  114 336.122 -5.20491e-10 8.24414e-14
  115 336.122 -5.21140e-10 -1.32772e-13
  116 336.122 -5.19321e-10 1.49497e-13
  117 336.122 -5.20231e-10 -1.81318e-14
  118 336.122 -5.21140e-10 7.56044e-14
  119 336.122 -5.19321e-10 4.44119e-15
  120 336.122 -5.19928e-10 -4.67151e-14
  121 336.122 -5.21140e-10 -4.58119e-15
  122 336.122 -5.20361e-10 1.25647e-13
  123 336.122 -5.20534e-10 -1.77329e-14
  124 336.122 -5.20101e-10 2.57157e-14
  125 336.122 -5.21140e-10 -4.30941e-14
  126 336.122 -5.19776e-10 -1.36119e-13
  127 336.122 -5.19841e-10 -7.58283e-14
  128 336.122 -5.19549e-10 -1.73357e-14
  129 336.122 -5.20913e-10 1.47197e-14
  130 336.122 -5.20989e-10 1.02188e-13
  131 336.122 -5.20231e-10 -1.01050e-13
  132 336.122 -5.21140e-10 -2.10945e-14
  133 336.122 -5.19841e-10 -5.44993e-14
  134 336.122 -5.20881e-10 -5.33131e-14
  135 336.122 -5.20101e-10 2.00446e-13
  136 336.122 -5.21140e-10 5.80995e-15
  137 336.122 -5.20361e-10 -2.79506e-14
  138 336.122 -5.20534e-10 -5.44918e-14
  139 336.122 -5.20101e-10 -3.62807e-14
  140 336.122 -5.21140e-10 -4.31378e-14
  141 336.122 -5.21140e-10 4.31415e-14
  142 336.122 -5.20534e-10 -1.44495e-14
  143 336.122 -5.21140e-10 9.47287e-15
  144 336.122 -5.20777e-10 1.24239e-13
  145 336.122 -5.20413e-10 -5.94096e-14
  146 336.122 -5.20621e-10 2.94929e-14
  147 336.122 -5.20534e-10 -3.51138e-14
  148 336.122 -5.20837e-10 3.14491e-14
  149 336.122 -5.20837e-10 -6.90190e-14
  150 336.122 -5.20686e-10 2.77301e-14
  151 336.122 -5.20534e-10 3.50973e-14
  152 336.122 -5.20231e-10 -9.92335e-14
  153 336.122 -5.20686e-10 -1.20450e-13
  154 336.122 -5.21140e-10 1.35177e-13
  155 336.122 -5.20837e-10 9.13719e-14
  156 336.122 -5.20881e-10 6.42241e-14
  157 336.122 -5.20361e-10 -5.66347e-14
  158 336.122 -5.21140e-10 -3.21956e-14
  159 336.122 -5.20231e-10 -7.58239e-14
  160 336.122 -5.21140e-10 3.26316e-14
  161 336.122 -5.20413e-10 2.65599e-13
  162 336.122 -5.21140e-10 4.99792e-15
  163 336.122 -5.20383e-10 -1.37267e-13
  164 336.122 -5.20881e-10 4.33097e-14
  165 336.122 -5.20534e-10 1.52208e-14
  166 336.122 -5.21140e-10 3.79708e-14
  167 336.122 -5.20881e-10 -1.23354e-13
  168 336.122 -5.20101e-10 -4.95816e-14
  169 336.122 -5.20621e-10 -9.26227e-15
  170 336.122 -5.20049e-10 -2.43505e-13
  171 336.122 -5.20881e-10 -2.13038e-13
  172 336.122 -5.19928e-10 1.25728e-13
  173 336.122 -5.20534e-10 7.97501e-15
  174 336.122 -5.20534e-10 7.71737e-14
  175 336.122 -5.20534e-10 1.97853e-14
  176 336.122 -5.20837e-10 -8.73436e-14
  177 336.122 -5.20534e-10 -8.55495e-14
  178 336.122 -5.21140e-10 8.34156e-14
  179 336.122 -5.19321e-10 1.28907e-13
  180 336.122 -5.20881e-10 -2.06811e-14
  181 336.122 -5.20383e-10 -6.53025e-14
  182 336.122 -5.20595e-10 7.94791e-14
  183 336.122 -5.20534e-10 3.04244e-14
  184 336.122 -5.20049e-10 -1.47508e-13
  185 336.122 -5.21140e-10 5.21204e-14
  186 336.122 -5.19321e-10 1.68329e-13
  187 336.122 -5.20989e-10 -9.75827e-14
  188 336.122 -5.19867e-10 -1.94804e-13
  189 336.122 -5.21140e-10 -2.13532e-14
  190 336.122 -5.21140e-10 5.95917e-14
  191 336.122 -5.21140e-10 3.61578e-14
  192 336.122 -5.20361e-10 6.63141e-14
  193 336.122 -5.20049e-10 9.98813e-15
  194 336.122 -5.20231e-10 3.60708e-14
  195 336.122 -5.20837e-10 7.52411e-14
  196 336.122 -5.19928e-10 -1.66427e-13
  197 336.122 -5.20534e-10 2.21609e-14
  198 336.122 -5.19625e-10 -2.13862e-13
  199 336.122 -5.21140e-10 -6.52978e-14
  200 336.122 -5.20383e-10 -5.97261e-14
  201 336.122 -5.21140e-10 -8.20950e-14
  202 336.122 -5.20413e-10 2.18626e-14
  203 336.122 -5.20837e-10 -1.59687e-13
  204 336.122 -5.20231e-10 1.28307e-13
  205 336.122 -5.21140e-10 -1.47963e-14
  206 336.122 -5.19685e-10 3.43413e-13
  207 336.122 -5.21140e-10 -4.33485e-14
  208 336.122 -5.19685e-10 1.37834e-13
  209 336.122 -5.19928e-10 5.56394e-14
  210 336.122 -5.21140e-10 -4.84019e-14
  211 336.122 -5.20101e-10 -1.19640e-14
  212 336.122 -5.20413e-10 6.91261e-14
  213 336.122 -5.20413e-10 1.35311e-14
  214 336.122 -5.21140e-10 1.73861e-13
  215 336.122 -5.19685e-10 1.07084e-13
  216 336.122 -5.21140e-10 -7.75568e-14
  217 336.122 -5.19928e-10 -1.19944e-13
  218 336.122 -5.21140e-10 3.65114e-14
  219 336.122 -5.19321e-10 -3.81495e-14
  220 336.122 -5.21140e-10 8.58974e-14
  221 336.122 -5.20989e-10 -5.30269e-14
  222 336.122 -5.19776e-10 -8.80278e-14
  223 336.122 -5.20777e-10 4.00697e-14
  224 336.122 -5.20777e-10 -4.99131e-14
  225 336.122 -5.20049e-10 1.61917e-14
  226 336.122 -5.20777e-10 3.92244e-14
  227 336.122 -5.20231e-10 -5.92876e-14
  228 336.122 -5.21140e-10 -1.68236e-13
  229 336.122 -5.20534e-10 4.00618e-14
  230 336.122 -5.20534e-10 5.54466e-14
  231 336.122 -5.19321e-10 -5.11745e-14
  232 336.122 -5.21140e-10 -5.43432e-14
  233 336.122 -5.20049e-10 1.69810e-14
  234 336.122 -5.21140e-10 -1.17934e-13
  235 336.122 -5.20413e-10 -1.57982e-13
  236 336.122 -5.20361e-10 6.53638e-14
  237 336.122 -5.19321e-10 1.02001e-13
  238 336.122 -5.21140e-10 6.22440e-14
  239 336.122 -5.20383e-10 -8.75186e-15
  240 336.122 -5.20413e-10 -2.74101e-13
  241 336.122 -5.19928e-10 7.42813e-14
</Section>

newXOutput 20

<Section columns = "stress_xx | stress_yy | stress_xy">
  1 354.042 -5.17502e-10 2.18377e-13
  2 354.042 -5.16593e-10 -2.16972e-13
  3 354.042 -5.17502e-10 2.67766e-13
  4 354.042 -5.18867e-10 3.90682e-14
  5 354.042 -5.17806e-10 3.10691e-13
  6 354.042 -5.16593e-10 -1.19566e-13
  7 354.042 -5.17957e-10 -8.37712e-14
  8 354.042 -5.17199e-10 -4.18856e-14
  9 354.042 -5.17806e-10 1.29874e-13
  10 354.042 -5.17806e-10 5.43803e-14
  11 354.042 -5.17806e-10 -3.12845e-13
  12 354.042 -5.17199e-10 -1.43679e-13
  13 354.042 -5.18185e-10 1.16217e-13
  14 354.042 -5.20231e-10 5.76285e-14
  15 354.042 -5.18412e-10 1.73048e-13
  16 354.042 -5.18412e-10 1.97247e-13
  17 354.042 -5.17806e-10 -1.10071e-13
  18 354.042 -5.17199e-10 -6.89973e-14
  19 354.042 -5.18715e-10 -7.38696e-14
  20 354.042 -5.18412e-10 -5.02784e-13
  21 354.042 -5.17806e-10 -2.79394e-13
  22 354.042 -5.17806e-10 2.33291e-13
  23 354.042 -5.17806e-10 -5.34113e-14
  24 354.042 -5.17199e-10 8.53953e-14
  25 354.042 -5.19776e-10 3.94494e-14
  26 354.042 -5.19094e-10 -6.40759e-14
  27 354.042 -5.18412e-10 4.86386e-13
  28 354.042 -5.18412e-10 -6.65415e-14
  29 354.042 -5.18412e-10 7.88989e-14
  30 354.042 -5.18412e-10 -4.59458e-14
  31 354.042 -5.17806e-10 3.84807e-13
  32 354.042 -5.18412e-10 7.76051e-13
  33 354.042 -5.18639e-10 1.56806e-13
  34 354.042 -5.21140e-10 -1.40304e-13
  35 354.042 -5.18639e-10 -9.53770e-14
  36 354.042 -5.17806e-10 5.42621e-14
  37 354.042 -5.18715e-10 2.66045e-13
  38 354.042 -5.20534e-10 1.62202e-13
  39 354.042 -5.20534e-10 -1.23840e-13
  40 354.042 -5.20534e-10 5.75283e-14
  41 354.042 -5.19018e-10 3.80390e-14
  42 354.042 -5.18109e-10 -2.49250e-13
  43 354.042 -5.19625e-10 9.99762e-14
  44 354.042 -5.19321e-10 -1.62017e-13
  45 354.042 -5.18715e-10 -1.74454e-13
  46 354.042 -5.18412e-10 1.62475e-13
  47 354.042 -5.18412e-10 1.64203e-13
  48 354.042 -5.19625e-10 -1.58975e-14
  49 354.042 -5.18715e-10 -2.51306e-13
  50 354.042 -5.18715e-10 -1.70071e-14
  51 354.042 -5.18412e-10 9.86236e-14
  52 354.042 -5.17957e-10 3.06860e-14
  53 354.042 -5.16593e-10 5.25992e-14
  54 354.042 -5.18867e-10 -1.54026e-14
  55 354.042 -5.18867e-10 -1.57798e-13
  56 354.042 -5.16593e-10 -1.07471e-13
  57 354.042 -5.17806e-10 -1.10519e-13
  58 354.042 -5.18260e-10 -7.04380e-14
  59 354.042 -5.18932e-10 4.90647e-14
  60 354.042 -5.20079e-10 -1.50794e-13
  61 354.042 -5.17502e-10 1.20324e-13
  62 354.042 -5.17199e-10 2.39774e-13
  63 354.042 -5.17684e-10 1.44478e-13
  64 354.042 -5.18867e-10 -1.95990e-13
  65 354.042 -5.17806e-10 -2.87943e-14
  66 354.042 -5.17502e-10 1.56161e-13
  67 354.042 -5.17806e-10 -1.63882e-15
  68 354.042 -5.19018e-10 -7.28741e-14
  69 354.042 -5.20101e-10 -3.74463e-14
  70 354.042 -5.17389e-10 -4.52137e-14
  71 354.042 -5.18109e-10 -4.96540e-14
  72 354.042 -5.16853e-10 -7.81904e-14
  73 354.042 -5.18022e-10 -2.77713e-14
  74 354.042 -5.17684e-10 -4.79536e-14
  75 354.042 -5.18048e-10 2.20586e-14
  76 354.042 -5.17806e-10 3.47868e-13
  77 354.042 -5.19473e-10 -2.99031e-14
  78 354.042 -5.17806e-10 1.34130e-13
  79 354.042 -5.18542e-10 2.15791e-14
  80 354.042 -5.19170e-10 -9.07030e-14
  81 354.042 -5.18260e-10 3.29138e-14
  82 354.042 -5.17957e-10 -1.29137e-13
  83 354.042 -5.18109e-10 -9.54214e-14
  84 354.042 -5.16896e-10 1.40755e-16
  85 354.042 -5.18715e-10 3.73273e-15
  86 354.042 -5.17806e-10 -2.29879e-13
  87 354.042 -5.17806e-10 -5.52140e-14
  88 354.042 -5.18230e-10 -6.95680e-13
  89 354.042 -5.18412e-10 -4.18531e-14
  90 354.042 -5.17806e-10 -6.02041e-14
  91 354.042 -5.18594e-10 6.89500e-14
  92 354.042 -5.19140e-10 -1.64783e-13
  93 354.042 -5.19685e-10 -8.53271e-14
  94 354.042 -5.18048e-10 1.97479e-13
  95 354.042 -5.20231e-10 -8.20935e-14
  96 354.042 -5.17199e-10 9.53361e-14
  97 354.042 -5.17684e-10 1.97153e-13
  98 354.042 -5.18412e-10 -1.51005e-13
  99 354.042 -5.18109e-10 1.54202e-13
  100 354.042 -5.17321e-10 3.02130e-13
  101 354.042 -5.16896e-10 -5.16694e-14
  102 354.042 -5.17684e-10 1.33798e-13
  103 354.042 -5.18564e-10 3.79891e-14
  104 354.042 -5.17684e-10 5.87458e-14
  105 354.042 -5.19140e-10 -7.57733e-14
  106 354.042 -5.17502e-10 -1.12448e-13
  107 354.042 -5.18564e-10 8.53757e-14
  108 354.042 -5.18715e-10 7.36809e-15
  109 354.042 -5.18776e-10 4.57558e-14
  110 354.042 -5.17321e-10 -3.94494e-14
  111 354.042 -5.17616e-10 -1.51834e-13
  112 354.042 -5.17502e-10 1.58040e-14
  113 354.042 -5.18542e-10 -1.28104e-13
  114 354.042 -5.18802e-10 -4.56320e-14
  115 354.042 -5.18412e-10 3.06695e-14
  116 354.042 -5.17684e-10 -1.36883e-13
  117 354.042 -5.18412e-10 -4.71602e-13
  118 354.042 -5.18412e-10 -3.49583e-14
  119 354.042 -5.18802e-10 -1.10403e-13
  120 354.042 -5.19018e-10 -6.38336e-14
  121 354.042 -5.18152e-10 -1.63394e-13
  122 354.042 -5.19192e-10 -1.04680e-13
  123 354.042 -5.19170e-10 -4.09070e-14
  124 354.042 -5.18672e-10 4.34288e-14
  125 354.042 -5.18185e-10 1.63491e-13
  126 354.042 -5.17502e-10 5.82380e-15
  127 354.042 -5.18542e-10 7.71419e-14
  128 354.042 -5.18298e-10 -5.08050e-14
  129 354.042 -5.17730e-10 1.33370e-14
  130 354.042 -5.18867e-10 -3.31824e-14
  131 354.042 -5.16896e-10 1.55799e-13
  132 354.042 -5.18412e-10 -2.01819e-13
  133 354.042 -5.17373e-10 -5.28088e-14
  134 354.042 -5.18152e-10 5.11612e-14
  135 354.042 -5.17373e-10 -7.89325e-14
  136 354.042 -5.18282e-10 1.71482e-14
  137 354.042 -5.19841e-10 1.05014e-13
  138 354.042 -5.18412e-10 1.36914e-13
  139 354.042 -5.18932e-10 2.00533e-13
  140 354.042 -5.18282e-10 1.70473e-14
  141 354.042 -5.17806e-10 1.47600e-13
  142 354.042 -5.18109e-10 -5.00061e-14
  143 354.042 -5.17373e-10 -6.50018e-15
  144 354.042 -5.16957e-10 -1.27006e-14
  145 354.042 -5.18776e-10 1.34679e-14
  146 354.042 -5.19971e-10 -5.63196e-16
  147 354.042 -5.19170e-10 -1.54385e-13
  148 354.042 -5.17502e-10 3.12369e-15
  149 354.042 -5.17806e-10 3.26964e-13
  150 354.042 -5.18715e-10 -1.45547e-13
  151 354.042 -5.16593e-10 -7.75238e-14
  152 354.042 -5.17654e-10 9.68878e-15
  153 354.042 -5.17502e-10 1.85263e-14
  154 354.042 -5.18776e-10 -2.65224e-14
  155 354.042 -5.18564e-10 1.51321e-13
  156 354.042 -5.18412e-10 6.08470e-14
  157 354.042 -5.19062e-10 -9.28020e-14
  158 354.042 -5.18715e-10 -4.00487e-13
  159 354.042 -5.17957e-10 3.00127e-14
  160 354.042 -5.17866e-10 -1.13517e-13
  161 354.042 -5.18048e-10 6.48684e-13
  162 354.042 -5.17502e-10 7.32105e-14
  163 354.042 -5.18564e-10 -2.15191e-13
  164 354.042 -5.18152e-10 1.72086e-13
  165 354.042 -5.17199e-10 2.47099e-14
  166 354.042 -5.18412e-10 2.41444e-14
  167 354.042 -5.18412e-10 -8.47027e-15
  168 354.042 -5.17892e-10 -1.39423e-13
  169 354.042 -5.18802e-10 -3.95834e-14
  170 354.042 -5.18048e-10 7.68911e-14
  171 354.042 -5.17892e-10 -1.39270e-13
  172 354.042 -5.18715e-10 3.08228e-13
  173 354.042 -5.18260e-10 -7.03810e-14
  174 354.042 -5.17199e-10 2.93448e-14
  175 354.042 -5.18260e-10 -4.70521e-14
  176 354.042 -5.17806e-10 1.02422e-13
  177 354.042 -5.18109e-10 -2.54107e-13
  178 354.042 -5.17502e-10 8.71297e-15
  179 354.042 -5.17684e-10 -1.36619e-14
  180 354.042 -5.18152e-10 2.21411e-14
  181 354.042 -5.17199e-10 1.67771e-13
  182 354.042 -5.18776e-10 7.62116e-14
  183 354.042 -5.18867e-10 2.99799e-14
  184 354.042 -5.18412e-10 -7.78302e-14
  185 354.042 -5.16593e-10 2.07344e-13
  186 354.042 -5.18594e-10 6.60620e-14
  187 354.042 -5.18564e-10 -8.01631e-14
  188 354.042 -5.19503e-10 4.17228e-14
  189 354.042 -5.18412e-10 4.61082e-15
  190 354.042 -5.17373e-10 5.06443e-14
  191 354.042 -5.17502e-10 1.46311e-13
  192 354.042 -5.18022e-10 1.22036e-13
  193 354.042 -5.18776e-10 5.95956e-14
  194 354.042 -5.18715e-10 -2.51208e-14
  195 354.042 -5.17199e-10 -1.06455e-13
  196 354.042 -5.16896e-10 -1.29940e-13
  197 354.042 -5.18564e-10 9.10607e-14
  198 354.042 -5.17957e-10 -9.93571e-14
  199 354.042 -5.18564e-10 -1.07353e-13
  200 354.042 -5.18564e-10 -7.45767e-14
  201 354.042 -5.19018e-10 9.26237e-14
  202 354.042 -5.18776e-10 3.87657e-14
  203 354.042 -5.17806e-10 -1.41610e-13
  204 354.042 -5.17806e-10 -5.24521e-14
  205 354.042 -5.18109e-10 -8.34274e-14
  206 354.042 -5.17684e-10 -2.62268e-13
  207 354.042 -5.18412e-10 8.88940e-14
  208 354.042 -5.19140e-10 -1.64189e-13
  209 354.042 -5.18564e-10 2.17156e-14
  210 354.042 -5.17502e-10 -1.78102e-13
  211 354.042 -5.17632e-10 -5.36255e-14
  212 354.042 -5.18048e-10 -1.38270e-13
  213 354.042 -5.18776e-10 9.23068e-14
  214 354.042 -5.19473e-10 -1.12685e-13
  215 354.042 -5.18958e-10 -2.15786e-13
  216 354.042 -5.18776e-10 1.66475e-13
  217 354.042 -5.18867e-10 -1.35182e-13
  218 354.042 -5.18412e-10 -1.02449e-13
  219 354.042 -5.18776e-10 -1.64863e-13
  220 354.042 -5.17502e-10 5.09129e-14
  221 354.042 -5.17502e-10 -9.39746e-15
  222 354.042 -5.19018e-10 -1.64536e-13
  223 354.042 -5.18048e-10 -8.50542e-14
  224 354.042 -5.17684e-10 -8.52654e-15
  225 354.042 -5.18412e-10 1.39106e-13
  226 354.042 -5.16957e-10 2.91223e-13
  227 354.042 -5.18564e-10 -7.22062e-14
  228 354.042 -5.18048e-10 2.11832e-13
  229 354.042 -5.18412e-10 3.52836e-14
  230 354.042 -5.17654e-10 5.33917e-14
  231 354.042 -5.17321e-10 2.28272e-13
  232 354.042 -5.18594e-10 -1.37168e-13
  233 354.042 -5.18412e-10 -4.18557e-13
  234 354.042 -5.18564e-10 1.10058e-14
  235 354.042 -5.19321e-10 -1.67968e-13
  236 354.042 -5.17373e-10 -3.77024e-14
  237 354.042 -5.17321e-10 3.18383e-13
  238 354.042 -5.17866e-10 1.65711e-13
  239 354.042 -5.18260e-10 9.79327e-14
  240 354.042 -5.16593e-10 2.69309e-14
  241 354.042 -5.18412e-10 4.93510e-14
</Section>

newXOutput 21

<Section columns = "stress_xx | stress_yy | stress_xy">
  1 371.886 -5.14774e-10 -7.04419e-14
  2 371.886 -5.15683e-10 1.96695e-14
  3 371.886 -5.15683e-10 -1.38732e-13
  4 371.886 -5.14774e-10 -4.72233e-15
  5 371.886 -5.15077e-10 -3.76850e-14
  6 371.886 -5.15229e-10 -6.54030e-14
  7 371.886 -5.15456e-10 4.66160e-14
  8 371.886 -5.15683e-10 1.39656e-14
  9 371.886 -5.15683e-10 6.81228e-14
  10 371.886 -5.14774e-10 -3.04890e-14
  11 371.886 -5.15077e-10 8.66754e-14
  12 371.886 -5.15380e-10 1.45948e-13
  13 371.886 -5.15683e-10 -1.29450e-13
  14 371.886 -5.14471e-10 -4.98823e-13
  15 371.886 -5.15229e-10 -2.63377e-13
  16 371.886 -5.15380e-10 -8.54988e-14
  17 371.886 -5.15683e-10 -3.13416e-14
  18 371.886 -5.15380e-10 2.85604e-13
  19 371.886 -5.15683e-10 3.00423e-13
  20 371.886 -5.15380e-10 2.85604e-13
  21 371.886 -5.15380e-10 -8.54988e-14
  22 371.886 -5.15380e-10 1.86992e-13
  23 371.886 -5.15683e-10 1.69616e-13
  24 371.886 -5.15380e-10 3.94430e-29
  25 371.886 -5.14774e-10 3.93390e-14
  26 371.886 -5.14774e-10 1.88189e-13
  27 371.886 -5.15683e-10 1.96695e-14
  28 371.886 -5.15456e-10 -1.50178e-13
  29 371.886 -5.15683e-10 0.00000
  30 371.886 -5.15683e-10 -5.19500e-15
  31 371.886 -5.15683e-10 4.95038e-14
  32 371.886 -5.15683e-10 -1.59467e-13
  33 371.886 -5.14774e-10 4.43716e-14
  34 371.886 -5.15077e-10 4.69298e-14
  35 371.886 -5.15456e-10 -1.59036e-13
  36 371.886 -5.15380e-10 -1.73634e-13
  37 371.886 -5.14774e-10 1.84481e-13
  38 371.886 -5.13865e-10 3.49794e-13
  39 371.886 -5.13561e-10 -3.91782e-14
  40 371.886 -5.13865e-10 -3.20851e-13
  41 371.886 -5.15077e-10 -2.65123e-15
  42 371.886 -5.15380e-10 4.88907e-14
  43 371.886 -5.14168e-10 -3.46755e-14
  44 371.886 -5.15077e-10 2.68398e-13
  45 371.886 -5.15380e-10 1.49315e-13
  46 371.886 -5.15077e-10 -6.82683e-15
  47 371.886 -5.15380e-10 6.04234e-14
  48 371.886 -5.14471e-10 4.49702e-14
  49 371.886 -5.15077e-10 1.04632e-13
  50 371.886 -5.15077e-10 1.09005e-14
  51 371.886 -5.14774e-10 2.95043e-14
  52 371.886 -5.14774e-10 6.84120e-14
  53 371.886 -5.15683e-10 -2.75049e-14
  54 371.886 -5.15229e-10 -9.08500e-15
  55 371.886 -5.15683e-10 -1.18017e-13
  56 371.886 -5.15380e-10 -6.49916e-14
  57 371.886 -5.15229e-10 -5.63570e-15
  58 371.886 -5.15229e-10 3.53103e-13
  59 371.886 -5.15424e-10 1.71006e-13
  60 371.886 -5.14016e-10 1.03437e-14
  61 371.886 -5.15532e-10 -8.91522e-14
  62 371.886 -5.15683e-10 -4.23149e-14
  63 371.886 -5.15502e-10 1.51614e-13
  64 371.886 -5.14926e-10 2.30138e-14
  65 371.886 -5.15532e-10 -3.11061e-14
  66 371.886 -5.15229e-10 -8.60317e-14
  67 371.886 -5.15380e-10 -2.85195e-15
  68 371.886 -5.15683e-10 4.79609e-14
  69 371.886 -5.14124e-10 3.03662e-14
  70 371.886 -5.15229e-10 9.24400e-14
  71 371.886 -5.15380e-10 -9.24486e-15
  72 371.886 -5.15424e-10 6.78296e-15
  73 371.886 -5.15164e-10 -1.57948e-13
  74 371.886 -5.15138e-10 -8.57232e-14
  75 371.886 -5.14592e-10 -1.67654e-13
  76 371.886 -5.15380e-10 -1.99877e-13
  77 371.886 -5.14319e-10 -6.93868e-14
  78 371.886 -5.15532e-10 -1.86655e-13
  79 371.886 -5.15034e-10 -1.58302e-13
  80 371.886 -5.15683e-10 1.96695e-14
  81 371.886 -5.15380e-10 -1.27528e-14
  82 371.886 -5.14774e-10 8.29389e-14
  83 371.886 -5.15229e-10 -1.14711e-13
  84 371.886 -5.15380e-10 1.29638e-13
  85 371.886 -5.14774e-10 2.16689e-14
  86 371.886 -5.15380e-10 2.07353e-14
  87 371.886 -5.15380e-10 -6.43751e-14
  88 371.886 -5.15502e-10 2.50778e-13
  89 371.886 -5.15138e-10 2.04571e-13
  90 371.886 -5.15229e-10 7.30935e-14
  91 371.886 -5.15320e-10 1.12716e-13
  92 371.886 -5.15138e-10 -1.62551e-13
  93 371.886 -5.14774e-10 5.30999e-15
  94 371.886 -5.15138e-10 -3.18059e-13
  95 371.886 -5.15320e-10 9.34589e-14
  96 371.886 -5.15380e-10 -3.04289e-13
  97 371.886 -5.15320e-10 3.91820e-13
  98 371.886 -5.15138e-10 -1.21225e-13
  99 371.886 -5.15380e-10 -3.52742e-14
  100 371.886 -5.15320e-10 3.53437e-14
  101 371.886 -5.15380e-10 -5.71413e-14
  102 371.886 -5.15683e-10 -1.38996e-13
  103 371.886 -5.15077e-10 2.16028e-14
  104 371.886 -5.15320e-10 -1.33479e-13
  105 371.886 -5.14592e-10 1.16881e-13
  106 371.886 -5.15532e-10 -5.64209e-14
  107 371.886 -5.15077e-10 1.18903e-13
  108 371.886 -5.14471e-10 -3.34739e-14
  109 371.886 -5.14410e-10 -6.03271e-14
  110 371.886 -5.15320e-10 -1.69396e-13
  111 371.886 -5.15342e-10 -1.46778e-14
  112 371.886 -5.15532e-10 1.16202e-13
  113 371.886 -5.14384e-10 1.18645e-13
  114 371.886 -5.14514e-10 6.28689e-14
  115 371.886 -5.14926e-10 1.17195e-14
  116 371.886 -5.15138e-10 1.34233e-13
  117 371.886 -5.14471e-10 -2.36298e-13
  118 371.886 -5.15229e-10 -1.33992e-13
  119 371.886 -5.15424e-10 -1.69805e-13
  120 371.886 -5.14926e-10 -1.31294e-13
  121 371.886 -5.15164e-10 5.48046e-14
  122 371.886 -5.15034e-10 -1.14096e-14
  123 371.886 -5.14622e-10 -7.33178e-14
  124 371.886 -5.14774e-10 -1.01562e-14
  125 371.886 -5.15342e-10 2.62620e-14
  126 371.886 -5.15683e-10 5.36735e-14
  127 371.886 -5.15034e-10 7.08146e-15
  128 371.886 -5.15683e-10 1.45360e-13
  129 371.886 -5.15115e-10 2.43822e-14
  130 371.886 -5.15532e-10 1.30277e-13
  131 371.886 -5.15683e-10 1.32637e-13
  132 371.886 -5.14774e-10 -2.16552e-14
  133 371.886 -5.15424e-10 -9.46680e-14
  134 371.886 -5.15164e-10 7.81227e-15
  135 371.886 -5.15424e-10 6.03568e-14
  136 371.886 -5.15034e-10 -1.28027e-14
  137 371.886 -5.14384e-10 1.19436e-14
  138 371.886 -5.15229e-10 3.22496e-14
  139 371.886 -5.14774e-10 2.59361e-14
  140 371.886 -5.15554e-10 -2.44495e-13
  141 371.886 -5.15229e-10 -1.75879e-13
  142 371.886 -5.15229e-10 5.45835e-14
  143 371.886 -5.15164e-10 -1.72968e-13
  144 371.886 -5.15138e-10 1.32915e-13
  145 371.886 -5.15320e-10 -4.24973e-14
  146 371.886 -5.15034e-10 1.34004e-13
  147 371.886 -5.14471e-10 -1.83699e-13
  148 371.886 -5.15229e-10 -4.08641e-14
  149 371.886 -5.15380e-10 -9.68406e-14
  150 371.886 -5.15229e-10 5.95813e-14
  151 371.886 -5.15380e-10 -1.27837e-13
  152 371.886 -5.15229e-10 -2.72108e-14
  153 371.886 -5.15683e-10 5.21579e-14
  154 371.886 -5.15502e-10 -1.58595e-16
  155 371.886 -5.14926e-10 -6.96794e-14
  156 371.886 -5.15164e-10 -1.16618e-14
  157 371.886 -5.14644e-10 -1.80786e-13
  158 371.886 -5.14622e-10 -1.57981e-13
  159 371.886 -5.15229e-10 -1.31791e-14
  160 371.886 -5.14774e-10 -8.24176e-14
  161 371.886 -5.15502e-10 6.09755e-14
  162 371.886 -5.15683e-10 -7.18146e-14
  163 371.886 -5.14926e-10 -2.03899e-14
  164 371.886 -5.15294e-10 -1.47045e-13
  165 371.886 -5.15532e-10 3.09653e-15
  166 371.886 -5.15424e-10 4.10393e-14
  167 371.886 -5.14774e-10 -4.15031e-14
  168 371.886 -5.15554e-10 2.09555e-14
  169 371.886 -5.14904e-10 1.07759e-13
  170 371.886 -5.15320e-10 6.20779e-14
  171 371.886 -5.15164e-10 1.64427e-13
  172 371.886 -5.15380e-10 -1.46867e-13
  173 371.886 -5.15532e-10 1.16268e-13
  174 371.886 -5.15532e-10 -4.38152e-14
  175 371.886 -5.15380e-10 5.62079e-15
  176 371.886 -5.15380e-10 -7.54584e-14
  177 371.886 -5.15532e-10 1.68541e-13
  178 371.886 -5.15229e-10 -3.04762e-14
  179 371.886 -5.15683e-10 8.02127e-14
  180 371.886 -5.15034e-10 8.98739e-14
  181 371.886 -5.15532e-10 1.20108e-13
  182 371.886 -5.14592e-10 2.20060e-13
  183 371.886 -5.15532e-10 5.63441e-14
  184 371.886 -5.15320e-10 -4.60406e-15
  185 371.886 -5.15229e-10 -1.03314e-14
  186 371.886 -5.14774e-10 -4.45007e-13
  187 371.886 -5.15380e-10 6.74192e-14
  188 371.886 -5.14956e-10 4.45908e-14
  189 371.886 -5.15320e-10 -4.37845e-14
  190 371.886 -5.15294e-10 -9.39860e-14
  191 371.886 -5.15532e-10 -5.17849e-14
  192 371.886 -5.14904e-10 -6.32801e-14
  193 371.886 -5.14774e-10 -6.45489e-14
  194 371.886 -5.15077e-10 -1.14078e-14
  195 371.886 -5.15229e-10 1.24778e-14
  196 371.886 -5.15229e-10 -3.62657e-14
  197 371.886 -5.14774e-10 1.72074e-13
  198 371.886 -5.15532e-10 8.29410e-14
  199 371.886 -5.15229e-10 -1.78741e-13
  200 371.886 -5.15532e-10 2.64392e-13
  201 371.886 -5.14471e-10 5.76602e-14
  202 371.886 -5.14774e-10 1.96695e-15
  203 371.886 -5.15532e-10 -1.70947e-13
  204 371.886 -5.15532e-10 7.08096e-14
  205 371.886 -5.15229e-10 9.82282e-14
  206 371.886 -5.15502e-10 3.15029e-13
  207 371.886 -5.14956e-10 7.63833e-14
  208 371.886 -5.15502e-10 -1.04727e-13
  209 371.886 -5.14926e-10 2.62524e-13
  210 371.886 -5.15229e-10 -1.18867e-13
  211 371.886 -5.15164e-10 -2.09009e-14
  212 371.886 -5.15502e-10 1.01003e-13
  213 371.886 -5.14956e-10 8.98382e-14
  214 371.886 -5.15077e-10 -6.86099e-14
  215 371.886 -5.14774e-10 -2.57468e-14
  216 371.886 -5.15683e-10 1.06609e-13
  217 371.886 -5.14471e-10 1.43655e-13
  218 371.886 -5.15229e-10 -8.61311e-14
  219 371.886 -5.15138e-10 7.13218e-14
  220 371.886 -5.15380e-10 2.44142e-14
  221 371.886 -5.15683e-10 -1.77362e-14
  222 371.886 -5.14926e-10 3.64576e-13
  223 371.886 -5.14774e-10 1.02778e-13
  224 371.886 -5.15138e-10 7.41354e-14
  225 371.886 -5.15502e-10 -1.66445e-13
  226 371.886 -5.15138e-10 -4.50687e-15
  227 371.886 -5.15532e-10 4.47488e-14
  228 371.886 -5.15138e-10 -1.33400e-13
  229 371.886 -5.15229e-10 -1.30842e-13
  230 371.886 -5.15380e-10 -1.67389e-13
  231 371.886 -5.15320e-10 -6.58532e-14
  232 371.886 -5.15683e-10 -3.16229e-13
  233 371.886 -5.14592e-10 -2.80489e-14
  234 371.886 -5.15229e-10 4.52891e-14
  235 371.886 -5.14774e-10 -1.62391e-13
  236 371.886 -5.14904e-10 1.32759e-13
  237 371.886 -5.15683e-10 1.86879e-13
  238 371.886 -5.15138e-10 -2.25335e-13
  239 371.886 -5.15683e-10 1.59447e-13
  240 371.886 -5.15502e-10 1.20831e-13
  241 371.886 -5.15229e-10 -6.32715e-14
</Section>

newXOutput 22

<Section columns = "stress_xx | stress_yy | stress_xy">
  1 389.655 -5.13865e-10 -1.82751e-14
  2 389.655 -5.14319e-10 -9.27149e-14
  3 389.655 -5.15229e-10 -2.89542e-13
  4 389.655 -5.14774e-10 1.09856e-13
  5 389.655 -5.14168e-10 -5.49199e-14
  6 389.655 -5.13865e-10 -3.23685e-13
  7 389.655 -5.15683e-10 -1.05678e-13
  8 389.655 -5.17502e-10 -1.93270e-14
  9 389.655 -5.15683e-10 -5.73452e-14
  10 389.655 -5.14774e-10 -5.64522e-14
  11 389.655 -5.15683e-10 1.03718e-13
  12 389.655 -5.15683e-10 2.09986e-13
  13 389.655 -5.14319e-10 -8.78340e-14
  14 389.655 -5.14168e-10 1.18656e-14
  15 389.655 -5.15229e-10 1.25826e-14
  16 389.655 -5.15683e-10 -2.61527e-14
  17 389.655 -5.14168e-10 -2.87680e-13
  18 389.655 -5.13865e-10 2.78175e-13
  19 389.655 -5.14168e-10 3.53061e-13
  20 389.655 -5.14168e-10 8.65460e-13
  21 389.655 -5.14168e-10 4.45806e-13
  22 389.655 -5.14168e-10 -1.34335e-13
  23 389.655 -5.14168e-10 -1.17687e-13
  24 389.655 -5.13865e-10 -2.61527e-14
  25 389.655 -5.13865e-10 3.92290e-14
  26 389.655 -5.14319e-10 9.66196e-14
  27 389.655 -5.14471e-10 4.90363e-13
  28 389.655 -5.14547e-10 1.44657e-13
  29 389.655 -5.15229e-10 5.88435e-14
  30 389.655 -5.16290e-10 1.35152e-13
  31 389.655 -5.14774e-10 -7.41998e-14
  32 389.655 -5.15683e-10 6.93965e-14
  33 389.655 -5.14774e-10 -1.56320e-13
  34 389.655 -5.14774e-10 -9.74822e-14
  35 389.655 -5.15683e-10 -1.48026e-13
  36 389.655 -5.13865e-10 -3.70533e-13
  37 389.655 -5.13865e-10 1.49416e-15
  38 389.655 -5.15380e-10 -1.82650e-13
  39 389.655 -5.15987e-10 -1.95379e-14
  40 389.655 -5.15077e-10 -2.73879e-13
  41 389.655 -5.14774e-10 2.61377e-13
  42 389.655 -5.14168e-10 3.07929e-13
  43 389.655 -5.13865e-10 1.25840e-13
  44 389.655 -5.15077e-10 2.46028e-14
  45 389.655 -5.15683e-10 -2.44370e-13
  46 389.655 -5.14471e-10 -6.35986e-14
  47 389.655 -5.14168e-10 -1.72990e-13
  48 389.655 -5.14471e-10 -8.11551e-14
  49 389.655 -5.14168e-10 -1.28624e-13
  50 389.655 -5.15077e-10 -1.18811e-13
  51 389.655 -5.14774e-10 -5.88435e-14
  52 389.655 -5.14092e-10 1.46479e-13
  53 389.655 -5.14471e-10 1.55963e-14
  54 389.655 -5.13865e-10 9.65657e-14
  55 389.655 -5.13865e-10 -1.17687e-13
  56 389.655 -5.13865e-10 -1.78396e-13
  57 389.655 -5.15532e-10 -1.16618e-13
  58 389.655 -5.14016e-10 1.16722e-13
  59 389.655 -5.14644e-10 -2.05419e-13
  60 389.655 -5.14622e-10 4.95698e-14
  61 389.655 -5.15077e-10 2.70135e-14
  62 389.655 -5.14319e-10 -1.55376e-14
  63 389.655 -5.14228e-10 -1.23399e-13
  64 389.655 -5.14319e-10 1.38681e-13
  65 389.655 -5.14774e-10 -9.90769e-14
  66 389.655 -5.14622e-10 8.88716e-14
  67 389.655 -5.15229e-10 8.33995e-14
  68 389.655 -5.14168e-10 -1.34123e-13
  69 389.655 -5.13994e-10 2.16332e-13
  70 389.655 -5.14888e-10 1.43352e-13
  71 389.655 -5.14319e-10 8.46330e-14
  72 389.655 -5.14514e-10 4.13213e-14
  73 389.655 -5.14774e-10 1.02483e-14
  74 389.655 -5.14410e-10 -1.61752e-14
  75 389.655 -5.14046e-10 -7.54818e-14
  76 389.655 -5.14016e-10 -4.93314e-14
  77 389.655 -5.13865e-10 -2.31466e-14
  78 389.655 -5.14471e-10 5.20178e-14
  79 389.655 -5.14644e-10 -3.62964e-14
  80 389.655 -5.14168e-10 4.16733e-14
  81 389.655 -5.14926e-10 -1.31808e-13
  82 389.655 -5.15077e-10 6.91934e-16
  83 389.655 -5.15077e-10 -2.02029e-13
  84 389.655 -5.15077e-10 -4.79958e-15
  85 389.655 -5.15380e-10 -1.48161e-13
  86 389.655 -5.14774e-10 -1.75797e-13
  87 389.655 -5.14926e-10 -1.50368e-13
  88 389.655 -5.14592e-10 7.81175e-14
  89 389.655 -5.14228e-10 7.44114e-14
  90 389.655 -5.14471e-10 -5.33582e-14
  91 389.655 -5.13865e-10 7.36361e-14
  92 389.655 -5.14956e-10 7.35016e-14
  93 389.655 -5.14046e-10 -9.50487e-14
  94 389.655 -5.15683e-10 -8.29076e-15
  95 389.655 -5.14410e-10 -1.35712e-13
  96 389.655 -5.14016e-10 -7.11178e-14
  97 389.655 -5.14956e-10 -4.27978e-13
  98 389.655 -5.14410e-10 -1.44135e-13
  99 389.655 -5.15229e-10 -9.54089e-14
  100 389.655 -5.14774e-10 2.26150e-13
  101 389.655 -5.14168e-10 -1.72304e-13
  102 389.655 -5.14228e-10 -8.33390e-15
  103 389.655 -5.15532e-10 -2.11461e-13
  104 389.655 -5.13865e-10 1.69488e-13
  105 389.655 -5.14592e-10 -2.90154e-14
  106 389.655 -5.14471e-10 -1.41842e-13
  107 389.655 -5.14168e-10 1.98748e-13
  108 389.655 -5.14016e-10 1.12176e-13
  109 389.655 -5.13865e-10 2.30915e-13
  110 389.655 -5.14046e-10 4.11905e-14
  111 389.655 -5.14433e-10 1.27588e-13
  112 389.655 -5.14622e-10 -1.42177e-13
  113 389.655 -5.15683e-10 -7.58791e-14
  114 389.655 -5.14124e-10 7.80011e-14
  115 389.655 -5.14016e-10 2.06849e-13
  116 389.655 -5.14956e-10 8.80828e-16
  117 389.655 -5.13561e-10 2.90146e-13
  118 389.655 -5.14774e-10 3.23617e-14
  119 389.655 -5.14774e-10 -6.78303e-14
  120 389.655 -5.15077e-10 -5.26383e-14
  121 389.655 -5.15294e-10 -2.59874e-13
  122 389.655 -5.15164e-10 1.61126e-13
  123 389.655 -5.14319e-10 -8.38838e-15
  124 389.655 -5.14514e-10 -1.68676e-14
  125 389.655 -5.14206e-10 -6.68361e-15
  126 389.655 -5.16025e-10 4.54182e-15
  127 389.655 -5.14384e-10 1.18128e-13
  128 389.655 -5.15342e-10 3.23163e-14
  129 389.655 -5.14660e-10 2.83014e-14
  130 389.655 -5.14319e-10 -7.63922e-14
  131 389.655 -5.14016e-10 5.96575e-14
  132 389.655 -5.14092e-10 4.61830e-14
  133 389.655 -5.14904e-10 -6.20283e-14
  134 389.655 -5.14254e-10 2.31178e-13
  135 389.655 -5.14774e-10 -1.76544e-13
  136 389.655 -5.14644e-10 -2.41640e-13
  137 389.655 -5.14384e-10 -1.01280e-13
  138 389.655 -5.14168e-10 -3.00883e-13
  139 389.655 -5.14644e-10 1.21740e-13
  140 389.655 -5.15424e-10 -8.99258e-14
  141 389.655 -5.16138e-10 -4.87090e-14
  142 389.655 -5.15077e-10 -2.85742e-13
  143 389.655 -5.13994e-10 -5.66836e-14
  144 389.655 -5.15320e-10 2.13452e-13
  145 389.655 -5.14410e-10 -5.57467e-14
  146 389.655 -5.14124e-10 -6.51235e-14
  147 389.655 -5.15229e-10 -1.19367e-13
  148 389.655 -5.14016e-10 1.09878e-14
  149 389.655 -5.14168e-10 1.53647e-13
  150 389.655 -5.14319e-10 7.10153e-14
  151 389.655 -5.14168e-10 -1.75199e-13
  152 389.655 -5.13865e-10 3.03665e-13
  153 389.655 -5.14168e-10 -1.46307e-13
  154 389.655 -5.14228e-10 -6.33840e-15
  155 389.655 -5.14926e-10 -4.92519e-14
  156 389.655 -5.14124e-10 -5.23508e-14
  157 389.655 -5.14254e-10 -6.37881e-14
  158 389.655 -5.14319e-10 -8.76070e-14
  159 389.655 -5.14016e-10 6.30737e-14
  160 389.655 -5.14228e-10 -9.31917e-15
  161 389.655 -5.14228e-10 3.53424e-13
  162 389.655 -5.15077e-10 -1.02452e-14
  163 389.655 -5.14168e-10 -2.66067e-14
  164 389.655 -5.14254e-10 -1.70998e-13
  165 389.655 -5.14319e-10 8.61162e-14
  166 389.655 -5.14514e-10 -4.84185e-14
  167 389.655 -5.14124e-10 -5.56004e-14
  168 389.655 -5.15164e-10 1.06894e-13
  169 389.655 -5.13994e-10 -3.26609e-14
  170 389.655 -5.14228e-10 2.74349e-13
  171 389.655 -5.14644e-10 5.64785e-14
  172 389.655 -5.14016e-10 -6.91200e-14
  173 389.655 -5.14774e-10 -1.85038e-14
  174 389.655 -5.14016e-10 -1.33586e-13
  175 389.655 -5.14622e-10 -5.24555e-14
  176 389.655 -5.14319e-10 -1.20485e-13
  177 389.655 -5.15229e-10 5.55439e-14
  178 389.655 -5.14622e-10 2.82337e-14
  179 389.655 -5.16775e-10 6.01262e-14
  180 389.655 -5.15683e-10 1.12876e-13
  181 389.655 -5.14168e-10 -8.56981e-14
  182 389.655 -5.15138e-10 -1.91833e-13
  183 389.655 -5.14319e-10 -8.96520e-14
  184 389.655 -5.14956e-10 -3.44335e-13
  185 389.655 -5.14471e-10 2.44789e-14
  186 389.655 -5.14410e-10 -3.55922e-14
  187 389.655 -5.14622e-10 1.13486e-13
  188 389.655 -5.14046e-10 -3.37036e-14
  189 389.655 -5.15138e-10 -6.04122e-14
  190 389.655 -5.13994e-10 5.84900e-14
  191 389.655 -5.13865e-10 1.31808e-13
  192 389.655 -5.14514e-10 -1.25464e-13
  193 389.655 -5.14592e-10 -1.55768e-13
  194 389.655 -5.14774e-10 -2.31541e-14
  195 389.655 -5.14168e-10 -1.50788e-13
  196 389.655 -5.14319e-10 6.20899e-15
  197 389.655 -5.14168e-10 2.09389e-13
  198 389.655 -5.15532e-10 3.69709e-13
  199 389.655 -5.14471e-10 1.71589e-14
  200 389.655 -5.14926e-10 -2.25960e-14
  201 389.655 -5.14471e-10 6.95399e-14
  202 389.655 -5.15502e-10 2.47334e-13
  203 389.655 -5.14168e-10 -2.60346e-13
  204 389.655 -5.15077e-10 -1.01659e-13
  205 389.655 -5.15229e-10 -4.80317e-14
  206 389.655 -5.14774e-10 2.92093e-13
  207 389.655 -5.14228e-10 -3.06707e-14
  208 389.655 -5.14592e-10 -2.19483e-13
  209 389.655 -5.15229e-10 -2.23174e-13
  210 389.655 -5.14168e-10 -3.60354e-13
  211 389.655 -5.14384e-10 -3.38698e-14
  212 389.655 -5.14228e-10 -1.37129e-13
  213 389.655 -5.15138e-10 6.15471e-14
  214 389.655 -5.13865e-10 -3.62785e-14
  215 389.655 -5.14956e-10 -1.42019e-13
  216 389.655 -5.14592e-10 -1.00050e-13
  217 389.655 -5.14926e-10 -6.56087e-14
  218 389.655 -5.15077e-10 1.02556e-14
  219 389.655 -5.15138e-10 -3.45978e-14
  220 389.655 -5.13865e-10 3.04188e-14
  221 389.655 -5.13865e-10 -9.31084e-14
  222 389.655 -5.13713e-10 6.33726e-14
  223 389.655 -5.14956e-10 -9.86276e-14
  224 389.655 -5.14956e-10 1.84921e-13
  225 389.655 -5.15865e-10 2.20663e-13
  226 389.655 -5.14592e-10 2.78029e-13
  227 389.655 -5.14622e-10 -2.14080e-14
  228 389.655 -5.14228e-10 -2.25612e-14
  229 389.655 -5.14016e-10 7.95752e-15
  230 389.655 -5.14622e-10 -1.10407e-13
  231 389.655 -5.14228e-10 -2.94309e-14
  232 389.655 -5.14228e-10 4.57734e-14
  233 389.655 -5.13501e-10 -1.12520e-13
  234 389.655 -5.14168e-10 -1.37355e-13
  235 389.655 -5.14592e-10 -1.31798e-14
  236 389.655 -5.14384e-10 2.89438e-14
  237 389.655 -5.14774e-10 -3.69991e-14
  238 389.655 -5.14774e-10 5.92068e-14
  239 389.655 -5.14168e-10 1.30516e-13
  240 389.655 -5.14592e-10 1.06014e-13
  241 389.655 -5.16138e-10 -1.31369e-13
</Section>

newXOutput 23

<Section columns = "stress_xx | stress_yy | stress_xy">
  1 407.348 -5.12955e-10 -2.09943e-15
  2 407.348 -5.12955e-10 -3.63272e-13
  3 407.348 -5.12500e-10 5.48034e-14
  4 407.348 -5.12046e-10 2.13729e-15
  5 407.348 -5.12955e-10 -8.05716e-14
  6 407.348 -5.12500e-10 2.79924e-15
  7 407.348 -5.12046e-10 2.30588e-14
  8 407.348 -5.12046e-10 1.35064e-13
  9 407.348 -5.12652e-10 6.70653e-14
  10 407.348 -5.13258e-10 1.35997e-13
  11 407.348 -5.13258e-10 9.33079e-16
  12 407.348 -5.13258e-10 -2.34717e-13
  13 407.348 -5.12728e-10 -1.76737e-13
  14 407.348 -5.12046e-10 -2.47780e-13
  15 407.348 -5.13182e-10 -6.04287e-14
  16 407.348 -5.12652e-10 5.96239e-14
  17 407.348 -5.12652e-10 5.58916e-14
  18 407.348 -5.13561e-10 7.82622e-14
  19 407.348 -5.12652e-10 7.63961e-14
  20 407.348 -5.12349e-10 -6.89314e-14
  21 407.348 -5.12652e-10 -2.68261e-13
  22 407.348 -5.11742e-10 3.29728e-13
  23 407.348 -5.12349e-10 -4.07990e-13
  24 407.348 -5.12652e-10 -4.28518e-14
  25 407.348 -5.12500e-10 7.82389e-14
  26 407.348 -5.12955e-10 -1.17109e-14
  27 407.348 -5.12652e-10 -1.07285e-28
  28 407.348 -5.12046e-10 -3.31318e-15
  29 407.348 -5.12046e-10 1.95597e-14
  30 407.348 -5.12349e-10 -1.19461e-13
  31 407.348 -5.12652e-10 3.04738e-14
  32 407.348 -5.12046e-10 -3.59906e-13
  33 407.348 -5.12273e-10 -1.60092e-14
  34 407.348 -5.13561e-10 -1.48669e-14
  35 407.348 -5.12500e-10 -1.50802e-13
  36 407.348 -5.12349e-10 -4.53507e-15
  37 407.348 -5.12349e-10 1.21330e-13
  38 407.348 -5.12955e-10 2.12445e-13
  39 407.348 -5.12652e-10 2.41905e-13
  40 407.348 -5.12046e-10 -2.70265e-14
  41 407.348 -5.12955e-10 -7.10971e-14
  42 407.348 -5.13258e-10 7.58462e-14
  43 407.348 -5.12046e-10 8.71592e-15
  44 407.348 -5.12046e-10 -1.55177e-13
  45 407.348 -5.12046e-10 9.12720e-14
  46 407.348 -5.12652e-10 1.17604e-13
  47 407.348 -5.12652e-10 7.37926e-14
  48 407.348 -5.12349e-10 -2.68163e-13
  49 407.348 -5.12349e-10 -1.90173e-14
  50 407.348 -5.12652e-10 -1.49002e-14
  51 407.348 -5.12046e-10 7.82389e-14
  52 407.348 -5.12500e-10 -2.44497e-14
  53 407.348 -5.13258e-10 1.63289e-15
  54 407.348 -5.13865e-10 -1.16956e-14
  55 407.348 -5.12955e-10 1.56478e-13
  56 407.348 -5.12955e-10 1.53218e-13
  57 407.348 -5.13561e-10 1.59744e-13
  58 407.348 -5.12046e-10 2.54763e-13
  59 407.348 -5.12695e-10 3.07942e-14
  60 407.348 -5.12500e-10 -1.42843e-14
  61 407.348 -5.13561e-10 6.77709e-14
  62 407.348 -5.12046e-10 6.96032e-14
  63 407.348 -5.12591e-10 1.44189e-13
  64 407.348 -5.12500e-10 1.66628e-13
  65 407.348 -5.12955e-10 -1.59761e-14
  66 407.348 -5.13107e-10 8.82914e-14
  67 407.348 -5.12500e-10 5.86850e-14
  68 407.348 -5.12652e-10 1.30522e-13
  69 407.348 -5.12435e-10 -7.69674e-14
  70 407.348 -5.12728e-10 2.36633e-14
  71 407.348 -5.12955e-10 -1.40190e-13
  72 407.348 -5.12435e-10 -1.41615e-13
  73 407.348 -5.12565e-10 6.26831e-14
  74 407.348 -5.12409e-10 5.05559e-15
  75 407.348 -5.12046e-10 -4.86194e-14
  76 407.348 -5.12652e-10 -5.02990e-14
  77 407.348 -5.13410e-10 3.20746e-15
  78 407.348 -5.13258e-10 1.21799e-13
  79 407.348 -5.12046e-10 9.62641e-14
  80 407.348 -5.12046e-10 -9.43084e-14
  81 407.348 -5.12652e-10 1.32270e-13
  82 407.348 -5.12197e-10 -1.83813e-13
  83 407.348 -5.12197e-10 -1.62969e-14
  84 407.348 -5.12349e-10 -3.48098e-14
  85 407.348 -5.12803e-10 -1.44278e-14
  86 407.348 -5.12349e-10 7.77724e-14
  87 407.348 -5.12500e-10 8.54681e-14
  88 407.348 -5.13319e-10 -2.51926e-13
  89 407.348 -5.12591e-10 1.54448e-14
  90 407.348 -5.12652e-10 -1.62826e-13
  91 407.348 -5.12046e-10 5.85462e-14
  92 407.348 -5.12773e-10 -1.00599e-15
  93 407.348 -5.12773e-10 -2.78028e-13
  94 407.348 -5.12591e-10 -6.44124e-14
  95 407.348 -5.12409e-10 -4.96700e-14
  96 407.348 -5.12197e-10 7.74356e-14
  97 407.348 -5.12227e-10 3.53776e-13
  98 407.348 -5.12773e-10 1.01785e-13
  99 407.348 -5.13561e-10 2.51737e-13
  100 407.348 -5.12591e-10 -1.41253e-13
  101 407.348 -5.12046e-10 -1.79298e-13
  102 407.348 -5.12409e-10 -8.06183e-14
  103 407.348 -5.12652e-10 -1.45304e-13
  104 407.348 -5.12046e-10 2.02174e-13
  105 407.348 -5.12227e-10 -7.50216e-14
  106 407.348 -5.12500e-10 3.15544e-29
  107 407.348 -5.13258e-10 1.23063e-13
  108 407.348 -5.13410e-10 -4.04549e-14
  109 407.348 -5.13501e-10 2.05465e-14
  110 407.348 -5.12409e-10 8.62185e-14
  111 407.348 -5.12841e-10 9.54449e-14
  112 407.348 -5.12500e-10 -4.23743e-14
  113 407.348 -5.12825e-10 8.81220e-14
  114 407.348 -5.12435e-10 -5.46712e-14
  115 407.348 -5.12349e-10 1.09518e-13
  116 407.348 -5.12046e-10 -7.47469e-14
  117 407.348 -5.12197e-10 2.16621e-14
  118 407.348 -5.12046e-10 -3.42539e-14
  119 407.348 -5.13475e-10 1.25749e-13
  120 407.348 -5.12349e-10 9.56518e-14
  121 407.348 -5.12695e-10 -1.05290e-13
  122 407.348 -5.12305e-10 -1.51672e-14
  123 407.348 -5.12500e-10 2.61225e-14
  124 407.348 -5.12175e-10 -1.47945e-15
  125 407.348 -5.12159e-10 3.27279e-14
  126 407.348 -5.12841e-10 -3.31831e-14
  127 407.348 -5.12175e-10 9.35260e-14
  128 407.348 -5.12728e-10 6.88221e-14
  129 407.348 -5.12500e-10 1.90986e-14
  130 407.348 -5.12652e-10 -6.34467e-14
  131 407.348 -5.12500e-10 -5.52525e-14
  132 407.348 -5.12841e-10 2.82393e-14
  133 407.348 -5.12955e-10 -6.86565e-14
  134 407.348 -5.13215e-10 -8.29314e-14
  135 407.348 -5.12305e-10 3.70855e-13
  136 407.348 -5.12435e-10 7.78676e-14
  137 407.348 -5.12435e-10 -1.65905e-13
  138 407.348 -5.12197e-10 1.02756e-13
  139 407.348 -5.12955e-10 3.93506e-14
  140 407.348 -5.12825e-10 -4.04584e-13
  141 407.348 -5.12652e-10 1.05960e-13
  142 407.348 -5.12955e-10 -9.61687e-14
  143 407.348 -5.12955e-10 1.64967e-13
  144 407.348 -5.12409e-10 -4.07476e-14
  145 407.348 -5.13501e-10 -8.38690e-14
  146 407.348 -5.12046e-10 -1.36164e-14
  147 407.348 -5.12500e-10 -9.41788e-15
  148 407.348 -5.13410e-10 2.08485e-14
  149 407.348 -5.12197e-10 6.02027e-14
  150 407.348 -5.12349e-10 1.35999e-13
  151 407.348 -5.12803e-10 -4.49338e-14
  152 407.348 -5.12349e-10 -1.43211e-13
  153 407.348 -5.12046e-10 9.93222e-14
  154 407.348 -5.12409e-10 -6.34274e-14
  155 407.348 -5.12349e-10 -2.40584e-14
  156 407.348 -5.13085e-10 -4.96866e-14
  157 407.348 -5.13605e-10 -4.72235e-14
  158 407.348 -5.12803e-10 -9.11723e-14
  159 407.348 -5.12652e-10 2.01314e-13
  160 407.348 -5.13319e-10 3.24887e-14
  161 407.348 -5.13137e-10 2.73836e-14
  162 407.348 -5.12046e-10 8.38957e-14
  163 407.348 -5.12349e-10 -2.49753e-13
  164 407.348 -5.12695e-10 7.17544e-14
  165 407.348 -5.13258e-10 -1.87808e-13
  166 407.348 -5.12565e-10 -5.73796e-14
  167 407.348 -5.12435e-10 1.18259e-13
  168 407.348 -5.12565e-10 -1.39419e-13
  169 407.348 -5.12825e-10 6.60172e-14
  170 407.348 -5.12591e-10 2.24638e-15
  171 407.348 -5.12695e-10 -9.04631e-14
  172 407.348 -5.12500e-10 9.77987e-15
  173 407.348 -5.12046e-10 4.01827e-14
  174 407.348 -5.12500e-10 -4.08917e-13
  175 407.348 -5.12652e-10 7.13890e-14
  176 407.348 -5.12803e-10 1.52530e-14
  177 407.348 -5.12652e-10 -2.84228e-14
  178 407.348 -5.12500e-10 7.57969e-14
  179 407.348 -5.12046e-10 5.40744e-14
  180 407.348 -5.12955e-10 1.17668e-13
  181 407.348 -5.12500e-10 -7.50956e-14
  182 407.348 -5.12591e-10 -8.49862e-16
  183 407.348 -5.12046e-10 2.49191e-14
  184 407.348 -5.12591e-10 1.16813e-13
  185 407.348 -5.12349e-10 -8.17293e-14
  186 407.348 -5.12955e-10 -9.86454e-14
  187 407.348 -5.12500e-10 3.05799e-14
  188 407.348 -5.12046e-10 1.02351e-13
  189 407.348 -5.13683e-10 1.00633e-14
  190 407.348 -5.12305e-10 6.43094e-14
  191 407.348 -5.12046e-10 1.78379e-13
  192 407.348 -5.12435e-10 -5.58351e-15
  193 407.348 -5.12409e-10 -6.12896e-14
  194 407.348 -5.12955e-10 1.72439e-13
  195 407.348 -5.12955e-10 -3.77446e-14
  196 407.348 -5.13107e-10 -1.60567e-13
  197 407.348 -5.13258e-10 8.58727e-14
  198 407.348 -5.12955e-10 4.75172e-14
  199 407.348 -5.13258e-10 3.77257e-14
  200 407.348 -5.12349e-10 -3.72533e-14
  201 407.348 -5.12046e-10 -5.29123e-14
  202 407.348 -5.12227e-10 -8.49571e-14
  203 407.348 -5.12349e-10 -8.40590e-14
  204 407.348 -5.13258e-10 2.16049e-13
  205 407.348 -5.12500e-10 2.14201e-14
  206 407.348 -5.12591e-10 -4.97356e-14
  207 407.348 -5.12955e-10 7.34475e-14
  208 407.348 -5.13683e-10 2.50821e-14
  209 407.348 -5.12349e-10 3.52209e-13
  210 407.348 -5.12500e-10 1.37890e-13
  211 407.348 -5.12565e-10 -2.96370e-14
  212 407.348 -5.12046e-10 7.25007e-15
  213 407.348 -5.12227e-10 -7.86175e-15
  214 407.348 -5.12803e-10 7.71865e-14
  215 407.348 -5.12227e-10 8.11993e-14
  216 407.348 -5.12409e-10 -4.67706e-14
  217 407.348 -5.12197e-10 1.20866e-13
  218 407.348 -5.12197e-10 2.24484e-14
  219 407.348 -5.12591e-10 2.12393e-14
  220 407.348 -5.12046e-10 2.16592e-14
  221 407.348 -5.12197e-10 -3.25996e-15
  222 407.348 -5.12349e-10 1.86995e-13
  223 407.348 -5.13137e-10 -5.62334e-14
  224 407.348 -5.12773e-10 -1.74089e-13
  225 407.348 -5.13319e-10 1.26727e-13
  226 407.348 -5.12773e-10 -1.09951e-13
  227 407.348 -5.12955e-10 9.33811e-14
  228 407.348 -5.12046e-10 -5.36511e-14
  229 407.348 -5.13107e-10 9.66717e-14
  230 407.348 -5.12500e-10 -2.37469e-14
  231 407.348 -5.12227e-10 1.29108e-13
  232 407.348 -5.13137e-10 -1.83762e-13
  233 407.348 -5.12773e-10 1.48402e-13
  234 407.348 -5.12803e-10 -4.82593e-14
  235 407.348 -5.12227e-10 -1.53427e-13
  236 407.348 -5.12435e-10 5.61924e-14
  237 407.348 -5.13319e-10 1.38245e-13
  238 407.348 -5.13137e-10 1.81367e-13
  239 407.348 -5.12652e-10 5.71688e-14
  240 407.348 -5.12773e-10 -1.12320e-13
  241 407.348 -5.13107e-10 7.40575e-14
</Section>

newXOutput 24

<Section columns = "stress_xx | stress_yy | stress_xy">
  1 424.965 -5.11136e-10 -7.80207e-14
  2 424.965 -5.11136e-10 -1.17031e-13
  3 424.965 -5.12955e-10 2.23164e-13
  4 424.965 -5.12955e-10 2.97542e-13
  5 424.965 -5.12955e-10 6.74498e-14
  6 424.965 -5.12955e-10 1.63339e-13
  7 424.965 -5.11136e-10 -1.79195e-13
  8 424.965 -5.09317e-10 -1.86913e-13
  9 424.965 -5.10530e-10 5.10408e-14
  10 424.965 -5.12955e-10 -3.18449e-14
  11 424.965 -5.11742e-10 -1.35873e-13
  12 424.965 -5.09317e-10 4.73291e-15
  13 424.965 -5.12046e-10 1.87754e-14
  14 424.965 -5.12955e-10 -3.89202e-15
  15 424.965 -5.12046e-10 -3.64877e-15
  16 424.965 -5.12349e-10 -3.89202e-15
  17 424.965 -5.12955e-10 -2.93860e-13
  18 424.965 -5.11742e-10 -9.29702e-14
  19 424.965 -5.10530e-10 -1.45603e-13
  20 424.965 -5.10530e-10 3.28978e-13
  21 424.965 -5.10530e-10 4.05672e-13
  22 424.965 -5.11742e-10 -1.20923e-13
  23 424.965 -5.11136e-10 -1.31981e-13
  24 424.965 -5.11742e-10 -9.49162e-14
  25 424.965 -5.12955e-10 3.90103e-14
  26 424.965 -5.11136e-10 5.26437e-14
  27 424.965 -5.10530e-10 1.37819e-13
  28 424.965 -5.12046e-10 -2.75578e-14
  29 424.965 -5.09317e-10 5.85155e-14
  30 424.965 -5.10530e-10 -1.21564e-13
  31 424.965 -5.12955e-10 5.23312e-13
  32 424.965 -5.12955e-10 4.81981e-13
  33 424.965 -5.12955e-10 9.09550e-14
  34 424.965 -5.10530e-10 6.34042e-15
  35 424.965 -5.11591e-10 2.74267e-13
  36 424.965 -5.12955e-10 2.39770e-13
  37 424.965 -5.12955e-10 2.38204e-13
  38 424.965 -5.12955e-10 1.40934e-13
  39 424.965 -5.12955e-10 5.96684e-14
  40 424.965 -5.12955e-10 3.07533e-13
  41 424.965 -5.12955e-10 1.56839e-13
  42 424.965 -5.12955e-10 -2.26082e-13
  43 424.965 -5.12955e-10 -1.75919e-13
  44 424.965 -5.12955e-10 3.77928e-14
  45 424.965 -5.12349e-10 4.45677e-14
  46 424.965 -5.12349e-10 1.76005e-13
  47 424.965 -5.12955e-10 4.62908e-14
  48 424.965 -5.12955e-10 7.61928e-14
  49 424.965 -5.12955e-10 2.69513e-13
  50 424.965 -5.12955e-10 -6.29714e-14
  51 424.965 -5.12955e-10 -4.87629e-14
  52 424.965 -5.12955e-10 3.10357e-15
  53 424.965 -5.11742e-10 -1.37023e-13
  54 424.965 -5.11136e-10 -8.59151e-15
  55 424.965 -5.12955e-10 0.00000
  56 424.965 -5.11742e-10 1.56792e-14
  57 424.965 -5.11136e-10 -1.58113e-15
  58 424.965 -5.12349e-10 -9.34454e-14
  59 424.965 -5.12955e-10 1.03023e-13
  60 424.965 -5.12652e-10 -2.07102e-14
  61 424.965 -5.10530e-10 8.04202e-14
  62 424.965 -5.12955e-10 1.97527e-14
  63 424.965 -5.12955e-10 -1.59730e-13
  64 424.965 -5.12652e-10 1.59933e-13
  65 424.965 -5.12349e-10 -1.09202e-13
  66 424.965 -5.11136e-10 -1.75201e-14
  67 424.965 -5.12652e-10 -1.89661e-13
  68 424.965 -5.12803e-10 -1.70897e-13
  69 424.965 -5.12695e-10 -8.44025e-14
  70 424.965 -5.12955e-10 6.89437e-14
  71 424.965 -5.12955e-10 1.34891e-13
  72 424.965 -5.12435e-10 -5.19805e-14
  73 424.965 -5.12435e-10 3.32412e-13
  74 424.965 -5.12955e-10 -2.77434e-14
  75 424.965 -5.12955e-10 2.44969e-13
  76 424.965 -5.11742e-10 2.38595e-13
  77 424.965 -5.12652e-10 1.20298e-13
  78 424.965 -5.11136e-10 -9.77065e-14
  79 424.965 -5.12435e-10 -1.67992e-14
  80 424.965 -5.12955e-10 7.31444e-14
  81 424.965 -5.11136e-10 -7.86562e-14
  82 424.965 -5.12955e-10 -8.03121e-14
  83 424.965 -5.12349e-10 1.10590e-15
  84 424.965 -5.11742e-10 -8.01214e-14
  85 424.965 -5.12349e-10 2.18935e-13
  86 424.965 -5.12500e-10 -1.47748e-13
  87 424.965 -5.12955e-10 -1.00881e-13
  88 424.965 -5.12227e-10 -3.04493e-13
  89 424.965 -5.12955e-10 -4.87530e-14
  90 424.965 -5.12955e-10 -1.83385e-14
  91 424.965 -5.12955e-10 -1.37833e-13
  92 424.965 -5.11500e-10 6.56374e-14
  93 424.965 -5.10772e-10 -1.18570e-13
  94 424.965 -5.10772e-10 2.19413e-13
  95 424.965 -5.12591e-10 -1.06814e-14
  96 424.965 -5.12349e-10 1.00124e-13
  97 424.965 -5.12227e-10 -2.36768e-13
  98 424.965 -5.12955e-10 -2.41360e-14
  99 424.965 -5.09923e-10 -7.53997e-14
  100 424.965 -5.12955e-10 3.13768e-13
  101 424.965 -5.12652e-10 -5.35153e-15
  102 424.965 -5.12955e-10 1.77643e-13
  103 424.965 -5.12652e-10 -4.67171e-14
  104 424.965 -5.12955e-10 -7.90887e-14
  105 424.965 -5.12955e-10 5.23257e-14
  106 424.965 -5.12955e-10 1.18004e-13
  107 424.965 -5.10530e-10 4.86279e-13
  108 424.965 -5.12955e-10 5.06938e-14
  109 424.965 -5.10772e-10 -8.41641e-14
  110 424.965 -5.12227e-10 6.82681e-15
  111 424.965 -5.12500e-10 -1.74128e-13
  112 424.965 -5.12652e-10 3.78742e-14
  113 424.965 -5.12955e-10 -5.21356e-14
  114 424.965 -5.12955e-10 1.63062e-13
  115 424.965 -5.11136e-10 -7.96007e-14
  116 424.965 -5.12227e-10 -7.31376e-14
  117 424.965 -5.12955e-10 7.32007e-15
  118 424.965 -5.12349e-10 -5.03669e-14
  119 424.965 -5.11266e-10 8.42191e-14
  120 424.965 -5.11742e-10 7.98177e-14
  121 424.965 -5.12435e-10 1.78883e-13
  122 424.965 -5.12955e-10 5.79611e-14
  123 424.965 -5.12652e-10 -1.01412e-13
  124 424.965 -5.12695e-10 -1.01636e-13
  125 424.965 -5.12955e-10 2.56161e-14
  126 424.965 -5.11136e-10 -6.32073e-14
  127 424.965 -5.12695e-10 -1.70651e-13
  128 424.965 -5.12046e-10 4.52471e-14
  129 424.965 -5.12728e-10 -1.84509e-14
  130 424.965 -5.12955e-10 -1.14653e-13
  131 424.965 -5.12349e-10 -9.88156e-14
  132 424.965 -5.12955e-10 -5.11533e-14
  133 424.965 -5.11396e-10 3.35700e-14
  134 424.965 -5.11916e-10 1.66201e-13
  135 424.965 -5.11526e-10 -6.69135e-15
  136 424.965 -5.12955e-10 -9.71529e-15
  137 424.965 -5.12955e-10 1.65039e-14
  138 424.965 -5.12652e-10 9.99584e-15
  139 424.965 -5.11656e-10 8.21695e-14
  140 424.965 -5.12955e-10 -7.83521e-14
  141 424.965 -5.11439e-10 -5.35837e-14
  142 424.965 -5.12349e-10 -3.52617e-14
  143 424.965 -5.11916e-10 -1.22902e-13
  144 424.965 -5.12955e-10 -6.01115e-14
  145 424.965 -5.10772e-10 -1.93170e-13
  146 424.965 -5.12955e-10 -1.35173e-13
  147 424.965 -5.12955e-10 -1.11736e-14
  148 424.965 -5.11742e-10 -1.00976e-13
  149 424.965 -5.11136e-10 1.56511e-13
  150 424.965 -5.12349e-10 7.83438e-14
  151 424.965 -5.11742e-10 -2.83508e-14
  152 424.965 -5.12955e-10 6.03069e-14
  153 424.965 -5.12955e-10 -5.03658e-15
  154 424.965 -5.12955e-10 1.99034e-14
  155 424.965 -5.12955e-10 -1.68862e-13
  156 424.965 -5.11136e-10 6.79933e-14
  157 424.965 -5.12435e-10 1.15673e-13
  158 424.965 -5.11742e-10 -1.38299e-13
  159 424.965 -5.11136e-10 1.07925e-13
  160 424.965 -5.12955e-10 -6.01012e-14
  161 424.965 -5.10045e-10 2.10629e-13
  162 424.965 -5.12349e-10 -2.38229e-14
  163 424.965 -5.12955e-10 3.23483e-14
  164 424.965 -5.12435e-10 1.67879e-13
  165 424.965 -5.12349e-10 1.15474e-13
  166 424.965 -5.12955e-10 -7.26786e-14
  167 424.965 -5.12435e-10 6.63060e-14
  168 424.965 -5.10876e-10 -9.58385e-14
  169 424.965 -5.12435e-10 8.08200e-15
  170 424.965 -5.12591e-10 5.28631e-14
  171 424.965 -5.11656e-10 -1.16922e-13
  172 424.965 -5.11742e-10 -7.89824e-14
  173 424.965 -5.12955e-10 -7.42570e-14
  174 424.965 -5.12046e-10 -2.40387e-13
  175 424.965 -5.12955e-10 -7.43414e-15
  176 424.965 -5.12349e-10 -2.10533e-14
  177 424.965 -5.11742e-10 -1.66137e-14
  178 424.965 -5.12349e-10 -1.84822e-14
  179 424.965 -5.10772e-10 -2.25464e-13
  180 424.965 -5.12435e-10 1.16983e-13
  181 424.965 -5.12349e-10 2.38619e-14
  182 424.965 -5.12955e-10 1.27997e-13
  183 424.965 -5.12652e-10 1.30435e-13
  184 424.965 -5.12591e-10 -5.08990e-14
  185 424.965 -5.12349e-10 1.13512e-13
  186 424.965 -5.12227e-10 9.18231e-15
  187 424.965 -5.12955e-10 1.07364e-13
  188 424.965 -5.11500e-10 1.81226e-13
  189 424.965 -5.10772e-10 1.64402e-14
  190 424.965 -5.12955e-10 -1.43680e-13
  191 424.965 -5.12652e-10 3.78166e-15
  192 424.965 -5.12435e-10 -1.04899e-13
  193 424.965 -5.12227e-10 2.08760e-13
  194 424.965 -5.11439e-10 1.70327e-13
  195 424.965 -5.12955e-10 -6.81517e-14
  196 424.965 -5.12955e-10 -8.78015e-14
  197 424.965 -5.11136e-10 -2.23056e-14
  198 424.965 -5.10530e-10 7.05460e-14
  199 424.965 -5.11136e-10 -7.80537e-14
  200 424.965 -5.12046e-10 1.76478e-14
  201 424.965 -5.12955e-10 4.30791e-13
  202 424.965 -5.12591e-10 1.04427e-14
  203 424.965 -5.12652e-10 1.87995e-15
  204 424.965 -5.11136e-10 -5.36596e-14
  205 424.965 -5.12955e-10 2.95474e-13
  206 424.965 -5.11500e-10 1.11564e-13
  207 424.965 -5.12955e-10 1.86598e-14
  208 424.965 -5.10045e-10 5.08669e-14
  209 424.965 -5.11894e-10 -1.30485e-15
  210 424.965 -5.12955e-10 -1.00826e-13
  211 424.965 -5.12955e-10 -1.63017e-14
  212 424.965 -5.11864e-10 -1.76900e-13
  213 424.965 -5.12955e-10 3.27531e-14
  214 424.965 -5.12955e-10 -3.49013e-13
  215 424.965 -5.12591e-10 -8.84587e-14
  216 424.965 -5.12591e-10 2.61347e-13
  217 424.965 -5.12955e-10 2.12434e-13
  218 424.965 -5.12349e-10 -9.84774e-14
  219 424.965 -5.12046e-10 -3.16858e-14
  220 424.965 -5.12955e-10 -2.35631e-14
  221 424.965 -5.12955e-10 3.90329e-15
  222 424.965 -5.11439e-10 -1.69022e-13
  223 424.965 -5.12955e-10 -1.58728e-13
  224 424.965 -5.12955e-10 9.30275e-14
  225 424.965 -5.11500e-10 2.83594e-13
  226 424.965 -5.12227e-10 7.58314e-14
  227 424.965 -5.11742e-10 -7.44380e-14
  228 424.965 -5.12591e-10 2.02881e-14
  229 424.965 -5.10833e-10 -6.49204e-14
  230 424.965 -5.12349e-10 1.43524e-13
  231 424.965 -5.12955e-10 -1.94839e-13
  232 424.965 -5.11500e-10 -2.64216e-14
  233 424.965 -5.11500e-10 -2.06728e-13
  234 424.965 -5.12955e-10 -1.92233e-14
  235 424.965 -5.12955e-10 -3.00030e-14
  236 424.965 -5.12435e-10 2.10857e-14
  237 424.965 -5.10045e-10 -1.01793e-13
  238 424.965 -5.10772e-10 -3.58787e-14
  239 424.965 -5.11742e-10 1.93869e-13
  240 424.965 -5.11500e-10 -2.29017e-14
  241 424.965 -5.11742e-10 1.67740e-13
</Section>

newXOutput 25

<Section columns = "stress_xx | stress_yy | stress_xy">
  1 442.508 -5.11136e-10 -8.56299e-14
  2 442.508 -5.09772e-10 -6.46732e-13
  3 442.508 -5.09772e-10 1.58761e-13
  4 442.508 -5.09317e-10 5.86389e-14
  5 442.508 -5.09923e-10 1.18004e-14
  6 442.508 -5.09317e-10 4.64971e-14
  7 442.508 -5.09772e-10 2.32799e-13
  8 442.508 -5.11136e-10 4.07289e-14
  9 442.508 -5.12349e-10 -5.59198e-14
  10 442.508 -5.10530e-10 2.73523e-13
  11 442.508 -5.10530e-10 5.08561e-14
  12 442.508 -5.11136e-10 7.47651e-14
  13 442.508 -5.09772e-10 1.05460e-13
  14 442.508 -5.09923e-10 -2.25705e-13
  15 442.508 -5.11591e-10 -4.44017e-13
  16 442.508 -5.10530e-10 -1.41825e-13
  17 442.508 -5.10833e-10 -8.59051e-14
  18 442.508 -5.11742e-10 5.43809e-13
  19 442.508 -5.11136e-10 3.97118e-13
  20 442.508 -5.10530e-10 -2.33410e-13
  21 442.508 -5.09620e-10 -4.57089e-13
  22 442.508 -5.10227e-10 1.11840e-13
  23 442.508 -5.09923e-10 -7.24535e-13
  24 442.508 -5.10530e-10 2.67446e-13
  25 442.508 -5.11136e-10 2.33410e-13
  26 442.508 -5.11136e-10 2.22467e-13
  27 442.508 -5.11742e-10 -2.60963e-13
  28 442.508 -5.09317e-10 -7.71924e-14
  29 442.508 -5.09317e-10 2.52861e-13
  30 442.508 -5.09620e-10 1.27241e-13
  31 442.508 -5.10530e-10 2.88468e-13
  32 442.508 -5.09772e-10 -3.06761e-13
  33 442.508 -5.11363e-10 -1.14767e-13
  34 442.508 -5.09923e-10 -1.99268e-13
  35 442.508 -5.09090e-10 -4.86226e-14
  36 442.508 -5.09620e-10 7.08612e-14
  37 442.508 -5.09923e-10 1.04306e-13
  38 442.508 -5.09923e-10 1.55187e-13
  39 442.508 -5.09923e-10 -1.09163e-14
  40 442.508 -5.09317e-10 1.15438e-13
  41 442.508 -5.09317e-10 2.76853e-13
  42 442.508 -5.09317e-10 1.46529e-13
  43 442.508 -5.09923e-10 7.20348e-14
  44 442.508 -5.09923e-10 3.35238e-14
  45 442.508 -5.09317e-10 9.55078e-14
  46 442.508 -5.09923e-10 -1.92105e-14
  47 442.508 -5.11136e-10 -6.02798e-14
  48 442.508 -5.11136e-10 -4.53719e-14
  49 442.508 -5.10530e-10 6.41522e-14
  50 442.508 -5.09923e-10 -3.24676e-14
  51 442.508 -5.11136e-10 -4.86271e-14
  52 442.508 -5.10227e-10 -3.48749e-14
  53 442.508 -5.09923e-10 -1.49629e-13
  54 442.508 -5.11136e-10 -7.52956e-14
  55 442.508 -5.11136e-10 0.00000
  56 442.508 -5.11136e-10 1.28709e-13
  57 442.508 -5.10530e-10 -3.34803e-14
  58 442.508 -5.11439e-10 5.82507e-14
  59 442.508 -5.11396e-10 -2.16516e-14
  60 442.508 -5.10530e-10 -1.64061e-13
  61 442.508 -5.10530e-10 -1.29314e-13
  62 442.508 -5.11439e-10 -1.31290e-13
  63 442.508 -5.10590e-10 3.84030e-13
  64 442.508 -5.10984e-10 -3.20630e-13
  65 442.508 -5.10530e-10 9.06357e-15
  66 442.508 -5.10833e-10 -1.57054e-13
  67 442.508 -5.10984e-10 -2.82137e-13
  68 442.508 -5.10833e-10 1.56167e-13
  69 442.508 -5.11396e-10 -2.35180e-13
  70 442.508 -5.11136e-10 -1.72527e-13
  71 442.508 -5.09923e-10 1.22023e-13
  72 442.508 -5.10616e-10 -1.17169e-13
  73 442.508 -5.10616e-10 2.09274e-14
  74 442.508 -5.10045e-10 2.94192e-14
  75 442.508 -5.10772e-10 1.95433e-14
  76 442.508 -5.10530e-10 -2.01608e-14
  77 442.508 -5.09317e-10 1.75905e-14
  78 442.508 -5.10378e-10 2.55693e-13
  79 442.508 -5.10097e-10 5.00060e-16
  80 442.508 -5.11136e-10 -8.08388e-14
  81 442.508 -5.10833e-10 -1.71001e-13
  82 442.508 -5.09923e-10 -1.48622e-13
  83 442.508 -5.09923e-10 9.30244e-14
  84 442.508 -5.09923e-10 -2.04256e-13
  85 442.508 -5.10833e-10 5.67452e-15
  86 442.508 -5.10984e-10 1.78195e-13
  87 442.508 -5.10530e-10 8.91288e-15
  88 442.508 -5.11682e-10 -2.83977e-13
  89 442.508 -5.11136e-10 3.17290e-14
  90 442.508 -5.10227e-10 -1.40256e-13
  91 442.508 -5.09863e-10 -2.56485e-14
  92 442.508 -5.10408e-10 2.22776e-14
  93 442.508 -5.11500e-10 1.26414e-14
  94 442.508 -5.10772e-10 3.27258e-13
  95 442.508 -5.10045e-10 -8.63416e-14
  96 442.508 -5.10984e-10 -1.50335e-13
  97 442.508 -5.10408e-10 5.12036e-13
  98 442.508 -5.09317e-10 9.33029e-14
  99 442.508 -5.11136e-10 2.76362e-13
  100 442.508 -5.10045e-10 1.23422e-13
  101 442.508 -5.10378e-10 4.75648e-14
  102 442.508 -5.10772e-10 2.48786e-13
  103 442.508 -5.10075e-10 -4.02284e-13
  104 442.508 -5.11136e-10 3.81735e-14
  105 442.508 -5.10772e-10 -1.36750e-14
  106 442.508 -5.10681e-10 -1.23388e-13
  107 442.508 -5.09923e-10 3.05536e-13
  108 442.508 -5.10227e-10 -1.06487e-14
  109 442.508 -5.11136e-10 -2.37059e-14
  110 442.508 -5.09499e-10 -2.43054e-15
  111 442.508 -5.11363e-10 -2.53790e-14
  112 442.508 -5.10530e-10 -4.94730e-14
  113 442.508 -5.10356e-10 -1.18936e-13
  114 442.508 -5.10486e-10 -1.52668e-13
  115 442.508 -5.10833e-10 -1.12258e-13
  116 442.508 -5.09681e-10 5.37622e-14
  117 442.508 -5.10227e-10 -1.40713e-13
  118 442.508 -5.10227e-10 1.42847e-14
  119 442.508 -5.10876e-10 1.44624e-13
  120 442.508 -5.10378e-10 -1.26102e-14
  121 442.508 -5.10876e-10 -5.50737e-14
  122 442.508 -5.11136e-10 -5.54193e-14
  123 442.508 -5.10530e-10 -1.20550e-13
  124 442.508 -5.10616e-10 -1.77121e-14
  125 442.508 -5.10909e-10 -2.93367e-14
  126 442.508 -5.10227e-10 -1.73515e-13
  127 442.508 -5.11136e-10 1.64116e-13
  128 442.508 -5.10909e-10 1.22781e-13
  129 442.508 -5.09317e-10 9.92821e-14
  130 442.508 -5.10833e-10 -8.95267e-14
  131 442.508 -5.09620e-10 9.25572e-14
  132 442.508 -5.09772e-10 4.66284e-14
  133 442.508 -5.11526e-10 -9.30838e-14
  134 442.508 -5.10097e-10 -1.17049e-13
  135 442.508 -5.10746e-10 1.12884e-13
  136 442.508 -5.10356e-10 -2.29227e-14
  137 442.508 -5.09967e-10 -1.66024e-13
  138 442.508 -5.10530e-10 -5.13983e-14
  139 442.508 -5.10097e-10 6.32164e-14
  140 442.508 -5.11136e-10 1.68368e-13
  141 442.508 -5.09923e-10 1.21061e-13
  142 442.508 -5.11136e-10 -1.27848e-13
  143 442.508 -5.11136e-10 -7.21787e-14
  144 442.508 -5.10772e-10 -1.42839e-13
  145 442.508 -5.10408e-10 2.13298e-14
  146 442.508 -5.09837e-10 4.00980e-14
  147 442.508 -5.10227e-10 6.24827e-14
  148 442.508 -5.10227e-10 -9.03646e-14
  149 442.508 -5.10378e-10 -1.79108e-13
  150 442.508 -5.10833e-10 -1.06787e-13
  151 442.508 -5.11136e-10 -1.15081e-13
  152 442.508 -5.10984e-10 2.35939e-13
  153 442.508 -5.10681e-10 7.29678e-15
  154 442.508 -5.11500e-10 -2.57476e-13
  155 442.508 -5.09923e-10 -1.35140e-13
  156 442.508 -5.10876e-10 -2.70934e-14
  157 442.508 -5.10097e-10 3.51676e-14
  158 442.508 -5.10833e-10 -4.09575e-13
  159 442.508 -5.12046e-10 -3.94772e-15
  160 442.508 -5.09317e-10 -5.03740e-14
  161 442.508 -5.11500e-10 1.80889e-13
  162 442.508 -5.10227e-10 -5.37155e-14
  163 442.508 -5.10378e-10 -3.16881e-13
  164 442.508 -5.09967e-10 4.06553e-13
  165 442.508 -5.09620e-10 2.42131e-14
  166 442.508 -5.10616e-10 -3.47325e-14
  167 442.508 -5.10616e-10 6.77288e-14
  168 442.508 -5.10616e-10 -3.95934e-14
  169 442.508 -5.11136e-10 1.17811e-13
  170 442.508 -5.09681e-10 -3.49871e-13
  171 442.508 -5.10486e-10 -1.09827e-14
  172 442.508 -5.10227e-10 1.20150e-13
  173 442.508 -5.09620e-10 4.75826e-14
  174 442.508 -5.10378e-10 -2.18516e-13
  175 442.508 -5.09923e-10 -1.05900e-15
  176 442.508 -5.10833e-10 7.33699e-14
  177 442.508 -5.10833e-10 -3.54168e-14
  178 442.508 -5.10833e-10 -3.80142e-14
  179 442.508 -5.09681e-10 -8.88332e-14
  180 442.508 -5.10616e-10 6.33249e-14
  181 442.508 -5.11439e-10 -4.63457e-14
  182 442.508 -5.09681e-10 -2.25081e-13
  183 442.508 -5.10681e-10 -5.51086e-14
  184 442.508 -5.10590e-10 -7.29162e-15
  185 442.508 -5.10227e-10 -6.59039e-14
  186 442.508 -5.10772e-10 -9.72215e-15
  187 442.508 -5.10833e-10 -1.15423e-13
  188 442.508 -5.11136e-10 -8.75419e-14
  189 442.508 -5.10772e-10 -7.79222e-14
  190 442.508 -5.10097e-10 7.77303e-15
  191 442.508 -5.10833e-10 1.26397e-14
  192 442.508 -5.10876e-10 1.90512e-13
  193 442.508 -5.10954e-10 -4.19306e-14
  194 442.508 -5.10984e-10 -1.28962e-13
  195 442.508 -5.11136e-10 -2.72279e-14
  196 442.508 -5.11742e-10 -1.65735e-13
  197 442.508 -5.11136e-10 6.32953e-16
  198 442.508 -5.10833e-10 3.08781e-13
  199 442.508 -5.10833e-10 -1.46624e-14
  200 442.508 -5.11439e-10 -2.61469e-13
  201 442.508 -5.10833e-10 -6.63535e-14
  202 442.508 -5.10408e-10 -8.77071e-14
  203 442.508 -5.10075e-10 -5.67289e-14
  204 442.508 -5.10681e-10 -7.80039e-14
  205 442.508 -5.09923e-10 7.91958e-14
  206 442.508 -5.10045e-10 -1.16705e-13
  207 442.508 -5.10045e-10 -2.55306e-14
  208 442.508 -5.09135e-10 -1.96315e-14
  209 442.508 -5.10984e-10 1.65635e-13
  210 442.508 -5.10227e-10 -5.29546e-15
  211 442.508 -5.10097e-10 4.07887e-14
  212 442.508 -5.10045e-10 -6.82001e-14
  213 442.508 -5.11136e-10 6.26870e-14
  214 442.508 -5.09317e-10 -3.31501e-14
  215 442.508 -5.10772e-10 -9.38490e-14
  216 442.508 -5.10772e-10 -1.11004e-13
  217 442.508 -5.10227e-10 2.99853e-14
  218 442.508 -5.09772e-10 4.97409e-14
  219 442.508 -5.10045e-10 2.43561e-13
  220 442.508 -5.11288e-10 -2.65399e-14
  221 442.508 -5.10833e-10 -9.03619e-14
  222 442.508 -5.11136e-10 -4.86271e-14
  223 442.508 -5.10408e-10 7.15421e-14
  224 442.508 -5.10045e-10 -6.12685e-14
  225 442.508 -5.11136e-10 2.42163e-13
  226 442.508 -5.10408e-10 2.19144e-14
  227 442.508 -5.10681e-10 1.33745e-14
  228 442.508 -5.10408e-10 -3.52363e-15
  229 442.508 -5.10530e-10 -2.77067e-14
  230 442.508 -5.11288e-10 1.52767e-13
  231 442.508 -5.11500e-10 2.25022e-13
  232 442.508 -5.10227e-10 4.92644e-14
  233 442.508 -5.10590e-10 -1.83809e-13
  234 442.508 -5.10530e-10 -5.89965e-14
  235 442.508 -5.09681e-10 1.08254e-13
  236 442.508 -5.10876e-10 -1.24329e-13
  237 442.508 -5.10772e-10 1.93125e-13
  238 442.508 -5.10408e-10 1.31301e-14
  239 442.508 -5.10984e-10 2.05296e-13
  240 442.508 -5.10045e-10 9.87138e-14
  241 442.508 -5.10833e-10 -1.98527e-14
</Section>

newXOutput 26

<Section columns = "stress_xx | stress_yy | stress_xy">
  1 459.976 -5.07498e-10 -3.87934e-14
  2 459.976 -5.07498e-10 2.45387e-13
  3 459.976 -5.07498e-10 -7.96513e-14
  4 459.976 -5.07498e-10 5.80978e-14
  5 459.976 -5.07498e-10 4.65743e-14
  6 459.976 -5.07498e-10 3.15672e-15
  7 459.976 -5.07043e-10 1.45247e-13
  8 459.976 -5.05679e-10 2.15316e-13
  9 459.976 -5.06892e-10 -4.61591e-14
  10 459.976 -5.07498e-10 -3.42802e-14
  11 459.976 -5.07498e-10 -7.36567e-15
  12 459.976 -5.07498e-10 1.04501e-13
  13 459.976 -5.07498e-10 2.36478e-13
  14 459.976 -5.06285e-10 3.22974e-13
  15 459.976 -5.07043e-10 -4.55014e-14
  16 459.976 -5.07498e-10 -3.53045e-13
  17 459.976 -5.07498e-10 -2.21629e-13
  18 459.976 -5.07498e-10 7.75868e-14
  19 459.976 -5.06892e-10 -4.20895e-15
  20 459.976 -5.06892e-10 3.87934e-14
  21 459.976 -5.07498e-10 8.17957e-14
  22 459.976 -5.07498e-10 2.11107e-13
  23 459.976 -5.07498e-10 6.97672e-13
  24 459.976 -5.07498e-10 -7.75868e-14
  25 459.976 -5.06589e-10 -1.55174e-13
  26 459.976 -5.07043e-10 -8.48605e-15
  27 459.976 -5.06892e-10 2.28247e-13
  28 459.976 -5.06589e-10 2.47560e-13
  29 459.976 -5.07498e-10 1.35777e-13
  30 459.976 -5.07195e-10 -1.90262e-13
  31 459.976 -5.07498e-10 1.47703e-13
  32 459.976 -5.07498e-10 1.79191e-13
  33 459.976 -5.07498e-10 7.22904e-14
  34 459.976 -5.07498e-10 -2.94834e-13
  35 459.976 -5.07271e-10 -1.57241e-13
  36 459.976 -5.07195e-10 1.28719e-14
  37 459.976 -5.07498e-10 1.23204e-13
  38 459.976 -5.07498e-10 4.48233e-14
  39 459.976 -5.07498e-10 -9.24524e-14
  40 459.976 -5.07498e-10 -4.50481e-15
  41 459.976 -5.07498e-10 9.16004e-14
  42 459.976 -5.07498e-10 5.78408e-14
  43 459.976 -5.07498e-10 9.63529e-14
  44 459.976 -5.07498e-10 2.05183e-14
  45 459.976 -5.07498e-10 4.94214e-14
  46 459.976 -5.07498e-10 4.38556e-14
  47 459.976 -5.07498e-10 -7.55810e-14
  48 459.976 -5.07498e-10 -1.55490e-13
  49 459.976 -5.07498e-10 -1.84066e-14
  50 459.976 -5.07498e-10 -7.40149e-14
  51 459.976 -5.07498e-10 -9.69835e-15
  52 459.976 -5.07498e-10 -2.30050e-14
  53 459.976 -5.07498e-10 -4.52590e-14
  54 459.976 -5.07043e-10 -7.07647e-15
  55 459.976 -5.06589e-10 0.00000
  56 459.976 -5.07498e-10 -6.76666e-15
  57 459.976 -5.07498e-10 -8.09028e-14
  58 459.976 -5.07498e-10 -6.64971e-14
  59 459.976 -5.07238e-10 -1.06003e-14
  60 459.976 -5.07195e-10 -8.02273e-14
  61 459.976 -5.07195e-10 1.05761e-13
  62 459.976 -5.07195e-10 -5.03736e-14
  63 459.976 -5.06770e-10 -3.21148e-14
  64 459.976 -5.07195e-10 1.19537e-13
  65 459.976 -5.07195e-10 4.29849e-14
  66 459.976 -5.07498e-10 -3.39339e-14
  67 459.976 -5.07498e-10 3.56747e-14
  68 459.976 -5.07498e-10 2.27797e-13
  69 459.976 -5.07498e-10 -3.10405e-14
  70 459.976 -5.07271e-10 -1.03171e-14
  71 459.976 -5.07498e-10 4.94410e-14
  72 459.976 -5.06978e-10 -6.10769e-14
  73 459.976 -5.07498e-10 -1.15734e-13
  74 459.976 -5.07498e-10 3.09460e-14
  75 459.976 -5.06770e-10 5.88214e-14
  76 459.976 -5.06892e-10 -1.04501e-13
  77 459.976 -5.07498e-10 -5.16762e-14
  78 459.976 -5.07498e-10 2.24324e-13
  79 459.976 -5.07498e-10 -2.87392e-14
  80 459.976 -5.07498e-10 -2.00128e-13
  81 459.976 -5.07498e-10 1.08298e-13
  82 459.976 -5.07498e-10 5.63849e-14
  83 459.976 -5.06892e-10 6.66769e-14
  84 459.976 -5.06892e-10 4.73634e-14
  85 459.976 -5.07195e-10 -2.89429e-14
  86 459.976 -5.07195e-10 4.71764e-14
  87 459.976 -5.07498e-10 6.65004e-14
  88 459.976 -5.06589e-10 -9.58917e-14
  89 459.976 -5.07498e-10 9.14678e-14
  90 459.976 -5.07498e-10 -1.07741e-13
  91 459.976 -5.07498e-10 -8.40466e-14
  92 459.976 -5.07498e-10 -8.20518e-14
  93 459.976 -5.07498e-10 -2.70557e-13
  94 459.976 -5.06407e-10 -2.53055e-13
  95 459.976 -5.07498e-10 8.58399e-15
  96 459.976 -5.07195e-10 -8.73010e-14
  97 459.976 -5.07134e-10 8.51629e-14
  98 459.976 -5.07498e-10 -7.47895e-14
  99 459.976 -5.06892e-10 -9.14180e-14
  100 459.976 -5.07498e-10 -6.98281e-14
  101 459.976 -5.07498e-10 4.28153e-14
  102 459.976 -5.07134e-10 -1.29144e-13
  103 459.976 -5.07498e-10 9.47649e-14
  104 459.976 -5.07498e-10 -6.91055e-14
  105 459.976 -5.07498e-10 1.95579e-13
  106 459.976 -5.07043e-10 -8.89015e-15
  107 459.976 -5.07498e-10 -3.15196e-14
  108 459.976 -5.07498e-10 -5.87614e-14
  109 459.976 -5.07498e-10 5.44229e-14
  110 459.976 -5.06770e-10 3.73607e-13
  111 459.976 -5.07498e-10 1.41043e-13
  112 459.976 -5.07195e-10 5.98225e-16
  113 459.976 -5.07498e-10 -1.33571e-14
  114 459.976 -5.07498e-10 -4.10627e-14
  115 459.976 -5.06892e-10 -2.50618e-14
  116 459.976 -5.07498e-10 2.03121e-13
  117 459.976 -5.07498e-10 -3.92479e-13
  118 459.976 -5.07498e-10 5.28673e-14
  119 459.976 -5.07498e-10 -1.77822e-13
  120 459.976 -5.07498e-10 3.01742e-14
  121 459.976 -5.07238e-10 3.46132e-14
  122 459.976 -5.07498e-10 -1.99586e-13
  123 459.976 -5.07195e-10 -6.56988e-14
  124 459.976 -5.07498e-10 -8.24787e-14
  125 459.976 -5.07271e-10 1.12197e-13
  126 459.976 -5.07043e-10 9.70750e-14
  127 459.976 -5.07498e-10 1.13609e-13
  128 459.976 -5.07043e-10 1.74062e-13
  129 459.976 -5.07498e-10 4.18899e-14
  130 459.976 -5.07195e-10 -1.35718e-13
  131 459.976 -5.07498e-10 1.38936e-13
  132 459.976 -5.07498e-10 2.66710e-14
  133 459.976 -5.07238e-10 2.32000e-14
  134 459.976 -5.07498e-10 -3.03175e-14
  135 459.976 -5.06978e-10 1.11675e-13
  136 459.976 -5.07498e-10 -4.30126e-14
  137 459.976 -5.07498e-10 1.02568e-13
  138 459.976 -5.07498e-10 -1.01104e-14
  139 459.976 -5.07498e-10 -6.60995e-14
  140 459.976 -5.07238e-10 -2.40747e-13
  141 459.976 -5.06892e-10 -2.88114e-14
  142 459.976 -5.07498e-10 -6.17969e-14
  143 459.976 -5.07498e-10 -1.06406e-13
  144 459.976 -5.07498e-10 -1.01362e-13
  145 459.976 -5.07498e-10 1.01807e-14
  146 459.976 -5.07498e-10 2.36029e-14
  147 459.976 -5.07498e-10 3.79076e-14
  148 459.976 -5.07498e-10 -3.49965e-14
  149 459.976 -5.06589e-10 2.67208e-13
  150 459.976 -5.07195e-10 4.60528e-15
  151 459.976 -5.06892e-10 -6.69471e-14
  152 459.976 -5.07498e-10 -1.73027e-13
  153 459.976 -5.07498e-10 3.34561e-14
  154 459.976 -5.07316e-10 -1.86319e-13
  155 459.976 -5.07195e-10 6.72193e-14
  156 459.976 -5.07238e-10 -8.43512e-14
  157 459.976 -5.07238e-10 -2.60809e-14
  158 459.976 -5.07195e-10 -1.05043e-13
  159 459.976 -5.06892e-10 6.66682e-14
  160 459.976 -5.07498e-10 -5.85390e-14
  161 459.976 -5.07498e-10 5.29568e-14
  162 459.976 -5.07498e-10 4.17409e-15
  163 459.976 -5.07195e-10 -1.40398e-13
  164 459.976 -5.06978e-10 -3.19589e-13
  165 459.976 -5.07195e-10 3.56066e-14
  166 459.976 -5.07498e-10 -2.06844e-14
  167 459.976 -5.07238e-10 -1.30379e-13
  168 459.976 -5.06718e-10 -4.34402e-14
  169 459.976 -5.07238e-10 7.01833e-14
  170 459.976 -5.07498e-10 9.69835e-14
  171 459.976 -5.07498e-10 5.01917e-14
  172 459.976 -5.06892e-10 1.33520e-13
  173 459.976 -5.07498e-10 -2.12504e-14
  174 459.976 -5.07498e-10 1.34309e-13
  175 459.976 -5.07498e-10 -4.79178e-15
  176 459.976 -5.07498e-10 -2.59415e-15
  177 459.976 -5.06740e-10 -1.97500e-13
  178 459.976 -5.07498e-10 -1.18042e-13
  179 459.976 -5.06770e-10 2.17692e-13
  180 459.976 -5.07498e-10 -1.10773e-13
  181 459.976 -5.07195e-10 2.34225e-13
  182 459.976 -5.07498e-10 -1.88731e-14
  183 459.976 -5.07498e-10 -5.25961e-14
  184 459.976 -5.07134e-10 -3.11245e-13
  185 459.976 -5.06892e-10 -1.11521e-13
  186 459.976 -5.06407e-10 -2.36682e-13
  187 459.976 -5.07195e-10 2.16200e-13
  188 459.976 -5.07498e-10 -2.62405e-14
  189 459.976 -5.06770e-10 5.32972e-14
  190 459.976 -5.07498e-10 -3.03990e-14
  191 459.976 -5.07195e-10 -6.47008e-14
  192 459.976 -5.07238e-10 -1.61357e-13
  193 459.976 -5.07316e-10 -7.70933e-14
  194 459.976 -5.07195e-10 8.51046e-14
  195 459.976 -5.07498e-10 6.51643e-14
  196 459.976 -5.07043e-10 -5.30713e-14
  197 459.976 -5.07498e-10 1.05713e-13
  198 459.976 -5.06892e-10 1.57278e-13
  199 459.976 -5.07498e-10 1.06571e-14
  200 459.976 -5.07498e-10 -2.04870e-14
  201 459.976 -5.07195e-10 1.80965e-14
  202 459.976 -5.07498e-10 -1.84265e-13
  203 459.976 -5.07498e-10 -2.82298e-14
  204 459.976 -5.06892e-10 -5.19765e-14
  205 459.976 -5.07498e-10 2.95174e-14
  206 459.976 -5.07498e-10 1.80792e-13
  207 459.976 -5.07498e-10 2.96866e-14
  208 459.976 -5.07498e-10 -6.99506e-14
  209 459.976 -5.06892e-10 1.72162e-14
  210 459.976 -5.07498e-10 5.42806e-14
  211 459.976 -5.07498e-10 5.70450e-14
  212 459.976 -5.07498e-10 4.94612e-13
  213 459.976 -5.07498e-10 -3.19343e-14
  214 459.976 -5.07498e-10 4.32153e-14
  215 459.976 -5.07498e-10 1.10114e-14
  216 459.976 -5.07498e-10 -1.63217e-14
  217 459.976 -5.07498e-10 4.73254e-14
  218 459.976 -5.07498e-10 -9.22710e-15
  219 459.976 -5.07498e-10 -1.15475e-13
  220 459.976 -5.07195e-10 -7.59498e-14
  221 459.976 -5.07346e-10 3.26479e-14
  222 459.976 -5.07498e-10 -3.43236e-13
  223 459.976 -5.07498e-10 1.92969e-14
  224 459.976 -5.07498e-10 -7.66740e-15
  225 459.976 -5.06407e-10 -2.89125e-14
  226 459.976 -5.07498e-10 -1.27927e-13
  227 459.976 -5.07498e-10 1.50736e-13
  228 459.976 -5.06770e-10 1.49309e-13
  229 459.976 -5.07498e-10 5.56149e-14
  230 459.976 -5.06892e-10 1.73816e-13
  231 459.976 -5.07134e-10 -6.31343e-15
  232 459.976 -5.07134e-10 2.90950e-14
  233 459.976 -5.07498e-10 -2.87429e-13
  234 459.976 -5.07498e-10 -2.79469e-14
  235 459.976 -5.07498e-10 1.05775e-13
  236 459.976 -5.07238e-10 6.79923e-14
  237 459.976 -5.06770e-10 1.04837e-13
  238 459.976 -5.06770e-10 -1.04560e-13
  239 459.976 -5.06892e-10 -1.39073e-14
  240 459.976 -5.07498e-10 2.25450e-13
  241 459.976 -5.07498e-10 -3.58382e-13
</Section>

newXOutput 27

<Section columns = "stress_xx | stress_yy | stress_xy">
  1 477.371 -5.06589e-10 -1.63732e-15
  2 477.371 -5.07498e-10 -1.93428e-13
  3 477.371 -5.07498e-10 -2.70362e-13
  4 477.371 -5.07498e-10 5.81002e-15
  5 477.371 -5.06589e-10 -9.99512e-15
  6 477.371 -5.05679e-10 -4.03229e-14
  7 477.371 -5.06134e-10 1.85241e-14
  8 477.371 -5.05679e-10 -8.06457e-14
  9 477.371 -5.05982e-10 9.57240e-14
  10 477.371 -5.07195e-10 -2.79735e-14
  11 477.371 -5.07498e-10 -1.30043e-13
  12 477.371 -5.06285e-10 1.51468e-13
  13 477.371 -5.06816e-10 9.18019e-14
  14 477.371 -5.07498e-10 1.09711e-13
  15 477.371 -5.07043e-10 1.62672e-13
  16 477.371 -5.05376e-10 5.46371e-13
  17 477.371 -5.06892e-10 -2.27747e-13
  18 477.371 -5.06285e-10 -4.25744e-13
  19 477.371 -5.05679e-10 -5.15807e-14
  20 477.371 -5.06285e-10 1.33318e-13
  21 477.371 -5.07195e-10 -3.22583e-13
  22 477.371 -5.05982e-10 5.15807e-14
  23 477.371 -5.06589e-10 -6.42983e-13
  24 477.371 -5.07195e-10 -2.40846e-13
  25 477.371 -5.06589e-10 -1.16057e-13
  26 477.371 -5.06134e-10 -2.41785e-14
  27 477.371 -5.06589e-10 3.69797e-13
  28 477.371 -5.07271e-10 -7.38969e-14
  29 477.371 -5.06589e-10 2.90142e-13
  30 477.371 -5.06285e-10 2.23248e-13
  31 477.371 -5.07498e-10 -5.43852e-13
  32 477.371 -5.07498e-10 -2.93891e-13
  33 477.371 -5.06589e-10 1.75655e-14
  34 477.371 -5.07195e-10 3.64353e-13
  35 477.371 -5.07271e-10 6.91558e-14
  36 477.371 -5.06589e-10 -2.18460e-13
  37 477.371 -5.07498e-10 -1.53681e-13
  38 477.371 -5.07498e-10 3.73278e-14
  39 477.371 -5.07195e-10 1.03683e-13
  40 477.371 -5.06589e-10 -4.94687e-13
  41 477.371 -5.06285e-10 -3.54171e-13
  42 477.371 -5.07498e-10 1.33482e-15
  43 477.371 -5.07195e-10 2.56895e-13
  44 477.371 -5.06589e-10 3.01311e-14
  45 477.371 -5.06285e-10 -8.09746e-15
  46 477.371 -5.07498e-10 1.73521e-13
  47 477.371 -5.07498e-10 2.54379e-13
  48 477.371 -5.07498e-10 -6.67707e-14
  49 477.371 -5.07195e-10 -2.68406e-13
  50 477.371 -5.07498e-10 -3.73720e-14
  51 477.371 -5.06589e-10 -2.90142e-14
  52 477.371 -5.05679e-10 7.77804e-14
  53 477.371 -5.05982e-10 1.27860e-13
  54 477.371 -5.06134e-10 2.88095e-14
  55 477.371 -5.05679e-10 1.54742e-13
  56 477.371 -5.06589e-10 5.96402e-14
  57 477.371 -5.06285e-10 -1.20133e-13
  58 477.371 -5.07346e-10 -4.91756e-14
  59 477.371 -5.07108e-10 1.32628e-13
  60 477.371 -5.07195e-10 3.25123e-13
  61 477.371 -5.06285e-10 -6.79379e-14
  62 477.371 -5.07498e-10 -2.00377e-14
  63 477.371 -5.05861e-10 -1.28545e-14
  64 477.371 -5.06740e-10 -2.72265e-13
  65 477.371 -5.06589e-10 2.83721e-14
  66 477.371 -5.06285e-10 -7.08460e-14
  67 477.371 -5.06740e-10 -1.26090e-13
  68 477.371 -5.07195e-10 -5.04002e-14
  69 477.371 -5.06718e-10 -1.56656e-13
  70 477.371 -5.06361e-10 -1.69198e-15
  71 477.371 -5.06892e-10 -1.94601e-14
  72 477.371 -5.06459e-10 1.38694e-13
  73 477.371 -5.05679e-10 1.71345e-14
  74 477.371 -5.06770e-10 1.52573e-13
  75 477.371 -5.06407e-10 1.47424e-13
  76 477.371 -5.05982e-10 -2.95599e-14
  77 477.371 -5.05982e-10 -2.81353e-14
  78 477.371 -5.06892e-10 9.50022e-14
  79 477.371 -5.07238e-10 -3.51254e-14
  80 477.371 -5.06892e-10 3.23397e-14
  81 477.371 -5.06740e-10 1.44259e-13
  82 477.371 -5.06437e-10 -7.34356e-14
  83 477.371 -5.06285e-10 -1.15229e-13
  84 477.371 -5.06589e-10 2.06055e-14
  85 477.371 -5.06589e-10 5.60486e-14
  86 477.371 -5.06892e-10 1.98169e-13
  87 477.371 -5.07195e-10 1.52000e-14
  88 477.371 -5.06225e-10 8.94603e-15
  89 477.371 -5.07134e-10 8.54870e-14
  90 477.371 -5.06285e-10 6.86548e-14
  91 477.371 -5.06407e-10 5.15477e-14
  92 477.371 -5.06770e-10 -1.49358e-13
  93 477.371 -5.06589e-10 1.13293e-13
  94 477.371 -5.05497e-10 3.78114e-13
  95 477.371 -5.06043e-10 4.19678e-14
  96 477.371 -5.06892e-10 1.28952e-14
  97 477.371 -5.06407e-10 -1.29765e-14
  98 477.371 -5.06043e-10 -8.32807e-14
  99 477.371 -5.06437e-10 -8.27780e-14
  100 477.371 -5.07134e-10 5.90107e-14
  101 477.371 -5.06285e-10 1.09609e-13
  102 477.371 -5.06407e-10 -2.05125e-13
  103 477.371 -5.07346e-10 2.02262e-13
  104 477.371 -5.07134e-10 3.99496e-14
  105 477.371 -5.07134e-10 -1.88379e-13
  106 477.371 -5.07498e-10 1.07629e-13
  107 477.371 -5.06134e-10 -1.10751e-13
  108 477.371 -5.05679e-10 -6.06369e-15
  109 477.371 -5.06043e-10 5.09461e-14
  110 477.371 -5.06952e-10 -7.32208e-14
  111 477.371 -5.06020e-10 6.83423e-14
  112 477.371 -5.06285e-10 1.26247e-13
  113 477.371 -5.07108e-10 5.57351e-14
  114 477.371 -5.06848e-10 -1.65603e-13
  115 477.371 -5.06892e-10 6.12310e-14
  116 477.371 -5.06407e-10 7.67162e-14
  117 477.371 -5.06285e-10 -8.49102e-14
  118 477.371 -5.07195e-10 2.57864e-14
  119 477.371 -5.06848e-10 3.56506e-14
  120 477.371 -5.07650e-10 -8.51323e-14
  121 477.371 -5.06069e-10 -2.35897e-14
  122 477.371 -5.06199e-10 2.10673e-14
  123 477.371 -5.06589e-10 1.21649e-13
  124 477.371 -5.06978e-10 1.91602e-13
  125 477.371 -5.07157e-10 1.55634e-13
  126 477.371 -5.06475e-10 3.07681e-14
  127 477.371 -5.06978e-10 2.75185e-14
  128 477.371 -5.05906e-10 9.48198e-14
  129 477.371 -5.06361e-10 5.24304e-14
  130 477.371 -5.06285e-10 -2.18774e-13
  131 477.371 -5.06285e-10 -6.41589e-14
  132 477.371 -5.06702e-10 -2.91542e-13
  133 477.371 -5.06459e-10 -1.74041e-13
  134 477.371 -5.06718e-10 3.45189e-14
  135 477.371 -5.06459e-10 4.42121e-14
  136 477.371 -5.07238e-10 6.27053e-14
  137 477.371 -5.07108e-10 1.47836e-13
  138 477.371 -5.07346e-10 4.72052e-14
  139 477.371 -5.06199e-10 -2.34946e-14
  140 477.371 -5.06589e-10 -4.00672e-14
  141 477.371 -5.05982e-10 -5.93326e-14
  142 477.371 -5.06134e-10 2.52154e-13
  143 477.371 -5.06978e-10 6.73162e-14
  144 477.371 -5.05861e-10 2.26080e-14
  145 477.371 -5.06589e-10 3.74488e-13
  146 477.371 -5.06589e-10 1.59309e-13
  147 477.371 -5.07346e-10 -4.99462e-14
  148 477.371 -5.06134e-10 1.70232e-14
  149 477.371 -5.07043e-10 1.06722e-13
  150 477.371 -5.07498e-10 5.39442e-14
  151 477.371 -5.06589e-10 2.36073e-14
  152 477.371 -5.06892e-10 -2.84094e-13
  153 477.371 -5.07195e-10 -7.75550e-14
  154 477.371 -5.06770e-10 2.64616e-13
  155 477.371 -5.06589e-10 5.39496e-14
  156 477.371 -5.06589e-10 -2.64658e-13
  157 477.371 -5.06459e-10 -4.58712e-14
  158 477.371 -5.06437e-10 1.24218e-13
  159 477.371 -5.06134e-10 3.95169e-13
  160 477.371 -5.05679e-10 6.42918e-14
  161 477.371 -5.06407e-10 2.09024e-13
  162 477.371 -5.06892e-10 2.78116e-14
  163 477.371 -5.06285e-10 1.27492e-13
  164 477.371 -5.05679e-10 -7.64355e-14
  165 477.371 -5.06892e-10 -1.84194e-14
  166 477.371 -5.06459e-10 -3.47012e-14
  167 477.371 -5.06718e-10 -9.30586e-14
  168 477.371 -5.06459e-10 -8.26394e-14
  169 477.371 -5.06329e-10 7.98529e-14
  170 477.371 -5.07134e-10 -1.21174e-13
  171 477.371 -5.06199e-10 -2.27344e-14
  172 477.371 -5.07043e-10 -4.88654e-15
  173 477.371 -5.06892e-10 -4.21956e-14
  174 477.371 -5.07195e-10 -3.34114e-13
  175 477.371 -5.07346e-10 2.87705e-15
  176 477.371 -5.07043e-10 3.09973e-14
  177 477.371 -5.06892e-10 -2.02887e-13
  178 477.371 -5.06285e-10 -5.06112e-15
  179 477.371 -5.06407e-10 -6.87676e-15
  180 477.371 -5.06459e-10 -2.83342e-14
  181 477.371 -5.07801e-10 -2.84430e-14
  182 477.371 -5.07498e-10 -1.89829e-13
  183 477.371 -5.06437e-10 -7.45757e-14
  184 477.371 -5.06589e-10 1.40822e-13
  185 477.371 -5.06285e-10 -7.76092e-14
  186 477.371 -5.07134e-10 -5.05577e-14
  187 477.371 -5.06892e-10 -8.16099e-14
  188 477.371 -5.07498e-10 -3.54668e-14
  189 477.371 -5.05679e-10 -1.63539e-14
  190 477.371 -5.06978e-10 8.72764e-14
  191 477.371 -5.07195e-10 3.82762e-14
  192 477.371 -5.06459e-10 1.05134e-13
  193 477.371 -5.06952e-10 -3.35370e-13
  194 477.371 -5.07195e-10 -2.92362e-14
  195 477.371 -5.06285e-10 -6.26527e-14
  196 477.371 -5.06134e-10 -2.59253e-14
  197 477.371 -5.06437e-10 9.16735e-14
  198 477.371 -5.05527e-10 1.50579e-13
  199 477.371 -5.06589e-10 -1.27280e-13
  200 477.371 -5.06437e-10 1.26921e-13
  201 477.371 -5.06134e-10 3.39594e-14
  202 477.371 -5.06407e-10 -3.41905e-15
  203 477.371 -5.06892e-10 -4.30517e-14
  204 477.371 -5.06892e-10 -2.13244e-14
  205 477.371 -5.07346e-10 -6.77934e-14
  206 477.371 -5.06770e-10 7.99908e-14
  207 477.371 -5.06770e-10 9.18588e-14
  208 477.371 -5.07316e-10 4.12598e-13
  209 477.371 -5.06589e-10 1.79783e-14
  210 477.371 -5.07195e-10 -1.23905e-13
  211 477.371 -5.06589e-10 -2.10970e-14
  212 477.371 -5.05861e-10 -1.79058e-13
  213 477.371 -5.07316e-10 -2.46500e-14
  214 477.371 -5.06437e-10 6.30097e-14
  215 477.371 -5.07316e-10 3.88168e-13
  216 477.371 -5.07316e-10 -3.87522e-14
  217 477.371 -5.05982e-10 -2.28496e-13
  218 477.371 -5.06285e-10 4.33127e-14
  219 477.371 -5.06770e-10 2.24120e-14
  220 477.371 -5.06892e-10 -2.69073e-14
  221 477.371 -5.07498e-10 2.33459e-13
  222 477.371 -5.06892e-10 -3.95042e-14
  223 477.371 -5.06770e-10 -5.17648e-14
  224 477.371 -5.06589e-10 1.67780e-13
  225 477.371 -5.05497e-10 1.69090e-13
  226 477.371 -5.06770e-10 -2.29449e-14
  227 477.371 -5.07195e-10 -2.49844e-13
  228 477.371 -5.06225e-10 3.62609e-13
  229 477.371 -5.05679e-10 7.32350e-14
  230 477.371 -5.06589e-10 1.56976e-13
  231 477.371 -5.07316e-10 2.47710e-13
  232 477.371 -5.07134e-10 -1.11922e-13
  233 477.371 -5.06770e-10 -1.33168e-13
  234 477.371 -5.06589e-10 3.29837e-15
  235 477.371 -5.06589e-10 -5.40608e-13
  236 477.371 -5.06199e-10 2.24133e-14
  237 477.371 -5.06225e-10 2.31991e-13
  238 477.371 -5.06407e-10 -9.49016e-14
  239 477.371 -5.06285e-10 6.35369e-14
  240 477.371 -5.06043e-10 1.02425e-13
  241 477.371 -5.06589e-10 2.61433e-13
</Section>

newXOutput 28

<Section columns = "stress_xx | stress_yy | stress_xy">
  1 494.692 -5.04770e-10 2.01371e-14
  2 494.692 -5.04770e-10 1.67880e-13
  3 494.692 -5.04770e-10 1.84348e-13
  4 494.692 -5.04770e-10 1.53932e-13
  5 494.692 -5.04770e-10 8.05482e-14
  6 494.692 -5.04770e-10 2.01371e-13
  7 494.692 -5.04770e-10 -1.27923e-13
  8 494.692 -5.04770e-10 -2.09142e-13
  9 494.692 -5.04770e-10 6.88195e-14
  10 494.692 -5.04770e-10 -1.37639e-13
  11 494.692 -5.04770e-10 -1.31986e-13
  12 494.692 -5.04770e-10 -1.42018e-13
  13 494.692 -5.04770e-10 -2.17268e-13
  14 494.692 -5.04770e-10 -4.03872e-13
  15 494.692 -5.04770e-10 -2.71850e-13
  16 494.692 -5.04770e-10 -1.37639e-13
  17 494.692 -5.04770e-10 2.57188e-14
  18 494.692 -5.04770e-10 1.02875e-13
  19 494.692 -5.05679e-10 -4.52262e-15
  20 494.692 -5.04770e-10 9.45383e-14
  21 494.692 -5.04770e-10 3.26716e-13
  22 494.692 -5.04770e-10 1.84554e-13
  23 494.692 -5.04770e-10 5.36988e-14
  24 494.692 -5.04770e-10 -1.28594e-13
  25 494.692 -5.04770e-10 -3.85781e-14
  26 494.692 -5.05452e-10 -2.34636e-13
  27 494.692 -5.05679e-10 4.76234e-14
  28 494.692 -5.04770e-10 5.16146e-14
  29 494.692 -5.04770e-10 -3.85781e-14
  30 494.692 -5.04770e-10 -5.56605e-14
  31 494.692 -5.04770e-10 3.27093e-13
  32 494.692 -5.04770e-10 -7.76697e-14
  33 494.692 -5.04770e-10 1.71872e-13
  34 494.692 -5.04770e-10 -1.04371e-13
  35 494.692 -5.04770e-10 -4.62157e-13
  36 494.692 -5.04770e-10 2.86917e-13
  37 494.692 -5.04770e-10 2.12024e-13
  38 494.692 -5.04770e-10 -1.13230e-13
  39 494.692 -5.04770e-10 -2.17318e-13
  40 494.692 -5.04770e-10 -3.28056e-13
  41 494.692 -5.04770e-10 -1.86758e-13
  42 494.692 -5.04770e-10 2.26729e-15
  43 494.692 -5.04770e-10 -8.18435e-14
  44 494.692 -5.04770e-10 -3.91911e-14
  45 494.692 -5.04770e-10 -3.39397e-14
  46 494.692 -5.04770e-10 9.98704e-14
  47 494.692 -5.04770e-10 2.94988e-14
  48 494.692 -5.04770e-10 -1.32113e-13
  49 494.692 -5.04770e-10 2.10197e-13
  50 494.692 -5.04770e-10 -8.51388e-15
  51 494.692 -5.04770e-10 8.68008e-14
  52 494.692 -5.04770e-10 -3.70360e-15
  53 494.692 -5.04770e-10 -1.80386e-13
  54 494.692 -5.04770e-10 6.32463e-14
  55 494.692 -5.04770e-10 0.00000
  56 494.692 -5.04770e-10 -2.45541e-15
  57 494.692 -5.04770e-10 5.38590e-14
  58 494.692 -5.04770e-10 -4.30932e-13
  59 494.692 -5.04770e-10 -3.76090e-14
  60 494.692 -5.04770e-10 5.53027e-14
  61 494.692 -5.05376e-10 1.33753e-13
  62 494.692 -5.04770e-10 2.54397e-15
  63 494.692 -5.04770e-10 -1.13446e-13
  64 494.692 -5.04770e-10 6.23898e-14
  65 494.692 -5.04770e-10 1.90332e-14
  66 494.692 -5.04466e-10 3.37407e-15
  67 494.692 -5.04770e-10 -2.43770e-14
  68 494.692 -5.04921e-10 2.26779e-13
  69 494.692 -5.05159e-10 -1.95465e-13
  70 494.692 -5.04770e-10 -1.36089e-14
  71 494.692 -5.04770e-10 3.35141e-14
  72 494.692 -5.05289e-10 1.44848e-13
  73 494.692 -5.04770e-10 3.11287e-14
  74 494.692 -5.04770e-10 -1.71918e-13
  75 494.692 -5.04770e-10 1.70006e-14
  76 494.692 -5.04770e-10 2.61887e-13
  77 494.692 -5.04770e-10 -2.11192e-13
  78 494.692 -5.04770e-10 3.25776e-14
  79 494.692 -5.04770e-10 1.37779e-15
  80 494.692 -5.04770e-10 6.70350e-14
  81 494.692 -5.04770e-10 5.34331e-14
  82 494.692 -5.04770e-10 1.34829e-13
  83 494.692 -5.05224e-10 -5.62768e-14
  84 494.692 -5.04770e-10 3.18978e-13
  85 494.692 -5.04770e-10 4.05956e-13
  86 494.692 -5.04770e-10 1.68585e-13
  87 494.692 -5.04770e-10 8.85288e-14
  88 494.692 -5.04770e-10 -3.58180e-13
  89 494.692 -5.04770e-10 -6.42690e-14
  90 494.692 -5.04921e-10 3.11842e-13
  91 494.692 -5.04770e-10 1.15694e-14
  92 494.692 -5.04770e-10 6.58212e-15
  93 494.692 -5.04770e-10 -2.15106e-13
  94 494.692 -5.05315e-10 6.01884e-14
  95 494.692 -5.04770e-10 -1.61170e-13
  96 494.692 -5.05224e-10 -4.55813e-13
  97 494.692 -5.04770e-10 2.11461e-13
  98 494.692 -5.04770e-10 -8.93815e-14
  99 494.692 -5.04770e-10 2.18010e-13
  100 494.692 -5.04770e-10 -1.57365e-13
  101 494.692 -5.05224e-10 9.76476e-14
  102 494.692 -5.04770e-10 1.74832e-13
  103 494.692 -5.04770e-10 -1.44757e-13
  104 494.692 -5.04770e-10 -2.66062e-13
  105 494.692 -5.04770e-10 1.50073e-14
  106 494.692 -5.04770e-10 5.93248e-14
  107 494.692 -5.04770e-10 -1.69638e-13
  108 494.692 -5.04770e-10 5.62082e-15
  109 494.692 -5.04406e-10 1.78457e-13
  110 494.692 -5.04770e-10 1.16159e-13
  111 494.692 -5.04770e-10 1.14988e-14
  112 494.692 -5.04770e-10 5.88753e-14
  113 494.692 -5.04770e-10 -6.42865e-15
  114 494.692 -5.04770e-10 2.11754e-13
  115 494.692 -5.04770e-10 1.32477e-13
  116 494.692 -5.04770e-10 3.73116e-15
  117 494.692 -5.04770e-10 9.47154e-14
  118 494.692 -5.04770e-10 -1.49541e-13
  119 494.692 -5.04770e-10 1.04227e-13
  120 494.692 -5.04770e-10 -1.76207e-13
  121 494.692 -5.04770e-10 3.17053e-14
  122 494.692 -5.04770e-10 3.75492e-14
  123 494.692 -5.04770e-10 7.38767e-14
  124 494.692 -5.05159e-10 -2.83612e-13
  125 494.692 -5.04770e-10 6.79364e-14
  126 494.692 -5.04770e-10 6.51977e-14
  127 494.692 -5.04899e-10 2.69813e-13
  128 494.692 -5.05111e-10 2.10167e-13
  129 494.692 -5.04770e-10 1.17367e-14
  130 494.692 -5.04770e-10 1.23525e-13
  131 494.692 -5.05376e-10 -7.49410e-14
  132 494.692 -5.04770e-10 3.36439e-14
  133 494.692 -5.05159e-10 1.31602e-13
  134 494.692 -5.04770e-10 2.62055e-13
  135 494.692 -5.04770e-10 2.13604e-13
  136 494.692 -5.04770e-10 3.05792e-14
  137 494.692 -5.05159e-10 -2.50265e-13
  138 494.692 -5.04770e-10 -1.24248e-13
  139 494.692 -5.04770e-10 -4.04550e-14
  140 494.692 -5.04770e-10 6.30456e-14
  141 494.692 -5.05831e-10 -5.15430e-14
  142 494.692 -5.04770e-10 3.11949e-14
  143 494.692 -5.04770e-10 -1.49830e-13
  144 494.692 -5.04770e-10 -5.09142e-15
  145 494.692 -5.04770e-10 1.89300e-13
  146 494.692 -5.04770e-10 -1.56253e-14
  147 494.692 -5.04770e-10 -2.29449e-13
  148 494.692 -5.04770e-10 -1.69876e-13
  149 494.692 -5.04770e-10 2.35392e-13
  150 494.692 -5.04770e-10 9.55303e-14
  151 494.692 -5.04770e-10 1.35837e-13
  152 494.692 -5.04770e-10 1.30167e-13
  153 494.692 -5.04770e-10 -1.04033e-13
  154 494.692 -5.04770e-10 1.21341e-13
  155 494.692 -5.04770e-10 1.08048e-13
  156 494.692 -5.04770e-10 -4.89350e-14
  157 494.692 -5.04770e-10 -5.54980e-14
  158 494.692 -5.05224e-10 -3.79311e-13
  159 494.692 -5.04770e-10 -2.26551e-13
  160 494.692 -5.04770e-10 -2.02770e-13
  161 494.692 -5.05315e-10 -9.25875e-14
  162 494.692 -5.04770e-10 6.29551e-14
  163 494.692 -5.05224e-10 -3.71546e-13
  164 494.692 -5.04770e-10 -2.10312e-13
  165 494.692 -5.04770e-10 2.12875e-13
  166 494.692 -5.04770e-10 5.71141e-14
  167 494.692 -5.04770e-10 -2.38545e-14
  168 494.692 -5.04770e-10 -1.60816e-13
  169 494.692 -5.04770e-10 9.43641e-14
  170 494.692 -5.04770e-10 6.59016e-14
  171 494.692 -5.04899e-10 9.32972e-14
  172 494.692 -5.04770e-10 1.52978e-14
  173 494.692 -5.04770e-10 -8.70827e-15
  174 494.692 -5.04770e-10 1.95789e-13
  175 494.692 -5.04770e-10 7.08038e-14
  176 494.692 -5.04770e-10 -3.53548e-14
  177 494.692 -5.04770e-10 -9.40580e-16
  178 494.692 -5.04770e-10 -2.57794e-15
  179 494.692 -5.04770e-10 -8.69071e-14
  180 494.692 -5.04770e-10 -1.04803e-13
  181 494.692 -5.04770e-10 2.89166e-14
  182 494.692 -5.04770e-10 7.10674e-14
  183 494.692 -5.04770e-10 -2.45744e-14
  184 494.692 -5.04770e-10 1.71101e-13
  185 494.692 -5.04770e-10 1.03918e-13
  186 494.692 -5.04770e-10 -1.06748e-13
  187 494.692 -5.04770e-10 1.30057e-13
  188 494.692 -5.04770e-10 -1.18643e-13
  189 494.692 -5.05861e-10 1.28036e-14
  190 494.692 -5.04770e-10 -5.12073e-14
  191 494.692 -5.04770e-10 -3.00812e-14
  192 494.692 -5.04770e-10 1.58341e-13
  193 494.692 -5.04770e-10 1.86471e-14
  194 494.692 -5.04770e-10 2.05750e-13
  195 494.692 -5.04770e-10 8.50619e-14
  196 494.692 -5.04770e-10 -2.67139e-13
  197 494.692 -5.04163e-10 4.18288e-14
  198 494.692 -5.05679e-10 1.70278e-14
  199 494.692 -5.04770e-10 9.32323e-14
  200 494.692 -5.04770e-10 -4.92845e-13
  201 494.692 -5.04770e-10 8.62628e-14
  202 494.692 -5.04770e-10 -6.12592e-14
  203 494.692 -5.04770e-10 2.65739e-13
  204 494.692 -5.04770e-10 2.97884e-14
  205 494.692 -5.04770e-10 -8.72248e-14
  206 494.692 -5.04770e-10 5.64516e-13
  207 494.692 -5.04770e-10 6.07903e-14
  208 494.692 -5.04770e-10 -1.66196e-13
  209 494.692 -5.04770e-10 -1.92891e-14
  210 494.692 -5.04770e-10 7.04759e-14
  211 494.692 -5.04770e-10 2.18055e-15
  212 494.692 -5.04770e-10 2.86242e-13
  213 494.692 -5.04770e-10 3.88765e-14
  214 494.692 -5.04770e-10 -1.01653e-13
  215 494.692 -5.04770e-10 -4.66138e-13
  216 494.692 -5.04770e-10 -8.85816e-14
  217 494.692 -5.04770e-10 -7.92404e-14
  218 494.692 -5.04770e-10 -1.02352e-13
  219 494.692 -5.04951e-10 2.68098e-13
  220 494.692 -5.04770e-10 -8.71890e-14
  221 494.692 -5.04770e-10 1.14631e-13
  222 494.692 -5.04770e-10 -8.64126e-14
  223 494.692 -5.04951e-10 2.61567e-14
  224 494.692 -5.04770e-10 7.57587e-14
  225 494.692 -5.04770e-10 -1.25624e-13
  226 494.692 -5.04770e-10 2.43770e-14
  227 494.692 -5.04770e-10 -8.69779e-14
  228 494.692 -5.04770e-10 -1.31835e-14
  229 494.692 -5.04163e-10 2.82664e-16
  230 494.692 -5.04770e-10 1.35201e-13
  231 494.692 -5.04770e-10 3.64527e-15
  232 494.692 -5.04770e-10 5.15191e-14
  233 494.692 -5.04770e-10 -2.95057e-14
  234 494.692 -5.04770e-10 -1.18410e-13
  235 494.692 -5.04770e-10 -1.66743e-13
  236 494.692 -5.04770e-10 -4.94946e-14
  237 494.692 -5.04951e-10 2.03902e-13
  238 494.692 -5.04951e-10 1.97958e-13
  239 494.692 -5.04770e-10 4.45104e-15
  240 494.692 -5.04770e-10 -1.83226e-13
  241 494.692 -5.04770e-10 2.98871e-14
</Section>

newXOutput 29

<Section columns = "stress_xx | stress_yy | stress_xy">
  1 511.940 -5.01586e-10 5.50752e-14
  2 511.940 -5.02041e-10 7.69423e-14
  3 511.940 -5.00677e-10 -1.60059e-13
  4 511.940 -5.01132e-10 5.15840e-14
  5 511.940 -5.01435e-10 1.22389e-14
  6 511.940 -5.01132e-10 4.19798e-14
  7 511.940 -5.01132e-10 -1.12813e-13
  8 511.940 -5.02344e-10 -1.92397e-13
  9 511.940 -5.02647e-10 -6.76272e-14
  10 511.940 -5.01435e-10 -1.35254e-13
  11 511.940 -5.01435e-10 3.21804e-13
  12 511.940 -5.01738e-10 -4.77862e-14
  13 511.940 -5.01359e-10 1.14536e-13
  14 511.940 -5.01435e-10 3.96821e-14
  15 511.940 -5.01586e-10 2.77631e-13
  16 511.940 -5.02647e-10 1.67919e-13
  17 511.940 -5.02344e-10 7.46197e-13
  18 511.940 -5.03557e-10 7.71845e-13
  19 511.940 -5.03557e-10 1.63241e-13
  20 511.940 -5.01435e-10 -3.68420e-13
  21 511.940 -5.02344e-10 -1.11946e-13
  22 511.940 -5.02951e-10 4.19384e-14
  23 511.940 -5.02344e-10 1.39518e-14
  24 511.940 -5.02647e-10 1.79532e-13
  25 511.940 -5.01586e-10 7.69423e-14
  26 511.940 -5.01132e-10 -1.93166e-13
  27 511.940 -5.01132e-10 -4.26127e-13
  28 511.940 -5.01132e-10 2.02882e-13
  29 511.940 -5.01132e-10 3.36622e-13
  30 511.940 -5.01132e-10 -8.79017e-14
  31 511.940 -5.01132e-10 -6.45317e-14
  32 511.940 -5.01132e-10 4.65932e-13
  33 511.940 -5.02041e-10 5.03641e-13
  34 511.940 -5.04770e-10 2.93331e-13
  35 511.940 -5.01814e-10 -1.02186e-13
  36 511.940 -5.00828e-10 -8.21459e-14
  37 511.940 -5.01738e-10 -3.74194e-13
  38 511.940 -5.02344e-10 -3.92415e-13
  39 511.940 -5.02041e-10 -2.29076e-13
  40 511.940 -5.01132e-10 3.01632e-13
  41 511.940 -5.00525e-10 3.15318e-13
  42 511.940 -5.00828e-10 -1.21634e-13
  43 511.940 -5.01132e-10 1.27679e-13
  44 511.940 -5.00828e-10 -1.08468e-14
  45 511.940 -5.01132e-10 -1.20121e-13
  46 511.940 -5.01435e-10 1.30278e-13
  47 511.940 -5.01132e-10 6.62689e-14
  48 511.940 -5.01132e-10 8.84905e-15
  49 511.940 -5.01132e-10 4.40481e-14
  50 511.940 -5.01132e-10 -2.30263e-14
  51 511.940 -5.01132e-10 -1.53885e-13
  52 511.940 -5.01132e-10 -1.28994e-14
  53 511.940 -5.01435e-10 1.32915e-13
  54 511.940 -5.03405e-10 5.20362e-14
  55 511.940 -5.02951e-10 -1.15413e-13
  56 511.940 -5.01435e-10 3.79071e-15
  57 511.940 -5.02193e-10 -1.66076e-13
  58 511.940 -5.01435e-10 5.62551e-14
  59 511.940 -5.02301e-10 1.40780e-13
  60 511.940 -5.01435e-10 -2.49282e-13
  61 511.940 -5.01283e-10 -2.55910e-13
  62 511.940 -5.03254e-10 8.27470e-14
  63 511.940 -5.02587e-10 -5.10526e-14
  64 511.940 -5.01435e-10 2.82686e-14
  65 511.940 -5.01132e-10 -2.21649e-14
  66 511.940 -5.01283e-10 5.74926e-14
  67 511.940 -5.01132e-10 -2.12954e-13
  68 511.940 -5.01435e-10 -1.48859e-13
  69 511.940 -5.01521e-10 6.84198e-14
  70 511.940 -5.02041e-10 -7.95040e-14
  71 511.940 -5.01586e-10 1.12923e-13
  72 511.940 -5.01781e-10 -1.59074e-14
  73 511.940 -5.01391e-10 -8.90840e-14
  74 511.940 -5.01313e-10 2.72929e-13
  75 511.940 -5.00950e-10 1.55977e-13
  76 511.940 -5.01132e-10 5.71012e-14
  77 511.940 -5.01283e-10 5.13938e-14
  78 511.940 -5.01435e-10 -1.04630e-13
  79 511.940 -5.01911e-10 -7.92561e-14
  80 511.940 -5.02041e-10 7.59448e-14
  81 511.940 -5.01283e-10 -2.87227e-14
  82 511.940 -5.01132e-10 6.01137e-14
  83 511.940 -5.02799e-10 1.31316e-14
  84 511.940 -5.01283e-10 -8.40851e-14
  85 511.940 -5.01283e-10 5.27672e-14
  86 511.940 -5.02193e-10 4.25335e-14
  87 511.940 -5.01132e-10 2.13557e-13
  88 511.940 -5.01495e-10 -4.12054e-13
  89 511.940 -5.01495e-10 -2.01980e-13
  90 511.940 -5.01586e-10 -1.48809e-13
  91 511.940 -5.02223e-10 -1.50921e-13
  92 511.940 -5.01132e-10 1.41385e-13
  93 511.940 -5.01677e-10 -3.73558e-13
  94 511.940 -5.01132e-10 -4.48759e-13
  95 511.940 -5.01495e-10 2.73587e-13
  96 511.940 -5.01738e-10 -1.79401e-13
  97 511.940 -5.01495e-10 -3.84711e-14
  98 511.940 -5.01132e-10 5.59629e-14
  99 511.940 -5.01586e-10 -1.02026e-13
  100 511.940 -5.01313e-10 1.65100e-13
  101 511.940 -5.01889e-10 -4.47127e-13
  102 511.940 -5.00950e-10 -8.64033e-14
  103 511.940 -5.01435e-10 -2.07409e-13
  104 511.940 -5.02951e-10 7.68887e-14
  105 511.940 -5.01132e-10 -2.47000e-13
  106 511.940 -5.02647e-10 1.43637e-13
  107 511.940 -5.01435e-10 8.89645e-14
  108 511.940 -5.01586e-10 -1.14186e-13
  109 511.940 -5.02041e-10 1.83833e-14
  110 511.940 -5.01677e-10 2.56403e-13
  111 511.940 -5.01473e-10 -4.31632e-13
  112 511.940 -5.02344e-10 4.30314e-14
  113 511.940 -5.01521e-10 -1.86520e-13
  114 511.940 -5.01132e-10 -5.43981e-14
  115 511.940 -5.01283e-10 3.01194e-13
  116 511.940 -5.01132e-10 -1.31178e-13
  117 511.940 -5.01283e-10 1.04908e-13
  118 511.940 -5.01738e-10 -1.93179e-15
  119 511.940 -5.01521e-10 -1.58646e-13
  120 511.940 -5.01283e-10 3.16811e-13
  121 511.940 -5.01651e-10 -3.66026e-14
  122 511.940 -5.01911e-10 -1.02309e-13
  123 511.940 -5.01435e-10 -2.55628e-13
  124 511.940 -5.01651e-10 -4.43740e-15
  125 511.940 -5.02041e-10 -6.95026e-14
  126 511.940 -5.01700e-10 -4.59722e-14
  127 511.940 -5.02041e-10 -3.41457e-14
  128 511.940 -5.01814e-10 2.97305e-14
  129 511.940 -5.01359e-10 2.87643e-14
  130 511.940 -5.02799e-10 1.78681e-13
  131 511.940 -5.02496e-10 6.57647e-14
  132 511.940 -5.01245e-10 -5.33073e-14
  133 511.940 -5.01781e-10 1.42409e-13
  134 511.940 -5.01781e-10 -1.26367e-13
  135 511.940 -5.02171e-10 1.25662e-13
  136 511.940 -5.01132e-10 1.28347e-13
  137 511.940 -5.01651e-10 7.64868e-14
  138 511.940 -5.02647e-10 -1.15016e-13
  139 511.940 -5.01391e-10 -1.09618e-13
  140 511.940 -5.00872e-10 -2.08655e-13
  141 511.940 -5.01435e-10 -1.67554e-14
  142 511.940 -5.01435e-10 2.91354e-14
  143 511.940 -5.02691e-10 1.11504e-13
  144 511.940 -5.01495e-10 -5.38316e-14
  145 511.940 -5.03132e-10 -6.53314e-14
  146 511.940 -5.01132e-10 9.43950e-14
  147 511.940 -5.01283e-10 -2.02301e-14
  148 511.940 -5.01283e-10 1.89035e-13
  149 511.940 -5.01435e-10 -4.11570e-13
  150 511.940 -5.01586e-10 1.22427e-13
  151 511.940 -5.01283e-10 -1.55921e-13
  152 511.940 -5.01283e-10 1.03587e-13
  153 511.940 -5.02344e-10 -4.45149e-14
  154 511.940 -5.01859e-10 1.93004e-13
  155 511.940 -5.01889e-10 2.90374e-13
  156 511.940 -5.01781e-10 -1.07500e-14
  157 511.940 -5.01521e-10 -1.47825e-13
  158 511.940 -5.01889e-10 -2.18774e-14
  159 511.940 -5.01435e-10 -2.40183e-13
  160 511.940 -5.01132e-10 2.09780e-13
  161 511.940 -5.01313e-10 -1.99736e-13
  162 511.940 -5.02799e-10 1.63596e-13
  163 511.940 -5.02344e-10 1.10901e-14
  164 511.940 -5.01651e-10 -4.14603e-13
  165 511.940 -5.01435e-10 -6.92955e-14
  166 511.940 -5.01391e-10 -1.09801e-13
  167 511.940 -5.02301e-10 5.15238e-14
  168 511.940 -5.01262e-10 2.94548e-13
  169 511.940 -5.02301e-10 -1.70618e-13
  170 511.940 -5.01495e-10 4.05515e-14
  171 511.940 -5.01521e-10 -2.94172e-13
  172 511.940 -5.01889e-10 -1.53018e-13
  173 511.940 -5.00980e-10 -1.05716e-13
  174 511.940 -5.02647e-10 1.26754e-13
  175 511.940 -5.01283e-10 9.07612e-14
  176 511.940 -5.01435e-10 -1.95228e-14
  177 511.940 -5.01283e-10 -1.76520e-13
  178 511.940 -5.02496e-10 -2.17489e-13
  179 511.940 -5.01132e-10 -2.13195e-13
  180 511.940 -5.01132e-10 8.96706e-14
  181 511.940 -5.00828e-10 -7.91507e-14
  182 511.940 -5.01859e-10 -1.56946e-13
  183 511.940 -5.02647e-10 -4.25750e-14
  184 511.940 -5.01859e-10 2.82656e-13
  185 511.940 -5.01586e-10 1.06694e-13
  186 511.940 -5.01132e-10 -1.08747e-13
  187 511.940 -5.01435e-10 1.80525e-13
  188 511.940 -5.02587e-10 8.36897e-14
  189 511.940 -5.01677e-10 -6.95989e-14
  190 511.940 -5.02561e-10 4.58759e-14
  191 511.940 -5.02799e-10 1.24483e-13
  192 511.940 -5.02431e-10 -1.81883e-13
  193 511.940 -5.00950e-10 -1.49532e-14
  194 511.940 -5.01738e-10 -6.03278e-14
  195 511.940 -5.01283e-10 9.50555e-15
  196 511.940 -5.01586e-10 -2.75448e-13
  197 511.940 -5.01283e-10 -2.73914e-14
  198 511.940 -5.03254e-10 1.71386e-13
  199 511.940 -5.02496e-10 -1.76470e-15
  200 511.940 -5.01586e-10 -1.72405e-13
  201 511.940 -5.01283e-10 -2.92165e-13
  202 511.940 -5.01313e-10 -4.49122e-13
  203 511.940 -5.01435e-10 -2.92042e-13
  204 511.940 -5.02193e-10 1.53651e-13
  205 511.940 -5.01132e-10 2.86289e-14
  206 511.940 -5.01677e-10 2.80695e-15
  207 511.940 -5.01132e-10 8.94559e-14
  208 511.940 -5.02587e-10 -1.18042e-13
  209 511.940 -5.01435e-10 -3.29468e-14
  210 511.940 -5.00980e-10 1.61027e-13
  211 511.940 -5.01262e-10 -3.89724e-14
  212 511.940 -5.02223e-10 1.36717e-13
  213 511.940 -5.01132e-10 1.50569e-13
  214 511.940 -5.01283e-10 2.81755e-13
  215 511.940 -5.01677e-10 -3.17672e-13
  216 511.940 -5.02223e-10 -1.86154e-13
  217 511.940 -5.00980e-10 -7.46446e-14
  218 511.940 -5.01132e-10 8.95779e-14
  219 511.940 -5.01495e-10 -1.42318e-13
  220 511.940 -5.03557e-10 2.47910e-14
  221 511.940 -5.02041e-10 3.62074e-13
  222 511.940 -5.01889e-10 2.85369e-13
  223 511.940 -5.01313e-10 3.93359e-14
  224 511.940 -5.01677e-10 1.45489e-13
  225 511.940 -5.01313e-10 -2.32437e-13
  226 511.940 -5.01313e-10 5.66541e-14
  227 511.940 -5.02647e-10 -4.54885e-14
  228 511.940 -5.01132e-10 1.55626e-13
  229 511.940 -5.01132e-10 4.19119e-14
  230 511.940 -5.01283e-10 -4.26753e-13
  231 511.940 -5.02041e-10 1.53885e-14
  232 511.940 -5.01495e-10 -2.19906e-13
  233 511.940 -5.01859e-10 5.77316e-14
  234 511.940 -5.01283e-10 1.61607e-13
  235 511.940 -5.01132e-10 2.78253e-13
  236 511.940 -5.01391e-10 9.79322e-14
  237 511.940 -5.02769e-10 1.72313e-13
  238 511.940 -5.01313e-10 -5.38596e-14
  239 511.940 -5.01283e-10 -1.97901e-13
  240 511.940 -5.01859e-10 -1.28722e-13
  241 511.940 -5.01435e-10 -8.82937e-14
</Section>

newXOutput 30

<Section columns = "stress_xx | stress_yy | stress_xy">
  1 529.115 -4.98403e-10 -2.68552e-13
  2 529.115 -4.97494e-10 -3.98145e-13
  3 529.115 -4.97039e-10 -2.41469e-13
  4 529.115 -4.96584e-10 -1.96690e-13
  5 529.115 -4.97494e-10 1.64130e-14
  6 529.115 -4.96584e-10 9.06199e-15
  7 529.115 -4.96584e-10 -1.08221e-13
  8 529.115 -4.96887e-10 1.45000e-13
  9 529.115 -4.97494e-10 1.47020e-14
  10 529.115 -4.96584e-10 -5.77179e-13
  11 529.115 -4.96584e-10 -2.45895e-13
  12 529.115 -4.97797e-10 -2.30086e-13
  13 529.115 -4.97948e-10 4.65203e-14
  14 529.115 -4.96887e-10 -1.65541e-13
  15 529.115 -4.97948e-10 1.02784e-13
  16 529.115 -4.98403e-10 -1.94945e-13
  17 529.115 -4.97190e-10 -1.71785e-13
  18 529.115 -4.96887e-10 5.70935e-13
  19 529.115 -4.97190e-10 3.16583e-13
  20 529.115 -4.96584e-10 -2.55764e-14
  21 529.115 -4.97190e-10 -5.26027e-13
  22 529.115 -4.96584e-10 -5.82012e-13
  23 529.115 -4.97494e-10 -4.49297e-13
  24 529.115 -4.96584e-10 1.27882e-13
  25 529.115 -4.97039e-10 7.67291e-14
  26 529.115 -4.97721e-10 4.20175e-14
  27 529.115 -4.97494e-10 -2.81340e-13
  28 529.115 -4.97039e-10 8.15247e-14
  29 529.115 -4.96584e-10 3.83646e-13
  30 529.115 -4.96887e-10 1.63849e-13
  31 529.115 -4.96584e-10 -3.32285e-13
  32 529.115 -4.96584e-10 -5.01222e-13
  33 529.115 -4.97039e-10 -9.23360e-14
  34 529.115 -4.98100e-10 2.31383e-14
  35 529.115 -4.97039e-10 -5.18083e-14
  36 529.115 -4.96584e-10 -4.09390e-13
  37 529.115 -4.97494e-10 -5.49805e-14
  38 529.115 -4.97797e-10 6.10389e-13
  39 529.115 -4.98403e-10 3.14201e-13
  40 529.115 -4.98100e-10 -1.10751e-13
  41 529.115 -4.97797e-10 -4.07940e-13
  42 529.115 -4.97797e-10 6.25029e-14
  43 529.115 -4.98403e-10 1.74454e-13
  44 529.115 -4.97797e-10 -1.02480e-13
  45 529.115 -4.97494e-10 -3.89304e-13
  46 529.115 -4.97190e-10 -3.09148e-14
  47 529.115 -4.96584e-10 9.88656e-14
  48 529.115 -4.96584e-10 1.07797e-13
  49 529.115 -4.96584e-10 -9.83299e-14
  50 529.115 -4.96584e-10 -6.18265e-14
  51 529.115 -4.96584e-10 -9.59114e-15
  52 529.115 -4.96811e-10 1.36966e-13
  53 529.115 -4.97797e-10 1.80847e-13
  54 529.115 -4.98176e-10 7.47844e-14
  55 529.115 -4.98403e-10 -3.83646e-14
  56 529.115 -4.97797e-10 -1.74151e-13
  57 529.115 -4.98403e-10 -6.89123e-14
  58 529.115 -4.97342e-10 2.32981e-13
  59 529.115 -4.98013e-10 -2.30877e-14
  60 529.115 -4.97645e-10 -3.11571e-14
  61 529.115 -4.97039e-10 -2.42623e-13
  62 529.115 -4.98100e-10 2.61503e-13
  63 529.115 -4.98403e-10 -3.76486e-13
  64 529.115 -4.97948e-10 5.04979e-14
  65 529.115 -4.97039e-10 -1.01789e-13
  66 529.115 -4.97494e-10 1.76383e-16
  67 529.115 -4.97342e-10 9.79377e-14
  68 529.115 -4.98252e-10 -1.13193e-13
  69 529.115 -4.97753e-10 1.72244e-14
  70 529.115 -4.98062e-10 -2.70346e-13
  71 529.115 -4.97190e-10 2.58354e-15
  72 529.115 -4.97624e-10 -7.39344e-14
  73 529.115 -4.97364e-10 1.47675e-13
  74 529.115 -4.97312e-10 -9.84369e-14
  75 529.115 -4.97494e-10 -1.65511e-13
  76 529.115 -4.96736e-10 -3.28260e-14
  77 529.115 -4.97494e-10 1.53269e-13
  78 529.115 -4.96736e-10 5.77279e-14
  79 529.115 -4.97494e-10 -1.13076e-13
  80 529.115 -4.97645e-10 -1.79072e-13
  81 529.115 -4.97494e-10 4.61909e-13
  82 529.115 -4.97645e-10 -1.71365e-14
  83 529.115 -4.97645e-10 -1.35585e-13
  84 529.115 -4.97039e-10 4.82578e-14
  85 529.115 -4.97342e-10 1.07743e-13
  86 529.115 -4.96887e-10 -4.60176e-14
  87 529.115 -4.96584e-10 -4.32135e-14
  88 529.115 -4.96584e-10 -1.50626e-13
  89 529.115 -4.97676e-10 -3.01175e-14
  90 529.115 -4.97494e-10 -1.03086e-13
  91 529.115 -4.98221e-10 1.34042e-13
  92 529.115 -4.97494e-10 1.12677e-13
  93 529.115 -4.96584e-10 7.60941e-14
  94 529.115 -4.96948e-10 -3.44344e-13
  95 529.115 -4.97857e-10 3.20272e-13
  96 529.115 -4.97494e-10 -7.19523e-14
  97 529.115 -4.97312e-10 -1.31889e-13
  98 529.115 -4.96584e-10 -1.38316e-13
  99 529.115 -4.97190e-10 3.66955e-13
  100 529.115 -4.97494e-10 3.18214e-13
  101 529.115 -4.97494e-10 -2.34155e-15
  102 529.115 -4.96948e-10 -3.41313e-15
  103 529.115 -4.97039e-10 2.28060e-13
  104 529.115 -4.97857e-10 2.41424e-13
  105 529.115 -4.98039e-10 -1.00802e-13
  106 529.115 -4.97948e-10 -2.07808e-14
  107 529.115 -4.97494e-10 3.17382e-13
  108 529.115 -4.97190e-10 -9.53437e-15
  109 529.115 -4.97312e-10 1.45455e-14
  110 529.115 -4.97494e-10 9.63613e-15
  111 529.115 -4.96925e-10 -2.99804e-13
  112 529.115 -4.97948e-10 1.43791e-13
  113 529.115 -4.97753e-10 9.10150e-14
  114 529.115 -4.97104e-10 1.29935e-14
  115 529.115 -4.97342e-10 -9.37150e-14
  116 529.115 -4.97130e-10 -7.19560e-14
  117 529.115 -4.97797e-10 5.77982e-14
  118 529.115 -4.97494e-10 -1.77266e-14
  119 529.115 -4.97883e-10 1.45409e-13
  120 529.115 -4.97039e-10 1.97808e-13
  121 529.115 -4.98143e-10 -2.23633e-13
  122 529.115 -4.97883e-10 -1.51678e-13
  123 529.115 -4.97494e-10 5.39548e-14
  124 529.115 -4.97753e-10 4.27962e-13
  125 529.115 -4.97266e-10 7.11592e-14
  126 529.115 -4.97153e-10 1.41061e-13
  127 529.115 -4.97753e-10 3.24124e-13
  128 529.115 -4.97266e-10 -9.47406e-14
  129 529.115 -4.97039e-10 -2.80847e-13
  130 529.115 -4.97948e-10 8.02282e-14
  131 529.115 -4.98100e-10 1.80238e-13
  132 529.115 -4.97607e-10 -1.69420e-13
  133 529.115 -4.96584e-10 1.42108e-13
  134 529.115 -4.97753e-10 -1.48511e-13
  135 529.115 -4.97104e-10 -2.51808e-13
  136 529.115 -4.96584e-10 6.88786e-14
  137 529.115 -4.97104e-10 6.26849e-14
  138 529.115 -4.97494e-10 6.10581e-14
  139 529.115 -4.97753e-10 -8.11325e-15
  140 529.115 -4.96714e-10 1.96332e-13
  141 529.115 -4.97645e-10 -7.91456e-14
  142 529.115 -4.97342e-10 -9.37462e-14
  143 529.115 -4.98273e-10 2.13572e-13
  144 529.115 -4.98039e-10 -6.61714e-14
  145 529.115 -4.97130e-10 8.23940e-15
  146 529.115 -4.98013e-10 2.07011e-14
  147 529.115 -4.98252e-10 8.22469e-15
  148 529.115 -4.97645e-10 2.39237e-13
  149 529.115 -4.97342e-10 -1.21488e-13
  150 529.115 -4.97797e-10 -3.59871e-14
  151 529.115 -4.97039e-10 -3.36973e-13
  152 529.115 -4.96887e-10 -2.13371e-13
  153 529.115 -4.97494e-10 -2.55021e-13
  154 529.115 -4.98221e-10 1.15562e-13
  155 529.115 -4.98100e-10 2.63185e-13
  156 529.115 -4.97234e-10 -3.92717e-15
  157 529.115 -4.97624e-10 -9.50808e-14
  158 529.115 -4.98252e-10 -4.35691e-14
  159 529.115 -4.97797e-10 -1.67826e-13
  160 529.115 -4.97130e-10 3.18954e-13
  161 529.115 -4.97312e-10 1.73090e-14
  162 529.115 -4.97494e-10 3.52446e-15
  163 529.115 -4.97948e-10 -5.33239e-13
  164 529.115 -4.97753e-10 -3.27868e-13
  165 529.115 -4.96887e-10 1.32473e-13
  166 529.115 -4.96844e-10 -7.66913e-14
  167 529.115 -4.97234e-10 1.11700e-13
  168 529.115 -4.96714e-10 1.05845e-13
  169 529.115 -4.97494e-10 -2.42746e-14
  170 529.115 -4.96948e-10 -2.32920e-13
  171 529.115 -4.97364e-10 -1.54753e-13
  172 529.115 -4.97645e-10 1.73849e-13
  173 529.115 -4.97797e-10 -1.77929e-13
  174 529.115 -4.97039e-10 -2.93473e-13
  175 529.115 -4.96584e-10 -1.30319e-13
  176 529.115 -4.97494e-10 -5.26631e-14
  177 529.115 -4.96736e-10 -1.40072e-13
  178 529.115 -4.97645e-10 -3.04348e-14
  179 529.115 -4.96584e-10 -1.05910e-13
  180 529.115 -4.97753e-10 1.91154e-13
  181 529.115 -4.97039e-10 1.48059e-13
  182 529.115 -4.97494e-10 1.81991e-13
  183 529.115 -4.98252e-10 2.09765e-13
  184 529.115 -4.97312e-10 -3.53679e-13
  185 529.115 -4.97645e-10 5.84784e-14
  186 529.115 -4.96948e-10 -6.93578e-14
  187 529.115 -4.96584e-10 -2.73023e-13
  188 529.115 -4.97857e-10 -1.43875e-13
  189 529.115 -4.97676e-10 -7.96289e-14
  190 529.115 -4.97883e-10 8.01070e-14
  191 529.115 -4.97494e-10 9.78748e-14
  192 529.115 -4.97624e-10 -1.08577e-13
  193 529.115 -4.97130e-10 -3.47910e-13
  194 529.115 -4.97797e-10 1.10034e-13
  195 529.115 -4.97039e-10 -1.45207e-13
  196 529.115 -4.97190e-10 -7.02975e-14
  197 529.115 -4.97494e-10 2.33109e-14
  198 529.115 -4.96887e-10 2.61452e-13
  199 529.115 -4.97948e-10 1.07768e-13
  200 529.115 -4.97190e-10 3.88805e-13
  201 529.115 -4.97645e-10 -2.24240e-13
  202 529.115 -4.97676e-10 1.20893e-13
  203 529.115 -4.97948e-10 -3.87270e-13
  204 529.115 -4.97494e-10 1.78045e-13
  205 529.115 -4.97494e-10 1.35799e-13
  206 529.115 -4.97676e-10 -1.24216e-13
  207 529.115 -4.96584e-10 4.35832e-14
  208 529.115 -4.97130e-10 1.60769e-13
  209 529.115 -4.97342e-10 -3.34506e-13
  210 529.115 -4.96584e-10 -2.62684e-14
  211 529.115 -4.97364e-10 -4.51398e-14
  212 529.115 -4.96766e-10 -1.62219e-13
  213 529.115 -4.96584e-10 -3.82003e-15
  214 529.115 -4.97645e-10 2.83272e-13
  215 529.115 -4.97494e-10 4.62952e-13
  216 529.115 -4.98039e-10 2.39869e-13
  217 529.115 -4.97494e-10 -8.55397e-14
  218 529.115 -4.96584e-10 -3.48023e-13
  219 529.115 -4.98403e-10 2.63718e-13
  220 529.115 -4.98100e-10 3.14896e-13
  221 529.115 -4.97797e-10 -1.88663e-13
  222 529.115 -4.97190e-10 -1.03388e-13
  223 529.115 -4.96584e-10 -4.41282e-13
  224 529.115 -4.97494e-10 1.86325e-13
  225 529.115 -4.97130e-10 -2.79215e-13
  226 529.115 -4.97857e-10 1.12707e-13
  227 529.115 -4.97645e-10 1.16549e-14
  228 529.115 -4.97312e-10 2.02017e-13
  229 529.115 -4.97039e-10 2.01138e-14
  230 529.115 -4.97342e-10 1.42557e-13
  231 529.115 -4.97676e-10 -1.36239e-13
  232 529.115 -4.97494e-10 8.36745e-15
  233 529.115 -4.97676e-10 -7.54908e-14
  234 529.115 -4.97797e-10 2.34224e-13
  235 529.115 -4.98039e-10 -6.04992e-14
  236 529.115 -4.98013e-10 1.03226e-13
  237 529.115 -4.97676e-10 2.79240e-13
  238 529.115 -4.97130e-10 -5.56286e-14
  239 529.115 -4.97342e-10 4.22893e-15
  240 529.115 -4.97857e-10 7.81182e-14
  241 529.115 -4.98100e-10 4.83306e-15
</Section>

newXOutput 31

<Section columns = "stress_xx | stress_yy | stress_xy">
  1 546.218 -4.99767e-10 1.09165e-13
  2 546.218 -4.99313e-10 6.03798e-13
  3 546.218 -4.99313e-10 8.02985e-14
  4 546.218 -5.00222e-10 -1.01526e-13
  5 546.218 -5.00222e-10 -2.52205e-14
  6 546.218 -5.00222e-10 -3.21028e-13
  7 546.218 -5.00222e-10 -9.56460e-14
  8 546.218 -5.00222e-10 -1.55314e-14
  9 546.218 -5.00222e-10 -1.18515e-13
  10 546.218 -4.99919e-10 -8.39974e-14
  11 546.218 -4.99313e-10 8.02571e-14
  12 546.218 -4.99616e-10 2.30121e-14
  13 546.218 -4.99995e-10 -5.92577e-14
  14 546.218 -4.99919e-10 8.64909e-14
  15 546.218 -4.99313e-10 -5.03745e-14
  16 546.218 -4.99313e-10 -1.55314e-14
  17 546.218 -5.00222e-10 2.55056e-14
  18 546.218 -5.00222e-10 3.36560e-13
  19 546.218 -5.00222e-10 4.98708e-15
  20 546.218 -4.99919e-10 -2.50069e-13
  21 546.218 -4.99313e-10 -2.29550e-13
  22 546.218 -4.99616e-10 5.10112e-14
  23 546.218 -4.99616e-10 5.12035e-13
  24 546.218 -4.99616e-10 -2.14019e-13
  25 546.218 -4.99767e-10 -7.65168e-14
  26 546.218 -4.99995e-10 -2.51071e-14
  27 546.218 -4.99616e-10 3.70650e-13
  28 546.218 -5.00222e-10 -1.29736e-13
  29 546.218 -4.99767e-10 4.78230e-14
  30 546.218 -4.99616e-10 -1.20764e-13
  31 546.218 -4.99313e-10 4.49698e-14
  32 546.218 -4.99313e-10 -2.05670e-13
  33 546.218 -4.99313e-10 1.72326e-13
  34 546.218 -4.99313e-10 1.70477e-13
  35 546.218 -4.99540e-10 -6.08953e-14
  36 546.218 -5.00222e-10 -3.41188e-14
  37 546.218 -5.00222e-10 -4.95522e-15
  38 546.218 -5.00222e-10 3.87693e-15
  39 546.218 -4.99616e-10 -1.32770e-14
  40 546.218 -4.99313e-10 3.73534e-14
  41 546.218 -4.99919e-10 3.93330e-13
  42 546.218 -5.00222e-10 1.52791e-13
  43 546.218 -4.99616e-10 -1.41471e-13
  44 546.218 -4.99313e-10 1.00135e-13
  45 546.218 -4.99919e-10 1.66604e-13
  46 546.218 -5.00222e-10 7.00812e-15
  47 546.218 -5.00222e-10 7.65120e-14
  48 546.218 -5.00222e-10 -1.74202e-16
  49 546.218 -5.00222e-10 -2.70499e-14
  50 546.218 -4.99616e-10 -2.43301e-14
  51 546.218 -4.99313e-10 -2.10421e-13
  52 546.218 -4.99540e-10 -3.48019e-14
  53 546.218 -4.99919e-10 -9.42567e-14
  54 546.218 -4.99995e-10 -3.82584e-14
  55 546.218 -4.99313e-10 1.53034e-13
  56 546.218 -4.99313e-10 9.27695e-14
  57 546.218 -4.99313e-10 7.07994e-14
  58 546.218 -4.99767e-10 -9.67151e-15
  59 546.218 -5.00092e-10 9.67260e-14
  60 546.218 -4.99464e-10 -1.63871e-13
  61 546.218 -4.99919e-10 1.74429e-13
  62 546.218 -4.99464e-10 1.77248e-13
  63 546.218 -4.99676e-10 2.97731e-14
  64 546.218 -4.99767e-10 3.04927e-14
  65 546.218 -5.00071e-10 5.12172e-14
  66 546.218 -4.99616e-10 -1.99084e-14
  67 546.218 -4.99919e-10 -2.12443e-14
  68 546.218 -5.00222e-10 -3.80892e-14
  69 546.218 -4.99702e-10 -6.30904e-15
  70 546.218 -4.99995e-10 1.80648e-13
  71 546.218 -4.99616e-10 1.72746e-14
  72 546.218 -5.00092e-10 6.74798e-14
  73 546.218 -4.99832e-10 3.13303e-13
  74 546.218 -4.99858e-10 -3.98000e-14
  75 546.218 -4.99858e-10 3.86484e-14
  76 546.218 -5.00071e-10 1.59820e-13
  77 546.218 -5.00071e-10 1.07733e-13
  78 546.218 -4.99767e-10 -1.65894e-13
  79 546.218 -4.99962e-10 1.77380e-14
  80 546.218 -4.99464e-10 -9.84868e-14
  81 546.218 -5.00071e-10 -1.00633e-13
  82 546.218 -5.00222e-10 3.12757e-13
  83 546.218 -4.99464e-10 -1.95188e-13
  84 546.218 -4.99919e-10 -2.09259e-13
  85 546.218 -4.99919e-10 5.45377e-14
  86 546.218 -4.99616e-10 9.04451e-14
  87 546.218 -4.99767e-10 6.94830e-14
  88 546.218 -4.99858e-10 -2.51429e-13
  89 546.218 -4.99676e-10 -2.79030e-14
  90 546.218 -4.99919e-10 -1.49479e-14
  91 546.218 -4.99858e-10 -1.39969e-13
  92 546.218 -4.99494e-10 7.00510e-15
  93 546.218 -5.00040e-10 -2.13413e-13
  94 546.218 -5.00222e-10 1.55973e-14
  95 546.218 -4.99858e-10 -1.51599e-13
  96 546.218 -4.99616e-10 -1.36500e-13
  97 546.218 -4.99858e-10 3.48472e-13
  98 546.218 -5.00222e-10 1.10578e-13
  99 546.218 -4.99919e-10 1.10161e-14
  100 546.218 -4.99494e-10 -1.29416e-13
  101 546.218 -5.00071e-10 1.22327e-13
  102 546.218 -4.99494e-10 -8.64982e-14
  103 546.218 -4.99919e-10 1.11854e-13
  104 546.218 -5.00040e-10 4.14590e-14
  105 546.218 -4.99676e-10 1.53541e-14
  106 546.218 -4.99919e-10 -2.25667e-13
  107 546.218 -5.00374e-10 1.18271e-13
  108 546.218 -5.00071e-10 8.95056e-14
  109 546.218 -5.00040e-10 -4.48895e-14
  110 546.218 -5.00040e-10 -3.82584e-14
  111 546.218 -4.99654e-10 -1.15877e-13
  112 546.218 -4.99767e-10 2.24015e-13
  113 546.218 -4.99962e-10 -4.65911e-14
  114 546.218 -4.99832e-10 1.57872e-13
  115 546.218 -5.00071e-10 8.68071e-14
  116 546.218 -5.00222e-10 -6.92391e-14
  117 546.218 -4.99464e-10 -1.33067e-13
  118 546.218 -4.99464e-10 1.08366e-13
  119 546.218 -4.99832e-10 -4.14110e-14
  120 546.218 -4.99616e-10 -1.35616e-13
  121 546.218 -4.99443e-10 3.59989e-14
  122 546.218 -4.99832e-10 8.63599e-14
  123 546.218 -4.99616e-10 5.95393e-14
  124 546.218 -5.00092e-10 -9.29767e-14
  125 546.218 -4.99654e-10 1.32755e-13
  126 546.218 -4.99995e-10 -4.39007e-14
  127 546.218 -4.99832e-10 3.80140e-14
  128 546.218 -5.00108e-10 9.06498e-14
  129 546.218 -5.00336e-10 4.50145e-14
  130 546.218 -5.00071e-10 5.52903e-14
  131 546.218 -4.99919e-10 6.85384e-14
  132 546.218 -4.99995e-10 3.66667e-14
  133 546.218 -4.99962e-10 3.11899e-14
  134 546.218 -4.99962e-10 1.81903e-13
  135 546.218 -4.99572e-10 2.75640e-13
  136 546.218 -5.00092e-10 1.25690e-13
  137 546.218 -4.99702e-10 -1.08200e-13
  138 546.218 -4.99767e-10 -8.75196e-14
  139 546.218 -4.99962e-10 3.24222e-15
  140 546.218 -5.00222e-10 -1.94796e-13
  141 546.218 -4.99919e-10 1.03282e-13
  142 546.218 -5.00222e-10 -4.51156e-14
  143 546.218 -4.99702e-10 -5.27808e-14
  144 546.218 -5.00404e-10 3.05262e-13
  145 546.218 -4.99494e-10 -2.09047e-13
  146 546.218 -4.99572e-10 -7.39139e-14
  147 546.218 -4.99464e-10 -9.81949e-14
  148 546.218 -5.00222e-10 -5.00181e-14
  149 546.218 -4.99767e-10 5.12730e-13
  150 546.218 -5.00222e-10 1.54200e-14
  151 546.218 -4.99919e-10 -3.91222e-14
  152 546.218 -4.99616e-10 -2.21473e-13
  153 546.218 -4.99464e-10 -1.51092e-13
  154 546.218 -4.99858e-10 -6.90362e-14
  155 546.218 -4.99919e-10 -7.59190e-14
  156 546.218 -5.00352e-10 2.29657e-13
  157 546.218 -4.99832e-10 2.07933e-14
  158 546.218 -4.99919e-10 -2.72408e-13
  159 546.218 -4.99919e-10 2.78580e-13
  160 546.218 -4.99858e-10 1.58992e-14
  161 546.218 -4.99858e-10 5.65540e-13
  162 546.218 -4.99616e-10 -1.21584e-14
  163 546.218 -4.99313e-10 -2.60942e-13
  164 546.218 -4.99832e-10 -6.05058e-14
  165 546.218 -4.99464e-10 -1.32882e-13
  166 546.218 -4.99702e-10 -4.05465e-14
  167 546.218 -4.99702e-10 -2.62187e-13
  168 546.218 -4.99832e-10 -1.31006e-13
  169 546.218 -4.99572e-10 5.46968e-14
  170 546.218 -4.99676e-10 -1.62225e-14
  171 546.218 -4.99702e-10 4.39185e-14
  172 546.218 -4.99919e-10 -3.95052e-14
  173 546.218 -4.99616e-10 -6.80514e-14
  174 546.218 -4.99313e-10 1.12762e-13
  175 546.218 -4.99767e-10 6.05225e-15
  176 546.218 -4.99767e-10 2.82757e-15
  177 546.218 -4.99767e-10 -2.96847e-13
  178 546.218 -4.99464e-10 -2.15007e-13
  179 546.218 -5.00222e-10 -5.99898e-14
  180 546.218 -4.99702e-10 2.45336e-14
  181 546.218 -4.99767e-10 -2.14509e-13
  182 546.218 -5.00222e-10 3.09260e-13
  183 546.218 -4.99919e-10 6.44185e-14
  184 546.218 -4.99676e-10 -1.00391e-13
  185 546.218 -4.99313e-10 -1.76244e-13
  186 546.218 -4.99858e-10 -9.53575e-14
  187 546.218 -4.99464e-10 -3.75119e-14
  188 546.218 -5.00222e-10 5.41014e-14
  189 546.218 -4.99676e-10 1.78334e-13
  190 546.218 -5.00092e-10 -5.39607e-14
  191 546.218 -4.99313e-10 -4.81570e-14
  192 546.218 -4.99702e-10 -8.03182e-14
  193 546.218 -4.99676e-10 -2.67301e-13
  194 546.218 -4.99919e-10 2.53630e-14
  195 546.218 -5.00222e-10 7.96349e-14
  196 546.218 -4.99616e-10 5.29149e-15
  197 546.218 -4.99464e-10 7.61338e-14
  198 546.218 -5.00374e-10 1.36398e-13
  199 546.218 -4.99313e-10 5.06995e-14
  200 546.218 -4.99919e-10 4.66384e-14
  201 546.218 -4.99464e-10 -2.02425e-14
  202 546.218 -4.99858e-10 1.45125e-13
  203 546.218 -4.99767e-10 -6.64267e-14
  204 546.218 -4.99767e-10 -1.09093e-13
  205 546.218 -4.99313e-10 1.91292e-14
  206 546.218 -4.99494e-10 -1.22598e-13
  207 546.218 -5.00222e-10 1.22281e-13
  208 546.218 -4.99313e-10 -5.12036e-14
  209 546.218 -5.00222e-10 5.40568e-14
  210 546.218 -5.00222e-10 1.22918e-13
  211 546.218 -5.00222e-10 -1.74384e-13
  212 546.218 -4.99494e-10 3.84486e-13
  213 546.218 -4.99858e-10 5.33600e-15
  214 546.218 -4.99616e-10 -1.56022e-13
  215 546.218 -4.99676e-10 1.70236e-13
  216 546.218 -5.00040e-10 1.22782e-13
  217 546.218 -5.00071e-10 2.68218e-13
  218 546.218 -5.00071e-10 1.35381e-13
  219 546.218 -4.99858e-10 1.23955e-13
  220 546.218 -4.99767e-10 2.56365e-13
  221 546.218 -5.00071e-10 -1.98915e-13
  222 546.218 -4.99767e-10 -4.44914e-13
  223 546.218 -4.99858e-10 -6.39331e-14
  224 546.218 -5.00040e-10 -4.12506e-14
  225 546.218 -5.00586e-10 9.11094e-14
  226 546.218 -4.99858e-10 -2.91961e-14
  227 546.218 -5.00222e-10 -1.70569e-13
  228 546.218 -4.99313e-10 -8.35915e-14
  229 546.218 -4.99919e-10 -6.65910e-15
  230 546.218 -4.99767e-10 6.48682e-14
  231 546.218 -4.99676e-10 9.48124e-14
  232 546.218 -4.99676e-10 -1.46605e-13
  233 546.218 -4.99676e-10 2.22390e-13
  234 546.218 -4.99919e-10 8.10096e-14
  235 546.218 -4.99858e-10 2.67719e-14
  236 546.218 -4.99702e-10 -7.08929e-14
  237 546.218 -4.99494e-10 6.84389e-14
  238 546.218 -4.99676e-10 3.27654e-14
  239 546.218 -4.99313e-10 1.37502e-13
  240 546.218 -5.00040e-10 3.21028e-14
  241 546.218 -4.99464e-10 -8.42825e-14
</Section>

newXOutput 32

<Section columns = "stress_xx | stress_yy | stress_xy">
  1 563.248 -4.95675e-10 -2.19677e-14
  2 563.248 -4.97039e-10 2.67068e-13
  3 563.248 -4.96584e-10 -4.99108e-13
  4 563.248 -4.95675e-10 -5.66483e-14
  5 563.248 -4.95675e-10 -4.52206e-14
  6 563.248 -4.96129e-10 -1.62249e-13
  7 563.248 -4.96357e-10 -7.82329e-14
  8 563.248 -4.95978e-10 1.28508e-15
  9 563.248 -4.95978e-10 5.34403e-14
  10 563.248 -4.96281e-10 -1.01740e-13
  11 563.248 -4.96281e-10 -2.90067e-13
  12 563.248 -4.96584e-10 -1.81901e-13
  13 563.248 -4.96357e-10 -4.17951e-13
  14 563.248 -4.96281e-10 -4.22382e-13
  15 563.248 -4.96357e-10 1.42209e-13
  16 563.248 -4.97190e-10 3.00347e-13
  17 563.248 -4.95675e-10 -2.49211e-13
  18 563.248 -4.95068e-10 -1.12021e-13
  19 563.248 -4.95675e-10 -1.73172e-13
  20 563.248 -4.96584e-10 -2.02948e-14
  21 563.248 -4.95675e-10 2.69772e-13
  22 563.248 -4.95978e-10 -6.62911e-14
  23 563.248 -4.95371e-10 -2.54617e-13
  24 563.248 -4.96584e-10 -3.76653e-13
  25 563.248 -4.94765e-10 1.90763e-13
  26 563.248 -4.95447e-10 2.93855e-13
  27 563.248 -4.95978e-10 1.90763e-14
  28 563.248 -4.95902e-10 -2.33685e-13
  29 563.248 -4.95220e-10 -1.14458e-13
  30 563.248 -4.95978e-10 -3.26411e-14
  31 563.248 -4.95978e-10 -4.18198e-13
  32 563.248 -4.95675e-10 1.87733e-13
  33 563.248 -4.96357e-10 1.77369e-13
  34 563.248 -4.96281e-10 7.75316e-13
  35 563.248 -4.95902e-10 4.24429e-13
  36 563.248 -4.95371e-10 3.15961e-13
  37 563.248 -4.95675e-10 -1.07125e-14
  38 563.248 -4.95978e-10 -7.35471e-14
  39 563.248 -4.96281e-10 -4.36095e-14
  40 563.248 -4.95978e-10 -3.87317e-13
  41 563.248 -4.96584e-10 -2.85596e-13
  42 563.248 -4.96584e-10 -9.19387e-14
  43 563.248 -4.96887e-10 1.97364e-13
  44 563.248 -4.95978e-10 9.46405e-14
  45 563.248 -4.95675e-10 1.12230e-14
  46 563.248 -4.95675e-10 2.63229e-14
  47 563.248 -4.95675e-10 7.62698e-14
  48 563.248 -4.95978e-10 6.07766e-16
  49 563.248 -4.96281e-10 -1.90735e-15
  50 563.248 -4.95978e-10 5.05822e-14
  51 563.248 -4.96584e-10 -2.95823e-29
  52 563.248 -4.96584e-10 3.80384e-14
  53 563.248 -4.97190e-10 -2.86478e-14
  54 563.248 -4.96129e-10 -3.62500e-14
  55 563.248 -4.95675e-10 0.00000
  56 563.248 -4.95675e-10 -3.21269e-16
  57 563.248 -4.96433e-10 -5.32797e-14
  58 563.248 -4.95675e-10 -1.64464e-13
  59 563.248 -4.96324e-10 -1.77579e-13
  60 563.248 -4.95675e-10 1.09874e-13
  61 563.248 -4.95826e-10 -1.35977e-13
  62 563.248 -4.96281e-10 5.95278e-14
  63 563.248 -4.96402e-10 1.98873e-14
  64 563.248 -4.96736e-10 1.93310e-14
  65 563.248 -4.96129e-10 -7.51353e-14
  66 563.248 -4.96281e-10 -2.63382e-15
  67 563.248 -4.95978e-10 -1.06376e-14
  68 563.248 -4.96129e-10 -6.44683e-14
  69 563.248 -4.95805e-10 2.86269e-13
  70 563.248 -4.96129e-10 5.27570e-14
  71 563.248 -4.95978e-10 7.34971e-14
  72 563.248 -4.96194e-10 -8.26847e-14
  73 563.248 -4.94895e-10 3.97763e-14
  74 563.248 -4.96402e-10 5.37824e-14
  75 563.248 -4.95857e-10 -7.63253e-14
  76 563.248 -4.95675e-10 1.52001e-13
  77 563.248 -4.96281e-10 -2.76203e-14
  78 563.248 -4.96129e-10 -4.36452e-13
  79 563.248 -4.96064e-10 -3.33621e-14
  80 563.248 -4.95826e-10 -9.92368e-14
  81 563.248 -4.96433e-10 1.26633e-13
  82 563.248 -4.96281e-10 2.01764e-13
  83 563.248 -4.96281e-10 -1.93785e-13
  84 563.248 -4.96281e-10 -1.25281e-13
  85 563.248 -4.96281e-10 -2.41167e-14
  86 563.248 -4.96433e-10 -1.21416e-14
  87 563.248 -4.95978e-10 1.22827e-15
  88 563.248 -4.95857e-10 1.40939e-13
  89 563.248 -4.95857e-10 7.51416e-15
  90 563.248 -4.96129e-10 1.88360e-13
  91 563.248 -4.95857e-10 2.84925e-13
  92 563.248 -4.95857e-10 3.04457e-14
  93 563.248 -4.96402e-10 -8.01605e-14
  94 563.248 -4.96402e-10 -2.22947e-13
  95 563.248 -4.96584e-10 -4.96898e-14
  96 563.248 -4.95675e-10 6.97085e-14
  97 563.248 -4.95311e-10 -5.26746e-13
  98 563.248 -4.95675e-10 -2.20691e-14
  99 563.248 -4.95826e-10 3.43574e-13
  100 563.248 -4.95857e-10 9.55814e-15
  101 563.248 -4.95978e-10 2.34123e-13
  102 563.248 -4.95493e-10 4.25156e-13
  103 563.248 -4.96584e-10 1.67998e-13
  104 563.248 -4.96038e-10 1.88955e-13
  105 563.248 -4.96038e-10 -1.09131e-13
  106 563.248 -4.96129e-10 1.36980e-14
  107 563.248 -4.95826e-10 5.00039e-13
  108 563.248 -4.96129e-10 -2.81617e-14
  109 563.248 -4.95857e-10 -3.74016e-14
  110 563.248 -4.96038e-10 -5.72290e-14
  111 563.248 -4.96357e-10 -3.02100e-13
  112 563.248 -4.96736e-10 -1.36752e-13
  113 563.248 -4.96714e-10 -7.74291e-14
  114 563.248 -4.95934e-10 2.27242e-13
  115 563.248 -4.96433e-10 -9.02275e-14
  116 563.248 -4.96220e-10 -8.50924e-14
  117 563.248 -4.95523e-10 -4.71730e-13
  118 563.248 -4.96281e-10 8.67445e-14
  119 563.248 -4.96064e-10 -1.25359e-13
  120 563.248 -4.96129e-10 5.14437e-14
  121 563.248 -4.96064e-10 -1.96271e-13
  122 563.248 -4.96064e-10 -7.93344e-14
  123 563.248 -4.95675e-10 2.29506e-13
  124 563.248 -4.95545e-10 2.12569e-14
  125 563.248 -4.96129e-10 -3.17946e-14
  126 563.248 -4.96243e-10 3.31551e-14
  127 563.248 -4.95805e-10 -1.38144e-13
  128 563.248 -4.95675e-10 -2.66255e-13
  129 563.248 -4.95788e-10 -3.45677e-15
  130 563.248 -4.95523e-10 -3.19645e-13
  131 563.248 -4.96281e-10 8.72107e-14
  132 563.248 -4.96129e-10 -1.17603e-13
  133 563.248 -4.95934e-10 -4.84254e-15
  134 563.248 -4.96194e-10 1.69019e-14
  135 563.248 -4.95675e-10 7.30008e-14
  136 563.248 -4.95675e-10 2.97277e-14
  137 563.248 -4.95675e-10 4.36758e-13
  138 563.248 -4.97190e-10 1.14381e-13
  139 563.248 -4.96584e-10 6.74984e-14
  140 563.248 -4.96454e-10 -4.01035e-13
  141 563.248 -4.95978e-10 -3.54552e-14
  142 563.248 -4.96433e-10 2.92903e-14
  143 563.248 -4.96324e-10 1.52820e-13
  144 563.248 -4.96402e-10 2.72013e-13
  145 563.248 -4.96038e-10 -6.62160e-14
  146 563.248 -4.96454e-10 6.67142e-14
  147 563.248 -4.96433e-10 -2.98776e-13
  148 563.248 -4.96433e-10 -4.42401e-14
  149 563.248 -4.96281e-10 -5.91899e-14
  150 563.248 -4.96129e-10 1.77526e-14
  151 563.248 -4.95978e-10 -9.41298e-14
  152 563.248 -4.95826e-10 -8.36279e-14
  153 563.248 -4.96281e-10 1.07928e-13
  154 563.248 -4.95493e-10 1.87473e-13
  155 563.248 -4.96129e-10 1.52863e-13
  156 563.248 -4.96584e-10 -2.18301e-14
  157 563.248 -4.96454e-10 -5.18760e-14
  158 563.248 -4.95826e-10 -8.59100e-14
  159 563.248 -4.95978e-10 8.33399e-14
  160 563.248 -4.96584e-10 -9.48174e-15
  161 563.248 -4.95675e-10 3.79333e-13
  162 563.248 -4.96129e-10 -5.35677e-14
  163 563.248 -4.96129e-10 -1.57751e-13
  164 563.248 -4.96064e-10 7.21889e-14
  165 563.248 -4.95826e-10 -3.14892e-14
  166 563.248 -4.96194e-10 2.26113e-15
  167 563.248 -4.96064e-10 -6.98105e-14
  168 563.248 -4.95155e-10 1.53724e-13
  169 563.248 -4.95675e-10 -6.46875e-15
  170 563.248 -4.96402e-10 1.62634e-13
  171 563.248 -4.96064e-10 1.53275e-13
  172 563.248 -4.95978e-10 2.19511e-13
  173 563.248 -4.95978e-10 9.87757e-14
  174 563.248 -4.96129e-10 -1.53386e-13
  175 563.248 -4.96129e-10 2.14869e-14
  176 563.248 -4.95675e-10 3.94926e-15
  177 563.248 -4.95826e-10 2.28565e-13
  178 563.248 -4.95978e-10 -3.44110e-14
  179 563.248 -4.96402e-10 -5.95021e-14
  180 563.248 -4.96194e-10 8.58863e-14
  181 563.248 -4.95978e-10 9.87608e-15
  182 563.248 -4.96220e-10 -1.09850e-13
  183 563.248 -4.96129e-10 1.62418e-13
  184 563.248 -4.97130e-10 4.45203e-13
  185 563.248 -4.95978e-10 -1.34756e-13
  186 563.248 -4.96220e-10 1.35196e-13
  187 563.248 -4.95978e-10 1.48792e-13
  188 563.248 -4.96038e-10 3.44338e-14
  189 563.248 -4.96220e-10 1.69489e-15
  190 563.248 -4.96194e-10 9.96514e-14
  191 563.248 -4.96281e-10 -1.50830e-13
  192 563.248 -4.96194e-10 -4.24730e-14
  193 563.248 -4.95675e-10 4.38701e-13
  194 563.248 -4.96887e-10 5.39497e-15
  195 563.248 -4.95978e-10 -9.69091e-14
  196 563.248 -4.95826e-10 -3.63700e-13
  197 563.248 -4.96129e-10 2.69445e-14
  198 563.248 -4.95675e-10 -5.03961e-13
  199 563.248 -4.96129e-10 8.18942e-14
  200 563.248 -4.96281e-10 -1.08132e-13
  201 563.248 -4.96129e-10 2.54471e-13
  202 563.248 -4.96038e-10 5.48136e-13
  203 563.248 -4.95978e-10 1.08565e-14
  204 563.248 -4.96129e-10 -2.29473e-13
  205 563.248 -4.95826e-10 7.00131e-15
  206 563.248 -4.95675e-10 -1.20546e-13
  207 563.248 -4.95675e-10 3.24064e-15
  208 563.248 -4.95675e-10 8.85350e-14
  209 563.248 -4.96281e-10 -4.08192e-13
  210 563.248 -4.95675e-10 -2.44008e-14
  211 563.248 -4.96064e-10 -5.48362e-14
  212 563.248 -4.95675e-10 9.98880e-14
  213 563.248 -4.96220e-10 1.99346e-14
  214 563.248 -4.96736e-10 1.09050e-13
  215 563.248 -4.95311e-10 -8.10744e-15
  216 563.248 -4.96402e-10 -2.08666e-13
  217 563.248 -4.95675e-10 -2.43966e-13
  218 563.248 -4.95826e-10 -5.29909e-14
  219 563.248 -4.95675e-10 -5.45783e-13
  220 563.248 -4.96129e-10 1.82593e-13
  221 563.248 -4.95675e-10 1.79093e-13
  222 563.248 -4.95826e-10 -4.67603e-14
  223 563.248 -4.96220e-10 -1.37350e-13
  224 563.248 -4.96402e-10 2.57285e-13
  225 563.248 -4.95857e-10 -5.47079e-13
  226 563.248 -4.95857e-10 2.69866e-15
  227 563.248 -4.96129e-10 -1.19598e-13
  228 563.248 -4.97130e-10 2.02369e-13
  229 563.248 -4.96129e-10 1.41241e-15
  230 563.248 -4.95675e-10 -1.83286e-13
  231 563.248 -4.95311e-10 -1.05285e-13
  232 563.248 -4.96038e-10 4.46995e-15
  233 563.248 -4.95675e-10 -1.27566e-13
  234 563.248 -4.95826e-10 -1.56816e-13
  235 563.248 -4.96220e-10 -5.70557e-13
  236 563.248 -4.96324e-10 -5.85513e-14
  237 563.248 -4.95675e-10 1.34444e-13
  238 563.248 -4.96038e-10 -1.08735e-13
  239 563.248 -4.96433e-10 3.23788e-13
  240 563.248 -4.96402e-10 1.47373e-13
  241 563.248 -4.96584e-10 1.88326e-13
</Section>

newXOutput 33

<Section columns = "stress_xx | stress_yy | stress_xy">
  1 580.207 -4.95675e-10 2.20008e-14
  2 580.207 -4.95675e-10 -2.44162e-13
  3 580.207 -4.95675e-10 -1.83322e-14
  4 580.207 -4.95675e-10 2.82816e-13
  5 580.207 -4.95675e-10 6.61593e-15
  6 580.207 -4.95675e-10 7.93911e-15
  7 580.207 -4.95675e-10 -1.16127e-13
  8 580.207 -4.95675e-10 -3.17610e-13
  9 580.207 -4.95675e-10 -7.93911e-15
  10 580.207 -4.95675e-10 -2.24090e-13
  11 580.207 -4.95978e-10 -3.85967e-14
  12 580.207 -4.95675e-10 -2.53649e-14
  13 580.207 -4.94310e-10 3.52350e-13
  14 580.207 -4.95675e-10 5.23176e-13
  15 580.207 -4.95675e-10 -8.60185e-14
  16 580.207 -4.95675e-10 -2.58941e-13
  17 580.207 -4.95675e-10 -3.00185e-13
  18 580.207 -4.95978e-10 1.82847e-13
  19 580.207 -4.95675e-10 -5.07297e-14
  20 580.207 -4.95978e-10 -5.84491e-13
  21 580.207 -4.95978e-10 -2.74820e-13
  22 580.207 -4.95675e-10 -3.76279e-13
  23 580.207 -4.95675e-10 -9.66063e-13
  24 580.207 -4.95675e-10 -5.07297e-14
  25 580.207 -4.95675e-10 3.80473e-14
  26 580.207 -4.95675e-10 -1.90237e-14
  27 580.207 -4.95675e-10 2.02919e-13
  28 580.207 -4.95675e-10 1.02252e-13
  29 580.207 -4.95675e-10 2.47307e-13
  30 580.207 -4.95978e-10 1.03837e-13
  31 580.207 -4.95675e-10 -3.37955e-13
  32 580.207 -4.95675e-10 -5.00957e-13
  33 580.207 -4.94992e-10 -2.92029e-13
  34 580.207 -4.95675e-10 -3.26640e-13
  35 580.207 -4.94538e-10 -2.04270e-14
  36 580.207 -4.95978e-10 -4.39600e-13
  37 580.207 -4.96584e-10 -8.19353e-14
  38 580.207 -4.95978e-10 -1.03087e-13
  39 580.207 -4.95675e-10 -1.57409e-13
  40 580.207 -4.95675e-10 -3.80786e-13
  41 580.207 -4.95675e-10 -4.81516e-14
  42 580.207 -4.95675e-10 2.12718e-13
  43 580.207 -4.95675e-10 -9.08524e-14
  44 580.207 -4.95675e-10 6.81415e-14
  45 580.207 -4.95675e-10 3.10515e-13
  46 580.207 -4.95068e-10 1.06472e-13
  47 580.207 -4.95068e-10 1.79695e-13
  48 580.207 -4.95675e-10 -2.77943e-13
  49 580.207 -4.94765e-10 1.72100e-13
  50 580.207 -4.94765e-10 -1.60378e-13
  51 580.207 -4.94310e-10 -1.61701e-13
  52 580.207 -4.94992e-10 -1.03839e-13
  53 580.207 -4.94765e-10 2.60265e-13
  54 580.207 -4.95675e-10 7.21250e-14
  55 580.207 -4.96129e-10 0.00000
  56 580.207 -4.95978e-10 -1.35288e-13
  57 580.207 -4.95220e-10 2.40055e-13
  58 580.207 -4.95826e-10 1.80531e-13
  59 580.207 -4.95675e-10 5.16356e-14
  60 580.207 -4.96129e-10 -2.02465e-13
  61 580.207 -4.94310e-10 3.12402e-13
  62 580.207 -4.95675e-10 -7.04213e-14
  63 580.207 -4.94583e-10 2.44461e-13
  64 580.207 -4.95826e-10 -2.79838e-13
  65 580.207 -4.95675e-10 1.08780e-13
  66 580.207 -4.95826e-10 2.33330e-13
  67 580.207 -4.95978e-10 -6.86986e-14
  68 580.207 -4.95675e-10 -1.05897e-13
  69 580.207 -4.95805e-10 6.62169e-14
  70 580.207 -4.95334e-10 2.57727e-14
  71 580.207 -4.95220e-10 -2.69776e-13
  72 580.207 -4.95675e-10 2.03710e-13
  73 580.207 -4.95805e-10 1.40880e-13
  74 580.207 -4.94583e-10 -8.15117e-14
  75 580.207 -4.95675e-10 -3.19414e-13
  76 580.207 -4.95675e-10 -8.29601e-14
  77 580.207 -4.94765e-10 2.76656e-13
  78 580.207 -4.95826e-10 -9.43959e-14
  79 580.207 -4.95675e-10 -1.93520e-13
  80 580.207 -4.95978e-10 -1.35026e-13
  81 580.207 -4.96129e-10 -7.53082e-14
  82 580.207 -4.95675e-10 1.76554e-13
  83 580.207 -4.95675e-10 7.59026e-14
  84 580.207 -4.95675e-10 -1.88995e-13
  85 580.207 -4.95675e-10 7.01655e-14
  86 580.207 -4.95675e-10 2.86042e-13
  87 580.207 -4.94765e-10 -7.30039e-14
  88 580.207 -4.95675e-10 -3.31448e-13
  89 580.207 -4.96038e-10 -3.74862e-13
  90 580.207 -4.95978e-10 2.13092e-13
  91 580.207 -4.95129e-10 -6.07679e-13
  92 580.207 -4.95675e-10 -2.02145e-14
  93 580.207 -4.95857e-10 -2.98088e-14
  94 580.207 -4.95675e-10 1.86746e-13
  95 580.207 -4.94219e-10 -1.53069e-13
  96 580.207 -4.95826e-10 -3.31891e-13
  97 580.207 -4.94947e-10 3.32838e-14
  98 580.207 -4.94947e-10 1.30772e-13
  99 580.207 -4.95675e-10 -9.01002e-14
  100 580.207 -4.95857e-10 -5.16111e-14
  101 580.207 -4.95523e-10 3.17722e-13
  102 580.207 -4.95857e-10 -2.13477e-13
  103 580.207 -4.95220e-10 -1.44937e-13
  104 580.207 -4.94583e-10 4.83077e-15
  105 580.207 -4.94583e-10 -4.14738e-13
  106 580.207 -4.95675e-10 2.17998e-13
  107 580.207 -4.95675e-10 -5.17782e-14
  108 580.207 -4.95675e-10 4.50673e-14
  109 580.207 -4.95675e-10 -3.84106e-14
  110 580.207 -4.96038e-10 3.11374e-13
  111 580.207 -4.95675e-10 -4.07131e-14
  112 580.207 -4.95675e-10 5.66746e-14
  113 580.207 -4.95675e-10 -8.76245e-14
  114 580.207 -4.95934e-10 3.08378e-14
  115 580.207 -4.95675e-10 2.39097e-13
  116 580.207 -4.95675e-10 -1.70516e-13
  117 580.207 -4.95978e-10 1.87489e-14
  118 580.207 -4.94310e-10 -9.98018e-14
  119 580.207 -4.95675e-10 2.69118e-13
  120 580.207 -4.95068e-10 1.18772e-14
  121 580.207 -4.95285e-10 1.55592e-13
  122 580.207 -4.95805e-10 1.52176e-13
  123 580.207 -4.95675e-10 8.53460e-16
  124 580.207 -4.95934e-10 -1.70263e-14
  125 580.207 -4.95788e-10 -1.82911e-13
  126 580.207 -4.95334e-10 -1.09344e-13
  127 580.207 -4.95675e-10 -4.07650e-14
  128 580.207 -4.95561e-10 -3.26005e-13
  129 580.207 -4.95447e-10 5.26721e-14
  130 580.207 -4.95826e-10 -1.12597e-13
  131 580.207 -4.94765e-10 1.05541e-13
  132 580.207 -4.95220e-10 -1.90163e-13
  133 580.207 -4.95805e-10 1.16742e-13
  134 580.207 -4.94895e-10 -1.21225e-14
  135 580.207 -4.95285e-10 3.73925e-13
  136 580.207 -4.95415e-10 4.67761e-14
  137 580.207 -4.95285e-10 -2.27656e-13
  138 580.207 -4.95675e-10 -2.60539e-13
  139 580.207 -4.95285e-10 1.96806e-13
  140 580.207 -4.96064e-10 -1.57079e-13
  141 580.207 -4.95675e-10 -6.25417e-14
  142 580.207 -4.95675e-10 7.84663e-14
  143 580.207 -4.93726e-10 -2.06339e-13
  144 580.207 -4.95675e-10 2.52931e-13
  145 580.207 -4.95675e-10 -3.20385e-13
  146 580.207 -4.95025e-10 -1.26179e-13
  147 580.207 -4.95675e-10 -3.65852e-13
  148 580.207 -4.95220e-10 2.38098e-13
  149 580.207 -4.95675e-10 3.09160e-13
  150 580.207 -4.95675e-10 2.69608e-13
  151 580.207 -4.94310e-10 4.15762e-13
  152 580.207 -4.95675e-10 -1.34127e-14
  153 580.207 -4.95675e-10 -1.01734e-13
  154 580.207 -4.96038e-10 6.94439e-14
  155 580.207 -4.96129e-10 1.24120e-13
  156 580.207 -4.95675e-10 1.53109e-13
  157 580.207 -4.95675e-10 9.18335e-14
  158 580.207 -4.96584e-10 -4.65056e-13
  159 580.207 -4.95826e-10 -1.83646e-13
  160 580.207 -4.95129e-10 4.13804e-13
  161 580.207 -4.95675e-10 -1.73759e-13
  162 580.207 -4.95675e-10 -7.59558e-14
  163 580.207 -4.96129e-10 5.17908e-14
  164 580.207 -4.95415e-10 -2.78615e-14
  165 580.207 -4.95675e-10 -6.22263e-14
  166 580.207 -4.95285e-10 -2.16736e-13
  167 580.207 -4.95675e-10 1.54928e-13
  168 580.207 -4.95934e-10 -5.38051e-14
  169 580.207 -4.96064e-10 -8.56641e-14
  170 580.207 -4.94947e-10 -1.31263e-13
  171 580.207 -4.96324e-10 -2.08426e-14
  172 580.207 -4.95220e-10 -8.46335e-15
  173 580.207 -4.95220e-10 -1.07658e-13
  174 580.207 -4.95675e-10 -2.72560e-13
  175 580.207 -4.94765e-10 2.06127e-14
  176 580.207 -4.95826e-10 -1.73073e-13
  177 580.207 -4.95826e-10 -2.17378e-13
  178 580.207 -4.94310e-10 2.45543e-13
  179 580.207 -4.95675e-10 -3.53937e-13
  180 580.207 -4.95675e-10 1.23381e-13
  181 580.207 -4.95826e-10 4.08871e-14
  182 580.207 -4.96038e-10 5.35291e-14
  183 580.207 -4.94765e-10 -3.14976e-13
  184 580.207 -4.95675e-10 -1.86597e-13
  185 580.207 -4.95978e-10 5.02896e-14
  186 580.207 -4.95675e-10 1.36311e-14
  187 580.207 -4.95220e-10 -4.27001e-13
  188 580.207 -4.95675e-10 2.16994e-13
  189 580.207 -4.95129e-10 -3.03369e-14
  190 580.207 -4.95285e-10 -3.15072e-13
  191 580.207 -4.95220e-10 2.06172e-13
  192 580.207 -4.94895e-10 5.36086e-13
  193 580.207 -4.95493e-10 -8.28340e-14
  194 580.207 -4.95675e-10 -6.20890e-14
  195 580.207 -4.95675e-10 7.34132e-14
  196 580.207 -4.96281e-10 3.16358e-14
  197 580.207 -4.95826e-10 -9.35315e-14
  198 580.207 -4.95826e-10 -1.94481e-13
  199 580.207 -4.94765e-10 -4.10245e-14
  200 580.207 -4.95978e-10 -1.03719e-13
  201 580.207 -4.94614e-10 -1.14020e-13
  202 580.207 -4.95675e-10 -2.04466e-14
  203 580.207 -4.94614e-10 2.97650e-13
  204 580.207 -4.95675e-10 7.00596e-15
  205 580.207 -4.95675e-10 5.58851e-14
  206 580.207 -4.94765e-10 -5.55221e-13
  207 580.207 -4.95675e-10 1.08729e-13
  208 580.207 -4.95129e-10 -1.21410e-13
  209 580.207 -4.95826e-10 8.42832e-14
  210 580.207 -4.95220e-10 2.11135e-13
  211 580.207 -4.95675e-10 -1.79601e-13
  212 580.207 -4.95675e-10 -2.73806e-13
  213 580.207 -4.94038e-10 -1.78602e-13
  214 580.207 -4.95826e-10 -1.02594e-13
  215 580.207 -4.95857e-10 3.86418e-14
  216 580.207 -4.94583e-10 -1.82419e-13
  217 580.207 -4.96129e-10 3.36359e-13
  218 580.207 -4.94765e-10 1.97724e-13
  219 580.207 -4.95675e-10 3.57260e-15
  220 580.207 -4.95675e-10 -2.34113e-13
  221 580.207 -4.95826e-10 -1.34814e-14
  222 580.207 -4.95978e-10 2.43725e-14
  223 580.207 -4.96038e-10 -9.51485e-14
  224 580.207 -4.95129e-10 1.68067e-14
  225 580.207 -4.95675e-10 7.16608e-14
  226 580.207 -4.96038e-10 8.99578e-14
  227 580.207 -4.95675e-10 2.10858e-13
  228 580.207 -4.95675e-10 -2.28613e-13
  229 580.207 -4.94765e-10 1.61866e-13
  230 580.207 -4.96129e-10 3.49591e-13
  231 580.207 -4.94947e-10 1.81039e-13
  232 580.207 -4.95129e-10 -1.08847e-13
  233 580.207 -4.96220e-10 8.37041e-14
  234 580.207 -4.95371e-10 -1.76020e-13
  235 580.207 -4.95675e-10 -5.59301e-13
  236 580.207 -4.95675e-10 -2.02239e-13
  237 580.207 -4.95675e-10 -3.87319e-13
  238 580.207 -4.95129e-10 1.23025e-13
  239 580.207 -4.95826e-10 2.71562e-14
  240 580.207 -4.95311e-10 1.53777e-13
  241 580.207 -4.95675e-10 2.80112e-14
</Section>

newXOutput 34

<Section columns = "stress_xx | stress_yy | stress_xy">
  1 597.095 -4.92946e-10 3.79424e-14
  2 597.095 -4.92491e-10 4.50032e-13
  3 597.095 -4.95675e-10 9.75067e-14
  4 597.095 -4.92946e-10 4.47302e-14
  5 597.095 -4.92946e-10 1.33280e-14
  6 597.095 -4.92946e-10 2.04165e-15
  7 597.095 -4.92946e-10 7.69056e-14
  8 597.095 -4.92946e-10 2.25727e-14
  9 597.095 -4.92946e-10 1.31919e-13
  10 597.095 -4.92946e-10 -5.87564e-14
  11 597.095 -4.92946e-10 -2.67921e-13
  12 597.095 -4.92643e-10 -3.71823e-13
  13 597.095 -4.92264e-10 -1.34840e-13
  14 597.095 -4.93552e-10 -3.00022e-13
  15 597.095 -4.92719e-10 -2.64788e-13
  16 597.095 -4.93856e-10 -1.62658e-13
  17 597.095 -4.93249e-10 -7.21074e-13
  18 597.095 -4.93552e-10 3.07393e-14
  19 597.095 -4.92946e-10 -2.89133e-13
  20 597.095 -4.92643e-10 6.19894e-13
  21 597.095 -4.93552e-10 6.54150e-13
  22 597.095 -4.93552e-10 -4.31941e-13
  23 597.095 -4.92946e-10 -6.22738e-14
  24 597.095 -4.92340e-10 -3.14428e-13
  25 597.095 -4.92491e-10 -3.41481e-13
  26 597.095 -4.92719e-10 3.43853e-14
  27 597.095 -4.92946e-10 1.13827e-13
  28 597.095 -4.92946e-10 3.69672e-13
  29 597.095 -4.92946e-10 1.89712e-13
  30 597.095 -4.93552e-10 6.56087e-14
  31 597.095 -4.94159e-10 6.45381e-13
  32 597.095 -4.93401e-10 7.96315e-13
  33 597.095 -4.93174e-10 -4.29199e-14
  34 597.095 -4.92946e-10 -2.47096e-13
  35 597.095 -4.94310e-10 6.51971e-14
  36 597.095 -4.93856e-10 3.44947e-13
  37 597.095 -4.93249e-10 5.46151e-13
  38 597.095 -4.92946e-10 2.87823e-13
  39 597.095 -4.92643e-10 1.18248e-13
  40 597.095 -4.92643e-10 2.57375e-14
  41 597.095 -4.92643e-10 1.28748e-13
  42 597.095 -4.92643e-10 -5.69550e-14
  43 597.095 -4.92037e-10 -2.07471e-13
  44 597.095 -4.92643e-10 -2.43477e-13
  45 597.095 -4.92946e-10 -6.51737e-14
  46 597.095 -4.92946e-10 -2.03399e-13
  47 597.095 -4.92946e-10 -9.22107e-14
  48 597.095 -4.92643e-10 4.12310e-14
  49 597.095 -4.92946e-10 1.46981e-13
  50 597.095 -4.92946e-10 -2.25727e-14
  51 597.095 -4.92491e-10 -1.23313e-13
  52 597.095 -4.92719e-10 1.77031e-14
  53 597.095 -4.92946e-10 -2.32533e-14
  54 597.095 -4.92946e-10 -6.74200e-14
  55 597.095 -4.92946e-10 0.00000
  56 597.095 -4.92946e-10 9.24471e-15
  57 597.095 -4.92946e-10 2.85562e-14
  58 597.095 -4.92643e-10 -3.14199e-14
  59 597.095 -4.92946e-10 -3.09359e-14
  60 597.095 -4.92795e-10 7.23054e-14
  61 597.095 -4.92643e-10 -1.21313e-13
  62 597.095 -4.92643e-10 -4.19602e-14
  63 597.095 -4.93128e-10 -6.23411e-14
  64 597.095 -4.92946e-10 4.41044e-13
  65 597.095 -4.93098e-10 -1.01534e-13
  66 597.095 -4.92946e-10 -1.61209e-14
  67 597.095 -4.93856e-10 3.24023e-13
  68 597.095 -4.93552e-10 -1.83069e-13
  69 597.095 -4.93726e-10 1.49070e-13
  70 597.095 -4.92491e-10 7.95268e-14
  71 597.095 -4.92946e-10 -1.00630e-13
  72 597.095 -4.92946e-10 6.23612e-14
  73 597.095 -4.93466e-10 -2.66629e-13
  74 597.095 -4.92582e-10 -1.32446e-13
  75 597.095 -4.93310e-10 1.13384e-13
  76 597.095 -4.93552e-10 2.03281e-13
  77 597.095 -4.92643e-10 6.60943e-14
  78 597.095 -4.93401e-10 -8.31521e-14
  79 597.095 -4.92946e-10 1.34931e-13
  80 597.095 -4.93098e-10 -1.46681e-14
  81 597.095 -4.92795e-10 -2.20451e-13
  82 597.095 -4.92795e-10 -1.64255e-13
  83 597.095 -4.92946e-10 7.79943e-16
  84 597.095 -4.92491e-10 -1.43488e-14
  85 597.095 -4.93856e-10 2.64519e-13
  86 597.095 -4.93552e-10 2.24043e-15
  87 597.095 -4.92795e-10 3.82559e-14
  88 597.095 -4.92946e-10 -4.78371e-13
  89 597.095 -4.92764e-10 -5.34933e-14
  90 597.095 -4.92946e-10 1.80368e-13
  91 597.095 -4.92946e-10 1.22534e-13
  92 597.095 -4.92946e-10 3.74148e-14
  93 597.095 -4.93492e-10 -6.30812e-13
  94 597.095 -4.92582e-10 -1.53560e-13
  95 597.095 -4.92764e-10 2.45433e-14
  96 597.095 -4.94007e-10 5.73532e-14
  97 597.095 -4.93856e-10 -3.57815e-13
  98 597.095 -4.92400e-10 -1.61634e-14
  99 597.095 -4.94007e-10 5.73953e-14
  100 597.095 -4.92946e-10 3.80616e-14
  101 597.095 -4.92946e-10 1.25354e-13
  102 597.095 -4.93128e-10 5.68195e-14
  103 597.095 -4.92643e-10 3.20212e-13
  104 597.095 -4.92582e-10 2.43987e-14
  105 597.095 -4.92400e-10 1.45989e-13
  106 597.095 -4.93856e-10 -7.54451e-14
  107 597.095 -4.93098e-10 2.90363e-13
  108 597.095 -4.92946e-10 7.31535e-14
  109 597.095 -4.92946e-10 -3.91674e-14
  110 597.095 -4.92764e-10 1.90554e-13
  111 597.095 -4.93628e-10 -1.30005e-13
  112 597.095 -4.92946e-10 2.13494e-13
  113 597.095 -4.92426e-10 2.66377e-15
  114 597.095 -4.94115e-10 2.98074e-13
  115 597.095 -4.92946e-10 -7.64109e-14
  116 597.095 -4.92946e-10 -3.91674e-14
  117 597.095 -4.93249e-10 -8.82609e-15
  118 597.095 -4.92491e-10 -1.14780e-13
  119 597.095 -4.93076e-10 -1.95339e-13
  120 597.095 -4.93401e-10 2.32494e-13
  121 597.095 -4.92946e-10 -1.56957e-14
  122 597.095 -4.92946e-10 -6.77542e-15
  123 597.095 -4.93249e-10 5.53759e-14
  124 597.095 -4.92426e-10 -2.21997e-13
  125 597.095 -4.92946e-10 1.98074e-14
  126 597.095 -4.92832e-10 -2.76245e-14
  127 597.095 -4.92946e-10 1.12095e-13
  128 597.095 -4.93060e-10 -1.42645e-13
  129 597.095 -4.92832e-10 -1.34241e-14
  130 597.095 -4.92946e-10 -1.96307e-14
  131 597.095 -4.92491e-10 -1.20887e-13
  132 597.095 -4.92946e-10 1.46054e-13
  133 597.095 -4.93596e-10 6.41200e-14
  134 597.095 -4.92816e-10 1.08226e-14
  135 597.095 -4.94245e-10 -1.19320e-13
  136 597.095 -4.92556e-10 -3.10539e-14
  137 597.095 -4.92556e-10 -2.20115e-13
  138 597.095 -4.92946e-10 3.83861e-13
  139 597.095 -4.92816e-10 2.80922e-14
  140 597.095 -4.93336e-10 1.82492e-13
  141 597.095 -4.92946e-10 -6.86817e-14
  142 597.095 -4.92946e-10 5.23906e-14
  143 597.095 -4.92426e-10 -2.57827e-14
  144 597.095 -4.92400e-10 -2.30850e-13
  145 597.095 -4.93310e-10 -1.61068e-13
  146 597.095 -4.92686e-10 -9.59981e-14
  147 597.095 -4.92491e-10 7.69090e-14
  148 597.095 -4.92795e-10 -1.80077e-15
  149 597.095 -4.93249e-10 1.34379e-13
  150 597.095 -4.92946e-10 -1.22191e-13
  151 597.095 -4.92795e-10 4.49467e-14
  152 597.095 -4.93552e-10 -7.97482e-14
  153 597.095 -4.93552e-10 1.34861e-13
  154 597.095 -4.92946e-10 -1.23313e-13
  155 597.095 -4.92795e-10 7.48721e-15
  156 597.095 -4.92946e-10 5.83328e-16
  157 597.095 -4.93076e-10 2.50781e-14
  158 597.095 -4.93401e-10 -3.76126e-13
  159 597.095 -4.93552e-10 1.94497e-13
  160 597.095 -4.92946e-10 1.55895e-13
  161 597.095 -4.93128e-10 -1.73884e-14
  162 597.095 -4.92946e-10 1.19315e-14
  163 597.095 -4.92946e-10 -9.51179e-14
  164 597.095 -4.92686e-10 -4.17739e-13
  165 597.095 -4.92643e-10 1.04472e-13
  166 597.095 -4.92816e-10 -2.74314e-14
  167 597.095 -4.92556e-10 -3.19571e-13
  168 597.095 -4.92686e-10 1.16800e-13
  169 597.095 -4.92946e-10 -6.83130e-14
  170 597.095 -4.93492e-10 4.28423e-14
  171 597.095 -4.92946e-10 -8.62864e-15
  172 597.095 -4.93552e-10 -5.28724e-14
  173 597.095 -4.92946e-10 -8.55154e-14
  174 597.095 -4.92795e-10 1.09828e-13
  175 597.095 -4.92946e-10 6.89203e-14
  176 597.095 -4.92795e-10 8.90444e-15
  177 597.095 -4.93704e-10 -1.85005e-13
  178 597.095 -4.92795e-10 -5.93165e-14
  179 597.095 -4.92946e-10 1.99071e-14
  180 597.095 -4.92946e-10 -3.20600e-14
  181 597.095 -4.92795e-10 -4.16433e-14
  182 597.095 -4.93310e-10 4.34852e-13
  183 597.095 -4.92643e-10 9.05844e-14
  184 597.095 -4.94219e-10 1.25499e-13
  185 597.095 -4.92643e-10 8.79864e-14
  186 597.095 -4.93856e-10 -1.49489e-13
  187 597.095 -4.93249e-10 -1.18854e-13
  188 597.095 -4.92946e-10 -1.68636e-14
  189 597.095 -4.92946e-10 -8.56847e-14
  190 597.095 -4.92686e-10 -1.35794e-14
  191 597.095 -4.92795e-10 -1.00457e-14
  192 597.095 -4.93466e-10 -2.29234e-13
  193 597.095 -4.94583e-10 2.13593e-13
  194 597.095 -4.93401e-10 2.55331e-13
  195 597.095 -4.92946e-10 1.79891e-14
  196 597.095 -4.93856e-10 5.86822e-14
  197 597.095 -4.92946e-10 -6.91921e-14
  198 597.095 -4.93249e-10 -7.50054e-14
  199 597.095 -4.92643e-10 5.44322e-14
  200 597.095 -4.93552e-10 1.46226e-13
  201 597.095 -4.92946e-10 1.95353e-13
  202 597.095 -4.92582e-10 -2.25833e-13
  203 597.095 -4.92643e-10 1.65579e-13
  204 597.095 -4.94007e-10 4.45947e-14
  205 597.095 -4.92946e-10 -2.03323e-14
  206 597.095 -4.92946e-10 3.35049e-13
  207 597.095 -4.92946e-10 -1.03042e-13
  208 597.095 -4.92946e-10 5.60096e-14
  209 597.095 -4.93704e-10 8.54697e-14
  210 597.095 -4.92491e-10 1.66619e-14
  211 597.095 -4.92816e-10 1.65527e-14
  212 597.095 -4.94219e-10 6.88744e-14
  213 597.095 -4.92764e-10 8.23724e-14
  214 597.095 -4.92643e-10 2.91650e-14
  215 597.095 -4.91673e-10 3.96943e-14
  216 597.095 -4.92582e-10 -3.83146e-14
  217 597.095 -4.93704e-10 7.25031e-14
  218 597.095 -4.92643e-10 -2.48371e-14
  219 597.095 -4.92946e-10 -2.61206e-13
  220 597.095 -4.92795e-10 1.92597e-13
  221 597.095 -4.94007e-10 6.80549e-15
  222 597.095 -4.93401e-10 -4.03725e-13
  223 597.095 -4.92946e-10 2.28019e-15
  224 597.095 -4.92946e-10 -1.10572e-15
  225 597.095 -4.92764e-10 -3.42531e-13
  226 597.095 -4.92946e-10 -1.07358e-14
  227 597.095 -4.94462e-10 -8.12870e-14
  228 597.095 -4.93128e-10 1.40148e-13
  229 597.095 -4.92643e-10 4.26001e-14
  230 597.095 -4.93704e-10 2.07563e-13
  231 597.095 -4.93856e-10 2.09789e-13
  232 597.095 -4.92946e-10 -3.65981e-14
  233 597.095 -4.92219e-10 -1.15222e-13
  234 597.095 -4.92795e-10 1.07220e-13
  235 597.095 -4.92764e-10 2.72466e-14
  236 597.095 -4.92816e-10 -1.13541e-13
  237 597.095 -4.92946e-10 -2.58100e-14
  238 597.095 -4.92946e-10 -2.41248e-13
  239 597.095 -4.92795e-10 2.33963e-13
  240 597.095 -4.92582e-10 -1.08689e-13
  241 597.095 -4.93856e-10 1.82509e-13
</Section>

newXOutput 35

<Section columns = "stress_xx | stress_yy | stress_xy">
  1 613.912 -4.92037e-10 3.57396e-14
  2 613.912 -4.92037e-10 1.13514e-13
  3 613.912 -4.92037e-10 -6.81170e-14
  4 613.912 -4.91582e-10 -8.77361e-14
  5 613.912 -4.92037e-10 -5.60457e-14
  6 613.912 -4.92037e-10 -7.98722e-14
  7 613.912 -4.92037e-10 -4.41325e-14
  8 613.912 -4.92037e-10 4.48552e-14
  9 613.912 -4.92037e-10 2.10195e-13
  10 613.912 -4.92037e-10 1.82172e-13
  11 613.912 -4.92037e-10 -1.39882e-15
  12 613.912 -4.92037e-10 2.02478e-13
  13 613.912 -4.92037e-10 2.23845e-13
  14 613.912 -4.92037e-10 1.51351e-13
  15 613.912 -4.92037e-10 2.03877e-13
  16 613.912 -4.92037e-10 2.99859e-13
  17 613.912 -4.92037e-10 1.11905e-14
  18 613.912 -4.92037e-10 8.12710e-14
  19 613.912 -4.92037e-10 -1.06496e-13
  20 613.912 -4.92037e-10 1.06496e-13
  21 613.912 -4.92037e-10 -5.01661e-13
  22 613.912 -4.92037e-10 -3.08298e-13
  23 613.912 -4.92037e-10 -1.42912e-13
  24 613.912 -4.92037e-10 2.52252e-14
  25 613.912 -4.92037e-10 -3.78379e-14
  26 613.912 -4.92037e-10 7.56757e-14
  27 613.912 -4.92037e-10 -1.26126e-14
  28 613.912 -4.92037e-10 2.36487e-14
  29 613.912 -4.92037e-10 5.67568e-14
  30 613.912 -4.92037e-10 -3.01095e-14
  31 613.912 -4.92037e-10 1.31107e-13
  32 613.912 -4.92037e-10 2.45627e-13
  33 613.912 -4.92037e-10 2.16355e-13
  34 613.912 -4.91733e-10 3.03358e-13
  35 613.912 -4.91355e-10 2.05742e-13
  36 613.912 -4.92037e-10 1.68292e-13
  37 613.912 -4.91733e-10 -2.28598e-13
  38 613.912 -4.92037e-10 -2.49839e-13
  39 613.912 -4.91733e-10 2.93309e-13
  40 613.912 -4.92037e-10 4.64625e-13
  41 613.912 -4.92037e-10 4.11401e-13
  42 613.912 -4.92037e-10 2.72144e-13
  43 613.912 -4.92037e-10 -3.78527e-15
  44 613.912 -4.92037e-10 2.30005e-14
  45 613.912 -4.91733e-10 1.66538e-14
  46 613.912 -4.92037e-10 -1.05064e-13
  47 613.912 -4.92037e-10 -1.71711e-13
  48 613.912 -4.92037e-10 -1.18833e-13
  49 613.912 -4.91430e-10 -3.18389e-13
  50 613.912 -4.92037e-10 2.48755e-14
  51 613.912 -4.92037e-10 -1.89189e-14
  52 613.912 -4.92037e-10 1.88523e-14
  53 613.912 -4.92037e-10 1.40114e-14
  54 613.912 -4.92037e-10 2.36487e-14
  55 613.912 -4.92037e-10 7.56757e-14
  56 613.912 -4.92037e-10 2.52311e-14
  57 613.912 -4.92037e-10 -5.24556e-15
  58 613.912 -4.91885e-10 1.13840e-13
  59 613.912 -4.92037e-10 -1.13054e-13
  60 613.912 -4.92037e-10 1.23081e-13
  61 613.912 -4.92037e-10 6.30631e-15
  62 613.912 -4.92037e-10 -7.11952e-14
  63 613.912 -4.92037e-10 3.02675e-13
  64 613.912 -4.91885e-10 -1.95140e-13
  65 613.912 -4.92037e-10 -8.99392e-14
  66 613.912 -4.92037e-10 9.06517e-14
  67 613.912 -4.92037e-10 -1.29256e-13
  68 613.912 -4.91885e-10 -3.32801e-14
  69 613.912 -4.91907e-10 -2.48620e-13
  70 613.912 -4.92037e-10 -8.79239e-14
  71 613.912 -4.92037e-10 -4.32554e-14
  72 613.912 -4.92037e-10 -8.28565e-14
  73 613.912 -4.91647e-10 -1.32270e-13
  74 613.912 -4.92037e-10 -6.00119e-14
  75 613.912 -4.92037e-10 -2.49926e-13
  76 613.912 -4.91430e-10 4.48412e-13
  77 613.912 -4.92037e-10 5.44779e-14
  78 613.912 -4.91885e-10 -3.39907e-13
  79 613.912 -4.92037e-10 2.94200e-14
  80 613.912 -4.92037e-10 4.72973e-15
  81 613.912 -4.92037e-10 1.02988e-13
  82 613.912 -4.91885e-10 -2.24400e-14
  83 613.912 -4.92037e-10 1.37684e-13
  84 613.912 -4.92037e-10 5.32539e-14
  85 613.912 -4.92037e-10 5.67335e-14
  86 613.912 -4.91582e-10 7.98722e-14
  87 613.912 -4.91733e-10 7.53900e-15
  88 613.912 -4.92037e-10 -5.12765e-13
  89 613.912 -4.92037e-10 -1.44917e-14
  90 613.912 -4.92037e-10 1.79363e-13
  91 613.912 -4.91855e-10 -3.60387e-14
  92 613.912 -4.91855e-10 6.89544e-14
  93 613.912 -4.92037e-10 -1.95064e-13
  94 613.912 -4.92037e-10 9.67925e-14
  95 613.912 -4.92037e-10 1.96323e-13
  96 613.912 -4.91733e-10 1.34875e-13
  97 613.912 -4.91855e-10 2.64837e-13
  98 613.912 -4.92037e-10 -8.37486e-14
  99 613.912 -4.91885e-10 -2.31154e-14
  100 613.912 -4.92037e-10 1.52610e-13
  101 613.912 -4.92037e-10 1.02644e-13
  102 613.912 -4.92037e-10 -5.17141e-14
  103 613.912 -4.92037e-10 -7.70803e-14
  104 613.912 -4.92037e-10 3.19558e-14
  105 613.912 -4.92037e-10 1.42397e-13
  106 613.912 -4.92037e-10 -2.01956e-13
  107 613.912 -4.92037e-10 1.19820e-13
  108 613.912 -4.92037e-10 7.21284e-14
  109 613.912 -4.91855e-10 8.02988e-14
  110 613.912 -4.92037e-10 -8.23900e-14
  111 613.912 -4.91923e-10 -7.12111e-14
  112 613.912 -4.92037e-10 -1.20733e-13
  113 613.912 -4.91777e-10 -5.02273e-14
  114 613.912 -4.91907e-10 -1.79884e-13
  115 613.912 -4.92037e-10 1.02803e-13
  116 613.912 -4.92037e-10 5.17141e-14
  117 613.912 -4.91733e-10 6.84806e-14
  118 613.912 -4.92037e-10 -5.18531e-14
  119 613.912 -4.91907e-10 -5.85602e-14
  120 613.912 -4.91582e-10 -2.80181e-13
  121 613.912 -4.92037e-10 1.50871e-15
  122 613.912 -4.92037e-10 1.26108e-13
  123 613.912 -4.92037e-10 -1.50509e-13
  124 613.912 -4.92037e-10 2.17783e-13
  125 613.912 -4.92037e-10 -1.41552e-13
  126 613.912 -4.92037e-10 5.84681e-14
  127 613.912 -4.92037e-10 -1.17250e-14
  128 613.912 -4.91696e-10 -8.41035e-15
  129 613.912 -4.91923e-10 -7.28752e-15
  130 613.912 -4.92037e-10 -1.19103e-13
  131 613.912 -4.92037e-10 2.17038e-13
  132 613.912 -4.92037e-10 5.59829e-14
  133 613.912 -4.92037e-10 -2.10321e-14
  134 613.912 -4.92037e-10 -2.76166e-14
  135 613.912 -4.92037e-10 1.29100e-13
  136 613.912 -4.91907e-10 -4.35823e-14
  137 613.912 -4.91907e-10 1.52090e-13
  138 613.912 -4.92037e-10 -5.41340e-14
  139 613.912 -4.92037e-10 -4.00035e-14
  140 613.912 -4.91777e-10 1.38133e-14
  141 613.912 -4.92037e-10 7.88230e-14
  142 613.912 -4.92037e-10 3.08986e-13
  143 613.912 -4.92037e-10 -2.10072e-14
  144 613.912 -4.91855e-10 1.24518e-13
  145 613.912 -4.92037e-10 -1.40943e-13
  146 613.912 -4.91907e-10 2.20080e-14
  147 613.912 -4.91885e-10 2.79661e-13
  148 613.912 -4.92037e-10 7.95225e-14
  149 613.912 -4.91733e-10 1.44334e-13
  150 613.912 -4.92037e-10 1.99552e-14
  151 613.912 -4.92037e-10 2.55749e-14
  152 613.912 -4.92037e-10 -8.37305e-14
  153 613.912 -4.92037e-10 -1.06141e-13
  154 613.912 -4.92037e-10 -1.33471e-13
  155 613.912 -4.92037e-10 1.21849e-13
  156 613.912 -4.91907e-10 5.39543e-15
  157 613.912 -4.92037e-10 4.59510e-14
  158 613.912 -4.91733e-10 1.03521e-13
  159 613.912 -4.91885e-10 2.90932e-13
  160 613.912 -4.92037e-10 7.23046e-14
  161 613.912 -4.91855e-10 8.70271e-14
  162 613.912 -4.92037e-10 1.16661e-13
  163 613.912 -4.91885e-10 2.24276e-14
  164 613.912 -4.92037e-10 -5.96781e-14
  165 613.912 -4.92037e-10 1.52441e-14
  166 613.912 -4.92037e-10 -2.19520e-14
  167 613.912 -4.91907e-10 -7.44568e-14
  168 613.912 -4.92037e-10 -1.26855e-13
  169 613.912 -4.92037e-10 2.71844e-14
  170 613.912 -4.91855e-10 1.42077e-13
  171 613.912 -4.92037e-10 1.55238e-13
  172 613.912 -4.91885e-10 -2.79763e-15
  173 613.912 -4.91885e-10 1.61957e-13
  174 613.912 -4.91885e-10 -1.44311e-13
  175 613.912 -4.91582e-10 -2.50344e-14
  176 613.912 -4.92037e-10 -4.19354e-15
  177 613.912 -4.92037e-10 -3.69862e-13
  178 613.912 -4.92037e-10 1.92745e-14
  179 613.912 -4.92037e-10 8.11451e-14
  180 613.912 -4.92037e-10 -3.09138e-14
  181 613.912 -4.92037e-10 -1.83399e-13
  182 613.912 -4.91855e-10 -1.09073e-13
  183 613.912 -4.91885e-10 -4.93008e-14
  184 613.912 -4.92037e-10 7.22906e-14
  185 613.912 -4.92037e-10 7.26974e-14
  186 613.912 -4.92037e-10 -7.06120e-14
  187 613.912 -4.92037e-10 -1.70353e-13
  188 613.912 -4.92037e-10 -2.92400e-14
  189 613.912 -4.92037e-10 -2.89974e-14
  190 613.912 -4.92037e-10 4.48993e-14
  191 613.912 -4.92037e-10 1.05453e-13
  192 613.912 -4.92037e-10 1.98132e-14
  193 613.912 -4.91855e-10 6.74023e-14
  194 613.912 -4.91733e-10 -1.21906e-13
  195 613.912 -4.92037e-10 -2.01313e-14
  196 613.912 -4.92037e-10 -1.33907e-13
  197 613.912 -4.91885e-10 7.34026e-14
  198 613.912 -4.92037e-10 1.75155e-13
  199 613.912 -4.91885e-10 6.16701e-14
  200 613.912 -4.91885e-10 -1.39432e-13
  201 613.912 -4.92037e-10 -2.53856e-13
  202 613.912 -4.92037e-10 1.61423e-13
  203 613.912 -4.92037e-10 1.01938e-13
  204 613.912 -4.92037e-10 -7.02349e-14
  205 613.912 -4.92037e-10 1.01251e-13
  206 613.912 -4.92037e-10 7.73543e-14
  207 613.912 -4.92037e-10 -1.10625e-13
  208 613.912 -4.91673e-10 -2.08309e-13
  209 613.912 -4.91885e-10 1.33808e-13
  210 613.912 -4.92037e-10 -1.26195e-13
  211 613.912 -4.92037e-10 -4.80392e-14
  212 613.912 -4.91855e-10 1.68137e-14
  213 613.912 -4.91491e-10 -4.77952e-14
  214 613.912 -4.92037e-10 1.36002e-14
  215 613.912 -4.91855e-10 3.92535e-13
  216 613.912 -4.92037e-10 -9.15330e-14
  217 613.912 -4.91430e-10 -3.01459e-13
  218 613.912 -4.92037e-10 -9.82675e-14
  219 613.912 -4.92037e-10 7.18710e-14
  220 613.912 -4.92037e-10 -4.37828e-14
  221 613.912 -4.92037e-10 -2.24028e-13
  222 613.912 -4.92037e-10 2.74295e-13
  223 613.912 -4.92037e-10 1.71522e-13
  224 613.912 -4.92037e-10 1.12674e-13
  225 613.912 -4.91855e-10 1.09822e-13
  226 613.912 -4.92037e-10 6.76885e-14
  227 613.912 -4.91885e-10 -2.80229e-14
  228 613.912 -4.92037e-10 5.87503e-15
  229 613.912 -4.91885e-10 1.56512e-13
  230 613.912 -4.91733e-10 1.68160e-13
  231 613.912 -4.92037e-10 2.90897e-13
  232 613.912 -4.91855e-10 1.68207e-14
  233 613.912 -4.92037e-10 3.37967e-13
  234 613.912 -4.92037e-10 -8.85433e-14
  235 613.912 -4.92037e-10 3.82365e-13
  236 613.912 -4.92037e-10 1.81745e-14
  237 613.912 -4.91855e-10 1.28454e-13
  238 613.912 -4.92037e-10 7.86062e-14
  239 613.912 -4.92037e-10 6.27018e-14
  240 613.912 -4.92037e-10 2.65257e-13
  241 613.912 -4.92037e-10 8.05599e-14
</Section>

newXOutput 36

<Section columns = "stress_xx | stress_yy | stress_xy">
  1 630.659 -4.88399e-10 1.77896e-14
  2 630.659 -4.89308e-10 3.19106e-13
  3 630.659 -4.89308e-10 2.82339e-13
  4 630.659 -4.88399e-10 2.69009e-14
  5 630.659 -4.88399e-10 -1.76051e-14
  6 630.659 -4.88853e-10 -1.59553e-13
  7 630.659 -4.88171e-10 -2.52810e-13
  8 630.659 -4.88399e-10 -1.35834e-13
  9 630.659 -4.89005e-10 1.06369e-13
  10 630.659 -4.89005e-10 5.56999e-13
  11 630.659 -4.89005e-10 5.55563e-13
  12 630.659 -4.88095e-10 1.47693e-13
  13 630.659 -4.89308e-10 -1.64939e-13
  14 630.659 -4.89005e-10 1.76091e-13
  15 630.659 -4.88626e-10 2.68445e-13
  16 630.659 -4.88702e-10 8.91326e-14
  17 630.659 -4.89308e-10 -7.56071e-13
  18 630.659 -4.89005e-10 -6.80604e-13
  19 630.659 -4.89005e-10 -4.56376e-13
  20 630.659 -4.88702e-10 7.69737e-13
  21 630.659 -4.89005e-10 5.51254e-13
  22 630.659 -4.89914e-10 2.88205e-13
  23 630.659 -4.89914e-10 1.31525e-13
  24 630.659 -4.89308e-10 2.26402e-13
  25 630.659 -4.88853e-10 3.77337e-13
  26 630.659 -4.88626e-10 -5.02531e-14
  27 630.659 -4.89005e-10 1.00623e-13
  28 630.659 -4.88853e-10 -2.76656e-13
  29 630.659 -4.88399e-10 -3.77337e-14
  30 630.659 -4.89005e-10 -1.10057e-13
  31 630.659 -4.89005e-10 5.13003e-13
  32 630.659 -4.88853e-10 -5.41087e-14
  33 630.659 -4.88853e-10 -3.82260e-13
  34 630.659 -4.89005e-10 -9.69821e-13
  35 630.659 -4.89081e-10 -3.58851e-13
  36 630.659 -4.88399e-10 -1.10707e-13
  37 630.659 -4.88702e-10 -3.61595e-13
  38 630.659 -4.88702e-10 -2.37148e-13
  39 630.659 -4.89308e-10 -1.04484e-13
  40 630.659 -4.89611e-10 -4.85330e-14
  41 630.659 -4.89914e-10 2.95653e-13
  42 630.659 -4.89308e-10 3.15582e-13
  43 630.659 -4.89005e-10 5.23350e-14
  44 630.659 -4.88399e-10 -2.97158e-13
  45 630.659 -4.88702e-10 -2.69240e-13
  46 630.659 -4.88702e-10 -7.25914e-14
  47 630.659 -4.88399e-10 -3.48327e-14
  48 630.659 -4.89005e-10 -1.43096e-13
  49 630.659 -4.88702e-10 5.72253e-14
  50 630.659 -4.88399e-10 1.50042e-14
  51 630.659 -4.88399e-10 -2.83990e-29
  52 630.659 -4.88399e-10 3.16340e-14
  53 630.659 -4.88399e-10 0.00000
  54 630.659 -4.88399e-10 -6.11135e-14
  55 630.659 -4.88399e-10 0.00000
  56 630.659 -4.88399e-10 5.51643e-14
  57 630.659 -4.88853e-10 2.56022e-14
  58 630.659 -4.88702e-10 1.63057e-13
  59 630.659 -4.89438e-10 2.74372e-13
  60 630.659 -4.89460e-10 2.84847e-13
  61 630.659 -4.89005e-10 -4.37694e-13
  62 630.659 -4.88853e-10 2.73885e-13
  63 630.659 -4.89126e-10 3.25908e-13
  64 630.659 -4.89157e-10 -9.89969e-16
  65 630.659 -4.88247e-10 -1.05831e-13
  66 630.659 -4.88853e-10 2.71133e-13
  67 630.659 -4.89460e-10 1.86825e-13
  68 630.659 -4.89005e-10 -1.41977e-13
  69 630.659 -4.89048e-10 1.92513e-13
  70 630.659 -4.89081e-10 -2.05825e-13
  71 630.659 -4.88853e-10 1.24809e-13
  72 630.659 -4.89048e-10 1.24837e-13
  73 630.659 -4.88269e-10 -1.80915e-13
  74 630.659 -4.88399e-10 -1.46061e-13
  75 630.659 -4.89126e-10 9.92897e-14
  76 630.659 -4.89308e-10 -3.31529e-14
  77 630.659 -4.88550e-10 -5.08503e-14
  78 630.659 -4.88550e-10 3.45592e-13
  79 630.659 -4.88659e-10 -1.52584e-13
  80 630.659 -4.89308e-10 2.27839e-13
  81 630.659 -4.88550e-10 -4.12625e-13
  82 630.659 -4.88853e-10 -1.80231e-13
  83 630.659 -4.89308e-10 1.36600e-13
  84 630.659 -4.88550e-10 -1.63533e-14
  85 630.659 -4.89308e-10 -5.30871e-14
  86 630.659 -4.89157e-10 -1.54506e-14
  87 630.659 -4.88399e-10 -3.45431e-14
  88 630.659 -4.88944e-10 -8.44844e-14
  89 630.659 -4.88762e-10 4.29105e-14
  90 630.659 -4.88853e-10 2.13189e-13
  91 630.659 -4.88944e-10 1.42223e-13
  92 630.659 -4.88581e-10 -7.29315e-14
  93 630.659 -4.89126e-10 -1.03488e-13
  94 630.659 -4.89126e-10 -1.48978e-13
  95 630.659 -4.89308e-10 2.13300e-14
  96 630.659 -4.88853e-10 -3.14088e-13
  97 630.659 -4.88762e-10 -2.25098e-13
  98 630.659 -4.88762e-10 -7.80121e-14
  99 630.659 -4.89157e-10 -7.90970e-14
  100 630.659 -4.89126e-10 3.49724e-13
  101 630.659 -4.89157e-10 7.83402e-14
  102 630.659 -4.88944e-10 4.64812e-13
  103 630.659 -4.89308e-10 2.56121e-14
  104 630.659 -4.88944e-10 1.21819e-13
  105 630.659 -4.89126e-10 -5.88569e-14
  106 630.659 -4.89611e-10 -1.07261e-13
  107 630.659 -4.88853e-10 -3.53152e-13
  108 630.659 -4.88399e-10 2.80965e-14
  109 630.659 -4.88399e-10 -4.34985e-14
  110 630.659 -4.89126e-10 -1.16975e-13
  111 630.659 -4.88740e-10 1.94110e-14
  112 630.659 -4.89157e-10 -1.83335e-13
  113 630.659 -4.88918e-10 -3.68826e-13
  114 630.659 -4.89048e-10 -1.03508e-13
  115 630.659 -4.89005e-10 5.73499e-14
  116 630.659 -4.88399e-10 -1.71199e-13
  117 630.659 -4.88550e-10 -7.32157e-14
  118 630.659 -4.88095e-10 -3.19873e-13
  119 630.659 -4.88788e-10 -2.17260e-13
  120 630.659 -4.89005e-10 2.64146e-13
  121 630.659 -4.88918e-10 -6.09887e-14
  122 630.659 -4.89568e-10 8.32498e-14
  123 630.659 -4.89157e-10 1.75916e-13
  124 630.659 -4.88788e-10 -3.38037e-13
  125 630.659 -4.88853e-10 1.51883e-13
  126 630.659 -4.88399e-10 -1.24468e-14
  127 630.659 -4.88918e-10 2.39762e-13
  128 630.659 -4.88626e-10 -4.52745e-14
  129 630.659 -4.88853e-10 -9.41247e-14
  130 630.659 -4.88853e-10 9.99974e-14
  131 630.659 -4.89308e-10 -2.95879e-13
  132 630.659 -4.89422e-10 -6.14834e-14
  133 630.659 -4.89438e-10 -3.30802e-13
  134 630.659 -4.88918e-10 -2.22542e-13
  135 630.659 -4.89178e-10 1.61716e-14
  136 630.659 -4.88659e-10 -3.58530e-14
  137 630.659 -4.89178e-10 8.57432e-14
  138 630.659 -4.89005e-10 -6.67472e-14
  139 630.659 -4.88659e-10 1.75417e-13
  140 630.659 -4.89308e-10 8.98672e-14
  141 630.659 -4.88853e-10 -4.31686e-14
  142 630.659 -4.88550e-10 1.92434e-13
  143 630.659 -4.88659e-10 -1.25442e-13
  144 630.659 -4.88944e-10 -2.27425e-13
  145 630.659 -4.88581e-10 -5.76787e-14
  146 630.659 -4.89048e-10 1.58458e-15
  147 630.659 -4.89157e-10 -2.19882e-13
  148 630.659 -4.88399e-10 -1.33097e-13
  149 630.659 -4.89005e-10 -1.44102e-13
  150 630.659 -4.89460e-10 1.05560e-13
  151 630.659 -4.88853e-10 -1.80662e-13
  152 630.659 -4.88702e-10 2.89418e-13
  153 630.659 -4.89308e-10 1.36436e-13
  154 630.659 -4.88944e-10 3.04665e-13
  155 630.659 -4.88853e-10 6.78781e-14
  156 630.659 -4.89178e-10 -2.84151e-13
  157 630.659 -4.88269e-10 -3.67708e-14
  158 630.659 -4.89005e-10 -5.14248e-13
  159 630.659 -4.89005e-10 -3.09779e-13
  160 630.659 -4.88399e-10 2.52257e-14
  161 630.659 -4.88762e-10 -1.64724e-13
  162 630.659 -4.89157e-10 9.04692e-14
  163 630.659 -4.89157e-10 2.36421e-14
  164 630.659 -4.88659e-10 -5.92457e-14
  165 630.659 -4.88853e-10 3.98203e-14
  166 630.659 -4.88399e-10 -8.64313e-15
  167 630.659 -4.88918e-10 1.97988e-14
  168 630.659 -4.89048e-10 2.29048e-13
  169 630.659 -4.88399e-10 3.03426e-14
  170 630.659 -4.88944e-10 2.37070e-13
  171 630.659 -4.88399e-10 2.95926e-13
  172 630.659 -4.89005e-10 -2.52800e-13
  173 630.659 -4.88702e-10 -1.99779e-13
  174 630.659 -4.89460e-10 2.60176e-13
  175 630.659 -4.88399e-10 5.64471e-14
  176 630.659 -4.88399e-10 1.10057e-13
  177 630.659 -4.89157e-10 3.22371e-16
  178 630.659 -4.88853e-10 1.13463e-13
  179 630.659 -4.88217e-10 -1.92547e-13
  180 630.659 -4.88918e-10 2.17693e-13
  181 630.659 -4.89005e-10 3.45475e-13
  182 630.659 -4.88762e-10 -4.18142e-13
  183 630.659 -4.89005e-10 1.11600e-13
  184 630.659 -4.89490e-10 -4.29488e-13
  185 630.659 -4.88550e-10 1.67458e-13
  186 630.659 -4.88944e-10 -9.09800e-14
  187 630.659 -4.88853e-10 -3.98052e-13
  188 630.659 -4.88944e-10 9.31837e-14
  189 630.659 -4.89308e-10 -3.50155e-13
  190 630.659 -4.88918e-10 -3.14061e-16
  191 630.659 -4.89157e-10 2.87302e-13
  192 630.659 -4.89178e-10 4.08516e-13
  193 630.659 -4.88762e-10 8.71781e-14
  194 630.659 -4.88853e-10 -2.32322e-13
  195 630.659 -4.88399e-10 -2.53559e-14
  196 630.659 -4.89308e-10 4.44145e-13
  197 630.659 -4.88853e-10 9.41548e-14
  198 630.659 -4.89005e-10 -4.55832e-13
  199 630.659 -4.88702e-10 -1.71592e-13
  200 630.659 -4.88853e-10 1.94870e-13
  201 630.659 -4.89308e-10 1.05792e-15
  202 630.659 -4.89308e-10 6.01645e-14
  203 630.659 -4.89005e-10 -2.54965e-13
  204 630.659 -4.89460e-10 -3.27306e-14
  205 630.659 -4.89157e-10 1.08703e-13
  206 630.659 -4.88217e-10 1.61929e-13
  207 630.659 -4.88399e-10 1.47812e-13
  208 630.659 -4.88944e-10 -1.70413e-13
  209 630.659 -4.89157e-10 -8.24746e-14
  210 630.659 -4.88853e-10 -1.82822e-13
  211 630.659 -4.88788e-10 -8.34700e-14
  212 630.659 -4.89672e-10 3.79480e-13
  213 630.659 -4.88762e-10 -4.60957e-14
  214 630.659 -4.89308e-10 1.13757e-13
  215 630.659 -4.89126e-10 -6.32592e-14
  216 630.659 -4.88762e-10 1.95953e-13
  217 630.659 -4.89005e-10 1.54972e-13
  218 630.659 -4.88550e-10 -2.32640e-13
  219 630.659 -4.88762e-10 -3.53459e-14
  220 630.659 -4.88853e-10 1.32689e-13
  221 630.659 -4.89157e-10 -4.03722e-15
  222 630.659 -4.88702e-10 -3.40634e-15
  223 630.659 -4.88762e-10 5.55530e-13
  224 630.659 -4.88217e-10 1.62791e-13
  225 630.659 -4.88581e-10 -2.48972e-13
  226 630.659 -4.88762e-10 5.03780e-13
  227 630.659 -4.89157e-10 -2.65514e-13
  228 630.659 -4.89126e-10 1.76696e-13
  229 630.659 -4.88853e-10 1.67124e-14
  230 630.659 -4.89460e-10 2.26480e-13
  231 630.659 -4.89308e-10 1.30018e-13
  232 630.659 -4.88217e-10 -3.06764e-13
  233 630.659 -4.88944e-10 -3.44332e-13
  234 630.659 -4.89157e-10 -1.32029e-13
  235 630.659 -4.89672e-10 6.22611e-14
  236 630.659 -4.88918e-10 -5.14388e-14
  237 630.659 -4.88762e-10 -2.58167e-14
  238 630.659 -4.88399e-10 -1.80143e-13
  239 630.659 -4.88853e-10 3.31868e-13
  240 630.659 -4.88762e-10 1.01124e-13
  241 630.659 -4.88550e-10 -2.48840e-13
</Section>

newXOutput 37

<Section columns = "stress_xx | stress_yy | stress_xy">
  1 647.335 -4.85670e-10 -1.99203e-14
  2 647.335 -4.87489e-10 2.43464e-13
  3 647.335 -4.87489e-10 -5.41573e-15
  4 647.335 -4.86580e-10 -5.33029e-14
  5 647.335 -4.86277e-10 7.52601e-14
  6 647.335 -4.87489e-10 3.07672e-13
  7 647.335 -4.88399e-10 1.92571e-13
  8 647.335 -4.88095e-10 1.28381e-13
  9 647.335 -4.89308e-10 4.13314e-14
  10 647.335 -4.89308e-10 -2.99532e-13
  11 647.335 -4.89308e-10 -2.13957e-13
  12 647.335 -4.89308e-10 -2.96585e-13
  13 647.335 -4.87944e-10 3.54195e-14
  14 647.335 -4.88095e-10 -8.18950e-13
  15 647.335 -4.88853e-10 -9.96013e-14
  16 647.335 -4.87186e-10 6.12362e-13
  17 647.335 -4.88095e-10 6.37449e-13
  18 647.335 -4.88095e-10 1.91920e-14
  19 647.335 -4.88095e-10 -5.62189e-13
  20 647.335 -4.88095e-10 -6.30046e-13
  21 647.335 -4.88702e-10 -6.87622e-13
  22 647.335 -4.89308e-10 -2.50867e-14
  23 647.335 -4.88095e-10 8.41021e-14
  24 647.335 -4.88702e-10 3.12830e-13
  25 647.335 -4.89308e-10 -3.76300e-14
  26 647.335 -4.88853e-10 -9.82134e-14
  27 647.335 -4.86883e-10 -1.49012e-13
  28 647.335 -4.87034e-10 7.76119e-14
  29 647.335 -4.88399e-10 -1.31705e-13
  30 647.335 -4.88702e-10 9.09692e-14
  31 647.335 -4.87489e-10 2.11741e-13
  32 647.335 -4.87489e-10 4.44557e-13
  33 647.335 -4.87034e-10 2.38887e-14
  34 647.335 -4.86580e-10 5.46899e-14
  35 647.335 -4.88399e-10 2.32145e-13
  36 647.335 -4.88095e-10 -1.29280e-14
  37 647.335 -4.88095e-10 -1.34840e-13
  38 647.335 -4.89308e-10 -4.36599e-13
  39 647.335 -4.88095e-10 2.87054e-13
  40 647.335 -4.88095e-10 5.47975e-13
  41 647.335 -4.89308e-10 4.86150e-13
  42 647.335 -4.88095e-10 1.06050e-13
  43 647.335 -4.86883e-10 -1.14303e-13
  44 647.335 -4.86883e-10 5.77859e-14
  45 647.335 -4.88095e-10 5.55333e-14
  46 647.335 -4.88095e-10 3.65800e-14
  47 647.335 -4.87489e-10 1.54851e-13
  48 647.335 -4.88702e-10 -1.88241e-13
  49 647.335 -4.88095e-10 -1.13044e-13
  50 647.335 -4.85670e-10 -3.06215e-14
  51 647.335 -4.85670e-10 -3.76300e-14
  52 647.335 -4.86125e-10 2.63526e-14
  53 647.335 -4.86277e-10 -2.65604e-14
  54 647.335 -4.85670e-10 2.69759e-14
  55 647.335 -4.85670e-10 0.00000
  56 647.335 -4.85670e-10 -3.50425e-14
  57 647.335 -4.88095e-10 4.86997e-14
  58 647.335 -4.88095e-10 -1.04956e-13
  59 647.335 -4.88269e-10 -4.09495e-14
  60 647.335 -4.88399e-10 2.88904e-13
  61 647.335 -4.87792e-10 -7.48788e-14
  62 647.335 -4.88399e-10 4.47178e-14
  63 647.335 -4.88217e-10 -7.52601e-15
  64 647.335 -4.87792e-10 -1.73328e-14
  65 647.335 -4.88095e-10 1.14912e-13
  66 647.335 -4.87186e-10 9.22758e-15
  67 647.335 -4.87944e-10 -3.99626e-13
  68 647.335 -4.88095e-10 1.20541e-13
  69 647.335 -4.88269e-10 -6.58470e-14
  70 647.335 -4.88626e-10 -7.91496e-14
  71 647.335 -4.87489e-10 -9.61828e-14
  72 647.335 -4.88529e-10 -2.71889e-14
  73 647.335 -4.88269e-10 4.40082e-13
  74 647.335 -4.88217e-10 4.50738e-14
  75 647.335 -4.87853e-10 -1.04028e-13
  76 647.335 -4.88095e-10 2.46600e-13
  77 647.335 -4.86277e-10 -2.10255e-14
  78 647.335 -4.88702e-10 2.92469e-13
  79 647.335 -4.88009e-10 4.26900e-14
  80 647.335 -4.88399e-10 5.95809e-14
  81 647.335 -4.88399e-10 -4.89533e-13
  82 647.335 -4.87792e-10 -1.29295e-13
  83 647.335 -4.87792e-10 1.18965e-14
  84 647.335 -4.88095e-10 4.02175e-14
  85 647.335 -4.87186e-10 -1.53827e-13
  86 647.335 -4.87792e-10 1.59362e-13
  87 647.335 -4.87489e-10 -7.32804e-14
  88 647.335 -4.88944e-10 -3.76390e-13
  89 647.335 -4.86762e-10 -9.49464e-14
  90 647.335 -4.88399e-10 6.28024e-15
  91 647.335 -4.87489e-10 6.41561e-15
  92 647.335 -4.87489e-10 -2.41917e-13
  93 647.335 -4.88217e-10 -1.65983e-13
  94 647.335 -4.88581e-10 6.11488e-14
  95 647.335 -4.87853e-10 3.99845e-13
  96 647.335 -4.87489e-10 -2.35625e-13
  97 647.335 -4.87853e-10 4.20099e-13
  98 647.335 -4.87489e-10 -1.82195e-13
  99 647.335 -4.87792e-10 1.26342e-13
  100 647.335 -4.87853e-10 -6.59451e-14
  101 647.335 -4.88399e-10 1.54016e-13
  102 647.335 -4.88217e-10 5.91079e-14
  103 647.335 -4.88095e-10 -1.14167e-13
  104 647.335 -4.87125e-10 1.62015e-13
  105 647.335 -4.89308e-10 -2.13648e-14
  106 647.335 -4.89005e-10 2.95077e-14
  107 647.335 -4.88399e-10 -1.12702e-13
  108 647.335 -4.85973e-10 -5.02505e-15
  109 647.335 -4.86398e-10 5.30111e-14
  110 647.335 -4.87125e-10 -1.25608e-13
  111 647.335 -4.88171e-10 -9.71250e-14
  112 647.335 -4.88399e-10 5.50881e-14
  113 647.335 -4.88009e-10 7.36267e-15
  114 647.335 -4.88009e-10 -8.71019e-15
  115 647.335 -4.87792e-10 2.50648e-13
  116 647.335 -4.87853e-10 4.95873e-14
  117 647.335 -4.89005e-10 1.55130e-13
  118 647.335 -4.88095e-10 1.15445e-13
  119 647.335 -4.87749e-10 1.70584e-13
  120 647.335 -4.87792e-10 2.46043e-13
  121 647.335 -4.87229e-10 -1.01162e-14
  122 647.335 -4.88269e-10 -6.11818e-14
  123 647.335 -4.89005e-10 -3.16827e-13
  124 647.335 -4.88269e-10 -1.74549e-13
  125 647.335 -4.88171e-10 -2.85149e-15
  126 647.335 -4.88626e-10 -6.56083e-15
  127 647.335 -4.87489e-10 5.74658e-14
  128 647.335 -4.88171e-10 -2.73743e-14
  129 647.335 -4.87717e-10 9.97228e-14
  130 647.335 -4.88399e-10 -2.30929e-13
  131 647.335 -4.88702e-10 2.87192e-13
  132 647.335 -4.89081e-10 5.50804e-14
  133 647.335 -4.88269e-10 4.23742e-14
  134 647.335 -4.87489e-10 7.14706e-14
  135 647.335 -4.88269e-10 1.33747e-13
  136 647.335 -4.88009e-10 -1.07699e-13
  137 647.335 -4.87749e-10 3.06387e-13
  138 647.335 -4.88399e-10 3.35689e-14
  139 647.335 -4.86969e-10 3.35230e-14
  140 647.335 -4.88009e-10 -5.18404e-14
  141 647.335 -4.87792e-10 -7.79290e-14
  142 647.335 -4.89005e-10 -2.91307e-14
  143 647.335 -4.87229e-10 6.49750e-14
  144 647.335 -4.87125e-10 6.47738e-14
  145 647.335 -4.87671e-10 -1.56285e-13
  146 647.335 -4.86969e-10 3.12729e-14
  147 647.335 -4.88399e-10 2.65840e-13
  148 647.335 -4.85973e-10 -6.83372e-14
  149 647.335 -4.87489e-10 -7.64510e-14
  150 647.335 -4.88399e-10 1.36284e-13
  151 647.335 -4.88399e-10 -4.77658e-14
  152 647.335 -4.88702e-10 -2.40517e-13
  153 647.335 -4.88702e-10 1.28261e-14
  154 647.335 -4.87489e-10 2.54753e-13
  155 647.335 -4.88399e-10 8.52930e-15
  156 647.335 -4.87489e-10 1.35333e-13
  157 647.335 -4.86450e-10 -4.97548e-15
  158 647.335 -4.88095e-10 1.64537e-13
  159 647.335 -4.88095e-10 -3.96555e-13
  160 647.335 -4.86398e-10 1.88150e-14
  161 647.335 -4.88581e-10 -1.42316e-13
  162 647.335 -4.88095e-10 1.13901e-13
  163 647.335 -4.88399e-10 1.94233e-13
  164 647.335 -4.88269e-10 2.56555e-13
  165 647.335 -4.88095e-10 -3.11981e-13
  166 647.335 -4.86190e-10 -1.62483e-14
  167 647.335 -4.88788e-10 -1.34393e-14
  168 647.335 -4.88269e-10 1.37753e-14
  169 647.335 -4.86450e-10 1.01217e-14
  170 647.335 -4.88217e-10 2.32515e-13
  171 647.335 -4.88788e-10 -7.46211e-14
  172 647.335 -4.88399e-10 -2.82225e-14
  173 647.335 -4.87186e-10 -4.98316e-14
  174 647.335 -4.88399e-10 4.59271e-13
  175 647.335 -4.86580e-10 4.40651e-15
  176 647.335 -4.85973e-10 -4.07573e-14
  177 647.335 -4.88095e-10 1.03637e-13
  178 647.335 -4.87792e-10 1.31512e-13
  179 647.335 -4.87853e-10 1.21300e-13
  180 647.335 -4.88269e-10 6.32455e-14
  181 647.335 -4.88399e-10 -1.17037e-13
  182 647.335 -4.88217e-10 -3.94899e-14
  183 647.335 -4.87792e-10 1.37694e-13
  184 647.335 -4.86943e-10 2.87736e-13
  185 647.335 -4.87792e-10 -1.12322e-13
  186 647.335 -4.87853e-10 -4.28509e-13
  187 647.335 -4.87792e-10 1.40912e-13
  188 647.335 -4.88581e-10 4.17908e-15
  189 647.335 -4.87853e-10 -5.40032e-14
  190 647.335 -4.87229e-10 8.09662e-15
  191 647.335 -4.87792e-10 3.08216e-13
  192 647.335 -4.88529e-10 1.31220e-13
  193 647.335 -4.88217e-10 5.83378e-14
  194 647.335 -4.87489e-10 -3.75538e-13
  195 647.335 -4.86883e-10 -8.10691e-14
  196 647.335 -4.87338e-10 -2.72109e-13
  197 647.335 -4.87186e-10 7.21264e-14
  198 647.335 -4.89005e-10 -2.65227e-13
  199 647.335 -4.88095e-10 -2.26873e-13
  200 647.335 -4.88095e-10 4.99507e-15
  201 647.335 -4.88702e-10 -3.23954e-13
  202 647.335 -4.87853e-10 -4.52630e-13
  203 647.335 -4.88095e-10 -1.03243e-14
  204 647.335 -4.89005e-10 -6.23397e-14
  205 647.335 -4.87489e-10 -1.05500e-13
  206 647.335 -4.88581e-10 -1.83256e-13
  207 647.335 -4.87125e-10 1.57214e-13
  208 647.335 -4.87671e-10 1.55495e-13
  209 647.335 -4.87186e-10 -1.78546e-13
  210 647.335 -4.87792e-10 -3.68718e-13
  211 647.335 -4.86969e-10 5.05993e-14
  212 647.335 -4.88217e-10 2.21339e-13
  213 647.335 -4.88581e-10 -1.18279e-13
  214 647.335 -4.88095e-10 1.60709e-13
  215 647.335 -4.87853e-10 7.46946e-14
  216 647.335 -4.88581e-10 1.09212e-13
  217 647.335 -4.87489e-10 3.50271e-13
  218 647.335 -4.88399e-10 -4.69561e-14
  219 647.335 -4.87853e-10 1.46079e-13
  220 647.335 -4.87186e-10 1.26530e-13
  221 647.335 -4.88095e-10 2.89217e-13
  222 647.335 -4.89005e-10 -5.07217e-13
  223 647.335 -4.88944e-10 -2.82421e-13
  224 647.335 -4.88217e-10 -6.41767e-14
  225 647.335 -4.88217e-10 1.90972e-13
  226 647.335 -4.87125e-10 1.04480e-13
  227 647.335 -4.88399e-10 4.03889e-14
  228 647.335 -4.87853e-10 1.41431e-13
  229 647.335 -4.87186e-10 1.71593e-14
  230 647.335 -4.87034e-10 -4.97964e-14
  231 647.335 -4.87853e-10 -1.68204e-13
  232 647.335 -4.88217e-10 -7.79075e-14
  233 647.335 -4.88581e-10 -1.88561e-13
  234 647.335 -4.89308e-10 1.99854e-13
  235 647.335 -4.88944e-10 4.70714e-13
  236 647.335 -4.87229e-10 -1.00705e-13
  237 647.335 -4.88944e-10 1.79737e-13
  238 647.335 -4.88581e-10 1.31705e-13
  239 647.335 -4.88095e-10 -4.03212e-13
  240 647.335 -4.88217e-10 4.33876e-14
  241 647.335 -4.87338e-10 7.15587e-14
</Section>

newXOutput 38

<Section columns = "stress_xx | stress_yy | stress_xy">
  1 663.942 -4.87489e-10 -1.76303e-14
  2 663.942 -4.87489e-10 3.37741e-13
  3 663.942 -4.87489e-10 1.52491e-13
  4 663.942 -4.87489e-10 3.11240e-14
  5 663.942 -4.87489e-10 -2.04854e-14
  6 663.942 -4.87489e-10 -2.61957e-14
  7 663.942 -4.87489e-10 -4.03297e-15
  8 663.942 -4.86277e-10 6.04324e-15
  9 663.942 -4.85367e-10 -1.81168e-13
  10 663.942 -4.85064e-10 3.99440e-13
  11 663.942 -4.86277e-10 2.96347e-13
  12 663.942 -4.87489e-10 3.47894e-13
  13 663.942 -4.87489e-10 1.84734e-13
  14 663.942 -4.87489e-10 2.06186e-13
  15 663.942 -4.87489e-10 3.41274e-14
  16 663.942 -4.87489e-10 -4.36545e-13
  17 663.942 -4.87489e-10 -7.48845e-13
  18 663.942 -4.87489e-10 1.37176e-13
  19 663.942 -4.87489e-10 2.06186e-13
  20 663.942 -4.86580e-10 -3.99440e-13
  21 663.942 -4.85367e-10 -3.12300e-13
  22 663.942 -4.86277e-10 6.23756e-13
  23 663.942 -4.86277e-10 3.40827e-14
  24 663.942 -4.86277e-10 2.50178e-13
  25 663.942 -4.87034e-10 1.12580e-13
  26 663.942 -4.87262e-10 9.85077e-14
  27 663.942 -4.87489e-10 5.99583e-13
  28 663.942 -4.87489e-10 1.78252e-13
  29 663.942 -4.87489e-10 3.00214e-13
  30 663.942 -4.87489e-10 -2.21970e-13
  31 663.942 -4.87489e-10 2.54735e-13
  32 663.942 -4.87489e-10 6.53675e-13
  33 663.942 -4.87489e-10 -1.48517e-13
  34 663.942 -4.87489e-10 -5.45215e-13
  35 663.942 -4.85898e-10 -5.28613e-13
  36 663.942 -4.87489e-10 -2.37281e-14
  37 663.942 -4.87489e-10 7.02674e-14
  38 663.942 -4.87489e-10 -1.27304e-13
  39 663.942 -4.87489e-10 -4.97076e-14
  40 663.942 -4.87489e-10 1.76116e-13
  41 663.942 -4.86277e-10 1.64967e-13
  42 663.942 -4.87489e-10 2.08867e-13
  43 663.942 -4.87489e-10 3.70785e-13
  44 663.942 -4.87489e-10 4.82380e-13
  45 663.942 -4.87489e-10 1.28915e-13
  46 663.942 -4.87489e-10 2.37669e-14
  47 663.942 -4.87489e-10 1.82789e-13
  48 663.942 -4.87489e-10 7.86500e-14
  49 663.942 -4.87489e-10 -9.64210e-14
  50 663.942 -4.87489e-10 5.86619e-14
  51 663.942 -4.87489e-10 -5.62901e-14
  52 663.942 -4.87489e-10 -1.19517e-13
  53 663.942 -4.87489e-10 -2.67398e-14
  54 663.942 -4.87489e-10 3.63144e-14
  55 663.942 -4.87489e-10 1.50107e-13
  56 663.942 -4.87489e-10 5.49905e-15
  57 663.942 -4.87489e-10 1.15285e-13
  58 663.942 -4.87489e-10 -2.10718e-13
  59 663.942 -4.86969e-10 1.54162e-14
  60 663.942 -4.85973e-10 -8.90046e-14
  61 663.942 -4.87489e-10 -3.63258e-13
  62 663.942 -4.87489e-10 4.75846e-14
  63 663.942 -4.87489e-10 3.24036e-13
  64 663.942 -4.87489e-10 -2.27699e-13
  65 663.942 -4.87489e-10 -1.78060e-13
  66 663.942 -4.87489e-10 1.05590e-13
  67 663.942 -4.87489e-10 -8.50057e-14
  68 663.942 -4.87489e-10 -1.00843e-14
  69 663.942 -4.86450e-10 -1.94486e-13
  70 663.942 -4.85898e-10 1.92705e-14
  71 663.942 -4.87489e-10 2.21627e-14
  72 663.942 -4.87099e-10 -2.32518e-13
  73 663.942 -4.87489e-10 6.04013e-14
  74 663.942 -4.87489e-10 -2.31429e-14
  75 663.942 -4.87489e-10 2.71272e-13
  76 663.942 -4.87489e-10 1.57417e-14
  77 663.942 -4.87489e-10 5.00356e-14
  78 663.942 -4.86277e-10 4.70881e-14
  79 663.942 -4.86969e-10 -4.48025e-15
  80 663.942 -4.86883e-10 2.18378e-14
  81 663.942 -4.87489e-10 -7.32786e-14
  82 663.942 -4.87489e-10 -1.99473e-13
  83 663.942 -4.87489e-10 1.65049e-13
  84 663.942 -4.87034e-10 -8.95565e-14
  85 663.942 -4.87489e-10 1.54745e-13
  86 663.942 -4.86883e-10 2.21294e-13
  87 663.942 -4.87489e-10 1.51234e-13
  88 663.942 -4.87307e-10 -5.32902e-13
  89 663.942 -4.87489e-10 7.08207e-14
  90 663.942 -4.86428e-10 1.21635e-15
  91 663.942 -4.87489e-10 -1.67910e-13
  92 663.942 -4.87489e-10 9.11473e-14
  93 663.942 -4.87489e-10 -1.44415e-13
  94 663.942 -4.86943e-10 7.68664e-14
  95 663.942 -4.87489e-10 -1.67409e-13
  96 663.942 -4.87489e-10 1.71892e-13
  97 663.942 -4.87489e-10 3.36980e-13
  98 663.942 -4.87489e-10 -1.24006e-13
  99 663.942 -4.87034e-10 3.15428e-13
  100 663.942 -4.87489e-10 -9.05174e-14
  101 663.942 -4.87034e-10 5.67287e-14
  102 663.942 -4.87489e-10 5.42140e-14
  103 663.942 -4.87034e-10 -2.65875e-13
  104 663.942 -4.87489e-10 1.95665e-13
  105 663.942 -4.85488e-10 1.67294e-13
  106 663.942 -4.87489e-10 2.44906e-13
  107 663.942 -4.87489e-10 -9.17047e-15
  108 663.942 -4.87489e-10 -2.14965e-13
  109 663.942 -4.87489e-10 8.43084e-14
  110 663.942 -4.87489e-10 5.46876e-13
  111 663.942 -4.87034e-10 -7.03289e-14
  112 663.942 -4.86428e-10 -1.29591e-13
  113 663.942 -4.87099e-10 -4.24104e-14
  114 663.942 -4.87359e-10 -1.43452e-13
  115 663.942 -4.87489e-10 -1.75174e-13
  116 663.942 -4.87489e-10 -1.27844e-13
  117 663.942 -4.87641e-10 3.66393e-13
  118 663.942 -4.87489e-10 -1.32068e-15
  119 663.942 -4.87489e-10 9.51746e-15
  120 663.942 -4.86428e-10 -2.06080e-13
  121 663.942 -4.87489e-10 1.75676e-13
  122 663.942 -4.85670e-10 2.03107e-14
  123 663.942 -4.86428e-10 -1.46647e-13
  124 663.942 -4.86969e-10 -1.38969e-13
  125 663.942 -4.87489e-10 2.02463e-13
  126 663.942 -4.86011e-10 -7.81299e-14
  127 663.942 -4.87489e-10 3.42604e-13
  128 663.942 -4.87034e-10 1.18404e-13
  129 663.942 -4.87489e-10 -1.64509e-13
  130 663.942 -4.87489e-10 1.59405e-15
  131 663.942 -4.87489e-10 -1.81025e-13
  132 663.942 -4.86693e-10 1.03200e-13
  133 663.942 -4.87489e-10 -3.47557e-14
  134 663.942 -4.87489e-10 4.94078e-14
  135 663.942 -4.86969e-10 2.64553e-13
  136 663.942 -4.87489e-10 1.20618e-13
  137 663.942 -4.86969e-10 -2.88287e-14
  138 663.942 -4.86883e-10 6.01504e-14
  139 663.942 -4.87489e-10 3.63936e-14
  140 663.942 -4.87489e-10 -2.79846e-13
  141 663.942 -4.86883e-10 -1.37659e-13
  142 663.942 -4.85367e-10 -9.48729e-15
  143 663.942 -4.87489e-10 -8.92460e-14
  144 663.942 -4.86762e-10 9.27519e-14
  145 663.942 -4.86034e-10 -5.31387e-13
  146 663.942 -4.87489e-10 -4.92488e-14
  147 663.942 -4.86428e-10 1.33555e-13
  148 663.942 -4.87489e-10 3.82983e-15
  149 663.942 -4.87489e-10 3.43361e-13
  150 663.942 -4.87489e-10 7.02818e-14
  151 663.942 -4.87034e-10 -2.98175e-13
  152 663.942 -4.87641e-10 -1.27091e-13
  153 663.942 -4.87489e-10 1.56889e-14
  154 663.942 -4.87489e-10 1.23205e-13
  155 663.942 -4.85822e-10 1.21714e-13
  156 663.942 -4.87489e-10 -9.24590e-15
  157 663.942 -4.87489e-10 -1.34597e-13
  158 663.942 -4.87489e-10 -3.33716e-13
  159 663.942 -4.87489e-10 2.93484e-13
  160 663.942 -4.87489e-10 -2.86617e-14
  161 663.942 -4.87489e-10 4.15786e-13
  162 663.942 -4.87489e-10 2.07213e-13
  163 663.942 -4.86428e-10 -2.68202e-13
  164 663.942 -4.87359e-10 -3.05992e-14
  165 663.942 -4.87489e-10 -1.54587e-13
  166 663.942 -4.87489e-10 -4.04291e-14
  167 663.942 -4.86320e-10 3.72044e-13
  168 663.942 -4.87359e-10 2.24644e-13
  169 663.942 -4.87489e-10 9.61544e-14
  170 663.942 -4.87671e-10 -1.65054e-13
  171 663.942 -4.87099e-10 2.30373e-13
  172 663.942 -4.87034e-10 3.12723e-14
  173 663.942 -4.87489e-10 -6.47244e-14
  174 663.942 -4.86277e-10 6.40554e-14
  175 663.942 -4.87489e-10 4.86472e-14
  176 663.942 -4.87489e-10 -8.48128e-14
  177 663.942 -4.87489e-10 -3.72244e-13
  178 663.942 -4.87489e-10 1.81744e-14
  179 663.942 -4.86943e-10 -6.16559e-14
  180 663.942 -4.87489e-10 2.15695e-13
  181 663.942 -4.87641e-10 7.62394e-14
  182 663.942 -4.87489e-10 4.90040e-14
  183 663.942 -4.87489e-10 -8.95118e-15
  184 663.942 -4.87489e-10 -5.20227e-13
  185 663.942 -4.87489e-10 3.89735e-14
  186 663.942 -4.87489e-10 8.73447e-14
  187 663.942 -4.87489e-10 8.07161e-14
  188 663.942 -4.86762e-10 -1.01508e-13
  189 663.942 -4.87489e-10 -7.52532e-14
  190 663.942 -4.87489e-10 -6.66680e-14
  191 663.942 -4.87489e-10 1.29033e-13
  192 663.942 -4.87489e-10 2.12872e-13
  193 663.942 -4.86580e-10 -3.19246e-13
  194 663.942 -4.87489e-10 5.04133e-14
  195 663.942 -4.87489e-10 -2.17098e-13
  196 663.942 -4.87186e-10 1.87129e-13
  197 663.942 -4.87489e-10 2.37708e-13
  198 663.942 -4.86428e-10 2.84050e-13
  199 663.942 -4.87489e-10 -4.50808e-14
  200 663.942 -4.87489e-10 -3.37590e-13
  201 663.942 -4.85822e-10 2.57204e-14
  202 663.942 -4.86216e-10 -8.24321e-14
  203 663.942 -4.87034e-10 1.23156e-13
  204 663.942 -4.87489e-10 1.20472e-13
  205 663.942 -4.87489e-10 2.36280e-13
  206 663.942 -4.86216e-10 -2.36038e-13
  207 663.942 -4.87489e-10 7.51350e-15
  208 663.942 -4.86216e-10 -5.51919e-13
  209 663.942 -4.87489e-10 -1.85969e-14
  210 663.942 -4.87489e-10 -1.17589e-13
  211 663.942 -4.87489e-10 -3.77078e-14
  212 663.942 -4.86762e-10 1.30606e-15
  213 663.942 -4.87489e-10 1.13024e-13
  214 663.942 -4.87489e-10 -4.36194e-14
  215 663.942 -4.86762e-10 -1.12251e-13
  216 663.942 -4.87489e-10 -1.86050e-14
  217 663.942 -4.87489e-10 1.34101e-13
  218 663.942 -4.87489e-10 -2.04368e-13
  219 663.942 -4.87489e-10 1.30310e-13
  220 663.942 -4.87489e-10 1.87589e-13
  221 663.942 -4.87489e-10 1.41919e-13
  222 663.942 -4.87641e-10 -7.12764e-14
  223 663.942 -4.86034e-10 2.37498e-13
  224 663.942 -4.86216e-10 -1.12580e-13
  225 663.942 -4.86216e-10 8.63115e-14
  226 663.942 -4.87489e-10 -7.73197e-14
  227 663.942 -4.87489e-10 2.27865e-13
  228 663.942 -4.86762e-10 2.61147e-13
  229 663.942 -4.87489e-10 6.92662e-15
  230 663.942 -4.87338e-10 -1.29410e-13
  231 663.942 -4.87489e-10 5.22801e-13
  232 663.942 -4.87489e-10 -1.41011e-13
  233 663.942 -4.87671e-10 3.83572e-13
  234 663.942 -4.87489e-10 1.98264e-14
  235 663.942 -4.86216e-10 2.17391e-13
  236 663.942 -4.87489e-10 1.60088e-13
  237 663.942 -4.86943e-10 -8.03204e-14
  238 663.942 -4.86762e-10 -3.89518e-13
  239 663.942 -4.87338e-10 2.61887e-13
  240 663.942 -4.87489e-10 2.59207e-13
  241 663.942 -4.87489e-10 -4.33587e-14
</Section>

newXOutput 39

<Section columns = "stress_xx | stress_yy | stress_xy">
  1 680.480 -4.87489e-10 5.96182e-14
  2 680.480 -4.85215e-10 -2.80817e-13
  3 680.480 -4.85670e-10 -1.98869e-13
  4 680.480 -4.83851e-10 3.15977e-14
  5 680.480 -4.87489e-10 6.93379e-14
  6 680.480 -4.87489e-10 8.87775e-14
  7 680.480 -4.84761e-10 3.20285e-13
  8 680.480 -4.83851e-10 1.30937e-13
  9 680.480 -4.86277e-10 -2.61874e-13
  10 680.480 -4.84458e-10 7.48476e-14
  11 680.480 -4.82942e-10 -2.25906e-13
  12 680.480 -4.84761e-10 -3.24155e-13
  13 680.480 -4.84761e-10 -2.64150e-13
  14 680.480 -4.85064e-10 -1.37128e-13
  15 680.480 -4.85670e-10 4.09713e-13
  16 680.480 -4.84761e-10 1.74644e-13
  17 680.480 -4.85064e-10 2.80632e-13
  18 680.480 -4.83851e-10 3.55295e-13
  19 680.480 -4.86277e-10 -3.11402e-14
  20 680.480 -4.86277e-10 -3.24155e-13
  21 680.480 -4.85064e-10 -8.85234e-13
  22 680.480 -4.87489e-10 -7.10775e-13
  23 680.480 -4.87489e-10 -6.86011e-13
  24 680.480 -4.83245e-10 -1.25671e-14
  25 680.480 -4.83396e-10 7.48476e-14
  26 680.480 -4.83624e-10 -6.78307e-14
  27 680.480 -4.84458e-10 2.74256e-13
  28 680.480 -4.83624e-10 -1.68338e-13
  29 680.480 -4.83851e-10 3.74238e-14
  30 680.480 -4.86277e-10 -1.80882e-13
  31 680.480 -4.86277e-10 -1.03562e-13
  32 680.480 -4.85670e-10 -5.91196e-13
  33 680.480 -4.85670e-10 -3.81429e-13
  34 680.480 -4.86277e-10 -2.40695e-14
  35 680.480 -4.85670e-10 7.34091e-13
  36 680.480 -4.83851e-10 8.27923e-13
  37 680.480 -4.85064e-10 1.70868e-13
  38 680.480 -4.85064e-10 1.93651e-14
  39 680.480 -4.84761e-10 1.15901e-13
  40 680.480 -4.83851e-10 -2.04838e-13
  41 680.480 -4.85064e-10 -2.11492e-13
  42 680.480 -4.85064e-10 -8.53287e-14
  43 680.480 -4.85064e-10 -3.31880e-14
  44 680.480 -4.86277e-10 5.31895e-14
  45 680.480 -4.86277e-10 1.69197e-13
  46 680.480 -4.85064e-10 1.00191e-13
  47 680.480 -4.87489e-10 1.42018e-14
  48 680.480 -4.85064e-10 4.13073e-14
  49 680.480 -4.85064e-10 6.65177e-14
  50 680.480 -4.83851e-10 -5.46342e-15
  51 680.480 -4.83851e-10 -5.61357e-14
  52 680.480 -4.83851e-10 -3.21611e-14
  53 680.480 -4.83851e-10 -6.08253e-14
  54 680.480 -4.84761e-10 -4.67798e-15
  55 680.480 -4.83851e-10 1.12271e-13
  56 680.480 -4.86277e-10 4.05425e-14
  57 680.480 -4.84458e-10 -1.71410e-14
  58 680.480 -4.85670e-10 -1.22332e-13
  59 680.480 -4.85410e-10 1.23110e-13
  60 680.480 -4.85670e-10 1.99553e-13
  61 680.480 -4.84458e-10 -8.51267e-15
  62 680.480 -4.84458e-10 2.18797e-14
  63 680.480 -4.84943e-10 -1.98235e-13
  64 680.480 -4.85670e-10 -2.40864e-13
  65 680.480 -4.83851e-10 -6.27253e-14
  66 680.480 -4.85064e-10 -2.97145e-15
  67 680.480 -4.84458e-10 3.28152e-14
  68 680.480 -4.84761e-10 9.04756e-14
  69 680.480 -4.84371e-10 -2.26361e-13
  70 680.480 -4.84647e-10 -9.23840e-14
  71 680.480 -4.83851e-10 4.52262e-14
  72 680.480 -4.84761e-10 -7.89096e-15
  73 680.480 -4.85410e-10 -2.81817e-13
  74 680.480 -4.86762e-10 2.83889e-15
  75 680.480 -4.85852e-10 7.86178e-14
  76 680.480 -4.85670e-10 2.49400e-13
  77 680.480 -4.84458e-10 4.50154e-14
  78 680.480 -4.85064e-10 -3.33167e-13
  79 680.480 -4.85410e-10 1.36681e-13
  80 680.480 -4.84458e-10 -2.48914e-14
  81 680.480 -4.84154e-10 1.71526e-14
  82 680.480 -4.85064e-10 -8.54159e-15
  83 680.480 -4.86277e-10 2.21355e-13
  84 680.480 -4.84458e-10 5.72271e-14
  85 680.480 -4.85670e-10 3.38293e-13
  86 680.480 -4.85670e-10 3.49058e-13
  87 680.480 -4.84458e-10 -8.53765e-15
  88 680.480 -4.83487e-10 -4.09129e-13
  89 680.480 -4.86034e-10 1.33844e-13
  90 680.480 -4.84458e-10 6.98174e-14
  91 680.480 -4.84215e-10 -8.59707e-14
  92 680.480 -4.84579e-10 -1.17741e-13
  93 680.480 -4.84397e-10 4.33021e-13
  94 680.480 -4.83669e-10 2.61828e-14
  95 680.480 -4.86034e-10 -2.48203e-13
  96 680.480 -4.85064e-10 -4.86255e-13
  97 680.480 -4.84761e-10 5.94844e-13
  98 680.480 -4.85306e-10 -5.13988e-14
  99 680.480 -4.83700e-10 -1.13750e-13
  100 680.480 -4.86034e-10 3.03479e-14
  101 680.480 -4.84306e-10 1.25520e-13
  102 680.480 -4.85852e-10 1.38905e-13
  103 680.480 -4.84458e-10 8.45443e-14
  104 680.480 -4.86034e-10 1.21558e-14
  105 680.480 -4.83851e-10 -1.33024e-13
  106 680.480 -4.84761e-10 -6.07790e-14
  107 680.480 -4.84306e-10 8.88584e-14
  108 680.480 -4.84458e-10 -5.61213e-14
  109 680.480 -4.84579e-10 4.86510e-14
  110 680.480 -4.85124e-10 -2.46942e-13
  111 680.480 -4.85102e-10 -3.48886e-13
  112 680.480 -4.84761e-10 -2.31830e-13
  113 680.480 -4.84761e-10 -4.51553e-14
  114 680.480 -4.84891e-10 3.21866e-13
  115 680.480 -4.84458e-10 -6.47778e-14
  116 680.480 -4.83851e-10 1.42564e-13
  117 680.480 -4.85064e-10 -1.19999e-13
  118 680.480 -4.86277e-10 -7.77135e-14
  119 680.480 -4.84371e-10 2.52853e-13
  120 680.480 -4.84458e-10 3.50559e-14
  121 680.480 -4.85410e-10 1.63539e-13
  122 680.480 -4.85410e-10 3.56090e-13
  123 680.480 -4.85064e-10 7.48881e-14
  124 680.480 -4.85800e-10 -2.11938e-13
  125 680.480 -4.84533e-10 9.65158e-14
  126 680.480 -4.84306e-10 3.12731e-14
  127 680.480 -4.86450e-10 2.32533e-13
  128 680.480 -4.85898e-10 -2.68376e-14
  129 680.480 -4.85670e-10 6.50458e-14
  130 680.480 -4.85064e-10 1.73050e-13
  131 680.480 -4.85064e-10 -9.53589e-14
  132 680.480 -4.85215e-10 -1.11253e-13
  133 680.480 -4.83851e-10 1.71001e-13
  134 680.480 -4.84891e-10 -3.94029e-15
  135 680.480 -4.85800e-10 8.55402e-14
  136 680.480 -4.85930e-10 1.32722e-14
  137 680.480 -4.84891e-10 -2.55915e-14
  138 680.480 -4.85064e-10 2.05225e-14
  139 680.480 -4.84891e-10 -9.21987e-15
  140 680.480 -4.84891e-10 1.94104e-13
  141 680.480 -4.85670e-10 2.06582e-13
  142 680.480 -4.84912e-10 9.19886e-14
  143 680.480 -4.85410e-10 -4.02231e-14
  144 680.480 -4.83851e-10 -2.01159e-13
  145 680.480 -4.86034e-10 -4.77293e-13
  146 680.480 -4.85410e-10 -6.58773e-15
  147 680.480 -4.84306e-10 -2.02125e-13
  148 680.480 -4.84458e-10 2.33783e-14
  149 680.480 -4.85215e-10 -2.24497e-13
  150 680.480 -4.84458e-10 -5.19250e-14
  151 680.480 -4.84458e-10 -5.68402e-14
  152 680.480 -4.85670e-10 -1.08574e-14
  153 680.480 -4.86125e-10 -2.77386e-13
  154 680.480 -4.83669e-10 3.74238e-14
  155 680.480 -4.83851e-10 1.67604e-13
  156 680.480 -4.85410e-10 2.15761e-13
  157 680.480 -4.84891e-10 -8.10861e-14
  158 680.480 -4.83851e-10 -1.38687e-13
  159 680.480 -4.85064e-10 -3.47521e-13
  160 680.480 -4.83851e-10 -5.16313e-15
  161 680.480 -4.84033e-10 2.50601e-13
  162 680.480 -4.85670e-10 -1.51600e-14
  163 680.480 -4.85670e-10 -1.99478e-13
  164 680.480 -4.83981e-10 -1.89703e-13
  165 680.480 -4.85064e-10 -9.58870e-14
  166 680.480 -4.83851e-10 -3.80847e-14
  167 680.480 -4.83721e-10 1.26894e-13
  168 680.480 -4.84371e-10 -1.07123e-14
  169 680.480 -4.84891e-10 5.25307e-14
  170 680.480 -4.85306e-10 -2.58127e-13
  171 680.480 -4.83461e-10 -9.15667e-16
  172 680.480 -4.83851e-10 -4.83113e-13
  173 680.480 -4.86277e-10 7.10171e-14
  174 680.480 -4.85519e-10 -1.48240e-13
  175 680.480 -4.85064e-10 2.92600e-14
  176 680.480 -4.87489e-10 2.29798e-14
  177 680.480 -4.85519e-10 -2.15939e-13
  178 680.480 -4.85670e-10 -9.33282e-15
  179 680.480 -4.83851e-10 3.71750e-13
  180 680.480 -4.84891e-10 3.36962e-14
  181 680.480 -4.84761e-10 9.85898e-14
  182 680.480 -4.85306e-10 2.24511e-14
  183 680.480 -4.84912e-10 -1.00074e-13
  184 680.480 -4.85124e-10 1.90889e-13
  185 680.480 -4.85670e-10 -1.19112e-13
  186 680.480 -4.85306e-10 -1.67860e-13
  187 680.480 -4.84761e-10 -2.12624e-13
  188 680.480 -4.83851e-10 2.21546e-13
  189 680.480 -4.85306e-10 1.80563e-13
  190 680.480 -4.85800e-10 -5.34990e-14
  191 680.480 -4.86277e-10 3.11865e-14
  192 680.480 -4.84761e-10 2.25810e-13
  193 680.480 -4.83851e-10 2.47513e-13
  194 680.480 -4.85670e-10 -2.58005e-13
  195 680.480 -4.83851e-10 -3.00141e-14
  196 680.480 -4.84458e-10 -1.77258e-13
  197 680.480 -4.84458e-10 1.31022e-13
  198 680.480 -4.84154e-10 -7.48476e-14
  199 680.480 -4.85064e-10 -5.20266e-14
  200 680.480 -4.83851e-10 1.03279e-13
  201 680.480 -4.84761e-10 -6.21029e-14
  202 680.480 -4.86034e-10 3.74238e-14
  203 680.480 -4.83851e-10 7.56678e-14
  204 680.480 -4.84154e-10 9.85811e-14
  205 680.480 -4.84458e-10 1.36184e-13
  206 680.480 -4.84215e-10 1.04787e-13
  207 680.480 -4.86034e-10 -1.32652e-14
  208 680.480 -4.85306e-10 -1.00602e-13
  209 680.480 -4.86125e-10 6.31006e-14
  210 680.480 -4.84458e-10 1.87235e-14
  211 680.480 -4.86450e-10 7.97829e-14
  212 680.480 -4.86762e-10 -1.92747e-13
  213 680.480 -4.85306e-10 4.74159e-14
  214 680.480 -4.84458e-10 4.65403e-14
  215 680.480 -4.85306e-10 -4.51953e-13
  216 680.480 -4.84397e-10 -2.09403e-13
  217 680.480 -4.84306e-10 6.86219e-14
  218 680.480 -4.85064e-10 1.64885e-14
  219 680.480 -4.86034e-10 3.21789e-13
  220 680.480 -4.84761e-10 2.53593e-14
  221 680.480 -4.83245e-10 -4.20671e-14
  222 680.480 -4.84912e-10 2.74349e-13
  223 680.480 -4.83305e-10 -5.05208e-15
  224 680.480 -4.84579e-10 1.73050e-13
  225 680.480 -4.84215e-10 -3.75887e-13
  226 680.480 -4.86034e-10 2.26611e-15
  227 680.480 -4.84154e-10 -3.43283e-14
  228 680.480 -4.85124e-10 -1.46770e-13
  229 680.480 -4.83851e-10 9.37299e-14
  230 680.480 -4.86277e-10 -2.64738e-14
  231 680.480 -4.86034e-10 -1.57013e-13
  232 680.480 -4.84579e-10 -7.46899e-14
  233 680.480 -4.84397e-10 1.03803e-13
  234 680.480 -4.84761e-10 -3.14925e-14
  235 680.480 -4.83851e-10 -2.68670e-13
  236 680.480 -4.84891e-10 5.85637e-14
  237 680.480 -4.84215e-10 1.43738e-13
  238 680.480 -4.85306e-10 -6.73073e-14
  239 680.480 -4.84609e-10 1.75048e-14
  240 680.480 -4.85124e-10 -4.86232e-14
  241 680.480 -4.84912e-10 2.30734e-13
</Section>

newXOutput 40

<Section columns = "stress_xx | stress_yy | stress_xy">
  1 696.948 -4.82942e-10 1.29436e-13
  2 696.948 -4.82032e-10 -2.23928e-13
  3 696.948 -4.84761e-10 -1.37423e-14
  4 696.948 -4.82032e-10 -1.18403e-13
  5 696.948 -4.82942e-10 9.26289e-14
  6 696.948 -4.83851e-10 2.37678e-14
  7 696.948 -4.83169e-10 -6.51355e-14
  8 696.948 -4.82942e-10 -2.48809e-14
  9 696.948 -4.83548e-10 1.09031e-13
  10 696.948 -4.83548e-10 5.92688e-14
  11 696.948 -4.82942e-10 -1.77335e-13
  12 696.948 -4.82335e-10 1.85258e-13
  13 696.948 -4.82032e-10 2.46026e-14
  14 696.948 -4.82335e-10 4.41989e-13
  15 696.948 -4.82942e-10 1.78641e-13
  16 696.948 -4.82335e-10 5.10765e-13
  17 696.948 -4.81123e-10 -7.16150e-13
  18 696.948 -4.82639e-10 -2.24399e-13
  19 696.948 -4.83851e-10 4.48327e-13
  20 696.948 -4.82942e-10 -2.98570e-13
  21 696.948 -4.82942e-10 -5.47851e-13
  22 696.948 -4.83245e-10 -4.48327e-13
  23 696.948 -4.83548e-10 -1.14863e-12
  24 696.948 -4.81729e-10 2.48809e-14
  25 696.948 -4.82942e-10 3.73213e-14
  26 696.948 -4.81577e-10 1.09808e-13
  27 696.948 -4.82942e-10 4.11006e-13
  28 696.948 -4.83396e-10 -3.43243e-13
  29 696.948 -4.81123e-10 2.23928e-13
  30 696.948 -4.83245e-10 -1.31638e-13
  31 696.948 -4.84154e-10 -5.78718e-15
  32 696.948 -4.82942e-10 3.53401e-14
  33 696.948 -4.83396e-10 2.42852e-13
  34 696.948 -4.85367e-10 6.95313e-13
  35 696.948 -4.82942e-10 3.52738e-13
  36 696.948 -4.83851e-10 -1.07617e-13
  37 696.948 -4.83245e-10 -5.34485e-14
  38 696.948 -4.82942e-10 -3.05445e-13
  39 696.948 -4.82942e-10 -1.77401e-13
  40 696.948 -4.82335e-10 1.53397e-13
  41 696.948 -4.81123e-10 3.56360e-13
  42 696.948 -4.81123e-10 1.36548e-13
  43 696.948 -4.82335e-10 6.02924e-14
  44 696.948 -4.82942e-10 -2.14181e-14
  45 696.948 -4.82942e-10 -3.45232e-13
  46 696.948 -4.82942e-10 -1.60609e-13
  47 696.948 -4.82942e-10 -4.49313e-14
  48 696.948 -4.82942e-10 1.07966e-13
  49 696.948 -4.82942e-10 -1.28487e-13
  50 696.948 -4.82335e-10 -2.42065e-14
  51 696.948 -4.82942e-10 -5.59820e-14
  52 696.948 -4.82942e-10 1.88374e-14
  53 696.948 -4.82942e-10 -1.22820e-13
  54 696.948 -4.82942e-10 4.41935e-17
  55 696.948 -4.82942e-10 -7.46426e-14
  56 696.948 -4.82942e-10 5.59230e-14
  57 696.948 -4.82639e-10 -8.02409e-15
  58 696.948 -4.82335e-10 5.86933e-13
  59 696.948 -4.82942e-10 1.70286e-13
  60 696.948 -4.83851e-10 -5.09348e-13
  61 696.948 -4.82335e-10 -1.57069e-13
  62 696.948 -4.82335e-10 -1.26414e-13
  63 696.948 -4.83487e-10 2.02792e-14
  64 696.948 -4.82335e-10 8.58521e-14
  65 696.948 -4.82790e-10 -1.11182e-14
  66 696.948 -4.82335e-10 9.77785e-14
  67 696.948 -4.83396e-10 1.64983e-13
  68 696.948 -4.83093e-10 2.78898e-13
  69 696.948 -4.83591e-10 2.06752e-13
  70 696.948 -4.83169e-10 -1.79040e-13
  71 696.948 -4.82184e-10 -3.26119e-14
  72 696.948 -4.82162e-10 1.51437e-14
  73 696.948 -4.82552e-10 7.34865e-14
  74 696.948 -4.82942e-10 9.52312e-14
  75 696.948 -4.83669e-10 -1.35025e-14
  76 696.948 -4.83245e-10 3.84423e-13
  77 696.948 -4.82942e-10 3.14614e-13
  78 696.948 -4.82639e-10 -3.09032e-13
  79 696.948 -4.82422e-10 2.74290e-14
  80 696.948 -4.82487e-10 -1.29011e-13
  81 696.948 -4.83245e-10 2.61279e-13
  82 696.948 -4.82032e-10 4.34789e-13
  83 696.948 -4.83245e-10 3.14555e-13
  84 696.948 -4.82942e-10 1.01740e-13
  85 696.948 -4.82184e-10 2.19528e-13
  86 696.948 -4.82790e-10 -2.47630e-14
  87 696.948 -4.82942e-10 -3.28061e-14
  88 696.948 -4.83124e-10 -5.44828e-13
  89 696.948 -4.82942e-10 -2.32484e-13
  90 696.948 -4.82335e-10 7.17306e-14
  91 696.948 -4.82942e-10 -7.31282e-14
  92 696.948 -4.82214e-10 -6.34334e-14
  93 696.948 -4.83124e-10 1.15908e-13
  94 696.948 -4.82396e-10 6.35523e-14
  95 696.948 -4.83669e-10 1.43899e-13
  96 696.948 -4.83851e-10 -1.25959e-13
  97 696.948 -4.82214e-10 -7.83040e-14
  98 696.948 -4.82942e-10 -8.63320e-14
  99 696.948 -4.82942e-10 2.95755e-14
  100 696.948 -4.82578e-10 -3.21631e-14
  101 696.948 -4.82790e-10 1.48729e-13
  102 696.948 -4.82578e-10 -2.60511e-13
  103 696.948 -4.84003e-10 4.40581e-13
  104 696.948 -4.82396e-10 7.53497e-15
  105 696.948 -4.82942e-10 -2.91087e-14
  106 696.948 -4.82487e-10 4.37478e-14
  107 696.948 -4.82335e-10 3.88174e-14
  108 696.948 -4.82942e-10 2.31147e-13
  109 696.948 -4.82578e-10 7.70547e-14
  110 696.948 -4.83851e-10 -7.07946e-13
  111 696.948 -4.82828e-10 -4.09978e-13
  112 696.948 -4.82942e-10 -2.80240e-13
  113 696.948 -4.82422e-10 5.30506e-15
  114 696.948 -4.83331e-10 3.84577e-13
  115 696.948 -4.82335e-10 1.95390e-13
  116 696.948 -4.82760e-10 3.14245e-14
  117 696.948 -4.83093e-10 -3.62593e-13
  118 696.948 -4.82942e-10 7.86039e-14
  119 696.948 -4.82812e-10 1.52970e-13
  120 696.948 -4.82942e-10 3.01124e-13
  121 696.948 -4.82552e-10 -6.91665e-14
  122 696.948 -4.83461e-10 -1.77301e-13
  123 696.948 -4.82942e-10 -2.93019e-13
  124 696.948 -4.83331e-10 5.53334e-13
  125 696.948 -4.82714e-10 -1.02395e-13
  126 696.948 -4.82942e-10 -7.71950e-14
  127 696.948 -4.83851e-10 -1.01250e-13
  128 696.948 -4.82828e-10 1.77630e-13
  129 696.948 -4.82942e-10 -1.53802e-13
  130 696.948 -4.82942e-10 2.15743e-13
  131 696.948 -4.82335e-10 -1.13031e-13
  132 696.948 -4.82942e-10 5.11556e-14
  133 696.948 -4.82162e-10 -1.98830e-13
  134 696.948 -4.82292e-10 5.46996e-14
  135 696.948 -4.82942e-10 -1.89323e-13
  136 696.948 -4.82942e-10 7.91767e-14
  137 696.948 -4.83981e-10 3.13336e-13
  138 696.948 -4.82942e-10 1.95708e-14
  139 696.948 -4.82682e-10 2.13058e-13
  140 696.948 -4.83202e-10 2.56271e-13
  141 696.948 -4.82335e-10 -6.08747e-14
  142 696.948 -4.83245e-10 -7.93962e-14
  143 696.948 -4.82812e-10 2.05281e-14
  144 696.948 -4.82578e-10 4.47812e-14
  145 696.948 -4.84397e-10 -2.27855e-13
  146 696.948 -4.83202e-10 -4.72633e-14
  147 696.948 -4.82639e-10 3.83825e-14
  148 696.948 -4.82942e-10 1.97273e-13
  149 696.948 -4.83851e-10 1.13637e-13
  150 696.948 -4.82335e-10 3.57611e-14
  151 696.948 -4.82942e-10 1.46015e-13
  152 696.948 -4.82639e-10 -1.46411e-13
  153 696.948 -4.83396e-10 -2.87441e-15
  154 696.948 -4.83305e-10 1.25380e-13
  155 696.948 -4.83396e-10 3.38102e-15
  156 696.948 -4.83072e-10 4.01386e-14
  157 696.948 -4.83072e-10 -5.13456e-14
  158 696.948 -4.83093e-10 -1.05862e-13
  159 696.948 -4.83700e-10 -1.60613e-13
  160 696.948 -4.82942e-10 2.09282e-13
  161 696.948 -4.82214e-10 6.72491e-14
  162 696.948 -4.82942e-10 2.62325e-13
  163 696.948 -4.82487e-10 -5.72731e-13
  164 696.948 -4.83072e-10 1.65507e-13
  165 696.948 -4.82487e-10 -4.27051e-14
  166 696.948 -4.82942e-10 -9.34548e-14
  167 696.948 -4.81902e-10 3.50857e-13
  168 696.948 -4.82682e-10 -1.29877e-13
  169 696.948 -4.82942e-10 -1.18050e-13
  170 696.948 -4.83305e-10 5.22958e-13
  171 696.948 -4.83072e-10 2.38308e-13
  172 696.948 -4.82639e-10 7.46426e-14
  173 696.948 -4.82942e-10 -1.53750e-13
  174 696.948 -4.82335e-10 -3.87474e-13
  175 696.948 -4.82639e-10 -1.16197e-13
  176 696.948 -4.82942e-10 -5.64665e-14
  177 696.948 -4.84003e-10 -2.52577e-13
  178 696.948 -4.82639e-10 6.24002e-14
  179 696.948 -4.82578e-10 7.71608e-14
  180 696.948 -4.82292e-10 1.43982e-14
  181 696.948 -4.82032e-10 -4.60361e-14
  182 696.948 -4.82942e-10 2.63381e-13
  183 696.948 -4.82942e-10 4.28524e-14
  184 696.948 -4.81486e-10 2.89629e-13
  185 696.948 -4.82032e-10 -2.70809e-14
  186 696.948 -4.82942e-10 2.79171e-13
  187 696.948 -4.83245e-10 -3.18304e-13
  188 696.948 -4.82578e-10 1.87710e-13
  189 696.948 -4.82214e-10 -1.85296e-13
  190 696.948 -4.83072e-10 9.89064e-14
  191 696.948 -4.82487e-10 1.71490e-13
  192 696.948 -4.83461e-10 1.93498e-13
  193 696.948 -4.83305e-10 7.23828e-14
  194 696.948 -4.82184e-10 1.72935e-13
  195 696.948 -4.83093e-10 -5.21225e-14
  196 696.948 -4.83245e-10 -4.95892e-13
  197 696.948 -4.82335e-10 -6.29944e-14
  198 696.948 -4.82790e-10 -1.18302e-13
  199 696.948 -4.82335e-10 -1.43718e-13
  200 696.948 -4.82942e-10 3.90820e-13
  201 696.948 -4.83851e-10 -4.36714e-13
  202 696.948 -4.83487e-10 1.31685e-14
  203 696.948 -4.82790e-10 2.20598e-13
  204 696.948 -4.82335e-10 -2.31043e-13
  205 696.948 -4.82639e-10 -5.58428e-14
  206 696.948 -4.82214e-10 -1.15625e-13
  207 696.948 -4.82942e-10 4.05975e-14
  208 696.948 -4.84033e-10 4.63805e-13
  209 696.948 -4.82487e-10 -7.45119e-15
  210 696.948 -4.82639e-10 5.88740e-14
  211 696.948 -4.83331e-10 -1.63582e-13
  212 696.948 -4.83487e-10 -6.74251e-13
  213 696.948 -4.82942e-10 3.32543e-14
  214 696.948 -4.83245e-10 4.97562e-14
  215 696.948 -4.83851e-10 5.62078e-13
  216 696.948 -4.82942e-10 -1.53361e-13
  217 696.948 -4.82487e-10 3.42701e-13
  218 696.948 -4.82639e-10 3.96981e-14
  219 696.948 -4.82396e-10 9.56093e-14
  220 696.948 -4.82942e-10 1.24699e-13
  221 696.948 -4.82942e-10 -2.64359e-14
  222 696.948 -4.82942e-10 -4.21862e-13
  223 696.948 -4.82942e-10 -2.31367e-13
  224 696.948 -4.82760e-10 -4.09827e-14
  225 696.948 -4.81850e-10 8.78465e-14
  226 696.948 -4.82214e-10 1.26629e-13
  227 696.948 -4.82639e-10 9.64134e-14
  228 696.948 -4.82942e-10 -1.46504e-13
  229 696.948 -4.82335e-10 2.35673e-13
  230 696.948 -4.83396e-10 1.69766e-13
  231 696.948 -4.84033e-10 -3.34415e-13
  232 696.948 -4.82942e-10 -3.08135e-13
  233 696.948 -4.83487e-10 -7.21079e-13
  234 696.948 -4.83851e-10 1.21713e-13
  235 696.948 -4.81486e-10 2.70761e-13
  236 696.948 -4.82942e-10 -4.62868e-14
  237 696.948 -4.82578e-10 -2.03907e-13
  238 696.948 -4.81850e-10 -1.45412e-13
  239 696.948 -4.83396e-10 -2.94963e-13
  240 696.948 -4.82578e-10 5.61941e-14
  241 696.948 -4.82032e-10 3.82956e-13
</Section>

newXOutput 41

<Section columns = "stress_xx | stress_yy | stress_xy">
  1 713.348 -4.82942e-10 3.47876e-14
  2 713.348 -4.82942e-10 -3.72192e-14
  3 713.348 -4.81123e-10 4.55903e-14
  4 713.348 -4.81123e-10 2.84490e-14
  5 713.348 -4.82335e-10 -1.48380e-14
  6 713.348 -4.81123e-10 4.86326e-15
  7 713.348 -4.81577e-10 8.29491e-14
  8 713.348 -4.81729e-10 9.92512e-14
  9 713.348 -4.81729e-10 6.79540e-14
  10 713.348 -4.82335e-10 -1.38840e-28
  11 713.348 -4.81123e-10 -1.76932e-13
  12 713.348 -4.82335e-10 2.65960e-13
  13 713.348 -4.82032e-10 4.85339e-14
  14 713.348 -4.82335e-10 -4.98505e-13
  15 713.348 -4.82487e-10 -1.21384e-13
  16 713.348 -4.81729e-10 9.45135e-13
  17 713.348 -4.82335e-10 4.97380e-13
  18 713.348 -4.82335e-10 1.05736e-13
  19 713.348 -4.82335e-10 -6.65710e-13
  20 713.348 -4.82335e-10 -2.36284e-13
  21 713.348 -4.82942e-10 -1.86658e-13
  22 713.348 -4.82942e-10 1.61845e-13
  23 713.348 -4.82942e-10 -7.44384e-14
  24 713.348 -4.82942e-10 -1.26218e-29
  25 713.348 -4.82942e-10 -3.72192e-14
  26 713.348 -4.82032e-10 2.05127e-13
  27 713.348 -4.81123e-10 4.84974e-13
  28 713.348 -4.82032e-10 -4.55296e-13
  29 713.348 -4.82942e-10 7.44384e-14
  30 713.348 -4.82335e-10 -3.02406e-14
  31 713.348 -4.81729e-10 2.05873e-13
  32 713.348 -4.82942e-10 2.26420e-13
  33 713.348 -4.82032e-10 -1.39312e-13
  34 713.348 -4.81123e-10 -5.27551e-13
  35 713.348 -4.81577e-10 -1.72653e-13
  36 713.348 -4.81123e-10 2.31044e-13
  37 713.348 -4.81729e-10 -2.18265e-13
  38 713.348 -4.81123e-10 -2.45406e-13
  39 713.348 -4.81123e-10 -1.64014e-13
  40 713.348 -4.81729e-10 -3.57487e-13
  41 713.348 -4.82942e-10 -9.34158e-14
  42 713.348 -4.82942e-10 8.71345e-14
  43 713.348 -4.82335e-10 9.32281e-14
  44 713.348 -4.82942e-10 6.52917e-14
  45 713.348 -4.82942e-10 -4.12999e-14
  46 713.348 -4.82335e-10 2.45045e-13
  47 713.348 -4.81123e-10 4.37652e-14
  48 713.348 -4.81123e-10 3.54670e-14
  49 713.348 -4.81123e-10 -1.31974e-14
  50 713.348 -4.81123e-10 -1.40574e-16
  51 713.348 -4.82032e-10 -3.72192e-14
  52 713.348 -4.81577e-10 -7.21750e-15
  53 713.348 -4.81123e-10 -4.71940e-14
  54 713.348 -4.81123e-10 2.85223e-14
  55 713.348 -4.81123e-10 0.00000
  56 713.348 -4.82335e-10 9.97477e-15
  57 713.348 -4.81729e-10 -7.25691e-14
  58 713.348 -4.81426e-10 -2.82419e-13
  59 713.348 -4.81642e-10 1.70464e-14
  60 713.348 -4.82032e-10 1.28857e-13
  61 713.348 -4.81729e-10 1.32169e-14
  62 713.348 -4.82335e-10 -7.96542e-14
  63 713.348 -4.81850e-10 1.08284e-14
  64 713.348 -4.82032e-10 1.18142e-13
  65 713.348 -4.81123e-10 -3.49592e-14
  66 713.348 -4.81729e-10 3.42582e-14
  67 713.348 -4.82032e-10 3.45393e-14
  68 713.348 -4.82032e-10 -1.00413e-13
  69 713.348 -4.81642e-10 -2.89186e-13
  70 713.348 -4.81805e-10 1.40630e-13
  71 713.348 -4.81729e-10 -4.52895e-14
  72 713.348 -4.81642e-10 -7.34910e-14
  73 713.348 -4.82162e-10 1.38030e-13
  74 713.348 -4.81850e-10 8.73751e-14
  75 713.348 -4.82214e-10 -6.16647e-14
  76 713.348 -4.81729e-10 5.55112e-13
  77 713.348 -4.81123e-10 1.13155e-13
  78 713.348 -4.82335e-10 -1.90642e-13
  79 713.348 -4.82162e-10 -1.29292e-13
  80 713.348 -4.82032e-10 -2.65890e-13
  81 713.348 -4.81426e-10 2.96103e-15
  82 713.348 -4.82942e-10 1.56996e-15
  83 713.348 -4.82032e-10 -1.94218e-13
  84 713.348 -4.81729e-10 -4.28930e-14
  85 713.348 -4.82335e-10 1.33994e-15
  86 713.348 -4.82032e-10 -4.07294e-13
  87 713.348 -4.81123e-10 -6.44517e-14
  88 713.348 -4.82214e-10 -3.24459e-13
  89 713.348 -4.81850e-10 -2.63756e-15
  90 713.348 -4.81426e-10 4.49814e-14
  91 713.348 -4.82578e-10 5.61240e-14
  92 713.348 -4.81486e-10 3.17207e-14
  93 713.348 -4.81850e-10 -2.99401e-13
  94 713.348 -4.82214e-10 -6.01169e-13
  95 713.348 -4.81123e-10 2.49113e-13
  96 713.348 -4.82032e-10 -3.68664e-13
  97 713.348 -4.81850e-10 9.71073e-14
  98 713.348 -4.81486e-10 -8.53708e-14
  99 713.348 -4.82032e-10 1.33369e-13
  100 713.348 -4.81486e-10 -4.53378e-14
  101 713.348 -4.81426e-10 2.10412e-14
  102 713.348 -4.81850e-10 -3.13187e-14
  103 713.348 -4.81729e-10 -3.97038e-13
  104 713.348 -4.81486e-10 3.17207e-14
  105 713.348 -4.81850e-10 -1.23764e-13
  106 713.348 -4.82032e-10 -1.08907e-13
  107 713.348 -4.81729e-10 3.32855e-13
  108 713.348 -4.81123e-10 3.43636e-14
  109 713.348 -4.81850e-10 3.12343e-14
  110 713.348 -4.82214e-10 -4.24125e-13
  111 713.348 -4.82260e-10 -3.36041e-13
  112 713.348 -4.82032e-10 -2.18918e-13
  113 713.348 -4.81902e-10 -9.16801e-14
  114 713.348 -4.82162e-10 1.10644e-13
  115 713.348 -4.81729e-10 -4.18401e-14
  116 713.348 -4.81850e-10 9.72652e-16
  117 713.348 -4.82032e-10 1.94342e-13
  118 713.348 -4.81426e-10 1.06441e-13
  119 713.348 -4.82682e-10 -2.09810e-13
  120 713.348 -4.81729e-10 1.42760e-13
  121 713.348 -4.82162e-10 -2.03178e-13
  122 713.348 -4.81642e-10 1.99870e-13
  123 713.348 -4.82335e-10 -9.27997e-14
  124 713.348 -4.81383e-10 -1.89561e-13
  125 713.348 -4.82487e-10 -1.69190e-13
  126 713.348 -4.81123e-10 -2.71467e-14
  127 713.348 -4.82162e-10 -1.56005e-13
  128 713.348 -4.81577e-10 -1.21173e-13
  129 713.348 -4.82487e-10 3.55196e-14
  130 713.348 -4.82032e-10 4.35630e-14
  131 713.348 -4.81426e-10 8.36492e-14
  132 713.348 -4.82260e-10 -1.37283e-13
  133 713.348 -4.82942e-10 -1.93284e-13
  134 713.348 -4.81383e-10 9.57667e-14
  135 713.348 -4.82682e-10 8.53134e-14
  136 713.348 -4.81123e-10 -7.79699e-15
  137 713.348 -4.81642e-10 -1.65453e-13
  138 713.348 -4.81729e-10 -4.30688e-13
  139 713.348 -4.81123e-10 8.28818e-14
  140 713.348 -4.81902e-10 -1.32472e-13
  141 713.348 -4.82639e-10 -1.09383e-13
  142 713.348 -4.82032e-10 -3.29182e-14
  143 713.348 -4.81383e-10 5.13129e-14
  144 713.348 -4.82214e-10 2.78627e-13
  145 713.348 -4.81486e-10 -5.32825e-13
  146 713.348 -4.81902e-10 1.41020e-13
  147 713.348 -4.81426e-10 -2.12032e-13
  148 713.348 -4.81426e-10 1.30928e-14
  149 713.348 -4.82032e-10 7.90908e-14
  150 713.348 -4.81729e-10 4.01415e-14
  151 713.348 -4.81123e-10 -4.13960e-14
  152 713.348 -4.82032e-10 -1.47467e-13
  153 713.348 -4.82335e-10 -3.32785e-13
  154 713.348 -4.81850e-10 -2.66455e-13
  155 713.348 -4.81729e-10 -3.45332e-13
  156 713.348 -4.82422e-10 5.00580e-14
  157 713.348 -4.81123e-10 -3.23098e-14
  158 713.348 -4.81729e-10 -3.23761e-13
  159 713.348 -4.82032e-10 1.93850e-13
  160 713.348 -4.81123e-10 2.46142e-14
  161 713.348 -4.81123e-10 8.32181e-13
  162 713.348 -4.82335e-10 -2.05739e-14
  163 713.348 -4.82032e-10 -2.02307e-13
  164 713.348 -4.81902e-10 -3.62944e-13
  165 713.348 -4.81729e-10 -4.48304e-14
  166 713.348 -4.81383e-10 -5.26261e-14
  167 713.348 -4.82422e-10 -8.53134e-14
  168 713.348 -4.82422e-10 5.16737e-15
  169 713.348 -4.81383e-10 1.07138e-14
  170 713.348 -4.82214e-10 1.66385e-13
  171 713.348 -4.81383e-10 -4.43449e-15
  172 713.348 -4.81729e-10 1.79612e-13
  173 713.348 -4.82942e-10 5.24540e-14
  174 713.348 -4.82942e-10 -9.49502e-14
  175 713.348 -4.81123e-10 -3.02614e-14
  176 713.348 -4.82639e-10 8.35368e-15
  177 713.348 -4.81729e-10 -8.42290e-14
  178 713.348 -4.81426e-10 -6.43395e-14
  179 713.348 -4.81486e-10 2.91796e-15
  180 713.348 -4.81642e-10 -5.55801e-15
  181 713.348 -4.81729e-10 2.25164e-13
  182 713.348 -4.82214e-10 -2.33539e-13
  183 713.348 -4.81729e-10 9.88975e-14
  184 713.348 -4.81850e-10 4.86807e-13
  185 713.348 -4.82032e-10 -8.57860e-14
  186 713.348 -4.81850e-10 -2.01996e-13
  187 713.348 -4.82335e-10 -1.79772e-13
  188 713.348 -4.81850e-10 -1.23207e-13
  189 713.348 -4.82214e-10 -1.76260e-13
  190 713.348 -4.82162e-10 3.49076e-14
  191 713.348 -4.81426e-10 1.70604e-13
  192 713.348 -4.82162e-10 -3.61373e-13
  193 713.348 -4.81486e-10 2.07083e-13
  194 713.348 -4.82032e-10 -1.13279e-13
  195 713.348 -4.81123e-10 -9.81139e-15
  196 713.348 -4.82032e-10 1.69900e-13
  197 713.348 -4.81729e-10 -2.57949e-14
  198 713.348 -4.82032e-10 -3.85723e-13
  199 713.348 -4.81729e-10 8.80606e-14
  200 713.348 -4.81426e-10 -7.64151e-13
  201 713.348 -4.81426e-10 -9.90925e-14
  202 713.348 -4.82214e-10 2.54738e-13
  203 713.348 -4.81123e-10 9.85977e-14
  204 713.348 -4.82335e-10 1.19936e-15
  205 713.348 -4.82032e-10 -3.49446e-14
  206 713.348 -4.82214e-10 -2.76097e-13
  207 713.348 -4.81486e-10 1.61519e-13
  208 713.348 -4.81486e-10 -1.99649e-13
  209 713.348 -4.82032e-10 2.10131e-13
  210 713.348 -4.81426e-10 6.98271e-15
  211 713.348 -4.82162e-10 5.88347e-14
  212 713.348 -4.82578e-10 -7.63837e-14
  213 713.348 -4.81123e-10 -9.00634e-15
  214 713.348 -4.81729e-10 6.01487e-14
  215 713.348 -4.81486e-10 -6.55253e-13
  216 713.348 -4.81850e-10 1.00967e-13
  217 713.348 -4.81426e-10 5.62505e-14
  218 713.348 -4.81729e-10 1.67900e-14
  219 713.348 -4.82214e-10 -1.07469e-13
  220 713.348 -4.82032e-10 1.37033e-13
  221 713.348 -4.82639e-10 -3.11074e-13
  222 713.348 -4.81729e-10 -1.79645e-13
  223 713.348 -4.81850e-10 -1.73565e-13
  224 713.348 -4.81123e-10 -1.78056e-14
  225 713.348 -4.81850e-10 5.73524e-14
  226 713.348 -4.81486e-10 2.03862e-14
  227 713.348 -4.82639e-10 -1.09259e-14
  228 713.348 -4.81850e-10 -5.29108e-14
  229 713.348 -4.82032e-10 1.26777e-13
  230 713.348 -4.82032e-10 -2.26979e-13
  231 713.348 -4.82214e-10 4.43257e-14
  232 713.348 -4.81486e-10 -2.78300e-14
  233 713.348 -4.81850e-10 -5.34169e-14
  234 713.348 -4.81729e-10 -9.19810e-14
  235 713.348 -4.82578e-10 -2.62045e-13
  236 713.348 -4.81902e-10 9.81881e-15
  237 713.348 -4.81850e-10 2.08483e-13
  238 713.348 -4.81850e-10 -3.72192e-14
  239 713.348 -4.81729e-10 4.44107e-13
  240 713.348 -4.81850e-10 1.07132e-13
  241 713.348 -4.82335e-10 1.21103e-13
</Section>

newXOutput 42

<Section columns = "stress_xx | stress_yy | stress_xy">
  1 729.679 -4.84761e-10 -2.22880e-14
  2 729.679 -4.82942e-10 2.22705e-13
  3 729.679 -4.82942e-10 -4.75337e-13
  4 729.679 -4.84761e-10 -7.91809e-14
  5 729.679 -4.84761e-10 -1.81502e-13
  6 729.679 -4.84761e-10 -1.16325e-13
  7 729.679 -4.84761e-10 -3.46313e-14
  8 729.679 -4.84761e-10 2.47450e-14
  9 729.679 -4.84761e-10 1.27040e-13
  10 729.679 -4.84761e-10 -2.92084e-13
  11 729.679 -4.84761e-10 -3.97694e-13
  12 729.679 -4.84761e-10 2.80599e-14
  13 729.679 -4.84761e-10 2.45081e-13
  14 729.679 -4.83548e-10 2.11220e-13
  15 729.679 -4.81123e-10 -3.70063e-13
  16 729.679 -4.81123e-10 -3.10200e-13
  17 729.679 -4.82335e-10 -5.14789e-13
  18 729.679 -4.84761e-10 -3.66319e-13
  19 729.679 -4.84761e-10 1.50244e-13
  20 729.679 -4.84761e-10 5.47939e-13
  21 729.679 -4.83548e-10 4.60444e-13
  22 729.679 -4.84761e-10 4.94900e-14
  23 729.679 -4.84761e-10 -2.64025e-13
  24 729.679 -4.82335e-10 6.09752e-14
  25 729.679 -4.82942e-10 1.85587e-13
  26 729.679 -4.82942e-10 3.34057e-13
  27 729.679 -4.82335e-10 3.21685e-13
  28 729.679 -4.84761e-10 -2.75738e-13
  29 729.679 -4.84761e-10 3.71175e-14
  30 729.679 -4.82942e-10 -1.01300e-13
  31 729.679 -4.84761e-10 -1.00015e-13
  32 729.679 -4.84761e-10 2.90766e-13
  33 729.679 -4.84761e-10 1.01722e-14
  34 729.679 -4.84761e-10 -4.10480e-13
  35 729.679 -4.84306e-10 -3.27744e-13
  36 729.679 -4.83548e-10 -1.64628e-13
  37 729.679 -4.84761e-10 -4.34555e-14
  38 729.679 -4.84761e-10 -3.25245e-13
  39 729.679 -4.84761e-10 3.20751e-14
  40 729.679 -4.84761e-10 5.78684e-13
  41 729.679 -4.83548e-10 6.18195e-13
  42 729.679 -4.82335e-10 1.28980e-13
  43 729.679 -4.83548e-10 1.62522e-13
  44 729.679 -4.84761e-10 6.58669e-14
  45 729.679 -4.84761e-10 -1.98397e-13
  46 729.679 -4.84761e-10 -7.56707e-14
  47 729.679 -4.84761e-10 1.20165e-13
  48 729.679 -4.84761e-10 1.14172e-13
  49 729.679 -4.84761e-10 -4.92311e-14
  50 729.679 -4.84761e-10 -4.39106e-14
  51 729.679 -4.84761e-10 -1.11352e-13
  52 729.679 -4.84761e-10 4.70600e-14
  53 729.679 -4.84761e-10 1.03124e-13
  54 729.679 -4.84761e-10 5.26123e-15
  55 729.679 -4.84761e-10 3.71175e-14
  56 729.679 -4.84761e-10 6.39050e-14
  57 729.679 -4.84761e-10 -1.14268e-13
  58 729.679 -4.82942e-10 -1.50805e-14
  59 729.679 -4.84241e-10 8.23914e-14
  60 729.679 -4.84761e-10 9.39567e-14
  61 729.679 -4.84761e-10 -4.70330e-14
  62 729.679 -4.84761e-10 -2.71788e-14
  63 729.679 -4.84761e-10 1.49002e-13
  64 729.679 -4.82335e-10 -1.56565e-13
  65 729.679 -4.84761e-10 3.27995e-14
  66 729.679 -4.84761e-10 4.41544e-14
  67 729.679 -4.83548e-10 1.68246e-13
  68 729.679 -4.82942e-10 6.29715e-15
  69 729.679 -4.83721e-10 -4.65556e-14
  70 729.679 -4.83396e-10 -7.62660e-14
  71 729.679 -4.84761e-10 1.56320e-14
  72 729.679 -4.83721e-10 -1.46910e-13
  73 729.679 -4.84761e-10 3.91495e-13
  74 729.679 -4.84397e-10 5.09617e-14
  75 729.679 -4.84761e-10 -5.69369e-14
  76 729.679 -4.82639e-10 2.00505e-13
  77 729.679 -4.84761e-10 -3.89259e-15
  78 729.679 -4.84458e-10 -9.83715e-14
  79 729.679 -4.84761e-10 8.16434e-14
  80 729.679 -4.84154e-10 1.42838e-13
  81 729.679 -4.83548e-10 1.43947e-13
  82 729.679 -4.81729e-10 -3.26337e-13
  83 729.679 -4.84761e-10 -6.56064e-14
  84 729.679 -4.84761e-10 5.85768e-14
  85 729.679 -4.84154e-10 2.65355e-13
  86 729.679 -4.81881e-10 6.18625e-15
  87 729.679 -4.84761e-10 -8.33254e-14
  88 729.679 -4.84033e-10 -2.39497e-13
  89 729.679 -4.84761e-10 -1.98018e-15
  90 729.679 -4.84761e-10 -6.06632e-14
  91 729.679 -4.83305e-10 5.30569e-14
  92 729.679 -4.84761e-10 -1.23432e-15
  93 729.679 -4.83669e-10 1.36144e-13
  94 729.679 -4.82942e-10 3.39233e-13
  95 729.679 -4.84761e-10 -1.60208e-13
  96 729.679 -4.82639e-10 -1.03176e-13
  97 729.679 -4.82578e-10 -8.85496e-14
  98 729.679 -4.84761e-10 -1.64213e-13
  99 729.679 -4.83548e-10 -1.64601e-13
  100 729.679 -4.84761e-10 -2.98344e-15
  101 729.679 -4.84154e-10 4.52878e-15
  102 729.679 -4.84215e-10 -1.42503e-13
  103 729.679 -4.83851e-10 1.65747e-15
  104 729.679 -4.84761e-10 -1.30444e-13
  105 729.679 -4.84761e-10 6.82366e-14
  106 729.679 -4.84761e-10 -1.52007e-13
  107 729.679 -4.82639e-10 5.12362e-13
  108 729.679 -4.84761e-10 2.38623e-14
  109 729.679 -4.84761e-10 2.15422e-14
  110 729.679 -4.84215e-10 -1.23020e-13
  111 729.679 -4.84079e-10 -2.61744e-13
  112 729.679 -4.83548e-10 -1.22278e-13
  113 729.679 -4.83202e-10 -1.93047e-13
  114 729.679 -4.83202e-10 1.02332e-14
  115 729.679 -4.84761e-10 1.20775e-13
  116 729.679 -4.84761e-10 9.70378e-14
  117 729.679 -4.83245e-10 4.06542e-14
  118 729.679 -4.84761e-10 8.33973e-15
  119 729.679 -4.82162e-10 -1.06645e-13
  120 729.679 -4.83851e-10 1.62669e-13
  121 729.679 -4.84761e-10 4.59717e-14
  122 729.679 -4.83721e-10 9.92119e-14
  123 729.679 -4.84154e-10 -4.56077e-13
  124 729.679 -4.83981e-10 1.81521e-13
  125 729.679 -4.84761e-10 4.57031e-14
  126 729.679 -4.84761e-10 3.69315e-14
  127 729.679 -4.83851e-10 2.02070e-13
  128 729.679 -4.84306e-10 -3.27227e-14
  129 729.679 -4.84533e-10 -9.92490e-14
  130 729.679 -4.82942e-10 -1.93682e-13
  131 729.679 -4.83548e-10 9.72391e-15
  132 729.679 -4.84306e-10 1.75407e-15
  133 729.679 -4.84241e-10 1.31242e-13
  134 729.679 -4.84761e-10 -3.58869e-14
  135 729.679 -4.82422e-10 1.65518e-13
  136 729.679 -4.84761e-10 1.37334e-14
  137 729.679 -4.83461e-10 3.31982e-13
  138 729.679 -4.84761e-10 -1.27912e-13
  139 729.679 -4.84761e-10 -1.92565e-14
  140 729.679 -4.84241e-10 6.36300e-14
  141 729.679 -4.84761e-10 6.53699e-14
  142 729.679 -4.84761e-10 2.30875e-14
  143 729.679 -4.84761e-10 -1.59658e-13
  144 729.679 -4.82578e-10 -8.76216e-14
  145 729.679 -4.84397e-10 -3.19725e-13
  146 729.679 -4.84241e-10 1.89836e-14
  147 729.679 -4.84761e-10 7.27563e-14
  148 729.679 -4.84761e-10 5.21980e-14
  149 729.679 -4.83245e-10 -1.90024e-14
  150 729.679 -4.84761e-10 -8.11086e-14
  151 729.679 -4.84761e-10 -2.14886e-14
  152 729.679 -4.83548e-10 -1.83381e-13
  153 729.679 -4.83548e-10 1.10249e-13
  154 729.679 -4.84761e-10 3.05960e-13
  155 729.679 -4.84761e-10 5.38570e-14
  156 729.679 -4.82162e-10 2.37762e-13
  157 729.679 -4.84761e-10 2.21982e-15
  158 729.679 -4.83700e-10 -1.04723e-13
  159 729.679 -4.83093e-10 -5.19176e-14
  160 729.679 -4.84761e-10 1.43070e-13
  161 729.679 -4.81850e-10 3.71973e-13
  162 729.679 -4.84761e-10 -5.22272e-14
  163 729.679 -4.84154e-10 -6.82705e-14
  164 729.679 -4.83721e-10 1.49896e-13
  165 729.679 -4.84761e-10 -8.15272e-14
  166 729.679 -4.84761e-10 -3.54129e-14
  167 729.679 -4.82812e-10 2.57520e-14
  168 729.679 -4.83591e-10 9.61077e-15
  169 729.679 -4.84761e-10 -4.40245e-14
  170 729.679 -4.83669e-10 2.10778e-13
  171 729.679 -4.84761e-10 3.03817e-14
  172 729.679 -4.84761e-10 1.83369e-14
  173 729.679 -4.84761e-10 6.93335e-14
  174 729.679 -4.82790e-10 -1.16023e-14
  175 729.679 -4.84761e-10 -3.88660e-14
  176 729.679 -4.84761e-10 -8.35436e-14
  177 729.679 -4.83851e-10 -3.29068e-13
  178 729.679 -4.84761e-10 -1.91817e-13
  179 729.679 -4.84761e-10 8.71281e-14
  180 729.679 -4.84761e-10 3.92485e-14
  181 729.679 -4.83700e-10 -5.25119e-13
  182 729.679 -4.83305e-10 -2.64794e-13
  183 729.679 -4.83548e-10 -2.61575e-14
  184 729.679 -4.82578e-10 -1.32558e-13
  185 729.679 -4.84761e-10 -5.40407e-14
  186 729.679 -4.83305e-10 -5.71252e-13
  187 729.679 -4.84761e-10 -3.26624e-14
  188 729.679 -4.84761e-10 -9.47888e-17
  189 729.679 -4.84761e-10 1.04959e-13
  190 729.679 -4.84501e-10 -1.66546e-13
  191 729.679 -4.84761e-10 -2.12477e-13
  192 729.679 -4.84241e-10 3.82641e-13
  193 729.679 -4.82942e-10 1.26529e-13
  194 729.679 -4.81729e-10 -3.61376e-13
  195 729.679 -4.84761e-10 -1.20507e-14
  196 729.679 -4.83396e-10 -4.15638e-15
  197 729.679 -4.84761e-10 4.45541e-14
  198 729.679 -4.84458e-10 -1.64157e-13
  199 729.679 -4.84761e-10 -1.50659e-14
  200 729.679 -4.82942e-10 -6.97062e-14
  201 729.679 -4.84761e-10 -1.85618e-14
  202 729.679 -4.83305e-10 -2.95749e-13
  203 729.679 -4.84761e-10 -1.56372e-13
  204 729.679 -4.84154e-10 -2.08513e-13
  205 729.679 -4.84761e-10 2.72312e-14
  206 729.679 -4.83305e-10 2.24834e-13
  207 729.679 -4.84761e-10 -1.04282e-13
  208 729.679 -4.84397e-10 -3.32472e-13
  209 729.679 -4.82032e-10 -2.80068e-13
  210 729.679 -4.84761e-10 -5.24277e-14
  211 729.679 -4.84761e-10 -3.67623e-14
  212 729.679 -4.84033e-10 2.99993e-13
  213 729.679 -4.84761e-10 -5.03989e-14
  214 729.679 -4.84154e-10 -1.27808e-13
  215 729.679 -4.82942e-10 2.53330e-13
  216 729.679 -4.84761e-10 9.63548e-14
  217 729.679 -4.83548e-10 8.27441e-14
  218 729.679 -4.84761e-10 6.08485e-14
  219 729.679 -4.83305e-10 1.50991e-13
  220 729.679 -4.84154e-10 -1.57615e-13
  221 729.679 -4.84154e-10 1.89790e-13
  222 729.679 -4.82335e-10 -2.45851e-13
  223 729.679 -4.84761e-10 -2.68328e-13
  224 729.679 -4.84761e-10 -9.60433e-14
  225 729.679 -4.83669e-10 -3.88942e-13
  226 729.679 -4.84761e-10 1.18314e-13
  227 729.679 -4.82942e-10 -2.14313e-13
  228 729.679 -4.84761e-10 2.00153e-14
  229 729.679 -4.84761e-10 7.22070e-14
  230 729.679 -4.84458e-10 1.01081e-13
  231 729.679 -4.83487e-10 1.60936e-13
  232 729.679 -4.84761e-10 -7.60016e-14
  233 729.679 -4.82578e-10 -2.06934e-13
  234 729.679 -4.84761e-10 8.65373e-14
  235 729.679 -4.84761e-10 2.45287e-13
  236 729.679 -4.84761e-10 6.15303e-14
  237 729.679 -4.84033e-10 -7.82118e-14
  238 729.679 -4.84761e-10 9.62392e-14
  239 729.679 -4.84306e-10 -3.10363e-13
  240 729.679 -4.84761e-10 2.00042e-13
  241 729.679 -4.82335e-10 -1.30798e-13
</Section>

newXOutput 43

<Section columns = "stress_xx | stress_yy | stress_xy">
  1 745.943 -4.76575e-10 -1.30827e-13
  2 745.943 -4.76575e-10 2.99761e-13
  3 745.943 -4.77030e-10 -7.75575e-13
  4 745.943 -4.77485e-10 -3.72674e-14
  5 745.943 -4.76575e-10 -1.41654e-13
  6 745.943 -4.76575e-10 -1.16129e-13
  7 745.943 -4.76575e-10 -9.25404e-14
  8 745.943 -4.76575e-10 -5.27422e-14
  9 745.943 -4.75969e-10 -5.95168e-14
  10 745.943 -4.76272e-10 -3.30002e-13
  11 745.943 -4.76575e-10 -1.43711e-13
  12 745.943 -4.75969e-10 6.21766e-14
  13 745.943 -4.76575e-10 9.19947e-14
  14 745.943 -4.77182e-10 -1.99841e-13
  15 745.943 -4.77485e-10 3.43307e-13
  16 745.943 -4.76272e-10 4.46615e-13
  17 745.943 -4.76272e-10 -2.73873e-13
  18 745.943 -4.77182e-10 -4.98391e-13
  19 745.943 -4.77182e-10 -3.36777e-13
  20 745.943 -4.76878e-10 7.69843e-13
  21 745.943 -4.77485e-10 8.68552e-13
  22 745.943 -4.77788e-10 1.29049e-12
  23 745.943 -4.76878e-10 6.36294e-13
  24 745.943 -4.76878e-10 -1.48065e-13
  25 745.943 -4.76575e-10 3.70161e-14
  26 745.943 -4.77030e-10 1.55005e-13
  27 745.943 -4.77182e-10 2.83790e-13
  28 745.943 -4.77485e-10 7.17188e-14
  29 745.943 -4.77485e-10 -1.85081e-13
  30 745.943 -4.77485e-10 7.67852e-14
  31 745.943 -4.76878e-10 -7.58559e-13
  32 745.943 -4.76120e-10 8.65947e-13
  33 745.943 -4.76575e-10 -4.69699e-14
  34 745.943 -4.76878e-10 -3.18338e-13
  35 745.943 -4.77257e-10 -8.62262e-14
  36 745.943 -4.77485e-10 2.60893e-13
  37 745.943 -4.77485e-10 -1.60636e-14
  38 745.943 -4.76878e-10 2.84735e-13
  39 745.943 -4.76878e-10 2.94622e-13
  40 745.943 -4.76878e-10 -1.60363e-13
  41 745.943 -4.77788e-10 4.62125e-14
  42 745.943 -4.77485e-10 -3.90447e-15
  43 745.943 -4.76878e-10 -5.92183e-14
  44 745.943 -4.76575e-10 4.56394e-15
  45 745.943 -4.76878e-10 1.88497e-13
  46 745.943 -4.77182e-10 -1.57203e-14
  47 745.943 -4.76575e-10 -9.83001e-14
  48 745.943 -4.76575e-10 -1.52938e-14
  49 745.943 -4.77182e-10 -2.21385e-14
  50 745.943 -4.76878e-10 9.55669e-15
  51 745.943 -4.76575e-10 -3.70161e-14
  52 745.943 -4.76575e-10 1.16243e-14
  53 745.943 -4.76575e-10 5.35890e-14
  54 745.943 -4.76575e-10 3.59729e-14
  55 745.943 -4.76575e-10 1.11048e-13
  56 745.943 -4.76575e-10 -4.34882e-14
  57 745.943 -4.76575e-10 8.23187e-14
  58 745.943 -4.77182e-10 2.10605e-13
  59 745.943 -4.76575e-10 -1.01432e-13
  60 745.943 -4.77182e-10 -1.46996e-13
  61 745.943 -4.76727e-10 2.34799e-13
  62 745.943 -4.77030e-10 3.67305e-13
  63 745.943 -4.77303e-10 8.38311e-14
  64 745.943 -4.76575e-10 -1.92280e-13
  65 745.943 -4.76727e-10 4.69508e-14
  66 745.943 -4.76575e-10 -2.50099e-14
  67 745.943 -4.77030e-10 -4.85462e-13
  68 745.943 -4.77182e-10 -2.53066e-13
  69 745.943 -4.76965e-10 -1.96721e-13
  70 745.943 -4.76916e-10 -8.65105e-14
  71 745.943 -4.76575e-10 1.04259e-13
  72 745.943 -4.76575e-10 -2.24209e-13
  73 745.943 -4.76965e-10 2.36432e-13
  74 745.943 -4.77121e-10 5.45669e-14
  75 745.943 -4.76757e-10 -9.13792e-14
  76 745.943 -4.77333e-10 7.11280e-14
  77 745.943 -4.76727e-10 -5.36188e-14
  78 745.943 -4.76878e-10 -2.90453e-13
  79 745.943 -4.76575e-10 -2.82885e-13
  80 745.943 -4.77182e-10 2.34436e-13
  81 745.943 -4.77182e-10 2.74595e-14
  82 745.943 -4.76727e-10 1.55678e-13
  83 745.943 -4.76575e-10 -1.02400e-13
  84 745.943 -4.75666e-10 7.78430e-14
  85 745.943 -4.77333e-10 -6.22989e-14
  86 745.943 -4.76727e-10 -3.43430e-13
  87 745.943 -4.76575e-10 2.14727e-15
  88 745.943 -4.76393e-10 2.86390e-14
  89 745.943 -4.76575e-10 2.22097e-14
  90 745.943 -4.76424e-10 -2.01171e-13
  91 745.943 -4.77303e-10 -2.23876e-13
  92 745.943 -4.76575e-10 -1.95243e-14
  93 745.943 -4.76939e-10 1.39355e-13
  94 745.943 -4.76757e-10 -2.04099e-13
  95 745.943 -4.77303e-10 -1.05152e-13
  96 745.943 -4.77030e-10 4.44252e-14
  97 745.943 -4.76757e-10 -5.54809e-13
  98 745.943 -4.76939e-10 -1.03244e-14
  99 745.943 -4.76575e-10 1.12620e-13
  100 745.943 -4.76211e-10 -1.54888e-13
  101 745.943 -4.76272e-10 -1.07783e-13
  102 745.943 -4.77121e-10 1.17254e-13
  103 745.943 -4.76878e-10 -1.96151e-13
  104 745.943 -4.76939e-10 -1.19360e-13
  105 745.943 -4.77303e-10 -2.52527e-13
  106 745.943 -4.76272e-10 1.53477e-13
  107 745.943 -4.77182e-10 -1.50917e-14
  108 745.943 -4.76575e-10 3.90896e-15
  109 745.943 -4.76575e-10 1.75285e-14
  110 745.943 -4.76393e-10 -7.73358e-14
  111 745.943 -4.76916e-10 -2.16032e-13
  112 745.943 -4.76878e-10 5.93051e-14
  113 745.943 -4.76965e-10 8.48894e-14
  114 745.943 -4.77355e-10 -4.33540e-14
  115 745.943 -4.76727e-10 9.68768e-14
  116 745.943 -4.75848e-10 7.22182e-14
  117 745.943 -4.76878e-10 1.26320e-13
  118 745.943 -4.76878e-10 1.11682e-13
  119 745.943 -4.76835e-10 2.61343e-13
  120 745.943 -4.77333e-10 -2.81902e-13
  121 745.943 -4.76705e-10 4.65296e-14
  122 745.943 -4.77225e-10 1.47313e-13
  123 745.943 -4.76878e-10 -9.17132e-14
  124 745.943 -4.77095e-10 5.60440e-14
  125 745.943 -4.76575e-10 1.21562e-13
  126 745.943 -4.76575e-10 3.61202e-14
  127 745.943 -4.76705e-10 7.90609e-14
  128 745.943 -4.76689e-10 2.90324e-13
  129 745.943 -4.77257e-10 5.54540e-14
  130 745.943 -4.76575e-10 7.41530e-14
  131 745.943 -4.76727e-10 -4.48285e-15
  132 745.943 -4.77257e-10 1.40897e-16
  133 745.943 -4.77095e-10 -4.74784e-13
  134 745.943 -4.76575e-10 9.67658e-14
  135 745.943 -4.77485e-10 -1.78446e-13
  136 745.943 -4.76705e-10 -2.92163e-14
  137 745.943 -4.76705e-10 -7.13749e-14
  138 745.943 -4.77182e-10 -1.41321e-13
  139 745.943 -4.76575e-10 2.20440e-16
  140 745.943 -4.77095e-10 5.23614e-14
  141 745.943 -4.76575e-10 -1.47582e-13
  142 745.943 -4.76424e-10 -1.34154e-13
  143 745.943 -4.76705e-10 -7.90360e-14
  144 745.943 -4.76939e-10 1.06653e-13
  145 745.943 -4.76939e-10 -4.24389e-13
  146 745.943 -4.77095e-10 -1.25029e-13
  147 745.943 -4.77182e-10 -3.33922e-13
  148 745.943 -4.76727e-10 3.53866e-15
  149 745.943 -4.76727e-10 2.57571e-13
  150 745.943 -4.76120e-10 1.05125e-13
  151 745.943 -4.76575e-10 1.00948e-13
  152 745.943 -4.77030e-10 1.80756e-13
  153 745.943 -4.76727e-10 1.48181e-14
  154 745.943 -4.77121e-10 -1.11014e-13
  155 745.943 -4.76424e-10 8.05581e-15
  156 745.943 -4.77095e-10 7.15429e-14
  157 745.943 -4.76575e-10 2.93435e-14
  158 745.943 -4.77182e-10 -4.19004e-13
  159 745.943 -4.76878e-10 -1.58075e-13
  160 745.943 -4.76757e-10 7.87143e-14
  161 745.943 -4.77485e-10 1.32532e-13
  162 745.943 -4.76575e-10 -1.24930e-13
  163 745.943 -4.77333e-10 9.06954e-14
  164 745.943 -4.76965e-10 3.80583e-13
  165 745.943 -4.76272e-10 -1.93232e-13
  166 745.943 -4.76575e-10 -9.45483e-15
  167 745.943 -4.76965e-10 2.11236e-13
  168 745.943 -4.77095e-10 -8.02407e-14
  169 745.943 -4.76575e-10 1.78845e-15
  170 745.943 -4.76757e-10 -2.70546e-13
  171 745.943 -4.76705e-10 -2.07380e-14
  172 745.943 -4.77030e-10 -2.06266e-14
  173 745.943 -4.77030e-10 -3.95335e-14
  174 745.943 -4.76878e-10 -6.50809e-14
  175 745.943 -4.77030e-10 1.50405e-15
  176 745.943 -4.76575e-10 -1.24688e-13
  177 745.943 -4.77030e-10 -2.96918e-13
  178 745.943 -4.76575e-10 -7.89620e-14
  179 745.943 -4.76211e-10 1.09599e-14
  180 745.943 -4.76575e-10 8.22237e-14
  181 745.943 -4.77333e-10 -1.16886e-13
  182 745.943 -4.76939e-10 -1.77414e-14
  183 745.943 -4.77485e-10 3.13008e-14
  184 745.943 -4.76939e-10 -1.79130e-13
  185 745.943 -4.75969e-10 -1.58272e-13
  186 745.943 -4.76757e-10 1.21064e-13
  187 745.943 -4.76575e-10 1.04535e-13
  188 745.943 -4.76757e-10 -1.73692e-14
  189 745.943 -4.76939e-10 1.35291e-13
  190 745.943 -4.77355e-10 -2.06292e-14
  191 745.943 -4.76575e-10 -5.38305e-14
  192 745.943 -4.76835e-10 5.70207e-15
  193 745.943 -4.77667e-10 -7.26581e-14
  194 745.943 -4.76575e-10 -6.12105e-14
  195 745.943 -4.76575e-10 -1.16581e-14
  196 745.943 -4.76424e-10 -1.38519e-13
  197 745.943 -4.76575e-10 3.63512e-14
  198 745.943 -4.77030e-10 -1.13470e-13
  199 745.943 -4.76575e-10 -3.85890e-14
  200 745.943 -4.77030e-10 -1.43408e-13
  201 745.943 -4.77030e-10 1.10717e-13
  202 745.943 -4.77121e-10 1.67589e-13
  203 745.943 -4.76727e-10 -1.80969e-13
  204 745.943 -4.76878e-10 -6.68139e-14
  205 745.943 -4.76575e-10 -3.42341e-14
  206 745.943 -4.76393e-10 3.39389e-13
  207 745.943 -4.77121e-10 -9.74803e-14
  208 745.943 -4.77121e-10 -2.93743e-13
  209 745.943 -4.76878e-10 -4.58471e-13
  210 745.943 -4.76575e-10 1.50607e-14
  211 745.943 -4.76575e-10 -2.82547e-14
  212 745.943 -4.77121e-10 6.99675e-14
  213 745.943 -4.76757e-10 -2.93863e-14
  214 745.943 -4.77182e-10 9.02038e-14
  215 745.943 -4.77121e-10 -1.41750e-13
  216 745.943 -4.76939e-10 2.53326e-13
  217 745.943 -4.76878e-10 2.05434e-13
  218 745.943 -4.77030e-10 1.59842e-13
  219 745.943 -4.77485e-10 9.15975e-14
  220 745.943 -4.77030e-10 1.36634e-13
  221 745.943 -4.77182e-10 -1.42169e-13
  222 745.943 -4.77485e-10 4.95964e-14
  223 745.943 -4.76757e-10 -1.41824e-13
  224 745.943 -4.76211e-10 9.62420e-14
  225 745.943 -4.76757e-10 3.59783e-13
  226 745.943 -4.76575e-10 -3.90485e-14
  227 745.943 -4.77030e-10 1.34818e-13
  228 745.943 -4.77485e-10 -1.18452e-13
  229 745.943 -4.76575e-10 -2.45410e-14
  230 745.943 -4.76272e-10 -6.68968e-14
  231 745.943 -4.77121e-10 -1.77098e-13
  232 745.943 -4.76575e-10 1.66922e-15
  233 745.943 -4.77667e-10 -2.33712e-13
  234 745.943 -4.76424e-10 1.88483e-13
  235 745.943 -4.77303e-10 -2.50610e-13
  236 745.943 -4.76056e-10 5.22713e-14
  237 745.943 -4.77121e-10 -8.07911e-14
  238 745.943 -4.76575e-10 -8.95651e-14
  239 745.943 -4.77030e-10 3.46695e-13
  240 745.943 -4.76211e-10 5.79671e-16
  241 745.943 -4.77333e-10 2.73268e-13
</Section>

newXOutput 44

<Section columns = "stress_xx | stress_yy | stress_xy">
  1 762.139 -4.76575e-10 9.09908e-14
  2 762.139 -4.76575e-10 -7.42901e-13
  3 762.139 -4.76575e-10 -5.70138e-14
  4 762.139 -4.76575e-10 -4.20268e-14
  5 762.139 -4.76575e-10 3.43207e-14
  6 762.139 -4.76575e-10 5.18903e-15
  7 762.139 -4.76575e-10 1.23718e-13
  8 762.139 -4.77182e-10 2.11508e-14
  9 762.139 -4.76575e-10 1.36888e-13
  10 762.139 -4.76575e-10 2.53020e-13
  11 762.139 -4.77788e-10 5.16813e-13
  12 762.139 -4.78394e-10 -1.15737e-13
  13 762.139 -4.77030e-10 1.98846e-13
  14 762.139 -4.77182e-10 -3.15288e-14
  15 762.139 -4.77485e-10 -2.97324e-13
  16 762.139 -4.77788e-10 7.38304e-14
  17 762.139 -4.76575e-10 -8.04426e-13
  18 762.139 -4.76878e-10 -6.63684e-13
  19 762.139 -4.76878e-10 -9.84405e-14
  20 762.139 -4.77788e-10 -3.33769e-13
  21 762.139 -4.77182e-10 -1.26431e-12
  22 762.139 -4.76575e-10 -5.82935e-13
  23 762.139 -4.76575e-10 -9.16704e-13
  24 762.139 -4.76878e-10 3.96827e-13
  25 762.139 -4.77939e-10 7.38304e-14
  26 762.139 -4.77485e-10 -2.63012e-13
  27 762.139 -4.76575e-10 1.72271e-13
  28 762.139 -4.76348e-10 8.76736e-14
  29 762.139 -4.76120e-10 -3.69152e-14
  30 762.139 -4.76272e-10 -5.84491e-14
  31 762.139 -4.76575e-10 -3.64132e-13
  32 762.139 -4.76575e-10 -1.26646e-12
  33 762.139 -4.76120e-10 -4.68852e-13
  34 762.139 -4.75969e-10 4.24403e-13
  35 762.139 -4.75666e-10 3.84312e-13
  36 762.139 -4.77182e-10 6.70244e-14
  37 762.139 -4.78394e-10 -2.31380e-13
  38 762.139 -4.77788e-10 2.58209e-13
  39 762.139 -4.76575e-10 2.26729e-13
  40 762.139 -4.77788e-10 -1.68323e-13
  41 762.139 -4.77182e-10 1.97267e-13
  42 762.139 -4.76575e-10 3.39285e-13
  43 762.139 -4.76575e-10 1.68761e-13
  44 762.139 -4.77182e-10 3.57398e-13
  45 762.139 -4.78394e-10 9.71230e-14
  46 762.139 -4.77182e-10 -3.00531e-13
  47 762.139 -4.77788e-10 -1.04601e-13
  48 762.139 -4.77788e-10 -2.67733e-14
  49 762.139 -4.76575e-10 -4.89390e-14
  50 762.139 -4.77182e-10 3.02809e-14
  51 762.139 -4.76575e-10 1.84576e-14
  52 762.139 -4.77030e-10 2.31438e-14
  53 762.139 -4.76575e-10 3.45935e-15
  54 762.139 -4.77030e-10 -2.01162e-14
  55 762.139 -4.77485e-10 -7.38304e-14
  56 762.139 -4.77182e-10 -1.12858e-13
  57 762.139 -4.76575e-10 -8.11815e-14
  58 762.139 -4.77788e-10 1.48044e-13
  59 762.139 -4.76835e-10 2.03219e-13
  60 762.139 -4.76272e-10 -1.41696e-13
  61 762.139 -4.76272e-10 2.96628e-14
  62 762.139 -4.76575e-10 2.25094e-13
  63 762.139 -4.77303e-10 3.43311e-13
  64 762.139 -4.77636e-10 -1.58854e-13
  65 762.139 -4.76575e-10 6.71961e-14
  66 762.139 -4.76878e-10 -1.35773e-13
  67 762.139 -4.77182e-10 -1.50154e-13
  68 762.139 -4.77485e-10 -1.35530e-14
  69 762.139 -4.76315e-10 -2.24251e-13
  70 762.139 -4.76575e-10 -5.97843e-14
  71 762.139 -4.76575e-10 5.82575e-14
  72 762.139 -4.76965e-10 1.86631e-13
  73 762.139 -4.76575e-10 1.13870e-13
  74 762.139 -4.75848e-10 -8.21315e-14
  75 762.139 -4.76575e-10 -1.22562e-13
  76 762.139 -4.76120e-10 2.57629e-13
  77 762.139 -4.76878e-10 3.29248e-14
  78 762.139 -4.76878e-10 8.84369e-14
  79 762.139 -4.77355e-10 -1.99275e-13
  80 762.139 -4.76272e-10 -4.49890e-14
  81 762.139 -4.77182e-10 2.20139e-13
  82 762.139 -4.76575e-10 -1.08204e-13
  83 762.139 -4.76575e-10 -1.82603e-14
  84 762.139 -4.76575e-10 -6.28226e-14
  85 762.139 -4.78091e-10 -1.02666e-13
  86 762.139 -4.77333e-10 3.39823e-13
  87 762.139 -4.76878e-10 4.22693e-14
  88 762.139 -4.77485e-10 -4.65813e-13
  89 762.139 -4.76211e-10 -2.69464e-15
  90 762.139 -4.76878e-10 9.48143e-14
  91 762.139 -4.77303e-10 -1.60282e-13
  92 762.139 -4.77303e-10 2.50623e-14
  93 762.139 -4.77303e-10 2.04176e-13
  94 762.139 -4.76211e-10 4.82886e-13
  95 762.139 -4.77667e-10 -1.59592e-13
  96 762.139 -4.76272e-10 6.30635e-14
  97 762.139 -4.76939e-10 4.57275e-13
  98 762.139 -4.76575e-10 1.07688e-13
  99 762.139 -4.77182e-10 4.26823e-13
  100 762.139 -4.76575e-10 -6.05618e-14
  101 762.139 -4.77182e-10 1.74099e-13
  102 762.139 -4.77303e-10 -1.58847e-13
  103 762.139 -4.76878e-10 2.43977e-13
  104 762.139 -4.76575e-10 1.19745e-13
  105 762.139 -4.76575e-10 3.07476e-14
  106 762.139 -4.77636e-10 -4.01441e-13
  107 762.139 -4.77485e-10 -6.99822e-14
  108 762.139 -4.76878e-10 6.50326e-14
  109 762.139 -4.77303e-10 -3.29346e-14
  110 762.139 -4.77303e-10 3.53453e-13
  111 762.139 -4.76575e-10 -3.93660e-13
  112 762.139 -4.76272e-10 3.01496e-13
  113 762.139 -4.76835e-10 -3.96568e-14
  114 762.139 -4.77095e-10 -7.69979e-15
  115 762.139 -4.77485e-10 9.44892e-14
  116 762.139 -4.75848e-10 -3.22451e-14
  117 762.139 -4.77030e-10 -2.60519e-13
  118 762.139 -4.76575e-10 -5.08509e-14
  119 762.139 -4.77615e-10 2.35088e-13
  120 762.139 -4.75969e-10 -8.14224e-14
  121 762.139 -4.76575e-10 9.76859e-15
  122 762.139 -4.76056e-10 2.63257e-14
  123 762.139 -4.76575e-10 -3.66833e-13
  124 762.139 -4.77095e-10 -2.27420e-13
  125 762.139 -4.76575e-10 -1.83270e-14
  126 762.139 -4.76348e-10 2.37576e-14
  127 762.139 -4.77095e-10 1.28377e-13
  128 762.139 -4.76803e-10 5.32049e-14
  129 762.139 -4.76803e-10 -6.67611e-14
  130 762.139 -4.75969e-10 -7.88714e-14
  131 762.139 -4.76727e-10 -8.95976e-14
  132 762.139 -4.76575e-10 4.83612e-14
  133 762.139 -4.76835e-10 -1.82098e-13
  134 762.139 -4.76575e-10 -1.99352e-14
  135 762.139 -4.77225e-10 2.89053e-13
  136 762.139 -4.77355e-10 -5.26675e-15
  137 762.139 -4.76315e-10 -2.98288e-14
  138 762.139 -4.76272e-10 1.01350e-13
  139 762.139 -4.76575e-10 4.56807e-14
  140 762.139 -4.76445e-10 2.79660e-13
  141 762.139 -4.76878e-10 -1.51347e-14
  142 762.139 -4.76575e-10 3.07627e-15
  143 762.139 -4.76315e-10 -1.24047e-13
  144 762.139 -4.76575e-10 4.10393e-14
  145 762.139 -4.76939e-10 -8.80156e-15
  146 762.139 -4.77095e-10 -2.26352e-14
  147 762.139 -4.76878e-10 -7.07326e-14
  148 762.139 -4.77485e-10 6.23961e-16
  149 762.139 -4.76120e-10 3.53759e-13
  150 762.139 -4.77788e-10 -1.06812e-13
  151 762.139 -4.76878e-10 8.68146e-14
  152 762.139 -4.77485e-10 1.46094e-14
  153 762.139 -4.76575e-10 2.49932e-14
  154 762.139 -4.76393e-10 -8.48980e-14
  155 762.139 -4.76878e-10 -1.43043e-13
  156 762.139 -4.76835e-10 3.51510e-13
  157 762.139 -4.76835e-10 3.82125e-14
  158 762.139 -4.76272e-10 5.97957e-14
  159 762.139 -4.76878e-10 4.10293e-13
  160 762.139 -4.76939e-10 7.37120e-14
  161 762.139 -4.77303e-10 2.27022e-13
  162 762.139 -4.76575e-10 5.85971e-14
  163 762.139 -4.76272e-10 -2.97620e-13
  164 762.139 -4.76315e-10 2.88406e-14
  165 762.139 -4.76575e-10 -4.03746e-14
  166 762.139 -4.77095e-10 3.60085e-14
  167 762.139 -4.76965e-10 1.31178e-13
  168 762.139 -4.77355e-10 1.58860e-13
  169 762.139 -4.77095e-10 -5.48249e-14
  170 762.139 -4.76211e-10 -2.64174e-13
  171 762.139 -4.77355e-10 3.82521e-13
  172 762.139 -4.76878e-10 -1.61498e-13
  173 762.139 -4.77182e-10 -8.57774e-14
  174 762.139 -4.76878e-10 -3.16275e-14
  175 762.139 -4.77182e-10 3.89780e-14
  176 762.139 -4.76878e-10 -4.84483e-14
  177 762.139 -4.76727e-10 -2.32799e-13
  178 762.139 -4.76575e-10 -1.18814e-13
  179 762.139 -4.76939e-10 -5.82633e-15
  180 762.139 -4.76575e-10 -3.38655e-14
  181 762.139 -4.78091e-10 -7.89266e-14
  182 762.139 -4.77667e-10 4.67005e-14
  183 762.139 -4.77485e-10 -2.51819e-14
  184 762.139 -4.77667e-10 -3.24617e-13
  185 762.139 -4.76878e-10 -6.69306e-14
  186 762.139 -4.76939e-10 -1.22043e-13
  187 762.139 -4.76575e-10 -8.03216e-13
  188 762.139 -4.77667e-10 -5.84985e-14
  189 762.139 -4.76575e-10 4.18221e-14
  190 762.139 -4.76315e-10 1.19931e-14
  191 762.139 -4.76575e-10 1.07286e-13
  192 762.139 -4.77095e-10 4.64564e-13
  193 762.139 -4.76575e-10 1.07853e-13
  194 762.139 -4.77182e-10 -2.98819e-13
  195 762.139 -4.76575e-10 6.41199e-14
  196 762.139 -4.78243e-10 2.97815e-13
  197 762.139 -4.76272e-10 -6.50681e-14
  198 762.139 -4.76727e-10 1.08819e-13
  199 762.139 -4.76878e-10 -8.77665e-14
  200 762.139 -4.77182e-10 5.83899e-13
  201 762.139 -4.76575e-10 -9.51640e-14
  202 762.139 -4.76575e-10 -7.63657e-14
  203 762.139 -4.76878e-10 4.50934e-14
  204 762.139 -4.77182e-10 2.43016e-13
  205 762.139 -4.76575e-10 -8.91624e-14
  206 762.139 -4.77303e-10 -2.41328e-13
  207 762.139 -4.76939e-10 -1.33595e-13
  208 762.139 -4.76211e-10 3.98751e-13
  209 762.139 -4.77333e-10 -9.34866e-14
  210 762.139 -4.76575e-10 1.28240e-13
  211 762.139 -4.75796e-10 3.04451e-14
  212 762.139 -4.77303e-10 -3.05700e-14
  213 762.139 -4.76939e-10 5.46568e-15
  214 762.139 -4.76575e-10 1.00030e-13
  215 762.139 -4.76575e-10 3.46072e-13
  216 762.139 -4.77303e-10 -8.48144e-14
  217 762.139 -4.77182e-10 -2.79743e-13
  218 762.139 -4.76575e-10 1.33960e-13
  219 762.139 -4.78394e-10 3.38018e-14
  220 762.139 -4.76878e-10 1.84193e-13
  221 762.139 -4.76727e-10 -1.41502e-13
  222 762.139 -4.77788e-10 1.03781e-14
  223 762.139 -4.77303e-10 3.89945e-13
  224 762.139 -4.76211e-10 -1.10049e-13
  225 762.139 -4.76211e-10 3.36841e-13
  226 762.139 -4.76575e-10 -4.04883e-14
  227 762.139 -4.77485e-10 -9.61188e-15
  228 762.139 -4.76211e-10 -2.19123e-14
  229 762.139 -4.77182e-10 -3.37062e-14
  230 762.139 -4.77030e-10 2.16105e-13
  231 762.139 -4.76575e-10 2.73173e-13
  232 762.139 -4.77303e-10 -6.54548e-15
  233 762.139 -4.77121e-10 2.99501e-15
  234 762.139 -4.76878e-10 -1.48205e-13
  235 762.139 -4.77303e-10 1.64787e-14
  236 762.139 -4.76056e-10 -8.60032e-14
  237 762.139 -4.77121e-10 -2.01303e-13
  238 762.139 -4.76939e-10 1.16750e-13
  239 762.139 -4.77788e-10 7.33487e-14
  240 762.139 -4.77303e-10 2.84944e-14
  241 762.139 -4.78091e-10 -1.99899e-14
</Section>

newXOutput 45

<Section columns = "stress_xx | stress_yy | stress_xy">
  1 778.268 -4.75666e-10 -1.13092e-13
  2 778.268 -4.75211e-10 2.94517e-13
  3 778.268 -4.73847e-10 8.25862e-14
  4 778.268 -4.74756e-10 -1.45051e-15
  5 778.268 -4.74756e-10 1.50790e-13
  6 778.268 -4.75211e-10 1.63148e-13
  7 778.268 -4.76575e-10 1.85378e-14
  8 778.268 -4.75363e-10 1.05234e-13
  9 778.268 -4.75666e-10 -2.03581e-13
  10 778.268 -4.74756e-10 -1.08591e-13
  11 778.268 -4.75666e-10 -9.81724e-14
  12 778.268 -4.75363e-10 4.74946e-14
  13 778.268 -4.74529e-10 -7.94476e-15
  14 778.268 -4.76272e-10 -7.36641e-13
  15 778.268 -4.74301e-10 1.70962e-13
  16 778.268 -4.73544e-10 4.70024e-13
  17 778.268 -4.74756e-10 -4.28000e-13
  18 778.268 -4.74756e-10 4.38419e-13
  19 778.268 -4.75059e-10 7.36293e-14
  20 778.268 -4.74150e-10 -1.08591e-13
  21 778.268 -4.75666e-10 -2.73679e-13
  22 778.268 -4.77485e-10 -7.36293e-14
  23 778.268 -4.75969e-10 3.78913e-13
  24 778.268 -4.75666e-10 -1.36840e-13
  25 778.268 -4.75211e-10 -1.84073e-13
  26 778.268 -4.74301e-10 2.66994e-14
  27 778.268 -4.74453e-10 -8.96058e-14
  28 778.268 -4.75211e-10 2.26879e-13
  29 778.268 -4.74756e-10 3.68147e-14
  30 778.268 -4.73847e-10 -3.05892e-13
  31 778.268 -4.75666e-10 1.61831e-13
  32 778.268 -4.74301e-10 -1.34130e-13
  33 778.268 -4.74301e-10 -1.83039e-13
  34 778.268 -4.77788e-10 1.43144e-13
  35 778.268 -4.76575e-10 3.58559e-13
  36 778.268 -4.75969e-10 2.28713e-13
  37 778.268 -4.75666e-10 4.75532e-13
  38 778.268 -4.73847e-10 -1.73425e-13
  39 778.268 -4.74453e-10 -4.70972e-13
  40 778.268 -4.75059e-10 3.74317e-13
  41 778.268 -4.74756e-10 7.68143e-13
  42 778.268 -4.75059e-10 3.78504e-13
  43 778.268 -4.74756e-10 1.35043e-13
  44 778.268 -4.74756e-10 9.18894e-14
  45 778.268 -4.74756e-10 4.08467e-13
  46 778.268 -4.75363e-10 2.94209e-13
  47 778.268 -4.75666e-10 -1.22132e-13
  48 778.268 -4.75363e-10 -1.39820e-13
  49 778.268 -4.74756e-10 -8.34323e-14
  50 778.268 -4.74756e-10 4.47159e-14
  51 778.268 -4.75666e-10 1.84073e-14
  52 778.268 -4.76120e-10 -8.63496e-14
  53 778.268 -4.74756e-10 -1.25451e-13
  54 778.268 -4.74984e-10 4.30553e-14
  55 778.268 -4.73847e-10 0.00000
  56 778.268 -4.75059e-10 -3.35709e-15
  57 778.268 -4.75817e-10 -1.68600e-13
  58 778.268 -4.75211e-10 2.84937e-14
  59 778.268 -4.74886e-10 2.37193e-13
  60 778.268 -4.75666e-10 1.72967e-14
  61 778.268 -4.74453e-10 -1.69197e-13
  62 778.268 -4.74756e-10 -2.66486e-14
  63 778.268 -4.73665e-10 -4.20903e-13
  64 778.268 -4.75211e-10 1.78003e-13
  65 778.268 -4.76120e-10 -3.50844e-13
  66 778.268 -4.75514e-10 1.71472e-13
  67 778.268 -4.75817e-10 -1.72279e-13
  68 778.268 -4.75363e-10 -4.22567e-15
  69 778.268 -4.74626e-10 -1.64099e-13
  70 778.268 -4.75552e-10 1.24444e-13
  71 778.268 -4.75363e-10 1.78444e-13
  72 778.268 -4.75796e-10 -1.52977e-13
  73 778.268 -4.75146e-10 -5.94394e-14
  74 778.268 -4.75848e-10 -1.67011e-14
  75 778.268 -4.75302e-10 -1.95170e-13
  76 778.268 -4.75363e-10 6.89870e-13
  77 778.268 -4.75666e-10 -2.27726e-13
  78 778.268 -4.75363e-10 4.37174e-14
  79 778.268 -4.76315e-10 2.44759e-13
  80 778.268 -4.74756e-10 4.99400e-13
  81 778.268 -4.75211e-10 -1.14901e-13
  82 778.268 -4.75211e-10 3.88659e-13
  83 778.268 -4.74908e-10 -3.41229e-14
  84 778.268 -4.75666e-10 5.43392e-14
  85 778.268 -4.74908e-10 -1.44741e-13
  86 778.268 -4.75514e-10 1.31630e-13
  87 778.268 -4.75969e-10 -9.08772e-14
  88 778.268 -4.75484e-10 -5.75915e-13
  89 778.268 -4.74938e-10 2.47926e-13
  90 778.268 -4.75666e-10 -2.61476e-13
  91 778.268 -4.74938e-10 3.12326e-13
  92 778.268 -4.76030e-10 -1.47519e-14
  93 778.268 -4.74029e-10 5.23984e-13
  94 778.268 -4.74756e-10 1.18780e-14
  95 778.268 -4.75484e-10 1.28782e-13
  96 778.268 -4.74756e-10 1.31456e-13
  97 778.268 -4.74938e-10 -2.51451e-13
  98 778.268 -4.75484e-10 -4.72426e-14
  99 778.268 -4.74908e-10 8.28330e-14
  100 778.268 -4.75848e-10 3.42707e-14
  101 778.268 -4.75363e-10 -9.89247e-14
  102 778.268 -4.76575e-10 8.38662e-14
  103 778.268 -4.77030e-10 -2.31524e-13
  104 778.268 -4.75484e-10 -9.98509e-14
  105 778.268 -4.74574e-10 -2.05475e-14
  106 778.268 -4.75363e-10 -3.16919e-13
  107 778.268 -4.75363e-10 8.10098e-14
  108 778.268 -4.75363e-10 -9.75576e-14
  109 778.268 -4.76393e-10 -6.49292e-14
  110 778.268 -4.75666e-10 -2.35473e-14
  111 778.268 -4.74643e-10 -1.88854e-13
  112 778.268 -4.75211e-10 4.85513e-15
  113 778.268 -4.74626e-10 -1.78948e-13
  114 778.268 -4.75536e-10 3.06894e-13
  115 778.268 -4.76727e-10 -2.98806e-14
  116 778.268 -4.75848e-10 2.57963e-14
  117 778.268 -4.75666e-10 -2.65778e-13
  118 778.268 -4.75514e-10 -1.03216e-13
  119 778.268 -4.75016e-10 6.94864e-14
  120 778.268 -4.75666e-10 2.53144e-13
  121 778.268 -4.74886e-10 5.15226e-14
  122 778.268 -4.76185e-10 -4.78727e-14
  123 778.268 -4.75666e-10 6.61513e-14
  124 778.268 -4.75406e-10 -2.74519e-13
  125 778.268 -4.75211e-10 1.58109e-13
  126 778.268 -4.75438e-10 1.08524e-15
  127 778.268 -4.74886e-10 2.06822e-13
  128 778.268 -4.74756e-10 -2.22972e-13
  129 778.268 -4.74984e-10 9.14610e-14
  130 778.268 -4.74908e-10 3.97675e-13
  131 778.268 -4.75059e-10 1.04402e-13
  132 778.268 -4.75211e-10 -1.38777e-13
  133 778.268 -4.75406e-10 -1.85736e-13
  134 778.268 -4.75016e-10 2.88019e-14
  135 778.268 -4.76056e-10 -2.11957e-13
  136 778.268 -4.76315e-10 -8.59527e-15
  137 778.268 -4.75016e-10 1.20866e-13
  138 778.268 -4.75211e-10 1.80964e-14
  139 778.268 -4.75276e-10 -1.23619e-13
  140 778.268 -4.76185e-10 7.66186e-14
  141 778.268 -4.74908e-10 8.68706e-14
  142 778.268 -4.75059e-10 -2.63462e-13
  143 778.268 -4.75146e-10 -9.39096e-14
  144 778.268 -4.76030e-10 9.60428e-14
  145 778.268 -4.76030e-10 -1.61438e-13
  146 778.268 -4.75016e-10 2.30470e-13
  147 778.268 -4.74605e-10 -1.57201e-13
  148 778.268 -4.74908e-10 -1.81411e-13
  149 778.268 -4.75363e-10 1.50037e-13
  150 778.268 -4.76120e-10 3.00951e-14
  151 778.268 -4.75817e-10 -2.45938e-13
  152 778.268 -4.76120e-10 1.16479e-13
  153 778.268 -4.74908e-10 1.24713e-13
  154 778.268 -4.74574e-10 4.97762e-13
  155 778.268 -4.74756e-10 -2.50460e-14
  156 778.268 -4.75276e-10 -4.88464e-14
  157 778.268 -4.75796e-10 -2.06717e-13
  158 778.268 -4.74756e-10 -1.28938e-13
  159 778.268 -4.74301e-10 -2.28037e-13
  160 778.268 -4.75666e-10 -2.90593e-13
  161 778.268 -4.74211e-10 -1.21488e-13
  162 778.268 -4.74756e-10 3.81823e-14
  163 778.268 -4.75666e-10 -9.09658e-14
  164 778.268 -4.74496e-10 -1.03944e-13
  165 778.268 -4.76272e-10 7.57133e-14
  166 778.268 -4.75796e-10 7.01811e-14
  167 778.268 -4.74626e-10 -1.01240e-13
  168 778.268 -4.74886e-10 -1.81059e-13
  169 778.268 -4.76056e-10 8.39558e-14
  170 778.268 -4.75666e-10 -3.99404e-14
  171 778.268 -4.76315e-10 -1.24085e-13
  172 778.268 -4.75969e-10 -8.51485e-14
  173 778.268 -4.74756e-10 3.03322e-13
  174 778.268 -4.75211e-10 -4.38767e-14
  175 778.268 -4.75059e-10 -8.31953e-14
  176 778.268 -4.75363e-10 1.78553e-13
  177 778.268 -4.75514e-10 -6.67247e-13
  178 778.268 -4.75211e-10 -2.03363e-13
  179 778.268 -4.76030e-10 -6.93921e-14
  180 778.268 -4.75796e-10 -1.91826e-14
  181 778.268 -4.76120e-10 2.17697e-13
  182 778.268 -4.74392e-10 3.31077e-13
  183 778.268 -4.74605e-10 2.16757e-13
  184 778.268 -4.74938e-10 -6.10220e-14
  185 778.268 -4.75363e-10 2.76275e-13
  186 778.268 -4.75302e-10 -4.52473e-13
  187 778.268 -4.75059e-10 -3.22991e-13
  188 778.268 -4.75666e-10 1.54572e-13
  189 778.268 -4.73847e-10 -7.35771e-14
  190 778.268 -4.75796e-10 -3.39958e-14
  191 778.268 -4.75666e-10 -2.03363e-13
  192 778.268 -4.74366e-10 7.96079e-14
  193 778.268 -4.75120e-10 4.46330e-14
  194 778.268 -4.75363e-10 3.83725e-13
  195 778.268 -4.75363e-10 -1.45585e-13
  196 778.268 -4.74756e-10 -2.36162e-13
  197 778.268 -4.76120e-10 1.74559e-13
  198 778.268 -4.74756e-10 3.36715e-13
  199 778.268 -4.75969e-10 -1.38670e-13
  200 778.268 -4.75514e-10 -2.42117e-13
  201 778.268 -4.75666e-10 7.76669e-14
  202 778.268 -4.76575e-10 -2.73331e-14
  203 778.268 -4.75666e-10 -1.25277e-13
  204 778.268 -4.75059e-10 -1.10524e-13
  205 778.268 -4.75666e-10 9.76190e-14
  206 778.268 -4.74211e-10 -1.54622e-13
  207 778.268 -4.75848e-10 5.67524e-14
  208 778.268 -4.76757e-10 3.96841e-13
  209 778.268 -4.75969e-10 5.26700e-13
  210 778.268 -4.75817e-10 -1.97131e-13
  211 778.268 -4.75016e-10 1.02648e-13
  212 778.268 -4.76575e-10 -2.72288e-14
  213 778.268 -4.75484e-10 -1.44587e-13
  214 778.268 -4.75211e-10 -1.07081e-13
  215 778.268 -4.75848e-10 -5.84238e-13
  216 778.268 -4.75666e-10 2.57690e-13
  217 778.268 -4.75969e-10 3.03432e-13
  218 778.268 -4.75211e-10 -2.01410e-13
  219 778.268 -4.75484e-10 -1.81052e-13
  220 778.268 -4.75211e-10 -1.48111e-14
  221 778.268 -4.73847e-10 -2.20136e-13
  222 778.268 -4.75514e-10 5.57647e-13
  223 778.268 -4.74574e-10 -1.87490e-13
  224 778.268 -4.74938e-10 -4.79294e-15
  225 778.268 -4.74938e-10 2.31203e-13
  226 778.268 -4.74574e-10 5.20180e-14
  227 778.268 -4.74301e-10 -1.53857e-13
  228 778.268 -4.75666e-10 2.72689e-13
  229 778.268 -4.76272e-10 -1.60466e-13
  230 778.268 -4.76120e-10 4.99950e-13
  231 778.268 -4.74392e-10 1.55629e-13
  232 778.268 -4.76211e-10 -2.99996e-13
  233 778.268 -4.74938e-10 2.11406e-13
  234 778.268 -4.75211e-10 -3.09021e-13
  235 778.268 -4.74938e-10 1.67924e-13
  236 778.268 -4.75016e-10 2.99936e-13
  237 778.268 -4.75484e-10 2.27252e-13
  238 778.268 -4.75848e-10 -1.43577e-13
  239 778.268 -4.75211e-10 -2.17046e-13
  240 778.268 -4.74938e-10 2.30630e-13
  241 778.268 -4.74605e-10 1.22716e-13
</Section>

newXOutput 46

<Section columns = "stress_xx | stress_yy | stress_xy">
  1 794.330 -4.75666e-10 9.04354e-14
  2 794.330 -4.76575e-10 3.36943e-13
  3 794.330 -4.74756e-10 4.79571e-14
  4 794.330 -4.76120e-10 1.48273e-13
  5 794.330 -4.76272e-10 -9.79053e-14
  6 794.330 -4.76575e-10 -5.72187e-14
  7 794.330 -4.76348e-10 6.04752e-14
  8 794.330 -4.76272e-10 -5.97595e-14
  9 794.330 -4.76575e-10 2.44763e-14
  10 794.330 -4.76575e-10 -7.20457e-15
  11 794.330 -4.76575e-10 1.12314e-13
  12 794.330 -4.75363e-10 -9.43030e-14
  13 794.330 -4.76348e-10 1.28501e-13
  14 794.330 -4.76272e-10 -2.24629e-13
  15 794.330 -4.76575e-10 -2.44602e-13
  16 794.330 -4.76575e-10 -9.53193e-13
  17 794.330 -4.76272e-10 -5.03936e-13
  18 794.330 -4.76272e-10 -4.54983e-13
  19 794.330 -4.76575e-10 -3.95963e-13
  20 794.330 -4.76575e-10 9.79053e-14
  21 794.330 -4.76575e-10 6.33618e-14
  22 794.330 -4.76272e-10 7.77709e-14
  23 794.330 -4.75969e-10 2.16137e-14
  24 794.330 -4.76272e-10 -3.81554e-13
  25 794.330 -4.75666e-10 -7.34290e-14
  26 794.330 -4.74756e-10 -6.49168e-14
  27 794.330 -4.73240e-10 2.00153e-13
  28 794.330 -4.73165e-10 9.11198e-14
  29 794.330 -4.74301e-10 5.50717e-14
  30 794.330 -4.75059e-10 -1.37679e-14
  31 794.330 -4.76272e-10 3.24464e-14
  32 794.330 -4.76120e-10 -9.72047e-13
  33 794.330 -4.76348e-10 2.34366e-13
  34 794.330 -4.76272e-10 6.30028e-13
  35 794.330 -4.75211e-10 1.36879e-13
  36 794.330 -4.74453e-10 -1.77077e-13
  37 794.330 -4.76575e-10 -5.30207e-13
  38 794.330 -4.76575e-10 -4.15850e-13
  39 794.330 -4.75363e-10 7.04662e-14
  40 794.330 -4.76272e-10 5.68350e-14
  41 794.330 -4.76575e-10 1.57170e-13
  42 794.330 -4.76575e-10 2.33394e-13
  43 794.330 -4.76272e-10 1.36882e-13
  44 794.330 -4.75059e-10 -3.94563e-14
  45 794.330 -4.76272e-10 -1.09329e-14
  46 794.330 -4.76272e-10 -1.20085e-13
  47 794.330 -4.76575e-10 -1.26327e-15
  48 794.330 -4.76575e-10 4.85775e-14
  49 794.330 -4.75969e-10 2.33937e-13
  50 794.330 -4.76272e-10 -7.88324e-14
  51 794.330 -4.74756e-10 -7.34290e-14
  52 794.330 -4.74529e-10 -1.25938e-13
  53 794.330 -4.75666e-10 -1.34620e-13
  54 794.330 -4.76120e-10 9.51634e-14
  55 794.330 -4.76575e-10 -3.67145e-14
  56 794.330 -4.75969e-10 -8.83689e-14
  57 794.330 -4.75514e-10 6.17738e-14
  58 794.330 -4.76272e-10 2.72842e-13
  59 794.330 -4.76445e-10 6.61853e-14
  60 794.330 -4.76575e-10 -7.20223e-14
  61 794.330 -4.76575e-10 2.19041e-13
  62 794.330 -4.76575e-10 -1.51521e-13
  63 794.330 -4.75484e-10 -2.60465e-13
  64 794.330 -4.75211e-10 -4.90901e-13
  65 794.330 -4.76272e-10 2.10861e-14
  66 794.330 -4.76575e-10 -6.76536e-14
  67 794.330 -4.76272e-10 -3.65096e-13
  68 794.330 -4.76272e-10 2.68080e-13
  69 794.330 -4.75406e-10 -1.65010e-13
  70 794.330 -4.76234e-10 -2.10123e-14
  71 794.330 -4.75666e-10 1.45920e-13
  72 794.330 -4.76185e-10 7.36413e-14
  73 794.330 -4.76185e-10 -3.54053e-13
  74 794.330 -4.76211e-10 -4.92148e-14
  75 794.330 -4.76575e-10 1.39626e-13
  76 794.330 -4.73998e-10 -2.67808e-13
  77 794.330 -4.76424e-10 1.45600e-13
  78 794.330 -4.76272e-10 -1.13079e-13
  79 794.330 -4.75926e-10 1.44132e-13
  80 794.330 -4.76272e-10 1.32646e-13
  81 794.330 -4.76272e-10 2.30477e-13
  82 794.330 -4.75666e-10 1.36342e-13
  83 794.330 -4.76575e-10 2.01041e-13
  84 794.330 -4.75817e-10 1.69903e-13
  85 794.330 -4.76272e-10 1.98697e-13
  86 794.330 -4.75514e-10 2.34535e-13
  87 794.330 -4.74756e-10 -9.75575e-14
  88 794.330 -4.74392e-10 -3.16555e-13
  89 794.330 -4.76211e-10 4.54396e-14
  90 794.330 -4.75514e-10 1.17879e-14
  91 794.330 -4.76393e-10 -1.52476e-13
  92 794.330 -4.75120e-10 -6.34953e-14
  93 794.330 -4.76393e-10 -3.68891e-13
  94 794.330 -4.75666e-10 9.25557e-14
  95 794.330 -4.76211e-10 -2.23588e-13
  96 794.330 -4.76575e-10 -3.51847e-14
  97 794.330 -4.76211e-10 9.72340e-13
  98 794.330 -4.75666e-10 -9.38438e-14
  99 794.330 -4.75363e-10 3.10642e-13
  100 794.330 -4.76393e-10 -2.62405e-14
  101 794.330 -4.75211e-10 -3.20363e-13
  102 794.330 -4.76211e-10 -8.80110e-13
  103 794.330 -4.76424e-10 1.02766e-13
  104 794.330 -4.76211e-10 -1.48161e-13
  105 794.330 -4.76393e-10 -3.07498e-13
  106 794.330 -4.76575e-10 -8.11763e-14
  107 794.330 -4.75363e-10 2.60899e-13
  108 794.330 -4.75666e-10 -5.96670e-14
  109 794.330 -4.76211e-10 -7.88324e-15
  110 794.330 -4.74211e-10 3.61874e-13
  111 794.330 -4.75438e-10 -4.38642e-14
  112 794.330 -4.76120e-10 -6.29673e-14
  113 794.330 -4.75796e-10 -1.73244e-13
  114 794.330 -4.76056e-10 -3.25056e-13
  115 794.330 -4.75514e-10 1.28826e-13
  116 794.330 -4.76393e-10 2.13928e-13
  117 794.330 -4.75514e-10 -8.24323e-13
  118 794.330 -4.76272e-10 5.84771e-15
  119 794.330 -4.75796e-10 3.62493e-14
  120 794.330 -4.76424e-10 1.28501e-13
  121 794.330 -4.76056e-10 1.07566e-13
  122 794.330 -4.76445e-10 1.80574e-13
  123 794.330 -4.76272e-10 -1.91095e-14
  124 794.330 -4.75406e-10 1.90953e-13
  125 794.330 -4.76575e-10 -4.67883e-14
  126 794.330 -4.76120e-10 -3.87777e-14
  127 794.330 -4.76315e-10 1.68387e-13
  128 794.330 -4.76348e-10 3.67163e-13
  129 794.330 -4.76120e-10 -4.32010e-14
  130 794.330 -4.76120e-10 7.82092e-14
  131 794.330 -4.75363e-10 1.25467e-13
  132 794.330 -4.76462e-10 -5.14044e-14
  133 794.330 -4.76445e-10 1.34231e-13
  134 794.330 -4.75406e-10 3.42633e-13
  135 794.330 -4.76056e-10 9.37360e-13
  136 794.330 -4.75016e-10 -1.58610e-14
  137 794.330 -4.76056e-10 1.95183e-13
  138 794.330 -4.76424e-10 1.41467e-13
  139 794.330 -4.76575e-10 -3.35476e-14
  140 794.330 -4.75796e-10 -3.48956e-13
  141 794.330 -4.76424e-10 1.69545e-13
  142 794.330 -4.76727e-10 -1.45427e-13
  143 794.330 -4.76056e-10 -1.07066e-13
  144 794.330 -4.75484e-10 4.50574e-13
  145 794.330 -4.76030e-10 3.46095e-13
  146 794.330 -4.75796e-10 -1.82099e-13
  147 794.330 -4.75817e-10 -5.37717e-14
  148 794.330 -4.76272e-10 6.20914e-14
  149 794.330 -4.72937e-10 -1.23911e-13
  150 794.330 -4.75969e-10 3.31171e-14
  151 794.330 -4.76424e-10 -1.05283e-13
  152 794.330 -4.75817e-10 -2.93740e-13
  153 794.330 -4.76424e-10 3.43310e-13
  154 794.330 -4.76030e-10 3.43456e-14
  155 794.330 -4.75817e-10 2.43319e-13
  156 794.330 -4.76056e-10 1.19723e-13
  157 794.330 -4.75926e-10 -1.01277e-13
  158 794.330 -4.76575e-10 2.39014e-13
  159 794.330 -4.76424e-10 -1.40393e-14
  160 794.330 -4.76030e-10 -2.47304e-14
  161 794.330 -4.73119e-10 -3.54119e-14
  162 794.330 -4.76424e-10 1.43851e-13
  163 794.330 -4.76575e-10 -8.11763e-14
  164 794.330 -4.75666e-10 -6.25795e-13
  165 794.330 -4.75817e-10 1.75924e-14
  166 794.330 -4.75406e-10 -1.24107e-13
  167 794.330 -4.76315e-10 -9.91040e-14
  168 794.330 -4.74886e-10 9.33723e-14
  169 794.330 -4.75926e-10 -9.17294e-14
  170 794.330 -4.76393e-10 -8.57459e-14
  171 794.330 -4.75536e-10 -1.13617e-13
  172 794.330 -4.75514e-10 2.18313e-13
  173 794.330 -4.75666e-10 -7.96766e-14
  174 794.330 -4.75969e-10 -1.45588e-13
  175 794.330 -4.75666e-10 6.12748e-15
  176 794.330 -4.75969e-10 -6.29920e-14
  177 794.330 -4.75817e-10 -2.60830e-14
  178 794.330 -4.76272e-10 -1.43971e-14
  179 794.330 -4.75666e-10 5.98239e-14
  180 794.330 -4.76056e-10 -2.96983e-14
  181 794.330 -4.75969e-10 -1.45600e-13
  182 794.330 -4.76575e-10 -5.54091e-13
  183 794.330 -4.76272e-10 -1.84837e-13
  184 794.330 -4.76575e-10 -1.19648e-13
  185 794.330 -4.76424e-10 -5.91906e-14
  186 794.330 -4.76393e-10 -1.08069e-14
  187 794.330 -4.75666e-10 -1.75085e-13
  188 794.330 -4.75302e-10 1.50920e-13
  189 794.330 -4.76575e-10 1.42757e-13
  190 794.330 -4.76185e-10 -7.86739e-15
  191 794.330 -4.76272e-10 7.84746e-14
  192 794.330 -4.76185e-10 -1.14458e-13
  193 794.330 -4.75302e-10 -1.66017e-13
  194 794.330 -4.76272e-10 -4.99337e-14
  195 794.330 -4.76424e-10 -7.11504e-14
  196 794.330 -4.75211e-10 3.36212e-14
  197 794.330 -4.76272e-10 -7.03956e-14
  198 794.330 -4.75817e-10 -1.10143e-13
  199 794.330 -4.75059e-10 -3.92433e-14
  200 794.330 -4.76575e-10 1.29759e-13
  201 794.330 -4.76120e-10 2.79183e-14
  202 794.330 -4.75848e-10 3.80335e-13
  203 794.330 -4.75969e-10 -1.37506e-13
  204 794.330 -4.76424e-10 1.88482e-13
  205 794.330 -4.75666e-10 1.29269e-13
  206 794.330 -4.76393e-10 5.74936e-13
  207 794.330 -4.76393e-10 1.55700e-14
  208 794.330 -4.76030e-10 2.45251e-13
  209 794.330 -4.76120e-10 3.01025e-13
  210 794.330 -4.75059e-10 -4.84320e-14
  211 794.330 -4.76575e-10 8.57797e-14
  212 794.330 -4.74938e-10 3.88566e-13
  213 794.330 -4.75120e-10 2.99070e-14
  214 794.330 -4.76575e-10 1.33724e-15
  215 794.330 -4.76575e-10 3.33835e-13
  216 794.330 -4.76393e-10 -2.35387e-13
  217 794.330 -4.76120e-10 -1.46142e-13
  218 794.330 -4.76272e-10 1.03329e-13
  219 794.330 -4.76393e-10 2.59163e-13
  220 794.330 -4.76272e-10 -1.33812e-13
  221 794.330 -4.76272e-10 -3.60229e-15
  222 794.330 -4.76120e-10 -3.68254e-13
  223 794.330 -4.76757e-10 4.86986e-14
  224 794.330 -4.75848e-10 -4.40574e-14
  225 794.330 -4.75302e-10 1.38982e-13
  226 794.330 -4.76393e-10 -1.26880e-13
  227 794.330 -4.75817e-10 -1.38664e-14
  228 794.330 -4.76211e-10 1.84875e-13
  229 794.330 -4.76575e-10 4.05821e-14
  230 794.330 -4.74453e-10 -2.70695e-13
  231 794.330 -4.76393e-10 -2.34114e-13
  232 794.330 -4.75120e-10 -1.64578e-13
  233 794.330 -4.75302e-10 -6.06469e-13
  234 794.330 -4.76575e-10 -2.83248e-13
  235 794.330 -4.76393e-10 -1.03850e-13
  236 794.330 -4.76575e-10 1.36470e-13
  237 794.330 -4.75302e-10 3.91809e-13
  238 794.330 -4.76575e-10 1.72794e-13
  239 794.330 -4.75514e-10 -6.05813e-13
  240 794.330 -4.74392e-10 -1.25244e-14
  241 794.330 -4.76424e-10 -6.44473e-14
</Section>

newXOutput 47

<Section columns = "stress_xx | stress_yy | stress_xy">
  1 810.326 -4.73847e-10 1.24019e-13
  2 810.326 -4.71118e-10 3.36996e-13
  3 810.326 -4.74756e-10 -1.21259e-12
  4 810.326 -4.73392e-10 4.06884e-14
  5 810.326 -4.75363e-10 2.04728e-13
  6 810.326 -4.76575e-10 1.62988e-13
  7 810.326 -4.75666e-10 -5.94549e-14
  8 810.326 -4.73847e-10 -1.64825e-13
  9 810.326 -4.74150e-10 -8.79222e-14
  10 810.326 -4.75059e-10 -7.34899e-13
  11 810.326 -4.73544e-10 -4.01576e-13
  12 810.326 -4.72028e-10 3.86350e-13
  13 810.326 -4.74984e-10 2.50793e-13
  14 810.326 -4.74150e-10 -9.02928e-14
  15 810.326 -4.74529e-10 7.55838e-14
  16 810.326 -4.74756e-10 1.95278e-13
  17 810.326 -4.75666e-10 -4.76109e-13
  18 810.326 -4.75363e-10 -9.76392e-14
  19 810.326 -4.74453e-10 4.19943e-13
  20 810.326 -4.74756e-10 7.76373e-13
  21 810.326 -4.74756e-10 -1.61152e-13
  22 810.326 -4.75059e-10 -9.71697e-15
  23 810.326 -4.74150e-10 6.03133e-13
  24 810.326 -4.72937e-10 -4.88196e-14
  25 810.326 -4.73847e-10 7.32294e-14
  26 810.326 -4.74301e-10 3.66147e-14
  27 810.326 -4.74453e-10 -2.49074e-13
  28 810.326 -4.73847e-10 8.92483e-14
  29 810.326 -4.73847e-10 -3.66147e-14
  30 810.326 -4.75059e-10 3.57956e-13
  31 810.326 -4.73847e-10 -1.89375e-12
  32 810.326 -4.74756e-10 -1.79290e-12
  33 810.326 -4.72937e-10 -2.51850e-13
  34 810.326 -4.73847e-10 1.11736e-13
  35 810.326 -4.74984e-10 -2.94058e-13
  36 810.326 -4.74453e-10 -1.69406e-13
  37 810.326 -4.75363e-10 -4.61678e-14
  38 810.326 -4.75059e-10 1.10568e-14
  39 810.326 -4.74453e-10 -2.90576e-13
  40 810.326 -4.75059e-10 -1.97285e-13
  41 810.326 -4.76272e-10 3.59416e-13
  42 810.326 -4.74453e-10 2.00532e-13
  43 810.326 -4.74453e-10 2.12771e-13
  44 810.326 -4.73847e-10 -3.83348e-13
  45 810.326 -4.73847e-10 -2.30907e-14
  46 810.326 -4.74453e-10 1.86699e-13
  47 810.326 -4.75363e-10 2.41562e-14
  48 810.326 -4.75666e-10 -7.10143e-14
  49 810.326 -4.74453e-10 1.96542e-13
  50 810.326 -4.74150e-10 -1.64796e-13
  51 810.326 -4.73847e-10 9.15368e-14
  52 810.326 -4.73847e-10 -5.36722e-14
  53 810.326 -4.73847e-10 -1.03683e-14
  54 810.326 -4.74301e-10 1.12621e-13
  55 810.326 -4.75666e-10 3.66147e-14
  56 810.326 -4.74453e-10 4.54427e-14
  57 810.326 -4.74150e-10 -2.22101e-14
  58 810.326 -4.73695e-10 -3.33590e-13
  59 810.326 -4.74237e-10 -2.44075e-14
  60 810.326 -4.75059e-10 -1.73137e-13
  61 810.326 -4.74453e-10 -3.03788e-14
  62 810.326 -4.74453e-10 -1.78837e-13
  63 810.326 -4.74938e-10 -7.62149e-14
  64 810.326 -4.73998e-10 3.32085e-14
  65 810.326 -4.74756e-10 -1.86928e-13
  66 810.326 -4.76120e-10 4.63904e-14
  67 810.326 -4.74908e-10 2.36470e-14
  68 810.326 -4.74150e-10 -7.19303e-13
  69 810.326 -4.75016e-10 1.50079e-13
  70 810.326 -4.74643e-10 3.44608e-14
  71 810.326 -4.74605e-10 3.09641e-14
  72 810.326 -4.74886e-10 -7.28454e-14
  73 810.326 -4.74366e-10 -4.23785e-13
  74 810.326 -4.74211e-10 -4.60527e-14
  75 810.326 -4.73847e-10 4.66926e-14
  76 810.326 -4.74453e-10 -2.33137e-13
  77 810.326 -4.75514e-10 -7.87766e-14
  78 810.326 -4.74605e-10 1.04446e-15
  79 810.326 -4.75016e-10 -4.99133e-14
  80 810.326 -4.73847e-10 4.00080e-13
  81 810.326 -4.74301e-10 -6.13179e-15
  82 810.326 -4.75059e-10 -6.88248e-14
  83 810.326 -4.74605e-10 -7.68065e-14
  84 810.326 -4.74908e-10 7.49325e-14
  85 810.326 -4.75059e-10 -1.73949e-13
  86 810.326 -4.74301e-10 5.31356e-13
  87 810.326 -4.74150e-10 -4.76168e-15
  88 810.326 -4.74574e-10 3.60889e-13
  89 810.326 -4.75120e-10 1.51142e-13
  90 810.326 -4.74605e-10 3.41078e-13
  91 810.326 -4.74938e-10 5.96855e-14
  92 810.326 -4.74574e-10 1.48663e-13
  93 810.326 -4.73301e-10 -5.75520e-14
  94 810.326 -4.74392e-10 -4.80469e-13
  95 810.326 -4.74574e-10 1.77786e-13
  96 810.326 -4.74756e-10 5.06856e-14
  97 810.326 -4.75302e-10 -9.81837e-14
  98 810.326 -4.73301e-10 -4.86923e-14
  99 810.326 -4.74150e-10 8.85442e-14
  100 810.326 -4.74938e-10 -1.67165e-13
  101 810.326 -4.74301e-10 -4.23883e-13
  102 810.326 -4.73847e-10 -2.91140e-14
  103 810.326 -4.74756e-10 4.69058e-13
  104 810.326 -4.74574e-10 1.22694e-13
  105 810.326 -4.73483e-10 -1.02166e-13
  106 810.326 -4.75059e-10 -7.99538e-14
  107 810.326 -4.74605e-10 -7.80879e-14
  108 810.326 -4.74301e-10 -7.84319e-14
  109 810.326 -4.74574e-10 1.68674e-14
  110 810.326 -4.74574e-10 1.46121e-13
  111 810.326 -4.74301e-10 -1.04720e-13
  112 810.326 -4.74756e-10 2.67722e-13
  113 810.326 -4.75146e-10 1.60261e-13
  114 810.326 -4.74626e-10 5.68888e-15
  115 810.326 -4.75363e-10 8.46348e-15
  116 810.326 -4.75302e-10 1.92120e-13
  117 810.326 -4.75059e-10 1.54991e-13
  118 810.326 -4.74150e-10 7.74395e-14
  119 810.326 -4.74237e-10 -1.49328e-13
  120 810.326 -4.74908e-10 -2.03743e-13
  121 810.326 -4.74107e-10 1.24717e-13
  122 810.326 -4.74366e-10 1.12218e-13
  123 810.326 -4.74453e-10 -3.40702e-13
  124 810.326 -4.74107e-10 -1.08811e-13
  125 810.326 -4.74415e-10 -1.26007e-13
  126 810.326 -4.74529e-10 -8.17219e-14
  127 810.326 -4.75276e-10 -3.55469e-13
  128 810.326 -4.74529e-10 4.70125e-13
  129 810.326 -4.73960e-10 -2.94772e-14
  130 810.326 -4.74150e-10 1.33039e-13
  131 810.326 -4.75059e-10 -5.79527e-15
  132 810.326 -4.74643e-10 -1.83924e-13
  133 810.326 -4.75146e-10 -3.54720e-13
  134 810.326 -4.74237e-10 1.17690e-13
  135 810.326 -4.74756e-10 -2.40712e-14
  136 810.326 -4.74626e-10 7.41029e-14
  137 810.326 -4.74496e-10 1.74375e-13
  138 810.326 -4.74756e-10 8.38566e-14
  139 810.326 -4.75926e-10 9.82845e-14
  140 810.326 -4.74237e-10 -2.93272e-13
  141 810.326 -4.74150e-10 -4.13690e-14
  142 810.326 -4.74605e-10 -8.05758e-14
  143 810.326 -4.74237e-10 8.39573e-14
  144 810.326 -4.74574e-10 -2.16022e-14
  145 810.326 -4.73483e-10 -9.25119e-14
  146 810.326 -4.74626e-10 1.28546e-13
  147 810.326 -4.74150e-10 -8.76365e-15
  148 810.326 -4.74908e-10 -1.44015e-13
  149 810.326 -4.74150e-10 -3.34790e-13
  150 810.326 -4.74453e-10 1.77044e-13
  151 810.326 -4.75059e-10 5.80613e-15
  152 810.326 -4.74756e-10 1.18390e-13
  153 810.326 -4.74605e-10 -7.10818e-14
  154 810.326 -4.74938e-10 1.77243e-13
  155 810.326 -4.74453e-10 -2.18192e-14
  156 810.326 -4.73327e-10 8.10000e-15
  157 810.326 -4.74886e-10 -9.28570e-14
  158 810.326 -4.74301e-10 -1.09251e-13
  159 810.326 -4.74453e-10 1.09609e-14
  160 810.326 -4.74211e-10 -1.08822e-13
  161 810.326 -4.74574e-10 -3.99917e-13
  162 810.326 -4.74150e-10 -1.55871e-13
  163 810.326 -4.74453e-10 1.44992e-13
  164 810.326 -4.74107e-10 -5.71310e-13
  165 810.326 -4.75817e-10 -2.53451e-13
  166 810.326 -4.74366e-10 -1.06159e-13
  167 810.326 -4.74237e-10 1.54888e-13
  168 810.326 -4.74626e-10 2.91781e-13
  169 810.326 -4.74366e-10 3.66845e-14
  170 810.326 -4.75666e-10 5.50073e-13
  171 810.326 -4.72937e-10 -6.15302e-14
  172 810.326 -4.74908e-10 1.14139e-13
  173 810.326 -4.74453e-10 -1.47931e-14
  174 810.326 -4.73544e-10 9.06771e-14
  175 810.326 -4.73998e-10 -5.16755e-14
  176 810.326 -4.74453e-10 5.00196e-14
  177 810.326 -4.74453e-10 -5.61562e-14
  178 810.326 -4.74150e-10 2.14400e-14
  179 810.326 -4.74574e-10 8.77151e-14
  180 810.326 -4.75146e-10 -1.79389e-14
  181 810.326 -4.73544e-10 1.64322e-13
  182 810.326 -4.75666e-10 1.98108e-13
  183 810.326 -4.74150e-10 2.30693e-13
  184 810.326 -4.75120e-10 -4.83455e-13
  185 810.326 -4.75211e-10 -7.04078e-14
  186 810.326 -4.74756e-10 -2.16382e-13
  187 810.326 -4.73695e-10 -5.32655e-13
  188 810.326 -4.74938e-10 -2.68897e-13
  189 810.326 -4.74756e-10 -2.58347e-13
  190 810.326 -4.74886e-10 -1.56092e-13
  191 810.326 -4.74453e-10 -1.97515e-14
  192 810.326 -4.74626e-10 9.93828e-14
  193 810.326 -4.75484e-10 -3.05838e-13
  194 810.326 -4.74453e-10 3.03078e-13
  195 810.326 -4.75059e-10 -1.22408e-13
  196 810.326 -4.74756e-10 -1.00413e-13
  197 810.326 -4.75211e-10 6.49273e-14
  198 810.326 -4.74605e-10 -4.14732e-14
  199 810.326 -4.74301e-10 1.36550e-13
  200 810.326 -4.73847e-10 1.37601e-13
  201 810.326 -4.74453e-10 4.41313e-14
  202 810.326 -4.74938e-10 -1.67716e-13
  203 810.326 -4.74453e-10 6.25355e-14
  204 810.326 -4.74150e-10 -4.86788e-14
  205 810.326 -4.75059e-10 7.54665e-15
  206 810.326 -4.75120e-10 1.58190e-13
  207 810.326 -4.74938e-10 8.83486e-14
  208 810.326 -4.73483e-10 -1.97021e-13
  209 810.326 -4.74756e-10 3.55512e-13
  210 810.326 -4.74150e-10 -2.23029e-14
  211 810.326 -4.76185e-10 1.21257e-13
  212 810.326 -4.74574e-10 -1.13861e-13
  213 810.326 -4.74392e-10 6.02362e-14
  214 810.326 -4.74453e-10 2.55495e-13
  215 810.326 -4.73847e-10 1.20177e-13
  216 810.326 -4.74574e-10 -2.08659e-13
  217 810.326 -4.74453e-10 -5.59765e-13
  218 810.326 -4.73240e-10 2.83903e-14
  219 810.326 -4.74756e-10 -2.81968e-13
  220 810.326 -4.74605e-10 1.04067e-13
  221 810.326 -4.74756e-10 -3.20437e-13
  222 810.326 -4.74453e-10 4.32414e-13
  223 810.326 -4.74574e-10 -4.67396e-13
  224 810.326 -4.74574e-10 9.66910e-14
  225 810.326 -4.74392e-10 -6.94327e-13
  226 810.326 -4.75120e-10 1.27245e-13
  227 810.326 -4.74301e-10 -3.18571e-13
  228 810.326 -4.73847e-10 3.31060e-13
  229 810.326 -4.75969e-10 -1.57220e-13
  230 810.326 -4.74150e-10 1.16598e-13
  231 810.326 -4.75302e-10 -2.56373e-13
  232 810.326 -4.74211e-10 -7.03143e-14
  233 810.326 -4.73665e-10 1.12023e-12
  234 810.326 -4.74605e-10 8.26273e-14
  235 810.326 -4.74392e-10 -5.31610e-15
  236 810.326 -4.75536e-10 1.46427e-13
  237 810.326 -4.74211e-10 1.36625e-13
  238 810.326 -4.74756e-10 4.61064e-14
  239 810.326 -4.74453e-10 2.25065e-13
  240 810.326 -4.72937e-10 1.47561e-13
  241 810.326 -4.74756e-10 6.71270e-14
</Section>

newXOutput 48

<Section columns = "stress_xx | stress_yy | stress_xy">
  1 826.255 -4.72937e-10 8.70697e-14
  2 826.255 -4.70209e-10 -2.92122e-13
  3 826.255 -4.70664e-10 -9.75006e-13
  4 826.255 -4.70209e-10 4.16132e-14
  5 826.255 -4.70815e-10 2.13467e-13
  6 826.255 -4.69299e-10 1.57293e-13
  7 826.255 -4.69754e-10 1.12354e-13
  8 826.255 -4.72028e-10 8.98866e-14
  9 826.255 -4.73240e-10 -3.81991e-13
  10 826.255 -4.73240e-10 -1.61036e-13
  11 826.255 -4.73240e-10 4.79365e-13
  12 826.255 -4.71421e-10 1.23590e-13
  13 826.255 -4.71573e-10 1.57293e-13
  14 826.255 -4.71725e-10 8.98866e-14
  15 826.255 -4.72255e-10 -1.12313e-14
  16 826.255 -4.72634e-10 1.20965e-12
  17 826.255 -4.73240e-10 -1.61036e-13
  18 826.255 -4.72634e-10 -6.29170e-13
  19 826.255 -4.72028e-10 -9.51243e-13
  20 826.255 -4.73240e-10 -4.83109e-13
  21 826.255 -4.73847e-10 -8.05181e-13
  22 826.255 -4.72028e-10 -7.02201e-13
  23 826.255 -4.71421e-10 -2.99610e-13
  24 826.255 -4.70815e-10 -7.30306e-14
  25 826.255 -4.69754e-10 7.30306e-14
  26 826.255 -4.69981e-10 1.20777e-13
  27 826.255 -4.70512e-10 -3.95103e-13
  28 826.255 -4.70891e-10 -5.45932e-14
  29 826.255 -4.72028e-10 -5.47730e-14
  30 826.255 -4.71421e-10 -1.33889e-13
  31 826.255 -4.71118e-10 -1.01362e-12
  32 826.255 -4.72937e-10 -2.28139e-13
  33 826.255 -4.72937e-10 -1.06962e-13
  34 826.255 -4.72634e-10 -5.64978e-13
  35 826.255 -4.69754e-10 2.04262e-13
  36 826.255 -4.69906e-10 7.43148e-13
  37 826.255 -4.71421e-10 6.86272e-14
  38 826.255 -4.72634e-10 -1.56057e-13
  39 826.255 -4.73847e-10 -1.24887e-13
  40 826.255 -4.72634e-10 4.87618e-14
  41 826.255 -4.69906e-10 7.36440e-13
  42 826.255 -4.70815e-10 2.35894e-13
  43 826.255 -4.73240e-10 3.70026e-13
  44 826.255 -4.70512e-10 -1.43549e-13
  45 826.255 -4.70209e-10 -4.32578e-13
  46 826.255 -4.69602e-10 7.25988e-14
  47 826.255 -4.70815e-10 2.37278e-13
  48 826.255 -4.72028e-10 -1.15565e-13
  49 826.255 -4.70512e-10 2.72216e-14
  50 826.255 -4.72634e-10 2.94935e-14
  51 826.255 -4.72028e-10 5.47730e-14
  52 826.255 -4.70664e-10 -1.74209e-14
  53 826.255 -4.70209e-10 -1.02990e-13
  54 826.255 -4.70664e-10 -2.75628e-14
  55 826.255 -4.72028e-10 -1.09546e-13
  56 826.255 -4.72028e-10 -1.03225e-13
  57 826.255 -4.69906e-10 2.76216e-14
  58 826.255 -4.72482e-10 -5.73411e-14
  59 826.255 -4.70599e-10 -1.71535e-13
  60 826.255 -4.71421e-10 -1.26453e-13
  61 826.255 -4.72179e-10 -4.07293e-14
  62 826.255 -4.70512e-10 -2.21192e-13
  63 826.255 -4.71482e-10 -9.94323e-14
  64 826.255 -4.71421e-10 1.71341e-13
  65 826.255 -4.70967e-10 -1.59150e-14
  66 826.255 -4.69602e-10 1.65719e-13
  67 826.255 -4.71118e-10 6.88765e-14
  68 826.255 -4.72028e-10 -1.18085e-13
  69 826.255 -4.72288e-10 -1.52379e-13
  70 826.255 -4.70777e-10 -5.55752e-15
  71 826.255 -4.70664e-10 -1.73771e-14
  72 826.255 -4.70728e-10 -2.96897e-14
  73 826.255 -4.73067e-10 -8.22544e-14
  74 826.255 -4.71482e-10 -1.76041e-13
  75 826.255 -4.70754e-10 5.39293e-14
  76 826.255 -4.71270e-10 -2.52085e-13
  77 826.255 -4.70512e-10 -2.77133e-13
  78 826.255 -4.70815e-10 -1.48625e-13
  79 826.255 -4.70728e-10 -1.09942e-13
  80 826.255 -4.70360e-10 2.00714e-13
  81 826.255 -4.70512e-10 -2.97286e-14
  82 826.255 -4.70967e-10 1.38567e-13
  83 826.255 -4.70512e-10 -1.19378e-14
  84 826.255 -4.72028e-10 -1.02976e-14
  85 826.255 -4.72786e-10 -5.61746e-14
  86 826.255 -4.72028e-10 1.28735e-13
  87 826.255 -4.69906e-10 1.58699e-13
  88 826.255 -4.71300e-10 2.32443e-13
  89 826.255 -4.71118e-10 -4.71864e-14
  90 826.255 -4.70664e-10 -1.37631e-13
  91 826.255 -4.70027e-10 1.88613e-13
  92 826.255 -4.70754e-10 -4.16825e-13
  93 826.255 -4.73119e-10 2.14594e-13
  94 826.255 -4.71300e-10 4.48984e-13
  95 826.255 -4.70573e-10 -1.15649e-13
  96 826.255 -4.70815e-10 -1.85380e-13
  97 826.255 -4.71118e-10 -1.99418e-13
  98 826.255 -4.71118e-10 -3.65126e-14
  99 826.255 -4.71421e-10 -8.63644e-14
  100 826.255 -4.70391e-10 1.85946e-13
  101 826.255 -4.72634e-10 1.17015e-14
  102 826.255 -4.70936e-10 -2.12624e-13
  103 826.255 -4.70967e-10 -2.26977e-14
  104 826.255 -4.71846e-10 -1.33137e-13
  105 826.255 -4.72392e-10 -1.00691e-13
  106 826.255 -4.72482e-10 -7.20901e-14
  107 826.255 -4.70664e-10 4.55962e-13
  108 826.255 -4.70967e-10 -1.69608e-13
  109 826.255 -4.71482e-10 1.63334e-13
  110 826.255 -4.72028e-10 1.04069e-13
  111 826.255 -4.72255e-10 -2.06131e-13
  112 826.255 -4.70967e-10 8.85658e-14
  113 826.255 -4.71898e-10 1.23349e-13
  114 826.255 -4.71638e-10 1.89858e-13
  115 826.255 -4.70057e-10 6.36170e-14
  116 826.255 -4.71118e-10 1.23599e-14
  117 826.255 -4.70664e-10 5.00205e-13
  118 826.255 -4.70512e-10 6.55835e-14
  119 826.255 -4.72028e-10 -1.18770e-13
  120 826.255 -4.70512e-10 2.50218e-13
  121 826.255 -4.71378e-10 4.23325e-14
  122 826.255 -4.71248e-10 -1.98019e-13
  123 826.255 -4.71876e-10 -3.84863e-13
  124 826.255 -4.71378e-10 4.91021e-14
  125 826.255 -4.69868e-10 -1.08312e-13
  126 826.255 -4.71573e-10 1.01954e-13
  127 826.255 -4.71898e-10 1.30309e-13
  128 826.255 -4.72482e-10 -4.72929e-13
  129 826.255 -4.70209e-10 -9.22439e-14
  130 826.255 -4.70057e-10 -4.28295e-14
  131 826.255 -4.71421e-10 -1.38538e-13
  132 826.255 -4.71118e-10 -1.30636e-13
  133 826.255 -4.73067e-10 -1.69330e-13
  134 826.255 -4.72028e-10 -1.87588e-13
  135 826.255 -4.72028e-10 1.06337e-13
  136 826.255 -4.70728e-10 2.17183e-14
  137 826.255 -4.70728e-10 9.85636e-14
  138 826.255 -4.70815e-10 -3.04285e-13
  139 826.255 -4.69949e-10 -1.12350e-13
  140 826.255 -4.71248e-10 4.43439e-14
  141 826.255 -4.70967e-10 5.12598e-14
  142 826.255 -4.71876e-10 -1.38565e-13
  143 826.255 -4.70988e-10 -8.84746e-14
  144 826.255 -4.71118e-10 -1.92274e-13
  145 826.255 -4.72028e-10 -2.26106e-13
  146 826.255 -4.71118e-10 4.42164e-14
  147 826.255 -4.72634e-10 -8.68669e-14
  148 826.255 -4.71118e-10 -1.60218e-13
  149 826.255 -4.72482e-10 -1.50386e-13
  150 826.255 -4.70360e-10 -7.12338e-14
  151 826.255 -4.72028e-10 -1.57763e-13
  152 826.255 -4.71421e-10 2.35943e-13
  153 826.255 -4.69451e-10 -2.57590e-13
  154 826.255 -4.71300e-10 5.86480e-13
  155 826.255 -4.71118e-10 3.78570e-14
  156 826.255 -4.71378e-10 3.10977e-13
  157 826.255 -4.71378e-10 -2.46370e-13
  158 826.255 -4.70057e-10 -1.76251e-13
  159 826.255 -4.71270e-10 2.73865e-14
  160 826.255 -4.70391e-10 -1.94930e-13
  161 826.255 -4.71118e-10 -3.59244e-13
  162 826.255 -4.71270e-10 -2.85328e-13
  163 826.255 -4.69754e-10 -2.93284e-13
  164 826.255 -4.70988e-10 -1.55388e-13
  165 826.255 -4.70967e-10 9.28696e-14
  166 826.255 -4.72028e-10 4.92305e-14
  167 826.255 -4.71118e-10 -1.42046e-13
  168 826.255 -4.70469e-10 -2.85879e-14
  169 826.255 -4.72418e-10 4.60443e-14
  170 826.255 -4.71300e-10 -1.82566e-13
  171 826.255 -4.71638e-10 8.50661e-14
  172 826.255 -4.71725e-10 -3.60690e-13
  173 826.255 -4.70209e-10 -3.12514e-14
  174 826.255 -4.71725e-10 -2.81236e-15
  175 826.255 -4.70815e-10 3.54068e-14
  176 826.255 -4.71725e-10 3.92056e-14
  177 826.255 -4.70664e-10 -1.63726e-13
  178 826.255 -4.70209e-10 -3.58111e-14
  179 826.255 -4.71118e-10 9.77476e-14
  180 826.255 -4.70599e-10 -1.23184e-13
  181 826.255 -4.71725e-10 -2.30789e-13
  182 826.255 -4.72392e-10 3.03286e-13
  183 826.255 -4.69602e-10 2.87949e-14
  184 826.255 -4.73119e-10 2.80880e-13
  185 826.255 -4.70209e-10 1.65254e-13
  186 826.255 -4.71118e-10 -2.40426e-13
  187 826.255 -4.72937e-10 4.34492e-14
  188 826.255 -4.69845e-10 -2.85715e-13
  189 826.255 -4.72028e-10 7.97694e-14
  190 826.255 -4.71248e-10 1.14673e-13
  191 826.255 -4.71725e-10 -1.51443e-13
  192 826.255 -4.72807e-10 6.74111e-14
  193 826.255 -4.70936e-10 3.69117e-13
  194 826.255 -4.71876e-10 -1.10012e-13
  195 826.255 -4.71118e-10 7.77109e-14
  196 826.255 -4.71421e-10 -4.40913e-13
  197 826.255 -4.71118e-10 1.81637e-13
  198 826.255 -4.71421e-10 -2.21895e-13
  199 826.255 -4.70209e-10 -8.14541e-14
  200 826.255 -4.72937e-10 -2.03633e-13
  201 826.255 -4.71270e-10 2.86117e-13
  202 826.255 -4.71482e-10 -6.30011e-13
  203 826.255 -4.71573e-10 -3.61400e-13
  204 826.255 -4.71725e-10 1.31287e-13
  205 826.255 -4.70815e-10 1.37633e-13
  206 826.255 -4.73483e-10 -4.65692e-13
  207 826.255 -4.69845e-10 9.72358e-15
  208 826.255 -4.70391e-10 -1.91660e-13
  209 826.255 -4.71573e-10 9.69084e-14
  210 826.255 -4.70209e-10 2.27982e-13
  211 826.255 -4.69819e-10 6.25977e-14
  212 826.255 -4.71664e-10 2.53914e-13
  213 826.255 -4.70391e-10 -3.75275e-14
  214 826.255 -4.72179e-10 -6.89794e-14
  215 826.255 -4.71300e-10 1.04705e-13
  216 826.255 -4.69481e-10 -1.62907e-13
  217 826.255 -4.71270e-10 8.07578e-14
  218 826.255 -4.70360e-10 -7.48564e-14
  219 826.255 -4.71846e-10 -7.97694e-14
  220 826.255 -4.71421e-10 3.76841e-14
  221 826.255 -4.72331e-10 5.64143e-14
  222 826.255 -4.71876e-10 3.54849e-13
  223 826.255 -4.72755e-10 -9.99939e-14
  224 826.255 -4.69845e-10 1.28080e-13
  225 826.255 -4.72028e-10 1.53220e-13
  226 826.255 -4.69481e-10 2.12348e-13
  227 826.255 -4.73240e-10 -2.05039e-13
  228 826.255 -4.70027e-10 2.14312e-13
  229 826.255 -4.70967e-10 3.27715e-14
  230 826.255 -4.72331e-10 1.83978e-13
  231 826.255 -4.73483e-10 -5.28034e-14
  232 826.255 -4.71846e-10 -7.07816e-14
  233 826.255 -4.71482e-10 5.24686e-13
  234 826.255 -4.70967e-10 -3.86971e-13
  235 826.255 -4.72028e-10 1.41367e-13
  236 826.255 -4.70469e-10 -6.17925e-14
  237 826.255 -4.70754e-10 -3.95717e-13
  238 826.255 -4.70391e-10 1.55887e-13
  239 826.255 -4.69906e-10 -1.92872e-13
  240 826.255 -4.72028e-10 1.85382e-13
  241 826.255 -4.72634e-10 1.41377e-13
</Section>

newXOutput 49

<Section columns = "stress_xx | stress_yy | stress_xy">
  1 842.119 -4.70664e-10 -2.10301e-13
  2 842.119 -4.70664e-10 5.55596e-13
  3 842.119 -4.70209e-10 5.26111e-13
  4 842.119 -4.70209e-10 -1.53759e-13
  5 842.119 -4.70209e-10 -9.54597e-14
  6 842.119 -4.70209e-10 1.45665e-13
  7 842.119 -4.70209e-10 -1.05343e-13
  8 842.119 -4.70512e-10 -2.61845e-13
  9 842.119 -4.70815e-10 -2.26126e-13
  10 842.119 -4.70209e-10 -2.09476e-13
  11 842.119 -4.70512e-10 -3.81839e-13
  12 842.119 -4.70512e-10 1.08552e-13
  13 842.119 -4.70436e-10 -2.08871e-13
  14 842.119 -4.70512e-10 5.31318e-13
  15 842.119 -4.70436e-10 -4.64279e-14
  16 842.119 -4.70209e-10 -6.38109e-14
  17 842.119 -4.70209e-10 -2.09476e-13
  18 842.119 -4.70209e-10 3.23236e-13
  19 842.119 -4.70209e-10 1.94220e-13
  20 842.119 -4.70209e-10 1.45665e-13
  21 842.119 -4.70512e-10 -3.21842e-13
  22 842.119 -4.70512e-10 3.70397e-13
  23 842.119 -4.70209e-10 3.21842e-13
  24 842.119 -4.70815e-10 1.21388e-13
  25 842.119 -4.70664e-10 1.09249e-13
  26 842.119 -4.70436e-10 -2.91454e-13
  27 842.119 -4.70512e-10 4.55368e-13
  28 842.119 -4.70209e-10 -2.04903e-13
  29 842.119 -4.70209e-10 7.28326e-14
  30 842.119 -4.70209e-10 -4.55204e-14
  31 842.119 -4.70512e-10 5.14935e-13
  32 842.119 -4.70209e-10 -4.91306e-13
  33 842.119 -4.70209e-10 -1.61640e-13
  34 842.119 -4.70209e-10 -6.56100e-13
  35 842.119 -4.70436e-10 -1.36632e-14
  36 842.119 -4.70209e-10 2.69306e-13
  37 842.119 -4.70209e-10 -4.02837e-13
  38 842.119 -4.70209e-10 -4.93542e-13
  39 842.119 -4.70209e-10 2.56442e-13
  40 842.119 -4.70209e-10 5.33173e-14
  41 842.119 -4.70512e-10 5.29561e-13
  42 842.119 -4.70209e-10 -2.09870e-13
  43 842.119 -4.70512e-10 -2.03467e-13
  44 842.119 -4.70512e-10 -2.62211e-13
  45 842.119 -4.70209e-10 -9.11952e-14
  46 842.119 -4.70209e-10 5.99608e-14
  47 842.119 -4.70512e-10 6.18676e-14
  48 842.119 -4.70512e-10 -8.12233e-14
  49 842.119 -4.70209e-10 -1.51684e-13
  50 842.119 -4.70209e-10 -5.89611e-14
  51 842.119 -4.70209e-10 -1.09249e-13
  52 842.119 -4.70209e-10 5.68541e-14
  53 842.119 -4.70209e-10 1.48269e-13
  54 842.119 -4.70209e-10 1.49110e-13
  55 842.119 -4.70209e-10 1.45665e-13
  56 842.119 -4.70512e-10 2.08697e-13
  57 842.119 -4.70360e-10 -9.62390e-14
  58 842.119 -4.70209e-10 1.08552e-13
  59 842.119 -4.70339e-10 2.14427e-13
  60 842.119 -4.70512e-10 2.58338e-13
  61 842.119 -4.70664e-10 -4.67764e-14
  62 842.119 -4.70209e-10 3.71132e-14
  63 842.119 -4.70754e-10 5.95555e-13
  64 842.119 -4.70209e-10 2.61845e-13
  65 842.119 -4.70209e-10 -1.48631e-13
  66 842.119 -4.70209e-10 9.91592e-14
  67 842.119 -4.70360e-10 -2.68304e-13
  68 842.119 -4.70360e-10 -1.70937e-13
  69 842.119 -4.70339e-10 -3.29550e-13
  70 842.119 -4.70322e-10 -3.67457e-13
  71 842.119 -4.70815e-10 -5.69416e-14
  72 842.119 -4.70339e-10 -3.07665e-15
  73 842.119 -4.70339e-10 3.48925e-13
  74 842.119 -4.70573e-10 1.86911e-13
  75 842.119 -4.70573e-10 -7.32945e-14
  76 842.119 -4.70360e-10 4.52765e-13
  77 842.119 -4.70209e-10 -2.01802e-13
  78 842.119 -4.70209e-10 2.39802e-13
  79 842.119 -4.70339e-10 -1.71134e-13
  80 842.119 -4.70512e-10 2.53520e-13
  81 842.119 -4.70360e-10 -1.04820e-13
  82 842.119 -4.70360e-10 2.54478e-13
  83 842.119 -4.70360e-10 1.90975e-14
  84 842.119 -4.70209e-10 4.76016e-14
  85 842.119 -4.70209e-10 9.48547e-14
  86 842.119 -4.70512e-10 3.39097e-13
  87 842.119 -4.70360e-10 7.97751e-14
  88 842.119 -4.70754e-10 -9.84303e-13
  89 842.119 -4.70209e-10 1.38459e-13
  90 842.119 -4.70512e-10 -1.67467e-13
  91 842.119 -4.70391e-10 3.41773e-14
  92 842.119 -4.70209e-10 -6.20232e-14
  93 842.119 -4.70573e-10 3.03916e-13
  94 842.119 -4.70573e-10 2.42636e-13
  95 842.119 -4.70573e-10 -1.72633e-13
  96 842.119 -4.70057e-10 -6.68456e-14
  97 842.119 -4.70391e-10 -4.39900e-13
  98 842.119 -4.70391e-10 -1.08308e-13
  99 842.119 -4.70512e-10 -2.43637e-13
  100 842.119 -4.70209e-10 2.95512e-14
  101 842.119 -4.70512e-10 -1.25202e-13
  102 842.119 -4.70209e-10 9.60356e-14
  103 842.119 -4.70360e-10 -7.93860e-13
  104 842.119 -4.70573e-10 -1.18094e-13
  105 842.119 -4.70391e-10 2.23943e-14
  106 842.119 -4.70360e-10 1.80564e-13
  107 842.119 -4.70209e-10 -2.17022e-13
  108 842.119 -4.70209e-10 -2.24593e-13
  109 842.119 -4.70209e-10 1.33436e-13
  110 842.119 -4.70936e-10 -1.07527e-13
  111 842.119 -4.70209e-10 -2.57131e-13
  112 842.119 -4.70360e-10 -8.75475e-14
  113 842.119 -4.70209e-10 1.18137e-13
  114 842.119 -4.70339e-10 1.67608e-13
  115 842.119 -4.70209e-10 -4.82484e-14
  116 842.119 -4.70209e-10 -4.82763e-14
  117 842.119 -4.70209e-10 3.26353e-13
  118 842.119 -4.70209e-10 -1.02836e-13
  119 842.119 -4.70469e-10 -1.85421e-13
  120 842.119 -4.70512e-10 1.63176e-13
  121 842.119 -4.70858e-10 -1.01665e-13
  122 842.119 -4.70339e-10 -8.24553e-14
  123 842.119 -4.70360e-10 4.05375e-14
  124 842.119 -4.70339e-10 -3.19153e-13
  125 842.119 -4.70209e-10 -3.69182e-14
  126 842.119 -4.70550e-10 -1.28803e-13
  127 842.119 -4.70339e-10 8.42391e-14
  128 842.119 -4.70436e-10 1.28887e-13
  129 842.119 -4.70550e-10 1.75428e-13
  130 842.119 -4.70512e-10 8.15058e-15
  131 842.119 -4.70512e-10 -2.78353e-13
  132 842.119 -4.70550e-10 5.55438e-14
  133 842.119 -4.70209e-10 5.03887e-14
  134 842.119 -4.70728e-10 -1.27072e-14
  135 842.119 -4.70599e-10 2.84933e-13
  136 842.119 -4.70469e-10 1.33953e-13
  137 842.119 -4.70209e-10 -4.29404e-13
  138 842.119 -4.70209e-10 1.65973e-13
  139 842.119 -4.70209e-10 9.46635e-14
  140 842.119 -4.70339e-10 -1.20392e-13
  141 842.119 -4.70512e-10 6.21240e-14
  142 842.119 -4.70512e-10 -1.59362e-13
  143 842.119 -4.70339e-10 -2.06600e-14
  144 842.119 -4.70209e-10 7.86080e-14
  145 842.119 -4.70209e-10 -5.63805e-13
  146 842.119 -4.70599e-10 -2.23434e-13
  147 842.119 -4.70209e-10 5.75697e-14
  148 842.119 -4.70209e-10 -3.15158e-14
  149 842.119 -4.70512e-10 3.32463e-13
  150 842.119 -4.70360e-10 -1.47696e-13
  151 842.119 -4.70512e-10 -1.28236e-13
  152 842.119 -4.70209e-10 6.86702e-14
  153 842.119 -4.70360e-10 -3.71544e-14
  154 842.119 -4.70573e-10 3.88867e-13
  155 842.119 -4.70209e-10 1.96843e-14
  156 842.119 -4.70469e-10 2.27488e-13
  157 842.119 -4.70209e-10 -2.48081e-13
  158 842.119 -4.70057e-10 -3.02158e-13
  159 842.119 -4.70209e-10 -6.00793e-14
  160 842.119 -4.70209e-10 -2.16825e-13
  161 842.119 -4.70391e-10 4.08060e-13
  162 842.119 -4.70209e-10 1.17161e-13
  163 842.119 -4.70360e-10 2.06400e-13
  164 842.119 -4.70469e-10 4.00351e-13
  165 842.119 -4.70209e-10 1.21408e-13
  166 842.119 -4.70339e-10 -1.38889e-14
  167 842.119 -4.70339e-10 -7.67696e-14
  168 842.119 -4.70469e-10 5.16702e-15
  169 842.119 -4.70209e-10 1.40404e-13
  170 842.119 -4.70391e-10 8.92693e-14
  171 842.119 -4.70339e-10 2.39684e-14
  172 842.119 -4.70360e-10 -1.92744e-13
  173 842.119 -4.70512e-10 -2.52846e-14
  174 842.119 -4.70512e-10 3.04936e-13
  175 842.119 -4.70360e-10 1.13863e-13
  176 842.119 -4.70360e-10 5.02007e-14
  177 842.119 -4.70815e-10 -4.93204e-14
  178 842.119 -4.70360e-10 8.69148e-15
  179 842.119 -4.70209e-10 -1.16840e-13
  180 842.119 -4.70209e-10 -1.13257e-13
  181 842.119 -4.70360e-10 -6.49386e-14
  182 842.119 -4.70391e-10 -4.05017e-13
  183 842.119 -4.70360e-10 -8.61402e-14
  184 842.119 -4.70209e-10 -1.90817e-13
  185 842.119 -4.70209e-10 -5.88371e-14
  186 842.119 -4.70391e-10 -7.62651e-14
  187 842.119 -4.70664e-10 -2.83763e-13
  188 842.119 -4.70391e-10 -2.41432e-13
  189 842.119 -4.70391e-10 2.36651e-13
  190 842.119 -4.70728e-10 2.01028e-13
  191 842.119 -4.70209e-10 8.75934e-14
  192 842.119 -4.70209e-10 4.83659e-13
  193 842.119 -4.70391e-10 3.76745e-13
  194 842.119 -4.70209e-10 6.06938e-15
  195 842.119 -4.70209e-10 -3.37300e-13
  196 842.119 -4.70512e-10 -1.63036e-13
  197 842.119 -4.70209e-10 1.63937e-13
  198 842.119 -4.70512e-10 2.95144e-13
  199 842.119 -4.70209e-10 5.17640e-14
  200 842.119 -4.70209e-10 -5.76591e-14
  201 842.119 -4.70512e-10 -2.56945e-13
  202 842.119 -4.70573e-10 8.55288e-14
  203 842.119 -4.70360e-10 -4.02302e-14
  204 842.119 -4.70512e-10 -1.23725e-13
  205 842.119 -4.70512e-10 -1.67944e-13
  206 842.119 -4.70391e-10 5.41301e-15
  207 842.119 -4.70209e-10 1.06444e-13
  208 842.119 -4.70391e-10 -2.57969e-13
  209 842.119 -4.70360e-10 -3.20283e-13
  210 842.119 -4.70360e-10 -1.54116e-13
  211 842.119 -4.70209e-10 -4.18386e-14
  212 842.119 -4.70391e-10 4.62476e-13
  213 842.119 -4.70209e-10 1.49901e-13
  214 842.119 -4.70209e-10 -1.81132e-13
  215 842.119 -4.70209e-10 -4.95927e-13
  216 842.119 -4.70391e-10 -3.69565e-13
  217 842.119 -4.70360e-10 -3.92768e-13
  218 842.119 -4.70360e-10 -1.28846e-13
  219 842.119 -4.70209e-10 -1.09975e-13
  220 842.119 -4.70360e-10 1.30923e-13
  221 842.119 -4.70360e-10 1.69984e-13
  222 842.119 -4.70209e-10 3.19935e-13
  223 842.119 -4.70209e-10 -2.72957e-13
  224 842.119 -4.70936e-10 -2.58655e-13
  225 842.119 -4.70754e-10 1.40153e-13
  226 842.119 -4.70209e-10 -1.87251e-14
  227 842.119 -4.70664e-10 2.57537e-14
  228 842.119 -4.70391e-10 2.14438e-13
  229 842.119 -4.70209e-10 1.68705e-13
  230 842.119 -4.70815e-10 -2.02710e-13
  231 842.119 -4.70209e-10 3.44183e-13
  232 842.119 -4.70209e-10 -9.84395e-14
  233 842.119 -4.70573e-10 6.44557e-13
  234 842.119 -4.70360e-10 -9.54344e-14
  235 842.119 -4.70573e-10 1.71959e-13
  236 842.119 -4.70209e-10 1.00629e-14
  237 842.119 -4.70209e-10 -6.94385e-14
  238 842.119 -4.70754e-10 -4.36995e-14
  239 842.119 -4.70664e-10 4.60228e-13
  240 842.119 -4.70391e-10 -1.16532e-13
  241 842.119 -4.70209e-10 -1.68549e-13
</Section>

newXOutput 50

<Section columns = "stress_xx | stress_yy | stress_xy">
  1 857.917 -4.67480e-10 -1.06040e-13
  2 857.917 -4.66571e-10 7.26353e-14
  3 857.917 -4.67480e-10 5.11955e-14
  4 857.917 -4.67480e-10 -2.40462e-14
  5 857.917 -4.67480e-10 -6.53842e-14
  6 857.917 -4.67480e-10 -2.47034e-13
  7 857.917 -4.69527e-10 5.44765e-14
  8 857.917 -4.70209e-10 -1.08498e-13
  9 857.917 -4.69602e-10 2.03280e-14
  10 857.917 -4.69602e-10 1.53038e-13
  11 857.917 -4.69299e-10 3.06076e-13
  12 857.917 -4.67480e-10 4.06559e-14
  13 857.917 -4.69527e-10 2.74613e-13
  14 857.917 -4.70209e-10 -2.73188e-13
  15 857.917 -4.69072e-10 -3.88710e-13
  16 857.917 -4.70512e-10 2.09229e-13
  17 857.917 -4.69299e-10 -4.66882e-13
  18 857.917 -4.69299e-10 4.18459e-13
  19 857.917 -4.68390e-10 -6.39587e-14
  20 857.917 -4.67783e-10 8.21382e-13
  21 857.917 -4.69299e-10 6.76111e-13
  22 857.917 -4.68390e-10 5.55053e-13
  23 857.917 -4.69299e-10 2.65420e-13
  24 857.917 -4.67783e-10 4.02923e-13
  25 857.917 -4.70664e-10 2.17906e-13
  26 857.917 -4.69754e-10 4.73648e-14
  27 857.917 -4.68390e-10 2.42118e-13
  28 857.917 -4.67708e-10 2.15938e-13
  29 857.917 -4.67480e-10 1.08953e-13
  30 857.917 -4.68390e-10 4.53971e-15
  31 857.917 -4.68390e-10 -2.89729e-13
  32 857.917 -4.67480e-10 -8.20740e-13
  33 857.917 -4.68390e-10 -1.09905e-13
  34 857.917 -4.68390e-10 -6.51695e-13
  35 857.917 -4.70664e-10 -5.93554e-13
  36 857.917 -4.69602e-10 -4.40262e-13
  37 857.917 -4.70512e-10 2.66428e-13
  38 857.917 -4.70209e-10 4.39387e-13
  39 857.917 -4.70209e-10 -1.08779e-13
  40 857.917 -4.70209e-10 -7.68755e-13
  41 857.917 -4.70209e-10 -3.47329e-13
  42 857.917 -4.69299e-10 -1.44726e-13
  43 857.917 -4.70209e-10 1.19958e-14
  44 857.917 -4.69299e-10 -2.95058e-13
  45 857.917 -4.68390e-10 -1.23837e-13
  46 857.917 -4.69299e-10 -1.34811e-13
  47 857.917 -4.70512e-10 -4.85066e-14
  48 857.917 -4.69299e-10 -2.39097e-14
  49 857.917 -4.67480e-10 -1.64744e-14
  50 857.917 -4.69299e-10 3.02647e-15
  51 857.917 -4.68845e-10 -5.44765e-14
  52 857.917 -4.67480e-10 7.79342e-15
  53 857.917 -4.68390e-10 0.00000
  54 857.917 -4.69527e-10 6.42996e-16
  55 857.917 -4.68845e-10 0.00000
  56 857.917 -4.68390e-10 -2.73519e-14
  57 857.917 -4.69299e-10 -8.91414e-14
  58 857.917 -4.67632e-10 -1.16380e-13
  59 857.917 -4.69949e-10 1.03681e-13
  60 857.917 -4.68541e-10 4.96000e-13
  61 857.917 -4.67935e-10 -2.34928e-13
  62 857.917 -4.69299e-10 2.32473e-14
  63 857.917 -4.69117e-10 4.12509e-14
  64 857.917 -4.67783e-10 9.42028e-15
  65 857.917 -4.69299e-10 -1.09373e-13
  66 857.917 -4.69299e-10 2.96011e-14
  67 857.917 -4.68087e-10 -1.82823e-13
  68 857.917 -4.68541e-10 2.75812e-13
  69 857.917 -4.70209e-10 -5.73052e-14
  70 857.917 -4.68390e-10 2.70811e-13
  71 857.917 -4.69451e-10 -1.35933e-14
  72 857.917 -4.68520e-10 -1.60129e-13
  73 857.917 -4.69689e-10 4.65436e-14
  74 857.917 -4.68026e-10 4.79036e-14
  75 857.917 -4.68390e-10 4.54652e-14
  76 857.917 -4.69602e-10 4.34221e-13
  77 857.917 -4.67480e-10 -9.69917e-14
  78 857.917 -4.69148e-10 9.53390e-15
  79 857.917 -4.68130e-10 -2.00951e-13
  80 857.917 -4.69906e-10 1.66001e-13
  81 857.917 -4.68390e-10 -1.96896e-13
  82 857.917 -4.68390e-10 3.89167e-14
  83 857.917 -4.68845e-10 -1.54897e-13
  84 857.917 -4.68390e-10 -1.50187e-14
  85 857.917 -4.69451e-10 -5.23073e-14
  86 857.917 -4.68087e-10 2.16914e-15
  87 857.917 -4.68845e-10 7.16889e-14
  88 857.917 -4.67116e-10 -6.02053e-13
  89 857.917 -4.68026e-10 2.17943e-13
  90 857.917 -4.68845e-10 -5.72912e-14
  91 857.917 -4.68208e-10 -1.34140e-13
  92 857.917 -4.68572e-10 5.80710e-15
  93 857.917 -4.68026e-10 7.79330e-13
  94 857.917 -4.70027e-10 -3.02949e-13
  95 857.917 -4.69117e-10 1.11680e-14
  96 857.917 -4.69906e-10 -6.54472e-13
  97 857.917 -4.69117e-10 -6.73327e-13
  98 857.917 -4.68572e-10 -1.27694e-13
  99 857.917 -4.69299e-10 -1.07941e-14
  100 857.917 -4.69299e-10 -1.21187e-13
  101 857.917 -4.69299e-10 -4.79690e-14
  102 857.917 -4.68754e-10 -5.96167e-13
  103 857.917 -4.67632e-10 -1.34198e-13
  104 857.917 -4.69663e-10 4.43831e-13
  105 857.917 -4.70573e-10 9.67562e-14
  106 857.917 -4.69906e-10 2.69960e-13
  107 857.917 -4.68693e-10 -1.86329e-13
  108 857.917 -4.67480e-10 -7.67773e-14
  109 857.917 -4.69663e-10 -9.66198e-15
  110 857.917 -4.68390e-10 1.74808e-13
  111 857.917 -4.68276e-10 -1.77993e-13
  112 857.917 -4.67935e-10 -1.95052e-13
  113 857.917 -4.69039e-10 2.65479e-13
  114 857.917 -4.69429e-10 1.67623e-14
  115 857.917 -4.67935e-10 7.53364e-14
  116 857.917 -4.68572e-10 2.90541e-14
  117 857.917 -4.69451e-10 -4.31825e-13
  118 857.917 -4.68845e-10 8.85895e-15
  119 857.917 -4.67870e-10 -5.16876e-14
  120 857.917 -4.70057e-10 7.27695e-15
  121 857.917 -4.69559e-10 -1.97011e-13
  122 857.917 -4.68909e-10 4.42253e-13
  123 857.917 -4.69299e-10 1.14804e-13
  124 857.917 -4.68780e-10 -2.48699e-13
  125 857.917 -4.68845e-10 3.07650e-15
  126 857.917 -4.69186e-10 -1.32783e-14
  127 857.917 -4.68650e-10 3.82761e-13
  128 857.917 -4.67935e-10 3.68289e-14
  129 857.917 -4.68162e-10 -6.90484e-14
  130 857.917 -4.69451e-10 9.23952e-14
  131 857.917 -4.68845e-10 1.04101e-13
  132 857.917 -4.69527e-10 -2.83136e-15
  133 857.917 -4.69299e-10 -7.59643e-14
  134 857.917 -4.68260e-10 -9.28039e-14
  135 857.917 -4.68780e-10 1.68963e-13
  136 857.917 -4.69949e-10 9.36104e-14
  137 857.917 -4.68780e-10 -8.28707e-14
  138 857.917 -4.68845e-10 -2.36111e-13
  139 857.917 -4.69039e-10 -5.11741e-14
  140 857.917 -4.69169e-10 4.44674e-13
  141 857.917 -4.67935e-10 -7.69219e-14
  142 857.917 -4.68541e-10 -5.82570e-15
  143 857.917 -4.68260e-10 6.34806e-14
  144 857.917 -4.68572e-10 1.58237e-13
  145 857.917 -4.68754e-10 -3.16817e-13
  146 857.917 -4.69169e-10 4.33236e-14
  147 857.917 -4.70209e-10 8.22505e-14
  148 857.917 -4.68390e-10 -3.22634e-14
  149 857.917 -4.69148e-10 1.39620e-13
  150 857.917 -4.68845e-10 4.37805e-13
  151 857.917 -4.68541e-10 4.56553e-15
  152 857.917 -4.69299e-10 -3.22686e-14
  153 857.917 -4.69754e-10 -3.82141e-13
  154 857.917 -4.70573e-10 5.95244e-13
  155 857.917 -4.68087e-10 1.56292e-13
  156 857.917 -4.68000e-10 3.58041e-13
  157 857.917 -4.68260e-10 -7.65884e-14
  158 857.917 -4.67329e-10 -5.32328e-13
  159 857.917 -4.68693e-10 -2.82898e-13
  160 857.917 -4.67480e-10 -7.52755e-14
  161 857.917 -4.68390e-10 3.69349e-13
  162 857.917 -4.68390e-10 4.41679e-14
  163 857.917 -4.68996e-10 -3.08850e-13
  164 857.917 -4.69169e-10 -5.20594e-13
  165 857.917 -4.68845e-10 -9.63926e-14
  166 857.917 -4.68650e-10 7.41493e-15
  167 857.917 -4.69299e-10 -3.66629e-14
  168 857.917 -4.67350e-10 -2.14015e-14
  169 857.917 -4.69039e-10 1.21729e-13
  170 857.917 -4.68026e-10 -6.54895e-13
  171 857.917 -4.68650e-10 9.92980e-14
  172 857.917 -4.69754e-10 3.76295e-14
  173 857.917 -4.69299e-10 -9.92584e-14
  174 857.917 -4.68087e-10 2.47716e-13
  175 857.917 -4.68845e-10 -4.24702e-16
  176 857.917 -4.67480e-10 1.03045e-13
  177 857.917 -4.68390e-10 -5.90194e-13
  178 857.917 -4.69299e-10 -8.33467e-14
  179 857.917 -4.69663e-10 4.35812e-14
  180 857.917 -4.70339e-10 -7.09974e-14
  181 857.917 -4.68390e-10 -1.00390e-13
  182 857.917 -4.69117e-10 4.40009e-13
  183 857.917 -4.67632e-10 -1.30768e-14
  184 857.917 -4.69481e-10 -9.18229e-14
  185 857.917 -4.68390e-10 -3.86960e-14
  186 857.917 -4.69663e-10 -3.88264e-13
  187 857.917 -4.67935e-10 -5.26440e-13
  188 857.917 -4.70209e-10 3.59272e-14
  189 857.917 -4.69117e-10 -3.08638e-13
  190 857.917 -4.69039e-10 9.70962e-14
  191 857.917 -4.69299e-10 2.07143e-13
  192 857.917 -4.68780e-10 -1.65634e-13
  193 857.917 -4.69663e-10 -5.19685e-13
  194 857.917 -4.67480e-10 -4.53578e-13
  195 857.917 -4.67935e-10 -1.04946e-13
  196 857.917 -4.68238e-10 -7.71995e-14
  197 857.917 -4.69754e-10 8.45139e-14
  198 857.917 -4.68996e-10 1.53038e-13
  199 857.917 -4.68390e-10 8.87386e-14
  200 857.917 -4.68087e-10 -2.20653e-13
  201 857.917 -4.68541e-10 1.31626e-13
  202 857.917 -4.69845e-10 3.64342e-13
  203 857.917 -4.69299e-10 8.49684e-14
  204 857.917 -4.69906e-10 6.94074e-14
  205 857.917 -4.69451e-10 -1.17464e-13
  206 857.917 -4.68754e-10 3.89082e-13
  207 857.917 -4.69299e-10 -4.22625e-14
  208 857.917 -4.69299e-10 -4.62055e-13
  209 857.917 -4.68996e-10 -5.03716e-13
  210 857.917 -4.67935e-10 -1.01548e-13
  211 857.917 -4.67870e-10 -3.13508e-14
  212 857.917 -4.68754e-10 6.61403e-13
  213 857.917 -4.69117e-10 -6.71315e-15
  214 857.917 -4.68845e-10 3.67398e-14
  215 857.917 -4.67662e-10 -3.15493e-13
  216 857.917 -4.69845e-10 -2.36855e-14
  217 857.917 -4.68845e-10 -3.55533e-13
  218 857.917 -4.68390e-10 -1.99991e-13
  219 857.917 -4.68935e-10 8.25018e-14
  220 857.917 -4.68845e-10 1.01929e-13
  221 857.917 -4.70360e-10 -2.96088e-14
  222 857.917 -4.68238e-10 1.62686e-13
  223 857.917 -4.68572e-10 -1.65506e-13
  224 857.917 -4.69117e-10 5.11174e-14
  225 857.917 -4.69117e-10 -8.40140e-14
  226 857.917 -4.69845e-10 -5.24313e-15
  227 857.917 -4.69602e-10 1.30541e-13
  228 857.917 -4.66753e-10 2.15179e-14
  229 857.917 -4.68845e-10 -5.42492e-14
  230 857.917 -4.69602e-10 4.16517e-13
  231 857.917 -4.68572e-10 1.47601e-13
  232 857.917 -4.68572e-10 1.74926e-13
  233 857.917 -4.67662e-10 8.61286e-13
  234 857.917 -4.69602e-10 7.20207e-14
  235 857.917 -4.70391e-10 -3.54486e-13
  236 857.917 -4.67870e-10 -2.48455e-14
  237 857.917 -4.69299e-10 -3.29743e-13
  238 857.917 -4.67480e-10 -1.69602e-13
  239 857.917 -4.69451e-10 -1.88158e-13
  240 857.917 -4.68026e-10 -2.15179e-14
  241 857.917 -4.69602e-10 -2.24765e-13
</Section>

newXOutput 51

<Section columns = "stress_xx | stress_yy | stress_xy">
  1 873.651 -4.67026e-10 -1.03891e-13
  2 873.651 -4.67480e-10 -7.71827e-13
  3 873.651 -4.67026e-10 -5.53077e-13
  4 873.651 -4.66571e-10 9.90489e-14
  5 873.651 -4.66571e-10 -2.95258e-13
  6 873.651 -4.66571e-10 -2.46966e-13
  7 873.651 -4.67253e-10 1.56737e-13
  8 873.651 -4.67480e-10 1.56737e-13
  9 873.651 -4.67480e-10 -1.62397e-14
  10 873.651 -4.67480e-10 -9.65850e-14
  11 873.651 -4.66874e-10 -3.73627e-13
  12 873.651 -4.66874e-10 -7.20122e-14
  13 873.651 -4.67480e-10 2.98650e-13
  14 873.651 -4.67177e-10 4.82925e-14
  15 873.651 -4.66798e-10 -2.62431e-13
  16 873.651 -4.67480e-10 -4.82925e-14
  17 873.651 -4.67480e-10 -3.69674e-13
  18 873.651 -4.67177e-10 -4.82925e-14
  19 873.651 -4.67177e-10 4.50446e-13
  20 873.651 -4.67480e-10 -7.24388e-14
  21 873.651 -4.67177e-10 2.57276e-13
  22 873.651 -4.67480e-10 6.99388e-13
  23 873.651 -4.67480e-10 -4.82925e-14
  24 873.651 -4.67480e-10 2.24796e-13
  25 873.651 -4.67480e-10 -7.24388e-14
  26 873.651 -4.67480e-10 1.32378e-13
  27 873.651 -4.66571e-10 2.36869e-13
  28 873.651 -4.67253e-10 -1.75684e-14
  29 873.651 -4.66571e-10 9.05485e-14
  30 873.651 -4.67177e-10 5.28199e-14
  31 873.651 -4.66571e-10 -4.18196e-13
  32 873.651 -4.65661e-10 -9.66269e-14
  33 873.651 -4.67026e-10 5.00644e-14
  34 873.651 -4.66874e-10 1.66360e-13
  35 873.651 -4.67480e-10 3.48407e-13
  36 873.651 -4.67480e-10 2.38572e-13
  37 873.651 -4.66874e-10 1.41500e-13
  38 873.651 -4.66874e-10 5.71862e-13
  39 873.651 -4.67177e-10 5.28493e-13
  40 873.651 -4.67177e-10 1.73967e-13
  41 873.651 -4.67480e-10 3.94589e-13
  42 873.651 -4.67480e-10 -4.48066e-14
  43 873.651 -4.67177e-10 -4.47547e-13
  44 873.651 -4.67177e-10 -6.13441e-14
  45 873.651 -4.67177e-10 2.06495e-13
  46 873.651 -4.66874e-10 -1.78203e-13
  47 873.651 -4.67177e-10 -1.10113e-14
  48 873.651 -4.66571e-10 -1.35496e-14
  49 873.651 -4.65964e-10 1.50814e-13
  50 873.651 -4.66571e-10 -4.62625e-14
  51 873.651 -4.66571e-10 -1.81097e-14
  52 873.651 -4.67026e-10 -1.40250e-15
  53 873.651 -4.67480e-10 -5.22458e-14
  54 873.651 -4.67480e-10 1.95122e-14
  55 873.651 -4.67480e-10 0.00000
  56 873.651 -4.67480e-10 1.11676e-13
  57 873.651 -4.67177e-10 -1.51088e-13
  58 873.651 -4.67329e-10 -1.09487e-13
  59 873.651 -4.67480e-10 1.43424e-13
  60 873.651 -4.67177e-10 -1.67957e-13
  61 873.651 -4.67177e-10 -2.05805e-14
  62 873.651 -4.67177e-10 6.96707e-14
  63 873.651 -4.67298e-10 -3.90657e-13
  64 873.651 -4.67329e-10 -2.13150e-13
  65 873.651 -4.67177e-10 -7.91584e-14
  66 873.651 -4.67329e-10 -6.47695e-14
  67 873.651 -4.67177e-10 4.07468e-14
  68 873.651 -4.67480e-10 -8.22649e-15
  69 873.651 -4.67350e-10 1.93116e-16
  70 873.651 -4.67480e-10 -2.29787e-13
  71 873.651 -4.67177e-10 -1.07924e-13
  72 873.651 -4.67350e-10 -3.23743e-13
  73 873.651 -4.66831e-10 2.54246e-13
  74 873.651 -4.66753e-10 5.36149e-14
  75 873.651 -4.67298e-10 5.27294e-15
  76 873.651 -4.67026e-10 -1.52891e-13
  77 873.651 -4.67177e-10 -8.55873e-14
  78 873.651 -4.66874e-10 4.02662e-13
  79 873.651 -4.67350e-10 6.80660e-14
  80 873.651 -4.67480e-10 2.49156e-13
  81 873.651 -4.67480e-10 6.67229e-13
  82 873.651 -4.67480e-10 1.64915e-13
  83 873.651 -4.67329e-10 -2.08576e-13
  84 873.651 -4.67329e-10 3.96785e-14
  85 873.651 -4.67177e-10 1.24578e-13
  86 873.651 -4.67329e-10 1.72657e-13
  87 873.651 -4.66874e-10 9.83715e-14
  88 873.651 -4.67116e-10 -1.30163e-14
  89 873.651 -4.67480e-10 1.63749e-13
  90 873.651 -4.66874e-10 -9.68659e-14
  91 873.651 -4.67298e-10 1.63947e-14
  92 873.651 -4.67480e-10 6.06195e-14
  93 873.651 -4.68754e-10 1.07216e-13
  94 873.651 -4.68026e-10 -1.17585e-13
  95 873.651 -4.67480e-10 -4.43144e-15
  96 873.651 -4.67177e-10 -1.50914e-14
  97 873.651 -4.66753e-10 -2.98987e-13
  98 873.651 -4.66753e-10 1.81185e-13
  99 873.651 -4.66722e-10 1.82032e-13
  100 873.651 -4.67298e-10 1.13402e-13
  101 873.651 -4.67177e-10 -9.02285e-14
  102 873.651 -4.66571e-10 6.40089e-14
  103 873.651 -4.67632e-10 -4.36236e-13
  104 873.651 -4.66753e-10 3.02255e-14
  105 873.651 -4.67480e-10 8.40181e-14
  106 873.651 -4.67329e-10 -1.30081e-14
  107 873.651 -4.67177e-10 6.24653e-13
  108 873.651 -4.66722e-10 -8.55340e-14
  109 873.651 -4.67662e-10 9.58854e-14
  110 873.651 -4.67298e-10 5.33842e-14
  111 873.651 -4.67139e-10 7.17126e-13
  112 873.651 -4.67329e-10 -3.30842e-14
  113 873.651 -4.67350e-10 2.47109e-13
  114 873.651 -4.67350e-10 1.36163e-13
  115 873.651 -4.67480e-10 7.05882e-14
  116 873.651 -4.67480e-10 1.61481e-13
  117 873.651 -4.66874e-10 -1.96803e-13
  118 873.651 -4.67026e-10 3.82535e-14
  119 873.651 -4.67090e-10 -2.24825e-14
  120 873.651 -4.66874e-10 -6.83788e-14
  121 873.651 -4.67350e-10 -2.45317e-13
  122 873.651 -4.67480e-10 -8.14479e-14
  123 873.651 -4.67329e-10 -1.50783e-13
  124 873.651 -4.67350e-10 2.43229e-13
  125 873.651 -4.67139e-10 6.30410e-14
  126 873.651 -4.67139e-10 -5.73140e-14
  127 873.651 -4.67090e-10 -1.89568e-13
  128 873.651 -4.67139e-10 3.16600e-13
  129 873.651 -4.66912e-10 7.34995e-14
  130 873.651 -4.67480e-10 -1.09433e-13
  131 873.651 -4.67329e-10 1.95298e-13
  132 873.651 -4.67480e-10 6.35320e-14
  133 873.651 -4.67350e-10 -1.92865e-13
  134 873.651 -4.67090e-10 -9.90198e-14
  135 873.651 -4.67350e-10 3.22220e-13
  136 873.651 -4.67090e-10 5.53612e-14
  137 873.651 -4.67220e-10 2.74985e-13
  138 873.651 -4.67329e-10 1.09981e-13
  139 873.651 -4.67350e-10 3.85947e-14
  140 873.651 -4.67220e-10 7.23931e-14
  141 873.651 -4.67329e-10 -7.18380e-14
  142 873.651 -4.67026e-10 -1.70894e-13
  143 873.651 -4.66831e-10 -4.07415e-14
  144 873.651 -4.67480e-10 3.85196e-13
  145 873.651 -4.66935e-10 -2.56783e-13
  146 873.651 -4.67350e-10 5.34224e-14
  147 873.651 -4.67329e-10 2.07108e-13
  148 873.651 -4.67935e-10 -3.56719e-14
  149 873.651 -4.67177e-10 3.47758e-13
  150 873.651 -4.67329e-10 3.39916e-14
  151 873.651 -4.67480e-10 4.93875e-14
  152 873.651 -4.67177e-10 -1.93892e-13
  153 873.651 -4.67329e-10 -1.72977e-13
  154 873.651 -4.67480e-10 5.07071e-14
  155 873.651 -4.67177e-10 2.81701e-13
  156 873.651 -4.67220e-10 2.93534e-13
  157 873.651 -4.67350e-10 -1.32440e-13
  158 873.651 -4.67329e-10 6.98347e-13
  159 873.651 -4.67480e-10 4.99460e-13
  160 873.651 -4.66935e-10 -1.04484e-13
  161 873.651 -4.67116e-10 3.37194e-13
  162 873.651 -4.67329e-10 8.11985e-15
  163 873.651 -4.67480e-10 3.95985e-14
  164 873.651 -4.66961e-10 -7.62280e-14
  165 873.651 -4.67329e-10 -1.54523e-14
  166 873.651 -4.66831e-10 4.87085e-14
  167 873.651 -4.67480e-10 1.03118e-13
  168 873.651 -4.67480e-10 -1.88830e-13
  169 873.651 -4.67480e-10 3.64083e-14
  170 873.651 -4.67298e-10 7.49839e-13
  171 873.651 -4.66961e-10 -1.19064e-13
  172 873.651 -4.67480e-10 3.76859e-13
  173 873.651 -4.67329e-10 -3.51833e-14
  174 873.651 -4.67480e-10 -1.46854e-13
  175 873.651 -4.66722e-10 1.14527e-13
  176 873.651 -4.67177e-10 -1.14457e-14
  177 873.651 -4.67177e-10 -5.35168e-13
  178 873.651 -4.67026e-10 -3.33207e-13
  179 873.651 -4.67480e-10 2.62175e-13
  180 873.651 -4.67350e-10 1.73083e-14
  181 873.651 -4.67480e-10 -1.41031e-14
  182 873.651 -4.67116e-10 2.79965e-13
  183 873.651 -4.67026e-10 2.48354e-13
  184 873.651 -4.67298e-10 -1.01158e-13
  185 873.651 -4.67329e-10 5.07198e-14
  186 873.651 -4.67116e-10 -1.32506e-13
  187 873.651 -4.66419e-10 -4.10003e-13
  188 873.651 -4.67480e-10 3.67955e-13
  189 873.651 -4.67298e-10 -2.01852e-13
  190 873.651 -4.67090e-10 1.81026e-14
  191 873.651 -4.67026e-10 -1.14234e-13
  192 873.651 -4.67350e-10 -1.15344e-13
  193 873.651 -4.67480e-10 2.91451e-13
  194 873.651 -4.67329e-10 2.97235e-13
  195 873.651 -4.67026e-10 -7.17193e-14
  196 873.651 -4.67026e-10 -1.53744e-14
  197 873.651 -4.67480e-10 2.18692e-14
  198 873.651 -4.67329e-10 7.24388e-14
  199 873.651 -4.67177e-10 6.69497e-14
  200 873.651 -4.67480e-10 -4.25098e-13
  201 873.651 -4.67329e-10 -2.46057e-15
  202 873.651 -4.67480e-10 1.44878e-14
  203 873.651 -4.67329e-10 7.13153e-15
  204 873.651 -4.66571e-10 -1.39940e-13
  205 873.651 -4.67177e-10 4.22559e-14
  206 873.651 -4.67298e-10 -1.35134e-13
  207 873.651 -4.66753e-10 -6.30481e-15
  208 873.651 -4.66753e-10 -2.15284e-13
  209 873.651 -4.67329e-10 -6.03656e-15
  210 873.651 -4.66722e-10 4.76033e-14
  211 873.651 -4.67090e-10 1.00162e-14
  212 873.651 -4.67480e-10 5.52139e-13
  213 873.651 -4.66753e-10 7.81815e-14
  214 873.651 -4.67329e-10 -1.58110e-13
  215 873.651 -4.67116e-10 -1.64168e-14
  216 873.651 -4.67298e-10 4.85714e-14
  217 873.651 -4.66874e-10 -1.66727e-13
  218 873.651 -4.67026e-10 6.22762e-14
  219 873.651 -4.67298e-10 -7.01948e-14
  220 873.651 -4.67026e-10 6.17948e-14
  221 873.651 -4.67480e-10 5.82824e-14
  222 873.651 -4.68390e-10 2.82062e-14
  223 873.651 -4.67116e-10 -1.08995e-13
  224 873.651 -4.66571e-10 -1.15774e-13
  225 873.651 -4.67844e-10 3.75737e-13
  226 873.651 -4.67298e-10 1.20646e-13
  227 873.651 -4.67177e-10 2.27093e-13
  228 873.651 -4.67298e-10 2.97609e-13
  229 873.651 -4.67632e-10 -1.07844e-14
  230 873.651 -4.67480e-10 -2.00863e-14
  231 873.651 -4.67116e-10 -3.71170e-13
  232 873.651 -4.67298e-10 1.98125e-13
  233 873.651 -4.68390e-10 1.50679e-13
  234 873.651 -4.67329e-10 -2.42859e-13
  235 873.651 -4.67298e-10 3.30054e-13
  236 873.651 -4.67480e-10 3.30343e-14
  237 873.651 -4.66753e-10 1.19706e-13
  238 873.651 -4.67480e-10 3.62194e-15
  239 873.651 -4.67026e-10 4.24991e-13
  240 873.651 -4.66935e-10 8.95544e-14
  241 873.651 -4.67177e-10 -1.38841e-13
</Section>

newXOutput 52

<Section columns = "stress_xx | stress_yy | stress_xy">
  1 889.319 -4.63842e-10 -7.82766e-14
  2 889.319 -4.62933e-10 1.44486e-13
  3 889.319 -4.63842e-10 1.56763e-13
  4 889.319 -4.62933e-10 1.55082e-14
  5 889.319 -4.64145e-10 -4.51719e-14
  6 889.319 -4.62933e-10 -7.22430e-14
  7 889.319 -4.62933e-10 5.42223e-14
  8 889.319 -4.63539e-10 -1.96670e-13
  9 889.319 -4.64752e-10 7.62654e-14
  10 889.319 -4.64145e-10 -9.63240e-14
  11 889.319 -4.64145e-10 -4.81620e-14
  12 889.319 -4.64145e-10 1.56553e-13
  13 889.319 -4.63388e-10 -5.59963e-13
  14 889.319 -4.64449e-10 -8.91157e-13
  15 889.319 -4.64297e-10 -3.56770e-13
  16 889.319 -4.64145e-10 1.12414e-13
  17 889.319 -4.63842e-10 -1.02760e-12
  18 889.319 -4.65055e-10 -5.13799e-13
  19 889.319 -4.65055e-10 -1.12414e-13
  20 889.319 -4.64145e-10 4.81727e-13
  21 889.319 -4.63539e-10 1.20426e-12
  22 889.319 -4.64145e-10 2.72989e-13
  23 889.319 -4.63539e-10 -2.08738e-13
  24 889.319 -4.62933e-10 -4.81620e-14
  25 889.319 -4.62933e-10 0.00000
  26 889.319 -4.64297e-10 2.25759e-14
  27 889.319 -4.64145e-10 4.41556e-13
  28 889.319 -4.64070e-10 -6.32126e-14
  29 889.319 -4.65661e-10 7.22430e-14
  30 889.319 -4.63842e-10 -4.58112e-13
  31 889.319 -4.65055e-10 1.88912e-13
  32 889.319 -4.64752e-10 -1.69833e-13
  33 889.319 -4.62478e-10 4.62486e-13
  34 889.319 -4.64145e-10 4.29999e-13
  35 889.319 -4.65207e-10 -1.59874e-13
  36 889.319 -4.62933e-10 1.38409e-13
  37 889.319 -4.63539e-10 1.46770e-13
  38 889.319 -4.64145e-10 6.01938e-14
  39 889.319 -4.63539e-10 -2.47625e-13
  40 889.319 -4.63539e-10 -1.55493e-13
  41 889.319 -4.64449e-10 -2.49648e-13
  42 889.319 -4.62933e-10 -4.47393e-13
  43 889.319 -4.63539e-10 1.16636e-13
  44 889.319 -4.64145e-10 -3.35856e-14
  45 889.319 -4.62933e-10 -6.53595e-15
  46 889.319 -4.63539e-10 -2.04339e-14
  47 889.319 -4.62933e-10 2.39800e-14
  48 889.319 -4.64145e-10 2.38612e-14
  49 889.319 -4.63539e-10 1.86356e-14
  50 889.319 -4.64145e-10 -7.02585e-15
  51 889.319 -4.64752e-10 -3.61215e-14
  52 889.319 -4.64297e-10 -3.21557e-14
  53 889.319 -4.64145e-10 -2.00586e-14
  54 889.319 -4.62933e-10 -3.31197e-14
  55 889.319 -4.63842e-10 0.00000
  56 889.319 -4.64145e-10 -7.42542e-14
  57 889.319 -4.63842e-10 -9.60926e-14
  58 889.319 -4.62933e-10 5.53936e-13
  59 889.319 -4.63712e-10 7.39955e-14
  60 889.319 -4.63994e-10 -8.11435e-14
  61 889.319 -4.64752e-10 -5.62068e-14
  62 889.319 -4.64297e-10 -1.20928e-13
  63 889.319 -4.63297e-10 2.14364e-13
  64 889.319 -4.63994e-10 6.53311e-13
  65 889.319 -4.64145e-10 7.46413e-15
  66 889.319 -4.64145e-10 -5.29186e-14
  67 889.319 -4.64145e-10 -2.77012e-13
  68 889.319 -4.64449e-10 3.64285e-13
  69 889.319 -4.63972e-10 4.04036e-15
  70 889.319 -4.63729e-10 1.45349e-13
  71 889.319 -4.63842e-10 1.91689e-13
  72 889.319 -4.63582e-10 1.41568e-14
  73 889.319 -4.64492e-10 3.21691e-13
  74 889.319 -4.63660e-10 4.26476e-14
  75 889.319 -4.63842e-10 -1.50520e-13
  76 889.319 -4.63691e-10 5.57992e-13
  77 889.319 -4.64752e-10 -9.92241e-16
  78 889.319 -4.64903e-10 -1.84137e-13
  79 889.319 -4.63193e-10 -4.66689e-14
  80 889.319 -4.64752e-10 -3.86362e-13
  81 889.319 -4.64600e-10 9.63774e-14
  82 889.319 -4.64145e-10 2.07172e-14
  83 889.319 -4.63539e-10 1.48793e-13
  84 889.319 -4.64145e-10 1.57586e-13
  85 889.319 -4.64145e-10 4.62042e-14
  86 889.319 -4.63539e-10 1.50840e-14
  87 889.319 -4.64145e-10 -2.23857e-14
  88 889.319 -4.63842e-10 -3.49652e-13
  89 889.319 -4.64752e-10 1.44192e-13
  90 889.319 -4.63236e-10 5.77152e-14
  91 889.319 -4.64024e-10 5.90211e-14
  92 889.319 -4.63660e-10 4.68352e-14
  93 889.319 -4.64388e-10 1.62571e-13
  94 889.319 -4.63660e-10 4.13080e-13
  95 889.319 -4.63297e-10 1.17727e-13
  96 889.319 -4.64449e-10 -8.77864e-14
  97 889.319 -4.62205e-10 -1.04529e-12
  98 889.319 -4.64752e-10 -9.63494e-14
  99 889.319 -4.64297e-10 6.62227e-14
  100 889.319 -4.64024e-10 1.71002e-13
  101 889.319 -4.63539e-10 2.00853e-14
  102 889.319 -4.64024e-10 -1.05951e-13
  103 889.319 -4.64297e-10 -3.41103e-14
  104 889.319 -4.64206e-10 1.24651e-13
  105 889.319 -4.63842e-10 -2.77890e-13
  106 889.319 -4.63236e-10 4.37534e-13
  107 889.319 -4.63539e-10 1.21444e-13
  108 889.319 -4.64145e-10 -6.76079e-14
  109 889.319 -4.63660e-10 -4.27545e-14
  110 889.319 -4.64024e-10 -5.85232e-13
  111 889.319 -4.63274e-10 -3.79053e-14
  112 889.319 -4.63842e-10 1.79539e-13
  113 889.319 -4.64232e-10 9.69376e-14
  114 889.319 -4.63453e-10 1.07233e-13
  115 889.319 -4.63236e-10 1.39787e-13
  116 889.319 -4.63660e-10 1.99931e-13
  117 889.319 -4.63994e-10 5.99082e-13
  118 889.319 -4.63236e-10 -6.78285e-14
  119 889.319 -4.64622e-10 8.25749e-14
  120 889.319 -4.64752e-10 2.73110e-16
  121 889.319 -4.63972e-10 1.03454e-13
  122 889.319 -4.63972e-10 1.04089e-13
  123 889.319 -4.64600e-10 -5.90603e-14
  124 889.319 -4.64232e-10 2.48335e-14
  125 889.319 -4.63501e-10 1.01423e-13
  126 889.319 -4.64070e-10 7.15188e-14
  127 889.319 -4.64102e-10 3.40666e-13
  128 889.319 -4.64183e-10 -2.40944e-14
  129 889.319 -4.64070e-10 4.45037e-14
  130 889.319 -4.64903e-10 -2.11741e-13
  131 889.319 -4.63236e-10 -2.33118e-13
  132 889.319 -4.64070e-10 -3.13389e-13
  133 889.319 -4.64232e-10 -3.09647e-13
  134 889.319 -4.64232e-10 5.59176e-14
  135 889.319 -4.63193e-10 -7.22430e-14
  136 889.319 -4.64232e-10 -2.34346e-14
  137 889.319 -4.64102e-10 -1.73213e-13
  138 889.319 -4.63236e-10 1.62593e-13
  139 889.319 -4.64492e-10 -5.78226e-14
  140 889.319 -4.64232e-10 1.37602e-13
  141 889.319 -4.63842e-10 2.70978e-14
  142 889.319 -4.64145e-10 3.61349e-14
  143 889.319 -4.63193e-10 -1.20860e-13
  144 889.319 -4.64024e-10 3.97996e-13
  145 889.319 -4.63660e-10 3.32618e-13
  146 889.319 -4.63712e-10 3.71353e-14
  147 889.319 -4.63539e-10 -3.36386e-13
  148 889.319 -4.64145e-10 3.21158e-14
  149 889.319 -4.64145e-10 1.94726e-13
  150 889.319 -4.62933e-10 3.40247e-13
  151 889.319 -4.63842e-10 3.01680e-15
  152 889.319 -4.63236e-10 2.59890e-13
  153 889.319 -4.64752e-10 -1.76612e-13
  154 889.319 -4.65116e-10 -4.33458e-14
  155 889.319 -4.64903e-10 -1.32808e-13
  156 889.319 -4.63453e-10 1.63426e-14
  157 889.319 -4.64232e-10 -5.21437e-14
  158 889.319 -4.63994e-10 5.32861e-16
  159 889.319 -4.64145e-10 6.27466e-14
  160 889.319 -4.64752e-10 2.41024e-14
  161 889.319 -4.63297e-10 4.88951e-13
  162 889.319 -4.63539e-10 1.15159e-13
  163 889.319 -4.63236e-10 -1.95685e-13
  164 889.319 -4.63453e-10 4.99011e-14
  165 889.319 -4.64145e-10 1.44526e-13
  166 889.319 -4.63972e-10 -1.02091e-14
  167 889.319 -4.63453e-10 1.19575e-13
  168 889.319 -4.63972e-10 1.27008e-14
  169 889.319 -4.64232e-10 1.93365e-15
  170 889.319 -4.63479e-10 -1.84252e-13
  171 889.319 -4.63453e-10 2.42145e-13
  172 889.319 -4.63842e-10 -5.13826e-13
  173 889.319 -4.63539e-10 -6.25946e-14
  174 889.319 -4.62933e-10 -6.52305e-14
  175 889.319 -4.63842e-10 1.68973e-14
  176 889.319 -4.64449e-10 -3.66377e-14
  177 889.319 -4.64449e-10 -7.50337e-13
  178 889.319 -4.63539e-10 8.10387e-14
  179 889.319 -4.62933e-10 8.31355e-14
  180 889.319 -4.63972e-10 4.81773e-14
  181 889.319 -4.63539e-10 4.61641e-13
  182 889.319 -4.64388e-10 1.80091e-13
  183 889.319 -4.63994e-10 1.01871e-13
  184 889.319 -4.63842e-10 -5.12973e-13
  185 889.319 -4.64449e-10 -8.00473e-15
  186 889.319 -4.64752e-10 -6.46695e-13
  187 889.319 -4.64145e-10 -4.42480e-13
  188 889.319 -4.62933e-10 1.72167e-14
  189 889.319 -4.64024e-10 -3.97256e-14
  190 889.319 -4.63972e-10 1.05488e-14
  191 889.319 -4.63994e-10 1.66854e-13
  192 889.319 -4.63582e-10 5.12677e-13
  193 889.319 -4.63479e-10 1.80269e-13
  194 889.319 -4.63236e-10 4.44600e-13
  195 889.319 -4.63842e-10 9.37741e-16
  196 889.319 -4.63994e-10 1.42040e-14
  197 889.319 -4.64145e-10 1.24183e-13
  198 889.319 -4.63994e-10 2.40863e-13
  199 889.319 -4.63236e-10 -1.99784e-15
  200 889.319 -4.64752e-10 3.24148e-13
  201 889.319 -4.63236e-10 4.90578e-14
  202 889.319 -4.63479e-10 -1.44486e-13
  203 889.319 -4.63539e-10 3.01680e-15
  204 889.319 -4.63388e-10 2.97796e-13
  205 889.319 -4.63842e-10 1.51783e-13
  206 889.319 -4.62569e-10 -4.79482e-15
  207 889.319 -4.64024e-10 -4.43300e-14
  208 889.319 -4.65116e-10 -1.28194e-13
  209 889.319 -4.63236e-10 -5.75007e-13
  210 889.319 -4.64449e-10 -4.62287e-14
  211 889.319 -4.63972e-10 7.18235e-14
  212 889.319 -4.64024e-10 1.32739e-14
  213 889.319 -4.64388e-10 -1.94793e-14
  214 889.319 -4.63236e-10 -2.75251e-13
  215 889.319 -4.64206e-10 -1.10934e-13
  216 889.319 -4.64570e-10 1.76424e-13
  217 889.319 -4.63994e-10 3.28157e-13
  218 889.319 -4.64145e-10 -1.49000e-14
  219 889.319 -4.64388e-10 2.01138e-13
  220 889.319 -4.64297e-10 2.41010e-14
  221 889.319 -4.64903e-10 1.34470e-13
  222 889.319 -4.64449e-10 1.89645e-13
  223 889.319 -4.63297e-10 -9.21058e-14
  224 889.319 -4.64024e-10 -2.39741e-15
  225 889.319 -4.64206e-10 2.28812e-13
  226 889.319 -4.64752e-10 2.42948e-15
  227 889.319 -4.63539e-10 4.71657e-13
  228 889.319 -4.63660e-10 2.31242e-13
  229 889.319 -4.64145e-10 1.26368e-15
  230 889.319 -4.64903e-10 -3.53250e-13
  231 889.319 -4.64570e-10 -2.84177e-13
  232 889.319 -4.63660e-10 1.31111e-14
  233 889.319 -4.64752e-10 2.42038e-13
  234 889.319 -4.64297e-10 -1.46760e-13
  235 889.319 -4.64752e-10 -2.63159e-13
  236 889.319 -4.64492e-10 1.01503e-13
  237 889.319 -4.63479e-10 -8.70827e-14
  238 889.319 -4.64388e-10 -9.63454e-14
  239 889.319 -4.63842e-10 1.38519e-13
  240 889.319 -4.64024e-10 -4.09323e-14
  241 889.319 -4.64600e-10 -1.08364e-13
</Section>

newXOutput 53

<Section columns = "stress_xx | stress_yy | stress_xy">
  1 904.923 -4.62933e-10 -7.20480e-14
  2 904.923 -4.62478e-10 6.25478e-13
  3 904.923 -4.61569e-10 -1.04145e-13
  4 904.923 -4.62023e-10 3.07486e-14
  5 904.923 -4.63236e-10 -1.72203e-13
  6 904.923 -4.62023e-10 -2.94329e-13
  7 904.923 -4.62023e-10 1.02333e-13
  8 904.923 -4.62023e-10 2.12584e-13
  9 904.923 -4.62023e-10 3.36755e-13
  10 904.923 -4.61417e-10 3.60771e-13
  11 904.923 -4.61114e-10 1.40005e-13
  12 904.923 -4.61720e-10 2.82586e-13
  13 904.923 -4.61796e-10 -2.55236e-13
  14 904.923 -4.62023e-10 -5.69263e-13
  15 904.923 -4.61796e-10 -2.63305e-13
  16 904.923 -4.62023e-10 -2.08493e-13
  17 904.923 -4.62023e-10 1.12429e-13
  18 904.923 -4.61720e-10 1.59930e-13
  19 904.923 -4.61720e-10 -4.80320e-14
  20 904.923 -4.61417e-10 3.36224e-13
  21 904.923 -4.61720e-10 -4.16985e-13
  22 904.923 -4.62023e-10 -5.61081e-13
  23 904.923 -4.61417e-10 -2.00310e-13
  24 904.923 -4.62326e-10 -2.72889e-13
  25 904.923 -4.62023e-10 2.88192e-13
  26 904.923 -4.61796e-10 -2.03209e-15
  27 904.923 -4.62326e-10 -1.52809e-13
  28 904.923 -4.62478e-10 4.92639e-13
  29 904.923 -4.62023e-10 -5.40360e-14
  30 904.923 -4.61720e-10 3.60240e-14
  31 904.923 -4.61720e-10 -3.86905e-13
  32 904.923 -4.61114e-10 -1.17170e-12
  33 904.923 -4.61569e-10 -5.96009e-13
  34 904.923 -4.61417e-10 -2.95637e-13
  35 904.923 -4.61114e-10 3.43556e-13
  36 904.923 -4.61720e-10 1.08174e-12
  37 904.923 -4.62023e-10 -4.98587e-14
  38 904.923 -4.61720e-10 -4.80798e-13
  39 904.923 -4.61114e-10 -1.13192e-13
  40 904.923 -4.61114e-10 -2.58995e-13
  41 904.923 -4.61720e-10 1.31670e-13
  42 904.923 -4.62023e-10 3.68256e-13
  43 904.923 -4.61720e-10 4.61732e-13
  44 904.923 -4.62023e-10 -8.66516e-14
  45 904.923 -4.62023e-10 -8.33938e-14
  46 904.923 -4.62023e-10 -9.62572e-14
  47 904.923 -4.62023e-10 -2.25873e-14
  48 904.923 -4.61720e-10 -3.46366e-14
  49 904.923 -4.62023e-10 -6.04609e-14
  50 904.923 -4.61417e-10 1.80120e-14
  51 904.923 -4.61569e-10 -3.60240e-14
  52 904.923 -4.62023e-10 1.62511e-13
  53 904.923 -4.61720e-10 -2.40160e-13
  54 904.923 -4.61569e-10 -3.75582e-14
  55 904.923 -4.61569e-10 2.88192e-13
  56 904.923 -4.61720e-10 -2.01267e-13
  57 904.923 -4.61872e-10 -1.16832e-13
  58 904.923 -4.62023e-10 -3.99797e-13
  59 904.923 -4.61374e-10 2.57826e-13
  60 904.923 -4.61569e-10 4.77389e-13
  61 904.923 -4.61720e-10 1.71824e-13
  62 904.923 -4.61720e-10 8.97809e-14
  63 904.923 -4.62023e-10 6.72681e-15
  64 904.923 -4.62175e-10 1.20213e-13
  65 904.923 -4.62023e-10 -1.01800e-14
  66 904.923 -4.61872e-10 4.69526e-14
  67 904.923 -4.61720e-10 8.43350e-14
  68 904.923 -4.62175e-10 -4.10503e-13
  69 904.923 -4.61634e-10 1.07744e-13
  70 904.923 -4.61910e-10 -2.42943e-13
  71 904.923 -4.61569e-10 -6.25638e-14
  72 904.923 -4.61893e-10 -6.51159e-14
  73 904.923 -4.62153e-10 -1.78116e-13
  74 904.923 -4.61660e-10 1.86455e-13
  75 904.923 -4.61478e-10 -3.38195e-13
  76 904.923 -4.62175e-10 6.00400e-14
  77 904.923 -4.61417e-10 1.30686e-13
  78 904.923 -4.61872e-10 2.08456e-13
  79 904.923 -4.61893e-10 1.55330e-13
  80 904.923 -4.61872e-10 1.10516e-13
  81 904.923 -4.61569e-10 -2.46004e-13
  82 904.923 -4.61720e-10 -8.57469e-14
  83 904.923 -4.61872e-10 -2.57415e-13
  84 904.923 -4.61417e-10 -3.60240e-14
  85 904.923 -4.61720e-10 -2.57960e-14
  86 904.923 -4.61872e-10 3.93102e-13
  87 904.923 -4.61417e-10 6.33474e-14
  88 904.923 -4.62023e-10 -2.47964e-13
  89 904.923 -4.61660e-10 -1.25686e-14
  90 904.923 -4.62023e-10 9.03058e-14
  91 904.923 -4.62023e-10 -6.38629e-14
  92 904.923 -4.62023e-10 -5.16609e-14
  93 904.923 -4.63479e-10 -1.50233e-13
  94 904.923 -4.62023e-10 5.62946e-13
  95 904.923 -4.61841e-10 -5.46017e-14
  96 904.923 -4.61872e-10 -3.95971e-13
  97 904.923 -4.62205e-10 3.80196e-13
  98 904.923 -4.61114e-10 -6.78717e-14
  99 904.923 -4.61720e-10 2.79717e-13
  100 904.923 -4.61296e-10 5.77977e-14
  101 904.923 -4.61872e-10 -4.70092e-14
  102 904.923 -4.62387e-10 -3.70457e-13
  103 904.923 -4.62175e-10 -2.76425e-14
  104 904.923 -4.62023e-10 -1.19549e-14
  105 904.923 -4.62751e-10 -1.63730e-13
  106 904.923 -4.61720e-10 1.53102e-13
  107 904.923 -4.62023e-10 -5.48249e-13
  108 904.923 -4.61720e-10 1.72339e-13
  109 904.923 -4.62023e-10 -6.13204e-14
  110 904.923 -4.62387e-10 8.65675e-13
  111 904.923 -4.61796e-10 2.40212e-13
  112 904.923 -4.61417e-10 -6.70071e-14
  113 904.923 -4.61634e-10 -8.95665e-14
  114 904.923 -4.61893e-10 4.66921e-13
  115 904.923 -4.61872e-10 -2.06908e-13
  116 904.923 -4.61660e-10 6.86845e-14
  117 904.923 -4.62175e-10 2.93505e-13
  118 904.923 -4.62023e-10 4.93477e-14
  119 904.923 -4.61504e-10 5.73151e-14
  120 904.923 -4.61417e-10 -5.45806e-14
  121 904.923 -4.61634e-10 -6.52621e-14
  122 904.923 -4.61763e-10 -7.34768e-14
  123 904.923 -4.62023e-10 2.17251e-13
  124 904.923 -4.61763e-10 -1.87169e-13
  125 904.923 -4.61569e-10 2.97203e-14
  126 904.923 -4.61910e-10 5.90470e-14
  127 904.923 -4.62023e-10 -1.11932e-13
  128 904.923 -4.61796e-10 1.35090e-13
  129 904.923 -4.61569e-10 2.04104e-14
  130 904.923 -4.61720e-10 -1.89770e-13
  131 904.923 -4.61720e-10 -1.43102e-13
  132 904.923 -4.62251e-10 -1.41285e-13
  133 904.923 -4.62023e-10 1.21757e-13
  134 904.923 -4.61893e-10 7.87200e-14
  135 904.923 -4.62413e-10 2.63143e-13
  136 904.923 -4.61374e-10 -8.23526e-14
  137 904.923 -4.61763e-10 2.84501e-13
  138 904.923 -4.61569e-10 2.41581e-13
  139 904.923 -4.61893e-10 9.29092e-14
  140 904.923 -4.63063e-10 5.04028e-13
  141 904.923 -4.62023e-10 1.57771e-13
  142 904.923 -4.61872e-10 1.78207e-13
  143 904.923 -4.62023e-10 -1.64584e-13
  144 904.923 -4.61841e-10 -3.01976e-13
  145 904.923 -4.61660e-10 -4.65438e-14
  146 904.923 -4.61763e-10 -3.01803e-14
  147 904.923 -4.61872e-10 -2.53189e-13
  148 904.923 -4.61720e-10 -1.02068e-13
  149 904.923 -4.62478e-10 -6.45430e-14
  150 904.923 -4.61872e-10 -2.79222e-13
  151 904.923 -4.61417e-10 5.13659e-14
  152 904.923 -4.62023e-10 2.52433e-13
  153 904.923 -4.61720e-10 -2.12730e-13
  154 904.923 -4.61660e-10 1.82734e-13
  155 904.923 -4.61569e-10 4.91509e-13
  156 904.923 -4.62413e-10 -1.77945e-13
  157 904.923 -4.61763e-10 -6.05542e-14
  158 904.923 -4.61569e-10 -1.98663e-13
  159 904.923 -4.62023e-10 -2.67018e-13
  160 904.923 -4.61660e-10 3.80243e-14
  161 904.923 -4.61841e-10 -4.16539e-13
  162 904.923 -4.62023e-10 7.49270e-14
  163 904.923 -4.61720e-10 -1.99248e-14
  164 904.923 -4.61893e-10 3.52281e-13
  165 904.923 -4.61569e-10 1.65110e-14
  166 904.923 -4.61634e-10 9.53798e-14
  167 904.923 -4.62023e-10 -3.23965e-13
  168 904.923 -4.62023e-10 2.55196e-13
  169 904.923 -4.61763e-10 1.10839e-14
  170 904.923 -4.61841e-10 5.18999e-14
  171 904.923 -4.61763e-10 -1.13998e-13
  172 904.923 -4.61720e-10 -1.14076e-13
  173 904.923 -4.62023e-10 -1.65514e-13
  174 904.923 -4.61569e-10 -5.87122e-15
  175 904.923 -4.61569e-10 -3.30569e-14
  176 904.923 -4.62326e-10 -1.87758e-13
  177 904.923 -4.61872e-10 -1.12621e-13
  178 904.923 -4.61720e-10 -1.66332e-13
  179 904.923 -4.62023e-10 8.18668e-14
  180 904.923 -4.61763e-10 8.65301e-15
  181 904.923 -4.61720e-10 -2.21656e-13
  182 904.923 -4.61660e-10 7.92250e-14
  183 904.923 -4.61720e-10 2.63339e-14
  184 904.923 -4.62023e-10 1.66188e-13
  185 904.923 -4.61265e-10 7.02679e-14
  186 904.923 -4.61660e-10 1.56369e-14
  187 904.923 -4.61569e-10 -3.57132e-13
  188 904.923 -4.61478e-10 1.24542e-13
  189 904.923 -4.62023e-10 1.36277e-13
  190 904.923 -4.61893e-10 3.05816e-14
  191 904.923 -4.62023e-10 1.22195e-15
  192 904.923 -4.62153e-10 1.71581e-13
  193 904.923 -4.61296e-10 5.09083e-13
  194 904.923 -4.61720e-10 -2.04269e-13
  195 904.923 -4.62023e-10 3.31830e-14
  196 904.923 -4.62023e-10 2.17853e-13
  197 904.923 -4.61872e-10 1.45650e-14
  198 904.923 -4.62023e-10 -1.22735e-14
  199 904.923 -4.62023e-10 -8.86585e-14
  200 904.923 -4.63388e-10 -4.39447e-13
  201 904.923 -4.61720e-10 -3.62890e-13
  202 904.923 -4.61841e-10 -2.87602e-13
  203 904.923 -4.61872e-10 1.50764e-14
  204 904.923 -4.62023e-10 -7.31371e-14
  205 904.923 -4.61569e-10 -8.81471e-14
  206 904.923 -4.61841e-10 2.35463e-13
  207 904.923 -4.61660e-10 -1.08991e-13
  208 904.923 -4.61478e-10 -7.07890e-14
  209 904.923 -4.62175e-10 -3.18000e-14
  210 904.923 -4.61569e-10 -9.47406e-14
  211 904.923 -4.62023e-10 -8.91264e-14
  212 904.923 -4.61296e-10 -5.02742e-14
  213 904.923 -4.61478e-10 -2.87628e-14
  214 904.923 -4.61872e-10 7.76416e-14
  215 904.923 -4.62023e-10 -5.06681e-13
  216 904.923 -4.61478e-10 -1.07203e-13
  217 904.923 -4.62326e-10 3.00200e-15
  218 904.923 -4.61569e-10 1.10349e-13
  219 904.923 -4.61841e-10 5.41156e-14
  220 904.923 -4.62023e-10 1.51521e-13
  221 904.923 -4.61720e-10 9.93315e-14
  222 904.923 -4.62175e-10 4.62519e-14
  223 904.923 -4.61478e-10 8.93666e-14
  224 904.923 -4.61841e-10 -1.45689e-14
  225 904.923 -4.62023e-10 4.28510e-13
  226 904.923 -4.61296e-10 1.18050e-13
  227 904.923 -4.61872e-10 -2.37689e-13
  228 904.923 -4.61478e-10 -1.84200e-13
  229 904.923 -4.62023e-10 1.27429e-13
  230 904.923 -4.62023e-10 6.49228e-13
  231 904.923 -4.62205e-10 -1.18050e-13
  232 904.923 -4.62023e-10 6.13677e-15
  233 904.923 -4.62023e-10 -9.52083e-14
  234 904.923 -4.61720e-10 -2.71083e-13
  235 904.923 -4.62387e-10 -1.91730e-13
  236 904.923 -4.61504e-10 -4.95957e-14
  237 904.923 -4.61660e-10 2.80681e-13
  238 904.923 -4.61660e-10 -8.19316e-15
  239 904.923 -4.61417e-10 -3.93579e-14
  240 904.923 -4.61841e-10 -1.93461e-13
  241 904.923 -4.61720e-10 -1.41864e-14
</Section>

newXOutput 54

<Section columns = "stress_xx | stress_yy | stress_xy">
  1 920.463 -4.64752e-10 1.76514e-13
  2 920.463 -4.62933e-10 3.37330e-13
  3 920.463 -4.62933e-10 -4.45869e-14
  4 920.463 -4.64297e-10 1.79653e-14
  5 920.463 -4.63539e-10 6.09179e-14
  6 920.463 -4.61114e-10 -5.93749e-14
  7 920.463 -4.61114e-10 -3.11970e-15
  8 920.463 -4.63236e-10 3.95832e-14
  9 920.463 -4.63539e-10 3.32164e-13
  10 920.463 -4.62326e-10 6.56009e-13
  11 920.463 -4.63539e-10 4.68558e-13
  12 920.463 -4.63236e-10 1.78058e-13
  13 920.463 -4.63615e-10 3.15492e-13
  14 920.463 -4.60204e-10 -1.12443e-13
  15 920.463 -4.62023e-10 1.09692e-14
  16 920.463 -4.61417e-10 4.47760e-13
  17 920.463 -4.63539e-10 1.35388e-13
  18 920.463 -4.64752e-10 -1.60346e-13
  19 920.463 -4.64449e-10 -7.68452e-13
  20 920.463 -4.63842e-10 -7.31281e-15
  21 920.463 -4.62023e-10 3.20691e-13
  22 920.463 -4.61114e-10 3.35317e-13
  23 920.463 -4.63539e-10 2.56151e-13
  24 920.463 -4.63539e-10 -3.20691e-13
  25 920.463 -4.62933e-10 1.43707e-13
  26 920.463 -4.61796e-10 1.72898e-13
  27 920.463 -4.61114e-10 -9.32559e-15
  28 920.463 -4.62023e-10 1.29241e-13
  29 920.463 -4.63388e-10 -1.79634e-14
  30 920.463 -4.62326e-10 -1.93107e-13
  31 920.463 -4.64752e-10 -6.15995e-14
  32 920.463 -4.64297e-10 -8.30464e-15
  33 920.463 -4.64070e-10 -1.25464e-14
  34 920.463 -4.64145e-10 -4.51071e-13
  35 920.463 -4.63388e-10 2.46528e-13
  36 920.463 -4.62326e-10 -1.33845e-13
  37 920.463 -4.64752e-10 -8.37866e-14
  38 920.463 -4.64449e-10 2.23072e-13
  39 920.463 -4.64145e-10 -4.17582e-13
  40 920.463 -4.63842e-10 1.56036e-13
  41 920.463 -4.64145e-10 3.15750e-14
  42 920.463 -4.64752e-10 -1.28315e-13
  43 920.463 -4.64449e-10 1.26682e-13
  44 920.463 -4.64145e-10 1.66983e-15
  45 920.463 -4.64752e-10 7.03215e-14
  46 920.463 -4.64449e-10 2.37055e-13
  47 920.463 -4.64752e-10 -1.44634e-14
  48 920.463 -4.64752e-10 -1.10495e-13
  49 920.463 -4.64752e-10 -2.80114e-14
  50 920.463 -4.63842e-10 1.09357e-14
  51 920.463 -4.63842e-10 1.79634e-14
  52 920.463 -4.64524e-10 2.70395e-14
  53 920.463 -4.64752e-10 -9.89581e-15
  54 920.463 -4.64752e-10 -6.79540e-14
  55 920.463 -4.62933e-10 -2.15561e-13
  56 920.463 -4.63539e-10 4.47827e-14
  57 920.463 -4.63388e-10 -7.86046e-14
  58 920.463 -4.62933e-10 -2.08785e-13
  59 920.463 -4.62673e-10 -6.35728e-14
  60 920.463 -4.63539e-10 5.29804e-13
  61 920.463 -4.63842e-10 -1.48102e-13
  62 920.463 -4.63539e-10 -7.60992e-14
  63 920.463 -4.63479e-10 1.15570e-13
  64 920.463 -4.63084e-10 -1.37720e-13
  65 920.463 -4.64449e-10 2.04080e-14
  66 920.463 -4.63388e-10 -1.86645e-13
  67 920.463 -4.61569e-10 -8.91546e-14
  68 920.463 -4.64600e-10 -1.02971e-13
  69 920.463 -4.63453e-10 -1.06731e-13
  70 920.463 -4.64411e-10 -4.03261e-15
  71 920.463 -4.64600e-10 -1.87542e-13
  72 920.463 -4.63193e-10 -2.06253e-13
  73 920.463 -4.62283e-10 2.79012e-13
  74 920.463 -4.64752e-10 -1.63894e-14
  75 920.463 -4.64206e-10 3.22073e-13
  76 920.463 -4.61569e-10 3.86557e-13
  77 920.463 -4.64449e-10 1.10615e-14
  78 920.463 -4.61720e-10 1.64996e-13
  79 920.463 -4.63063e-10 -2.91124e-14
  80 920.463 -4.62781e-10 -2.26262e-14
  81 920.463 -4.62175e-10 -1.60346e-13
  82 920.463 -4.64449e-10 -3.09457e-15
  83 920.463 -4.64752e-10 9.84130e-14
  84 920.463 -4.64297e-10 3.22788e-13
  85 920.463 -4.62478e-10 4.44104e-13
  86 920.463 -4.63388e-10 -1.67373e-13
  87 920.463 -4.64752e-10 -5.25568e-14
  88 920.463 -4.62387e-10 2.95022e-13
  89 920.463 -4.64206e-10 -1.87182e-15
  90 920.463 -4.64600e-10 -1.71533e-13
  91 920.463 -4.63842e-10 9.44589e-14
  92 920.463 -4.63115e-10 1.17240e-14
  93 920.463 -4.62387e-10 7.77911e-14
  94 920.463 -4.64570e-10 2.06086e-13
  95 920.463 -4.63660e-10 1.40210e-14
  96 920.463 -4.63994e-10 -3.49637e-13
  97 920.463 -4.62569e-10 1.48699e-13
  98 920.463 -4.64388e-10 -3.24927e-13
  99 920.463 -4.62933e-10 6.95223e-14
  100 920.463 -4.64024e-10 1.18750e-14
  101 920.463 -4.63084e-10 -8.72006e-14
  102 920.463 -4.61660e-10 2.64269e-13
  103 920.463 -4.61720e-10 2.37307e-13
  104 920.463 -4.62569e-10 -1.93814e-13
  105 920.463 -4.64570e-10 -1.86004e-13
  106 920.463 -4.63691e-10 2.72764e-14
  107 920.463 -4.62023e-10 1.95438e-13
  108 920.463 -4.64449e-10 9.26055e-14
  109 920.463 -4.64752e-10 -3.65508e-14
  110 920.463 -4.61296e-10 -8.62244e-14
  111 920.463 -4.62251e-10 3.67828e-13
  112 920.463 -4.64600e-10 2.72565e-14
  113 920.463 -4.64492e-10 -2.72207e-13
  114 920.463 -4.64232e-10 -3.57862e-13
  115 920.463 -4.63691e-10 -1.69853e-13
  116 920.463 -4.62933e-10 3.12372e-13
  117 920.463 -4.61720e-10 -2.71120e-13
  118 920.463 -4.64752e-10 1.77651e-13
  119 920.463 -4.63063e-10 -1.51133e-13
  120 920.463 -4.63236e-10 6.82769e-14
  121 920.463 -4.64232e-10 9.28900e-14
  122 920.463 -4.62933e-10 3.69181e-13
  123 920.463 -4.63994e-10 -3.78043e-14
  124 920.463 -4.62543e-10 -4.59207e-14
  125 920.463 -4.64070e-10 1.59550e-13
  126 920.463 -4.63956e-10 -4.98240e-14
  127 920.463 -4.63323e-10 6.65739e-14
  128 920.463 -4.63729e-10 2.49878e-13
  129 920.463 -4.64411e-10 -1.10146e-13
  130 920.463 -4.63084e-10 9.07312e-14
  131 920.463 -4.63388e-10 2.61488e-13
  132 920.463 -4.64524e-10 7.35666e-14
  133 920.463 -4.64232e-10 1.89899e-13
  134 920.463 -4.64752e-10 -1.12492e-13
  135 920.463 -4.61893e-10 1.55539e-13
  136 920.463 -4.64752e-10 -5.94447e-14
  137 920.463 -4.62543e-10 1.07620e-13
  138 920.463 -4.63539e-10 2.33055e-14
  139 920.463 -4.64102e-10 -6.62684e-14
  140 920.463 -4.61114e-10 -2.85819e-13
  141 920.463 -4.63994e-10 -3.10880e-14
  142 920.463 -4.63539e-10 2.81678e-13
  143 920.463 -4.64102e-10 6.03811e-15
  144 920.463 -4.64206e-10 4.96960e-13
  145 920.463 -4.62933e-10 -9.86952e-14
  146 920.463 -4.63453e-10 8.70587e-14
  147 920.463 -4.64449e-10 -5.28463e-13
  148 920.463 -4.64752e-10 -8.48692e-14
  149 920.463 -4.61265e-10 2.20224e-13
  150 920.463 -4.63236e-10 1.38144e-13
  151 920.463 -4.63539e-10 -2.99357e-13
  152 920.463 -4.63236e-10 -2.68000e-13
  153 920.463 -4.64600e-10 -4.07616e-14
  154 920.463 -4.63297e-10 -1.92812e-13
  155 920.463 -4.63388e-10 3.99318e-13
  156 920.463 -4.62023e-10 -1.72259e-13
  157 920.463 -4.63712e-10 1.64223e-13
  158 920.463 -4.62933e-10 -1.67420e-13
  159 920.463 -4.62781e-10 -1.10946e-13
  160 920.463 -4.64752e-10 1.24788e-15
  161 920.463 -4.61660e-10 7.90390e-14
  162 920.463 -4.64600e-10 5.28587e-14
  163 920.463 -4.64145e-10 2.35353e-13
  164 920.463 -4.62933e-10 -1.06713e-13
  165 920.463 -4.64752e-10 -2.47857e-14
  166 920.463 -4.64362e-10 -1.36684e-14
  167 920.463 -4.62933e-10 -2.78728e-13
  168 920.463 -4.62153e-10 -8.27600e-14
  169 920.463 -4.64102e-10 -4.15049e-14
  170 920.463 -4.62751e-10 3.16458e-13
  171 920.463 -4.63582e-10 -7.72017e-14
  172 920.463 -4.62933e-10 -1.01130e-13
  173 920.463 -4.64600e-10 1.05018e-13
  174 920.463 -4.63994e-10 -1.77018e-13
  175 920.463 -4.64449e-10 -2.56111e-14
  176 920.463 -4.64752e-10 1.08569e-13
  177 920.463 -4.62326e-10 -1.12913e-13
  178 920.463 -4.63539e-10 4.43970e-14
  179 920.463 -4.62751e-10 1.39642e-13
  180 920.463 -4.63453e-10 -9.97297e-14
  181 920.463 -4.63084e-10 1.15689e-13
  182 920.463 -4.64752e-10 -4.69561e-15
  183 920.463 -4.63084e-10 2.45739e-14
  184 920.463 -4.63115e-10 6.04778e-13
  185 920.463 -4.63388e-10 -4.59401e-14
  186 920.463 -4.61660e-10 -2.12381e-13
  187 920.463 -4.63236e-10 3.79298e-13
  188 920.463 -4.62387e-10 7.20175e-14
  189 920.463 -4.64752e-10 9.84214e-14
  190 920.463 -4.64752e-10 -1.07573e-13
  191 920.463 -4.63236e-10 -1.40562e-13
  192 920.463 -4.63063e-10 1.42356e-13
  193 920.463 -4.62933e-10 -9.67119e-14
  194 920.463 -4.63388e-10 -2.28543e-13
  195 920.463 -4.64297e-10 -8.89952e-14
  196 920.463 -4.62175e-10 -5.52711e-13
  197 920.463 -4.64145e-10 -9.94445e-14
  198 920.463 -4.64600e-10 3.22704e-14
  199 920.463 -4.63388e-10 2.51337e-14
  200 920.463 -4.61872e-10 -1.65386e-13
  201 920.463 -4.64297e-10 2.37396e-13
  202 920.463 -4.62933e-10 1.62627e-14
  203 920.463 -4.63994e-10 -2.71749e-13
  204 920.463 -4.62781e-10 1.61296e-13
  205 920.463 -4.64145e-10 5.29845e-14
  206 920.463 -4.63479e-10 6.68461e-13
  207 920.463 -4.64388e-10 -3.45292e-15
  208 920.463 -4.62933e-10 6.08774e-14
  209 920.463 -4.63236e-10 -3.46974e-13
  210 920.463 -4.64600e-10 -1.58815e-13
  211 920.463 -4.63063e-10 8.45625e-14
  212 920.463 -4.62569e-10 3.53633e-13
  213 920.463 -4.64752e-10 -6.18959e-17
  214 920.463 -4.64600e-10 -1.06997e-14
  215 920.463 -4.61478e-10 -4.53394e-14
  216 920.463 -4.63479e-10 -1.51206e-15
  217 920.463 -4.61720e-10 4.53589e-13
  218 920.463 -4.64600e-10 -1.25475e-13
  219 920.463 -4.62387e-10 3.53230e-14
  220 920.463 -4.63691e-10 -1.95233e-13
  221 920.463 -4.64297e-10 -9.41486e-14
  222 920.463 -4.63539e-10 -4.92224e-13
  223 920.463 -4.63115e-10 2.84275e-13
  224 920.463 -4.64570e-10 -2.48006e-13
  225 920.463 -4.64024e-10 1.07987e-13
  226 920.463 -4.62933e-10 -1.17764e-13
  227 920.463 -4.63994e-10 -2.32887e-14
  228 920.463 -4.64388e-10 1.66662e-13
  229 920.463 -4.64449e-10 -2.07342e-13
  230 920.463 -4.61265e-10 -6.79457e-14
  231 920.463 -4.63479e-10 -1.44311e-13
  232 920.463 -4.64024e-10 1.99147e-13
  233 920.463 -4.62387e-10 -7.98441e-13
  234 920.463 -4.64145e-10 5.09907e-14
  235 920.463 -4.64206e-10 -1.59022e-13
  236 920.463 -4.64102e-10 2.07841e-13
  237 920.463 -4.62569e-10 2.80546e-13
  238 920.463 -4.62933e-10 -2.28342e-13
  239 920.463 -4.61872e-10 3.82146e-13
  240 920.463 -4.62387e-10 1.66813e-13
  241 920.463 -4.61872e-10 3.01722e-13
</Section>

newXOutput 55

<Section columns = "stress_xx | stress_yy | stress_xy">
  1 935.939 -4.62933e-10 0.00000
  2 935.939 -4.62933e-10 -2.86640e-13
  3 935.939 -4.61569e-10 8.00379e-14
  4 935.939 -4.61569e-10 -1.41507e-14
  5 935.939 -4.62933e-10 1.00092e-13
  6 935.939 -4.62933e-10 -9.06846e-14
  7 935.939 -4.62933e-10 -1.73918e-13
  8 935.939 -4.62933e-10 9.13191e-14
  9 935.939 -4.62933e-10 3.59780e-13
  10 935.939 -4.62933e-10 5.62288e-14
  11 935.939 -4.62933e-10 2.47322e-13
  12 935.939 -4.62933e-10 -1.68686e-13
  13 935.939 -4.62933e-10 -1.68686e-13
  14 935.939 -4.62933e-10 -3.28917e-13
  15 935.939 -4.62933e-10 -1.45539e-13
  16 935.939 -4.62933e-10 -6.07102e-13
  17 935.939 -4.62933e-10 -1.06243e-12
  18 935.939 -4.62933e-10 -8.79791e-13
  19 935.939 -4.62933e-10 -5.76240e-13
  20 935.939 -4.64145e-10 4.22985e-13
  21 935.939 -4.64145e-10 5.11555e-13
  22 935.939 -4.62933e-10 5.28466e-13
  23 935.939 -4.62933e-10 -2.38867e-13
  24 935.939 -4.61417e-10 -1.91094e-13
  25 935.939 -4.62023e-10 -7.16601e-14
  26 935.939 -4.62933e-10 -1.70193e-13
  27 935.939 -4.62933e-10 -1.43320e-13
  28 935.939 -4.62933e-10 2.23917e-13
  29 935.939 -4.61569e-10 -1.79150e-13
  30 935.939 -4.61114e-10 -1.40334e-13
  31 935.939 -4.62933e-10 1.17870e-12
  32 935.939 -4.62933e-10 6.51551e-13
  33 935.939 -4.63388e-10 7.30757e-13
  34 935.939 -4.62933e-10 8.18018e-13
  35 935.939 -4.62933e-10 3.59428e-13
  36 935.939 -4.62933e-10 2.67595e-14
  37 935.939 -4.62933e-10 4.29095e-15
  38 935.939 -4.62933e-10 -1.29902e-13
  39 935.939 -4.62933e-10 -1.20966e-13
  40 935.939 -4.62933e-10 1.39128e-13
  41 935.939 -4.62933e-10 -4.47661e-14
  42 935.939 -4.62933e-10 -3.65380e-13
  43 935.939 -4.62933e-10 -5.79403e-14
  44 935.939 -4.62933e-10 -2.37393e-13
  45 935.939 -4.62023e-10 1.24257e-13
  46 935.939 -4.62023e-10 1.24718e-13
  47 935.939 -4.62933e-10 6.49354e-14
  48 935.939 -4.62933e-10 -8.21819e-14
  49 935.939 -4.62023e-10 2.92138e-14
  50 935.939 -4.62933e-10 -4.46026e-14
  51 935.939 -4.62933e-10 -3.58301e-14
  52 935.939 -4.62933e-10 1.13871e-13
  53 935.939 -4.62933e-10 -1.35605e-13
  54 935.939 -4.62933e-10 4.20138e-15
  55 935.939 -4.62933e-10 1.43320e-13
  56 935.939 -4.62933e-10 -7.86887e-14
  57 935.939 -4.62478e-10 1.14809e-13
  58 935.939 -4.62933e-10 2.63176e-13
  59 935.939 -4.62933e-10 5.75048e-14
  60 935.939 -4.62933e-10 -1.44426e-13
  61 935.939 -4.62933e-10 1.78833e-13
  62 935.939 -4.62933e-10 -4.75659e-13
  63 935.939 -4.62933e-10 4.02628e-13
  64 935.939 -4.62478e-10 -3.14860e-13
  65 935.939 -4.62023e-10 -6.94801e-14
  66 935.939 -4.62933e-10 7.77111e-14
  67 935.939 -4.62781e-10 2.10332e-14
  68 935.939 -4.62933e-10 -1.72042e-13
  69 935.939 -4.63193e-10 -3.71997e-13
  70 935.939 -4.62933e-10 -6.66648e-14
  71 935.939 -4.62933e-10 1.28747e-14
  72 935.939 -4.62543e-10 2.09222e-13
  73 935.939 -4.62933e-10 -5.76858e-14
  74 935.939 -4.62933e-10 -1.47997e-13
  75 935.939 -4.62933e-10 3.83667e-14
  76 935.939 -4.62933e-10 3.47837e-13
  77 935.939 -4.62933e-10 1.58538e-15
  78 935.939 -4.63236e-10 -1.54877e-13
  79 935.939 -4.62543e-10 3.21384e-14
  80 935.939 -4.62933e-10 9.25610e-14
  81 935.939 -4.62933e-10 -2.41588e-13
  82 935.939 -4.62933e-10 -4.90601e-13
  83 935.939 -4.62023e-10 6.42880e-14
  84 935.939 -4.62933e-10 6.46315e-14
  85 935.939 -4.62933e-10 -1.83748e-13
  86 935.939 -4.62933e-10 1.42316e-13
  87 935.939 -4.62933e-10 2.81407e-14
  88 935.939 -4.62387e-10 -8.86718e-13
  89 935.939 -4.62933e-10 1.02322e-13
  90 935.939 -4.62478e-10 -1.85703e-13
  91 935.939 -4.62933e-10 1.07220e-13
  92 935.939 -4.62933e-10 3.05665e-14
  93 935.939 -4.63660e-10 6.53186e-14
  94 935.939 -4.62933e-10 2.80614e-14
  95 935.939 -4.62933e-10 1.38572e-13
  96 935.939 -4.62933e-10 -5.02571e-14
  97 935.939 -4.63297e-10 -5.86090e-13
  98 935.939 -4.62933e-10 -2.18999e-13
  99 935.939 -4.62933e-10 1.30875e-13
  100 935.939 -4.62933e-10 -2.95517e-14
  101 935.939 -4.62933e-10 4.52897e-14
  102 935.939 -4.62933e-10 -4.70229e-14
  103 935.939 -4.63236e-10 -6.79687e-13
  104 935.939 -4.62933e-10 -1.94052e-14
  105 935.939 -4.62933e-10 7.21436e-14
  106 935.939 -4.62933e-10 -3.53306e-13
  107 935.939 -4.62478e-10 -3.51325e-13
  108 935.939 -4.62933e-10 6.39707e-14
  109 935.939 -4.62933e-10 -1.41037e-13
  110 935.939 -4.63297e-10 3.11103e-13
  111 935.939 -4.62819e-10 -2.01782e-13
  112 935.939 -4.62933e-10 -6.09255e-14
  113 935.939 -4.62933e-10 -4.55537e-13
  114 935.939 -4.62933e-10 -2.10390e-13
  115 935.939 -4.62478e-10 9.21712e-14
  116 935.939 -4.62933e-10 -9.23336e-14
  117 935.939 -4.62933e-10 1.00277e-13
  118 935.939 -4.62478e-10 -4.48486e-14
  119 935.939 -4.62933e-10 -9.11601e-14
  120 935.939 -4.63236e-10 6.86013e-14
  121 935.939 -4.62543e-10 1.02779e-13
  122 935.939 -4.62933e-10 -9.65281e-14
  123 935.939 -4.62933e-10 -3.66858e-13
  124 935.939 -4.62933e-10 -5.59126e-13
  125 935.939 -4.62592e-10 -1.16537e-13
  126 935.939 -4.62592e-10 3.53198e-14
  127 935.939 -4.62933e-10 1.79150e-14
  128 935.939 -4.63160e-10 -2.94646e-13
  129 935.939 -4.62251e-10 -1.28162e-13
  130 935.939 -4.62933e-10 -6.78286e-14
  131 935.939 -4.62933e-10 6.48266e-14
  132 935.939 -4.62933e-10 -1.25061e-13
  133 935.939 -4.62933e-10 -3.67994e-13
  134 935.939 -4.62933e-10 1.63364e-13
  135 935.939 -4.62933e-10 2.38218e-13
  136 935.939 -4.62933e-10 -5.10253e-14
  137 935.939 -4.62933e-10 3.35354e-14
  138 935.939 -4.62478e-10 -1.08573e-13
  139 935.939 -4.62933e-10 4.28285e-14
  140 935.939 -4.63453e-10 2.30495e-13
  141 935.939 -4.62933e-10 1.97990e-13
  142 935.939 -4.62023e-10 -2.81144e-14
  143 935.939 -4.62543e-10 6.65415e-14
  144 935.939 -4.62933e-10 4.70269e-15
  145 935.939 -4.63297e-10 -4.92014e-13
  146 935.939 -4.62933e-10 -1.18123e-14
  147 935.939 -4.62933e-10 1.82818e-14
  148 935.939 -4.62933e-10 -1.12246e-13
  149 935.939 -4.62933e-10 2.73611e-14
  150 935.939 -4.62933e-10 4.62572e-14
  151 935.939 -4.62478e-10 1.37416e-15
  152 935.939 -4.62933e-10 1.79203e-13
  153 935.939 -4.62933e-10 2.92850e-13
  154 935.939 -4.62933e-10 1.55559e-13
  155 935.939 -4.62933e-10 -3.26681e-13
  156 935.939 -4.63453e-10 -9.58032e-14
  157 935.939 -4.62933e-10 -1.03753e-13
  158 935.939 -4.62933e-10 -2.86746e-13
  159 935.939 -4.62933e-10 8.07499e-14
  160 935.939 -4.62933e-10 -5.94209e-14
  161 935.939 -4.62933e-10 4.17909e-14
  162 935.939 -4.62478e-10 5.27938e-14
  163 935.939 -4.62933e-10 -6.39444e-14
  164 935.939 -4.62933e-10 3.32708e-14
  165 935.939 -4.62933e-10 -1.54246e-14
  166 935.939 -4.62933e-10 8.33012e-14
  167 935.939 -4.61893e-10 -1.89387e-13
  168 935.939 -4.62153e-10 -2.51741e-14
  169 935.939 -4.62933e-10 4.71996e-14
  170 935.939 -4.62751e-10 8.59921e-14
  171 935.939 -4.62933e-10 3.44712e-14
  172 935.939 -4.62933e-10 -3.05981e-14
  173 935.939 -4.62478e-10 -1.80063e-13
  174 935.939 -4.62478e-10 2.05256e-13
  175 935.939 -4.62478e-10 1.91168e-14
  176 935.939 -4.62933e-10 -2.40716e-14
  177 935.939 -4.62478e-10 1.36151e-13
  178 935.939 -4.62478e-10 2.04992e-13
  179 935.939 -4.62933e-10 3.91912e-14
  180 935.939 -4.62933e-10 -4.67012e-14
  181 935.939 -4.62933e-10 -1.50904e-13
  182 935.939 -4.62933e-10 -3.06013e-13
  183 935.939 -4.62933e-10 -9.79380e-14
  184 935.939 -4.62933e-10 -9.36781e-13
  185 935.939 -4.62933e-10 4.84605e-14
  186 935.939 -4.62933e-10 -2.88416e-13
  187 935.939 -4.63236e-10 3.94339e-13
  188 935.939 -4.62933e-10 1.12983e-13
  189 935.939 -4.62387e-10 8.47238e-14
  190 935.939 -4.62543e-10 -5.58783e-14
  191 935.939 -4.62478e-10 9.62602e-14
  192 935.939 -4.62933e-10 -3.07115e-14
  193 935.939 -4.63297e-10 4.23203e-14
  194 935.939 -4.62023e-10 -9.56048e-13
  195 935.939 -4.62478e-10 9.98008e-14
  196 935.939 -4.62781e-10 -2.19912e-13
  197 935.939 -4.62933e-10 3.43240e-14
  198 935.939 -4.62933e-10 -6.15558e-13
  199 935.939 -4.62933e-10 1.45117e-13
  200 935.939 -4.62933e-10 -5.39300e-14
  201 935.939 -4.62933e-10 1.14578e-13
  202 935.939 -4.62933e-10 -3.48724e-13
  203 935.939 -4.62933e-10 -2.69835e-13
  204 935.939 -4.62933e-10 1.12838e-13
  205 935.939 -4.62933e-10 1.22895e-13
  206 935.939 -4.63660e-10 -5.28762e-13
  207 935.939 -4.62933e-10 3.73971e-14
  208 935.939 -4.63297e-10 -3.14677e-13
  209 935.939 -4.62478e-10 -5.72382e-13
  210 935.939 -4.62478e-10 -7.05370e-14
  211 935.939 -4.62933e-10 -8.05834e-14
  212 935.939 -4.62933e-10 5.71758e-13
  213 935.939 -4.62933e-10 -3.68665e-14
  214 935.939 -4.62933e-10 -5.94813e-14
  215 935.939 -4.62933e-10 -6.33496e-13
  216 935.939 -4.62933e-10 -3.64277e-13
  217 935.939 -4.63236e-10 -2.11730e-13
  218 935.939 -4.62478e-10 -2.59802e-13
  219 935.939 -4.62933e-10 -1.33141e-15
  220 935.939 -4.62933e-10 -8.15159e-14
  221 935.939 -4.62933e-10 2.56280e-13
  222 935.939 -4.62933e-10 5.22442e-13
  223 935.939 -4.62933e-10 -1.53276e-13
  224 935.939 -4.61841e-10 -1.89740e-13
  225 935.939 -4.62933e-10 -1.57050e-13
  226 935.939 -4.62933e-10 8.55483e-14
  227 935.939 -4.62933e-10 -2.35617e-13
  228 935.939 -4.62933e-10 1.86157e-13
  229 935.939 -4.62933e-10 9.75020e-15
  230 935.939 -4.63236e-10 2.57152e-13
  231 935.939 -4.62933e-10 1.07046e-13
  232 935.939 -4.62933e-10 -2.67616e-14
  233 935.939 -4.62933e-10 2.90445e-13
  234 935.939 -4.62933e-10 -1.44450e-13
  235 935.939 -4.62933e-10 2.77296e-13
  236 935.939 -4.62933e-10 8.70158e-14
  237 935.939 -4.62933e-10 2.87381e-13
  238 935.939 -4.62933e-10 1.64818e-13
  239 935.939 -4.62933e-10 2.47692e-13
  240 935.939 -4.62933e-10 1.34444e-14
  241 935.939 -4.62933e-10 9.30631e-14
</Section>

newXOutput 56

<Section columns = "stress_xx | stress_yy | stress_xy">
  1 951.352 -4.58840e-10 6.44310e-15
  2 951.352 -4.59295e-10 0.00000
  3 951.352 -4.60204e-10 -1.60831e-13
  4 951.352 -4.57931e-10 1.05266e-13
  5 951.352 -4.60204e-10 -4.54972e-14
  6 951.352 -4.58385e-10 -1.49378e-13
  7 951.352 -4.59295e-10 8.93341e-14
  8 951.352 -4.59598e-10 -8.59080e-15
  9 951.352 -4.59901e-10 3.11642e-13
  10 951.352 -4.58082e-10 3.59286e-13
  11 951.352 -4.60204e-10 -1.03881e-13
  12 951.352 -4.59901e-10 -7.48838e-13
  13 951.352 -4.60432e-10 -1.62264e-13
  14 951.352 -4.58385e-10 1.42935e-13
  15 951.352 -4.60204e-10 -3.26139e-13
  16 951.352 -4.58688e-10 -1.90579e-13
  17 951.352 -4.59598e-10 2.72587e-13
  18 951.352 -4.60811e-10 5.82279e-13
  19 951.352 -4.60204e-10 2.38224e-13
  20 951.352 -4.59901e-10 1.36294e-13
  21 951.352 -4.58992e-10 -3.98340e-13
  22 951.352 -4.62023e-10 9.52897e-14
  23 951.352 -4.60811e-10 -1.34344e-13
  24 951.352 -4.58688e-10 -4.76449e-14
  25 951.352 -4.60204e-10 -2.14402e-13
  26 951.352 -4.60204e-10 -3.35003e-14
  27 951.352 -4.58688e-10 8.90600e-13
  28 951.352 -4.59750e-10 4.96477e-14
  29 951.352 -4.59295e-10 4.64537e-13
  30 951.352 -4.59901e-10 -3.61922e-13
  31 951.352 -4.60811e-10 1.11326e-13
  32 951.352 -4.61114e-10 1.77090e-13
  33 951.352 -4.60659e-10 1.38851e-13
  34 951.352 -4.61417e-10 2.16750e-13
  35 951.352 -4.60659e-10 -4.23194e-13
  36 951.352 -4.60811e-10 -1.06774e-13
  37 951.352 -4.59295e-10 -4.78543e-13
  38 951.352 -4.60811e-10 -1.85767e-13
  39 951.352 -4.60811e-10 2.04761e-13
  40 951.352 -4.60204e-10 -5.86367e-13
  41 951.352 -4.60811e-10 -2.17236e-13
  42 951.352 -4.60811e-10 -2.39463e-13
  43 951.352 -4.60811e-10 -1.93118e-13
  44 951.352 -4.62023e-10 -2.08779e-14
  45 951.352 -4.61417e-10 -1.70210e-15
  46 951.352 -4.60204e-10 9.64946e-14
  47 951.352 -4.61417e-10 2.32758e-13
  48 951.352 -4.60811e-10 2.10748e-13
  49 951.352 -4.58385e-10 3.01017e-13
  50 951.352 -4.60811e-10 -4.97926e-14
  51 951.352 -4.60204e-10 -5.36005e-14
  52 951.352 -4.59750e-10 2.47695e-14
  53 951.352 -4.59295e-10 2.78253e-13
  54 951.352 -4.59522e-10 5.93123e-14
  55 951.352 -4.60204e-10 7.14673e-14
  56 951.352 -4.58385e-10 -2.08446e-14
  57 951.352 -4.59446e-10 -2.25872e-13
  58 951.352 -4.59295e-10 -6.14350e-13
  59 951.352 -4.58515e-10 1.99463e-13
  60 951.352 -4.59295e-10 -7.08677e-14
  61 951.352 -4.58840e-10 7.46888e-14
  62 951.352 -4.60053e-10 1.29363e-13
  63 951.352 -4.59659e-10 -3.27927e-13
  64 951.352 -4.58537e-10 5.11787e-13
  65 951.352 -4.60507e-10 2.60549e-14
  66 951.352 -4.59295e-10 5.51618e-14
  67 951.352 -4.60204e-10 -4.02807e-13
  68 951.352 -4.59446e-10 2.45326e-13
  69 951.352 -4.60724e-10 3.93203e-13
  70 951.352 -4.58158e-10 1.09494e-13
  71 951.352 -4.61114e-10 2.99493e-14
  72 951.352 -4.59425e-10 -9.32445e-14
  73 951.352 -4.58775e-10 2.01764e-13
  74 951.352 -4.61296e-10 3.35892e-14
  75 951.352 -4.58567e-10 2.76319e-13
  76 951.352 -4.58385e-10 2.36854e-13
  77 951.352 -4.59598e-10 -8.06444e-14
  78 951.352 -4.61720e-10 -3.25444e-13
  79 951.352 -4.59425e-10 -5.70521e-14
  80 951.352 -4.58992e-10 5.95561e-15
  81 951.352 -4.58537e-10 2.54826e-14
  82 951.352 -4.60053e-10 -8.79300e-15
  83 951.352 -4.59598e-10 4.60341e-14
  84 951.352 -4.60053e-10 -5.02801e-14
  85 951.352 -4.59446e-10 -4.29093e-13
  86 951.352 -4.59143e-10 2.04539e-13
  87 951.352 -4.60204e-10 -1.10257e-13
  88 951.352 -4.58749e-10 -6.89649e-13
  89 951.352 -4.59113e-10 -4.54576e-14
  90 951.352 -4.60053e-10 -1.59629e-13
  91 951.352 -4.59295e-10 1.00904e-13
  92 951.352 -4.59295e-10 1.01576e-13
  93 951.352 -4.60022e-10 -8.38151e-13
  94 951.352 -4.59295e-10 -2.50894e-13
  95 951.352 -4.59841e-10 2.05864e-13
  96 951.352 -4.60356e-10 2.80546e-13
  97 951.352 -4.60022e-10 -1.67537e-13
  98 951.352 -4.61296e-10 2.07524e-14
  99 951.352 -4.60811e-10 -3.25213e-13
  100 951.352 -4.60568e-10 1.18799e-13
  101 951.352 -4.59750e-10 1.72027e-13
  102 951.352 -4.59113e-10 1.30341e-13
  103 951.352 -4.59143e-10 -4.72832e-13
  104 951.352 -4.60568e-10 1.63086e-13
  105 951.352 -4.58931e-10 -3.05337e-14
  106 951.352 -4.58840e-10 8.02294e-14
  107 951.352 -4.59750e-10 2.15206e-13
  108 951.352 -4.61114e-10 2.49095e-14
  109 951.352 -4.59295e-10 -4.08881e-14
  110 951.352 -4.60386e-10 1.49259e-13
  111 951.352 -4.60545e-10 -2.16861e-13
  112 951.352 -4.57779e-10 3.39595e-13
  113 951.352 -4.59555e-10 9.15113e-14
  114 951.352 -4.60594e-10 -1.81852e-13
  115 951.352 -4.59901e-10 2.19741e-13
  116 951.352 -4.59659e-10 1.02631e-13
  117 951.352 -4.57931e-10 2.59214e-13
  118 951.352 -4.61417e-10 -4.85976e-14
  119 951.352 -4.60334e-10 -9.22196e-14
  120 951.352 -4.60811e-10 -3.14020e-13
  121 951.352 -4.60724e-10 -1.15253e-13
  122 951.352 -4.58905e-10 1.91953e-13
  123 951.352 -4.60204e-10 -1.71224e-14
  124 951.352 -4.59425e-10 -1.72105e-13
  125 951.352 -4.58158e-10 1.04382e-13
  126 951.352 -4.60659e-10 6.57554e-14
  127 951.352 -4.60594e-10 1.94965e-13
  128 951.352 -4.60432e-10 -6.64867e-14
  129 951.352 -4.60886e-10 1.03108e-13
  130 951.352 -4.58537e-10 9.22659e-15
  131 951.352 -4.59750e-10 1.19162e-13
  132 951.352 -4.59977e-10 -1.79876e-13
  133 951.352 -4.59815e-10 -1.23351e-13
  134 951.352 -4.60594e-10 -1.29732e-13
  135 951.352 -4.59815e-10 1.60508e-13
  136 951.352 -4.61244e-10 1.03434e-13
  137 951.352 -4.59685e-10 2.51432e-15
  138 951.352 -4.57931e-10 -8.05950e-14
  139 951.352 -4.59555e-10 -1.49859e-13
  140 951.352 -4.58515e-10 -6.08471e-13
  141 951.352 -4.59598e-10 1.72805e-14
  142 951.352 -4.58992e-10 1.45570e-13
  143 951.352 -4.60594e-10 -1.12933e-13
  144 951.352 -4.58567e-10 8.33599e-14
  145 951.352 -4.61296e-10 -4.81596e-13
  146 951.352 -4.60204e-10 9.94245e-14
  147 951.352 -4.58992e-10 -1.14895e-13
  148 951.352 -4.58385e-10 6.82457e-14
  149 951.352 -4.58840e-10 7.47666e-13
  150 951.352 -4.59598e-10 2.64579e-13
  151 951.352 -4.57931e-10 1.35806e-13
  152 951.352 -4.58234e-10 6.78571e-15
  153 951.352 -4.60356e-10 2.95606e-13
  154 951.352 -4.58567e-10 1.70905e-13
  155 951.352 -4.59901e-10 4.45873e-13
  156 951.352 -4.59035e-10 7.22183e-14
  157 951.352 -4.60334e-10 4.16742e-14
  158 951.352 -4.58840e-10 4.55894e-13
  159 951.352 -4.59598e-10 5.49181e-14
  160 951.352 -4.59659e-10 1.98116e-13
  161 951.352 -4.59113e-10 1.07903e-12
  162 951.352 -4.59295e-10 5.73342e-14
  163 951.352 -4.58385e-10 1.60630e-13
  164 951.352 -4.58645e-10 3.76875e-13
  165 951.352 -4.61417e-10 -3.02655e-14
  166 951.352 -4.60464e-10 -1.23131e-13
  167 951.352 -4.59685e-10 4.21147e-14
  168 951.352 -4.59165e-10 -3.24128e-15
  169 951.352 -4.60074e-10 -5.25332e-14
  170 951.352 -4.60568e-10 -2.82470e-13
  171 951.352 -4.61114e-10 -1.88375e-13
  172 951.352 -4.59143e-10 -1.50840e-13
  173 951.352 -4.60356e-10 2.20137e-13
  174 951.352 -4.58537e-10 1.44983e-13
  175 951.352 -4.59295e-10 5.24248e-14
  176 951.352 -4.58992e-10 2.85329e-14
  177 951.352 -4.59295e-10 -9.49481e-13
  178 951.352 -4.60053e-10 -5.36959e-14
  179 951.352 -4.58203e-10 2.34324e-14
  180 951.352 -4.59425e-10 -7.05468e-14
  181 951.352 -4.58688e-10 -1.05574e-12
  182 951.352 -4.60750e-10 -1.74363e-13
  183 951.352 -4.59446e-10 1.69613e-13
  184 951.352 -4.58385e-10 -2.52128e-13
  185 951.352 -4.60811e-10 1.30363e-13
  186 951.352 -4.60750e-10 -2.70050e-13
  187 951.352 -4.60053e-10 -5.34304e-13
  188 951.352 -4.59113e-10 1.06287e-13
  189 951.352 -4.59841e-10 4.41690e-14
  190 951.352 -4.60854e-10 1.79344e-13
  191 951.352 -4.60507e-10 3.05248e-13
  192 951.352 -4.58385e-10 -1.78081e-13
  193 951.352 -4.61296e-10 -4.18375e-13
  194 951.352 -4.60053e-10 -2.97780e-14
  195 951.352 -4.60507e-10 -1.32659e-14
  196 951.352 -4.59901e-10 -8.42794e-14
  197 951.352 -4.59598e-10 6.06299e-14
  198 951.352 -4.60204e-10 -1.68707e-13
  199 951.352 -4.60204e-10 -2.35787e-14
  200 951.352 -4.59750e-10 -9.13494e-13
  201 951.352 -4.58992e-10 2.61562e-13
  202 951.352 -4.60568e-10 4.94421e-14
  203 951.352 -4.59446e-10 -1.05053e-13
  204 951.352 -4.60811e-10 -8.76211e-15
  205 951.352 -4.60507e-10 -8.65012e-14
  206 951.352 -4.59841e-10 -5.20889e-13
  207 951.352 -4.60204e-10 1.45134e-13
  208 951.352 -4.60932e-10 -5.20675e-13
  209 951.352 -4.58537e-10 -1.76705e-28
  210 951.352 -4.60204e-10 9.15329e-15
  211 951.352 -4.59944e-10 -2.13397e-14
  212 951.352 -4.60022e-10 3.37533e-13
  213 951.352 -4.59659e-10 1.65780e-13
  214 951.352 -4.60507e-10 3.70080e-14
  215 951.352 -4.58931e-10 -2.01640e-13
  216 951.352 -4.58385e-10 1.33240e-13
  217 951.352 -4.58537e-10 -6.55117e-14
  218 951.352 -4.60811e-10 9.17848e-14
  219 951.352 -4.60022e-10 7.34595e-14
  220 951.352 -4.61114e-10 2.00537e-13
  221 951.352 -4.58537e-10 4.54062e-13
  222 951.352 -4.59750e-10 -3.24132e-14
  223 951.352 -4.59659e-10 -1.60975e-13
  224 951.352 -4.60932e-10 1.55236e-13
  225 951.352 -4.59477e-10 -1.70288e-13
  226 951.352 -4.60204e-10 5.44780e-14
  227 951.352 -4.59750e-10 7.83979e-14
  228 951.352 -4.57658e-10 2.08425e-13
  229 951.352 -4.58992e-10 -1.25531e-13
  230 951.352 -4.59598e-10 -1.50063e-13
  231 951.352 -4.60386e-10 -1.86985e-13
  232 951.352 -4.61296e-10 -3.02273e-14
  233 951.352 -4.59113e-10 6.64875e-13
  234 951.352 -4.59295e-10 2.02258e-13
  235 951.352 -4.59477e-10 -5.15921e-13
  236 951.352 -4.59425e-10 4.27005e-14
  237 951.352 -4.59659e-10 -3.00451e-13
  238 951.352 -4.60022e-10 8.89230e-14
  239 951.352 -4.58840e-10 -1.47619e-13
  240 951.352 -4.60750e-10 -1.37661e-13
  241 951.352 -4.59295e-10 -2.34219e-13
</Section>

newXOutput 57

<Section columns = "stress_xx | stress_yy | stress_xy">
  1 966.702 -4.59295e-10 -7.78194e-14
  2 966.702 -4.59750e-10 -1.89218e-14
  3 966.702 -4.57931e-10 1.07817e-13
  4 966.702 -4.60204e-10 2.76221e-13
  5 966.702 -4.58688e-10 -1.23273e-13
  6 966.702 -4.60204e-10 -7.78194e-14
  7 966.702 -4.59067e-10 -7.12752e-14
  8 966.702 -4.60204e-10 1.60002e-13
  9 966.702 -4.58385e-10 2.59398e-13
  10 966.702 -4.58385e-10 3.41343e-13
  11 966.702 -4.57476e-10 -6.49679e-14
  12 966.702 -4.55960e-10 -6.44941e-14
  13 966.702 -4.56339e-10 -6.16011e-13
  14 966.702 -4.57779e-10 -5.27521e-13
  15 966.702 -4.56112e-10 3.89097e-14
  16 966.702 -4.57173e-10 3.20003e-13
  17 966.702 -4.56263e-10 5.27521e-13
  18 966.702 -4.57476e-10 2.78794e-13
  19 966.702 -4.56263e-10 -1.12485e-13
  20 966.702 -4.57173e-10 -3.20003e-13
  21 966.702 -4.56263e-10 -4.45102e-13
  22 966.702 -4.57476e-10 7.17589e-13
  23 966.702 -4.59901e-10 3.11277e-13
  24 966.702 -4.58688e-10 -1.90067e-13
  25 966.702 -4.57931e-10 2.85101e-13
  26 966.702 -4.58613e-10 -1.82091e-13
  27 966.702 -4.58992e-10 5.21949e-13
  28 966.702 -4.58840e-10 -2.06592e-13
  29 966.702 -4.57476e-10 5.34564e-14
  30 966.702 -4.57173e-10 1.82643e-13
  31 966.702 -4.57476e-10 4.59906e-13
  32 966.702 -4.59750e-10 4.02923e-14
  33 966.702 -4.57931e-10 2.19732e-13
  34 966.702 -4.58385e-10 1.09037e-13
  35 966.702 -4.59977e-10 9.85191e-13
  36 966.702 -4.59295e-10 5.42392e-13
  37 966.702 -4.58688e-10 -9.88954e-13
  38 966.702 -4.57476e-10 -2.26702e-13
  39 966.702 -4.60204e-10 2.68309e-13
  40 966.702 -4.57779e-10 2.16663e-13
  41 966.702 -4.58688e-10 3.46756e-13
  42 966.702 -4.57173e-10 9.24043e-14
  43 966.702 -4.57476e-10 7.84230e-14
  44 966.702 -4.59901e-10 -1.14738e-13
  45 966.702 -4.58688e-10 5.31163e-14
  46 966.702 -4.58688e-10 1.32132e-13
  47 966.702 -4.59598e-10 -4.85823e-13
  48 966.702 -4.59901e-10 -1.45588e-13
  49 966.702 -4.60204e-10 3.65467e-13
  50 966.702 -4.58992e-10 5.93960e-14
  51 966.702 -4.60204e-10 -5.34564e-14
  52 966.702 -4.58158e-10 -3.34280e-13
  53 966.702 -4.58082e-10 -1.72853e-13
  54 966.702 -4.58613e-10 1.48365e-13
  55 966.702 -4.60204e-10 -2.85101e-13
  56 966.702 -4.59901e-10 -1.65034e-13
  57 966.702 -4.59295e-10 8.63019e-14
  58 966.702 -4.58234e-10 2.75942e-13
  59 966.702 -4.58775e-10 1.31067e-13
  60 966.702 -4.58234e-10 -9.53136e-13
  61 966.702 -4.59598e-10 -4.95797e-14
  62 966.702 -4.57931e-10 1.39837e-13
  63 966.702 -4.58385e-10 8.69812e-14
  64 966.702 -4.57931e-10 4.11515e-13
  65 966.702 -4.59143e-10 -2.55160e-14
  66 966.702 -4.57931e-10 3.32854e-13
  67 966.702 -4.58385e-10 -1.91460e-13
  68 966.702 -4.58537e-10 -1.06966e-14
  69 966.702 -4.57476e-10 -9.41367e-14
  70 966.702 -4.59409e-10 -2.11007e-13
  71 966.702 -4.58234e-10 -3.78649e-14
  72 966.702 -4.58775e-10 4.99969e-14
  73 966.702 -4.59295e-10 -5.36367e-13
  74 966.702 -4.58931e-10 -1.24536e-13
  75 966.702 -4.57658e-10 -2.00027e-14
  76 966.702 -4.59446e-10 4.43632e-14
  77 966.702 -4.58992e-10 -1.24968e-13
  78 966.702 -4.59446e-10 1.21769e-13
  79 966.702 -4.58645e-10 -9.47794e-14
  80 966.702 -4.58688e-10 1.80790e-13
  81 966.702 -4.59143e-10 -3.49701e-13
  82 966.702 -4.58082e-10 5.03124e-13
  83 966.702 -4.57476e-10 -1.68852e-13
  84 966.702 -4.59446e-10 -1.66427e-13
  85 966.702 -4.60053e-10 -4.02553e-13
  86 966.702 -4.59295e-10 -9.17615e-14
  87 966.702 -4.57021e-10 -2.19217e-13
  88 966.702 -4.56748e-10 -7.32798e-14
  89 966.702 -4.60204e-10 1.09119e-14
  90 966.702 -4.58385e-10 3.99412e-14
  91 966.702 -4.58385e-10 1.73079e-13
  92 966.702 -4.58203e-10 2.53091e-14
  93 966.702 -4.59477e-10 -6.28232e-13
  94 966.702 -4.58931e-10 -4.89970e-13
  95 966.702 -4.59477e-10 -3.16371e-13
  96 966.702 -4.59750e-10 9.18800e-14
  97 966.702 -4.58385e-10 -7.68890e-13
  98 966.702 -4.57476e-10 -2.07006e-13
  99 966.702 -4.57476e-10 9.09324e-15
  100 966.702 -4.60204e-10 2.99498e-13
  101 966.702 -4.59295e-10 -1.05218e-13
  102 966.702 -4.58749e-10 3.18263e-13
  103 966.702 -4.60204e-10 -1.75704e-13
  104 966.702 -4.60204e-10 9.81455e-14
  105 966.702 -4.59659e-10 -3.71132e-13
  106 966.702 -4.59446e-10 7.86078e-14
  107 966.702 -4.58992e-10 -9.48498e-14
  108 966.702 -4.58082e-10 -2.45094e-13
  109 966.702 -4.58385e-10 4.77828e-13
  110 966.702 -4.58385e-10 -7.20338e-13
  111 966.702 -4.57135e-10 2.56741e-13
  112 966.702 -4.59295e-10 -1.59989e-14
  113 966.702 -4.59425e-10 -2.36830e-15
  114 966.702 -4.58255e-10 3.25620e-14
  115 966.702 -4.59143e-10 1.02992e-13
  116 966.702 -4.59113e-10 -1.06329e-13
  117 966.702 -4.58992e-10 2.18609e-13
  118 966.702 -4.58688e-10 -1.62088e-13
  119 966.702 -4.56566e-10 4.35333e-14
  120 966.702 -4.59143e-10 -2.66041e-15
  121 966.702 -4.58775e-10 -2.21902e-13
  122 966.702 -4.58775e-10 -8.58119e-13
  123 966.702 -4.56263e-10 -7.76355e-14
  124 966.702 -4.57866e-10 -6.98842e-14
  125 966.702 -4.57703e-10 4.71711e-14
  126 966.702 -4.57931e-10 -1.74197e-14
  127 966.702 -4.59815e-10 2.56391e-13
  128 966.702 -4.57817e-10 -4.50004e-13
  129 966.702 -4.58954e-10 -7.54923e-15
  130 966.702 -4.58688e-10 -1.15941e-13
  131 966.702 -4.58234e-10 -3.70209e-13
  132 966.702 -4.58272e-10 -1.22901e-14
  133 966.702 -4.58905e-10 -1.35274e-13
  134 966.702 -4.59815e-10 -9.91974e-14
  135 966.702 -4.57476e-10 -2.92580e-13
  136 966.702 -4.57346e-10 -3.87798e-13
  137 966.702 -4.59555e-10 2.78985e-13
  138 966.702 -4.58992e-10 -3.97573e-14
  139 966.702 -4.58385e-10 1.15327e-13
  140 966.702 -4.59555e-10 -5.28426e-13
  141 966.702 -4.59598e-10 -2.55824e-13
  142 966.702 -4.57173e-10 9.44290e-14
  143 966.702 -4.60074e-10 2.20860e-13
  144 966.702 -4.58567e-10 3.25671e-13
  145 966.702 -4.57840e-10 -1.56231e-13
  146 966.702 -4.59165e-10 -1.35973e-13
  147 966.702 -4.59446e-10 -2.73435e-13
  148 966.702 -4.59750e-10 -2.92119e-14
  149 966.702 -4.58840e-10 6.21070e-13
  150 966.702 -4.58537e-10 -2.09051e-14
  151 966.702 -4.59143e-10 3.43157e-13
  152 966.702 -4.59750e-10 6.06011e-13
  153 966.702 -4.59750e-10 5.61674e-13
  154 966.702 -4.57840e-10 -4.63289e-14
  155 966.702 -4.58234e-10 -3.90281e-14
  156 966.702 -4.57996e-10 -1.74448e-13
  157 966.702 -4.58645e-10 -9.20002e-14
  158 966.702 -4.60204e-10 -2.88307e-13
  159 966.702 -4.59750e-10 -1.58609e-13
  160 966.702 -4.57658e-10 -3.83862e-13
  161 966.702 -4.59113e-10 1.60149e-13
  162 966.702 -4.58385e-10 -4.40313e-14
  163 966.702 -4.59901e-10 -3.15916e-13
  164 966.702 -4.57736e-10 -5.70968e-13
  165 966.702 -4.58082e-10 2.59857e-14
  166 966.702 -4.58905e-10 -9.74572e-14
  167 966.702 -4.58905e-10 3.27745e-13
  168 966.702 -4.57866e-10 -2.82561e-13
  169 966.702 -4.59035e-10 1.02469e-13
  170 966.702 -4.59295e-10 3.31493e-13
  171 966.702 -4.58645e-10 1.05714e-13
  172 966.702 -4.58234e-10 -2.99031e-13
  173 966.702 -4.59750e-10 -2.75117e-13
  174 966.702 -4.59901e-10 -1.78070e-13
  175 966.702 -4.58234e-10 1.12104e-13
  176 966.702 -4.59295e-10 -1.77669e-13
  177 966.702 -4.57173e-10 4.55909e-14
  178 966.702 -4.58537e-10 -6.37266e-16
  179 966.702 -4.59841e-10 -1.65967e-13
  180 966.702 -4.59165e-10 9.17411e-14
  181 966.702 -4.58688e-10 2.32367e-13
  182 966.702 -4.58385e-10 -2.84440e-13
  183 966.702 -4.57931e-10 2.34233e-13
  184 966.702 -4.58385e-10 1.09089e-13
  185 966.702 -4.59901e-10 2.50672e-13
  186 966.702 -4.57112e-10 -3.31935e-13
  187 966.702 -4.57779e-10 1.33388e-14
  188 966.702 -4.58749e-10 -3.75041e-14
  189 966.702 -4.59295e-10 -4.53828e-14
  190 966.702 -4.59295e-10 5.15488e-14
  191 966.702 -4.58385e-10 -4.64853e-14
  192 966.702 -4.59425e-10 -2.30653e-13
  193 966.702 -4.59295e-10 1.28303e-13
  194 966.702 -4.59750e-10 6.89100e-13
  195 966.702 -4.59598e-10 1.13487e-13
  196 966.702 -4.57627e-10 -2.40372e-13
  197 966.702 -4.58992e-10 3.24674e-13
  198 966.702 -4.57476e-10 1.27518e-13
  199 966.702 -4.58992e-10 2.36185e-13
  200 966.702 -4.60053e-10 -8.02438e-13
  201 966.702 -4.58385e-10 6.97903e-14
  202 966.702 -4.57112e-10 -3.28150e-13
  203 966.702 -4.60356e-10 -1.59765e-13
  204 966.702 -4.58840e-10 2.15869e-13
  205 966.702 -4.59143e-10 -1.82551e-13
  206 966.702 -4.58022e-10 -1.42550e-13
  207 966.702 -4.58203e-10 -1.51006e-13
  208 966.702 -4.59659e-10 -5.15025e-14
  209 966.702 -4.59143e-10 -7.28259e-13
  210 966.702 -4.58234e-10 -4.76383e-14
  211 966.702 -4.59165e-10 -6.67531e-14
  212 966.702 -4.58385e-10 1.46477e-13
  213 966.702 -4.58203e-10 4.75181e-14
  214 966.702 -4.57779e-10 -1.76447e-13
  215 966.702 -4.58385e-10 -7.33328e-14
  216 966.702 -4.57840e-10 -1.16784e-13
  217 966.702 -4.58537e-10 -7.04316e-13
  218 966.702 -4.58385e-10 -1.31830e-13
  219 966.702 -4.59295e-10 -4.33485e-14
  220 966.702 -4.58234e-10 4.51403e-13
  221 966.702 -4.59446e-10 2.10672e-13
  222 966.702 -4.60356e-10 -2.07032e-13
  223 966.702 -4.57658e-10 1.32009e-13
  224 966.702 -4.58385e-10 1.18550e-13
  225 966.702 -4.58385e-10 -6.00952e-13
  226 966.702 -4.58385e-10 2.59351e-13
  227 966.702 -4.58537e-10 2.69120e-14
  228 966.702 -4.59295e-10 -3.56376e-15
  229 966.702 -4.58992e-10 2.76612e-13
  230 966.702 -4.59143e-10 -2.46914e-13
  231 966.702 -4.60022e-10 7.70341e-13
  232 966.702 -4.58385e-10 -2.83351e-13
  233 966.702 -4.57476e-10 1.86325e-13
  234 966.702 -4.58082e-10 -3.63735e-13
  235 966.702 -4.58749e-10 -1.62505e-14
  236 966.702 -4.60074e-10 8.84182e-14
  237 966.702 -4.59477e-10 1.83981e-13
  238 966.702 -4.59477e-10 1.49457e-13
  239 966.702 -4.58385e-10 1.29699e-14
  240 966.702 -4.57658e-10 -3.29033e-13
  241 966.702 -4.58385e-10 -1.18424e-13
</Section>

newXOutput 58

<Section columns = "stress_xx | stress_yy | stress_xy">
  1 981.988 -4.55657e-10 -2.26541e-13
  2 981.988 -4.56112e-10 6.21829e-13
  3 981.988 -4.56566e-10 -4.37653e-14
  4 981.988 -4.56566e-10 1.04096e-14
  5 981.988 -4.56263e-10 -2.72050e-13
  6 981.988 -4.55657e-10 2.36658e-28
  7 981.988 -4.56794e-10 -2.55748e-14
  8 981.988 -4.56566e-10 -1.55457e-13
  9 981.988 -4.56566e-10 -1.51027e-13
  10 981.988 -4.56566e-10 -5.65580e-13
  11 981.988 -4.55960e-10 -1.59887e-13
  12 981.988 -4.55960e-10 4.36288e-14
  13 981.988 -4.55657e-10 1.23238e-13
  14 981.988 -4.55960e-10 -5.65580e-13
  15 981.988 -4.56339e-10 7.27450e-14
  16 981.988 -4.57173e-10 -5.09331e-13
  17 981.988 -4.55354e-10 -2.24995e-13
  18 981.988 -4.55354e-10 1.42168e-13
  19 981.988 -4.57173e-10 -4.79661e-13
  20 981.988 -4.57173e-10 -1.12498e-13
  21 981.988 -4.57173e-10 -6.69218e-13
  22 981.988 -4.57173e-10 -2.24995e-13
  23 981.988 -4.57173e-10 8.85354e-13
  24 981.988 -4.56263e-10 3.79114e-13
  25 981.988 -4.56112e-10 4.26503e-13
  26 981.988 -4.57248e-10 -1.02105e-13
  27 981.988 -4.56870e-10 7.10838e-14
  28 981.988 -4.55884e-10 -1.48754e-13
  29 981.988 -4.56112e-10 1.24397e-13
  30 981.988 -4.56263e-10 -1.18473e-14
  31 981.988 -4.57779e-10 3.84568e-14
  32 981.988 -4.57476e-10 -1.71792e-13
  33 981.988 -4.56566e-10 -1.83804e-13
  34 981.988 -4.56566e-10 -7.89000e-13
  35 981.988 -4.57248e-10 -7.09928e-13
  36 981.988 -4.57173e-10 2.09785e-13
  37 981.988 -4.58082e-10 1.79960e-14
  38 981.988 -4.56870e-10 -1.71019e-13
  39 981.988 -4.57173e-10 -3.73507e-14
  40 981.988 -4.57173e-10 -1.18154e-14
  41 981.988 -4.56566e-10 -3.77787e-13
  42 981.988 -4.56566e-10 -2.22337e-13
  43 981.988 -4.57779e-10 -1.31652e-14
  44 981.988 -4.57173e-10 2.40214e-14
  45 981.988 -4.57173e-10 -1.39185e-13
  46 981.988 -4.57173e-10 -1.44506e-13
  47 981.988 -4.56566e-10 -2.13750e-13
  48 981.988 -4.55354e-10 1.57304e-13
  49 981.988 -4.56566e-10 1.07182e-13
  50 981.988 -4.57173e-10 6.14514e-14
  51 981.988 -4.57021e-10 8.88548e-14
  52 981.988 -4.55884e-10 -1.22146e-13
  53 981.988 -4.55960e-10 -2.25099e-13
  54 981.988 -4.56112e-10 5.55149e-14
  55 981.988 -4.56566e-10 7.10838e-14
  56 981.988 -4.56566e-10 5.84896e-14
  57 981.988 -4.55960e-10 1.64510e-13
  58 981.988 -4.56718e-10 2.22525e-14
  59 981.988 -4.56566e-10 -1.39750e-13
  60 981.988 -4.56415e-10 -1.63570e-13
  61 981.988 -4.56415e-10 2.08384e-13
  62 981.988 -4.57173e-10 2.26895e-13
  63 981.988 -4.56021e-10 -2.34515e-13
  64 981.988 -4.56870e-10 -1.25118e-13
  65 981.988 -4.56112e-10 1.40287e-13
  66 981.988 -4.56112e-10 1.69049e-13
  67 981.988 -4.56566e-10 3.68709e-13
  68 981.988 -4.57173e-10 -2.48021e-14
  69 981.988 -4.56826e-10 1.32951e-13
  70 981.988 -4.56566e-10 1.92316e-14
  71 981.988 -4.57173e-10 -9.77467e-14
  72 981.988 -4.56566e-10 -2.74554e-13
  73 981.988 -4.56566e-10 1.09827e-13
  74 981.988 -4.56930e-10 -4.63243e-14
  75 981.988 -4.56566e-10 3.48464e-14
  76 981.988 -4.55354e-10 4.64878e-13
  77 981.988 -4.57779e-10 -5.57788e-14
  78 981.988 -4.56566e-10 2.84628e-13
  79 981.988 -4.56956e-10 -3.26942e-14
  80 981.988 -4.55657e-10 2.20591e-13
  81 981.988 -4.55960e-10 2.16883e-13
  82 981.988 -4.56566e-10 4.97944e-13
  83 981.988 -4.57324e-10 1.74612e-13
  84 981.988 -4.55808e-10 -5.40340e-14
  85 981.988 -4.56870e-10 3.00561e-13
  86 981.988 -4.55960e-10 -1.51697e-14
  87 981.988 -4.56415e-10 -8.26075e-14
  88 981.988 -4.58022e-10 -2.11190e-13
  89 981.988 -4.57112e-10 1.22573e-13
  90 981.988 -4.56566e-10 -1.16593e-13
  91 981.988 -4.56021e-10 -3.39371e-13
  92 981.988 -4.56384e-10 -9.19763e-14
  93 981.988 -4.57112e-10 -3.42933e-13
  94 981.988 -4.57476e-10 6.84259e-14
  95 981.988 -4.57112e-10 -1.62117e-13
  96 981.988 -4.56566e-10 3.93871e-13
  97 981.988 -4.56021e-10 2.82481e-13
  98 981.988 -4.56566e-10 -5.24243e-14
  99 981.988 -4.55960e-10 -1.33411e-14
  100 981.988 -4.56748e-10 2.02094e-13
  101 981.988 -4.56415e-10 -1.68798e-13
  102 981.988 -4.56384e-10 -4.15716e-13
  103 981.988 -4.55960e-10 7.40688e-13
  104 981.988 -4.56930e-10 -1.75036e-13
  105 981.988 -4.56384e-10 2.83624e-13
  106 981.988 -4.55657e-10 -2.51884e-14
  107 981.988 -4.56263e-10 -3.25723e-13
  108 981.988 -4.56566e-10 -5.07888e-14
  109 981.988 -4.56566e-10 1.54360e-13
  110 981.988 -4.55657e-10 -2.50540e-13
  111 981.988 -4.57476e-10 3.21744e-15
  112 981.988 -4.56566e-10 -5.49611e-14
  113 981.988 -4.56436e-10 -4.54088e-14
  114 981.988 -4.56956e-10 2.75440e-13
  115 981.988 -4.57021e-10 2.35609e-13
  116 981.988 -4.56748e-10 -4.88934e-14
  117 981.988 -4.56263e-10 -2.57576e-13
  118 981.988 -4.55960e-10 2.48544e-13
  119 981.988 -4.56696e-10 5.45712e-14
  120 981.988 -4.56415e-10 8.87256e-15
  121 981.988 -4.56177e-10 1.66396e-13
  122 981.988 -4.56047e-10 -2.21750e-13
  123 981.988 -4.56263e-10 -2.73904e-14
  124 981.988 -4.56826e-10 3.32143e-13
  125 981.988 -4.56680e-10 5.60075e-14
  126 981.988 -4.56112e-10 -1.49358e-13
  127 981.988 -4.56047e-10 3.76921e-13
  128 981.988 -4.57021e-10 1.21074e-13
  129 981.988 -4.57248e-10 -5.84146e-14
  130 981.988 -4.56263e-10 -1.18808e-13
  131 981.988 -4.55960e-10 2.57791e-14
  132 981.988 -4.56453e-10 -1.75518e-13
  133 981.988 -4.56566e-10 3.02084e-13
  134 981.988 -4.56566e-10 1.16758e-13
  135 981.988 -4.56566e-10 -4.18555e-14
  136 981.988 -4.56306e-10 -3.55324e-15
  137 981.988 -4.56047e-10 3.08047e-13
  138 981.988 -4.56718e-10 7.82823e-14
  139 981.988 -4.57216e-10 -4.10222e-14
  140 981.988 -4.56566e-10 2.66189e-13
  141 981.988 -4.56870e-10 -2.70582e-13
  142 981.988 -4.56263e-10 -1.92493e-13
  143 981.988 -4.56306e-10 4.69440e-14
  144 981.988 -4.56021e-10 8.15488e-14
  145 981.988 -4.56203e-10 -1.79407e-13
  146 981.988 -4.57606e-10 -4.76613e-14
  147 981.988 -4.56870e-10 -5.68971e-14
  148 981.988 -4.56566e-10 -2.72102e-14
  149 981.988 -4.55657e-10 5.34455e-13
  150 981.988 -4.56263e-10 5.60998e-14
  151 981.988 -4.56263e-10 1.79873e-13
  152 981.988 -4.56112e-10 4.96558e-14
  153 981.988 -4.55808e-10 2.93143e-13
  154 981.988 -4.56021e-10 -5.51055e-14
  155 981.988 -4.56566e-10 1.19915e-13
  156 981.988 -4.56696e-10 -1.38326e-13
  157 981.988 -4.57086e-10 3.63256e-14
  158 981.988 -4.56112e-10 -2.56108e-13
  159 981.988 -4.56112e-10 1.85075e-13
  160 981.988 -4.57294e-10 -1.55357e-13
  161 981.988 -4.56384e-10 1.45691e-13
  162 981.988 -4.57173e-10 1.99498e-13
  163 981.988 -4.55657e-10 -2.04289e-13
  164 981.988 -4.56826e-10 -3.02658e-13
  165 981.988 -4.56870e-10 -1.31769e-13
  166 981.988 -4.56436e-10 2.58672e-14
  167 981.988 -4.56696e-10 -1.77267e-14
  168 981.988 -4.56436e-10 -3.83234e-13
  169 981.988 -4.56826e-10 9.54885e-14
  170 981.988 -4.56930e-10 7.38252e-13
  171 981.988 -4.56436e-10 -6.47260e-14
  172 981.988 -4.55808e-10 -9.47784e-14
  173 981.988 -4.56870e-10 -7.75075e-14
  174 981.988 -4.56415e-10 5.31145e-13
  175 981.988 -4.56870e-10 1.88536e-14
  176 981.988 -4.57173e-10 -9.69804e-14
  177 981.988 -4.57173e-10 -1.61147e-13
  178 981.988 -4.56415e-10 -5.85862e-14
  179 981.988 -4.56021e-10 -5.68671e-14
  180 981.988 -4.56696e-10 1.30357e-13
  181 981.988 -4.55960e-10 1.77710e-14
  182 981.988 -4.57294e-10 2.64020e-13
  183 981.988 -4.56566e-10 -2.80955e-13
  184 981.988 -4.56566e-10 5.68671e-14
  185 981.988 -4.56112e-10 8.42059e-14
  186 981.988 -4.55657e-10 -1.08820e-13
  187 981.988 -4.57779e-10 -2.80830e-13
  188 981.988 -4.57294e-10 1.80209e-14
  189 981.988 -4.56566e-10 3.13171e-13
  190 981.988 -4.56956e-10 -1.10576e-13
  191 981.988 -4.57476e-10 3.41144e-13
  192 981.988 -4.56177e-10 3.52196e-13
  193 981.988 -4.57294e-10 1.72909e-13
  194 981.988 -4.56415e-10 -4.36032e-13
  195 981.988 -4.56263e-10 -1.10745e-15
  196 981.988 -4.57021e-10 -4.11431e-13
  197 981.988 -4.56566e-10 1.97090e-13
  198 981.988 -4.57021e-10 -3.55316e-13
  199 981.988 -4.55354e-10 2.33160e-13
  200 981.988 -4.56718e-10 -1.66892e-13
  201 981.988 -4.56870e-10 1.31763e-13
  202 981.988 -4.56748e-10 3.51772e-13
  203 981.988 -4.56718e-10 -1.65090e-13
  204 981.988 -4.55960e-10 -3.92735e-13
  205 981.988 -4.57173e-10 8.30591e-15
  206 981.988 -4.57294e-10 1.58115e-13
  207 981.988 -4.56566e-10 -6.77604e-14
  208 981.988 -4.56021e-10 -4.69435e-13
  209 981.988 -4.55960e-10 1.29548e-13
  210 981.988 -4.55960e-10 -1.06613e-13
  211 981.988 -4.57086e-10 -8.96385e-14
  212 981.988 -4.56748e-10 5.02377e-13
  213 981.988 -4.56203e-10 2.07574e-14
  214 981.988 -4.57173e-10 -2.87386e-14
  215 981.988 -4.56021e-10 4.56192e-13
  216 981.988 -4.57112e-10 -3.17235e-13
  217 981.988 -4.56415e-10 1.51967e-15
  218 981.988 -4.56263e-10 -4.87784e-14
  219 981.988 -4.56930e-10 1.07027e-13
  220 981.988 -4.56112e-10 -6.85084e-14
  221 981.988 -4.56263e-10 2.80986e-14
  222 981.988 -4.56263e-10 8.88548e-14
  223 981.988 -4.56930e-10 -1.50543e-13
  224 981.988 -4.55839e-10 -2.47866e-13
  225 981.988 -4.57476e-10 1.74124e-13
  226 981.988 -4.56748e-10 2.49133e-13
  227 981.988 -4.56566e-10 -3.11121e-14
  228 981.988 -4.56566e-10 1.11911e-13
  229 981.988 -4.57021e-10 9.85709e-14
  230 981.988 -4.55808e-10 4.53751e-13
  231 981.988 -4.56566e-10 4.28234e-13
  232 981.988 -4.56203e-10 2.36740e-13
  233 981.988 -4.56203e-10 7.99228e-14
  234 981.988 -4.56718e-10 -2.00522e-13
  235 981.988 -4.56021e-10 -1.70376e-13
  236 981.988 -4.56177e-10 7.11935e-15
  237 981.988 -4.56566e-10 -4.72771e-13
  238 981.988 -4.56748e-10 2.62917e-13
  239 981.988 -4.56566e-10 -2.48742e-13
  240 981.988 -4.55839e-10 -1.57713e-13
  241 981.988 -4.56870e-10 -1.00702e-13
</Section>

newXOutput 59

<Section columns = "stress_xx | stress_yy | stress_xy">
  1 997.213 -4.54747e-10 -4.55638e-14
  2 997.213 -4.54293e-10 7.08932e-14
  3 997.213 -4.54747e-10 -5.76390e-13
  4 997.213 -4.56566e-10 4.10742e-14
  5 997.213 -4.55051e-10 1.35042e-13
  6 997.213 -4.55202e-10 2.26169e-13
  7 997.213 -4.54747e-10 2.10957e-14
  8 997.213 -4.54747e-10 3.82691e-14
  9 997.213 -4.54747e-10 -1.87900e-13
  10 997.213 -4.54747e-10 3.10552e-13
  11 997.213 -4.54444e-10 6.25600e-13
  12 997.213 -4.54444e-10 -1.29397e-13
  13 997.213 -4.54975e-10 4.42221e-13
  14 997.213 -4.55354e-10 8.48421e-13
  15 997.213 -4.54747e-10 4.94530e-13
  16 997.213 -4.54444e-10 3.01559e-13
  17 997.213 -4.55960e-10 1.41786e-13
  18 997.213 -4.55657e-10 4.66976e-13
  19 997.213 -4.54747e-10 -1.59772e-13
  20 997.213 -4.53838e-10 1.36036e-12
  21 997.213 -4.54141e-10 6.86352e-13
  22 997.213 -4.55051e-10 -1.12970e-12
  23 997.213 -4.55051e-10 -9.31656e-13
  24 997.213 -4.54444e-10 -8.32343e-14
  25 997.213 -4.54747e-10 4.25359e-13
  26 997.213 -4.55429e-10 2.79142e-13
  27 997.213 -4.55354e-10 1.53602e-13
  28 997.213 -4.54747e-10 -1.55473e-13
  29 997.213 -4.54747e-10 5.31699e-14
  30 997.213 -4.54747e-10 3.75669e-13
  31 997.213 -4.55051e-10 -2.62953e-13
  32 997.213 -4.56112e-10 2.65515e-14
  33 997.213 -4.55202e-10 -9.56958e-15
  34 997.213 -4.54747e-10 4.36003e-14
  35 997.213 -4.54747e-10 -3.37412e-13
  36 997.213 -4.54747e-10 4.07821e-13
  37 997.213 -4.55051e-10 2.63209e-13
  38 997.213 -4.55960e-10 7.20313e-15
  39 997.213 -4.55960e-10 -3.30231e-13
  40 997.213 -4.55960e-10 -1.10774e-13
  41 997.213 -4.54444e-10 7.73251e-15
  42 997.213 -4.54747e-10 -1.20886e-13
  43 997.213 -4.54747e-10 -4.50310e-13
  44 997.213 -4.54747e-10 1.25392e-13
  45 997.213 -4.54747e-10 -1.64655e-13
  46 997.213 -4.54747e-10 7.79163e-15
  47 997.213 -4.54747e-10 2.69159e-13
  48 997.213 -4.55354e-10 -2.39690e-13
  49 997.213 -4.56263e-10 -1.03515e-13
  50 997.213 -4.55354e-10 -1.74362e-14
  51 997.213 -4.55202e-10 8.86165e-14
  52 997.213 -4.55202e-10 2.16614e-15
  53 997.213 -4.54747e-10 7.76380e-14
  54 997.213 -4.54747e-10 7.42656e-14
  55 997.213 -4.54747e-10 0.00000
  56 997.213 -4.54747e-10 -3.85319e-14
  57 997.213 -4.54899e-10 1.76109e-13
  58 997.213 -4.54444e-10 1.75403e-13
  59 997.213 -4.54747e-10 -7.95546e-14
  60 997.213 -4.54899e-10 -3.27061e-13
  61 997.213 -4.54596e-10 -1.68491e-13
  62 997.213 -4.54899e-10 1.76905e-14
  63 997.213 -4.54565e-10 4.56041e-13
  64 997.213 -4.55051e-10 -2.28992e-13
  65 997.213 -4.55051e-10 -3.31235e-14
  66 997.213 -4.55354e-10 -6.75086e-14
  67 997.213 -4.55354e-10 9.88894e-14
  68 997.213 -4.54596e-10 -3.47385e-13
  69 997.213 -4.55137e-10 -2.35525e-13
  70 997.213 -4.54861e-10 1.04276e-13
  71 997.213 -4.54899e-10 1.61019e-13
  72 997.213 -4.54747e-10 -1.72294e-13
  73 997.213 -4.54747e-10 -8.14713e-14
  74 997.213 -4.54747e-10 -1.45478e-13
  75 997.213 -4.54565e-10 2.28709e-13
  76 997.213 -4.54444e-10 -2.05458e-14
  77 997.213 -4.55051e-10 -5.44315e-14
  78 997.213 -4.54596e-10 -5.18087e-13
  79 997.213 -4.54877e-10 -2.91250e-13
  80 997.213 -4.54899e-10 -9.47870e-14
  81 997.213 -4.54899e-10 3.41633e-13
  82 997.213 -4.55657e-10 -4.82074e-13
  83 997.213 -4.54747e-10 3.16035e-13
  84 997.213 -4.55051e-10 -1.78058e-13
  85 997.213 -4.54747e-10 -4.89361e-14
  86 997.213 -4.55505e-10 1.65992e-14
  87 997.213 -4.55051e-10 -3.96730e-15
  88 997.213 -4.54384e-10 -2.48378e-13
  89 997.213 -4.55111e-10 -2.47587e-13
  90 997.213 -4.54747e-10 3.51595e-14
  91 997.213 -4.55475e-10 2.86310e-13
  92 997.213 -4.55111e-10 -1.01094e-13
  93 997.213 -4.54747e-10 -1.99821e-13
  94 997.213 -4.54929e-10 5.47846e-14
  95 997.213 -4.54929e-10 2.04320e-13
  96 997.213 -4.54747e-10 7.56851e-13
  97 997.213 -4.54747e-10 -2.32254e-13
  98 997.213 -4.54929e-10 1.93804e-13
  99 997.213 -4.54747e-10 2.30403e-13
  100 997.213 -4.55293e-10 1.51574e-13
  101 997.213 -4.54596e-10 3.95509e-13
  102 997.213 -4.54565e-10 -1.46493e-13
  103 997.213 -4.55202e-10 -1.55826e-13
  104 997.213 -4.55111e-10 -2.40240e-13
  105 997.213 -4.54747e-10 -9.16370e-14
  106 997.213 -4.54596e-10 1.89375e-14
  107 997.213 -4.54899e-10 3.54860e-13
  108 997.213 -4.55202e-10 -5.24253e-14
  109 997.213 -4.55111e-10 1.75539e-13
  110 997.213 -4.54747e-10 -3.01611e-13
  111 997.213 -4.54520e-10 -2.09988e-13
  112 997.213 -4.54747e-10 3.26925e-13
  113 997.213 -4.55527e-10 -2.42161e-14
  114 997.213 -4.55137e-10 3.24501e-13
  115 997.213 -4.55051e-10 -3.13255e-13
  116 997.213 -4.54929e-10 -4.25359e-14
  117 997.213 -4.55657e-10 4.78349e-13
  118 997.213 -4.54899e-10 -2.78076e-14
  119 997.213 -4.54487e-10 -7.46221e-15
  120 997.213 -4.54747e-10 -4.87022e-13
  121 997.213 -4.54747e-10 6.55270e-14
  122 997.213 -4.54617e-10 1.73646e-14
  123 997.213 -4.55657e-10 -5.83540e-13
  124 997.213 -4.54747e-10 9.37929e-14
  125 997.213 -4.54634e-10 3.31744e-13
  126 997.213 -4.55202e-10 -1.50434e-14
  127 997.213 -4.54877e-10 4.83857e-15
  128 997.213 -4.54747e-10 3.62466e-13
  129 997.213 -4.54861e-10 1.47282e-14
  130 997.213 -4.54747e-10 -4.78120e-14
  131 997.213 -4.54747e-10 3.41316e-13
  132 997.213 -4.54634e-10 -2.59159e-14
  133 997.213 -4.55397e-10 4.64885e-13
  134 997.213 -4.54877e-10 1.00727e-13
  135 997.213 -4.54877e-10 -5.42669e-14
  136 997.213 -4.54877e-10 2.26046e-14
  137 997.213 -4.54877e-10 -1.04722e-13
  138 997.213 -4.54747e-10 -5.73671e-14
  139 997.213 -4.54877e-10 -2.04909e-14
  140 997.213 -4.54877e-10 -1.80574e-13
  141 997.213 -4.54596e-10 9.00521e-15
  142 997.213 -4.55202e-10 3.03758e-14
  143 997.213 -4.54877e-10 -1.15898e-13
  144 997.213 -4.55111e-10 -2.52485e-13
  145 997.213 -4.54565e-10 -4.09223e-13
  146 997.213 -4.55267e-10 -5.50218e-14
  147 997.213 -4.55354e-10 -7.32023e-14
  148 997.213 -4.54899e-10 7.76380e-14
  149 997.213 -4.54444e-10 8.00176e-14
  150 997.213 -4.54899e-10 -1.97487e-13
  151 997.213 -4.54444e-10 -7.56525e-14
  152 997.213 -4.54899e-10 -3.47385e-13
  153 997.213 -4.54899e-10 2.82250e-15
  154 997.213 -4.54747e-10 6.18739e-14
  155 997.213 -4.55051e-10 -1.31711e-13
  156 997.213 -4.54617e-10 -9.45103e-14
  157 997.213 -4.54877e-10 -5.66340e-15
  158 997.213 -4.55051e-10 2.92434e-13
  159 997.213 -4.54747e-10 9.62474e-13
  160 997.213 -4.54747e-10 -5.08092e-14
  161 997.213 -4.55111e-10 3.86841e-13
  162 997.213 -4.54899e-10 5.00725e-14
  163 997.213 -4.54899e-10 -1.00695e-13
  164 997.213 -4.54747e-10 -4.37428e-13
  165 997.213 -4.55051e-10 4.12558e-14
  166 997.213 -4.55267e-10 4.64533e-14
  167 997.213 -4.55007e-10 -1.44769e-13
  168 997.213 -4.54617e-10 -1.15062e-14
  169 997.213 -4.55137e-10 -4.72500e-14
  170 997.213 -4.54929e-10 6.93166e-15
  171 997.213 -4.54487e-10 1.81312e-13
  172 997.213 -4.55051e-10 4.72621e-13
  173 997.213 -4.55202e-10 -3.33112e-14
  174 997.213 -4.54747e-10 -2.05336e-13
  175 997.213 -4.55657e-10 -3.01862e-14
  176 997.213 -4.54747e-10 -3.69771e-14
  177 997.213 -4.54596e-10 -1.65545e-13
  178 997.213 -4.55051e-10 1.33559e-13
  179 997.213 -4.54929e-10 4.89508e-14
  180 997.213 -4.55137e-10 5.81211e-14
  181 997.213 -4.54596e-10 3.47410e-14
  182 997.213 -4.55111e-10 2.35473e-14
  183 997.213 -4.55051e-10 1.49844e-13
  184 997.213 -4.55111e-10 3.38909e-13
  185 997.213 -4.55354e-10 -2.02465e-14
  186 997.213 -4.54929e-10 2.32254e-13
  187 997.213 -4.55051e-10 -3.75746e-13
  188 997.213 -4.55111e-10 -3.02157e-13
  189 997.213 -4.54747e-10 9.95804e-14
  190 997.213 -4.55007e-10 -1.47837e-14
  191 997.213 -4.55051e-10 5.38694e-14
  192 997.213 -4.54617e-10 -1.24401e-13
  193 997.213 -4.54929e-10 1.53202e-13
  194 997.213 -4.55202e-10 -2.07035e-13
  195 997.213 -4.55051e-10 1.22021e-13
  196 997.213 -4.55202e-10 -4.86858e-14
  197 997.213 -4.55505e-10 -1.35155e-13
  198 997.213 -4.55051e-10 5.55856e-13
  199 997.213 -4.55051e-10 1.05216e-13
  200 997.213 -4.54444e-10 -1.81000e-13
  201 997.213 -4.54747e-10 5.35063e-14
  202 997.213 -4.54929e-10 -8.03044e-13
  203 997.213 -4.54444e-10 -2.81276e-14
  204 997.213 -4.54747e-10 8.44235e-14
  205 997.213 -4.55051e-10 1.62882e-13
  206 997.213 -4.54202e-10 2.96373e-13
  207 997.213 -4.54747e-10 1.86564e-13
  208 997.213 -4.54384e-10 -6.68681e-13
  209 997.213 -4.55202e-10 -2.06772e-13
  210 997.213 -4.55202e-10 4.18805e-14
  211 997.213 -4.54877e-10 5.88385e-14
  212 997.213 -4.54929e-10 -7.60852e-13
  213 997.213 -4.55657e-10 -2.15668e-13
  214 997.213 -4.54899e-10 -1.69546e-13
  215 997.213 -4.54565e-10 1.48876e-13
  216 997.213 -4.54747e-10 2.15833e-13
  217 997.213 -4.55051e-10 1.22783e-13
  218 997.213 -4.55202e-10 2.52157e-14
  219 997.213 -4.54384e-10 -1.70114e-13
  220 997.213 -4.54747e-10 1.15201e-13
  221 997.213 -4.54596e-10 -1.08211e-13
  222 997.213 -4.55051e-10 1.09712e-13
  223 997.213 -4.54565e-10 5.17806e-13
  224 997.213 -4.55293e-10 1.83633e-13
  225 997.213 -4.55111e-10 7.62102e-14
  226 997.213 -4.55293e-10 -1.07916e-14
  227 997.213 -4.54596e-10 8.73027e-15
  228 997.213 -4.54565e-10 4.12343e-13
  229 997.213 -4.55051e-10 1.22090e-13
  230 997.213 -4.55202e-10 2.21935e-13
  231 997.213 -4.54747e-10 5.90738e-13
  232 997.213 -4.55293e-10 -4.77668e-14
  233 997.213 -4.55293e-10 5.13760e-13
  234 997.213 -4.54747e-10 1.53309e-13
  235 997.213 -4.54929e-10 1.51519e-13
  236 997.213 -4.55267e-10 -2.28332e-13
  237 997.213 -4.54747e-10 2.88232e-14
  238 997.213 -4.54747e-10 -2.94837e-13
  239 997.213 -4.54747e-10 5.19835e-13
  240 997.213 -4.54747e-10 2.01859e-13
  241 997.213 -4.54596e-10 2.45304e-13
</Section>

newXOutput 60

<Section columns = "stress_xx | stress_yy | stress_xy">
  1 1012.38 -4.53838e-10 1.48251e-13
  2 1012.38 -4.52474e-10 3.37568e-13
  3 1012.38 -4.54293e-10 9.67485e-14
  4 1012.38 -4.53838e-10 -1.12100e-13
  5 1012.38 -4.53838e-10 -6.84218e-14
  6 1012.38 -4.53838e-10 -3.74049e-13
  7 1012.38 -4.53610e-10 6.67161e-14
  8 1012.38 -4.53232e-10 -8.05824e-14
  9 1012.38 -4.53232e-10 8.89548e-14
  10 1012.38 -4.53232e-10 3.10190e-13
  11 1012.38 -4.53838e-10 -4.69848e-13
  12 1012.38 -4.53838e-10 -5.29145e-13
  13 1012.38 -4.54065e-10 -4.48175e-13
  14 1012.38 -4.54141e-10 1.59658e-13
  15 1012.38 -4.53838e-10 -4.08836e-13
  16 1012.38 -4.55051e-10 -4.60723e-13
  17 1012.38 -4.55354e-10 5.26110e-13
  18 1012.38 -4.53838e-10 -1.17839e-13
  19 1012.38 -4.54141e-10 3.66452e-13
  20 1012.38 -4.53838e-10 1.97366e-12
  21 1012.38 -4.53232e-10 1.54183e-12
  22 1012.38 -4.53535e-10 1.28790e-12
  23 1012.38 -4.53535e-10 1.10848e-12
  24 1012.38 -4.53232e-10 -2.35678e-13
  25 1012.38 -4.53838e-10 -2.12110e-13
  26 1012.38 -4.54520e-10 -6.18654e-14
  27 1012.38 -4.54444e-10 -2.47461e-13
  28 1012.38 -4.53156e-10 -2.14319e-13
  29 1012.38 -4.52928e-10 -1.23731e-13
  30 1012.38 -4.54141e-10 -7.65952e-14
  31 1012.38 -4.53838e-10 9.81213e-14
  32 1012.38 -4.53838e-10 2.27102e-13
  33 1012.38 -4.54065e-10 -2.59398e-13
  34 1012.38 -4.54141e-10 -9.19412e-13
  35 1012.38 -4.54065e-10 -3.75235e-13
  36 1012.38 -4.54141e-10 1.36624e-13
  37 1012.38 -4.53838e-10 4.07936e-13
  38 1012.38 -4.53838e-10 4.98712e-13
  39 1012.38 -4.53838e-10 1.54787e-13
  40 1012.38 -4.53838e-10 3.35858e-13
  41 1012.38 -4.53838e-10 1.56570e-13
  42 1012.38 -4.53838e-10 -5.35697e-13
  43 1012.38 -4.53838e-10 -2.23278e-13
  44 1012.38 -4.53838e-10 1.20907e-13
  45 1012.38 -4.53838e-10 5.43486e-14
  46 1012.38 -4.53838e-10 -9.34895e-14
  47 1012.38 -4.53838e-10 2.19936e-13
  48 1012.38 -4.53838e-10 -1.00548e-13
  49 1012.38 -4.53838e-10 -1.51031e-13
  50 1012.38 -4.53838e-10 -7.27964e-14
  51 1012.38 -4.53838e-10 7.07033e-14
  52 1012.38 -4.53838e-10 1.20848e-13
  53 1012.38 -4.53838e-10 -9.88339e-14
  54 1012.38 -4.53838e-10 -1.53667e-13
  55 1012.38 -4.53838e-10 7.07033e-14
  56 1012.38 -4.53838e-10 1.21261e-13
  57 1012.38 -4.54293e-10 1.90164e-13
  58 1012.38 -4.54141e-10 -6.26294e-14
  59 1012.38 -4.53968e-10 5.93874e-14
  60 1012.38 -4.53838e-10 5.85101e-13
  61 1012.38 -4.53686e-10 8.17338e-14
  62 1012.38 -4.53989e-10 -7.54101e-14
  63 1012.38 -4.53838e-10 -1.07650e-13
  64 1012.38 -4.53686e-10 5.24393e-13
  65 1012.38 -4.53838e-10 -5.36933e-14
  66 1012.38 -4.53686e-10 -9.12043e-15
  67 1012.38 -4.54141e-10 -1.93681e-13
  68 1012.38 -4.54141e-10 -6.43352e-14
  69 1012.38 -4.53708e-10 5.72279e-14
  70 1012.38 -4.53838e-10 3.96526e-14
  71 1012.38 -4.54141e-10 -2.14747e-14
  72 1012.38 -4.53968e-10 -6.13459e-14
  73 1012.38 -4.54487e-10 2.48202e-13
  74 1012.38 -4.54020e-10 8.37675e-14
  75 1012.38 -4.53838e-10 2.21811e-13
  76 1012.38 -4.53838e-10 -7.13323e-13
  77 1012.38 -4.53838e-10 -3.23115e-14
  78 1012.38 -4.54596e-10 8.28554e-14
  79 1012.38 -4.53578e-10 2.15050e-13
  80 1012.38 -4.53686e-10 1.96914e-13
  81 1012.38 -4.53686e-10 -7.33614e-14
  82 1012.38 -4.53686e-10 1.35760e-13
  83 1012.38 -4.53989e-10 1.37134e-13
  84 1012.38 -4.53989e-10 -5.24571e-14
  85 1012.38 -4.53686e-10 1.58706e-13
  86 1012.38 -4.53535e-10 3.26537e-13
  87 1012.38 -4.53838e-10 2.91530e-14
  88 1012.38 -4.54202e-10 -8.01931e-13
  89 1012.38 -4.53838e-10 2.35610e-13
  90 1012.38 -4.53838e-10 -1.96339e-13
  91 1012.38 -4.53838e-10 -7.79133e-14
  92 1012.38 -4.53838e-10 -2.48592e-14
  93 1012.38 -4.54747e-10 -3.78847e-13
  94 1012.38 -4.54020e-10 -1.22004e-14
  95 1012.38 -4.53838e-10 4.70987e-13
  96 1012.38 -4.54141e-10 6.56020e-13
  97 1012.38 -4.54202e-10 9.89846e-14
  98 1012.38 -4.53838e-10 6.24635e-14
  99 1012.38 -4.53989e-10 -4.13299e-13
  100 1012.38 -4.54020e-10 2.48655e-14
  101 1012.38 -4.53838e-10 1.71108e-14
  102 1012.38 -4.54929e-10 -2.53854e-13
  103 1012.38 -4.54141e-10 -1.10906e-13
  104 1012.38 -4.53656e-10 -1.81436e-13
  105 1012.38 -4.54202e-10 1.77911e-13
  106 1012.38 -4.53989e-10 2.41392e-13
  107 1012.38 -4.54596e-10 -6.74695e-14
  108 1012.38 -4.53838e-10 1.55643e-13
  109 1012.38 -4.53838e-10 -2.44730e-13
  110 1012.38 -4.54020e-10 2.14223e-13
  111 1012.38 -4.54065e-10 -7.30318e-14
  112 1012.38 -4.53838e-10 -1.80593e-13
  113 1012.38 -4.53708e-10 3.89037e-13
  114 1012.38 -4.53968e-10 2.62637e-13
  115 1012.38 -4.53989e-10 2.43006e-13
  116 1012.38 -4.53838e-10 1.25445e-13
  117 1012.38 -4.54444e-10 -1.13187e-13
  118 1012.38 -4.53989e-10 1.32928e-13
  119 1012.38 -4.53838e-10 -1.90039e-13
  120 1012.38 -4.53989e-10 -3.27147e-13
  121 1012.38 -4.53968e-10 2.78014e-13
  122 1012.38 -4.53838e-10 1.65528e-13
  123 1012.38 -4.53686e-10 -9.66244e-14
  124 1012.38 -4.53838e-10 -3.77710e-13
  125 1012.38 -4.53497e-10 5.86964e-14
  126 1012.38 -4.53838e-10 -9.82844e-14
  127 1012.38 -4.54228e-10 1.52247e-13
  128 1012.38 -4.53724e-10 3.94582e-13
  129 1012.38 -4.53952e-10 -5.52904e-15
  130 1012.38 -4.53838e-10 -2.46609e-13
  131 1012.38 -4.53838e-10 -2.42500e-13
  132 1012.38 -4.54065e-10 -4.07356e-15
  133 1012.38 -4.54098e-10 -1.16972e-13
  134 1012.38 -4.53578e-10 1.48659e-13
  135 1012.38 -4.53708e-10 7.43865e-13
  136 1012.38 -4.53838e-10 1.43784e-13
  137 1012.38 -4.54098e-10 3.44368e-13
  138 1012.38 -4.53686e-10 1.66502e-13
  139 1012.38 -4.53838e-10 -8.14267e-15
  140 1012.38 -4.53968e-10 -3.78046e-13
  141 1012.38 -4.53989e-10 -7.89655e-14
  142 1012.38 -4.53383e-10 -1.00163e-13
  143 1012.38 -4.53968e-10 1.07279e-13
  144 1012.38 -4.54020e-10 1.11096e-13
  145 1012.38 -4.53656e-10 -7.06880e-13
  146 1012.38 -4.53838e-10 6.83273e-14
  147 1012.38 -4.53838e-10 9.18180e-14
  148 1012.38 -4.53838e-10 -1.49774e-13
  149 1012.38 -4.53686e-10 -2.78970e-13
  150 1012.38 -4.53686e-10 4.04810e-13
  151 1012.38 -4.53989e-10 -1.22967e-13
  152 1012.38 -4.55354e-10 2.14747e-14
  153 1012.38 -4.53989e-10 3.19604e-13
  154 1012.38 -4.54020e-10 2.31167e-13
  155 1012.38 -4.53989e-10 3.08269e-13
  156 1012.38 -4.54228e-10 -2.47632e-13
  157 1012.38 -4.53838e-10 2.73727e-14
  158 1012.38 -4.53989e-10 2.80731e-13
  159 1012.38 -4.53989e-10 1.30198e-13
  160 1012.38 -4.53838e-10 -5.42833e-14
  161 1012.38 -4.54020e-10 -7.05225e-13
  162 1012.38 -4.53686e-10 -1.22116e-13
  163 1012.38 -4.53989e-10 3.84703e-13
  164 1012.38 -4.54098e-10 1.57297e-13
  165 1012.38 -4.54293e-10 -1.25348e-13
  166 1012.38 -4.53838e-10 6.64503e-14
  167 1012.38 -4.53968e-10 2.84293e-13
  168 1012.38 -4.53448e-10 -2.91375e-13
  169 1012.38 -4.53838e-10 -6.51459e-15
  170 1012.38 -4.54747e-10 7.89271e-13
  171 1012.38 -4.53838e-10 -1.70407e-13
  172 1012.38 -4.53535e-10 -1.40077e-13
  173 1012.38 -4.53838e-10 6.38730e-14
  174 1012.38 -4.53232e-10 5.81660e-14
  175 1012.38 -4.53838e-10 -6.75401e-14
  176 1012.38 -4.53838e-10 1.09671e-13
  177 1012.38 -4.53989e-10 1.07372e-13
  178 1012.38 -4.54141e-10 1.66406e-13
  179 1012.38 -4.53656e-10 1.37306e-13
  180 1012.38 -4.54228e-10 2.78616e-14
  181 1012.38 -4.53989e-10 -1.87689e-13
  182 1012.38 -4.53656e-10 5.98385e-13
  183 1012.38 -4.53989e-10 1.54026e-13
  184 1012.38 -4.54929e-10 5.27324e-13
  185 1012.38 -4.53686e-10 -7.54518e-14
  186 1012.38 -4.53838e-10 -3.64945e-14
  187 1012.38 -4.54141e-10 1.83229e-13
  188 1012.38 -4.54020e-10 3.32886e-13
  189 1012.38 -4.53656e-10 2.08920e-13
  190 1012.38 -4.53838e-10 -8.73360e-14
  191 1012.38 -4.53838e-10 1.84081e-13
  192 1012.38 -4.53968e-10 1.80023e-13
  193 1012.38 -4.53838e-10 -2.03943e-13
  194 1012.38 -4.53989e-10 4.64145e-13
  195 1012.38 -4.53838e-10 1.27821e-13
  196 1012.38 -4.54444e-10 -8.17623e-13
  197 1012.38 -4.53838e-10 5.79697e-14
  198 1012.38 -4.53838e-10 -4.72507e-13
  199 1012.38 -4.54141e-10 1.65738e-13
  200 1012.38 -4.54141e-10 -2.29320e-13
  201 1012.38 -4.53989e-10 3.10110e-13
  202 1012.38 -4.54020e-10 -1.51215e-13
  203 1012.38 -4.53686e-10 2.78261e-13
  204 1012.38 -4.53989e-10 -6.07606e-14
  205 1012.38 -4.54293e-10 5.79723e-14
  206 1012.38 -4.53838e-10 7.58598e-13
  207 1012.38 -4.53838e-10 4.73251e-14
  208 1012.38 -4.54565e-10 -9.13458e-13
  209 1012.38 -4.53686e-10 6.76255e-13
  210 1012.38 -4.53838e-10 -2.83923e-14
  211 1012.38 -4.53838e-10 -8.46783e-15
  212 1012.38 -4.53474e-10 7.49932e-13
  213 1012.38 -4.53838e-10 9.24651e-15
  214 1012.38 -4.53838e-10 1.40338e-13
  215 1012.38 -4.53656e-10 -3.71652e-13
  216 1012.38 -4.54020e-10 5.02332e-14
  217 1012.38 -4.53535e-10 4.66902e-13
  218 1012.38 -4.53838e-10 -3.87503e-14
  219 1012.38 -4.54020e-10 1.42323e-13
  220 1012.38 -4.53686e-10 -1.01968e-13
  221 1012.38 -4.53989e-10 2.69522e-13
  222 1012.38 -4.55051e-10 -8.51559e-14
  223 1012.38 -4.53110e-10 -1.88852e-13
  224 1012.38 -4.54020e-10 -1.22933e-13
  225 1012.38 -4.53292e-10 7.94295e-13
  226 1012.38 -4.53656e-10 8.25710e-14
  227 1012.38 -4.53989e-10 -3.36128e-13
  228 1012.38 -4.53838e-10 5.60628e-13
  229 1012.38 -4.53838e-10 -8.11608e-14
  230 1012.38 -4.53989e-10 2.18954e-13
  231 1012.38 -4.54020e-10 7.16176e-13
  232 1012.38 -4.54020e-10 3.01086e-14
  233 1012.38 -4.55111e-10 3.01977e-13
  234 1012.38 -4.53838e-10 2.56307e-13
  235 1012.38 -4.54020e-10 7.83447e-14
  236 1012.38 -4.53838e-10 6.04436e-14
  237 1012.38 -4.53656e-10 -2.01823e-13
  238 1012.38 -4.54384e-10 -5.19912e-14
  239 1012.38 -4.53686e-10 -5.45449e-14
  240 1012.38 -4.53838e-10 -3.37555e-13
  241 1012.38 -4.53838e-10 4.44774e-14
</Section>

newXOutput 61

<Section columns = "stress_xx | stress_yy | stress_xy">
  1 1027.48 -4.50655e-10 -3.17854e-14
  2 1027.48 -4.50655e-10 5.55467e-14
  3 1027.48 -4.50200e-10 3.92031e-13
  4 1027.48 -4.51109e-10 -1.03074e-14
  5 1027.48 -4.50503e-10 1.29096e-13
  6 1027.48 -4.50655e-10 1.54915e-13
  7 1027.48 -4.51109e-10 -9.88278e-14
  8 1027.48 -4.50806e-10 -9.40188e-14
  9 1027.48 -4.50200e-10 -6.12563e-14
  10 1027.48 -4.50503e-10 -8.47610e-14
  11 1027.48 -4.49594e-10 -3.56839e-13
  12 1027.48 -4.50806e-10 -6.07727e-13
  13 1027.48 -4.51109e-10 -1.08702e-13
  14 1027.48 -4.50806e-10 -1.12534e-13
  15 1027.48 -4.50655e-10 -3.55772e-13
  16 1027.48 -4.50200e-10 -1.88038e-13
  17 1027.48 -4.50503e-10 -2.35047e-13
  18 1027.48 -4.50503e-10 -4.36611e-13
  19 1027.48 -4.50200e-10 -4.31622e-13
  20 1027.48 -4.50806e-10 4.88609e-13
  21 1027.48 -4.51109e-10 -9.40188e-14
  22 1027.48 -4.50806e-10 1.00427e-12
  23 1027.48 -4.50806e-10 7.50709e-13
  24 1027.48 -4.50806e-10 1.31050e-13
  25 1027.48 -4.51109e-10 -2.11542e-13
  26 1027.48 -4.50200e-10 1.23484e-14
  27 1027.48 -4.49594e-10 1.76285e-13
  28 1027.48 -4.49518e-10 -8.50660e-14
  29 1027.48 -4.49745e-10 1.41028e-13
  30 1027.48 -4.50503e-10 -1.73652e-13
  31 1027.48 -4.50806e-10 5.53042e-13
  32 1027.48 -4.51109e-10 -6.19940e-14
  33 1027.48 -4.50882e-10 -5.10119e-13
  34 1027.48 -4.50200e-10 -9.92358e-14
  35 1027.48 -4.50882e-10 4.39346e-13
  36 1027.48 -4.51413e-10 3.38900e-14
  37 1027.48 -4.50200e-10 -7.76471e-14
  38 1027.48 -4.49897e-10 -2.72222e-13
  39 1027.48 -4.49897e-10 2.40634e-13
  40 1027.48 -4.50806e-10 -1.08343e-14
  41 1027.48 -4.50503e-10 8.98188e-14
  42 1027.48 -4.50503e-10 1.71046e-13
  43 1027.48 -4.51109e-10 -2.13945e-13
  44 1027.48 -4.51109e-10 -1.88592e-13
  45 1027.48 -4.51109e-10 2.76474e-14
  46 1027.48 -4.51109e-10 2.81073e-13
  47 1027.48 -4.51109e-10 2.04400e-13
  48 1027.48 -4.51413e-10 1.84646e-14
  49 1027.48 -4.51109e-10 -1.28303e-13
  50 1027.48 -4.50503e-10 -6.23235e-14
  51 1027.48 -4.50200e-10 -7.05141e-14
  52 1027.48 -4.50655e-10 2.48733e-14
  53 1027.48 -4.50806e-10 -5.41328e-14
  54 1027.48 -4.50655e-10 -9.61463e-15
  55 1027.48 -4.50655e-10 -7.05141e-14
  56 1027.48 -4.50503e-10 -5.87617e-15
  57 1027.48 -4.50655e-10 -2.49024e-13
  58 1027.48 -4.50806e-10 1.93020e-13
  59 1027.48 -4.50460e-10 -2.18277e-14
  60 1027.48 -4.50958e-10 -2.27820e-13
  61 1027.48 -4.50200e-10 2.98312e-15
  62 1027.48 -4.50048e-10 7.38957e-14
  63 1027.48 -4.51109e-10 -1.77782e-13
  64 1027.48 -4.50351e-10 6.41827e-13
  65 1027.48 -4.50806e-10 4.82758e-14
  66 1027.48 -4.51261e-10 -1.29032e-13
  67 1027.48 -4.51867e-10 1.70049e-13
  68 1027.48 -4.50958e-10 -8.81426e-15
  69 1027.48 -4.51369e-10 -5.42738e-13
  70 1027.48 -4.50768e-10 -3.41311e-13
  71 1027.48 -4.50806e-10 -7.36323e-14
  72 1027.48 -4.50330e-10 3.06148e-13
  73 1027.48 -4.50979e-10 -3.76982e-13
  74 1027.48 -4.50927e-10 2.54574e-14
  75 1027.48 -4.50564e-10 -4.37512e-14
  76 1027.48 -4.51109e-10 -1.36399e-13
  77 1027.48 -4.50806e-10 6.83539e-14
  78 1027.48 -4.50655e-10 -6.32451e-14
  79 1027.48 -4.51239e-10 1.20633e-13
  80 1027.48 -4.50806e-10 2.47686e-13
  81 1027.48 -4.50655e-10 -5.53801e-14
  82 1027.48 -4.50048e-10 -1.90606e-13
  83 1027.48 -4.50806e-10 7.41850e-14
  84 1027.48 -4.50351e-10 -2.28991e-13
  85 1027.48 -4.50806e-10 1.22859e-13
  86 1027.48 -4.50200e-10 3.90669e-13
  87 1027.48 -4.50958e-10 1.33418e-14
  88 1027.48 -4.51109e-10 -6.06218e-13
  89 1027.48 -4.50746e-10 1.20198e-14
  90 1027.48 -4.50655e-10 -3.34003e-13
  91 1027.48 -4.50746e-10 3.81466e-13
  92 1027.48 -4.50564e-10 7.45720e-14
  93 1027.48 -4.50382e-10 2.39532e-13
  94 1027.48 -4.50564e-10 1.09829e-13
  95 1027.48 -4.51291e-10 -3.34751e-13
  96 1027.48 -4.50351e-10 2.93809e-15
  97 1027.48 -4.51473e-10 -3.18378e-13
  98 1027.48 -4.50927e-10 -2.88459e-14
  99 1027.48 -4.50958e-10 1.25090e-13
  100 1027.48 -4.50746e-10 1.70622e-13
  101 1027.48 -4.50048e-10 -1.87857e-14
  102 1027.48 -4.50746e-10 -5.59082e-13
  103 1027.48 -4.50503e-10 3.63429e-13
  104 1027.48 -4.50564e-10 -2.93282e-14
  105 1027.48 -4.50746e-10 -1.09455e-13
  106 1027.48 -4.51261e-10 -6.16998e-14
  107 1027.48 -4.50503e-10 3.86081e-13
  108 1027.48 -4.50503e-10 1.92443e-13
  109 1027.48 -4.50746e-10 -3.23176e-14
  110 1027.48 -4.50746e-10 -1.45618e-13
  111 1027.48 -4.50882e-10 -3.37980e-13
  112 1027.48 -4.50503e-10 2.13982e-14
  113 1027.48 -4.50200e-10 -2.03279e-13
  114 1027.48 -4.50720e-10 -4.24710e-14
  115 1027.48 -4.50503e-10 -3.05143e-13
  116 1027.48 -4.50927e-10 -2.00217e-13
  117 1027.48 -4.50503e-10 3.76962e-13
  118 1027.48 -4.50958e-10 2.75215e-13
  119 1027.48 -4.50979e-10 -1.33473e-13
  120 1027.48 -4.50806e-10 -5.73619e-14
  121 1027.48 -4.51109e-10 -8.18853e-14
  122 1027.48 -4.50720e-10 2.01083e-14
  123 1027.48 -4.51109e-10 -3.04030e-13
  124 1027.48 -4.51239e-10 -1.90094e-14
  125 1027.48 -4.50541e-10 2.32189e-13
  126 1027.48 -4.50314e-10 3.96954e-14
  127 1027.48 -4.50330e-10 1.42169e-13
  128 1027.48 -4.50655e-10 7.77276e-14
  129 1027.48 -4.50996e-10 1.61563e-13
  130 1027.48 -4.50958e-10 2.40833e-14
  131 1027.48 -4.50351e-10 3.74962e-14
  132 1027.48 -4.50655e-10 1.86753e-14
  133 1027.48 -4.50850e-10 -1.83306e-13
  134 1027.48 -4.50590e-10 -6.72711e-14
  135 1027.48 -4.50850e-10 3.62787e-13
  136 1027.48 -4.51109e-10 5.15970e-14
  137 1027.48 -4.50590e-10 1.06814e-13
  138 1027.48 -4.50806e-10 2.69230e-13
  139 1027.48 -4.50590e-10 9.19944e-14
  140 1027.48 -4.51369e-10 -3.87133e-13
  141 1027.48 -4.50655e-10 2.04374e-13
  142 1027.48 -4.50655e-10 -8.47610e-14
  143 1027.48 -4.50850e-10 -5.27341e-14
  144 1027.48 -4.50200e-10 -2.20715e-13
  145 1027.48 -4.50382e-10 4.97987e-14
  146 1027.48 -4.51109e-10 -4.45721e-15
  147 1027.48 -4.50655e-10 -1.68544e-13
  148 1027.48 -4.50958e-10 -7.40308e-14
  149 1027.48 -4.50351e-10 -1.97739e-13
  150 1027.48 -4.50351e-10 -1.98340e-13
  151 1027.48 -4.50200e-10 8.10191e-14
  152 1027.48 -4.50958e-10 7.66604e-14
  153 1027.48 -4.50503e-10 1.03720e-13
  154 1027.48 -4.51109e-10 4.51390e-13
  155 1027.48 -4.50958e-10 -2.73228e-14
  156 1027.48 -4.50460e-10 4.39561e-13
  157 1027.48 -4.50460e-10 1.95131e-13
  158 1027.48 -4.50351e-10 -4.20230e-13
  159 1027.48 -4.50655e-10 -3.42952e-13
  160 1027.48 -4.50746e-10 4.17992e-14
  161 1027.48 -4.50018e-10 2.37819e-13
  162 1027.48 -4.50503e-10 5.15291e-14
  163 1027.48 -4.50503e-10 -1.59100e-13
  164 1027.48 -4.50590e-10 1.06531e-13
  165 1027.48 -4.50351e-10 6.48597e-14
  166 1027.48 -4.50590e-10 4.99277e-14
  167 1027.48 -4.50330e-10 -1.30907e-14
  168 1027.48 -4.50720e-10 -1.73399e-13
  169 1027.48 -4.50330e-10 -3.21655e-14
  170 1027.48 -4.51109e-10 -8.44008e-14
  171 1027.48 -4.50330e-10 -4.01901e-13
  172 1027.48 -4.50806e-10 -8.52878e-14
  173 1027.48 -4.50806e-10 1.27116e-14
  174 1027.48 -4.50503e-10 1.52240e-13
  175 1027.48 -4.50806e-10 -5.80821e-15
  176 1027.48 -4.50503e-10 -1.65163e-14
  177 1027.48 -4.50655e-10 1.56385e-13
  178 1027.48 -4.50806e-10 -1.01165e-13
  179 1027.48 -4.51109e-10 -1.74788e-13
  180 1027.48 -4.50590e-10 -1.24772e-13
  181 1027.48 -4.50655e-10 -2.59972e-13
  182 1027.48 -4.49654e-10 1.93748e-14
  183 1027.48 -4.50503e-10 4.33985e-13
  184 1027.48 -4.50746e-10 -3.69699e-14
  185 1027.48 -4.50806e-10 6.72867e-14
  186 1027.48 -4.51109e-10 -2.19658e-13
  187 1027.48 -4.51109e-10 -4.54166e-14
  188 1027.48 -4.50927e-10 -5.00897e-13
  189 1027.48 -4.50564e-10 9.51400e-14
  190 1027.48 -4.50850e-10 1.24032e-13
  191 1027.48 -4.50200e-10 -1.49156e-15
  192 1027.48 -4.50330e-10 2.38247e-13
  193 1027.48 -4.51109e-10 1.48491e-13
  194 1027.48 -4.50351e-10 5.50303e-13
  195 1027.48 -4.50958e-10 3.19396e-14
  196 1027.48 -4.51413e-10 -3.54895e-13
  197 1027.48 -4.50958e-10 -8.81426e-14
  198 1027.48 -4.50351e-10 2.49456e-15
  199 1027.48 -4.50503e-10 2.74649e-14
  200 1027.48 -4.50200e-10 -1.82335e-13
  201 1027.48 -4.50806e-10 -1.60937e-13
  202 1027.48 -4.50564e-10 -5.21156e-13
  203 1027.48 -4.50200e-10 7.12345e-15
  204 1027.48 -4.51109e-10 3.31789e-13
  205 1027.48 -4.50958e-10 -3.00495e-14
  206 1027.48 -4.51291e-10 -1.63247e-13
  207 1027.48 -4.51109e-10 1.81038e-13
  208 1027.48 -4.50200e-10 2.73739e-13
  209 1027.48 -4.51109e-10 6.68713e-13
  210 1027.48 -4.50806e-10 -2.73462e-13
  211 1027.48 -4.50720e-10 8.85228e-14
  212 1027.48 -4.50746e-10 8.75855e-13
  213 1027.48 -4.51473e-10 2.52710e-15
  214 1027.48 -4.51413e-10 -2.38324e-13
  215 1027.48 -4.50200e-10 3.96039e-13
  216 1027.48 -4.50382e-10 9.02634e-15
  217 1027.48 -4.50655e-10 9.27715e-14
  218 1027.48 -4.51109e-10 -8.15111e-14
  219 1027.48 -4.50746e-10 3.63215e-14
  220 1027.48 -4.50503e-10 3.04044e-13
  221 1027.48 -4.51261e-10 2.32996e-13
  222 1027.48 -4.50655e-10 1.16676e-12
  223 1027.48 -4.50382e-10 -2.59992e-13
  224 1027.48 -4.50746e-10 -2.03210e-13
  225 1027.48 -4.50382e-10 5.52139e-13
  226 1027.48 -4.50927e-10 3.81424e-14
  227 1027.48 -4.51716e-10 -2.56501e-13
  228 1027.48 -4.50382e-10 3.15384e-13
  229 1027.48 -4.51413e-10 -1.80914e-13
  230 1027.48 -4.51716e-10 -1.80115e-16
  231 1027.48 -4.50382e-10 5.55467e-15
  232 1027.48 -4.50746e-10 2.50641e-13
  233 1027.48 -4.50200e-10 7.11112e-13
  234 1027.48 -4.51261e-10 -2.11473e-13
  235 1027.48 -4.50746e-10 -1.11941e-13
  236 1027.48 -4.50720e-10 -9.84640e-14
  237 1027.48 -4.50564e-10 4.74483e-13
  238 1027.48 -4.50564e-10 -7.86300e-14
  239 1027.48 -4.50806e-10 1.74588e-13
  240 1027.48 -4.50746e-10 -2.15276e-13
  241 1027.48 -4.50806e-10 -2.11542e-13
</Section>

newXOutput 62

<Section columns = "stress_xx | stress_yy | stress_xy">
  1 1042.52 -4.51109e-10 9.46633e-30
  2 1042.52 -4.51109e-10 -4.07963e-13
  3 1042.52 -4.51109e-10 -3.90985e-14
  4 1042.52 -4.51109e-10 -4.56989e-14
  5 1042.52 -4.50806e-10 2.34729e-15
  6 1042.52 -4.52019e-10 1.61777e-13
  7 1042.52 -4.50655e-10 5.62884e-14
  8 1042.52 -4.50200e-10 9.84620e-14
  9 1042.52 -4.50200e-10 -3.28310e-14
  10 1042.52 -4.50200e-10 -2.43808e-13
  11 1042.52 -4.50200e-10 -5.11088e-13
  12 1042.52 -4.50200e-10 3.09470e-13
  13 1042.52 -4.51109e-10 2.18065e-13
  14 1042.52 -4.50200e-10 -4.40732e-13
  15 1042.52 -4.50427e-10 -2.46233e-14
  16 1042.52 -4.52322e-10 3.46964e-13
  17 1042.52 -4.52322e-10 -2.25092e-13
  18 1042.52 -4.51716e-10 4.12626e-13
  19 1042.52 -4.50503e-10 6.00161e-13
  20 1042.52 -4.50503e-10 -3.84521e-13
  21 1042.52 -4.51109e-10 -5.06394e-13
  22 1042.52 -4.50200e-10 5.25172e-13
  23 1042.52 -4.50200e-10 -3.65743e-13
  24 1042.52 -4.50806e-10 4.68837e-14
  25 1042.52 -4.50200e-10 -7.03256e-14
  26 1042.52 -4.51109e-10 3.75400e-13
  27 1042.52 -4.51413e-10 8.20465e-14
  28 1042.52 -4.50200e-10 -9.88954e-14
  29 1042.52 -4.50200e-10 -2.63721e-13
  30 1042.52 -4.51109e-10 -3.07674e-14
  31 1042.52 -4.50200e-10 2.04949e-14
  32 1042.52 -4.50200e-10 2.39388e-13
  33 1042.52 -4.51109e-10 -1.35398e-13
  34 1042.52 -4.49897e-10 -2.69210e-13
  35 1042.52 -4.50655e-10 -3.20823e-13
  36 1042.52 -4.49594e-10 -1.98662e-13
  37 1042.52 -4.50200e-10 2.95093e-13
  38 1042.52 -4.50200e-10 1.23070e-13
  39 1042.52 -4.50503e-10 -2.30555e-13
  40 1042.52 -4.50503e-10 -6.99598e-14
  41 1042.52 -4.50200e-10 1.30964e-13
  42 1042.52 -4.50200e-10 -7.54236e-14
  43 1042.52 -4.50200e-10 -4.71978e-13
  44 1042.52 -4.50200e-10 -1.14377e-13
  45 1042.52 -4.50200e-10 -5.72140e-14
  46 1042.52 -4.50200e-10 2.20024e-13
  47 1042.52 -4.50200e-10 8.71778e-14
  48 1042.52 -4.50200e-10 5.25805e-14
  49 1042.52 -4.51413e-10 4.91902e-14
  50 1042.52 -4.50200e-10 6.09519e-14
  51 1042.52 -4.50200e-10 0.00000
  52 1042.52 -4.51109e-10 3.91209e-14
  53 1042.52 -4.50806e-10 -6.32837e-14
  54 1042.52 -4.50200e-10 5.27442e-14
  55 1042.52 -4.50200e-10 2.81302e-13
  56 1042.52 -4.50806e-10 1.61746e-13
  57 1042.52 -4.50806e-10 -3.69194e-14
  58 1042.52 -4.50655e-10 5.18713e-13
  59 1042.52 -4.50590e-10 2.78328e-13
  60 1042.52 -4.50200e-10 3.79429e-13
  61 1042.52 -4.50806e-10 1.55909e-13
  62 1042.52 -4.50503e-10 -2.38979e-13
  63 1042.52 -4.50746e-10 2.65838e-13
  64 1042.52 -4.50503e-10 6.63484e-13
  65 1042.52 -4.50200e-10 2.21408e-13
  66 1042.52 -4.50806e-10 -1.16920e-13
  67 1042.52 -4.50200e-10 2.03682e-13
  68 1042.52 -4.50958e-10 -3.22248e-14
  69 1042.52 -4.50200e-10 -1.93610e-14
  70 1042.52 -4.50655e-10 -1.88643e-14
  71 1042.52 -4.51109e-10 -1.28056e-13
  72 1042.52 -4.50070e-10 -3.11070e-13
  73 1042.52 -4.50330e-10 -3.61741e-13
  74 1042.52 -4.50200e-10 1.80644e-13
  75 1042.52 -4.51109e-10 2.53321e-14
  76 1042.52 -4.50200e-10 -4.47789e-13
  77 1042.52 -4.51109e-10 4.77833e-14
  78 1042.52 -4.50958e-10 -2.42725e-14
  79 1042.52 -4.50460e-10 1.49705e-13
  80 1042.52 -4.50503e-10 3.52869e-15
  81 1042.52 -4.50200e-10 2.84233e-13
  82 1042.52 -4.51413e-10 -3.68968e-13
  83 1042.52 -4.51109e-10 -3.60392e-14
  84 1042.52 -4.50503e-10 -5.79068e-16
  85 1042.52 -4.51109e-10 1.42998e-13
  86 1042.52 -4.50351e-10 -1.24251e-13
  87 1042.52 -4.50200e-10 6.82921e-14
  88 1042.52 -4.50018e-10 4.45206e-13
  89 1042.52 -4.50200e-10 -1.75581e-15
  90 1042.52 -4.51413e-10 -2.24474e-13
  91 1042.52 -4.50200e-10 -2.74214e-14
  92 1042.52 -4.50564e-10 -2.51782e-13
  93 1042.52 -4.51473e-10 -2.01155e-12
  94 1042.52 -4.50382e-10 -2.55327e-13
  95 1042.52 -4.50746e-10 6.73479e-14
  96 1042.52 -4.50048e-10 -2.33882e-13
  97 1042.52 -4.50927e-10 2.81302e-14
  98 1042.52 -4.50200e-10 -1.47873e-13
  99 1042.52 -4.50503e-10 2.66713e-13
  100 1042.52 -4.50927e-10 7.17526e-14
  101 1042.52 -4.50806e-10 -5.54451e-13
  102 1042.52 -4.50200e-10 -6.75368e-14
  103 1042.52 -4.50958e-10 -5.74465e-14
  104 1042.52 -4.50564e-10 2.99621e-13
  105 1042.52 -4.50200e-10 5.92684e-14
  106 1042.52 -4.50655e-10 2.58490e-13
  107 1042.52 -4.50655e-10 5.71457e-13
  108 1042.52 -4.50806e-10 -3.04740e-14
  109 1042.52 -4.50564e-10 -8.72075e-14
  110 1042.52 -4.50382e-10 -6.13665e-13
  111 1042.52 -4.50768e-10 2.57650e-13
  112 1042.52 -4.51109e-10 -1.03511e-13
  113 1042.52 -4.50200e-10 -1.28785e-13
  114 1042.52 -4.50200e-10 1.21542e-13
  115 1042.52 -4.50200e-10 3.06744e-13
  116 1042.52 -4.50200e-10 8.86344e-14
  117 1042.52 -4.50200e-10 4.07333e-13
  118 1042.52 -4.50200e-10 1.26173e-13
  119 1042.52 -4.50200e-10 4.77276e-14
  120 1042.52 -4.50503e-10 2.76721e-14
  121 1042.52 -4.50720e-10 7.23475e-14
  122 1042.52 -4.50720e-10 2.06466e-13
  123 1042.52 -4.50958e-10 -2.31303e-13
  124 1042.52 -4.50590e-10 1.59203e-13
  125 1042.52 -4.50541e-10 1.56385e-13
  126 1042.52 -4.50882e-10 -4.50611e-14
  127 1042.52 -4.51239e-10 -7.48625e-14
  128 1042.52 -4.50541e-10 -8.61814e-14
  129 1042.52 -4.50200e-10 -5.09607e-14
  130 1042.52 -4.50806e-10 1.14878e-13
  131 1042.52 -4.50958e-10 -1.81175e-14
  132 1042.52 -4.50200e-10 -2.20109e-13
  133 1042.52 -4.51109e-10 3.01262e-14
  134 1042.52 -4.51239e-10 3.76877e-14
  135 1042.52 -4.50850e-10 3.31588e-13
  136 1042.52 -4.50200e-10 9.13040e-15
  137 1042.52 -4.50070e-10 7.81899e-14
  138 1042.52 -4.50200e-10 -7.91202e-14
  139 1042.52 -4.50979e-10 -4.84688e-14
  140 1042.52 -4.50979e-10 -6.50598e-13
  141 1042.52 -4.51109e-10 -8.55675e-14
  142 1042.52 -4.50806e-10 -8.90729e-14
  143 1042.52 -4.50200e-10 4.67316e-14
  144 1042.52 -4.50382e-10 -1.14864e-13
  145 1042.52 -4.50927e-10 -1.34902e-13
  146 1042.52 -4.50200e-10 -1.15802e-13
  147 1042.52 -4.50351e-10 -7.14395e-14
  148 1042.52 -4.50806e-10 1.17364e-14
  149 1042.52 -4.50503e-10 -6.84870e-13
  150 1042.52 -4.50958e-10 1.65360e-13
  151 1042.52 -4.50503e-10 -8.08884e-14
  152 1042.52 -4.50351e-10 -2.22729e-13
  153 1042.52 -4.50200e-10 -4.36636e-13
  154 1042.52 -4.50018e-10 4.78969e-13
  155 1042.52 -4.50351e-10 3.01019e-14
  156 1042.52 -4.50590e-10 -2.54201e-13
  157 1042.52 -4.50200e-10 -4.82206e-14
  158 1042.52 -4.50048e-10 -2.37978e-13
  159 1042.52 -4.49897e-10 1.32428e-13
  160 1042.52 -4.51291e-10 3.27214e-14
  161 1042.52 -4.50746e-10 2.75706e-13
  162 1042.52 -4.50806e-10 -1.14870e-13
  163 1042.52 -4.50200e-10 -2.03383e-13
  164 1042.52 -4.50590e-10 -5.42831e-14
  165 1042.52 -4.50806e-10 -8.17473e-14
  166 1042.52 -4.50200e-10 3.13987e-14
  167 1042.52 -4.50850e-10 9.79535e-14
  168 1042.52 -4.50330e-10 2.37004e-13
  169 1042.52 -4.50200e-10 1.38156e-14
  170 1042.52 -4.50564e-10 1.74415e-13
  171 1042.52 -4.50460e-10 -7.88698e-14
  172 1042.52 -4.50806e-10 3.40279e-14
  173 1042.52 -4.50200e-10 -8.85263e-14
  174 1042.52 -4.50655e-10 -1.89913e-13
  175 1042.52 -4.50806e-10 -2.15277e-14
  176 1042.52 -4.50503e-10 -6.44729e-14
  177 1042.52 -4.50655e-10 2.27711e-13
  178 1042.52 -4.50806e-10 5.18678e-14
  179 1042.52 -4.50200e-10 4.43172e-14
  180 1042.52 -4.51239e-10 1.20651e-14
  181 1042.52 -4.50806e-10 -1.18915e-15
  182 1042.52 -4.50382e-10 1.20986e-13
  183 1042.52 -4.50503e-10 4.63085e-14
  184 1042.52 -4.51473e-10 1.40465e-14
  185 1042.52 -4.50200e-10 1.05550e-14
  186 1042.52 -4.50382e-10 -2.64439e-13
  187 1042.52 -4.50351e-10 1.98770e-13
  188 1042.52 -4.50564e-10 1.40934e-13
  189 1042.52 -4.50564e-10 1.98357e-13
  190 1042.52 -4.50200e-10 1.58544e-13
  191 1042.52 -4.50806e-10 -4.97248e-15
  192 1042.52 -4.51239e-10 3.27538e-13
  193 1042.52 -4.50018e-10 -2.59869e-14
  194 1042.52 -4.50655e-10 4.95862e-13
  195 1042.52 -4.50200e-10 9.62711e-14
  196 1042.52 -4.50200e-10 -4.60171e-14
  197 1042.52 -4.50200e-10 -7.06151e-14
  198 1042.52 -4.50655e-10 2.64918e-13
  199 1042.52 -4.50806e-10 -2.40881e-13
  200 1042.52 -4.51109e-10 8.14713e-14
  201 1042.52 -4.51109e-10 6.88089e-14
  202 1042.52 -4.50746e-10 -1.32238e-13
  203 1042.52 -4.51109e-10 -2.94228e-13
  204 1042.52 -4.50351e-10 -1.32593e-13
  205 1042.52 -4.50503e-10 1.14306e-13
  206 1042.52 -4.51473e-10 1.37853e-13
  207 1042.52 -4.50200e-10 2.68767e-14
  208 1042.52 -4.50564e-10 -3.64503e-13
  209 1042.52 -4.50655e-10 -5.35704e-13
  210 1042.52 -4.50200e-10 9.26122e-14
  211 1042.52 -4.50720e-10 4.72279e-14
  212 1042.52 -4.50200e-10 4.97968e-13
  213 1042.52 -4.50564e-10 5.46548e-14
  214 1042.52 -4.50048e-10 -2.74802e-13
  215 1042.52 -4.50746e-10 2.08138e-13
  216 1042.52 -4.50927e-10 -2.98389e-13
  217 1042.52 -4.50655e-10 -4.53082e-13
  218 1042.52 -4.50200e-10 1.06534e-13
  219 1042.52 -4.51109e-10 8.57991e-14
  220 1042.52 -4.50806e-10 1.54160e-13
  221 1042.52 -4.50200e-10 4.98450e-14
  222 1042.52 -4.50351e-10 -2.81349e-13
  223 1042.52 -4.50564e-10 -2.90466e-13
  224 1042.52 -4.51655e-10 -5.06270e-14
  225 1042.52 -4.50018e-10 -6.69604e-13
  226 1042.52 -4.50927e-10 9.14326e-14
  227 1042.52 -4.50200e-10 9.20341e-14
  228 1042.52 -4.51291e-10 -1.54735e-13
  229 1042.52 -4.51413e-10 -1.20027e-14
  230 1042.52 -4.50503e-10 -7.57259e-13
  231 1042.52 -4.50200e-10 2.30675e-13
  232 1042.52 -4.50200e-10 -1.27994e-13
  233 1042.52 -4.50382e-10 -5.51431e-13
  234 1042.52 -4.50503e-10 -1.70109e-13
  235 1042.52 -4.50200e-10 -1.82715e-13
  236 1042.52 -4.50200e-10 7.73741e-14
  237 1042.52 -4.50018e-10 -5.69038e-14
  238 1042.52 -4.50200e-10 9.84558e-14
  239 1042.52 -4.49745e-10 3.10612e-13
  240 1042.52 -4.51291e-10 1.96949e-13
  241 1042.52 -4.50806e-10 1.17209e-13
</Section>

newXOutput 63

<Section columns = "stress_xx | stress_yy | stress_xy">
  1 1057.49 -4.49290e-10 -1.40276e-13
  2 1057.49 -4.48381e-10 -4.07808e-13
  3 1057.49 -4.47926e-10 3.26478e-13
  4 1057.49 -4.49290e-10 1.98735e-14
  5 1057.49 -4.49290e-10 -1.62394e-14
  6 1057.49 -4.48381e-10 9.15575e-14
  7 1057.49 -4.48836e-10 1.42798e-14
  8 1057.49 -4.49290e-10 -1.35516e-13
  9 1057.49 -4.48684e-10 3.32490e-13
  10 1057.49 -4.49290e-10 2.43313e-13
  11 1057.49 -4.48381e-10 6.69740e-13
  12 1057.49 -4.48684e-10 2.25114e-13
  13 1057.49 -4.48608e-10 -6.36285e-14
  14 1057.49 -4.48381e-10 -7.30778e-13
  15 1057.49 -4.48836e-10 1.28411e-13
  16 1057.49 -4.47471e-10 4.67585e-14
  17 1057.49 -4.49290e-10 -1.01133e-12
  18 1057.49 -4.48381e-10 -8.05256e-13
  19 1057.49 -4.48381e-10 -1.90397e-14
  20 1057.49 -4.48381e-10 -7.77537e-13
  21 1057.49 -4.48381e-10 -4.39867e-13
  22 1057.49 -4.49290e-10 1.50636e-13
  23 1057.49 -4.48684e-10 -6.18222e-13
  24 1057.49 -4.49290e-10 -1.38840e-28
  25 1057.49 -4.49290e-10 -2.80551e-13
  26 1057.49 -4.47926e-10 -4.80072e-13
  27 1057.49 -4.46865e-10 5.84482e-14
  28 1057.49 -4.47699e-10 2.54250e-13
  29 1057.49 -4.49290e-10 1.92879e-13
  30 1057.49 -4.49594e-10 -2.32420e-13
  31 1057.49 -4.47775e-10 8.38474e-14
  32 1057.49 -4.47471e-10 -1.32304e-13
  33 1057.49 -4.48154e-10 2.79198e-15
  34 1057.49 -4.49594e-10 -2.36871e-13
  35 1057.49 -4.48381e-10 -5.79612e-13
  36 1057.49 -4.47775e-10 3.53102e-13
  37 1057.49 -4.49897e-10 2.76195e-13
  38 1057.49 -4.49594e-10 4.35528e-13
  39 1057.49 -4.48381e-10 6.77738e-13
  40 1057.49 -4.47471e-10 -1.66571e-13
  41 1057.49 -4.48078e-10 7.08987e-13
  42 1057.49 -4.48381e-10 1.32460e-13
  43 1057.49 -4.48078e-10 2.13303e-13
  44 1057.49 -4.48684e-10 6.29780e-14
  45 1057.49 -4.48684e-10 -3.28685e-13
  46 1057.49 -4.48684e-10 -1.31176e-13
  47 1057.49 -4.49290e-10 5.66768e-14
  48 1057.49 -4.49290e-10 9.30234e-14
  49 1057.49 -4.49290e-10 1.47606e-13
  50 1057.49 -4.49290e-10 -9.47071e-14
  51 1057.49 -4.48381e-10 -1.57810e-13
  52 1057.49 -4.48836e-10 3.31593e-14
  53 1057.49 -4.49290e-10 5.15185e-14
  54 1057.49 -4.48836e-10 3.56994e-15
  55 1057.49 -4.49290e-10 -1.40276e-13
  56 1057.49 -4.49290e-10 -2.54897e-13
  57 1057.49 -4.49290e-10 -8.89148e-14
  58 1057.49 -4.48229e-10 -4.18220e-13
  59 1057.49 -4.48901e-10 5.30324e-13
  60 1057.49 -4.47926e-10 -5.78194e-13
  61 1057.49 -4.47926e-10 3.56994e-15
  62 1057.49 -4.48684e-10 4.55075e-14
  63 1057.49 -4.48563e-10 -3.76726e-14
  64 1057.49 -4.47926e-10 1.86475e-13
  65 1057.49 -4.48684e-10 1.42446e-14
  66 1057.49 -4.49290e-10 -4.65484e-14
  67 1057.49 -4.49139e-10 4.57821e-13
  68 1057.49 -4.49139e-10 -7.21855e-14
  69 1057.49 -4.48251e-10 2.64742e-14
  70 1057.49 -4.48722e-10 -1.24041e-14
  71 1057.49 -4.48987e-10 -5.56919e-14
  72 1057.49 -4.48771e-10 -7.37081e-14
  73 1057.49 -4.47991e-10 7.06028e-14
  74 1057.49 -4.48199e-10 2.92043e-13
  75 1057.49 -4.48745e-10 -4.63792e-13
  76 1057.49 -4.48381e-10 4.33357e-13
  77 1057.49 -4.48987e-10 -4.81935e-14
  78 1057.49 -4.48836e-10 -3.71577e-13
  79 1057.49 -4.47861e-10 4.39922e-13
  80 1057.49 -4.48078e-10 6.39607e-14
  81 1057.49 -4.49290e-10 7.48977e-14
  82 1057.49 -4.48381e-10 4.65049e-14
  83 1057.49 -4.49442e-10 2.46358e-13
  84 1057.49 -4.48987e-10 7.57029e-14
  85 1057.49 -4.47623e-10 4.01753e-13
  86 1057.49 -4.47775e-10 -3.12365e-13
  87 1057.49 -4.48684e-10 2.03431e-14
  88 1057.49 -4.48017e-10 -5.04138e-13
  89 1057.49 -4.48563e-10 5.48084e-14
  90 1057.49 -4.48987e-10 6.71629e-14
  91 1057.49 -4.47289e-10 -2.11443e-13
  92 1057.49 -4.49290e-10 -1.40696e-13
  93 1057.49 -4.48381e-10 -3.70933e-13
  94 1057.49 -4.48199e-10 6.71077e-13
  95 1057.49 -4.48745e-10 6.49303e-14
  96 1057.49 -4.48532e-10 -2.90071e-13
  97 1057.49 -4.47289e-10 -8.41654e-14
  98 1057.49 -4.47835e-10 6.20480e-14
  99 1057.49 -4.49290e-10 9.61072e-14
  100 1057.49 -4.49290e-10 4.92226e-14
  101 1057.49 -4.48836e-10 3.40891e-14
  102 1057.49 -4.47471e-10 2.19758e-13
  103 1057.49 -4.47926e-10 5.44514e-13
  104 1057.49 -4.48563e-10 -1.52676e-13
  105 1057.49 -4.47108e-10 -1.71534e-13
  106 1057.49 -4.48078e-10 -1.37353e-13
  107 1057.49 -4.48532e-10 -3.79913e-14
  108 1057.49 -4.49290e-10 1.40441e-15
  109 1057.49 -4.48927e-10 9.70172e-14
  110 1057.49 -4.48745e-10 2.61316e-13
  111 1057.49 -4.48722e-10 -8.41667e-14
  112 1057.49 -4.48532e-10 -2.06866e-14
  113 1057.49 -4.49031e-10 3.48564e-13
  114 1057.49 -4.49290e-10 2.79280e-13
  115 1057.49 -4.49139e-10 2.73632e-13
  116 1057.49 -4.48927e-10 1.68835e-13
  117 1057.49 -4.47926e-10 2.03151e-13
  118 1057.49 -4.48987e-10 -4.89421e-14
  119 1057.49 -4.49031e-10 2.61142e-13
  120 1057.49 -4.47926e-10 -1.37543e-14
  121 1057.49 -4.48771e-10 2.21694e-14
  122 1057.49 -4.48641e-10 -3.33110e-13
  123 1057.49 -4.49290e-10 -1.94063e-13
  124 1057.49 -4.48641e-10 6.12423e-14
  125 1057.49 -4.48381e-10 -2.40436e-13
  126 1057.49 -4.49063e-10 1.44889e-13
  127 1057.49 -4.47991e-10 5.70436e-14
  128 1057.49 -4.48154e-10 3.80876e-13
  129 1057.49 -4.48154e-10 1.11833e-13
  130 1057.49 -4.48684e-10 2.24203e-13
  131 1057.49 -4.48229e-10 5.16864e-13
  132 1057.49 -4.48040e-10 1.38526e-14
  133 1057.49 -4.48511e-10 -4.76982e-14
  134 1057.49 -4.48511e-10 1.54555e-13
  135 1057.49 -4.47861e-10 -3.95778e-13
  136 1057.49 -4.48771e-10 5.13586e-14
  137 1057.49 -4.47731e-10 3.24012e-13
  138 1057.49 -4.48987e-10 2.40548e-13
  139 1057.49 -4.49031e-10 -6.50379e-14
  140 1057.49 -4.47991e-10 6.16031e-14
  141 1057.49 -4.48532e-10 -3.55764e-13
  142 1057.49 -4.48987e-10 3.33575e-13
  143 1057.49 -4.49031e-10 2.92265e-14
  144 1057.49 -4.49290e-10 1.68573e-13
  145 1057.49 -4.48927e-10 -5.66211e-13
  146 1057.49 -4.48121e-10 1.52663e-13
  147 1057.49 -4.47623e-10 8.69688e-14
  148 1057.49 -4.49290e-10 3.63640e-14
  149 1057.49 -4.47926e-10 1.41781e-13
  150 1057.49 -4.48532e-10 2.73632e-13
  151 1057.49 -4.47775e-10 7.71726e-14
  152 1057.49 -4.47623e-10 4.69074e-13
  153 1057.49 -4.48684e-10 -1.55308e-13
  154 1057.49 -4.48199e-10 2.67931e-13
  155 1057.49 -4.48684e-10 8.76613e-14
  156 1057.49 -4.47341e-10 2.81272e-13
  157 1057.49 -4.49290e-10 -1.04022e-13
  158 1057.49 -4.49290e-10 -4.89968e-13
  159 1057.49 -4.47926e-10 5.70310e-14
  160 1057.49 -4.49290e-10 1.27508e-13
  161 1057.49 -4.47835e-10 5.48084e-13
  162 1057.49 -4.48229e-10 2.71767e-13
  163 1057.49 -4.47926e-10 -4.84455e-13
  164 1057.49 -4.48381e-10 -5.13480e-13
  165 1057.49 -4.49290e-10 -6.39167e-14
  166 1057.49 -4.49031e-10 -1.46977e-13
  167 1057.49 -4.48901e-10 -4.00863e-13
  168 1057.49 -4.48641e-10 -2.26009e-14
  169 1057.49 -4.48771e-10 8.11483e-15
  170 1057.49 -4.48017e-10 9.11352e-13
  171 1057.49 -4.48641e-10 4.28989e-14
  172 1057.49 -4.48532e-10 -6.94733e-14
  173 1057.49 -4.48684e-10 -4.33705e-14
  174 1057.49 -4.48684e-10 -9.51985e-15
  175 1057.49 -4.48987e-10 6.12754e-14
  176 1057.49 -4.49290e-10 -1.67277e-13
  177 1057.49 -4.48229e-10 -1.75466e-13
  178 1057.49 -4.48684e-10 1.55824e-13
  179 1057.49 -4.48927e-10 -9.59249e-14
  180 1057.49 -4.49290e-10 -1.99493e-14
  181 1057.49 -4.47926e-10 -2.00334e-13
  182 1057.49 -4.49108e-10 2.25351e-13
  183 1057.49 -4.48229e-10 -1.25226e-13
  184 1057.49 -4.48199e-10 -4.01844e-13
  185 1057.49 -4.49290e-10 2.12095e-14
  186 1057.49 -4.48745e-10 -3.15998e-13
  187 1057.49 -4.48078e-10 -1.86967e-13
  188 1057.49 -4.48563e-10 5.52400e-13
  189 1057.49 -4.48381e-10 -3.38342e-13
  190 1057.49 -4.48641e-10 -2.44942e-14
  191 1057.49 -4.48532e-10 2.63997e-13
  192 1057.49 -4.48251e-10 2.56403e-13
  193 1057.49 -4.48017e-10 1.51904e-13
  194 1057.49 -4.47471e-10 -3.15935e-13
  195 1057.49 -4.48987e-10 -4.31712e-14
  196 1057.49 -4.49594e-10 -1.01484e-13
  197 1057.49 -4.48684e-10 1.19592e-13
  198 1057.49 -4.47926e-10 5.15185e-13
  199 1057.49 -4.49290e-10 -2.12409e-13
  200 1057.49 -4.48381e-10 -3.17773e-13
  201 1057.49 -4.48229e-10 -3.12044e-13
  202 1057.49 -4.48199e-10 -3.03147e-13
  203 1057.49 -4.48532e-10 9.25373e-14
  204 1057.49 -4.48381e-10 -3.98288e-14
  205 1057.49 -4.49290e-10 2.34844e-14
  206 1057.49 -4.47653e-10 -6.32249e-13
  207 1057.49 -4.48199e-10 1.04359e-13
  208 1057.49 -4.49108e-10 -7.50420e-13
  209 1057.49 -4.47926e-10 -5.59248e-13
  210 1057.49 -4.48381e-10 -4.90867e-15
  211 1057.49 -4.49031e-10 4.12789e-14
  212 1057.49 -4.48563e-10 2.70136e-13
  213 1057.49 -4.48563e-10 1.97496e-13
  214 1057.49 -4.48229e-10 4.13421e-13
  215 1057.49 -4.48563e-10 8.31355e-14
  216 1057.49 -4.49108e-10 -5.75498e-13
  217 1057.49 -4.47623e-10 3.64637e-13
  218 1057.49 -4.47775e-10 7.81479e-14
  219 1057.49 -4.48381e-10 3.62365e-13
  220 1057.49 -4.47926e-10 -1.67225e-13
  221 1057.49 -4.48078e-10 -3.24808e-13
  222 1057.49 -4.48684e-10 -5.88892e-13
  223 1057.49 -4.48745e-10 2.64760e-13
  224 1057.49 -4.49290e-10 2.88069e-13
  225 1057.49 -4.48927e-10 1.57810e-13
  226 1057.49 -4.49290e-10 3.25913e-14
  227 1057.49 -4.48381e-10 3.18142e-14
  228 1057.49 -4.49108e-10 -3.01194e-13
  229 1057.49 -4.48987e-10 3.28991e-14
  230 1057.49 -4.48987e-10 -2.91366e-13
  231 1057.49 -4.48199e-10 -3.58663e-14
  232 1057.49 -4.49290e-10 -2.09532e-13
  233 1057.49 -4.48381e-10 1.21041e-13
  234 1057.49 -4.48381e-10 -1.41518e-13
  235 1057.49 -4.47289e-10 -1.00894e-13
  236 1057.49 -4.49031e-10 1.03527e-13
  237 1057.49 -4.48563e-10 3.15536e-13
  238 1057.49 -4.47835e-10 1.96386e-13
  239 1057.49 -4.48078e-10 -1.20676e-13
  240 1057.49 -4.48927e-10 4.04700e-13
  241 1057.49 -4.47623e-10 1.38106e-13
</Section>

newXOutput 64

<Section columns = "stress_xx | stress_yy | stress_xy">
  1 1072.41 -4.45652e-10 1.32664e-13
  2 1072.41 -4.47017e-10 -4.19704e-13
  3 1072.41 -4.45652e-10 1.12730e-13
  4 1072.41 -4.47017e-10 7.95147e-14
  5 1072.41 -4.47471e-10 1.12546e-14
  6 1072.41 -4.48381e-10 -7.23742e-15
  7 1072.41 -4.47699e-10 7.35695e-14
  8 1072.41 -4.45652e-10 2.15485e-13
  9 1072.41 -4.46562e-10 4.26167e-14
  10 1072.41 -4.45652e-10 -5.62837e-14
  11 1072.41 -4.45652e-10 -5.62837e-14
  12 1072.41 -4.46562e-10 2.15485e-13
  13 1072.41 -4.46335e-10 3.75085e-13
  14 1072.41 -4.45652e-10 7.57407e-13
  15 1072.41 -4.45652e-10 -4.93282e-13
  16 1072.41 -4.45652e-10 -4.58304e-13
  17 1072.41 -4.45652e-10 -4.30970e-13
  18 1072.41 -4.47471e-10 -1.86535e-13
  19 1072.41 -4.46562e-10 -3.18403e-13
  20 1072.41 -4.47471e-10 1.28164e-12
  21 1072.41 -4.47471e-10 9.16608e-13
  22 1072.41 -4.48684e-10 1.20602e-13
  23 1072.41 -4.48381e-10 -5.51572e-13
  24 1072.41 -4.46865e-10 3.18403e-13
  25 1072.41 -4.46107e-10 1.39901e-13
  26 1072.41 -4.47926e-10 -7.36079e-13
  27 1072.41 -4.48987e-10 5.08562e-13
  28 1072.41 -4.46107e-10 3.90165e-13
  29 1072.41 -4.47017e-10 -5.24631e-14
  30 1072.41 -4.46865e-10 -5.13682e-13
  31 1072.41 -4.46562e-10 2.26706e-13
  32 1072.41 -4.45652e-10 6.87846e-13
  33 1072.41 -4.45652e-10 5.73906e-13
  34 1072.41 -4.45956e-10 9.87041e-13
  35 1072.41 -4.47244e-10 6.27949e-13
  36 1072.41 -4.45652e-10 -5.77656e-13
  37 1072.41 -4.45652e-10 3.27692e-14
  38 1072.41 -4.45652e-10 7.35507e-14
  39 1072.41 -4.45652e-10 6.00615e-14
  40 1072.41 -4.45652e-10 4.78945e-13
  41 1072.41 -4.45652e-10 6.37557e-13
  42 1072.41 -4.45652e-10 2.12828e-13
  43 1072.41 -4.45652e-10 2.76912e-13
  44 1072.41 -4.45652e-10 -1.15548e-13
  45 1072.41 -4.45652e-10 -2.72943e-13
  46 1072.41 -4.45652e-10 -1.58170e-13
  47 1072.41 -4.45652e-10 2.02651e-14
  48 1072.41 -4.45652e-10 3.87912e-14
  49 1072.41 -4.45652e-10 7.29876e-14
  50 1072.41 -4.47471e-10 -1.11962e-13
  51 1072.41 -4.45652e-10 1.57389e-13
  52 1072.41 -4.46335e-10 9.32431e-14
  53 1072.41 -4.46562e-10 -2.42415e-13
  54 1072.41 -4.45652e-10 -2.18596e-13
  55 1072.41 -4.45652e-10 -2.79803e-13
  56 1072.41 -4.45652e-10 -6.77402e-14
  57 1072.41 -4.45956e-10 -2.87450e-14
  58 1072.41 -4.45804e-10 1.94679e-13
  59 1072.41 -4.46822e-10 1.87974e-13
  60 1072.41 -4.45652e-10 1.81976e-13
  61 1072.41 -4.45652e-10 -1.04929e-13
  62 1072.41 -4.46107e-10 -1.74729e-13
  63 1072.41 -4.46016e-10 2.67987e-13
  64 1072.41 -4.46259e-10 7.96006e-14
  65 1072.41 -4.45652e-10 -1.44877e-13
  66 1072.41 -4.47017e-10 1.09752e-13
  67 1072.41 -4.47471e-10 8.54790e-14
  68 1072.41 -4.47471e-10 1.13070e-13
  69 1072.41 -4.45782e-10 -1.93897e-13
  70 1072.41 -4.45652e-10 -5.98163e-14
  71 1072.41 -4.46562e-10 -7.49776e-14
  72 1072.41 -4.46822e-10 -1.10335e-13
  73 1072.41 -4.46952e-10 -7.47788e-14
  74 1072.41 -4.45652e-10 -8.98741e-14
  75 1072.41 -4.45652e-10 -2.11545e-13
  76 1072.41 -4.45804e-10 4.46646e-13
  77 1072.41 -4.45652e-10 5.76905e-14
  78 1072.41 -4.46713e-10 1.12203e-13
  79 1072.41 -4.46042e-10 1.07597e-13
  80 1072.41 -4.47017e-10 -1.34978e-13
  81 1072.41 -4.47017e-10 -2.42230e-14
  82 1072.41 -4.45652e-10 -1.59202e-13
  83 1072.41 -4.46107e-10 -2.42216e-14
  84 1072.41 -4.47471e-10 -9.22634e-14
  85 1072.41 -4.47017e-10 -3.07748e-13
  86 1072.41 -4.47320e-10 1.15176e-13
  87 1072.41 -4.47017e-10 1.10557e-14
  88 1072.41 -4.46016e-10 -8.30614e-13
  89 1072.41 -4.46744e-10 1.52927e-13
  90 1072.41 -4.47471e-10 -9.46758e-14
  91 1072.41 -4.45652e-10 -1.34177e-13
  92 1072.41 -4.45471e-10 4.92062e-14
  93 1072.41 -4.46562e-10 -9.42423e-13
  94 1072.41 -4.47471e-10 1.64207e-13
  95 1072.41 -4.46198e-10 2.75254e-13
  96 1072.41 -4.46107e-10 -5.60119e-13
  97 1072.41 -4.46198e-10 -4.40454e-13
  98 1072.41 -4.45652e-10 -8.23755e-14
  99 1072.41 -4.46259e-10 -3.96999e-13
  100 1072.41 -4.47289e-10 -1.66428e-14
  101 1072.41 -4.47168e-10 -1.59201e-13
  102 1072.41 -4.45834e-10 -9.92606e-14
  103 1072.41 -4.46562e-10 -3.88555e-13
  104 1072.41 -4.46198e-10 1.02817e-13
  105 1072.41 -4.45652e-10 -3.16169e-13
  106 1072.41 -4.47168e-10 4.76381e-14
  107 1072.41 -4.46562e-10 -5.06199e-13
  108 1072.41 -4.45652e-10 1.97487e-14
  109 1072.41 -4.46744e-10 5.52369e-14
  110 1072.41 -4.46926e-10 6.52481e-13
  111 1072.41 -4.46789e-10 1.59572e-13
  112 1072.41 -4.45652e-10 -1.21560e-13
  113 1072.41 -4.45652e-10 -5.59342e-14
  114 1072.41 -4.45652e-10 -2.83524e-13
  115 1072.41 -4.45652e-10 -1.16393e-13
  116 1072.41 -4.46744e-10 3.47330e-14
  117 1072.41 -4.47926e-10 5.84538e-13
  118 1072.41 -4.46562e-10 -6.73315e-14
  119 1072.41 -4.46952e-10 -2.05721e-13
  120 1072.41 -4.47320e-10 1.96013e-13
  121 1072.41 -4.46432e-10 -9.34688e-14
  122 1072.41 -4.45652e-10 8.35624e-14
  123 1072.41 -4.45652e-10 -6.72873e-13
  124 1072.41 -4.46432e-10 1.15544e-14
  125 1072.41 -4.45652e-10 -1.93160e-13
  126 1072.41 -4.47017e-10 1.12090e-13
  127 1072.41 -4.47601e-10 2.33890e-13
  128 1072.41 -4.46335e-10 -1.68851e-13
  129 1072.41 -4.45652e-10 -6.08192e-14
  130 1072.41 -4.46562e-10 5.66849e-14
  131 1072.41 -4.47017e-10 -1.31865e-13
  132 1072.41 -4.45652e-10 3.47734e-16
  133 1072.41 -4.46432e-10 -1.52308e-13
  134 1072.41 -4.46822e-10 -1.99429e-13
  135 1072.41 -4.47082e-10 6.66759e-14
  136 1072.41 -4.45652e-10 2.68418e-14
  137 1072.41 -4.46562e-10 -1.74244e-13
  138 1072.41 -4.45652e-10 -7.77913e-14
  139 1072.41 -4.45652e-10 1.93659e-13
  140 1072.41 -4.46302e-10 6.43508e-14
  141 1072.41 -4.46107e-10 7.93877e-15
  142 1072.41 -4.46562e-10 -2.91461e-14
  143 1072.41 -4.46042e-10 -1.49508e-13
  144 1072.41 -4.45652e-10 2.90475e-13
  145 1072.41 -4.45652e-10 -1.22915e-13
  146 1072.41 -4.46042e-10 6.92117e-14
  147 1072.41 -4.45652e-10 -8.18625e-15
  148 1072.41 -4.45652e-10 -1.38092e-13
  149 1072.41 -4.46410e-10 1.26597e-12
  150 1072.41 -4.46107e-10 -6.12908e-14
  151 1072.41 -4.46107e-10 -2.97520e-14
  152 1072.41 -4.46865e-10 4.39310e-13
  153 1072.41 -4.46562e-10 5.91983e-14
  154 1072.41 -4.48563e-10 1.15301e-13
  155 1072.41 -4.46562e-10 5.07311e-13
  156 1072.41 -4.45782e-10 -1.47312e-13
  157 1072.41 -4.45652e-10 -2.32596e-14
  158 1072.41 -4.47017e-10 -1.91066e-13
  159 1072.41 -4.46562e-10 -2.93983e-13
  160 1072.41 -4.46198e-10 -4.00399e-14
  161 1072.41 -4.48017e-10 3.77498e-13
  162 1072.41 -4.45652e-10 6.38213e-14
  163 1072.41 -4.45652e-10 -4.46253e-14
  164 1072.41 -4.46562e-10 5.26834e-13
  165 1072.41 -4.47017e-10 -1.12666e-13
  166 1072.41 -4.46822e-10 9.77776e-15
  167 1072.41 -4.46952e-10 3.21730e-14
  168 1072.41 -4.46562e-10 -6.09538e-13
  169 1072.41 -4.46432e-10 -7.66665e-15
  170 1072.41 -4.47289e-10 3.09958e-13
  171 1072.41 -4.46562e-10 -1.24051e-13
  172 1072.41 -4.46562e-10 6.41215e-14
  173 1072.41 -4.45652e-10 -2.04001e-13
  174 1072.41 -4.48078e-10 -4.42104e-15
  175 1072.41 -4.47017e-10 -5.92248e-14
  176 1072.41 -4.47017e-10 7.93877e-15
  177 1072.41 -4.46410e-10 -4.76460e-13
  178 1072.41 -4.46562e-10 1.69502e-13
  179 1072.41 -4.46744e-10 -9.26258e-14
  180 1072.41 -4.46172e-10 6.09917e-14
  181 1072.41 -4.45804e-10 -1.22616e-13
  182 1072.41 -4.45652e-10 -2.16333e-14
  183 1072.41 -4.46107e-10 1.89199e-13
  184 1072.41 -4.45652e-10 -3.08753e-13
  185 1072.41 -4.47471e-10 1.25230e-13
  186 1072.41 -4.46198e-10 1.55339e-13
  187 1072.41 -4.46410e-10 5.46015e-14
  188 1072.41 -4.45652e-10 -1.45579e-13
  189 1072.41 -4.45652e-10 2.41357e-15
  190 1072.41 -4.45652e-10 -1.86056e-13
  191 1072.41 -4.46562e-10 2.43825e-13
  192 1072.41 -4.47212e-10 5.06376e-13
  193 1072.41 -4.46380e-10 -4.68726e-14
  194 1072.41 -4.46259e-10 -3.07748e-13
  195 1072.41 -4.46562e-10 -4.12065e-14
  196 1072.41 -4.47471e-10 -6.11120e-13
  197 1072.41 -4.47471e-10 1.16987e-13
  198 1072.41 -4.47168e-10 -1.84527e-13
  199 1072.41 -4.46259e-10 -2.99512e-14
  200 1072.41 -4.46410e-10 -4.53583e-13
  201 1072.41 -4.45652e-10 -1.79898e-14
  202 1072.41 -4.45652e-10 -3.98483e-13
  203 1072.41 -4.47168e-10 -2.79405e-13
  204 1072.41 -4.45652e-10 -1.56464e-13
  205 1072.41 -4.46107e-10 3.57777e-14
  206 1072.41 -4.46744e-10 -8.39409e-14
  207 1072.41 -4.45652e-10 -5.44280e-14
  208 1072.41 -4.46926e-10 2.60501e-13
  209 1072.41 -4.45804e-10 -4.76381e-14
  210 1072.41 -4.46107e-10 -8.24150e-14
  211 1072.41 -4.47601e-10 4.68631e-14
  212 1072.41 -4.48927e-10 1.64987e-13
  213 1072.41 -4.45652e-10 3.50224e-14
  214 1072.41 -4.45652e-10 2.89145e-13
  215 1072.41 -4.46926e-10 -1.95851e-13
  216 1072.41 -4.45652e-10 -1.63842e-13
  217 1072.41 -4.47017e-10 3.08753e-13
  218 1072.41 -4.45652e-10 3.65398e-14
  219 1072.41 -4.48381e-10 -4.26948e-13
  220 1072.41 -4.46562e-10 -6.95523e-14
  221 1072.41 -4.47168e-10 -1.34072e-13
  222 1072.41 -4.46713e-10 9.08552e-14
  223 1072.41 -4.46198e-10 -1.40871e-13
  224 1072.41 -4.46744e-10 -1.35801e-13
  225 1072.41 -4.46926e-10 2.22094e-13
  226 1072.41 -4.46744e-10 4.46001e-13
  227 1072.41 -4.46259e-10 -1.82518e-13
  228 1072.41 -4.45652e-10 -1.95142e-13
  229 1072.41 -4.46562e-10 9.20628e-14
  230 1072.41 -4.46713e-10 5.86951e-13
  231 1072.41 -4.46744e-10 2.23842e-13
  232 1072.41 -4.46198e-10 -1.03480e-13
  233 1072.41 -4.46198e-10 -1.12891e-13
  234 1072.41 -4.45652e-10 -1.25386e-14
  235 1072.41 -4.45652e-10 3.60812e-13
  236 1072.41 -4.46822e-10 1.06133e-13
  237 1072.41 -4.46744e-10 -4.65301e-13
  238 1072.41 -4.46198e-10 1.01429e-13
  239 1072.41 -4.45349e-10 -1.16787e-13
  240 1072.41 -4.46198e-10 5.88556e-14
  241 1072.41 -4.46562e-10 -6.29164e-13
</Section>

newXOutput 65

<Section columns = "stress_xx | stress_yy | stress_xy">
  1 1087.27 -4.44288e-10 0.00000
  2 1087.27 -4.46562e-10 -1.39529e-13
  3 1087.27 -4.46107e-10 -5.06782e-13
  4 1087.27 -4.44288e-10 9.10788e-14
  5 1087.27 -4.46562e-10 1.60339e-13
  6 1087.27 -4.47471e-10 1.39529e-13
  7 1087.27 -4.46789e-10 8.44333e-14
  8 1087.27 -4.46562e-10 -1.86038e-13
  9 1087.27 -4.45652e-10 1.51461e-28
  10 1087.27 -4.43833e-10 -4.65096e-14
  11 1087.27 -4.43833e-10 8.81295e-14
  12 1087.27 -4.45046e-10 2.61886e-13
  13 1087.27 -4.44288e-10 -9.73121e-14
  14 1087.27 -4.44440e-10 5.97232e-13
  15 1087.27 -4.45652e-10 -1.46689e-14
  16 1087.27 -4.46562e-10 -2.69511e-14
  17 1087.27 -4.46259e-10 -2.52106e-13
  18 1087.27 -4.45956e-10 7.34606e-14
  19 1087.27 -4.46259e-10 4.38145e-13
  20 1087.27 -4.45349e-10 1.16751e-12
  21 1087.27 -4.45349e-10 4.30752e-13
  22 1087.27 -4.46259e-10 2.52106e-13
  23 1087.27 -4.46562e-10 -1.49308e-13
  24 1087.27 -4.46259e-10 1.38840e-28
  25 1087.27 -4.45198e-10 2.09293e-13
  26 1087.27 -4.45880e-10 4.47869e-14
  27 1087.27 -4.45046e-10 1.27901e-13
  28 1087.27 -4.44061e-10 6.54041e-14
  29 1087.27 -4.45652e-10 1.74411e-14
  30 1087.27 -4.46562e-10 1.01740e-14
  31 1087.27 -4.45956e-10 -9.18342e-13
  32 1087.27 -4.46562e-10 -6.72981e-13
  33 1087.27 -4.46562e-10 -2.91422e-13
  34 1087.27 -4.45956e-10 2.15138e-13
  35 1087.27 -4.46335e-10 5.94780e-13
  36 1087.27 -4.45046e-10 2.08380e-13
  37 1087.27 -4.44137e-10 6.32024e-13
  38 1087.27 -4.44440e-10 2.69134e-13
  39 1087.27 -4.43530e-10 -3.48758e-14
  40 1087.27 -4.44137e-10 8.32421e-14
  41 1087.27 -4.43530e-10 1.21910e-13
  42 1087.27 -4.45046e-10 2.64313e-13
  43 1087.27 -4.44137e-10 -7.94880e-14
  44 1087.27 -4.45349e-10 -4.77837e-13
  45 1087.27 -4.46259e-10 -1.16944e-13
  46 1087.27 -4.45956e-10 9.11967e-14
  47 1087.27 -4.44440e-10 7.99699e-14
  48 1087.27 -4.45652e-10 -1.47397e-13
  49 1087.27 -4.44440e-10 -1.52511e-14
  50 1087.27 -4.45652e-10 1.16274e-14
  51 1087.27 -4.44288e-10 -5.23233e-14
  52 1087.27 -4.44288e-10 4.36027e-14
  53 1087.27 -4.43833e-10 -7.89470e-14
  54 1087.27 -4.44743e-10 -1.68217e-13
  55 1087.27 -4.44288e-10 -2.09293e-13
  56 1087.27 -4.42924e-10 -2.01333e-13
  57 1087.27 -4.45804e-10 -1.28498e-14
  58 1087.27 -4.43833e-10 -2.79625e-13
  59 1087.27 -4.44483e-10 -7.00201e-14
  60 1087.27 -4.45349e-10 3.96058e-14
  61 1087.27 -4.44894e-10 -1.00354e-13
  62 1087.27 -4.45501e-10 1.67707e-13
  63 1087.27 -4.44743e-10 9.76701e-14
  64 1087.27 -4.45198e-10 1.33686e-13
  65 1087.27 -4.45198e-10 -1.25990e-13
  66 1087.27 -4.45046e-10 -7.83212e-14
  67 1087.27 -4.45652e-10 3.26393e-14
  68 1087.27 -4.45956e-10 -1.43793e-13
  69 1087.27 -4.45912e-10 2.47536e-13
  70 1087.27 -4.44402e-10 1.09487e-13
  71 1087.27 -4.44440e-10 -1.82804e-13
  72 1087.27 -4.45652e-10 2.67148e-14
  73 1087.27 -4.45912e-10 -4.33717e-13
  74 1087.27 -4.44197e-10 5.73975e-14
  75 1087.27 -4.45471e-10 -1.09226e-13
  76 1087.27 -4.45198e-10 -6.24452e-13
  77 1087.27 -4.44288e-10 6.56681e-15
  78 1087.27 -4.45652e-10 -5.30500e-14
  79 1087.27 -4.44873e-10 -9.20608e-14
  80 1087.27 -4.44591e-10 -7.75609e-14
  81 1087.27 -4.44591e-10 -4.13311e-13
  82 1087.27 -4.43985e-10 -2.01194e-13
  83 1087.27 -4.45349e-10 7.23584e-14
  84 1087.27 -4.45956e-10 -1.22241e-15
  85 1087.27 -4.45046e-10 9.75814e-14
  86 1087.27 -4.45501e-10 -4.17007e-13
  87 1087.27 -4.45652e-10 -2.87911e-14
  88 1087.27 -4.44925e-10 1.69615e-13
  89 1087.27 -4.44015e-10 -4.80842e-14
  90 1087.27 -4.44743e-10 -1.06779e-13
  91 1087.27 -4.44379e-10 -7.84849e-14
  92 1087.27 -4.43288e-10 1.65950e-13
  93 1087.27 -4.46198e-10 -2.83816e-13
  94 1087.27 -4.45652e-10 2.68512e-13
  95 1087.27 -4.46198e-10 1.00090e-13
  96 1087.27 -4.45198e-10 -1.59482e-13
  97 1087.27 -4.45107e-10 -6.80687e-13
  98 1087.27 -4.44925e-10 -1.36353e-14
  99 1087.27 -4.45198e-10 3.48032e-13
  100 1087.27 -4.45107e-10 1.61567e-13
  101 1087.27 -4.45652e-10 -2.56698e-13
  102 1087.27 -4.44925e-10 -2.08704e-13
  103 1087.27 -4.46107e-10 6.72905e-14
  104 1087.27 -4.45471e-10 2.40652e-13
  105 1087.27 -4.44925e-10 -9.69193e-14
  106 1087.27 -4.45198e-10 -3.48167e-13
  107 1087.27 -4.45046e-10 -5.52301e-14
  108 1087.27 -4.43985e-10 2.70784e-14
  109 1087.27 -4.45471e-10 -1.04826e-13
  110 1087.27 -4.44561e-10 4.31592e-13
  111 1087.27 -4.44970e-10 2.21610e-13
  112 1087.27 -4.44591e-10 -1.26944e-13
  113 1087.27 -4.43703e-10 -2.84997e-13
  114 1087.27 -4.44743e-10 2.03899e-13
  115 1087.27 -4.45349e-10 -9.20690e-15
  116 1087.27 -4.46562e-10 8.66510e-14
  117 1087.27 -4.46259e-10 2.02133e-14
  118 1087.27 -4.46107e-10 -8.25413e-14
  119 1087.27 -4.45393e-10 4.32834e-13
  120 1087.27 -4.45956e-10 1.68169e-13
  121 1087.27 -4.46172e-10 -2.01538e-13
  122 1087.27 -4.45263e-10 2.72671e-14
  123 1087.27 -4.45501e-10 5.45339e-13
  124 1087.27 -4.45263e-10 1.08455e-13
  125 1087.27 -4.45539e-10 7.20762e-14
  126 1087.27 -4.44970e-10 5.69073e-14
  127 1087.27 -4.45522e-10 2.20282e-13
  128 1087.27 -4.45539e-10 -1.53707e-13
  129 1087.27 -4.44516e-10 1.58013e-13
  130 1087.27 -4.45349e-10 -3.09618e-13
  131 1087.27 -4.45046e-10 -1.69244e-13
  132 1087.27 -4.45539e-10 3.82027e-14
  133 1087.27 -4.45393e-10 -6.08920e-13
  134 1087.27 -4.45133e-10 -2.26454e-13
  135 1087.27 -4.45652e-10 3.60042e-13
  136 1087.27 -4.45003e-10 2.39352e-14
  137 1087.27 -4.45912e-10 -2.17879e-14
  138 1087.27 -4.44288e-10 1.24965e-13
  139 1087.27 -4.43574e-10 8.71992e-14
  140 1087.27 -4.46432e-10 1.78297e-13
  141 1087.27 -4.45501e-10 -2.52867e-13
  142 1087.27 -4.44288e-10 -5.62888e-14
  143 1087.27 -4.44743e-10 -2.59100e-13
  144 1087.27 -4.44197e-10 -1.93630e-13
  145 1087.27 -4.45834e-10 -1.93240e-13
  146 1087.27 -4.45133e-10 -2.62876e-13
  147 1087.27 -4.44440e-10 -2.46054e-13
  148 1087.27 -4.43985e-10 -1.70893e-13
  149 1087.27 -4.44743e-10 -1.79435e-13
  150 1087.27 -4.45349e-10 -1.72094e-13
  151 1087.27 -4.44591e-10 8.68781e-14
  152 1087.27 -4.44743e-10 -1.49741e-13
  153 1087.27 -4.45349e-10 -2.95844e-13
  154 1087.27 -4.45107e-10 2.25787e-13
  155 1087.27 -4.45956e-10 -1.06930e-13
  156 1087.27 -4.45652e-10 -2.31009e-14
  157 1087.27 -4.44223e-10 3.77574e-14
  158 1087.27 -4.45501e-10 -7.79314e-13
  159 1087.27 -4.44591e-10 3.63356e-14
  160 1087.27 -4.44379e-10 -3.69122e-14
  161 1087.27 -4.45471e-10 -6.21549e-13
  162 1087.27 -4.45501e-10 4.08451e-14
  163 1087.27 -4.45198e-10 -6.05163e-13
  164 1087.27 -4.45133e-10 1.31996e-13
  165 1087.27 -4.43833e-10 1.27901e-13
  166 1087.27 -4.44873e-10 1.53455e-14
  167 1087.27 -4.45652e-10 1.98650e-13
  168 1087.27 -4.45133e-10 2.87724e-13
  169 1087.27 -4.44613e-10 -1.15137e-13
  170 1087.27 -4.45289e-10 3.13154e-13
  171 1087.27 -4.44873e-10 1.64432e-13
  172 1087.27 -4.44440e-10 1.43494e-13
  173 1087.27 -4.44743e-10 -2.36592e-13
  174 1087.27 -4.45956e-10 -4.24669e-13
  175 1087.27 -4.44743e-10 2.25277e-14
  176 1087.27 -4.44288e-10 -1.08001e-13
  177 1087.27 -4.46107e-10 -6.26568e-13
  178 1087.27 -4.46410e-10 7.61893e-14
  179 1087.27 -4.46380e-10 -3.15904e-14
  180 1087.27 -4.45003e-10 1.19596e-13
  181 1087.27 -4.43985e-10 -1.93806e-13
  182 1087.27 -4.44015e-10 3.36627e-14
  183 1087.27 -4.45198e-10 2.89202e-13
  184 1087.27 -4.45289e-10 -2.42350e-13
  185 1087.27 -4.45501e-10 1.36928e-13
  186 1087.27 -4.44379e-10 3.18698e-13
  187 1087.27 -4.46259e-10 -4.65865e-13
  188 1087.27 -4.44197e-10 -1.85066e-13
  189 1087.27 -4.45289e-10 -2.98843e-13
  190 1087.27 -4.43703e-10 1.65376e-14
  191 1087.27 -4.46107e-10 2.21666e-13
  192 1087.27 -4.45263e-10 -1.00967e-13
  193 1087.27 -4.46016e-10 3.64762e-13
  194 1087.27 -4.45046e-10 -1.77481e-13
  195 1087.27 -4.44743e-10 -3.70996e-14
  196 1087.27 -4.44591e-10 2.03843e-13
  197 1087.27 -4.45501e-10 -2.35531e-14
  198 1087.27 -4.45501e-10 -1.20509e-13
  199 1087.27 -4.44591e-10 -5.84353e-14
  200 1087.27 -4.45349e-10 -5.02990e-13
  201 1087.27 -4.44288e-10 2.85867e-13
  202 1087.27 -4.45289e-10 5.46310e-13
  203 1087.27 -4.45349e-10 -3.24374e-14
  204 1087.27 -4.45349e-10 -1.21132e-13
  205 1087.27 -4.45349e-10 -4.22166e-14
  206 1087.27 -4.45289e-10 1.71084e-13
  207 1087.27 -4.44561e-10 1.19240e-13
  208 1087.27 -4.45834e-10 3.42738e-13
  209 1087.27 -4.44743e-10 -4.33553e-13
  210 1087.27 -4.45652e-10 -8.86625e-14
  211 1087.27 -4.46302e-10 5.14158e-14
  212 1087.27 -4.46016e-10 -4.37621e-13
  213 1087.27 -4.44925e-10 -2.64811e-13
  214 1087.27 -4.45804e-10 -2.02409e-14
  215 1087.27 -4.45107e-10 -6.11058e-14
  216 1087.27 -4.45471e-10 2.20147e-13
  217 1087.27 -4.45198e-10 -2.20266e-13
  218 1087.27 -4.45198e-10 1.48982e-14
  219 1087.27 -4.45652e-10 4.94183e-13
  220 1087.27 -4.45198e-10 4.46836e-13
  221 1087.27 -4.44591e-10 -2.41789e-14
  222 1087.27 -4.45349e-10 -1.69492e-13
  223 1087.27 -4.43833e-10 1.68526e-13
  224 1087.27 -4.43833e-10 -1.03538e-13
  225 1087.27 -4.45652e-10 2.56384e-13
  226 1087.27 -4.45107e-10 1.91298e-13
  227 1087.27 -4.45349e-10 -1.57104e-13
  228 1087.27 -4.45107e-10 -6.97644e-14
  229 1087.27 -4.45198e-10 -8.67362e-14
  230 1087.27 -4.45804e-10 1.21164e-13
  231 1087.27 -4.45289e-10 1.35093e-13
  232 1087.27 -4.45289e-10 1.46863e-14
  233 1087.27 -4.46380e-10 -1.65217e-13
  234 1087.27 -4.46107e-10 7.98829e-14
  235 1087.27 -4.45107e-10 -3.92917e-13
  236 1087.27 -4.45522e-10 -1.11834e-13
  237 1087.27 -4.45834e-10 1.90444e-14
  238 1087.27 -4.45289e-10 -2.10564e-13
  239 1087.27 -4.44440e-10 5.53938e-14
  240 1087.27 -4.44925e-10 -3.86245e-13
  241 1087.27 -4.45804e-10 2.38631e-13
</Section>

newXOutput 66

<Section columns = "stress_xx | stress_yy | stress_xy">
  1 1102.06 -4.45652e-10 -1.46588e-13
  2 1102.06 -4.44743e-10 -2.08736e-13
  3 1102.06 -4.45652e-10 5.79993e-13
  4 1102.06 -4.45652e-10 -1.14879e-14
  5 1102.06 -4.45652e-10 -9.27716e-14
  6 1102.06 -4.45198e-10 2.45891e-13
  7 1102.06 -4.44516e-10 -3.10739e-14
  8 1102.06 -4.44137e-10 -1.02680e-13
  9 1102.06 -4.45349e-10 -2.15267e-13
  10 1102.06 -4.45349e-10 3.64778e-14
  11 1102.06 -4.45652e-10 -3.39563e-13
  12 1102.06 -4.45046e-10 -5.13398e-14
  13 1102.06 -4.44970e-10 8.20751e-14
  14 1102.06 -4.45349e-10 -4.76920e-13
  15 1102.06 -4.44743e-10 -9.62621e-14
  16 1102.06 -4.43227e-10 1.85543e-13
  17 1102.06 -4.44743e-10 -1.20559e-12
  18 1102.06 -4.45349e-10 -8.67822e-13
  19 1102.06 -4.45046e-10 -1.00023e-12
  20 1102.06 -4.45652e-10 -1.58973e-13
  21 1102.06 -4.45956e-10 -5.69692e-13
  22 1102.06 -4.45652e-10 -3.90902e-13
  23 1102.06 -4.45652e-10 -3.71086e-13
  24 1102.06 -4.44743e-10 4.63858e-14
  25 1102.06 -4.45652e-10 -6.95787e-14
  26 1102.06 -4.46107e-10 -8.26247e-14
  27 1102.06 -4.45652e-10 -1.62350e-13
  28 1102.06 -4.45652e-10 3.47894e-14
  29 1102.06 -4.46107e-10 2.95709e-13
  30 1102.06 -4.45652e-10 -3.51287e-13
  31 1102.06 -4.45652e-10 5.72817e-13
  32 1102.06 -4.45198e-10 2.46727e-13
  33 1102.06 -4.45425e-10 -3.03116e-13
  34 1102.06 -4.45652e-10 -4.06931e-13
  35 1102.06 -4.45198e-10 2.14202e-13
  36 1102.06 -4.45349e-10 -7.56740e-14
  37 1102.06 -4.46259e-10 -2.74617e-13
  38 1102.06 -4.44743e-10 -2.53507e-13
  39 1102.06 -4.45349e-10 1.79581e-13
  40 1102.06 -4.45652e-10 1.59134e-13
  41 1102.06 -4.45349e-10 5.28710e-13
  42 1102.06 -4.45349e-10 -1.73840e-13
  43 1102.06 -4.45349e-10 -1.71135e-13
  44 1102.06 -4.45046e-10 -7.78865e-14
  45 1102.06 -4.45652e-10 8.80947e-15
  46 1102.06 -4.45652e-10 1.64337e-14
  47 1102.06 -4.45652e-10 -1.20925e-13
  48 1102.06 -4.45652e-10 -2.54559e-13
  49 1102.06 -4.45349e-10 -2.29163e-13
  50 1102.06 -4.45652e-10 7.53769e-14
  51 1102.06 -4.45652e-10 -1.73947e-14
  52 1102.06 -4.45425e-10 -1.68015e-13
  53 1102.06 -4.45046e-10 -5.05513e-14
  54 1102.06 -4.45652e-10 8.19915e-14
  55 1102.06 -4.45652e-10 6.95787e-14
  56 1102.06 -4.45652e-10 4.22203e-14
  57 1102.06 -4.45198e-10 -8.93947e-14
  58 1102.06 -4.45652e-10 -3.22084e-13
  59 1102.06 -4.44873e-10 9.65275e-14
  60 1102.06 -4.44894e-10 -3.78044e-13
  61 1102.06 -4.45198e-10 -1.03580e-14
  62 1102.06 -4.45349e-10 -3.44310e-14
  63 1102.06 -4.45107e-10 -6.21009e-13
  64 1102.06 -4.45501e-10 1.04762e-13
  65 1102.06 -4.45501e-10 1.53217e-13
  66 1102.06 -4.45652e-10 -1.02230e-13
  67 1102.06 -4.45652e-10 6.17949e-13
  68 1102.06 -4.45652e-10 -2.83185e-13
  69 1102.06 -4.45393e-10 3.42979e-13
  70 1102.06 -4.45198e-10 -5.82027e-14
  71 1102.06 -4.45652e-10 5.65327e-14
  72 1102.06 -4.45522e-10 -2.93923e-13
  73 1102.06 -4.44743e-10 -1.87676e-13
  74 1102.06 -4.45107e-10 9.41595e-14
  75 1102.06 -4.45289e-10 1.47298e-13
  76 1102.06 -4.45198e-10 -2.84113e-13
  77 1102.06 -4.45652e-10 7.95992e-14
  78 1102.06 -4.45046e-10 9.08442e-14
  79 1102.06 -4.45133e-10 -2.46373e-13
  80 1102.06 -4.45349e-10 1.53398e-14
  81 1102.06 -4.45198e-10 -4.28113e-13
  82 1102.06 -4.45501e-10 5.44642e-14
  83 1102.06 -4.45349e-10 -1.75411e-13
  84 1102.06 -4.45349e-10 1.28349e-14
  85 1102.06 -4.44894e-10 6.11179e-13
  86 1102.06 -4.45652e-10 2.87211e-13
  87 1102.06 -4.45198e-10 2.19609e-13
  88 1102.06 -4.45834e-10 -1.13214e-12
  89 1102.06 -4.45289e-10 1.43954e-13
  90 1102.06 -4.45652e-10 -4.13761e-14
  91 1102.06 -4.45107e-10 -1.97937e-14
  92 1102.06 -4.45107e-10 8.94392e-14
  93 1102.06 -4.45107e-10 4.91916e-13
  94 1102.06 -4.45652e-10 7.78794e-13
  95 1102.06 -4.45471e-10 1.48691e-13
  96 1102.06 -4.45349e-10 -2.19616e-13
  97 1102.06 -4.44743e-10 3.93559e-13
  98 1102.06 -4.45289e-10 -7.79418e-15
  99 1102.06 -4.45046e-10 3.49104e-13
  100 1102.06 -4.45107e-10 -4.32334e-14
  101 1102.06 -4.45198e-10 1.63533e-13
  102 1102.06 -4.45834e-10 -6.16551e-13
  103 1102.06 -4.45198e-10 3.15948e-13
  104 1102.06 -4.45107e-10 -2.40453e-13
  105 1102.06 -4.44743e-10 -5.81558e-13
  106 1102.06 -4.45046e-10 2.46791e-13
  107 1102.06 -4.45198e-10 2.37982e-13
  108 1102.06 -4.45652e-10 -1.79394e-13
  109 1102.06 -4.45652e-10 -1.87323e-13
  110 1102.06 -4.45289e-10 -2.08736e-13
  111 1102.06 -4.45311e-10 -3.44913e-13
  112 1102.06 -4.44894e-10 2.16020e-13
  113 1102.06 -4.45003e-10 -7.54016e-14
  114 1102.06 -4.45912e-10 1.23488e-13
  115 1102.06 -4.45349e-10 -6.63150e-14
  116 1102.06 -4.45289e-10 4.32334e-14
  117 1102.06 -4.45349e-10 2.33984e-13
  118 1102.06 -4.45349e-10 8.01457e-14
  119 1102.06 -4.45133e-10 1.42318e-13
  120 1102.06 -4.45046e-10 6.18702e-13
  121 1102.06 -4.45133e-10 2.25745e-13
  122 1102.06 -4.45393e-10 -3.83094e-13
  123 1102.06 -4.45046e-10 1.73043e-13
  124 1102.06 -4.45393e-10 -3.56910e-13
  125 1102.06 -4.45311e-10 1.98261e-13
  126 1102.06 -4.45084e-10 1.87775e-14
  127 1102.06 -4.45003e-10 1.45957e-14
  128 1102.06 -4.44516e-10 -3.21634e-13
  129 1102.06 -4.45311e-10 1.45012e-14
  130 1102.06 -4.45349e-10 -9.58400e-14
  131 1102.06 -4.45198e-10 2.29558e-13
  132 1102.06 -4.45311e-10 -3.70044e-13
  133 1102.06 -4.45393e-10 -3.61889e-14
  134 1102.06 -4.45393e-10 2.75782e-13
  135 1102.06 -4.45782e-10 9.22574e-14
  136 1102.06 -4.45522e-10 8.61671e-14
  137 1102.06 -4.45263e-10 7.50434e-15
  138 1102.06 -4.45046e-10 -9.64871e-14
  139 1102.06 -4.45393e-10 1.11799e-13
  140 1102.06 -4.45652e-10 3.01622e-13
  141 1102.06 -4.45198e-10 -3.57296e-13
  142 1102.06 -4.45349e-10 -1.00147e-13
  143 1102.06 -4.45003e-10 -1.83791e-13
  144 1102.06 -4.45289e-10 -1.73823e-13
  145 1102.06 -4.45471e-10 -4.20106e-13
  146 1102.06 -4.45133e-10 1.11167e-13
  147 1102.06 -4.45198e-10 -3.25811e-13
  148 1102.06 -4.45501e-10 9.23216e-14
  149 1102.06 -4.44894e-10 1.98160e-14
  150 1102.06 -4.45046e-10 2.49700e-13
  151 1102.06 -4.45349e-10 -2.49662e-13
  152 1102.06 -4.45804e-10 3.70581e-13
  153 1102.06 -4.45501e-10 -1.56074e-13
  154 1102.06 -4.45471e-10 3.82683e-14
  155 1102.06 -4.45652e-10 1.71776e-13
  156 1102.06 -4.44743e-10 3.64012e-13
  157 1102.06 -4.45522e-10 -5.85773e-14
  158 1102.06 -4.45349e-10 -6.07985e-13
  159 1102.06 -4.45046e-10 -5.89747e-13
  160 1102.06 -4.45289e-10 -3.41812e-14
  161 1102.06 -4.45471e-10 -2.48457e-13
  162 1102.06 -4.45501e-10 -7.12682e-14
  163 1102.06 -4.45198e-10 -3.84626e-13
  164 1102.06 -4.45393e-10 -1.56300e-13
  165 1102.06 -4.45198e-10 1.19047e-13
  166 1102.06 -4.45652e-10 -4.59478e-14
  167 1102.06 -4.45263e-10 3.11875e-13
  168 1102.06 -4.45912e-10 -5.49810e-13
  169 1102.06 -4.45652e-10 4.17860e-14
  170 1102.06 -4.44925e-10 3.88494e-13
  171 1102.06 -4.45393e-10 1.39062e-13
  172 1102.06 -4.45198e-10 6.13592e-14
  173 1102.06 -4.45349e-10 -2.11496e-14
  174 1102.06 -4.45198e-10 1.69670e-13
  175 1102.06 -4.45349e-10 1.07815e-13
  176 1102.06 -4.45652e-10 -2.77526e-14
  177 1102.06 -4.45804e-10 -5.31710e-13
  178 1102.06 -4.45046e-10 -3.61743e-13
  179 1102.06 -4.44925e-10 1.54019e-14
  180 1102.06 -4.45133e-10 -2.01933e-13
  181 1102.06 -4.45652e-10 1.96690e-13
  182 1102.06 -4.45652e-10 4.00825e-14
  183 1102.06 -4.45349e-10 9.54157e-15
  184 1102.06 -4.44379e-10 -4.58006e-13
  185 1102.06 -4.45198e-10 -9.89641e-14
  186 1102.06 -4.45107e-10 -5.14209e-13
  187 1102.06 -4.45501e-10 -4.34421e-13
  188 1102.06 -4.45289e-10 4.75561e-14
  189 1102.06 -4.45107e-10 3.11551e-13
  190 1102.06 -4.45263e-10 4.47001e-14
  191 1102.06 -4.45198e-10 -4.31688e-13
  192 1102.06 -4.44613e-10 4.58535e-13
  193 1102.06 -4.45289e-10 2.96157e-13
  194 1102.06 -4.44894e-10 5.31075e-13
  195 1102.06 -4.45349e-10 -5.31975e-14
  196 1102.06 -4.45652e-10 -1.90139e-13
  197 1102.06 -4.45501e-10 -1.76481e-13
  198 1102.06 -4.45349e-10 -5.58095e-13
  199 1102.06 -4.45349e-10 -3.26509e-14
  200 1102.06 -4.45501e-10 -2.69450e-13
  201 1102.06 -4.45198e-10 4.22921e-15
  202 1102.06 -4.44925e-10 -3.77617e-13
  203 1102.06 -4.45198e-10 -2.36429e-14
  204 1102.06 -4.44743e-10 1.61263e-13
  205 1102.06 -4.45501e-10 -6.82845e-14
  206 1102.06 -4.45107e-10 2.12655e-13
  207 1102.06 -4.45471e-10 1.22821e-13
  208 1102.06 -4.45289e-10 2.77969e-13
  209 1102.06 -4.45804e-10 -1.13038e-13
  210 1102.06 -4.45198e-10 -1.51786e-14
  211 1102.06 -4.45133e-10 -4.63197e-15
  212 1102.06 -4.45652e-10 6.64726e-14
  213 1102.06 -4.45289e-10 1.95858e-13
  214 1102.06 -4.45501e-10 2.36402e-13
  215 1102.06 -4.45471e-10 -4.99101e-13
  216 1102.06 -4.45652e-10 -2.01348e-13
  217 1102.06 -4.45652e-10 -3.63855e-13
  218 1102.06 -4.45501e-10 1.78969e-13
  219 1102.06 -4.45471e-10 1.85363e-13
  220 1102.06 -4.45046e-10 -6.16463e-15
  221 1102.06 -4.45501e-10 8.11752e-14
  222 1102.06 -4.45804e-10 4.50123e-13
  223 1102.06 -4.45471e-10 -1.59964e-13
  224 1102.06 -4.45471e-10 -1.05314e-13
  225 1102.06 -4.44743e-10 2.24391e-13
  226 1102.06 -4.45107e-10 -3.43162e-14
  227 1102.06 -4.45198e-10 4.38499e-13
  228 1102.06 -4.45107e-10 4.57060e-13
  229 1102.06 -4.45652e-10 -4.46973e-14
  230 1102.06 -4.45804e-10 4.51250e-13
  231 1102.06 -4.45107e-10 -4.76920e-13
  232 1102.06 -4.45471e-10 8.34944e-14
  233 1102.06 -4.44743e-10 9.17225e-13
  234 1102.06 -4.45349e-10 1.00414e-14
  235 1102.06 -4.45289e-10 -2.75523e-14
  236 1102.06 -4.45393e-10 -1.84324e-14
  237 1102.06 -4.45289e-10 -8.82325e-14
  238 1102.06 -4.44925e-10 -3.41815e-13
  239 1102.06 -4.45501e-10 -7.00124e-13
  240 1102.06 -4.44925e-10 6.34992e-13
  241 1102.06 -4.44440e-10 2.18644e-13
</Section>

newXOutput 67

<Section columns = "stress_xx | stress_yy | stress_xy">
  1 1116.80 -4.42924e-10 -8.44478e-14
  2 1116.80 -4.41560e-10 -2.08181e-13
  3 1116.80 -4.41560e-10 -5.40217e-13
  4 1116.80 -4.42924e-10 -3.34075e-14
  5 1116.80 -4.42924e-10 -1.84500e-13
  6 1116.80 -4.42924e-10 -6.93937e-14
  7 1116.80 -4.42697e-10 3.84604e-13
  8 1116.80 -4.42621e-10 3.53946e-13
  9 1116.80 -4.42014e-10 -1.38787e-13
  10 1116.80 -4.42014e-10 -2.51385e-13
  11 1116.80 -4.42014e-10 2.50901e-14
  12 1116.80 -4.42318e-10 2.45816e-13
  13 1116.80 -4.42014e-10 -2.23235e-13
  14 1116.80 -4.42621e-10 -5.69104e-13
  15 1116.80 -4.42242e-10 -3.57847e-13
  16 1116.80 -4.42014e-10 -3.43909e-13
  17 1116.80 -4.42924e-10 -2.25194e-13
  18 1116.80 -4.42924e-10 8.66751e-13
  19 1116.80 -4.42014e-10 6.15366e-13
  20 1116.80 -4.42621e-10 2.97647e-13
  21 1116.80 -4.42621e-10 -2.97647e-13
  22 1116.80 -4.41408e-10 3.17719e-13
  23 1116.80 -4.43530e-10 1.99004e-13
  24 1116.80 -4.41711e-10 1.38787e-13
  25 1116.80 -4.42469e-10 0.00000
  26 1116.80 -4.41560e-10 -2.51301e-13
  27 1116.80 -4.42318e-10 7.04832e-13
  28 1116.80 -4.42014e-10 8.24051e-14
  29 1116.80 -4.40650e-10 3.29620e-13
  30 1116.80 -4.41408e-10 7.37308e-14
  31 1116.80 -4.42318e-10 -2.07681e-13
  32 1116.80 -4.42469e-10 1.16553e-13
  33 1116.80 -4.42014e-10 3.68480e-13
  34 1116.80 -4.42318e-10 7.19467e-13
  35 1116.80 -4.42697e-10 3.31332e-13
  36 1116.80 -4.42924e-10 -1.43215e-13
  37 1116.80 -4.42318e-10 -8.81430e-13
  38 1116.80 -4.42621e-10 -5.65953e-13
  39 1116.80 -4.42318e-10 1.85681e-13
  40 1116.80 -4.42014e-10 1.05936e-13
  41 1116.80 -4.42318e-10 5.72141e-13
  42 1116.80 -4.42014e-10 3.17429e-13
  43 1116.80 -4.42014e-10 2.34157e-14
  44 1116.80 -4.42014e-10 -4.57580e-14
  45 1116.80 -4.42014e-10 -1.91918e-13
  46 1116.80 -4.42318e-10 3.67780e-14
  47 1116.80 -4.42621e-10 1.76066e-13
  48 1116.80 -4.42014e-10 -2.38495e-13
  49 1116.80 -4.42318e-10 -2.67781e-13
  50 1116.80 -4.42924e-10 5.00260e-14
  51 1116.80 -4.42924e-10 1.73484e-14
  52 1116.80 -4.42924e-10 -3.19547e-14
  53 1116.80 -4.42924e-10 9.09954e-14
  54 1116.80 -4.42469e-10 -4.09157e-14
  55 1116.80 -4.42924e-10 -1.38787e-13
  56 1116.80 -4.42924e-10 -7.80211e-15
  57 1116.80 -4.42014e-10 -5.92035e-15
  58 1116.80 -4.42469e-10 5.63596e-13
  59 1116.80 -4.42274e-10 -1.34696e-13
  60 1116.80 -4.42621e-10 2.31784e-13
  61 1116.80 -4.42166e-10 -6.41006e-14
  62 1116.80 -4.42469e-10 1.13511e-13
  63 1116.80 -4.41287e-10 4.21981e-13
  64 1116.80 -4.43076e-10 -1.71680e-13
  65 1116.80 -4.42318e-10 7.18876e-14
  66 1116.80 -4.42166e-10 7.16277e-14
  67 1116.80 -4.42318e-10 -5.85006e-13
  68 1116.80 -4.42318e-10 -2.41241e-13
  69 1116.80 -4.42274e-10 -3.02802e-13
  70 1116.80 -4.42242e-10 -9.19062e-14
  71 1116.80 -4.42621e-10 -7.83430e-14
  72 1116.80 -4.42404e-10 -1.92300e-13
  73 1116.80 -4.42664e-10 1.45423e-13
  74 1116.80 -4.42014e-10 4.37615e-14
  75 1116.80 -4.42560e-10 1.98746e-13
  76 1116.80 -4.41863e-10 1.31518e-12
  77 1116.80 -4.42166e-10 5.08679e-15
  78 1116.80 -4.41863e-10 -3.76076e-13
  79 1116.80 -4.42794e-10 2.51139e-15
  80 1116.80 -4.42318e-10 2.62782e-13
  81 1116.80 -4.42014e-10 9.02306e-14
  82 1116.80 -4.42469e-10 -1.07523e-13
  83 1116.80 -4.42469e-10 -3.09333e-14
  84 1116.80 -4.42621e-10 6.36109e-14
  85 1116.80 -4.42621e-10 -3.21879e-14
  86 1116.80 -4.41863e-10 -4.40473e-13
  87 1116.80 -4.41408e-10 1.50134e-14
  88 1116.80 -4.42196e-10 -3.25531e-13
  89 1116.80 -4.42378e-10 2.55819e-14
  90 1116.80 -4.42318e-10 -4.80338e-15
  91 1116.80 -4.42378e-10 2.47881e-13
  92 1116.80 -4.42742e-10 -7.54979e-14
  93 1116.80 -4.42560e-10 5.06429e-13
  94 1116.80 -4.41833e-10 -1.43791e-13
  95 1116.80 -4.42014e-10 1.09223e-13
  96 1116.80 -4.42621e-10 9.53325e-14
  97 1116.80 -4.43106e-10 -8.14370e-14
  98 1116.80 -4.42014e-10 3.04885e-14
  99 1116.80 -4.42772e-10 8.22615e-13
  100 1116.80 -4.42196e-10 3.07683e-14
  101 1116.80 -4.42014e-10 1.95086e-13
  102 1116.80 -4.43470e-10 -7.65582e-15
  103 1116.80 -4.41863e-10 -2.36438e-13
  104 1116.80 -4.42560e-10 4.51059e-14
  105 1116.80 -4.42378e-10 3.74601e-14
  106 1116.80 -4.42318e-10 -1.16421e-13
  107 1116.80 -4.41711e-10 -4.76746e-13
  108 1116.80 -4.42469e-10 4.65073e-15
  109 1116.80 -4.42196e-10 -1.73484e-14
  110 1116.80 -4.41651e-10 -1.35318e-13
  111 1116.80 -4.41787e-10 -1.32098e-14
  112 1116.80 -4.42318e-10 -1.21810e-13
  113 1116.80 -4.42274e-10 -2.98047e-13
  114 1116.80 -4.42404e-10 -2.39239e-13
  115 1116.80 -4.42318e-10 -4.15930e-13
  116 1116.80 -4.42378e-10 1.56852e-13
  117 1116.80 -4.42469e-10 -2.67371e-13
  118 1116.80 -4.42166e-10 7.25522e-14
  119 1116.80 -4.42274e-10 4.45016e-13
  120 1116.80 -4.42469e-10 -3.11638e-13
  121 1116.80 -4.42664e-10 -6.19587e-14
  122 1116.80 -4.42014e-10 -1.87461e-15
  123 1116.80 -4.42621e-10 -1.15237e-14
  124 1116.80 -4.42144e-10 2.59391e-13
  125 1116.80 -4.42469e-10 2.37776e-13
  126 1116.80 -4.42469e-10 -1.41585e-14
  127 1116.80 -4.42794e-10 4.31457e-13
  128 1116.80 -4.42583e-10 -7.69208e-14
  129 1116.80 -4.42014e-10 2.73703e-14
  130 1116.80 -4.42318e-10 -2.79426e-13
  131 1116.80 -4.42166e-10 -7.34000e-14
  132 1116.80 -4.42469e-10 -7.58411e-14
  133 1116.80 -4.42664e-10 -3.82217e-13
  134 1116.80 -4.42664e-10 -2.49842e-13
  135 1116.80 -4.42014e-10 -4.02516e-13
  136 1116.80 -4.41884e-10 -4.35450e-14
  137 1116.80 -4.41625e-10 -6.10445e-13
  138 1116.80 -4.42469e-10 -1.89716e-13
  139 1116.80 -4.42274e-10 2.19118e-13
  140 1116.80 -4.41755e-10 5.61918e-13
  141 1116.80 -4.42772e-10 4.14591e-14
  142 1116.80 -4.42166e-10 -1.30952e-14
  143 1116.80 -4.42274e-10 -5.19274e-14
  144 1116.80 -4.42196e-10 3.43375e-13
  145 1116.80 -4.42014e-10 1.15513e-13
  146 1116.80 -4.42144e-10 2.09917e-13
  147 1116.80 -4.42166e-10 -8.00703e-14
  148 1116.80 -4.42469e-10 4.51153e-14
  149 1116.80 -4.42166e-10 1.30574e-12
  150 1116.80 -4.42318e-10 -4.08021e-13
  151 1116.80 -4.41711e-10 -2.48600e-13
  152 1116.80 -4.42621e-10 -1.57115e-14
  153 1116.80 -4.42469e-10 1.49421e-13
  154 1116.80 -4.42560e-10 2.32984e-13
  155 1116.80 -4.41863e-10 -2.46325e-13
  156 1116.80 -4.42404e-10 1.57487e-13
  157 1116.80 -4.42144e-10 -7.34261e-14
  158 1116.80 -4.42318e-10 -3.64065e-13
  159 1116.80 -4.41863e-10 3.76228e-13
  160 1116.80 -4.42742e-10 6.38772e-14
  161 1116.80 -4.41469e-10 9.36010e-13
  162 1116.80 -4.42621e-10 -8.47916e-14
  163 1116.80 -4.42469e-10 -1.41679e-13
  164 1116.80 -4.42014e-10 3.64101e-13
  165 1116.80 -4.42166e-10 6.03371e-14
  166 1116.80 -4.42534e-10 6.36176e-14
  167 1116.80 -4.42014e-10 -1.83254e-13
  168 1116.80 -4.41365e-10 -2.45688e-13
  169 1116.80 -4.42664e-10 7.09477e-14
  170 1116.80 -4.42196e-10 2.75562e-14
  171 1116.80 -4.42274e-10 2.72095e-13
  172 1116.80 -4.42924e-10 -4.20093e-14
  173 1116.80 -4.42166e-10 -5.73439e-14
  174 1116.80 -4.42469e-10 -2.80084e-13
  175 1116.80 -4.42166e-10 -3.76117e-14
  176 1116.80 -4.42772e-10 1.39204e-15
  177 1116.80 -4.41863e-10 -4.55143e-13
  178 1116.80 -4.42166e-10 -4.88788e-14
  179 1116.80 -4.42924e-10 4.80250e-13
  180 1116.80 -4.42534e-10 1.07529e-14
  181 1116.80 -4.42772e-10 1.49588e-13
  182 1116.80 -4.42378e-10 -8.31780e-13
  183 1116.80 -4.42318e-10 2.21514e-13
  184 1116.80 -4.42196e-10 -5.78576e-13
  185 1116.80 -4.42318e-10 -7.17485e-15
  186 1116.80 -4.42378e-10 6.48775e-14
  187 1116.80 -4.42166e-10 -3.32663e-14
  188 1116.80 -4.42378e-10 -4.79216e-13
  189 1116.80 -4.42560e-10 9.83265e-14
  190 1116.80 -4.42404e-10 1.20958e-13
  191 1116.80 -4.42318e-10 1.23673e-13
  192 1116.80 -4.41755e-10 -1.98268e-14
  193 1116.80 -4.42924e-10 1.67358e-13
  194 1116.80 -4.42924e-10 -5.05553e-13
  195 1116.80 -4.42166e-10 5.36134e-14
  196 1116.80 -4.42014e-10 -7.78382e-13
  197 1116.80 -4.42318e-10 5.97786e-14
  198 1116.80 -4.42469e-10 1.15656e-14
  199 1116.80 -4.42318e-10 -1.14264e-13
  200 1116.80 -4.41863e-10 3.19738e-13
  201 1116.80 -4.42318e-10 1.67408e-13
  202 1116.80 -4.42560e-10 6.26492e-13
  203 1116.80 -4.42166e-10 -4.08990e-13
  204 1116.80 -4.42621e-10 -1.18548e-13
  205 1116.80 -4.42166e-10 7.52703e-15
  206 1116.80 -4.42560e-10 1.90631e-13
  207 1116.80 -4.42378e-10 4.82250e-14
  208 1116.80 -4.42196e-10 1.08011e-13
  209 1116.80 -4.43076e-10 1.57605e-13
  210 1116.80 -4.42166e-10 7.59799e-14
  211 1116.80 -4.42404e-10 -5.94803e-14
  212 1116.80 -4.42378e-10 -6.10005e-13
  213 1116.80 -4.41287e-10 -1.93249e-13
  214 1116.80 -4.42166e-10 1.64915e-14
  215 1116.80 -4.41651e-10 5.11426e-13
  216 1116.80 -4.42014e-10 5.28299e-15
  217 1116.80 -4.42772e-10 -3.56837e-13
  218 1116.80 -4.42166e-10 2.20297e-13
  219 1116.80 -4.42378e-10 3.16385e-13
  220 1116.80 -4.42469e-10 2.36210e-14
  221 1116.80 -4.42166e-10 -1.39552e-13
  222 1116.80 -4.42772e-10 -3.24629e-14
  223 1116.80 -4.42014e-10 1.50541e-14
  224 1116.80 -4.42560e-10 -7.12292e-14
  225 1116.80 -4.42196e-10 -1.03084e-14
  226 1116.80 -4.42378e-10 3.58722e-14
  227 1116.80 -4.42318e-10 -4.49007e-14
  228 1116.80 -4.42378e-10 3.64631e-13
  229 1116.80 -4.42014e-10 7.81753e-14
  230 1116.80 -4.42166e-10 3.18484e-13
  231 1116.80 -4.42196e-10 6.35266e-13
  232 1116.80 -4.42378e-10 -3.59352e-13
  233 1116.80 -4.42924e-10 -1.95478e-13
  234 1116.80 -4.42318e-10 -2.71219e-13
  235 1116.80 -4.42378e-10 2.10697e-14
  236 1116.80 -4.42274e-10 -1.53959e-13
  237 1116.80 -4.42924e-10 3.41759e-13
  238 1116.80 -4.42742e-10 1.09194e-13
  239 1116.80 -4.42318e-10 1.75443e-13
  240 1116.80 -4.41469e-10 1.35447e-13
  241 1116.80 -4.42166e-10 -1.28751e-13
</Section>

newXOutput 68

<Section columns = "stress_xx | stress_yy | stress_xy">
  1 1131.48 -4.42924e-10 -7.62259e-15
  2 1131.48 -4.42014e-10 -4.07028e-13
  3 1131.48 -4.42014e-10 -4.33061e-14
  4 1131.48 -4.42469e-10 -9.07910e-15
  5 1131.48 -4.43227e-10 -5.63031e-14
  6 1131.48 -4.43833e-10 -6.15869e-14
  7 1131.48 -4.42697e-10 1.52452e-14
  8 1131.48 -4.42014e-10 1.94722e-13
  9 1131.48 -4.42318e-10 1.84559e-13
  10 1131.48 -4.42014e-10 -1.79073e-13
  11 1131.48 -4.42621e-10 -5.68517e-13
  12 1131.48 -4.42621e-10 -3.99405e-13
  13 1131.48 -4.41560e-10 1.84761e-13
  14 1131.48 -4.41105e-10 1.18092e-13
  15 1131.48 -4.42697e-10 4.80503e-13
  16 1131.48 -4.43227e-10 7.99215e-13
  17 1131.48 -4.42621e-10 -3.37819e-13
  18 1131.48 -4.42318e-10 -4.30098e-13
  19 1131.48 -4.42621e-10 2.39814e-28
  20 1131.48 -4.42014e-10 -8.19542e-13
  21 1131.48 -4.42318e-10 -1.09089e-12
  22 1131.48 -4.42318e-10 -1.58746e-13
  23 1131.48 -4.41105e-10 -8.65681e-13
  24 1131.48 -4.42014e-10 3.63631e-13
  25 1131.48 -4.41105e-10 -6.92094e-14
  26 1131.48 -4.42014e-10 4.52075e-14
  27 1131.48 -4.42014e-10 -5.42704e-13
  28 1131.48 -4.41560e-10 2.81375e-13
  29 1131.48 -4.41105e-10 5.19071e-14
  30 1131.48 -4.42318e-10 1.73024e-14
  31 1131.48 -4.42621e-10 -1.90160e-13
  32 1131.48 -4.42469e-10 -5.75121e-13
  33 1131.48 -4.42242e-10 -3.45043e-13
  34 1131.48 -4.42014e-10 -7.57832e-13
  35 1131.48 -4.41560e-10 -4.60464e-13
  36 1131.48 -4.42621e-10 -5.93062e-14
  37 1131.48 -4.42621e-10 -4.31375e-13
  38 1131.48 -4.42318e-10 -4.07571e-13
  39 1131.48 -4.42621e-10 -2.06576e-13
  40 1131.48 -4.42924e-10 1.35166e-13
  41 1131.48 -4.42014e-10 1.59969e-13
  42 1131.48 -4.41711e-10 -2.27003e-13
  43 1131.48 -4.42621e-10 -9.89248e-14
  44 1131.48 -4.42621e-10 7.35309e-14
  45 1131.48 -4.42014e-10 -1.86979e-13
  46 1131.48 -4.42318e-10 -1.71520e-13
  47 1131.48 -4.42924e-10 -1.30887e-13
  48 1131.48 -4.42924e-10 -1.21677e-13
  49 1131.48 -4.42924e-10 3.76224e-14
  50 1131.48 -4.42014e-10 5.19071e-14
  51 1131.48 -4.42014e-10 -1.73024e-14
  52 1131.48 -4.42697e-10 5.97409e-15
  53 1131.48 -4.42924e-10 -4.61396e-14
  54 1131.48 -4.42924e-10 6.23124e-15
  55 1131.48 -4.42924e-10 1.38419e-13
  56 1131.48 -4.42924e-10 5.31775e-14
  57 1131.48 -4.42166e-10 -1.38903e-13
  58 1131.48 -4.42166e-10 -1.10993e-13
  59 1131.48 -4.42404e-10 1.34063e-13
  60 1131.48 -4.42166e-10 -3.59086e-13
  61 1131.48 -4.41408e-10 -1.15046e-13
  62 1131.48 -4.42469e-10 -1.63071e-13
  63 1131.48 -4.41105e-10 5.21055e-13
  64 1131.48 -4.42166e-10 -4.86603e-13
  65 1131.48 -4.42166e-10 -2.73626e-13
  66 1131.48 -4.42469e-10 -3.84665e-14
  67 1131.48 -4.42469e-10 5.80254e-13
  68 1131.48 -4.43076e-10 -8.17142e-13
  69 1131.48 -4.42014e-10 -2.87915e-13
  70 1131.48 -4.42469e-10 -2.72160e-13
  71 1131.48 -4.42772e-10 1.31482e-14
  72 1131.48 -4.42274e-10 -3.63799e-13
  73 1131.48 -4.42014e-10 2.22338e-13
  74 1131.48 -4.42378e-10 -1.29093e-13
  75 1131.48 -4.42560e-10 -1.75830e-13
  76 1131.48 -4.42772e-10 6.13848e-14
  77 1131.48 -4.42469e-10 -2.09382e-13
  78 1131.48 -4.42469e-10 4.45097e-13
  79 1131.48 -4.42274e-10 -2.53450e-13
  80 1131.48 -4.42469e-10 6.33875e-13
  81 1131.48 -4.42318e-10 -4.55947e-14
  82 1131.48 -4.42166e-10 7.34813e-13
  83 1131.48 -4.42318e-10 2.08264e-13
  84 1131.48 -4.41863e-10 1.97422e-14
  85 1131.48 -4.43379e-10 -4.70470e-13
  86 1131.48 -4.42166e-10 1.63828e-13
  87 1131.48 -4.42924e-10 5.27101e-14
  88 1131.48 -4.43106e-10 2.57589e-13
  89 1131.48 -4.42560e-10 1.16010e-13
  90 1131.48 -4.42166e-10 -3.15535e-13
  91 1131.48 -4.42742e-10 -2.04359e-14
  92 1131.48 -4.41833e-10 -2.29284e-14
  93 1131.48 -4.41833e-10 2.95132e-13
  94 1131.48 -4.43106e-10 -5.16646e-14
  95 1131.48 -4.41651e-10 5.46659e-14
  96 1131.48 -4.42621e-10 -3.47456e-14
  97 1131.48 -4.41287e-10 4.99469e-13
  98 1131.48 -4.42196e-10 -1.41431e-13
  99 1131.48 -4.41408e-10 2.19849e-13
  100 1131.48 -4.41469e-10 1.06162e-13
  101 1131.48 -4.41560e-10 2.21805e-13
  102 1131.48 -4.42196e-10 -2.27906e-13
  103 1131.48 -4.42772e-10 -3.22047e-14
  104 1131.48 -4.42560e-10 1.74236e-14
  105 1131.48 -4.41469e-10 -7.38914e-14
  106 1131.48 -4.42318e-10 1.92187e-14
  107 1131.48 -4.42469e-10 3.47630e-13
  108 1131.48 -4.42772e-10 6.74247e-14
  109 1131.48 -4.42378e-10 1.92552e-13
  110 1131.48 -4.42196e-10 -1.10735e-13
  111 1131.48 -4.42014e-10 4.14278e-13
  112 1131.48 -4.42014e-10 9.24889e-15
  113 1131.48 -4.42014e-10 8.34043e-14
  114 1131.48 -4.42404e-10 1.01224e-13
  115 1131.48 -4.42166e-10 3.19984e-14
  116 1131.48 -4.42378e-10 -1.24386e-14
  117 1131.48 -4.42469e-10 -9.81875e-14
  118 1131.48 -4.41711e-10 -1.25681e-14
  119 1131.48 -4.41884e-10 -4.20770e-13
  120 1131.48 -4.42318e-10 3.74885e-14
  121 1131.48 -4.42534e-10 1.01844e-13
  122 1131.48 -4.42924e-10 -2.99904e-13
  123 1131.48 -4.42318e-10 -4.54249e-13
  124 1131.48 -4.42404e-10 -4.44630e-15
  125 1131.48 -4.42355e-10 1.26542e-13
  126 1131.48 -4.42469e-10 6.20254e-14
  127 1131.48 -4.42794e-10 -3.28399e-13
  128 1131.48 -4.42128e-10 -2.08354e-13
  129 1131.48 -4.42128e-10 -2.37077e-13
  130 1131.48 -4.42166e-10 1.10419e-13
  131 1131.48 -4.41408e-10 -8.40117e-14
  132 1131.48 -4.41787e-10 -2.84009e-13
  133 1131.48 -4.42794e-10 -2.25881e-13
  134 1131.48 -4.42014e-10 -2.48384e-14
  135 1131.48 -4.41884e-10 -3.16659e-14
  136 1131.48 -4.42794e-10 -1.38635e-13
  137 1131.48 -4.42274e-10 1.35645e-14
  138 1131.48 -4.42469e-10 -7.80015e-14
  139 1131.48 -4.42274e-10 -1.11415e-13
  140 1131.48 -4.41755e-10 2.31170e-13
  141 1131.48 -4.41863e-10 -1.03612e-13
  142 1131.48 -4.42318e-10 -1.56689e-13
  143 1131.48 -4.42534e-10 -6.96240e-14
  144 1131.48 -4.42742e-10 5.17077e-13
  145 1131.48 -4.42378e-10 -3.41125e-13
  146 1131.48 -4.42404e-10 -8.78348e-14
  147 1131.48 -4.42166e-10 -4.77553e-14
  148 1131.48 -4.42621e-10 -3.10353e-14
  149 1131.48 -4.42014e-10 2.94422e-13
  150 1131.48 -4.42469e-10 -1.98841e-13
  151 1131.48 -4.42166e-10 -9.00201e-14
  152 1131.48 -4.42166e-10 -1.05366e-13
  153 1131.48 -4.42772e-10 1.29768e-13
  154 1131.48 -4.41651e-10 1.08182e-12
  155 1131.48 -4.42318e-10 -2.46480e-13
  156 1131.48 -4.41495e-10 2.34351e-13
  157 1131.48 -4.42404e-10 -1.50855e-13
  158 1131.48 -4.42166e-10 -2.77119e-13
  159 1131.48 -4.41105e-10 -4.64703e-13
  160 1131.48 -4.42924e-10 -2.69215e-14
  161 1131.48 -4.42196e-10 -5.92248e-13
  162 1131.48 -4.42469e-10 -2.96378e-13
  163 1131.48 -4.42621e-10 -1.38701e-13
  164 1131.48 -4.43054e-10 5.07127e-13
  165 1131.48 -4.41863e-10 -1.61972e-13
  166 1131.48 -4.42534e-10 1.68434e-13
  167 1131.48 -4.42014e-10 3.45053e-13
  168 1131.48 -4.42534e-10 -5.86291e-13
  169 1131.48 -4.42794e-10 8.09372e-14
  170 1131.48 -4.42014e-10 6.67386e-13
  171 1131.48 -4.42664e-10 -1.74441e-13
  172 1131.48 -4.42014e-10 -3.32051e-13
  173 1131.48 -4.42469e-10 -2.75423e-14
  174 1131.48 -4.42166e-10 9.59895e-14
  175 1131.48 -4.42621e-10 1.19381e-14
  176 1131.48 -4.42924e-10 -1.45063e-13
  177 1131.48 -4.42621e-10 4.00962e-13
  178 1131.48 -4.42469e-10 1.42273e-14
  179 1131.48 -4.42378e-10 1.38298e-13
  180 1131.48 -4.41884e-10 -1.50353e-15
  181 1131.48 -4.42014e-10 -3.15434e-13
  182 1131.48 -4.41651e-10 8.26937e-14
  183 1131.48 -4.42318e-10 -2.00217e-13
  184 1131.48 -4.43106e-10 -4.54652e-13
  185 1131.48 -4.41560e-10 -1.37657e-13
  186 1131.48 -4.41105e-10 7.09764e-14
  187 1131.48 -4.42621e-10 2.30970e-13
  188 1131.48 -4.42378e-10 -2.36794e-13
  189 1131.48 -4.41833e-10 2.73789e-13
  190 1131.48 -4.42794e-10 9.46467e-14
  191 1131.48 -4.42318e-10 -9.75523e-14
  192 1131.48 -4.42924e-10 5.11015e-13
  193 1131.48 -4.42196e-10 -2.99338e-13
  194 1131.48 -4.42014e-10 -8.99404e-15
  195 1131.48 -4.42924e-10 1.30721e-13
  196 1131.48 -4.42924e-10 -7.08699e-13
  197 1131.48 -4.42469e-10 2.46528e-13
  198 1131.48 -4.42621e-10 -4.43004e-13
  199 1131.48 -4.41863e-10 3.14792e-14
  200 1131.48 -4.42772e-10 1.66913e-13
  201 1131.48 -4.42014e-10 -3.95440e-13
  202 1131.48 -4.42742e-10 2.30037e-13
  203 1131.48 -4.42166e-10 2.32719e-14
  204 1131.48 -4.42014e-10 4.66845e-14
  205 1131.48 -4.42014e-10 9.03231e-14
  206 1131.48 -4.41833e-10 -8.80459e-13
  207 1131.48 -4.42560e-10 -8.80839e-14
  208 1131.48 -4.42196e-10 -2.94638e-13
  209 1131.48 -4.41711e-10 2.99706e-13
  210 1131.48 -4.42469e-10 -6.10320e-14
  211 1131.48 -4.42794e-10 -9.00725e-14
  212 1131.48 -4.42014e-10 3.37819e-14
  213 1131.48 -4.42924e-10 -5.74494e-14
  214 1131.48 -4.42166e-10 -3.46051e-13
  215 1131.48 -4.42742e-10 -1.62769e-13
  216 1131.48 -4.41833e-10 2.48446e-13
  217 1131.48 -4.42014e-10 3.28200e-13
  218 1131.48 -4.42166e-10 -9.38972e-14
  219 1131.48 -4.43106e-10 -7.94358e-13
  220 1131.48 -4.42772e-10 -1.46868e-13
  221 1131.48 -4.42772e-10 6.34561e-13
  222 1131.48 -4.42924e-10 -1.65098e-13
  223 1131.48 -4.42378e-10 -3.99405e-13
  224 1131.48 -4.42378e-10 -6.36918e-14
  225 1131.48 -4.42742e-10 -4.57289e-13
  226 1131.48 -4.42196e-10 1.95311e-13
  227 1131.48 -4.42621e-10 -4.16506e-13
  228 1131.48 -4.42014e-10 6.61604e-14
  229 1131.48 -4.42469e-10 4.54792e-14
  230 1131.48 -4.42621e-10 4.11626e-13
  231 1131.48 -4.41287e-10 -1.62811e-13
  232 1131.48 -4.41469e-10 -6.66802e-14
  233 1131.48 -4.42378e-10 -4.71785e-13
  234 1131.48 -4.41863e-10 6.27111e-14
  235 1131.48 -4.41651e-10 7.22586e-14
  236 1131.48 -4.41884e-10 -2.16467e-17
  237 1131.48 -4.42196e-10 -2.04628e-13
  238 1131.48 -4.42196e-10 1.54876e-14
  239 1131.48 -4.42318e-10 3.66619e-14
  240 1131.48 -4.40923e-10 3.22937e-13
  241 1131.48 -4.43227e-10 -3.27655e-13
</Section>

newXOutput 69

<Section columns = "stress_xx | stress_yy | stress_xy">
  1 1146.09 -4.41105e-10 -2.07078e-13
  2 1146.09 -4.42014e-10 5.44922e-13
  3 1146.09 -4.39741e-10 -4.00140e-13
  4 1146.09 -4.39286e-10 1.46927e-14
  5 1146.09 -4.38680e-10 -2.30231e-13
  6 1146.09 -4.38376e-10 -1.23050e-13
  7 1146.09 -4.40878e-10 -1.15115e-13
  8 1146.09 -4.39892e-10 -5.26770e-13
  9 1146.09 -4.40499e-10 -1.02902e-14
  10 1146.09 -4.42924e-10 3.83862e-13
  11 1146.09 -4.40499e-10 4.75608e-13
  12 1146.09 -4.41711e-10 -1.99649e-13
  13 1146.09 -4.41332e-10 -4.25732e-13
  14 1146.09 -4.40802e-10 -2.76103e-13
  15 1146.09 -4.38604e-10 -4.87256e-13
  16 1146.09 -4.39286e-10 -2.09251e-12
  17 1146.09 -4.43227e-10 -5.88511e-13
  18 1146.09 -4.43530e-10 -2.54368e-14
  19 1146.09 -4.42014e-10 -2.05805e-14
  20 1146.09 -4.43227e-10 4.29879e-13
  21 1146.09 -4.39286e-10 3.63282e-13
  22 1146.09 -4.40195e-10 -7.14540e-14
  23 1146.09 -4.40802e-10 5.67931e-13
  24 1146.09 -4.41408e-10 -5.93368e-13
  25 1146.09 -4.40195e-10 0.00000
  26 1146.09 -4.42469e-10 1.04211e-13
  27 1146.09 -4.40499e-10 2.30086e-14
  28 1146.09 -4.38604e-10 -6.18262e-13
  29 1146.09 -4.37467e-10 -5.17694e-14
  30 1146.09 -4.39286e-10 1.46680e-13
  31 1146.09 -4.39286e-10 -5.44900e-13
  32 1146.09 -4.39741e-10 -4.54849e-13
  33 1146.09 -4.39286e-10 -1.63399e-13
  34 1146.09 -4.40802e-10 -1.44266e-12
  35 1146.09 -4.39286e-10 -1.32102e-14
  36 1146.09 -4.39589e-10 -1.47988e-13
  37 1146.09 -4.39589e-10 -7.77041e-13
  38 1146.09 -4.39892e-10 1.27893e-13
  39 1146.09 -4.39286e-10 6.21044e-13
  40 1146.09 -4.39286e-10 -1.51389e-13
  41 1146.09 -4.39589e-10 4.79184e-14
  42 1146.09 -4.38983e-10 6.75895e-13
  43 1146.09 -4.39892e-10 1.17969e-13
  44 1146.09 -4.38680e-10 -9.08005e-13
  45 1146.09 -4.38073e-10 -2.22493e-14
  46 1146.09 -4.38680e-10 1.64685e-13
  47 1146.09 -4.38680e-10 -3.02091e-13
  48 1146.09 -4.38073e-10 -1.25551e-13
  49 1146.09 -4.38073e-10 -1.13333e-13
  50 1146.09 -4.39286e-10 -3.13333e-14
  51 1146.09 -4.39286e-10 -1.72565e-14
  52 1146.09 -4.38831e-10 1.07853e-14
  53 1146.09 -4.38680e-10 -3.07263e-14
  54 1146.09 -4.38831e-10 1.48718e-14
  55 1146.09 -4.39286e-10 1.38052e-13
  56 1146.09 -4.40499e-10 1.96860e-13
  57 1146.09 -4.38983e-10 -2.43310e-14
  58 1146.09 -4.40044e-10 2.46721e-13
  59 1146.09 -4.38636e-10 4.29056e-14
  60 1146.09 -4.39438e-10 1.20300e-13
  61 1146.09 -4.40044e-10 1.71351e-13
  62 1146.09 -4.41105e-10 5.04360e-14
  63 1146.09 -4.40559e-10 -4.05067e-13
  64 1146.09 -4.40499e-10 5.11624e-14
  65 1146.09 -4.40347e-10 3.56001e-13
  66 1146.09 -4.38831e-10 4.46588e-14
  67 1146.09 -4.38983e-10 -6.21392e-14
  68 1146.09 -4.39438e-10 -8.21200e-14
  69 1146.09 -4.39286e-10 -7.58703e-13
  70 1146.09 -4.39854e-10 -3.92475e-14
  71 1146.09 -4.39134e-10 1.46145e-13
  72 1146.09 -4.40715e-10 4.49544e-14
  73 1146.09 -4.40715e-10 -8.25163e-14
  74 1146.09 -4.39832e-10 -1.17222e-13
  75 1146.09 -4.41469e-10 3.72184e-13
  76 1146.09 -4.39741e-10 -1.55308e-13
  77 1146.09 -4.38528e-10 1.87321e-13
  78 1146.09 -4.40347e-10 6.40811e-14
  79 1146.09 -4.38766e-10 -1.53716e-13
  80 1146.09 -4.38831e-10 4.31093e-13
  81 1146.09 -4.39892e-10 -3.67820e-14
  82 1146.09 -4.39438e-10 1.19952e-13
  83 1146.09 -4.38983e-10 -7.98148e-14
  84 1146.09 -4.41711e-10 -1.49628e-13
  85 1146.09 -4.39134e-10 9.86162e-13
  86 1146.09 -4.40499e-10 -3.51633e-13
  87 1146.09 -4.38680e-10 -2.61657e-13
  88 1146.09 -4.39104e-10 -3.78129e-13
  89 1146.09 -4.41469e-10 2.45449e-14
  90 1146.09 -4.38983e-10 -1.08720e-13
  91 1146.09 -4.40014e-10 -4.05163e-13
  92 1146.09 -4.38740e-10 -3.83718e-15
  93 1146.09 -4.40014e-10 -4.11241e-13
  94 1146.09 -4.39468e-10 2.03071e-13
  95 1146.09 -4.41287e-10 -2.29789e-13
  96 1146.09 -4.40195e-10 2.39987e-14
  97 1146.09 -4.40923e-10 1.91816e-13
  98 1146.09 -4.39286e-10 3.36540e-13
  99 1146.09 -4.38983e-10 -2.12830e-13
  100 1146.09 -4.39286e-10 2.54667e-13
  101 1146.09 -4.39741e-10 7.71767e-15
  102 1146.09 -4.39832e-10 -3.57287e-13
  103 1146.09 -4.39438e-10 -2.53646e-14
  104 1146.09 -4.38922e-10 1.03625e-13
  105 1146.09 -4.39468e-10 -2.17509e-13
  106 1146.09 -4.40347e-10 2.64888e-13
  107 1146.09 -4.42014e-10 3.75234e-13
  108 1146.09 -4.39438e-10 -1.43804e-15
  109 1146.09 -4.39286e-10 -1.61482e-13
  110 1146.09 -4.39104e-10 -3.59472e-13
  111 1146.09 -4.39854e-10 -3.84275e-13
  112 1146.09 -4.41105e-10 9.30298e-14
  113 1146.09 -4.39546e-10 7.30087e-14
  114 1146.09 -4.39546e-10 -1.02402e-13
  115 1146.09 -4.40650e-10 -3.28288e-14
  116 1146.09 -4.42924e-10 -1.16616e-13
  117 1146.09 -4.39741e-10 2.52329e-13
  118 1146.09 -4.39892e-10 -5.41858e-14
  119 1146.09 -4.39026e-10 6.75268e-14
  120 1146.09 -4.39134e-10 -1.28105e-13
  121 1146.09 -4.38896e-10 -9.53879e-15
  122 1146.09 -4.38506e-10 1.91506e-13
  123 1146.09 -4.39892e-10 -1.81529e-13
  124 1146.09 -4.40845e-10 1.23048e-13
  125 1146.09 -4.41673e-10 1.85057e-13
  126 1146.09 -4.39854e-10 -1.09836e-13
  127 1146.09 -4.39806e-10 2.71557e-13
  128 1146.09 -4.41446e-10 4.31628e-13
  129 1146.09 -4.39172e-10 2.37235e-13
  130 1146.09 -4.38983e-10 -2.09650e-13
  131 1146.09 -4.40650e-10 -1.64258e-13
  132 1146.09 -4.39286e-10 -2.69665e-14
  133 1146.09 -4.40975e-10 6.57802e-14
  134 1146.09 -4.39806e-10 1.78920e-13
  135 1146.09 -4.40325e-10 2.32498e-13
  136 1146.09 -4.39026e-10 -1.07884e-13
  137 1146.09 -4.40845e-10 2.07017e-13
  138 1146.09 -4.39892e-10 1.26049e-13
  139 1146.09 -4.38766e-10 1.01931e-13
  140 1146.09 -4.38896e-10 -2.74084e-13
  141 1146.09 -4.39134e-10 -2.72389e-13
  142 1146.09 -4.39589e-10 -8.11372e-14
  143 1146.09 -4.39546e-10 1.53425e-14
  144 1146.09 -4.39104e-10 2.47467e-13
  145 1146.09 -4.41105e-10 -1.07830e-12
  146 1146.09 -4.39676e-10 -3.62252e-13
  147 1146.09 -4.39286e-10 1.81735e-13
  148 1146.09 -4.38831e-10 -4.82863e-14
  149 1146.09 -4.38376e-10 -1.92697e-13
  150 1146.09 -4.40650e-10 9.39661e-14
  151 1146.09 -4.40499e-10 -2.90252e-13
  152 1146.09 -4.39892e-10 -1.35783e-13
  153 1146.09 -4.39286e-10 3.27107e-13
  154 1146.09 -4.39104e-10 5.22758e-13
  155 1146.09 -4.39741e-10 -2.55700e-13
  156 1146.09 -4.40715e-10 2.92703e-13
  157 1146.09 -4.38636e-10 6.21970e-14
  158 1146.09 -4.39892e-10 1.15267e-13
  159 1146.09 -4.39741e-10 -1.86562e-13
  160 1146.09 -4.38558e-10 -9.98965e-15
  161 1146.09 -4.40377e-10 2.35763e-13
  162 1146.09 -4.39892e-10 1.41130e-14
  163 1146.09 -4.38376e-10 4.88167e-13
  164 1146.09 -4.39156e-10 -3.85080e-13
  165 1146.09 -4.39438e-10 2.26300e-13
  166 1146.09 -4.39026e-10 -1.54137e-13
  167 1146.09 -4.40585e-10 -5.66998e-14
  168 1146.09 -4.38636e-10 -2.38034e-14
  169 1146.09 -4.39806e-10 -3.34259e-14
  170 1146.09 -4.39650e-10 1.04916e-12
  171 1146.09 -4.39936e-10 4.15350e-13
  172 1146.09 -4.40650e-10 -1.38052e-13
  173 1146.09 -4.38376e-10 -3.40409e-13
  174 1146.09 -4.40347e-10 -6.52392e-14
  175 1146.09 -4.38983e-10 -1.31766e-13
  176 1146.09 -4.39589e-10 1.12507e-13
  177 1146.09 -4.39286e-10 -1.23762e-13
  178 1146.09 -4.38983e-10 -2.48658e-14
  179 1146.09 -4.42014e-10 -3.59021e-13
  180 1146.09 -4.39286e-10 1.08469e-13
  181 1146.09 -4.40347e-10 2.95773e-13
  182 1146.09 -4.39650e-10 -2.20228e-13
  183 1146.09 -4.41105e-10 -3.67893e-14
  184 1146.09 -4.40014e-10 -5.21856e-13
  185 1146.09 -4.39134e-10 8.88368e-14
  186 1146.09 -4.39832e-10 -1.59488e-13
  187 1146.09 -4.39134e-10 -2.05310e-14
  188 1146.09 -4.37467e-10 -1.71810e-13
  189 1146.09 -4.38922e-10 2.54754e-13
  190 1146.09 -4.39936e-10 5.31258e-14
  191 1146.09 -4.38983e-10 2.93006e-13
  192 1146.09 -4.39416e-10 -4.16484e-14
  193 1146.09 -4.39286e-10 -2.23341e-14
  194 1146.09 -4.41408e-10 7.44427e-13
  195 1146.09 -4.39286e-10 8.08517e-14
  196 1146.09 -4.39741e-10 -4.83358e-13
  197 1146.09 -4.40347e-10 -8.44431e-14
  198 1146.09 -4.40953e-10 4.19589e-13
  199 1146.09 -4.39134e-10 7.79937e-14
  200 1146.09 -4.38983e-10 -9.80352e-13
  201 1146.09 -4.41105e-10 1.79811e-13
  202 1146.09 -4.40014e-10 2.04892e-13
  203 1146.09 -4.39286e-10 -1.50987e-13
  204 1146.09 -4.40650e-10 -1.20100e-13
  205 1146.09 -4.39134e-10 1.32979e-13
  206 1146.09 -4.40559e-10 6.26296e-13
  207 1146.09 -4.38922e-10 2.02420e-13
  208 1146.09 -4.40377e-10 -7.30234e-13
  209 1146.09 -4.41408e-10 -5.23764e-14
  210 1146.09 -4.40195e-10 1.70993e-13
  211 1146.09 -4.40325e-10 9.41364e-14
  212 1146.09 -4.40377e-10 1.73268e-16
  213 1146.09 -4.38195e-10 -2.46319e-13
  214 1146.09 -4.40650e-10 -3.60824e-14
  215 1146.09 -4.41651e-10 -1.09472e-13
  216 1146.09 -4.41833e-10 -8.29526e-14
  217 1146.09 -4.40499e-10 2.35679e-13
  218 1146.09 -4.40195e-10 9.85679e-14
  219 1146.09 -4.39468e-10 8.18199e-13
  220 1146.09 -4.40499e-10 -6.63811e-14
  221 1146.09 -4.39589e-10 4.24127e-13
  222 1146.09 -4.39741e-10 -5.58710e-13
  223 1146.09 -4.40559e-10 1.58685e-15
  224 1146.09 -4.38558e-10 2.99690e-14
  225 1146.09 -4.39832e-10 7.20938e-13
  226 1146.09 -4.38376e-10 -9.26120e-15
  227 1146.09 -4.39589e-10 -2.87001e-13
  228 1146.09 -4.42924e-10 4.47384e-13
  229 1146.09 -4.38983e-10 1.39963e-13
  230 1146.09 -4.39741e-10 1.31837e-13
  231 1146.09 -4.40559e-10 -4.29764e-13
  232 1146.09 -4.38195e-10 -3.90786e-14
  233 1146.09 -4.40014e-10 4.35938e-13
  234 1146.09 -4.41105e-10 -3.96425e-13
  235 1146.09 -4.39650e-10 -3.39057e-13
  236 1146.09 -4.41495e-10 3.39771e-14
  237 1146.09 -4.39286e-10 -4.97967e-14
  238 1146.09 -4.40559e-10 -1.23709e-13
  239 1146.09 -4.38983e-10 -3.55564e-13
  240 1146.09 -4.41469e-10 -1.47226e-13
  241 1146.09 -4.38528e-10 -2.40376e-13
</Section>

newXOutput 70

<Section columns = "stress_xx | stress_yy | stress_xy">
  1 1160.65 -4.38376e-10 6.88430e-14
  2 1160.65 -4.38376e-10 5.44399e-13
  3 1160.65 -4.38376e-10 2.65991e-13
  4 1160.65 -4.39286e-10 3.98144e-14
  5 1160.65 -4.39286e-10 -1.27759e-13
  6 1160.65 -4.39741e-10 -2.22153e-13
  7 1160.65 -4.38831e-10 1.95544e-13
  8 1160.65 -4.38983e-10 2.60726e-13
  9 1160.65 -4.39286e-10 5.63117e-14
  10 1160.65 -4.38376e-10 -2.81558e-13
  11 1160.65 -4.38073e-10 -2.71142e-13
  12 1160.65 -4.39286e-10 -1.06926e-13
  13 1160.65 -4.39059e-10 -1.91638e-13
  14 1160.65 -4.38983e-10 6.67280e-14
  15 1160.65 -4.38831e-10 2.49129e-13
  16 1160.65 -4.38983e-10 7.30095e-13
  17 1160.65 -4.39286e-10 7.05032e-13
  18 1160.65 -4.38983e-10 2.96205e-13
  19 1160.65 -4.38680e-10 -6.34074e-13
  20 1160.65 -4.37770e-10 5.63117e-13
  21 1160.65 -4.38376e-10 1.08880e-12
  22 1160.65 -4.39286e-10 -2.04414e-13
  23 1160.65 -4.38680e-10 5.31867e-13
  24 1160.65 -4.38680e-10 2.29477e-13
  25 1160.65 -4.39741e-10 0.00000
  26 1160.65 -4.38831e-10 -1.44140e-13
  27 1160.65 -4.36254e-10 -3.21267e-13
  28 1160.65 -4.36785e-10 -4.54042e-13
  29 1160.65 -4.37467e-10 3.44215e-14
  30 1160.65 -4.38073e-10 -1.70673e-13
  31 1160.65 -4.39286e-10 9.19202e-13
  32 1160.65 -4.39286e-10 7.17153e-13
  33 1160.65 -4.38604e-10 3.05490e-13
  34 1160.65 -4.39286e-10 -7.00912e-13
  35 1160.65 -4.39059e-10 -3.57787e-13
  36 1160.65 -4.39589e-10 3.97178e-13
  37 1160.65 -4.38680e-10 3.82744e-15
  38 1160.65 -4.38680e-10 -4.04890e-13
  39 1160.65 -4.38983e-10 -3.60813e-13
  40 1160.65 -4.39286e-10 -1.32567e-12
  41 1160.65 -4.39286e-10 -7.01088e-13
  42 1160.65 -4.39589e-10 -1.21283e-13
  43 1160.65 -4.39892e-10 -2.12071e-13
  44 1160.65 -4.38983e-10 1.46711e-13
  45 1160.65 -4.38680e-10 2.01350e-13
  46 1160.65 -4.39286e-10 3.01912e-13
  47 1160.65 -4.39286e-10 1.60949e-13
  48 1160.65 -4.38680e-10 1.54324e-13
  49 1160.65 -4.38983e-10 5.62306e-14
  50 1160.65 -4.39286e-10 4.43487e-15
  51 1160.65 -4.39286e-10 -1.72107e-14
  52 1160.65 -4.38831e-10 -6.68899e-14
  53 1160.65 -4.38680e-10 -7.77127e-14
  54 1160.65 -4.38831e-10 -6.68899e-14
  55 1160.65 -4.38831e-10 -6.88430e-14
  56 1160.65 -4.38983e-10 4.27625e-14
  57 1160.65 -4.38983e-10 1.10303e-13
  58 1160.65 -4.38225e-10 1.01292e-12
  59 1160.65 -4.38766e-10 -7.09702e-14
  60 1160.65 -4.38831e-10 -2.78577e-13
  61 1160.65 -4.38831e-10 -1.53800e-14
  62 1160.65 -4.38073e-10 -1.72785e-13
  63 1160.65 -4.38195e-10 -2.49643e-13
  64 1160.65 -4.39134e-10 7.16467e-13
  65 1160.65 -4.39589e-10 8.04184e-14
  66 1160.65 -4.39438e-10 -5.15711e-14
  67 1160.65 -4.39134e-10 1.44943e-14
  68 1160.65 -4.37922e-10 -2.50045e-13
  69 1160.65 -4.39156e-10 -3.09132e-13
  70 1160.65 -4.38831e-10 1.32298e-13
  71 1160.65 -4.38831e-10 -1.08129e-14
  72 1160.65 -4.39026e-10 -4.35460e-13
  73 1160.65 -4.39026e-10 -1.96887e-13
  74 1160.65 -4.39468e-10 8.45269e-15
  75 1160.65 -4.38740e-10 3.05693e-13
  76 1160.65 -4.38528e-10 -7.82018e-14
  77 1160.65 -4.38680e-10 -1.90415e-14
  78 1160.65 -4.38831e-10 -3.69028e-13
  79 1160.65 -4.38636e-10 -2.43375e-13
  80 1160.65 -4.38831e-10 -1.00621e-13
  81 1160.65 -4.39134e-10 7.38172e-13
  82 1160.65 -4.38528e-10 7.83579e-13
  83 1160.65 -4.38680e-10 -2.04475e-13
  84 1160.65 -4.39286e-10 -5.16322e-14
  85 1160.65 -4.38983e-10 -1.43383e-13
  86 1160.65 -4.38528e-10 2.70984e-14
  87 1160.65 -4.39134e-10 -4.80165e-14
  88 1160.65 -4.39468e-10 -8.00364e-15
  89 1160.65 -4.39650e-10 1.78577e-13
  90 1160.65 -4.38225e-10 1.83581e-13
  91 1160.65 -4.38922e-10 3.79223e-13
  92 1160.65 -4.38376e-10 9.12050e-14
  93 1160.65 -4.38558e-10 -4.01732e-13
  94 1160.65 -4.38558e-10 -4.18943e-13
  95 1160.65 -4.39286e-10 -3.24466e-13
  96 1160.65 -4.39286e-10 -9.64700e-14
  97 1160.65 -4.38376e-10 -6.90872e-13
  98 1160.65 -4.38922e-10 3.62100e-14
  99 1160.65 -4.38983e-10 3.04281e-13
  100 1160.65 -4.38922e-10 1.52089e-13
  101 1160.65 -4.39134e-10 1.93958e-13
  102 1160.65 -4.39104e-10 -5.24087e-13
  103 1160.65 -4.39286e-10 -9.77721e-14
  104 1160.65 -4.39286e-10 8.32223e-14
  105 1160.65 -4.39104e-10 7.07855e-16
  106 1160.65 -4.39134e-10 1.48102e-13
  107 1160.65 -4.38831e-10 2.68954e-13
  108 1160.65 -4.38983e-10 5.20818e-15
  109 1160.65 -4.39104e-10 -2.28498e-14
  110 1160.65 -4.38558e-10 -6.56721e-13
  111 1160.65 -4.39059e-10 -1.40295e-13
  112 1160.65 -4.38680e-10 9.95550e-14
  113 1160.65 -4.38636e-10 -2.71728e-14
  114 1160.65 -4.39416e-10 1.71250e-13
  115 1160.65 -4.39134e-10 -1.91443e-13
  116 1160.65 -4.38740e-10 -1.22061e-14
  117 1160.65 -4.38376e-10 1.61387e-13
  118 1160.65 -4.39134e-10 -1.01329e-13
  119 1160.65 -4.38117e-10 3.47302e-13
  120 1160.65 -4.39134e-10 -5.25622e-13
  121 1160.65 -4.38766e-10 -3.70898e-14
  122 1160.65 -4.38506e-10 -3.56335e-13
  123 1160.65 -4.38983e-10 9.00920e-14
  124 1160.65 -4.39026e-10 7.06161e-13
  125 1160.65 -4.39400e-10 1.05547e-14
  126 1160.65 -4.39172e-10 1.31118e-13
  127 1160.65 -4.39026e-10 -1.82135e-13
  128 1160.65 -4.38263e-10 -2.69086e-13
  129 1160.65 -4.39172e-10 2.18582e-14
  130 1160.65 -4.38528e-10 -1.83419e-13
  131 1160.65 -4.38983e-10 4.38095e-13
  132 1160.65 -4.38945e-10 -1.00767e-13
  133 1160.65 -4.39156e-10 -1.96207e-13
  134 1160.65 -4.38766e-10 1.20475e-13
  135 1160.65 -4.38766e-10 -9.29765e-14
  136 1160.65 -4.39026e-10 9.76631e-14
  137 1160.65 -4.39026e-10 4.87373e-13
  138 1160.65 -4.38680e-10 -6.05307e-13
  139 1160.65 -4.39156e-10 -5.29749e-14
  140 1160.65 -4.39026e-10 -4.62826e-13
  141 1160.65 -4.38831e-10 1.53800e-14
  142 1160.65 -4.38680e-10 1.31420e-13
  143 1160.65 -4.39156e-10 -6.77099e-14
  144 1160.65 -4.38558e-10 6.42016e-13
  145 1160.65 -4.38922e-10 -8.66199e-13
  146 1160.65 -4.39416e-10 -2.61407e-14
  147 1160.65 -4.38831e-10 -1.63196e-13
  148 1160.65 -4.38680e-10 2.89291e-14
  149 1160.65 -4.37467e-10 -6.50532e-13
  150 1160.65 -4.38680e-10 2.32596e-13
  151 1160.65 -4.39438e-10 -4.30229e-13
  152 1160.65 -4.38680e-10 -9.72829e-14
  153 1160.65 -4.39134e-10 -2.18756e-13
  154 1160.65 -4.39286e-10 -7.44583e-14
  155 1160.65 -4.39286e-10 3.40447e-14
  156 1160.65 -4.38636e-10 8.31418e-14
  157 1160.65 -4.39026e-10 5.03944e-14
  158 1160.65 -4.39134e-10 -8.10703e-14
  159 1160.65 -4.38528e-10 -1.02960e-13
  160 1160.65 -4.38376e-10 -6.49368e-14
  161 1160.65 -4.37831e-10 -2.06529e-13
  162 1160.65 -4.38831e-10 8.49962e-14
  163 1160.65 -4.38983e-10 -1.15492e-13
  164 1160.65 -4.38636e-10 -1.57548e-13
  165 1160.65 -4.38831e-10 1.13304e-13
  166 1160.65 -4.39156e-10 -2.10121e-14
  167 1160.65 -4.38896e-10 -1.29726e-13
  168 1160.65 -4.38376e-10 2.52014e-14
  169 1160.65 -4.39416e-10 -6.31240e-15
  170 1160.65 -4.39286e-10 5.51918e-13
  171 1160.65 -4.38376e-10 1.06159e-13
  172 1160.65 -4.39286e-10 2.90468e-13
  173 1160.65 -4.38831e-10 1.81566e-13
  174 1160.65 -4.38225e-10 4.71405e-13
  175 1160.65 -4.39286e-10 -1.06275e-14
  176 1160.65 -4.39134e-10 7.24847e-14
  177 1160.65 -4.38983e-10 1.89777e-13
  178 1160.65 -4.38528e-10 4.92314e-14
  179 1160.65 -4.38740e-10 6.13242e-14
  180 1160.65 -4.38766e-10 1.33675e-13
  181 1160.65 -4.39134e-10 5.74385e-13
  182 1160.65 -4.38922e-10 -3.40695e-13
  183 1160.65 -4.38376e-10 -4.28114e-13
  184 1160.65 -4.39104e-10 6.52692e-13
  185 1160.65 -4.38831e-10 -2.94940e-15
  186 1160.65 -4.38922e-10 -1.56142e-13
  187 1160.65 -4.39286e-10 5.73074e-13
  188 1160.65 -4.38376e-10 -2.60076e-13
  189 1160.65 -4.39104e-10 -7.81226e-15
  190 1160.65 -4.39416e-10 2.10515e-13
  191 1160.65 -4.38831e-10 -3.39539e-14
  192 1160.65 -4.38506e-10 -5.86389e-13
  193 1160.65 -4.39286e-10 -1.27681e-13
  194 1160.65 -4.38680e-10 7.14470e-14
  195 1160.65 -4.39286e-10 3.34755e-14
  196 1160.65 -4.39134e-10 -2.78492e-13
  197 1160.65 -4.39741e-10 2.99255e-14
  198 1160.65 -4.38831e-10 -2.48194e-13
  199 1160.65 -4.38225e-10 -7.95039e-14
  200 1160.65 -4.38376e-10 2.14586e-13
  201 1160.65 -4.38528e-10 2.53536e-13
  202 1160.65 -4.38376e-10 1.92126e-13
  203 1160.65 -4.38831e-10 -1.44441e-13
  204 1160.65 -4.38983e-10 -1.01338e-13
  205 1160.65 -4.38983e-10 1.86959e-13
  206 1160.65 -4.37649e-10 5.75173e-14
  207 1160.65 -4.39104e-10 1.76423e-13
  208 1160.65 -4.39468e-10 -1.05095e-12
  209 1160.65 -4.38983e-10 2.62272e-13
  210 1160.65 -4.39438e-10 3.65981e-16
  211 1160.65 -4.39286e-10 3.95485e-14
  212 1160.65 -4.38922e-10 5.36880e-13
  213 1160.65 -4.38922e-10 4.42082e-14
  214 1160.65 -4.39134e-10 4.53137e-14
  215 1160.65 -4.38740e-10 4.84263e-13
  216 1160.65 -4.39104e-10 -5.17502e-13
  217 1160.65 -4.38528e-10 8.35091e-13
  218 1160.65 -4.39589e-10 1.50173e-14
  219 1160.65 -4.37831e-10 1.12005e-13
  220 1160.65 -4.38376e-10 1.34024e-13
  221 1160.65 -4.38680e-10 1.14738e-13
  222 1160.65 -4.37619e-10 -6.64834e-14
  223 1160.65 -4.37831e-10 -2.42759e-13
  224 1160.65 -4.38740e-10 4.03001e-13
  225 1160.65 -4.38558e-10 -9.05747e-15
  226 1160.65 -4.38922e-10 -1.68935e-14
  227 1160.65 -4.38225e-10 3.04281e-13
  228 1160.65 -4.38922e-10 1.69569e-13
  229 1160.65 -4.39438e-10 9.46393e-14
  230 1160.65 -4.38680e-10 -2.94090e-13
  231 1160.65 -4.38013e-10 -4.48019e-13
  232 1160.65 -4.38740e-10 -1.39153e-14
  233 1160.65 -4.38558e-10 -4.29269e-13
  234 1160.65 -4.39438e-10 2.48285e-13
  235 1160.65 -4.39286e-10 -6.72864e-13
  236 1160.65 -4.39156e-10 -3.64963e-14
  237 1160.65 -4.39286e-10 4.43150e-13
  238 1160.65 -4.38922e-10 -3.09793e-14
  239 1160.65 -4.39286e-10 -1.89523e-13
  240 1160.65 -4.39104e-10 2.58090e-13
  241 1160.65 -4.38680e-10 5.57988e-13
</Section>

newXOutput 71

<Section columns = "stress_xx | stress_yy | stress_xy">
  1 1175.15 -4.36103e-10 1.14851e-13
  2 1175.15 -4.37922e-10 5.43876e-13
  3 1175.15 -4.37467e-10 1.01121e-14
  4 1175.15 -4.36557e-10 1.18999e-14
  5 1175.15 -4.36557e-10 2.64933e-13
  6 1175.15 -4.36557e-10 -7.90638e-15
  7 1175.15 -4.36557e-10 -7.26139e-14
  8 1175.15 -4.36557e-10 -3.06268e-13
  9 1175.15 -4.36254e-10 -1.12631e-13
  10 1175.15 -4.36557e-10 -2.81578e-13
  11 1175.15 -4.36557e-10 -5.66763e-13
  12 1175.15 -4.36557e-10 -7.21284e-14
  13 1175.15 -4.36557e-10 1.33368e-13
  14 1175.15 -4.36254e-10 -1.79489e-13
  15 1175.15 -4.36330e-10 -1.58128e-14
  16 1175.15 -4.35951e-10 8.16716e-13
  17 1175.15 -4.36557e-10 -1.38840e-28
  18 1175.15 -4.36557e-10 1.83095e-13
  19 1175.15 -4.36254e-10 2.07785e-13
  20 1175.15 -4.36861e-10 3.41500e-13
  21 1175.15 -4.36861e-10 3.62584e-13
  22 1175.15 -4.36254e-10 -2.49953e-13
  23 1175.15 -4.36557e-10 3.30959e-13
  24 1175.15 -4.37467e-10 -4.57738e-14
  25 1175.15 -4.36557e-10 0.00000
  26 1175.15 -4.37240e-10 1.00845e-13
  27 1175.15 -4.36254e-10 4.57738e-14
  28 1175.15 -4.37240e-10 1.02991e-13
  29 1175.15 -4.36557e-10 1.37321e-13
  30 1175.15 -4.38073e-10 -2.13819e-13
  31 1175.15 -4.36254e-10 1.94986e-13
  32 1175.15 -4.36557e-10 1.08162e-12
  33 1175.15 -4.36557e-10 3.75960e-13
  34 1175.15 -4.36557e-10 -5.99237e-13
  35 1175.15 -4.36103e-10 2.49099e-13
  36 1175.15 -4.36254e-10 9.30039e-13
  37 1175.15 -4.36557e-10 -5.30591e-14
  38 1175.15 -4.36557e-10 1.86337e-13
  39 1175.15 -4.36557e-10 1.70615e-13
  40 1175.15 -4.36557e-10 -4.15319e-14
  41 1175.15 -4.37467e-10 1.26819e-13
  42 1175.15 -4.36557e-10 -9.41340e-14
  43 1175.15 -4.35951e-10 4.56550e-14
  44 1175.15 -4.36254e-10 1.18563e-13
  45 1175.15 -4.36557e-10 3.55900e-14
  46 1175.15 -4.36557e-10 -1.09895e-13
  47 1175.15 -4.36557e-10 1.84613e-14
  48 1175.15 -4.36557e-10 6.13651e-14
  49 1175.15 -4.36557e-10 3.78949e-14
  50 1175.15 -4.36557e-10 -1.98006e-14
  51 1175.15 -4.36557e-10 -1.71652e-14
  52 1175.15 -4.36557e-10 7.93890e-14
  53 1175.15 -4.36557e-10 8.80800e-15
  54 1175.15 -4.36557e-10 -2.47335e-14
  55 1175.15 -4.36557e-10 1.37321e-13
  56 1175.15 -4.36254e-10 -2.28869e-14
  57 1175.15 -4.36557e-10 -1.73732e-14
  58 1175.15 -4.38225e-10 -4.70395e-13
  59 1175.15 -4.36817e-10 1.91448e-13
  60 1175.15 -4.36406e-10 -1.28549e-12
  61 1175.15 -4.36406e-10 3.56897e-13
  62 1175.15 -4.36861e-10 -2.44422e-13
  63 1175.15 -4.36376e-10 -3.40058e-13
  64 1175.15 -4.37315e-10 7.88523e-13
  65 1175.15 -4.36557e-10 -7.59429e-14
  66 1175.15 -4.36254e-10 -1.20330e-13
  67 1175.15 -4.36861e-10 1.18353e-13
  68 1175.15 -4.37922e-10 5.25463e-13
  69 1175.15 -4.37077e-10 -1.03088e-13
  70 1175.15 -4.36557e-10 -1.11167e-13
  71 1175.15 -4.36861e-10 -1.57651e-13
  72 1175.15 -4.36168e-10 -2.82252e-13
  73 1175.15 -4.37077e-10 1.74877e-13
  74 1175.15 -4.36376e-10 1.44747e-14
  75 1175.15 -4.38013e-10 -1.87423e-13
  76 1175.15 -4.37164e-10 2.49502e-13
  77 1175.15 -4.36557e-10 -4.75077e-14
  78 1175.15 -4.36557e-10 1.93451e-13
  79 1175.15 -4.36428e-10 -1.91269e-14
  80 1175.15 -4.36406e-10 1.46355e-13
  81 1175.15 -4.36861e-10 5.73837e-13
  82 1175.15 -4.37922e-10 9.11393e-13
  83 1175.15 -4.36557e-10 -3.64977e-14
  84 1175.15 -4.36103e-10 1.61491e-13
  85 1175.15 -4.35800e-10 -2.33238e-13
  86 1175.15 -4.37164e-10 4.65575e-13
  87 1175.15 -4.36557e-10 -1.12961e-14
  88 1175.15 -4.36376e-10 -5.99448e-13
  89 1175.15 -4.36376e-10 1.47350e-13
  90 1175.15 -4.36254e-10 -1.29138e-13
  91 1175.15 -4.38195e-10 -3.09701e-13
  92 1175.15 -4.36557e-10 -1.01243e-13
  93 1175.15 -4.36376e-10 -1.77436e-13
  94 1175.15 -4.36194e-10 1.96765e-13
  95 1175.15 -4.36376e-10 1.09857e-13
  96 1175.15 -4.36557e-10 1.66459e-13
  97 1175.15 -4.37103e-10 -8.51226e-13
  98 1175.15 -4.36557e-10 -7.36334e-14
  99 1175.15 -4.36103e-10 -2.50109e-13
  100 1175.15 -4.36557e-10 -5.38466e-14
  101 1175.15 -4.35951e-10 9.50847e-14
  102 1175.15 -4.36739e-10 -8.44235e-13
  103 1175.15 -4.36861e-10 5.57088e-13
  104 1175.15 -4.37467e-10 1.50242e-13
  105 1175.15 -4.36376e-10 -3.76323e-13
  106 1175.15 -4.35951e-10 -3.29779e-14
  107 1175.15 -4.37467e-10 -3.41128e-13
  108 1175.15 -4.36557e-10 -7.79368e-15
  109 1175.15 -4.36194e-10 -2.03548e-13
  110 1175.15 -4.36921e-10 -5.97723e-13
  111 1175.15 -4.36444e-10 3.13045e-14
  112 1175.15 -4.37315e-10 1.46073e-13
  113 1175.15 -4.36947e-10 2.75219e-13
  114 1175.15 -4.36947e-10 2.98899e-13
  115 1175.15 -4.36861e-10 -8.57323e-14
  116 1175.15 -4.36194e-10 1.56297e-13
  117 1175.15 -4.37467e-10 5.29121e-13
  118 1175.15 -4.36406e-10 -8.92275e-14
  119 1175.15 -4.36557e-10 -1.01223e-13
  120 1175.15 -4.36709e-10 2.70993e-13
  121 1175.15 -4.36947e-10 -2.71373e-14
  122 1175.15 -4.37207e-10 -4.95026e-13
  123 1175.15 -4.36254e-10 -5.68458e-13
  124 1175.15 -4.38376e-10 -2.72698e-13
  125 1175.15 -4.36557e-10 -2.34981e-14
  126 1175.15 -4.36216e-10 5.19507e-15
  127 1175.15 -4.36817e-10 6.02342e-13
  128 1175.15 -4.36103e-10 -2.79168e-13
  129 1175.15 -4.36557e-10 -1.04253e-13
  130 1175.15 -4.36557e-10 1.80911e-13
  131 1175.15 -4.36406e-10 3.02038e-14
  132 1175.15 -4.37353e-10 -3.52826e-13
  133 1175.15 -4.36428e-10 -5.05414e-13
  134 1175.15 -4.36817e-10 -1.68947e-13
  135 1175.15 -4.36557e-10 3.93001e-13
  136 1175.15 -4.36557e-10 -3.16984e-14
  137 1175.15 -4.37337e-10 6.13841e-14
  138 1175.15 -4.37467e-10 6.40487e-14
  139 1175.15 -4.36557e-10 3.08527e-14
  140 1175.15 -4.37207e-10 -1.79558e-13
  141 1175.15 -4.36254e-10 1.98683e-13
  142 1175.15 -4.36406e-10 2.95103e-14
  143 1175.15 -4.37337e-10 7.20640e-14
  144 1175.15 -4.38013e-10 3.75043e-14
  145 1175.15 -4.36557e-10 2.02291e-14
  146 1175.15 -4.36687e-10 3.02937e-13
  147 1175.15 -4.36557e-10 -2.80176e-13
  148 1175.15 -4.36557e-10 -5.87257e-14
  149 1175.15 -4.36557e-10 2.84283e-13
  150 1175.15 -4.36406e-10 -2.36907e-13
  151 1175.15 -4.36861e-10 1.42176e-13
  152 1175.15 -4.36861e-10 -3.67855e-13
  153 1175.15 -4.37467e-10 2.10802e-13
  154 1175.15 -4.36012e-10 4.23533e-13
  155 1175.15 -4.36254e-10 -2.25449e-13
  156 1175.15 -4.37467e-10 2.37221e-13
  157 1175.15 -4.36557e-10 -1.64340e-13
  158 1175.15 -4.36103e-10 2.29398e-13
  159 1175.15 -4.36103e-10 3.20044e-13
  160 1175.15 -4.36557e-10 2.11392e-14
  161 1175.15 -4.36012e-10 2.65613e-13
  162 1175.15 -4.36557e-10 -2.71366e-13
  163 1175.15 -4.36861e-10 -2.57634e-13
  164 1175.15 -4.36687e-10 6.03367e-13
  165 1175.15 -4.36254e-10 -9.82490e-14
  166 1175.15 -4.36557e-10 -6.50196e-15
  167 1175.15 -4.36947e-10 -7.81499e-14
  168 1175.15 -4.36947e-10 -2.70779e-13
  169 1175.15 -4.36298e-10 -3.73324e-14
  170 1175.15 -4.36376e-10 7.64860e-13
  171 1175.15 -4.36168e-10 -2.68342e-13
  172 1175.15 -4.36406e-10 -5.25809e-13
  173 1175.15 -4.37467e-10 -5.80459e-14
  174 1175.15 -4.36861e-10 4.99906e-13
  175 1175.15 -4.36557e-10 -2.96702e-14
  176 1175.15 -4.36254e-10 1.76021e-13
  177 1175.15 -4.37164e-10 -6.09166e-13
  178 1175.15 -4.37012e-10 1.73478e-17
  179 1175.15 -4.36376e-10 6.44162e-14
  180 1175.15 -4.36557e-10 -1.20676e-14
  181 1175.15 -4.37315e-10 -2.56472e-13
  182 1175.15 -4.37649e-10 4.69427e-13
  183 1175.15 -4.37012e-10 -9.41484e-14
  184 1175.15 -4.36376e-10 2.45015e-13
  185 1175.15 -4.36406e-10 -1.11868e-13
  186 1175.15 -4.36194e-10 -5.21655e-13
  187 1175.15 -4.36406e-10 -3.77424e-13
  188 1175.15 -4.36557e-10 -7.99294e-14
  189 1175.15 -4.36557e-10 2.56666e-13
  190 1175.15 -4.37727e-10 -1.81997e-13
  191 1175.15 -4.36254e-10 8.25316e-14
  192 1175.15 -4.36298e-10 4.47335e-13
  193 1175.15 -4.36194e-10 4.81256e-13
  194 1175.15 -4.37012e-10 -1.06944e-13
  195 1175.15 -4.36557e-10 1.16168e-14
  196 1175.15 -4.36254e-10 -6.17893e-13
  197 1175.15 -4.36103e-10 -8.27049e-14
  198 1175.15 -4.36254e-10 -4.16195e-13
  199 1175.15 -4.36557e-10 -1.87673e-13
  200 1175.15 -4.36861e-10 -2.36741e-13
  201 1175.15 -4.37467e-10 1.51669e-14
  202 1175.15 -4.38013e-10 -1.01963e-12
  203 1175.15 -4.36254e-10 -1.24491e-13
  204 1175.15 -4.36254e-10 -1.34617e-13
  205 1175.15 -4.36557e-10 6.58865e-15
  206 1175.15 -4.36739e-10 -2.51340e-13
  207 1175.15 -4.36557e-10 -1.45565e-13
  208 1175.15 -4.36376e-10 -1.76676e-13
  209 1175.15 -4.37922e-10 -6.18293e-13
  210 1175.15 -4.36557e-10 7.30127e-14
  211 1175.15 -4.36557e-10 1.52778e-13
  212 1175.15 -4.36194e-10 2.59829e-13
  213 1175.15 -4.36557e-10 9.95618e-15
  214 1175.15 -4.36254e-10 1.12991e-13
  215 1175.15 -4.38013e-10 -4.64711e-13
  216 1175.15 -4.36557e-10 -2.11205e-13
  217 1175.15 -4.38073e-10 -7.72433e-14
  218 1175.15 -4.36406e-10 4.37766e-14
  219 1175.15 -4.35466e-10 1.53134e-14
  220 1175.15 -4.37164e-10 -2.98778e-13
  221 1175.15 -4.36557e-10 1.16238e-13
  222 1175.15 -4.36861e-10 2.31435e-13
  223 1175.15 -4.36557e-10 -3.38726e-13
  224 1175.15 -4.36376e-10 -4.38180e-14
  225 1175.15 -4.36012e-10 6.88958e-13
  226 1175.15 -4.36557e-10 1.79766e-14
  227 1175.15 -4.36861e-10 2.84526e-14
  228 1175.15 -4.37467e-10 2.62991e-13
  229 1175.15 -4.36254e-10 -1.43979e-13
  230 1175.15 -4.36861e-10 1.18943e-14
  231 1175.15 -4.36376e-10 -2.57665e-13
  232 1175.15 -4.36557e-10 -3.59449e-13
  233 1175.15 -4.36921e-10 9.52595e-13
  234 1175.15 -4.36406e-10 -2.51028e-13
  235 1175.15 -4.37103e-10 -4.15388e-13
  236 1175.15 -4.36298e-10 1.19874e-13
  237 1175.15 -4.36557e-10 -2.59995e-13
  238 1175.15 -4.36739e-10 3.91553e-13
  239 1175.15 -4.36254e-10 -3.69311e-14
  240 1175.15 -4.36376e-10 3.82336e-13
  241 1175.15 -4.35496e-10 1.13533e-13
</Section>

newXOutput 72

<Section columns = "stress_xx | stress_yy | stress_xy">
  1 1189.59 -4.36557e-10 0.00000
  2 1189.59 -4.37012e-10 6.80313e-13
  3 1189.59 -4.36557e-10 4.30413e-13
  4 1189.59 -4.36557e-10 2.01929e-15
  5 1189.59 -4.36557e-10 7.64792e-14
  6 1189.59 -4.36557e-10 2.29438e-13
  7 1189.59 -4.36557e-10 -1.44958e-13
  8 1189.59 -4.36557e-10 -1.98611e-13
  9 1189.59 -4.36557e-10 -5.63195e-14
  10 1189.59 -4.37164e-10 -2.13334e-14
  11 1189.59 -4.37770e-10 -1.79625e-13
  12 1189.59 -4.36557e-10 3.66396e-13
  13 1189.59 -4.37694e-10 5.01115e-13
  14 1189.59 -4.36254e-10 5.66181e-13
  15 1189.59 -4.36557e-10 5.12235e-13
  16 1189.59 -4.36557e-10 4.56528e-14
  17 1189.59 -4.36557e-10 4.32208e-13
  18 1189.59 -4.37467e-10 -2.92264e-13
  19 1189.59 -4.36557e-10 -9.28417e-13
  20 1189.59 -4.37467e-10 9.13056e-14
  21 1189.59 -4.36557e-10 -5.87514e-13
  22 1189.59 -4.37164e-10 -6.57486e-13
  23 1189.59 -4.36557e-10 3.20001e-14
  24 1189.59 -4.37164e-10 -2.25278e-13
  25 1189.59 -4.37467e-10 2.05438e-13
  26 1189.59 -4.37012e-10 1.17699e-13
  27 1189.59 -4.36557e-10 3.42396e-13
  28 1189.59 -4.36103e-10 -6.32037e-15
  29 1189.59 -4.35648e-10 1.88318e-13
  30 1189.59 -4.36557e-10 -4.42261e-14
  31 1189.59 -4.36557e-10 3.83014e-13
  32 1189.59 -4.36103e-10 -1.02471e-12
  33 1189.59 -4.36785e-10 -1.02796e-12
  34 1189.59 -4.36254e-10 -3.50943e-13
  35 1189.59 -4.36557e-10 1.03582e-12
  36 1189.59 -4.36861e-10 6.77504e-13
  37 1189.59 -4.37164e-10 -4.35114e-13
  38 1189.59 -4.36557e-10 -2.91723e-13
  39 1189.59 -4.35648e-10 -2.74437e-13
  40 1189.59 -4.36861e-10 -1.45973e-12
  41 1189.59 -4.36861e-10 -1.86315e-13
  42 1189.59 -4.36861e-10 1.90772e-13
  43 1189.59 -4.36254e-10 -1.67406e-13
  44 1189.59 -4.36254e-10 -2.26531e-13
  45 1189.59 -4.36557e-10 1.62893e-13
  46 1189.59 -4.36254e-10 -1.80517e-15
  47 1189.59 -4.36557e-10 1.43784e-13
  48 1189.59 -4.36557e-10 -3.40367e-14
  49 1189.59 -4.36557e-10 -1.34299e-13
  50 1189.59 -4.36557e-10 -1.10399e-14
  51 1189.59 -4.36557e-10 -1.71198e-14
  52 1189.59 -4.36557e-10 8.83984e-15
  53 1189.59 -4.36557e-10 -2.28264e-14
  54 1189.59 -4.36557e-10 -1.65599e-14
  55 1189.59 -4.36557e-10 1.36958e-13
  56 1189.59 -4.36557e-10 1.33918e-13
  57 1189.59 -4.36406e-10 -1.02932e-13
  58 1189.59 -4.36557e-10 -4.36262e-13
  59 1189.59 -4.37077e-10 -7.38051e-14
  60 1189.59 -4.36557e-10 -3.27793e-13
  61 1189.59 -4.36861e-10 2.37891e-13
  62 1189.59 -4.36709e-10 -3.51256e-13
  63 1189.59 -4.35830e-10 -2.43838e-13
  64 1189.59 -4.37012e-10 7.36259e-13
  65 1189.59 -4.36406e-10 -1.63198e-13
  66 1189.59 -4.36557e-10 -1.24531e-14
  67 1189.59 -4.37770e-10 -1.06999e-13
  68 1189.59 -4.36709e-10 -7.66526e-13
  69 1189.59 -4.37597e-10 -5.60514e-13
  70 1189.59 -4.36444e-10 7.76157e-14
  71 1189.59 -4.36557e-10 1.93958e-13
  72 1189.59 -4.36687e-10 2.22467e-14
  73 1189.59 -4.36817e-10 1.87152e-13
  74 1189.59 -4.36557e-10 -1.30841e-13
  75 1189.59 -4.36557e-10 -7.60313e-14
  76 1189.59 -4.37012e-10 -2.54184e-13
  77 1189.59 -4.36861e-10 -1.16268e-14
  78 1189.59 -4.37164e-10 3.33380e-13
  79 1189.59 -4.37597e-10 -3.90076e-13
  80 1189.59 -4.36557e-10 -1.43652e-13
  81 1189.59 -4.37315e-10 1.50852e-13
  82 1189.59 -4.36861e-10 2.75814e-13
  83 1189.59 -4.36861e-10 -2.14238e-13
  84 1189.59 -4.36557e-10 4.26129e-14
  85 1189.59 -4.36557e-10 3.65649e-13
  86 1189.59 -4.36557e-10 3.34931e-14
  87 1189.59 -4.36557e-10 -4.33863e-14
  88 1189.59 -4.37285e-10 2.66681e-13
  89 1189.59 -4.36557e-10 7.59511e-14
  90 1189.59 -4.37164e-10 3.11977e-15
  91 1189.59 -4.36557e-10 -3.08480e-14
  92 1189.59 -4.37103e-10 -1.69054e-13
  93 1189.59 -4.35830e-10 -5.36954e-13
  94 1189.59 -4.37831e-10 2.41389e-13
  95 1189.59 -4.36739e-10 -1.21327e-13
  96 1189.59 -4.37164e-10 3.39476e-13
  97 1189.59 -4.36739e-10 -5.38875e-14
  98 1189.59 -4.36557e-10 3.84474e-14
  99 1189.59 -4.36406e-10 -2.49224e-13
  100 1189.59 -4.37103e-10 1.89438e-14
  101 1189.59 -4.37467e-10 -9.81858e-14
  102 1189.59 -4.36557e-10 -3.44541e-13
  103 1189.59 -4.36861e-10 3.89063e-13
  104 1189.59 -4.36739e-10 -3.46780e-13
  105 1189.59 -4.36557e-10 5.01147e-13
  106 1189.59 -4.36709e-10 -2.91277e-13
  107 1189.59 -4.37467e-10 3.28129e-14
  108 1189.59 -4.36557e-10 -4.43464e-14
  109 1189.59 -4.37103e-10 -2.92480e-14
  110 1189.59 -4.36194e-10 -2.49790e-13
  111 1189.59 -4.37240e-10 1.92523e-13
  112 1189.59 -4.36709e-10 -1.62399e-13
  113 1189.59 -4.36168e-10 -1.73048e-13
  114 1189.59 -4.37337e-10 -3.32322e-13
  115 1189.59 -4.36557e-10 -5.17731e-13
  116 1189.59 -4.36557e-10 6.40001e-15
  117 1189.59 -4.37164e-10 -6.90930e-14
  118 1189.59 -4.36557e-10 -1.44357e-13
  119 1189.59 -4.36817e-10 8.42962e-14
  120 1189.59 -4.37619e-10 5.02141e-13
  121 1189.59 -4.36557e-10 -8.01593e-14
  122 1189.59 -4.36557e-10 -2.05324e-13
  123 1189.59 -4.37164e-10 -4.49925e-13
  124 1189.59 -4.36947e-10 7.23717e-14
  125 1189.59 -4.37353e-10 1.90983e-13
  126 1189.59 -4.36557e-10 -9.20997e-15
  127 1189.59 -4.36947e-10 3.24338e-14
  128 1189.59 -4.37126e-10 -1.09599e-13
  129 1189.59 -4.36444e-10 3.55991e-14
  130 1189.59 -4.36557e-10 -2.10825e-13
  131 1189.59 -4.37770e-10 4.15977e-13
  132 1189.59 -4.36671e-10 2.05448e-13
  133 1189.59 -4.36817e-10 2.95128e-13
  134 1189.59 -4.36687e-10 2.28935e-13
  135 1189.59 -4.36687e-10 -5.14006e-13
  136 1189.59 -4.36557e-10 -3.79157e-14
  137 1189.59 -4.37077e-10 9.00744e-14
  138 1189.59 -4.37467e-10 -1.83118e-13
  139 1189.59 -4.36428e-10 -1.30856e-14
  140 1189.59 -4.36947e-10 -5.69914e-13
  141 1189.59 -4.37012e-10 -6.06129e-14
  142 1189.59 -4.37315e-10 -1.69705e-13
  143 1189.59 -4.36687e-10 -1.86970e-13
  144 1189.59 -4.36921e-10 1.23494e-12
  145 1189.59 -4.36376e-10 -7.75959e-14
  146 1189.59 -4.36428e-10 -8.89689e-14
  147 1189.59 -4.36557e-10 -6.68669e-13
  148 1189.59 -4.37012e-10 -1.20000e-14
  149 1189.59 -4.36406e-10 2.85330e-13
  150 1189.59 -4.36861e-10 -5.87330e-13
  151 1189.59 -4.36406e-10 -7.66928e-14
  152 1189.59 -4.37315e-10 -6.94420e-13
  153 1189.59 -4.36557e-10 -1.32612e-13
  154 1189.59 -4.36557e-10 3.17114e-14
  155 1189.59 -4.37164e-10 1.72948e-13
  156 1189.59 -4.37727e-10 -1.65987e-13
  157 1189.59 -4.36947e-10 -2.16158e-13
  158 1189.59 -4.36709e-10 1.92930e-14
  159 1189.59 -4.37012e-10 6.76779e-13
  160 1189.59 -4.36557e-10 1.24791e-15
  161 1189.59 -4.36376e-10 -1.87521e-14
  162 1189.59 -4.37467e-10 -1.46505e-13
  163 1189.59 -4.36557e-10 3.59981e-15
  164 1189.59 -4.36557e-10 -4.26544e-13
  165 1189.59 -4.36406e-10 -1.57238e-13
  166 1189.59 -4.36557e-10 -2.19427e-14
  167 1189.59 -4.36947e-10 -2.82363e-13
  168 1189.59 -4.36168e-10 -3.41543e-14
  169 1189.59 -4.36947e-10 4.34851e-14
  170 1189.59 -4.37467e-10 3.07549e-13
  171 1189.59 -4.37077e-10 8.20789e-14
  172 1189.59 -4.36557e-10 2.20318e-13
  173 1189.59 -4.36406e-10 -4.29758e-13
  174 1189.59 -4.36557e-10 1.35465e-13
  175 1189.59 -4.36557e-10 -1.12201e-14
  176 1189.59 -4.36557e-10 9.24523e-14
  177 1189.59 -4.36861e-10 1.02121e-14
  178 1189.59 -4.36861e-10 -1.80558e-13
  179 1189.59 -4.36557e-10 3.05917e-14
  180 1189.59 -4.37077e-10 -4.48453e-14
  181 1189.59 -4.36557e-10 -6.56798e-14
  182 1189.59 -4.37103e-10 -6.32965e-13
  183 1189.59 -4.36861e-10 -1.17972e-13
  184 1189.59 -4.36739e-10 1.40158e-13
  185 1189.59 -4.36557e-10 -2.96398e-14
  186 1189.59 -4.36194e-10 2.98875e-14
  187 1189.59 -4.37164e-10 -5.77888e-13
  188 1189.59 -4.37467e-10 -5.88829e-13
  189 1189.59 -4.36739e-10 -3.17469e-13
  190 1189.59 -4.36687e-10 -4.73567e-14
  191 1189.59 -4.36406e-10 -3.13544e-13
  192 1189.59 -4.36557e-10 -9.14288e-15
  193 1189.59 -4.37103e-10 1.80160e-13
  194 1189.59 -4.36861e-10 1.35465e-13
  195 1189.59 -4.36406e-10 -9.60391e-14
  196 1189.59 -4.36406e-10 1.40915e-13
  197 1189.59 -4.37012e-10 -7.55860e-14
  198 1189.59 -4.37315e-10 -1.68212e-13
  199 1189.59 -4.36557e-10 -1.24719e-13
  200 1189.59 -4.36254e-10 -3.46077e-13
  201 1189.59 -4.36406e-10 3.09517e-13
  202 1189.59 -4.36557e-10 3.70748e-13
  203 1189.59 -4.36861e-10 1.89278e-13
  204 1189.59 -4.37619e-10 -3.06663e-13
  205 1189.59 -4.36406e-10 4.11997e-14
  206 1189.59 -4.37103e-10 -3.38813e-13
  207 1189.59 -4.36557e-10 -2.05983e-14
  208 1189.59 -4.36557e-10 8.67944e-13
  209 1189.59 -4.36103e-10 7.91459e-14
  210 1189.59 -4.36406e-10 2.96128e-14
  211 1189.59 -4.36557e-10 8.28334e-14
  212 1189.59 -4.36557e-10 -6.93750e-14
  213 1189.59 -4.36557e-10 -3.84754e-14
  214 1189.59 -4.36709e-10 1.74852e-13
  215 1189.59 -4.36376e-10 6.37379e-13
  216 1189.59 -4.37103e-10 -3.57844e-13
  217 1189.59 -4.37012e-10 9.98655e-14
  218 1189.59 -4.36557e-10 -1.10971e-13
  219 1189.59 -4.36557e-10 4.36475e-13
  220 1189.59 -4.36557e-10 1.21597e-14
  221 1189.59 -4.36709e-10 -2.51704e-13
  222 1189.59 -4.36557e-10 -1.24633e-12
  223 1189.59 -4.38013e-10 -1.86206e-13
  224 1189.59 -4.36557e-10 -8.85750e-14
  225 1189.59 -4.36921e-10 3.47532e-13
  226 1189.59 -4.37103e-10 2.87869e-13
  227 1189.59 -4.37164e-10 -2.21064e-13
  228 1189.59 -4.36739e-10 -1.48863e-13
  229 1189.59 -4.36861e-10 -5.10530e-14
  230 1189.59 -4.36861e-10 2.92795e-14
  231 1189.59 -4.37285e-10 8.30708e-14
  232 1189.59 -4.37103e-10 -6.99834e-14
  233 1189.59 -4.36557e-10 -1.15071e-13
  234 1189.59 -4.36709e-10 -4.14128e-14
  235 1189.59 -4.37103e-10 -5.65736e-13
  236 1189.59 -4.36557e-10 2.40112e-14
  237 1189.59 -4.36739e-10 2.93538e-14
  238 1189.59 -4.36739e-10 -3.38813e-13
  239 1189.59 -4.36861e-10 4.29169e-13
  240 1189.59 -4.38558e-10 9.74709e-14
  241 1189.59 -4.36557e-10 5.63195e-14
</Section>

newXOutput 73

<Section columns = "stress_xx | stress_yy | stress_xy">
  1 1203.98 -4.35193e-10 0.00000
  2 1203.98 -4.33829e-10 2.04895e-13
  3 1203.98 -4.35193e-10 3.51880e-13
  4 1203.98 -4.33829e-10 5.24801e-14
  5 1203.98 -4.33829e-10 2.00684e-14
  6 1203.98 -4.33829e-10 7.63915e-14
  7 1203.98 -4.34511e-10 8.04381e-14
  8 1203.98 -4.33829e-10 -1.57772e-28
  9 1203.98 -4.34435e-10 1.92920e-13
  10 1203.98 -4.34435e-10 3.64258e-13
  11 1203.98 -4.35345e-10 -8.07079e-13
  12 1203.98 -4.35648e-10 -2.38452e-13
  13 1203.98 -4.34511e-10 6.02051e-14
  14 1203.98 -4.34738e-10 -1.58178e-13
  15 1203.98 -4.35193e-10 -2.00848e-13
  16 1203.98 -4.35345e-10 6.78246e-13
  17 1203.98 -4.34435e-10 4.52954e-13
  18 1203.98 -4.35042e-10 -5.87182e-13
  19 1203.98 -4.34738e-10 -2.70825e-13
  20 1203.98 -4.35042e-10 1.15515e-12
  21 1203.98 -4.34435e-10 1.34228e-13
  22 1203.98 -4.34132e-10 -2.97144e-13
  23 1203.98 -4.34132e-10 2.03711e-13
  24 1203.98 -4.34132e-10 4.55322e-14
  25 1203.98 -4.33829e-10 1.98793e-28
  26 1203.98 -4.34284e-10 -6.40297e-14
  27 1203.98 -4.34435e-10 2.27661e-14
  28 1203.98 -4.34966e-10 2.94536e-13
  29 1203.98 -4.35193e-10 2.21970e-13
  30 1203.98 -4.35042e-10 -3.67581e-13
  31 1203.98 -4.35042e-10 2.71843e-13
  32 1203.98 -4.36557e-10 -1.27634e-12
  33 1203.98 -4.34966e-10 -7.77791e-13
  34 1203.98 -4.34435e-10 8.46185e-14
  35 1203.98 -4.35875e-10 3.88806e-13
  36 1203.98 -4.34738e-10 2.91805e-13
  37 1203.98 -4.35042e-10 7.49409e-13
  38 1203.98 -4.36557e-10 4.65510e-13
  39 1203.98 -4.35648e-10 -1.15135e-13
  40 1203.98 -4.34738e-10 -2.62155e-13
  41 1203.98 -4.36557e-10 5.33588e-14
  42 1203.98 -4.35648e-10 -1.02868e-13
  43 1203.98 -4.35648e-10 -5.10688e-13
  44 1203.98 -4.33829e-10 -1.15398e-13
  45 1203.98 -4.35648e-10 2.11348e-13
  46 1203.98 -4.36557e-10 1.41962e-13
  47 1203.98 -4.34738e-10 1.93964e-13
  48 1203.98 -4.33829e-10 1.44764e-14
  49 1203.98 -4.33829e-10 -3.97633e-14
  50 1203.98 -4.33829e-10 3.71430e-14
  51 1203.98 -4.33829e-10 3.41492e-14
  52 1203.98 -4.33829e-10 -2.20773e-14
  53 1203.98 -4.34738e-10 -5.69153e-14
  54 1203.98 -4.35193e-10 -8.31523e-15
  55 1203.98 -4.35193e-10 0.00000
  56 1203.98 -4.36557e-10 -3.38531e-14
  57 1203.98 -4.33829e-10 -7.44505e-14
  58 1203.98 -4.34587e-10 1.15640e-13
  59 1203.98 -4.34479e-10 -2.46446e-13
  60 1203.98 -4.35648e-10 -5.95600e-13
  61 1203.98 -4.35042e-10 -5.74582e-14
  62 1203.98 -4.35042e-10 3.37268e-13
  63 1203.98 -4.34738e-10 2.87208e-13
  64 1203.98 -4.35496e-10 -4.94143e-13
  65 1203.98 -4.36406e-10 -6.11929e-15
  66 1203.98 -4.34284e-10 -5.27618e-14
  67 1203.98 -4.34890e-10 1.52783e-13
  68 1203.98 -4.35042e-10 -2.84001e-13
  69 1203.98 -4.34738e-10 -5.23337e-13
  70 1203.98 -4.34625e-10 -1.78673e-13
  71 1203.98 -4.34738e-10 -1.62225e-13
  72 1203.98 -4.34868e-10 -4.16788e-13
  73 1203.98 -4.34868e-10 -3.51150e-13
  74 1203.98 -4.33829e-10 -7.29951e-14
  75 1203.98 -4.34738e-10 1.33004e-13
  76 1203.98 -4.34890e-10 -1.64166e-13
  77 1203.98 -4.34738e-10 -7.18350e-14
  78 1203.98 -4.34738e-10 -3.74101e-13
  79 1203.98 -4.35388e-10 3.64826e-14
  80 1203.98 -4.35345e-10 -7.24962e-13
  81 1203.98 -4.34284e-10 3.00467e-13
  82 1203.98 -4.35193e-10 5.65079e-13
  83 1203.98 -4.34132e-10 9.01597e-14
  84 1203.98 -4.35042e-10 -7.74443e-14
  85 1203.98 -4.35193e-10 5.84287e-14
  86 1203.98 -4.34132e-10 -7.48781e-14
  87 1203.98 -4.34587e-10 3.75233e-14
  88 1203.98 -4.35284e-10 -1.56276e-12
  89 1203.98 -4.35466e-10 4.78088e-14
  90 1203.98 -4.36103e-10 -1.71075e-13
  91 1203.98 -4.34193e-10 1.21230e-13
  92 1203.98 -4.33829e-10 -1.91660e-13
  93 1203.98 -4.36921e-10 6.88431e-13
  94 1203.98 -4.34375e-10 3.36852e-14
  95 1203.98 -4.34011e-10 1.61034e-13
  96 1203.98 -4.35496e-10 -2.58611e-13
  97 1203.98 -4.34557e-10 -5.84523e-13
  98 1203.98 -4.35466e-10 1.91959e-15
  99 1203.98 -4.35800e-10 -7.50278e-13
  100 1203.98 -4.34375e-10 -9.45518e-14
  101 1203.98 -4.34587e-10 -1.80945e-13
  102 1203.98 -4.34557e-10 -8.67448e-13
  103 1203.98 -4.35496e-10 3.39880e-13
  104 1203.98 -4.34375e-10 -2.71417e-14
  105 1203.98 -4.35102e-10 1.59889e-13
  106 1203.98 -4.34890e-10 6.54526e-14
  107 1203.98 -4.34132e-10 -2.91929e-13
  108 1203.98 -4.35193e-10 -9.89068e-14
  109 1203.98 -4.34920e-10 -2.67864e-14
  110 1203.98 -4.35830e-10 4.58171e-13
  111 1203.98 -4.34511e-10 -5.90455e-13
  112 1203.98 -4.34284e-10 2.13693e-13
  113 1203.98 -4.36428e-10 6.67531e-14
  114 1203.98 -4.34479e-10 2.59730e-13
  115 1203.98 -4.34587e-10 -1.44269e-13
  116 1203.98 -4.35830e-10 -3.05566e-14
  117 1203.98 -4.34587e-10 3.89525e-14
  118 1203.98 -4.34738e-10 -1.08867e-13
  119 1203.98 -4.36038e-10 5.39309e-14
  120 1203.98 -4.35648e-10 -3.83824e-13
  121 1203.98 -4.34089e-10 1.58479e-14
  122 1203.98 -4.34738e-10 -4.59435e-13
  123 1203.98 -4.34587e-10 -8.55929e-13
  124 1203.98 -4.33959e-10 -9.28941e-14
  125 1203.98 -4.34966e-10 4.61874e-13
  126 1203.98 -4.34397e-10 -1.40656e-13
  127 1203.98 -4.34998e-10 -4.01203e-13
  128 1203.98 -4.34966e-10 -5.88728e-14
  129 1203.98 -4.35534e-10 4.84917e-14
  130 1203.98 -4.35496e-10 -4.27868e-13
  131 1203.98 -4.33829e-10 -2.40567e-13
  132 1203.98 -4.35421e-10 -1.08927e-13
  133 1203.98 -4.34868e-10 1.72804e-13
  134 1203.98 -4.35258e-10 -3.04410e-14
  135 1203.98 -4.34089e-10 -3.22485e-13
  136 1203.98 -4.34089e-10 9.57203e-14
  137 1203.98 -4.34349e-10 2.37776e-13
  138 1203.98 -4.34738e-10 -3.28826e-14
  139 1203.98 -4.33829e-10 -3.24854e-14
  140 1203.98 -4.35258e-10 5.39619e-13
  141 1203.98 -4.34284e-10 -1.94663e-13
  142 1203.98 -4.34587e-10 1.82129e-13
  143 1203.98 -4.33829e-10 -1.08567e-14
  144 1203.98 -4.35102e-10 6.06170e-13
  145 1203.98 -4.34375e-10 -4.65485e-13
  146 1203.98 -4.34219e-10 -3.45691e-13
  147 1203.98 -4.34435e-10 -4.24326e-14
  148 1203.98 -4.35193e-10 -3.64028e-14
  149 1203.98 -4.34890e-10 -2.06556e-13
  150 1203.98 -4.34890e-10 -5.71154e-14
  151 1203.98 -4.34284e-10 -7.65561e-14
  152 1203.98 -4.34435e-10 1.13386e-13
  153 1203.98 -4.35345e-10 -2.69755e-13
  154 1203.98 -4.34738e-10 -3.22285e-13
  155 1203.98 -4.35042e-10 1.20233e-13
  156 1203.98 -4.34738e-10 2.30331e-13
  157 1203.98 -4.35388e-10 -1.02243e-13
  158 1203.98 -4.35496e-10 5.38309e-14
  159 1203.98 -4.34587e-10 5.91861e-13
  160 1203.98 -4.34375e-10 -3.78405e-14
  161 1203.98 -4.34920e-10 -5.64034e-13
  162 1203.98 -4.35042e-10 -2.79889e-14
  163 1203.98 -4.35800e-10 -9.28673e-13
  164 1203.98 -4.34738e-10 -4.83199e-13
  165 1203.98 -4.34738e-10 -1.32567e-13
  166 1203.98 -4.33829e-10 -1.89745e-14
  167 1203.98 -4.34349e-10 -2.01441e-13
  168 1203.98 -4.35518e-10 -4.72604e-13
  169 1203.98 -4.35388e-10 3.31199e-14
  170 1203.98 -4.35102e-10 2.90840e-13
  171 1203.98 -4.36038e-10 -3.48711e-13
  172 1203.98 -4.34284e-10 -2.76516e-13
  173 1203.98 -4.34587e-10 -1.46242e-13
  174 1203.98 -4.34132e-10 2.72009e-13
  175 1203.98 -4.34284e-10 4.89181e-14
  176 1203.98 -4.35193e-10 -2.23220e-14
  177 1203.98 -4.34738e-10 -5.42217e-13
  178 1203.98 -4.34132e-10 8.11783e-14
  179 1203.98 -4.34738e-10 -1.37505e-13
  180 1203.98 -4.33829e-10 -2.38847e-14
  181 1203.98 -4.34132e-10 -4.79914e-13
  182 1203.98 -4.35830e-10 9.17411e-13
  183 1203.98 -4.34284e-10 5.04991e-13
  184 1203.98 -4.34920e-10 4.98617e-13
  185 1203.98 -4.34738e-10 -1.00400e-13
  186 1203.98 -4.35830e-10 -3.50493e-13
  187 1203.98 -4.35496e-10 -6.46528e-13
  188 1203.98 -4.35284e-10 -4.32301e-13
  189 1203.98 -4.34738e-10 -6.21800e-15
  190 1203.98 -4.34089e-10 2.94232e-14
  191 1203.98 -4.34738e-10 6.72455e-14
  192 1203.98 -4.34609e-10 -1.23005e-13
  193 1203.98 -4.34920e-10 -1.48606e-13
  194 1203.98 -4.34738e-10 -6.86767e-13
  195 1203.98 -4.35042e-10 -5.65946e-14
  196 1203.98 -4.36103e-10 -4.84613e-13
  197 1203.98 -4.34738e-10 5.66192e-14
  198 1203.98 -4.34587e-10 -2.59442e-13
  199 1203.98 -4.33829e-10 -1.00589e-13
  200 1203.98 -4.35800e-10 -1.23865e-13
  201 1203.98 -4.35193e-10 -8.71515e-14
  202 1203.98 -4.34557e-10 -9.52624e-14
  203 1203.98 -4.35648e-10 1.32550e-13
  204 1203.98 -4.36254e-10 -4.55088e-13
  205 1203.98 -4.33829e-10 -1.28142e-14
  206 1203.98 -4.34557e-10 -1.76865e-13
  207 1203.98 -4.35466e-10 1.87620e-13
  208 1203.98 -4.36194e-10 -7.46705e-14
  209 1203.98 -4.35496e-10 -3.93176e-13
  210 1203.98 -4.35345e-10 -7.91756e-14
  211 1203.98 -4.34609e-10 -2.41385e-14
  212 1203.98 -4.34011e-10 5.82391e-13
  213 1203.98 -4.34375e-10 8.05717e-14
  214 1203.98 -4.34738e-10 -4.08747e-13
  215 1203.98 -4.34920e-10 -7.82542e-15
  216 1203.98 -4.34920e-10 6.85396e-13
  217 1203.98 -4.35345e-10 3.35570e-14
  218 1203.98 -4.35648e-10 -9.58390e-14
  219 1203.98 -4.35102e-10 -1.88906e-13
  220 1203.98 -4.34284e-10 3.47052e-13
  221 1203.98 -4.34435e-10 -3.47660e-13
  222 1203.98 -4.35648e-10 5.50927e-13
  223 1203.98 -4.35830e-10 -2.07817e-13
  224 1203.98 -4.35466e-10 -3.28937e-13
  225 1203.98 -4.35466e-10 1.55379e-13
  226 1203.98 -4.33829e-10 -1.22226e-13
  227 1203.98 -4.36103e-10 -9.33180e-14
  228 1203.98 -4.33829e-10 6.52111e-13
  229 1203.98 -4.34738e-10 -6.03697e-14
  230 1203.98 -4.35193e-10 5.99749e-13
  231 1203.98 -4.35466e-10 2.12080e-13
  232 1203.98 -4.34920e-10 -1.53918e-13
  233 1203.98 -4.35284e-10 4.98617e-13
  234 1203.98 -4.34587e-10 1.77408e-13
  235 1203.98 -4.34920e-10 5.69305e-14
  236 1203.98 -4.34998e-10 1.30795e-13
  237 1203.98 -4.34738e-10 -7.51332e-13
  238 1203.98 -4.33829e-10 -2.36202e-13
  239 1203.98 -4.33981e-10 1.62521e-13
  240 1203.98 -4.35284e-10 -1.76865e-13
  241 1203.98 -4.35042e-10 6.71140e-14
</Section>

newXOutput 74

<Section columns = "stress_xx | stress_yy | stress_xy">
  1 1218.30 -4.35648e-10 -1.36236e-13
  2 1218.30 -4.32465e-10 6.10432e-13
  3 1218.30 -4.33829e-10 -1.62484e-13
  4 1218.30 -4.32010e-10 -1.07624e-13
  5 1218.30 -4.34132e-10 3.63492e-14
  6 1218.30 -4.32010e-10 2.45576e-14
  7 1218.30 -4.31555e-10 -2.24819e-13
  8 1218.30 -4.33223e-10 1.26686e-14
  9 1218.30 -4.35042e-10 1.14407e-13
  10 1218.30 -4.35345e-10 -4.96025e-13
  11 1218.30 -4.36254e-10 -5.46894e-13
  12 1218.30 -4.36557e-10 -7.79412e-13
  13 1218.30 -4.34738e-10 -5.60001e-13
  14 1218.30 -4.32010e-10 3.17885e-13
  15 1218.30 -4.33374e-10 -3.47534e-13
  16 1218.30 -4.34435e-10 -1.22086e-12
  17 1218.30 -4.35648e-10 -8.81150e-13
  18 1218.30 -4.35042e-10 4.54121e-14
  19 1218.30 -4.33223e-10 6.34015e-13
  20 1218.30 -4.34738e-10 -6.32261e-13
  21 1218.30 -4.36557e-10 -1.22086e-12
  22 1218.30 -4.34132e-10 1.80771e-12
  23 1218.30 -4.32919e-10 9.35723e-13
  24 1218.30 -4.32010e-10 2.27060e-13
  25 1218.30 -4.32919e-10 2.04354e-13
  26 1218.30 -4.33829e-10 -6.17631e-13
  27 1218.30 -4.34435e-10 2.04354e-13
  28 1218.30 -4.35875e-10 -3.73334e-13
  29 1218.30 -4.35648e-10 -2.38413e-13
  30 1218.30 -4.34738e-10 1.23129e-13
  31 1218.30 -4.35345e-10 -4.69442e-14
  32 1218.30 -4.35648e-10 1.03960e-14
  33 1218.30 -4.35421e-10 1.04465e-13
  34 1218.30 -4.35345e-10 -4.05580e-13
  35 1218.30 -4.33829e-10 6.05821e-15
  36 1218.30 -4.35951e-10 -5.06694e-14
  37 1218.30 -4.35345e-10 6.29241e-13
  38 1218.30 -4.35648e-10 4.73961e-13
  39 1218.30 -4.34132e-10 -5.30465e-13
  40 1218.30 -4.34435e-10 -7.15034e-13
  41 1218.30 -4.35042e-10 -2.03060e-14
  42 1218.30 -4.35648e-10 2.58260e-13
  43 1218.30 -4.35648e-10 4.18683e-13
  44 1218.30 -4.35648e-10 2.10891e-13
  45 1218.30 -4.35648e-10 1.21096e-14
  46 1218.30 -4.35648e-10 -4.17558e-14
  47 1218.30 -4.33223e-10 7.42666e-15
  48 1218.30 -4.32010e-10 -2.40593e-14
  49 1218.30 -4.32010e-10 -2.49912e-13
  50 1218.30 -4.32010e-10 -5.10886e-14
  51 1218.30 -4.32010e-10 -3.40591e-14
  52 1218.30 -4.32010e-10 -7.64684e-14
  53 1218.30 -4.33829e-10 -8.76570e-14
  54 1218.30 -4.33147e-10 8.03969e-14
  55 1218.30 -4.33829e-10 -6.81181e-14
  56 1218.30 -4.35648e-10 8.62440e-15
  57 1218.30 -4.33829e-10 -4.10146e-13
  58 1218.30 -4.35193e-10 -3.52260e-13
  59 1218.30 -4.34998e-10 1.96586e-13
  60 1218.30 -4.33374e-10 -6.11078e-13
  61 1218.30 -4.35800e-10 1.18037e-13
  62 1218.30 -4.33071e-10 1.57304e-13
  63 1218.30 -4.33465e-10 -3.72545e-13
  64 1218.30 -4.35345e-10 1.69857e-13
  65 1218.30 -4.35496e-10 -8.78702e-14
  66 1218.30 -4.33829e-10 1.25797e-13
  67 1218.30 -4.34738e-10 -3.58704e-13
  68 1218.30 -4.35193e-10 -7.93006e-14
  69 1218.30 -4.35648e-10 3.37484e-13
  70 1218.30 -4.33943e-10 1.62106e-13
  71 1218.30 -4.34132e-10 -1.04029e-13
  72 1218.30 -4.35778e-10 1.04777e-14
  73 1218.30 -4.33569e-10 2.04636e-13
  74 1218.30 -4.34193e-10 3.03579e-13
  75 1218.30 -4.35466e-10 -6.62763e-14
  76 1218.30 -4.34738e-10 -3.27483e-13
  77 1218.30 -4.32919e-10 2.82924e-13
  78 1218.30 -4.34132e-10 5.60220e-13
  79 1218.30 -4.33829e-10 3.04224e-13
  80 1218.30 -4.36103e-10 -1.96485e-13
  81 1218.30 -4.33526e-10 -2.02600e-13
  82 1218.30 -4.34435e-10 2.91555e-13
  83 1218.30 -4.33374e-10 -4.23083e-13
  84 1218.30 -4.33677e-10 1.70076e-13
  85 1218.30 -4.34890e-10 4.74634e-13
  86 1218.30 -4.34738e-10 -5.57711e-13
  87 1218.30 -4.33526e-10 -1.22505e-13
  88 1218.30 -4.35284e-10 -2.08624e-13
  89 1218.30 -4.35284e-10 1.28080e-13
  90 1218.30 -4.35042e-10 -1.04053e-13
  91 1218.30 -4.33647e-10 -1.27327e-13
  92 1218.30 -4.32010e-10 6.72995e-14
  93 1218.30 -4.34920e-10 -6.41217e-13
  94 1218.30 -4.34193e-10 2.22824e-13
  95 1218.30 -4.34011e-10 -5.03347e-13
  96 1218.30 -4.35042e-10 1.20522e-13
  97 1218.30 -4.33647e-10 2.57270e-13
  98 1218.30 -4.35284e-10 2.13001e-13
  99 1218.30 -4.33677e-10 -1.96121e-15
  100 1218.30 -4.34011e-10 5.42314e-14
  101 1218.30 -4.35345e-10 2.05012e-13
  102 1218.30 -4.33829e-10 -1.14675e-13
  103 1218.30 -4.32919e-10 9.12627e-14
  104 1218.30 -4.34011e-10 1.93216e-13
  105 1218.30 -4.34375e-10 -1.37771e-13
  106 1218.30 -4.35800e-10 -4.58020e-15
  107 1218.30 -4.32162e-10 -1.86009e-13
  108 1218.30 -4.33829e-10 1.08865e-13
  109 1218.30 -4.34375e-10 1.19864e-14
  110 1218.30 -4.35648e-10 -4.33851e-13
  111 1218.30 -4.35307e-10 -1.98015e-13
  112 1218.30 -4.32919e-10 -2.45151e-16
  113 1218.30 -4.35648e-10 -8.25107e-14
  114 1218.30 -4.35778e-10 3.12812e-13
  115 1218.30 -4.35648e-10 1.21909e-13
  116 1218.30 -4.34738e-10 -1.15538e-13
  117 1218.30 -4.33071e-10 1.49331e-13
  118 1218.30 -4.33829e-10 -5.66007e-14
  119 1218.30 -4.34738e-10 -3.08296e-13
  120 1218.30 -4.33677e-10 6.35818e-13
  121 1218.30 -4.33049e-10 -1.53214e-13
  122 1218.30 -4.33179e-10 4.42392e-14
  123 1218.30 -4.33829e-10 4.63988e-14
  124 1218.30 -4.35388e-10 -1.85226e-14
  125 1218.30 -4.34397e-10 1.18316e-13
  126 1218.30 -4.34852e-10 1.68413e-13
  127 1218.30 -4.35648e-10 4.07393e-13
  128 1218.30 -4.34056e-10 3.69899e-13
  129 1218.30 -4.35648e-10 9.45679e-14
  130 1218.30 -4.34738e-10 -2.51204e-13
  131 1218.30 -4.34132e-10 3.28574e-13
  132 1218.30 -4.34738e-10 -3.25004e-13
  133 1218.30 -4.34479e-10 3.34785e-13
  134 1218.30 -4.34738e-10 5.91387e-14
  135 1218.30 -4.34479e-10 -2.13334e-13
  136 1218.30 -4.33829e-10 7.84514e-15
  137 1218.30 -4.33699e-10 2.21760e-13
  138 1218.30 -4.34132e-10 2.51618e-13
  139 1218.30 -4.33309e-10 2.80669e-13
  140 1218.30 -4.34349e-10 -2.51507e-13
  141 1218.30 -4.33071e-10 -4.33657e-15
  142 1218.30 -4.35345e-10 1.26686e-14
  143 1218.30 -4.33179e-10 -7.59072e-14
  144 1218.30 -4.33101e-10 8.93016e-13
  145 1218.30 -4.35284e-10 -2.17690e-15
  146 1218.30 -4.35128e-10 -5.81013e-14
  147 1218.30 -4.34587e-10 -5.73924e-13
  148 1218.30 -4.34132e-10 3.15497e-14
  149 1218.30 -4.36103e-10 -1.69418e-13
  150 1218.30 -4.35042e-10 -2.54606e-14
  151 1218.30 -4.35648e-10 -2.66284e-14
  152 1218.30 -4.34132e-10 -2.84471e-13
  153 1218.30 -4.35648e-10 -4.79946e-15
  154 1218.30 -4.36739e-10 2.45225e-13
  155 1218.30 -4.35042e-10 -2.24868e-13
  156 1218.30 -4.33829e-10 -4.28067e-13
  157 1218.30 -4.33959e-10 1.68917e-13
  158 1218.30 -4.34132e-10 -5.31606e-13
  159 1218.30 -4.32768e-10 2.47367e-13
  160 1218.30 -4.33283e-10 -3.82982e-15
  161 1218.30 -4.34011e-10 7.33804e-15
  162 1218.30 -4.33829e-10 1.06039e-13
  163 1218.30 -4.34738e-10 -1.05253e-12
  164 1218.30 -4.33049e-10 2.96685e-14
  165 1218.30 -4.33981e-10 -5.23799e-15
  166 1218.30 -4.31750e-10 -2.17072e-14
  167 1218.30 -4.32400e-10 -3.05028e-13
  168 1218.30 -4.35648e-10 -3.03347e-13
  169 1218.30 -4.33959e-10 7.33805e-14
  170 1218.30 -4.34738e-10 -2.57270e-13
  171 1218.30 -4.35648e-10 -2.37119e-13
  172 1218.30 -4.32616e-10 1.30121e-13
  173 1218.30 -4.35496e-10 -1.22709e-13
  174 1218.30 -4.32768e-10 -4.05542e-13
  175 1218.30 -4.32313e-10 -1.38621e-13
  176 1218.30 -4.35345e-10 3.38398e-14
  177 1218.30 -4.35193e-10 7.26830e-14
  178 1218.30 -4.35345e-10 -1.76922e-13
  179 1218.30 -4.34011e-10 4.46714e-14
  180 1218.30 -4.33049e-10 -5.56723e-14
  181 1218.30 -4.34587e-10 -4.74683e-13
  182 1218.30 -4.35830e-10 1.66839e-13
  183 1218.30 -4.33374e-10 -1.76843e-13
  184 1218.30 -4.35466e-10 -2.92119e-13
  185 1218.30 -4.32313e-10 1.69175e-13
  186 1218.30 -4.31646e-10 2.64813e-13
  187 1218.30 -4.35496e-10 -2.05469e-13
  188 1218.30 -4.35102e-10 3.62691e-13
  189 1218.30 -4.34011e-10 -3.97892e-14
  190 1218.30 -4.32919e-10 6.98931e-14
  191 1218.30 -4.35345e-10 1.56677e-13
  192 1218.30 -4.35518e-10 1.21452e-13
  193 1218.30 -4.35830e-10 2.68331e-13
  194 1218.30 -4.33677e-10 1.80771e-13
  195 1218.30 -4.33829e-10 6.87759e-14
  196 1218.30 -4.35496e-10 -9.93439e-13
  197 1218.30 -4.34738e-10 2.22431e-14
  198 1218.30 -4.33829e-10 3.28361e-13
  199 1218.30 -4.32616e-10 -2.66601e-13
  200 1218.30 -4.33981e-10 -5.08255e-13
  201 1218.30 -4.34435e-10 -1.61039e-13
  202 1218.30 -4.31646e-10 5.26995e-13
  203 1218.30 -4.35496e-10 -3.37959e-13
  204 1218.30 -4.36406e-10 -1.29902e-13
  205 1218.30 -4.32919e-10 -1.45348e-13
  206 1218.30 -4.33829e-10 -7.46142e-13
  207 1218.30 -4.34738e-10 9.43417e-14
  208 1218.30 -4.33465e-10 2.66894e-13
  209 1218.30 -4.35951e-10 6.72411e-14
  210 1218.30 -4.34890e-10 -3.63492e-14
  211 1218.30 -4.34219e-10 -1.47847e-14
  212 1218.30 -4.33829e-10 4.76418e-13
  213 1218.30 -4.33465e-10 -2.20107e-13
  214 1218.30 -4.33526e-10 -7.25729e-14
  215 1218.30 -4.33101e-10 -2.25258e-14
  216 1218.30 -4.34011e-10 -4.20264e-13
  217 1218.30 -4.35951e-10 4.99959e-13
  218 1218.30 -4.35648e-10 4.86340e-14
  219 1218.30 -4.35284e-10 1.25127e-14
  220 1218.30 -4.32919e-10 1.49660e-13
  221 1218.30 -4.35800e-10 1.31875e-13
  222 1218.30 -4.33374e-10 -1.44422e-13
  223 1218.30 -4.35466e-10 -2.57299e-13
  224 1218.30 -4.35284e-10 1.43837e-13
  225 1218.30 -4.34557e-10 -6.77162e-14
  226 1218.30 -4.34193e-10 1.56145e-13
  227 1218.30 -4.35193e-10 -5.77676e-13
  228 1218.30 -4.33283e-10 -1.83130e-13
  229 1218.30 -4.34132e-10 7.31003e-14
  230 1218.30 -4.35800e-10 -5.36637e-13
  231 1218.30 -4.34738e-10 -1.21034e-13
  232 1218.30 -4.33283e-10 -3.76258e-14
  233 1218.30 -4.33283e-10 -9.15648e-14
  234 1218.30 -4.34435e-10 -4.30285e-13
  235 1218.30 -4.34193e-10 -4.06510e-13
  236 1218.30 -4.33959e-10 -1.94205e-15
  237 1218.30 -4.34920e-10 4.20220e-13
  238 1218.30 -4.34738e-10 2.25316e-13
  239 1218.30 -4.32010e-10 -8.47579e-14
  240 1218.30 -4.34738e-10 -1.48281e-13
  241 1218.30 -4.34738e-10 -3.94725e-13
</Section>

newXOutput 75

<Section columns = "stress_xx | stress_yy | stress_xy">
  1 1232.57 -4.32919e-10 2.15522e-14
  2 1232.57 -4.32919e-10 0.00000
  3 1232.57 -4.32465e-10 -1.00002e-12
  4 1232.57 -4.32010e-10 1.87497e-13
  5 1232.57 -4.32919e-10 -1.27028e-13
  6 1232.57 -4.32919e-10 7.62167e-14
  7 1232.57 -4.32919e-10 2.15376e-13
  8 1232.57 -4.32919e-10 -3.42549e-14
  9 1232.57 -4.32919e-10 1.68990e-13
  10 1232.57 -4.32919e-10 6.55026e-13
  11 1232.57 -4.32919e-10 5.31329e-13
  12 1232.57 -4.32919e-10 5.76621e-13
  13 1232.57 -4.32919e-10 -9.27729e-14
  14 1232.57 -4.32313e-10 -1.12660e-13
  15 1232.57 -4.32465e-10 -7.36476e-13
  16 1232.57 -4.32616e-10 -6.31808e-13
  17 1232.57 -4.31100e-10 -6.73673e-14
  18 1232.57 -4.32313e-10 4.51781e-13
  19 1232.57 -4.32616e-10 1.57952e-13
  20 1232.57 -4.32010e-10 1.21947e-12
  21 1232.57 -4.32919e-10 6.32951e-13
  22 1232.57 -4.32313e-10 -8.57128e-13
  23 1232.57 -4.32313e-10 -8.94422e-14
  24 1232.57 -4.32919e-10 1.32529e-28
  25 1232.57 -4.32010e-10 1.35877e-13
  26 1232.57 -4.32465e-10 2.96374e-13
  27 1232.57 -4.31707e-10 6.09162e-13
  28 1232.57 -4.32010e-10 -3.09113e-13
  29 1232.57 -4.32010e-10 3.73662e-13
  30 1232.57 -4.33223e-10 1.78339e-13
  31 1232.57 -4.32919e-10 -9.53661e-13
  32 1232.57 -4.32465e-10 1.91076e-14
  33 1232.57 -4.31328e-10 -4.29347e-13
  34 1232.57 -4.32313e-10 -5.39757e-13
  35 1232.57 -4.32692e-10 1.43535e-13
  36 1232.57 -4.32313e-10 3.16433e-13
  37 1232.57 -4.32919e-10 -2.82185e-13
  38 1232.57 -4.32919e-10 -3.20671e-13
  39 1232.57 -4.32919e-10 5.10462e-13
  40 1232.57 -4.32616e-10 7.27333e-13
  41 1232.57 -4.32919e-10 4.77072e-13
  42 1232.57 -4.32313e-10 2.09238e-13
  43 1232.57 -4.32313e-10 -1.44669e-13
  44 1232.57 -4.32919e-10 3.26652e-14
  45 1232.57 -4.32616e-10 -4.74252e-14
  46 1232.57 -4.32616e-10 -5.43008e-13
  47 1232.57 -4.32919e-10 -5.52455e-13
  48 1232.57 -4.32919e-10 -9.71464e-14
  49 1232.57 -4.32919e-10 1.93772e-13
  50 1232.57 -4.31100e-10 8.49232e-14
  51 1232.57 -4.32010e-10 1.01908e-13
  52 1232.57 -4.32919e-10 -8.53421e-14
  53 1232.57 -4.32919e-10 5.08111e-14
  54 1232.57 -4.32919e-10 5.05255e-14
  55 1232.57 -4.32919e-10 -6.79386e-14
  56 1232.57 -4.32919e-10 1.13231e-14
  57 1232.57 -4.32162e-10 -5.05255e-14
  58 1232.57 -4.32616e-10 8.72541e-14
  59 1232.57 -4.32790e-10 2.16335e-13
  60 1232.57 -4.32768e-10 2.59768e-14
  61 1232.57 -4.32162e-10 -1.38612e-13
  62 1232.57 -4.32919e-10 -3.34025e-13
  63 1232.57 -4.32374e-10 6.91260e-13
  64 1232.57 -4.32162e-10 1.10043e-13
  65 1232.57 -4.32465e-10 -2.48525e-14
  66 1232.57 -4.32919e-10 -7.60038e-15
  67 1232.57 -4.32768e-10 -3.81012e-13
  68 1232.57 -4.32616e-10 -2.10951e-13
  69 1232.57 -4.32919e-10 -2.20560e-13
  70 1232.57 -4.32806e-10 -3.87770e-14
  71 1232.57 -4.32768e-10 1.55371e-13
  72 1232.57 -4.31750e-10 -2.26886e-13
  73 1232.57 -4.32400e-10 3.19609e-13
  74 1232.57 -4.31828e-10 -1.64289e-13
  75 1232.57 -4.32556e-10 -2.22028e-13
  76 1232.57 -4.32919e-10 4.97359e-13
  77 1232.57 -4.32919e-10 -2.40806e-13
  78 1232.57 -4.32768e-10 2.29429e-13
  79 1232.57 -4.33049e-10 -1.30055e-13
  80 1232.57 -4.32465e-10 1.16062e-13
  81 1232.57 -4.32465e-10 -3.01750e-13
  82 1232.57 -4.32313e-10 3.79742e-13
  83 1232.57 -4.32616e-10 -1.30827e-15
  84 1232.57 -4.32919e-10 -6.08974e-14
  85 1232.57 -4.32313e-10 7.14100e-16
  86 1232.57 -4.32313e-10 3.96308e-13
  87 1232.57 -4.31858e-10 1.27343e-13
  88 1232.57 -4.32556e-10 -3.63379e-14
  89 1232.57 -4.32919e-10 9.26160e-14
  90 1232.57 -4.32919e-10 -2.64996e-14
  91 1232.57 -4.32374e-10 -2.61049e-13
  92 1232.57 -4.32919e-10 -2.37428e-13
  93 1232.57 -4.32192e-10 -1.62134e-14
  94 1232.57 -4.32556e-10 -1.82749e-13
  95 1232.57 -4.32192e-10 -2.45463e-13
  96 1232.57 -4.32768e-10 1.92778e-13
  97 1232.57 -4.32374e-10 -9.62329e-13
  98 1232.57 -4.32738e-10 1.95323e-14
  99 1232.57 -4.33071e-10 -1.64134e-14
  100 1232.57 -4.32374e-10 2.81174e-13
  101 1232.57 -4.32919e-10 -2.79176e-13
  102 1232.57 -4.32556e-10 -3.50511e-13
  103 1232.57 -4.32162e-10 -1.78790e-13
  104 1232.57 -4.32010e-10 1.22461e-13
  105 1232.57 -4.32738e-10 -7.14125e-13
  106 1232.57 -4.32768e-10 -2.74157e-13
  107 1232.57 -4.32616e-10 9.77163e-13
  108 1232.57 -4.32919e-10 -2.43987e-13
  109 1232.57 -4.32919e-10 8.27809e-15
  110 1232.57 -4.32010e-10 -9.37522e-13
  111 1232.57 -4.32237e-10 2.20829e-14
  112 1232.57 -4.32768e-10 -1.36267e-13
  113 1232.57 -4.32660e-10 1.47301e-14
  114 1232.57 -4.32790e-10 1.29579e-13
  115 1232.57 -4.32010e-10 4.73473e-14
  116 1232.57 -4.32919e-10 9.27729e-14
  117 1232.57 -4.32465e-10 2.54513e-15
  118 1232.57 -4.31858e-10 -1.19915e-13
  119 1232.57 -4.32790e-10 -6.02148e-13
  120 1232.57 -4.32616e-10 -4.95386e-14
  121 1232.57 -4.32400e-10 1.58122e-13
  122 1232.57 -4.32530e-10 -3.48766e-13
  123 1232.57 -4.32919e-10 -1.03668e-13
  124 1232.57 -4.33049e-10 -7.29722e-14
  125 1232.57 -4.32806e-10 -2.30724e-13
  126 1232.57 -4.32806e-10 -8.03363e-17
  127 1232.57 -4.32140e-10 5.57210e-13
  128 1232.57 -4.32124e-10 1.77696e-13
  129 1232.57 -4.32692e-10 -7.37184e-14
  130 1232.57 -4.32768e-10 -2.60954e-14
  131 1232.57 -4.32313e-10 -4.02272e-13
  132 1232.57 -4.32578e-10 -2.69278e-13
  133 1232.57 -4.31880e-10 2.80970e-13
  134 1232.57 -4.32790e-10 3.89445e-14
  135 1232.57 -4.32919e-10 -4.83317e-13
  136 1232.57 -4.32790e-10 -5.36858e-14
  137 1232.57 -4.32790e-10 -5.45296e-14
  138 1232.57 -4.33071e-10 -1.31167e-13
  139 1232.57 -4.32400e-10 -1.02142e-13
  140 1232.57 -4.32270e-10 5.00774e-14
  141 1232.57 -4.32162e-10 1.46296e-13
  142 1232.57 -4.32768e-10 3.36837e-14
  143 1232.57 -4.31880e-10 -1.33369e-13
  144 1232.57 -4.32374e-10 5.29346e-13
  145 1232.57 -4.32010e-10 -5.22634e-13
  146 1232.57 -4.32790e-10 -4.30457e-13
  147 1232.57 -4.32768e-10 -9.21426e-14
  148 1232.57 -4.32919e-10 -1.85071e-14
  149 1232.57 -4.32162e-10 6.46534e-13
  150 1232.57 -4.32616e-10 -3.02198e-14
  151 1232.57 -4.31858e-10 -2.95732e-13
  152 1232.57 -4.32465e-10 -3.13502e-13
  153 1232.57 -4.32616e-10 8.19211e-13
  154 1232.57 -4.32738e-10 3.82482e-13
  155 1232.57 -4.33071e-10 -1.43370e-13
  156 1232.57 -4.32140e-10 8.16037e-13
  157 1232.57 -4.32790e-10 -2.21911e-13
  158 1232.57 -4.32919e-10 -3.03867e-13
  159 1232.57 -4.32465e-10 1.08141e-13
  160 1232.57 -4.32919e-10 -1.26914e-13
  161 1232.57 -4.32556e-10 9.55192e-13
  162 1232.57 -4.33071e-10 -1.66171e-13
  163 1232.57 -4.32616e-10 -5.47171e-13
  164 1232.57 -4.32140e-10 2.46756e-13
  165 1232.57 -4.32616e-10 2.91519e-14
  166 1232.57 -4.31880e-10 1.05685e-13
  167 1232.57 -4.32270e-10 2.28080e-13
  168 1232.57 -4.32140e-10 -5.06123e-13
  169 1232.57 -4.32919e-10 1.88590e-15
  170 1232.57 -4.32738e-10 2.51030e-13
  171 1232.57 -4.32919e-10 1.08188e-13
  172 1232.57 -4.32919e-10 -4.90841e-13
  173 1232.57 -4.32768e-10 -1.13990e-13
  174 1232.57 -4.32162e-10 1.19321e-13
  175 1232.57 -4.31858e-10 1.30978e-13
  176 1232.57 -4.32919e-10 -6.36567e-14
  177 1232.57 -4.33071e-10 -5.74227e-13
  178 1232.57 -4.32616e-10 -2.29744e-13
  179 1232.57 -4.32919e-10 1.84233e-13
  180 1232.57 -4.32140e-10 -7.71544e-14
  181 1232.57 -4.32465e-10 -2.63999e-13
  182 1232.57 -4.32919e-10 -2.66058e-13
  183 1232.57 -4.32313e-10 -2.74014e-13
  184 1232.57 -4.31828e-10 -2.97559e-13
  185 1232.57 -4.32768e-10 2.88548e-14
  186 1232.57 -4.32556e-10 -5.62005e-13
  187 1232.57 -4.32465e-10 -8.35015e-14
  188 1232.57 -4.33101e-10 1.51245e-13
  189 1232.57 -4.32192e-10 1.78952e-13
  190 1232.57 -4.31880e-10 6.37217e-14
  191 1232.57 -4.32768e-10 -1.90399e-13
  192 1232.57 -4.32010e-10 7.30362e-14
  193 1232.57 -4.32374e-10 2.44851e-13
  194 1232.57 -4.32162e-10 6.64447e-13
  195 1232.57 -4.32313e-10 8.89969e-14
  196 1232.57 -4.32313e-10 -9.92719e-13
  197 1232.57 -4.32919e-10 7.16613e-14
  198 1232.57 -4.32768e-10 8.69308e-13
  199 1232.57 -4.32616e-10 -8.22824e-14
  200 1232.57 -4.32010e-10 -3.03059e-13
  201 1232.57 -4.32465e-10 -5.07407e-13
  202 1232.57 -4.32374e-10 3.38836e-13
  203 1232.57 -4.32768e-10 -3.86602e-13
  204 1232.57 -4.32313e-10 -2.06640e-13
  205 1232.57 -4.32010e-10 3.14713e-14
  206 1232.57 -4.32556e-10 2.71754e-14
  207 1232.57 -4.32919e-10 -5.12688e-13
  208 1232.57 -4.32374e-10 -2.84761e-13
  209 1232.57 -4.33071e-10 -1.72035e-13
  210 1232.57 -4.32465e-10 1.33314e-13
  211 1232.57 -4.32919e-10 3.97598e-14
  212 1232.57 -4.31828e-10 -1.91819e-14
  213 1232.57 -4.32738e-10 7.70962e-14
  214 1232.57 -4.32616e-10 -1.44626e-13
  215 1232.57 -4.32738e-10 -5.25235e-13
  216 1232.57 -4.32010e-10 -2.59815e-13
  217 1232.57 -4.32313e-10 -9.90771e-14
  218 1232.57 -4.32313e-10 1.07772e-13
  219 1232.57 -4.32556e-10 -8.38092e-14
  220 1232.57 -4.32313e-10 1.97583e-13
  221 1232.57 -4.32616e-10 4.71597e-13
  222 1232.57 -4.32768e-10 -5.93749e-14
  223 1232.57 -4.32919e-10 2.93620e-13
  224 1232.57 -4.32738e-10 -1.79609e-13
  225 1232.57 -4.32556e-10 5.01374e-13
  226 1232.57 -4.32010e-10 2.67929e-13
  227 1232.57 -4.32768e-10 -3.55678e-13
  228 1232.57 -4.32919e-10 -1.32223e-13
  229 1232.57 -4.32919e-10 -1.85439e-13
  230 1232.57 -4.32465e-10 -2.25034e-13
  231 1232.57 -4.32192e-10 7.46296e-13
  232 1232.57 -4.32738e-10 -1.36034e-13
  233 1232.57 -4.32374e-10 2.94933e-13
  234 1232.57 -4.32313e-10 6.66660e-14
  235 1232.57 -4.32738e-10 -2.68548e-13
  236 1232.57 -4.32919e-10 9.13662e-14
  237 1232.57 -4.31828e-10 -1.57479e-13
  238 1232.57 -4.31828e-10 8.18691e-14
  239 1232.57 -4.32313e-10 1.36828e-13
  240 1232.57 -4.32919e-10 2.17403e-13
  241 1232.57 -4.32616e-10 -5.07254e-13
</Section>

newXOutput 76

<Section columns = "stress_xx | stress_yy | stress_xy">
  1 1246.78 -4.31100e-10 3.00734e-13
  2 1246.78 -4.30646e-10 -6.09037e-13
  3 1246.78 -4.31555e-10 3.12878e-13
  4 1246.78 -4.31555e-10 -4.60017e-14
  5 1246.78 -4.31404e-10 -1.01506e-13
  6 1246.78 -4.30646e-10 -2.79409e-13
  7 1246.78 -4.30873e-10 -1.48074e-13
  8 1246.78 -4.31404e-10 -2.53765e-13
  9 1246.78 -4.31707e-10 -3.15678e-13
  10 1246.78 -4.31100e-10 -1.23826e-13
  11 1246.78 -4.31404e-10 -5.69443e-13
  12 1246.78 -4.31707e-10 -5.07531e-13
  13 1246.78 -4.30873e-10 -4.14528e-13
  14 1246.78 -4.31100e-10 2.48719e-13
  15 1246.78 -4.31328e-10 -4.69332e-13
  16 1246.78 -4.29281e-10 -4.06024e-13
  17 1246.78 -4.30797e-10 3.60851e-13
  18 1246.78 -4.31707e-10 7.44556e-13
  19 1246.78 -4.30797e-10 -1.80159e-13
  20 1246.78 -4.30494e-10 -4.57071e-14
  21 1246.78 -4.30797e-10 -1.80532e-12
  22 1246.78 -4.30797e-10 -9.92207e-13
  23 1246.78 -4.30797e-10 -8.79542e-13
  24 1246.78 -4.30797e-10 3.15678e-13
  25 1246.78 -4.31555e-10 -1.35519e-13
  26 1246.78 -4.31783e-10 2.62168e-13
  27 1246.78 -4.32616e-10 4.51732e-14
  28 1246.78 -4.31328e-10 -2.58334e-13
  29 1246.78 -4.30191e-10 -1.35519e-13
  30 1246.78 -4.31404e-10 5.21781e-13
  31 1246.78 -4.31100e-10 -1.14925e-13
  32 1246.78 -4.31555e-10 1.24291e-12
  33 1246.78 -4.31555e-10 5.75944e-13
  34 1246.78 -4.31404e-10 1.30728e-12
  35 1246.78 -4.30873e-10 1.15074e-12
  36 1246.78 -4.31100e-10 -5.04403e-13
  37 1246.78 -4.30797e-10 -1.11009e-12
  38 1246.78 -4.30494e-10 -3.59316e-13
  39 1246.78 -4.30797e-10 3.29755e-13
  40 1246.78 -4.31404e-10 2.88763e-13
  41 1246.78 -4.31100e-10 5.17728e-14
  42 1246.78 -4.31404e-10 4.82248e-13
  43 1246.78 -4.31707e-10 8.83632e-13
  44 1246.78 -4.31707e-10 5.25843e-13
  45 1246.78 -4.31707e-10 3.80513e-13
  46 1246.78 -4.30797e-10 -1.72266e-13
  47 1246.78 -4.31100e-10 1.97840e-13
  48 1246.78 -4.31404e-10 2.40817e-13
  49 1246.78 -4.32010e-10 2.86789e-14
  50 1246.78 -4.31100e-10 -5.36097e-14
  51 1246.78 -4.30646e-10 -1.35519e-13
  52 1246.78 -4.31100e-10 2.01738e-15
  53 1246.78 -4.31100e-10 9.59262e-14
  54 1246.78 -4.31328e-10 9.32197e-14
  55 1246.78 -4.30646e-10 6.77597e-14
  56 1246.78 -4.30797e-10 2.59812e-13
  57 1246.78 -4.30797e-10 -2.10818e-13
  58 1246.78 -4.31100e-10 4.37048e-13
  59 1246.78 -4.31100e-10 1.51178e-14
  60 1246.78 -4.31404e-10 9.76232e-15
  61 1246.78 -4.30646e-10 -1.00742e-13
  62 1246.78 -4.31252e-10 -3.53926e-13
  63 1246.78 -4.30555e-10 -6.29445e-13
  64 1246.78 -4.30646e-10 -2.12583e-14
  65 1246.78 -4.31100e-10 -1.75039e-14
  66 1246.78 -4.31252e-10 -3.90776e-14
  67 1246.78 -4.31555e-10 -1.52326e-13
  68 1246.78 -4.31555e-10 -6.03256e-13
  69 1246.78 -4.31100e-10 7.98661e-14
  70 1246.78 -4.31214e-10 -4.78958e-14
  71 1246.78 -4.31707e-10 3.22847e-14
  72 1246.78 -4.30971e-10 2.57516e-13
  73 1246.78 -4.31360e-10 6.77025e-14
  74 1246.78 -4.30919e-10 -5.73540e-14
  75 1246.78 -4.31464e-10 5.50804e-13
  76 1246.78 -4.30646e-10 8.11782e-13
  77 1246.78 -4.31252e-10 -5.84922e-14
  78 1246.78 -4.30949e-10 -5.99994e-13
  79 1246.78 -4.31620e-10 -1.29967e-14
  80 1246.78 -4.30949e-10 4.48508e-13
  81 1246.78 -4.30191e-10 -5.92030e-13
  82 1246.78 -4.30949e-10 1.19547e-13
  83 1246.78 -4.31404e-10 -6.47028e-14
  84 1246.78 -4.31100e-10 -2.94553e-13
  85 1246.78 -4.30646e-10 3.89151e-13
  86 1246.78 -4.30949e-10 -1.63152e-13
  87 1246.78 -4.31252e-10 -2.28518e-13
  88 1246.78 -4.31100e-10 -8.05803e-13
  89 1246.78 -4.31464e-10 -1.28205e-13
  90 1246.78 -4.30797e-10 -1.06322e-13
  91 1246.78 -4.31282e-10 6.59656e-14
  92 1246.78 -4.31282e-10 2.64481e-13
  93 1246.78 -4.30919e-10 -2.16831e-13
  94 1246.78 -4.31100e-10 -2.30063e-13
  95 1246.78 -4.31100e-10 -4.67082e-13
  96 1246.78 -4.31404e-10 9.08175e-13
  97 1246.78 -4.31464e-10 -3.38959e-13
  98 1246.78 -4.31464e-10 6.06914e-15
  99 1246.78 -4.30797e-10 2.82466e-13
  100 1246.78 -4.30919e-10 1.42295e-13
  101 1246.78 -4.31555e-10 4.31468e-13
  102 1246.78 -4.32738e-10 7.41448e-13
  103 1246.78 -4.31100e-10 4.04429e-13
  104 1246.78 -4.31282e-10 -2.43775e-13
  105 1246.78 -4.31282e-10 -2.25798e-13
  106 1246.78 -4.31100e-10 -1.66309e-13
  107 1246.78 -4.31252e-10 8.85322e-13
  108 1246.78 -4.31404e-10 -6.49531e-14
  109 1246.78 -4.31100e-10 7.29018e-14
  110 1246.78 -4.30919e-10 -3.55739e-13
  111 1246.78 -4.31328e-10 -6.72397e-13
  112 1246.78 -4.31100e-10 -1.67829e-13
  113 1246.78 -4.30841e-10 -1.65267e-13
  114 1246.78 -4.30711e-10 4.72797e-15
  115 1246.78 -4.30797e-10 -3.10769e-14
  116 1246.78 -4.31282e-10 -1.86059e-13
  117 1246.78 -4.30949e-10 -5.30518e-13
  118 1246.78 -4.31252e-10 -6.73997e-14
  119 1246.78 -4.31490e-10 -3.35721e-13
  120 1246.78 -4.30949e-10 1.46396e-13
  121 1246.78 -4.31360e-10 4.59798e-14
  122 1246.78 -4.31100e-10 9.67424e-14
  123 1246.78 -4.31100e-10 -9.17104e-14
  124 1246.78 -4.31230e-10 -2.78835e-13
  125 1246.78 -4.31669e-10 2.04051e-13
  126 1246.78 -4.31442e-10 -3.79627e-13
  127 1246.78 -4.31100e-10 2.75707e-13
  128 1246.78 -4.30987e-10 4.01673e-13
  129 1246.78 -4.31555e-10 -9.72068e-14
  130 1246.78 -4.31707e-10 2.56755e-13
  131 1246.78 -4.30949e-10 3.17880e-13
  132 1246.78 -4.31100e-10 -2.01522e-13
  133 1246.78 -4.31100e-10 5.79653e-14
  134 1246.78 -4.30711e-10 6.03853e-14
  135 1246.78 -4.31100e-10 -1.00557e-12
  136 1246.78 -4.31100e-10 7.19578e-15
  137 1246.78 -4.31100e-10 -1.71402e-13
  138 1246.78 -4.31100e-10 -6.12154e-14
  139 1246.78 -4.31360e-10 1.25725e-13
  140 1246.78 -4.30971e-10 4.28933e-13
  141 1246.78 -4.31404e-10 -1.35950e-13
  142 1246.78 -4.31252e-10 -2.81798e-13
  143 1246.78 -4.30841e-10 -9.00517e-14
  144 1246.78 -4.30919e-10 4.66378e-14
  145 1246.78 -4.31464e-10 1.02033e-13
  146 1246.78 -4.31620e-10 1.34384e-13
  147 1246.78 -4.31252e-10 1.00858e-13
  148 1246.78 -4.30949e-10 1.45318e-13
  149 1246.78 -4.31100e-10 1.60395e-13
  150 1246.78 -4.30797e-10 -5.44360e-14
  151 1246.78 -4.30949e-10 1.08681e-13
  152 1246.78 -4.31404e-10 -1.01573e-13
  153 1246.78 -4.30646e-10 1.12933e-13
  154 1246.78 -4.31464e-10 6.80184e-13
  155 1246.78 -4.30949e-10 -4.24529e-13
  156 1246.78 -4.30971e-10 -1.98096e-13
  157 1246.78 -4.31360e-10 4.14960e-14
  158 1246.78 -4.31252e-10 -1.10931e-14
  159 1246.78 -4.30343e-10 7.89863e-14
  160 1246.78 -4.31100e-10 -9.36702e-15
  161 1246.78 -4.31100e-10 2.77334e-13
  162 1246.78 -4.31858e-10 -3.19693e-14
  163 1246.78 -4.30949e-10 -1.18313e-13
  164 1246.78 -4.31360e-10 4.25575e-13
  165 1246.78 -4.31100e-10 5.93565e-14
  166 1246.78 -4.31100e-10 -7.92761e-14
  167 1246.78 -4.31620e-10 2.75650e-13
  168 1246.78 -4.30711e-10 -1.48829e-13
  169 1246.78 -4.31230e-10 -2.98222e-14
  170 1246.78 -4.30919e-10 -1.59235e-13
  171 1246.78 -4.31360e-10 -1.32244e-13
  172 1246.78 -4.30797e-10 2.71039e-13
  173 1246.78 -4.32010e-10 2.55576e-13
  174 1246.78 -4.30949e-10 -2.93092e-13
  175 1246.78 -4.31555e-10 -7.52347e-15
  176 1246.78 -4.31404e-10 6.50699e-14
  177 1246.78 -4.31100e-10 -3.23715e-14
  178 1246.78 -4.31404e-10 -2.36825e-13
  179 1246.78 -4.31100e-10 -3.46848e-13
  180 1246.78 -4.30711e-10 1.98153e-13
  181 1246.78 -4.32313e-10 1.44090e-13
  182 1246.78 -4.30737e-10 -2.44617e-13
  183 1246.78 -4.30797e-10 -1.99061e-13
  184 1246.78 -4.29827e-10 -1.51461e-29
  185 1246.78 -4.31252e-10 -1.05242e-13
  186 1246.78 -4.30919e-10 7.15882e-14
  187 1246.78 -4.31404e-10 -2.34258e-13
  188 1246.78 -4.31100e-10 -1.72732e-13
  189 1246.78 -4.30555e-10 -1.15708e-13
  190 1246.78 -4.31360e-10 -1.77309e-14
  191 1246.78 -4.31404e-10 -1.91786e-13
  192 1246.78 -4.30841e-10 1.35405e-13
  193 1246.78 -4.30919e-10 -9.71732e-14
  194 1246.78 -4.30797e-10 2.72300e-13
  195 1246.78 -4.31100e-10 4.78964e-14
  196 1246.78 -4.31252e-10 -9.11218e-13
  197 1246.78 -4.30949e-10 3.82116e-16
  198 1246.78 -4.30949e-10 3.40134e-14
  199 1246.78 -4.31100e-10 1.47310e-13
  200 1246.78 -4.30949e-10 1.78830e-13
  201 1246.78 -4.31404e-10 -4.16774e-14
  202 1246.78 -4.30919e-10 1.86139e-13
  203 1246.78 -4.31252e-10 -1.11404e-13
  204 1246.78 -4.31100e-10 6.72541e-14
  205 1246.78 -4.30949e-10 1.24093e-13
  206 1246.78 -4.30555e-10 -6.64045e-13
  207 1246.78 -4.31282e-10 -1.34138e-13
  208 1246.78 -4.30919e-10 6.91475e-13
  209 1246.78 -4.30797e-10 4.74912e-13
  210 1246.78 -4.30949e-10 3.47275e-14
  211 1246.78 -4.31230e-10 -1.36601e-13
  212 1246.78 -4.30919e-10 -2.16190e-13
  213 1246.78 -4.31464e-10 1.17975e-14
  214 1246.78 -4.31252e-10 2.27999e-14
  215 1246.78 -4.31100e-10 3.80971e-13
  216 1246.78 -4.31100e-10 -2.09038e-13
  217 1246.78 -4.31100e-10 8.50975e-13
  218 1246.78 -4.31100e-10 3.20139e-14
  219 1246.78 -4.31100e-10 1.15272e-13
  220 1246.78 -4.31100e-10 -1.17185e-13
  221 1246.78 -4.31555e-10 -6.48029e-14
  222 1246.78 -4.30646e-10 -5.02351e-13
  223 1246.78 -4.31100e-10 -2.79845e-13
  224 1246.78 -4.30919e-10 -2.74066e-13
  225 1246.78 -4.30919e-10 9.88331e-13
  226 1246.78 -4.31282e-10 6.76796e-14
  227 1246.78 -4.31404e-10 -5.46857e-13
  228 1246.78 -4.31100e-10 1.72587e-13
  229 1246.78 -4.30949e-10 2.32841e-13
  230 1246.78 -4.31404e-10 2.30978e-13
  231 1246.78 -4.30737e-10 -6.07435e-14
  232 1246.78 -4.31282e-10 1.15570e-13
  233 1246.78 -4.31282e-10 -9.61227e-13
  234 1246.78 -4.31100e-10 -9.99109e-14
  235 1246.78 -4.31282e-10 2.08872e-13
  236 1246.78 -4.31360e-10 2.57803e-14
  237 1246.78 -4.31100e-10 3.68225e-13
  238 1246.78 -4.30919e-10 -1.96183e-13
  239 1246.78 -4.31555e-10 2.73695e-13
  240 1246.78 -4.31828e-10 8.80076e-14
  241 1246.78 -4.30646e-10 -2.25465e-13
</Section>

newXOutput 77

<Section columns = "stress_xx | stress_yy | stress_xy">
  1 1260.94 -4.30191e-10 6.75815e-14
  2 1260.94 -4.29736e-10 -4.73071e-13
  3 1260.94 -4.29736e-10 -1.92367e-14
  4 1260.94 -4.30191e-10 6.53958e-15
  5 1260.94 -4.29888e-10 -3.66291e-14
  6 1260.94 -4.30646e-10 -2.19667e-13
  7 1260.94 -4.28827e-10 -2.91479e-13
  8 1260.94 -4.30191e-10 9.01087e-14
  9 1260.94 -4.30797e-10 3.82998e-13
  10 1260.94 -4.30797e-10 -2.70398e-13
  11 1260.94 -4.30191e-10 -3.99920e-13
  12 1260.94 -4.29585e-10 1.18313e-13
  13 1260.94 -4.30646e-10 3.97082e-13
  14 1260.94 -4.31100e-10 4.28052e-13
  15 1260.94 -4.30418e-10 4.01312e-13
  16 1260.94 -4.29585e-10 9.01087e-14
  17 1260.94 -4.29281e-10 -5.85778e-13
  18 1260.94 -4.29585e-10 6.76174e-14
  19 1260.94 -4.30494e-10 -5.18233e-13
  20 1260.94 -4.28675e-10 2.25272e-13
  21 1260.94 -4.27766e-10 1.80289e-13
  22 1260.94 -4.28069e-10 -4.50544e-14
  23 1260.94 -4.29281e-10 -8.89949e-13
  24 1260.94 -4.29888e-10 9.01804e-14
  25 1260.94 -4.27917e-10 0.00000
  26 1260.94 -4.29509e-10 -1.68954e-13
  27 1260.94 -4.29585e-10 -2.47799e-13
  28 1260.94 -4.28599e-10 1.68954e-13
  29 1260.94 -4.27917e-10 3.37908e-13
  30 1260.94 -4.28069e-10 1.83033e-14
  31 1260.94 -4.31100e-10 2.76470e-13
  32 1260.94 -4.30646e-10 1.54758e-13
  33 1260.94 -4.29736e-10 -1.94512e-13
  34 1260.94 -4.29888e-10 1.45415e-13
  35 1260.94 -4.28827e-10 -4.66975e-13
  36 1260.94 -4.29281e-10 -7.84617e-13
  37 1260.94 -4.29585e-10 1.25206e-13
  38 1260.94 -4.30797e-10 4.18324e-13
  39 1260.94 -4.29281e-10 4.00965e-13
  40 1260.94 -4.29281e-10 -4.94229e-14
  41 1260.94 -4.31100e-10 2.56496e-13
  42 1260.94 -4.30797e-10 2.31454e-13
  43 1260.94 -4.30494e-10 3.51693e-13
  44 1260.94 -4.30191e-10 4.49014e-13
  45 1260.94 -4.30191e-10 -5.90175e-14
  46 1260.94 -4.30797e-10 -1.31676e-13
  47 1260.94 -4.31100e-10 3.39865e-14
  48 1260.94 -4.31100e-10 5.68701e-14
  49 1260.94 -4.30797e-10 1.09307e-13
  50 1260.94 -4.30494e-10 1.40929e-14
  51 1260.94 -4.29736e-10 -1.01372e-13
  52 1260.94 -4.29736e-10 -1.05260e-15
  53 1260.94 -4.31100e-10 1.07013e-13
  54 1260.94 -4.31100e-10 4.01164e-14
  55 1260.94 -4.31100e-10 6.75815e-14
  56 1260.94 -4.30494e-10 6.19408e-14
  57 1260.94 -4.30343e-10 1.54897e-13
  58 1260.94 -4.30343e-10 2.16829e-13
  59 1260.94 -4.29931e-10 2.44981e-13
  60 1260.94 -4.29585e-10 -5.07678e-13
  61 1260.94 -4.29433e-10 -3.15434e-13
  62 1260.94 -4.30494e-10 -2.06325e-13
  63 1260.94 -4.30555e-10 3.38338e-14
  64 1260.94 -4.30343e-10 -1.54852e-14
  65 1260.94 -4.30797e-10 2.35688e-13
  66 1260.94 -4.30191e-10 1.46427e-13
  67 1260.94 -4.29888e-10 2.11246e-13
  68 1260.94 -4.30797e-10 3.46364e-13
  69 1260.94 -4.29281e-10 -4.12797e-13
  70 1260.94 -4.29964e-10 -1.89039e-13
  71 1260.94 -4.30494e-10 -6.33711e-14
  72 1260.94 -4.30451e-10 -1.90214e-13
  73 1260.94 -4.29411e-10 5.76957e-13
  74 1260.94 -4.30191e-10 5.32178e-14
  75 1260.94 -4.29827e-10 -1.85876e-13
  76 1260.94 -4.30343e-10 1.07031e-13
  77 1260.94 -4.30797e-10 -3.30946e-14
  78 1260.94 -4.29736e-10 -7.78703e-13
  79 1260.94 -4.29411e-10 -2.54070e-13
  80 1260.94 -4.29433e-10 -4.56247e-13
  81 1260.94 -4.30191e-10 4.59117e-13
  82 1260.94 -4.30191e-10 3.89618e-13
  83 1260.94 -4.30343e-10 -1.09869e-13
  84 1260.94 -4.29433e-10 -1.18304e-13
  85 1260.94 -4.30494e-10 2.42185e-13
  86 1260.94 -4.29888e-10 4.81622e-13
  87 1260.94 -4.31100e-10 2.04321e-14
  88 1260.94 -4.28736e-10 7.32407e-14
  89 1260.94 -4.31100e-10 -8.43962e-15
  90 1260.94 -4.29888e-10 -1.77451e-13
  91 1260.94 -4.30737e-10 -1.53799e-13
  92 1260.94 -4.30373e-10 1.47426e-13
  93 1260.94 -4.30191e-10 1.21701e-13
  94 1260.94 -4.30373e-10 -2.43326e-13
  95 1260.94 -4.30009e-10 -1.63944e-13
  96 1260.94 -4.29888e-10 -2.14098e-13
  97 1260.94 -4.30009e-10 -5.40652e-14
  98 1260.94 -4.30555e-10 1.26662e-14
  99 1260.94 -4.30949e-10 -1.23953e-13
  100 1260.94 -4.30191e-10 8.43962e-15
  101 1260.94 -4.30191e-10 8.16745e-14
  102 1260.94 -4.29645e-10 -1.38564e-13
  103 1260.94 -4.29585e-10 4.74589e-13
  104 1260.94 -4.30737e-10 -4.39549e-14
  105 1260.94 -4.30373e-10 -8.02975e-14
  106 1260.94 -4.29888e-10 -2.02789e-13
  107 1260.94 -4.30646e-10 3.15452e-13
  108 1260.94 -4.30646e-10 -5.98445e-14
  109 1260.94 -4.30373e-10 -6.92899e-14
  110 1260.94 -4.29463e-10 1.08130e-13
  111 1260.94 -4.29509e-10 -7.98638e-14
  112 1260.94 -4.30191e-10 -6.48172e-14
  113 1260.94 -4.30841e-10 -1.46777e-13
  114 1260.94 -4.29801e-10 -1.32642e-13
  115 1260.94 -4.29736e-10 -4.03863e-13
  116 1260.94 -4.29463e-10 -1.84173e-13
  117 1260.94 -4.28524e-10 2.47844e-13
  118 1260.94 -4.30494e-10 6.42354e-14
  119 1260.94 -4.30711e-10 -2.00389e-13
  120 1260.94 -4.30191e-10 -4.22450e-13
  121 1260.94 -4.30581e-10 -6.76046e-14
  122 1260.94 -4.29022e-10 -1.18295e-13
  123 1260.94 -4.29281e-10 1.61735e-14
  124 1260.94 -4.29541e-10 5.87071e-13
  125 1260.94 -4.29509e-10 3.64273e-14
  126 1260.94 -4.30418e-10 4.32877e-14
  127 1260.94 -4.30321e-10 2.96876e-13
  128 1260.94 -4.29395e-10 7.60158e-14
  129 1260.94 -4.30532e-10 -3.43502e-14
  130 1260.94 -4.28978e-10 -1.18295e-13
  131 1260.94 -4.30343e-10 -1.21925e-13
  132 1260.94 -4.30418e-10 -4.03535e-14
  133 1260.94 -4.29801e-10 4.24890e-13
  134 1260.94 -4.29801e-10 -4.34760e-14
  135 1260.94 -4.28892e-10 -8.68752e-14
  136 1260.94 -4.31100e-10 1.83389e-13
  137 1260.94 -4.29152e-10 1.77893e-13
  138 1260.94 -4.30191e-10 -4.64825e-14
  139 1260.94 -4.30841e-10 1.48444e-13
  140 1260.94 -4.30321e-10 1.31591e-13
  141 1260.94 -4.29585e-10 -4.53454e-13
  142 1260.94 -4.30646e-10 -6.76264e-14
  143 1260.94 -4.30451e-10 -1.42439e-13
  144 1260.94 -4.30009e-10 2.47613e-13
  145 1260.94 -4.29100e-10 -2.17959e-13
  146 1260.94 -4.30451e-10 2.00943e-13
  147 1260.94 -4.29736e-10 -2.68016e-13
  148 1260.94 -4.30646e-10 1.88683e-13
  149 1260.94 -4.29736e-10 3.32348e-13
  150 1260.94 -4.30797e-10 -1.99692e-13
  151 1260.94 -4.29433e-10 -1.49274e-13
  152 1260.94 -4.30039e-10 -1.23922e-13
  153 1260.94 -4.30646e-10 2.28088e-13
  154 1260.94 -4.28736e-10 -2.50073e-13
  155 1260.94 -4.28069e-10 -1.13340e-13
  156 1260.94 -4.30971e-10 1.88317e-13
  157 1260.94 -4.30711e-10 -4.67770e-14
  158 1260.94 -4.29888e-10 -7.63252e-13
  159 1260.94 -4.29888e-10 -2.67546e-13
  160 1260.94 -4.30919e-10 3.80213e-14
  161 1260.94 -4.30191e-10 -2.02745e-13
  162 1260.94 -4.30343e-10 3.68218e-13
  163 1260.94 -4.30039e-10 -6.81591e-13
  164 1260.94 -4.30321e-10 1.03809e-13
  165 1260.94 -4.29585e-10 -1.33791e-13
  166 1260.94 -4.30191e-10 2.17409e-14
  167 1260.94 -4.30061e-10 5.50430e-13
  168 1260.94 -4.28112e-10 1.02272e-14
  169 1260.94 -4.30971e-10 -3.86334e-14
  170 1260.94 -4.29645e-10 -8.78237e-14
  171 1260.94 -4.30451e-10 -3.13656e-14
  172 1260.94 -4.31100e-10 -3.26752e-13
  173 1260.94 -4.30494e-10 1.29165e-15
  174 1260.94 -4.29888e-10 -4.36495e-13
  175 1260.94 -4.30646e-10 7.04889e-14
  176 1260.94 -4.30191e-10 3.51830e-14
  177 1260.94 -4.29433e-10 -4.61991e-13
  178 1260.94 -4.30494e-10 -2.14062e-13
  179 1260.94 -4.29827e-10 -2.36482e-14
  180 1260.94 -4.30451e-10 3.34343e-13
  181 1260.94 -4.30343e-10 1.77428e-13
  182 1260.94 -4.30373e-10 1.04820e-13
  183 1260.94 -4.30343e-10 -3.83047e-13
  184 1260.94 -4.30373e-10 -3.65005e-13
  185 1260.94 -4.28827e-10 -1.22543e-13
  186 1260.94 -4.30919e-10 -1.69223e-14
  187 1260.94 -4.29736e-10 -1.34335e-13
  188 1260.94 -4.30919e-10 -2.68332e-13
  189 1260.94 -4.30373e-10 1.18241e-13
  190 1260.94 -4.30841e-10 -1.07590e-13
  191 1260.94 -4.30797e-10 1.40804e-13
  192 1260.94 -4.30321e-10 2.89689e-13
  193 1260.94 -4.29463e-10 -3.99998e-13
  194 1260.94 -4.31252e-10 9.36467e-13
  195 1260.94 -4.31100e-10 8.28263e-15
  196 1260.94 -4.29736e-10 2.72431e-14
  197 1260.94 -4.30646e-10 2.82038e-15
  198 1260.94 -4.29736e-10 1.80253e-13
  199 1260.94 -4.30191e-10 4.36442e-14
  200 1260.94 -4.29736e-10 -1.05612e-13
  201 1260.94 -4.29736e-10 2.15421e-13
  202 1260.94 -4.30009e-10 3.88653e-13
  203 1260.94 -4.29585e-10 -1.09833e-13
  204 1260.94 -4.30797e-10 -1.11273e-13
  205 1260.94 -4.30343e-10 1.46463e-13
  206 1260.94 -4.28372e-10 -2.02766e-13
  207 1260.94 -4.30737e-10 2.61307e-13
  208 1260.94 -4.29100e-10 -3.36895e-13
  209 1260.94 -4.30343e-10 6.77351e-13
  210 1260.94 -4.30797e-10 -6.70662e-14
  211 1260.94 -4.30061e-10 -1.99149e-13
  212 1260.94 -4.28736e-10 -4.83289e-13
  213 1260.94 -4.31100e-10 6.04406e-14
  214 1260.94 -4.30343e-10 2.46946e-13
  215 1260.94 -4.29100e-10 5.51498e-13
  216 1260.94 -4.29827e-10 -6.91187e-13
  217 1260.94 -4.29736e-10 4.78774e-13
  218 1260.94 -4.30343e-10 -3.29332e-14
  219 1260.94 -4.30919e-10 1.41889e-13
  220 1260.94 -4.30949e-10 -1.66178e-13
  221 1260.94 -4.29736e-10 -1.46445e-13
  222 1260.94 -4.29433e-10 3.18255e-13
  223 1260.94 -4.30919e-10 -2.63643e-13
  224 1260.94 -4.30373e-10 -7.43827e-14
  225 1260.94 -4.30191e-10 2.36535e-14
  226 1260.94 -4.29827e-10 4.89885e-14
  227 1260.94 -4.31100e-10 1.69043e-14
  228 1260.94 -4.29281e-10 -7.09767e-14
  229 1260.94 -4.30343e-10 1.53478e-13
  230 1260.94 -4.29888e-10 4.39352e-13
  231 1260.94 -4.29463e-10 1.34948e-14
  232 1260.94 -4.30373e-10 -2.15598e-14
  233 1260.94 -4.29827e-10 7.23262e-13
  234 1260.94 -4.30191e-10 -1.55631e-13
  235 1260.94 -4.30373e-10 -9.75716e-14
  236 1260.94 -4.30061e-10 -1.08632e-14
  237 1260.94 -4.30919e-10 -3.82899e-13
  238 1260.94 -4.28736e-10 -7.29988e-13
  239 1260.94 -4.29433e-10 1.12905e-14
  240 1260.94 -4.30009e-10 4.02191e-13
  241 1260.94 -4.30494e-10 4.50185e-14
</Section>

newXOutput 78

<Section columns = "stress_xx | stress_yy | stress_xy">
  1 1252.74 -4.19988e-10 -1.59510e-12
  2 1252.74 -4.15967e-10 3.45167e-12
  3 1252.74 -4.19094e-10 3.02725e-13
  4 1252.74 -4.18201e-10 1.48048e-12
  5 1252.74 -4.21179e-10 -1.28548e-12
  6 1252.74 -4.21775e-10 -8.61924e-13
  7 1252.74 -4.21328e-10 4.40855e-13
  8 1252.74 -4.18201e-10 2.42435e-12
  9 1252.74 -4.16413e-10 3.88800e-13
  10 1252.74 -4.20881e-10 -6.29246e-12
  11 1252.74 -4.23562e-10 -4.93369e-12
  12 1252.74 -4.24158e-10 1.16405e-12
  13 1252.74 -4.22445e-10 -3.77340e-13
  14 1252.74 -4.22371e-10 5.19925e-12
  15 1252.74 -4.21328e-10 5.86461e-12
  16 1252.74 -4.19094e-10 2.08103e-12
  17 1252.74 -4.19392e-10 -5.28622e-12
  18 1252.74 -4.22073e-10 -4.55808e-12
  19 1252.74 -4.21775e-10 -2.49813e-12
  20 1252.74 -4.19690e-10 -6.50069e-12
  21 1252.74 -4.25349e-10 -5.39428e-12
  22 1252.74 -4.25051e-10 6.15212e-12
  23 1252.74 -4.20286e-10 7.57746e-12
  24 1252.74 -4.17903e-10 1.33113e-13
  25 1252.74 -4.18201e-10 1.32451e-13
  26 1252.74 -4.18424e-10 -1.16871e-12
  27 1252.74 -4.19392e-10 7.53205e-13
  28 1252.74 -4.19764e-10 -2.60762e-13
  29 1252.74 -4.17754e-10 2.64901e-13
  30 1252.74 -4.18201e-10 -8.25666e-13
  31 1252.74 -4.20286e-10 -7.76165e-13
  32 1252.74 -4.20881e-10 -3.25371e-12
  33 1252.74 -4.23115e-10 -2.00933e-12
  34 1252.74 -4.22371e-10 -2.67238e-12
  35 1252.74 -4.21552e-10 9.26319e-13
  36 1252.74 -4.16413e-10 2.46178e-12
  37 1252.74 -4.15818e-10 -8.06127e-12
  38 1252.74 -4.25349e-10 -1.06524e-11
  39 1252.74 -4.26839e-10 1.70121e-12
  40 1252.74 -4.22371e-10 9.51998e-12
  41 1252.74 -4.18201e-10 1.71914e-12
  42 1252.74 -4.19988e-10 -4.87163e-12
  43 1252.74 -4.25349e-10 1.65632e-12
  44 1252.74 -4.22669e-10 7.28198e-12
  45 1252.74 -4.17605e-10 3.64243e-12
  46 1252.74 -4.16711e-10 -7.44598e-12
  47 1252.74 -4.26541e-10 -1.10281e-11
  48 1252.74 -4.28328e-10 2.98405e-12
  49 1252.74 -4.21775e-10 5.58731e-12
  50 1252.74 -4.26541e-10 -1.14215e-12
  51 1252.74 -4.23115e-10 1.05961e-12
  52 1252.74 -4.20211e-10 1.46956e-12
  53 1252.74 -4.20286e-10 -1.22616e-12
  54 1252.74 -4.24902e-10 -1.68734e-12
  55 1252.74 -4.23115e-10 1.05961e-12
  56 1252.74 -4.20583e-10 1.06481e-12
  57 1252.74 -4.21328e-10 1.32140e-12
  58 1252.74 -4.24307e-10 -3.90700e-12
  59 1252.74 -4.21264e-10 -2.56943e-12
  60 1252.74 -4.19839e-10 5.30543e-12
  61 1252.74 -4.24009e-10 1.69626e-12
  62 1252.74 -4.26094e-10 -1.68291e-12
  63 1252.74 -4.19988e-10 1.39924e-12
  64 1252.74 -4.23711e-10 -4.18764e-12
  65 1252.74 -4.23115e-10 4.22074e-12
  66 1252.74 -4.21328e-10 -4.08149e-13
  67 1252.74 -4.24158e-10 2.20006e-12
  68 1252.74 -4.21030e-10 -3.81322e-12
  69 1252.74 -4.23945e-10 -1.31349e-12
  70 1252.74 -4.19429e-10 1.50262e-12
  71 1252.74 -4.17307e-10 -3.45136e-12
  72 1252.74 -4.24073e-10 3.31951e-12
  73 1252.74 -4.23945e-10 -1.28476e-12
  74 1252.74 -4.17664e-10 -3.15305e-12
  75 1252.74 -4.23205e-10 -1.02817e-14
  76 1252.74 -4.21030e-10 -1.23152e-12
  77 1252.74 -4.21328e-10 -1.81661e-12
  78 1252.74 -4.23413e-10 2.82678e-12
  79 1252.74 -4.20115e-10 -2.05860e-12
  80 1252.74 -4.21179e-10 2.39805e-14
  81 1252.74 -4.20881e-10 9.18354e-13
  82 1252.74 -4.19690e-10 1.59927e-12
  83 1252.74 -4.18052e-10 4.12546e-12
  84 1252.74 -4.21030e-10 5.99582e-13
  85 1252.74 -4.17009e-10 -2.09548e-13
  86 1252.74 -4.17456e-10 7.23240e-13
  87 1252.74 -4.21626e-10 -5.72487e-12
  88 1252.74 -4.20524e-10 -1.45085e-12
  89 1252.74 -4.21060e-10 6.68663e-12
  90 1252.74 -4.17158e-10 -3.71166e-13
  91 1252.74 -4.19988e-10 -9.98835e-13
  92 1252.74 -4.23920e-10 -1.61639e-12
  93 1252.74 -4.19630e-10 1.28696e-12
  94 1252.74 -4.19988e-10 4.73412e-13
  95 1252.74 -4.25707e-10 5.77229e-13
  96 1252.74 -4.21477e-10 -9.31737e-13
  97 1252.74 -4.21954e-10 6.06413e-12
  98 1252.74 -4.17664e-10 4.97105e-12
  99 1252.74 -4.24456e-10 -6.55492e-13
  100 1252.74 -4.17664e-10 1.63164e-12
  101 1252.74 -4.21775e-10 -1.34108e-12
  102 1252.74 -4.22132e-10 3.01784e-12
  103 1252.74 -4.20286e-10 2.70184e-12
  104 1252.74 -4.21417e-10 -6.63402e-12
  105 1252.74 -4.21239e-10 -8.85261e-12
  106 1252.74 -4.22669e-10 -3.02787e-13
  107 1252.74 -4.20435e-10 -2.60299e-12
  108 1252.74 -4.21626e-10 2.80134e-12
  109 1252.74 -4.24813e-10 -4.62253e-12
  110 1252.74 -4.20703e-10 2.00729e-12
  111 1252.74 -4.23115e-10 -9.10734e-13
  112 1252.74 -4.18498e-10 5.46166e-12
  113 1252.74 -4.20115e-10 4.08701e-12
  114 1252.74 -4.20243e-10 5.26960e-12
  115 1252.74 -4.21328e-10 -1.91277e-12
  116 1252.74 -4.23205e-10 3.38633e-12
  117 1252.74 -4.22222e-10 4.04776e-13
  118 1252.74 -4.19243e-10 1.41742e-12
  119 1252.74 -4.21392e-10 3.83039e-13
  120 1252.74 -4.23562e-10 2.90516e-12
  121 1252.74 -4.19732e-10 5.18474e-12
  122 1252.74 -4.21009e-10 1.27673e-12
  123 1252.74 -4.20732e-10 -7.54323e-12
  124 1252.74 -4.21775e-10 -3.68913e-12
  125 1252.74 -4.22333e-10 2.13306e-12
  126 1252.74 -4.17642e-10 6.22639e-13
  127 1252.74 -4.21903e-10 -1.34750e-12
  128 1252.74 -4.22780e-10 5.06631e-14
  129 1252.74 -4.18201e-10 3.10993e-12
  130 1252.74 -4.20583e-10 -1.34329e-12
  131 1252.74 -4.24307e-10 -2.64563e-12
  132 1252.74 -4.22333e-10 -2.59619e-12
  133 1252.74 -4.18839e-10 -2.94911e-12
  134 1252.74 -4.21264e-10 -2.69916e-13
  135 1252.74 -4.21775e-10 4.39155e-12
  136 1252.74 -4.23051e-10 -4.02779e-12
  137 1252.74 -4.22924e-10 6.94469e-13
  138 1252.74 -4.19094e-10 2.31449e-12
  139 1252.74 -4.23179e-10 -5.18341e-12
  140 1252.74 -4.22030e-10 -4.26042e-12
  141 1252.74 -4.20732e-10 -1.07057e-12
  142 1252.74 -4.17605e-10 6.19346e-13
  143 1252.74 -4.20881e-10 -3.54414e-12
  144 1252.74 -4.19452e-10 -8.13138e-12
  145 1252.74 -4.21954e-10 4.15617e-13
  146 1252.74 -4.24328e-10 2.48937e-12
  147 1252.74 -4.21179e-10 -2.21469e-12
  148 1252.74 -4.21626e-10 -4.28719e-12
  149 1252.74 -4.21626e-10 4.01768e-13
  150 1252.74 -4.21924e-10 -6.97478e-13
  151 1252.74 -4.23115e-10 6.93339e-12
  152 1252.74 -4.22073e-10 5.95385e-12
  153 1252.74 -4.21626e-10 -8.58253e-13
  154 1252.74 -4.21060e-10 4.79009e-13
  155 1252.74 -4.17456e-10 -7.03741e-13
  156 1252.74 -4.21137e-10 -1.96609e-12
  157 1252.74 -4.23817e-10 2.43375e-12
  158 1252.74 -4.19541e-10 1.97051e-12
  159 1252.74 -4.21179e-10 -5.61730e-13
  160 1252.74 -4.19809e-10 1.27563e-13
  161 1252.74 -4.20524e-10 1.16212e-12
  162 1252.74 -4.19094e-10 1.45761e-12
  163 1252.74 -4.22222e-10 1.52098e-12
  164 1252.74 -4.21137e-10 2.42378e-12
  165 1252.74 -4.18349e-10 -2.10848e-12
  166 1252.74 -4.23307e-10 1.63453e-12
  167 1252.74 -4.17179e-10 6.26311e-14
  168 1252.74 -4.18584e-10 1.63188e-15
  169 1252.74 -4.22924e-10 3.16439e-12
  170 1252.74 -4.23562e-10 8.85898e-13
  171 1252.74 -4.19860e-10 -3.92359e-12
  172 1252.74 -4.24902e-10 8.09387e-13
  173 1252.74 -4.20435e-10 2.84018e-12
  174 1252.74 -4.17158e-10 1.71629e-12
  175 1252.74 -4.23562e-10 -4.02840e-12
  176 1252.74 -4.21030e-10 1.95510e-13
  177 1252.74 -4.19690e-10 -2.62255e-13
  178 1252.74 -4.21477e-10 -3.24074e-12
  179 1252.74 -4.22132e-10 4.44160e-12
  180 1252.74 -4.21903e-10 -2.88196e-12
  181 1252.74 -4.23413e-10 1.88284e-12
  182 1252.74 -4.20345e-10 1.01766e-11
  183 1252.74 -4.24158e-10 -1.54035e-12
  184 1252.74 -4.17843e-10 -1.32610e-12
  185 1252.74 -4.16562e-10 2.02824e-12
  186 1252.74 -4.23920e-10 4.47304e-12
  187 1252.74 -4.21328e-10 -7.86309e-13
  188 1252.74 -4.21596e-10 -5.04113e-12
  189 1252.74 -4.21417e-10 1.67493e-12
  190 1252.74 -4.18584e-10 -3.62849e-13
  191 1252.74 -4.22073e-10 -5.87632e-12
  192 1252.74 -4.19222e-10 2.24109e-12
  193 1252.74 -4.22490e-10 3.69489e-12
  194 1252.74 -4.22966e-10 -1.08809e-12
  195 1252.74 -4.21626e-10 6.31766e-12
  196 1252.74 -4.21924e-10 3.60888e-13
  197 1252.74 -4.21924e-10 4.04676e-12
  198 1252.74 -4.23860e-10 -4.01541e-12
  199 1252.74 -4.22966e-10 1.18297e-12
  200 1252.74 -4.19839e-10 -8.92955e-12
  201 1252.74 -4.20583e-10 4.60385e-12
  202 1252.74 -4.20345e-10 -1.08660e-11
  203 1252.74 -4.20435e-10 3.81409e-12
  204 1252.74 -4.23115e-10 -1.61579e-12
  205 1252.74 -4.18349e-10 2.65840e-12
  206 1252.74 -4.20345e-10 7.78857e-12
  207 1252.74 -4.19988e-10 8.49166e-13
  208 1252.74 -4.21775e-10 8.58599e-13
  209 1252.74 -4.23264e-10 -9.89751e-13
  210 1252.74 -4.20435e-10 1.18699e-12
  211 1252.74 -4.22030e-10 -2.41178e-13
  212 1252.74 -4.21060e-10 3.54657e-12
  213 1252.74 -4.24277e-10 -5.30874e-12
  214 1252.74 -4.26094e-10 2.19228e-12
  215 1252.74 -4.19988e-10 -4.15846e-12
  216 1252.74 -4.26243e-10 -2.82942e-12
  217 1252.74 -4.24605e-10 -6.50118e-12
  218 1252.74 -4.17903e-10 -3.01442e-12
  219 1252.74 -4.19452e-10 -1.79956e-12
  220 1252.74 -4.22371e-10 -1.41932e-12
  221 1252.74 -4.20435e-10 6.27776e-14
  222 1252.74 -4.21477e-10 5.77271e-12
  223 1252.74 -4.20703e-10 -2.50908e-12
  224 1252.74 -4.16235e-10 -1.59110e-12
  225 1252.74 -4.23383e-10 -8.73249e-13
  226 1252.74 -4.18915e-10 -1.51993e-12
  227 1252.74 -4.21477e-10 -4.31572e-12
  228 1252.74 -4.17843e-10 7.34466e-12
  229 1252.74 -4.23562e-10 -7.49835e-12
  230 1252.74 -4.23562e-10 9.52875e-13
  231 1252.74 -4.21060e-10 2.05597e-13
  232 1252.74 -4.22669e-10 7.19305e-12
  233 1252.74 -4.21060e-10 7.62804e-12
  234 1252.74 -4.26690e-10 7.88199e-13
  235 1252.74 -4.19988e-10 -4.88354e-12
  236 1252.74 -4.20371e-10 4.80939e-12
  237 1252.74 -4.28209e-10 5.05047e-13
  238 1252.74 -4.24098e-10 -5.18115e-12
  239 1252.74 -4.21477e-10 1.38902e-12
  240 1252.74 -4.22132e-10 -5.91291e-12
  241 1252.74 -4.18201e-10 1.51761e-12
</Section>

newXOutput 79

<Section columns = "stress_xx | stress_yy | stress_xy">
  1 1232.27 -3.96453e-10 -4.61636e-12
  2 1232.27 -4.37750e-10 -1.89044e-11
  3 1232.27 -4.02104e-10 -5.46622e-12
  4 1232.27 -3.99496e-10 9.56775e-12
  5 1232.27 -4.01090e-10 -1.77954e-11
  6 1232.27 -4.11233e-10 -2.49690e-11
  7 1232.27 -4.17971e-10 5.84386e-12
  8 1232.27 -4.01669e-10 1.22565e-11
  9 1232.27 -4.03698e-10 1.29874e-12
  10 1232.27 -4.08045e-10 4.24724e-13
  11 1232.27 -4.09204e-10 3.60607e-12
  12 1232.27 -4.10073e-10 9.37573e-12
  13 1232.27 -4.07755e-10 -2.61733e-12
  14 1232.27 -4.09204e-10 6.07629e-12
  15 1232.27 -4.07755e-10 4.95885e-12
  16 1232.27 -4.06886e-10 1.01475e-11
  17 1232.27 -4.03988e-10 -2.67088e-12
  18 1232.27 -4.08914e-10 -8.23427e-12
  19 1232.27 -4.24564e-10 1.02797e-11
  20 1232.27 -4.16739e-10 3.81932e-11
  21 1232.27 -3.85730e-10 2.66993e-11
  22 1232.27 -3.83122e-10 -3.27375e-11
  23 1232.27 -4.09494e-10 -4.56403e-11
  24 1232.27 -4.21666e-10 3.78724e-12
  25 1232.27 -4.21231e-10 -1.73514e-12
  26 1232.27 -4.17971e-10 2.55506e-12
  27 1232.27 -4.07175e-10 7.77894e-12
  28 1232.27 -4.13189e-10 -8.29763e-12
  29 1232.27 -4.18623e-10 4.24145e-12
  30 1232.27 -4.06596e-10 4.63776e-12
  31 1232.27 -4.08624e-10 -1.02662e-11
  32 1232.27 -4.08624e-10 -8.24046e-12
  33 1232.27 -4.16667e-10 6.09739e-12
  34 1232.27 -4.09784e-10 1.66029e-11
  35 1232.27 -4.00148e-10 5.26755e-12
  36 1232.27 -4.07465e-10 -1.13638e-11
  37 1232.27 -4.10943e-10 -9.33358e-12
  38 1232.27 -4.11812e-10 7.42232e-15
  39 1232.27 -4.20506e-10 1.13308e-11
  40 1232.27 -4.15290e-10 4.20918e-11
  41 1232.27 -3.95293e-10 1.54294e-11
  42 1232.27 -4.05726e-10 -2.71680e-12
  43 1232.27 -4.12392e-10 1.14685e-11
  44 1232.27 -4.01379e-10 8.28067e-12
  45 1232.27 -4.01379e-10 -7.40581e-12
  46 1232.27 -4.10943e-10 -7.93201e-12
  47 1232.27 -4.10943e-10 6.64030e-12
  48 1232.27 -4.10073e-10 1.08550e-11
  49 1232.27 -4.09784e-10 1.51414e-11
  50 1232.27 -3.94424e-10 -8.41669e-13
  51 1232.27 -3.95583e-10 9.63967e-14
  52 1232.27 -4.02756e-10 -1.06527e-12
  53 1232.27 -4.09204e-10 -4.37110e-12
  54 1232.27 -3.99278e-10 9.40896e-12
  55 1232.27 -3.91671e-10 -4.30572e-12
  56 1232.27 -4.03988e-10 -1.59327e-12
  57 1232.27 -4.00800e-10 1.12050e-11
  58 1232.27 -4.07031e-10 -8.15441e-12
  59 1232.27 -4.08252e-10 -2.80807e-12
  60 1232.27 -4.10363e-10 -7.88978e-12
  61 1232.27 -4.05002e-10 -6.21330e-12
  62 1232.27 -4.00945e-10 2.06424e-11
  63 1232.27 -4.08624e-10 -2.00434e-11
  64 1232.27 -3.95873e-10 8.39063e-12
  65 1232.27 -4.10073e-10 -8.73833e-14
  66 1232.27 -4.09639e-10 5.99183e-12
  67 1232.27 -4.02683e-10 -1.05723e-11
  68 1232.27 -4.13261e-10 1.47883e-11
  69 1232.27 -3.99061e-10 2.16680e-12
  70 1232.27 -4.12537e-10 1.11082e-12
  71 1232.27 -4.12971e-10 2.24710e-13
  72 1232.27 -4.04402e-10 1.60639e-12
  73 1232.27 -3.99930e-10 -9.61780e-13
  74 1232.27 -4.08972e-10 1.01595e-11
  75 1232.27 -4.07059e-10 4.84824e-12
  76 1232.27 -4.06451e-10 1.60226e-11
  77 1232.27 -4.13986e-10 -7.69218e-12
  78 1232.27 -4.03118e-10 -9.01506e-12
  79 1232.27 -4.11605e-10 2.60616e-12
  80 1232.27 -4.10073e-10 -9.31405e-12
  81 1232.27 -4.05292e-10 8.69377e-12
  82 1232.27 -4.14855e-10 1.05626e-11
  83 1232.27 -4.11233e-10 -1.40738e-11
  84 1232.27 -4.13116e-10 -1.24157e-11
  85 1232.27 -4.11957e-10 -2.12692e-13
  86 1232.27 -4.11667e-10 1.16086e-11
  87 1232.27 -4.09639e-10 -1.13618e-12
  88 1232.27 -4.11754e-10 1.73795e-11
  89 1232.27 -4.07929e-10 -1.39340e-11
  90 1232.27 -4.04857e-10 4.71301e-12
  91 1232.27 -4.05321e-10 -1.83612e-11
  92 1232.27 -4.05668e-10 1.01441e-13
  93 1232.27 -4.12450e-10 -7.54236e-12
  94 1232.27 -4.15406e-10 1.62977e-11
  95 1232.27 -4.13841e-10 -1.77607e-11
  96 1232.27 -4.05581e-10 -4.90438e-12
  97 1232.27 -3.96627e-10 -3.20855e-11
  98 1232.27 -4.18536e-10 7.10316e-12
  99 1232.27 -4.09059e-10 -1.55210e-11
  100 1232.27 -4.20796e-10 -1.48865e-11
  101 1232.27 -4.02828e-10 3.90875e-12
  102 1232.27 -4.05668e-10 -1.09462e-11
  103 1232.27 -4.06741e-10 6.33466e-12
  104 1232.27 -4.07407e-10 1.91062e-11
  105 1232.27 -4.03234e-10 -1.67349e-11
  106 1232.27 -4.04567e-10 1.24296e-11
  107 1232.27 -4.11088e-10 1.12866e-11
  108 1232.27 -4.05437e-10 -5.40601e-12
  109 1232.27 -4.01843e-10 2.30727e-11
  110 1232.27 -4.11059e-10 -2.16629e-11
  111 1232.27 -4.12211e-10 7.93454e-12
  112 1232.27 -4.05581e-10 -9.45972e-12
  113 1232.27 -4.12102e-10 -5.44450e-12
  114 1232.27 -4.07755e-10 -8.47223e-12
  115 1232.27 -4.04277e-10 5.96896e-12
  116 1232.27 -4.08972e-10 -1.16728e-11
  117 1232.27 -4.05002e-10 1.16427e-11
  118 1232.27 -4.13551e-10 -1.40681e-11
  119 1232.27 -4.09742e-10 -1.22843e-11
  120 1232.27 -3.97177e-10 -8.10028e-12
  121 1232.27 -4.12226e-10 -1.08992e-11
  122 1232.27 -4.10984e-10 -2.88059e-13
  123 1232.27 -4.07755e-10 1.46931e-11
  124 1232.27 -4.03408e-10 1.13160e-11
  125 1232.27 -4.05908e-10 4.85632e-12
  126 1232.27 -4.08624e-10 3.27166e-13
  127 1232.27 -4.10487e-10 7.06890e-12
  128 1232.27 -4.07538e-10 -2.68213e-12
  129 1232.27 -4.09820e-10 -4.51194e-14
  130 1232.27 -4.11957e-10 -3.76800e-12
  131 1232.27 -4.05292e-10 -6.74590e-12
  132 1232.27 -4.03517e-10 -2.65753e-12
  133 1232.27 -4.08749e-10 4.01242e-12
  134 1232.27 -4.09742e-10 -1.32731e-12
  135 1232.27 -3.93720e-10 -1.34693e-11
  136 1232.27 -4.15828e-10 7.05123e-12
  137 1232.27 -4.00800e-10 -2.90758e-12
  138 1232.27 -4.09639e-10 -1.01508e-11
  139 1232.27 -4.00179e-10 1.88867e-11
  140 1232.27 -4.14089e-10 -8.55632e-13
  141 1232.27 -4.10943e-10 -5.53944e-12
  142 1232.27 -4.07175e-10 3.85241e-12
  143 1232.27 -4.08128e-10 -6.75276e-14
  144 1232.27 -4.13667e-10 1.49150e-11
  145 1232.27 -4.13667e-10 8.70018e-12
  146 1232.27 -4.08624e-10 -9.21075e-12
  147 1232.27 -4.12102e-10 -3.25400e-12
  148 1232.27 -4.16304e-10 1.35716e-11
  149 1232.27 -4.00655e-10 -7.87461e-12
  150 1232.27 -4.04567e-10 1.20883e-11
  151 1232.27 -4.02249e-10 -4.64776e-12
  152 1232.27 -4.10073e-10 -6.05315e-12
  153 1232.27 -4.08480e-10 5.33012e-13
  154 1232.27 -4.13145e-10 -8.13283e-12
  155 1232.27 -4.10508e-10 6.65678e-13
  156 1232.27 -4.04277e-10 1.38173e-11
  157 1232.27 -4.10487e-10 -1.20390e-11
  158 1232.27 -4.07465e-10 7.80112e-12
  159 1232.27 -4.06596e-10 -4.30029e-12
  160 1232.27 -4.10537e-10 -1.64719e-11
  161 1232.27 -4.06886e-10 2.17001e-11
  162 1232.27 -4.11088e-10 4.44404e-13
  163 1232.27 -4.05437e-10 -7.54384e-13
  164 1232.27 -4.06016e-10 -7.44589e-12
  165 1232.27 -4.13696e-10 4.01079e-12
  166 1232.27 -3.99806e-10 -1.48692e-12
  167 1232.27 -4.19057e-10 -3.96236e-13
  168 1232.27 -4.14089e-10 9.12881e-12
  169 1232.27 -3.99309e-10 -1.04007e-11
  170 1232.27 -3.97148e-10 -7.27143e-12
  171 1232.27 -4.05892e-10 2.21420e-13
  172 1232.27 -4.10073e-10 -9.35781e-12
  173 1232.27 -4.01524e-10 -5.70556e-12
  174 1232.27 -4.17029e-10 -2.49792e-12
  175 1232.27 -4.03698e-10 5.73376e-12
  176 1232.27 -4.02973e-10 -8.46922e-13
  177 1232.27 -4.06886e-10 1.95591e-12
  178 1232.27 -3.96308e-10 8.48148e-12
  179 1232.27 -4.08451e-10 -1.11819e-11
  180 1232.27 -4.05147e-10 1.65856e-11
  181 1232.27 -4.13986e-10 -4.90712e-12
  182 1232.27 -4.13145e-10 -2.09946e-11
  183 1232.27 -4.07175e-10 -1.33824e-11
  184 1232.27 -4.04973e-10 -3.63621e-12
  185 1232.27 -4.25868e-10 4.74831e-13
  186 1232.27 -4.10711e-10 -3.90830e-12
  187 1232.27 -4.12682e-10 -6.18937e-13
  188 1232.27 -4.11754e-10 8.23722e-12
  189 1232.27 -4.03234e-10 -8.18339e-12
  190 1232.27 -4.11357e-10 -2.35656e-12
  191 1232.27 -4.03118e-10 2.25077e-11
  192 1232.27 -4.13468e-10 1.17885e-11
  193 1232.27 -3.99583e-10 -8.25545e-12
  194 1232.27 -4.05581e-10 -1.84309e-13
  195 1232.27 -4.03118e-10 -3.24359e-12
  196 1232.27 -4.08769e-10 1.40761e-12
  197 1232.27 -4.07610e-10 -1.24495e-11
  198 1232.27 -4.17319e-10 9.51890e-12
  199 1232.27 -4.05002e-10 -5.74009e-12
  200 1232.27 -4.17029e-10 -6.20468e-13
  201 1232.27 -4.03698e-10 1.07823e-11
  202 1232.27 -4.07755e-10 1.29788e-11
  203 1232.27 -4.07320e-10 3.97207e-12
  204 1232.27 -4.08335e-10 3.28556e-12
  205 1232.27 -4.13986e-10 -1.27354e-11
  206 1232.27 -4.00626e-10 -8.83024e-12
  207 1232.27 -4.15232e-10 -1.34057e-11
  208 1232.27 -4.04103e-10 9.04920e-12
  209 1232.27 -3.98191e-10 -5.26800e-13
  210 1232.27 -4.12971e-10 4.74098e-12
  211 1232.27 -4.09494e-10 -3.26176e-12
  212 1232.27 -3.99061e-10 -1.57980e-11
  213 1232.27 -4.11754e-10 1.45595e-11
  214 1232.27 -4.17463e-10 -5.03010e-12
  215 1232.27 -4.10885e-10 2.11236e-11
  216 1232.27 -4.01669e-10 8.50485e-13
  217 1232.27 -4.00220e-10 4.26314e-12
  218 1232.27 -4.11233e-10 1.88322e-11
  219 1232.27 -4.18014e-10 -5.10251e-12
  220 1232.27 -4.07465e-10 8.28982e-12
  221 1232.27 -4.11522e-10 1.05957e-11
  222 1232.27 -4.07900e-10 -1.32337e-11
  223 1232.27 -4.08103e-10 3.16365e-12
  224 1232.27 -4.09146e-10 5.44218e-12
  225 1232.27 -4.09668e-10 4.79254e-12
  226 1232.27 -4.18536e-10 -3.40578e-12
  227 1232.27 -4.10073e-10 7.82851e-12
  228 1232.27 -4.06538e-10 -3.66682e-12
  229 1232.27 -4.04277e-10 3.16561e-11
  230 1232.27 -4.07175e-10 -2.39952e-11
  231 1232.27 -4.01843e-10 -1.61885e-11
  232 1232.27 -4.16971e-10 -3.83850e-11
  233 1232.27 -3.96453e-10 7.67302e-12
  234 1232.27 -4.10653e-10 4.22371e-13
  235 1232.27 -3.96453e-10 -1.46813e-11
  236 1232.27 -4.10736e-10 -1.53037e-11
  237 1232.27 -4.08972e-10 -3.99342e-12
  238 1232.27 -4.07755e-10 1.55374e-12
  239 1232.27 -4.07465e-10 -1.29748e-11
  240 1232.27 -4.05495e-10 -7.72960e-12
  241 1232.27 -4.05437e-10 -5.22034e-12
</Section>

newXOutput 80

<Section columns = "stress_xx | stress_yy | stress_xy">
  1 1211.87 -3.93320e-10 -1.36624e-12
  2 1211.87 -3.84016e-10 8.22382e-12
  3 1211.87 -3.93320e-10 1.09553e-12
  4 1211.87 -3.78095e-10 1.16807e-11
  5 1211.87 -3.95012e-10 -4.63012e-12
  6 1211.87 -3.97126e-10 -5.67088e-12
  7 1211.87 -4.00298e-10 8.68484e-12
  8 1211.87 -3.93038e-10 9.74383e-12
  9 1211.87 -3.95012e-10 2.86812e-12
  10 1211.87 -3.96140e-10 -2.97970e-13
  11 1211.87 -3.93884e-10 -5.76969e-12
  12 1211.87 -3.95012e-10 -1.01466e-11
  13 1211.87 -4.00087e-10 -4.85181e-12
  14 1211.87 -3.97831e-10 2.71962e-12
  15 1211.87 -3.97549e-10 9.86771e-12
  16 1211.87 -3.93602e-10 9.04232e-12
  17 1211.87 -3.93602e-10 1.61360e-12
  18 1211.87 -3.92474e-10 -3.96080e-12
  19 1211.87 -3.91346e-10 -1.32239e-11
  20 1211.87 -3.96985e-10 -1.70712e-11
  21 1211.87 -4.03752e-10 -3.17344e-12
  22 1211.87 -4.02343e-10 1.70695e-11
  23 1211.87 -3.94730e-10 2.00260e-11
  24 1211.87 -3.83452e-10 -1.83267e-12
  25 1211.87 -3.89514e-10 -2.12020e-12
  26 1211.87 -3.95646e-10 -3.16217e-12
  27 1211.87 -3.97267e-10 2.52558e-12
  28 1211.87 -3.90148e-10 7.00250e-13
  29 1211.87 -3.93320e-10 -1.77723e-12
  30 1211.87 -3.98113e-10 -7.30584e-13
  31 1211.87 -3.91910e-10 -3.14114e-12
  32 1211.87 -3.95012e-10 -9.04207e-12
  33 1211.87 -3.89937e-10 -6.37785e-12
  34 1211.87 -3.92756e-10 -2.48827e-11
  35 1211.87 -4.02413e-10 -1.40511e-11
  36 1211.87 -4.07418e-10 -9.50093e-14
  37 1211.87 -4.04880e-10 2.00845e-11
  38 1211.87 -3.88527e-10 2.43194e-11
  39 1211.87 -3.82042e-10 4.40800e-12
  40 1211.87 -3.88245e-10 -1.49691e-11
  41 1211.87 -3.97267e-10 -2.40740e-11
  42 1211.87 -4.10519e-10 -4.31450e-12
  43 1211.87 -3.99805e-10 2.39297e-11
  44 1211.87 -3.86553e-10 1.86803e-11
  45 1211.87 -3.79223e-10 -2.21661e-12
  46 1211.87 -3.85426e-10 -2.98898e-11
  47 1211.87 -4.12493e-10 -2.86651e-11
  48 1211.87 -4.13902e-10 1.36210e-11
  49 1211.87 -3.95012e-10 2.45206e-11
  50 1211.87 -3.96140e-10 -4.14507e-12
  51 1211.87 -3.93743e-10 2.15138e-12
  52 1211.87 -3.90360e-10 5.53725e-12
  53 1211.87 -3.92474e-10 -1.09673e-11
  54 1211.87 -3.97549e-10 5.50095e-12
  55 1211.87 -3.93320e-10 -3.05558e-12
  56 1211.87 -4.01215e-10 7.65717e-14
  57 1211.87 -3.90078e-10 1.69046e-11
  58 1211.87 -3.92615e-10 -2.16728e-12
  59 1211.87 -3.93320e-10 6.59704e-12
  60 1211.87 -3.92897e-10 -4.06580e-12
  61 1211.87 -3.97408e-10 2.25443e-11
  62 1211.87 -3.91628e-10 1.86797e-12
  63 1211.87 -3.94843e-10 5.83043e-12
  64 1211.87 -4.00369e-10 -8.55382e-12
  65 1211.87 -3.98113e-10 2.62965e-11
  66 1211.87 -3.94166e-10 -4.28391e-12
  67 1211.87 -3.96281e-10 -3.26418e-12
  68 1211.87 -3.92474e-10 -1.33365e-11
  69 1211.87 -3.97791e-10 7.17361e-12
  70 1211.87 -3.92051e-10 4.71220e-13
  71 1211.87 -3.91065e-10 -5.58342e-13
  72 1211.87 -4.02624e-10 1.55295e-12
  73 1211.87 -3.99966e-10 7.56755e-12
  74 1211.87 -3.90275e-10 2.21412e-12
  75 1211.87 -4.02286e-10 1.40881e-11
  76 1211.87 -3.97408e-10 7.97910e-12
  77 1211.87 -4.03470e-10 -1.96974e-11
  78 1211.87 -3.95999e-10 1.30484e-11
  79 1211.87 -3.95012e-10 -6.99148e-12
  80 1211.87 -3.94871e-10 6.61127e-12
  81 1211.87 -3.96704e-10 -1.19134e-11
  82 1211.87 -3.95858e-10 -4.93084e-12
  83 1211.87 -3.95999e-10 -9.64995e-12
  84 1211.87 -3.94025e-10 4.16103e-12
  85 1211.87 -3.85003e-10 1.05822e-12
  86 1211.87 -3.94448e-10 -2.67393e-12
  87 1211.87 -3.95435e-10 -1.96596e-11
  88 1211.87 -3.96196e-10 -4.94168e-12
  89 1211.87 -3.99241e-10 -1.48095e-12
  90 1211.87 -3.92192e-10 -1.03195e-11
  91 1211.87 -3.98564e-10 -7.66483e-12
  92 1211.87 -4.01271e-10 -8.89860e-12
  93 1211.87 -3.94504e-10 5.92084e-12
  94 1211.87 -3.86046e-10 -4.86415e-12
  95 1211.87 -4.13282e-10 -1.21726e-11
  96 1211.87 -3.98959e-10 -3.56662e-12
  97 1211.87 -4.09899e-10 7.17242e-12
  98 1211.87 -3.96027e-10 1.28059e-11
  99 1211.87 -4.04034e-10 9.83324e-12
  100 1211.87 -3.97042e-10 -2.57639e-11
  101 1211.87 -3.98677e-10 -7.43218e-12
  102 1211.87 -3.99241e-10 1.08979e-11
  103 1211.87 -4.01638e-10 -1.75499e-12
  104 1211.87 -3.93151e-10 -6.02695e-12
  105 1211.87 -3.87907e-10 3.23859e-12
  106 1211.87 -3.97126e-10 -1.27936e-11
  107 1211.87 -3.96281e-10 -5.27246e-12
  108 1211.87 -3.94871e-10 7.72528e-12
  109 1211.87 -3.98734e-10 1.34855e-11
  110 1211.87 -3.92136e-10 4.69676e-12
  111 1211.87 -3.94060e-10 -2.14846e-12
  112 1211.87 -3.95435e-10 -1.66084e-12
  113 1211.87 -3.89453e-10 -2.87335e-12
  114 1211.87 -4.01899e-10 4.49500e-13
  115 1211.87 -3.96281e-10 7.13148e-12
  116 1211.87 -3.95012e-10 1.24114e-12
  117 1211.87 -3.95717e-10 -2.45581e-13
  118 1211.87 -3.90783e-10 -6.42113e-12
  119 1211.87 -3.97066e-10 8.20675e-12
  120 1211.87 -4.00510e-10 5.18062e-12
  121 1211.87 -3.98033e-10 2.99305e-12
  122 1211.87 -3.90058e-10 2.33562e-12
  123 1211.87 -3.94448e-10 6.57178e-12
  124 1211.87 -3.99604e-10 -8.16024e-12
  125 1211.87 -3.98607e-10 3.64428e-12
  126 1211.87 -3.92157e-10 1.65129e-12
  127 1211.87 -3.91387e-10 -9.48170e-12
  128 1211.87 -4.00510e-10 -5.55113e-12
  129 1211.87 -3.85602e-10 7.71618e-12
  130 1211.87 -3.93884e-10 7.94362e-12
  131 1211.87 -4.00369e-10 -9.14773e-13
  132 1211.87 -3.99770e-10 -5.82557e-12
  133 1211.87 -3.88849e-10 -2.75556e-12
  134 1211.87 -3.91870e-10 5.62596e-12
  135 1211.87 -4.03108e-10 1.03808e-11
  136 1211.87 -4.05404e-10 -3.72607e-12
  137 1211.87 -4.02262e-10 1.76582e-12
  138 1211.87 -3.99946e-10 -3.98590e-13
  139 1211.87 -3.90420e-10 5.01837e-12
  140 1211.87 -3.96945e-10 1.18557e-11
  141 1211.87 -3.97549e-10 -3.14883e-12
  142 1211.87 -3.93884e-10 -3.60045e-12
  143 1211.87 -3.96341e-10 -1.27498e-11
  144 1211.87 -3.89260e-10 1.97235e-12
  145 1211.87 -3.91967e-10 -2.96706e-12
  146 1211.87 -3.98516e-10 1.92315e-12
  147 1211.87 -3.86976e-10 -5.12456e-12
  148 1211.87 -4.03893e-10 -4.00464e-12
  149 1211.87 -3.96140e-10 6.64657e-12
  150 1211.87 -3.97549e-10 -3.55485e-12
  151 1211.87 -4.01074e-10 1.06056e-11
  152 1211.87 -3.92192e-10 4.47637e-12
  153 1211.87 -3.95435e-10 -9.05132e-12
  154 1211.87 -3.93828e-10 4.20828e-12
  155 1211.87 -3.96845e-10 -4.52838e-12
  156 1211.87 -3.95616e-10 -2.32903e-12
  157 1211.87 -4.04558e-10 -5.04610e-12
  158 1211.87 -3.97408e-10 -1.10901e-11
  159 1211.87 -3.98536e-10 3.81634e-12
  160 1211.87 -3.92136e-10 -1.91639e-11
  161 1211.87 -3.99749e-10 2.85247e-12
  162 1211.87 -3.97831e-10 -8.00557e-12
  163 1211.87 -3.94307e-10 4.47389e-13
  164 1211.87 -3.92474e-10 8.45721e-12
  165 1211.87 -3.90078e-10 -7.69092e-13
  166 1211.87 -3.97187e-10 2.77519e-12
  167 1211.87 -3.89212e-10 -7.11943e-12
  168 1211.87 -3.93441e-10 -4.72621e-12
  169 1211.87 -3.98516e-10 -5.64428e-12
  170 1211.87 -3.98903e-10 -7.68101e-12
  171 1211.87 -3.94408e-10 -8.31859e-12
  172 1211.87 -4.00510e-10 3.12362e-12
  173 1211.87 -3.87540e-10 9.08586e-12
  174 1211.87 -3.88386e-10 6.04567e-12
  175 1211.87 -3.95153e-10 -6.03797e-12
  176 1211.87 -3.97549e-10 4.26713e-12
  177 1211.87 -3.95153e-10 1.67322e-12
  178 1211.87 -3.85285e-10 9.69502e-12
  179 1211.87 -3.95350e-10 -1.46650e-12
  180 1211.87 -3.93199e-10 1.65668e-11
  181 1211.87 -3.94448e-10 -1.44489e-12
  182 1211.87 -3.97380e-10 -1.28848e-12
  183 1211.87 -4.04175e-10 -9.92678e-12
  184 1211.87 -3.91628e-10 8.78117e-12
  185 1211.87 -4.01497e-10 -6.68750e-12
  186 1211.87 -3.98734e-10 6.68202e-12
  187 1211.87 -3.93038e-10 3.06565e-12
  188 1211.87 -3.90783e-10 2.19523e-12
  189 1211.87 -3.98226e-10 1.47736e-11
  190 1211.87 -3.95133e-10 -9.80425e-12
  191 1211.87 -3.88668e-10 5.81571e-12
  192 1211.87 -3.85707e-10 -6.49733e-12
  193 1211.87 -4.03132e-10 -1.86806e-12
  194 1211.87 -3.97690e-10 -1.41331e-11
  195 1211.87 -3.93461e-10 1.70481e-11
  196 1211.87 -3.97126e-10 -8.47157e-12
  197 1211.87 -4.00933e-10 -8.00769e-12
  198 1211.87 -3.91628e-10 -1.38791e-11
  199 1211.87 -3.94166e-10 -8.02415e-12
  200 1211.87 -3.97126e-10 7.65839e-12
  201 1211.87 -3.96563e-10 1.08306e-11
  202 1211.87 -3.90106e-10 5.07778e-12
  203 1211.87 -3.95576e-10 -5.72933e-12
  204 1211.87 -4.03188e-10 -1.95027e-12
  205 1211.87 -3.92897e-10 -8.69238e-12
  206 1211.87 -4.03470e-10 2.73027e-12
  207 1211.87 -3.97719e-10 4.75195e-13
  208 1211.87 -3.97888e-10 -6.88187e-12
  209 1211.87 -4.06290e-10 -7.58525e-12
  210 1211.87 -4.00510e-10 -3.63829e-12
  211 1211.87 -3.96704e-10 6.90223e-12
  212 1211.87 -3.97211e-10 1.61962e-11
  213 1211.87 -4.02117e-10 -9.84884e-13
  214 1211.87 -4.10096e-10 -6.12041e-12
  215 1211.87 -3.99749e-10 -2.33245e-12
  216 1211.87 -4.01779e-10 3.86098e-12
  217 1211.87 -4.05303e-10 -2.41867e-12
  218 1211.87 -3.85285e-10 7.55134e-12
  219 1211.87 -3.88414e-10 -1.85574e-12
  220 1211.87 -3.97831e-10 -1.38232e-11
  221 1211.87 -3.94589e-10 -1.45170e-11
  222 1211.87 -3.91065e-10 5.31112e-13
  223 1211.87 -3.94166e-10 -5.76799e-12
  224 1211.87 -3.88076e-10 -5.62282e-12
  225 1211.87 -3.92136e-10 -1.53726e-12
  226 1211.87 -3.95858e-10 -1.92631e-11
  227 1211.87 -3.98677e-10 -7.24223e-12
  228 1211.87 -3.99579e-10 -3.88281e-13
  229 1211.87 -3.94307e-10 9.15749e-12
  230 1211.87 -3.95435e-10 1.03367e-11
  231 1211.87 -3.98057e-10 4.24649e-12
  232 1211.87 -4.09391e-10 -2.90764e-11
  233 1211.87 -3.95181e-10 -7.20288e-12
  234 1211.87 -4.05585e-10 1.10449e-12
  235 1211.87 -3.88414e-10 -2.08650e-11
  236 1211.87 -3.97308e-10 -4.93131e-13
  237 1211.87 -4.04485e-10 5.66606e-12
  238 1211.87 -3.94166e-10 1.70664e-11
  239 1211.87 -3.96985e-10 1.02745e-11
  240 1211.87 -3.96534e-10 -5.19649e-12
  241 1211.87 -3.94307e-10 1.10158e-11
</Section>

newXOutput 81

<Section columns = "stress_xx | stress_yy | stress_xy">
  1 1191.56 -3.82637e-10 -2.03069e-12
  2 1191.56 -3.87163e-10 -1.95293e-12
  3 1191.56 -3.92923e-10 8.02224e-12
  4 1191.56 -3.96626e-10 -6.18015e-12
  5 1191.56 -3.82912e-10 -3.37873e-12
  6 1191.56 -3.82637e-10 -2.90507e-12
  7 1191.56 -3.86752e-10 7.05102e-12
  8 1191.56 -3.82363e-10 7.83919e-12
  9 1191.56 -3.82363e-10 2.62914e-12
  10 1191.56 -3.82912e-10 -3.72546e-12
  11 1191.56 -3.82363e-10 -1.08744e-11
  12 1191.56 -3.82637e-10 -1.30975e-11
  13 1191.56 -3.88398e-10 4.45312e-12
  14 1191.56 -3.83186e-10 6.51423e-12
  15 1191.56 -3.81815e-10 8.12068e-13
  16 1191.56 -3.83735e-10 -6.42463e-12
  17 1191.56 -3.84557e-10 -7.68625e-12
  18 1191.56 -3.86752e-10 -2.26438e-12
  19 1191.56 -3.87026e-10 4.52551e-12
  20 1191.56 -3.84009e-10 3.86329e-12
  21 1191.56 -3.82363e-10 -3.81067e-14
  22 1191.56 -3.81266e-10 -3.33221e-12
  23 1191.56 -3.83735e-10 -4.94845e-12
  24 1191.56 -3.84557e-10 1.41850e-12
  25 1191.56 -3.81815e-10 9.68100e-13
  26 1191.56 -3.82226e-10 -2.27815e-12
  27 1191.56 -3.87849e-10 -1.48124e-12
  28 1191.56 -3.82432e-10 3.73990e-12
  29 1191.56 -3.82637e-10 -1.90595e-12
  30 1191.56 -3.90592e-10 -3.34259e-12
  31 1191.56 -3.83186e-10 1.48446e-11
  32 1191.56 -3.78112e-10 8.13819e-12
  33 1191.56 -3.60831e-10 -1.76210e-11
  34 1191.56 -3.69197e-10 -7.96891e-11
  35 1191.56 -4.05061e-10 -2.92311e-11
  36 1191.56 -3.91689e-10 2.85594e-13
  37 1191.56 -3.84557e-10 9.01769e-12
  38 1191.56 -3.82089e-10 7.28556e-12
  39 1191.56 -3.75232e-10 -8.57311e-13
  40 1191.56 -3.75780e-10 -2.27537e-11
  41 1191.56 -3.88672e-10 -1.74640e-11
  42 1191.56 -3.90043e-10 -3.78804e-12
  43 1191.56 -3.85929e-10 2.75087e-12
  44 1191.56 -3.83460e-10 4.11459e-12
  45 1191.56 -3.89220e-10 5.78094e-12
  46 1191.56 -3.92786e-10 2.18153e-11
  47 1191.56 -3.70569e-10 2.03226e-11
  48 1191.56 -3.68374e-10 -1.63448e-11
  49 1191.56 -3.85380e-10 -2.01599e-11
  50 1191.56 -3.85929e-10 1.19414e-12
  51 1191.56 -3.87986e-10 -9.98353e-13
  52 1191.56 -3.88809e-10 2.37998e-12
  53 1191.56 -3.85380e-10 -9.08361e-13
  54 1191.56 -3.85929e-10 -9.90460e-14
  55 1191.56 -3.86340e-10 -6.05062e-14
  56 1191.56 -3.87300e-10 1.55895e-12
  57 1191.56 -3.80443e-10 6.13938e-12
  58 1191.56 -3.86340e-10 4.48563e-12
  59 1191.56 -3.83813e-10 3.06991e-12
  60 1191.56 -3.78934e-10 1.45259e-11
  61 1191.56 -3.82500e-10 9.78895e-12
  62 1191.56 -3.85792e-10 -5.92969e-12
  63 1191.56 -3.81485e-10 9.71231e-12
  64 1191.56 -3.84969e-10 -3.60357e-12
  65 1191.56 -3.73860e-10 6.22832e-12
  66 1191.56 -3.80717e-10 -6.33019e-12
  67 1191.56 -3.85517e-10 -1.64184e-13
  68 1191.56 -3.82500e-10 -4.98622e-12
  69 1191.56 -3.91689e-10 4.74872e-12
  70 1191.56 -3.77597e-10 -5.16215e-13
  71 1191.56 -3.82500e-10 2.72648e-12
  72 1191.56 -3.86517e-10 -5.87291e-12
  73 1191.56 -3.87810e-10 -3.84933e-12
  74 1191.56 -3.78523e-10 6.54091e-12
  75 1191.56 -3.84448e-10 2.22887e-12
  76 1191.56 -3.84009e-10 -4.83588e-12
  77 1191.56 -3.86889e-10 -6.21688e-13
  78 1191.56 -3.86615e-10 4.07918e-11
  79 1191.56 -3.84988e-10 -2.55757e-12
  80 1191.56 -3.79072e-10 4.07086e-12
  81 1191.56 -3.89220e-10 -8.82608e-12
  82 1191.56 -3.81815e-10 -9.46877e-12
  83 1191.56 -3.79620e-10 -3.11474e-12
  84 1191.56 -3.82363e-10 2.18903e-12
  85 1191.56 -3.81266e-10 1.10452e-12
  86 1191.56 -3.82363e-10 4.37579e-12
  87 1191.56 -3.88398e-10 3.98114e-12
  88 1191.56 -3.84612e-10 -1.10966e-11
  89 1191.56 -3.86587e-10 6.14209e-12
  90 1191.56 -3.81815e-10 -3.38486e-12
  91 1191.56 -3.86423e-10 -1.06623e-12
  92 1191.56 -3.89385e-10 -6.93349e-12
  93 1191.56 -3.76548e-10 1.98105e-12
  94 1191.56 -3.90208e-10 -4.42048e-12
  95 1191.56 -3.90043e-10 -5.95450e-13
  96 1191.56 -3.86752e-10 -8.12465e-12
  97 1191.56 -3.83131e-10 1.99866e-12
  98 1191.56 -3.82144e-10 -1.60220e-11
  99 1191.56 -3.81266e-10 2.38205e-12
  100 1191.56 -3.83789e-10 -9.03596e-12
  101 1191.56 -3.91278e-10 -6.96055e-13
  102 1191.56 -3.84448e-10 5.73230e-12
  103 1191.56 -3.82089e-10 -6.48565e-12
  104 1191.56 -3.85764e-10 -7.42058e-12
  105 1191.56 -3.79675e-10 6.65272e-12
  106 1191.56 -3.84557e-10 -2.67537e-12
  107 1191.56 -3.82226e-10 -6.52606e-12
  108 1191.56 -3.85655e-10 6.00817e-12
  109 1191.56 -3.86423e-10 -1.69848e-12
  110 1191.56 -3.83460e-10 1.02874e-11
  111 1191.56 -3.77700e-10 2.69528e-12
  112 1191.56 -3.82775e-10 2.97727e-12
  113 1191.56 -3.78053e-10 8.69178e-12
  114 1191.56 -3.88515e-10 6.97453e-12
  115 1191.56 -3.83872e-10 2.63950e-12
  116 1191.56 -3.85106e-10 3.83953e-12
  117 1191.56 -3.85929e-10 -4.71877e-12
  118 1191.56 -3.82637e-10 -4.53773e-12
  119 1191.56 -3.79463e-10 3.75318e-12
  120 1191.56 -4.02386e-10 1.96200e-11
  121 1191.56 -3.81932e-10 4.17883e-12
  122 1191.56 -3.79699e-10 2.98731e-12
  123 1191.56 -3.85243e-10 -7.06583e-12
  124 1191.56 -3.89573e-10 -1.02896e-11
  125 1191.56 -3.83769e-10 2.51002e-12
  126 1191.56 -3.80169e-10 4.47458e-13
  127 1191.56 -3.83225e-10 2.01563e-12
  128 1191.56 -3.86649e-10 1.05966e-12
  129 1191.56 -3.82946e-10 -1.84831e-12
  130 1191.56 -3.78523e-10 9.17463e-13
  131 1191.56 -3.89632e-10 3.99898e-12
  132 1191.56 -3.85620e-10 -3.73785e-12
  133 1191.56 -3.86164e-10 -5.15339e-12
  134 1191.56 -3.82050e-10 1.12731e-11
  135 1191.56 -3.81815e-10 1.54671e-12
  136 1191.56 -3.79111e-10 -5.74056e-12
  137 1191.56 -3.88750e-10 -4.57012e-12
  138 1191.56 -3.84832e-10 -7.61626e-13
  139 1191.56 -3.82755e-10 4.45229e-12
  140 1191.56 -3.78758e-10 7.81283e-13
  141 1191.56 -3.83049e-10 -8.02388e-12
  142 1191.56 -3.80580e-10 -4.11484e-12
  143 1191.56 -3.84636e-10 -1.03009e-11
  144 1191.56 -3.79675e-10 -1.69720e-11
  145 1191.56 -3.67496e-10 2.87937e-12
  146 1191.56 -3.85224e-10 1.58397e-12
  147 1191.56 -3.75506e-10 4.93393e-13
  148 1191.56 -3.85792e-10 -1.49249e-12
  149 1191.56 -3.88260e-10 5.41541e-12
  150 1191.56 -3.84832e-10 1.97746e-12
  151 1191.56 -3.85380e-10 6.39936e-12
  152 1191.56 -3.84832e-10 7.01350e-12
  153 1191.56 -3.84420e-10 -7.47763e-12
  154 1191.56 -3.80498e-10 7.10423e-12
  155 1191.56 -3.82089e-10 1.30959e-12
  156 1191.56 -3.82402e-10 -6.80252e-12
  157 1191.56 -3.83108e-10 1.53297e-12
  158 1191.56 -3.85929e-10 -7.97564e-12
  159 1191.56 -3.86752e-10 -5.58964e-12
  160 1191.56 -3.83625e-10 -2.04843e-13
  161 1191.56 -3.86916e-10 -7.10792e-12
  162 1191.56 -3.83597e-10 7.62716e-12
  163 1191.56 -3.83872e-10 -1.36866e-12
  164 1191.56 -3.85341e-10 2.71046e-12
  165 1191.56 -3.80580e-10 -2.17749e-12
  166 1191.56 -3.88162e-10 -1.22471e-12
  167 1191.56 -3.82873e-10 2.66461e-12
  168 1191.56 -3.84048e-10 -5.70773e-12
  169 1191.56 -3.87222e-10 5.05438e-13
  170 1191.56 -3.83954e-10 -1.17432e-11
  171 1191.56 -3.85694e-10 -3.94400e-12
  172 1191.56 -3.84420e-10 9.28850e-12
  173 1191.56 -3.82775e-10 2.69346e-12
  174 1191.56 -3.84832e-10 5.22285e-13
  175 1191.56 -3.87438e-10 7.37576e-13
  176 1191.56 -3.84969e-10 2.86458e-12
  177 1191.56 -3.88260e-10 1.01060e-12
  178 1191.56 -3.78797e-10 -1.55084e-12
  179 1191.56 -3.84119e-10 3.11943e-12
  180 1191.56 -3.87340e-10 1.41353e-11
  181 1191.56 -3.86889e-10 2.92075e-12
  182 1191.56 -3.82967e-10 2.12513e-11
  183 1191.56 -3.88535e-10 -3.23696e-12
  184 1191.56 -3.83296e-10 -6.33476e-12
  185 1191.56 -3.82912e-10 -6.34499e-12
  186 1191.56 -3.79675e-10 6.09098e-12
  187 1191.56 -3.74546e-10 4.34155e-12
  188 1191.56 -3.82967e-10 3.52608e-13
  189 1191.56 -3.82802e-10 -2.12276e-12
  190 1191.56 -3.84166e-10 -2.76097e-12
  191 1191.56 -3.83186e-10 2.25392e-12
  192 1191.56 -3.83343e-10 3.18899e-12
  193 1191.56 -4.04855e-10 3.00118e-12
  194 1191.56 -3.83186e-10 1.08383e-12
  195 1191.56 -3.78797e-10 -1.24059e-12
  196 1191.56 -3.87849e-10 -3.71435e-12
  197 1191.56 -3.86752e-10 -2.76434e-12
  198 1191.56 -3.88809e-10 -2.09746e-12
  199 1191.56 -3.85655e-10 -1.53535e-11
  200 1191.56 -3.76603e-10 3.19377e-13
  201 1191.56 -3.81815e-10 9.52039e-13
  202 1191.56 -3.82473e-10 -1.34895e-11
  203 1191.56 -3.85243e-10 4.04473e-12
  204 1191.56 -3.83735e-10 -1.04503e-11
  205 1191.56 -3.83460e-10 4.91310e-12
  206 1191.56 -3.83460e-10 3.39025e-12
  207 1191.56 -3.83460e-10 -1.53584e-11
  208 1191.56 -3.91854e-10 -2.92886e-12
  209 1191.56 -3.80717e-10 3.59926e-12
  210 1191.56 -3.79894e-10 9.69750e-13
  211 1191.56 -3.84166e-10 4.05336e-12
  212 1191.56 -3.82637e-10 -1.99786e-14
  213 1191.56 -3.79840e-10 -2.64946e-12
  214 1191.56 -3.86478e-10 -3.59857e-12
  215 1191.56 -3.85929e-10 -1.10977e-11
  216 1191.56 -3.90043e-10 -3.25452e-12
  217 1191.56 -3.85517e-10 -2.15125e-12
  218 1191.56 -3.78934e-10 1.53212e-11
  219 1191.56 -3.78194e-10 5.61826e-12
  220 1191.56 -3.86615e-10 -8.85983e-12
  221 1191.56 -3.83186e-10 -5.92047e-12
  222 1191.56 -3.81815e-10 8.07358e-12
  223 1191.56 -3.82144e-10 -7.29610e-12
  224 1191.56 -3.77536e-10 -2.66000e-12
  225 1191.56 -3.90702e-10 -4.57445e-12
  226 1191.56 -3.83625e-10 -9.41615e-12
  227 1191.56 -3.81403e-10 -8.73309e-12
  228 1191.56 -3.81485e-10 7.90357e-12
  229 1191.56 -3.83049e-10 -1.49493e-12
  230 1191.56 -3.84557e-10 1.10459e-11
  231 1191.56 -3.85435e-10 4.53719e-12
  232 1191.56 -3.83954e-10 -2.08277e-11
  233 1191.56 -3.84448e-10 -1.39107e-12
  234 1191.56 -3.86889e-10 -2.43580e-12
  235 1191.56 -3.84448e-10 -3.37805e-12
  236 1191.56 -3.83695e-10 3.25745e-12
  237 1191.56 -3.85435e-10 -3.77553e-12
  238 1191.56 -3.81156e-10 -9.04192e-13
  239 1191.56 -3.84146e-10 4.28937e-12
  240 1191.56 -3.88891e-10 3.10306e-12
  241 1191.56 -3.81540e-10 -2.43080e-12
</Section>

newXOutput 82

<Section columns = "stress_xx | stress_yy | stress_xy">
  1 1171.33 -3.72219e-10 7.65295e-13
  2 1171.33 -3.83426e-10 -7.01999e-12
  3 1171.33 -3.66215e-10 1.79967e-13
  4 1171.33 -3.24991e-10 2.92945e-11
  5 1171.33 -3.72219e-10 5.14309e-13
  6 1171.33 -3.71419e-10 6.10805e-13
  7 1171.33 -3.72219e-10 1.64217e-12
  8 1171.33 -3.73553e-10 7.87807e-13
  9 1171.33 -3.75421e-10 3.12615e-12
  10 1171.33 -3.71952e-10 7.18712e-12
  11 1171.33 -3.66616e-10 -4.87568e-12
  12 1171.33 -3.67149e-10 -1.78664e-11
  13 1171.33 -3.76021e-10 8.55618e-12
  14 1171.33 -3.69017e-10 -1.08775e-12
  15 1171.33 -3.71419e-10 -1.00358e-11
  16 1171.33 -3.74620e-10 -1.95805e-12
  17 1171.33 -3.70084e-10 -6.45018e-13
  18 1171.33 -3.74620e-10 -1.44805e-12
  19 1171.33 -3.77556e-10 1.28674e-11
  20 1171.33 -3.68750e-10 1.59335e-11
  21 1171.33 -3.65815e-10 -5.22791e-12
  22 1171.33 -3.68217e-10 -2.26539e-11
  23 1171.33 -3.74620e-10 -2.18007e-11
  24 1171.33 -3.83692e-10 1.51018e-12
  25 1171.33 -3.72619e-10 4.52027e-12
  26 1171.33 -3.71018e-10 3.23720e-12
  27 1171.33 -3.73286e-10 -5.88516e-12
  28 1171.33 -3.68617e-10 7.88699e-12
  29 1171.33 -3.62613e-10 -1.93726e-12
  30 1171.33 -3.69284e-10 -1.50847e-12
  31 1171.33 -3.71419e-10 -7.60127e-12
  32 1171.33 -3.75821e-10 -9.56911e-12
  33 1171.33 -3.86227e-10 8.91397e-12
  34 1171.33 -3.83959e-10 5.21022e-11
  35 1171.33 -3.59211e-10 1.52452e-11
  36 1171.33 -3.72486e-10 1.12935e-11
  37 1171.33 -3.76221e-10 1.65102e-11
  38 1171.33 -3.62613e-10 9.41489e-12
  39 1171.33 -3.61279e-10 -1.37187e-11
  40 1171.33 -3.74354e-10 -2.24030e-11
  41 1171.33 -3.81825e-10 -3.32724e-12
  42 1171.33 -3.85827e-10 2.17583e-11
  43 1171.33 -3.69017e-10 3.39335e-11
  44 1171.33 -3.50339e-10 4.87740e-12
  45 1171.33 -3.46871e-10 -4.12674e-11
  46 1171.33 -3.64214e-10 -7.31502e-11
  47 1171.33 -4.09574e-10 -3.09880e-11
  48 1171.33 -4.06639e-10 6.39261e-11
  49 1171.33 -3.66616e-10 7.49924e-11
  50 1171.33 -3.45537e-10 -7.45233e-12
  51 1171.33 -3.57811e-10 -3.75711e-12
  52 1171.33 -3.62813e-10 -2.73975e-12
  53 1171.33 -3.64748e-10 -7.07072e-13
  54 1171.33 -3.66416e-10 -6.72640e-13
  55 1171.33 -3.70218e-10 -1.40892e-12
  56 1171.33 -3.72753e-10 -7.99165e-13
  57 1171.33 -3.70751e-10 -9.78151e-12
  58 1171.33 -3.72619e-10 1.91325e-11
  59 1171.33 -3.75878e-10 -2.52039e-12
  60 1171.33 -3.79023e-10 8.66417e-12
  61 1171.33 -3.65815e-10 -2.79264e-12
  62 1171.33 -3.71819e-10 1.27751e-11
  63 1171.33 -3.60052e-10 4.70618e-12
  64 1171.33 -3.73019e-10 1.82848e-11
  65 1171.33 -3.86227e-10 -1.57710e-11
  66 1171.33 -3.75021e-10 -6.29094e-12
  67 1171.33 -3.73420e-10 9.93126e-12
  68 1171.33 -3.77956e-10 1.54212e-11
  69 1171.33 -3.72448e-10 -6.15427e-12
  70 1171.33 -3.70918e-10 1.05505e-11
  71 1171.33 -3.75154e-10 7.49170e-12
  72 1171.33 -3.70732e-10 -1.79160e-11
  73 1171.33 -3.68788e-10 -1.86224e-11
  74 1171.33 -3.79904e-10 1.49704e-11
  75 1171.33 -3.73180e-10 -2.52382e-11
  76 1171.33 -3.72486e-10 -1.93029e-11
  77 1171.33 -3.70485e-10 4.61795e-12
  78 1171.33 -3.71952e-10 -2.29789e-11
  79 1171.33 -3.79538e-10 2.00197e-12
  80 1171.33 -3.71819e-10 -1.34705e-11
  81 1171.33 -3.79957e-10 5.21831e-13
  82 1171.33 -3.68617e-10 -1.23604e-11
  83 1171.33 -3.70885e-10 -6.00169e-12
  84 1171.33 -3.69017e-10 2.41913e-13
  85 1171.33 -3.79156e-10 3.79447e-12
  86 1171.33 -3.68483e-10 -1.86492e-12
  87 1171.33 -3.71285e-10 -1.98619e-11
  88 1171.33 -3.71419e-10 -8.99640e-12
  89 1171.33 -3.73500e-10 -4.20242e-12
  90 1171.33 -3.75554e-10 -3.63748e-12
  91 1171.33 -3.49806e-10 -6.84181e-12
  92 1171.33 -3.72859e-10 7.28871e-12
  93 1171.33 -3.68857e-10 4.90836e-12
  94 1171.33 -3.88068e-10 6.29326e-12
  95 1171.33 -3.58131e-10 -2.76951e-11
  96 1171.33 -3.67016e-10 -2.22265e-11
  97 1171.33 -3.57330e-10 -1.16257e-11
  98 1171.33 -4.01676e-10 4.10454e-11
  99 1171.33 -3.61546e-10 2.00727e-13
  100 1171.33 -3.73340e-10 -1.44227e-12
  101 1171.33 -3.81158e-10 2.86661e-12
  102 1171.33 -3.67576e-10 -6.42746e-12
  103 1171.33 -3.73553e-10 -1.23184e-11
  104 1171.33 -3.70138e-10 1.32170e-11
  105 1171.33 -3.82465e-10 2.05726e-11
  106 1171.33 -3.76088e-10 1.00335e-11
  107 1171.33 -3.71685e-10 3.82884e-12
  108 1171.33 -3.70084e-10 -5.60158e-12
  109 1171.33 -3.68537e-10 -5.15254e-13
  110 1171.33 -3.71258e-10 2.09243e-11
  111 1171.33 -3.74821e-10 -1.01720e-11
  112 1171.33 -3.72352e-10 -4.72984e-12
  113 1171.33 -3.68788e-10 -1.21933e-11
  114 1171.33 -3.71876e-10 -3.31053e-12
  115 1171.33 -3.75821e-10 1.05936e-11
  116 1171.33 -3.70938e-10 -2.11231e-12
  117 1171.33 -3.73820e-10 -7.27939e-12
  118 1171.33 -3.71018e-10 1.07172e-12
  119 1171.33 -3.66044e-10 1.40911e-12
  120 1171.33 -3.64081e-10 -9.37491e-12
  121 1171.33 -3.68217e-10 -8.29443e-12
  122 1171.33 -3.69017e-10 9.21698e-12
  123 1171.33 -3.74220e-10 8.80434e-13
  124 1171.33 -3.76336e-10 -4.21443e-12
  125 1171.33 -3.71018e-10 -5.93280e-12
  126 1171.33 -3.71118e-10 -3.30482e-12
  127 1171.33 -3.75078e-10 2.18204e-11
  128 1171.33 -3.65115e-10 5.04015e-12
  129 1171.33 -3.80024e-10 -5.39561e-13
  130 1171.33 -3.76355e-10 -1.24314e-11
  131 1171.33 -3.75154e-10 1.12491e-11
  132 1171.33 -3.83125e-10 1.72006e-11
  133 1171.33 -3.79080e-10 -5.91084e-13
  134 1171.33 -3.69703e-10 8.00049e-12
  135 1171.33 -3.64214e-10 -9.75909e-12
  136 1171.33 -3.97834e-10 2.25742e-11
  137 1171.33 -3.73706e-10 3.21078e-12
  138 1171.33 -3.73019e-10 7.18205e-12
  139 1171.33 -3.75307e-10 4.87535e-12
  140 1171.33 -3.64100e-10 -2.20738e-12
  141 1171.33 -3.69818e-10 -4.23904e-12
  142 1171.33 -3.71552e-10 -9.59411e-12
  143 1171.33 -3.70046e-10 9.53121e-12
  144 1171.33 -3.71899e-10 1.58767e-11
  145 1171.33 -3.83105e-10 -1.47738e-11
  146 1171.33 -3.56324e-10 -1.23028e-11
  147 1171.33 -3.75955e-10 -4.87246e-12
  148 1171.33 -3.66616e-10 -5.26509e-13
  149 1171.33 -3.80224e-10 4.33596e-12
  150 1171.33 -3.78890e-10 1.21230e-11
  151 1171.33 -3.71152e-10 -1.12523e-11
  152 1171.33 -3.71285e-10 5.67408e-12
  153 1171.33 -3.71018e-10 -7.39313e-12
  154 1171.33 -3.78943e-10 -7.84810e-13
  155 1171.33 -3.79023e-10 9.16544e-12
  156 1171.33 -3.73363e-10 -2.44460e-12
  157 1171.33 -3.76908e-10 -3.00267e-12
  158 1171.33 -3.75688e-10 -8.35678e-12
  159 1171.33 -3.71018e-10 -2.02378e-11
  160 1171.33 -3.68057e-10 2.63697e-12
  161 1171.33 -3.71579e-10 -1.83292e-11
  162 1171.33 -3.73687e-10 3.00230e-12
  163 1171.33 -3.67283e-10 -1.71968e-11
  164 1171.33 -3.72333e-10 -1.15457e-11
  165 1171.33 -3.69417e-10 -3.89225e-13
  166 1171.33 -3.56095e-10 -1.28713e-11
  167 1171.33 -3.80109e-10 1.12904e-11
  168 1171.33 -3.65815e-10 -5.29287e-12
  169 1171.33 -3.71304e-10 -3.38494e-12
  170 1171.33 -3.85027e-10 1.37619e-11
  171 1171.33 -3.75078e-10 3.26872e-12
  172 1171.33 -3.69151e-10 1.12777e-11
  173 1171.33 -3.55142e-10 -1.63683e-11
  174 1171.33 -3.80891e-10 -7.40561e-12
  175 1171.33 -3.53408e-10 7.54074e-12
  176 1171.33 -3.72753e-10 3.46221e-13
  177 1171.33 -3.69818e-10 -4.52332e-13
  178 1171.33 -3.73687e-10 -2.71185e-12
  179 1171.33 -3.70778e-10 -3.18505e-12
  180 1171.33 -3.74849e-10 2.25274e-12
  181 1171.33 -3.67550e-10 1.89731e-11
  182 1171.33 -3.69658e-10 -7.83494e-12
  183 1171.33 -3.55142e-10 -5.36249e-12
  184 1171.33 -3.73180e-10 -1.26746e-11
  185 1171.33 -3.73687e-10 -9.21149e-12
  186 1171.33 -3.65495e-10 -8.93595e-14
  187 1171.33 -3.77956e-10 4.45407e-13
  188 1171.33 -3.77342e-10 3.07468e-12
  189 1171.33 -3.65495e-10 -9.11584e-12
  190 1171.33 -3.68674e-10 1.85757e-11
  191 1171.33 -3.71819e-10 5.06699e-12
  192 1171.33 -3.79309e-10 1.66988e-11
  193 1171.33 -3.61333e-10 1.92160e-12
  194 1171.33 -3.72886e-10 2.20630e-11
  195 1171.33 -3.79423e-10 -1.90895e-11
  196 1171.33 -3.71685e-10 -1.47695e-12
  197 1171.33 -3.73420e-10 -6.89309e-12
  198 1171.33 -3.79957e-10 1.56710e-11
  199 1171.33 -3.66349e-10 1.93152e-12
  200 1171.33 -3.63280e-10 4.46208e-12
  201 1171.33 -3.77556e-10 -6.40932e-12
  202 1171.33 -3.76702e-10 2.38254e-11
  203 1171.33 -3.74620e-10 -2.05924e-12
  204 1171.33 -3.70084e-10 -1.20110e-11
  205 1171.33 -3.73687e-10 1.32050e-12
  206 1171.33 -3.63094e-10 8.62616e-12
  207 1171.33 -3.91270e-10 7.40606e-12
  208 1171.33 -3.67416e-10 -1.17232e-11
  209 1171.33 -3.62213e-10 -1.81509e-12
  210 1171.33 -3.97968e-10 -9.15700e-12
  211 1171.33 -3.72105e-10 1.29366e-12
  212 1171.33 -3.69337e-10 -1.59639e-11
  213 1171.33 -3.83746e-10 3.28757e-11
  214 1171.33 -3.81024e-10 1.54700e-11
  215 1171.33 -3.61973e-10 -2.12623e-11
  216 1171.33 -3.60372e-10 -7.99960e-12
  217 1171.33 -3.59945e-10 -3.71959e-12
  218 1171.33 -3.87295e-10 -3.66379e-12
  219 1171.33 -3.73180e-10 1.95474e-11
  220 1171.33 -3.65415e-10 2.46047e-11
  221 1171.33 -3.80624e-10 6.30202e-12
  222 1171.33 -3.77822e-10 1.64449e-11
  223 1171.33 -3.68857e-10 -6.78068e-12
  224 1171.33 -3.73340e-10 -1.70460e-12
  225 1171.33 -3.76381e-10 2.56276e-12
  226 1171.33 -3.76221e-10 1.08930e-12
  227 1171.33 -3.69151e-10 8.03461e-13
  228 1171.33 -3.74300e-10 -1.73028e-11
  229 1171.33 -3.69818e-10 -7.25510e-13
  230 1171.33 -3.72352e-10 1.97635e-11
  231 1171.33 -3.66936e-10 2.61798e-12
  232 1171.33 -3.72379e-10 3.17154e-12
  233 1171.33 -3.86628e-10 -2.25876e-12
  234 1171.33 -3.73420e-10 -9.48950e-12
  235 1171.33 -3.78143e-10 -5.61224e-12
  236 1171.33 -3.72905e-10 -3.35273e-12
  237 1171.33 -3.64054e-10 -9.78160e-12
  238 1171.33 -3.74300e-10 2.51653e-12
  239 1171.33 -3.65548e-10 -3.52466e-12
  240 1171.33 -3.79423e-10 1.68314e-11
  241 1171.33 -3.70751e-10 -1.38016e-11
</Section>

newXOutput 83

<Section columns = "stress_xx | stress_yy | stress_xy">
  1 1151.17 -3.60887e-10 -1.20537e-12
  2 1151.17 -3.61277e-10 -1.72730e-12
  3 1151.17 -3.56994e-10 -1.93809e-12
  4 1151.17 -3.59719e-10 9.21741e-13
  5 1151.17 -3.61017e-10 -1.60101e-12
  6 1151.17 -3.61277e-10 -3.57124e-13
  7 1151.17 -3.62445e-10 2.99899e-12
  8 1151.17 -3.60498e-10 3.91959e-12
  9 1151.17 -3.58422e-10 1.70676e-12
  10 1151.17 -3.59200e-10 -2.09893e-12
  11 1151.17 -3.59460e-10 -6.11188e-12
  12 1151.17 -3.58681e-10 -6.84355e-12
  13 1151.17 -3.62639e-10 2.62563e-12
  14 1151.17 -3.60498e-10 5.24979e-12
  15 1151.17 -3.59525e-10 3.03132e-12
  16 1151.17 -3.59200e-10 3.44837e-13
  17 1151.17 -3.59460e-10 -4.80223e-12
  18 1151.17 -3.60758e-10 -3.87850e-12
  19 1151.17 -3.60758e-10 1.84745e-12
  20 1151.17 -3.60498e-10 2.76806e-12
  21 1151.17 -3.59979e-10 1.17026e-13
  22 1151.17 -3.60758e-10 -1.15154e-12
  23 1151.17 -3.61536e-10 -3.24734e-12
  24 1151.17 -3.62055e-10 8.06699e-13
  25 1151.17 -3.61666e-10 4.55621e-13
  26 1151.17 -3.59719e-10 -1.18587e-13
  27 1151.17 -3.61536e-10 -3.28973e-13
  28 1151.17 -3.58162e-10 1.26232e-12
  29 1151.17 -3.56605e-10 -3.41716e-13
  30 1151.17 -3.59200e-10 3.53581e-13
  31 1151.17 -3.58162e-10 -5.94348e-12
  32 1151.17 -3.62055e-10 -7.42583e-12
  33 1151.17 -3.65364e-10 5.79279e-13
  34 1151.17 -3.61796e-10 9.16955e-12
  35 1151.17 -3.58941e-10 3.69791e-12
  36 1151.17 -3.61017e-10 4.67213e-12
  37 1151.17 -3.61536e-10 6.47413e-12
  38 1151.17 -3.57643e-10 3.53645e-12
  39 1151.17 -3.57124e-10 -2.39210e-12
  40 1151.17 -3.59200e-10 -8.78675e-12
  41 1151.17 -3.63093e-10 -4.84539e-12
  42 1151.17 -3.63093e-10 8.38680e-13
  43 1151.17 -3.60758e-10 3.79868e-12
  44 1151.17 -3.59979e-10 2.71193e-12
  45 1151.17 -3.59979e-10 -2.03465e-12
  46 1151.17 -3.60758e-10 -2.04542e-12
  47 1151.17 -3.61017e-10 2.00628e-13
  48 1151.17 -3.61796e-10 8.36504e-13
  49 1151.17 -3.60758e-10 1.55734e-12
  50 1151.17 -3.61017e-10 -6.12176e-13
  51 1151.17 -3.63613e-10 -8.54289e-13
  52 1151.17 -3.60887e-10 1.39112e-12
  53 1151.17 -3.58941e-10 -9.74080e-13
  54 1151.17 -3.61471e-10 -5.00164e-13
  55 1151.17 -3.61277e-10 -1.13905e-13
  56 1151.17 -3.61796e-10 8.75485e-13
  57 1151.17 -3.59979e-10 -5.99598e-14
  58 1151.17 -3.61406e-10 -2.81789e-12
  59 1151.17 -3.61165e-10 1.42104e-14
  60 1151.17 -3.60239e-10 5.81737e-13
  61 1151.17 -3.58941e-10 4.22576e-12
  62 1151.17 -3.62315e-10 -2.95739e-12
  63 1151.17 -3.58629e-10 2.46051e-12
  64 1151.17 -3.61796e-10 -2.84383e-12
  65 1151.17 -3.59460e-10 9.21019e-13
  66 1151.17 -3.59719e-10 -4.47008e-12
  67 1151.17 -3.61666e-10 -2.79891e-14
  68 1151.17 -3.60109e-10 -4.95621e-13
  69 1151.17 -3.60609e-10 4.32006e-13
  70 1151.17 -3.59525e-10 2.20089e-12
  71 1151.17 -3.59460e-10 1.34889e-12
  72 1151.17 -3.64057e-10 -2.81649e-12
  73 1151.17 -3.61388e-10 -3.91928e-12
  74 1151.17 -3.58007e-10 2.93728e-12
  75 1151.17 -3.62522e-10 -3.15908e-12
  76 1151.17 -3.60109e-10 -3.43211e-13
  77 1151.17 -3.61536e-10 -1.45592e-13
  78 1151.17 -3.62704e-10 -1.42072e-12
  79 1151.17 -3.61610e-10 5.35457e-13
  80 1151.17 -3.59460e-10 -1.16184e-12
  81 1151.17 -3.62574e-10 -2.97659e-12
  82 1151.17 -3.58162e-10 -4.75837e-13
  83 1151.17 -3.59071e-10 -6.73647e-13
  84 1151.17 -3.61277e-10 1.55058e-12
  85 1151.17 -3.57254e-10 7.72307e-13
  86 1151.17 -3.59849e-10 2.49929e-12
  87 1151.17 -3.62445e-10 -1.99180e-12
  88 1151.17 -3.59719e-10 2.58671e-13
  89 1151.17 -3.62211e-10 3.75797e-12
  90 1151.17 -3.60239e-10 -2.42478e-12
  91 1151.17 -3.58007e-10 1.96741e-13
  92 1151.17 -3.63613e-10 -3.36594e-14
  93 1151.17 -3.57228e-10 9.13971e-14
  94 1151.17 -3.64080e-10 1.51900e-13
  95 1151.17 -3.60965e-10 -7.26575e-13
  96 1151.17 -3.60368e-10 -5.76883e-12
  97 1151.17 -3.60654e-10 -2.40137e-13
  98 1151.17 -3.62367e-10 -6.69077e-13
  99 1151.17 -3.60498e-10 2.26836e-13
  100 1151.17 -3.60031e-10 -3.62903e-12
  101 1151.17 -3.64651e-10 8.96222e-14
  102 1151.17 -3.60654e-10 4.46587e-12
  103 1151.17 -3.62574e-10 -8.91689e-13
  104 1151.17 -3.60654e-10 -2.66554e-12
  105 1151.17 -3.62522e-10 2.71386e-12
  106 1151.17 -3.62445e-10 -9.77590e-13
  107 1151.17 -3.60498e-10 -2.40111e-12
  108 1151.17 -3.61796e-10 3.48956e-12
  109 1151.17 -3.61744e-10 -1.93374e-12
  110 1151.17 -3.59875e-10 3.82675e-12
  111 1151.17 -3.62931e-10 -3.13597e-13
  112 1151.17 -3.61277e-10 1.79704e-12
  113 1151.17 -3.59386e-10 -3.08620e-12
  114 1151.17 -3.60498e-10 6.78606e-13
  115 1151.17 -3.62055e-10 2.03578e-12
  116 1151.17 -3.62834e-10 2.02605e-12
  117 1151.17 -3.63353e-10 -2.02520e-13
  118 1151.17 -3.59590e-10 4.91137e-13
  119 1151.17 -3.58162e-10 1.09992e-12
  120 1151.17 -3.60109e-10 -9.20182e-13
  121 1151.17 -3.58607e-10 2.18697e-12
  122 1151.17 -3.58941e-10 2.82271e-12
  123 1151.17 -3.58681e-10 8.05810e-13
  124 1151.17 -3.62167e-10 -4.70975e-12
  125 1151.17 -3.62153e-10 -2.05284e-12
  126 1151.17 -3.58357e-10 -1.44856e-13
  127 1151.17 -3.59163e-10 3.15093e-12
  128 1151.17 -3.61179e-10 1.55011e-13
  129 1151.17 -3.60303e-10 -6.08879e-13
  130 1151.17 -3.59849e-10 3.37019e-13
  131 1151.17 -3.63742e-10 2.38505e-12
  132 1151.17 -3.63418e-10 1.75763e-12
  133 1151.17 -3.60832e-10 -2.86240e-12
  134 1151.17 -3.59052e-10 5.23287e-12
  135 1151.17 -3.59942e-10 6.57575e-13
  136 1151.17 -3.62389e-10 -1.04027e-12
  137 1151.17 -3.63946e-10 5.76554e-13
  138 1151.17 -3.60498e-10 5.13289e-13
  139 1151.17 -3.60943e-10 -7.13427e-13
  140 1151.17 -3.60053e-10 1.35325e-12
  141 1151.17 -3.59590e-10 -1.05210e-12
  142 1151.17 -3.58552e-10 -2.86499e-12
  143 1151.17 -3.60276e-10 -2.04633e-12
  144 1151.17 -3.58629e-10 4.63751e-12
  145 1151.17 -3.64080e-10 -2.72673e-12
  146 1151.17 -3.60164e-10 9.13793e-13
  147 1151.17 -3.60239e-10 -1.88847e-12
  148 1151.17 -3.59849e-10 -3.22379e-12
  149 1151.17 -3.61536e-10 2.48979e-12
  150 1151.17 -3.62185e-10 1.34218e-12
  151 1151.17 -3.62704e-10 1.63435e-12
  152 1151.17 -3.60498e-10 6.64506e-12
  153 1151.17 -3.60109e-10 -4.23137e-12
  154 1151.17 -3.60965e-10 3.44486e-13
  155 1151.17 -3.61147e-10 4.22147e-14
  156 1151.17 -3.60832e-10 -2.46331e-12
  157 1151.17 -3.61833e-10 2.84371e-12
  158 1151.17 -3.62315e-10 -1.23105e-12
  159 1151.17 -3.62964e-10 -2.98839e-12
  160 1151.17 -3.58941e-10 1.36808e-12
  161 1151.17 -3.61744e-10 -1.90573e-12
  162 1151.17 -3.61017e-10 7.82945e-13
  163 1151.17 -3.59979e-10 -1.08675e-12
  164 1151.17 -3.60832e-10 -3.08447e-13
  165 1151.17 -3.59200e-10 -1.09068e-12
  166 1151.17 -3.61944e-10 -1.95888e-12
  167 1151.17 -3.60943e-10 1.75584e-12
  168 1151.17 -3.57606e-10 -9.74451e-13
  169 1151.17 -3.62611e-10 7.27282e-13
  170 1151.17 -3.63768e-10 -8.89203e-13
  171 1151.17 -3.61165e-10 -3.15653e-12
  172 1151.17 -3.62055e-10 4.71283e-12
  173 1151.17 -3.59071e-10 -4.58440e-13
  174 1151.17 -3.61147e-10 -2.77937e-13
  175 1151.17 -3.60498e-10 1.63386e-13
  176 1151.17 -3.61536e-10 1.34037e-12
  177 1151.17 -3.57643e-10 6.48390e-13
  178 1151.17 -3.60758e-10 -2.68649e-12
  179 1151.17 -3.61588e-10 1.64736e-12
  180 1151.17 -3.62278e-10 2.80713e-12
  181 1151.17 -3.62315e-10 3.29744e-12
  182 1151.17 -3.59564e-10 -2.12692e-12
  183 1151.17 -3.59460e-10 -8.56289e-13
  184 1151.17 -3.57851e-10 -3.50821e-12
  185 1151.17 -3.59849e-10 -3.53609e-12
  186 1151.17 -3.59408e-10 4.24910e-12
  187 1151.17 -3.62055e-10 3.27854e-13
  188 1151.17 -3.60654e-10 1.28508e-12
  189 1151.17 -3.58629e-10 3.28180e-13
  190 1151.17 -3.58607e-10 1.99645e-12
  191 1151.17 -3.61666e-10 -2.42117e-12
  192 1151.17 -3.60164e-10 4.30411e-12
  193 1151.17 -3.58785e-10 1.45169e-12
  194 1151.17 -3.61536e-10 1.09202e-12
  195 1151.17 -3.61147e-10 -1.74171e-12
  196 1151.17 -3.62055e-10 -2.14859e-12
  197 1151.17 -3.62445e-10 -9.90487e-13
  198 1151.17 -3.62574e-10 -4.79287e-13
  199 1151.17 -3.61666e-10 -3.02095e-12
  200 1151.17 -3.58681e-10 -3.19567e-12
  201 1151.17 -3.61796e-10 -4.34089e-13
  202 1151.17 -3.57539e-10 3.80354e-12
  203 1151.17 -3.61796e-10 1.99225e-12
  204 1151.17 -3.62964e-10 -4.32154e-12
  205 1151.17 -3.59590e-10 2.56528e-12
  206 1151.17 -3.60187e-10 4.75297e-12
  207 1151.17 -3.60965e-10 -3.74617e-12
  208 1151.17 -3.60342e-10 -1.57872e-12
  209 1151.17 -3.59590e-10 3.42269e-13
  210 1151.17 -3.62445e-10 -1.19819e-12
  211 1151.17 -3.61944e-10 2.01455e-12
  212 1151.17 -3.61121e-10 -1.38130e-12
  213 1151.17 -3.61744e-10 7.61183e-13
  214 1151.17 -3.62185e-10 3.22043e-12
  215 1151.17 -3.60342e-10 -2.24933e-12
  216 1151.17 -3.62211e-10 -3.26501e-12
  217 1151.17 -3.61406e-10 -4.97361e-12
  218 1151.17 -3.60109e-10 2.69880e-12
  219 1151.17 -3.58007e-10 3.00228e-12
  220 1151.17 -3.60109e-10 -6.14223e-14
  221 1151.17 -3.62055e-10 -2.06743e-12
  222 1151.17 -3.59979e-10 4.84322e-12
  223 1151.17 -3.60498e-10 -4.52501e-12
  224 1151.17 -3.57072e-10 -2.04195e-12
  225 1151.17 -3.62834e-10 -2.24175e-12
  226 1151.17 -3.59408e-10 -5.05831e-12
  227 1151.17 -3.60109e-10 -3.49427e-12
  228 1151.17 -3.61900e-10 -5.43859e-13
  229 1151.17 -3.60887e-10 -4.68254e-12
  230 1151.17 -3.60628e-10 5.91632e-12
  231 1151.17 -3.58007e-10 5.32936e-13
  232 1151.17 -3.60498e-10 -9.52119e-13
  233 1151.17 -3.62367e-10 5.36459e-12
  234 1151.17 -3.63223e-10 -7.27991e-13
  235 1151.17 -3.62678e-10 -1.72696e-12
  236 1151.17 -3.61610e-10 2.46331e-12
  237 1151.17 -3.63924e-10 -1.29615e-12
  238 1151.17 -3.60654e-10 6.46296e-13
  239 1151.17 -3.61147e-10 3.05701e-12
  240 1151.17 -3.62055e-10 8.31235e-13
  241 1151.17 -3.57513e-10 -1.30978e-12
</Section>

newXOutput 84

<Section columns = "stress_xx | stress_yy | stress_xy">
  1 1131.10 -3.47215e-10 -1.52796e-12
  2 1131.10 -3.55923e-10 -5.14622e-12
  3 1131.10 -3.48729e-10 -1.58919e-12
  4 1131.10 -3.47972e-10 1.43524e-12
  5 1131.10 -3.49360e-10 -3.97292e-12
  6 1131.10 -3.50244e-10 -4.81473e-12
  7 1131.10 -3.52705e-10 1.00503e-12
  8 1131.10 -3.49360e-10 3.37076e-12
  9 1131.10 -3.49613e-10 3.82283e-12
  10 1131.10 -3.50118e-10 2.74718e-12
  11 1131.10 -3.47341e-10 -4.45346e-12
  12 1131.10 -3.47341e-10 -1.15502e-11
  13 1131.10 -3.52516e-10 1.57108e-12
  14 1131.10 -3.49108e-10 -2.70282e-12
  15 1131.10 -3.47404e-10 -6.29844e-12
  16 1131.10 -3.51380e-10 -1.46950e-11
  17 1131.10 -3.55419e-10 -3.45708e-12
  18 1131.10 -3.54409e-10 8.97962e-12
  19 1131.10 -3.48855e-10 9.12599e-12
  20 1131.10 -3.50118e-10 8.79802e-12
  21 1131.10 -3.45574e-10 4.35161e-12
  22 1131.10 -3.45826e-10 -8.55781e-12
  23 1131.10 -3.50370e-10 -9.95839e-12
  24 1131.10 -3.58195e-10 6.80590e-13
  25 1131.10 -3.55545e-10 1.65744e-13
  26 1131.10 -3.52705e-10 -5.28518e-13
  27 1131.10 -3.50622e-10 3.79913e-12
  28 1131.10 -3.48729e-10 -3.40204e-12
  29 1131.10 -3.50244e-10 4.14359e-13
  30 1131.10 -3.50118e-10 1.07524e-12
  31 1131.10 -3.48855e-10 -4.80903e-12
  32 1131.10 -3.50244e-10 -4.99589e-12
  33 1131.10 -3.54977e-10 4.37478e-12
  34 1131.10 -3.51885e-10 1.50135e-11
  35 1131.10 -3.45511e-10 3.50312e-12
  36 1131.10 -3.45826e-10 -2.50906e-12
  37 1131.10 -3.49360e-10 -6.24957e-12
  38 1131.10 -3.51632e-10 -3.79953e-12
  39 1131.10 -3.53147e-10 2.52836e-12
  40 1131.10 -3.51885e-10 7.64001e-12
  41 1131.10 -3.48098e-10 5.40930e-12
  42 1131.10 -3.46836e-10 -7.71528e-13
  43 1131.10 -3.49613e-10 -3.50003e-12
  44 1131.10 -3.51127e-10 -1.81651e-12
  45 1131.10 -3.50622e-10 -1.44340e-12
  46 1131.10 -3.50622e-10 -2.31621e-12
  47 1131.10 -3.52389e-10 -1.11662e-12
  48 1131.10 -3.51632e-10 3.04329e-12
  49 1131.10 -3.49865e-10 3.46179e-12
  50 1131.10 -3.46836e-10 1.72149e-14
  51 1131.10 -3.46836e-10 -5.52479e-14
  52 1131.10 -3.49108e-10 -1.04507e-12
  53 1131.10 -3.49865e-10 9.60872e-13
  54 1131.10 -3.47972e-10 -6.10129e-14
  55 1131.10 -3.49108e-10 -5.52479e-14
  56 1131.10 -3.47846e-10 3.79409e-13
  57 1131.10 -3.49739e-10 -1.11521e-12
  58 1131.10 -3.51506e-10 -4.47824e-12
  59 1131.10 -3.49324e-10 -3.57481e-13
  60 1131.10 -3.48982e-10 1.83715e-12
  61 1131.10 -3.49234e-10 9.28745e-13
  62 1131.10 -3.49739e-10 8.41729e-14
  63 1131.10 -3.49108e-10 4.06725e-12
  64 1131.10 -3.48477e-10 -7.96312e-12
  65 1131.10 -3.51001e-10 -1.86583e-12
  66 1131.10 -3.50622e-10 9.71887e-13
  67 1131.10 -3.48098e-10 -4.91338e-12
  68 1131.10 -3.48982e-10 -3.15099e-12
  69 1131.10 -3.49108e-10 2.79049e-14
  70 1131.10 -3.50717e-10 -5.92861e-13
  71 1131.10 -3.49991e-10 1.76747e-12
  72 1131.10 -3.49757e-10 -4.76949e-12
  73 1131.10 -3.46836e-10 -3.13954e-12
  74 1131.10 -3.51834e-10 -4.34386e-13
  75 1131.10 -3.48502e-10 -1.95988e-12
  76 1131.10 -3.48855e-10 8.05294e-12
  77 1131.10 -3.50244e-10 9.36031e-13
  78 1131.10 -3.46331e-10 -6.46245e-12
  79 1131.10 -3.49865e-10 -2.43040e-12
  80 1131.10 -3.49865e-10 2.48780e-12
  81 1131.10 -3.50496e-10 -5.19432e-12
  82 1131.10 -3.51506e-10 1.78294e-12
  83 1131.10 -3.49108e-10 1.40551e-12
  84 1131.10 -3.51127e-10 -1.45092e-12
  85 1131.10 -3.51127e-10 6.88917e-12
  86 1131.10 -3.53778e-10 2.68873e-12
  87 1131.10 -3.48603e-10 1.61445e-13
  88 1131.10 -3.50320e-10 3.92258e-12
  89 1131.10 -3.49259e-10 1.10245e-12
  90 1131.10 -3.49234e-10 3.88757e-13
  91 1131.10 -3.49865e-10 1.78786e-12
  92 1131.10 -3.48956e-10 -3.77031e-13
  93 1131.10 -3.47896e-10 3.86980e-12
  94 1131.10 -3.48654e-10 -5.74784e-12
  95 1131.10 -3.46533e-10 -2.93126e-13
  96 1131.10 -3.51632e-10 -2.74908e-12
  97 1131.10 -3.44867e-10 -7.03416e-12
  98 1131.10 -3.51531e-10 2.05742e-12
  99 1131.10 -3.46836e-10 2.72964e-12
  100 1131.10 -3.50320e-10 8.48367e-13
  101 1131.10 -3.53778e-10 5.97638e-13
  102 1131.10 -3.43504e-10 3.18550e-12
  103 1131.10 -3.51380e-10 2.18069e-13
  104 1131.10 -3.49411e-10 -7.62060e-13
  105 1131.10 -3.50017e-10 -1.95270e-12
  106 1131.10 -3.50875e-10 -4.96150e-13
  107 1131.10 -3.52137e-10 -1.74351e-13
  108 1131.10 -3.49739e-10 -2.28681e-12
  109 1131.10 -3.48048e-10 4.92427e-15
  110 1131.10 -3.48956e-10 -5.67888e-12
  111 1131.10 -3.50717e-10 1.44493e-13
  112 1131.10 -3.49108e-10 -1.14610e-12
  113 1131.10 -3.51163e-10 1.01411e-12
  114 1131.10 -3.49108e-10 -1.83207e-12
  115 1131.10 -3.51380e-10 3.03595e-12
  116 1131.10 -3.51986e-10 -1.01925e-12
  117 1131.10 -3.51506e-10 -1.32735e-13
  118 1131.10 -3.49991e-10 -3.33225e-13
  119 1131.10 -3.47269e-10 5.29534e-12
  120 1131.10 -3.45069e-10 -4.33103e-12
  121 1131.10 -3.48459e-10 -2.13863e-12
  122 1131.10 -3.50190e-10 -1.36855e-12
  123 1131.10 -3.50749e-10 3.25885e-13
  124 1131.10 -3.49865e-10 6.61693e-13
  125 1131.10 -3.48635e-10 4.16461e-13
  126 1131.10 -3.49108e-10 -4.94393e-13
  127 1131.10 -3.50947e-10 -1.69251e-12
  128 1131.10 -3.47688e-10 -6.74024e-13
  129 1131.10 -3.52042e-10 -3.74421e-13
  130 1131.10 -3.50875e-10 -2.16710e-12
  131 1131.10 -3.52516e-10 4.01766e-12
  132 1131.10 -3.48256e-10 4.29448e-13
  133 1131.10 -3.53760e-10 1.64742e-12
  134 1131.10 -3.47593e-10 2.21951e-12
  135 1131.10 -3.47485e-10 -1.05698e-11
  136 1131.10 -3.50731e-10 2.43502e-12
  137 1131.10 -3.49216e-10 5.18615e-13
  138 1131.10 -3.48224e-10 1.65437e-12
  139 1131.10 -3.50514e-10 1.17920e-12
  140 1131.10 -3.51380e-10 8.20036e-13
  141 1131.10 -3.49991e-10 -1.34388e-12
  142 1131.10 -3.47720e-10 -2.18697e-12
  143 1131.10 -3.49973e-10 9.17586e-13
  144 1131.10 -3.52137e-10 4.08142e-13
  145 1131.10 -3.51834e-10 -4.58712e-13
  146 1131.10 -3.49541e-10 -2.29022e-12
  147 1131.10 -3.51254e-10 1.29308e-12
  148 1131.10 -3.49108e-10 1.81878e-12
  149 1131.10 -3.46457e-10 5.76039e-13
  150 1131.10 -3.51127e-10 1.58166e-12
  151 1131.10 -3.49739e-10 -1.38660e-13
  152 1131.10 -3.45700e-10 8.24600e-12
  153 1131.10 -3.49991e-10 -2.68625e-12
  154 1131.10 -3.48502e-10 3.01932e-12
  155 1131.10 -3.49487e-10 3.93944e-12
  156 1131.10 -3.50839e-10 3.96288e-12
  157 1131.10 -3.50082e-10 -1.76534e-12
  158 1131.10 -3.49487e-10 -2.29839e-12
  159 1131.10 -3.52516e-10 -3.05545e-12
  160 1131.10 -3.50925e-10 3.37829e-13
  161 1131.10 -3.51683e-10 7.73110e-12
  162 1131.10 -3.48729e-10 6.98155e-13
  163 1131.10 -3.49613e-10 5.88230e-13
  164 1131.10 -3.47377e-10 1.45480e-12
  165 1131.10 -3.49613e-10 3.41376e-13
  166 1131.10 -3.47052e-10 -3.98771e-13
  167 1131.10 -3.54301e-10 1.06457e-12
  168 1131.10 -3.49757e-10 1.10801e-12
  169 1131.10 -3.48783e-10 4.95764e-13
  170 1131.10 -3.48805e-10 -2.36934e-12
  171 1131.10 -3.50731e-10 1.49408e-12
  172 1131.10 -3.49487e-10 4.10259e-12
  173 1131.10 -3.50875e-10 -1.99360e-12
  174 1131.10 -3.53652e-10 -2.45741e-12
  175 1131.10 -3.48224e-10 9.47776e-13
  176 1131.10 -3.48603e-10 -1.96750e-13
  177 1131.10 -3.49108e-10 1.22172e-12
  178 1131.10 -3.50370e-10 1.57960e-12
  179 1131.10 -3.51531e-10 -3.90074e-13
  180 1131.10 -3.49541e-10 1.11903e-13
  181 1131.10 -3.49234e-10 -3.05781e-12
  182 1131.10 -3.50471e-10 -1.23235e-12
  183 1131.10 -3.48855e-10 2.95577e-12
  184 1131.10 -3.54257e-10 -9.05104e-13
  185 1131.10 -3.51127e-10 2.22278e-13
  186 1131.10 -3.45473e-10 3.34802e-13
  187 1131.10 -3.51632e-10 8.71481e-13
  188 1131.10 -3.47896e-10 -3.02955e-12
  189 1131.10 -3.50471e-10 -2.52906e-12
  190 1131.10 -3.51055e-10 6.99371e-13
  191 1131.10 -3.49487e-10 -9.09218e-13
  192 1131.10 -3.49432e-10 -8.75730e-13
  193 1131.10 -3.45019e-10 -2.37588e-12
  194 1131.10 -3.49234e-10 1.56029e-12
  195 1131.10 -3.50496e-10 -1.49802e-12
  196 1131.10 -3.49234e-10 -2.21742e-12
  197 1131.10 -3.49487e-10 1.52182e-13
  198 1131.10 -3.48729e-10 1.01368e-13
  199 1131.10 -3.49487e-10 -1.35147e-13
  200 1131.10 -3.50622e-10 -6.06053e-12
  201 1131.10 -3.48855e-10 -1.21775e-12
  202 1131.10 -3.51380e-10 -3.05545e-14
  203 1131.10 -3.48982e-10 -5.74518e-13
  204 1131.10 -3.50118e-10 -3.46304e-12
  205 1131.10 -3.50370e-10 3.95443e-14
  206 1131.10 -3.48199e-10 -1.10137e-11
  207 1131.10 -3.51531e-10 3.23961e-12
  208 1131.10 -3.46382e-10 -7.93933e-13
  209 1131.10 -3.44438e-10 6.93671e-12
  210 1131.10 -3.51127e-10 -1.02209e-12
  211 1131.10 -3.50190e-10 -1.25421e-12
  212 1131.10 -3.50017e-10 -8.91230e-12
  213 1131.10 -3.50471e-10 2.21466e-12
  214 1131.10 -3.48224e-10 -6.64088e-14
  215 1131.10 -3.50471e-10 2.81729e-12
  216 1131.10 -3.48956e-10 1.63482e-12
  217 1131.10 -3.48855e-10 -8.36144e-13
  218 1131.10 -3.51506e-10 -2.12740e-12
  219 1131.10 -3.47139e-10 8.43363e-12
  220 1131.10 -3.49991e-10 2.36747e-12
  221 1131.10 -3.50244e-10 -2.65158e-12
  222 1131.10 -3.48098e-10 9.15245e-12
  223 1131.10 -3.47593e-10 -2.50996e-12
  224 1131.10 -3.48199e-10 4.36746e-13
  225 1131.10 -3.48351e-10 -5.69495e-12
  226 1131.10 -3.51380e-10 2.17883e-12
  227 1131.10 -3.49865e-10 -2.51586e-12
  228 1131.10 -3.48199e-10 -4.44241e-13
  229 1131.10 -3.48982e-10 1.69535e-12
  230 1131.10 -3.47593e-10 -4.02849e-12
  231 1131.10 -3.53955e-10 1.05288e-12
  232 1131.10 -3.49562e-10 -3.44939e-13
  233 1131.10 -3.47593e-10 1.57781e-11
  234 1131.10 -3.48351e-10 2.56582e-13
  235 1131.10 -3.49259e-10 1.80954e-12
  236 1131.10 -3.50622e-10 2.16573e-14
  237 1131.10 -3.46836e-10 -4.51695e-12
  238 1131.10 -3.50925e-10 1.58912e-12
  239 1131.10 -3.48982e-10 6.51144e-13
  240 1131.10 -3.53955e-10 6.62230e-12
  241 1131.10 -3.50622e-10 7.62901e-13
</Section>

newXOutput 85

<Section columns = "stress_xx | stress_yy | stress_xy">
  1 1111.10 -3.38405e-10 -5.55012e-13
  2 1111.10 -3.40614e-10 -2.39884e-12
  3 1111.10 -3.37300e-10 -1.74501e-12
  4 1111.10 -3.36564e-10 1.37662e-12
  5 1111.10 -3.38773e-10 -2.23523e-12
  6 1111.10 -3.39510e-10 -3.27697e-12
  7 1111.10 -3.40246e-10 6.44407e-13
  8 1111.10 -3.38528e-10 1.82949e-12
  9 1111.10 -3.39264e-10 1.13901e-12
  10 1111.10 -3.38037e-10 8.94935e-13
  11 1111.10 -3.38037e-10 -9.93995e-13
  12 1111.10 -3.38773e-10 -1.91085e-12
  13 1111.10 -3.38957e-10 2.46206e-13
  14 1111.10 -3.37055e-10 -4.19878e-12
  15 1111.10 -3.36011e-10 -6.27935e-12
  16 1111.10 -3.40246e-10 -1.38818e-11
  17 1111.10 -3.46383e-10 -2.67490e-12
  18 1111.10 -3.43437e-10 8.81392e-12
  19 1111.10 -3.37055e-10 6.66322e-12
  20 1111.10 -3.37546e-10 2.49627e-12
  21 1111.10 -3.36809e-10 -4.44303e-13
  22 1111.10 -3.38528e-10 -2.40858e-12
  23 1111.10 -3.38773e-10 -4.16663e-12
  24 1111.10 -3.45156e-10 1.50700e-13
  25 1111.10 -3.44665e-10 5.35888e-14
  26 1111.10 -3.38773e-10 1.95259e-12
  27 1111.10 -3.36809e-10 -1.37870e-12
  28 1111.10 -3.39510e-10 1.21160e-12
  29 1111.10 -3.36932e-10 1.07178e-13
  30 1111.10 -3.38528e-10 8.84745e-13
  31 1111.10 -3.37546e-10 -5.33432e-12
  32 1111.10 -3.39141e-10 -9.68001e-12
  33 1111.10 -3.43008e-10 -5.90927e-13
  34 1111.10 -3.41474e-10 4.24462e-12
  35 1111.10 -3.37300e-10 6.92680e-14
  36 1111.10 -3.37546e-10 -3.09186e-12
  37 1111.10 -3.40737e-10 -2.56376e-12
  38 1111.10 -3.41719e-10 -4.23632e-13
  39 1111.10 -3.40492e-10 7.51380e-13
  40 1111.10 -3.40737e-10 3.38246e-12
  41 1111.10 -3.38773e-10 3.04977e-12
  42 1111.10 -3.38528e-10 1.16396e-12
  43 1111.10 -3.39755e-10 9.98355e-13
  44 1111.10 -3.38773e-10 -1.85319e-13
  45 1111.10 -3.38282e-10 -3.08893e-12
  46 1111.10 -3.39019e-10 -4.41967e-12
  47 1111.10 -3.41228e-10 -1.40700e-12
  48 1111.10 -3.40737e-10 3.75927e-12
  49 1111.10 -3.38037e-10 4.22275e-12
  50 1111.10 -3.37791e-10 -5.89924e-13
  51 1111.10 -3.39510e-10 -3.21533e-13
  52 1111.10 -3.39141e-10 5.10800e-13
  53 1111.10 -3.39264e-10 -1.66219e-12
  54 1111.10 -3.39141e-10 1.29926e-12
  55 1111.10 -3.37668e-10 0.00000
  56 1111.10 -3.39264e-10 2.91247e-13
  57 1111.10 -3.39019e-10 2.97066e-14
  58 1111.10 -3.40001e-10 -1.72191e-12
  59 1111.10 -3.38037e-10 -3.66719e-13
  60 1111.10 -3.39632e-10 2.38873e-12
  61 1111.10 -3.38282e-10 1.98785e-13
  62 1111.10 -3.38528e-10 1.41344e-12
  63 1111.10 -3.40541e-10 1.89900e-13
  64 1111.10 -3.38773e-10 -1.63672e-12
  65 1111.10 -3.39387e-10 -1.98089e-12
  66 1111.10 -3.39755e-10 1.30055e-12
  67 1111.10 -3.39019e-10 -9.94828e-13
  68 1111.10 -3.39141e-10 -2.44808e-12
  69 1111.10 -3.38984e-10 6.44879e-13
  70 1111.10 -3.38957e-10 8.26785e-13
  71 1111.10 -3.39019e-10 1.09323e-12
  72 1111.10 -3.38142e-10 -2.72504e-12
  73 1111.10 -3.37826e-10 -2.58354e-12
  74 1111.10 -3.38773e-10 -5.72165e-14
  75 1111.10 -3.38184e-10 -8.61369e-13
  76 1111.10 -3.38037e-10 -3.10899e-13
  77 1111.10 -3.39755e-10 -1.83094e-12
  78 1111.10 -3.36809e-10 -1.65464e-12
  79 1111.10 -3.38773e-10 -1.40070e-12
  80 1111.10 -3.38773e-10 1.05501e-12
  81 1111.10 -3.39632e-10 -2.62172e-12
  82 1111.10 -3.41596e-10 -2.51253e-13
  83 1111.10 -3.37668e-10 -6.12711e-13
  84 1111.10 -3.39387e-10 -2.82276e-13
  85 1111.10 -3.41596e-10 4.88869e-12
  86 1111.10 -3.40983e-10 1.04048e-13
  87 1111.10 -3.38405e-10 -1.41416e-12
  88 1111.10 -3.40246e-10 3.33282e-12
  89 1111.10 -3.39068e-10 -2.42570e-13
  90 1111.10 -3.38896e-10 8.13130e-13
  91 1111.10 -3.37595e-10 -1.22648e-12
  92 1111.10 -3.38773e-10 1.39410e-13
  93 1111.10 -3.39362e-10 2.90510e-12
  94 1111.10 -3.39068e-10 -4.20386e-12
  95 1111.10 -3.37006e-10 -2.40135e-12
  96 1111.10 -3.40614e-10 -1.85069e-12
  97 1111.10 -3.35533e-10 -2.92167e-12
  98 1111.10 -3.40688e-10 1.73540e-12
  99 1111.10 -3.37914e-10 2.03662e-12
  100 1111.10 -3.38920e-10 3.99433e-13
  101 1111.10 -3.40492e-10 -4.08210e-13
  102 1111.10 -3.37006e-10 -4.96137e-13
  103 1111.10 -3.39264e-10 -2.64860e-13
  104 1111.10 -3.39362e-10 1.00703e-12
  105 1111.10 -3.38626e-10 5.23674e-13
  106 1111.10 -3.40123e-10 -8.33068e-14
  107 1111.10 -3.39141e-10 3.30595e-12
  108 1111.10 -3.39755e-10 3.01672e-13
  109 1111.10 -3.38479e-10 3.06724e-12
  110 1111.10 -3.39362e-10 2.31231e-12
  111 1111.10 -3.40706e-10 1.20060e-13
  112 1111.10 -3.38528e-10 -1.24979e-12
  113 1111.10 -3.40246e-10 1.03458e-12
  114 1111.10 -3.39194e-10 -3.23125e-13
  115 1111.10 -3.38528e-10 1.20706e-12
  116 1111.10 -3.39510e-10 2.65825e-13
  117 1111.10 -3.40983e-10 -4.29605e-13
  118 1111.10 -3.38650e-10 -1.33035e-12
  119 1111.10 -3.38352e-10 3.31214e-12
  120 1111.10 -3.36196e-10 -1.13785e-12
  121 1111.10 -3.38247e-10 -4.79665e-13
  122 1111.10 -3.39825e-10 3.65987e-13
  123 1111.10 -3.40001e-10 6.50942e-13
  124 1111.10 -3.39510e-10 -3.43232e-13
  125 1111.10 -3.38037e-10 8.68985e-14
  126 1111.10 -3.39049e-10 3.22097e-13
  127 1111.10 -3.40667e-10 -2.85421e-12
  128 1111.10 -3.37484e-10 5.73706e-13
  129 1111.10 -3.39878e-10 -8.20433e-13
  130 1111.10 -3.38405e-10 -1.44875e-12
  131 1111.10 -3.39264e-10 1.12830e-12
  132 1111.10 -3.38773e-10 1.27458e-12
  133 1111.10 -3.43192e-10 1.76447e-12
  134 1111.10 -3.37616e-10 1.15536e-12
  135 1111.10 -3.37405e-10 -6.29107e-12
  136 1111.10 -3.40351e-10 1.07428e-12
  137 1111.10 -3.38563e-10 5.47893e-13
  138 1111.10 -3.38282e-10 6.79893e-15
  139 1111.10 -3.38668e-10 7.28471e-13
  140 1111.10 -3.39299e-10 -1.03065e-12
  141 1111.10 -3.39141e-10 -1.09135e-12
  142 1111.10 -3.38896e-10 -5.01544e-13
  143 1111.10 -3.38773e-10 -2.56470e-14
  144 1111.10 -3.40835e-10 -4.86332e-13
  145 1111.10 -3.40835e-10 -1.16470e-12
  146 1111.10 -3.38773e-10 -1.71655e-12
  147 1111.10 -3.39141e-10 6.16242e-13
  148 1111.10 -3.40123e-10 -1.57775e-12
  149 1111.10 -3.38896e-10 -2.71030e-12
  150 1111.10 -3.39264e-10 9.14779e-13
  151 1111.10 -3.38405e-10 -5.29983e-13
  152 1111.10 -3.36686e-10 4.09886e-12
  153 1111.10 -3.40123e-10 -1.03321e-12
  154 1111.10 -3.37889e-10 1.19718e-12
  155 1111.10 -3.39264e-10 2.44422e-12
  156 1111.10 -3.39404e-10 3.49588e-12
  157 1111.10 -3.39615e-10 -5.29969e-13
  158 1111.10 -3.39510e-10 -1.68505e-12
  159 1111.10 -3.40492e-10 -2.88755e-12
  160 1111.10 -3.39215e-10 -9.76087e-13
  161 1111.10 -3.37742e-10 1.29919e-12
  162 1111.10 -3.37791e-10 -2.71447e-13
  163 1111.10 -3.39510e-10 -4.06221e-13
  164 1111.10 -3.38878e-10 1.04222e-13
  165 1111.10 -3.38650e-10 3.57524e-13
  166 1111.10 -3.38037e-10 -1.45261e-12
  167 1111.10 -3.42561e-10 1.45428e-12
  168 1111.10 -3.38142e-10 1.36564e-14
  169 1111.10 -3.38458e-10 -1.34169e-13
  170 1111.10 -3.38920e-10 -4.84690e-13
  171 1111.10 -3.39615e-10 1.08058e-12
  172 1111.10 -3.38159e-10 2.26519e-12
  173 1111.10 -3.38528e-10 -2.01874e-12
  174 1111.10 -3.40983e-10 -2.78423e-12
  175 1111.10 -3.37546e-10 3.42881e-13
  176 1111.10 -3.38896e-10 2.61286e-13
  177 1111.10 -3.37914e-10 2.43654e-12
  178 1111.10 -3.38896e-10 3.09262e-13
  179 1111.10 -3.39068e-10 5.34925e-14
  180 1111.10 -3.39089e-10 1.25736e-12
  181 1111.10 -3.40123e-10 -2.02225e-12
  182 1111.10 -3.42014e-10 9.52262e-13
  183 1111.10 -3.38037e-10 -4.34985e-13
  184 1111.10 -3.44223e-10 -2.27123e-13
  185 1111.10 -3.40001e-10 -2.33290e-14
  186 1111.10 -3.36564e-10 2.84165e-13
  187 1111.10 -3.40492e-10 1.24866e-12
  188 1111.10 -3.37595e-10 -1.00648e-12
  189 1111.10 -3.38773e-10 -6.20172e-13
  190 1111.10 -3.38668e-10 2.01955e-13
  191 1111.10 -3.38650e-10 5.56055e-13
  192 1111.10 -3.39930e-10 -1.89809e-12
  193 1111.10 -3.36858e-10 -1.37280e-12
  194 1111.10 -3.38282e-10 3.76164e-12
  195 1111.10 -3.39632e-10 -2.30100e-12
  196 1111.10 -3.40246e-10 -2.33103e-12
  197 1111.10 -3.38896e-10 1.11274e-13
  198 1111.10 -3.38405e-10 8.29170e-13
  199 1111.10 -3.38896e-10 -4.94521e-13
  200 1111.10 -3.39755e-10 -4.36108e-12
  201 1111.10 -3.38896e-10 5.89184e-13
  202 1111.10 -3.41866e-10 5.08557e-13
  203 1111.10 -3.38650e-10 -1.90668e-13
  204 1111.10 -3.38405e-10 -3.24934e-12
  205 1111.10 -3.38773e-10 3.81364e-13
  206 1111.10 -3.37889e-10 -4.97909e-12
  207 1111.10 -3.40246e-10 -1.78199e-13
  208 1111.10 -3.36711e-10 -1.07300e-12
  209 1111.10 -3.35705e-10 5.14180e-12
  210 1111.10 -3.40614e-10 -1.08021e-12
  211 1111.10 -3.39510e-10 5.85811e-14
  212 1111.10 -3.38626e-10 -6.31985e-12
  213 1111.10 -3.39215e-10 1.80956e-12
  214 1111.10 -3.39019e-10 2.08820e-13
  215 1111.10 -3.39215e-10 -2.21545e-13
  216 1111.10 -3.37742e-10 -1.18883e-13
  217 1111.10 -3.38037e-10 -3.58967e-13
  218 1111.10 -3.39632e-10 -7.84638e-13
  219 1111.10 -3.38331e-10 3.50584e-12
  220 1111.10 -3.38773e-10 1.75002e-12
  221 1111.10 -3.39632e-10 -1.08834e-12
  222 1111.10 -3.38773e-10 6.54216e-12
  223 1111.10 -3.38037e-10 -6.87450e-13
  224 1111.10 -3.38773e-10 9.11402e-13
  225 1111.10 -3.38920e-10 -2.92756e-12
  226 1111.10 -3.39215e-10 1.55198e-12
  227 1111.10 -3.39755e-10 -1.41719e-12
  228 1111.10 -3.38331e-10 -1.64830e-12
  229 1111.10 -3.38650e-10 1.07583e-12
  230 1111.10 -3.38282e-10 -1.50398e-12
  231 1111.10 -3.42308e-10 -4.87954e-13
  232 1111.10 -3.38920e-10 -1.41068e-12
  233 1111.10 -3.38920e-10 1.01334e-11
  234 1111.10 -3.38528e-10 -1.17247e-13
  235 1111.10 -3.38037e-10 2.23267e-14
  236 1111.10 -3.39825e-10 -3.30621e-13
  237 1111.10 -3.36711e-10 -1.97903e-12
  238 1111.10 -3.39068e-10 4.54824e-13
  239 1111.10 -3.39141e-10 -1.55672e-12
  240 1111.10 -3.39804e-10 2.83656e-12
  241 1111.10 -3.40737e-10 6.38353e-13
</Section>

newXOutput 86

<Section columns = "stress_xx | stress_yy | stress_xy">
  1 1091.18 -3.32644e-10 2.42625e-12
  2 1091.18 -3.26199e-10 1.00024e-12
  3 1091.18 -3.29422e-10 -5.67133e-13
  4 1091.18 -3.25125e-10 4.52464e-12
  5 1091.18 -3.31331e-10 8.63771e-12
  6 1091.18 -3.28347e-10 1.24533e-11
  7 1091.18 -3.22797e-10 2.08315e-13
  8 1091.18 -3.27512e-10 -7.09985e-12
  9 1091.18 -3.27034e-10 -1.01914e-11
  10 1091.18 -3.30615e-10 -1.37146e-11
  11 1091.18 -3.36344e-10 3.84103e-12
  12 1091.18 -3.34912e-10 1.84480e-11
  13 1091.18 -3.23155e-10 -2.73533e-13
  14 1091.18 -3.27512e-10 -7.56604e-12
  15 1091.18 -3.28526e-10 -4.50747e-12
  16 1091.18 -3.29422e-10 -1.09635e-11
  17 1091.18 -3.33957e-10 -1.03098e-12
  18 1091.18 -3.30854e-10 1.10430e-11
  19 1091.18 -3.24647e-10 3.61134e-12
  20 1091.18 -3.28705e-10 -2.78825e-12
  21 1091.18 -3.30376e-10 2.81441e-13
  22 1091.18 -3.29899e-10 1.93119e-12
  23 1091.18 -3.28944e-10 2.46367e-12
  24 1091.18 -3.28944e-10 -4.31439e-14
  25 1091.18 -3.29422e-10 6.23686e-13
  26 1091.18 -3.30496e-10 -2.82482e-13
  27 1091.18 -3.28705e-10 1.01299e-12
  28 1091.18 -3.28884e-10 -5.00059e-13
  29 1091.18 -3.27989e-10 1.55921e-12
  30 1091.18 -3.25602e-10 -1.16690e-13
  31 1091.18 -3.28705e-10 3.56526e-13
  32 1091.18 -3.26915e-10 1.22037e-12
  33 1091.18 -3.28526e-10 -4.01883e-12
  34 1091.18 -3.28944e-10 -4.74024e-12
  35 1091.18 -3.30675e-10 2.37025e-12
  36 1091.18 -3.32047e-10 5.67517e-12
  37 1091.18 -3.30854e-10 1.30077e-11
  38 1091.18 -3.23215e-10 1.27355e-11
  39 1091.18 -3.21305e-10 -1.34482e-12
  40 1091.18 -3.26080e-10 -1.23253e-11
  41 1091.18 -3.31570e-10 -1.45470e-11
  42 1091.18 -3.38970e-10 -2.53146e-12
  43 1091.18 -3.33718e-10 1.91516e-11
  44 1091.18 -3.20351e-10 1.65093e-11
  45 1091.18 -3.20589e-10 -6.43225e-12
  46 1091.18 -3.31809e-10 -8.70997e-12
  47 1091.18 -3.30138e-10 3.89984e-12
  48 1091.18 -3.29183e-10 6.26097e-12
  49 1091.18 -3.30138e-10 7.92650e-12
  50 1091.18 -3.28467e-10 -1.93359e-12
  51 1091.18 -3.29422e-10 -3.89803e-13
  52 1091.18 -3.31928e-10 9.84259e-13
  53 1091.18 -3.29422e-10 9.85323e-13
  54 1091.18 -3.31391e-10 -2.55908e-12
  55 1091.18 -3.33002e-10 6.23686e-13
  56 1091.18 -3.31809e-10 1.72017e-13
  57 1091.18 -3.29302e-10 4.25971e-12
  58 1091.18 -3.32286e-10 2.13358e-12
  59 1091.18 -3.28092e-10 -5.03978e-13
  60 1091.18 -3.34196e-10 -1.39158e-11
  61 1091.18 -3.32405e-10 1.66705e-12
  62 1091.18 -3.36344e-10 2.80072e-12
  63 1091.18 -3.33718e-10 -1.03036e-12
  64 1091.18 -3.28825e-10 1.18260e-12
  65 1091.18 -3.27154e-10 1.79654e-12
  66 1091.18 -3.27273e-10 -7.23871e-13
  67 1091.18 -3.30376e-10 9.10857e-12
  68 1091.18 -3.27273e-10 -8.87815e-12
  69 1091.18 -3.28194e-10 -2.92972e-12
  70 1091.18 -3.22081e-10 5.20426e-12
  71 1091.18 -3.23692e-10 -3.19827e-12
  72 1091.18 -3.28705e-10 7.18540e-12
  73 1091.18 -3.28501e-10 5.45318e-13
  74 1091.18 -3.20541e-10 6.84865e-12
  75 1091.18 -3.30424e-10 -1.34053e-11
  76 1091.18 -3.29422e-10 -7.51329e-13
  77 1091.18 -3.29899e-10 1.32848e-12
  78 1091.18 -3.34673e-10 -4.26388e-12
  79 1091.18 -3.28808e-10 -1.67747e-12
  80 1091.18 -3.30973e-10 3.47316e-13
  81 1091.18 -3.26915e-10 2.29149e-12
  82 1091.18 -3.24051e-10 8.84258e-13
  83 1091.18 -3.23454e-10 5.76605e-12
  84 1091.18 -3.26318e-10 2.88066e-12
  85 1091.18 -3.28347e-10 8.81878e-13
  86 1091.18 -3.29302e-10 -2.48404e-12
  87 1091.18 -3.34554e-10 -9.02907e-12
  88 1091.18 -3.26987e-10 -3.71894e-12
  89 1091.18 -3.29422e-10 3.20154e-12
  90 1091.18 -3.30496e-10 3.65335e-12
  91 1091.18 -3.20828e-10 -4.26648e-12
  92 1091.18 -3.34721e-10 6.55520e-13
  93 1091.18 -3.29851e-10 2.23611e-12
  94 1091.18 -3.24265e-10 -5.25987e-12
  95 1091.18 -3.28705e-10 -1.72972e-11
  96 1091.18 -3.23931e-10 9.27651e-12
  97 1091.18 -3.29422e-10 -1.30551e-12
  98 1091.18 -3.32286e-10 -9.30272e-13
  99 1091.18 -3.30018e-10 6.09577e-12
  100 1091.18 -3.28133e-10 3.40868e-12
  101 1091.18 -3.23812e-10 -5.19213e-12
  102 1091.18 -3.29994e-10 -6.98456e-12
  103 1091.18 -3.26676e-10 7.89177e-12
  104 1091.18 -3.27703e-10 -1.31431e-11
  105 1091.18 -3.28133e-10 6.21254e-12
  106 1091.18 -3.25722e-10 -1.34710e-12
  107 1091.18 -3.28705e-10 -1.49425e-13
  108 1091.18 -3.31570e-10 4.70260e-12
  109 1091.18 -3.32429e-10 -6.90697e-12
  110 1091.18 -3.29135e-10 -2.07845e-13
  111 1091.18 -3.28884e-10 -2.89574e-12
  112 1091.18 -3.26796e-10 5.72586e-12
  113 1091.18 -3.25739e-10 -7.57767e-12
  114 1091.18 -3.28603e-10 2.15542e-12
  115 1091.18 -3.29422e-10 -8.06766e-12
  116 1091.18 -3.24838e-10 5.38303e-12
  117 1091.18 -3.29899e-10 -2.91607e-12
  118 1091.18 -3.28705e-10 -4.20071e-12
  119 1091.18 -3.31058e-10 2.21059e-12
  120 1091.18 -3.33480e-10 1.21985e-12
  121 1091.18 -3.28501e-10 1.05007e-11
  122 1091.18 -3.25636e-10 -2.47248e-12
  123 1091.18 -3.28586e-10 -3.51064e-13
  124 1091.18 -3.31058e-10 5.12725e-12
  125 1091.18 -3.30943e-10 -6.91878e-13
  126 1091.18 -3.28258e-10 2.08887e-12
  127 1091.18 -3.29626e-10 -9.26220e-12
  128 1091.18 -3.27900e-10 -1.13403e-12
  129 1091.18 -3.29243e-10 2.84048e-13
  130 1091.18 -3.32047e-10 -3.59553e-12
  131 1091.18 -3.24289e-10 -4.12090e-12
  132 1091.18 -3.33897e-10 3.67652e-12
  133 1091.18 -3.29422e-10 2.32570e-12
  134 1091.18 -3.30547e-10 -3.49969e-12
  135 1091.18 -3.30138e-10 -3.20379e-12
  136 1091.18 -3.33002e-10 -6.50055e-12
  137 1091.18 -3.30035e-10 4.73608e-12
  138 1091.18 -3.26676e-10 1.96085e-11
  139 1091.18 -3.30547e-10 -4.21804e-12
  140 1091.18 -3.29933e-10 -3.84889e-12
  141 1091.18 -3.24647e-10 -1.30412e-12
  142 1091.18 -3.31451e-10 6.59986e-12
  143 1091.18 -3.27478e-10 -1.00519e-11
  144 1091.18 -3.22976e-10 1.62346e-11
  145 1091.18 -3.29278e-10 -1.37352e-12
  146 1091.18 -3.26148e-10 -7.37005e-12
  147 1091.18 -3.26080e-10 -5.19397e-12
  148 1091.18 -3.27989e-10 -1.80591e-12
  149 1091.18 -3.28347e-10 -1.08321e-13
  150 1091.18 -3.26796e-10 -6.27870e-12
  151 1091.18 -3.31331e-10 7.33954e-12
  152 1091.18 -3.30257e-10 -3.64158e-12
  153 1091.18 -3.25602e-10 1.20665e-11
  154 1091.18 -3.28992e-10 3.23059e-12
  155 1091.18 -3.32525e-10 5.63088e-13
  156 1091.18 -3.28296e-10 6.37745e-13
  157 1091.18 -3.30547e-10 5.27323e-12
  158 1091.18 -3.26676e-10 -3.89160e-13
  159 1091.18 -3.26080e-10 2.46448e-12
  160 1091.18 -3.28849e-10 1.98624e-12
  161 1091.18 -3.28849e-10 6.05243e-13
  162 1091.18 -3.25244e-10 -1.65951e-12
  163 1091.18 -3.27512e-10 -4.50866e-12
  164 1091.18 -3.29115e-10 6.18059e-14
  165 1091.18 -3.27989e-10 2.39770e-12
  166 1091.18 -3.31570e-10 -2.47128e-12
  167 1091.18 -3.29933e-10 6.95934e-13
  168 1091.18 -3.27478e-10 2.32067e-12
  169 1091.18 -3.32798e-10 1.40422e-12
  170 1091.18 -3.30711e-10 9.89025e-12
  171 1091.18 -3.30240e-10 1.50329e-12
  172 1091.18 -3.25125e-10 -3.02524e-12
  173 1091.18 -3.19992e-10 -5.30837e-12
  174 1091.18 -3.28825e-10 -6.40535e-13
  175 1091.18 -3.29899e-10 -1.49103e-12
  176 1091.18 -3.32047e-10 1.14669e-12
  177 1091.18 -3.27631e-10 -3.70052e-12
  178 1091.18 -3.29063e-10 -1.06596e-11
  179 1091.18 -3.25984e-10 4.86646e-12
  180 1091.18 -3.31263e-10 -9.64940e-13
  181 1091.18 -3.26915e-10 -1.87247e-12
  182 1091.18 -3.27989e-10 -5.43486e-12
  183 1091.18 -3.26676e-10 4.21523e-14
  184 1091.18 -3.31713e-10 5.07103e-12
  185 1091.18 -3.24289e-10 6.81752e-12
  186 1091.18 -3.28705e-10 -2.45088e-12
  187 1091.18 -3.27751e-10 -6.29157e-12
  188 1091.18 -3.26700e-10 -9.22584e-12
  189 1091.18 -3.30854e-10 4.63647e-12
  190 1091.18 -3.22976e-10 8.74525e-12
  191 1091.18 -3.29183e-10 -1.75554e-11
  192 1091.18 -3.28296e-10 -1.20149e-11
  193 1091.18 -3.30567e-10 3.68092e-12
  194 1091.18 -3.27154e-10 2.85286e-12
  195 1091.18 -3.27154e-10 5.90421e-13
  196 1091.18 -3.27393e-10 6.57749e-12
  197 1091.18 -3.28109e-10 1.82701e-12
  198 1091.18 -3.24886e-10 -4.70793e-12
  199 1091.18 -3.33599e-10 -3.90089e-12
  200 1091.18 -3.27989e-10 -4.21999e-12
  201 1091.18 -3.29780e-10 -3.14234e-12
  202 1091.18 -3.27560e-10 1.54689e-11
  203 1091.18 -3.28944e-10 -1.30982e-12
  204 1091.18 -3.26080e-10 3.73527e-12
  205 1091.18 -3.27273e-10 4.22154e-12
  206 1091.18 -3.30281e-10 -6.85746e-12
  207 1091.18 -3.34434e-10 -2.07385e-11
  208 1091.18 -3.31427e-10 1.10727e-12
  209 1091.18 -3.27631e-10 1.78561e-12
  210 1091.18 -3.29183e-10 2.00125e-12
  211 1091.18 -3.27478e-10 3.53785e-12
  212 1091.18 -3.29278e-10 -3.94632e-13
  213 1091.18 -3.31427e-10 1.04390e-12
  214 1091.18 -3.40522e-10 4.66897e-12
  215 1091.18 -3.29422e-10 -2.06487e-12
  216 1091.18 -3.30138e-10 -1.07149e-12
  217 1091.18 -3.28825e-10 3.11882e-12
  218 1091.18 -3.26796e-10 1.25302e-11
  219 1091.18 -3.27703e-10 -6.93022e-12
  220 1091.18 -3.28705e-10 1.29907e-11
  221 1091.18 -3.25722e-10 6.16138e-12
  222 1091.18 -3.32167e-10 3.80099e-12
  223 1091.18 -3.34864e-10 5.43275e-12
  224 1091.18 -3.28562e-10 1.40044e-12
  225 1091.18 -3.25698e-10 -1.61348e-12
  226 1091.18 -3.26271e-10 -4.69890e-12
  227 1091.18 -3.29063e-10 -2.61154e-12
  228 1091.18 -3.29565e-10 -6.18716e-12
  229 1091.18 -3.32286e-10 -7.07166e-12
  230 1091.18 -3.32047e-10 5.15938e-13
  231 1091.18 -3.32716e-10 6.17268e-12
  232 1091.18 -3.31140e-10 -1.26037e-12
  233 1091.18 -3.30711e-10 1.77090e-12
  234 1091.18 -3.35986e-10 -3.93718e-12
  235 1091.18 -3.26271e-10 -1.07168e-11
  236 1091.18 -3.25534e-10 3.19037e-12
  237 1091.18 -3.28849e-10 6.34125e-12
  238 1091.18 -3.29708e-10 -1.04559e-11
  239 1091.18 -3.30376e-10 -3.55882e-12
  240 1091.18 -3.23692e-10 -3.28032e-12
  241 1091.18 -3.31570e-10 5.29345e-12
</Section>

newXOutput 87

<Section columns = "stress_xx | stress_yy | stress_xy">
  1 1071.34 -3.28643e-10 5.53159e-12
  2 1071.34 -3.20636e-10 -3.00111e-12
  3 1071.34 -3.17503e-10 -1.05275e-12
  4 1071.34 -3.24117e-10 -5.62071e-13
  5 1071.34 -3.25162e-10 1.60518e-11
  6 1071.34 -3.18895e-10 2.24803e-11
  7 1071.34 -3.08277e-10 -4.74874e-12
  8 1071.34 -3.24466e-10 -1.88561e-11
  9 1071.34 -3.29572e-10 -3.27437e-12
  10 1071.34 -3.22841e-10 1.64890e-11
  11 1071.34 -3.11701e-10 7.82340e-12
  12 1071.34 -3.10540e-10 -5.12362e-12
  13 1071.34 -3.20636e-10 9.58006e-12
  14 1071.34 -3.17039e-10 6.41388e-13
  15 1071.34 -3.22899e-10 -2.08180e-12
  16 1071.34 -3.18895e-10 1.30230e-11
  17 1071.34 -3.08219e-10 -5.48929e-13
  18 1071.34 -3.15182e-10 -2.05644e-11
  19 1071.34 -3.26787e-10 -7.73254e-12
  20 1071.34 -3.20288e-10 5.36974e-12
  21 1071.34 -3.19127e-10 2.83756e-12
  22 1071.34 -3.16807e-10 1.83570e-12
  23 1071.34 -3.17271e-10 -3.35769e-12
  24 1071.34 -3.14950e-10 1.99914e-12
  25 1071.34 -3.12629e-10 2.52006e-13
  26 1071.34 -3.16284e-10 -3.76334e-12
  27 1071.34 -3.21681e-10 6.13959e-13
  28 1071.34 -3.16807e-10 4.33693e-12
  29 1071.34 -3.14718e-10 3.52809e-13
  30 1071.34 -3.14486e-10 -1.61124e-12
  31 1071.34 -3.18199e-10 -3.70239e-12
  32 1071.34 -3.18199e-10 -4.58189e-12
  33 1071.34 -3.22203e-10 -5.23189e-12
  34 1071.34 -3.23769e-10 7.65107e-12
  35 1071.34 -3.22029e-10 1.12803e-11
  36 1071.34 -3.18431e-10 1.83759e-11
  37 1071.34 -3.14950e-10 1.39636e-11
  38 1071.34 -3.13325e-10 1.46334e-12
  39 1071.34 -3.12165e-10 -9.63265e-12
  40 1071.34 -3.16110e-10 -1.98732e-11
  41 1071.34 -3.22609e-10 -8.51827e-12
  42 1071.34 -3.19592e-10 -1.85273e-12
  43 1071.34 -3.18431e-10 -3.97093e-12
  44 1071.34 -3.24001e-10 3.42589e-13
  45 1071.34 -3.21681e-10 9.97451e-12
  46 1071.34 -3.14950e-10 7.22703e-12
  47 1071.34 -3.14718e-10 -5.17143e-12
  48 1071.34 -3.16342e-10 -1.08367e-11
  49 1071.34 -3.21448e-10 -7.87985e-12
  50 1071.34 -3.22145e-10 2.12255e-12
  51 1071.34 -3.07755e-10 5.41814e-12
  52 1071.34 -3.19766e-10 -9.11685e-12
  53 1071.34 -3.29340e-10 1.51958e-11
  54 1071.34 -3.15762e-10 -7.41543e-12
  55 1071.34 -3.23769e-10 3.02408e-13
  56 1071.34 -3.22145e-10 -1.31363e-12
  57 1071.34 -3.19940e-10 2.71899e-12
  58 1071.34 -3.17271e-10 -4.07352e-12
  59 1071.34 -3.18100e-10 -3.10241e-12
  60 1071.34 -3.14602e-10 -2.36104e-12
  61 1071.34 -3.15994e-10 -1.31676e-11
  62 1071.34 -3.19127e-10 -1.11598e-11
  63 1071.34 -3.08173e-10 1.01867e-11
  64 1071.34 -3.23653e-10 -1.14629e-11
  65 1071.34 -3.20984e-10 1.54072e-11
  66 1071.34 -3.18431e-10 9.99625e-12
  67 1071.34 -3.21913e-10 8.28653e-12
  68 1071.34 -3.15414e-10 1.55729e-11
  69 1071.34 -3.22576e-10 -1.38293e-12
  70 1071.34 -3.15675e-10 2.63238e-12
  71 1071.34 -3.17851e-10 1.29016e-11
  72 1071.34 -3.17204e-10 -9.41082e-12
  73 1071.34 -3.26455e-10 -1.01326e-11
  74 1071.34 -3.16389e-10 -2.04742e-12
  75 1071.34 -3.23909e-10 5.61776e-12
  76 1071.34 -3.20056e-10 -1.39609e-12
  77 1071.34 -3.24117e-10 8.84797e-12
  78 1071.34 -3.26090e-10 -1.90537e-12
  79 1071.34 -3.15712e-10 5.18794e-12
  80 1071.34 -3.15994e-10 -5.72876e-12
  81 1071.34 -3.20868e-10 1.59348e-12
  82 1071.34 -3.09960e-10 3.17210e-12
  83 1071.34 -3.22029e-10 1.17034e-11
  84 1071.34 -3.13905e-10 -6.07810e-12
  85 1071.34 -3.18431e-10 -1.01511e-11
  86 1071.34 -3.15066e-10 1.04696e-11
  87 1071.34 -3.17039e-10 -1.27511e-12
  88 1071.34 -3.14439e-10 -6.64356e-12
  89 1071.34 -3.17224e-10 -2.25588e-12
  90 1071.34 -3.27599e-10 2.71511e-13
  91 1071.34 -3.22795e-10 -4.55703e-13
  92 1071.34 -3.11793e-10 -7.45465e-12
  93 1071.34 -3.15275e-10 -8.25659e-12
  94 1071.34 -3.32542e-10 -2.56503e-12
  95 1071.34 -3.28365e-10 8.91764e-12
  96 1071.34 -3.17503e-10 -1.17753e-11
  97 1071.34 -3.18338e-10 6.13860e-12
  98 1071.34 -3.11515e-10 -1.67304e-12
  99 1071.34 -3.08335e-10 2.64935e-12
  100 1071.34 -3.20427e-10 1.96441e-11
  101 1071.34 -3.28643e-10 9.88030e-12
  102 1071.34 -3.16667e-10 1.12427e-11
  103 1071.34 -3.22377e-10 6.08756e-12
  104 1071.34 -3.22377e-10 -5.00559e-12
  105 1071.34 -3.19452e-10 -4.74668e-12
  106 1071.34 -3.19824e-10 -1.20446e-13
  107 1071.34 -3.17271e-10 -1.09981e-11
  108 1071.34 -3.15298e-10 -1.40149e-11
  109 1071.34 -3.19035e-10 -1.57941e-11
  110 1071.34 -3.16250e-10 1.03559e-11
  111 1071.34 -3.20984e-10 -2.78218e-12
  112 1071.34 -3.18199e-10 6.70733e-12
  113 1071.34 -3.12231e-10 2.42450e-12
  114 1071.34 -3.16707e-10 7.41759e-12
  115 1071.34 -3.19940e-10 2.34476e-12
  116 1071.34 -3.12072e-10 2.01693e-12
  117 1071.34 -3.25394e-10 -7.30952e-12
  118 1071.34 -3.17503e-10 9.24530e-13
  119 1071.34 -3.11734e-10 -1.47451e-12
  120 1071.34 -3.24466e-10 1.18750e-12
  121 1071.34 -3.23173e-10 -2.60373e-12
  122 1071.34 -3.15414e-10 2.17485e-12
  123 1071.34 -3.13905e-10 -5.14965e-12
  124 1071.34 -3.19094e-10 -8.26030e-12
  125 1071.34 -3.20114e-10 -9.25703e-13
  126 1071.34 -3.20288e-10 -4.77613e-12
  127 1071.34 -3.11435e-10 1.98754e-11
  128 1071.34 -3.22812e-10 2.87915e-12
  129 1071.34 -3.12890e-10 3.45356e-12
  130 1071.34 -3.13673e-10 4.06596e-12
  131 1071.34 -3.20172e-10 1.46638e-11
  132 1071.34 -3.22116e-10 -7.94070e-12
  133 1071.34 -3.19393e-10 -1.21421e-11
  134 1071.34 -3.20387e-10 3.09346e-12
  135 1071.34 -3.16707e-10 9.84745e-12
  136 1071.34 -3.14917e-10 -2.74433e-12
  137 1071.34 -3.25958e-10 1.28930e-12
  138 1071.34 -3.18083e-10 -7.87296e-12
  139 1071.34 -3.21681e-10 -1.26919e-12
  140 1071.34 -3.18895e-10 5.73535e-12
  141 1071.34 -3.22609e-10 1.44077e-11
  142 1071.34 -3.23421e-10 -1.84664e-11
  143 1071.34 -3.23073e-10 -6.40987e-12
  144 1071.34 -3.10679e-10 -6.67541e-13
  145 1071.34 -3.23630e-10 -7.54169e-12
  146 1071.34 -3.22874e-10 1.07619e-11
  147 1071.34 -3.14950e-10 -5.55292e-12
  148 1071.34 -3.22725e-10 2.31281e-11
  149 1071.34 -3.21332e-10 5.39561e-12
  150 1071.34 -3.20172e-10 5.00355e-13
  151 1071.34 -3.16574e-10 -1.37163e-11
  152 1071.34 -3.21797e-10 5.87867e-12
  153 1071.34 -3.18083e-10 -1.30497e-11
  154 1071.34 -3.16946e-10 -8.52092e-12
  155 1071.34 -3.18663e-10 -8.81238e-12
  156 1071.34 -3.18995e-10 -1.29829e-11
  157 1071.34 -3.15116e-10 -9.95694e-12
  158 1071.34 -3.19824e-10 4.34240e-12
  159 1071.34 -3.20404e-10 -2.67001e-12
  160 1071.34 -3.29479e-10 -1.60623e-12
  161 1071.34 -3.22377e-10 -3.26312e-12
  162 1071.34 -3.18199e-10 -1.44471e-13
  163 1071.34 -3.15646e-10 2.85216e-12
  164 1071.34 -3.21681e-10 -6.07391e-12
  165 1071.34 -3.17387e-10 1.45424e-11
  166 1071.34 -3.19691e-10 1.05810e-11
  167 1071.34 -3.13226e-10 1.52671e-12
  168 1071.34 -3.13524e-10 3.40527e-13
  169 1071.34 -3.21581e-10 2.42396e-13
  170 1071.34 -3.25858e-10 3.69841e-12
  171 1071.34 -3.21581e-10 4.97618e-12
  172 1071.34 -3.14718e-10 1.44543e-11
  173 1071.34 -3.21797e-10 1.04727e-11
  174 1071.34 -3.17387e-10 3.41444e-12
  175 1071.34 -3.24117e-10 -3.03226e-12
  176 1071.34 -3.23305e-10 -9.34081e-13
  177 1071.34 -3.15878e-10 -4.94412e-12
  178 1071.34 -3.15762e-10 3.52372e-12
  179 1071.34 -3.12768e-10 1.53655e-13
  180 1071.34 -3.13325e-10 -1.39334e-11
  181 1071.34 -3.19592e-10 7.77256e-12
  182 1071.34 -3.11515e-10 7.76678e-12
  183 1071.34 -3.24350e-10 -9.14358e-12
  184 1071.34 -3.12768e-10 -1.72995e-11
  185 1071.34 -3.14950e-10 2.34282e-11
  186 1071.34 -3.15971e-10 5.04178e-12
  187 1071.34 -3.18663e-10 -7.83826e-12
  188 1071.34 -3.21541e-10 3.60567e-12
  189 1071.34 -3.16946e-10 1.79827e-12
  190 1071.34 -3.20188e-10 -8.55712e-12
  191 1071.34 -3.22377e-10 -4.76190e-14
  192 1071.34 -3.18597e-10 1.57293e-11
  193 1071.34 -3.20288e-10 8.99205e-12
  194 1071.34 -3.19127e-10 -6.21449e-12
  195 1071.34 -3.18663e-10 1.65564e-11
  196 1071.34 -3.17851e-10 6.25276e-12
  197 1071.34 -3.13325e-10 3.33046e-13
  198 1071.34 -3.26787e-10 7.00864e-12
  199 1071.34 -3.21913e-10 -2.34810e-12
  200 1071.34 -3.16691e-10 -1.79387e-12
  201 1071.34 -3.20520e-10 3.89075e-12
  202 1071.34 -3.09565e-10 -8.41650e-12
  203 1071.34 -3.23537e-10 5.81083e-12
  204 1071.34 -3.16691e-10 -6.11006e-12
  205 1071.34 -3.26554e-10 -4.77196e-12
  206 1071.34 -3.17224e-10 1.42685e-11
  207 1071.34 -3.13047e-10 5.11818e-12
  208 1071.34 -3.25023e-10 -1.90750e-12
  209 1071.34 -3.19127e-10 1.98074e-12
  210 1071.34 -3.14138e-10 9.00590e-13
  211 1071.34 -3.16508e-10 1.44543e-12
  212 1071.34 -3.16807e-10 4.88908e-12
  213 1071.34 -3.18895e-10 -6.46717e-12
  214 1071.34 -3.17155e-10 -2.16558e-12
  215 1071.34 -3.18756e-10 1.22739e-12
  216 1071.34 -3.26694e-10 -1.09337e-11
  217 1071.34 -3.22493e-10 -9.29762e-12
  218 1071.34 -3.12513e-10 1.15740e-12
  219 1071.34 -3.14996e-10 1.29341e-11
  220 1071.34 -3.22029e-10 -1.91155e-11
  221 1071.34 -3.20636e-10 -5.29898e-12
  222 1071.34 -3.16923e-10 -4.65465e-12
  223 1071.34 -3.17364e-10 -9.43952e-12
  224 1071.34 -3.28086e-10 1.13906e-11
  225 1071.34 -3.32264e-10 -4.61818e-12
  226 1071.34 -3.24326e-10 9.43477e-12
  227 1071.34 -3.11236e-10 4.40157e-12
  228 1071.34 -3.19174e-10 1.23455e-11
  229 1071.34 -3.28295e-10 1.07216e-11
  230 1071.34 -3.17503e-10 1.25139e-11
  231 1071.34 -3.07894e-10 -4.10116e-12
  232 1071.34 -3.22655e-10 -1.12816e-11
  233 1071.34 -3.20845e-10 -9.41301e-12
  234 1071.34 -3.22841e-10 -3.10876e-12
  235 1071.34 -3.23073e-10 -4.73891e-12
  236 1071.34 -3.11336e-10 -4.60250e-12
  237 1071.34 -3.09705e-10 9.18984e-14
  238 1071.34 -3.25440e-10 8.09599e-12
  239 1071.34 -3.15066e-10 9.72228e-12
  240 1071.34 -3.23073e-10 1.54975e-11
  241 1071.34 -3.14834e-10 -1.85592e-11
</Section>

newXOutput 88

<Section columns = "stress_xx | stress_yy | stress_xy">
  1 1051.57 -3.09334e-10 1.01322e-12
  2 1051.57 -3.09673e-10 -1.90090e-12
  3 1051.57 -3.06965e-10 -1.60381e-12
  4 1051.57 -3.03242e-10 6.06906e-12
  5 1051.57 -3.08432e-10 2.16163e-12
  6 1051.57 -3.06965e-10 2.57160e-12
  7 1051.57 -3.07642e-10 -1.37588e-14
  8 1051.57 -3.04596e-10 -2.78992e-12
  9 1051.57 -3.03468e-10 -1.02849e-11
  10 1051.57 -3.11139e-10 -1.71702e-11
  11 1051.57 -3.18585e-10 6.51948e-12
  12 1051.57 -3.16329e-10 2.37071e-11
  13 1051.57 -2.97996e-10 -3.27011e-12
  14 1051.57 -3.07980e-10 -2.17375e-11
  15 1051.57 -3.16611e-10 -9.86708e-12
  16 1051.57 -3.11365e-10 6.77783e-12
  17 1051.57 -3.06852e-10 1.07800e-11
  18 1051.57 -3.04822e-10 4.17479e-12
  19 1051.57 -3.09560e-10 -1.35039e-12
  20 1051.57 -3.10237e-10 -4.23538e-13
  21 1051.57 -3.08206e-10 -7.41116e-13
  22 1051.57 -3.08657e-10 -1.21672e-12
  23 1051.57 -3.08883e-10 -2.73975e-12
  24 1051.57 -3.13395e-10 1.58027e-13
  25 1051.57 -3.12380e-10 9.28526e-13
  26 1051.57 -3.09165e-10 1.87466e-12
  27 1051.57 -3.07980e-10 -2.99720e-12
  28 1051.57 -3.11873e-10 1.36584e-12
  29 1051.57 -3.08996e-10 1.61270e-12
  30 1051.57 -3.04596e-10 -1.63699e-13
  31 1051.57 -3.08657e-10 -3.35358e-12
  32 1051.57 -3.09334e-10 -3.61484e-12
  33 1051.57 -3.14072e-10 -2.64565e-12
  34 1051.57 -3.14072e-10 1.46368e-11
  35 1051.57 -3.11534e-10 2.05612e-11
  36 1051.57 -3.01663e-10 2.29264e-11
  37 1051.57 -2.97150e-10 4.66819e-12
  38 1051.57 -3.03694e-10 -1.62321e-11
  39 1051.57 -3.07980e-10 -2.14116e-11
  40 1051.57 -3.13170e-10 -1.60676e-11
  41 1051.57 -3.15877e-10 1.63549e-11
  42 1051.57 -3.04145e-10 1.99307e-11
  43 1051.57 -2.96925e-10 -7.06314e-12
  44 1051.57 -3.09109e-10 -2.01371e-11
  45 1051.57 -3.14749e-10 -1.05203e-11
  46 1051.57 -3.08432e-10 -7.33129e-12
  47 1051.57 -3.13170e-10 -4.85879e-12
  48 1051.57 -3.12493e-10 8.28607e-12
  49 1051.57 -3.08883e-10 1.06531e-11
  50 1051.57 -2.98504e-10 -1.29385e-12
  51 1051.57 -3.04258e-10 -2.05253e-12
  52 1051.57 -3.07473e-10 1.69468e-12
  53 1051.57 -3.06852e-10 -3.85048e-12
  54 1051.57 -3.10350e-10 1.94773e-12
  55 1051.57 -3.09334e-10 -2.44349e-13
  56 1051.57 -3.10011e-10 -4.91419e-13
  57 1051.57 -3.06739e-10 6.23273e-12
  58 1051.57 -3.08883e-10 1.87146e-12
  59 1051.57 -3.10688e-10 -4.25398e-12
  60 1051.57 -3.07191e-10 2.74560e-12
  61 1051.57 -3.10575e-10 -3.41166e-12
  62 1051.57 -3.07868e-10 -2.59747e-11
  63 1051.57 -3.06762e-10 -5.00966e-12
  64 1051.57 -3.08545e-10 7.32550e-12
  65 1051.57 -3.07529e-10 1.21688e-11
  66 1051.57 -3.07416e-10 2.32693e-12
  67 1051.57 -3.10462e-10 4.75889e-12
  68 1051.57 -3.11929e-10 6.54539e-12
  69 1051.57 -3.08754e-10 -9.13515e-12
  70 1051.57 -3.12719e-10 4.72363e-12
  71 1051.57 -3.09221e-10 -7.36080e-12
  72 1051.57 -3.04693e-10 2.85244e-12
  73 1051.57 -3.06627e-10 -3.91952e-12
  74 1051.57 -3.14614e-10 1.20846e-11
  75 1051.57 -3.12177e-10 -6.15124e-12
  76 1051.57 -3.07980e-10 -5.69074e-12
  77 1051.57 -3.10575e-10 -6.46916e-12
  78 1051.57 -3.16103e-10 -4.66433e-12
  79 1051.57 -3.10204e-10 3.67648e-12
  80 1051.57 -3.08432e-10 -2.48220e-12
  81 1051.57 -3.06965e-10 4.49123e-12
  82 1051.57 -3.01212e-10 1.92876e-12
  83 1051.57 -3.07642e-10 1.26180e-11
  84 1051.57 -3.09898e-10 1.27278e-12
  85 1051.57 -3.15539e-10 -3.08603e-12
  86 1051.57 -3.09785e-10 -2.37500e-12
  87 1051.57 -3.03919e-10 -3.26604e-12
  88 1051.57 -3.08387e-10 3.83432e-13
  89 1051.57 -3.07980e-10 -1.96151e-12
  90 1051.57 -3.10350e-10 7.22332e-12
  91 1051.57 -3.07033e-10 1.78270e-11
  92 1051.57 -3.17186e-10 -4.79467e-12
  93 1051.57 -3.12989e-10 -6.40708e-12
  94 1051.57 -3.09470e-10 7.46133e-13
  95 1051.57 -3.00806e-10 1.32442e-11
  96 1051.57 -3.07078e-10 -4.32482e-13
  97 1051.57 -3.05544e-10 -2.62317e-12
  98 1051.57 -3.17728e-10 3.34107e-12
  99 1051.57 -3.08432e-10 5.39958e-12
  100 1051.57 -3.10417e-10 -3.15916e-12
  101 1051.57 -2.99745e-10 -8.24942e-12
  102 1051.57 -3.08522e-10 -4.66953e-12
  103 1051.57 -3.07416e-10 -8.72967e-13
  104 1051.57 -3.13666e-10 -1.29459e-11
  105 1051.57 -3.22330e-10 -6.83737e-13
  106 1051.57 -3.09109e-10 5.64728e-12
  107 1051.57 -3.08093e-10 4.08164e-12
  108 1051.57 -3.08657e-10 4.27567e-12
  109 1051.57 -3.09334e-10 4.82256e-12
  110 1051.57 -3.10823e-10 1.85011e-12
  111 1051.57 -3.12888e-10 2.50228e-12
  112 1051.57 -3.09109e-10 3.22379e-12
  113 1051.57 -3.06627e-10 1.29580e-12
  114 1051.57 -3.01405e-10 3.25667e-12
  115 1051.57 -3.10124e-10 -1.35237e-12
  116 1051.57 -3.07980e-10 1.00651e-12
  117 1051.57 -3.09785e-10 7.85932e-13
  118 1051.57 -3.01889e-10 5.80920e-12
  119 1051.57 -3.14072e-10 -2.37075e-13
  120 1051.57 -3.12831e-10 -1.79517e-12
  121 1051.57 -3.06917e-10 2.16856e-12
  122 1051.57 -3.10688e-10 -9.36454e-13
  123 1051.57 -3.06063e-10 -7.59813e-12
  124 1051.57 -3.06627e-10 2.69222e-12
  125 1051.57 -3.05865e-10 -6.89466e-12
  126 1051.57 -3.10688e-10 4.07293e-12
  127 1051.57 -3.10398e-10 2.16515e-12
  128 1051.57 -3.07134e-10 1.78989e-12
  129 1051.57 -3.10857e-10 -3.08166e-12
  130 1051.57 -3.08545e-10 -3.56691e-12
  131 1051.57 -2.98730e-10 -5.54438e-12
  132 1051.57 -3.13142e-10 5.08111e-13
  133 1051.57 -3.09528e-10 3.72357e-12
  134 1051.57 -3.10204e-10 -7.73909e-12
  135 1051.57 -3.07980e-10 -4.97043e-12
  136 1051.57 -3.11462e-10 1.46003e-11
  137 1051.57 -3.08561e-10 -2.56324e-12
  138 1051.57 -3.04258e-10 -6.32406e-12
  139 1051.57 -3.08561e-10 3.94539e-13
  140 1051.57 -3.09044e-10 -5.45392e-12
  141 1051.57 -3.09109e-10 -1.64483e-12
  142 1051.57 -3.12493e-10 1.50259e-11
  143 1051.57 -3.15329e-10 -7.81060e-12
  144 1051.57 -3.07710e-10 1.78205e-12
  145 1051.57 -3.15697e-10 -1.65658e-12
  146 1051.57 -3.01985e-10 8.69729e-12
  147 1051.57 -3.15652e-10 -3.68020e-12
  148 1051.57 -3.10011e-10 -5.02915e-12
  149 1051.57 -3.09221e-10 -5.41530e-12
  150 1051.57 -3.08432e-10 3.32859e-12
  151 1051.57 -3.07416e-10 1.33273e-12
  152 1051.57 -3.10462e-10 -2.08981e-12
  153 1051.57 -3.08093e-10 6.15744e-13
  154 1051.57 -3.08116e-10 -1.70145e-12
  155 1051.57 -3.06852e-10 1.59661e-12
  156 1051.57 -3.10495e-10 7.22134e-13
  157 1051.57 -3.10301e-10 -7.46893e-13
  158 1051.57 -3.06852e-10 3.43615e-12
  159 1051.57 -3.05950e-10 -3.17882e-13
  160 1051.57 -3.05273e-10 -2.97927e-12
  161 1051.57 -3.06897e-10 -2.58019e-12
  162 1051.57 -3.07191e-10 1.50379e-11
  163 1051.57 -3.09109e-10 9.38688e-13
  164 1051.57 -3.07884e-10 -8.79612e-12
  165 1051.57 -3.13283e-10 -5.42077e-13
  166 1051.57 -3.04016e-10 -5.47284e-12
  167 1051.57 -3.11848e-10 2.71180e-12
  168 1051.57 -3.09334e-10 4.41308e-12
  169 1051.57 -3.08851e-10 -5.77705e-13
  170 1051.57 -3.10688e-10 7.01389e-12
  171 1051.57 -3.10978e-10 5.88380e-12
  172 1051.57 -3.02227e-10 -4.80104e-12
  173 1051.57 -3.11590e-10 2.80513e-12
  174 1051.57 -3.10801e-10 -3.18660e-12
  175 1051.57 -3.04483e-10 4.96166e-12
  176 1051.57 -3.08996e-10 4.80326e-14
  177 1051.57 -3.07416e-10 -4.79619e-12
  178 1051.57 -3.11139e-10 6.70836e-12
  179 1051.57 -3.07980e-10 1.28231e-12
  180 1051.57 -3.10204e-10 7.69626e-12
  181 1051.57 -3.08657e-10 2.85907e-12
  182 1051.57 -2.98775e-10 3.04888e-12
  183 1051.57 -3.05611e-10 5.20886e-12
  184 1051.57 -3.11229e-10 1.44052e-12
  185 1051.57 -3.09560e-10 2.21295e-12
  186 1051.57 -3.13260e-10 -8.48238e-12
  187 1051.57 -3.09785e-10 -9.80390e-12
  188 1051.57 -3.12177e-10 -1.05367e-12
  189 1051.57 -3.10282e-10 -1.04033e-11
  190 1051.57 -3.14169e-10 1.97196e-12
  191 1051.57 -3.11252e-10 -1.16786e-12
  192 1051.57 -3.11268e-10 -2.95757e-12
  193 1051.57 -3.07574e-10 9.05939e-12
  194 1051.57 -3.08206e-10 7.25425e-12
  195 1051.57 -3.10350e-10 -7.88405e-12
  196 1051.57 -3.10575e-10 1.06969e-11
  197 1051.57 -3.07980e-10 1.57691e-12
  198 1051.57 -3.06514e-10 7.49778e-12
  199 1051.57 -3.09898e-10 -1.87063e-11
  200 1051.57 -3.10011e-10 -2.76412e-12
  201 1051.57 -3.12267e-10 -4.34915e-12
  202 1051.57 -3.07710e-10 -6.35058e-12
  203 1051.57 -3.06852e-10 -6.74559e-12
  204 1051.57 -3.06063e-10 4.49484e-12
  205 1051.57 -3.09447e-10 2.24520e-13
  206 1051.57 -3.08387e-10 -3.21545e-12
  207 1051.57 -3.08657e-10 1.93824e-11
  208 1051.57 -3.16780e-10 6.05994e-12
  209 1051.57 -3.06965e-10 2.31787e-12
  210 1051.57 -3.18472e-10 -1.78590e-11
  211 1051.57 -3.07884e-10 1.03046e-12
  212 1051.57 -3.09334e-10 -5.26061e-12
  213 1051.57 -3.08251e-10 1.35788e-11
  214 1051.57 -2.95458e-10 4.28213e-12
  215 1051.57 -3.07574e-10 1.20509e-12
  216 1051.57 -3.12854e-10 -8.55849e-12
  217 1051.57 -3.04709e-10 3.25108e-12
  218 1051.57 -3.08996e-10 -3.73728e-12
  219 1051.57 -3.14343e-10 2.41947e-12
  220 1051.57 -3.07755e-10 -1.86699e-11
  221 1051.57 -3.09334e-10 4.77032e-12
  222 1051.57 -3.12042e-10 -2.72813e-12
  223 1051.57 -3.17186e-10 1.24849e-11
  224 1051.57 -3.09470e-10 1.95717e-12
  225 1051.57 -3.05814e-10 1.97272e-12
  226 1051.57 -3.06085e-10 -4.06083e-12
  227 1051.57 -3.09447e-10 6.71058e-12
  228 1051.57 -3.06897e-10 6.98687e-12
  229 1051.57 -3.09221e-10 -3.20566e-13
  230 1051.57 -3.08996e-10 -4.19173e-12
  231 1051.57 -3.07033e-10 -3.57101e-12
  232 1051.57 -3.11094e-10 -2.45443e-11
  233 1051.57 -3.13395e-10 1.13019e-12
  234 1051.57 -3.04934e-10 -7.48631e-12
  235 1051.57 -3.23413e-10 1.01012e-11
  236 1051.57 -3.08464e-10 -5.22551e-13
  237 1051.57 -3.03107e-10 3.09800e-12
  238 1051.57 -3.06221e-10 -1.06874e-11
  239 1051.57 -3.07642e-10 -2.25650e-12
  240 1051.57 -3.00670e-10 -8.78856e-13
  241 1051.57 -3.14862e-10 -3.86863e-12
</Section>

newXOutput 89

<Section columns = "stress_xx | stress_yy | stress_xy">
  1 1031.89 -3.02974e-10 8.84532e-13
  2 1031.89 -3.00013e-10 -4.41848e-13
  3 1031.89 -2.82249e-10 -9.91289e-12
  4 1031.89 -2.99355e-10 1.87722e-12
  5 1031.89 -3.01549e-10 4.54787e-12
  6 1031.89 -3.00013e-10 6.87608e-12
  7 1031.89 -2.97711e-10 3.47029e-12
  8 1031.89 -2.98697e-10 -4.38159e-13
  9 1031.89 -2.98917e-10 -3.83588e-12
  10 1031.89 -3.00452e-10 -5.58782e-12
  11 1031.89 -3.01987e-10 -8.68249e-13
  12 1031.89 -3.01329e-10 3.18928e-12
  13 1031.89 -2.99026e-10 -4.50925e-13
  14 1031.89 -2.99136e-10 -3.14907e-12
  15 1031.89 -3.00342e-10 -9.80223e-13
  16 1031.89 -2.98917e-10 -8.68249e-13
  17 1031.89 -2.99355e-10 -7.31609e-13
  18 1031.89 -3.00013e-10 2.53351e-12
  19 1031.89 -2.99575e-10 1.64174e-12
  20 1031.89 -2.99136e-10 3.84172e-13
  21 1031.89 -2.98697e-10 -1.61016e-12
  22 1031.89 -2.98259e-10 -1.75194e-12
  23 1031.89 -2.99575e-10 -1.09672e-12
  24 1031.89 -3.00452e-10 3.84172e-13
  25 1031.89 -3.00342e-10 6.63290e-13
  26 1031.89 -3.00342e-10 -7.45683e-13
  27 1031.89 -2.98259e-10 4.88334e-12
  28 1031.89 -2.96559e-10 -2.05462e-12
  29 1031.89 -2.95079e-10 5.44845e-13
  30 1031.89 -2.93434e-10 3.45368e-12
  31 1031.89 -2.91022e-10 -2.60446e-11
  32 1031.89 -2.99684e-10 -3.34876e-11
  33 1031.89 -3.06428e-10 -5.20129e-12
  34 1031.89 -3.00452e-10 -3.88940e-12
  35 1031.89 -2.98697e-10 1.58262e-12
  36 1031.89 -2.98040e-10 -1.58242e-12
  37 1031.89 -2.98917e-10 -2.97619e-12
  38 1031.89 -3.00233e-10 -2.49710e-12
  39 1031.89 -3.00891e-10 -5.59744e-13
  40 1031.89 -3.00233e-10 2.83418e-12
  41 1031.89 -2.99575e-10 3.47639e-12
  42 1031.89 -2.98917e-10 1.30575e-12
  43 1031.89 -2.99136e-10 2.80757e-13
  44 1031.89 -2.98697e-10 -2.44576e-13
  45 1031.89 -2.98917e-10 -1.51267e-12
  46 1031.89 -2.98259e-10 -1.59440e-12
  47 1031.89 -2.99794e-10 -1.01384e-12
  48 1031.89 -3.01549e-10 8.58572e-13
  49 1031.89 -3.01110e-10 2.01234e-12
  50 1031.89 -2.98917e-10 -1.88994e-13
  51 1031.89 -2.96724e-10 7.34357e-13
  52 1031.89 -3.01329e-10 -2.94287e-12
  53 1031.89 -3.03303e-10 6.40543e-12
  54 1031.89 -2.99191e-10 -4.64666e-12
  55 1031.89 -3.02316e-10 0.00000
  56 1031.89 -3.02426e-10 6.35414e-13
  57 1031.89 -2.98917e-10 -3.63910e-13
  58 1031.89 -3.00233e-10 -1.84604e-12
  59 1031.89 -2.97758e-10 1.53092e-12
  60 1031.89 -2.98697e-10 9.45280e-13
  61 1031.89 -2.98917e-10 4.83492e-12
  62 1031.89 -3.00781e-10 -5.70140e-12
  63 1031.89 -2.98961e-10 -1.58267e-12
  64 1031.89 -2.99904e-10 2.17050e-14
  65 1031.89 -3.00233e-10 1.66530e-12
  66 1031.89 -2.99465e-10 -6.67062e-12
  67 1031.89 -3.00562e-10 -2.99900e-12
  68 1031.89 -3.00233e-10 -2.18665e-12
  69 1031.89 -2.97288e-10 1.76984e-12
  70 1031.89 -2.99520e-10 -7.02163e-14
  71 1031.89 -2.97491e-10 1.30070e-12
  72 1031.89 -3.00483e-10 -1.41817e-13
  73 1031.89 -2.98322e-10 3.36536e-13
  74 1031.89 -2.99224e-10 1.47346e-12
  75 1031.89 -3.00145e-10 -3.51133e-12
  76 1031.89 -3.00891e-10 5.80751e-12
  77 1031.89 -3.01658e-10 7.86509e-12
  78 1031.89 -3.01439e-10 5.01092e-12
  79 1031.89 -2.98885e-10 2.20257e-12
  80 1031.89 -2.98807e-10 1.21105e-12
  81 1031.89 -2.99575e-10 -1.61355e-12
  82 1031.89 -2.97711e-10 2.43582e-12
  83 1031.89 -2.99465e-10 1.75940e-12
  84 1031.89 -2.96614e-10 4.04832e-12
  85 1031.89 -2.99794e-10 1.75358e-12
  86 1031.89 -2.99575e-10 1.57405e-12
  87 1031.89 -2.99684e-10 -2.67292e-12
  88 1031.89 -2.99619e-10 1.71629e-11
  89 1031.89 -3.01329e-10 5.27036e-12
  90 1031.89 -2.98588e-10 -4.74651e-13
  91 1031.89 -2.98303e-10 2.75204e-12
  92 1031.89 -2.97908e-10 -1.42088e-12
  93 1031.89 -2.98829e-10 6.03474e-13
  94 1031.89 -2.99092e-10 -7.50840e-14
  95 1031.89 -2.98040e-10 3.19864e-13
  96 1031.89 -3.00342e-10 -1.19440e-12
  97 1031.89 -2.99487e-10 -4.67185e-13
  98 1031.89 -3.00145e-10 -6.81982e-13
  99 1031.89 -3.00562e-10 1.83657e-12
  100 1031.89 -2.99092e-10 -2.34988e-12
  101 1031.89 -2.99136e-10 -3.49741e-12
  102 1031.89 -2.98697e-10 8.89230e-14
  103 1031.89 -3.00891e-10 -6.21811e-13
  104 1031.89 -2.99224e-10 -5.89423e-12
  105 1031.89 -3.01461e-10 -2.02786e-12
  106 1031.89 -3.00781e-10 -1.53712e-12
  107 1031.89 -3.00891e-10 -6.54876e-13
  108 1031.89 -2.99246e-10 -3.79219e-12
  109 1031.89 -3.00934e-10 -1.17348e-11
  110 1031.89 -2.99487e-10 -5.05015e-12
  111 1031.89 -3.03714e-10 6.96523e-12
  112 1031.89 -2.99246e-10 1.43252e-12
  113 1031.89 -3.00013e-10 -2.04714e-12
  114 1031.89 -2.97476e-10 1.02557e-12
  115 1031.89 -2.99136e-10 1.77525e-12
  116 1031.89 -2.97513e-10 3.76762e-12
  117 1031.89 -2.99684e-10 1.49107e-12
  118 1031.89 -2.98478e-10 2.87801e-13
  119 1031.89 -3.00577e-10 1.29167e-12
  120 1031.89 -2.98369e-10 3.99457e-12
  121 1031.89 -2.98134e-10 3.04767e-12
  122 1031.89 -2.98040e-10 3.45871e-12
  123 1031.89 -2.96504e-10 4.09034e-12
  124 1031.89 -2.99919e-10 -1.35573e-12
  125 1031.89 -3.00096e-10 -3.12006e-12
  126 1031.89 -2.98204e-10 1.49115e-12
  127 1031.89 -3.00107e-10 -2.16996e-12
  128 1031.89 -2.99684e-10 -4.87842e-13
  129 1031.89 -2.99438e-10 -7.17593e-13
  130 1031.89 -2.98478e-10 3.16986e-12
  131 1031.89 -2.99246e-10 -1.70523e-12
  132 1031.89 -3.00096e-10 5.40852e-13
  133 1031.89 -2.99637e-10 8.08290e-13
  134 1031.89 -2.98510e-10 2.59467e-12
  135 1031.89 -2.98416e-10 -1.18937e-12
  136 1031.89 -3.00671e-10 3.23174e-13
  137 1031.89 -3.00107e-10 -2.18329e-12
  138 1031.89 -2.97382e-10 2.62419e-12
  139 1031.89 -3.02175e-10 2.14230e-12
  140 1031.89 -3.01235e-10 1.74420e-12
  141 1031.89 -2.98149e-10 2.55843e-12
  142 1031.89 -2.99794e-10 7.72551e-13
  143 1031.89 -3.00295e-10 -3.29041e-12
  144 1031.89 -2.98434e-10 3.04674e-12
  145 1031.89 -3.05671e-10 5.36019e-12
  146 1031.89 -2.98697e-10 -1.45290e-13
  147 1031.89 -3.00891e-10 -1.06504e-12
  148 1031.89 -3.00123e-10 7.62935e-12
  149 1031.89 -2.97930e-10 4.47763e-12
  150 1031.89 -2.98807e-10 2.14621e-13
  151 1031.89 -2.99575e-10 2.59135e-12
  152 1031.89 -2.98697e-10 1.04542e-12
  153 1031.89 -3.00233e-10 -2.19611e-12
  154 1031.89 -2.99619e-10 1.91777e-13
  155 1031.89 -2.98917e-10 -3.17247e-13
  156 1031.89 -2.99449e-10 1.79338e-12
  157 1031.89 -2.99073e-10 -1.14583e-12
  158 1031.89 -3.00452e-10 -8.34002e-13
  159 1031.89 -2.99465e-10 -8.68892e-13
  160 1031.89 -3.03171e-10 2.91653e-12
  161 1031.89 -3.00540e-10 4.72171e-12
  162 1031.89 -2.99575e-10 -8.32645e-13
  163 1031.89 -2.99465e-10 4.85450e-13
  164 1031.89 -2.98885e-10 1.38013e-13
  165 1031.89 -2.97820e-10 7.90014e-13
  166 1031.89 -2.99449e-10 6.87658e-13
  167 1031.89 -3.00765e-10 6.85801e-13
  168 1031.89 -2.97288e-10 2.70653e-12
  169 1031.89 -3.02739e-10 4.72238e-13
  170 1031.89 -2.99487e-10 -3.99229e-12
  171 1031.89 -3.00107e-10 -1.40691e-12
  172 1031.89 -2.98588e-10 7.42080e-13
  173 1031.89 -2.98478e-10 -7.33915e-13
  174 1031.89 -3.00123e-10 5.18636e-14
  175 1031.89 -3.00123e-10 -1.92338e-13
  176 1031.89 -3.02535e-10 2.20761e-12
  177 1031.89 -2.92228e-10 3.38434e-12
  178 1031.89 -3.00233e-10 -2.22966e-12
  179 1031.89 -2.97908e-10 2.72063e-12
  180 1031.89 -3.00107e-10 1.71178e-12
  181 1031.89 -2.99794e-10 -1.70518e-12
  182 1031.89 -2.99619e-10 -2.67069e-12
  183 1031.89 -2.98697e-10 2.10555e-12
  184 1031.89 -2.99619e-10 6.78737e-13
  185 1031.89 -2.97053e-10 -1.96884e-12
  186 1031.89 -2.99750e-10 3.16325e-13
  187 1031.89 -3.01000e-10 -1.22032e-12
  188 1031.89 -2.96855e-10 1.52361e-12
  189 1031.89 -2.99355e-10 2.81129e-12
  190 1031.89 -2.98979e-10 1.09541e-12
  191 1031.89 -3.00013e-10 -5.81887e-12
  192 1031.89 -2.98791e-10 -6.91318e-13
  193 1031.89 -2.98434e-10 1.83749e-12
  194 1031.89 -3.00233e-10 1.01115e-12
  195 1031.89 -3.00123e-10 6.20567e-13
  196 1031.89 -3.00671e-10 -3.66564e-12
  197 1031.89 -3.00452e-10 -3.84958e-12
  198 1031.89 -2.99355e-10 9.32958e-14
  199 1031.89 -2.99684e-10 -3.54159e-12
  200 1031.89 -3.00342e-10 -1.21111e-12
  201 1031.89 -3.00562e-10 -2.15382e-12
  202 1031.89 -2.97908e-10 5.22471e-12
  203 1031.89 -2.99136e-10 -8.40698e-13
  204 1031.89 -3.00891e-10 -7.80702e-13
  205 1031.89 -2.97820e-10 1.47425e-12
  206 1031.89 -2.99092e-10 -1.73804e-12
  207 1031.89 -2.99355e-10 -3.91485e-13
  208 1031.89 -2.99355e-10 6.00353e-12
  209 1031.89 -2.99794e-10 1.29781e-12
  210 1031.89 -3.00013e-10 -2.90762e-12
  211 1031.89 -2.99543e-10 4.04100e-12
  212 1031.89 -2.98303e-10 -4.93319e-13
  213 1031.89 -3.00671e-10 9.98218e-13
  214 1031.89 -2.99136e-10 1.46570e-12
  215 1031.89 -3.01198e-10 -4.40639e-13
  216 1031.89 -3.00145e-10 -4.99938e-13
  217 1031.89 -2.99904e-10 4.54469e-14
  218 1031.89 -2.99026e-10 -2.92300e-13
  219 1031.89 -3.00277e-10 1.23020e-12
  220 1031.89 -2.99246e-10 -1.16038e-12
  221 1031.89 -3.00233e-10 -2.56054e-12
  222 1031.89 -2.99684e-10 1.29194e-13
  223 1031.89 -3.00803e-10 -3.67505e-13
  224 1031.89 -2.97118e-10 3.88498e-13
  225 1031.89 -2.99487e-10 -8.24888e-13
  226 1031.89 -3.01987e-10 -4.38960e-12
  227 1031.89 -3.01000e-10 -1.22727e-12
  228 1031.89 -3.00013e-10 -2.22317e-12
  229 1031.89 -3.02426e-10 -1.40718e-12
  230 1031.89 -3.01000e-10 -5.63424e-13
  231 1031.89 -2.99750e-10 -2.29138e-12
  232 1031.89 -2.99092e-10 -3.15207e-12
  233 1031.89 -2.98697e-10 1.98320e-12
  234 1031.89 -3.00123e-10 -7.20601e-13
  235 1031.89 -3.00408e-10 6.58349e-13
  236 1031.89 -2.97758e-10 3.34685e-12
  237 1031.89 -3.00145e-10 3.05051e-13
  238 1031.89 -2.97382e-10 1.94928e-12
  239 1031.89 -2.99026e-10 -6.66561e-13
  240 1031.89 -2.99355e-10 -1.40539e-12
  241 1031.89 -3.00562e-10 1.45498e-12
</Section>

newXOutput 90

<Section columns = "stress_xx | stress_yy | stress_xy">
  1 1012.27 -2.71743e-10 -1.23516e-11
  2 1012.27 -2.88687e-10 3.00399e-12
  3 1012.27 -3.01475e-10 6.53459e-12
  4 1012.27 -2.91564e-10 -4.32414e-13
  5 1012.27 -2.81547e-10 -2.99026e-11
  6 1012.27 -2.89966e-10 -3.98462e-11
  7 1012.27 -3.06910e-10 -5.08681e-12
  8 1012.27 -2.94548e-10 2.26614e-11
  9 1012.27 -2.86236e-10 2.39041e-11
  10 1012.27 -2.82826e-10 1.28354e-11
  11 1012.27 -2.81121e-10 -1.85949e-11
  12 1012.27 -2.84531e-10 -3.48755e-11
  13 1012.27 -3.05791e-10 -8.61760e-13
  14 1012.27 -2.94122e-10 2.56781e-11
  15 1012.27 -2.84531e-10 1.35376e-11
  16 1012.27 -2.86236e-10 5.22638e-12
  17 1012.27 -2.88580e-10 -5.11472e-12
  18 1012.27 -2.89007e-10 -7.25066e-12
  19 1012.27 -2.89859e-10 -4.26647e-12
  20 1012.27 -2.90712e-10 -1.20124e-12
  21 1012.27 -2.90925e-10 1.45157e-12
  22 1012.27 -2.90925e-10 2.16296e-12
  23 1012.27 -2.91777e-10 3.32818e-12
  24 1012.27 -2.83678e-10 -2.97162e-13
  25 1012.27 -2.84531e-10 -4.13317e-13
  26 1012.27 -2.91404e-10 -3.72443e-12
  27 1012.27 -2.93056e-10 6.54739e-12
  28 1012.27 -2.87408e-10 -4.08608e-12
  29 1012.27 -2.89646e-10 8.03672e-13
  30 1012.27 -2.90285e-10 -2.00041e-12
  31 1012.27 -2.97106e-10 1.76929e-11
  32 1012.27 -2.89007e-10 2.46782e-11
  33 1012.27 -2.84371e-10 1.26338e-12
  34 1012.27 -2.88580e-10 -3.04719e-12
  35 1012.27 -2.90765e-10 -2.63346e-13
  36 1012.27 -2.90925e-10 3.61628e-12
  37 1012.27 -2.89646e-10 3.28554e-12
  38 1012.27 -2.90072e-10 3.66441e-12
  39 1012.27 -2.89859e-10 3.47379e-12
  40 1012.27 -2.89433e-10 1.83152e-12
  41 1012.27 -2.89646e-10 -3.00741e-12
  42 1012.27 -2.89859e-10 -4.49949e-12
  43 1012.27 -2.90072e-10 -1.68881e-12
  44 1012.27 -2.90072e-10 1.57707e-12
  45 1012.27 -2.90285e-10 2.75954e-12
  46 1012.27 -2.90285e-10 2.19187e-12
  47 1012.27 -2.89859e-10 -6.59860e-13
  48 1012.27 -2.90072e-10 -2.62974e-12
  49 1012.27 -2.90285e-10 -2.16821e-12
  50 1012.27 -2.90498e-10 6.46765e-13
  51 1012.27 -2.87088e-10 9.64407e-13
  52 1012.27 -2.88527e-10 -1.03013e-12
  53 1012.27 -2.89220e-10 2.02473e-12
  54 1012.27 -2.85650e-10 3.24504e-13
  55 1012.27 -2.81653e-10 2.25028e-12
  56 1012.27 -2.75366e-10 2.78878e-12
  57 1012.27 -2.88793e-10 2.06199e-12
  58 1012.27 -2.91138e-10 -9.35823e-13
  59 1012.27 -2.92386e-10 -3.96541e-12
  60 1012.27 -2.91990e-10 -9.16976e-12
  61 1012.27 -2.88261e-10 -6.74751e-12
  62 1012.27 -2.90179e-10 -2.79703e-12
  63 1012.27 -2.91564e-10 -1.49552e-12
  64 1012.27 -2.90712e-10 7.82966e-13
  65 1012.27 -2.91351e-10 2.65545e-12
  66 1012.27 -2.91031e-10 5.77121e-12
  67 1012.27 -2.89326e-10 2.29414e-12
  68 1012.27 -2.89007e-10 -4.87394e-12
  69 1012.27 -2.91107e-10 -2.76359e-12
  70 1012.27 -2.88607e-10 1.13172e-12
  71 1012.27 -2.93056e-10 -4.40136e-12
  72 1012.27 -2.92021e-10 2.60198e-12
  73 1012.27 -2.91199e-10 7.16671e-12
  74 1012.27 -2.90669e-10 -3.65799e-13
  75 1012.27 -2.89007e-10 2.28109e-12
  76 1012.27 -2.89966e-10 9.34224e-12
  77 1012.27 -2.90179e-10 9.08800e-13
  78 1012.27 -2.91031e-10 -7.76353e-12
  79 1012.27 -2.92295e-10 -1.59481e-12
  80 1012.27 -2.89326e-10 4.93241e-13
  81 1012.27 -2.88687e-10 3.87746e-12
  82 1012.27 -2.90179e-10 3.13296e-12
  83 1012.27 -2.86769e-10 8.39718e-12
  84 1012.27 -3.02434e-10 -9.55362e-12
  85 1012.27 -2.84744e-10 1.01934e-12
  86 1012.27 -2.89433e-10 -2.61580e-13
  87 1012.27 -2.89433e-10 1.37092e-12
  88 1012.27 -2.89646e-10 -1.07795e-11
  89 1012.27 -2.86960e-10 1.22222e-11
  90 1012.27 -2.80588e-10 2.81500e-12
  91 1012.27 -2.91692e-10 1.56541e-12
  92 1012.27 -2.90797e-10 -3.86271e-12
  93 1012.27 -2.89774e-10 3.24550e-12
  94 1012.27 -2.88495e-10 3.47701e-12
  95 1012.27 -2.91436e-10 4.75651e-13
  96 1012.27 -2.88261e-10 3.63332e-12
  97 1012.27 -2.94889e-10 1.89749e-12
  98 1012.27 -2.88495e-10 -1.56413e-13
  99 1012.27 -2.94868e-10 -1.25646e-11
  100 1012.27 -2.89390e-10 2.06363e-12
  101 1012.27 -2.93269e-10 1.38696e-11
  102 1012.27 -2.92331e-10 -1.40191e-12
  103 1012.27 -2.89966e-10 6.12775e-12
  104 1012.27 -2.90413e-10 -4.98833e-12
  105 1012.27 -2.88239e-10 -1.03059e-12
  106 1012.27 -2.90179e-10 2.26538e-12
  107 1012.27 -2.88687e-10 -3.53516e-12
  108 1012.27 -2.88367e-10 -1.89982e-12
  109 1012.27 -2.88751e-10 -8.26646e-13
  110 1012.27 -2.89390e-10 -8.99428e-12
  111 1012.27 -2.85650e-10 -6.35369e-12
  112 1012.27 -2.89433e-10 1.27474e-12
  113 1012.27 -2.89737e-10 1.90977e-12
  114 1012.27 -2.90651e-10 1.53381e-12
  115 1012.27 -2.94015e-10 -2.40407e-12
  116 1012.27 -3.04864e-10 -8.13079e-12
  117 1012.27 -2.88154e-10 2.05624e-12
  118 1012.27 -2.91351e-10 1.35149e-13
  119 1012.27 -2.87728e-10 -3.23496e-12
  120 1012.27 -2.92417e-10 -3.86969e-12
  121 1012.27 -2.89098e-10 -1.33305e-12
  122 1012.27 -2.91747e-10 -7.12503e-12
  123 1012.27 -2.91351e-10 -4.72590e-12
  124 1012.27 -2.90377e-10 5.24245e-12
  125 1012.27 -2.88607e-10 2.56727e-12
  126 1012.27 -2.91804e-10 -2.12132e-12
  127 1012.27 -2.90011e-10 -3.68485e-12
  128 1012.27 -2.92044e-10 -1.69752e-12
  129 1012.27 -2.89966e-10 6.14416e-13
  130 1012.27 -2.91777e-10 -5.17482e-12
  131 1012.27 -3.01688e-10 3.37997e-12
  132 1012.27 -2.89166e-10 -1.75441e-12
  133 1012.27 -2.86906e-10 -1.94658e-12
  134 1012.27 -2.87910e-10 -4.35506e-13
  135 1012.27 -2.92203e-10 6.70960e-12
  136 1012.27 -2.89646e-10 -4.73737e-13
  137 1012.27 -2.88915e-10 4.88209e-12
  138 1012.27 -2.89752e-10 1.51224e-12
  139 1012.27 -2.92203e-10 1.20556e-12
  140 1012.27 -2.91838e-10 2.54842e-12
  141 1012.27 -2.89113e-10 -1.74490e-12
  142 1012.27 -2.79202e-10 1.90498e-12
  143 1012.27 -2.91290e-10 -2.02540e-12
  144 1012.27 -2.89134e-10 2.33024e-12
  145 1012.27 -2.85426e-10 -3.81305e-12
  146 1012.27 -2.90742e-10 -1.27635e-12
  147 1012.27 -2.88474e-10 9.38184e-13
  148 1012.27 -2.88900e-10 3.17080e-12
  149 1012.27 -2.87301e-10 7.42636e-12
  150 1012.27 -2.93163e-10 1.11305e-13
  151 1012.27 -2.88687e-10 1.19943e-12
  152 1012.27 -2.91564e-10 -5.63328e-12
  153 1012.27 -2.88261e-10 4.64005e-12
  154 1012.27 -2.88751e-10 3.26897e-14
  155 1012.27 -2.90498e-10 6.90283e-14
  156 1012.27 -2.86266e-10 2.52395e-13
  157 1012.27 -2.90285e-10 -2.12338e-12
  158 1012.27 -2.88154e-10 6.65622e-12
  159 1012.27 -2.89539e-10 -9.24452e-13
  160 1012.27 -2.89902e-10 -5.53254e-13
  161 1012.27 -2.92715e-10 4.53383e-12
  162 1012.27 -2.87195e-10 6.32991e-12
  163 1012.27 -2.89539e-10 3.41934e-12
  164 1012.27 -2.90285e-10 6.23066e-12
  165 1012.27 -2.93482e-10 -2.79694e-12
  166 1012.27 -2.89372e-10 2.43695e-12
  167 1012.27 -2.87362e-10 -1.96191e-12
  168 1012.27 -2.91655e-10 -1.48866e-13
  169 1012.27 -2.82065e-10 6.70543e-12
  170 1012.27 -2.88751e-10 6.77034e-12
  171 1012.27 -2.84622e-10 -1.81529e-12
  172 1012.27 -3.01794e-10 -1.17601e-12
  173 1012.27 -2.90392e-10 1.28903e-13
  174 1012.27 -2.88900e-10 3.01616e-12
  175 1012.27 -2.90285e-10 -2.12689e-13
  176 1012.27 -2.79309e-10 -3.79576e-12
  177 1012.27 -2.95081e-10 -4.38876e-12
  178 1012.27 -2.89966e-10 4.32174e-12
  179 1012.27 -3.03201e-10 -1.59113e-12
  180 1012.27 -2.90833e-10 2.81625e-12
  181 1012.27 -2.89433e-10 -5.63440e-12
  182 1012.27 -2.90030e-10 1.30202e-12
  183 1012.27 -2.92310e-10 3.16974e-12
  184 1012.27 -2.86960e-10 1.28264e-12
  185 1012.27 -2.93909e-10 5.88316e-12
  186 1012.27 -2.89134e-10 5.11600e-12
  187 1012.27 -2.88474e-10 -3.21788e-12
  188 1012.27 -2.93354e-10 -6.59746e-12
  189 1012.27 -2.88879e-10 -8.68160e-12
  190 1012.27 -2.91016e-10 -1.22619e-12
  191 1012.27 -2.89539e-10 -8.36768e-13
  192 1012.27 -2.87545e-10 2.48917e-12
  193 1012.27 -2.91180e-10 4.45546e-13
  194 1012.27 -2.89966e-10 -5.03142e-12
  195 1012.27 -2.89859e-10 3.75572e-12
  196 1012.27 -2.87195e-10 2.02410e-12
  197 1012.27 -2.89433e-10 9.29866e-12
  198 1012.27 -2.90285e-10 -5.63340e-12
  199 1012.27 -2.91564e-10 -2.93308e-12
  200 1012.27 -2.91244e-10 1.97451e-12
  201 1012.27 -2.88261e-10 2.78428e-12
  202 1012.27 -2.90541e-10 -3.76444e-12
  203 1012.27 -2.85810e-10 9.17451e-12
  204 1012.27 -2.91671e-10 2.56671e-12
  205 1012.27 -2.90285e-10 3.36655e-12
  206 1012.27 -2.91053e-10 3.90465e-12
  207 1012.27 -2.89646e-10 9.59083e-13
  208 1012.27 -2.90669e-10 -2.97490e-12
  209 1012.27 -2.94122e-10 -6.34386e-12
  210 1012.27 -2.88900e-10 1.82470e-12
  211 1012.27 -2.95126e-10 -1.45511e-11
  212 1012.27 -2.90797e-10 7.65101e-12
  213 1012.27 -2.89774e-10 -1.42256e-12
  214 1012.27 -2.90605e-10 -2.10911e-12
  215 1012.27 -2.90797e-10 1.88442e-12
  216 1012.27 -2.91820e-10 3.60435e-12
  217 1012.27 -2.92843e-10 -2.80047e-13
  218 1012.27 -2.89326e-10 7.97845e-13
  219 1012.27 -2.87472e-10 -4.01324e-12
  220 1012.27 -2.91138e-10 -1.70325e-12
  221 1012.27 -2.87728e-10 3.35159e-12
  222 1012.27 -2.91138e-10 -3.81218e-12
  223 1012.27 -2.78393e-10 -4.70361e-12
  224 1012.27 -2.85426e-10 -6.59635e-12
  225 1012.27 -2.90797e-10 1.52252e-12
  226 1012.27 -2.92459e-10 2.72007e-12
  227 1012.27 -2.89539e-10 -2.49589e-12
  228 1012.27 -2.88367e-10 4.08133e-12
  229 1012.27 -2.90285e-10 1.82610e-12
  230 1012.27 -2.91777e-10 6.49244e-13
  231 1012.27 -2.91053e-10 -3.47945e-12
  232 1012.27 -2.91436e-10 -2.14676e-12
  233 1012.27 -2.87856e-10 -5.94855e-12
  234 1012.27 -2.90072e-10 1.43913e-12
  235 1012.27 -2.89518e-10 -1.73583e-12
  236 1012.27 -2.94761e-10 7.14962e-12
  237 1012.27 -2.96551e-10 -8.55648e-12
  238 1012.27 -2.91948e-10 -6.92945e-12
  239 1012.27 -2.91244e-10 -4.19916e-12
  240 1012.27 -2.99876e-10 -7.57502e-13
  241 1012.27 -2.83678e-10 4.02694e-12
</Section>

newXOutput 91

<Section columns = "stress_xx | stress_yy | stress_xy">
  1 992.737 -2.38882e-10 -2.79665e-11
  2 992.737 -2.56899e-10 1.17785e-11
  3 992.737 -3.84882e-10 6.96137e-11
  4 992.737 -2.91690e-10 -1.05400e-11
  5 992.737 -2.60109e-10 -7.11908e-11
  6 992.737 -2.82061e-10 -9.69839e-11
  7 992.737 -3.17784e-10 -1.86037e-11
  8 992.737 -2.78333e-10 4.40753e-11
  9 992.737 -2.59487e-10 2.71394e-11
  10 992.737 -2.72534e-10 -1.08051e-11
  11 992.737 -2.88066e-10 -7.06035e-12
  12 992.737 -2.81439e-10 -6.02822e-12
  13 992.737 -2.60005e-10 -2.78430e-11
  14 992.737 -2.82682e-10 -6.91699e-11
  15 992.737 -3.30831e-10 -1.12113e-11
  16 992.737 -2.91794e-10 1.11580e-10
  17 992.737 -2.36914e-10 7.93916e-11
  18 992.737 -2.32358e-10 -3.64884e-11
  19 992.737 -2.95936e-10 -6.94203e-11
  20 992.737 -3.02770e-10 -2.34165e-11
  21 992.737 -2.95315e-10 2.92995e-11
  22 992.737 -2.87445e-10 5.28232e-11
  23 992.737 -2.75226e-10 4.14780e-11
  24 992.737 -2.56381e-10 -6.30045e-12
  25 992.737 -2.95729e-10 -1.49100e-11
  26 992.737 -2.73829e-10 1.87334e-11
  27 992.737 -2.65493e-10 -4.87267e-11
  28 992.737 -3.09552e-10 2.45306e-11
  29 992.737 -3.00078e-10 -4.89581e-13
  30 992.737 -3.10432e-10 -2.53895e-11
  31 992.737 -3.26586e-10 1.63839e-10
  32 992.737 -2.75537e-10 2.06468e-10
  33 992.737 -2.26767e-10 2.06341e-11
  34 992.737 -2.66321e-10 -1.76475e-11
  35 992.737 -2.86565e-10 -2.34602e-11
  36 992.737 -2.93036e-10 -3.13160e-13
  37 992.737 -2.92415e-10 2.30600e-11
  38 992.737 -2.80818e-10 4.03214e-11
  39 992.737 -2.71292e-10 3.21504e-11
  40 992.737 -2.69635e-10 3.34126e-12
  41 992.737 -2.75019e-10 -4.03876e-11
  42 992.737 -2.90137e-10 -3.97872e-11
  43 992.737 -2.98628e-10 4.32477e-13
  44 992.737 -2.87031e-10 2.66238e-11
  45 992.737 -2.76883e-10 2.49168e-11
  46 992.737 -2.77712e-10 1.66706e-11
  47 992.737 -2.74605e-10 1.34356e-12
  48 992.737 -2.77297e-10 -1.40999e-11
  49 992.737 -2.80818e-10 -1.78093e-11
  50 992.737 -2.93865e-10 5.05565e-12
  51 992.737 -2.74605e-10 5.94173e-12
  52 992.737 -2.69480e-10 -4.21355e-12
  53 992.737 -2.79783e-10 2.33275e-12
  54 992.737 -2.70101e-10 5.02501e-12
  55 992.737 -2.55967e-10 4.58426e-12
  56 992.737 -2.43748e-10 4.80122e-12
  57 992.737 -2.74191e-10 -1.21143e-12
  58 992.737 -2.89205e-10 -4.16467e-12
  59 992.737 -2.83836e-10 -7.50164e-12
  60 992.737 -2.90241e-10 -3.83498e-11
  61 992.737 -2.92105e-10 -7.22363e-12
  62 992.737 -2.82682e-10 2.72694e-11
  63 992.737 -2.72866e-10 4.13125e-11
  64 992.737 -2.68082e-10 -3.14648e-11
  65 992.737 -2.86306e-10 -7.13934e-12
  66 992.737 -2.84753e-10 1.25881e-11
  67 992.737 -2.79368e-10 4.06867e-11
  68 992.737 -2.94486e-10 1.28702e-11
  69 992.737 -2.94930e-10 -3.69480e-12
  70 992.737 -2.68548e-10 -6.60257e-13
  71 992.737 -2.95625e-10 -4.54458e-11
  72 992.737 -2.62180e-10 1.48344e-12
  73 992.737 -2.92356e-10 1.07556e-11
  74 992.737 -2.84918e-10 -1.74765e-11
  75 992.737 -2.71872e-10 2.51269e-11
  76 992.737 -2.68910e-10 -5.26726e-11
  77 992.737 -2.77919e-10 -3.34847e-12
  78 992.737 -2.71809e-10 -2.68456e-11
  79 992.737 -2.85522e-10 -1.68350e-11
  80 992.737 -2.83303e-10 1.41986e-11
  81 992.737 -2.85995e-10 1.57193e-12
  82 992.737 -2.90655e-10 1.33604e-12
  83 992.737 -2.82268e-10 -2.02147e-12
  84 992.737 -3.16231e-10 -1.15131e-11
  85 992.737 -3.00078e-10 -5.02426e-11
  86 992.737 -2.79679e-10 4.81969e-12
  87 992.737 -2.82164e-10 1.68445e-11
  88 992.737 -2.74481e-10 -1.29424e-10
  89 992.737 -2.71872e-10 1.94246e-11
  90 992.737 -2.75951e-10 2.80678e-11
  91 992.737 -2.97096e-10 -1.62065e-11
  92 992.737 -2.69883e-10 -1.79409e-11
  93 992.737 -3.03557e-10 2.17558e-11
  94 992.737 -2.83303e-10 2.68851e-12
  95 992.737 -3.00202e-10 -2.11321e-11
  96 992.737 -2.80404e-10 -9.40513e-13
  97 992.737 -3.02936e-10 3.05656e-11
  98 992.737 -2.65286e-10 4.65738e-12
  99 992.737 -2.79783e-10 1.11825e-11
  100 992.737 -2.81812e-10 -9.68064e-12
  101 992.737 -2.51825e-10 -3.44771e-12
  102 992.737 -2.72120e-10 1.69000e-11
  103 992.737 -2.64975e-10 1.82560e-11
  104 992.737 -2.83552e-10 1.15123e-11
  105 992.737 -2.53357e-10 3.88662e-12
  106 992.737 -2.82268e-10 1.15200e-11
  107 992.737 -2.81025e-10 3.15033e-11
  108 992.737 -2.72017e-10 -1.47366e-11
  109 992.737 -2.73860e-10 1.01586e-11
  110 992.737 -2.81688e-10 6.71365e-11
  111 992.737 -2.50531e-10 -5.20471e-11
  112 992.737 -2.77608e-10 4.28759e-12
  113 992.737 -2.75670e-10 1.40733e-11
  114 992.737 -2.96350e-10 4.81740e-12
  115 992.737 -2.84546e-10 -4.82385e-12
  116 992.737 -3.12379e-10 -3.38746e-11
  117 992.737 -2.84028e-10 -2.49293e-11
  118 992.737 -2.95418e-10 -8.35342e-12
  119 992.737 -2.98658e-10 -8.43426e-12
  120 992.737 -2.91587e-10 -1.51129e-11
  121 992.737 -2.73096e-10 -5.50998e-12
  122 992.737 -2.87386e-10 -3.10588e-11
  123 992.737 -2.96039e-10 -1.82828e-11
  124 992.737 -2.80996e-10 1.42926e-11
  125 992.737 -2.78488e-10 2.65838e-11
  126 992.737 -2.95884e-10 6.61243e-12
  127 992.737 -2.88628e-10 2.53540e-11
  128 992.737 -2.97282e-10 1.49979e-11
  129 992.737 -2.78644e-10 1.11083e-11
  130 992.737 -2.89205e-10 -1.24239e-11
  131 992.737 -2.60937e-10 3.64024e-12
  132 992.737 -2.72120e-10 -1.23546e-11
  133 992.737 -2.65907e-10 -9.56699e-12
  134 992.737 -2.79132e-10 -5.47938e-11
  135 992.737 -2.94131e-10 2.78360e-11
  136 992.737 -2.73895e-10 -1.15129e-11
  137 992.737 -2.75759e-10 2.59737e-11
  138 992.737 -2.84856e-10 1.35716e-11
  139 992.737 -2.80640e-10 8.44110e-12
  140 992.737 -2.76114e-10 -2.50031e-11
  141 992.737 -2.85374e-10 -1.55856e-11
  142 992.737 -2.73673e-10 6.49001e-11
  143 992.737 -2.82327e-10 1.08455e-11
  144 992.737 -2.79327e-10 -6.02924e-12
  145 992.737 -2.36334e-10 -3.29747e-11
  146 992.737 -2.96616e-10 -1.72968e-11
  147 992.737 -2.62594e-10 7.36322e-12
  148 992.737 -2.81025e-10 9.73707e-12
  149 992.737 -2.79886e-10 -7.75538e-11
  150 992.737 -2.80507e-10 2.47282e-12
  151 992.737 -2.82268e-10 -9.08548e-12
  152 992.737 -2.86824e-10 -1.66649e-11
  153 992.737 -2.93140e-10 3.45608e-12
  154 992.737 -2.77215e-10 9.77569e-12
  155 992.737 -2.84960e-10 -4.83467e-12
  156 992.737 -2.80108e-10 1.45524e-11
  157 992.737 -2.80374e-10 -1.72640e-11
  158 992.737 -2.77919e-10 2.52667e-11
  159 992.737 -2.85270e-10 -1.71503e-11
  160 992.737 -2.81191e-10 -7.63905e-12
  161 992.737 -2.53233e-10 -8.52692e-12
  162 992.737 -2.81543e-10 1.19544e-11
  163 992.737 -2.79575e-10 2.13567e-11
  164 992.737 -2.85433e-10 3.58189e-12
  165 992.737 -3.04944e-10 -1.92780e-11
  166 992.737 -2.79575e-10 1.63575e-11
  167 992.737 -2.66972e-10 -2.82368e-11
  168 992.737 -2.88628e-10 -1.68414e-11
  169 992.737 -2.57387e-10 1.39012e-11
  170 992.737 -2.84670e-10 3.76036e-11
  171 992.737 -2.74871e-10 3.22446e-11
  172 992.737 -2.65804e-10 -6.20116e-12
  173 992.737 -2.84339e-10 6.87824e-13
  174 992.737 -2.60212e-10 1.48166e-11
  175 992.737 -2.87859e-10 -4.37049e-12
  176 992.737 -2.54517e-10 -1.29521e-11
  177 992.737 -3.22651e-10 -2.99299e-11
  178 992.737 -2.84235e-10 2.15372e-11
  179 992.737 -3.09397e-10 -1.71200e-11
  180 992.737 -2.78067e-10 9.70893e-12
  181 992.737 -2.73363e-10 -2.58791e-11
  182 992.737 -2.88025e-10 1.66454e-11
  183 992.737 -2.99249e-10 2.14239e-12
  184 992.737 -2.72369e-10 -1.89983e-12
  185 992.737 -2.97385e-10 -5.13050e-12
  186 992.737 -3.05421e-10 -2.35257e-11
  187 992.737 -2.63112e-10 7.45267e-13
  188 992.737 -2.81936e-10 -2.74265e-11
  189 992.737 -2.96474e-10 -1.72548e-12
  190 992.737 -2.84901e-10 -1.11923e-11
  191 992.737 -2.78851e-10 2.12751e-11
  192 992.737 -2.77534e-10 1.90538e-11
  193 992.737 -2.93119e-10 -8.56349e-12
  194 992.737 -2.68392e-10 -4.26504e-11
  195 992.737 -2.77505e-10 2.28736e-11
  196 992.737 -2.64768e-10 4.19884e-11
  197 992.737 -2.81439e-10 2.44281e-11
  198 992.737 -2.67461e-10 3.32645e-11
  199 992.737 -2.77919e-10 9.52688e-12
  200 992.737 -2.87445e-10 -7.61304e-12
  201 992.737 -2.66321e-10 1.97579e-11
  202 992.737 -2.89516e-10 -2.04147e-11
  203 992.737 -2.65286e-10 -4.14320e-11
  204 992.737 -2.70153e-10 6.93137e-12
  205 992.737 -2.67357e-10 -1.41561e-12
  206 992.737 -3.00947e-10 1.74646e-13
  207 992.737 -2.75475e-10 -5.86558e-12
  208 992.737 -2.81315e-10 -3.23346e-11
  209 992.737 -2.90758e-10 6.11322e-12
  210 992.737 -2.66839e-10 3.51058e-11
  211 992.737 -2.89960e-10 -4.13942e-11
  212 992.737 -2.82185e-10 3.73896e-11
  213 992.737 -2.81067e-10 -1.80307e-11
  214 992.737 -2.98939e-10 -2.30294e-11
  215 992.737 -2.81439e-10 -7.68143e-13
  216 992.737 -2.87404e-10 2.60194e-11
  217 992.737 -2.84235e-10 1.75739e-11
  218 992.737 -2.82061e-10 7.68104e-12
  219 992.737 -2.99332e-10 1.78141e-11
  220 992.737 -2.90241e-10 1.09339e-11
  221 992.737 -2.92933e-10 9.49150e-12
  222 992.737 -2.88273e-10 -6.37616e-12
  223 992.737 -2.80321e-10 5.02267e-11
  224 992.737 -2.86907e-10 -2.31199e-11
  225 992.737 -2.89889e-10 2.10699e-11
  226 992.737 -2.87901e-10 1.37227e-11
  227 992.737 -2.71602e-10 6.31103e-12
  228 992.737 -2.73114e-10 1.77327e-11
  229 992.737 -2.73259e-10 1.52271e-11
  230 992.737 -2.70153e-10 -2.54958e-11
  231 992.737 -2.82806e-10 -1.20238e-11
  232 992.737 -2.82806e-10 1.34435e-11
  233 992.737 -2.76966e-10 -1.64553e-11
  234 992.737 -2.85788e-10 9.88662e-12
  235 992.737 -2.61434e-10 -2.21712e-11
  236 992.737 -2.95107e-10 1.64198e-11
  237 992.737 -2.55470e-10 1.49711e-12
  238 992.737 -2.82806e-10 -5.82148e-12
  239 992.737 -2.74916e-10 -2.40653e-12
  240 992.737 -2.62428e-10 1.32672e-11
  241 992.737 -3.00492e-10 -3.49594e-11
</Section>

newXOutput 92

<Section columns = "stress_xx | stress_yy | stress_xy">
  1 973.275 -2.68283e-10 -1.94602e-12
  2 973.275 -2.71301e-10 7.93826e-13
  3 973.275 -2.76733e-10 4.81781e-12
  4 973.275 -2.72206e-10 -6.80051e-13
  5 973.275 -2.70194e-10 -5.76440e-12
  6 973.275 -2.71603e-10 -8.30998e-12
  7 973.275 -2.75073e-10 -2.40342e-12
  8 973.275 -2.73212e-10 3.05470e-12
  9 973.275 -2.71804e-10 4.10754e-12
  10 973.275 -2.70597e-10 2.44508e-12
  11 973.275 -2.70597e-10 -1.47265e-12
  12 973.275 -2.71200e-10 -4.34467e-12
  13 973.275 -2.73866e-10 -6.60249e-13
  14 973.275 -2.73413e-10 2.15707e-12
  15 973.275 -2.72659e-10 1.16040e-12
  16 973.275 -2.72408e-10 4.94716e-12
  17 973.275 -2.71804e-10 3.35951e-12
  18 973.275 -2.71402e-10 -7.82376e-13
  19 973.275 -2.72408e-10 -2.64074e-12
  20 973.275 -2.73011e-10 -1.21974e-12
  21 973.275 -2.73011e-10 5.98422e-13
  22 973.275 -2.72408e-10 1.28310e-12
  23 973.275 -2.71804e-10 1.37495e-12
  24 973.275 -2.71402e-10 -4.37114e-13
  25 973.275 -2.73413e-10 -3.45010e-13
  26 973.275 -2.72055e-10 6.96792e-13
  27 973.275 -2.71200e-10 -7.97005e-13
  28 973.275 -2.73263e-10 1.57023e-13
  29 973.275 -2.72810e-10 -2.80320e-13
  30 973.275 -2.73011e-10 -8.68421e-13
  31 973.275 -2.73816e-10 1.19857e-11
  32 973.275 -2.70999e-10 1.57237e-11
  33 973.275 -2.68887e-10 2.55857e-12
  34 973.275 -2.71603e-10 -1.07803e-12
  35 973.275 -2.71150e-10 -2.09043e-12
  36 973.275 -2.72005e-10 -1.42758e-14
  37 973.275 -2.73413e-10 1.26409e-12
  38 973.275 -2.71603e-10 1.81906e-12
  39 973.275 -2.70597e-10 1.49701e-12
  40 973.275 -2.70798e-10 -1.29120e-12
  41 973.275 -2.72005e-10 -3.43126e-12
  42 973.275 -2.73212e-10 -1.53573e-12
  43 973.275 -2.72810e-10 2.04188e-12
  44 973.275 -2.71402e-10 3.40952e-12
  45 973.275 -2.70798e-10 1.49298e-12
  46 973.275 -2.70999e-10 6.74809e-13
  47 973.275 -2.71200e-10 -6.67739e-14
  48 973.275 -2.71200e-10 -1.37951e-12
  49 973.275 -2.71200e-10 -1.40674e-12
  50 973.275 -2.73212e-10 2.22945e-14
  51 973.275 -2.72206e-10 2.58757e-13
  52 973.275 -2.71301e-10 1.12246e-12
  53 973.275 -2.70597e-10 -1.64108e-12
  54 973.275 -2.72810e-10 1.30714e-12
  55 973.275 -2.71603e-10 5.17515e-13
  56 973.275 -2.69390e-10 3.06209e-13
  57 973.275 -2.71603e-10 3.93573e-13
  58 973.275 -2.72709e-10 1.67371e-12
  59 973.275 -2.72034e-10 -5.58922e-13
  60 973.275 -2.72005e-10 -6.64108e-13
  61 973.275 -2.71804e-10 -3.07480e-12
  62 973.275 -2.72609e-10 -9.54567e-13
  63 973.275 -2.71241e-10 5.41863e-13
  64 973.275 -2.72106e-10 -1.49348e-12
  65 973.275 -2.71804e-10 2.12452e-12
  66 973.275 -2.71804e-10 2.94848e-12
  67 973.275 -2.72206e-10 1.12964e-12
  68 973.275 -2.72810e-10 8.70299e-13
  69 973.275 -2.73413e-10 2.67794e-13
  70 973.275 -2.71527e-10 -5.64607e-13
  71 973.275 -2.73514e-10 -1.77437e-12
  72 973.275 -2.71689e-10 4.62761e-13
  73 973.275 -2.72982e-10 3.79467e-13
  74 973.275 -2.70637e-10 -4.50551e-14
  75 973.275 -2.72206e-10 5.19880e-13
  76 973.275 -2.71804e-10 -1.20931e-12
  77 973.275 -2.71603e-10 -3.12375e-12
  78 973.275 -2.70798e-10 -7.49029e-13
  79 973.275 -2.72896e-10 5.07182e-13
  80 973.275 -2.73112e-10 -2.81115e-13
  81 973.275 -2.71703e-10 6.03289e-13
  82 973.275 -2.72911e-10 -2.18103e-12
  83 973.275 -2.72307e-10 3.71553e-12
  84 973.275 -2.74621e-10 -1.92108e-12
  85 973.275 -2.73112e-10 -2.76961e-12
  86 973.275 -2.71502e-10 -1.88980e-13
  87 973.275 -2.72508e-10 -1.80542e-13
  88 973.275 -2.71965e-10 -7.59400e-12
  89 973.275 -2.70879e-10 9.33281e-13
  90 973.275 -2.70899e-10 1.24067e-12
  91 973.275 -2.73051e-10 5.52872e-13
  92 973.275 -2.72810e-10 -8.46111e-13
  93 973.275 -2.73776e-10 1.60521e-13
  94 973.275 -2.71361e-10 -4.09125e-13
  95 973.275 -2.72327e-10 -1.38923e-12
  96 973.275 -2.72609e-10 7.69337e-13
  97 973.275 -2.73534e-10 4.88432e-13
  98 973.275 -2.70396e-10 -1.29174e-12
  99 973.275 -2.72106e-10 -1.94144e-12
  100 973.275 -2.72206e-10 1.17440e-12
  101 973.275 -2.70597e-10 2.47206e-12
  102 973.275 -2.72448e-10 6.91813e-13
  103 973.275 -2.71100e-10 5.67350e-13
  104 973.275 -2.71120e-10 -2.12556e-12
  105 973.275 -2.70999e-10 1.75181e-12
  106 973.275 -2.71804e-10 2.32932e-13
  107 973.275 -2.72709e-10 1.07014e-12
  108 973.275 -2.71603e-10 1.78624e-12
  109 973.275 -2.72568e-10 2.97891e-12
  110 973.275 -2.71482e-10 1.70304e-12
  111 973.275 -2.70622e-10 -3.41360e-12
  112 973.275 -2.73112e-10 4.35790e-13
  113 973.275 -2.72120e-10 2.13497e-13
  114 973.275 -2.73155e-10 -2.88452e-13
  115 973.275 -2.73615e-10 -8.99786e-13
  116 973.275 -2.74741e-10 -2.08593e-12
  117 973.275 -2.72508e-10 -1.70851e-12
  118 973.275 -2.72408e-10 8.22669e-14
  119 973.275 -2.72293e-10 -1.62233e-12
  120 973.275 -2.71502e-10 9.16609e-14
  121 973.275 -2.71689e-10 -3.83133e-13
  122 973.275 -2.71948e-10 -3.61188e-13
  123 973.275 -2.73112e-10 -7.25934e-13
  124 973.275 -2.71775e-10 5.48275e-13
  125 973.275 -2.72131e-10 1.06691e-13
  126 973.275 -2.73942e-10 -3.38385e-13
  127 973.275 -2.72465e-10 9.49497e-13
  128 973.275 -2.73112e-10 6.33965e-13
  129 973.275 -2.71075e-10 4.80194e-13
  130 973.275 -2.72810e-10 4.31739e-13
  131 973.275 -2.71502e-10 9.23094e-13
  132 973.275 -2.72433e-10 3.47334e-13
  133 973.275 -2.71689e-10 -6.33534e-13
  134 973.275 -2.71430e-10 -2.62460e-12
  135 973.275 -2.72724e-10 2.84980e-13
  136 973.275 -2.71430e-10 -2.31577e-12
  137 973.275 -2.71258e-10 7.70229e-13
  138 973.275 -2.72307e-10 1.94290e-12
  139 973.275 -2.71430e-10 -1.86181e-12
  140 973.275 -2.71775e-10 1.50477e-13
  141 973.275 -2.71804e-10 1.47697e-12
  142 973.275 -2.71301e-10 2.07120e-12
  143 973.275 -2.71603e-10 -7.88241e-14
  144 973.275 -2.71603e-10 -1.90124e-12
  145 973.275 -2.69551e-10 -2.87149e-12
  146 973.275 -2.72724e-10 -8.43638e-13
  147 973.275 -2.70798e-10 6.29743e-13
  148 973.275 -2.71703e-10 -2.38561e-12
  149 973.275 -2.71502e-10 -2.55444e-12
  150 973.275 -2.72911e-10 -7.42324e-13
  151 973.275 -2.71703e-10 -1.79056e-12
  152 973.275 -2.72609e-10 -7.53815e-13
  153 973.275 -2.72810e-10 2.82244e-13
  154 973.275 -2.72568e-10 -8.31838e-13
  155 973.275 -2.72106e-10 -1.00425e-12
  156 973.275 -2.73327e-10 4.48708e-13
  157 973.275 -2.72379e-10 5.36665e-13
  158 973.275 -2.72408e-10 4.23948e-14
  159 973.275 -2.71200e-10 3.40143e-13
  160 973.275 -2.70758e-10 -1.37385e-12
  161 973.275 -2.70758e-10 1.00083e-12
  162 973.275 -2.72005e-10 1.97057e-13
  163 973.275 -2.72508e-10 -5.86385e-13
  164 973.275 -2.72120e-10 -4.70434e-13
  165 973.275 -2.73916e-10 -6.27254e-14
  166 973.275 -2.72465e-10 9.01812e-13
  167 973.275 -2.71861e-10 -1.67140e-12
  168 973.275 -2.72379e-10 -1.43264e-12
  169 973.275 -2.70913e-10 1.36801e-12
  170 973.275 -2.72086e-10 1.16998e-12
  171 973.275 -2.71085e-10 1.56437e-12
  172 973.275 -2.73112e-10 -1.24411e-12
  173 973.275 -2.72408e-10 7.73742e-14
  174 973.275 -2.71200e-10 6.07646e-13
  175 973.275 -2.72206e-10 -8.85136e-13
  176 973.275 -2.69591e-10 -1.20759e-12
  177 973.275 -2.73514e-10 -3.15251e-13
  178 973.275 -2.72609e-10 1.98668e-12
  179 973.275 -2.74741e-10 -8.89237e-13
  180 973.275 -2.71689e-10 -1.40702e-12
  181 973.275 -2.72508e-10 5.31190e-13
  182 973.275 -2.72931e-10 9.80776e-13
  183 973.275 -2.72508e-10 2.19110e-12
  184 973.275 -2.72206e-10 2.55550e-13
  185 973.275 -2.72911e-10 2.92984e-12
  186 973.275 -2.72689e-10 -1.45316e-12
  187 973.275 -2.70798e-10 2.24455e-12
  188 973.275 -2.73051e-10 -1.78396e-12
  189 973.275 -2.72086e-10 -1.52384e-12
  190 973.275 -2.70999e-10 -6.56916e-14
  191 973.275 -2.72508e-10 -2.10523e-12
  192 973.275 -2.71861e-10 -6.26174e-13
  193 973.275 -2.71120e-10 -2.55861e-13
  194 973.275 -2.71905e-10 -1.92407e-12
  195 973.275 -2.71402e-10 2.96611e-12
  196 973.275 -2.72307e-10 4.45009e-13
  197 973.275 -2.71905e-10 3.32758e-12
  198 973.275 -2.71402e-10 1.30562e-12
  199 973.275 -2.72508e-10 5.21711e-13
  200 973.275 -2.72609e-10 1.61074e-12
  201 973.275 -2.72911e-10 -5.38154e-14
  202 973.275 -2.71603e-10 -6.48876e-13
  203 973.275 -2.70798e-10 -6.08345e-13
  204 973.275 -2.72508e-10 2.10688e-12
  205 973.275 -2.72106e-10 -1.66208e-13
  206 973.275 -2.73776e-10 -7.85201e-13
  207 973.275 -2.71241e-10 -1.93248e-12
  208 973.275 -2.71844e-10 -3.13235e-12
  209 973.275 -2.72106e-10 9.21671e-14
  210 973.275 -2.70899e-10 2.25370e-12
  211 973.275 -2.72724e-10 -3.55978e-12
  212 973.275 -2.71844e-10 1.40064e-12
  213 973.275 -2.71844e-10 -2.05939e-12
  214 973.275 -2.73212e-10 -2.24161e-13
  215 973.275 -2.71724e-10 1.51668e-12
  216 973.275 -2.72568e-10 2.87143e-12
  217 973.275 -2.72508e-10 4.65928e-13
  218 973.275 -2.71804e-10 2.08428e-12
  219 973.275 -2.73534e-10 -7.17954e-13
  220 973.275 -2.71905e-10 7.44275e-13
  221 973.275 -2.72408e-10 4.22070e-13
  222 973.275 -2.72206e-10 -1.13896e-12
  223 973.275 -2.70758e-10 1.46285e-12
  224 973.275 -2.72931e-10 -1.50812e-12
  225 973.275 -2.72448e-10 1.34153e-12
  226 973.275 -2.71120e-10 7.75660e-13
  227 973.275 -2.71703e-10 1.71131e-12
  228 973.275 -2.73293e-10 -7.26579e-13
  229 973.275 -2.71804e-10 -4.64718e-13
  230 973.275 -2.70798e-10 -6.74371e-13
  231 973.275 -2.71361e-10 -9.80146e-13
  232 973.275 -2.72327e-10 8.79621e-13
  233 973.275 -2.71965e-10 -1.07350e-12
  234 973.275 -2.72911e-10 1.07345e-12
  235 973.275 -2.70999e-10 -7.42254e-13
  236 973.275 -2.72810e-10 1.16820e-12
  237 973.275 -2.70758e-10 -9.92492e-13
  238 973.275 -2.72689e-10 -1.36420e-12
  239 973.275 -2.71603e-10 6.96760e-13
  240 973.275 -2.72086e-10 1.19669e-12
  241 973.275 -2.72307e-10 -1.27992e-12
</Section>

newXOutput 93

<Section columns = "stress_xx | stress_yy | stress_xy">
  1 953.889 -2.49148e-10 -9.31684e-12
  2 953.889 -2.69666e-10 -4.92609e-12
  3 953.889 -2.29216e-10 -2.18577e-11
  4 953.889 -2.73184e-10 -6.77822e-12
  5 953.889 -2.56378e-10 -2.30088e-11
  6 953.889 -2.64097e-10 -3.11352e-11
  7 953.889 -2.75382e-10 -7.92040e-12
  8 953.889 -2.64976e-10 1.30963e-11
  9 953.889 -2.58137e-10 1.12702e-11
  10 953.889 -2.60677e-10 1.16485e-12
  11 953.889 -2.64195e-10 -2.45468e-12
  12 953.889 -2.62436e-10 -6.19106e-12
  13 953.889 -2.58235e-10 -1.05043e-11
  14 953.889 -2.63022e-10 -2.19641e-11
  15 953.889 -2.69666e-10 -1.05915e-11
  16 953.889 -2.67321e-10 -8.23502e-13
  17 953.889 -2.66540e-10 9.41139e-12
  18 953.889 -2.63218e-10 1.17679e-11
  19 953.889 -2.60091e-10 6.36106e-12
  20 953.889 -2.61264e-10 1.42892e-12
  21 953.889 -2.60091e-10 -8.25613e-12
  22 953.889 -2.62631e-10 -1.38289e-11
  23 953.889 -2.65172e-10 -1.16613e-11
  24 953.889 -2.73184e-10 6.34575e-13
  25 953.889 -2.67321e-10 2.29788e-12
  26 953.889 -2.60726e-10 4.01095e-12
  27 953.889 -2.56769e-10 -2.46239e-12
  28 953.889 -2.57649e-10 3.51319e-12
  29 953.889 -2.49441e-10 2.31877e-12
  30 953.889 -2.42309e-10 5.59659e-12
  31 953.889 -2.47976e-10 -5.57916e-11
  32 953.889 -2.66149e-10 -7.19518e-11
  33 953.889 -2.82124e-10 -2.31341e-11
  34 953.889 -2.72207e-10 -1.11300e-13
  35 953.889 -2.70546e-10 1.81270e-11
  36 953.889 -2.60873e-10 2.67570e-11
  37 953.889 -2.56378e-10 1.81820e-11
  38 953.889 -2.55597e-10 1.33875e-12
  39 953.889 -2.55401e-10 -1.35598e-11
  40 953.889 -2.62045e-10 -2.32746e-11
  41 953.889 -2.68298e-10 -1.13591e-11
  42 953.889 -2.69080e-10 -2.63278e-13
  43 953.889 -2.67517e-10 8.25506e-12
  44 953.889 -2.64976e-10 1.34793e-11
  45 953.889 -2.61068e-10 1.26826e-11
  46 953.889 -2.59505e-10 5.49144e-12
  47 953.889 -2.58528e-10 -7.16705e-12
  48 953.889 -2.61264e-10 -1.65422e-11
  49 953.889 -2.65172e-10 -1.52632e-11
  50 953.889 -2.76896e-10 1.22780e-12
  51 953.889 -2.67908e-10 3.32148e-12
  52 953.889 -2.62631e-10 1.81579e-12
  53 953.889 -2.62631e-10 -1.24003e-12
  54 953.889 -2.62631e-10 1.84644e-12
  55 953.889 -2.56476e-10 2.08898e-12
  56 953.889 -2.50321e-10 1.91348e-12
  57 953.889 -2.62827e-10 2.99070e-12
  58 953.889 -2.68201e-10 1.13036e-12
  59 953.889 -2.66651e-10 -1.26876e-11
  60 953.889 -2.68982e-10 -8.44126e-12
  61 953.889 -2.67908e-10 4.72512e-13
  62 953.889 -2.60384e-10 -5.02968e-12
  63 953.889 -2.60638e-10 -7.71917e-12
  64 953.889 -2.63218e-10 1.46640e-11
  65 953.889 -2.63511e-10 1.31084e-11
  66 953.889 -2.64097e-10 6.88994e-12
  67 953.889 -2.66931e-10 1.29569e-11
  68 953.889 -2.67028e-10 4.79985e-12
  69 953.889 -2.65060e-10 -1.31960e-11
  70 953.889 -2.61239e-10 1.36482e-11
  71 953.889 -2.67126e-10 -1.57216e-11
  72 953.889 -2.59282e-10 3.04635e-13
  73 953.889 -2.59784e-10 -6.64192e-12
  74 953.889 -2.57824e-10 -6.90001e-12
  75 953.889 -2.69080e-10 8.32839e-12
  76 953.889 -2.61264e-10 -8.09650e-12
  77 953.889 -2.63511e-10 -6.13596e-12
  78 953.889 -2.80218e-10 -9.17040e-12
  79 953.889 -2.62548e-10 -7.27188e-12
  80 953.889 -2.63413e-10 -9.34897e-12
  81 953.889 -2.65563e-10 8.83966e-12
  82 953.889 -2.53643e-10 3.52347e-12
  83 953.889 -2.63511e-10 -2.62302e-12
  84 953.889 -2.74942e-10 -2.36751e-12
  85 953.889 -2.72011e-10 4.31335e-12
  86 953.889 -2.65660e-10 -1.46118e-12
  87 953.889 -2.66637e-10 -3.93030e-13
  88 953.889 -2.56652e-10 2.22093e-11
  89 953.889 -2.59583e-10 8.46335e-12
  90 953.889 -2.61948e-10 7.41824e-12
  91 953.889 -2.62631e-10 -1.03462e-11
  92 953.889 -2.62045e-10 -7.80324e-12
  93 953.889 -2.61225e-10 -1.31752e-12
  94 953.889 -2.63218e-10 6.73420e-13
  95 953.889 -2.76584e-10 8.39792e-12
  96 953.889 -2.61166e-10 -4.37341e-12
  97 953.889 -2.54893e-10 -8.32279e-12
  98 953.889 -2.52197e-10 -9.34712e-12
  99 953.889 -2.64195e-10 6.72135e-12
  100 953.889 -2.62162e-10 -2.87436e-12
  101 953.889 -2.54327e-10 8.39178e-13
  102 953.889 -2.62631e-10 -2.76594e-12
  103 953.889 -2.62436e-10 1.10305e-11
  104 953.889 -2.65914e-10 5.16046e-12
  105 953.889 -2.67321e-10 -1.84494e-12
  106 953.889 -2.65660e-10 8.80420e-12
  107 953.889 -2.61557e-10 6.08375e-12
  108 953.889 -2.62436e-10 2.21944e-12
  109 953.889 -2.63921e-10 3.91901e-12
  110 953.889 -2.59818e-10 7.40617e-12
  111 953.889 -2.74063e-10 3.57656e-12
  112 953.889 -2.62241e-10 9.21077e-12
  113 953.889 -2.56853e-10 -1.59996e-12
  114 953.889 -2.58109e-10 7.71179e-12
  115 953.889 -2.65660e-10 5.88023e-12
  116 953.889 -2.74122e-10 -1.03773e-11
  117 953.889 -2.66735e-10 5.17504e-12
  118 953.889 -2.66344e-10 3.69335e-12
  119 953.889 -2.69834e-10 3.83842e-12
  120 953.889 -2.74747e-10 -1.95926e-12
  121 953.889 -2.61208e-10 2.60156e-12
  122 953.889 -2.66149e-10 -1.84828e-12
  123 953.889 -2.62729e-10 -1.44381e-11
  124 953.889 -2.67405e-10 -2.01935e-13
  125 953.889 -2.62851e-10 3.22584e-12
  126 953.889 -2.69007e-10 1.97657e-12
  127 953.889 -2.64809e-10 -9.90830e-13
  128 953.889 -2.57062e-10 9.59955e-13
  129 953.889 -2.53618e-10 1.79531e-12
  130 953.889 -2.64292e-10 -1.07437e-11
  131 953.889 -2.58430e-10 2.65287e-12
  132 953.889 -2.71278e-10 -2.17901e-12
  133 953.889 -2.67070e-10 8.44625e-12
  134 953.889 -2.61627e-10 -2.15414e-11
  135 953.889 -2.60287e-10 -1.30991e-11
  136 953.889 -2.59700e-10 -1.64621e-11
  137 953.889 -2.68745e-10 -8.21201e-13
  138 953.889 -2.63706e-10 -1.14089e-11
  139 953.889 -2.63134e-10 -2.60564e-12
  140 953.889 -2.63134e-10 -6.71407e-12
  141 953.889 -2.68298e-10 8.00201e-13
  142 953.889 -2.61068e-10 2.02573e-11
  143 953.889 -2.63804e-10 1.89854e-12
  144 953.889 -2.57707e-10 1.03672e-11
  145 953.889 -2.81860e-10 -2.79764e-12
  146 953.889 -2.68159e-10 1.60197e-11
  147 953.889 -2.60970e-10 -8.56825e-12
  148 953.889 -2.64390e-10 -9.84926e-13
  149 953.889 -2.61752e-10 -1.79310e-12
  150 953.889 -2.67712e-10 7.00454e-12
  151 953.889 -2.65563e-10 -6.62741e-12
  152 953.889 -2.67614e-10 6.81429e-12
  153 953.889 -2.59603e-10 -1.40629e-12
  154 953.889 -2.62514e-10 -6.16242e-12
  155 953.889 -2.68005e-10 -2.26961e-12
  156 953.889 -2.63469e-10 2.61785e-12
  157 953.889 -2.65144e-10 -5.24797e-13
  158 953.889 -2.64683e-10 9.27090e-12
  159 953.889 -2.63999e-10 -3.31482e-12
  160 953.889 -2.62045e-10 -4.47367e-12
  161 953.889 -2.57942e-10 -3.97737e-12
  162 953.889 -2.62436e-10 4.66355e-12
  163 953.889 -2.65367e-10 4.99423e-13
  164 953.889 -2.60035e-10 -1.15101e-11
  165 953.889 -2.69862e-10 -3.91045e-12
  166 953.889 -2.70336e-10 8.41786e-12
  167 953.889 -2.68661e-10 6.13065e-12
  168 953.889 -2.50991e-10 8.46127e-12
  169 953.889 -2.56602e-10 6.27908e-12
  170 953.889 -2.69432e-10 7.63163e-12
  171 953.889 -2.60873e-10 1.06053e-11
  172 953.889 -2.60384e-10 -4.01522e-12
  173 953.889 -2.60873e-10 1.22884e-11
  174 953.889 -2.69373e-10 -5.67746e-12
  175 953.889 -2.71327e-10 -7.32246e-12
  176 953.889 -2.54033e-10 -4.14579e-12
  177 953.889 -2.43481e-10 -2.28665e-12
  178 953.889 -2.59896e-10 7.51135e-12
  179 953.889 -2.74122e-10 -5.05273e-12
  180 953.889 -2.61124e-10 -1.22602e-13
  181 953.889 -2.65660e-10 9.05026e-12
  182 953.889 -2.54893e-10 4.33239e-12
  183 953.889 -2.67321e-10 -2.06471e-11
  184 953.889 -2.68377e-10 4.29104e-12
  185 953.889 -2.67517e-10 4.58478e-12
  186 953.889 -2.66618e-10 -7.68337e-12
  187 953.889 -2.67126e-10 -2.11027e-11
  188 953.889 -2.66735e-10 -8.84645e-12
  189 953.889 -2.67321e-10 1.19382e-11
  190 953.889 -2.57858e-10 -1.30264e-11
  191 953.889 -2.62827e-10 1.48931e-11
  192 953.889 -2.65479e-10 -3.74376e-12
  193 953.889 -2.67087e-10 1.20526e-11
  194 953.889 -2.63022e-10 1.61058e-11
  195 953.889 -2.63413e-10 1.92011e-11
  196 953.889 -2.61068e-10 8.63663e-12
  197 953.889 -2.63902e-10 1.20741e-11
  198 953.889 -2.60482e-10 1.09790e-11
  199 953.889 -2.65074e-10 4.13162e-12
  200 953.889 -2.60384e-10 -9.42038e-12
  201 953.889 -2.67028e-10 1.47560e-11
  202 953.889 -2.60990e-10 -4.40218e-12
  203 953.889 -2.59114e-10 -1.73152e-11
  204 953.889 -2.63511e-10 5.75989e-12
  205 953.889 -2.58332e-10 -1.21493e-12
  206 953.889 -2.59349e-10 -7.55845e-12
  207 953.889 -2.58411e-10 -1.02466e-11
  208 953.889 -2.74356e-10 6.09524e-12
  209 953.889 -2.57942e-10 7.24647e-12
  210 953.889 -2.55988e-10 1.10079e-11
  211 953.889 -2.65730e-10 -1.37812e-11
  212 953.889 -2.64625e-10 -1.37665e-11
  213 953.889 -2.63804e-10 -1.77710e-11
  214 953.889 -2.69373e-10 8.17370e-12
  215 953.889 -2.65445e-10 -3.70072e-12
  216 953.889 -2.68025e-10 -2.15491e-11
  217 953.889 -2.56965e-10 5.09634e-12
  218 953.889 -2.56085e-10 6.25748e-12
  219 953.889 -2.70839e-10 7.33185e-12
  220 953.889 -2.63706e-10 -2.19604e-11
  221 953.889 -2.64390e-10 5.40309e-12
  222 953.889 -2.66247e-10 1.02938e-11
  223 953.889 -2.61811e-10 1.57734e-11
  224 953.889 -2.66735e-10 -9.67659e-12
  225 953.889 -2.57707e-10 -6.06046e-15
  226 953.889 -2.63804e-10 1.76926e-12
  227 953.889 -2.66637e-10 7.43831e-12
  228 953.889 -2.61576e-10 1.91321e-11
  229 953.889 -2.63218e-10 1.57166e-12
  230 953.889 -2.65074e-10 3.72804e-12
  231 953.889 -2.61811e-10 -6.81058e-12
  232 953.889 -2.67204e-10 8.31612e-12
  233 953.889 -2.67908e-10 1.05899e-11
  234 953.889 -2.70839e-10 6.45009e-14
  235 953.889 -2.68377e-10 -1.04005e-11
  236 953.889 -2.67154e-10 8.66818e-12
  237 953.889 -2.56535e-10 3.24465e-12
  238 953.889 -2.68963e-10 1.05273e-11
  239 953.889 -2.62827e-10 -1.11005e-12
  240 953.889 -2.58293e-10 4.78050e-12
  241 953.889 -2.71132e-10 3.88106e-13
</Section>

newXOutput 94

<Section columns = "stress_xx | stress_yy | stress_xy">
  1 934.578 -2.55889e-10 2.36559e-13
  2 934.578 -2.51334e-10 1.33224e-12
  3 934.578 -2.51050e-10 -3.47320e-12
  4 934.578 -2.51619e-10 1.89556e-12
  5 934.578 -2.54845e-10 6.69225e-13
  6 934.578 -2.54465e-10 5.16704e-13
  7 934.578 -2.54750e-10 3.48614e-13
  8 934.578 -2.54655e-10 3.19571e-13
  9 934.578 -2.55414e-10 8.79861e-13
  10 934.578 -2.55984e-10 1.51070e-12
  11 934.578 -2.55035e-10 7.47129e-14
  12 934.578 -2.54845e-10 -1.31978e-12
  13 934.578 -2.56885e-10 1.63884e-12
  14 934.578 -2.54276e-10 5.86019e-12
  15 934.578 -2.55035e-10 3.17029e-12
  16 934.578 -2.55224e-10 6.09677e-12
  17 934.578 -2.52947e-10 2.54413e-12
  18 934.578 -2.52378e-10 -3.22891e-12
  19 934.578 -2.55604e-10 -5.67757e-12
  20 934.578 -2.56743e-10 -3.54432e-12
  21 934.578 -2.56173e-10 1.99214e-12
  22 934.578 -2.56173e-10 5.98676e-12
  23 934.578 -2.53327e-10 3.80994e-12
  24 934.578 -2.51619e-10 -6.01747e-14
  25 934.578 -2.53327e-10 8.09326e-14
  26 934.578 -2.55889e-10 -2.05439e-12
  27 934.578 -2.55224e-10 2.60948e-12
  28 934.578 -2.52900e-10 -9.93728e-13
  29 934.578 -2.54181e-10 8.09326e-14
  30 934.578 -2.53137e-10 1.01020e-12
  31 934.578 -2.53137e-10 -7.20386e-12
  32 934.578 -2.55035e-10 -8.96709e-12
  33 934.578 -2.57881e-10 -1.90811e-12
  34 934.578 -2.55794e-10 7.52105e-14
  35 934.578 -2.55035e-10 1.92392e-12
  36 934.578 -2.54276e-10 1.72977e-12
  37 934.578 -2.53706e-10 1.99264e-13
  38 934.578 -2.54845e-10 -2.62200e-15
  39 934.578 -2.56173e-10 -3.93507e-13
  40 934.578 -2.56173e-10 -3.24441e-14
  41 934.578 -2.55984e-10 2.28867e-12
  42 934.578 -2.55414e-10 1.95298e-12
  43 934.578 -2.53517e-10 -2.32729e-12
  44 934.578 -2.54845e-10 -4.69007e-12
  45 934.578 -2.56173e-10 -3.67417e-12
  46 934.578 -2.56173e-10 -1.98164e-12
  47 934.578 -2.56932e-10 2.44102e-12
  48 934.578 -2.55984e-10 5.36384e-12
  49 934.578 -2.54465e-10 4.62208e-12
  50 934.578 -2.51050e-10 -4.16072e-13
  51 934.578 -2.53612e-10 -8.90259e-13
  52 934.578 -2.56316e-10 -6.85679e-13
  53 934.578 -2.56932e-10 5.70649e-14
  54 934.578 -2.55462e-10 7.74268e-14
  55 934.578 -2.55604e-10 0.00000
  56 934.578 -2.56743e-10 5.13603e-14
  57 934.578 -2.55604e-10 2.75737e-13
  58 934.578 -2.55794e-10 7.49395e-13
  59 934.578 -2.55523e-10 2.51228e-14
  60 934.578 -2.54560e-10 -1.96630e-12
  61 934.578 -2.54940e-10 2.57266e-12
  62 934.578 -2.54750e-10 3.01925e-12
  63 934.578 -2.54807e-10 3.05420e-12
  64 934.578 -2.55414e-10 -4.25586e-12
  65 934.578 -2.55794e-10 -6.02071e-12
  66 934.578 -2.55035e-10 -1.20881e-13
  67 934.578 -2.56458e-10 9.52812e-13
  68 934.578 -2.54086e-10 -1.68580e-12
  69 934.578 -2.56173e-10 9.44593e-13
  70 934.578 -2.54252e-10 8.54381e-13
  71 934.578 -2.55414e-10 2.31703e-12
  72 934.578 -2.54953e-10 1.37821e-12
  73 934.578 -2.56417e-10 -1.28220e-12
  74 934.578 -2.56287e-10 -8.92621e-13
  75 934.578 -2.53668e-10 -1.80101e-12
  76 934.578 -2.56458e-10 3.84887e-12
  77 934.578 -2.55794e-10 1.70602e-12
  78 934.578 -2.56837e-10 -6.84957e-13
  79 934.578 -2.53164e-10 -2.21113e-12
  80 934.578 -2.53612e-10 2.51865e-13
  81 934.578 -2.53896e-10 -1.37595e-12
  82 934.578 -2.54560e-10 3.70575e-12
  83 934.578 -2.52568e-10 -4.47712e-12
  84 934.578 -2.54560e-10 1.09567e-12
  85 934.578 -2.53801e-10 -4.22448e-12
  86 934.578 -2.54940e-10 -1.87076e-12
  87 934.578 -2.53517e-10 -5.39686e-13
  88 934.578 -2.54352e-10 4.90721e-12
  89 934.578 -2.55718e-10 -2.58829e-13
  90 934.578 -2.54845e-10 1.70162e-13
  91 934.578 -2.54124e-10 -2.69784e-12
  92 934.578 -2.56173e-10 1.81517e-12
  93 934.578 -2.55490e-10 3.11900e-13
  94 934.578 -2.54010e-10 -2.53545e-12
  95 934.578 -2.53441e-10 -1.50538e-12
  96 934.578 -2.53896e-10 2.87273e-13
  97 934.578 -2.57540e-10 1.15172e-12
  98 934.578 -2.58109e-10 2.14512e-12
  99 934.578 -2.54940e-10 -1.33719e-12
  100 934.578 -2.55604e-10 6.63936e-13
  101 934.578 -2.55509e-10 1.59890e-12
  102 934.578 -2.55149e-10 -7.75676e-13
  103 934.578 -2.56363e-10 3.54538e-12
  104 934.578 -2.55832e-10 2.83601e-12
  105 934.578 -2.56059e-10 -9.99281e-14
  106 934.578 -2.53991e-10 -3.18541e-13
  107 934.578 -2.55699e-10 -3.52671e-12
  108 934.578 -2.55794e-10 -1.27810e-12
  109 934.578 -2.55490e-10 2.85430e-13
  110 934.578 -2.54238e-10 -2.98322e-12
  111 934.578 -2.56173e-10 1.07829e-12
  112 934.578 -2.53422e-10 4.15341e-14
  113 934.578 -2.55116e-10 1.98156e-12
  114 934.578 -2.55035e-10 1.97429e-12
  115 934.578 -2.53517e-10 -4.92875e-13
  116 934.578 -2.54921e-10 1.04088e-12
  117 934.578 -2.55604e-10 -3.14124e-12
  118 934.578 -2.54940e-10 -3.73066e-12
  119 934.578 -2.53896e-10 -1.35849e-12
  120 934.578 -2.56458e-10 7.68442e-13
  121 934.578 -2.54953e-10 1.38938e-12
  122 934.578 -2.54303e-10 -2.66905e-12
  123 934.578 -2.55794e-10 3.14026e-13
  124 934.578 -2.55604e-10 2.78977e-12
  125 934.578 -2.53825e-10 1.49501e-12
  126 934.578 -2.54750e-10 8.64459e-13
  127 934.578 -2.54384e-10 -2.60365e-13
  128 934.578 -2.56458e-10 -7.89830e-13
  129 934.578 -2.57027e-10 -6.28408e-13
  130 934.578 -2.54845e-10 -2.70833e-12
  131 934.578 -2.55794e-10 6.53331e-14
  132 934.578 -2.55035e-10 -9.28025e-13
  133 934.578 -2.53327e-10 -2.16600e-12
  134 934.578 -2.54709e-10 3.32683e-12
  135 934.578 -2.56499e-10 1.43228e-12
  136 934.578 -2.55929e-10 3.68765e-12
  137 934.578 -2.56092e-10 2.51219e-12
  138 934.578 -2.55035e-10 1.46287e-13
  139 934.578 -2.55441e-10 2.33019e-12
  140 934.578 -2.57393e-10 2.63780e-12
  141 934.578 -2.54371e-10 -3.48675e-12
  142 934.578 -2.55130e-10 -6.92582e-13
  143 934.578 -2.54709e-10 -1.64306e-12
  144 934.578 -2.54238e-10 2.67836e-12
  145 934.578 -2.57084e-10 2.32430e-13
  146 934.578 -2.53815e-10 -1.42345e-12
  147 934.578 -2.56078e-10 8.44030e-13
  148 934.578 -2.55984e-10 5.32532e-13
  149 934.578 -2.54276e-10 3.95678e-12
  150 934.578 -2.55035e-10 -5.19637e-13
  151 934.578 -2.54845e-10 2.51897e-12
  152 934.578 -2.55130e-10 -1.73065e-12
  153 934.578 -2.53801e-10 1.16700e-12
  154 934.578 -2.54010e-10 1.88537e-12
  155 934.578 -2.55319e-10 1.39647e-12
  156 934.578 -2.56011e-10 -2.00148e-12
  157 934.578 -2.55523e-10 -8.95025e-13
  158 934.578 -2.53991e-10 -6.12427e-13
  159 934.578 -2.53801e-10 -4.59901e-13
  160 934.578 -2.57084e-10 9.66810e-13
  161 934.578 -2.56970e-10 1.44865e-12
  162 934.578 -2.53422e-10 1.17402e-12
  163 934.578 -2.53896e-10 -5.84288e-13
  164 934.578 -2.55523e-10 -9.40367e-13
  165 934.578 -2.54371e-10 5.12948e-13
  166 934.578 -2.52920e-10 -2.46111e-12
  167 934.578 -2.53815e-10 -1.05877e-12
  168 934.578 -2.53978e-10 1.29796e-12
  169 934.578 -2.55767e-10 -2.80259e-13
  170 934.578 -2.55832e-10 2.15991e-12
  171 934.578 -2.55279e-10 2.89107e-14
  172 934.578 -2.55035e-10 -1.13641e-12
  173 934.578 -2.55604e-10 -1.92985e-12
  174 934.578 -2.52283e-10 5.82583e-13
  175 934.578 -2.52473e-10 1.65884e-12
  176 934.578 -2.55794e-10 4.73905e-13
  177 934.578 -2.53042e-10 2.60965e-13
  178 934.578 -2.52568e-10 -2.90467e-12
  179 934.578 -2.54807e-10 6.30630e-13
  180 934.578 -2.56173e-10 2.99576e-12
  181 934.578 -2.53327e-10 -1.94129e-12
  182 934.578 -2.54124e-10 1.12932e-12
  183 934.578 -2.53517e-10 -4.03698e-12
  184 934.578 -2.53896e-10 -1.74343e-14
  185 934.578 -2.54845e-10 -8.35900e-13
  186 934.578 -2.55035e-10 -2.91369e-13
  187 934.578 -2.55414e-10 -1.94457e-12
  188 934.578 -2.54238e-10 -1.46770e-12
  189 934.578 -2.55149e-10 1.40571e-12
  190 934.578 -2.56173e-10 -2.89111e-13
  191 934.578 -2.53896e-10 3.54331e-12
  192 934.578 -2.54303e-10 -2.58311e-12
  193 934.578 -2.55946e-10 1.72056e-12
  194 934.578 -2.54940e-10 -3.03335e-12
  195 934.578 -2.54276e-10 -5.90100e-12
  196 934.578 -2.54371e-10 -7.08593e-13
  197 934.578 -2.55509e-10 -8.40832e-13
  198 934.578 -2.53517e-10 -1.64038e-12
  199 934.578 -2.54940e-10 -1.54728e-12
  200 934.578 -2.56078e-10 7.04521e-13
  201 934.578 -2.53517e-10 -9.54667e-13
  202 934.578 -2.54921e-10 -1.16105e-13
  203 934.578 -2.55035e-10 2.46631e-12
  204 934.578 -2.54560e-10 1.01185e-12
  205 934.578 -2.55699e-10 2.38797e-12
  206 934.578 -2.56970e-10 -1.03216e-12
  207 934.578 -2.56743e-10 1.44167e-12
  208 934.578 -2.55604e-10 9.49579e-13
  209 934.578 -2.56268e-10 -1.70733e-12
  210 934.578 -2.56648e-10 -2.81637e-12
  211 934.578 -2.54791e-10 9.34251e-13
  212 934.578 -2.54124e-10 2.80514e-12
  213 934.578 -2.54693e-10 4.49576e-12
  214 934.578 -2.53327e-10 -1.66193e-12
  215 934.578 -2.56401e-10 2.29703e-12
  216 934.578 -2.53441e-10 -4.56398e-12
  217 934.578 -2.55889e-10 -1.46193e-12
  218 934.578 -2.57691e-10 -2.45951e-12
  219 934.578 -2.53668e-10 -2.22124e-12
  220 934.578 -2.54845e-10 6.97882e-14
  221 934.578 -2.53327e-10 7.11251e-13
  222 934.578 -2.55604e-10 -5.26043e-13
  223 934.578 -2.55262e-10 -6.23161e-13
  224 934.578 -2.54465e-10 1.42002e-12
  225 934.578 -2.54807e-10 -1.28103e-12
  226 934.578 -2.55718e-10 1.29209e-12
  227 934.578 -2.53422e-10 -1.25910e-12
  228 934.578 -2.52416e-10 1.57566e-12
  229 934.578 -2.54845e-10 9.12406e-13
  230 934.578 -2.55889e-10 1.62017e-12
  231 934.578 -2.54693e-10 1.72133e-12
  232 934.578 -2.55262e-10 -2.72814e-12
  233 934.578 -2.55490e-10 -1.77985e-12
  234 934.578 -2.52853e-10 -3.38780e-12
  235 934.578 -2.56856e-10 1.38082e-12
  236 934.578 -2.55441e-10 -5.37018e-14
  237 934.578 -2.55035e-10 -1.01203e-13
  238 934.578 -2.54124e-10 2.17282e-13
  239 934.578 -2.54371e-10 -2.79625e-13
  240 934.578 -2.56287e-10 8.49151e-13
  241 934.578 -2.54276e-10 -4.94925e-13
</Section>

newXOutput 95

<Section columns = "stress_xx | stress_yy | stress_xy">
  1 915.341 -2.43179e-10 -2.10111e-12
  2 915.341 -2.40968e-10 2.19252e-12
  3 915.341 -2.48429e-10 4.49556e-13
  4 915.341 -2.42626e-10 2.95333e-12
  5 915.341 -2.45389e-10 -4.59346e-12
  6 915.341 -2.47047e-10 -6.20144e-12
  7 915.341 -2.48705e-10 -5.71657e-13
  8 915.341 -2.47232e-10 4.54641e-12
  9 915.341 -2.45389e-10 5.05725e-12
  10 915.341 -2.45021e-10 2.64587e-12
  11 915.341 -2.44837e-10 -2.90248e-12
  12 915.341 -2.46310e-10 -5.25231e-12
  13 915.341 -2.51192e-10 -5.74663e-13
  14 915.341 -2.48705e-10 8.96405e-12
  15 915.341 -2.48982e-10 6.32467e-12
  16 915.341 -2.45942e-10 1.52450e-11
  17 915.341 -2.41889e-10 9.31579e-12
  18 915.341 -2.40231e-10 -3.83418e-12
  19 915.341 -2.46310e-10 -1.05197e-11
  20 915.341 -2.50548e-10 -5.50135e-12
  21 915.341 -2.50363e-10 3.97406e-12
  22 915.341 -2.46495e-10 9.39066e-12
  23 915.341 -2.45574e-10 7.67762e-12
  24 915.341 -2.43547e-10 -1.18769e-12
  25 915.341 -2.42902e-10 1.56741e-13
  26 915.341 -2.47186e-10 -1.11620e-12
  27 915.341 -2.48153e-10 2.15302e-12
  28 915.341 -2.47876e-10 -9.83950e-13
  29 915.341 -2.49811e-10 3.13482e-13
  30 915.341 -2.47784e-10 -2.02457e-13
  31 915.341 -2.48337e-10 1.89871e-12
  32 915.341 -2.47047e-10 3.35604e-12
  33 915.341 -2.47186e-10 5.38232e-13
  34 915.341 -2.47969e-10 1.42424e-12
  35 915.341 -2.48844e-10 3.63974e-12
  36 915.341 -2.45389e-10 6.71397e-12
  37 915.341 -2.44837e-10 3.73751e-12
  38 915.341 -2.44468e-10 -1.97661e-12
  39 915.341 -2.44100e-10 -5.71548e-12
  40 915.341 -2.47232e-10 -6.43437e-12
  41 915.341 -2.49074e-10 5.26511e-13
  42 915.341 -2.48337e-10 5.22459e-12
  43 915.341 -2.44652e-10 3.81986e-12
  44 915.341 -2.43547e-10 -2.26909e-12
  45 915.341 -2.45758e-10 -5.94010e-12
  46 915.341 -2.48890e-10 -4.35574e-12
  47 915.341 -2.49627e-10 2.80042e-12
  48 915.341 -2.49258e-10 8.27812e-12
  49 915.341 -2.47416e-10 7.31581e-12
  50 915.341 -2.42626e-10 -6.86590e-13
  51 915.341 -2.45113e-10 -5.87779e-13
  52 915.341 -2.47047e-10 -4.33101e-13
  53 915.341 -2.47232e-10 5.62785e-13
  54 915.341 -2.47600e-10 -6.61983e-13
  55 915.341 -2.47047e-10 3.52668e-13
  56 915.341 -2.45021e-10 7.59791e-13
  57 915.341 -2.47784e-10 -7.41453e-13
  58 915.341 -2.47692e-10 1.35785e-12
  59 915.341 -2.47284e-10 3.16666e-12
  60 915.341 -2.44100e-10 1.24542e-12
  61 915.341 -2.46034e-10 1.48099e-12
  62 915.341 -2.48153e-10 4.33686e-12
  63 915.341 -2.45831e-10 2.83497e-12
  64 915.341 -2.48245e-10 -2.83743e-12
  65 915.341 -2.48429e-10 -4.12937e-12
  66 915.341 -2.48798e-10 -6.67441e-13
  67 915.341 -2.48613e-10 -1.78200e-12
  68 915.341 -2.47969e-10 1.02231e-13
  69 915.341 -2.47995e-10 -1.03935e-13
  70 915.341 -2.46633e-10 -2.93764e-13
  71 915.341 -2.47047e-10 1.18197e-14
  72 915.341 -2.47758e-10 2.85306e-12
  73 915.341 -2.47600e-10 -5.53595e-13
  74 915.341 -2.47490e-10 1.65302e-12
  75 915.341 -2.46826e-10 -4.14860e-12
  76 915.341 -2.48245e-10 3.29577e-12
  77 915.341 -2.47784e-10 1.30596e-12
  78 915.341 -2.48613e-10 3.19954e-12
  79 915.341 -2.45705e-10 2.04493e-13
  80 915.341 -2.46310e-10 2.11104e-12
  81 915.341 -2.44560e-10 -1.24534e-12
  82 915.341 -2.44652e-10 -1.94331e-12
  83 915.341 -2.45021e-10 -2.31024e-12
  84 915.341 -2.48982e-10 7.69278e-13
  85 915.341 -2.47416e-10 -7.76598e-12
  86 915.341 -2.47416e-10 -3.74209e-12
  87 915.341 -2.46863e-10 -1.82556e-12
  88 915.341 -2.47268e-10 9.32724e-13
  89 915.341 -2.46716e-10 4.31648e-12
  90 915.341 -2.44376e-10 1.17854e-12
  91 915.341 -2.45389e-10 -9.29738e-13
  92 915.341 -2.50142e-10 3.92861e-13
  93 915.341 -2.48263e-10 -3.08125e-12
  94 915.341 -2.44616e-10 -2.36699e-13
  95 915.341 -2.44837e-10 -6.73368e-12
  96 915.341 -2.45574e-10 3.19435e-12
  97 915.341 -2.50806e-10 1.37037e-12
  98 915.341 -2.51137e-10 3.73250e-12
  99 915.341 -2.49258e-10 -4.32104e-12
  100 915.341 -2.48042e-10 -3.19855e-13
  101 915.341 -2.45113e-10 3.09175e-12
  102 915.341 -2.46605e-10 -1.42068e-14
  103 915.341 -2.48521e-10 -1.62899e-12
  104 915.341 -2.47821e-10 9.70997e-14
  105 915.341 -2.49037e-10 1.80402e-12
  106 915.341 -2.45666e-10 -1.17167e-12
  107 915.341 -2.47139e-10 -2.34327e-12
  108 915.341 -2.47508e-10 -5.69492e-13
  109 915.341 -2.48484e-10 -2.15910e-12
  110 915.341 -2.47711e-10 -3.82608e-12
  111 915.341 -2.48498e-10 2.33544e-12
  112 915.341 -2.47324e-10 -8.06813e-14
  113 915.341 -2.44837e-10 1.03056e-12
  114 915.341 -2.45626e-10 9.02819e-13
  115 915.341 -2.46587e-10 -8.26379e-13
  116 915.341 -2.48816e-10 3.62571e-13
  117 915.341 -2.48337e-10 -2.79933e-12
  118 915.341 -2.47692e-10 -2.57201e-12
  119 915.341 -2.48390e-10 -3.82527e-12
  120 915.341 -2.47969e-10 1.46566e-12
  121 915.341 -2.46968e-10 2.16423e-12
  122 915.341 -2.44679e-10 -2.59178e-13
  123 915.341 -2.46403e-10 5.33029e-13
  124 915.341 -2.45784e-10 1.68841e-12
  125 915.341 -2.47738e-10 1.17640e-12
  126 915.341 -2.46909e-10 1.07556e-12
  127 915.341 -2.46495e-10 6.20988e-13
  128 915.341 -2.48705e-10 1.74947e-13
  129 915.341 -2.49327e-10 4.56330e-13
  130 915.341 -2.47139e-10 2.05555e-12
  131 915.341 -2.48337e-10 -1.58008e-12
  132 915.341 -2.48153e-10 -6.75907e-13
  133 915.341 -2.43494e-10 -8.02483e-13
  134 915.341 -2.46258e-10 4.98982e-13
  135 915.341 -2.49179e-10 1.15431e-12
  136 915.341 -2.49179e-10 3.62450e-12
  137 915.341 -2.47521e-10 -1.45100e-12
  138 915.341 -2.48521e-10 4.32093e-12
  139 915.341 -2.49732e-10 -6.25333e-13
  140 915.341 -2.48626e-10 2.27532e-12
  141 915.341 -2.45389e-10 9.01207e-14
  142 915.341 -2.44468e-10 2.21180e-12
  143 915.341 -2.47126e-10 -2.24074e-12
  144 915.341 -2.45058e-10 -1.31916e-12
  145 915.341 -2.48374e-10 -2.86689e-14
  146 915.341 -2.44284e-10 -3.39024e-12
  147 915.341 -2.47232e-10 -1.29313e-12
  148 915.341 -2.47232e-10 -1.98395e-13
  149 915.341 -2.47232e-10 2.95282e-12
  150 915.341 -2.47232e-10 -1.47760e-12
  151 915.341 -2.46771e-10 1.18024e-12
  152 915.341 -2.47876e-10 -2.72328e-12
  153 915.341 -2.47232e-10 2.47311e-12
  154 915.341 -2.46605e-10 2.33568e-12
  155 915.341 -2.45021e-10 3.42271e-13
  156 915.341 -2.48153e-10 -1.59399e-12
  157 915.341 -2.47995e-10 -1.51365e-14
  158 915.341 -2.44929e-10 -3.22030e-12
  159 915.341 -2.43363e-10 2.83546e-12
  160 915.341 -2.47490e-10 1.06944e-12
  161 915.341 -2.48595e-10 9.58832e-13
  162 915.341 -2.46403e-10 -1.44284e-12
  163 915.341 -2.44376e-10 -1.46556e-12
  164 915.341 -2.46968e-10 -1.89639e-12
  165 915.341 -2.47232e-10 8.30107e-13
  166 915.341 -2.44758e-10 -2.17683e-12
  167 915.341 -2.45626e-10 -1.11898e-12
  168 915.341 -2.47995e-10 6.83746e-13
  169 915.341 -2.46889e-10 1.65265e-12
  170 915.341 -2.47711e-10 -1.23852e-13
  171 915.341 -2.44363e-10 -1.79853e-13
  172 915.341 -2.49534e-10 -6.07463e-12
  173 915.341 -2.45666e-10 -2.63282e-12
  174 915.341 -2.44745e-10 5.17826e-14
  175 915.341 -2.44652e-10 1.51085e-12
  176 915.341 -2.45205e-10 1.13172e-13
  177 915.341 -2.47784e-10 -3.93534e-13
  178 915.341 -2.45758e-10 -5.02284e-12
  179 915.341 -2.49037e-10 1.00968e-12
  180 915.341 -2.49811e-10 -1.02159e-14
  181 915.341 -2.46495e-10 -9.73086e-13
  182 915.341 -2.44505e-10 2.38270e-12
  183 915.341 -2.45574e-10 -1.07614e-12
  184 915.341 -2.44395e-10 2.80165e-12
  185 915.341 -2.47692e-10 1.96866e-12
  186 915.341 -2.49037e-10 -3.02501e-12
  187 915.341 -2.47416e-10 -5.77774e-14
  188 915.341 -2.46053e-10 7.17344e-13
  189 915.341 -2.45610e-10 2.87659e-12
  190 915.341 -2.47679e-10 3.31639e-12
  191 915.341 -2.46587e-10 -1.62082e-12
  192 915.341 -2.45863e-10 -3.61562e-12
  193 915.341 -2.47268e-10 2.64014e-12
  194 915.341 -2.46587e-10 -2.21739e-12
  195 915.341 -2.47324e-10 -4.30747e-12
  196 915.341 -2.48153e-10 9.84453e-14
  197 915.341 -2.48245e-10 1.55559e-12
  198 915.341 -2.43363e-10 1.32705e-12
  199 915.341 -2.48705e-10 -1.90100e-12
  200 915.341 -2.49074e-10 2.41274e-12
  201 915.341 -2.47047e-10 -3.42165e-12
  202 915.341 -2.45389e-10 -3.33939e-13
  203 915.341 -2.45942e-10 1.57330e-12
  204 915.341 -2.48429e-10 4.56666e-12
  205 915.341 -2.47969e-10 1.56878e-12
  206 915.341 -2.51358e-10 -3.21115e-12
  207 915.341 -2.50142e-10 -4.59834e-13
  208 915.341 -2.49700e-10 1.14431e-12
  209 915.341 -2.48613e-10 -1.19934e-12
  210 915.341 -2.49811e-10 -1.65012e-12
  211 915.341 -2.47363e-10 -1.26406e-12
  212 915.341 -2.46495e-10 4.29864e-12
  213 915.341 -2.48263e-10 5.43883e-12
  214 915.341 -2.46587e-10 -1.88292e-12
  215 915.341 -2.47600e-10 4.00817e-12
  216 915.341 -2.46274e-10 -3.52085e-13
  217 915.341 -2.48061e-10 9.82921e-13
  218 915.341 -2.49995e-10 1.60507e-13
  219 915.341 -2.48816e-10 -4.95946e-12
  220 915.341 -2.47416e-10 4.78149e-12
  221 915.341 -2.46126e-10 8.25460e-13
  222 915.341 -2.48705e-10 -3.65484e-12
  223 915.341 -2.44505e-10 5.69458e-13
  224 915.341 -2.45168e-10 -8.43440e-13
  225 915.341 -2.46495e-10 3.10367e-12
  226 915.341 -2.49037e-10 -1.96347e-12
  227 915.341 -2.47600e-10 1.66087e-12
  228 915.341 -2.48263e-10 -1.73766e-12
  229 915.341 -2.49350e-10 -2.19095e-12
  230 915.341 -2.47969e-10 3.24996e-14
  231 915.341 -2.44947e-10 2.88372e-12
  232 915.341 -2.47490e-10 -1.25773e-12
  233 915.341 -2.47490e-10 -5.12371e-13
  234 915.341 -2.46126e-10 -4.92586e-12
  235 915.341 -2.49479e-10 -9.11863e-13
  236 915.341 -2.47916e-10 3.57316e-12
  237 915.341 -2.49148e-10 -4.65991e-13
  238 915.341 -2.45831e-10 1.00842e-12
  239 915.341 -2.46126e-10 1.39390e-12
  240 915.341 -2.48153e-10 -1.59379e-12
  241 915.341 -2.47047e-10 -5.35842e-13
</Section>

newXOutput 96

<Section columns = "stress_xx | stress_yy | stress_xy">
  1 896.178 -2.43005e-10 1.97089e-12
  2 896.178 -2.39518e-10 7.58710e-14
  3 896.178 -2.45687e-10 3.49307e-12
  4 896.178 -2.40322e-10 -6.26165e-13
  5 896.178 -2.41932e-10 5.85744e-12
  6 896.178 -2.40322e-10 8.68669e-12
  7 896.178 -2.36165e-10 4.15151e-12
  8 896.178 -2.37283e-10 -1.01095e-12
  9 896.178 -2.38534e-10 -1.82608e-12
  10 896.178 -2.39786e-10 -2.21847e-12
  11 896.178 -2.39428e-10 -2.46563e-12
  12 896.178 -2.39965e-10 -1.77661e-12
  13 896.178 -2.39786e-10 -2.92134e-13
  14 896.178 -2.38713e-10 1.25303e-12
  15 896.178 -2.38713e-10 2.62259e-12
  16 896.178 -2.38177e-10 4.22159e-12
  17 896.178 -2.39249e-10 2.64917e-12
  18 896.178 -2.39071e-10 9.30766e-13
  19 896.178 -2.38892e-10 -6.51803e-13
  20 896.178 -2.40144e-10 -5.69417e-13
  21 896.178 -2.39071e-10 -1.53773e-12
  22 896.178 -2.39428e-10 -1.95541e-12
  23 896.178 -2.39786e-10 -6.01222e-13
  24 896.178 -2.40322e-10 -5.25351e-13
  25 896.178 -2.40054e-10 1.13807e-13
  26 896.178 -2.40054e-10 7.71430e-13
  27 896.178 -2.37104e-10 6.20767e-13
  28 896.178 -2.40456e-10 -1.99069e-12
  29 896.178 -2.43809e-10 2.46581e-13
  30 896.178 -2.43183e-10 -6.91127e-13
  31 896.178 -2.42289e-10 9.90808e-12
  32 896.178 -2.38177e-10 1.32720e-11
  33 896.178 -2.36299e-10 4.41195e-12
  34 896.178 -2.37819e-10 2.42470e-12
  35 896.178 -2.37908e-10 2.44039e-13
  36 896.178 -2.38534e-10 -2.05433e-12
  37 896.178 -2.39428e-10 -3.35818e-12
  38 896.178 -2.39786e-10 -2.46055e-12
  39 896.178 -2.39249e-10 -1.26329e-12
  40 896.178 -2.39071e-10 2.24133e-13
  41 896.178 -2.37461e-10 2.15589e-12
  42 896.178 -2.37819e-10 1.24747e-12
  43 896.178 -2.39786e-10 3.37339e-13
  44 896.178 -2.39071e-10 9.89969e-13
  45 896.178 -2.39071e-10 1.16218e-12
  46 896.178 -2.38355e-10 7.21178e-13
  47 896.178 -2.38355e-10 -8.36240e-13
  48 896.178 -2.38534e-10 -2.48772e-12
  49 896.178 -2.39071e-10 -2.18099e-12
  50 896.178 -2.40680e-10 -1.51671e-13
  51 896.178 -2.40322e-10 1.32774e-13
  52 896.178 -2.40054e-10 7.91709e-13
  53 896.178 -2.38892e-10 2.21483e-13
  54 896.178 -2.40054e-10 -1.24068e-12
  55 896.178 -2.41932e-10 -5.31097e-13
  56 896.178 -2.43005e-10 -6.85418e-14
  57 896.178 -2.39607e-10 -1.16096e-14
  58 896.178 -2.39160e-10 -1.16846e-12
  59 896.178 -2.39020e-10 -6.41718e-13
  60 896.178 -2.38713e-10 2.57186e-12
  61 896.178 -2.39249e-10 5.52920e-12
  62 896.178 -2.38355e-10 -1.85998e-12
  63 896.178 -2.38284e-10 -3.07227e-12
  64 896.178 -2.37193e-10 5.61277e-12
  65 896.178 -2.37998e-10 3.69576e-12
  66 896.178 -2.38981e-10 -5.16708e-12
  67 896.178 -2.38087e-10 -2.67175e-12
  68 896.178 -2.41574e-10 -2.59667e-12
  69 896.178 -2.36721e-10 -8.11463e-13
  70 896.178 -2.40658e-10 1.83255e-13
  71 896.178 -2.36657e-10 1.13009e-12
  72 896.178 -2.41242e-10 1.65659e-13
  73 896.178 -2.35954e-10 2.40431e-12
  74 896.178 -2.35816e-10 1.13229e-12
  75 896.178 -2.41073e-10 -1.69848e-13
  76 896.178 -2.37461e-10 7.62115e-13
  77 896.178 -2.39071e-10 1.24711e-13
  78 896.178 -2.36836e-10 -4.20703e-13
  79 896.178 -2.39096e-10 -2.32151e-12
  80 896.178 -2.37908e-10 1.62635e-12
  81 896.178 -2.39249e-10 -2.51461e-14
  82 896.178 -2.39339e-10 -1.60396e-12
  83 896.178 -2.39697e-10 -2.44922e-12
  84 896.178 -2.35226e-10 2.58294e-12
  85 896.178 -2.38892e-10 3.67890e-12
  86 896.178 -2.39518e-10 -3.18331e-12
  87 896.178 -2.39607e-10 -1.40453e-12
  88 896.178 -2.41181e-10 -2.02017e-12
  89 896.178 -2.41073e-10 -1.08509e-13
  90 896.178 -2.37461e-10 -3.79553e-12
  91 896.178 -2.37318e-10 1.03722e-12
  92 896.178 -2.39035e-10 6.51534e-13
  93 896.178 -2.39786e-10 1.18063e-12
  94 896.178 -2.36138e-10 3.18021e-12
  95 896.178 -2.38606e-10 4.94477e-12
  96 896.178 -2.39249e-10 -3.94550e-12
  97 896.178 -2.37640e-10 -3.05255e-12
  98 896.178 -2.36996e-10 -2.08101e-12
  99 896.178 -2.41038e-10 -4.91821e-13
  100 896.178 -2.38606e-10 -4.53862e-12
  101 896.178 -2.40322e-10 -4.59931e-12
  102 896.178 -2.37855e-10 -7.75323e-13
  103 896.178 -2.37819e-10 -3.36693e-12
  104 896.178 -2.38606e-10 9.76412e-13
  105 896.178 -2.40644e-10 -5.59170e-13
  106 896.178 -2.40501e-10 1.50468e-12
  107 896.178 -2.38534e-10 3.05214e-12
  108 896.178 -2.39697e-10 2.40369e-12
  109 896.178 -2.39893e-10 -2.95684e-12
  110 896.178 -2.39464e-10 -5.00951e-12
  111 896.178 -2.37707e-10 4.25649e-13
  112 896.178 -2.40233e-10 -7.16663e-13
  113 896.178 -2.39786e-10 -2.07823e-12
  114 896.178 -2.38636e-10 -2.16739e-12
  115 896.178 -2.38892e-10 4.34900e-12
  116 896.178 -2.36138e-10 4.65554e-12
  117 896.178 -2.37283e-10 4.97560e-12
  118 896.178 -2.37193e-10 3.25321e-12
  119 896.178 -2.40552e-10 1.86825e-12
  120 896.178 -2.37104e-10 -8.37481e-13
  121 896.178 -2.39479e-10 -2.81433e-13
  122 896.178 -2.39939e-10 1.56415e-12
  123 896.178 -2.38445e-10 -9.09096e-13
  124 896.178 -2.37564e-10 1.34883e-12
  125 896.178 -2.39451e-10 -1.91321e-12
  126 896.178 -2.35964e-10 6.56355e-13
  127 896.178 -2.40399e-10 -3.06700e-12
  128 896.178 -2.37908e-10 -9.86506e-13
  129 896.178 -2.36970e-10 -4.49927e-13
  130 896.178 -2.39786e-10 -9.91523e-13
  131 896.178 -2.40501e-10 -3.19071e-12
  132 896.178 -2.39719e-10 1.92954e-12
  133 896.178 -2.38407e-10 2.92433e-12
  134 896.178 -2.37564e-10 3.50445e-12
  135 896.178 -2.38636e-10 -3.15145e-12
  136 896.178 -2.38100e-10 -2.03702e-12
  137 896.178 -2.35035e-10 7.20285e-13
  138 896.178 -2.39428e-10 -3.17387e-12
  139 896.178 -2.38866e-10 -1.56835e-12
  140 896.178 -2.39633e-10 -3.83445e-12
  141 896.178 -2.40233e-10 -8.51073e-13
  142 896.178 -2.38534e-10 -4.64520e-12
  143 896.178 -2.38330e-10 1.33493e-12
  144 896.178 -2.40322e-10 -1.61868e-13
  145 896.178 -2.36245e-10 1.31365e-12
  146 896.178 -2.38790e-10 4.53704e-12
  147 896.178 -2.39875e-10 -8.10903e-13
  148 896.178 -2.38981e-10 -9.45540e-13
  149 896.178 -2.37104e-10 -1.01684e-12
  150 896.178 -2.40233e-10 3.56600e-12
  151 896.178 -2.38713e-10 5.46469e-12
  152 896.178 -2.38892e-10 7.45039e-13
  153 896.178 -2.39249e-10 -2.88047e-12
  154 896.178 -2.38498e-10 2.02369e-12
  155 896.178 -2.37104e-10 3.53661e-12
  156 896.178 -2.38177e-10 4.13862e-12
  157 896.178 -2.38483e-10 2.98908e-12
  158 896.178 -2.37551e-10 2.94427e-12
  159 896.178 -2.39607e-10 -5.61514e-12
  160 896.178 -2.39142e-10 7.38976e-13
  161 896.178 -2.36567e-10 1.16991e-12
  162 896.178 -2.39518e-10 -1.87399e-12
  163 896.178 -2.37908e-10 2.98077e-12
  164 896.178 -2.36721e-10 1.46869e-12
  165 896.178 -2.36299e-10 -1.83602e-12
  166 896.178 -2.40859e-10 2.94493e-13
  167 896.178 -2.40629e-10 2.40136e-13
  168 896.178 -2.42008e-10 -4.70807e-13
  169 896.178 -2.41932e-10 -1.30402e-12
  170 896.178 -2.36889e-10 1.19377e-12
  171 896.178 -2.39173e-10 -4.94303e-12
  172 896.178 -2.39786e-10 1.18597e-13
  173 896.178 -2.38713e-10 2.09504e-12
  174 896.178 -2.40144e-10 -1.15529e-12
  175 896.178 -2.40054e-10 -1.08219e-12
  176 896.178 -2.42200e-10 1.90935e-12
  177 896.178 -2.43183e-10 -4.28506e-14
  178 896.178 -2.38802e-10 -1.24850e-12
  179 896.178 -2.35924e-10 3.19535e-12
  180 896.178 -2.39556e-10 -9.59743e-13
  181 896.178 -2.39607e-10 -2.57521e-12
  182 896.178 -2.39893e-10 -2.55049e-12
  183 896.178 -2.36925e-10 -1.06350e-12
  184 896.178 -2.39035e-10 3.34983e-12
  185 896.178 -2.37014e-10 -4.78455e-12
  186 896.178 -2.39571e-10 1.25130e-12
  187 896.178 -2.39428e-10 2.83022e-12
  188 896.178 -2.38606e-10 -5.34023e-13
  189 896.178 -2.40322e-10 2.05046e-12
  190 896.178 -2.37027e-10 2.06147e-13
  191 896.178 -2.39071e-10 -2.62955e-16
  192 896.178 -2.37793e-10 2.33822e-12
  193 896.178 -2.38284e-10 -1.47417e-12
  194 896.178 -2.37998e-10 2.77469e-12
  195 896.178 -2.39428e-10 1.97375e-12
  196 896.178 -2.38802e-10 -7.62552e-13
  197 896.178 -2.40322e-10 -4.00486e-12
  198 896.178 -2.38266e-10 5.06576e-13
  199 896.178 -2.39160e-10 1.33567e-12
  200 896.178 -2.38445e-10 -3.36089e-12
  201 896.178 -2.41306e-10 4.55528e-13
  202 896.178 -2.40322e-10 2.66210e-13
  203 896.178 -2.38087e-10 8.87893e-13
  204 896.178 -2.41127e-10 -7.76770e-13
  205 896.178 -2.38177e-10 -2.42787e-12
  206 896.178 -2.38928e-10 -2.24004e-12
  207 896.178 -2.37533e-10 -1.05240e-12
  208 896.178 -2.38177e-10 8.77910e-13
  209 896.178 -2.38802e-10 -1.76264e-12
  210 896.178 -2.38713e-10 -1.12089e-12
  211 896.178 -2.39556e-10 5.11575e-12
  212 896.178 -2.39571e-10 -1.88756e-12
  213 896.178 -2.38713e-10 -2.05795e-12
  214 896.178 -2.38981e-10 4.13322e-12
  215 896.178 -2.37318e-10 -2.00556e-12
  216 896.178 -2.38069e-10 -3.58556e-12
  217 896.178 -2.36567e-10 1.43116e-12
  218 896.178 -2.36478e-10 2.52893e-13
  219 896.178 -2.40859e-10 2.70832e-12
  220 896.178 -2.37551e-10 -1.96984e-12
  221 896.178 -2.40412e-10 -6.61095e-13
  222 896.178 -2.39875e-10 1.84828e-12
  223 896.178 -2.39249e-10 -5.22777e-12
  224 896.178 -2.35387e-10 7.78024e-13
  225 896.178 -2.35816e-10 1.68785e-12
  226 896.178 -2.38606e-10 -4.66283e-12
  227 896.178 -2.40948e-10 -1.41253e-12
  228 896.178 -2.40108e-10 -5.03911e-13
  229 896.178 -2.39428e-10 -3.18745e-12
  230 896.178 -2.38981e-10 -4.79258e-12
  231 896.178 -2.40001e-10 -6.09643e-12
  232 896.178 -2.38391e-10 3.26662e-12
  233 896.178 -2.38820e-10 4.82176e-12
  234 896.178 -2.39786e-10 1.70659e-12
  235 896.178 -2.38606e-10 7.80865e-13
  236 896.178 -2.38407e-10 -7.32555e-13
  237 896.178 -2.41717e-10 -3.26379e-12
  238 896.178 -2.39357e-10 3.94094e-12
  239 896.178 -2.38624e-10 -4.09417e-12
  240 896.178 -2.40215e-10 -3.26721e-12
  241 896.178 -2.39339e-10 3.33546e-12
</Section>

newXOutput 97

<Section columns = "stress_xx | stress_yy | stress_xy">
  1 877.089 -2.94879e-10 5.16916e-11
  2 877.089 -2.39703e-10 -2.00394e-11
  3 877.089 -2.14978e-10 1.00099e-11
  4 877.089 -2.93578e-10 -4.47775e-11
  5 877.089 -2.56794e-10 1.06912e-10
  6 877.089 -2.32416e-10 1.39615e-10
  7 877.089 -1.74117e-10 2.12742e-11
  8 877.089 -2.11335e-10 -8.99359e-11
  9 877.089 -2.54018e-10 -9.87496e-11
  10 877.089 -2.67552e-10 -2.57834e-11
  11 877.089 -2.72757e-10 1.11386e-10
  12 877.089 -2.72583e-10 2.10231e-10
  13 877.089 -2.52456e-10 1.69866e-10
  14 877.089 -1.94331e-10 2.09566e-10
  15 877.089 -1.41974e-10 -9.29133e-11
  16 877.089 -2.37534e-10 -1.88378e-10
  17 877.089 -2.74145e-10 -9.28899e-11
  18 877.089 -2.79871e-10 1.59187e-11
  19 877.089 -2.44128e-10 9.22145e-11
  20 877.089 -2.21572e-10 9.44555e-11
  21 877.089 -2.17581e-10 5.67554e-11
  22 877.089 -2.18622e-10 2.12071e-11
  23 877.089 -2.21745e-10 -8.91573e-12
  24 877.089 -2.04568e-10 2.87117e-11
  25 877.089 -1.51734e-10 1.42458e-11
  26 877.089 -1.69822e-10 -5.54212e-11
  27 877.089 -2.98089e-10 -1.61647e-11
  28 877.089 -2.10944e-10 6.50209e-11
  29 877.089 -1.74637e-10 -8.31616e-12
  30 877.089 -2.06476e-10 -1.96986e-11
  31 877.089 -2.07344e-10 -2.22774e-11
  32 877.089 -2.27731e-10 -5.90154e-11
  33 877.089 -2.09383e-10 -7.12708e-11
  34 877.089 -2.04221e-10 -1.51696e-10
  35 877.089 -2.30334e-10 -1.40265e-10
  36 877.089 -2.98263e-10 -1.28711e-10
  37 877.089 -3.15961e-10 1.62996e-11
  38 877.089 -3.02253e-10 1.90619e-10
  39 877.089 -2.47945e-10 2.79546e-10
  40 877.089 -1.70733e-10 1.96416e-10
  41 877.089 -1.35858e-10 -1.53842e-10
  42 877.089 -1.75939e-10 -3.44235e-10
  43 877.089 -3.14052e-10 -2.72344e-10
  44 877.089 -3.68534e-10 -2.76219e-11
  45 877.089 -2.88720e-10 1.86235e-10
  46 877.089 -1.92075e-10 1.86828e-10
  47 877.089 -1.79235e-10 2.54173e-11
  48 877.089 -1.98668e-10 -7.70166e-11
  49 877.089 -2.35973e-10 -8.61047e-11
  50 877.089 -1.90340e-10 3.46497e-11
  51 877.089 -1.70213e-10 -1.28506e-13
  52 877.089 -1.93767e-10 -5.51834e-11
  53 877.089 -3.01212e-10 -7.27625e-12
  54 877.089 -2.39313e-10 3.99661e-11
  55 877.089 -2.30854e-10 -1.21897e-11
  56 877.089 -2.70154e-10 -2.11544e-11
  57 877.089 -1.85308e-10 -8.47547e-11
  58 877.089 -2.15152e-10 -1.10850e-10
  59 877.089 -2.03006e-10 4.73864e-11
  60 877.089 -2.61305e-10 -1.91256e-10
  61 877.089 -2.02399e-10 -1.26680e-10
  62 877.089 -2.82907e-10 3.80355e-11
  63 877.089 -3.00345e-10 1.19469e-10
  64 877.089 -2.54538e-10 -1.54035e-10
  65 877.089 -2.41265e-10 -1.79889e-10
  66 877.089 -2.44215e-10 9.32251e-11
  67 877.089 -2.60177e-10 1.97534e-10
  68 877.089 -1.91901e-10 5.46495e-11
  69 877.089 -2.62867e-10 8.87744e-11
  70 877.089 -1.26228e-10 -4.24621e-11
  71 877.089 -2.88720e-10 8.08026e-11
  72 877.089 -1.60695e-10 -2.07493e-11
  73 877.089 -3.37674e-10 -1.03579e-10
  74 877.089 -3.45839e-10 -6.99971e-11
  75 877.089 -1.58969e-10 8.38152e-11
  76 877.089 -2.63561e-10 -9.47365e-11
  77 877.089 -2.59050e-10 -4.14488e-11
  78 877.089 -2.68766e-10 -2.56930e-11
  79 877.089 -2.59446e-10 7.03917e-11
  80 877.089 -2.50634e-10 1.08236e-11
  81 877.089 -2.09773e-10 -4.00896e-11
  82 877.089 -2.43868e-10 1.67191e-10
  83 877.089 -2.44388e-10 -1.29742e-11
  84 877.089 -1.98842e-10 1.46692e-11
  85 877.089 -2.88980e-10 -1.18254e-10
  86 877.089 -1.91728e-10 1.49503e-10
  87 877.089 -1.72729e-10 2.10531e-10
  88 877.089 -2.01340e-10 -1.16966e-10
  89 877.089 -2.39755e-10 -1.21931e-10
  90 877.089 -2.91930e-10 7.71573e-11
  91 877.089 -3.88731e-10 -5.27763e-11
  92 877.089 -1.66881e-10 -1.13488e-10
  93 877.089 -1.33047e-10 -1.25798e-10
  94 877.089 -3.32722e-10 -9.09894e-11
  95 877.089 -3.28037e-10 3.75040e-12
  96 877.089 -2.52283e-10 1.25668e-10
  97 877.089 -2.12376e-10 1.37107e-10
  98 877.089 -1.96552e-10 1.44255e-10
  99 877.089 -1.09224e-10 -1.55023e-10
  100 877.089 -2.70571e-10 9.85797e-11
  101 877.089 -1.91988e-10 1.76006e-11
  102 877.089 -3.09194e-10 4.64006e-11
  103 877.089 -2.40137e-10 2.24761e-10
  104 877.089 -3.15544e-10 4.29725e-11
  105 877.089 -4.74722e-11 -1.60122e-10
  106 877.089 -1.45748e-10 3.98113e-11
  107 877.089 -1.84441e-10 -1.80122e-10
  108 877.089 -1.97194e-10 -1.65465e-10
  109 877.089 -2.09773e-10 1.18592e-10
  110 877.089 -1.95094e-10 1.87008e-10
  111 877.089 -2.14328e-10 -1.02428e-10
  112 877.089 -1.51300e-10 6.35279e-11
  113 877.089 -2.37510e-10 6.28064e-11
  114 877.089 -3.06443e-10 1.04854e-10
  115 877.089 -1.98148e-10 -7.07570e-11
  116 877.089 -1.70317e-10 -6.50982e-12
  117 877.089 -3.18997e-10 -1.98041e-10
  118 877.089 -2.67291e-10 -1.35068e-10
  119 877.089 -1.40245e-10 -1.40534e-10
  120 877.089 -2.69720e-10 3.87610e-11
  121 877.089 -2.16986e-10 -1.28195e-10
  122 877.089 -1.99214e-10 -8.92124e-11
  123 877.089 -2.43607e-10 -2.73012e-11
  124 877.089 -2.52382e-10 -1.17561e-10
  125 877.089 -2.14523e-10 1.00723e-10
  126 877.089 -2.39964e-10 2.62912e-11
  127 877.089 -2.40187e-10 7.95127e-11
  128 877.089 -2.53432e-10 8.64756e-11
  129 877.089 -2.64038e-10 6.11757e-11
  130 877.089 -1.76459e-10 -1.61995e-11
  131 877.089 -1.78281e-10 -4.33289e-11
  132 877.089 -1.28115e-10 -1.54125e-10
  133 877.089 -2.98486e-10 -6.50839e-11
  134 877.089 -2.72608e-10 5.73421e-11
  135 877.089 -2.05981e-10 8.78504e-11
  136 877.089 -1.76162e-10 1.56582e-10
  137 877.089 -2.99378e-10 1.49724e-10
  138 877.089 -1.93550e-10 3.08221e-11
  139 877.089 -2.17135e-10 8.02666e-11
  140 877.089 -2.16242e-10 2.01505e-11
  141 877.089 -2.36840e-10 -9.75350e-11
  142 877.089 -2.88026e-10 4.45175e-12
  143 877.089 -2.78185e-10 -1.68796e-11
  144 877.089 -1.70109e-10 2.44781e-11
  145 877.089 -2.07483e-10 -5.82392e-11
  146 877.089 -3.53513e-10 -8.77749e-11
  147 877.089 -1.24667e-10 3.66425e-11
  148 877.089 -2.99304e-10 5.80202e-11
  149 877.089 -3.15527e-10 7.94260e-11
  150 877.089 -1.72121e-10 -1.16869e-11
  151 877.089 -1.64487e-10 -5.57835e-11
  152 877.089 -2.70848e-10 1.76325e-11
  153 877.089 -1.96066e-10 1.51153e-10
  154 877.089 -2.12271e-10 6.80792e-11
  155 877.089 -2.61132e-10 -1.41471e-10
  156 877.089 -2.04047e-10 -2.45755e-10
  157 877.089 -2.06129e-10 -2.14557e-10
  158 877.089 -2.41438e-10 -2.89088e-11
  159 877.089 -2.75360e-10 1.65347e-10
  160 877.089 -2.90247e-10 -5.67541e-11
  161 877.089 -2.87332e-10 -1.03880e-10
  162 877.089 -2.76748e-10 1.76803e-10
  163 877.089 -2.65990e-10 9.01132e-13
  164 877.089 -3.35443e-10 -7.87365e-11
  165 877.089 -2.59310e-10 4.26783e-11
  166 877.089 -1.53184e-10 2.10759e-11
  167 877.089 -1.56233e-10 4.82772e-11
  168 877.089 -1.69692e-10 -2.95798e-11
  169 877.089 -2.30074e-10 -4.16203e-11
  170 877.089 -2.93370e-10 7.66197e-11
  171 877.089 -2.67552e-10 6.96048e-11
  172 877.089 -1.70300e-10 -1.26484e-10
  173 877.089 -3.47800e-10 -1.65668e-12
  174 877.089 -2.13243e-10 4.01795e-11
  175 877.089 -2.20444e-10 6.72685e-11
  176 877.089 -2.59830e-10 -3.93923e-12
  177 877.089 -2.03960e-10 -2.81137e-11
  178 877.089 -2.55840e-10 5.90302e-11
  179 877.089 -1.76147e-10 -2.42502e-11
  180 877.089 -1.93339e-10 3.10990e-11
  181 877.089 -2.00577e-10 6.39025e-11
  182 877.089 -3.06695e-10 5.42914e-11
  183 877.089 -3.56562e-10 6.52700e-12
  184 877.089 -2.75672e-10 -1.19037e-10
  185 877.089 -2.72583e-10 -1.43298e-11
  186 877.089 -1.31902e-10 -1.48465e-10
  187 877.089 -2.16800e-10 -3.30067e-11
  188 877.089 -2.35175e-10 7.27079e-11
  189 877.089 -2.10398e-10 -2.34325e-10
  190 877.089 -3.62139e-10 -8.54382e-11
  191 877.089 -2.89067e-10 1.40449e-10
  192 877.089 -3.17151e-10 -1.10452e-10
  193 877.089 -2.79211e-10 -5.20216e-13
  194 877.089 -1.95198e-10 -9.61742e-12
  195 877.089 -2.12202e-10 -9.28541e-11
  196 877.089 -1.97888e-10 2.74612e-11
  197 877.089 -2.26343e-10 -1.85848e-11
  198 877.089 -2.73711e-10 3.64912e-11
  199 877.089 -1.71688e-10 -1.22283e-10
  200 877.089 -1.54944e-10 -1.26707e-10
  201 877.089 -1.14863e-10 4.81045e-11
  202 877.089 -1.82393e-10 -9.18057e-11
  203 877.089 -2.54972e-10 6.85037e-11
  204 877.089 -1.40803e-10 3.51642e-11
  205 877.089 -2.60611e-10 4.35893e-12
  206 877.089 -2.16228e-10 9.66319e-11
  207 877.089 -1.60323e-10 2.20470e-10
  208 877.089 -2.02590e-10 -7.65235e-11
  209 877.089 -1.93550e-10 1.68116e-10
  210 877.089 -2.11855e-10 9.34874e-11
  211 877.089 -2.12153e-10 3.71572e-11
  212 877.089 -2.19975e-10 3.39369e-11
  213 877.089 -2.10918e-10 5.26484e-11
  214 877.089 -2.56360e-10 -1.87893e-10
  215 877.089 -2.22057e-10 -5.60088e-11
  216 877.089 -2.96597e-10 5.75580e-11
  217 877.089 -2.79263e-10 2.70066e-11
  218 877.089 -2.90628e-10 -6.54962e-11
  219 877.089 -2.11959e-10 -1.31797e-10
  220 877.089 -3.25330e-10 -2.48939e-11
  221 877.089 -1.66569e-10 1.24025e-10
  222 877.089 -2.01965e-10 -4.40224e-11
  223 877.089 -2.84209e-10 4.19590e-11
  224 877.089 -2.91392e-10 1.31437e-10
  225 877.089 -3.26059e-10 -3.78412e-11
  226 877.089 -2.51415e-10 1.88633e-10
  227 877.089 -1.53643e-10 3.26157e-11
  228 877.089 -1.48871e-10 1.35101e-10
  229 877.089 -2.25389e-10 1.65503e-10
  230 877.089 -2.59050e-10 2.38823e-10
  231 877.089 -2.62867e-10 2.28572e-10
  232 877.089 -2.00820e-10 -2.29511e-10
  233 877.089 -2.51832e-10 -1.97802e-10
  234 877.089 -2.34672e-10 3.08453e-11
  235 877.089 -9.96291e-11 -6.86281e-11
  236 877.089 -2.29181e-10 -8.68256e-11
  237 877.089 -1.59073e-10 -7.15242e-11
  238 877.089 -1.89264e-10 -1.64627e-10
  239 877.089 -2.96961e-10 1.62763e-10
  240 877.089 -2.52977e-10 7.86218e-11
  241 877.089 -2.14805e-10 -1.35786e-10
</Section>

newXOutput 98

<Section columns = "stress_xx | stress_yy | stress_xy">
  1 858.073 -2.10312e-10 -7.23856e-12
  2 858.073 -2.15614e-10 3.53234e-12
  3 858.073 -2.17129e-10 -3.08504e-13
  4 858.073 -2.33035e-10 -5.35598e-12
  5 858.073 -2.16288e-10 -2.27992e-11
  6 858.073 -2.23946e-10 -3.31784e-11
  7 858.073 -2.30006e-10 -2.44476e-11
  8 858.073 -2.29248e-10 -8.88540e-12
  9 858.073 -2.30931e-10 3.17622e-12
  10 858.073 -2.26050e-10 1.97277e-11
  11 858.073 -2.20832e-10 2.31510e-11
  12 858.073 -2.19991e-10 1.67197e-11
  13 858.073 -2.22431e-10 6.87397e-12
  14 858.073 -2.27397e-10 1.15978e-11
  15 858.073 -2.32657e-10 2.19212e-11
  16 858.073 -2.22684e-10 4.06324e-11
  17 858.073 -2.11575e-10 2.12635e-11
  18 858.073 -2.07030e-10 -1.29901e-11
  19 858.073 -2.20327e-10 -3.89638e-11
  20 858.073 -2.29921e-10 -3.47993e-11
  21 858.073 -2.30595e-10 -1.22215e-11
  22 858.073 -2.27733e-10 4.81817e-12
  23 858.073 -2.21337e-10 6.84098e-12
  24 858.073 -2.37159e-10 -6.43421e-12
  25 858.073 -2.44144e-10 -8.88141e-13
  26 858.073 -2.46417e-10 4.71703e-13
  27 858.073 -2.37496e-10 7.60016e-12
  28 858.073 -2.13090e-10 8.41560e-12
  29 858.073 -2.10817e-10 -1.11906e-12
  30 858.073 -2.15278e-10 -3.57425e-12
  31 858.073 -2.17803e-10 -9.90340e-12
  32 858.073 -2.23694e-10 -1.78658e-11
  33 858.073 -2.20412e-10 -1.96625e-11
  34 858.073 -2.19486e-10 -3.36203e-11
  35 858.073 -2.26092e-10 -2.80129e-11
  36 858.073 -2.30931e-10 -1.78218e-11
  37 858.073 -2.32951e-10 -1.35169e-12
  38 858.073 -2.31773e-10 2.13716e-11
  39 858.073 -2.27902e-10 3.45276e-11
  40 858.073 -2.21001e-10 3.57627e-11
  41 858.073 -2.15614e-10 1.36653e-11
  42 858.073 -2.15446e-10 -5.24581e-12
  43 858.073 -2.25040e-10 -1.32078e-11
  44 858.073 -2.25040e-10 -8.75057e-12
  45 858.073 -2.21001e-10 -1.07922e-11
  46 858.073 -2.21842e-10 -1.59583e-11
  47 858.073 -2.21169e-10 -2.36788e-11
  48 858.073 -2.23525e-10 -2.56191e-11
  49 858.073 -2.26892e-10 -1.73366e-11
  50 858.073 -2.41704e-10 -4.26349e-12
  51 858.073 -2.48436e-10 -1.86510e-12
  52 858.073 -2.48184e-10 2.82112e-12
  53 858.073 -2.36317e-10 5.66267e-12
  54 858.073 -2.16877e-10 7.74490e-12
  55 858.073 -2.08798e-10 2.20259e-12
  56 858.073 -2.03832e-10 -1.65780e-12
  57 858.073 -2.26555e-10 4.32199e-11
  58 858.073 -2.22600e-10 5.24537e-11
  59 858.073 -2.10998e-10 -4.31092e-11
  60 858.073 -2.34971e-10 -4.09822e-12
  61 858.073 -2.34550e-10 -2.78323e-12
  62 858.073 -1.99877e-10 -2.20776e-11
  63 858.073 -1.93296e-10 -6.79412e-12
  64 858.073 -2.37075e-10 -1.26714e-11
  65 858.073 -2.33456e-10 -8.42756e-12
  66 858.073 -2.21590e-10 2.85763e-11
  67 858.073 -2.23694e-10 1.62871e-11
  68 858.073 -2.05179e-10 1.00331e-11
  69 858.073 -2.40141e-10 1.46437e-11
  70 858.073 -2.20348e-10 1.58637e-11
  71 858.073 -2.41956e-10 3.36975e-12
  72 858.073 -2.28960e-10 2.92804e-11
  73 858.073 -2.16552e-10 -3.40284e-11
  74 858.073 -2.18341e-10 -3.15664e-11
  75 858.073 -2.03799e-10 1.16056e-11
  76 858.073 -2.39179e-10 2.56029e-11
  77 858.073 -2.35981e-10 2.55805e-11
  78 858.073 -2.27313e-10 -5.83617e-12
  79 858.073 -2.12224e-10 -1.41628e-11
  80 858.073 -2.17129e-10 -5.04702e-11
  81 858.073 -2.17803e-10 1.40848e-11
  82 858.073 -2.39516e-10 2.40614e-11
  83 858.073 -2.19570e-10 2.88552e-11
  84 858.073 -2.34718e-10 -2.28172e-11
  85 858.073 -2.11491e-10 -1.48406e-11
  86 858.073 -2.35308e-10 -3.92212e-11
  87 858.073 -2.33961e-10 -2.54959e-11
  88 858.073 -2.17129e-10 -2.23681e-11
  89 858.073 -2.11676e-10 -1.08903e-11
  90 858.073 -2.33624e-10 2.42565e-12
  91 858.073 -2.11979e-10 -2.05707e-11
  92 858.073 -2.34702e-10 4.11208e-11
  93 858.073 -2.30258e-10 3.67939e-11
  94 858.073 -2.05818e-10 -2.67788e-11
  95 858.073 -2.08545e-10 3.46554e-12
  96 858.073 -2.07704e-10 -1.35707e-11
  97 858.073 -2.28844e-10 -4.75680e-11
  98 858.073 -2.20866e-10 -4.72517e-11
  99 858.073 -2.24367e-10 3.48083e-11
  100 858.073 -2.30056e-10 3.35279e-11
  101 858.073 -2.25966e-10 3.27216e-11
  102 858.073 -2.09959e-10 1.18243e-12
  103 858.073 -2.31352e-10 3.50222e-11
  104 858.073 -2.04808e-10 -1.65026e-11
  105 858.073 -2.13292e-10 2.69317e-11
  106 858.073 -2.12921e-10 -2.69729e-11
  107 858.073 -2.46921e-10 4.11982e-12
  108 858.073 -2.47426e-10 9.15283e-12
  109 858.073 -2.14201e-10 1.78317e-11
  110 858.073 -2.08545e-10 2.33130e-11
  111 858.073 -2.20980e-10 -2.13413e-11
  112 858.073 -2.06020e-10 -1.79741e-11
  113 858.073 -2.30258e-10 2.55353e-11
  114 858.073 -2.35380e-10 8.55598e-12
  115 858.073 -2.26387e-10 -2.03048e-11
  116 858.073 -2.28743e-10 -3.21063e-11
  117 858.073 -2.30763e-10 -1.20231e-11
  118 858.073 -2.24535e-10 -2.28135e-12
  119 858.073 -2.19943e-10 1.54034e-11
  120 858.073 -2.30174e-10 -3.95248e-12
  121 858.073 -2.33648e-10 3.11648e-11
  122 858.073 -2.26291e-10 -5.47196e-12
  123 858.073 -2.40946e-10 2.09427e-11
  124 858.073 -2.32494e-10 2.35190e-11
  125 858.073 -1.97941e-10 -1.66769e-11
  126 858.073 -2.35876e-10 -1.48704e-11
  127 858.073 -1.96715e-10 -1.21770e-12
  128 858.073 -2.21737e-10 -3.33322e-11
  129 858.073 -2.19086e-10 -3.67600e-11
  130 858.073 -2.13763e-10 -2.84830e-11
  131 858.073 -2.22095e-10 2.86283e-11
  132 858.073 -2.12459e-10 1.94816e-11
  133 858.073 -2.10132e-10 -8.48886e-12
  134 858.073 -2.44325e-10 6.15590e-12
  135 858.073 -2.30330e-10 -3.62215e-11
  136 858.073 -2.22900e-10 -3.27575e-11
  137 858.073 -2.39708e-10 4.94124e-12
  138 858.073 -1.98278e-10 -2.92900e-11
  139 858.073 -2.30186e-10 3.75408e-11
  140 858.073 -2.26940e-10 4.93506e-11
  141 858.073 -2.22852e-10 7.65224e-12
  142 858.073 -2.29753e-10 1.72449e-12
  143 858.073 -2.16913e-10 2.68252e-12
  144 858.073 -2.33490e-10 2.31817e-11
  145 858.073 -2.19654e-10 -1.93318e-11
  146 858.073 -2.19582e-10 -1.14573e-11
  147 858.073 -2.20832e-10 3.03374e-11
  148 858.073 -2.26976e-10 1.37664e-11
  149 858.073 -2.29921e-10 2.21001e-11
  150 858.073 -2.18055e-10 -2.80008e-11
  151 858.073 -2.35308e-10 5.90675e-12
  152 858.073 -2.18139e-10 1.73718e-11
  153 858.073 -2.07788e-10 -2.43848e-11
  154 858.073 -2.15816e-10 -5.49665e-11
  155 858.073 -2.39431e-10 3.22022e-12
  156 858.073 -2.41583e-10 1.52915e-11
  157 858.073 -2.39059e-10 2.10538e-11
  158 858.073 -2.25377e-10 -1.77240e-11
  159 858.073 -2.01897e-10 4.89012e-12
  160 858.073 -2.41468e-10 1.31379e-11
  161 858.073 -2.45205e-10 9.71889e-12
  162 858.073 -2.04253e-10 -9.95879e-12
  163 858.073 -2.23020e-10 -3.99724e-11
  164 858.073 -2.03135e-10 -3.17021e-11
  165 858.073 -2.37075e-10 5.70923e-12
  166 858.073 -2.46849e-10 -8.96241e-12
  167 858.073 -2.44685e-10 -9.27031e-12
  168 858.073 -2.08834e-10 -6.54972e-12
  169 858.073 -2.05804e-10 2.73685e-12
  170 858.073 -2.31571e-10 -1.20444e-11
  171 858.073 -2.22251e-10 1.48494e-11
  172 858.073 -2.24956e-10 1.35818e-11
  173 858.073 -2.19654e-10 -2.45333e-11
  174 858.073 -2.27060e-10 -1.48892e-11
  175 858.073 -2.33288e-10 -1.33291e-11
  176 858.073 -2.09723e-10 -1.26424e-11
  177 858.073 -2.16540e-10 -7.53455e-12
  178 858.073 -2.20412e-10 2.43407e-11
  179 858.073 -2.30965e-10 -2.60300e-11
  180 858.073 -2.30186e-10 4.60771e-11
  181 858.073 -2.15362e-10 3.96356e-11
  182 858.073 -2.33591e-10 1.43519e-11
  183 858.073 -2.05684e-10 -6.46560e-12
  184 858.073 -2.16321e-10 1.35574e-11
  185 858.073 -2.28827e-10 1.81744e-11
  186 858.073 -2.31268e-10 1.35248e-11
  187 858.073 -2.20664e-10 -1.16384e-11
  188 858.073 -2.15211e-10 -3.13465e-11
  189 858.073 -2.33490e-10 1.11365e-11
  190 858.073 -2.11286e-10 -2.94686e-11
  191 858.073 -2.04253e-10 -1.45057e-11
  192 858.073 -2.00250e-10 -2.29154e-11
  193 858.073 -2.32278e-10 -8.44769e-12
  194 858.073 -2.42209e-10 -8.53002e-12
  195 858.073 -2.43387e-10 -1.13638e-11
  196 858.073 -2.16624e-10 -3.12926e-12
  197 858.073 -2.13426e-10 1.70860e-11
  198 858.073 -2.10733e-10 -1.68649e-11
  199 858.073 -2.29669e-10 3.04631e-11
  200 858.073 -2.26050e-10 5.63666e-11
  201 858.073 -2.09387e-10 1.58913e-11
  202 858.073 -2.38135e-10 2.24169e-11
  203 858.073 -2.37580e-10 1.67668e-11
  204 858.073 -2.21590e-10 2.98559e-11
  205 858.073 -2.33624e-10 3.74932e-11
  206 858.073 -2.32783e-10 -3.92539e-11
  207 858.073 -2.19856e-10 -2.51375e-11
  208 858.073 -2.21472e-10 -2.24476e-11
  209 858.073 -2.32194e-10 -3.33701e-11
  210 858.073 -2.31268e-10 -3.55577e-11
  211 858.073 -2.22251e-10 -2.84196e-11
  212 858.073 -2.25814e-10 -1.74935e-11
  213 858.073 -2.25714e-10 -2.43712e-11
  214 858.073 -2.19065e-10 6.25019e-12
  215 858.073 -2.30056e-10 4.29339e-11
  216 858.073 -1.99355e-10 -6.20307e-13
  217 858.073 -2.23610e-10 -2.95387e-11
  218 858.073 -2.23189e-10 -3.79008e-11
  219 858.073 -2.10868e-10 -1.64418e-12
  220 858.073 -2.01812e-10 -1.88935e-11
  221 858.073 -2.08124e-10 -2.41817e-11
  222 858.073 -2.26723e-10 3.61493e-11
  223 858.073 -2.24704e-10 1.31424e-11
  224 858.073 -2.42175e-10 -6.60687e-12
  225 858.073 -2.09151e-10 -2.58612e-11
  226 858.073 -2.26016e-10 3.74846e-11
  227 858.073 -2.13847e-10 2.19828e-11
  228 858.073 -2.02082e-10 -1.46126e-11
  229 858.073 -2.20496e-10 2.60838e-11
  230 858.073 -2.18223e-10 4.19504e-11
  231 858.073 -1.90569e-10 -9.66816e-13
  232 858.073 -2.33995e-10 1.73382e-11
  233 858.073 -2.39549e-10 1.77880e-11
  234 858.073 -2.06105e-10 1.31357e-11
  235 858.073 -2.14706e-10 2.21701e-11
  236 858.073 -2.21313e-10 -7.50618e-12
  237 858.073 -2.24603e-10 5.16399e-11
  238 858.073 -2.27228e-10 -1.40065e-11
  239 858.073 -2.03411e-10 1.12036e-11
  240 858.073 -2.19755e-10 1.20217e-11
  241 858.073 -2.22936e-10 1.17153e-11
</Section>

newXOutput 99

<Section columns = "stress_xx | stress_yy | stress_xy">
  1 839.130 -2.18404e-10 1.94124e-13
  2 839.130 -2.16445e-10 4.32861e-13
  3 839.130 -2.16935e-10 2.17168e-12
  4 839.130 -2.14486e-10 1.32524e-12
  5 839.130 -2.17751e-10 3.83325e-13
  6 839.130 -2.15710e-10 1.00318e-12
  7 839.130 -2.16078e-10 8.84260e-13
  8 839.130 -2.15139e-10 -8.29949e-14
  9 839.130 -2.13996e-10 -3.36804e-12
  10 839.130 -2.15629e-10 -8.20989e-12
  11 839.130 -2.18077e-10 -5.92360e-12
  12 839.130 -2.18730e-10 -1.35053e-12
  13 839.130 -2.19628e-10 5.78680e-12
  14 839.130 -2.15629e-10 9.53259e-12
  15 839.130 -2.13996e-10 2.11592e-12
  16 839.130 -2.15792e-10 3.52882e-13
  17 839.130 -2.15792e-10 -6.36630e-13
  18 839.130 -2.16771e-10 3.67752e-13
  19 839.130 -2.16282e-10 5.04001e-13
  20 839.130 -2.16118e-10 8.38393e-13
  21 839.130 -2.15955e-10 4.87924e-13
  22 839.130 -2.15629e-10 -1.21619e-12
  23 839.130 -2.15955e-10 -5.47406e-13
  24 839.130 -2.16282e-10 -2.06182e-13
  25 839.130 -2.15955e-10 -6.87274e-14
  26 839.130 -2.16812e-10 -4.82259e-13
  27 839.130 -2.17424e-10 2.17637e-13
  28 839.130 -2.15343e-10 1.05819e-12
  29 839.130 -2.15465e-10 -5.49819e-13
  30 839.130 -2.17098e-10 -1.21300e-12
  31 839.130 -2.16282e-10 3.40515e-12
  32 839.130 -2.15955e-10 3.45895e-12
  33 839.130 -2.14853e-10 1.72560e-12
  34 839.130 -2.14813e-10 -1.13975e-12
  35 839.130 -2.13507e-10 -4.85396e-12
  36 839.130 -2.17751e-10 -8.38832e-12
  37 839.130 -2.18730e-10 -5.24311e-12
  38 839.130 -2.20199e-10 8.52315e-13
  39 839.130 -2.18893e-10 6.69707e-12
  40 839.130 -2.15792e-10 1.03101e-11
  41 839.130 -2.13507e-10 5.76710e-12
  42 839.130 -2.12854e-10 -1.33613e-12
  43 839.130 -2.15302e-10 -5.56508e-12
  44 839.130 -2.18077e-10 -4.67337e-12
  45 839.130 -2.17751e-10 -1.55515e-12
  46 839.130 -2.16608e-10 3.68418e-13
  47 839.130 -2.15955e-10 1.47568e-12
  48 839.130 -2.16118e-10 2.12382e-12
  49 839.130 -2.15629e-10 2.32423e-12
  50 839.130 -2.13017e-10 -2.21605e-13
  51 839.130 -2.15221e-10 -5.84183e-13
  52 839.130 -2.16812e-10 -6.81904e-14
  53 839.130 -2.15302e-10 8.90440e-13
  54 839.130 -2.14486e-10 -5.77625e-13
  55 839.130 -2.15955e-10 -2.74909e-13
  56 839.130 -2.17098e-10 -9.31938e-14
  57 839.130 -2.16853e-10 7.11789e-13
  58 839.130 -2.15302e-10 2.03544e-12
  59 839.130 -2.16165e-10 -2.04120e-12
  60 839.130 -2.17751e-10 -2.60817e-12
  61 839.130 -2.17996e-10 -8.79435e-14
  62 839.130 -2.16363e-10 2.31574e-12
  63 839.130 -2.14094e-10 1.84780e-12
  64 839.130 -2.16037e-10 -2.10558e-12
  65 839.130 -2.16118e-10 -2.20979e-12
  66 839.130 -2.14894e-10 -1.35403e-12
  67 839.130 -2.16853e-10 1.02302e-12
  68 839.130 -2.15302e-10 1.55222e-12
  69 839.130 -2.16865e-10 2.09522e-12
  70 839.130 -2.16322e-10 -7.00438e-13
  71 839.130 -2.15710e-10 -1.51781e-12
  72 839.130 -2.17074e-10 -1.15055e-12
  73 839.130 -2.17005e-10 -7.18707e-13
  74 839.130 -2.16445e-10 7.57369e-13
  75 839.130 -2.14290e-10 -4.66170e-13
  76 839.130 -2.17098e-10 6.91392e-13
  77 839.130 -2.15547e-10 3.17644e-12
  78 839.130 -2.14731e-10 -3.21213e-12
  79 839.130 -2.15465e-10 -1.38578e-12
  80 839.130 -2.17506e-10 -2.23065e-12
  81 839.130 -2.16608e-10 -6.25477e-13
  82 839.130 -2.18159e-10 4.74185e-12
  83 839.130 -2.16608e-10 -1.90007e-12
  84 839.130 -2.14894e-10 -3.07203e-12
  85 839.130 -2.15139e-10 4.67326e-13
  86 839.130 -2.16282e-10 8.43065e-13
  87 839.130 -2.14976e-10 -6.51484e-14
  88 839.130 -2.16249e-10 -5.01000e-12
  89 839.130 -2.16347e-10 -8.59739e-13
  90 839.130 -2.17996e-10 3.57217e-12
  91 839.130 -2.16543e-10 8.55294e-13
  92 839.130 -2.16935e-10 4.32829e-12
  93 839.130 -2.15563e-10 3.94066e-12
  94 839.130 -2.16347e-10 -1.25873e-12
  95 839.130 -2.13801e-10 3.63454e-12
  96 839.130 -2.16608e-10 -1.29775e-12
  97 839.130 -2.15955e-10 -1.68273e-12
  98 839.130 -2.17816e-10 1.32702e-12
  99 839.130 -2.15547e-10 -1.18555e-12
  100 839.130 -2.17033e-10 1.09527e-12
  101 839.130 -2.17343e-10 1.44036e-12
  102 839.130 -2.15955e-10 1.37069e-12
  103 839.130 -2.16118e-10 2.49483e-12
  104 839.130 -2.16347e-10 3.15253e-12
  105 839.130 -2.15465e-10 -1.72962e-12
  106 839.130 -2.16690e-10 -2.47097e-12
  107 839.130 -2.16690e-10 -9.92601e-13
  108 839.130 -2.16853e-10 4.55588e-13
  109 839.130 -2.14388e-10 -1.57096e-12
  110 839.130 -2.13507e-10 3.28999e-12
  111 839.130 -2.15159e-10 -4.27969e-12
  112 839.130 -2.15139e-10 -2.13122e-13
  113 839.130 -2.18753e-10 1.13771e-12
  114 839.130 -2.18124e-10 1.68778e-14
  115 839.130 -2.17179e-10 -6.50274e-13
  116 839.130 -2.15955e-10 2.14381e-13
  117 839.130 -2.16690e-10 -2.08051e-12
  118 839.130 -2.14813e-10 2.79259e-13
  119 839.130 -2.14206e-10 3.27186e-13
  120 839.130 -2.14404e-10 -6.82712e-13
  121 839.130 -2.17214e-10 1.81906e-12
  122 839.130 -2.16935e-10 -1.27615e-12
  123 839.130 -2.17424e-10 1.50768e-12
  124 839.130 -2.16725e-10 -8.16289e-13
  125 839.130 -2.15710e-10 4.96926e-13
  126 839.130 -2.15527e-10 -1.20262e-12
  127 839.130 -2.15326e-10 2.61213e-12
  128 839.130 -2.16200e-10 -1.27906e-12
  129 839.130 -2.17118e-10 -6.60466e-13
  130 839.130 -2.16526e-10 -1.36510e-12
  131 839.130 -2.17914e-10 1.59326e-12
  132 839.130 -2.13996e-10 1.17375e-12
  133 839.130 -2.15815e-10 -1.25759e-12
  134 839.130 -2.17214e-10 -2.51360e-12
  135 839.130 -2.15675e-10 -1.16267e-13
  136 839.130 -2.16235e-10 3.52523e-12
  137 839.130 -2.16445e-10 1.60504e-12
  138 839.130 -2.15547e-10 -3.42243e-13
  139 839.130 -2.16095e-10 1.48166e-12
  140 839.130 -2.15815e-10 2.66598e-12
  141 839.130 -2.16853e-10 2.49161e-13
  142 839.130 -2.15302e-10 1.06929e-12
  143 839.130 -2.15326e-10 8.21067e-13
  144 839.130 -2.17424e-10 2.06105e-12
  145 839.130 -2.14388e-10 -1.08047e-12
  146 839.130 -2.16025e-10 1.94097e-13
  147 839.130 -2.16200e-10 3.03767e-12
  148 839.130 -2.14160e-10 8.20557e-13
  149 839.130 -2.16935e-10 1.60675e-12
  150 839.130 -2.16771e-10 -2.07514e-12
  151 839.130 -2.18404e-10 -2.51533e-12
  152 839.130 -2.15874e-10 1.40439e-12
  153 839.130 -2.16363e-10 -1.69007e-12
  154 839.130 -2.17130e-10 -1.98043e-12
  155 839.130 -2.17179e-10 -1.62198e-12
  156 839.130 -2.15955e-10 -6.34693e-13
  157 839.130 -2.15675e-10 2.07623e-12
  158 839.130 -2.17424e-10 -1.15110e-12
  159 839.130 -2.16771e-10 -8.26173e-14
  160 839.130 -2.16053e-10 2.04634e-12
  161 839.130 -2.17914e-10 2.92754e-13
  162 839.130 -2.15955e-10 -1.13747e-12
  163 839.130 -2.17261e-10 -1.70291e-12
  164 839.130 -2.15815e-10 3.45144e-13
  165 839.130 -2.16200e-10 -8.80505e-13
  166 839.130 -2.14836e-10 -1.93316e-12
  167 839.130 -2.16305e-10 -6.80016e-13
  168 839.130 -2.14836e-10 -2.45860e-12
  169 839.130 -2.16025e-10 -7.29743e-13
  170 839.130 -2.17033e-10 -2.05928e-12
  171 839.130 -2.18264e-10 2.57892e-12
  172 839.130 -2.16526e-10 5.09373e-13
  173 839.130 -2.17343e-10 -1.22034e-12
  174 839.130 -2.16118e-10 5.91064e-13
  175 839.130 -2.14323e-10 1.54609e-12
  176 839.130 -2.17424e-10 6.76472e-14
  177 839.130 -2.16935e-10 -5.14819e-13
  178 839.130 -2.15547e-10 -1.60899e-12
  179 839.130 -2.15857e-10 6.42359e-13
  180 839.130 -2.17005e-10 7.81557e-13
  181 839.130 -2.15139e-10 1.85202e-12
  182 839.130 -2.18991e-10 -1.35587e-12
  183 839.130 -2.15221e-10 5.54541e-13
  184 839.130 -2.15465e-10 -6.41333e-13
  185 839.130 -2.15302e-10 -5.58170e-13
  186 839.130 -2.14192e-10 8.18678e-14
  187 839.130 -2.15955e-10 1.95234e-12
  188 839.130 -2.16053e-10 -1.95991e-12
  189 839.130 -2.17228e-10 3.26337e-12
  190 839.130 -2.16935e-10 1.61991e-12
  191 839.130 -2.16363e-10 1.44415e-12
  192 839.130 -2.15396e-10 1.47841e-12
  193 839.130 -2.16347e-10 -2.90319e-12
  194 839.130 -2.16853e-10 -1.46543e-12
  195 839.130 -2.16363e-10 -4.34131e-12
  196 839.130 -2.14404e-10 -2.47805e-12
  197 839.130 -2.14568e-10 -2.01438e-12
  198 839.130 -2.16118e-10 -9.48716e-13
  199 839.130 -2.15874e-10 1.19534e-12
  200 839.130 -2.14241e-10 2.50970e-12
  201 839.130 -2.15057e-10 -5.90457e-13
  202 839.130 -2.17326e-10 8.50892e-13
  203 839.130 -2.18240e-10 -2.03203e-12
  204 839.130 -2.17424e-10 1.26579e-12
  205 839.130 -2.16690e-10 8.98177e-13
  206 839.130 -2.16249e-10 -6.24568e-14
  207 839.130 -2.16151e-10 3.09106e-12
  208 839.130 -2.12625e-10 -2.36686e-12
  209 839.130 -2.16037e-10 3.18869e-13
  210 839.130 -2.17506e-10 -3.58764e-12
  211 839.130 -2.16445e-10 2.50536e-13
  212 839.130 -2.15759e-10 -1.11109e-13
  213 839.130 -2.15759e-10 3.46812e-12
  214 839.130 -2.13752e-10 2.71019e-13
  215 839.130 -2.15172e-10 2.25290e-13
  216 839.130 -2.14290e-10 -8.22119e-13
  217 839.130 -2.16608e-10 -2.64760e-13
  218 839.130 -2.17098e-10 -2.75373e-12
  219 839.130 -2.14682e-10 1.96916e-12
  220 839.130 -2.16037e-10 2.47735e-12
  221 839.130 -2.16118e-10 -1.61594e-12
  222 839.130 -2.15874e-10 2.20379e-12
  223 839.130 -2.17033e-10 -6.09545e-13
  224 839.130 -2.16641e-10 -6.04196e-13
  225 839.130 -2.16445e-10 -1.63734e-12
  226 839.130 -2.16053e-10 -7.52533e-13
  227 839.130 -2.15547e-10 1.42915e-12
  228 839.130 -2.14780e-10 -2.18240e-13
  229 839.130 -2.15057e-10 -4.05606e-13
  230 839.130 -2.16037e-10 3.49404e-12
  231 839.130 -2.14878e-10 2.26559e-12
  232 839.130 -2.14976e-10 1.20250e-13
  233 839.130 -2.16739e-10 -2.89637e-12
  234 839.130 -2.13833e-10 1.71508e-12
  235 839.130 -2.14584e-10 4.13752e-12
  236 839.130 -2.15116e-10 -2.32464e-12
  237 839.130 -2.16837e-10 -1.07646e-12
  238 839.130 -2.17718e-10 1.47330e-12
  239 839.130 -2.15139e-10 1.65563e-12
  240 839.130 -2.19089e-10 4.02639e-12
  241 839.130 -2.14731e-10 -2.64458e-13
</Section>

newXOutput 100

<Section columns = "stress_xx | stress_yy | stress_xy">
  1 820.259 -2.12211e-10 3.27127e-12
  2 820.259 -2.10787e-10 2.65834e-13
  3 820.259 -2.05328e-10 -1.42225e-12
  4 820.259 -2.09126e-10 1.10465e-14
  5 820.259 -2.09521e-10 6.73507e-12
  6 820.259 -2.09838e-10 9.12583e-12
  7 820.259 -2.05446e-10 1.05681e-12
  8 820.259 -2.05881e-10 -6.88221e-12
  9 820.259 -2.06356e-10 -1.23182e-11
  10 820.259 -2.09046e-10 -1.66407e-11
  11 820.259 -2.11895e-10 -8.29999e-12
  12 820.259 -2.13003e-10 2.36754e-12
  13 820.259 -2.15416e-10 1.37623e-11
  14 820.259 -2.07622e-10 2.08535e-11
  15 820.259 -2.04378e-10 4.00946e-12
  16 820.259 -2.07464e-10 -3.22428e-12
  17 820.259 -2.10312e-10 -3.10805e-12
  18 820.259 -2.10945e-10 5.45481e-13
  19 820.259 -2.08888e-10 3.32957e-12
  20 820.259 -2.07622e-10 1.92300e-12
  21 820.259 -2.07464e-10 -1.81080e-12
  22 820.259 -2.08097e-10 -2.39225e-12
  23 820.259 -2.09996e-10 -1.14765e-12
  24 820.259 -2.09521e-10 2.21528e-13
  25 820.259 -2.09838e-10 0.00000
  26 820.259 -2.08769e-10 1.16295e-12
  27 820.259 -2.04615e-10 1.69182e-12
  28 820.259 -2.01886e-10 -2.14892e-13
  29 820.259 -2.04378e-10 -3.32292e-14
  30 820.259 -2.05407e-10 -6.90795e-13
  31 820.259 -2.06989e-10 -5.17993e-12
  32 820.259 -2.09126e-10 -8.73089e-12
  33 820.259 -2.09482e-10 -6.49867e-12
  34 820.259 -2.09521e-10 -7.07082e-12
  35 820.259 -2.10194e-10 -4.51991e-12
  36 820.259 -2.08413e-10 -3.77275e-13
  37 820.259 -2.09838e-10 5.94046e-13
  38 820.259 -2.09679e-10 8.43732e-13
  39 820.259 -2.09679e-10 1.17359e-12
  40 820.259 -2.09363e-10 2.05165e-12
  41 820.259 -2.08730e-10 2.68046e-12
  42 820.259 -2.08413e-10 2.45167e-12
  43 820.259 -2.08255e-10 1.88518e-12
  44 820.259 -2.07939e-10 9.28485e-13
  45 820.259 -2.08097e-10 -9.68431e-13
  46 820.259 -2.08255e-10 -1.21582e-12
  47 820.259 -2.08730e-10 -5.74501e-13
  48 820.259 -2.09838e-10 -2.72849e-13
  49 820.259 -2.09521e-10 -1.68043e-13
  50 820.259 -2.09363e-10 -4.31682e-15
  51 820.259 -2.09363e-10 1.49531e-13
  52 820.259 -2.08295e-10 8.12437e-13
  53 820.259 -2.05407e-10 1.26020e-12
  54 820.259 -2.03547e-10 -5.93032e-13
  55 820.259 -2.06989e-10 -1.26271e-12
  56 820.259 -2.11104e-10 -1.68613e-12
  57 820.259 -2.06910e-10 4.76399e-12
  58 820.259 -2.08572e-10 6.41148e-12
  59 820.259 -2.12754e-10 -6.11373e-12
  60 820.259 -2.12844e-10 -3.88299e-12
  61 820.259 -2.14506e-10 -3.42003e-12
  62 820.259 -2.07701e-10 5.22312e-12
  63 820.259 -2.07654e-10 6.49888e-12
  64 820.259 -2.07147e-10 2.63162e-12
  65 820.259 -2.07939e-10 3.72535e-12
  66 820.259 -2.05644e-10 -4.05666e-12
  67 820.259 -2.06119e-10 -3.26111e-12
  68 820.259 -2.09126e-10 3.76840e-12
  69 820.259 -2.12550e-10 -6.44966e-12
  70 820.259 -2.10490e-10 1.35654e-12
  71 820.259 -2.09046e-10 -5.94709e-12
  72 820.259 -2.12415e-10 -2.20866e-12
  73 820.259 -2.08278e-10 4.45639e-12
  74 820.259 -2.07654e-10 3.40082e-12
  75 820.259 -2.09078e-10 4.98955e-12
  76 820.259 -2.04536e-10 5.70444e-12
  77 820.259 -2.05961e-10 4.36117e-12
  78 820.259 -2.10075e-10 -7.94375e-12
  79 820.259 -2.13364e-10 -4.14234e-12
  80 820.259 -2.11578e-10 -4.62581e-12
  81 820.259 -2.10787e-10 1.02173e-12
  82 820.259 -2.13003e-10 -2.85282e-12
  83 820.259 -2.10787e-10 1.19891e-12
  84 820.259 -2.05644e-10 -8.77559e-12
  85 820.259 -2.07780e-10 6.44405e-12
  86 820.259 -2.07939e-10 1.59095e-12
  87 820.259 -2.09600e-10 -6.86431e-13
  88 820.259 -2.05280e-10 -4.04947e-12
  89 820.259 -2.08508e-10 -9.36022e-12
  90 820.259 -2.13794e-10 3.24194e-13
  91 820.259 -2.08034e-10 3.71453e-12
  92 820.259 -2.05185e-10 6.92680e-12
  93 820.259 -2.07274e-10 9.28791e-12
  94 820.259 -2.09553e-10 9.22660e-13
  95 820.259 -2.07654e-10 3.62284e-12
  96 820.259 -2.10629e-10 -7.72842e-13
  97 820.259 -2.08129e-10 5.77758e-13
  98 820.259 -2.08983e-10 -8.60718e-13
  99 820.259 -2.05961e-10 -2.91827e-12
  100 820.259 -2.08793e-10 -2.87799e-13
  101 820.259 -2.12449e-10 -3.21986e-12
  102 820.259 -2.08224e-10 5.67138e-12
  103 820.259 -2.07939e-10 -1.34574e-12
  104 820.259 -2.07179e-10 6.63195e-12
  105 820.259 -2.08983e-10 5.32182e-12
  106 820.259 -2.11420e-10 -4.45109e-12
  107 820.259 -2.07147e-10 3.61894e-12
  108 820.259 -2.08255e-10 2.52369e-12
  109 820.259 -2.02622e-10 -6.51807e-13
  110 820.259 -2.01672e-10 -1.97638e-13
  111 820.259 -2.07998e-10 -6.62938e-12
  112 820.259 -2.10629e-10 -2.06753e-12
  113 820.259 -2.10312e-10 2.16197e-12
  114 820.259 -2.10584e-10 -3.00581e-12
  115 820.259 -2.14902e-10 -4.06056e-12
  116 820.259 -2.05945e-10 -1.74892e-12
  117 820.259 -2.06435e-10 5.07955e-12
  118 820.259 -2.06831e-10 5.52188e-12
  119 820.259 -2.05497e-10 3.32494e-12
  120 820.259 -2.11104e-10 -7.27207e-12
  121 820.259 -2.09770e-10 -9.85923e-13
  122 820.259 -2.12415e-10 -4.61247e-12
  123 820.259 -2.13952e-10 -5.04279e-12
  124 820.259 -2.11194e-10 4.63887e-13
  125 820.259 -2.09422e-10 3.13372e-12
  126 820.259 -2.07286e-10 -5.91979e-12
  127 820.259 -2.08549e-10 5.33686e-12
  128 820.259 -2.08948e-10 4.30147e-13
  129 820.259 -2.08769e-10 -1.30472e-14
  130 820.259 -2.12291e-10 -4.90985e-12
  131 820.259 -2.12844e-10 -4.14833e-13
  132 820.259 -2.08829e-10 4.03611e-12
  133 820.259 -2.09363e-10 1.96108e-13
  134 820.259 -2.12550e-10 -5.52600e-12
  135 820.259 -2.07939e-10 1.45698e-12
  136 820.259 -2.09092e-10 -1.23136e-12
  137 820.259 -2.10245e-10 -6.22882e-12
  138 820.259 -2.11816e-10 -2.62458e-12
  139 820.259 -2.05090e-10 4.70548e-12
  140 820.259 -2.06040e-10 4.96016e-12
  141 820.259 -2.12924e-10 -3.18644e-12
  142 820.259 -2.09838e-10 -4.32387e-12
  143 820.259 -2.06718e-10 7.35272e-12
  144 820.259 -2.12021e-10 -1.94343e-12
  145 820.259 -2.09648e-10 -6.34217e-12
  146 820.259 -2.08006e-10 1.92537e-12
  147 820.259 -2.09679e-10 3.34403e-12
  148 820.259 -2.04220e-10 1.96526e-12
  149 820.259 -2.02321e-10 1.21973e-12
  150 820.259 -2.13477e-10 -4.57423e-12
  151 820.259 -2.14269e-10 -3.45808e-12
  152 820.259 -2.06910e-10 4.78007e-12
  153 820.259 -2.11025e-10 -2.42108e-12
  154 820.259 -2.11547e-10 -5.74037e-12
  155 820.259 -2.12607e-10 -2.68907e-12
  156 820.259 -2.05701e-10 6.81936e-12
  157 820.259 -2.06786e-10 4.88495e-12
  158 820.259 -2.11816e-10 -1.94044e-12
  159 820.259 -2.09600e-10 8.36026e-13
  160 820.259 -2.06609e-10 2.53101e-12
  161 820.259 -2.06704e-10 3.72223e-12
  162 820.259 -2.10471e-10 1.78336e-12
  163 820.259 -2.12132e-10 -3.72865e-12
  164 820.259 -2.08346e-10 6.88665e-12
  165 820.259 -2.07939e-10 -7.56931e-12
  166 820.259 -2.09566e-10 2.79436e-13
  167 820.259 -2.08481e-10 -4.57434e-13
  168 820.259 -2.03327e-10 -1.67729e-12
  169 820.259 -2.07125e-10 -4.59465e-12
  170 820.259 -2.08508e-10 -7.10743e-12
  171 820.259 -2.13975e-10 5.42762e-13
  172 820.259 -2.08888e-10 8.58104e-13
  173 820.259 -2.08097e-10 8.38211e-13
  174 820.259 -2.09284e-10 8.35373e-13
  175 820.259 -2.09284e-10 -3.53481e-13
  176 820.259 -2.10233e-10 -7.67604e-13
  177 820.259 -2.05407e-10 -1.72762e-12
  178 820.259 -2.08255e-10 6.07405e-12
  179 820.259 -2.05850e-10 -2.19457e-12
  180 820.259 -2.06175e-10 3.56620e-12
  181 820.259 -2.09046e-10 3.28357e-12
  182 820.259 -2.10597e-10 1.41876e-12
  183 820.259 -2.07622e-10 5.27348e-12
  184 820.259 -2.08508e-10 -1.20153e-12
  185 820.259 -2.06989e-10 -8.98645e-12
  186 820.259 -2.03666e-10 9.03530e-13
  187 820.259 -2.08018e-10 -4.13957e-12
  188 820.259 -2.13446e-10 -7.07851e-12
  189 820.259 -2.13066e-10 -2.64953e-12
  190 820.259 -2.07803e-10 3.91685e-12
  191 820.259 -2.07939e-10 5.32815e-12
  192 820.259 -2.07667e-10 7.39395e-12
  193 820.259 -2.10217e-10 -4.50520e-12
  194 820.259 -2.07227e-10 -5.52951e-13
  195 820.259 -2.09284e-10 1.87689e-12
  196 820.259 -2.04141e-10 -4.15261e-12
  197 820.259 -2.04299e-10 -8.01883e-12
  198 820.259 -2.10392e-10 -3.46106e-13
  199 820.259 -2.05961e-10 7.75727e-12
  200 820.259 -2.07780e-10 6.37661e-12
  201 820.259 -2.09838e-10 3.97030e-12
  202 820.259 -2.13826e-10 -4.25839e-12
  203 820.259 -2.13873e-10 -4.55276e-12
  204 820.259 -2.10629e-10 4.17807e-12
  205 820.259 -2.08967e-10 -1.29288e-12
  206 820.259 -2.07084e-10 1.67839e-12
  207 820.259 -2.09078e-10 -1.33636e-12
  208 820.259 -2.10028e-10 -6.18148e-12
  209 820.259 -2.08572e-10 -7.33627e-13
  210 820.259 -2.09046e-10 4.31909e-13
  211 820.259 -2.07871e-10 1.41856e-12
  212 820.259 -2.08508e-10 7.93142e-13
  213 820.259 -2.09458e-10 -7.40253e-13
  214 820.259 -2.08334e-10 2.93351e-12
  215 820.259 -2.09268e-10 1.08721e-12
  216 820.259 -2.08129e-10 6.30976e-12
  217 820.259 -2.09046e-10 5.94998e-13
  218 820.259 -2.07939e-10 2.20808e-12
  219 820.259 -2.07179e-10 8.88037e-12
  220 820.259 -2.07306e-10 5.75184e-12
  221 820.259 -2.09996e-10 -3.47190e-12
  222 820.259 -2.06514e-10 6.05635e-12
  223 820.259 -2.12686e-10 -5.04102e-12
  224 820.259 -2.10312e-10 -3.13659e-12
  225 820.259 -2.09838e-10 -2.72441e-13
  226 820.259 -2.06135e-10 1.49828e-12
  227 820.259 -2.08334e-10 5.09773e-12
  228 820.259 -2.09838e-10 1.39980e-12
  229 820.259 -2.04141e-10 2.20250e-12
  230 820.259 -2.03349e-10 5.63528e-13
  231 820.259 -2.08983e-10 3.12060e-12
  232 820.259 -2.06894e-10 6.05377e-12
  233 820.259 -2.06419e-10 4.54731e-12
  234 820.259 -2.08097e-10 4.83709e-12
  235 820.259 -2.08888e-10 2.88754e-12
  236 820.259 -2.06582e-10 -1.15885e-11
  237 820.259 -2.10882e-10 -5.16008e-12
  238 820.259 -2.14110e-10 -4.30284e-12
  239 820.259 -2.08493e-10 3.49881e-12
  240 820.259 -2.15345e-10 5.87342e-12
  241 820.259 -2.06356e-10 1.22525e-12
</Section>

newXOutput 101

<Section columns = "stress_xx | stress_yy | stress_xy">
  1 801.461 -2.02673e-10 8.15471e-13
  2 801.461 -2.01063e-10 8.76957e-13
  3 801.461 -2.02443e-10 9.85939e-13
  4 801.461 -2.01063e-10 2.72628e-13
  5 801.461 -2.03363e-10 2.38506e-12
  6 801.461 -2.03593e-10 3.74351e-12
  7 801.461 -2.00948e-10 1.40096e-12
  8 801.461 -2.00909e-10 -9.19914e-13
  9 801.461 -2.00449e-10 -1.95387e-12
  10 801.461 -2.00756e-10 -3.53672e-12
  11 801.461 -2.01983e-10 -3.14443e-12
  12 801.461 -2.02750e-10 -2.04268e-12
  13 801.461 -2.03018e-10 1.00041e-12
  14 801.461 -2.02903e-10 2.78103e-12
  15 801.461 -2.01063e-10 1.71676e-12
  16 801.461 -2.01063e-10 1.78281e-12
  17 801.461 -1.99222e-10 1.04105e-12
  18 801.461 -2.00756e-10 1.09807e-12
  19 801.461 -2.01369e-10 6.84229e-13
  20 801.461 -2.01216e-10 1.01241e-12
  21 801.461 -2.01676e-10 5.13428e-13
  22 801.461 -2.02596e-10 1.49049e-12
  23 801.461 -2.01983e-10 1.99669e-12
  24 801.461 -2.00142e-10 -5.27875e-13
  25 801.461 -1.99682e-10 0.00000
  26 801.461 -2.00372e-10 2.09201e-13
  27 801.461 -2.00449e-10 5.95345e-13
  28 801.461 -2.00257e-10 -9.60863e-13
  29 801.461 -2.01983e-10 -6.42427e-14
  30 801.461 -2.02596e-10 -8.20194e-13
  31 801.461 -2.02903e-10 2.15595e-12
  32 801.461 -2.01983e-10 2.03883e-12
  33 801.461 -2.01063e-10 4.09991e-14
  34 801.461 -2.01216e-10 6.88014e-14
  35 801.461 -2.01063e-10 -6.20461e-13
  36 801.461 -2.01063e-10 -2.24073e-13
  37 801.461 -2.01063e-10 -6.25010e-13
  38 801.461 -2.01369e-10 -7.61432e-13
  39 801.461 -2.01369e-10 -3.63064e-13
  40 801.461 -2.01523e-10 3.90267e-14
  41 801.461 -2.01523e-10 5.59604e-13
  42 801.461 -2.01523e-10 8.13400e-16
  43 801.461 -2.01829e-10 -4.26713e-13
  44 801.461 -2.02750e-10 3.52796e-13
  45 801.461 -2.02750e-10 1.51505e-12
  46 801.461 -2.02443e-10 1.68490e-12
  47 801.461 -2.01676e-10 1.38093e-12
  48 801.461 -2.01676e-10 8.03757e-13
  49 801.461 -2.01983e-10 7.06424e-13
  50 801.461 -2.00756e-10 3.00413e-13
  51 801.461 -2.00142e-10 1.12425e-13
  52 801.461 -1.99337e-10 6.50059e-15
  53 801.461 -1.99529e-10 1.71057e-13
  54 801.461 -2.00717e-10 -6.86088e-13
  55 801.461 -2.02213e-10 -3.85456e-13
  56 801.461 -2.02443e-10 -3.04153e-13
  57 801.461 -2.00526e-10 -9.45415e-13
  58 801.461 -2.01753e-10 -3.76138e-13
  59 801.461 -2.03955e-10 8.68732e-13
  60 801.461 -2.02136e-10 -1.47487e-12
  61 801.461 -2.02366e-10 -2.33173e-13
  62 801.461 -2.02520e-10 3.10169e-12
  63 801.461 -2.02535e-10 2.17149e-12
  64 801.461 -1.99759e-10 -9.10425e-14
  65 801.461 -2.00219e-10 1.07847e-12
  66 801.461 -2.00449e-10 -3.35615e-12
  67 801.461 -2.00756e-10 -2.75625e-12
  68 801.461 -2.03210e-10 5.51806e-13
  69 801.461 -2.01654e-10 -2.20630e-12
  70 801.461 -2.02673e-10 -5.18460e-13
  71 801.461 -1.99989e-10 -2.07231e-12
  72 801.461 -2.02903e-10 -1.77803e-12
  73 801.461 -2.01523e-10 3.27847e-12
  74 801.461 -2.01799e-10 3.07340e-12
  75 801.461 -2.02535e-10 9.12502e-13
  76 801.461 -2.00372e-10 2.13937e-12
  77 801.461 -1.99759e-10 4.26900e-13
  78 801.461 -2.01293e-10 -2.27408e-12
  79 801.461 -2.03692e-10 -2.52011e-13
  80 801.461 -2.03440e-10 1.28143e-12
  81 801.461 -2.02289e-10 -7.16671e-13
  82 801.461 -2.02213e-10 -1.72837e-12
  83 801.461 -2.02366e-10 -1.31584e-12
  84 801.461 -1.99989e-10 -9.30845e-13
  85 801.461 -2.02443e-10 1.52945e-12
  86 801.461 -2.01446e-10 1.39954e-12
  87 801.461 -2.01676e-10 1.73872e-12
  88 801.461 -2.01707e-10 -2.42364e-12
  89 801.461 -2.01983e-10 -1.30222e-12
  90 801.461 -2.01753e-10 -1.56884e-12
  91 801.461 -2.01983e-10 2.70499e-12
  92 801.461 -1.99682e-10 -9.33250e-14
  93 801.461 -2.00234e-10 3.02530e-12
  94 801.461 -2.01339e-10 2.21414e-12
  95 801.461 -2.01891e-10 1.79495e-12
  96 801.461 -2.03593e-10 4.97899e-13
  97 801.461 -2.01247e-10 3.01230e-12
  98 801.461 -2.02535e-10 2.84218e-12
  99 801.461 -2.02520e-10 -2.00430e-12
  100 801.461 -2.01339e-10 -2.96330e-12
  101 801.461 -2.02826e-10 -2.33700e-12
  102 801.461 -2.01983e-10 2.24200e-12
  103 801.461 -2.01523e-10 -2.42833e-12
  104 801.461 -2.02075e-10 2.77741e-12
  105 801.461 -2.01431e-10 -1.53872e-15
  106 801.461 -2.03746e-10 3.57368e-13
  107 801.461 -2.00526e-10 4.49717e-13
  108 801.461 -1.99376e-10 7.02059e-14
  109 801.461 -2.00418e-10 -1.72024e-12
  110 801.461 -2.00326e-10 -1.95819e-12
  111 801.461 -2.01178e-10 -2.01213e-12
  112 801.461 -2.03593e-10 3.29120e-14
  113 801.461 -2.01983e-10 -8.35388e-13
  114 801.461 -2.01523e-10 -1.27204e-12
  115 801.461 -2.03516e-10 3.27485e-14
  116 801.461 -2.00786e-10 1.02870e-12
  117 801.461 -2.00372e-10 5.72125e-13
  118 801.461 -2.00219e-10 1.82126e-12
  119 801.461 -2.01917e-10 7.46657e-14
  120 801.461 -2.00986e-10 -1.98770e-12
  121 801.461 -2.00931e-10 -1.98887e-12
  122 801.461 -2.02969e-10 -1.29557e-12
  123 801.461 -2.01906e-10 -1.68200e-12
  124 801.461 -2.01391e-10 -1.60636e-12
  125 801.461 -2.03248e-10 1.98366e-12
  126 801.461 -2.00142e-10 -1.09652e-12
  127 801.461 -2.03429e-10 1.59908e-12
  128 801.461 -2.01638e-10 1.77278e-12
  129 801.461 -2.02385e-10 2.35332e-12
  130 801.461 -2.03900e-10 1.46224e-13
  131 801.461 -2.02213e-10 -1.42510e-12
  132 801.461 -2.01465e-10 2.52672e-13
  133 801.461 -2.01063e-10 1.42711e-12
  134 801.461 -2.00865e-10 -1.17679e-12
  135 801.461 -2.01523e-10 2.26476e-12
  136 801.461 -2.01851e-10 2.18026e-12
  137 801.461 -2.00865e-10 -1.75224e-12
  138 801.461 -2.04283e-10 8.85164e-13
  139 801.461 -1.99682e-10 -3.92596e-13
  140 801.461 -2.01063e-10 6.41327e-14
  141 801.461 -2.03210e-10 -1.27193e-12
  142 801.461 -2.00602e-10 -2.27095e-12
  143 801.461 -2.01194e-10 1.82559e-12
  144 801.461 -2.03087e-10 -1.51851e-12
  145 801.461 -2.01155e-10 -8.16790e-13
  146 801.461 -2.01983e-10 1.24606e-12
  147 801.461 -2.01599e-10 -2.48292e-13
  148 801.461 -1.99912e-10 1.29180e-13
  149 801.461 -1.99529e-10 -1.69975e-13
  150 801.461 -2.03133e-10 4.75380e-13
  151 801.461 -2.02673e-10 -4.48865e-13
  152 801.461 -2.01369e-10 1.17490e-13
  153 801.461 -2.03593e-10 6.90774e-13
  154 801.461 -2.03731e-10 1.51474e-12
  155 801.461 -2.02443e-10 -1.34725e-12
  156 801.461 -1.99617e-10 8.57219e-13
  157 801.461 -1.99419e-10 1.60194e-13
  158 801.461 -2.02826e-10 -2.23126e-13
  159 801.461 -2.03363e-10 2.99139e-13
  160 801.461 -1.99406e-10 7.90274e-14
  161 801.461 -2.00786e-10 1.12526e-12
  162 801.461 -2.02826e-10 9.71755e-13
  163 801.461 -2.03133e-10 2.50829e-13
  164 801.461 -2.01588e-10 3.04483e-12
  165 801.461 -2.00372e-10 -3.12218e-12
  166 801.461 -2.00405e-10 5.58806e-13
  167 801.461 -2.00471e-10 1.67034e-13
  168 801.461 -2.01851e-10 -9.94882e-13
  169 801.461 -2.01851e-10 -1.25831e-12
  170 801.461 -2.00418e-10 -1.69029e-12
  171 801.461 -2.02771e-10 -2.09808e-12
  172 801.461 -2.02059e-10 -2.65808e-13
  173 801.461 -2.02289e-10 1.71430e-12
  174 801.461 -2.01139e-10 4.29577e-13
  175 801.461 -2.01446e-10 8.88173e-13
  176 801.461 -2.02520e-10 3.42438e-13
  177 801.461 -2.02520e-10 -6.40916e-13
  178 801.461 -2.01753e-10 -3.01864e-13
  179 801.461 -2.00694e-10 7.20877e-13
  180 801.461 -2.00274e-10 -8.77287e-13
  181 801.461 -2.01216e-10 -1.08139e-12
  182 801.461 -2.01339e-10 -1.17660e-12
  183 801.461 -2.01983e-10 2.55857e-12
  184 801.461 -2.01155e-10 7.65731e-13
  185 801.461 -2.00602e-10 -4.26940e-12
  186 801.461 -2.01155e-10 1.36538e-13
  187 801.461 -2.01829e-10 -8.85138e-14
  188 801.461 -2.03271e-10 1.65309e-13
  189 801.461 -2.02719e-10 -1.30065e-12
  190 801.461 -2.01851e-10 3.13392e-12
  191 801.461 -2.02443e-10 2.01016e-12
  192 801.461 -2.01786e-10 2.72613e-12
  193 801.461 -2.01063e-10 -1.07259e-12
  194 801.461 -2.00679e-10 2.51328e-13
  195 801.461 -2.00066e-10 6.95203e-13
  196 801.461 -2.00832e-10 -1.90153e-12
  197 801.461 -2.00909e-10 -3.08644e-12
  198 801.461 -2.01599e-10 1.44740e-12
  199 801.461 -1.99759e-10 8.80931e-14
  200 801.461 -2.01216e-10 3.74492e-13
  201 801.461 -2.02520e-10 2.22383e-13
  202 801.461 -2.01983e-10 -2.00357e-12
  203 801.461 -2.02289e-10 -1.71476e-12
  204 801.461 -2.03746e-10 -1.10662e-12
  205 801.461 -2.00679e-10 -2.34678e-12
  206 801.461 -2.01063e-10 1.66862e-12
  207 801.461 -2.02259e-10 2.28977e-12
  208 801.461 -2.01063e-10 -1.28874e-12
  209 801.461 -2.00756e-10 2.62251e-12
  210 801.461 -2.01599e-10 1.99949e-12
  211 801.461 -2.02180e-10 1.50251e-12
  212 801.461 -2.02075e-10 1.69439e-12
  213 801.461 -2.01983e-10 1.35491e-12
  214 801.461 -2.01293e-10 6.01774e-13
  215 801.461 -2.02443e-10 -1.99337e-12
  216 801.461 -2.02443e-10 2.02159e-12
  217 801.461 -2.00909e-10 2.64209e-12
  218 801.461 -2.01983e-10 2.26621e-12
  219 801.461 -2.02627e-10 1.54675e-12
  220 801.461 -2.01906e-10 3.33928e-12
  221 801.461 -2.03210e-10 6.02569e-13
  222 801.461 -2.00679e-10 2.58424e-13
  223 801.461 -2.01155e-10 -2.85817e-12
  224 801.461 -1.99958e-10 -1.42024e-12
  225 801.461 -2.01615e-10 2.37355e-12
  226 801.461 -2.00418e-10 -2.56120e-12
  227 801.461 -2.03593e-10 -4.92271e-13
  228 801.461 -2.03731e-10 6.96340e-13
  229 801.461 -2.00142e-10 -1.04091e-12
  230 801.461 -2.00756e-10 -1.91491e-12
  231 801.461 -2.03547e-10 8.89959e-13
  232 801.461 -1.99406e-10 3.30292e-13
  233 801.461 -1.99774e-10 -1.04205e-12
  234 801.461 -2.01829e-10 1.38001e-12
  235 801.461 -2.01431e-10 1.78648e-13
  236 801.461 -2.01063e-10 -2.29952e-12
  237 801.461 -2.02995e-10 -3.00488e-12
  238 801.461 -2.03271e-10 -2.00781e-13
  239 801.461 -2.02443e-10 1.13561e-12
  240 801.461 -2.02627e-10 -6.94872e-13
  241 801.461 -2.01676e-10 7.38021e-13
</Section>

newXOutput 102

<Section columns = "stress_xx | stress_yy | stress_xy">
  1 782.734 -1.95011e-10 -5.77084e-13
  2 782.734 -1.95234e-10 -1.03534e-12
  3 782.734 -1.97686e-10 1.47997e-12
  4 782.734 -1.94343e-10 2.90339e-13
  5 782.734 -1.95383e-10 -1.04741e-12
  6 782.734 -1.94343e-10 -1.39768e-12
  7 782.734 -1.95345e-10 -9.36958e-13
  8 782.734 -1.95383e-10 4.83122e-14
  9 782.734 -1.94788e-10 5.03988e-13
  10 782.734 -1.95085e-10 1.50478e-12
  11 782.734 -1.95680e-10 1.80140e-12
  12 782.734 -1.95234e-10 1.25612e-12
  13 782.734 -1.94454e-10 3.20912e-13
  14 782.734 -1.94343e-10 1.65370e-13
  15 782.734 -1.95457e-10 -1.12871e-12
  16 782.734 -1.94937e-10 1.69785e-12
  17 782.734 -1.94640e-10 3.00938e-12
  18 782.734 -1.94788e-10 2.27093e-12
  19 782.734 -1.94788e-10 1.07672e-12
  20 782.734 -1.94937e-10 -1.72556e-13
  21 782.734 -1.95085e-10 -1.53231e-12
  22 782.734 -1.95085e-10 -1.92582e-12
  23 782.734 -1.94343e-10 -1.49110e-12
  24 782.734 -1.96571e-10 2.20955e-13
  25 782.734 -1.95234e-10 3.72471e-13
  26 782.734 -1.94343e-10 -3.99330e-13
  27 782.734 -1.94937e-10 2.06929e-14
  28 782.734 -1.95791e-10 6.77564e-13
  29 782.734 -1.94788e-10 -4.65589e-14
  30 782.734 -1.96571e-10 -5.06575e-13
  31 782.734 -1.95680e-10 3.93658e-12
  32 782.734 -1.94788e-10 5.18574e-12
  33 782.734 -1.93451e-10 1.07594e-12
  34 782.734 -1.94491e-10 8.41382e-14
  35 782.734 -1.94677e-10 -1.05266e-12
  36 782.734 -1.95531e-10 -1.16062e-12
  37 782.734 -1.95680e-10 -3.12065e-13
  38 782.734 -1.95977e-10 1.03673e-13
  39 782.734 -1.95828e-10 5.18062e-13
  40 782.734 -1.95085e-10 6.75834e-13
  41 782.734 -1.95234e-10 7.60777e-13
  42 782.734 -1.94640e-10 3.49519e-13
  43 782.734 -1.95085e-10 -2.34308e-13
  44 782.734 -1.95234e-10 -7.22187e-13
  45 782.734 -1.95531e-10 -8.37267e-13
  46 782.734 -1.95234e-10 -2.29398e-13
  47 782.734 -1.95680e-10 1.07819e-12
  48 782.734 -1.95680e-10 1.69662e-12
  49 782.734 -1.95234e-10 1.09365e-12
  50 782.734 -1.94937e-10 -2.84743e-14
  51 782.734 -1.95234e-10 0.00000
  52 782.734 -1.95457e-10 -1.58139e-13
  53 782.734 -1.95531e-10 -2.93206e-13
  54 782.734 -1.95457e-10 3.04305e-14
  55 782.734 -1.95234e-10 2.48314e-13
  56 782.734 -1.94343e-10 1.19092e-13
  57 782.734 -1.95085e-10 -2.48899e-13
  58 782.734 -1.94343e-10 -1.18190e-12
  59 782.734 -1.94852e-10 -1.54974e-13
  60 782.734 -1.94937e-10 -1.78018e-12
  61 782.734 -1.95011e-10 3.20912e-13
  62 782.734 -1.95308e-10 -3.36083e-14
  63 782.734 -1.94432e-10 -1.25266e-12
  64 782.734 -1.95605e-10 -1.05304e-13
  65 782.734 -1.95457e-10 -1.14719e-12
  66 782.734 -1.95531e-10 7.53092e-14
  67 782.734 -1.95754e-10 1.98925e-12
  68 782.734 -1.95383e-10 1.05673e-12
  69 782.734 -1.94406e-10 7.53034e-13
  70 782.734 -1.94788e-10 -1.97294e-13
  71 782.734 -1.95457e-10 2.24145e-13
  72 782.734 -1.95298e-10 7.24184e-13
  73 782.734 -1.94916e-10 -8.43014e-13
  74 782.734 -1.95769e-10 -6.22710e-14
  75 782.734 -1.94521e-10 -2.58821e-13
  76 782.734 -1.95754e-10 -7.54012e-13
  77 782.734 -1.95383e-10 4.74464e-14
  78 782.734 -1.95160e-10 -1.65306e-13
  79 782.734 -1.95298e-10 -3.91535e-13
  80 782.734 -1.95754e-10 3.19159e-13
  81 782.734 -1.94417e-10 5.35731e-13
  82 782.734 -1.94863e-10 1.62689e-12
  83 782.734 -1.94863e-10 -7.71869e-14
  84 782.734 -1.95605e-10 7.88558e-13
  85 782.734 -1.95531e-10 -6.65981e-13
  86 782.734 -1.95234e-10 4.89810e-13
  87 782.734 -1.95457e-10 -1.00096e-13
  88 782.734 -1.94343e-10 -4.12191e-12
  89 782.734 -1.94877e-10 8.86139e-13
  90 782.734 -1.95383e-10 -8.01090e-14
  91 782.734 -1.95591e-10 -1.40385e-13
  92 782.734 -1.95591e-10 -7.53449e-14
  93 782.734 -1.93273e-10 -1.54280e-12
  94 782.734 -1.95323e-10 -1.36280e-12
  95 782.734 -1.94610e-10 -8.35476e-13
  96 782.734 -1.95680e-10 -1.49650e-13
  97 782.734 -1.94610e-10 -1.17201e-12
  98 782.734 -1.95769e-10 6.34714e-14
  99 782.734 -1.95234e-10 -6.36738e-13
  100 782.734 -1.95501e-10 1.51170e-13
  101 782.734 -1.94194e-10 -9.49360e-14
  102 782.734 -1.95323e-10 4.33940e-13
  103 782.734 -1.95160e-10 2.41905e-12
  104 782.734 -1.95412e-10 -2.50496e-13
  105 782.734 -1.94432e-10 -6.21380e-13
  106 782.734 -1.94714e-10 1.34130e-13
  107 782.734 -1.94937e-10 -1.51550e-12
  108 782.734 -1.95160e-10 -5.16956e-13
  109 782.734 -1.95947e-10 5.74356e-14
  110 782.734 -1.95680e-10 2.48215e-12
  111 782.734 -1.94343e-10 -1.59399e-12
  112 782.734 -1.95234e-10 1.68606e-13
  113 782.734 -1.95616e-10 4.22394e-13
  114 782.734 -1.95361e-10 5.03816e-13
  115 782.734 -1.95383e-10 -5.22883e-14
  116 782.734 -1.95680e-10 -2.48470e-13
  117 782.734 -1.95605e-10 -1.97830e-12
  118 782.734 -1.95828e-10 -9.64760e-13
  119 782.734 -1.95107e-10 -1.38434e-13
  120 782.734 -1.94714e-10 1.09536e-13
  121 782.734 -1.95361e-10 1.33499e-13
  122 782.734 -1.94788e-10 -8.02300e-13
  123 782.734 -1.94565e-10 -9.11483e-13
  124 782.734 -1.94597e-10 -1.32636e-12
  125 782.734 -1.95067e-10 2.90365e-13
  126 782.734 -1.95290e-10 1.86258e-13
  127 782.734 -1.95361e-10 -2.73194e-14
  128 782.734 -1.94343e-10 -8.28255e-14
  129 782.734 -1.95735e-10 -2.83286e-15
  130 782.734 -1.95308e-10 9.91893e-14
  131 782.734 -1.94045e-10 -3.93222e-13
  132 782.734 -1.94454e-10 -6.52646e-13
  133 782.734 -1.95234e-10 7.14534e-13
  134 782.734 -1.95170e-10 -1.55233e-13
  135 782.734 -1.94916e-10 -2.39316e-12
  136 782.734 -1.95680e-10 2.71210e-13
  137 782.734 -1.94852e-10 1.68813e-12
  138 782.734 -1.95085e-10 4.58522e-13
  139 782.734 -1.95425e-10 1.08740e-13
  140 782.734 -1.95170e-10 1.02756e-13
  141 782.734 -1.95085e-10 8.71329e-14
  142 782.734 -1.95085e-10 5.97192e-13
  143 782.734 -1.95170e-10 -3.63844e-13
  144 782.734 -1.94699e-10 6.27131e-13
  145 782.734 -1.93986e-10 -2.63260e-13
  146 782.734 -1.94916e-10 -7.96490e-13
  147 782.734 -1.95160e-10 2.41033e-13
  148 782.734 -1.95531e-10 -1.39303e-13
  149 782.734 -1.95754e-10 1.10905e-12
  150 782.734 -1.95234e-10 -4.35585e-14
  151 782.734 -1.94788e-10 2.85490e-13
  152 782.734 -1.94640e-10 8.08461e-13
  153 782.734 -1.95754e-10 -4.11530e-13
  154 782.734 -1.94967e-10 -1.06189e-13
  155 782.734 -1.94565e-10 -8.74811e-13
  156 782.734 -1.95043e-10 -2.89302e-12
  157 782.734 -1.95361e-10 -8.23585e-13
  158 782.734 -1.95234e-10 1.54215e-12
  159 782.734 -1.95308e-10 5.18918e-13
  160 782.734 -1.95769e-10 -1.52131e-13
  161 782.734 -1.95412e-10 -5.52915e-13
  162 782.734 -1.94714e-10 -1.71257e-13
  163 782.734 -1.95234e-10 1.53915e-12
  164 782.734 -1.94916e-10 -2.04059e-12
  165 782.734 -1.95531e-10 7.79735e-13
  166 782.734 -1.95170e-10 -1.78738e-13
  167 782.734 -1.95298e-10 1.08951e-12
  168 782.734 -1.95107e-10 -9.01373e-13
  169 782.734 -1.95043e-10 3.32731e-13
  170 782.734 -1.95769e-10 6.74020e-13
  171 782.734 -1.95043e-10 8.98506e-13
  172 782.734 -1.94120e-10 -1.88001e-12
  173 782.734 -1.95680e-10 -5.69535e-13
  174 782.734 -1.95457e-10 -9.31936e-13
  175 782.734 -1.95085e-10 8.37628e-14
  176 782.734 -1.94640e-10 8.61480e-15
  177 782.734 -1.95903e-10 -6.12969e-13
  178 782.734 -1.94788e-10 -2.74754e-13
  179 782.734 -1.95501e-10 -4.47277e-13
  180 782.734 -1.95552e-10 8.28394e-14
  181 782.734 -1.94417e-10 1.08626e-12
  182 782.734 -1.95591e-10 -1.81042e-13
  183 782.734 -1.95234e-10 1.01722e-13
  184 782.734 -1.94967e-10 5.84006e-13
  185 782.734 -1.95605e-10 7.48260e-13
  186 782.734 -1.95323e-10 -2.05425e-12
  187 782.734 -1.94045e-10 4.80769e-13
  188 782.734 -1.94877e-10 -7.11883e-13
  189 782.734 -1.95501e-10 3.99640e-13
  190 782.734 -1.95998e-10 4.55304e-14
  191 782.734 -1.94788e-10 -2.32535e-13
  192 782.734 -1.95234e-10 -1.27035e-12
  193 782.734 -1.94699e-10 -2.48973e-13
  194 782.734 -1.94937e-10 1.99974e-12
  195 782.734 -1.95085e-10 -5.00140e-13
  196 782.734 -1.95308e-10 3.38322e-13
  197 782.734 -1.95680e-10 4.79659e-13
  198 782.734 -1.94788e-10 1.06655e-12
  199 782.734 -1.95234e-10 -4.46931e-13
  200 782.734 -1.93600e-10 -1.42874e-12
  201 782.734 -1.94268e-10 -2.44191e-13
  202 782.734 -1.94610e-10 -1.62629e-12
  203 782.734 -1.94640e-10 -6.45288e-13
  204 782.734 -1.95531e-10 1.83258e-12
  205 782.734 -1.95383e-10 3.76616e-13
  206 782.734 -1.94610e-10 -1.60677e-12
  207 782.734 -1.95858e-10 -1.49059e-13
  208 782.734 -1.94788e-10 -7.30542e-13
  209 782.734 -1.95308e-10 3.03674e-12
  210 782.734 -1.95308e-10 4.76515e-13
  211 782.734 -1.94979e-10 -2.98816e-13
  212 782.734 -1.94877e-10 -2.35452e-12
  213 782.734 -1.95501e-10 5.93851e-13
  214 782.734 -1.94268e-10 -8.20773e-13
  215 782.734 -1.94699e-10 -5.34827e-14
  216 782.734 -1.95412e-10 1.85465e-13
  217 782.734 -1.95160e-10 1.82464e-12
  218 782.734 -1.95754e-10 2.46567e-13
  219 782.734 -1.95323e-10 6.95643e-13
  220 782.734 -1.95828e-10 1.88000e-13
  221 782.734 -1.95234e-10 7.21325e-15
  222 782.734 -1.93674e-10 -7.81718e-13
  223 782.734 -1.95412e-10 1.14617e-12
  224 782.734 -1.95501e-10 -2.98029e-13
  225 782.734 -1.94788e-10 -9.37354e-13
  226 782.734 -1.95501e-10 -2.33924e-13
  227 782.734 -1.94640e-10 1.89877e-12
  228 782.734 -1.94699e-10 6.38773e-13
  229 782.734 -1.95680e-10 -1.38941e-13
  230 782.734 -1.95383e-10 2.82118e-12
  231 782.734 -1.94967e-10 -1.28370e-12
  232 782.734 -1.95412e-10 -1.19554e-12
  233 782.734 -1.95323e-10 -2.92177e-12
  234 782.734 -1.94863e-10 -8.01469e-13
  235 782.734 -1.94967e-10 9.71308e-14
  236 782.734 -1.95361e-10 1.10868e-12
  237 782.734 -1.94610e-10 -5.16374e-13
  238 782.734 -1.95234e-10 2.81561e-13
  239 782.734 -1.94491e-10 1.04912e-12
  240 782.734 -1.94699e-10 8.65463e-13
  241 782.734 -1.95011e-10 -9.62910e-13
</Section>

newXOutput 103

<Section columns = "stress_xx | stress_yy | stress_xy">
  1 764.079 -1.87990e-10 -9.50156e-14
  2 764.079 -1.84321e-10 3.24497e-12
  3 764.079 -1.87558e-10 -1.07546e-12
  4 764.079 -1.88853e-10 -4.46944e-13
  5 764.079 -1.88350e-10 -9.31824e-14
  6 764.079 -1.87990e-10 1.70617e-13
  7 764.079 -1.89069e-10 1.05703e-12
  8 764.079 -1.89213e-10 1.04226e-12
  9 764.079 -1.88350e-10 5.88138e-13
  10 764.079 -1.88637e-10 -6.27827e-13
  11 764.079 -1.88350e-10 -1.83056e-12
  12 764.079 -1.88781e-10 -2.50512e-12
  13 764.079 -1.89177e-10 -9.52309e-13
  14 764.079 -1.89069e-10 -6.75843e-14
  15 764.079 -1.89501e-10 1.36974e-12
  16 764.079 -1.87342e-10 3.81988e-12
  17 764.079 -1.88062e-10 2.53719e-12
  18 764.079 -1.86623e-10 3.86246e-13
  19 764.079 -1.87342e-10 -3.14028e-12
  20 764.079 -1.90076e-10 -1.83761e-12
  21 764.079 -1.90364e-10 4.11496e-12
  22 764.079 -1.89501e-10 8.10179e-12
  23 764.079 -1.87342e-10 7.18593e-12
  24 764.079 -1.86191e-10 -7.21871e-13
  25 764.079 -1.87127e-10 0.00000
  26 764.079 -1.87558e-10 -6.06395e-14
  27 764.079 -1.86191e-10 6.81895e-13
  28 764.079 -1.87342e-10 -8.24361e-13
  29 764.079 -1.87127e-10 1.94885e-13
  30 764.079 -1.87918e-10 4.60077e-13
  31 764.079 -1.87342e-10 -2.36612e-12
  32 764.079 -1.88206e-10 -3.11085e-12
  33 764.079 -1.88530e-10 -1.20841e-12
  34 764.079 -1.88494e-10 -1.17770e-12
  35 764.079 -1.88206e-10 -5.75920e-13
  36 764.079 -1.88206e-10 -8.79903e-13
  37 764.079 -1.88206e-10 -1.27831e-12
  38 764.079 -1.88637e-10 -2.40596e-13
  39 764.079 -1.88350e-10 3.09487e-13
  40 764.079 -1.88637e-10 1.82484e-13
  41 764.079 -1.87918e-10 -4.20618e-14
  42 764.079 -1.87774e-10 -5.81897e-14
  43 764.079 -1.88062e-10 4.27444e-13
  44 764.079 -1.88494e-10 1.13603e-12
  45 764.079 -1.88206e-10 1.41001e-12
  46 764.079 -1.87918e-10 8.80600e-13
  47 764.079 -1.87630e-10 -4.94519e-13
  48 764.079 -1.88781e-10 -1.03834e-12
  49 764.079 -1.88494e-10 -8.83679e-13
  50 764.079 -1.89213e-10 2.67988e-13
  51 764.079 -1.87990e-10 3.14814e-13
  52 764.079 -1.87342e-10 -1.39183e-13
  53 764.079 -1.88206e-10 -1.29780e-13
  54 764.079 -1.88637e-10 -3.13532e-13
  55 764.079 -1.89069e-10 0.00000
  56 764.079 -1.88925e-10 1.65405e-13
  57 764.079 -1.88278e-10 -1.93354e-12
  58 764.079 -1.89213e-10 -3.15297e-13
  59 764.079 -1.89501e-10 1.00188e-12
  60 764.079 -1.88709e-10 4.07415e-13
  61 764.079 -1.87342e-10 -1.10743e-12
  62 764.079 -1.88494e-10 -8.42388e-14
  63 764.079 -1.88983e-10 5.57372e-14
  64 764.079 -1.88494e-10 2.28109e-12
  65 764.079 -1.87774e-10 1.25016e-12
  66 764.079 -1.88350e-10 -1.16261e-12
  67 764.079 -1.87846e-10 -1.47005e-12
  68 764.079 -1.89213e-10 -1.31081e-13
  69 764.079 -1.88576e-10 -7.61589e-13
  70 764.079 -1.88584e-10 -3.60118e-13
  71 764.079 -1.87774e-10 -2.54143e-13
  72 764.079 -1.88144e-10 -1.89364e-12
  73 764.079 -1.88946e-10 3.66750e-12
  74 764.079 -1.87688e-10 1.01165e-12
  75 764.079 -1.89155e-10 3.31120e-13
  76 764.079 -1.87918e-10 -6.61945e-13
  77 764.079 -1.87486e-10 -7.39452e-13
  78 764.079 -1.88422e-10 -5.15819e-13
  79 764.079 -1.89316e-10 8.04904e-13
  80 764.079 -1.89285e-10 2.29414e-13
  81 764.079 -1.88278e-10 3.75065e-13
  82 764.079 -1.88997e-10 -4.90765e-13
  83 764.079 -1.88422e-10 -7.40512e-13
  84 764.079 -1.88781e-10 5.78773e-13
  85 764.079 -1.87055e-10 -2.44006e-12
  86 764.079 -1.87918e-10 -3.44004e-12
  87 764.079 -1.88853e-10 1.36073e-12
  88 764.079 -1.88465e-10 9.62613e-13
  89 764.079 -1.88983e-10 6.00646e-13
  90 764.079 -1.87558e-10 1.78679e-14
  91 764.079 -1.88810e-10 1.09434e-12
  92 764.079 -1.87342e-10 -1.65359e-12
  93 764.079 -1.88896e-10 -1.25381e-12
  94 764.079 -1.88206e-10 1.25515e-12
  95 764.079 -1.89242e-10 1.39869e-12
  96 764.079 -1.89069e-10 -1.11246e-13
  97 764.079 -1.91659e-10 2.37353e-13
  98 764.079 -1.87774e-10 1.09425e-12
  99 764.079 -1.88925e-10 -1.81000e-12
  100 764.079 -1.88292e-10 -9.27462e-13
  101 764.079 -1.88494e-10 -3.11468e-13
  102 764.079 -1.88983e-10 -2.33531e-12
  103 764.079 -1.88350e-10 -7.49139e-13
  104 764.079 -1.88378e-10 1.04755e-12
  105 764.079 -1.88292e-10 -3.54075e-13
  106 764.079 -1.88925e-10 2.19573e-12
  107 764.079 -1.87271e-10 9.78319e-13
  108 764.079 -1.86767e-10 -4.74270e-13
  109 764.079 -1.88551e-10 -7.99650e-13
  110 764.079 -1.88378e-10 -1.55257e-12
  111 764.079 -1.88422e-10 -5.33461e-13
  112 764.079 -1.89285e-10 -3.92868e-13
  113 764.079 -1.88822e-10 -5.43418e-13
  114 764.079 -1.88514e-10 -6.71208e-13
  115 764.079 -1.88494e-10 3.22572e-13
  116 764.079 -1.89242e-10 1.95138e-12
  117 764.079 -1.88709e-10 1.13458e-12
  118 764.079 -1.87846e-10 7.47228e-13
  119 764.079 -1.88699e-10 -1.67425e-12
  120 764.079 -1.88422e-10 -4.54917e-13
  121 764.079 -1.88021e-10 -2.39575e-12
  122 764.079 -1.88884e-10 -1.02749e-13
  123 764.079 -1.88925e-10 -9.65297e-14
  124 764.079 -1.88637e-10 4.45560e-14
  125 764.079 -1.88961e-10 4.40571e-14
  126 764.079 -1.88098e-10 5.37106e-13
  127 764.079 -1.89501e-10 1.65354e-12
  128 764.079 -1.90202e-10 3.71813e-13
  129 764.079 -1.87990e-10 1.10975e-12
  130 764.079 -1.89573e-10 -8.69104e-13
  131 764.079 -1.89357e-10 -3.24862e-13
  132 764.079 -1.88799e-10 4.70362e-13
  133 764.079 -1.87219e-10 -2.52707e-12
  134 764.079 -1.87651e-10 -3.89999e-13
  135 764.079 -1.90056e-10 6.29036e-13
  136 764.079 -1.88206e-10 6.84314e-14
  137 764.079 -1.88391e-10 -9.67857e-13
  138 764.079 -1.89141e-10 -2.90654e-13
  139 764.079 -1.87466e-10 -1.22995e-12
  140 764.079 -1.88082e-10 -1.06879e-12
  141 764.079 -1.88278e-10 -4.24351e-13
  142 764.079 -1.87702e-10 -3.43752e-13
  143 764.079 -1.88082e-10 6.27506e-13
  144 764.079 -1.88637e-10 -5.56915e-13
  145 764.079 -1.88637e-10 -1.36311e-13
  146 764.079 -1.88761e-10 1.20136e-12
  147 764.079 -1.88206e-10 -4.14590e-13
  148 764.079 -1.88206e-10 -2.28093e-13
  149 764.079 -1.87414e-10 -6.97437e-13
  150 764.079 -1.88997e-10 1.32002e-12
  151 764.079 -1.86839e-10 -1.20531e-12
  152 764.079 -1.88997e-10 -8.66263e-13
  153 764.079 -1.89069e-10 1.79069e-12
  154 764.079 -1.89501e-10 1.74657e-12
  155 764.079 -1.88206e-10 2.71389e-13
  156 764.079 -1.88452e-10 8.77801e-13
  157 764.079 -1.87096e-10 -1.05523e-12
  158 764.079 -1.88278e-10 -4.48077e-13
  159 764.079 -1.88278e-10 -1.24242e-12
  160 764.079 -1.87601e-10 -5.71710e-13
  161 764.079 -1.86911e-10 3.57627e-13
  162 764.079 -1.89069e-10 1.05163e-12
  163 764.079 -1.88709e-10 -7.13064e-13
  164 764.079 -1.90302e-10 4.89356e-12
  165 764.079 -1.88206e-10 -4.76942e-13
  166 764.079 -1.88329e-10 9.60821e-13
  167 764.079 -1.87404e-10 -5.95468e-13
  168 764.079 -1.87651e-10 3.97907e-13
  169 764.079 -1.89192e-10 -1.53385e-13
  170 764.079 -1.88206e-10 -2.00624e-12
  171 764.079 -1.88452e-10 -7.20833e-13
  172 764.079 -1.89141e-10 7.11916e-13
  173 764.079 -1.88350e-10 1.19400e-12
  174 764.079 -1.86335e-10 3.87826e-13
  175 764.079 -1.88781e-10 3.50257e-14
  176 764.079 -1.88494e-10 5.71871e-13
  177 764.079 -1.87630e-10 1.58431e-13
  178 764.079 -1.88422e-10 8.15250e-14
  179 764.079 -1.89414e-10 1.78018e-12
  180 764.079 -1.87712e-10 -2.20182e-12
  181 764.079 -1.88781e-10 -2.14403e-13
  182 764.079 -1.88896e-10 -4.79810e-13
  183 764.079 -1.88853e-10 6.61414e-13
  184 764.079 -1.86997e-10 1.80755e-13
  185 764.079 -1.88350e-10 -9.30170e-13
  186 764.079 -1.89501e-10 1.31132e-12
  187 764.079 -1.88422e-10 -4.90160e-13
  188 764.079 -1.89587e-10 1.65632e-12
  189 764.079 -1.87429e-10 -1.98922e-12
  190 764.079 -1.88144e-10 7.43655e-13
  191 764.079 -1.88637e-10 1.13166e-12
  192 764.079 -1.89007e-10 2.90272e-12
  193 764.079 -1.88206e-10 -6.02471e-13
  194 764.079 -1.87342e-10 1.36814e-12
  195 764.079 -1.87990e-10 1.57456e-12
  196 764.079 -1.88494e-10 -1.13030e-12
  197 764.079 -1.88781e-10 -1.21049e-12
  198 764.079 -1.87055e-10 -4.27752e-12
  199 764.079 -1.87774e-10 -8.71064e-13
  200 764.079 -1.88709e-10 -8.96102e-13
  201 764.079 -1.88925e-10 2.21918e-13
  202 764.079 -1.89155e-10 1.63501e-13
  203 764.079 -1.87486e-10 -1.82588e-13
  204 764.079 -1.88781e-10 -2.77746e-12
  205 764.079 -1.88278e-10 -1.95118e-12
  206 764.079 -1.91573e-10 -1.26098e-12
  207 764.079 -1.88206e-10 5.12767e-13
  208 764.079 -1.88378e-10 -1.85819e-13
  209 764.079 -1.89069e-10 -3.39026e-14
  210 764.079 -1.87990e-10 2.09003e-12
  211 764.079 -1.88576e-10 1.14071e-12
  212 764.079 -1.88119e-10 3.49587e-12
  213 764.079 -1.88810e-10 -6.10907e-13
  214 764.079 -1.88637e-10 8.43251e-13
  215 764.079 -1.88724e-10 -3.16432e-13
  216 764.079 -1.89069e-10 -9.17904e-14
  217 764.079 -1.89861e-10 3.63898e-12
  218 764.079 -1.87558e-10 1.79014e-12
  219 764.079 -1.88637e-10 -2.09133e-12
  220 764.079 -1.88709e-10 2.83051e-13
  221 764.079 -1.89429e-10 2.57740e-12
  222 764.079 -1.89717e-10 -3.71001e-13
  223 764.079 -1.88292e-10 -1.08837e-12
  224 764.079 -1.87170e-10 8.81776e-14
  225 764.079 -1.88637e-10 5.07065e-12
  226 764.079 -1.88378e-10 -1.07155e-12
  227 764.079 -1.89069e-10 -2.21034e-12
  228 764.079 -1.88983e-10 -1.37378e-13
  229 764.079 -1.88566e-10 -5.93792e-13
  230 764.079 -1.88422e-10 -1.48699e-12
  231 764.079 -1.89155e-10 1.16219e-12
  232 764.079 -1.88119e-10 -8.44284e-13
  233 764.079 -1.89673e-10 1.42857e-12
  234 764.079 -1.89429e-10 8.84222e-13
  235 764.079 -1.88206e-10 -2.92767e-13
  236 764.079 -1.88637e-10 -1.17499e-13
  237 764.079 -1.88551e-10 -1.86172e-12
  238 764.079 -1.88033e-10 -2.47233e-13
  239 764.079 -1.88781e-10 -1.93241e-12
  240 764.079 -1.89587e-10 -8.86521e-13
  241 764.079 -1.87558e-10 -6.18733e-13
</Section>

newXOutput 104

<Section columns = "stress_xx | stress_yy | stress_xy">
  1 745.495 -1.81144e-10 4.80123e-14
  2 745.495 -1.88039e-10 -4.78597e-12
  3 745.495 -1.82189e-10 2.39537e-13
  4 745.495 -1.79473e-10 1.78681e-12
  5 745.495 -1.82607e-10 3.99176e-13
  6 745.495 -1.82815e-10 5.22513e-13
  7 745.495 -1.81980e-10 -8.67451e-13
  8 745.495 -1.82467e-10 -1.22958e-12
  9 745.495 -1.83164e-10 -3.89310e-13
  10 745.495 -1.82885e-10 2.97034e-12
  11 745.495 -1.81632e-10 3.95794e-12
  12 745.495 -1.81492e-10 3.57287e-12
  13 745.495 -1.80204e-10 -1.08635e-12
  14 745.495 -1.81353e-10 -2.45536e-12
  15 745.495 -1.81562e-10 -1.75537e-12
  16 745.495 -1.81492e-10 -2.86583e-12
  17 745.495 -1.83024e-10 -6.21212e-14
  18 745.495 -1.83860e-10 2.69075e-12
  19 745.495 -1.81353e-10 5.88140e-12
  20 745.495 -1.78706e-10 2.87668e-12
  21 745.495 -1.78985e-10 -8.63143e-12
  22 745.495 -1.79124e-10 -1.33929e-11
  23 745.495 -1.82746e-10 -1.09314e-11
  24 745.495 -1.85949e-10 1.53742e-12
  25 745.495 -1.83442e-10 6.36889e-13
  26 745.495 -1.81771e-10 -2.30042e-14
  27 745.495 -1.82467e-10 2.50896e-13
  28 745.495 -1.80517e-10 4.26747e-13
  29 745.495 -1.81353e-10 2.02647e-13
  30 745.495 -1.81353e-10 -4.55265e-13
  31 745.495 -1.81771e-10 7.48899e-13
  32 745.495 -1.80935e-10 4.51317e-13
  33 745.495 -1.80935e-10 -2.33385e-12
  34 745.495 -1.81632e-10 -2.58912e-12
  35 745.495 -1.82502e-10 -1.31616e-12
  36 745.495 -1.81910e-10 4.06866e-13
  37 745.495 -1.80935e-10 5.95167e-13
  38 745.495 -1.81632e-10 1.08281e-12
  39 745.495 -1.81771e-10 1.65803e-12
  40 745.495 -1.80935e-10 1.00230e-12
  41 745.495 -1.81492e-10 1.15602e-12
  42 745.495 -1.81492e-10 9.05002e-13
  43 745.495 -1.80378e-10 -1.11944e-12
  44 745.495 -1.81492e-10 -2.35932e-12
  45 745.495 -1.82607e-10 -2.15054e-12
  46 745.495 -1.83024e-10 -2.73821e-13
  47 745.495 -1.82607e-10 2.74309e-12
  48 745.495 -1.81492e-10 4.26859e-12
  49 745.495 -1.80935e-10 3.66861e-12
  50 745.495 -1.79124e-10 -3.75471e-13
  51 745.495 -1.80099e-10 -5.64515e-13
  52 745.495 -1.80831e-10 3.19470e-13
  53 745.495 -1.80517e-10 1.19331e-13
  54 745.495 -1.80726e-10 -2.03931e-13
  55 745.495 -1.80935e-10 0.00000
  56 745.495 -1.79681e-10 -4.39487e-13
  57 745.495 -1.82398e-10 3.02393e-12
  58 745.495 -1.80517e-10 -2.22823e-12
  59 745.495 -1.81771e-10 -1.03379e-12
  60 745.495 -1.82049e-10 -2.66961e-12
  61 745.495 -1.83233e-10 2.39886e-12
  62 745.495 -1.81771e-10 4.62720e-12
  63 745.495 -1.82439e-10 -3.49167e-12
  64 745.495 -1.81005e-10 3.50990e-12
  65 745.495 -1.81353e-10 -1.54624e-12
  66 745.495 -1.80308e-10 -1.51789e-12
  67 745.495 -1.81562e-10 2.27967e-12
  68 745.495 -1.82746e-10 -1.41231e-12
  69 745.495 -1.82786e-10 -1.38228e-12
  70 745.495 -1.81614e-10 -1.49071e-12
  71 745.495 -1.81840e-10 -1.83914e-12
  72 745.495 -1.82308e-10 2.79778e-12
  73 745.495 -1.80517e-10 -1.92774e-12
  74 745.495 -1.81019e-10 6.94313e-13
  75 745.495 -1.81186e-10 2.18313e-12
  76 745.495 -1.80517e-10 2.08290e-13
  77 745.495 -1.80796e-10 1.59002e-12
  78 745.495 -1.82119e-10 -3.14869e-12
  79 745.495 -1.80637e-10 -3.32000e-12
  80 745.495 -1.82119e-10 2.33638e-12
  81 745.495 -1.82258e-10 2.48690e-12
  82 745.495 -1.82607e-10 2.52382e-13
  83 745.495 -1.81353e-10 7.71368e-14
  84 745.495 -1.82049e-10 -1.28311e-12
  85 745.495 -1.84905e-10 6.18005e-12
  86 745.495 -1.81910e-10 5.28690e-12
  87 745.495 -1.80865e-10 -9.87883e-13
  88 745.495 -1.79681e-10 -2.81810e-12
  89 745.495 -1.80768e-10 -9.74141e-13
  90 745.495 -1.81423e-10 -4.96119e-12
  91 745.495 -1.82523e-10 1.82830e-12
  92 745.495 -1.82022e-10 2.42688e-12
  93 745.495 -1.79514e-10 -9.68502e-13
  94 745.495 -1.82022e-10 1.94021e-12
  95 745.495 -1.80183e-10 -1.50519e-12
  96 745.495 -1.83233e-10 1.91575e-12
  97 745.495 -1.75419e-10 -4.87230e-13
  98 745.495 -1.83526e-10 2.57975e-12
  99 745.495 -1.83024e-10 1.73477e-12
  100 745.495 -1.80434e-10 -2.97552e-12
  101 745.495 -1.80796e-10 -4.10411e-12
  102 745.495 -1.82523e-10 4.55409e-12
  103 745.495 -1.81492e-10 2.54331e-12
  104 745.495 -1.81019e-10 2.17044e-13
  105 745.495 -1.80434e-10 2.05292e-13
  106 745.495 -1.82746e-10 -2.93682e-12
  107 745.495 -1.80378e-10 -7.84996e-13
  108 745.495 -1.81353e-10 1.56346e-12
  109 745.495 -1.80601e-10 -8.98197e-13
  110 745.495 -1.80266e-10 1.16429e-12
  111 745.495 -1.80674e-10 -2.05704e-12
  112 745.495 -1.82398e-10 6.02549e-13
  113 745.495 -1.81651e-10 2.17469e-12
  114 745.495 -1.82607e-10 6.64719e-14
  115 745.495 -1.81840e-10 -4.14905e-13
  116 745.495 -1.81269e-10 -3.34213e-12
  117 745.495 -1.81214e-10 2.52897e-12
  118 745.495 -1.81005e-10 2.21408e-13
  119 745.495 -1.83741e-10 2.99902e-12
  120 745.495 -1.82955e-10 -2.14095e-12
  121 745.495 -1.82666e-10 2.29730e-12
  122 745.495 -1.82487e-10 -2.39971e-12
  123 745.495 -1.82467e-10 -3.37789e-12
  124 745.495 -1.81413e-10 -1.83421e-12
  125 745.495 -1.81719e-10 3.20063e-12
  126 745.495 -1.81980e-10 -1.83828e-12
  127 745.495 -1.81711e-10 -4.40102e-12
  128 745.495 -1.76965e-10 1.28425e-12
  129 745.495 -1.83077e-10 8.14488e-13
  130 745.495 -1.82885e-10 2.15132e-12
  131 745.495 -1.80587e-10 -3.08885e-12
  132 745.495 -1.80622e-10 -9.33815e-13
  133 745.495 -1.84159e-10 7.74031e-12
  134 745.495 -1.81890e-10 -4.91606e-13
  135 745.495 -1.78846e-10 -2.68414e-12
  136 745.495 -1.82547e-10 3.39104e-12
  137 745.495 -1.81890e-10 1.54079e-12
  138 745.495 -1.82537e-10 1.30335e-12
  139 745.495 -1.80637e-10 7.00147e-13
  140 745.495 -1.80816e-10 -4.54994e-13
  141 745.495 -1.81910e-10 -9.29415e-13
  142 745.495 -1.83024e-10 -2.62964e-12
  143 745.495 -1.81174e-10 2.16292e-14
  144 745.495 -1.81854e-10 -2.78449e-12
  145 745.495 -1.80851e-10 -3.32684e-12
  146 745.495 -1.81413e-10 -2.51637e-12
  147 745.495 -1.80796e-10 1.32819e-12
  148 745.495 -1.80169e-10 -3.72967e-13
  149 745.495 -1.81005e-10 7.28045e-13
  150 745.495 -1.81771e-10 -1.58779e-12
  151 745.495 -1.82467e-10 3.62895e-12
  152 745.495 -1.82258e-10 2.23811e-12
  153 745.495 -1.82328e-10 -2.00592e-12
  154 745.495 -1.81102e-10 -1.69934e-12
  155 745.495 -1.81771e-10 -2.40550e-12
  156 745.495 -1.79562e-10 -1.80280e-12
  157 745.495 -1.81413e-10 2.93305e-12
  158 745.495 -1.83233e-10 4.26090e-12
  159 745.495 -1.83651e-10 3.86489e-12
  160 745.495 -1.80601e-10 1.25531e-12
  161 745.495 -1.81771e-10 -6.90650e-14
  162 745.495 -1.80587e-10 -2.29713e-12
  163 745.495 -1.82955e-10 4.79282e-12
  164 745.495 -1.79443e-10 -7.93705e-12
  165 745.495 -1.81771e-10 -2.00008e-12
  166 745.495 -1.79861e-10 -1.65530e-12
  167 745.495 -1.83203e-10 2.62525e-12
  168 745.495 -1.80278e-10 -1.58853e-13
  169 745.495 -1.80696e-10 -1.47196e-13
  170 745.495 -1.82022e-10 2.13327e-12
  171 745.495 -1.81054e-10 -2.34366e-12
  172 745.495 -1.80726e-10 -2.69403e-12
  173 745.495 -1.82607e-10 -1.27691e-12
  174 745.495 -1.85253e-10 -1.15591e-12
  175 745.495 -1.80308e-10 1.31028e-12
  176 745.495 -1.80865e-10 -9.35263e-13
  177 745.495 -1.81283e-10 -1.31421e-12
  178 745.495 -1.81562e-10 -1.31247e-12
  179 745.495 -1.81353e-10 -2.79646e-12
  180 745.495 -1.81950e-10 2.57717e-12
  181 745.495 -1.81701e-10 1.75203e-12
  182 745.495 -1.81186e-10 1.22121e-12
  183 745.495 -1.81283e-10 3.83698e-12
  184 745.495 -1.82774e-10 3.27463e-12
  185 745.495 -1.81144e-10 -1.57049e-12
  186 745.495 -1.81520e-10 -2.17197e-12
  187 745.495 -1.80935e-10 -2.04778e-12
  188 745.495 -1.80684e-10 -4.62138e-12
  189 745.495 -1.83693e-10 2.17507e-12
  190 745.495 -1.82129e-10 3.06780e-12
  191 745.495 -1.80935e-10 -1.74008e-12
  192 745.495 -1.82069e-10 -3.84683e-12
  193 745.495 -1.82439e-10 -8.48109e-13
  194 745.495 -1.81980e-10 3.53002e-12
  195 745.495 -1.80378e-10 -2.95927e-12
  196 745.495 -1.80378e-10 9.53718e-13
  197 745.495 -1.80865e-10 2.35955e-13
  198 745.495 -1.82328e-10 9.90805e-12
  199 745.495 -1.81980e-10 1.33806e-12
  200 745.495 -1.80239e-10 -2.64377e-12
  201 745.495 -1.80448e-10 8.61567e-16
  202 745.495 -1.81604e-10 -5.93288e-12
  203 745.495 -1.81005e-10 -1.62663e-12
  204 745.495 -1.83024e-10 4.17502e-12
  205 745.495 -1.81423e-10 4.96261e-13
  206 745.495 -1.77007e-10 1.04699e-12
  207 745.495 -1.82774e-10 1.93861e-12
  208 745.495 -1.82523e-10 -2.97469e-12
  209 745.495 -1.79751e-10 4.48078e-12
  210 745.495 -1.82398e-10 -2.78350e-12
  211 745.495 -1.81651e-10 -1.72309e-12
  212 745.495 -1.81353e-10 -6.21856e-12
  213 745.495 -1.81353e-10 3.79417e-12
  214 745.495 -1.80726e-10 -2.97974e-12
  215 745.495 -1.81353e-10 -1.41731e-12
  216 745.495 -1.80935e-10 5.82717e-12
  217 745.495 -1.77871e-10 9.56712e-13
  218 745.495 -1.82049e-10 -1.71140e-12
  219 745.495 -1.84111e-10 3.66750e-12
  220 745.495 -1.81492e-10 5.22044e-12
  221 745.495 -1.82049e-10 -3.97203e-12
  222 745.495 -1.79751e-10 -9.50185e-13
  223 745.495 -1.81854e-10 -8.10037e-13
  224 745.495 -1.81604e-10 -2.54748e-12
  225 745.495 -1.79013e-10 -3.85287e-12
  226 745.495 -1.80183e-10 -2.53957e-12
  227 745.495 -1.83582e-10 2.90102e-12
  228 745.495 -1.82272e-10 1.81405e-12
  229 745.495 -1.80239e-10 -1.39149e-12
  230 745.495 -1.81283e-10 1.51552e-12
  231 745.495 -1.81854e-10 -5.16019e-12
  232 745.495 -1.81269e-10 2.60326e-12
  233 745.495 -1.79598e-10 -2.52743e-12
  234 745.495 -1.80169e-10 1.94162e-13
  235 745.495 -1.81102e-10 9.24070e-13
  236 745.495 -1.81353e-10 -4.77431e-13
  237 745.495 -1.82272e-10 -1.02954e-13
  238 745.495 -1.81771e-10 2.45864e-13
  239 745.495 -1.82398e-10 4.19920e-12
  240 745.495 -1.80684e-10 -1.98217e-12
  241 745.495 -1.83303e-10 2.99317e-12
</Section>

newXOutput 105

<Section columns = "stress_xx | stress_yy | stress_xy">
  1 726.982 -1.76288e-10 4.23958e-14
  2 726.982 -1.72446e-10 4.89476e-13
  3 726.982 -1.76490e-10 9.71325e-13
  4 726.982 -1.74468e-10 1.80069e-13
  5 726.982 -1.75209e-10 -9.76294e-14
  6 726.982 -1.74468e-10 -4.48986e-13
  7 726.982 -1.74974e-10 -1.40187e-13
  8 726.982 -1.74670e-10 -4.17510e-13
  9 726.982 -1.74401e-10 -1.04186e-12
  10 726.982 -1.74805e-10 -1.58657e-12
  11 726.982 -1.75479e-10 -4.23935e-13
  12 726.982 -1.75344e-10 1.67018e-13
  13 726.982 -1.75479e-10 1.25014e-12
  14 726.982 -1.75748e-10 1.09839e-12
  15 726.982 -1.75075e-10 -1.51765e-13
  16 726.982 -1.75209e-10 1.23316e-13
  17 726.982 -1.74940e-10 -1.14350e-13
  18 726.982 -1.74940e-10 7.32134e-14
  19 726.982 -1.75344e-10 5.84505e-13
  20 726.982 -1.75614e-10 1.27439e-12
  21 726.982 -1.75614e-10 3.04982e-12
  22 726.982 -1.75344e-10 3.81162e-12
  23 726.982 -1.74131e-10 2.27516e-12
  24 726.982 -1.72918e-10 1.41435e-14
  25 726.982 -1.73862e-10 -3.35284e-13
  26 726.982 -1.74872e-10 -4.34951e-13
  27 726.982 -1.73996e-10 6.24347e-13
  28 726.982 -1.74468e-10 -5.17156e-13
  29 726.982 -1.75075e-10 1.39702e-14
  30 726.982 -1.75209e-10 -2.86562e-13
  31 726.982 -1.76018e-10 2.85322e-12
  32 726.982 -1.74670e-10 4.05976e-12
  33 726.982 -1.74165e-10 1.50381e-12
  34 726.982 -1.74670e-10 1.06789e-12
  35 726.982 -1.74974e-10 7.07140e-13
  36 726.982 -1.74536e-10 5.39153e-13
  37 726.982 -1.74536e-10 -6.49311e-13
  38 726.982 -1.74805e-10 -1.28368e-12
  39 726.982 -1.74805e-10 -1.05483e-12
  40 726.982 -1.74940e-10 -6.28620e-13
  41 726.982 -1.75748e-10 2.85047e-13
  42 726.982 -1.75209e-10 5.74728e-13
  43 726.982 -1.74940e-10 1.11144e-12
  44 726.982 -1.74940e-10 4.64596e-13
  45 726.982 -1.74940e-10 -1.16929e-13
  46 726.982 -1.75075e-10 -3.88146e-13
  47 726.982 -1.75344e-10 3.06893e-13
  48 726.982 -1.75344e-10 8.98395e-13
  49 726.982 -1.74670e-10 6.48279e-13
  50 726.982 -1.74805e-10 7.45075e-14
  51 726.982 -1.74468e-10 3.49254e-13
  52 726.982 -1.74367e-10 -1.03847e-13
  53 726.982 -1.74940e-10 -1.48692e-13
  54 726.982 -1.74974e-10 1.62017e-14
  55 726.982 -1.75075e-10 -5.58806e-14
  56 726.982 -1.75479e-10 -1.15135e-13
  57 726.982 -1.74805e-10 -1.00798e-12
  58 726.982 -1.75748e-10 -5.88289e-13
  59 726.982 -1.75017e-10 6.40859e-13
  60 726.982 -1.75007e-10 1.60603e-13
  61 726.982 -1.74940e-10 -1.50048e-12
  62 726.982 -1.75412e-10 -3.48861e-13
  63 726.982 -1.75722e-10 2.42435e-12
  64 726.982 -1.74872e-10 -1.27726e-12
  65 726.982 -1.74805e-10 1.21762e-12
  66 726.982 -1.75007e-10 6.89303e-13
  67 726.982 -1.75277e-10 -1.41597e-12
  68 726.982 -1.74536e-10 8.86923e-13
  69 726.982 -1.74670e-10 -5.95010e-13
  70 726.982 -1.75176e-10 1.68179e-13
  71 726.982 -1.75277e-10 -5.97926e-13
  72 726.982 -1.74555e-10 -1.25149e-12
  73 726.982 -1.75999e-10 2.03917e-12
  74 726.982 -1.75317e-10 8.17452e-13
  75 726.982 -1.75560e-10 -2.56871e-13
  76 726.982 -1.75142e-10 9.25613e-13
  77 726.982 -1.75142e-10 -1.14784e-12
  78 726.982 -1.74670e-10 -9.66347e-13
  79 726.982 -1.75479e-10 4.22911e-13
  80 726.982 -1.75479e-10 3.65639e-13
  81 726.982 -1.74670e-10 -7.03598e-13
  82 726.982 -1.74940e-10 1.49976e-13
  83 726.982 -1.75748e-10 -3.08320e-14
  84 726.982 -1.75007e-10 -1.17227e-14
  85 726.982 -1.74738e-10 -1.70861e-12
  86 726.982 -1.74805e-10 8.28849e-14
  87 726.982 -1.75816e-10 -4.08055e-14
  88 726.982 -1.75883e-10 -7.51855e-13
  89 726.982 -1.75236e-10 -1.89613e-13
  90 726.982 -1.75883e-10 1.39145e-12
  91 726.982 -1.75236e-10 6.03079e-13
  92 726.982 -1.74913e-10 -2.04252e-12
  93 726.982 -1.75722e-10 1.31749e-12
  94 726.982 -1.75641e-10 -1.32644e-12
  95 726.982 -1.75479e-10 -1.97413e-13
  96 726.982 -1.75344e-10 -2.83156e-13
  97 726.982 -1.77581e-10 2.17005e-13
  98 726.982 -1.74994e-10 3.81904e-13
  99 726.982 -1.74333e-10 -6.67465e-13
  100 726.982 -1.74913e-10 3.74026e-13
  101 726.982 -1.75007e-10 6.95388e-14
  102 726.982 -1.74751e-10 -3.34909e-13
  103 726.982 -1.75412e-10 -8.55814e-13
  104 726.982 -1.75641e-10 1.90823e-13
  105 726.982 -1.75883e-10 -1.04851e-12
  106 726.982 -1.75142e-10 4.80419e-13
  107 726.982 -1.74872e-10 -6.05504e-13
  108 726.982 -1.74401e-10 -3.94008e-13
  109 726.982 -1.75075e-10 4.23795e-13
  110 726.982 -1.74994e-10 -1.40188e-12
  111 726.982 -1.74822e-10 -5.26396e-13
  112 726.982 -1.74940e-10 7.87510e-13
  113 726.982 -1.74959e-10 -5.19046e-13
  114 726.982 -1.74613e-10 -9.74674e-14
  115 726.982 -1.75007e-10 -1.32069e-13
  116 726.982 -1.74994e-10 -2.58188e-14
  117 726.982 -1.75209e-10 -1.03865e-12
  118 726.982 -1.74940e-10 2.23480e-13
  119 726.982 -1.74093e-10 -9.50778e-13
  120 726.982 -1.75075e-10 -3.62891e-13
  121 726.982 -1.74901e-10 -1.07475e-12
  122 726.982 -1.74959e-10 -2.68459e-14
  123 726.982 -1.74872e-10 -7.09430e-13
  124 726.982 -1.75363e-10 -1.63669e-13
  125 726.982 -1.75378e-10 1.62232e-13
  126 726.982 -1.75024e-10 2.35185e-13
  127 726.982 -1.75537e-10 2.25419e-12
  128 726.982 -1.76844e-10 7.94878e-14
  129 726.982 -1.75024e-10 7.65799e-13
  130 726.982 -1.74940e-10 6.03698e-14
  131 726.982 -1.74872e-10 2.69601e-13
  132 726.982 -1.75984e-10 -4.51884e-13
  133 726.982 -1.75017e-10 -2.94762e-12
  134 726.982 -1.75132e-10 -1.22601e-12
  135 726.982 -1.75883e-10 1.87142e-12
  136 726.982 -1.75363e-10 -1.94945e-13
  137 726.982 -1.74786e-10 -8.02727e-14
  138 726.982 -1.75075e-10 9.13722e-14
  139 726.982 -1.75132e-10 -5.03495e-13
  140 726.982 -1.76114e-10 5.34887e-14
  141 726.982 -1.75546e-10 -2.69292e-13
  142 726.982 -1.75344e-10 7.74807e-13
  143 726.982 -1.75248e-10 -7.04376e-14
  144 726.982 -1.75236e-10 1.78840e-13
  145 726.982 -1.74185e-10 5.84146e-13
  146 726.982 -1.75132e-10 8.22660e-13
  147 726.982 -1.75075e-10 -1.07663e-12
  148 726.982 -1.74940e-10 -2.25415e-13
  149 726.982 -1.73929e-10 2.28353e-13
  150 726.982 -1.75007e-10 1.31166e-13
  151 726.982 -1.74670e-10 -2.00150e-12
  152 726.982 -1.74805e-10 -9.52571e-13
  153 726.982 -1.75412e-10 1.09136e-12
  154 726.982 -1.75722e-10 1.25085e-12
  155 726.982 -1.74805e-10 4.33237e-13
  156 726.982 -1.74670e-10 -1.18080e-13
  157 726.982 -1.74959e-10 -1.09859e-12
  158 726.982 -1.74738e-10 -4.64618e-13
  159 726.982 -1.75209e-10 -1.00995e-12
  160 726.982 -1.74913e-10 -6.31663e-13
  161 726.982 -1.75075e-10 8.30347e-13
  162 726.982 -1.75614e-10 9.54347e-13
  163 726.982 -1.75142e-10 -1.59062e-13
  164 726.982 -1.75826e-10 3.69549e-12
  165 726.982 -1.75075e-10 -1.44402e-13
  166 726.982 -1.74613e-10 6.14416e-13
  167 726.982 -1.73688e-10 -5.30978e-13
  168 726.982 -1.75537e-10 -5.35080e-13
  169 726.982 -1.75132e-10 1.13351e-13
  170 726.982 -1.74913e-10 -8.71274e-13
  171 726.982 -1.75768e-10 1.17795e-12
  172 726.982 -1.75007e-10 -1.40349e-13
  173 726.982 -1.75007e-10 8.85332e-13
  174 726.982 -1.73457e-10 7.99719e-13
  175 726.982 -1.75075e-10 -1.34360e-13
  176 726.982 -1.75412e-10 -1.83842e-14
  177 726.982 -1.76085e-10 2.44940e-14
  178 726.982 -1.75412e-10 4.75685e-13
  179 726.982 -1.74913e-10 -7.69575e-16
  180 726.982 -1.74901e-10 -7.84835e-13
  181 726.982 -1.74603e-10 -1.32826e-12
  182 726.982 -1.74913e-10 -5.14492e-13
  183 726.982 -1.75277e-10 -5.23958e-13
  184 726.982 -1.74913e-10 -1.97479e-12
  185 726.982 -1.75007e-10 3.18734e-14
  186 726.982 -1.74670e-10 -6.78305e-13
  187 726.982 -1.75344e-10 1.08489e-12
  188 726.982 -1.75075e-10 6.87853e-13
  189 726.982 -1.75075e-10 -1.13115e-12
  190 726.982 -1.75306e-10 2.84361e-13
  191 726.982 -1.75748e-10 1.12336e-12
  192 726.982 -1.75594e-10 2.13193e-12
  193 726.982 -1.74832e-10 1.78312e-13
  194 726.982 -1.74468e-10 -1.47526e-12
  195 726.982 -1.75007e-10 1.44509e-12
  196 726.982 -1.74940e-10 -7.05840e-13
  197 726.982 -1.75546e-10 3.65489e-13
  198 726.982 -1.75479e-10 -2.90912e-12
  199 726.982 -1.74805e-10 -1.01328e-12
  200 726.982 -1.76153e-10 3.57342e-14
  201 726.982 -1.75614e-10 2.21496e-13
  202 726.982 -1.75075e-10 -1.76905e-13
  203 726.982 -1.75546e-10 -8.49476e-13
  204 726.982 -1.74940e-10 -6.09213e-13
  205 726.982 -1.75007e-10 -5.96563e-13
  206 726.982 -1.76449e-10 1.17588e-12
  207 726.982 -1.74994e-10 -7.81165e-14
  208 726.982 -1.74670e-10 3.53869e-13
  209 726.982 -1.75951e-10 -1.40326e-13
  210 726.982 -1.75142e-10 1.34550e-12
  211 726.982 -1.74844e-10 -1.35438e-13
  212 726.982 -1.75155e-10 2.53364e-12
  213 726.982 -1.75479e-10 -1.42647e-13
  214 726.982 -1.75614e-10 4.67666e-13
  215 726.982 -1.75883e-10 -1.09995e-12
  216 726.982 -1.75317e-10 -1.12430e-12
  217 726.982 -1.77096e-10 1.01698e-12
  218 726.982 -1.74872e-10 1.67282e-12
  219 726.982 -1.74509e-10 -3.33384e-13
  220 726.982 -1.75748e-10 -6.53247e-13
  221 726.982 -1.75277e-10 1.31199e-12
  222 726.982 -1.75209e-10 -4.30198e-13
  223 726.982 -1.75479e-10 5.32613e-13
  224 726.982 -1.75802e-10 6.64619e-13
  225 726.982 -1.76449e-10 6.93232e-13
  226 726.982 -1.74832e-10 8.57317e-13
  227 726.982 -1.74536e-10 -4.04274e-13
  228 726.982 -1.74994e-10 1.12758e-12
  229 726.982 -1.75075e-10 4.05632e-13
  230 726.982 -1.75277e-10 -1.29895e-12
  231 726.982 -1.76045e-10 2.39563e-12
  232 726.982 -1.74913e-10 -6.62985e-13
  233 726.982 -1.74832e-10 -2.12932e-12
  234 726.982 -1.75546e-10 -6.88533e-13
  235 726.982 -1.75883e-10 -6.85263e-13
  236 726.982 -1.75190e-10 -1.87536e-13
  237 726.982 -1.74428e-10 -3.06224e-13
  238 726.982 -1.74994e-10 -3.81541e-13
  239 726.982 -1.74670e-10 -5.37476e-13
  240 726.982 -1.75155e-10 1.26103e-12
  241 726.982 -1.74805e-10 -1.83355e-12
</Section>

newXOutput 106

<Section columns = "stress_xx | stress_yy | stress_xy">
  1 708.539 -1.66980e-10 -2.07137e-12
  2 708.539 -1.92985e-10 -1.14000e-11
  3 708.539 -1.73432e-10 3.01128e-12
  4 708.539 -1.76365e-10 -4.93661e-12
  5 708.539 -1.68153e-10 -4.74995e-12
  6 708.539 -1.68153e-10 -6.07918e-12
  7 708.539 -1.70011e-10 -6.01058e-12
  8 708.539 -1.71151e-10 -3.75276e-12
  9 708.539 -1.74149e-10 1.55344e-12
  10 708.539 -1.71412e-10 1.37007e-11
  11 708.539 -1.69326e-10 1.87662e-11
  12 708.539 -1.67762e-10 1.59928e-11
  13 708.539 -1.63167e-10 5.30448e-13
  14 708.539 -1.65676e-10 -1.01621e-11
  15 708.539 -1.58181e-10 -2.14993e-11
  16 708.539 -1.69326e-10 -5.13280e-11
  17 708.539 -1.77538e-10 -3.84402e-11
  18 708.539 -1.85490e-10 -1.32785e-11
  19 708.539 -1.80015e-10 2.89342e-11
  20 708.539 -1.57595e-10 3.09032e-11
  21 708.539 -1.53423e-10 -2.26308e-11
  22 708.539 -1.62157e-10 -5.04069e-11
  23 708.539 -1.76756e-10 -3.50292e-11
  24 708.539 -1.63330e-10 4.61589e-12
  25 708.539 -1.69131e-10 -3.55793e-12
  26 708.539 -1.73041e-10 -6.05961e-12
  27 708.539 -1.74019e-10 8.69876e-12
  28 708.539 -1.64438e-10 -4.06711e-12
  29 708.539 -1.70695e-10 -1.21293e-12
  30 708.539 -1.73888e-10 -5.92988e-13
  31 708.539 -1.71151e-10 8.12177e-12
  32 708.539 -1.68935e-10 1.01627e-11
  33 708.539 -1.66002e-10 7.23692e-12
  34 708.539 -1.65937e-10 2.63293e-12
  35 708.539 -1.64731e-10 -5.54785e-12
  36 708.539 -1.68544e-10 -1.36042e-11
  37 708.539 -1.70760e-10 -1.15065e-11
  38 708.539 -1.69717e-10 -6.59147e-12
  39 708.539 -1.71151e-10 -3.98456e-12
  40 708.539 -1.71933e-10 2.87228e-12
  41 708.539 -1.67632e-10 7.92912e-12
  42 708.539 -1.65807e-10 2.16371e-12
  43 708.539 -1.71933e-10 3.14479e-12
  44 708.539 -1.71281e-10 9.05149e-12
  45 708.539 -1.66458e-10 7.12606e-12
  46 708.539 -1.64764e-10 -1.82480e-12
  47 708.539 -1.65937e-10 -1.33447e-11
  48 708.539 -1.68935e-10 -1.76706e-11
  49 708.539 -1.71021e-10 -1.29591e-11
  50 708.539 -1.78320e-10 1.10537e-12
  51 708.539 -1.70499e-10 2.47977e-12
  52 708.539 -1.66198e-10 2.30433e-12
  53 708.539 -1.67371e-10 -3.13625e-12
  54 708.539 -1.70304e-10 1.55485e-12
  55 708.539 -1.66589e-10 1.29379e-12
  56 708.539 -1.63330e-10 2.35394e-13
  57 708.539 -1.66133e-10 -6.36725e-12
  58 708.539 -1.67697e-10 2.37357e-11
  59 708.539 -1.73069e-10 7.67105e-13
  60 708.539 -1.75844e-10 1.34168e-12
  61 708.539 -1.66784e-10 -1.05494e-11
  62 708.539 -1.69782e-10 -2.02485e-11
  63 708.539 -1.84968e-10 2.38529e-11
  64 708.539 -1.64699e-10 -4.54327e-11
  65 708.539 -1.66980e-10 2.43225e-11
  66 708.539 -1.68544e-10 7.64338e-12
  67 708.539 -1.64177e-10 -2.23146e-11
  68 708.539 -1.72455e-10 2.57561e-12
  69 708.539 -1.70388e-10 -8.87084e-13
  70 708.539 -1.72015e-10 9.45773e-12
  71 708.539 -1.70695e-10 -1.54451e-12
  72 708.539 -1.64522e-10 -7.29275e-12
  73 708.539 -1.72790e-10 -1.79904e-11
  74 708.539 -1.65885e-10 9.15036e-12
  75 708.539 -1.72455e-10 -1.59651e-11
  76 708.539 -1.68935e-10 3.18047e-11
  77 708.539 -1.66393e-10 -1.18828e-11
  78 708.539 -1.62418e-10 2.24918e-12
  79 708.539 -1.72399e-10 1.04207e-11
  80 708.539 -1.70434e-10 -1.14074e-11
  81 708.539 -1.68414e-10 -1.45335e-11
  82 708.539 -1.71738e-10 -5.60307e-12
  83 708.539 -1.68740e-10 4.00491e-12
  84 708.539 -1.71347e-10 8.88852e-13
  85 708.539 -1.84642e-10 1.92675e-11
  86 708.539 -1.63265e-10 4.20013e-11
  87 708.539 -1.71933e-10 1.24036e-12
  88 708.539 -1.72611e-10 1.66385e-13
  89 708.539 -1.65337e-10 1.36908e-12
  90 708.539 -1.71672e-10 -6.65175e-12
  91 708.539 -1.58611e-10 4.97939e-14
  92 708.539 -1.66980e-10 -1.65259e-11
  93 708.539 -1.69092e-10 3.53915e-11
  94 708.539 -1.85829e-10 4.33848e-12
  95 708.539 -1.69248e-10 2.34859e-11
  96 708.539 -1.67957e-10 1.56158e-11
  97 708.539 -1.53215e-10 3.89029e-11
  98 708.539 -1.61974e-10 -7.11883e-12
  99 708.539 -1.62743e-10 -1.47911e-12
  100 708.539 -1.66198e-10 -1.55764e-12
  101 708.539 -1.64112e-10 -7.11004e-12
  102 708.539 -1.73862e-10 1.32439e-11
  103 708.539 -1.71151e-10 -1.85123e-11
  104 708.539 -1.73080e-10 3.20229e-12
  105 708.539 -1.78711e-10 6.55579e-12
  106 708.539 -1.70304e-10 1.07476e-11
  107 708.539 -1.72715e-10 -1.20634e-11
  108 708.539 -1.64959e-10 4.00921e-12
  109 708.539 -1.70656e-10 4.15476e-12
  110 708.539 -1.64634e-10 -1.27635e-11
  111 708.539 -1.66491e-10 -6.68335e-13
  112 708.539 -1.65611e-10 -3.04366e-12
  113 708.539 -1.72622e-10 -9.77687e-12
  114 708.539 -1.68041e-10 -7.94332e-12
  115 708.539 -1.69065e-10 -2.67205e-15
  116 708.539 -1.69561e-10 -1.10787e-11
  117 708.539 -1.57660e-10 -2.88320e-11
  118 708.539 -1.67827e-10 1.69339e-11
  119 708.539 -1.67483e-10 -1.54083e-12
  120 708.539 -1.62809e-10 -6.16275e-13
  121 708.539 -1.65304e-10 -7.17998e-12
  122 708.539 -1.71281e-10 5.13122e-12
  123 708.539 -1.74475e-10 1.56626e-11
  124 708.539 -1.72622e-10 1.25152e-11
  125 708.539 -1.66980e-10 -1.48043e-11
  126 708.539 -1.72357e-10 -1.57838e-12
  127 708.539 -1.73907e-10 7.00882e-13
  128 708.539 -1.64780e-10 2.06096e-11
  129 708.539 -1.60332e-10 -1.57569e-12
  130 708.539 -1.71803e-10 -1.56611e-11
  131 708.539 -1.61505e-10 -4.48503e-12
  132 708.539 -1.74214e-10 1.60016e-11
  133 708.539 -1.85248e-10 2.51142e-11
  134 708.539 -1.68712e-10 -6.74299e-12
  135 708.539 -1.57371e-10 2.91569e-11
  136 708.539 -1.67147e-10 -1.19907e-11
  137 708.539 -1.68544e-10 -1.98238e-11
  138 708.539 -1.64959e-10 2.59873e-12
  139 708.539 -1.66365e-10 -9.36519e-12
  140 708.539 -1.66868e-10 2.77163e-11
  141 708.539 -1.70695e-10 1.06844e-12
  142 708.539 -1.74019e-10 8.60586e-14
  143 708.539 -1.71170e-10 4.97531e-12
  144 708.539 -1.73393e-10 1.69600e-11
  145 708.539 -1.64555e-10 3.67791e-12
  146 708.539 -1.67985e-10 2.28412e-11
  147 708.539 -1.75322e-10 -9.60953e-13
  148 708.539 -1.70434e-10 -4.75664e-12
  149 708.539 -1.61766e-10 9.73092e-12
  150 708.539 -1.71868e-10 4.42979e-12
  151 708.539 -1.65090e-10 -1.11315e-11
  152 708.539 -1.61961e-10 -1.89479e-11
  153 708.539 -1.67371e-10 1.89163e-11
  154 708.539 -1.75348e-10 5.39905e-12
  155 708.539 -1.75192e-10 4.78815e-12
  156 708.539 -1.66198e-10 -4.64275e-13
  157 708.539 -1.66254e-10 -9.84039e-13
  158 708.539 -1.72194e-10 -2.95653e-11
  159 708.539 -1.66719e-10 1.23101e-11
  160 708.539 -1.64555e-10 -6.44961e-12
  161 708.539 -1.78946e-10 1.66906e-11
  162 708.539 -1.72389e-10 1.67917e-11
  163 708.539 -1.73888e-10 -2.89023e-11
  164 708.539 -1.75527e-10 -2.86100e-11
  165 708.539 -1.70630e-10 4.13253e-12
  166 708.539 -1.73237e-10 7.48779e-12
  167 708.539 -1.61338e-10 -6.08197e-12
  168 708.539 -1.71784e-10 -3.72379e-12
  169 708.539 -1.65304e-10 3.70268e-12
  170 708.539 -1.65259e-10 -2.16119e-11
  171 708.539 -1.68712e-10 1.67865e-12
  172 708.539 -1.62939e-10 -8.26661e-12
  173 708.539 -1.63460e-10 1.04774e-11
  174 708.539 -1.73628e-10 1.30388e-11
  175 708.539 -1.75583e-10 -4.66091e-12
  176 708.539 -1.65872e-10 -3.24011e-12
  177 708.539 -1.73432e-10 2.67323e-12
  178 708.539 -1.69717e-10 4.37905e-12
  179 708.539 -1.69404e-10 -9.46687e-12
  180 708.539 -1.65416e-10 -8.37827e-12
  181 708.539 -1.60397e-10 -1.51394e-11
  182 708.539 -1.71281e-10 -1.07316e-11
  183 708.539 -1.63721e-10 -1.55714e-11
  184 708.539 -1.77460e-10 -7.67320e-12
  185 708.539 -1.69848e-10 9.27688e-12
  186 708.539 -1.61114e-10 -1.24310e-11
  187 708.539 -1.69326e-10 7.43391e-12
  188 708.539 -1.74019e-10 1.02936e-11
  189 708.539 -1.65963e-10 -9.51363e-12
  190 708.539 -1.62008e-10 -2.73018e-12
  191 708.539 -1.73823e-10 1.09234e-11
  192 708.539 -1.78823e-10 -2.23741e-11
  193 708.539 -1.65807e-10 -6.38003e-12
  194 708.539 -1.67957e-10 -3.71448e-11
  195 708.539 -1.68283e-10 1.97226e-11
  196 708.539 -1.68283e-10 -1.33113e-11
  197 708.539 -1.68935e-10 1.11167e-11
  198 708.539 -1.87380e-10 4.89959e-11
  199 708.539 -1.68609e-10 -7.03362e-12
  200 708.539 -1.72976e-10 4.16215e-11
  201 708.539 -1.76300e-10 -1.39507e-12
  202 708.539 -1.77382e-10 3.53333e-11
  203 708.539 -1.68609e-10 -8.36694e-12
  204 708.539 -1.64959e-10 -2.65163e-12
  205 708.539 -1.65481e-10 -4.54938e-12
  206 708.539 -1.46254e-10 3.62636e-11
  207 708.539 -1.64477e-10 -7.69616e-12
  208 708.539 -1.63695e-10 1.86651e-13
  209 708.539 -1.65807e-10 4.62230e-12
  210 708.539 -1.66067e-10 8.93491e-12
  211 708.539 -1.68265e-10 -8.15121e-12
  212 708.539 -1.68466e-10 4.37794e-12
  213 708.539 -1.70734e-10 -1.31448e-11
  214 708.539 -1.70695e-10 2.66355e-11
  215 708.539 -1.73941e-10 1.48497e-11
  216 708.539 -1.65337e-10 -3.56244e-11
  217 708.539 -1.63004e-10 -2.64394e-11
  218 708.539 -1.62874e-10 1.26243e-11
  219 708.539 -1.71751e-10 -1.49730e-12
  220 708.539 -1.66328e-10 -1.96858e-11
  221 708.539 -1.69782e-10 1.78043e-11
  222 708.539 -1.59615e-10 -7.04433e-12
  223 708.539 -1.71281e-10 6.93961e-12
  224 708.539 -1.73237e-10 -2.26226e-12
  225 708.539 -1.83013e-10 -2.38511e-11
  226 708.539 -1.66823e-10 2.01718e-14
  227 708.539 -1.71281e-10 8.44407e-13
  228 708.539 -1.66667e-10 -1.40397e-11
  229 708.539 -1.69457e-10 -1.52021e-12
  230 708.539 -1.59615e-10 -3.63934e-12
  231 708.539 -1.75583e-10 2.71817e-11
  232 708.539 -1.68622e-10 3.02977e-12
  233 708.539 -1.52354e-10 -2.96906e-11
  234 708.539 -1.72194e-10 4.71878e-12
  235 708.539 -1.71516e-10 5.62766e-12
  236 708.539 -1.69214e-10 5.80798e-12
  237 708.539 -1.62209e-10 -1.45914e-12
  238 708.539 -1.69874e-10 -4.13026e-12
  239 708.539 -1.76756e-10 1.02399e-11
  240 708.539 -1.64164e-10 1.33952e-12
  241 708.539 -1.69522e-10 -1.67270e-12
</Section>

newXOutput 107

<Section columns = "stress_xx | stress_yy | stress_xy">
  1 690.166 -1.61796e-10 -9.83934e-13
  2 690.166 -1.61418e-10 1.15422e-13
  3 690.166 -1.73137e-10 7.15970e-12
  4 690.166 -1.47242e-10 7.89271e-12
  5 690.166 -1.62426e-10 -2.83165e-12
  6 690.166 -1.63876e-10 -4.13738e-12
  7 690.166 -1.64159e-10 -2.78959e-12
  8 690.166 -1.62805e-10 -8.08486e-13
  9 690.166 -1.63057e-10 7.34898e-14
  10 690.166 -1.63435e-10 1.11845e-12
  11 690.166 -1.63183e-10 2.28530e-12
  12 690.166 -1.62300e-10 2.58253e-12
  13 690.166 -1.62174e-10 1.43723e-12
  14 690.166 -1.62300e-10 4.87515e-14
  15 690.166 -1.61702e-10 -3.11675e-12
  16 690.166 -1.63309e-10 -6.22940e-12
  17 690.166 -1.63183e-10 -5.88096e-12
  18 690.166 -1.64443e-10 -2.99019e-12
  19 690.166 -1.65703e-10 7.70012e-13
  20 690.166 -1.65325e-10 3.34759e-12
  21 690.166 -1.63687e-10 6.09461e-12
  22 690.166 -1.62174e-10 6.86080e-12
  23 690.166 -1.61922e-10 3.62995e-12
  24 690.166 -1.59906e-10 5.35082e-13
  25 690.166 -1.61607e-10 -1.09158e-12
  26 690.166 -1.63214e-10 -2.82735e-12
  27 690.166 -1.64317e-10 3.05185e-12
  28 690.166 -1.62174e-10 -1.86649e-12
  29 690.166 -1.68601e-10 -1.87127e-12
  30 690.166 -1.73641e-10 -1.61470e-12
  31 690.166 -1.66963e-10 1.78610e-11
  32 690.166 -1.62174e-10 2.37649e-11
  33 690.166 -1.60095e-10 1.76865e-11
  34 690.166 -1.59276e-10 9.49948e-12
  35 690.166 -1.54330e-10 -6.19208e-12
  36 690.166 -1.57890e-10 -2.43661e-11
  37 690.166 -1.60788e-10 -3.09114e-11
  38 690.166 -1.69987e-10 -2.63731e-11
  39 690.166 -1.74901e-10 -8.81985e-12
  40 690.166 -1.71751e-10 1.60068e-11
  41 690.166 -1.66963e-10 4.18021e-11
  42 690.166 -1.58394e-10 4.34353e-11
  43 690.166 -1.46549e-10 1.50583e-11
  44 690.166 -1.48313e-10 -1.81905e-11
  45 690.166 -1.64065e-10 -3.29770e-11
  46 690.166 -1.75153e-10 -1.77557e-11
  47 690.166 -1.72759e-10 1.75791e-11
  48 690.166 -1.66207e-10 3.36072e-11
  49 690.166 -1.57512e-10 2.33691e-11
  50 690.166 -1.64191e-10 -3.02295e-12
  51 690.166 -1.62174e-10 1.74132e-12
  52 690.166 -1.60284e-10 2.83703e-12
  53 690.166 -1.58772e-10 -3.00908e-12
  54 690.166 -1.62931e-10 9.03500e-13
  55 690.166 -1.62174e-10 4.15838e-13
  56 690.166 -1.61418e-10 -2.00441e-14
  57 690.166 -1.62868e-10 -2.89153e-12
  58 690.166 -1.61796e-10 -8.51226e-13
  59 690.166 -1.65415e-10 3.43587e-12
  60 690.166 -1.63183e-10 3.40719e-12
  61 690.166 -1.58142e-10 -7.41773e-12
  62 690.166 -1.55118e-10 -8.82992e-12
  63 690.166 -1.63460e-10 1.38256e-11
  64 690.166 -1.62237e-10 -1.54377e-11
  65 690.166 -1.65325e-10 2.27099e-11
  66 690.166 -1.64254e-10 5.29650e-12
  67 690.166 -1.61733e-10 -8.24418e-12
  68 690.166 -1.64191e-10 5.20574e-12
  69 690.166 -1.56450e-10 6.19538e-12
  70 690.166 -1.72145e-10 -9.95730e-13
  71 690.166 -1.63057e-10 -1.22548e-13
  72 690.166 -1.61040e-10 -7.02770e-12
  73 690.166 -1.66117e-10 -1.93780e-12
  74 690.166 -1.63233e-10 8.26999e-12
  75 690.166 -1.63157e-10 -1.23692e-11
  76 690.166 -1.64128e-10 1.05277e-11
  77 690.166 -1.61796e-10 -1.06835e-11
  78 690.166 -1.54236e-10 -7.94614e-12
  79 690.166 -1.62552e-10 7.93288e-12
  80 690.166 -1.67719e-10 -2.81064e-12
  81 690.166 -1.61229e-10 -1.09684e-11
  82 690.166 -1.67089e-10 1.62814e-11
  83 690.166 -1.62868e-10 6.61933e-12
  84 690.166 -1.64317e-10 4.28537e-13
  85 690.166 -1.63750e-10 -2.00712e-12
  86 690.166 -1.60914e-10 5.08657e-12
  87 690.166 -1.65388e-10 -2.46208e-11
  88 690.166 -1.68979e-10 -6.03265e-12
  89 690.166 -1.61721e-10 -2.34254e-14
  90 690.166 -1.63372e-10 1.78046e-12
  91 690.166 -1.50909e-10 1.25263e-11
  92 690.166 -1.63762e-10 -1.23628e-11
  93 690.166 -1.58999e-10 1.62092e-11
  94 690.166 -1.65577e-10 -3.63206e-13
  95 690.166 -1.47280e-10 -3.60950e-12
  96 690.166 -1.65136e-10 -2.82637e-12
  97 690.166 -1.63838e-10 6.11851e-12
  98 690.166 -1.71474e-10 -2.19566e-11
  99 690.166 -1.59843e-10 -1.51293e-12
  100 690.166 -1.62779e-10 3.28084e-12
  101 690.166 -1.61607e-10 4.52154e-13
  102 690.166 -1.62326e-10 3.84732e-12
  103 690.166 -1.63498e-10 4.49840e-13
  104 690.166 -1.60209e-10 -2.20839e-13
  105 690.166 -1.77296e-10 -1.49227e-12
  106 690.166 -1.64506e-10 1.88889e-12
  107 690.166 -1.63309e-10 -6.28016e-12
  108 690.166 -1.60032e-10 6.88756e-12
  109 690.166 -1.63611e-10 3.26046e-12
  110 690.166 -1.61872e-10 -4.34866e-12
  111 690.166 -1.60095e-10 -6.85177e-12
  112 690.166 -1.64254e-10 -4.16293e-12
  113 690.166 -1.72867e-10 -2.09606e-13
  114 690.166 -1.60068e-10 -4.51292e-12
  115 690.166 -1.62994e-10 6.86460e-13
  116 690.166 -1.63309e-10 -2.15456e-12
  117 690.166 -1.62363e-10 -1.41827e-11
  118 690.166 -1.67215e-10 1.24978e-11
  119 690.166 -1.60986e-10 -3.27367e-12
  120 690.166 -1.53543e-10 -2.96586e-12
  121 690.166 -1.60068e-10 -4.09431e-12
  122 690.166 -1.65469e-10 -8.09300e-13
  123 690.166 -1.62615e-10 9.61179e-12
  124 690.166 -1.64767e-10 -2.44653e-12
  125 690.166 -1.59906e-10 -6.57274e-12
  126 690.166 -1.64017e-10 2.99991e-13
  127 690.166 -1.65037e-10 8.66408e-12
  128 690.166 -1.65151e-10 4.02885e-12
  129 690.166 -1.65860e-10 -6.07562e-12
  130 690.166 -1.63876e-10 -2.20333e-12
  131 690.166 -1.61418e-10 1.30621e-12
  132 690.166 -1.64395e-10 7.99695e-12
  133 690.166 -1.63795e-10 -2.33295e-12
  134 690.166 -1.61202e-10 -4.52502e-12
  135 690.166 -1.62660e-10 6.01926e-12
  136 690.166 -1.69195e-10 -1.53496e-11
  137 690.166 -1.59258e-10 1.65108e-12
  138 690.166 -1.62489e-10 -4.71294e-12
  139 690.166 -1.63147e-10 -7.49000e-12
  140 690.166 -1.64011e-10 7.72514e-12
  141 690.166 -1.60158e-10 6.03751e-12
  142 690.166 -1.63435e-10 2.52408e-12
  143 690.166 -1.65631e-10 6.04814e-12
  144 690.166 -1.70113e-10 9.64458e-12
  145 690.166 -1.56882e-10 1.09759e-11
  146 690.166 -1.47809e-10 3.08133e-12
  147 690.166 -1.75720e-10 5.01575e-12
  148 690.166 -1.63876e-10 -3.63836e-12
  149 690.166 -1.61481e-10 4.75703e-12
  150 690.166 -1.64380e-10 1.18462e-12
  151 690.166 -1.60158e-10 -1.15802e-11
  152 690.166 -1.59402e-10 5.99554e-13
  153 690.166 -1.65325e-10 2.20829e-12
  154 690.166 -1.68299e-10 2.32270e-12
  155 690.166 -1.62931e-10 3.59344e-12
  156 690.166 -1.61094e-10 -3.30836e-12
  157 690.166 -1.64551e-10 3.36717e-12
  158 690.166 -1.62805e-10 -1.10737e-11
  159 690.166 -1.63624e-10 -2.20209e-13
  160 690.166 -1.57336e-10 -6.01563e-12
  161 690.166 -1.67316e-10 4.80684e-12
  162 690.166 -1.60851e-10 4.03516e-12
  163 690.166 -1.65766e-10 -6.70064e-12
  164 690.166 -1.64767e-10 3.18020e-12
  165 690.166 -1.63750e-10 2.92455e-12
  166 690.166 -1.66225e-10 2.10146e-12
  167 690.166 -1.59690e-10 -2.17117e-12
  168 690.166 -1.69249e-10 -5.78004e-12
  169 690.166 -1.61580e-10 1.09811e-12
  170 690.166 -1.59301e-10 -1.16665e-11
  171 690.166 -1.62498e-10 3.16228e-12
  172 690.166 -1.61481e-10 -2.46204e-13
  173 690.166 -1.53984e-10 -2.95722e-12
  174 690.166 -1.60473e-10 2.54711e-12
  175 690.166 -1.58520e-10 -6.65588e-12
  176 690.166 -1.61418e-10 -1.17889e-12
  177 690.166 -1.71373e-10 4.34849e-12
  178 690.166 -1.64758e-10 9.48109e-12
  179 690.166 -1.63687e-10 -1.71575e-12
  180 690.166 -1.62390e-10 -7.96245e-12
  181 690.166 -1.56882e-10 -1.87569e-12
  182 690.166 -1.65199e-10 -1.45669e-11
  183 690.166 -1.51968e-10 8.01270e-13
  184 690.166 -1.63535e-10 -4.88993e-12
  185 690.166 -1.64191e-10 4.96492e-12
  186 690.166 -1.61418e-10 -1.40076e-12
  187 690.166 -1.64380e-10 1.54641e-11
  188 690.166 -1.65879e-10 1.03825e-11
  189 690.166 -1.57411e-10 -3.95451e-12
  190 690.166 -1.55964e-10 7.03642e-12
  191 690.166 -1.59528e-10 3.26075e-12
  192 690.166 -1.64335e-10 1.30966e-12
  193 690.166 -1.56202e-10 -8.64615e-12
  194 690.166 -1.62237e-10 -8.86071e-12
  195 690.166 -1.63498e-10 1.87126e-11
  196 690.166 -1.62994e-10 -1.35890e-11
  197 690.166 -1.63120e-10 4.08124e-12
  198 690.166 -1.65010e-10 1.12491e-12
  199 690.166 -1.66711e-10 3.67437e-12
  200 690.166 -1.62805e-10 3.28522e-12
  201 690.166 -1.66018e-10 -1.17642e-11
  202 690.166 -1.66030e-10 4.62952e-12
  203 690.166 -1.63057e-10 -4.49787e-12
  204 690.166 -1.62742e-10 -5.13452e-12
  205 690.166 -1.61544e-10 -2.57614e-12
  206 690.166 -1.64216e-10 5.36965e-12
  207 690.166 -1.77447e-10 -1.91796e-11
  208 690.166 -1.53253e-10 4.22271e-12
  209 690.166 -1.62805e-10 4.36875e-12
  210 690.166 -1.65136e-10 -3.14445e-12
  211 690.166 -1.62985e-10 -2.68105e-12
  212 690.166 -1.61872e-10 4.86685e-12
  213 690.166 -1.61872e-10 2.37395e-13
  214 690.166 -1.49321e-10 9.63918e-12
  215 690.166 -1.64972e-10 -5.73152e-12
  216 690.166 -1.56882e-10 -6.22511e-12
  217 690.166 -1.64695e-10 -1.40334e-13
  218 690.166 -1.62805e-10 1.47030e-11
  219 690.166 -1.62250e-10 -2.94454e-12
  220 690.166 -1.56882e-10 -5.97588e-12
  221 690.166 -1.66144e-10 3.95150e-12
  222 690.166 -1.58520e-10 6.43598e-12
  223 690.166 -1.62855e-10 3.32584e-12
  224 690.166 -1.64518e-10 1.63647e-13
  225 690.166 -1.66862e-10 1.07053e-12
  226 690.166 -1.63384e-10 3.87857e-12
  227 690.166 -1.63057e-10 -9.93240e-13
  228 690.166 -1.63233e-10 -3.89131e-12
  229 690.166 -1.64821e-10 1.65774e-13
  230 690.166 -1.63183e-10 7.55485e-13
  231 690.166 -1.64140e-10 1.60589e-11
  232 690.166 -1.69281e-10 1.36533e-11
  233 690.166 -1.60209e-10 -1.24936e-11
  234 690.166 -1.54614e-10 -1.28313e-11
  235 690.166 -1.74347e-10 2.48413e-11
  236 690.166 -1.63201e-10 1.59816e-12
  237 690.166 -1.60057e-10 2.25827e-13
  238 690.166 -1.60360e-10 5.06595e-13
  239 690.166 -1.62111e-10 5.36566e-12
  240 690.166 -1.61948e-10 2.73436e-12
  241 690.166 -1.62174e-10 -3.93860e-12
</Section>

newXOutput 108

<Section columns = "stress_xx | stress_yy | stress_xy">
  1 671.863 -1.55596e-10 -1.38579e-13
  2 671.863 -1.57422e-10 -5.22009e-13
  3 671.863 -1.56327e-10 -1.03141e-13
  4 671.863 -1.57788e-10 -8.77501e-13
  5 671.863 -1.56570e-10 -5.51503e-13
  6 671.863 -1.57057e-10 -9.61617e-13
  7 671.863 -1.57148e-10 1.31320e-13
  8 671.863 -1.57057e-10 9.24473e-13
  9 671.863 -1.56692e-10 6.94446e-13
  10 671.863 -1.56692e-10 -6.07682e-13
  11 671.863 -1.56935e-10 -2.11237e-12
  12 671.863 -1.57544e-10 -2.58023e-12
  13 671.863 -1.57422e-10 -1.12969e-12
  14 671.863 -1.56570e-10 -2.00379e-13
  15 671.863 -1.57057e-10 9.74372e-13
  16 671.863 -1.57422e-10 3.04932e-13
  17 671.863 -1.56935e-10 -3.48006e-13
  18 671.863 -1.57179e-10 -8.62994e-13
  19 671.863 -1.57544e-10 4.85955e-13
  20 671.863 -1.56692e-10 4.52559e-13
  21 671.863 -1.55474e-10 -1.20569e-12
  22 671.863 -1.55353e-10 -2.07304e-12
  23 671.863 -1.56327e-10 -1.81337e-12
  24 671.863 -1.57788e-10 1.81024e-13
  25 671.863 -1.58153e-10 1.00189e-13
  26 671.863 -1.57422e-10 -7.03175e-13
  27 671.863 -1.57788e-10 8.26941e-13
  28 671.863 -1.56235e-10 -4.64656e-13
  29 671.863 -1.55779e-10 1.87855e-13
  30 671.863 -1.55961e-10 2.61384e-13
  31 671.863 -1.56570e-10 -5.24392e-13
  32 671.863 -1.56327e-10 -7.37455e-13
  33 671.863 -1.56692e-10 -1.12711e-12
  34 671.863 -1.57057e-10 -1.57378e-12
  35 671.863 -1.57970e-10 -2.31664e-13
  36 671.863 -1.57301e-10 1.53382e-12
  37 671.863 -1.56692e-10 1.41354e-12
  38 671.863 -1.57057e-10 1.04140e-12
  39 671.863 -1.55596e-10 1.17360e-13
  40 671.863 -1.56692e-10 -9.38490e-13
  41 671.863 -1.57422e-10 -1.69625e-12
  42 671.863 -1.57422e-10 -1.88753e-12
  43 671.863 -1.58518e-10 -2.10840e-13
  44 671.863 -1.57788e-10 1.60825e-12
  45 671.863 -1.56327e-10 1.89364e-12
  46 671.863 -1.55840e-10 6.39108e-13
  47 671.863 -1.56327e-10 -1.70317e-12
  48 671.863 -1.56448e-10 -3.05130e-12
  49 671.863 -1.57301e-10 -2.22966e-12
  50 671.863 -1.57179e-10 2.04589e-13
  51 671.863 -1.57057e-10 1.25237e-14
  52 671.863 -1.56966e-10 3.69128e-14
  53 671.863 -1.56935e-10 2.07399e-13
  54 671.863 -1.56783e-10 -2.48890e-13
  55 671.863 -1.57057e-10 0.00000
  56 671.863 -1.56814e-10 1.43903e-13
  57 671.863 -1.56448e-10 -4.92378e-13
  58 671.863 -1.56570e-10 1.40252e-12
  59 671.863 -1.57161e-10 1.48408e-13
  60 671.863 -1.57422e-10 -1.00023e-13
  61 671.863 -1.56570e-10 -1.98113e-13
  62 671.863 -1.57361e-10 2.24062e-13
  63 671.863 -1.57714e-10 4.88394e-13
  64 671.863 -1.56631e-10 -1.85078e-12
  65 671.863 -1.56692e-10 -3.70335e-14
  66 671.863 -1.56753e-10 -1.33654e-12
  67 671.863 -1.56266e-10 -1.67959e-12
  68 671.863 -1.56874e-10 -8.74581e-13
  69 671.863 -1.57996e-10 -1.06623e-12
  70 671.863 -1.57057e-10 3.59712e-13
  71 671.863 -1.55900e-10 -2.53319e-13
  72 671.863 -1.57214e-10 -2.09805e-13
  73 671.863 -1.56692e-10 6.45619e-13
  74 671.863 -1.56473e-10 3.99049e-13
  75 671.863 -1.57276e-10 2.75399e-13
  76 671.863 -1.56996e-10 3.45060e-12
  77 671.863 -1.56448e-10 7.10193e-13
  78 671.863 -1.57118e-10 3.68191e-13
  79 671.863 -1.57214e-10 -2.13535e-13
  80 671.863 -1.56327e-10 -1.50711e-13
  81 671.863 -1.56814e-10 8.35858e-14
  82 671.863 -1.57301e-10 -1.49737e-12
  83 671.863 -1.57118e-10 -8.79514e-13
  84 671.863 -1.56753e-10 2.32405e-13
  85 671.863 -1.56814e-10 9.83700e-13
  86 671.863 -1.56631e-10 2.52343e-12
  87 671.863 -1.56996e-10 1.57454e-12
  88 671.863 -1.55888e-10 -3.63683e-14
  89 671.863 -1.56838e-10 4.63955e-13
  90 671.863 -1.55779e-10 2.31160e-13
  91 671.863 -1.56911e-10 -4.83862e-13
  92 671.863 -1.56034e-10 6.73717e-13
  93 671.863 -1.56619e-10 3.36740e-12
  94 671.863 -1.56400e-10 7.04171e-13
  95 671.863 -1.57203e-10 1.29967e-12
  96 671.863 -1.56631e-10 1.52438e-12
  97 671.863 -1.55596e-10 -3.63015e-13
  98 671.863 -1.55888e-10 8.14906e-13
  99 671.863 -1.57788e-10 -2.44970e-13
  100 671.863 -1.57276e-10 -4.64001e-13
  101 671.863 -1.57483e-10 8.29870e-13
  102 671.863 -1.57203e-10 8.32567e-13
  103 671.863 -1.57483e-10 -1.35845e-12
  104 671.863 -1.57057e-10 9.46375e-13
  105 671.863 -1.56253e-10 6.90843e-13
  106 671.863 -1.57483e-10 6.04219e-13
  107 671.863 -1.56570e-10 -1.36536e-12
  108 671.863 -1.56631e-10 -9.90655e-14
  109 671.863 -1.56473e-10 -6.84368e-13
  110 671.863 -1.56400e-10 -1.70231e-12
  111 671.863 -1.56327e-10 2.99326e-15
  112 671.863 -1.56935e-10 -1.47657e-13
  113 671.863 -1.56900e-10 -2.92394e-13
  114 671.863 -1.57370e-10 -5.98384e-13
  115 671.863 -1.57118e-10 -4.45487e-14
  116 671.863 -1.57276e-10 1.78634e-12
  117 671.863 -1.56327e-10 -2.30981e-12
  118 671.863 -1.56509e-10 1.77329e-13
  119 671.863 -1.57579e-10 1.82081e-13
  120 671.863 -1.58153e-10 -6.91303e-13
  121 671.863 -1.56692e-10 -1.01588e-12
  122 671.863 -1.57266e-10 -1.35468e-13
  123 671.863 -1.57483e-10 -2.06901e-13
  124 671.863 -1.57161e-10 1.06104e-12
  125 671.863 -1.56920e-10 -9.48435e-14
  126 671.863 -1.56281e-10 1.45503e-13
  127 671.863 -1.57057e-10 -7.86591e-13
  128 671.863 -1.55779e-10 -4.21628e-15
  129 671.863 -1.56144e-10 2.75951e-13
  130 671.863 -1.56996e-10 -6.61815e-13
  131 671.863 -1.57605e-10 1.79656e-13
  132 671.863 -1.57011e-10 5.08876e-13
  133 671.863 -1.56848e-10 1.93293e-12
  134 671.863 -1.55909e-10 2.44760e-13
  135 671.863 -1.55909e-10 -2.39697e-13
  136 671.863 -1.56379e-10 7.94625e-14
  137 671.863 -1.57266e-10 -8.84676e-13
  138 671.863 -1.56753e-10 1.44917e-13
  139 671.863 -1.56744e-10 1.01775e-13
  140 671.863 -1.57057e-10 2.30717e-12
  141 671.863 -1.57118e-10 -8.64844e-13
  142 671.863 -1.55840e-10 -1.50165e-13
  143 671.863 -1.56379e-10 3.88711e-13
  144 671.863 -1.57788e-10 1.03373e-14
  145 671.863 -1.57057e-10 -1.12433e-12
  146 671.863 -1.57579e-10 9.31422e-13
  147 671.863 -1.56205e-10 -2.91189e-13
  148 671.863 -1.56570e-10 2.12315e-13
  149 671.863 -1.56144e-10 1.02314e-12
  150 671.863 -1.57361e-10 2.02746e-13
  151 671.863 -1.56874e-10 8.76657e-14
  152 671.863 -1.56631e-10 -2.35655e-12
  153 671.863 -1.56814e-10 1.32632e-12
  154 671.863 -1.56838e-10 5.86790e-13
  155 671.863 -1.56996e-10 4.47578e-13
  156 671.863 -1.55648e-10 -1.05930e-12
  157 671.863 -1.56379e-10 -3.15670e-14
  158 671.863 -1.56753e-10 -8.18829e-13
  159 671.863 -1.56509e-10 1.75286e-12
  160 671.863 -1.56692e-10 3.81043e-13
  161 671.863 -1.58299e-10 1.79327e-12
  162 671.863 -1.57605e-10 3.87234e-13
  163 671.863 -1.57118e-10 -1.06005e-12
  164 671.863 -1.56431e-10 -1.80141e-12
  165 671.863 -1.56570e-10 -7.62306e-13
  166 671.863 -1.56953e-10 3.04085e-13
  167 671.863 -1.56953e-10 1.25481e-13
  168 671.863 -1.55961e-10 1.98021e-14
  169 671.863 -1.57057e-10 -2.75442e-13
  170 671.863 -1.56619e-10 -6.70868e-14
  171 671.863 -1.56953e-10 -4.18805e-13
  172 671.863 -1.57422e-10 2.95492e-13
  173 671.863 -1.57057e-10 5.71492e-13
  174 671.863 -1.56692e-10 6.60934e-14
  175 671.863 -1.57422e-10 6.15636e-14
  176 671.863 -1.56448e-10 4.00371e-13
  177 671.863 -1.56448e-10 -1.41068e-13
  178 671.863 -1.56753e-10 -9.39869e-14
  179 671.863 -1.57203e-10 1.50797e-12
  180 671.863 -1.56640e-10 -3.88213e-13
  181 671.863 -1.56631e-10 -1.05730e-12
  182 671.863 -1.57276e-10 4.55206e-13
  183 671.863 -1.56935e-10 -1.34849e-13
  184 671.863 -1.57057e-10 1.58091e-12
  185 671.863 -1.57057e-10 -1.24907e-12
  186 671.863 -1.57276e-10 1.02547e-12
  187 671.863 -1.56327e-10 -9.26602e-13
  188 671.863 -1.57276e-10 1.48741e-13
  189 671.863 -1.56765e-10 -1.07538e-12
  190 671.863 -1.56535e-10 -2.39017e-13
  191 671.863 -1.57422e-10 1.04647e-12
  192 671.863 -1.56692e-10 -1.73343e-12
  193 671.863 -1.58153e-10 -2.64355e-13
  194 671.863 -1.56753e-10 -8.21980e-14
  195 671.863 -1.57057e-10 6.65891e-14
  196 671.863 -1.56022e-10 -7.30208e-13
  197 671.863 -1.56570e-10 -1.34333e-12
  198 671.863 -1.56814e-10 2.32836e-12
  199 671.863 -1.56083e-10 8.21627e-14
  200 671.863 -1.57240e-10 3.53194e-12
  201 671.863 -1.57361e-10 5.31188e-13
  202 671.863 -1.57495e-10 6.69902e-13
  203 671.863 -1.56753e-10 8.05641e-13
  204 671.863 -1.57301e-10 -9.13041e-13
  205 671.863 -1.57057e-10 -6.46113e-13
  206 671.863 -1.55523e-10 3.86241e-13
  207 671.863 -1.56034e-10 4.43622e-13
  208 671.863 -1.57495e-10 -8.50594e-13
  209 671.863 -1.56996e-10 2.68050e-12
  210 671.863 -1.56753e-10 1.01198e-12
  211 671.863 -1.56953e-10 7.58032e-13
  212 671.863 -1.56180e-10 -9.37267e-13
  213 671.863 -1.56984e-10 -8.84952e-13
  214 671.863 -1.57544e-10 8.50367e-13
  215 671.863 -1.57495e-10 1.10873e-12
  216 671.863 -1.56692e-10 -2.91897e-13
  217 671.863 -1.56266e-10 1.83668e-12
  218 671.863 -1.56570e-10 3.74263e-13
  219 671.863 -1.57276e-10 -9.95702e-13
  220 671.863 -1.56814e-10 1.27436e-13
  221 671.863 -1.56570e-10 1.01110e-12
  222 671.863 -1.56266e-10 -1.88067e-12
  223 671.863 -1.56546e-10 -9.42981e-13
  224 671.863 -1.55231e-10 -4.09694e-13
  225 671.863 -1.55815e-10 -1.13339e-12
  226 671.863 -1.57057e-10 -9.44625e-13
  227 671.863 -1.57544e-10 -9.73287e-13
  228 671.863 -1.57057e-10 -6.38536e-13
  229 671.863 -1.56874e-10 -2.37244e-13
  230 671.863 -1.56266e-10 -1.02412e-12
  231 671.863 -1.56911e-10 9.58999e-13
  232 671.863 -1.56327e-10 -6.91930e-13
  233 671.863 -1.55012e-10 -6.22800e-12
  234 671.863 -1.56935e-10 1.21319e-12
  235 671.863 -1.56838e-10 -9.65720e-13
  236 671.863 -1.56640e-10 -1.91448e-13
  237 671.863 -1.57422e-10 -2.86384e-13
  238 671.863 -1.56765e-10 -5.06183e-13
  239 671.863 -1.57240e-10 7.97054e-13
  240 671.863 -1.57641e-10 -7.85959e-13
  241 671.863 -1.57301e-10 1.50493e-12
</Section>

newXOutput 109

<Section columns = "stress_xx | stress_yy | stress_xy">
  1 653.630 -1.49900e-10 -1.90504e-13
  2 653.630 -1.52193e-10 -8.62162e-13
  3 653.630 -1.51487e-10 6.65286e-13
  4 653.630 -1.51135e-10 5.17274e-13
  5 653.630 -1.50370e-10 -3.67353e-13
  6 653.630 -1.51311e-10 -7.65659e-13
  7 653.630 -1.51311e-10 -1.06223e-12
  8 653.630 -1.51781e-10 -8.19677e-13
  9 653.630 -1.52016e-10 -2.37921e-13
  10 653.630 -1.52016e-10 7.61108e-13
  11 653.630 -1.51193e-10 1.37958e-12
  12 653.630 -1.51193e-10 1.59232e-12
  13 653.630 -1.50606e-10 2.33751e-13
  14 653.630 -1.50253e-10 -1.12891e-12
  15 653.630 -1.51135e-10 -1.39988e-12
  16 653.630 -1.51664e-10 -9.65646e-13
  17 653.630 -1.51429e-10 8.71573e-13
  18 653.630 -1.51193e-10 2.74308e-12
  19 653.630 -1.50135e-10 1.85785e-12
  20 653.630 -1.50135e-10 5.19542e-13
  21 653.630 -1.51664e-10 -2.13826e-12
  22 653.630 -1.50488e-10 -3.13607e-12
  23 653.630 -1.51193e-10 -2.22566e-12
  24 653.630 -1.51899e-10 5.42607e-13
  25 653.630 -1.52193e-10 1.44754e-13
  26 653.630 -1.51487e-10 -1.44671e-13
  27 653.630 -1.51781e-10 5.82817e-13
  28 653.630 -1.52016e-10 -4.66557e-13
  29 653.630 -1.52193e-10 2.41257e-14
  30 653.630 -1.51546e-10 -3.46696e-13
  31 653.630 -1.51076e-10 1.22801e-12
  32 653.630 -1.50606e-10 1.12784e-12
  33 653.630 -1.50782e-10 1.91979e-13
  34 653.630 -1.51311e-10 -9.20956e-13
  35 653.630 -1.50958e-10 1.25451e-13
  36 653.630 -1.50606e-10 4.80515e-13
  37 653.630 -1.51076e-10 -3.45908e-13
  38 653.630 -1.50606e-10 -5.47521e-13
  39 653.630 -1.50723e-10 -3.01623e-13
  40 653.630 -1.51076e-10 -8.23991e-13
  41 653.630 -1.50958e-10 3.31285e-13
  42 653.630 -1.50723e-10 2.12982e-13
  43 653.630 -1.51076e-10 -2.45082e-13
  44 653.630 -1.50488e-10 -4.21325e-13
  45 653.630 -1.50488e-10 -7.51761e-13
  46 653.630 -1.50606e-10 -7.29083e-13
  47 653.630 -1.50958e-10 2.83193e-13
  48 653.630 -1.50958e-10 1.06973e-12
  49 653.630 -1.51076e-10 9.97393e-13
  50 653.630 -1.50606e-10 -1.06671e-13
  51 653.630 -1.50253e-10 0.00000
  52 653.630 -1.50782e-10 1.90760e-14
  53 653.630 -1.50958e-10 -8.39097e-14
  54 653.630 -1.50606e-10 1.79352e-13
  55 653.630 -1.50782e-10 -1.93006e-13
  56 653.630 -1.51076e-10 -2.36706e-13
  57 653.630 -1.50958e-10 5.33198e-13
  58 653.630 -1.50077e-10 7.02081e-13
  59 653.630 -1.50354e-10 -1.26156e-13
  60 653.630 -1.50547e-10 -3.31936e-14
  61 653.630 -1.50547e-10 2.78892e-13
  62 653.630 -1.50900e-10 -3.76787e-13
  63 653.630 -1.51099e-10 6.50492e-13
  64 653.630 -1.51252e-10 -4.20763e-13
  65 653.630 -1.51135e-10 2.91085e-13
  66 653.630 -1.50664e-10 5.37163e-13
  67 653.630 -1.51311e-10 -2.05488e-13
  68 653.630 -1.51546e-10 4.95416e-13
  69 653.630 -1.51261e-10 -8.17244e-14
  70 653.630 -1.50473e-10 3.02493e-14
  71 653.630 -1.50900e-10 -1.69394e-13
  72 653.630 -1.50606e-10 3.21511e-13
  73 653.630 -1.50656e-10 2.37034e-13
  74 653.630 -1.50817e-10 2.79201e-14
  75 653.630 -1.50535e-10 -9.03219e-13
  76 653.630 -1.50664e-10 1.34324e-12
  77 653.630 -1.51076e-10 -1.23893e-13
  78 653.630 -1.51311e-10 6.58419e-13
  79 653.630 -1.50454e-10 -3.53093e-13
  80 653.630 -1.51252e-10 -4.02095e-14
  81 653.630 -1.51252e-10 -3.23499e-13
  82 653.630 -1.50429e-10 3.01571e-13
  83 653.630 -1.50841e-10 2.97517e-13
  84 653.630 -1.50900e-10 3.63595e-13
  85 653.630 -1.52016e-10 2.23129e-13
  86 653.630 -1.51076e-10 1.86726e-12
  87 653.630 -1.50958e-10 -8.58685e-13
  88 653.630 -1.51029e-10 -1.26605e-12
  89 653.630 -1.51311e-10 -1.14280e-13
  90 653.630 -1.51017e-10 -2.34657e-13
  91 653.630 -1.50676e-10 4.80923e-14
  92 653.630 -1.51240e-10 -7.68479e-13
  93 653.630 -1.50606e-10 1.64220e-12
  94 653.630 -1.50888e-10 -1.83013e-12
  95 653.630 -1.50535e-10 2.43411e-13
  96 653.630 -1.51135e-10 -2.56280e-13
  97 653.630 -1.49759e-10 -3.91843e-13
  98 653.630 -1.51452e-10 -2.61107e-13
  99 653.630 -1.50664e-10 5.39382e-13
  100 653.630 -1.51099e-10 5.24853e-13
  101 653.630 -1.50135e-10 -8.29232e-13
  102 653.630 -1.50747e-10 5.78115e-13
  103 653.630 -1.50664e-10 -6.15514e-13
  104 653.630 -1.50747e-10 -1.92303e-13
  105 653.630 -1.50888e-10 4.36648e-13
  106 653.630 -1.50429e-10 -1.51791e-13
  107 653.630 -1.51252e-10 -6.35034e-13
  108 653.630 -1.51135e-10 9.63233e-14
  109 653.630 -1.50394e-10 5.19892e-13
  110 653.630 -1.51170e-10 -9.34606e-13
  111 653.630 -1.50914e-10 -5.31364e-14
  112 653.630 -1.50135e-10 -5.84972e-14
  113 653.630 -1.50958e-10 1.11598e-13
  114 653.630 -1.50908e-10 6.58342e-14
  115 653.630 -1.50664e-10 8.99006e-16
  116 653.630 -1.50606e-10 -3.67353e-13
  117 653.630 -1.51076e-10 -9.24222e-13
  118 653.630 -1.51135e-10 1.52982e-13
  119 653.630 -1.51261e-10 6.00969e-13
  120 653.630 -1.51193e-10 2.48724e-13
  121 653.630 -1.51009e-10 6.91329e-13
  122 653.630 -1.50555e-10 -6.40046e-14
  123 653.630 -1.50664e-10 -3.72721e-13
  124 653.630 -1.51311e-10 3.73453e-13
  125 653.630 -1.50341e-10 -1.80722e-13
  126 653.630 -1.51223e-10 -8.63493e-15
  127 653.630 -1.50908e-10 2.75987e-13
  128 653.630 -1.49680e-10 -1.11516e-14
  129 653.630 -1.50826e-10 -2.88722e-13
  130 653.630 -1.50782e-10 -1.82840e-13
  131 653.630 -1.49841e-10 -6.86417e-13
  132 653.630 -1.50782e-10 1.17189e-14
  133 653.630 -1.51613e-10 4.05203e-13
  134 653.630 -1.50656e-10 -2.42071e-13
  135 653.630 -1.50706e-10 -7.06614e-13
  136 653.630 -1.51160e-10 -2.54131e-14
  137 653.630 -1.51109e-10 3.20577e-13
  138 653.630 -1.50429e-10 4.97694e-13
  139 653.630 -1.50706e-10 5.97198e-13
  140 653.630 -1.51210e-10 6.23926e-13
  141 653.630 -1.50723e-10 -1.48302e-14
  142 653.630 -1.51605e-10 2.23129e-13
  143 653.630 -1.51009e-10 -3.38105e-13
  144 653.630 -1.50182e-10 4.87314e-13
  145 653.630 -1.50888e-10 -1.35222e-13
  146 653.630 -1.50706e-10 1.63799e-13
  147 653.630 -1.51135e-10 -1.72930e-14
  148 653.630 -1.51193e-10 2.63679e-13
  149 653.630 -1.50958e-10 3.07437e-13
  150 653.630 -1.50488e-10 -6.89650e-14
  151 653.630 -1.50547e-10 3.61360e-13
  152 653.630 -1.50018e-10 -7.28747e-13
  153 653.630 -1.51370e-10 -2.13795e-13
  154 653.630 -1.50253e-10 -4.28564e-14
  155 653.630 -1.50312e-10 2.48770e-13
  156 653.630 -1.50858e-10 -4.00583e-13
  157 653.630 -1.51210e-10 3.96351e-14
  158 653.630 -1.50841e-10 -2.38451e-13
  159 653.630 -1.51193e-10 -1.92475e-13
  160 653.630 -1.50888e-10 -2.81909e-13
  161 653.630 -1.51311e-10 1.14494e-12
  162 653.630 -1.50429e-10 9.23892e-14
  163 653.630 -1.50900e-10 -7.94138e-14
  164 653.630 -1.50858e-10 -4.41175e-13
  165 653.630 -1.51429e-10 -7.63427e-14
  166 653.630 -1.50505e-10 -1.58079e-13
  167 653.630 -1.51311e-10 3.01524e-13
  168 653.630 -1.51664e-10 -2.91615e-13
  169 653.630 -1.50908e-10 -1.10371e-13
  170 653.630 -1.50888e-10 8.05307e-13
  171 653.630 -1.51009e-10 2.57585e-13
  172 653.630 -1.49959e-10 -1.15759e-12
  173 653.630 -1.50723e-10 -1.79660e-13
  174 653.630 -1.51429e-10 4.37300e-13
  175 653.630 -1.50958e-10 -1.93449e-14
  176 653.630 -1.50782e-10 -1.83486e-13
  177 653.630 -1.51664e-10 -6.99262e-13
  178 653.630 -1.51311e-10 -1.76867e-13
  179 653.630 -1.51382e-10 -5.76885e-13
  180 653.630 -1.50555e-10 9.83311e-13
  181 653.630 -1.50606e-10 -4.19206e-13
  182 653.630 -1.50747e-10 -7.54466e-14
  183 653.630 -1.50782e-10 -3.89220e-13
  184 653.630 -1.51664e-10 -7.22845e-14
  185 653.630 -1.50900e-10 -1.91206e-13
  186 653.630 -1.50182e-10 -1.46750e-12
  187 653.630 -1.50664e-10 -5.15157e-13
  188 653.630 -1.50535e-10 -6.55193e-13
  189 653.630 -1.50958e-10 3.99764e-13
  190 653.630 -1.50656e-10 1.79944e-13
  191 653.630 -1.50782e-10 -1.67819e-13
  192 653.630 -1.51261e-10 -6.32410e-13
  193 653.630 -1.51029e-10 2.27804e-13
  194 653.630 -1.51135e-10 -3.60449e-13
  195 653.630 -1.51017e-10 7.01737e-15
  196 653.630 -1.51135e-10 2.77420e-14
  197 653.630 -1.50606e-10 1.58127e-13
  198 653.630 -1.50488e-10 8.42896e-13
  199 653.630 -1.51135e-10 -4.34533e-13
  200 653.630 -1.50723e-10 9.41786e-13
  201 653.630 -1.50253e-10 -5.81245e-13
  202 653.630 -1.50606e-10 -4.47917e-14
  203 653.630 -1.50606e-10 -5.00802e-13
  204 653.630 -1.50782e-10 1.11132e-12
  205 653.630 -1.50723e-10 8.64247e-13
  206 653.630 -1.50182e-10 -2.62201e-13
  207 653.630 -1.50888e-10 -2.18667e-13
  208 653.630 -1.51099e-10 -3.03915e-13
  209 653.630 -1.50782e-10 1.27594e-12
  210 653.630 -1.51311e-10 -7.22641e-13
  211 653.630 -1.51009e-10 -4.15605e-13
  212 653.630 -1.50958e-10 -9.83068e-13
  213 653.630 -1.51311e-10 3.76329e-13
  214 653.630 -1.50958e-10 3.11844e-13
  215 653.630 -1.51029e-10 -2.29304e-13
  216 653.630 -1.50747e-10 -9.88742e-13
  217 653.630 -1.50723e-10 7.44870e-13
  218 653.630 -1.51252e-10 -2.25419e-13
  219 653.630 -1.51523e-10 1.22423e-12
  220 653.630 -1.50429e-10 -1.34210e-13
  221 653.630 -1.50841e-10 -3.00455e-13
  222 653.630 -1.49959e-10 -5.34792e-13
  223 653.630 -1.51311e-10 6.02605e-13
  224 653.630 -1.51029e-10 1.33924e-13
  225 653.630 -1.50394e-10 -1.67500e-12
  226 653.630 -1.50465e-10 1.20284e-12
  227 653.630 -1.50958e-10 1.14579e-12
  228 653.630 -1.49900e-10 -1.82308e-13
  229 653.630 -1.50664e-10 8.94330e-13
  230 653.630 -1.51193e-10 -3.58627e-13
  231 653.630 -1.50958e-10 1.93191e-13
  232 653.630 -1.50888e-10 3.19191e-13
  233 653.630 -1.50465e-10 -2.53059e-12
  234 653.630 -1.50841e-10 -5.18109e-13
  235 653.630 -1.51240e-10 2.26446e-13
  236 653.630 -1.50454e-10 2.84659e-14
  237 653.630 -1.50394e-10 -2.27199e-13
  238 653.630 -1.50676e-10 6.56429e-14
  239 653.630 -1.51076e-10 3.28359e-13
  240 653.630 -1.50253e-10 4.00221e-13
  241 653.630 -1.51899e-10 -3.26006e-13
</Section>

newXOutput 110

<Section columns = "stress_xx | stress_yy | stress_xy">
  1 635.465 -1.46710e-10 1.13292e-12
  2 635.465 -1.45349e-10 2.99487e-13
  3 635.465 -1.46029e-10 7.92333e-13
  4 635.465 -1.43136e-10 1.35437e-12
  5 635.465 -1.46256e-10 2.36183e-12
  6 635.465 -1.46540e-10 3.29922e-12
  7 635.465 -1.44412e-10 1.89745e-12
  8 635.465 -1.43647e-10 3.99316e-13
  9 635.465 -1.43760e-10 -1.17022e-12
  10 635.465 -1.44895e-10 -3.86457e-12
  11 635.465 -1.44895e-10 -4.57620e-12
  12 635.465 -1.45802e-10 -3.72124e-12
  13 635.465 -1.46880e-10 -8.29227e-13
  14 635.465 -1.45916e-10 1.15578e-12
  15 635.465 -1.45093e-10 2.50063e-12
  16 635.465 -1.45122e-10 1.17553e-12
  17 635.465 -1.44554e-10 -1.00419e-12
  18 635.465 -1.45235e-10 -2.67090e-12
  19 635.465 -1.45122e-10 -2.02224e-12
  20 635.465 -1.45462e-10 -1.56954e-12
  21 635.465 -1.45122e-10 -1.17022e-12
  22 635.465 -1.45122e-10 6.69458e-13
  23 635.465 -1.46256e-10 4.52696e-13
  24 635.465 -1.44327e-10 4.80693e-14
  25 635.465 -1.43476e-10 2.78693e-13
  26 635.465 -1.45519e-10 5.08271e-13
  27 635.465 -1.45916e-10 -1.10829e-12
  28 635.465 -1.45349e-10 1.16784e-12
  29 635.465 -1.44498e-10 -1.74183e-13
  30 635.465 -1.45122e-10 -9.28302e-13
  31 635.465 -1.45802e-10 2.09483e-12
  32 635.465 -1.45859e-10 2.80934e-12
  33 635.465 -1.44498e-10 2.96569e-13
  34 635.465 -1.44781e-10 -1.56791e-12
  35 635.465 -1.44072e-10 -3.19445e-12
  36 635.465 -1.45462e-10 -4.53509e-12
  37 635.465 -1.46143e-10 -3.99061e-12
  38 635.465 -1.46937e-10 -1.31944e-12
  39 635.465 -1.47051e-10 1.45608e-12
  40 635.465 -1.45802e-10 3.92859e-12
  41 635.465 -1.44441e-10 4.52094e-12
  42 635.465 -1.43760e-10 2.76706e-12
  43 635.465 -1.44214e-10 -6.58633e-13
  44 635.465 -1.44668e-10 -2.96655e-12
  45 635.465 -1.46029e-10 -2.93780e-12
  46 635.465 -1.46370e-10 -4.63796e-13
  47 635.465 -1.46256e-10 4.13445e-12
  48 635.465 -1.46370e-10 5.69522e-12
  49 635.465 -1.45008e-10 3.80815e-12
  50 635.465 -1.44214e-10 -2.67452e-13
  51 635.465 -1.43817e-10 1.50959e-13
  52 635.465 -1.44583e-10 6.09304e-15
  53 635.465 -1.45235e-10 -5.21852e-13
  54 635.465 -1.45263e-10 5.44728e-13
  55 635.465 -1.45689e-10 -5.10938e-13
  56 635.465 -1.46937e-10 -4.49175e-13
  57 635.465 -1.44157e-10 -2.31147e-14
  58 635.465 -1.44384e-10 5.45758e-13
  59 635.465 -1.46370e-10 -1.63234e-12
  60 635.465 -1.46426e-10 -5.06128e-12
  61 635.465 -1.45859e-10 -1.63686e-12
  62 635.465 -1.45178e-10 -9.66194e-13
  63 635.465 -1.45553e-10 -2.41903e-12
  64 635.465 -1.45689e-10 4.14743e-12
  65 635.465 -1.45349e-10 2.18102e-12
  66 635.465 -1.45292e-10 7.45400e-13
  67 635.465 -1.45916e-10 8.74000e-13
  68 635.465 -1.45462e-10 -1.68715e-12
  69 635.465 -1.45397e-10 7.92230e-13
  70 635.465 -1.45519e-10 5.35546e-13
  71 635.465 -1.45462e-10 -8.97151e-13
  72 635.465 -1.46321e-10 2.77077e-13
  73 635.465 -1.44668e-10 1.00466e-12
  74 635.465 -1.46234e-10 1.38575e-12
  75 635.465 -1.45349e-10 -2.54928e-12
  76 635.465 -1.44951e-10 -4.02651e-12
  77 635.465 -1.45575e-10 -2.36273e-12
  78 635.465 -1.45235e-10 1.62491e-12
  79 635.465 -1.45203e-10 -8.65866e-13
  80 635.465 -1.46086e-10 -1.00734e-12
  81 635.465 -1.45122e-10 2.77679e-12
  82 635.465 -1.45122e-10 2.33962e-12
  83 635.465 -1.43873e-10 9.15970e-13
  84 635.465 -1.44781e-10 -1.03637e-12
  85 635.465 -1.44611e-10 1.29700e-12
  86 635.465 -1.45575e-10 -1.67320e-12
  87 635.465 -1.44668e-10 -2.26646e-12
  88 635.465 -1.45485e-10 -3.84052e-12
  89 635.465 -1.45757e-10 -2.84485e-12
  90 635.465 -1.45008e-10 1.62774e-12
  91 635.465 -1.44395e-10 2.40288e-12
  92 635.465 -1.45076e-10 -5.09549e-12
  93 635.465 -1.45825e-10 -8.54886e-12
  94 635.465 -1.45008e-10 2.81342e-12
  95 635.465 -1.44940e-10 2.11779e-12
  96 635.465 -1.45349e-10 3.61397e-12
  97 635.465 -1.45689e-10 -3.20281e-14
  98 635.465 -1.46846e-10 -1.10846e-12
  99 635.465 -1.46256e-10 -7.40954e-13
  100 635.465 -1.45485e-10 2.19200e-12
  101 635.465 -1.46710e-10 8.68672e-13
  102 635.465 -1.45961e-10 3.79531e-13
  103 635.465 -1.45065e-10 8.40969e-13
  104 635.465 -1.46574e-10 -1.11977e-13
  105 635.465 -1.46438e-10 -1.67722e-12
  106 635.465 -1.46029e-10 3.82866e-13
  107 635.465 -1.44951e-10 1.66921e-12
  108 635.465 -1.44781e-10 -1.79577e-13
  109 635.465 -1.44464e-10 2.05301e-12
  110 635.465 -1.44464e-10 3.29787e-12
  111 635.465 -1.45434e-10 -1.62874e-12
  112 635.465 -1.45519e-10 2.13735e-12
  113 635.465 -1.46710e-10 -5.47249e-13
  114 635.465 -1.45592e-10 5.26760e-13
  115 635.465 -1.45349e-10 -2.59813e-12
  116 635.465 -1.44804e-10 1.97024e-12
  117 635.465 -1.45178e-10 5.18498e-12
  118 635.465 -1.45689e-10 8.75689e-13
  119 635.465 -1.45640e-10 2.00113e-13
  120 635.465 -1.44498e-10 1.38663e-12
  121 635.465 -1.44522e-10 -5.74106e-13
  122 635.465 -1.46078e-10 -1.17811e-12
  123 635.465 -1.45575e-10 1.38075e-12
  124 635.465 -1.43647e-10 -1.06832e-13
  125 635.465 -1.45008e-10 6.66563e-13
  126 635.465 -1.44029e-10 2.46388e-13
  127 635.465 -1.45835e-10 -1.85024e-12
  128 635.465 -1.44966e-10 -2.80963e-13
  129 635.465 -1.46285e-10 4.83353e-13
  130 635.465 -1.46483e-10 -1.06499e-12
  131 635.465 -1.47107e-10 1.77502e-13
  132 635.465 -1.44966e-10 6.47362e-13
  133 635.465 -1.44522e-10 1.69470e-12
  134 635.465 -1.45300e-10 -1.37485e-13
  135 635.465 -1.45397e-10 5.80457e-13
  136 635.465 -1.46175e-10 7.79129e-14
  137 635.465 -1.46224e-10 -2.61382e-12
  138 635.465 -1.45462e-10 3.32851e-12
  139 635.465 -1.44716e-10 1.26277e-12
  140 635.465 -1.44036e-10 -9.72953e-13
  141 635.465 -1.45405e-10 -2.47803e-12
  142 635.465 -1.44441e-10 -9.75471e-13
  143 635.465 -1.46078e-10 -5.15579e-13
  144 635.465 -1.45076e-10 2.48288e-12
  145 635.465 -1.44464e-10 -7.64521e-13
  146 635.465 -1.44376e-10 1.72806e-12
  147 635.465 -1.46597e-10 5.04436e-13
  148 635.465 -1.46370e-10 4.15168e-13
  149 635.465 -1.46426e-10 -3.34819e-13
  150 635.465 -1.45916e-10 -1.31352e-12
  151 635.465 -1.45689e-10 9.95523e-13
  152 635.465 -1.46426e-10 -1.04752e-13
  153 635.465 -1.45973e-10 2.03099e-12
  154 635.465 -1.45961e-10 -9.80530e-13
  155 635.465 -1.45008e-10 -4.32949e-12
  156 635.465 -1.45592e-10 3.66696e-13
  157 635.465 -1.45300e-10 -1.55029e-12
  158 635.465 -1.45575e-10 7.32054e-13
  159 635.465 -1.44611e-10 3.35304e-12
  160 635.465 -1.45076e-10 -1.75564e-12
  161 635.465 -1.44736e-10 -2.28707e-12
  162 635.465 -1.44441e-10 3.73204e-12
  163 635.465 -1.46313e-10 -1.20256e-12
  164 635.465 -1.45251e-10 -1.45359e-12
  165 635.465 -1.44951e-10 -2.75519e-12
  166 635.465 -1.44473e-10 3.23191e-13
  167 635.465 -1.45105e-10 1.44458e-13
  168 635.465 -1.44279e-10 -1.36199e-12
  169 635.465 -1.45494e-10 -1.44366e-12
  170 635.465 -1.46642e-10 -2.79034e-12
  171 635.465 -1.45835e-10 -7.79844e-13
  172 635.465 -1.46937e-10 1.74577e-12
  173 635.465 -1.45122e-10 7.74283e-13
  174 635.465 -1.46029e-10 -1.92800e-13
  175 635.465 -1.44157e-10 -1.63386e-13
  176 635.465 -1.46086e-10 3.57503e-13
  177 635.465 -1.45292e-10 -9.39014e-13
  178 635.465 -1.45235e-10 6.68766e-13
  179 635.465 -1.44327e-10 1.85894e-12
  180 635.465 -1.44376e-10 2.02743e-12
  181 635.465 -1.46313e-10 9.59764e-13
  182 635.465 -1.46302e-10 -1.33712e-12
  183 635.465 -1.44668e-10 -4.99477e-13
  184 635.465 -1.44600e-10 1.43966e-12
  185 635.465 -1.45632e-10 -4.05343e-12
  186 635.465 -1.45621e-10 2.77952e-12
  187 635.465 -1.45575e-10 5.05152e-13
  188 635.465 -1.45893e-10 -3.72845e-12
  189 635.465 -1.45553e-10 -2.88843e-12
  190 635.465 -1.45640e-10 1.21748e-12
  191 635.465 -1.45349e-10 2.05163e-12
  192 635.465 -1.45105e-10 -7.67390e-13
  193 635.465 -1.44872e-10 -6.69172e-13
  194 635.465 -1.45462e-10 1.30795e-12
  195 635.465 -1.44611e-10 1.82250e-12
  196 635.465 -1.45519e-10 -4.63824e-13
  197 635.465 -1.44895e-10 -2.33879e-12
  198 635.465 -1.45235e-10 1.43343e-12
  199 635.465 -1.45008e-10 -2.49283e-12
  200 635.465 -1.44327e-10 -3.20186e-13
  201 635.465 -1.45575e-10 -1.19981e-12
  202 635.465 -1.45621e-10 2.63044e-12
  203 635.465 -1.45292e-10 1.70918e-12
  204 635.465 -1.45575e-10 -9.60084e-13
  205 635.465 -1.45008e-10 1.37449e-12
  206 635.465 -1.45417e-10 -6.97003e-13
  207 635.465 -1.46846e-10 -1.42448e-13
  208 635.465 -1.44395e-10 -1.37528e-12
  209 635.465 -1.45859e-10 -2.62873e-12
  210 635.465 -1.45292e-10 -2.99558e-13
  211 635.465 -1.45640e-10 2.01691e-12
  212 635.465 -1.45485e-10 1.07585e-12
  213 635.465 -1.45417e-10 1.44383e-12
  214 635.465 -1.44384e-10 1.64428e-12
  215 635.465 -1.43783e-10 3.43556e-12
  216 635.465 -1.45689e-10 -3.22531e-12
  217 635.465 -1.44668e-10 -7.58226e-13
  218 635.465 -1.45632e-10 1.74275e-12
  219 635.465 -1.45485e-10 -9.17480e-13
  220 635.465 -1.45178e-10 -1.49826e-12
  221 635.465 -1.45973e-10 1.01821e-12
  222 635.465 -1.46370e-10 -3.63019e-12
  223 635.465 -1.45076e-10 -2.38634e-12
  224 635.465 -1.44395e-10 1.41245e-12
  225 635.465 -1.45008e-10 1.09927e-12
  226 635.465 -1.44804e-10 5.32533e-12
  227 635.465 -1.45575e-10 -1.60976e-12
  228 635.465 -1.45076e-10 1.22575e-12
  229 635.465 -1.44951e-10 3.15906e-12
  230 635.465 -1.44895e-10 2.97732e-12
  231 635.465 -1.45076e-10 -2.03129e-12
  232 635.465 -1.45757e-10 -1.24504e-13
  233 635.465 -1.45621e-10 4.85991e-12
  234 635.465 -1.45292e-10 -1.09552e-12
  235 635.465 -1.45757e-10 2.63557e-12
  236 635.465 -1.45738e-10 -3.57636e-12
  237 635.465 -1.46506e-10 -1.18735e-12
  238 635.465 -1.45757e-10 -3.27610e-12
  239 635.465 -1.45973e-10 4.11334e-13
  240 635.465 -1.46642e-10 -8.40333e-13
  241 635.465 -1.44668e-10 1.90611e-12
</Section>

newXOutput 111

<Section columns = "stress_xx | stress_yy | stress_xy">
  1 617.370 -1.40187e-10 1.32937e-12
  2 617.370 -1.35427e-10 -6.49675e-13
  3 617.370 -1.37889e-10 -1.44092e-12
  4 617.370 -1.43306e-10 1.12731e-12
  5 617.370 -1.39312e-10 1.68898e-12
  6 617.370 -1.40023e-10 1.30530e-12
  7 617.370 -1.40023e-10 2.06451e-12
  8 617.370 -1.39859e-10 1.85439e-12
  9 617.370 -1.38108e-10 4.69455e-13
  10 617.370 -1.38655e-10 -3.51806e-12
  11 617.370 -1.39421e-10 -5.48045e-12
  12 617.370 -1.39969e-10 -5.53201e-12
  13 617.370 -1.41172e-10 -1.79919e-12
  14 617.370 -1.39640e-10 -9.22308e-14
  15 617.370 -1.40434e-10 5.09149e-13
  16 617.370 -1.39640e-10 2.10591e-12
  17 617.370 -1.38874e-10 1.27638e-12
  18 617.370 -1.38655e-10 -1.18471e-12
  19 617.370 -1.40187e-10 -3.35591e-12
  20 617.370 -1.42376e-10 2.40725e-14
  21 617.370 -1.41938e-10 7.53222e-12
  22 617.370 -1.40297e-10 1.02694e-11
  23 617.370 -1.37014e-10 5.11125e-12
  24 617.370 -1.41391e-10 -6.41934e-14
  25 617.370 -1.40187e-10 4.91545e-13
  26 617.370 -1.37643e-10 -2.18322e-12
  27 617.370 -1.40078e-10 2.47598e-12
  28 617.370 -1.37397e-10 -7.75319e-13
  29 617.370 -1.38053e-10 2.79287e-13
  30 617.370 -1.38327e-10 2.93029e-13
  31 617.370 -1.38874e-10 -2.93548e-12
  32 617.370 -1.40023e-10 -3.91000e-12
  33 617.370 -1.40434e-10 -2.40128e-12
  34 617.370 -1.40953e-10 -4.01413e-13
  35 617.370 -1.41583e-10 1.87159e-12
  36 617.370 -1.39093e-10 5.74924e-12
  37 617.370 -1.39202e-10 5.76047e-12
  38 617.370 -1.38108e-10 4.46486e-12
  39 617.370 -1.37233e-10 9.30462e-13
  40 617.370 -1.38874e-10 -2.45440e-12
  41 617.370 -1.39202e-10 -4.70916e-12
  42 617.370 -1.40297e-10 -4.70171e-12
  43 617.370 -1.41610e-10 -1.33333e-12
  44 617.370 -1.41610e-10 2.97784e-12
  45 617.370 -1.38546e-10 4.25558e-12
  46 617.370 -1.36467e-10 -9.83451e-13
  47 617.370 -1.37452e-10 -1.00832e-11
  48 617.370 -1.39859e-10 -1.20402e-11
  49 617.370 -1.43033e-10 -5.20675e-12
  50 617.370 -1.37014e-10 -4.28043e-13
  51 617.370 -1.38218e-10 -1.22886e-13
  52 617.370 -1.41747e-10 2.47473e-12
  53 617.370 -1.39640e-10 -2.40079e-12
  54 617.370 -1.41583e-10 1.44065e-12
  55 617.370 -1.41336e-10 -4.91545e-13
  56 617.370 -1.42814e-10 -4.19592e-14
  57 617.370 -1.39367e-10 -4.00855e-12
  58 617.370 -1.39421e-10 6.39251e-12
  59 617.370 -1.39156e-10 3.57788e-13
  60 617.370 -1.39476e-10 3.78363e-12
  61 617.370 -1.39202e-10 -2.99255e-12
  62 617.370 -1.40187e-10 6.44758e-15
  63 617.370 -1.39465e-10 5.84513e-13
  64 617.370 -1.40242e-10 -7.34277e-12
  65 617.370 -1.40078e-10 1.23814e-11
  66 617.370 -1.40570e-10 2.60512e-12
  67 617.370 -1.39476e-10 -2.11729e-12
  68 617.370 -1.39367e-10 6.10623e-13
  69 617.370 -1.41641e-10 -1.09721e-12
  70 617.370 -1.39285e-10 5.20361e-13
  71 617.370 -1.38491e-10 -2.80531e-12
  72 617.370 -1.38264e-10 -1.19897e-12
  73 617.370 -1.43564e-10 1.59638e-12
  74 617.370 -1.33950e-10 -3.58089e-12
  75 617.370 -1.39596e-10 2.39184e-12
  76 617.370 -1.41227e-10 9.84696e-12
  77 617.370 -1.39257e-10 -1.20974e-11
  78 617.370 -1.40953e-10 -2.44925e-12
  79 617.370 -1.39437e-10 1.00448e-12
  80 617.370 -1.39202e-10 -4.28228e-13
  81 617.370 -1.39804e-10 -3.73085e-13
  82 617.370 -1.40899e-10 -3.86610e-12
  83 617.370 -1.40133e-10 2.09347e-12
  84 617.370 -1.39038e-10 3.17429e-12
  85 617.370 -1.39367e-10 -3.78144e-12
  86 617.370 -1.39750e-10 1.16559e-12
  87 617.370 -1.40461e-10 -3.12245e-12
  88 617.370 -1.38809e-10 1.29397e-12
  89 617.370 -1.42092e-10 -2.62561e-12
  90 617.370 -1.37670e-10 5.27281e-12
  91 617.370 -1.39925e-10 -1.73172e-12
  92 617.370 -1.39859e-10 -2.30250e-11
  93 617.370 -1.39268e-10 1.61111e-11
  94 617.370 -1.40056e-10 -7.84807e-13
  95 617.370 -1.40778e-10 2.29792e-12
  96 617.370 -1.39038e-10 -2.60446e-13
  97 617.370 -1.40122e-10 -7.61016e-12
  98 617.370 -1.39662e-10 6.96640e-12
  99 617.370 -1.40078e-10 -2.90851e-12
  100 617.370 -1.40384e-10 3.14709e-12
  101 617.370 -1.39421e-10 2.90094e-12
  102 617.370 -1.42945e-10 -3.31097e-12
  103 617.370 -1.41720e-10 -1.76146e-12
  104 617.370 -1.38546e-10 3.58348e-13
  105 617.370 -1.38349e-10 4.38069e-12
  106 617.370 -1.38710e-10 2.06904e-12
  107 617.370 -1.37835e-10 -7.15392e-12
  108 617.370 -1.41993e-10 8.93570e-12
  109 617.370 -1.39465e-10 5.38841e-12
  110 617.370 -1.38743e-10 -3.16075e-12
  111 617.370 -1.39449e-10 -1.57505e-13
  112 617.370 -1.39640e-10 -3.35797e-12
  113 617.370 -1.38124e-10 1.57492e-12
  114 617.370 -1.40281e-10 -4.92972e-13
  115 617.370 -1.39531e-10 1.77968e-12
  116 617.370 -1.39531e-10 7.61633e-12
  117 617.370 -1.41555e-10 -1.56630e-11
  118 617.370 -1.37287e-10 1.80982e-11
  119 617.370 -1.40000e-10 -2.77168e-12
  120 617.370 -1.41720e-10 -2.63815e-12
  121 617.370 -1.36998e-10 -8.69013e-13
  122 617.370 -1.39296e-10 2.59945e-13
  123 617.370 -1.41336e-10 -3.89671e-13
  124 617.370 -1.41454e-10 3.20946e-12
  125 617.370 -1.39654e-10 -1.55740e-12
  126 617.370 -1.38464e-10 3.93755e-12
  127 617.370 -1.39953e-10 1.23577e-12
  128 617.370 -1.40146e-10 -1.10658e-12
  129 617.370 -1.38792e-10 -3.55194e-13
  130 617.370 -1.39202e-10 -1.14991e-12
  131 617.370 -1.40242e-10 6.96787e-13
  132 617.370 -1.39818e-10 1.81827e-12
  133 617.370 -1.39015e-10 -2.40867e-12
  134 617.370 -1.38171e-10 -3.39285e-12
  135 617.370 -1.40234e-10 -5.12648e-12
  136 617.370 -1.40000e-10 4.94436e-12
  137 617.370 -1.40469e-10 1.09305e-12
  138 617.370 -1.39476e-10 -2.83367e-12
  139 617.370 -1.38171e-10 -4.38081e-12
  140 617.370 -1.41641e-10 8.30694e-12
  141 617.370 -1.40078e-10 2.93197e-12
  142 617.370 -1.37725e-10 2.57438e-12
  143 617.370 -1.40703e-10 4.07162e-12
  144 617.370 -1.40056e-10 -2.35523e-12
  145 617.370 -1.40844e-10 -2.26994e-12
  146 617.370 -1.41360e-10 2.32731e-13
  147 617.370 -1.38108e-10 1.03523e-12
  148 617.370 -1.43525e-10 -2.40055e-12
  149 617.370 -1.37616e-10 3.91121e-12
  150 617.370 -1.38929e-10 2.11755e-12
  151 617.370 -1.38108e-10 -2.23444e-12
  152 617.370 -1.39202e-10 -7.26456e-12
  153 617.370 -1.39640e-10 1.35637e-12
  154 617.370 -1.39531e-10 7.00091e-13
  155 617.370 -1.41336e-10 3.64198e-12
  156 617.370 -1.38593e-10 -8.07455e-12
  157 617.370 -1.41079e-10 9.96285e-12
  158 617.370 -1.39586e-10 -1.96405e-12
  159 617.370 -1.38218e-10 -6.26228e-13
  160 617.370 -1.36773e-10 -5.72865e-12
  161 617.370 -1.43339e-10 3.88070e-12
  162 617.370 -1.39804e-10 -2.42824e-12
  163 617.370 -1.39038e-10 -1.64338e-12
  164 617.370 -1.41172e-10 1.05188e-12
  165 617.370 -1.39148e-10 -5.58205e-12
  166 617.370 -1.40234e-10 -8.44784e-13
  167 617.370 -1.39062e-10 1.37215e-12
  168 617.370 -1.39062e-10 7.07412e-13
  169 617.370 -1.41594e-10 -1.63550e-12
  170 617.370 -1.39531e-10 2.18698e-12
  171 617.370 -1.39343e-10 1.23842e-12
  172 617.370 -1.40899e-10 -2.30518e-14
  173 617.370 -1.40461e-10 -4.51272e-13
  174 617.370 -1.37506e-10 -1.36912e-12
  175 617.370 -1.42212e-10 9.57704e-13
  176 617.370 -1.41008e-10 1.83514e-12
  177 617.370 -1.38710e-10 -7.38669e-13
  178 617.370 -1.42048e-10 -1.86394e-12
  179 617.370 -1.40187e-10 5.74433e-12
  180 617.370 -1.38264e-10 -2.20581e-12
  181 617.370 -1.37835e-10 3.25829e-13
  182 617.370 -1.39071e-10 3.31191e-12
  183 617.370 -1.39421e-10 9.65519e-13
  184 617.370 -1.39334e-10 -8.55368e-13
  185 617.370 -1.41008e-10 -8.94737e-12
  186 617.370 -1.40713e-10 1.54339e-13
  187 617.370 -1.39586e-10 -2.94370e-12
  188 617.370 -1.39531e-10 2.20436e-12
  189 617.370 -1.39202e-10 5.11895e-15
  190 617.370 -1.38030e-10 -5.84550e-13
  191 617.370 -1.40187e-10 -2.69553e-12
  192 617.370 -1.40000e-10 -3.99702e-13
  193 617.370 -1.40450e-10 2.76059e-13
  194 617.370 -1.40352e-10 1.33294e-12
  195 617.370 -1.39969e-10 7.95284e-13
  196 617.370 -1.38710e-10 -5.26326e-13
  197 617.370 -1.41118e-10 -3.35311e-12
  198 617.370 -1.38765e-10 -2.67935e-12
  199 617.370 -1.42321e-10 -1.84127e-12
  200 617.370 -1.41665e-10 1.12851e-11
  201 617.370 -1.39640e-10 2.36683e-12
  202 617.370 -1.40910e-10 -7.77686e-13
  203 617.370 -1.38163e-10 6.07617e-13
  204 617.370 -1.38819e-10 -2.06178e-12
  205 617.370 -1.37397e-10 1.00499e-12
  206 617.370 -1.42814e-10 -2.78765e-12
  207 617.370 -1.36116e-10 2.57141e-12
  208 617.370 -1.42092e-10 -1.44511e-12
  209 617.370 -1.39695e-10 1.10301e-11
  210 617.370 -1.40953e-10 -1.50461e-11
  211 617.370 -1.40187e-10 4.89033e-12
  212 617.370 -1.39399e-10 -1.62850e-12
  213 617.370 -1.40844e-10 1.55618e-12
  214 617.370 -1.41665e-10 8.85944e-13
  215 617.370 -1.42486e-10 9.34792e-13
  216 617.370 -1.38940e-10 1.54638e-12
  217 617.370 -1.42595e-10 1.17177e-11
  218 617.370 -1.36029e-10 -1.37693e-11
  219 617.370 -1.39859e-10 -3.70763e-12
  220 617.370 -1.38601e-10 1.67832e-12
  221 617.370 -1.39257e-10 2.13191e-12
  222 617.370 -1.37999e-10 -1.22208e-12
  223 617.370 -1.38415e-10 -4.21569e-13
  224 617.370 -1.37561e-10 4.47964e-12
  225 617.370 -1.39137e-10 2.26424e-12
  226 617.370 -1.38480e-10 1.20385e-11
  227 617.370 -1.39148e-10 -1.26592e-12
  228 617.370 -1.39531e-10 -3.16659e-12
  229 617.370 -1.40570e-10 5.04111e-12
  230 617.370 -1.38491e-10 -6.89887e-13
  231 617.370 -1.38940e-10 2.32618e-12
  232 617.370 -1.41435e-10 2.66555e-11
  233 617.370 -1.37758e-10 -2.44654e-11
  234 617.370 -1.40242e-10 3.66568e-12
  235 617.370 -1.38546e-10 -2.17694e-12
  236 617.370 -1.41407e-10 -3.61821e-12
  237 617.370 -1.38415e-10 -2.08315e-12
  238 617.370 -1.40450e-10 1.74134e-12
  239 617.370 -1.39148e-10 -1.08661e-12
  240 617.370 -1.40844e-10 -1.77692e-13
  241 617.370 -1.39859e-10 -1.62813e-12
</Section>

newXOutput 112

<Section columns = "stress_xx | stress_yy | stress_xy">
  1 599.343 -1.35120e-10 6.12262e-13
  2 599.343 -1.34487e-10 1.09228e-12
  3 599.343 -1.35120e-10 2.25179e-13
  4 599.343 -1.34170e-10 7.99377e-13
  5 599.343 -1.35225e-10 1.61542e-12
  6 599.343 -1.34645e-10 2.76011e-12
  7 599.343 -1.33221e-10 1.44564e-12
  8 599.343 -1.32799e-10 -3.69627e-14
  9 599.343 -1.33537e-10 -1.52046e-12
  10 599.343 -1.34276e-10 -2.61274e-12
  11 599.343 -1.34803e-10 -1.60262e-12
  12 599.343 -1.34698e-10 -4.97139e-13
  13 599.343 -1.34882e-10 1.86007e-12
  14 599.343 -1.34276e-10 3.22637e-12
  15 599.343 -1.33775e-10 1.65960e-12
  16 599.343 -1.34487e-10 -3.99536e-13
  17 599.343 -1.34803e-10 -1.51670e-12
  18 599.343 -1.35120e-10 -1.58454e-12
  19 599.343 -1.34803e-10 -1.04932e-12
  20 599.343 -1.34909e-10 4.21376e-13
  21 599.343 -1.35436e-10 6.42266e-13
  22 599.343 -1.34381e-10 8.77476e-13
  23 599.343 -1.34487e-10 1.25589e-12
  24 599.343 -1.32799e-10 -1.85448e-13
  25 599.343 -1.33063e-10 -1.71845e-13
  26 599.343 -1.34803e-10 1.36939e-13
  27 599.343 -1.33748e-10 -1.92608e-13
  28 599.343 -1.34487e-10 1.33985e-13
  29 599.343 -1.35436e-10 8.59227e-14
  30 599.343 -1.34698e-10 -3.28652e-13
  31 599.343 -1.34909e-10 1.34471e-12
  32 599.343 -1.34645e-10 2.37997e-12
  33 599.343 -1.34566e-10 5.35473e-13
  34 599.343 -1.33959e-10 4.17274e-13
  35 599.343 -1.34170e-10 3.48094e-13
  36 599.343 -1.35225e-10 9.67677e-14
  37 599.343 -1.35225e-10 -2.23870e-14
  38 599.343 -1.35014e-10 6.43585e-14
  39 599.343 -1.34170e-10 3.24058e-13
  40 599.343 -1.34170e-10 -1.83960e-13
  41 599.343 -1.33854e-10 -6.96177e-14
  42 599.343 -1.34381e-10 -5.90238e-13
  43 599.343 -1.34276e-10 -9.84061e-13
  44 599.343 -1.34803e-10 -1.10779e-12
  45 599.343 -1.35225e-10 -7.22292e-13
  46 599.343 -1.34592e-10 -5.72133e-15
  47 599.343 -1.34487e-10 2.37940e-13
  48 599.343 -1.34803e-10 5.11460e-13
  49 599.343 -1.34487e-10 8.00444e-13
  50 599.343 -1.33537e-10 -1.70969e-13
  51 599.343 -1.33537e-10 -2.14807e-14
  52 599.343 -1.34882e-10 3.17157e-13
  53 599.343 -1.34909e-10 -5.68741e-13
  54 599.343 -1.34566e-10 5.23956e-13
  55 599.343 -1.34487e-10 -8.59227e-14
  56 599.343 -1.34276e-10 -3.67114e-13
  57 599.343 -1.34540e-10 -1.37626e-13
  58 599.343 -1.34698e-10 -6.13493e-13
  59 599.343 -1.34622e-10 5.94452e-13
  60 599.343 -1.34276e-10 6.43163e-13
  61 599.343 -1.34434e-10 -5.59823e-13
  62 599.343 -1.34961e-10 4.09482e-14
  63 599.343 -1.34423e-10 1.24039e-12
  64 599.343 -1.34118e-10 -3.79914e-13
  65 599.343 -1.34381e-10 1.46670e-12
  66 599.343 -1.34223e-10 1.97452e-12
  67 599.343 -1.34540e-10 3.35678e-13
  68 599.343 -1.34065e-10 -2.20958e-13
  69 599.343 -1.34713e-10 4.22566e-13
  70 599.343 -1.33893e-10 -2.20325e-13
  71 599.343 -1.35067e-10 -1.30225e-13
  72 599.343 -1.34577e-10 -1.51532e-12
  73 599.343 -1.34487e-10 -8.42150e-13
  74 599.343 -1.33791e-10 -8.49355e-13
  75 599.343 -1.34550e-10 4.46969e-13
  76 599.343 -1.34592e-10 -6.07362e-13
  77 599.343 -1.34487e-10 -2.14270e-12
  78 599.343 -1.34750e-10 5.93756e-13
  79 599.343 -1.34532e-10 7.25101e-13
  80 599.343 -1.34276e-10 -1.39445e-13
  81 599.343 -1.34329e-10 -1.09237e-12
  82 599.343 -1.34118e-10 8.92629e-13
  83 599.343 -1.34803e-10 1.35349e-12
  84 599.343 -1.34645e-10 -9.35196e-13
  85 599.343 -1.33485e-10 7.87625e-14
  86 599.343 -1.33959e-10 -4.83357e-13
  87 599.343 -1.34276e-10 -1.39582e-12
  88 599.343 -1.34170e-10 -1.14466e-12
  89 599.343 -1.34360e-10 -1.76164e-12
  90 599.343 -1.35067e-10 1.35211e-12
  91 599.343 -1.34803e-10 1.05605e-13
  92 599.343 -1.34930e-10 -3.85836e-12
  93 599.343 -1.34487e-10 -8.81721e-13
  94 599.343 -1.34550e-10 -2.96420e-14
  95 599.343 -1.34677e-10 -9.06734e-14
  96 599.343 -1.34592e-10 -1.02184e-12
  97 599.343 -1.34550e-10 1.77568e-12
  98 599.343 -1.35120e-10 6.31392e-13
  99 599.343 -1.33537e-10 -8.69962e-13
  100 599.343 -1.34360e-10 1.47603e-12
  101 599.343 -1.34961e-10 5.84403e-13
  102 599.343 -1.34297e-10 -2.24014e-13
  103 599.343 -1.34540e-10 -6.24143e-13
  104 599.343 -1.34740e-10 -3.55929e-13
  105 599.343 -1.33917e-10 -3.35439e-13
  106 599.343 -1.34118e-10 -2.52129e-13
  107 599.343 -1.35014e-10 1.41198e-12
  108 599.343 -1.34592e-10 1.16925e-12
  109 599.343 -1.34297e-10 1.71202e-12
  110 599.343 -1.35056e-10 4.96843e-13
  111 599.343 -1.34685e-10 5.27191e-14
  112 599.343 -1.34223e-10 -7.00448e-15
  113 599.343 -1.34396e-10 4.29348e-13
  114 599.343 -1.34939e-10 7.42606e-13
  115 599.343 -1.34750e-10 4.15200e-13
  116 599.343 -1.34107e-10 -1.44097e-12
  117 599.343 -1.33801e-10 1.02225e-12
  118 599.343 -1.34276e-10 2.26208e-12
  119 599.343 -1.33763e-10 -9.64322e-14
  120 599.343 -1.34487e-10 4.85749e-13
  121 599.343 -1.34306e-10 5.39214e-13
  122 599.343 -1.33583e-10 1.61141e-13
  123 599.343 -1.34434e-10 -2.17310e-13
  124 599.343 -1.34848e-10 -3.40063e-13
  125 599.343 -1.34249e-10 8.79909e-14
  126 599.343 -1.34210e-10 -9.39343e-14
  127 599.343 -1.33990e-10 5.44761e-13
  128 599.343 -1.34922e-10 3.80474e-13
  129 599.343 -1.34724e-10 -9.05630e-14
  130 599.343 -1.33907e-10 2.92402e-13
  131 599.343 -1.34856e-10 7.65706e-13
  132 599.343 -1.34487e-10 -4.96073e-13
  133 599.343 -1.34396e-10 -8.80698e-13
  134 599.343 -1.34758e-10 -6.11579e-13
  135 599.343 -1.34577e-10 1.76055e-12
  136 599.343 -1.34984e-10 1.15181e-12
  137 599.343 -1.34532e-10 7.17927e-13
  138 599.343 -1.34434e-10 -3.37983e-13
  139 599.343 -1.34261e-10 -4.57492e-13
  140 599.343 -1.34713e-10 -1.45684e-12
  141 599.343 -1.34909e-10 1.42289e-12
  142 599.343 -1.34645e-10 -2.79692e-13
  143 599.343 -1.34939e-10 2.64682e-13
  144 599.343 -1.33980e-10 5.17100e-14
  145 599.343 -1.34170e-10 4.36630e-13
  146 599.343 -1.34803e-10 -5.76659e-13
  147 599.343 -1.34065e-10 -5.29580e-14
  148 599.343 -1.35067e-10 -3.11781e-13
  149 599.343 -1.34170e-10 -7.50028e-13
  150 599.343 -1.34329e-10 1.04806e-13
  151 599.343 -1.34434e-10 -1.30805e-12
  152 599.343 -1.34118e-10 8.47182e-13
  153 599.343 -1.34381e-10 -3.62484e-13
  154 599.343 -1.34423e-10 2.32954e-13
  155 599.343 -1.34487e-10 5.26093e-13
  156 599.343 -1.34713e-10 1.94678e-12
  157 599.343 -1.35120e-10 1.19731e-12
  158 599.343 -1.34856e-10 -7.02993e-13
  159 599.343 -1.34434e-10 -1.04503e-12
  160 599.343 -1.34297e-10 -1.27080e-12
  161 599.343 -1.33917e-10 1.75711e-13
  162 599.343 -1.34540e-10 -2.34070e-13
  163 599.343 -1.34329e-10 -2.17758e-13
  164 599.343 -1.34622e-10 8.95046e-13
  165 599.343 -1.34750e-10 5.37017e-14
  166 599.343 -1.33990e-10 -3.57219e-13
  167 599.343 -1.33809e-10 -7.84959e-13
  168 599.343 -1.34713e-10 1.15534e-13
  169 599.343 -1.34170e-10 -1.63780e-13
  170 599.343 -1.34423e-10 9.68018e-13
  171 599.343 -1.35120e-10 8.99554e-13
  172 599.343 -1.34540e-10 1.09863e-12
  173 599.343 -1.35014e-10 -4.99090e-13
  174 599.343 -1.34012e-10 7.62870e-13
  175 599.343 -1.34487e-10 2.26218e-13
  176 599.343 -1.34540e-10 -5.16170e-13
  177 599.343 -1.34276e-10 -5.70250e-13
  178 599.343 -1.35331e-10 8.09274e-14
  179 599.343 -1.33411e-10 -6.97082e-13
  180 599.343 -1.34125e-10 2.07402e-13
  181 599.343 -1.34487e-10 -3.83135e-13
  182 599.343 -1.34867e-10 6.16273e-13
  183 599.343 -1.34698e-10 3.90476e-13
  184 599.343 -1.34360e-10 -5.43670e-13
  185 599.343 -1.34856e-10 3.74214e-13
  186 599.343 -1.33537e-10 1.77684e-12
  187 599.343 -1.34434e-10 1.05946e-13
  188 599.343 -1.34487e-10 1.31777e-12
  189 599.343 -1.34487e-10 7.02937e-13
  190 599.343 -1.34442e-10 1.50571e-14
  191 599.343 -1.35225e-10 -4.71569e-13
  192 599.343 -1.34216e-10 4.70040e-13
  193 599.343 -1.35056e-10 5.89536e-13
  194 599.343 -1.34012e-10 -1.69774e-12
  195 599.343 -1.34065e-10 -2.23568e-13
  196 599.343 -1.34909e-10 4.20693e-13
  197 599.343 -1.34276e-10 1.02218e-12
  198 599.343 -1.34856e-10 -1.03124e-12
  199 599.343 -1.35014e-10 -2.90132e-13
  200 599.343 -1.34381e-10 -2.00579e-12
  201 599.343 -1.34012e-10 -8.14475e-14
  202 599.343 -1.34107e-10 -7.86294e-13
  203 599.343 -1.34698e-10 -3.15293e-13
  204 599.343 -1.34381e-10 -1.55671e-12
  205 599.343 -1.34012e-10 9.78096e-13
  206 599.343 -1.34234e-10 1.03031e-12
  207 599.343 -1.34297e-10 7.41457e-13
  208 599.343 -1.33791e-10 3.29722e-13
  209 599.343 -1.34329e-10 -2.65828e-12
  210 599.343 -1.34698e-10 -3.02208e-12
  211 599.343 -1.34442e-10 -1.25010e-13
  212 599.343 -1.33980e-10 1.75898e-12
  213 599.343 -1.34550e-10 1.12177e-12
  214 599.343 -1.34592e-10 -8.08347e-13
  215 599.343 -1.34803e-10 -1.19794e-12
  216 599.343 -1.34930e-10 7.28868e-13
  217 599.343 -1.34645e-10 -2.40456e-12
  218 599.343 -1.33801e-10 -2.48477e-12
  219 599.343 -1.33664e-10 -6.33863e-13
  220 599.343 -1.34750e-10 1.83816e-13
  221 599.343 -1.34434e-10 -1.89297e-13
  222 599.343 -1.34170e-10 1.49048e-12
  223 599.343 -1.34740e-10 -6.56763e-13
  224 599.343 -1.35056e-10 1.09406e-12
  225 599.343 -1.35183e-10 6.72985e-13
  226 599.343 -1.34044e-10 2.76663e-12
  227 599.343 -1.33959e-10 -1.07134e-12
  228 599.343 -1.34044e-10 3.18985e-13
  229 599.343 -1.34276e-10 1.50042e-12
  230 599.343 -1.35489e-10 -4.31356e-13
  231 599.343 -1.34360e-10 1.10582e-12
  232 599.343 -1.35183e-10 4.05752e-12
  233 599.343 -1.34740e-10 3.91294e-12
  234 599.343 -1.34381e-10 -5.92553e-14
  235 599.343 -1.34170e-10 -1.48343e-13
  236 599.343 -1.34848e-10 -1.11654e-12
  237 599.343 -1.34550e-10 -1.38386e-12
  238 599.343 -1.34867e-10 7.92846e-13
  239 599.343 -1.34223e-10 -5.84223e-14
  240 599.343 -1.35120e-10 1.58867e-12
  241 599.343 -1.33854e-10 -6.06823e-14
</Section>

newXOutput 113

<Section columns = "stress_xx | stress_yy | stress_xy">
  1 581.383 -1.43553e-10 7.38151e-12
  2 581.383 -1.23285e-10 2.14342e-12
  3 581.383 -1.30752e-10 5.10797e-13
  4 581.383 -1.28314e-10 -7.67811e-14
  5 581.383 -1.37356e-10 2.26843e-11
  6 581.383 -1.28771e-10 3.79289e-11
  7 581.383 -1.19552e-10 2.10366e-11
  8 581.383 -1.18358e-10 6.85959e-13
  9 581.383 -1.23336e-10 -1.46018e-11
  10 581.383 -1.29432e-10 -2.00520e-11
  11 581.383 -1.31565e-10 -1.31332e-11
  12 581.383 -1.32987e-10 -3.70548e-12
  13 581.383 -1.34257e-10 9.68142e-12
  14 581.383 -1.29025e-10 1.52321e-11
  15 581.383 -1.25266e-10 1.13207e-11
  16 581.383 -1.25977e-10 1.13971e-12
  17 581.383 -1.26384e-10 -8.81367e-12
  18 581.383 -1.28517e-10 -1.40278e-11
  19 581.383 -1.33597e-10 -9.98794e-12
  20 581.383 -1.32886e-10 3.85226e-13
  21 581.383 -1.31870e-10 1.10880e-11
  22 581.383 -1.29127e-10 1.38492e-11
  23 581.383 -1.25876e-10 7.89346e-12
  24 581.383 -1.28822e-10 -5.22176e-13
  25 581.383 -1.29533e-10 1.23822e-13
  26 581.383 -1.28771e-10 1.22060e-13
  27 581.383 -1.27501e-10 4.66829e-13
  28 581.383 -1.29305e-10 -1.16728e-12
  29 581.383 -1.30143e-10 -1.23822e-13
  30 581.383 -1.30752e-10 3.63959e-13
  31 581.383 -1.29533e-10 2.48853e-12
  32 581.383 -1.28162e-10 4.18095e-12
  33 581.383 -1.28619e-10 3.59619e-12
  34 581.383 -1.28517e-10 3.51766e-12
  35 581.383 -1.28085e-10 1.41502e-12
  36 581.383 -1.27603e-10 -6.75242e-13
  37 581.383 -1.28009e-10 -1.93505e-12
  38 581.383 -1.28924e-10 -2.84460e-12
  39 581.383 -1.29330e-10 -2.51520e-12
  40 581.383 -1.29127e-10 -2.01769e-12
  41 581.383 -1.29533e-10 -3.10799e-13
  42 581.383 -1.29533e-10 4.43756e-13
  43 581.383 -1.29127e-10 9.38790e-13
  44 581.383 -1.28720e-10 7.97583e-13
  45 581.383 -1.29228e-10 1.10341e-12
  46 581.383 -1.29533e-10 1.68213e-12
  47 581.383 -1.29635e-10 2.77739e-12
  48 581.383 -1.29127e-10 3.21552e-12
  49 581.383 -1.28111e-10 1.70519e-12
  50 581.383 -1.29330e-10 3.12452e-13
  51 581.383 -1.28619e-10 -1.03185e-14
  52 581.383 -1.27933e-10 -1.26431e-12
  53 581.383 -1.31159e-10 -9.07717e-13
  54 581.383 -1.30524e-10 1.43036e-12
  55 581.383 -1.29686e-10 3.30193e-13
  56 581.383 -1.30244e-10 -3.03249e-12
  57 581.383 -1.26638e-10 1.90764e-12
  58 581.383 -1.28974e-10 -2.34255e-13
  59 581.383 -1.30273e-10 7.89035e-13
  60 581.383 -1.27400e-10 1.50732e-12
  61 581.383 -1.30905e-10 -2.25014e-12
  62 581.383 -1.31413e-10 -6.42087e-13
  63 581.383 -1.27948e-10 -1.49974e-12
  64 581.383 -1.30092e-10 4.50971e-12
  65 581.383 -1.27806e-10 -3.14771e-12
  66 581.383 -1.27044e-10 7.95282e-12
  67 581.383 -1.29736e-10 -3.25798e-12
  68 581.383 -1.26841e-10 -5.03767e-12
  69 581.383 -1.27226e-10 9.69508e-13
  70 581.383 -1.28771e-10 -4.35443e-13
  71 581.383 -1.29076e-10 1.97084e-12
  72 581.383 -1.31710e-10 -5.15920e-12
  73 581.383 -1.30360e-10 1.89593e-12
  74 581.383 -1.29716e-10 2.22043e-12
  75 581.383 -1.31301e-10 -2.09984e-12
  76 581.383 -1.28162e-10 8.42708e-13
  77 581.383 -1.29076e-10 -1.38626e-12
  78 581.383 -1.28365e-10 1.68058e-12
  79 581.383 -1.29751e-10 1.62635e-12
  80 581.383 -1.28924e-10 -3.15459e-14
  81 581.383 -1.28873e-10 -4.99387e-13
  82 581.383 -1.27400e-10 -2.10067e-13
  83 581.383 -1.28517e-10 3.18808e-12
  84 581.383 -1.25012e-10 -1.27354e-11
  85 581.383 -1.23437e-10 4.06303e-12
  86 581.383 -1.28111e-10 -6.43288e-12
  87 581.383 -1.28263e-10 2.38703e-12
  88 581.383 -1.30143e-10 1.24498e-12
  89 581.383 -1.29716e-10 -1.40329e-11
  90 581.383 -1.33445e-10 6.22161e-12
  91 581.383 -1.29777e-10 1.84516e-12
  92 581.383 -1.28314e-10 -8.61156e-13
  93 581.383 -1.29228e-10 3.29442e-12
  94 581.383 -1.26181e-10 6.90941e-12
  95 581.383 -1.30569e-10 2.91251e-13
  96 581.383 -1.28314e-10 -3.30660e-13
  97 581.383 -1.31179e-10 -1.11204e-11
  98 581.383 -1.28558e-10 1.60215e-12
  99 581.383 -1.28924e-10 -2.74171e-12
  100 581.383 -1.25937e-10 2.78559e-12
  101 581.383 -1.35578e-10 1.56621e-12
  102 581.383 -1.30021e-10 2.36649e-12
  103 581.383 -1.29330e-10 -5.39846e-12
  104 581.383 -1.30508e-10 -2.66994e-12
  105 581.383 -1.30143e-10 -3.36256e-12
  106 581.383 -1.29533e-10 -2.84008e-12
  107 581.383 -1.28365e-10 3.42068e-13
  108 581.383 -1.27450e-10 -3.93777e-12
  109 581.383 -1.30387e-10 3.96731e-12
  110 581.383 -1.30082e-10 -2.79311e-12
  111 581.383 -1.29152e-10 1.47420e-12
  112 581.383 -1.29686e-10 3.72359e-12
  113 581.383 -1.28924e-10 -2.49187e-12
  114 581.383 -1.27661e-10 2.11732e-13
  115 581.383 -1.30498e-10 -2.33290e-12
  116 581.383 -1.22950e-10 -1.79083e-11
  117 581.383 -1.30194e-10 1.45455e-12
  118 581.383 -1.28263e-10 -5.94966e-12
  119 581.383 -1.26529e-10 1.34983e-12
  120 581.383 -1.28060e-10 2.10817e-12
  121 581.383 -1.27966e-10 2.83056e-12
  122 581.383 -1.27704e-10 2.95723e-12
  123 581.383 -1.26993e-10 8.78731e-13
  124 581.383 -1.29185e-10 -2.45782e-12
  125 581.383 -1.30829e-10 1.38022e-12
  126 581.383 -1.24657e-10 -4.16191e-12
  127 581.383 -1.27138e-10 -3.70527e-12
  128 581.383 -1.30905e-10 -2.92358e-12
  129 581.383 -1.29152e-10 2.81051e-12
  130 581.383 -1.29584e-10 3.51510e-12
  131 581.383 -1.34613e-10 4.32699e-12
  132 581.383 -1.30143e-10 -1.79959e-12
  133 581.383 -1.25571e-10 1.64357e-12
  134 581.383 -1.30665e-10 -2.09776e-13
  135 581.383 -1.29925e-10 -3.91610e-12
  136 581.383 -1.28967e-10 7.48094e-13
  137 581.383 -1.28096e-10 -8.55639e-14
  138 581.383 -1.30041e-10 4.98152e-12
  139 581.383 -1.27879e-10 6.02714e-13
  140 581.383 -1.29925e-10 -2.16875e-12
  141 581.383 -1.30092e-10 1.69151e-12
  142 581.383 -1.29533e-10 -5.38819e-12
  143 581.383 -1.28401e-10 -4.49169e-12
  144 581.383 -1.27461e-10 1.49895e-13
  145 581.383 -1.28253e-10 2.80504e-12
  146 581.383 -1.29359e-10 1.34031e-12
  147 581.383 -1.29432e-10 -2.87953e-12
  148 581.383 -1.30498e-10 -4.56086e-13
  149 581.383 -1.27450e-10 -4.31502e-13
  150 581.383 -1.29940e-10 -2.77691e-12
  151 581.383 -1.32073e-10 -3.47398e-12
  152 581.383 -1.29584e-10 1.60685e-12
  153 581.383 -1.27654e-10 -1.82551e-12
  154 581.383 -1.29838e-10 -1.31373e-12
  155 581.383 -1.27857e-10 -2.65151e-13
  156 581.383 -1.28967e-10 1.03062e-13
  157 581.383 -1.27661e-10 -6.13797e-12
  158 581.383 -1.28060e-10 -2.25676e-13
  159 581.383 -1.28517e-10 1.07320e-12
  160 581.383 -1.30204e-10 -1.40780e-12
  161 581.383 -1.28070e-10 1.03428e-12
  162 581.383 -1.29482e-10 2.57524e-12
  163 581.383 -1.27908e-10 4.65346e-13
  164 581.383 -1.26790e-10 -1.55314e-12
  165 581.383 -1.28619e-10 4.95491e-12
  166 581.383 -1.28053e-10 6.30838e-13
  167 581.383 -1.29490e-10 1.28442e-13
  168 581.383 -1.30926e-10 -1.14241e-13
  169 581.383 -1.28706e-10 -7.27495e-13
  170 581.383 -1.28924e-10 -1.86017e-13
  171 581.383 -1.33844e-10 1.35938e-12
  172 581.383 -1.31667e-10 1.02328e-11
  173 581.383 -1.29076e-10 2.23604e-12
  174 581.383 -1.25723e-10 -1.50765e-12
  175 581.383 -1.28212e-10 4.82989e-13
  176 581.383 -1.34461e-10 -4.88621e-12
  177 581.383 -1.30549e-10 1.08376e-12
  178 581.383 -1.27654e-10 -8.22651e-13
  179 581.383 -1.17647e-10 -7.60150e-12
  180 581.383 -1.26703e-10 2.91058e-12
  181 581.383 -1.28771e-10 6.82993e-13
  182 581.383 -1.28619e-10 -1.93613e-12
  183 581.383 -1.31006e-10 -6.38971e-14
  184 581.383 -1.25327e-10 1.40104e-12
  185 581.383 -1.27501e-10 9.91541e-12
  186 581.383 -1.27522e-10 1.25578e-11
  187 581.383 -1.28974e-10 2.69416e-12
  188 581.383 -1.30143e-10 -5.59066e-13
  189 581.383 -1.29960e-10 9.85397e-13
  190 581.383 -1.30143e-10 1.54011e-12
  191 581.383 -1.30295e-10 -9.02698e-13
  192 581.383 -1.25136e-10 -4.92016e-13
  193 581.383 -1.27583e-10 1.01648e-12
  194 581.383 -1.29940e-10 3.70061e-12
  195 581.383 -1.27857e-10 2.89468e-14
  196 581.383 -1.30244e-10 -1.54580e-12
  197 581.383 -1.28314e-10 8.81044e-12
  198 581.383 -1.29889e-10 -3.34711e-13
  199 581.383 -1.27349e-10 -5.20673e-12
  200 581.383 -1.29482e-10 -1.48898e-12
  201 581.383 -1.30194e-10 -1.49409e-12
  202 581.383 -1.26729e-10 1.28922e-12
  203 581.383 -1.32937e-10 8.79400e-13
  204 581.383 -1.30295e-10 -7.50606e-12
  205 581.383 -1.26689e-10 3.46129e-12
  206 581.383 -1.32642e-10 -2.08006e-12
  207 581.383 -1.29411e-10 1.38652e-12
  208 581.383 -1.28009e-10 2.16297e-12
  209 581.383 -1.29990e-10 -8.54365e-13
  210 581.383 -1.27958e-10 5.46872e-12
  211 581.383 -1.27661e-10 -9.75191e-13
  212 581.383 -1.27156e-10 9.60099e-13
  213 581.383 -1.28680e-10 6.78015e-13
  214 581.383 -1.29482e-10 2.41311e-13
  215 581.383 -1.29046e-10 -5.40947e-12
  216 581.383 -1.31545e-10 -1.58376e-12
  217 581.383 -1.29940e-10 4.47914e-12
  218 581.383 -1.29076e-10 5.07145e-12
  219 581.383 -1.25693e-10 -2.99521e-12
  220 581.383 -1.31006e-10 -6.65885e-13
  221 581.383 -1.28263e-10 -3.04133e-12
  222 581.383 -1.29127e-10 1.87041e-12
  223 581.383 -1.31484e-10 -7.55481e-12
  224 581.383 -1.30935e-10 5.30429e-12
  225 581.383 -1.27704e-10 3.44581e-12
  226 581.383 -1.25998e-10 2.51520e-12
  227 581.383 -1.28365e-10 -6.75875e-12
  228 581.383 -1.30326e-10 2.15874e-12
  229 581.383 -1.28771e-10 1.40141e-12
  230 581.383 -1.29279e-10 -3.45637e-12
  231 581.383 -1.27583e-10 -1.38455e-12
  232 581.383 -1.27400e-10 -1.04765e-11
  233 581.383 -1.29594e-10 -2.04003e-12
  234 581.383 -1.31006e-10 -1.46362e-12
  235 581.383 -1.29777e-10 -1.89908e-12
  236 581.383 -1.27400e-10 -8.36677e-12
  237 581.383 -1.31606e-10 -4.70430e-12
  238 581.383 -1.31362e-10 -1.23033e-12
  239 581.383 -1.28568e-10 1.84961e-12
  240 581.383 -1.35507e-10 5.57444e-12
  241 581.383 -1.24149e-10 5.99994e-12
</Section>

newXOutput 114

<Section columns = "stress_xx | stress_yy | stress_xy">
  1 563.492 -1.20708e-10 -1.37228e-12
  2 563.492 -1.24814e-10 -6.14249e-13
  3 563.492 -1.22908e-10 -4.87814e-13
  4 563.492 -1.23054e-10 2.99927e-13
  5 563.492 -1.21832e-10 -4.22880e-12
  6 563.492 -1.23494e-10 -6.92596e-12
  7 563.492 -1.25181e-10 -3.81475e-12
  8 563.492 -1.25841e-10 -1.38653e-13
  9 563.492 -1.25254e-10 2.70835e-12
  10 563.492 -1.23690e-10 3.67604e-12
  11 563.492 -1.23005e-10 2.35653e-12
  12 563.492 -1.22810e-10 3.44326e-13
  13 563.492 -1.23348e-10 -1.97676e-12
  14 563.492 -1.24081e-10 -3.15753e-12
  15 563.492 -1.24668e-10 -2.26472e-12
  16 563.492 -1.24374e-10 -2.24590e-13
  17 563.492 -1.24472e-10 1.26830e-12
  18 563.492 -1.24765e-10 2.71492e-12
  19 563.492 -1.23103e-10 2.45734e-12
  20 563.492 -1.22321e-10 9.64458e-13
  21 563.492 -1.23592e-10 -1.87597e-12
  22 563.492 -1.23690e-10 -2.97251e-12
  23 563.492 -1.24276e-10 -1.87597e-12
  24 563.492 -1.23494e-10 -1.58493e-13
  25 563.492 -1.23494e-10 3.96233e-14
  26 563.492 -1.23421e-10 -1.31296e-13
  27 563.492 -1.23690e-10 5.54843e-13
  28 563.492 -1.23128e-10 1.58515e-13
  29 563.492 -1.23348e-10 1.78305e-13
  30 563.492 -1.23103e-10 -3.19521e-13
  31 563.492 -1.23494e-10 -4.53218e-13
  32 563.492 -1.23934e-10 -4.49324e-13
  33 563.492 -1.23934e-10 -1.89508e-12
  34 563.492 -1.24570e-10 -2.14830e-12
  35 563.492 -1.23788e-10 -7.62117e-13
  36 563.492 -1.24081e-10 -2.44921e-13
  37 563.492 -1.24961e-10 2.99077e-13
  38 563.492 -1.23983e-10 1.14301e-12
  39 563.492 -1.23885e-10 1.55321e-12
  40 563.492 -1.23788e-10 1.10157e-12
  41 563.492 -1.24276e-10 6.89505e-13
  42 563.492 -1.23299e-10 3.47693e-13
  43 563.492 -1.23299e-10 -4.28340e-13
  44 563.492 -1.23983e-10 -5.29244e-13
  45 563.492 -1.23983e-10 -5.82044e-13
  46 563.492 -1.24570e-10 -2.98762e-13
  47 563.492 -1.24374e-10 5.56460e-13
  48 563.492 -1.24276e-10 7.93935e-13
  49 563.492 -1.23885e-10 6.37300e-13
  50 563.492 -1.23690e-10 -4.54344e-14
  51 563.492 -1.23934e-10 0.00000
  52 563.492 -1.23128e-10 1.69667e-13
  53 563.492 -1.22908e-10 2.70789e-13
  54 563.492 -1.22981e-10 -4.01922e-13
  55 563.492 -1.23494e-10 -1.58493e-13
  56 563.492 -1.23494e-10 5.63560e-13
  57 563.492 -1.24374e-10 -2.94544e-13
  58 563.492 -1.24081e-10 -3.98382e-13
  59 563.492 -1.23662e-10 5.35953e-14
  60 563.492 -1.24374e-10 -7.03278e-13
  61 563.492 -1.23396e-10 -3.08797e-13
  62 563.492 -1.23543e-10 6.65902e-13
  63 563.492 -1.24726e-10 5.37062e-13
  64 563.492 -1.23543e-10 -2.87775e-13
  65 563.492 -1.24081e-10 7.94108e-13
  66 563.492 -1.24081e-10 -2.07560e-12
  67 563.492 -1.24179e-10 1.26243e-12
  68 563.492 -1.24863e-10 9.72211e-13
  69 563.492 -1.24877e-10 -3.31344e-13
  70 563.492 -1.23824e-10 -1.25123e-13
  71 563.492 -1.23836e-10 -1.03577e-12
  72 563.492 -1.23243e-10 1.33654e-13
  73 563.492 -1.23913e-10 5.16923e-14
  74 563.492 -1.23846e-10 4.66313e-13
  75 563.492 -1.23377e-10 9.84140e-13
  76 563.492 -1.23788e-10 -1.12624e-12
  77 563.492 -1.23494e-10 4.93937e-13
  78 563.492 -1.24130e-10 -8.64332e-13
  79 563.492 -1.24081e-10 -5.19394e-14
  80 563.492 -1.24423e-10 -5.94277e-14
  81 563.492 -1.24179e-10 -1.38696e-13
  82 563.492 -1.24668e-10 2.10727e-13
  83 563.492 -1.24228e-10 -2.12918e-13
  84 563.492 -1.24716e-10 1.94942e-12
  85 563.492 -1.25108e-10 -4.76404e-13
  86 563.492 -1.23739e-10 1.86931e-12
  87 563.492 -1.24130e-10 -6.22603e-13
  88 563.492 -1.23612e-10 -1.17552e-12
  89 563.492 -1.23553e-10 2.50285e-12
  90 563.492 -1.22810e-10 -1.51053e-12
  91 563.492 -1.23905e-10 3.89136e-13
  92 563.492 -1.24022e-10 4.41671e-13
  93 563.492 -1.24022e-10 -2.22337e-12
  94 563.492 -1.24668e-10 -6.93513e-13
  95 563.492 -1.23377e-10 5.20641e-13
  96 563.492 -1.24472e-10 2.64446e-14
  97 563.492 -1.22790e-10 3.02993e-12
  98 563.492 -1.24316e-10 -4.20843e-13
  99 563.492 -1.24081e-10 3.46050e-14
  100 563.492 -1.24374e-10 -1.07258e-12
  101 563.492 -1.22468e-10 -9.75546e-13
  102 563.492 -1.23729e-10 -2.22947e-14
  103 563.492 -1.23836e-10 1.56465e-12
  104 563.492 -1.23494e-10 1.09040e-12
  105 563.492 -1.23142e-10 3.39403e-13
  106 563.492 -1.23396e-10 5.39144e-13
  107 563.492 -1.24081e-10 -4.12888e-14
  108 563.492 -1.23592e-10 5.93863e-13
  109 563.492 -1.23201e-10 -1.00746e-12
  110 563.492 -1.22673e-10 7.25299e-13
  111 563.492 -1.23824e-10 -1.06836e-12
  112 563.492 -1.23592e-10 -3.13756e-13
  113 563.492 -1.23913e-10 7.69635e-13
  114 563.492 -1.24919e-10 4.22942e-13
  115 563.492 -1.23641e-10 3.12322e-13
  116 563.492 -1.24785e-10 3.38851e-12
  117 563.492 -1.23152e-10 5.81302e-13
  118 563.492 -1.23983e-10 1.29250e-12
  119 563.492 -1.24877e-10 -5.86052e-13
  120 563.492 -1.24325e-10 -4.55390e-13
  121 563.492 -1.24123e-10 -9.44263e-13
  122 563.492 -1.24207e-10 -7.59889e-13
  123 563.492 -1.24814e-10 -9.85664e-13
  124 563.492 -1.24165e-10 1.36609e-13
  125 563.492 -1.23421e-10 3.28356e-13
  126 563.492 -1.24814e-10 5.27674e-13
  127 563.492 -1.24500e-10 1.07789e-12
  128 563.492 -1.23201e-10 1.31166e-12
  129 563.492 -1.24154e-10 -2.91633e-13
  130 563.492 -1.23934e-10 -4.26658e-13
  131 563.492 -1.22614e-10 -1.13939e-12
  132 563.492 -1.23458e-10 3.43057e-13
  133 563.492 -1.25045e-10 3.89811e-14
  134 563.492 -1.23369e-10 -6.60991e-13
  135 563.492 -1.23620e-10 1.40835e-12
  136 563.492 -1.24207e-10 5.98563e-15
  137 563.492 -1.24165e-10 2.16197e-13
  138 563.492 -1.23788e-10 -7.48274e-13
  139 563.492 -1.23829e-10 8.49196e-14
  140 563.492 -1.23620e-10 -3.66622e-13
  141 563.492 -1.23983e-10 -2.73709e-13
  142 563.492 -1.23739e-10 7.33293e-13
  143 563.492 -1.24081e-10 1.19147e-12
  144 563.492 -1.24081e-10 -5.22233e-13
  145 563.492 -1.24257e-10 -2.04801e-12
  146 563.492 -1.23746e-10 -2.98835e-13
  147 563.492 -1.23641e-10 7.69361e-13
  148 563.492 -1.23152e-10 1.51269e-13
  149 563.492 -1.23836e-10 -3.17045e-13
  150 563.492 -1.23690e-10 4.29356e-13
  151 563.492 -1.23299e-10 -1.17255e-13
  152 563.492 -1.23983e-10 4.66527e-14
  153 563.492 -1.24765e-10 5.01201e-13
  154 563.492 -1.23670e-10 2.82386e-13
  155 563.492 -1.24814e-10 -3.81259e-13
  156 563.492 -1.23662e-10 -2.54970e-14
  157 563.492 -1.23997e-10 9.68178e-13
  158 563.492 -1.24716e-10 -3.05611e-14
  159 563.492 -1.24668e-10 -9.89857e-15
  160 563.492 -1.23142e-10 3.34134e-13
  161 563.492 -1.23964e-10 -1.98117e-14
  162 563.492 -1.23934e-10 -1.59669e-13
  163 563.492 -1.24423e-10 -1.18885e-13
  164 563.492 -1.24332e-10 4.45912e-13
  165 563.492 -1.24130e-10 -1.74631e-12
  166 563.492 -1.24039e-10 -8.17418e-14
  167 563.492 -1.23578e-10 1.06159e-13
  168 563.492 -1.22740e-10 1.85077e-13
  169 563.492 -1.23829e-10 -4.78763e-14
  170 563.492 -1.24433e-10 3.11087e-13
  171 563.492 -1.22530e-10 -5.05291e-13
  172 563.492 -1.23445e-10 -1.68285e-12
  173 563.492 -1.24032e-10 -4.75824e-13
  174 563.492 -1.24228e-10 6.77117e-14
  175 563.492 -1.23641e-10 2.60280e-14
  176 563.492 -1.22516e-10 9.12957e-13
  177 563.492 -1.23250e-10 -9.61466e-13
  178 563.492 -1.24179e-10 5.17819e-13
  179 563.492 -1.25841e-10 1.49413e-12
  180 563.492 -1.24165e-10 -4.37736e-13
  181 563.492 -1.23739e-10 -6.32864e-13
  182 563.492 -1.24492e-10 6.32187e-13
  183 563.492 -1.23690e-10 9.82752e-13
  184 563.492 -1.24316e-10 -3.81423e-13
  185 563.492 -1.24325e-10 -2.76027e-12
  186 563.492 -1.24257e-10 -2.20417e-12
  187 563.492 -1.23983e-10 -1.47834e-12
  188 563.492 -1.23964e-10 2.25178e-13
  189 563.492 -1.23670e-10 -7.56478e-13
  190 563.492 -1.23788e-10 5.91128e-13
  191 563.492 -1.23690e-10 5.48354e-13
  192 563.492 -1.25129e-10 1.95374e-13
  193 563.492 -1.24316e-10 -1.19195e-13
  194 563.492 -1.23739e-10 -4.61163e-13
  195 563.492 -1.24228e-10 2.30163e-13
  196 563.492 -1.23494e-10 1.11599e-12
  197 563.492 -1.23788e-10 -2.09450e-12
  198 563.492 -1.24228e-10 7.69629e-13
  199 563.492 -1.24325e-10 1.00650e-12
  200 563.492 -1.23690e-10 -5.25962e-13
  201 563.492 -1.23250e-10 5.97200e-13
  202 563.492 -1.24433e-10 -1.31084e-12
  203 563.492 -1.22908e-10 -8.43828e-13
  204 563.492 -1.23739e-10 5.77728e-13
  205 563.492 -1.24325e-10 -1.11404e-12
  206 563.492 -1.22732e-10 1.43274e-12
  207 563.492 -1.24433e-10 -1.19361e-13
  208 563.492 -1.24198e-10 -1.45231e-12
  209 563.492 -1.23348e-10 3.67829e-13
  210 563.492 -1.24179e-10 -6.02334e-13
  211 563.492 -1.23746e-10 2.45649e-13
  212 563.492 -1.23964e-10 -2.35872e-13
  213 563.492 -1.24022e-10 3.48054e-13
  214 563.492 -1.23201e-10 8.09821e-15
  215 563.492 -1.23788e-10 1.13646e-12
  216 563.492 -1.23494e-10 1.38625e-12
  217 563.492 -1.23348e-10 -1.03538e-12
  218 563.492 -1.23983e-10 -4.71613e-14
  219 563.492 -1.24785e-10 3.35363e-13
  220 563.492 -1.23592e-10 1.03478e-12
  221 563.492 -1.24228e-10 6.94379e-13
  222 563.492 -1.23494e-10 -7.22046e-13
  223 563.492 -1.23142e-10 1.19251e-12
  224 563.492 -1.23494e-10 -1.32764e-12
  225 563.492 -1.24198e-10 -2.27834e-13
  226 563.492 -1.24374e-10 -8.67476e-13
  227 563.492 -1.24325e-10 6.96834e-13
  228 563.492 -1.23494e-10 3.72555e-13
  229 563.492 -1.23348e-10 -3.65205e-13
  230 563.492 -1.23788e-10 2.83203e-13
  231 563.492 -1.24844e-10 8.46176e-13
  232 563.492 -1.24257e-10 1.51770e-12
  233 563.492 -1.23377e-10 1.17313e-12
  234 563.492 -1.23054e-10 6.75703e-13
  235 563.492 -1.23729e-10 5.07162e-13
  236 563.492 -1.24207e-10 1.10683e-12
  237 563.492 -1.22966e-10 9.12112e-14
  238 563.492 -1.23846e-10 1.18870e-14
  239 563.492 -1.23836e-10 -3.25682e-13
  240 563.492 -1.22556e-10 -1.22615e-12
  241 563.492 -1.24863e-10 -1.01729e-12
</Section>

newXOutput 115

<Section columns = "stress_xx | stress_yy | stress_xy">
  1 545.668 -1.17772e-10 -5.48718e-13
  2 545.668 -1.18900e-10 -1.71638e-13
  3 545.668 -1.20170e-10 1.01993e-12
  4 545.668 -1.19888e-10 -8.03750e-13
  5 545.668 -1.18289e-10 -1.73070e-12
  6 545.668 -1.18477e-10 -2.56575e-12
  7 545.668 -1.18900e-10 -2.30399e-12
  8 545.668 -1.18853e-10 -1.78651e-12
  9 545.668 -1.19041e-10 -1.06929e-12
  10 545.668 -1.18759e-10 -7.93236e-13
  11 545.668 -1.18665e-10 2.09646e-13
  12 545.668 -1.19041e-10 7.91237e-13
  13 545.668 -1.18900e-10 1.39490e-12
  14 545.668 -1.18665e-10 1.71050e-12
  15 545.668 -1.18618e-10 1.40900e-12
  16 545.668 -1.18477e-10 1.24400e-12
  17 545.668 -1.18383e-10 4.85704e-13
  18 545.668 -1.18571e-10 -9.07259e-13
  19 545.668 -1.18289e-10 -2.06871e-12
  20 545.668 -1.18383e-10 -1.45978e-12
  21 545.668 -1.18759e-10 -1.75771e-12
  22 545.668 -1.18383e-10 -2.32209e-12
  23 545.668 -1.18571e-10 -1.83986e-12
  24 545.668 -1.19041e-10 -6.37480e-14
  25 545.668 -1.19183e-10 0.00000
  26 545.668 -1.18900e-10 2.41414e-13
  27 545.668 -1.18289e-10 5.32913e-13
  28 545.668 -1.18971e-10 -9.56604e-13
  29 545.668 -1.20029e-10 -5.70118e-14
  30 545.668 -1.20828e-10 -4.90935e-14
  31 545.668 -1.19700e-10 2.32502e-12
  32 545.668 -1.19183e-10 3.14800e-12
  33 545.668 -1.18830e-10 3.31447e-12
  34 545.668 -1.18195e-10 3.32073e-12
  35 545.668 -1.17560e-10 2.00393e-12
  36 545.668 -1.18101e-10 2.59121e-13
  37 545.668 -1.18007e-10 -1.71844e-12
  38 545.668 -1.18289e-10 -2.54240e-12
  39 545.668 -1.18665e-10 -2.73033e-12
  40 545.668 -1.18947e-10 -3.29863e-12
  41 545.668 -1.19230e-10 -1.37333e-12
  42 545.668 -1.19512e-10 6.83516e-13
  43 545.668 -1.18947e-10 2.44751e-12
  44 545.668 -1.18383e-10 2.42743e-12
  45 545.668 -1.18195e-10 1.58255e-12
  46 545.668 -1.17537e-10 -1.06886e-13
  47 545.668 -1.18101e-10 -2.69640e-12
  48 545.668 -1.18383e-10 -3.36999e-12
  49 545.668 -1.18759e-10 -2.20325e-12
  50 545.668 -1.18947e-10 3.44407e-13
  51 545.668 -1.18477e-10 1.99541e-13
  52 545.668 -1.18407e-10 -3.37516e-13
  53 545.668 -1.18947e-10 7.44823e-14
  54 545.668 -1.17631e-10 4.12213e-13
  55 545.668 -1.17349e-10 -1.52031e-13
  56 545.668 -1.17725e-10 -4.88105e-14
  57 545.668 -1.18571e-10 5.46099e-13
  58 545.668 -1.18712e-10 -7.30921e-13
  59 545.668 -1.19001e-10 5.85654e-13
  60 545.668 -1.18618e-10 1.63195e-12
  61 545.668 -1.19183e-10 -9.34465e-13
  62 545.668 -1.19653e-10 -2.86089e-13
  63 545.668 -1.17970e-10 9.48082e-13
  64 545.668 -1.18665e-10 1.13591e-12
  65 545.668 -1.18383e-10 -8.47089e-13
  66 545.668 -1.18336e-10 1.33733e-12
  67 545.668 -1.18759e-10 -2.29745e-12
  68 545.668 -1.18195e-10 -4.00401e-13
  69 545.668 -1.17470e-10 4.37204e-14
  70 545.668 -1.18865e-10 3.02610e-13
  71 545.668 -1.19230e-10 -5.11854e-13
  72 545.668 -1.19162e-10 -5.07904e-13
  73 545.668 -1.18316e-10 6.86046e-13
  74 545.668 -1.18308e-10 6.18814e-13
  75 545.668 -1.19831e-10 -2.93482e-13
  76 545.668 -1.18383e-10 6.82480e-13
  77 545.668 -1.19041e-10 -3.07766e-13
  78 545.668 -1.18195e-10 -5.76976e-14
  79 545.668 -1.18800e-10 9.12481e-13
  80 545.668 -1.18900e-10 -9.52204e-14
  81 545.668 -1.18477e-10 -1.08917e-12
  82 545.668 -1.17913e-10 -2.90447e-14
  83 545.668 -1.18571e-10 1.04509e-12
  84 545.668 -1.18336e-10 -6.51674e-13
  85 545.668 -1.17913e-10 5.26122e-14
  86 545.668 -1.19135e-10 -4.24823e-13
  87 545.668 -1.18853e-10 2.45336e-12
  88 545.668 -1.20452e-10 7.73663e-13
  89 545.668 -1.18082e-10 -6.07511e-13
  90 545.668 -1.19653e-10 -1.82205e-13
  91 545.668 -1.18759e-10 -3.24782e-13
  92 545.668 -1.18364e-10 -1.93007e-12
  93 545.668 -1.18421e-10 7.44559e-13
  94 545.668 -1.18026e-10 -7.31876e-13
  95 545.668 -1.19718e-10 -9.02806e-13
  96 545.668 -1.18806e-10 -1.78691e-12
  97 545.668 -1.18759e-10 -1.35229e-13
  98 545.668 -1.17744e-10 2.64977e-12
  99 545.668 -1.18383e-10 1.85323e-12
  100 545.668 -1.18985e-10 2.62152e-12
  101 545.668 -1.19418e-10 7.24522e-13
  102 545.668 -1.18364e-10 2.08979e-12
  103 545.668 -1.18195e-10 -1.74459e-12
  104 545.668 -1.19324e-10 -1.48460e-12
  105 545.668 -1.19888e-10 -8.74657e-13
  106 545.668 -1.19135e-10 -2.28735e-12
  107 545.668 -1.19277e-10 1.08137e-12
  108 545.668 -1.17913e-10 -1.24761e-12
  109 545.668 -1.17462e-10 1.38992e-12
  110 545.668 -1.18985e-10 -1.98738e-12
  111 545.668 -1.19006e-10 3.27224e-13
  112 545.668 -1.19088e-10 1.51542e-12
  113 545.668 -1.18518e-10 -1.33569e-12
  114 545.668 -1.17953e-10 -1.70901e-13
  115 545.668 -1.19183e-10 -1.22781e-12
  116 545.668 -1.18477e-10 -1.96062e-14
  117 545.668 -1.18383e-10 2.16081e-12
  118 545.668 -1.18242e-10 -1.49334e-12
  119 545.668 -1.17953e-10 1.19077e-12
  120 545.668 -1.17772e-10 7.44877e-13
  121 545.668 -1.18477e-10 1.60023e-12
  122 545.668 -1.18276e-10 1.55332e-12
  123 545.668 -1.18195e-10 2.19217e-13
  124 545.668 -1.18397e-10 -1.34878e-12
  125 545.668 -1.19218e-10 3.21573e-13
  126 545.668 -1.19112e-10 -8.63682e-13
  127 545.668 -1.17873e-10 4.50531e-14
  128 545.668 -1.18125e-10 -8.69936e-13
  129 545.668 -1.18230e-10 1.39464e-12
  130 545.668 -1.18618e-10 1.60598e-12
  131 545.668 -1.19135e-10 1.49578e-12
  132 545.668 -1.19817e-10 -7.41996e-13
  133 545.668 -1.18638e-10 -4.64841e-13
  134 545.668 -1.19525e-10 -8.04185e-13
  135 545.668 -1.19001e-10 -2.21475e-13
  136 545.668 -1.18397e-10 4.88554e-13
  137 545.668 -1.17591e-10 -9.28410e-13
  138 545.668 -1.18947e-10 1.48912e-12
  139 545.668 -1.18477e-10 1.97358e-12
  140 545.668 -1.18477e-10 -7.88995e-13
  141 545.668 -1.18900e-10 8.03806e-13
  142 545.668 -1.18853e-10 -4.34827e-13
  143 545.668 -1.18719e-10 -1.97228e-12
  144 545.668 -1.18026e-10 3.60443e-13
  145 545.668 -1.18647e-10 2.72447e-12
  146 545.668 -1.18961e-10 6.94941e-13
  147 545.668 -1.19135e-10 -1.77807e-12
  148 545.668 -1.18900e-10 8.77836e-13
  149 545.668 -1.18007e-10 -4.18689e-13
  150 545.668 -1.18618e-10 -1.89549e-12
  151 545.668 -1.19653e-10 -1.68719e-12
  152 545.668 -1.18665e-10 2.17992e-12
  153 545.668 -1.18571e-10 -1.72588e-12
  154 545.668 -1.18816e-10 -5.97627e-13
  155 545.668 -1.18571e-10 4.08841e-13
  156 545.668 -1.18800e-10 1.82905e-12
  157 545.668 -1.18235e-10 -2.02703e-12
  158 545.668 -1.18900e-10 -7.33698e-13
  159 545.668 -1.18618e-10 -6.43279e-13
  160 545.668 -1.19098e-10 -5.86926e-13
  161 545.668 -1.18195e-10 1.06235e-12
  162 545.668 -1.18665e-10 2.99315e-13
  163 545.668 -1.18759e-10 -2.69222e-14
  164 545.668 -1.17712e-10 6.00443e-13
  165 545.668 -1.18759e-10 -9.23127e-13
  166 545.668 -1.18235e-10 6.68231e-13
  167 545.668 -1.19243e-10 -3.13402e-13
  168 545.668 -1.20170e-10 -3.39193e-13
  169 545.668 -1.17671e-10 -2.57098e-13
  170 545.668 -1.17913e-10 -2.02203e-12
  171 545.668 -1.19041e-10 6.10674e-13
  172 545.668 -1.18571e-10 1.39797e-12
  173 545.668 -1.18524e-10 1.10076e-12
  174 545.668 -1.19230e-10 -3.14067e-13
  175 545.668 -1.19088e-10 2.90769e-13
  176 545.668 -1.17819e-10 -2.05111e-13
  177 545.668 -1.20264e-10 1.12787e-12
  178 545.668 -1.18524e-10 -1.05769e-12
  179 545.668 -1.18872e-10 -7.61044e-13
  180 545.668 -1.18518e-10 2.57069e-12
  181 545.668 -1.18712e-10 -8.43174e-14
  182 545.668 -1.18139e-10 -1.64343e-12
  183 545.668 -1.19841e-10 -5.57514e-13
  184 545.668 -1.18421e-10 5.10510e-13
  185 545.668 -1.18618e-10 -1.16592e-12
  186 545.668 -1.18477e-10 1.30252e-12
  187 545.668 -1.19606e-10 2.86941e-12
  188 545.668 -1.19098e-10 5.35777e-13
  189 545.668 -1.18647e-10 6.42617e-13
  190 545.668 -1.19001e-10 2.51634e-13
  191 545.668 -1.19041e-10 -1.10990e-12
  192 545.668 -1.17913e-10 -2.75201e-13
  193 545.668 -1.17687e-10 9.60303e-13
  194 545.668 -1.18947e-10 -2.69423e-13
  195 545.668 -1.18148e-10 1.30743e-13
  196 545.668 -1.19747e-10 -1.97531e-12
  197 545.668 -1.18242e-10 -4.73885e-13
  198 545.668 -1.18242e-10 -1.12631e-12
  199 545.668 -1.18242e-10 -2.59822e-12
  200 545.668 -1.18336e-10 -9.84809e-13
  201 545.668 -1.19465e-10 -1.50476e-13
  202 545.668 -1.18082e-10 3.75960e-13
  203 545.668 -1.19747e-10 -6.59273e-13
  204 545.668 -1.18853e-10 -3.23170e-13
  205 545.668 -1.18853e-10 2.50375e-12
  206 545.668 -1.18590e-10 -4.78023e-13
  207 545.668 -1.17518e-10 1.84751e-13
  208 545.668 -1.18252e-10 2.32132e-12
  209 545.668 -1.18853e-10 -1.66862e-12
  210 545.668 -1.18336e-10 2.28399e-12
  211 545.668 -1.18316e-10 -6.81604e-13
  212 545.668 -1.18816e-10 -5.89724e-13
  213 545.668 -1.18703e-10 -7.24384e-13
  214 545.668 -1.19465e-10 3.00414e-13
  215 545.668 -1.17913e-10 -1.95112e-12
  216 545.668 -1.20001e-10 -6.32849e-13
  217 545.668 -1.18289e-10 -1.02153e-12
  218 545.668 -1.18336e-10 1.30590e-12
  219 545.668 -1.17293e-10 6.44698e-13
  220 545.668 -1.19418e-10 -3.28669e-13
  221 545.668 -1.18853e-10 -2.05119e-12
  222 545.668 -1.18289e-10 1.81589e-12
  223 545.668 -1.18872e-10 -1.79598e-13
  224 545.668 -1.19718e-10 -4.74101e-13
  225 545.668 -1.17687e-10 -5.78804e-13
  226 545.668 -1.18590e-10 4.11868e-12
  227 545.668 -1.18947e-10 -3.12333e-13
  228 545.668 -1.19436e-10 8.38780e-13
  229 545.668 -1.18242e-10 2.53096e-12
  230 545.668 -1.18900e-10 -1.53463e-12
  231 545.668 -1.18872e-10 4.60738e-13
  232 545.668 -1.18195e-10 -2.75145e-12
  233 545.668 -1.18477e-10 2.87649e-12
  234 545.668 -1.19935e-10 -8.61720e-13
  235 545.668 -1.19549e-10 -1.59804e-12
  236 545.668 -1.18195e-10 -1.21603e-12
  237 545.668 -1.18872e-10 1.87463e-12
  238 545.668 -1.19380e-10 -5.57538e-13
  239 545.668 -1.17960e-10 1.10850e-12
  240 545.668 -1.18929e-10 1.40774e-12
  241 545.668 -1.18242e-10 8.53716e-13
</Section>

newXOutput 116

<Section columns = "stress_xx | stress_yy | stress_xy">
  1 527.911 -1.13159e-10 -3.82753e-13
  2 527.911 -1.14920e-10 -5.84978e-13
  3 527.911 -1.12616e-10 -6.41109e-13
  4 527.911 -1.11803e-10 1.09010e-12
  5 527.911 -1.13746e-10 -1.28906e-12
  6 527.911 -1.14107e-10 -2.17652e-12
  7 527.911 -1.13836e-10 -1.17504e-12
  8 527.911 -1.14198e-10 -2.08205e-13
  9 527.911 -1.14198e-10 5.69979e-13
  10 527.911 -1.14198e-10 1.32495e-12
  11 527.911 -1.14288e-10 1.37245e-12
  12 527.911 -1.13836e-10 1.24745e-12
  13 527.911 -1.13904e-10 2.60347e-13
  14 527.911 -1.13926e-10 -2.68563e-13
  15 527.911 -1.14175e-10 -6.72297e-13
  16 527.911 -1.13926e-10 -1.85716e-14
  17 527.911 -1.14198e-10 8.09968e-13
  18 527.911 -1.13836e-10 1.80279e-12
  19 527.911 -1.13384e-10 1.29709e-12
  20 527.911 -1.13475e-10 -9.78545e-14
  21 527.911 -1.13475e-10 -2.22991e-12
  22 527.911 -1.13926e-10 -3.00989e-12
  23 527.911 -1.14469e-10 -2.39419e-12
  24 527.911 -1.14288e-10 4.85691e-14
  25 527.911 -1.14107e-10 3.64268e-14
  26 527.911 -1.13836e-10 6.03319e-14
  27 527.911 -1.13926e-10 8.49958e-14
  28 527.911 -1.13497e-10 2.10861e-13
  29 527.911 -1.12887e-10 2.18561e-13
  30 527.911 -1.12120e-10 -4.22618e-13
  31 527.911 -1.13294e-10 -1.96485e-12
  32 527.911 -1.13565e-10 -3.70071e-12
  33 527.911 -1.13362e-10 -4.02206e-12
  34 527.911 -1.14107e-10 -3.79458e-12
  35 527.911 -1.15124e-10 -2.07340e-12
  36 527.911 -1.15011e-10 -9.23916e-14
  37 527.911 -1.15101e-10 1.67540e-12
  38 527.911 -1.14559e-10 3.08122e-12
  39 527.911 -1.14378e-10 3.49415e-12
  40 527.911 -1.13384e-10 2.79613e-12
  41 527.911 -1.12752e-10 3.35524e-13
  42 527.911 -1.12481e-10 -1.82558e-12
  43 527.911 -1.13113e-10 -3.60365e-12
  44 527.911 -1.14920e-10 -2.86960e-12
  45 527.911 -1.15462e-10 -8.34057e-13
  46 527.911 -1.15011e-10 1.96982e-12
  47 527.911 -1.14288e-10 5.21831e-12
  48 527.911 -1.13836e-10 5.75499e-12
  49 527.911 -1.13023e-10 3.46552e-12
  50 527.911 -1.12842e-10 -1.54637e-13
  51 527.911 -1.12752e-10 -1.82134e-14
  52 527.911 -1.12752e-10 -1.05120e-14
  53 527.911 -1.13655e-10 -7.46400e-14
  54 527.911 -1.13904e-10 -8.39700e-14
  55 527.911 -1.14107e-10 0.00000
  56 527.911 -1.13836e-10 1.32227e-13
  57 527.911 -1.14378e-10 -5.83436e-13
  58 527.911 -1.14378e-10 7.38540e-13
  59 527.911 -1.13759e-10 2.24953e-13
  60 527.911 -1.14288e-10 2.19043e-13
  61 527.911 -1.14107e-10 1.31334e-13
  62 527.911 -1.14198e-10 -2.66397e-13
  63 527.911 -1.14432e-10 6.02117e-14
  64 527.911 -1.13610e-10 -6.86596e-14
  65 527.911 -1.13881e-10 4.03402e-13
  66 527.911 -1.14152e-10 -4.03465e-13
  67 527.911 -1.13159e-10 1.30079e-12
  68 527.911 -1.14152e-10 -4.56242e-14
  69 527.911 -1.14882e-10 -5.38283e-13
  70 527.911 -1.13633e-10 -1.02659e-12
  71 527.911 -1.14107e-10 -1.64881e-13
  72 527.911 -1.13565e-10 -2.67765e-13
  73 527.911 -1.13875e-10 -4.78453e-13
  74 527.911 -1.14920e-10 7.42646e-13
  75 527.911 -1.12806e-10 2.67632e-13
  76 527.911 -1.13610e-10 -1.54639e-13
  77 527.911 -1.13791e-10 -3.80363e-13
  78 527.911 -1.14694e-10 3.20484e-13
  79 527.911 -1.13952e-10 -3.39821e-13
  80 527.911 -1.14107e-10 9.25946e-13
  81 527.911 -1.14288e-10 7.66843e-13
  82 527.911 -1.14875e-10 -1.45764e-12
  83 527.911 -1.14469e-10 -3.22331e-13
  84 527.911 -1.14107e-10 8.12514e-13
  85 527.911 -1.14152e-10 -7.09436e-13
  86 527.911 -1.13746e-10 9.35943e-13
  87 527.911 -1.12887e-10 -1.38812e-12
  88 527.911 -1.12535e-10 -5.95355e-13
  89 527.911 -1.13890e-10 8.45832e-13
  90 527.911 -1.13972e-10 -2.12088e-13
  91 527.911 -1.14595e-10 2.42120e-12
  92 527.911 -1.14324e-10 -4.95434e-13
  93 527.911 -1.14216e-10 -3.86344e-13
  94 527.911 -1.13294e-10 -1.58426e-12
  95 527.911 -1.13728e-10 2.07254e-12
  96 527.911 -1.14604e-10 1.50619e-13
  97 527.911 -1.13402e-10 8.36108e-13
  98 527.911 -1.14703e-10 -1.43667e-12
  99 527.911 -1.13926e-10 -9.16840e-13
  100 527.911 -1.14216e-10 -7.14186e-13
  101 527.911 -1.13655e-10 -6.67027e-13
  102 527.911 -1.14161e-10 -3.80360e-14
  103 527.911 -1.13746e-10 6.10241e-13
  104 527.911 -1.14161e-10 -4.51750e-13
  105 527.911 -1.12644e-10 -6.32787e-13
  106 527.911 -1.13655e-10 3.15925e-13
  107 527.911 -1.13565e-10 4.38776e-13
  108 527.911 -1.12797e-10 -1.32828e-13
  109 527.911 -1.13728e-10 -2.97310e-13
  110 527.911 -1.13728e-10 3.87679e-13
  111 527.911 -1.13159e-10 -2.35423e-13
  112 527.911 -1.13881e-10 -1.36668e-13
  113 527.911 -1.14378e-10 5.81700e-13
  114 527.911 -1.15114e-10 -4.34476e-13
  115 527.911 -1.13610e-10 2.52065e-13
  116 527.911 -1.13674e-10 3.52701e-13
  117 527.911 -1.13475e-10 5.21226e-13
  118 527.911 -1.14288e-10 -5.20660e-14
  119 527.911 -1.13952e-10 -4.31005e-13
  120 527.911 -1.15056e-10 -7.62765e-13
  121 527.911 -1.14417e-10 -4.59912e-13
  122 527.911 -1.14030e-10 -2.61302e-13
  123 527.911 -1.14604e-10 -1.15211e-12
  124 527.911 -1.14262e-10 7.77131e-13
  125 527.911 -1.13531e-10 -1.25437e-13
  126 527.911 -1.14277e-10 3.79758e-13
  127 527.911 -1.14262e-10 2.89580e-13
  128 527.911 -1.13802e-10 1.66049e-14
  129 527.911 -1.14988e-10 4.59371e-13
  130 527.911 -1.13881e-10 3.37487e-13
  131 527.911 -1.13565e-10 -5.16872e-13
  132 527.911 -1.12887e-10 2.51776e-14
  133 527.911 -1.13797e-10 -6.68239e-13
  134 527.911 -1.13836e-10 -9.11054e-14
  135 527.911 -1.13526e-10 3.82611e-14
  136 527.911 -1.13836e-10 8.79988e-13
  137 527.911 -1.14533e-10 1.05234e-12
  138 527.911 -1.13655e-10 -3.90611e-14
  139 527.911 -1.14146e-10 -6.53678e-13
  140 527.911 -1.13565e-10 -2.90119e-13
  141 527.911 -1.14333e-10 -2.96506e-13
  142 527.911 -1.14198e-10 4.78554e-13
  143 527.911 -1.14494e-10 -3.56541e-13
  144 527.911 -1.14270e-10 -1.62001e-12
  145 527.911 -1.13674e-10 -3.42302e-12
  146 527.911 -1.14107e-10 5.75562e-14
  147 527.911 -1.13520e-10 1.10114e-12
  148 527.911 -1.13881e-10 -3.46236e-13
  149 527.911 -1.13836e-10 -3.22444e-13
  150 527.911 -1.13475e-10 4.79131e-13
  151 527.911 -1.13430e-10 1.54190e-13
  152 527.911 -1.14469e-10 3.24181e-13
  153 527.911 -1.14288e-10 1.37496e-14
  154 527.911 -1.13890e-10 7.08241e-13
  155 527.911 -1.14288e-10 6.38891e-13
  156 527.911 -1.13836e-10 5.54058e-13
  157 527.911 -1.13681e-10 -5.64369e-13
  158 527.911 -1.14559e-10 1.32896e-12
  159 527.911 -1.14740e-10 -2.08832e-13
  160 527.911 -1.13348e-10 -1.35235e-13
  161 527.911 -1.13728e-10 3.28486e-13
  162 527.911 -1.14152e-10 -4.75741e-13
  163 527.911 -1.14288e-10 1.02259e-12
  164 527.911 -1.13720e-10 1.14561e-13
  165 527.911 -1.14288e-10 8.06004e-14
  166 527.911 -1.12791e-10 -1.66369e-13
  167 527.911 -1.13991e-10 4.97798e-14
  168 527.911 -1.12520e-10 5.59013e-13
  169 527.911 -1.13875e-10 1.98914e-13
  170 527.911 -1.13999e-10 2.45508e-12
  171 527.911 -1.14223e-10 1.98859e-13
  172 527.911 -1.13701e-10 -6.65689e-13
  173 527.911 -1.15056e-10 3.92145e-13
  174 527.911 -1.14469e-10 -8.54447e-14
  175 527.911 -1.12436e-10 1.98898e-13
  176 527.911 -1.13565e-10 1.26959e-13
  177 527.911 -1.12616e-10 -1.44854e-12
  178 527.911 -1.14559e-10 -6.82094e-13
  179 527.911 -1.14053e-10 -8.75848e-14
  180 527.911 -1.14339e-10 -6.55381e-13
  181 527.911 -1.14469e-10 4.17482e-13
  182 527.911 -1.15083e-10 1.15423e-12
  183 527.911 -1.14107e-10 1.68750e-12
  184 527.911 -1.14216e-10 -4.01984e-13
  185 527.911 -1.14333e-10 5.88603e-14
  186 527.911 -1.13945e-10 -9.81820e-13
  187 527.911 -1.13430e-10 -3.47487e-12
  188 527.911 -1.13511e-10 -7.22938e-14
  189 527.911 -1.14216e-10 -3.30094e-13
  190 527.911 -1.14765e-10 1.20230e-12
  191 527.911 -1.14198e-10 -7.04370e-13
  192 527.911 -1.13836e-10 -9.33697e-15
  193 527.911 -1.14974e-10 -9.52856e-13
  194 527.911 -1.13204e-10 -3.53291e-13
  195 527.911 -1.13204e-10 2.68720e-13
  196 527.911 -1.13565e-10 1.79454e-12
  197 527.911 -1.13836e-10 5.29014e-15
  198 527.911 -1.13520e-10 -2.34634e-13
  199 527.911 -1.14288e-10 -6.15555e-13
  200 527.911 -1.13926e-10 -1.37319e-13
  201 527.911 -1.13023e-10 -1.02830e-13
  202 527.911 -1.14107e-10 -1.35916e-12
  203 527.911 -1.13791e-10 -3.25075e-13
  204 527.911 -1.13791e-10 -2.10486e-14
  205 527.911 -1.14378e-10 -7.40439e-13
  206 527.911 -1.13294e-10 -2.67420e-13
  207 527.911 -1.14866e-10 1.60087e-12
  208 527.911 -1.14812e-10 -2.60951e-12
  209 527.911 -1.13565e-10 -3.47220e-13
  210 527.911 -1.13836e-10 -4.95200e-13
  211 527.911 -1.13875e-10 -2.80474e-13
  212 527.911 -1.14161e-10 -7.82651e-13
  213 527.911 -1.13240e-10 1.84862e-12
  214 527.911 -1.13204e-10 -5.90303e-13
  215 527.911 -1.14107e-10 7.22534e-13
  216 527.911 -1.13945e-10 9.32239e-13
  217 527.911 -1.13565e-10 -9.31216e-13
  218 527.911 -1.14469e-10 6.63097e-13
  219 527.911 -1.14107e-10 1.68314e-13
  220 527.911 -1.14062e-10 4.16501e-13
  221 527.911 -1.13926e-10 9.21841e-14
  222 527.911 -1.13836e-10 5.76760e-13
  223 527.911 -1.14270e-10 6.97313e-13
  224 527.911 -1.13836e-10 1.63923e-13
  225 527.911 -1.13728e-10 -1.05821e-12
  226 527.911 -1.14270e-10 -8.74678e-13
  227 527.911 -1.13926e-10 2.11594e-14
  228 527.911 -1.13077e-10 -3.43272e-13
  229 527.911 -1.13881e-10 -6.29059e-13
  230 527.911 -1.13655e-10 -3.40346e-13
  231 527.911 -1.14703e-10 -4.49554e-13
  232 527.911 -1.14270e-10 -8.43420e-13
  233 527.911 -1.13945e-10 1.29102e-12
  234 527.911 -1.13339e-10 1.32798e-12
  235 527.911 -1.12752e-10 6.37395e-13
  236 527.911 -1.14301e-10 8.33941e-13
  237 527.911 -1.13511e-10 -9.94803e-13
  238 527.911 -1.13999e-10 1.45707e-14
  239 527.911 -1.13926e-10 -6.96412e-14
  240 527.911 -1.13890e-10 4.15913e-13
  241 527.911 -1.14243e-10 -7.98184e-13
</Section>

newXOutput 117

<Section columns = "stress_xx | stress_yy | stress_xy">
  1 510.221 -1.08625e-10 -1.03399e-13
  2 510.221 -1.08495e-10 2.28220e-13
  3 510.221 -1.11747e-10 1.45806e-12
  4 510.221 -1.11877e-10 -1.76482e-12
  5 510.221 -1.08842e-10 -4.98048e-13
  6 510.221 -1.09275e-10 -9.62455e-13
  7 510.221 -1.09470e-10 -6.19505e-13
  8 510.221 -1.09449e-10 -2.81867e-13
  9 510.221 -1.09189e-10 6.89323e-14
  10 510.221 -1.09102e-10 2.86352e-13
  11 510.221 -1.09015e-10 2.30876e-13
  12 510.221 -1.08755e-10 1.56632e-13
  13 510.221 -1.09145e-10 1.24202e-13
  14 510.221 -1.09015e-10 1.43176e-13
  15 510.221 -1.08690e-10 -1.07382e-13
  16 510.221 -1.08928e-10 -6.37151e-13
  17 510.221 -1.08755e-10 -6.13899e-13
  18 510.221 -1.08842e-10 -3.91993e-13
  19 510.221 -1.09449e-10 -1.16264e-13
  20 510.221 -1.08928e-10 1.04077e-12
  21 510.221 -1.08495e-10 6.55093e-13
  22 510.221 -1.09015e-10 8.35804e-13
  23 510.221 -1.09449e-10 5.29858e-13
  24 510.221 -1.08235e-10 6.97584e-14
  25 510.221 -1.08885e-10 0.00000
  26 510.221 -1.09275e-10 5.99486e-14
  27 510.221 -1.09189e-10 -5.81320e-14
  28 510.221 -1.08950e-10 -1.88669e-14
  29 510.221 -1.09145e-10 -3.22633e-13
  30 510.221 -1.11010e-10 -3.70419e-13
  31 510.221 -1.09882e-10 3.37074e-12
  32 510.221 -1.09145e-10 3.96681e-12
  33 510.221 -1.08820e-10 3.85419e-12
  34 510.221 -1.08321e-10 4.18309e-12
  35 510.221 -1.08105e-10 1.85663e-12
  36 510.221 -1.07888e-10 6.45710e-14
  37 510.221 -1.07714e-10 -2.55218e-12
  38 510.221 -1.08928e-10 -4.40304e-12
  39 510.221 -1.09362e-10 -4.29064e-12
  40 510.221 -1.09362e-10 -3.54616e-12
  41 510.221 -1.10056e-10 5.78033e-13
  42 510.221 -1.09882e-10 3.43823e-12
  43 510.221 -1.09102e-10 4.76320e-12
  44 510.221 -1.08495e-10 4.10931e-12
  45 510.221 -1.07281e-10 1.57016e-12
  46 510.221 -1.06500e-10 -2.38453e-12
  47 510.221 -1.08061e-10 -6.94815e-12
  48 510.221 -1.09275e-10 -8.08399e-12
  49 510.221 -1.09882e-10 -5.08069e-12
  50 510.221 -1.10750e-10 4.08518e-13
  51 510.221 -1.09926e-10 1.48237e-13
  52 510.221 -1.09015e-10 4.78409e-16
  53 510.221 -1.09275e-10 3.75349e-14
  54 510.221 -1.09340e-10 1.81312e-13
  55 510.221 -1.09145e-10 6.97584e-14
  56 510.221 -1.08755e-10 5.95853e-14
  57 510.221 -1.08408e-10 -3.53123e-13
  58 510.221 -1.08928e-10 -7.49712e-13
  59 510.221 -1.09684e-10 4.95531e-13
  60 510.221 -1.08582e-10 -3.33009e-13
  61 510.221 -1.09189e-10 -4.29336e-13
  62 510.221 -1.09362e-10 -8.94957e-14
  63 510.221 -1.08547e-10 1.45501e-13
  64 510.221 -1.08928e-10 2.52432e-13
  65 510.221 -1.08842e-10 1.65945e-13
  66 510.221 -1.08972e-10 3.62905e-13
  67 510.221 -1.08972e-10 -2.77706e-13
  68 510.221 -1.09145e-10 1.86399e-13
  69 510.221 -1.08420e-10 -2.74302e-13
  70 510.221 -1.09601e-10 6.25556e-13
  71 510.221 -1.09059e-10 -5.78628e-14
  72 510.221 -1.09127e-10 -3.31925e-13
  73 510.221 -1.08866e-10 -4.06922e-13
  74 510.221 -1.08287e-10 6.10860e-13
  75 510.221 -1.09952e-10 -1.78983e-12
  76 510.221 -1.08712e-10 -8.09216e-13
  77 510.221 -1.09189e-10 1.00978e-13
  78 510.221 -1.08018e-10 -2.41311e-12
  79 510.221 -1.09164e-10 2.59356e-13
  80 510.221 -1.09319e-10 1.87601e-13
  81 510.221 -1.08495e-10 1.49460e-14
  82 510.221 -1.08451e-10 1.70157e-12
  83 510.221 -1.08582e-10 -3.07045e-13
  84 510.221 -1.09232e-10 -7.70326e-14
  85 510.221 -1.08885e-10 9.97392e-14
  86 510.221 -1.09362e-10 -3.29611e-13
  87 510.221 -1.09666e-10 2.87381e-12
  88 510.221 -1.10108e-10 -1.51719e-12
  89 510.221 -1.09015e-10 1.50715e-13
  90 510.221 -1.09232e-10 -2.19412e-13
  91 510.221 -1.08287e-10 -1.98042e-12
  92 510.221 -1.08755e-10 -1.31532e-13
  93 510.221 -1.08755e-10 -2.03780e-12
  94 510.221 -1.09171e-10 -1.32121e-13
  95 510.221 -1.09171e-10 -1.68646e-12
  96 510.221 -1.09145e-10 5.52081e-13
  97 510.221 -1.08651e-10 -2.37179e-13
  98 510.221 -1.07870e-10 2.33842e-12
  99 510.221 -1.08755e-10 3.94022e-13
  100 510.221 -1.09067e-10 6.60032e-13
  101 510.221 -1.09145e-10 2.49357e-15
  102 510.221 -1.08495e-10 3.71623e-13
  103 510.221 -1.08842e-10 2.31112e-12
  104 510.221 -1.08963e-10 5.47653e-13
  105 510.221 -1.10576e-10 1.21783e-12
  106 510.221 -1.09015e-10 -4.02642e-13
  107 510.221 -1.09102e-10 2.59717e-13
  108 510.221 -1.09145e-10 -2.93824e-13
  109 510.221 -1.09171e-10 3.07690e-13
  110 510.221 -1.08495e-10 2.37542e-13
  111 510.221 -1.08722e-10 -1.78812e-12
  112 510.221 -1.09709e-10 -2.99468e-14
  113 510.221 -1.09164e-10 -1.51919e-13
  114 510.221 -1.07826e-10 -1.39153e-13
  115 510.221 -1.09102e-10 -5.94724e-13
  116 510.221 -1.09223e-10 9.54662e-14
  117 510.221 -1.08928e-10 1.29544e-12
  118 510.221 -1.08712e-10 3.11853e-14
  119 510.221 -1.08829e-10 2.84357e-14
  120 510.221 -1.08495e-10 -7.09006e-13
  121 510.221 -1.08495e-10 -2.15776e-13
  122 510.221 -1.08792e-10 -4.65252e-13
  123 510.221 -1.08321e-10 1.77616e-13
  124 510.221 -1.08718e-10 1.98635e-13
  125 510.221 -1.09308e-10 -3.06230e-13
  126 510.221 -1.09308e-10 -1.99612e-13
  127 510.221 -1.08978e-10 5.03947e-13
  128 510.221 -1.09048e-10 1.05767e-13
  129 510.221 -1.07519e-10 9.18561e-14
  130 510.221 -1.09666e-10 2.68905e-13
  131 510.221 -1.09015e-10 2.11562e-13
  132 510.221 -1.10251e-10 7.12439e-13
  133 510.221 -1.08829e-10 -3.15279e-13
  134 510.221 -1.09127e-10 -2.15472e-13
  135 510.221 -1.09052e-10 5.64214e-13
  136 510.221 -1.08829e-10 -1.31272e-12
  137 510.221 -1.08718e-10 -9.02396e-13
  138 510.221 -1.09752e-10 1.54231e-12
  139 510.221 -1.08755e-10 4.93665e-13
  140 510.221 -1.08866e-10 4.80954e-14
  141 510.221 -1.09102e-10 -5.79277e-13
  142 510.221 -1.08972e-10 -1.49460e-14
  143 510.221 -1.08606e-10 1.55901e-14
  144 510.221 -1.08963e-10 1.08423e-12
  145 510.221 -1.08079e-10 3.02543e-12
  146 510.221 -1.08829e-10 7.84045e-13
  147 510.221 -1.09882e-10 -1.23848e-12
  148 510.221 -1.09362e-10 1.86812e-13
  149 510.221 -1.09189e-10 1.77355e-13
  150 510.221 -1.08928e-10 -6.61770e-13
  151 510.221 -1.09362e-10 -5.37736e-13
  152 510.221 -1.08972e-10 5.40525e-13
  153 510.221 -1.09232e-10 4.40277e-13
  154 510.221 -1.09327e-10 1.40690e-13
  155 510.221 -1.08885e-10 -1.87277e-13
  156 510.221 -1.08904e-10 -1.36380e-13
  157 510.221 -1.08904e-10 -5.21703e-13
  158 510.221 -1.08885e-10 -3.57590e-13
  159 510.221 -1.09015e-10 7.72784e-13
  160 510.221 -1.09223e-10 -7.04138e-14
  161 510.221 -1.08703e-10 -2.27317e-13
  162 510.221 -1.09232e-10 8.30773e-13
  163 510.221 -1.08712e-10 -1.31576e-13
  164 510.221 -1.08606e-10 -1.75664e-13
  165 510.221 -1.09015e-10 -3.46543e-14
  166 510.221 -1.09759e-10 8.25652e-13
  167 510.221 -1.08941e-10 -4.54675e-14
  168 510.221 -1.09647e-10 -1.14255e-12
  169 510.221 -1.08941e-10 7.97334e-14
  170 510.221 -1.08703e-10 -3.47113e-12
  171 510.221 -1.09015e-10 2.22453e-13
  172 510.221 -1.09145e-10 3.19904e-13
  173 510.221 -1.08105e-10 5.35805e-13
  174 510.221 -1.09015e-10 2.45247e-13
  175 510.221 -1.10663e-10 -2.55272e-13
  176 510.221 -1.08842e-10 2.33744e-14
  177 510.221 -1.10706e-10 6.39757e-13
  178 510.221 -1.08408e-10 -2.58278e-13
  179 510.221 -1.09536e-10 -1.47449e-13
  180 510.221 -1.08792e-10 3.18403e-13
  181 510.221 -1.08538e-10 1.33460e-13
  182 510.221 -1.08339e-10 -1.30756e-12
  183 510.221 -1.08928e-10 -1.84182e-12
  184 510.221 -1.09015e-10 -4.90222e-13
  185 510.221 -1.09189e-10 1.01065e-14
  186 510.221 -1.08963e-10 2.27618e-13
  187 510.221 -1.09362e-10 2.94968e-12
  188 510.221 -1.09379e-10 -1.36249e-13
  189 510.221 -1.08807e-10 -4.81918e-13
  190 510.221 -1.08346e-10 -4.16282e-13
  191 510.221 -1.09102e-10 6.20649e-13
  192 510.221 -1.08718e-10 -3.75856e-14
  193 510.221 -1.08443e-10 1.64599e-13
  194 510.221 -1.09189e-10 -3.27162e-13
  195 510.221 -1.09145e-10 7.53905e-13
  196 510.221 -1.09102e-10 -2.16091e-12
  197 510.221 -1.08885e-10 4.82981e-14
  198 510.221 -1.09319e-10 -1.66429e-13
  199 510.221 -1.08625e-10 -6.93439e-13
  200 510.221 -1.08842e-10 -5.76680e-13
  201 510.221 -1.09796e-10 -7.56767e-13
  202 510.221 -1.08547e-10 -1.79195e-13
  203 510.221 -1.09319e-10 -3.88747e-13
  204 510.221 -1.09015e-10 -1.82359e-13
  205 510.221 -1.08842e-10 2.77942e-13
  206 510.221 -1.08339e-10 5.47728e-13
  207 510.221 -1.07246e-10 -1.94168e-12
  208 510.221 -1.07818e-10 2.24717e-12
  209 510.221 -1.09145e-10 -1.41609e-12
  210 510.221 -1.08625e-10 2.72972e-12
  211 510.221 -1.09275e-10 -1.65190e-13
  212 510.221 -1.09379e-10 8.09730e-13
  213 510.221 -1.09588e-10 -2.91756e-12
  214 510.221 -1.09536e-10 1.61842e-12
  215 510.221 -1.08547e-10 1.30676e-12
  216 510.221 -1.08963e-10 -1.89050e-12
  217 510.221 -1.08928e-10 -1.47796e-12
  218 510.221 -1.08408e-10 1.26547e-12
  219 510.221 -1.09067e-10 1.16996e-13
  220 510.221 -1.08972e-10 -2.06118e-13
  221 510.221 -1.09319e-10 5.58266e-14
  222 510.221 -1.08928e-10 -4.35219e-15
  223 510.221 -1.09067e-10 1.85763e-13
  224 510.221 -1.09119e-10 -3.03556e-13
  225 510.221 -1.09275e-10 -1.40690e-13
  226 510.221 -1.08963e-10 8.69909e-13
  227 510.221 -1.08885e-10 5.43685e-15
  228 510.221 -1.09431e-10 -8.79231e-13
  229 510.221 -1.09145e-10 5.16689e-13
  230 510.221 -1.08755e-10 1.26558e-12
  231 510.221 -1.09119e-10 5.74427e-13
  232 510.221 -1.08703e-10 -1.03992e-12
  233 510.221 -1.08651e-10 1.84777e-12
  234 510.221 -1.09666e-10 -1.49805e-12
  235 510.221 -1.10160e-10 -7.34526e-13
  236 510.221 -1.09015e-10 2.05125e-14
  237 510.221 -1.08911e-10 1.45943e-13
  238 510.221 -1.09119e-10 -6.54650e-13
  239 510.221 -1.08495e-10 6.31043e-13
  240 510.221 -1.08911e-10 4.68196e-13
  241 510.221 -1.09015e-10 -2.16594e-13
</Section>

newXOutput 118

<Section columns = "stress_xx | stress_yy | stress_xy">
  1 492.597 -9.74324e-11 -3.87596e-12
  2 492.597 -1.06415e-10 -1.76489e-12
  3 492.597 -1.08161e-10 1.81927e-12
  4 492.597 -9.98027e-11 4.26056e-12
  5 492.597 -1.00967e-10 -1.07589e-11
  6 492.597 -1.03795e-10 -1.62101e-11
  7 492.597 -1.05229e-10 -1.56999e-11
  8 492.597 -1.07038e-10 -1.17857e-11
  9 492.597 -1.07537e-10 -6.45648e-12
  10 492.597 -1.06456e-10 1.11094e-12
  11 492.597 -1.05625e-10 7.37637e-12
  12 492.597 -1.05209e-10 1.02740e-11
  13 492.597 -1.04419e-10 9.79247e-12
  14 492.597 -1.03961e-10 1.08833e-11
  15 492.597 -1.02610e-10 8.12637e-12
  16 492.597 -1.02464e-10 4.55308e-12
  17 492.597 -1.02797e-10 7.63839e-13
  18 492.597 -1.02714e-10 -2.35433e-12
  19 492.597 -1.03628e-10 -5.07705e-12
  20 492.597 -1.04294e-10 -5.85567e-12
  21 492.597 -1.04044e-10 -5.87299e-12
  22 492.597 -1.04543e-10 -5.21796e-12
  23 492.597 -1.04626e-10 -4.12794e-12
  24 492.597 -1.09700e-10 -4.47384e-13
  25 492.597 -1.08785e-10 2.66914e-13
  26 492.597 -1.07038e-10 1.41182e-12
  27 492.597 -1.04211e-10 -4.44856e-13
  28 492.597 -1.09284e-10 -3.25747e-12
  29 492.597 -1.10407e-10 3.33642e-13
  30 492.597 -1.09450e-10 1.25779e-12
  31 492.597 -1.06207e-10 6.42002e-12
  32 492.597 -1.03545e-10 9.44848e-12
  33 492.597 -1.03982e-10 1.02129e-11
  34 492.597 -1.03878e-10 9.57941e-12
  35 492.597 -1.00489e-10 6.11729e-12
  36 492.597 -1.03462e-10 -1.39809e-12
  37 492.597 -1.03213e-10 -2.31460e-12
  38 492.597 -1.03712e-10 -5.30207e-12
  39 492.597 -1.03795e-10 -6.02046e-12
  40 492.597 -1.03462e-10 -7.21728e-12
  41 492.597 -1.05375e-10 -6.79442e-12
  42 492.597 -1.06539e-10 -2.43795e-12
  43 492.597 -1.03961e-10 -6.52478e-13
  44 492.597 -1.04710e-10 -8.82826e-13
  45 492.597 -1.06623e-10 2.70088e-12
  46 492.597 -1.05541e-10 7.14802e-12
  47 492.597 -1.04626e-10 1.01540e-11
  48 492.597 -1.03545e-10 1.02986e-11
  49 492.597 -1.03046e-10 8.02044e-12
  50 492.597 -9.57274e-11 -5.91259e-13
  51 492.597 -9.95532e-11 -1.35959e-12
  52 492.597 -1.02734e-10 2.86771e-13
  53 492.597 -1.00634e-10 4.68031e-13
  54 492.597 -9.93037e-11 8.11700e-13
  55 492.597 -9.73076e-11 6.33920e-13
  56 492.597 -9.58106e-11 -2.27112e-13
  57 492.597 -1.05292e-10 -3.93791e-12
  58 492.597 -1.03961e-10 3.58051e-12
  59 492.597 -1.04935e-10 -4.06760e-12
  60 492.597 -1.03545e-10 -4.59797e-12
  61 492.597 -1.05791e-10 1.33085e-12
  62 492.597 -1.03005e-10 8.61372e-12
  63 492.597 -1.00801e-10 2.44230e-12
  64 492.597 -1.05084e-10 9.87978e-12
  65 492.597 -1.04044e-10 -1.25883e-11
  66 492.597 -1.03129e-10 7.93266e-12
  67 492.597 -1.07288e-10 -1.17384e-11
  68 492.597 -1.02090e-10 -6.59740e-12
  69 492.597 -9.86977e-11 1.26449e-12
  70 492.597 -1.00645e-10 8.01996e-12
  71 492.597 -1.08078e-10 7.50730e-12
  72 492.597 -1.08821e-10 -3.36029e-12
  73 492.597 -1.01407e-10 6.35238e-12
  74 492.597 -1.06190e-10 -1.55747e-11
  75 492.597 -1.06489e-10 1.69521e-11
  76 492.597 -1.03504e-10 4.21128e-13
  77 492.597 -1.00551e-10 2.03119e-12
  78 492.597 -1.04959e-10 1.77444e-11
  79 492.597 -1.05221e-10 -3.15408e-13
  80 492.597 -1.02630e-10 -5.47881e-12
  81 492.597 -1.03670e-10 -7.79888e-13
  82 492.597 -9.38977e-11 6.67818e-12
  83 492.597 -1.08868e-10 -4.78205e-12
  84 492.597 -1.04876e-10 -9.52688e-12
  85 492.597 -9.90126e-11 4.40384e-12
  86 492.597 -1.06581e-10 -3.93230e-12
  87 492.597 -1.00219e-10 -7.90887e-13
  88 492.597 -1.09034e-10 8.33334e-12
  89 492.597 -9.74074e-11 -1.45650e-13
  90 492.597 -1.11072e-10 -8.31729e-12
  91 492.597 -1.14374e-10 5.72186e-13
  92 492.597 -1.00252e-10 7.75331e-12
  93 492.597 -1.06988e-10 3.43856e-12
  94 492.597 -9.91540e-11 -1.87566e-12
  95 492.597 -1.10781e-10 -1.23302e-11
  96 492.597 -1.02256e-10 -7.09887e-12
  97 492.597 -1.03146e-10 -1.13343e-11
  98 492.597 -1.06739e-10 1.29445e-11
  99 492.597 -1.03046e-10 1.20142e-11
  100 492.597 -1.04593e-10 1.43187e-11
  101 492.597 -1.09034e-10 1.35600e-12
  102 492.597 -1.02248e-10 5.18107e-12
  103 492.597 -1.04419e-10 -2.41704e-11
  104 492.597 -1.02897e-10 3.65671e-12
  105 492.597 -1.01799e-10 -2.00229e-11
  106 492.597 -1.04751e-10 -1.02517e-11
  107 492.597 -1.05625e-10 4.02753e-12
  108 492.597 -1.04419e-10 2.98299e-12
  109 492.597 -1.00002e-10 1.62842e-12
  110 492.597 -1.10981e-10 -8.85297e-12
  111 492.597 -1.07132e-10 1.21698e-11
  112 492.597 -1.01882e-10 1.67349e-11
  113 492.597 -1.01514e-10 -7.77697e-12
  114 492.597 -9.98740e-11 7.47118e-12
  115 492.597 -1.06955e-10 -5.36207e-12
  116 492.597 -1.04294e-10 -1.30844e-11
  117 492.597 -1.02464e-10 1.00244e-11
  118 492.597 -1.06914e-10 -5.46951e-12
  119 492.597 -1.00836e-10 9.10212e-12
  120 492.597 -9.95948e-11 1.58475e-11
  121 492.597 -1.07823e-10 -2.62118e-12
  122 492.597 -1.01692e-10 7.53469e-12
  123 492.597 -9.68502e-11 7.36477e-13
  124 492.597 -1.03189e-10 -7.07865e-12
  125 492.597 -1.05573e-10 1.42455e-11
  126 492.597 -1.08286e-10 -1.21087e-11
  127 492.597 -1.00516e-10 -4.25616e-12
  128 492.597 -1.02360e-10 -7.68368e-12
  129 492.597 -1.08941e-10 8.37315e-12
  130 492.597 -1.02007e-10 4.63509e-13
  131 492.597 -1.05791e-10 7.47388e-12
  132 492.597 -1.04138e-10 -1.77365e-11
  133 492.597 -1.01228e-10 1.10255e-12
  134 492.597 -1.09783e-10 5.96097e-12
  135 492.597 -1.04187e-10 -8.89815e-12
  136 492.597 -1.04294e-10 1.31924e-11
  137 492.597 -1.01799e-10 -9.83697e-12
  138 492.597 -1.02630e-10 -7.28918e-12
  139 492.597 -1.02476e-10 -1.83387e-12
  140 492.597 -1.04294e-10 -6.86995e-12
  141 492.597 -1.04211e-10 -3.55487e-12
  142 492.597 -1.07787e-10 -6.12025e-12
  143 492.597 -1.05114e-10 6.24688e-12
  144 492.597 -9.54114e-11 1.13094e-11
  145 492.597 -1.04743e-10 1.10489e-11
  146 492.597 -1.08072e-10 -8.37453e-12
  147 492.597 -1.02423e-10 -1.14088e-11
  148 492.597 -9.97611e-11 1.25025e-13
  149 492.597 -1.03753e-10 -4.72401e-12
  150 492.597 -1.07288e-10 -8.17720e-12
  151 492.597 -1.10157e-10 -5.50156e-12
  152 492.597 -1.02672e-10 1.45686e-12
  153 492.597 -1.01882e-10 -8.76095e-12
  154 492.597 -1.03196e-10 -3.26033e-12
  155 492.597 -1.01424e-10 -6.94965e-12
  156 492.597 -1.04900e-10 4.98865e-12
  157 492.597 -1.04009e-10 8.75065e-12
  158 492.597 -1.03753e-10 -5.69972e-14
  159 492.597 -1.02339e-10 -6.36549e-12
  160 492.597 -1.01100e-10 2.00074e-12
  161 492.597 -1.03595e-10 1.71742e-12
  162 492.597 -1.06124e-10 1.42805e-12
  163 492.597 -1.05417e-10 -2.65075e-12
  164 492.597 -9.90898e-11 3.45475e-12
  165 492.597 -1.05500e-10 1.11999e-11
  166 492.597 -9.87334e-11 -4.50287e-12
  167 492.597 -1.08999e-10 7.96137e-13
  168 492.597 -1.11244e-10 1.54209e-12
  169 492.597 -9.67730e-11 1.70864e-12
  170 492.597 -1.06040e-10 -7.96797e-13
  171 492.597 -1.06896e-10 1.12207e-12
  172 492.597 -1.03836e-10 8.80300e-12
  173 492.597 -1.08577e-10 1.38011e-12
  174 492.597 -1.06914e-10 -3.24176e-12
  175 492.597 -9.97611e-11 4.21912e-12
  176 492.597 -9.76819e-11 -4.15584e-12
  177 492.597 -1.08660e-10 3.91735e-12
  178 492.597 -1.06207e-10 1.12846e-11
  179 492.597 -1.06390e-10 -1.37848e-11
  180 492.597 -1.05185e-10 -9.02210e-12
  181 492.597 -1.04377e-10 -3.63754e-12
  182 492.597 -1.02348e-10 -3.56828e-12
  183 492.597 -1.13110e-10 5.25535e-12
  184 492.597 -1.01749e-10 3.69253e-12
  185 492.597 -1.02256e-10 1.60257e-11
  186 492.597 -1.02797e-10 8.32532e-12
  187 492.597 -1.05126e-10 7.96737e-12
  188 492.597 -1.05841e-10 1.37011e-12
  189 492.597 -1.04643e-10 -1.68326e-12
  190 492.597 -1.08571e-10 -5.82386e-12
  191 492.597 -1.02131e-10 8.29633e-12
  192 492.597 -9.77710e-11 8.25535e-13
  193 492.597 -1.00851e-10 9.42941e-12
  194 492.597 -1.07080e-10 5.62123e-12
  195 492.597 -1.01009e-10 -1.16008e-11
  196 492.597 -1.11072e-10 -1.06454e-12
  197 492.597 -9.84720e-11 6.13714e-12
  198 492.597 -1.02215e-10 -2.83697e-12
  199 492.597 -1.03587e-10 1.85819e-11
  200 492.597 -1.04419e-10 -2.89575e-13
  201 492.597 -1.02381e-10 1.18368e-11
  202 492.597 -9.55112e-11 1.01594e-11
  203 492.597 -1.12902e-10 -2.26043e-12
  204 492.597 -1.05749e-10 -4.25909e-12
  205 492.597 -1.06872e-10 2.88877e-12
  206 492.597 -1.03945e-10 -7.59260e-12
  207 492.597 -1.05292e-10 1.07727e-11
  208 492.597 -1.02348e-10 1.08124e-11
  209 492.597 -1.05541e-10 -1.14646e-12
  210 492.597 -1.02755e-10 -1.00511e-11
  211 492.597 -1.01941e-10 -1.17683e-11
  212 492.597 -1.04843e-10 -6.54333e-12
  213 492.597 -1.02597e-10 1.12272e-11
  214 492.597 -1.04918e-10 -1.70601e-11
  215 492.597 -1.02198e-10 -1.25323e-11
  216 492.597 -1.12977e-10 1.78188e-11
  217 492.597 -1.03296e-10 3.13402e-12
  218 492.597 -1.05292e-10 -1.56820e-11
  219 492.597 -9.81061e-11 6.14310e-12
  220 492.597 -1.07995e-10 2.47174e-13
  221 492.597 -1.02381e-10 -9.60258e-12
  222 492.597 -1.04751e-10 1.35100e-13
  223 492.597 -1.06939e-10 1.46314e-13
  224 492.597 -1.11430e-10 -1.15150e-11
  225 492.597 -9.93536e-11 -5.70384e-12
  226 492.597 -1.06639e-10 3.78832e-12
  227 492.597 -1.03005e-10 -4.95939e-12
  228 492.597 -1.05042e-10 2.95014e-11
  229 492.597 -1.02048e-10 3.35646e-13
  230 492.597 -1.06415e-10 -1.30218e-11
  231 492.597 -1.02547e-10 -3.92340e-12
  232 492.597 -1.06988e-10 1.94034e-11
  233 492.597 -1.02897e-10 2.85014e-12
  234 492.597 -1.07537e-10 -4.71568e-12
  235 492.597 -1.04643e-10 -1.00672e-11
  236 492.597 -9.97671e-11 6.14943e-13
  237 492.597 -1.07338e-10 1.16396e-11
  238 492.597 -1.03446e-10 -3.78980e-12
  239 492.597 -1.01924e-10 -2.02690e-12
  240 492.597 -1.04943e-10 6.03951e-12
  241 492.597 -1.01508e-10 6.50577e-12
</Section>

newXOutput 119

<Section columns = "stress_xx | stress_yy | stress_xy">
  1 475.040 -9.73989e-11 -1.48715e-12
  2 475.040 -1.00626e-10 -5.82847e-13
  3 475.040 -9.99086e-11 5.43532e-13
  4 475.040 -9.85940e-11 6.83075e-13
  5 475.040 -9.87135e-11 -3.42245e-12
  6 475.040 -9.91916e-11 -4.91882e-12
  7 475.040 -9.99684e-11 -4.61087e-12
  8 475.040 -1.00307e-10 -2.87279e-12
  9 475.040 -1.00785e-10 -7.52947e-13
  10 475.040 -1.00307e-10 2.72622e-12
  11 475.040 -1.00307e-10 5.69536e-12
  12 475.040 -1.00148e-10 7.51713e-12
  13 475.040 -9.95501e-11 7.24748e-12
  14 475.040 -9.86339e-11 7.14049e-12
  15 475.040 -9.79965e-11 4.36194e-12
  16 475.040 -9.86339e-11 1.57722e-12
  17 475.040 -9.79168e-11 -2.36191e-12
  18 475.040 -9.88729e-11 -4.81796e-12
  19 475.040 -9.94306e-11 -6.18107e-12
  20 475.040 -9.95102e-11 -5.87595e-12
  21 475.040 -9.91916e-11 -5.82132e-12
  22 475.040 -9.94306e-11 -5.22934e-12
  23 475.040 -9.94306e-11 -3.34102e-12
  24 475.040 -1.02060e-10 -9.22910e-13
  25 475.040 -1.02299e-10 0.00000
  26 475.040 -1.02657e-10 1.30004e-12
  27 475.040 -9.96696e-11 3.50690e-13
  28 475.040 -9.83550e-11 6.22929e-13
  29 475.040 -9.85940e-11 1.59405e-14
  30 475.040 -9.91916e-11 -5.26715e-13
  31 475.040 -9.98289e-11 5.55025e-13
  32 475.040 -1.00387e-10 3.57283e-13
  33 475.040 -1.00327e-10 2.32237e-13
  34 475.040 -1.00227e-10 5.66208e-13
  35 475.040 -9.99684e-11 1.33618e-12
  36 475.040 -9.83152e-11 3.51310e-12
  37 475.040 -9.85542e-11 2.25282e-12
  38 475.040 -9.80762e-11 1.77514e-12
  39 475.040 -9.84745e-11 4.40629e-13
  40 475.040 -9.90322e-11 -5.48216e-13
  41 475.040 -9.80762e-11 -1.13400e-12
  42 475.040 -9.80762e-11 -3.82048e-12
  43 475.040 -1.00626e-10 -3.57982e-12
  44 475.040 -1.00705e-10 -6.58905e-13
  45 475.040 -1.00227e-10 1.21492e-12
  46 475.040 -9.98289e-11 2.21744e-12
  47 475.040 -9.95899e-11 2.50729e-12
  48 475.040 -9.92712e-11 2.14342e-12
  49 475.040 -9.89525e-11 1.37285e-12
  50 475.040 -9.84745e-11 2.86456e-13
  51 475.040 -9.75184e-11 3.66630e-13
  52 475.040 -9.76380e-11 1.81380e-13
  53 475.040 -9.87135e-11 -1.64610e-12
  54 475.040 -1.00745e-10 6.80962e-13
  55 475.040 -9.87135e-11 6.69499e-13
  56 475.040 -9.68811e-11 4.18206e-13
  57 475.040 -9.86737e-11 -1.75601e-11
  58 475.040 -9.88729e-11 4.27396e-13
  59 475.040 -9.85769e-11 3.95291e-12
  60 475.040 -9.75583e-11 3.42224e-12
  61 475.040 -9.84745e-11 -1.12404e-12
  62 475.040 -1.01940e-10 -3.11753e-12
  63 475.040 -9.65624e-11 -4.87183e-13
  64 475.040 -1.02179e-10 5.79048e-12
  65 475.040 -9.84347e-11 4.54201e-12
  66 475.040 -1.01861e-10 7.51725e-12
  67 475.040 -9.86737e-11 2.65609e-12
  68 475.040 -9.56462e-11 -5.79826e-12
  69 475.040 -9.99428e-11 -1.19240e-12
  70 475.040 -9.96397e-11 -3.99512e-12
  71 475.040 -1.01462e-10 1.10753e-11
  72 475.040 -9.84745e-11 6.82988e-13
  73 475.040 -9.87477e-11 -1.89203e-12
  74 475.040 -1.00195e-10 1.60575e-12
  75 475.040 -9.98130e-11 -1.11560e-11
  76 475.040 -1.00665e-10 1.27476e-12
  77 475.040 -9.77176e-11 -7.22076e-12
  78 475.040 -9.84347e-11 -7.00599e-12
  79 475.040 -9.99086e-11 -2.51665e-12
  80 475.040 -9.89525e-11 7.14610e-12
  81 475.040 -1.00307e-10 4.07760e-12
  82 475.040 -1.02020e-10 -5.11745e-12
  83 475.040 -9.89924e-11 -1.48085e-11
  84 475.040 -1.00227e-10 4.88218e-13
  85 475.040 -9.54470e-11 -2.27808e-12
  86 475.040 -1.02219e-10 -5.07473e-12
  87 475.040 -9.82753e-11 5.76104e-13
  88 475.040 -9.88091e-11 -3.08011e-12
  89 475.040 -9.74706e-11 2.70412e-12
  90 475.040 -1.02259e-10 1.61209e-12
  91 475.040 -9.77575e-11 2.02128e-12
  92 475.040 -9.69448e-11 -1.13113e-11
  93 475.040 -9.86657e-11 3.70202e-12
  94 475.040 -9.67058e-11 -6.51011e-12
  95 475.040 -9.96218e-11 8.64903e-12
  96 475.040 -9.89525e-11 4.58902e-12
  97 475.040 -1.00052e-10 -9.32180e-12
  98 475.040 -9.93350e-11 3.00471e-12
  99 475.040 -9.73591e-11 3.93623e-12
  100 475.040 -1.00434e-10 9.61787e-12
  101 475.040 -1.00865e-10 4.46797e-12
  102 475.040 -9.82355e-11 8.38712e-12
  103 475.040 -9.92712e-11 7.40163e-12
  104 475.040 -1.01964e-10 5.36790e-12
  105 475.040 -1.00195e-10 6.14808e-12
  106 475.040 -9.73591e-11 -8.86305e-12
  107 475.040 -1.02578e-10 3.65944e-12
  108 475.040 -9.72794e-11 2.91202e-13
  109 475.040 -1.01582e-10 1.90099e-12
  110 475.040 -9.76141e-11 1.63183e-12
  111 475.040 -9.88032e-11 -3.91922e-12
  112 475.040 -1.00466e-10 -1.69282e-12
  113 475.040 -9.92257e-11 6.53695e-13
  114 475.040 -9.98062e-11 -3.45684e-12
  115 475.040 -9.64827e-11 -1.12765e-11
  116 475.040 -9.98608e-11 -4.27092e-12
  117 475.040 -1.01622e-10 8.13768e-12
  118 475.040 -9.99484e-11 4.49808e-12
  119 475.040 -9.62551e-11 1.88074e-12
  120 475.040 -1.00387e-10 -5.68039e-12
  121 475.040 -9.95672e-11 -1.02246e-11
  122 475.040 -9.87477e-11 5.91827e-13
  123 475.040 -1.00267e-10 -2.19287e-13
  124 475.040 -9.88843e-11 1.51285e-12
  125 475.040 -1.01074e-10 -3.31956e-12
  126 475.040 -1.01134e-10 -1.09439e-12
  127 475.040 -9.60844e-11 -4.27241e-12
  128 475.040 -9.88330e-11 -8.09363e-12
  129 475.040 -9.91318e-11 3.04336e-12
  130 475.040 -1.00586e-10 6.27149e-12
  131 475.040 -9.94704e-11 5.22191e-12
  132 475.040 -9.96397e-11 6.03760e-12
  133 475.040 -9.73136e-11 -3.49539e-12
  134 475.040 -1.01001e-10 9.32049e-12
  135 475.040 -1.00250e-10 -6.84901e-12
  136 475.040 -9.93281e-11 2.29079e-12
  137 475.040 -9.91916e-11 3.24930e-12
  138 475.040 -1.01024e-10 1.32034e-11
  139 475.040 -9.99769e-11 -9.00977e-12
  140 475.040 -9.97379e-11 2.01796e-12
  141 475.040 -9.75981e-11 -1.53992e-11
  142 475.040 -1.01064e-10 4.68607e-13
  143 475.040 -1.00762e-10 3.26535e-12
  144 475.040 -1.01056e-10 -5.55924e-12
  145 475.040 -9.96218e-11 -8.25229e-13
  146 475.040 -9.96013e-11 6.93983e-12
  147 475.040 -9.93907e-11 1.74169e-12
  148 475.040 -1.00586e-10 -2.86443e-12
  149 475.040 -9.98688e-11 1.12647e-12
  150 475.040 -9.61640e-11 -9.99786e-12
  151 475.040 -9.94306e-11 1.33718e-12
  152 475.040 -1.00466e-10 9.99605e-12
  153 475.040 -9.89127e-11 -1.07227e-12
  154 475.040 -9.81399e-11 2.26072e-12
  155 475.040 -9.83948e-11 2.83711e-12
  156 475.040 -1.00660e-10 5.66586e-12
  157 475.040 -9.76209e-11 -1.79363e-12
  158 475.040 -9.89525e-11 4.79792e-12
  159 475.040 -1.00187e-10 7.09809e-12
  160 475.040 -9.71360e-11 -3.43502e-12
  161 475.040 -1.00626e-10 1.00690e-12
  162 475.040 -1.03414e-10 7.79918e-12
  163 475.040 -9.77973e-11 6.91767e-12
  164 475.040 -9.61526e-11 -3.46911e-12
  165 475.040 -1.00387e-10 1.33324e-11
  166 475.040 -9.78258e-11 1.17439e-12
  167 475.040 -1.03460e-10 -2.81745e-13
  168 475.040 -9.82355e-11 -9.67125e-13
  169 475.040 -9.82355e-11 2.61658e-12
  170 475.040 -9.81399e-11 -2.94774e-13
  171 475.040 -1.00728e-10 3.91758e-12
  172 475.040 -9.87135e-11 5.78642e-12
  173 475.040 -9.88729e-11 4.06945e-12
  174 475.040 -1.01183e-10 -2.76857e-12
  175 475.040 -9.87932e-11 7.01550e-13
  176 475.040 -9.74388e-11 -1.00024e-12
  177 475.040 -9.93907e-11 -6.89177e-13
  178 475.040 -9.97493e-11 -3.87064e-12
  179 475.040 -1.00148e-10 -4.21878e-12
  180 475.040 -1.00762e-10 -1.58859e-11
  181 475.040 -9.94704e-11 7.30276e-12
  182 475.040 -9.90003e-11 6.97715e-13
  183 475.040 -9.93111e-11 -4.83206e-12
  184 475.040 -9.76141e-11 -7.30398e-13
  185 475.040 -9.99484e-11 1.52811e-11
  186 475.040 -9.81877e-11 5.04102e-12
  187 475.040 -9.99484e-11 -4.63872e-13
  188 475.040 -9.71360e-11 -4.87475e-12
  189 475.040 -9.82355e-11 -1.16142e-11
  190 475.040 -9.90550e-11 2.20064e-13
  191 475.040 -1.02100e-10 8.71203e-12
  192 475.040 -9.54356e-11 -4.59357e-12
  193 475.040 -9.94306e-11 -2.26849e-12
  194 475.040 -1.02657e-10 2.26909e-12
  195 475.040 -9.72794e-11 2.97387e-12
  196 475.040 -9.75184e-11 -1.09125e-12
  197 475.040 -9.95102e-11 6.95066e-12
  198 475.040 -9.83948e-11 -5.36290e-12
  199 475.040 -9.81160e-11 -3.32586e-12
  200 475.040 -9.91916e-11 -4.77113e-13
  201 475.040 -1.00626e-10 -7.19076e-12
  202 475.040 -1.00482e-10 -3.31047e-12
  203 475.040 -1.02578e-10 5.68200e-12
  204 475.040 -9.68014e-11 -2.34826e-12
  205 475.040 -1.00944e-10 -1.62928e-12
  206 475.040 -9.92394e-11 -7.15774e-12
  207 475.040 -9.97652e-11 2.36704e-12
  208 475.040 -1.00148e-10 -1.06531e-12
  209 475.040 -1.01661e-10 -5.78644e-12
  210 475.040 -9.81957e-11 1.00646e-12
  211 475.040 -9.89525e-11 -3.77033e-12
  212 475.040 -1.00004e-10 -4.72851e-12
  213 475.040 -9.90960e-11 1.74265e-12
  214 475.040 -9.99883e-11 7.55509e-12
  215 475.040 -1.00148e-10 1.96265e-12
  216 475.040 -9.84267e-11 -1.34473e-11
  217 475.040 -1.00387e-10 -4.18666e-12
  218 475.040 -9.85542e-11 1.90755e-12
  219 475.040 -9.46503e-11 -1.65138e-12
  220 475.040 -1.00387e-10 -4.68051e-12
  221 475.040 -9.69607e-11 -6.33026e-12
  222 475.040 -9.97891e-11 7.87582e-12
  223 475.040 -1.00769e-10 2.82869e-12
  224 475.040 -1.02299e-10 1.62570e-12
  225 475.040 -9.72794e-11 -8.42069e-12
  226 475.040 -1.03446e-10 2.40484e-12
  227 475.040 -9.62039e-11 -4.11437e-12
  228 475.040 -9.99086e-11 -1.10801e-11
  229 475.040 -1.02100e-10 -1.47075e-12
  230 475.040 -9.97094e-11 2.50510e-12
  231 475.040 -9.70404e-11 -2.17172e-12
  232 475.040 -9.89047e-11 3.54236e-12
  233 475.040 -1.01677e-10 9.46690e-12
  234 475.040 -9.99484e-11 1.33584e-12
  235 475.040 -9.88091e-11 7.57138e-13
  236 475.040 -9.88160e-11 5.14256e-12
  237 475.040 -9.89525e-11 4.78404e-12
  238 475.040 -9.47459e-11 -1.30367e-11
  239 475.040 -9.86339e-11 8.32891e-12
  240 475.040 -9.98608e-11 5.69561e-12
  241 475.040 -9.71998e-11 1.32142e-12
</Section>

newXOutput 120

<Section columns = "stress_xx | stress_yy | stress_xy">
  1 457.548 -9.47970e-11 7.90841e-14
  2 457.548 -9.51400e-11 2.30775e-13
  3 457.548 -9.52544e-11 2.75127e-13
  4 457.548 -9.47970e-11 -2.02660e-13
  5 457.548 -9.47588e-11 4.45884e-14
  6 457.548 -9.45683e-11 6.68826e-14
  7 457.548 -9.46826e-11 1.37831e-14
  8 457.548 -9.46826e-11 4.47890e-14
  9 457.548 -9.47588e-11 3.46462e-14
  10 457.548 -9.51400e-11 -2.67129e-13
  11 457.548 -9.49875e-11 -5.22207e-13
  12 457.548 -9.48351e-11 -7.28780e-13
  13 457.548 -9.48541e-11 -5.92303e-13
  14 457.548 -9.49113e-11 -3.27986e-13
  15 457.548 -9.51400e-11 1.57867e-13
  16 457.548 -9.48351e-11 1.33223e-12
  17 457.548 -9.49113e-11 1.15809e-12
  18 457.548 -9.52162e-11 1.09553e-12
  19 457.548 -9.52162e-11 5.66394e-14
  20 457.548 -9.48351e-11 -8.32618e-13
  21 457.548 -9.47588e-11 -7.32897e-13
  22 457.548 -9.50638e-11 -7.57400e-13
  23 457.548 -9.55212e-11 -4.86054e-13
  24 457.548 -9.48351e-11 1.94422e-13
  25 457.548 -9.51400e-11 0.00000
  26 457.548 -9.49685e-11 -2.87829e-13
  27 457.548 -9.52162e-11 -1.06500e-13
  28 457.548 -9.49113e-11 1.15388e-13
  29 457.548 -9.51400e-11 9.88927e-14
  30 457.548 -9.49875e-11 -1.50681e-13
  31 457.548 -9.48351e-11 2.55931e-14
  32 457.548 -9.47970e-11 -5.38073e-13
  33 457.548 -9.48541e-11 -7.66867e-13
  34 457.548 -9.48351e-11 -1.14523e-12
  35 457.548 -9.48541e-11 -9.13057e-13
  36 457.548 -9.48351e-11 -8.16716e-13
  37 457.548 -9.49113e-11 -6.61708e-13
  38 457.548 -9.50638e-11 -2.57879e-13
  39 457.548 -9.49875e-11 3.02544e-13
  40 457.548 -9.48351e-11 8.14265e-13
  41 457.548 -9.48351e-11 1.28884e-12
  42 457.548 -9.46064e-11 1.18400e-12
  43 457.548 -9.43777e-11 8.51638e-13
  44 457.548 -9.44539e-11 6.34568e-14
  45 457.548 -9.44539e-11 -4.80505e-13
  46 457.548 -9.46064e-11 -1.15564e-12
  47 457.548 -9.47588e-11 -1.41568e-12
  48 457.548 -9.48351e-11 -1.17169e-12
  49 457.548 -9.48351e-11 -6.09882e-13
  50 457.548 -9.48351e-11 -4.54422e-15
  51 457.548 -9.47970e-11 5.32499e-14
  52 457.548 -9.47398e-11 6.12524e-14
  53 457.548 -9.48351e-11 1.12425e-13
  54 457.548 -9.49113e-11 1.21263e-14
  55 457.548 -9.49113e-11 -6.08570e-14
  56 457.548 -9.48351e-11 -7.71385e-14
  57 457.548 -9.46445e-11 7.54563e-13
  58 457.548 -9.47207e-11 -3.62005e-13
  59 457.548 -9.48786e-11 3.27205e-14
  60 457.548 -9.49494e-11 -3.40716e-13
  61 457.548 -9.48351e-11 -9.90437e-14
  62 457.548 -9.47588e-11 -1.94321e-13
  63 457.548 -9.47283e-11 -1.37953e-13
  64 457.548 -9.45301e-11 7.07993e-14
  65 457.548 -9.47588e-11 4.58525e-13
  66 457.548 -9.47970e-11 9.23274e-14
  67 457.548 -9.45683e-11 2.06046e-13
  68 457.548 -9.51781e-11 -2.24210e-13
  69 457.548 -9.47153e-11 4.06441e-13
  70 457.548 -9.47684e-11 -6.73439e-15
  71 457.548 -9.47588e-11 -5.96854e-13
  72 457.548 -9.50093e-11 -4.47723e-13
  73 457.548 -9.49766e-11 8.05152e-14
  74 457.548 -9.48198e-11 2.83206e-13
  75 457.548 -9.48198e-11 -2.80756e-13
  76 457.548 -9.47970e-11 -3.86734e-13
  77 457.548 -9.47588e-11 1.24112e-13
  78 457.548 -9.53306e-11 4.74899e-13
  79 457.548 -9.48460e-11 4.83532e-13
  80 457.548 -9.52925e-11 -2.12799e-13
  81 457.548 -9.46826e-11 -4.62592e-13
  82 457.548 -9.51400e-11 8.34511e-13
  83 457.548 -9.47207e-11 8.26630e-13
  84 457.548 -9.47588e-11 -7.49141e-13
  85 457.548 -9.51019e-11 -1.23823e-13
  86 457.548 -9.48351e-11 7.23055e-13
  87 457.548 -9.48351e-11 8.93084e-14
  88 457.548 -9.43167e-11 -4.32475e-13
  89 457.548 -9.48198e-11 -5.53409e-13
  90 457.548 -9.47588e-11 -7.32395e-13
  91 457.548 -9.46826e-11 -4.36924e-14
  92 457.548 -9.47283e-11 9.28822e-14
  93 457.548 -9.47283e-11 -1.22296e-12
  94 457.548 -9.45454e-11 2.73127e-13
  95 457.548 -9.46826e-11 2.61204e-14
  96 457.548 -9.47207e-11 -4.80556e-13
  97 457.548 -9.45911e-11 9.07615e-13
  98 457.548 -9.47741e-11 6.38664e-15
  99 457.548 -9.53687e-11 -2.93955e-13
  100 457.548 -9.47283e-11 3.08232e-13
  101 457.548 -9.49494e-11 -4.34712e-13
  102 457.548 -9.50485e-11 -6.32206e-13
  103 457.548 -9.49113e-11 3.54448e-13
  104 457.548 -9.46826e-11 1.58997e-13
  105 457.548 -9.48656e-11 2.06489e-13
  106 457.548 -9.49494e-11 -2.83178e-13
  107 457.548 -9.46445e-11 -1.72027e-13
  108 457.548 -9.46826e-11 8.01009e-14
  109 457.548 -9.46369e-11 2.27310e-13
  110 457.548 -9.40880e-11 3.43873e-13
  111 457.548 -9.45397e-11 4.03098e-14
  112 457.548 -9.47970e-11 -7.82618e-14
  113 457.548 -9.50420e-11 4.87113e-13
  114 457.548 -9.48460e-11 3.75616e-13
  115 457.548 -9.49494e-11 -2.74787e-14
  116 457.548 -9.46826e-11 -9.58652e-14
  117 457.548 -9.48351e-11 -6.35360e-13
  118 457.548 -9.47207e-11 3.91262e-13
  119 457.548 -9.51400e-11 -8.36784e-14
  120 457.548 -9.49875e-11 1.67693e-13
  121 457.548 -9.47153e-11 5.39784e-13
  122 457.548 -9.48786e-11 -1.73210e-13
  123 457.548 -9.49875e-11 8.14111e-14
  124 457.548 -9.45519e-11 -2.77380e-14
  125 457.548 -9.47970e-11 1.98935e-14
  126 457.548 -9.47112e-11 -5.27468e-13
  127 457.548 -9.53034e-11 -3.97003e-15
  128 457.548 -9.49399e-11 3.85630e-13
  129 457.548 -9.47398e-11 -3.01777e-13
  130 457.548 -9.49494e-11 -7.55943e-14
  131 457.548 -9.50257e-11 -3.90367e-13
  132 457.548 -9.47970e-11 3.09037e-13
  133 457.548 -9.49440e-11 3.14831e-13
  134 457.548 -9.47153e-11 -4.27948e-13
  135 457.548 -9.50093e-11 4.52297e-13
  136 457.548 -9.48133e-11 -5.74859e-13
  137 457.548 -9.49113e-11 3.78644e-13
  138 457.548 -9.48351e-11 3.96162e-13
  139 457.548 -9.48133e-11 6.77165e-13
  140 457.548 -9.48460e-11 -1.81001e-13
  141 457.548 -9.48351e-11 4.92468e-13
  142 457.548 -9.47970e-11 -4.90925e-13
  143 457.548 -9.46499e-11 1.89167e-13
  144 457.548 -9.48656e-11 3.26259e-13
  145 457.548 -9.48656e-11 -7.04146e-13
  146 457.548 -9.45192e-11 1.36575e-13
  147 457.548 -9.47970e-11 4.47649e-13
  148 457.548 -9.47588e-11 1.85358e-13
  149 457.548 -9.47588e-11 -3.80357e-14
  150 457.548 -9.49113e-11 -1.32717e-13
  151 457.548 -9.49875e-11 -3.25877e-13
  152 457.548 -9.49875e-11 -8.09809e-13
  153 457.548 -9.51781e-11 -4.60684e-13
  154 457.548 -9.51400e-11 -2.05912e-13
  155 457.548 -9.48732e-11 -2.59247e-13
  156 457.548 -9.47806e-11 -4.78292e-13
  157 457.548 -9.46826e-11 1.38392e-13
  158 457.548 -9.48732e-11 -4.83732e-13
  159 457.548 -9.46826e-11 -4.51395e-13
  160 457.548 -9.47283e-11 7.17180e-14
  161 457.548 -9.50943e-11 -1.16653e-13
  162 457.548 -9.48732e-11 5.95717e-13
  163 457.548 -9.49875e-11 -4.70840e-13
  164 457.548 -9.46499e-11 6.90185e-14
  165 457.548 -9.47588e-11 -8.12251e-13
  166 457.548 -9.47806e-11 1.38542e-13
  167 457.548 -9.47806e-11 4.56428e-14
  168 457.548 -9.43232e-11 3.39604e-14
  169 457.548 -9.49440e-11 -2.03193e-13
  170 457.548 -9.48656e-11 3.94457e-13
  171 457.548 -9.46826e-11 -5.16963e-13
  172 457.548 -9.48351e-11 -2.65221e-13
  173 457.548 -9.46064e-11 -1.71050e-13
  174 457.548 -9.49494e-11 2.46090e-13
  175 457.548 -9.47970e-11 -1.78629e-13
  176 457.548 -9.47970e-11 -7.80110e-14
  177 457.548 -9.47588e-11 -4.49399e-13
  178 457.548 -9.46445e-11 5.41074e-13
  179 457.548 -9.46826e-11 -2.29271e-14
  180 457.548 -9.47479e-11 8.70356e-13
  181 457.548 -9.46826e-11 -5.36454e-13
  182 457.548 -9.50028e-11 1.42251e-13
  183 457.548 -9.47207e-11 -4.52853e-14
  184 457.548 -9.48198e-11 7.14138e-13
  185 457.548 -9.47588e-11 -7.36964e-13
  186 457.548 -9.51400e-11 -1.70159e-13
  187 457.548 -9.48351e-11 -7.15712e-13
  188 457.548 -9.49113e-11 1.77766e-13
  189 457.548 -9.46369e-11 1.70249e-13
  190 457.548 -9.47479e-11 7.81089e-14
  191 457.548 -9.46826e-11 3.17065e-13
  192 457.548 -9.50420e-11 8.18819e-14
  193 457.548 -9.49113e-11 -8.93500e-14
  194 457.548 -9.44158e-11 2.28214e-14
  195 457.548 -9.47970e-11 3.54579e-13
  196 457.548 -9.42633e-11 3.76719e-13
  197 457.548 -9.47588e-11 -3.07198e-13
  198 457.548 -9.51019e-11 5.37622e-13
  199 457.548 -9.46826e-11 9.77001e-14
  200 457.548 -9.47970e-11 1.66152e-13
  201 457.548 -9.48732e-11 -2.47878e-13
  202 457.548 -9.51400e-11 -1.07645e-13
  203 457.548 -9.48351e-11 -4.70639e-13
  204 457.548 -9.52162e-11 -3.60103e-13
  205 457.548 -9.47588e-11 5.53564e-13
  206 457.548 -9.45911e-11 -4.19191e-13
  207 457.548 -9.47741e-11 -9.37416e-13
  208 457.548 -9.50485e-11 -8.42624e-13
  209 457.548 -9.45683e-11 8.77860e-13
  210 457.548 -9.48732e-11 3.37300e-13
  211 457.548 -9.46826e-11 -3.37427e-14
  212 457.548 -9.50485e-11 4.37448e-14
  213 457.548 -9.47741e-11 -6.07785e-13
  214 457.548 -9.46064e-11 4.23495e-13
  215 457.548 -9.46369e-11 7.55925e-13
  216 457.548 -9.48198e-11 -1.87136e-13
  217 457.548 -9.45683e-11 6.61671e-13
  218 457.548 -9.47970e-11 3.96610e-13
  219 457.548 -9.53687e-11 -1.41749e-13
  220 457.548 -9.46826e-11 -1.65451e-14
  221 457.548 -9.52925e-11 -3.92854e-13
  222 457.548 -9.47588e-11 -1.04133e-12
  223 457.548 -9.49113e-11 -5.72027e-13
  224 457.548 -9.47741e-11 -8.29766e-13
  225 457.548 -9.45911e-11 9.86737e-13
  226 457.548 -9.47283e-11 7.31099e-13
  227 457.548 -9.51400e-11 -1.88710e-13
  228 457.548 -9.48198e-11 2.02908e-14
  229 457.548 -9.46826e-11 5.14537e-13
  230 457.548 -9.44539e-11 -1.21513e-14
  231 457.548 -9.49113e-11 2.18122e-14
  232 457.548 -9.46826e-11 5.70006e-14
  233 457.548 -9.47741e-11 -9.37411e-13
  234 457.548 -9.47588e-11 -1.70338e-13
  235 457.548 -9.48656e-11 7.77276e-13
  236 457.548 -9.47153e-11 -7.66633e-13
  237 457.548 -9.49570e-11 -5.06099e-13
  238 457.548 -9.48656e-11 9.43284e-14
  239 457.548 -9.48732e-11 -5.32224e-13
  240 457.548 -9.50028e-11 -5.02825e-13
  241 457.548 -9.50257e-11 2.21059e-13
</Section>

newXOutput 121

<Section columns = "stress_xx | stress_yy | stress_xy">
  1 440.122 -9.37626e-11 1.60050e-12
  2 440.122 -8.62222e-11 2.69696e-12
  3 440.122 -9.64946e-11 5.11301e-12
  4 440.122 -7.95561e-11 6.69710e-12
  5 440.122 -9.19412e-11 6.03146e-12
  6 440.122 -8.97192e-11 9.41844e-12
  7 440.122 -9.04841e-11 1.08870e-11
  8 440.122 -9.01199e-11 1.06361e-11
  9 440.122 -8.93913e-11 9.40860e-12
  10 440.122 -8.94642e-11 6.97472e-12
  11 440.122 -8.96828e-11 3.85073e-12
  12 440.122 -8.92456e-11 1.73977e-12
  13 440.122 -8.81346e-11 -2.14009e-12
  14 440.122 -8.88814e-11 -7.09489e-12
  15 440.122 -8.82439e-11 -1.05350e-11
  16 440.122 -9.08484e-11 -1.37142e-11
  17 440.122 -9.18684e-11 -1.22218e-11
  18 440.122 -9.28883e-11 -7.36541e-12
  19 440.122 -9.28883e-11 -1.45358e-12
  20 440.122 -9.23055e-11 3.85700e-12
  21 440.122 -9.09213e-11 9.19469e-12
  22 440.122 -9.01199e-11 9.99111e-12
  23 440.122 -8.86628e-11 6.66200e-12
  24 440.122 -8.75700e-11 -1.62015e-12
  25 440.122 -9.19048e-11 -1.56634e-12
  26 440.122 -9.53471e-11 -2.52612e-14
  27 440.122 -9.17227e-11 3.14950e-12
  28 440.122 -8.62769e-11 -1.09223e-12
  29 440.122 -9.08120e-11 -1.82014e-12
  30 440.122 -9.69681e-11 -1.49756e-12
  31 440.122 -9.25969e-11 1.09322e-11
  32 440.122 -9.01563e-11 1.42212e-11
  33 440.122 -9.11945e-11 1.48088e-11
  34 440.122 -9.07027e-11 1.73604e-11
  35 440.122 -8.86264e-11 1.26126e-11
  36 440.122 -8.72057e-11 9.42038e-12
  37 440.122 -8.68415e-11 4.06976e-12
  38 440.122 -8.68415e-11 -1.75286e-12
  39 440.122 -8.69143e-11 -8.01523e-12
  40 440.122 -8.89542e-11 -1.27924e-11
  41 440.122 -9.01199e-11 -1.56388e-11
  42 440.122 -9.19412e-11 -1.44078e-11
  43 440.122 -9.36169e-11 -7.93438e-12
  44 440.122 -9.59482e-11 1.23585e-12
  45 440.122 -9.72595e-11 1.23442e-11
  46 440.122 -9.58025e-11 2.41952e-11
  47 440.122 -9.16498e-11 3.40206e-11
  48 440.122 -8.88085e-11 3.33285e-11
  49 440.122 -8.57487e-11 2.01769e-11
  50 440.122 -7.89004e-11 -5.18364e-14
  51 440.122 -8.13046e-11 -9.28199e-13
  52 440.122 -8.41459e-11 -1.95445e-12
  53 440.122 -8.85171e-11 -1.19308e-12
  54 440.122 -9.37079e-11 -2.19256e-12
  55 440.122 -9.50739e-11 -2.32050e-13
  56 440.122 -9.55839e-11 8.14498e-13
  57 440.122 -9.24148e-11 -9.72818e-12
  58 440.122 -9.05934e-11 2.75992e-11
  59 440.122 -8.83610e-11 -1.05709e-11
  60 440.122 -9.29612e-11 8.99990e-12
  61 440.122 -8.91364e-11 -1.73930e-12
  62 440.122 -9.43818e-11 1.98089e-12
  63 440.122 -8.66812e-11 -2.83809e-12
  64 440.122 -9.38354e-11 -1.23298e-11
  65 440.122 -8.70600e-11 -1.20360e-11
  66 440.122 -9.37626e-11 -9.45892e-12
  67 440.122 -8.80436e-11 -1.07942e-11
  68 440.122 -8.49473e-11 6.69295e-12
  69 440.122 -8.75492e-11 -1.32704e-11
  70 440.122 -9.17682e-11 4.74894e-12
  71 440.122 -9.01927e-11 4.66273e-13
  72 440.122 -8.51450e-11 7.73170e-12
  73 440.122 -9.24512e-11 -1.53242e-11
  74 440.122 -9.27135e-11 -2.35333e-12
  75 440.122 -9.65164e-11 1.94645e-11
  76 440.122 -9.21962e-11 1.29695e-11
  77 440.122 -8.82985e-11 -4.00338e-12
  78 440.122 -8.68415e-11 -1.56674e-11
  79 440.122 -9.03905e-11 -1.56410e-11
  80 440.122 -8.77886e-11 -2.12527e-12
  81 440.122 -9.04113e-11 2.19822e-11
  82 440.122 -8.68415e-11 -1.44247e-11
  83 440.122 -9.22326e-11 -1.28781e-11
  84 440.122 -9.19048e-11 1.29364e-11
  85 440.122 -9.06299e-11 -5.83799e-12
  86 440.122 -8.98285e-11 -7.43806e-12
  87 440.122 -8.17053e-11 8.69052e-13
  88 440.122 -9.56859e-11 -7.97641e-12
  89 440.122 -9.46805e-11 5.67768e-12
  90 440.122 -8.64772e-11 1.16230e-11
  91 440.122 -1.00713e-10 1.63199e-11
  92 440.122 -9.09650e-11 -5.75311e-12
  93 440.122 -9.15332e-11 2.36776e-11
  94 440.122 -9.45931e-11 -8.13950e-12
  95 440.122 -9.92266e-11 1.03330e-11
  96 440.122 -8.65501e-11 9.69567e-12
  97 440.122 -9.28883e-11 -6.85555e-12
  98 440.122 -9.20141e-11 1.04486e-11
  99 440.122 -8.64772e-11 -5.30730e-12
  100 440.122 -9.27135e-11 -1.72492e-11
  101 440.122 -8.52023e-11 4.98056e-12
  102 440.122 -8.92602e-11 -6.44740e-13
  103 440.122 -8.87357e-11 1.37750e-12
  104 440.122 -9.12710e-11 -1.18439e-11
  105 440.122 -8.89542e-11 -8.35801e-12
  106 440.122 -8.51294e-11 7.56915e-12
  107 440.122 -9.65674e-11 1.84056e-12
  108 440.122 -8.48016e-11 -4.94730e-12
  109 440.122 -9.54236e-11 -5.62509e-12
  110 440.122 -8.43644e-11 -1.79486e-12
  111 440.122 -9.07573e-11 -1.10162e-11
  112 440.122 -9.39083e-11 7.04862e-12
  113 440.122 -8.68311e-11 -1.05607e-11
  114 440.122 -8.59568e-11 -6.78067e-12
  115 440.122 -8.69872e-11 -1.04539e-13
  116 440.122 -9.15332e-11 1.07186e-11
  117 440.122 -9.36897e-11 -8.46258e-12
  118 440.122 -9.00835e-11 -1.46038e-11
  119 440.122 -8.82673e-11 -6.32864e-12
  120 440.122 -8.86992e-11 -7.70204e-12
  121 440.122 -9.25449e-11 -1.18527e-11
  122 440.122 -9.32942e-11 1.00604e-11
  123 440.122 -8.89178e-11 -6.48387e-12
  124 440.122 -9.07964e-11 1.14590e-11
  125 440.122 -9.52105e-11 5.28550e-12
  126 440.122 -8.95553e-11 1.38353e-11
  127 440.122 -8.53948e-11 3.08468e-12
  128 440.122 -9.35986e-11 -4.83697e-12
  129 440.122 -9.58389e-11 1.67743e-11
  130 440.122 -9.14677e-11 9.70629e-13
  131 440.122 -8.64408e-11 -1.06439e-12
  132 440.122 -9.23146e-11 -7.69815e-12
  133 440.122 -9.26073e-11 -8.58416e-12
  134 440.122 -8.75804e-11 1.32190e-12
  135 440.122 -9.04217e-11 1.77585e-12
  136 440.122 -8.87044e-11 1.82318e-11
  137 440.122 -8.84859e-11 -1.69782e-11
  138 440.122 -9.13948e-11 -1.31539e-11
  139 440.122 -9.15145e-11 -9.13220e-12
  140 440.122 -8.87981e-11 1.58888e-11
  141 440.122 -9.13220e-11 -1.19587e-11
  142 440.122 -8.90635e-11 1.00375e-11
  143 440.122 -9.12647e-11 -1.24792e-11
  144 440.122 -8.97410e-11 -2.32916e-12
  145 440.122 -8.97410e-11 1.14050e-11
  146 440.122 -9.65414e-11 4.99386e-12
  147 440.122 -8.81528e-11 -1.06584e-11
  148 440.122 -8.98285e-11 -3.74948e-12
  149 440.122 -8.76793e-11 5.74898e-12
  150 440.122 -8.62222e-11 4.03935e-12
  151 440.122 -8.48380e-11 8.07620e-12
  152 440.122 -9.11034e-11 8.86915e-12
  153 440.122 -8.46194e-11 7.05394e-12
  154 440.122 -8.64626e-11 -6.12148e-12
  155 440.122 -9.21598e-11 7.50129e-12
  156 440.122 -9.48241e-11 9.54865e-12
  157 440.122 -8.83922e-11 -7.51430e-12
  158 440.122 -9.15770e-11 1.48153e-11
  159 440.122 -8.62586e-11 1.18849e-11
  160 440.122 -8.72494e-11 -1.78780e-12
  161 440.122 -9.47679e-11 6.33530e-12
  162 440.122 -9.08120e-11 -1.72496e-11
  163 440.122 -9.10670e-11 5.65870e-12
  164 440.122 -9.07964e-11 -1.01707e-11
  165 440.122 -9.16498e-11 -6.66253e-13
  166 440.122 -7.99932e-11 -2.30501e-12
  167 440.122 -9.13584e-11 -5.41673e-12
  168 440.122 -9.20453e-11 -6.42573e-12
  169 440.122 -9.62604e-11 6.13653e-13
  170 440.122 -8.84734e-11 -2.59153e-11
  171 440.122 -8.84234e-11 5.88242e-12
  172 440.122 -8.76793e-11 -4.73345e-12
  173 440.122 -9.70045e-11 1.23270e-11
  174 440.122 -8.74607e-11 1.44385e-14
  175 440.122 -8.07582e-11 5.89889e-12
  176 440.122 -9.42361e-11 3.60566e-12
  177 440.122 -9.59482e-11 2.49376e-12
  178 440.122 -9.20141e-11 -1.29363e-11
  179 440.122 -9.03530e-11 1.12312e-11
  180 440.122 -9.25761e-11 -1.02517e-11
  181 440.122 -8.89906e-11 2.48423e-11
  182 440.122 -8.73369e-11 -4.82696e-12
  183 440.122 -9.98458e-11 1.66202e-11
  184 440.122 -9.10087e-11 -1.10215e-11
  185 440.122 -9.34711e-11 -4.65520e-12
  186 440.122 -8.80363e-11 -7.60901e-12
  187 440.122 -9.29247e-11 1.10724e-11
  188 440.122 -8.79926e-11 -1.37612e-11
  189 440.122 -9.21015e-11 -9.43564e-12
  190 440.122 -9.59482e-11 5.66549e-12
  191 440.122 -9.11763e-11 -1.47907e-11
  192 440.122 -9.12959e-11 -5.39059e-12
  193 440.122 -8.74243e-11 4.91137e-14
  194 440.122 -9.43090e-11 -1.09151e-11
  195 440.122 -8.34174e-11 -7.41160e-12
  196 440.122 -8.87721e-11 -1.46900e-11
  197 440.122 -9.61667e-11 -2.18709e-12
  198 440.122 -9.39083e-11 -5.83143e-12
  199 440.122 -9.11034e-11 -9.03613e-12
  200 440.122 -8.93913e-11 2.37296e-11
  201 440.122 -9.42725e-11 1.38077e-11
  202 440.122 -9.06590e-11 2.98621e-12
  203 440.122 -8.40730e-11 8.35250e-12
  204 440.122 -8.46923e-11 8.44718e-12
  205 440.122 -9.22326e-11 -1.45943e-11
  206 440.122 -9.14895e-11 3.02287e-12
  207 440.122 -9.36314e-11 2.23684e-11
  208 440.122 -8.84734e-11 1.02486e-11
  209 440.122 -9.25240e-11 -1.42964e-11
  210 440.122 -8.62586e-11 2.17652e-14
  211 440.122 -9.16394e-11 8.49376e-12
  212 440.122 -8.93039e-11 4.41236e-12
  213 440.122 -8.60255e-11 1.81238e-11
  214 440.122 -9.32890e-11 -5.96177e-12
  215 440.122 -9.08776e-11 1.05432e-11
  216 440.122 -1.00757e-10 2.06139e-11
  217 440.122 -9.31433e-11 -1.72542e-11
  218 440.122 -9.05934e-11 -3.43693e-13
  219 440.122 -8.89979e-11 -4.17832e-12
  220 440.122 -9.54382e-11 2.96305e-12
  221 440.122 -8.47651e-11 7.82324e-12
  222 440.122 -9.19776e-11 2.08912e-11
  223 440.122 -8.92602e-11 6.91411e-12
  224 440.122 -8.72932e-11 1.48639e-11
  225 440.122 -9.49865e-11 -9.06959e-12
  226 440.122 -9.27572e-11 -1.64882e-11
  227 440.122 -8.53115e-11 7.77929e-12
  228 440.122 -9.56859e-11 1.51351e-11
  229 440.122 -9.24512e-11 -9.08754e-12
  230 440.122 -8.54573e-11 5.48998e-12
  231 440.122 -8.46267e-11 2.45260e-12
  232 440.122 -8.90416e-11 -1.03925e-11
  233 440.122 -9.56422e-11 8.18827e-12
  234 440.122 -9.72231e-11 1.15473e-11
  235 440.122 -8.87357e-11 -1.33148e-11
  236 440.122 -9.47617e-11 6.73174e-12
  237 440.122 -8.45830e-11 -3.48578e-12
  238 440.122 -8.94351e-11 -4.66276e-12
  239 440.122 -8.76793e-11 7.97371e-12
  240 440.122 -8.82548e-11 1.67260e-12
  241 440.122 -8.99377e-11 -9.54656e-12
</Section>

newXOutput 122

<Section columns = "stress_xx | stress_yy | stress_xy">
  1 422.761 -8.59382e-11 2.76132e-14
  2 422.761 -8.61468e-11 -2.65406e-13
  3 422.761 -8.82327e-11 1.38540e-12
  4 422.761 -8.36438e-11 1.36627e-12
  5 422.761 -8.58687e-11 -8.84022e-14
  6 422.761 -8.57296e-11 -9.39648e-14
  7 422.761 -8.60425e-11 -4.13356e-13
  8 422.761 -8.61468e-11 -4.35193e-13
  9 422.761 -8.61468e-11 -3.41228e-13
  10 422.761 -8.60773e-11 -1.03568e-13
  11 422.761 -8.61468e-11 -2.10445e-13
  12 422.761 -8.56601e-11 -1.80978e-13
  13 422.761 -8.62511e-11 -1.57834e-13
  14 422.761 -8.64249e-11 -4.01950e-13
  15 422.761 -8.65118e-11 1.32853e-13
  16 422.761 -8.55906e-11 1.01050e-12
  17 422.761 -8.57992e-11 1.05858e-12
  18 422.761 -8.60078e-11 1.11381e-12
  19 422.761 -8.57296e-11 2.32695e-13
  20 422.761 -8.51734e-11 5.93335e-14
  21 422.761 -8.62859e-11 -7.70127e-13
  22 422.761 -8.58687e-11 -1.37100e-12
  23 422.761 -8.59382e-11 -8.18202e-13
  24 422.761 -8.61468e-11 1.76937e-13
  25 422.761 -8.65640e-11 2.76132e-14
  26 422.761 -8.63033e-11 -1.38066e-14
  27 422.761 -8.65640e-11 -5.06243e-14
  28 422.761 -8.66161e-11 -6.98960e-14
  29 422.761 -8.65640e-11 -1.51873e-13
  30 422.761 -8.78155e-11 -2.83116e-13
  31 422.761 -8.71202e-11 3.32813e-12
  32 422.761 -8.62511e-11 4.96491e-12
  33 422.761 -8.66161e-11 4.85321e-12
  34 422.761 -8.62859e-11 6.11292e-12
  35 422.761 -8.56253e-11 5.91250e-12
  36 422.761 -8.51734e-11 5.41809e-12
  37 422.761 -8.45476e-11 3.19129e-12
  38 422.761 -8.47562e-11 9.45174e-13
  39 422.761 -8.44781e-11 -1.32113e-12
  40 422.761 -8.57296e-11 -4.06346e-12
  41 422.761 -8.58687e-11 -5.53672e-12
  42 422.761 -8.62859e-11 -5.72667e-12
  43 422.761 -8.71202e-11 -4.22290e-12
  44 422.761 -8.72593e-11 -1.80411e-12
  45 422.761 -8.71202e-11 7.87993e-13
  46 422.761 -8.72593e-11 3.69745e-12
  47 422.761 -8.66335e-11 6.07416e-12
  48 422.761 -8.55906e-11 5.96115e-12
  49 422.761 -8.51039e-11 3.73653e-12
  50 422.761 -8.42000e-11 -3.76985e-13
  51 422.761 -8.51039e-11 -2.14003e-13
  52 422.761 -8.59904e-11 2.35444e-14
  53 422.761 -8.55210e-11 8.57206e-14
  54 422.761 -8.51039e-11 -2.82836e-14
  55 422.761 -8.55210e-11 -2.76132e-14
  56 422.761 -8.59382e-11 -7.90740e-14
  57 422.761 -8.61468e-11 1.73920e-12
  58 422.761 -8.56949e-11 -2.50216e-12
  59 422.761 -8.56104e-11 3.65237e-13
  60 422.761 -8.51386e-11 -7.86753e-14
  61 422.761 -8.62859e-11 9.46121e-13
  62 422.761 -8.64249e-11 -4.85733e-13
  63 422.761 -8.56879e-11 -1.77022e-13
  64 422.761 -8.62859e-11 1.33068e-13
  65 422.761 -8.61816e-11 -1.23087e-12
  66 422.761 -8.56253e-11 1.82061e-13
  67 422.761 -8.64249e-11 -4.04224e-13
  68 422.761 -8.61120e-11 3.12310e-14
  69 422.761 -8.52529e-11 -7.65880e-13
  70 422.761 -8.48953e-11 5.58200e-13
  71 422.761 -8.62859e-11 -3.05204e-13
  72 422.761 -8.63256e-11 -1.32139e-13
  73 422.761 -8.57296e-11 6.98764e-13
  74 422.761 -8.67726e-11 -2.31855e-12
  75 422.761 -8.57714e-11 1.04645e-12
  76 422.761 -8.67030e-11 -9.53454e-13
  77 422.761 -8.55906e-11 6.62762e-13
  78 422.761 -8.60773e-11 -1.51733e-12
  79 422.761 -8.59382e-11 1.16158e-12
  80 422.761 -8.56253e-11 -3.80718e-13
  81 422.761 -8.53125e-11 -1.99590e-12
  82 422.761 -8.46172e-11 -4.97842e-13
  83 422.761 -8.64597e-11 1.76286e-12
  84 422.761 -8.55558e-11 -1.11564e-12
  85 422.761 -8.57296e-11 4.45110e-13
  86 422.761 -8.60078e-11 8.27292e-13
  87 422.761 -8.48605e-11 -2.18556e-12
  88 422.761 -8.80241e-11 -1.20354e-12
  89 422.761 -8.56045e-11 -5.59578e-13
  90 422.761 -8.60773e-11 -8.98445e-13
  91 422.761 -8.71063e-11 -3.61264e-13
  92 422.761 -8.61051e-11 1.50132e-12
  93 422.761 -8.60217e-11 -3.00689e-12
  94 422.761 -8.57714e-11 6.25489e-13
  95 422.761 -8.69394e-11 1.03590e-12
  96 422.761 -8.55558e-11 -6.33459e-13
  97 422.761 -8.58131e-11 1.18038e-12
  98 422.761 -8.67309e-11 -2.04618e-12
  99 422.761 -8.64597e-11 7.16440e-13
  100 422.761 -8.62720e-11 4.33470e-13
  101 422.761 -8.62511e-11 -3.69388e-13
  102 422.761 -8.60634e-11 -6.82217e-13
  103 422.761 -8.60078e-11 1.46356e-12
  104 422.761 -8.64388e-11 -4.28455e-13
  105 422.761 -8.50204e-11 5.80095e-13
  106 422.761 -8.59035e-11 5.47424e-13
  107 422.761 -8.59382e-11 -2.12728e-13
  108 422.761 -8.60078e-11 3.03568e-13
  109 422.761 -8.52707e-11 1.82566e-14
  110 422.761 -8.68977e-11 1.05791e-13
  111 422.761 -8.66683e-11 -6.59886e-13
  112 422.761 -8.52082e-11 -1.50261e-13
  113 422.761 -8.45079e-11 1.06038e-13
  114 422.761 -8.47463e-11 1.12754e-12
  115 422.761 -8.64249e-11 1.43717e-12
  116 422.761 -8.56462e-11 -1.00970e-12
  117 422.761 -8.56253e-11 5.14126e-14
  118 422.761 -8.65640e-11 -7.08916e-13
  119 422.761 -8.63554e-11 4.38111e-13
  120 422.761 -8.59730e-11 7.14207e-13
  121 422.761 -8.63852e-11 1.26537e-12
  122 422.761 -8.49847e-11 -3.06210e-14
  123 422.761 -8.51734e-11 -1.91491e-13
  124 422.761 -8.55210e-11 -5.32338e-13
  125 422.761 -8.57036e-11 -8.11021e-14
  126 422.761 -8.60425e-11 -9.37176e-13
  127 422.761 -8.59680e-11 9.61158e-14
  128 422.761 -8.55471e-11 5.95551e-13
  129 422.761 -8.70333e-11 -1.98113e-13
  130 422.761 -8.52429e-11 -5.61373e-13
  131 422.761 -8.62511e-11 -1.27170e-13
  132 422.761 -8.57818e-11 -1.14943e-12
  133 422.761 -8.58190e-11 7.14657e-13
  134 422.761 -8.63256e-11 4.24513e-14
  135 422.761 -8.62362e-11 4.20147e-13
  136 422.761 -8.59382e-11 1.45353e-12
  137 422.761 -8.57594e-11 -7.98370e-13
  138 422.761 -8.53820e-11 -3.52469e-13
  139 422.761 -8.59680e-11 7.08675e-13
  140 422.761 -8.62660e-11 -6.85656e-13
  141 422.761 -8.63902e-11 1.77069e-12
  142 422.761 -8.61120e-11 -6.40323e-13
  143 422.761 -8.63256e-11 1.89725e-13
  144 422.761 -8.46033e-11 2.01661e-13
  145 422.761 -8.61885e-11 4.11472e-12
  146 422.761 -8.69812e-11 -8.12671e-13
  147 422.761 -8.49648e-11 -1.25960e-12
  148 422.761 -8.52082e-11 1.85761e-13
  149 422.761 -8.69464e-11 -1.40943e-13
  150 422.761 -8.61120e-11 1.03259e-12
  151 422.761 -8.67378e-11 1.13068e-13
  152 422.761 -8.56601e-11 -1.44866e-12
  153 422.761 -8.58339e-11 -2.51590e-13
  154 422.761 -8.59799e-11 3.08663e-13
  155 422.761 -8.55558e-11 -4.15606e-13
  156 422.761 -8.61468e-11 -1.29940e-12
  157 422.761 -8.61766e-11 9.02869e-13
  158 422.761 -8.53472e-11 -1.73446e-12
  159 422.761 -8.53125e-11 -9.87457e-13
  160 422.761 -8.56879e-11 3.81075e-13
  161 422.761 -8.66891e-11 -2.16615e-13
  162 422.761 -8.63206e-11 5.63821e-13
  163 422.761 -8.53472e-11 -1.17284e-12
  164 422.761 -8.59680e-11 4.58506e-13
  165 422.761 -8.60773e-11 -3.17699e-13
  166 422.761 -8.50741e-11 -9.44804e-13
  167 422.761 -8.57892e-11 1.76209e-13
  168 422.761 -8.74579e-11 -8.32180e-13
  169 422.761 -8.55508e-11 -1.47606e-13
  170 422.761 -8.59799e-11 -2.68073e-12
  171 422.761 -8.59680e-11 -5.65153e-13
  172 422.761 -8.64945e-11 2.98382e-13
  173 422.761 -8.69464e-11 -4.56779e-13
  174 422.761 -8.59730e-11 1.30021e-13
  175 422.761 -8.43390e-11 3.17219e-13
  176 422.761 -8.60425e-11 -2.97526e-13
  177 422.761 -8.78155e-11 5.50308e-13
  178 422.761 -8.63554e-11 1.80911e-12
  179 422.761 -8.58131e-11 -7.94153e-13
  180 422.761 -8.63256e-11 9.93357e-13
  181 422.761 -8.56601e-11 -2.02652e-12
  182 422.761 -8.46450e-11 1.42361e-12
  183 422.761 -8.68073e-11 4.96171e-14
  184 422.761 -8.56879e-11 7.96776e-13
  185 422.761 -8.56253e-11 -6.44973e-14
  186 422.761 -8.64388e-11 3.22897e-13
  187 422.761 -8.70855e-11 3.20747e-12
  188 422.761 -8.58548e-11 1.33425e-12
  189 422.761 -8.61885e-11 1.52467e-12
  190 422.761 -8.68024e-11 -1.53822e-12
  191 422.761 -8.64945e-11 4.28892e-13
  192 422.761 -8.58786e-11 3.67390e-13
  193 422.761 -8.52290e-11 2.93054e-12
  194 422.761 -8.61468e-11 7.11863e-14
  195 422.761 -8.57992e-11 -1.45232e-12
  196 422.761 -8.73983e-11 -1.59353e-12
  197 422.761 -8.52429e-11 1.19192e-14
  198 422.761 -8.56253e-11 5.40548e-13
  199 422.761 -8.62511e-11 1.82063e-12
  200 422.761 -8.58687e-11 -1.88777e-12
  201 422.761 -8.54863e-11 1.28222e-12
  202 422.761 -8.50622e-11 3.39824e-13
  203 422.761 -8.64249e-11 -2.91564e-13
  204 422.761 -8.60773e-11 3.22573e-14
  205 422.761 -8.62511e-11 7.76319e-13
  206 422.761 -8.58548e-11 9.54361e-14
  207 422.761 -8.68560e-11 2.63409e-12
  208 422.761 -8.61051e-11 4.58387e-12
  209 422.761 -8.63206e-11 1.10853e-12
  210 422.761 -8.60773e-11 -3.00677e-12
  211 422.761 -8.57296e-11 -5.93219e-13
  212 422.761 -8.58131e-11 -1.81175e-13
  213 422.761 -8.51456e-11 2.41350e-12
  214 422.761 -8.65292e-11 -1.76837e-12
  215 422.761 -8.58548e-11 6.58458e-13
  216 422.761 -8.63137e-11 1.68471e-13
  217 422.761 -8.60078e-11 9.59110e-13
  218 422.761 -8.64249e-11 -2.80113e-12
  219 422.761 -8.60217e-11 5.53102e-13
  220 422.761 -8.66335e-11 -1.14490e-12
  221 422.761 -8.61468e-11 2.67964e-13
  222 422.761 -8.56949e-11 -2.67616e-12
  223 422.761 -8.61468e-11 -4.89175e-13
  224 422.761 -8.61051e-11 -1.13650e-12
  225 422.761 -8.53959e-11 8.87289e-13
  226 422.761 -8.61051e-11 3.53928e-13
  227 422.761 -8.60425e-11 2.30110e-15
  228 422.761 -8.52707e-11 -1.30420e-13
  229 422.761 -8.54863e-11 2.69123e-13
  230 422.761 -8.68769e-11 4.91198e-13
  231 422.761 -8.57714e-11 -1.96351e-13
  232 422.761 -8.66057e-11 1.35152e-12
  233 422.761 -8.54376e-11 -1.06283e-12
  234 422.761 -8.62859e-11 1.17014e-12
  235 422.761 -8.54376e-11 -3.54450e-12
  236 422.761 -8.52529e-11 -6.16150e-13
  237 422.761 -8.64806e-11 3.06413e-13
  238 422.761 -8.65223e-11 1.59549e-12
  239 422.761 -8.57992e-11 -9.88418e-13
  240 422.761 -8.58548e-11 -2.85630e-13
  241 422.761 -8.61120e-11 5.21873e-13
</Section>

newXOutput 123

<Section columns = "stress_xx | stress_yy | stress_xy">
  1 405.465 -7.12624e-11 -5.45416e-12
  2 405.465 -9.00470e-11 -7.54351e-12
  3 405.465 -8.93513e-11 7.41711e-12
  4 405.465 -7.26538e-11 3.23833e-12
  5 405.465 -7.62650e-11 -1.68282e-11
  6 405.465 -8.08038e-11 -2.80124e-11
  7 405.465 -8.33879e-11 -2.62413e-11
  8 405.465 -8.50776e-11 -2.20991e-11
  9 405.465 -8.48125e-11 -1.61432e-11
  10 405.465 -8.50776e-11 -9.57176e-12
  11 405.465 -8.61377e-11 5.24890e-12
  12 405.465 -8.52763e-11 1.38932e-11
  13 405.465 -8.50279e-11 2.27870e-11
  14 405.465 -8.15658e-11 2.47381e-11
  15 405.465 -7.97602e-11 2.02358e-11
  16 405.465 -7.89154e-11 1.40807e-11
  17 405.465 -7.75902e-11 2.19071e-12
  18 405.465 -7.62650e-11 -8.98724e-12
  19 405.465 -7.75239e-11 -2.14886e-11
  20 405.465 -8.09032e-11 -2.64531e-11
  21 405.465 -8.24934e-11 -2.75938e-11
  22 405.465 -8.40837e-11 -2.53068e-11
  23 405.465 -8.50113e-11 -1.74872e-11
  24 405.465 -1.01841e-10 2.73395e-13
  25 405.465 -8.98483e-11 4.40980e-12
  26 405.465 -8.49285e-11 2.08269e-12
  27 405.465 -8.71979e-11 -2.25309e-12
  28 405.465 -8.05553e-11 6.87900e-12
  29 405.465 -8.07044e-11 -1.67992e-12
  30 405.465 -8.74629e-11 -3.63013e-12
  31 405.465 -8.34873e-11 1.25042e-11
  32 405.465 -8.23940e-11 1.49199e-11
  33 405.465 -8.28413e-11 1.50424e-11
  34 405.465 -8.20296e-11 1.88662e-11
  35 405.465 -8.16486e-11 1.54290e-11
  36 405.465 -7.79878e-11 1.83117e-11
  37 405.465 -7.78552e-11 1.18870e-11
  38 405.465 -7.77890e-11 7.73703e-12
  39 405.465 -7.74577e-11 5.15776e-13
  40 405.465 -7.91804e-11 -5.13690e-12
  41 405.465 -8.01743e-11 -1.10845e-11
  42 405.465 -8.22284e-11 -1.23970e-11
  43 405.465 -8.48788e-11 -7.85769e-12
  44 405.465 -8.62702e-11 8.01680e-13
  45 405.465 -8.69328e-11 9.52979e-12
  46 405.465 -8.68003e-11 1.95848e-11
  47 405.465 -8.31560e-11 2.83707e-11
  48 405.465 -8.03731e-11 2.70207e-11
  49 405.465 -7.69939e-11 1.41636e-11
  50 405.465 -7.81203e-11 1.13036e-12
  51 405.465 -7.27532e-11 1.94241e-12
  52 405.465 -7.20078e-11 -2.56773e-12
  53 405.465 -8.23609e-11 -3.83254e-12
  54 405.465 -8.34376e-11 4.03780e-12
  55 405.465 -7.77227e-11 1.10245e-12
  56 405.465 -7.40122e-11 1.05264e-12
  57 405.465 -8.71647e-11 -2.24756e-11
  58 405.465 -7.71595e-11 -1.83671e-11
  59 405.465 -7.84894e-11 2.85936e-11
  60 405.465 -7.53042e-11 9.31899e-12
  61 405.465 -7.66957e-11 -5.56420e-12
  62 405.465 -9.25980e-11 -6.89927e-12
  63 405.465 -8.27320e-11 2.06291e-11
  64 405.465 -8.74629e-11 5.69042e-11
  65 405.465 -7.84847e-11 1.58877e-11
  66 405.465 -8.41499e-11 1.99884e-11
  67 405.465 -7.86835e-11 1.77201e-11
  68 405.465 -7.99424e-11 -3.24531e-11
  69 405.465 -8.01081e-11 -1.70134e-11
  70 405.465 -8.62454e-11 -8.54459e-12
  71 405.465 -8.88544e-11 1.03246e-11
  72 405.465 -7.91710e-11 -2.16034e-11
  73 405.465 -7.72116e-11 4.31135e-11
  74 405.465 -8.28910e-11 2.61165e-11
  75 405.465 -8.69063e-11 1.92899e-11
  76 405.465 -8.97157e-11 -1.91299e-11
  77 405.465 -8.41499e-11 -1.90111e-11
  78 405.465 -7.64307e-11 -3.66985e-11
  79 405.465 -8.25502e-11 1.82583e-11
  80 405.465 -6.89764e-11 3.51254e-11
  81 405.465 -7.36809e-11 3.04927e-12
  82 405.465 -8.58727e-11 -2.52692e-11
  83 405.465 -9.00470e-11 -7.54070e-12
  84 405.465 -8.39843e-11 1.16093e-11
  85 405.465 -6.53653e-11 -5.26210e-13
  86 405.465 -9.32606e-11 -1.02997e-11
  87 405.465 -7.59337e-11 -5.04119e-15
  88 405.465 -8.64293e-11 -2.32411e-11
  89 405.465 -7.59735e-11 4.83664e-12
  90 405.465 -9.66068e-11 2.03638e-11
  91 405.465 -8.72641e-11 1.79289e-11
  92 405.465 -8.88146e-11 -4.61579e-11
  93 405.465 -8.77412e-11 -6.36116e-11
  94 405.465 -6.53586e-11 -2.02427e-11
  95 405.465 -8.41632e-11 1.19504e-11
  96 405.465 -7.38797e-11 6.33049e-12
  97 405.465 -7.94720e-11 -4.66481e-11
  98 405.465 -8.15790e-11 -1.03725e-11
  99 405.465 -7.54036e-11 3.76736e-11
  100 405.465 -8.59522e-11 2.26943e-11
  101 405.465 -9.05109e-11 2.71533e-11
  102 405.465 -8.20164e-11 2.57243e-11
  103 405.465 -7.74577e-11 5.94382e-11
  104 405.465 -8.59919e-11 -2.42535e-11
  105 405.465 -7.79215e-11 2.64091e-12
  106 405.465 -7.49398e-11 -8.53208e-12
  107 405.465 -8.19965e-11 1.30108e-13
  108 405.465 -7.13287e-11 -1.04508e-11
  109 405.465 -8.20561e-11 1.19483e-11
  110 405.465 -7.27930e-11 2.33128e-11
  111 405.465 -8.09529e-11 -2.71649e-11
  112 405.465 -8.49782e-11 -3.23962e-11
  113 405.465 -7.91142e-11 -4.95414e-12
  114 405.465 -7.96253e-11 -1.33520e-11
  115 405.465 -8.14001e-11 1.62918e-11
  116 405.465 -8.01876e-11 -4.88211e-12
  117 405.465 -7.67620e-11 5.47845e-11
  118 405.465 -7.80540e-11 2.10214e-12
  119 405.465 -6.98567e-11 2.06614e-11
  120 405.465 -8.27585e-11 -2.25413e-11
  121 405.465 -8.07328e-11 1.51059e-11
  122 405.465 -8.35441e-11 -1.00848e-11
  123 405.465 -8.30898e-11 -1.33692e-11
  124 405.465 -7.26113e-11 3.72712e-11
  125 405.465 -8.92022e-11 -2.07561e-11
  126 405.465 -8.84320e-11 2.62624e-12
  127 405.465 -7.55361e-11 -1.34285e-11
  128 405.465 -7.59586e-11 -3.46681e-11
  129 405.465 -8.47048e-11 3.47848e-12
  130 405.465 -7.91142e-11 -1.70401e-11
  131 405.465 -8.55745e-11 3.53331e-11
  132 405.465 -8.15989e-11 -3.76531e-13
  133 405.465 -7.27816e-11 -8.85187e-12
  134 405.465 -8.96211e-11 -1.72831e-12
  135 405.465 -8.35725e-11 -3.76138e-11
  136 405.465 -7.96537e-11 3.13818e-12
  137 405.465 -8.02785e-11 -6.07563e-12
  138 405.465 -8.61708e-11 -5.20998e-11
  139 405.465 -8.54751e-11 -2.97238e-12
  140 405.465 -8.12156e-11 9.06118e-12
  141 405.465 -8.22615e-11 3.21927e-11
  142 405.465 -8.91525e-11 6.50837e-12
  143 405.465 -8.57307e-11 -2.66945e-11
  144 405.465 -8.63497e-11 -1.86402e-11
  145 405.465 -8.01876e-11 8.86093e-12
  146 405.465 -8.53615e-11 1.08812e-12
  147 405.465 -7.91804e-11 -1.91813e-12
  148 405.465 -8.92519e-11 -1.19557e-12
  149 405.465 -9.44864e-11 6.39611e-12
  150 405.465 -8.14001e-11 5.44932e-12
  151 405.465 -8.28910e-11 -3.68324e-11
  152 405.465 -8.18640e-11 -1.32012e-11
  153 405.465 -7.47742e-11 5.21765e-12
  154 405.465 -7.65300e-11 5.62193e-11
  155 405.465 -7.63975e-11 2.58244e-11
  156 405.465 -8.08748e-11 -1.78726e-11
  157 405.465 -7.78363e-11 -2.73533e-11
  158 405.465 -7.19581e-11 1.75489e-11
  159 405.465 -7.79215e-11 -6.11752e-12
  160 405.465 -7.85178e-11 -1.22823e-11
  161 405.465 -8.43222e-11 -1.24994e-11
  162 405.465 -8.98814e-11 -5.12930e-11
  163 405.465 -7.30514e-11 2.44099e-11
  164 405.465 -7.13334e-11 2.55015e-11
  165 405.465 -8.82580e-11 1.36368e-11
  166 405.465 -7.49682e-11 5.72752e-12
  167 405.465 -9.74587e-11 1.18474e-11
  168 405.465 -7.92278e-11 -8.52498e-12
  169 405.465 -7.65584e-11 4.15631e-12
  170 405.465 -7.95912e-11 -3.14972e-11
  171 405.465 -8.90247e-11 2.35342e-11
  172 405.465 -8.19302e-11 2.77382e-11
  173 405.465 -8.67341e-11 3.73044e-12
  174 405.465 -9.35257e-11 -1.25998e-11
  175 405.465 -7.56024e-11 1.15649e-12
  176 405.465 -7.40453e-11 -1.86430e-12
  177 405.465 -8.63034e-11 -7.58503e-13
  178 405.465 -9.08753e-11 -4.84556e-11
  179 405.465 -8.40837e-11 -1.32286e-11
  180 405.465 -8.65542e-11 2.03792e-12
  181 405.465 -8.00749e-11 -3.62846e-11
  182 405.465 -7.96310e-11 1.32410e-13
  183 405.465 -8.50113e-11 2.66094e-11
  184 405.465 -7.55759e-11 5.24645e-12
  185 405.465 -8.53757e-11 1.31994e-11
  186 405.465 -7.83986e-11 2.34529e-11
  187 405.465 -8.50113e-11 1.01644e-11
  188 405.465 -8.35271e-11 6.24015e-11
  189 405.465 -7.33098e-11 2.43898e-11
  190 405.465 -8.75481e-11 2.16257e-11
  191 405.465 -9.22336e-11 -5.19317e-11
  192 405.465 -6.46601e-11 -1.67509e-12
  193 405.465 -8.03069e-11 -5.19447e-12
  194 405.465 -9.18029e-11 3.75367e-11
  195 405.465 -7.64307e-11 1.40278e-11
  196 405.465 -7.70270e-11 -9.37308e-12
  197 405.465 -8.11020e-11 1.16074e-11
  198 405.465 -7.45091e-11 -2.14591e-11
  199 405.465 -8.71979e-11 -5.55016e-11
  200 405.465 -8.24272e-11 5.36363e-14
  201 405.465 -8.53095e-11 7.45994e-12
  202 405.465 -8.70256e-11 -1.30360e-11
  203 405.465 -9.70043e-11 -9.01968e-13
  204 405.465 -7.82859e-11 -3.24792e-11
  205 405.465 -8.37524e-11 2.12159e-11
  206 405.465 -8.11815e-11 -3.30942e-11
  207 405.465 -8.45210e-11 1.18798e-11
  208 405.465 -8.00683e-11 7.09757e-12
  209 405.465 -8.97157e-11 6.41899e-12
  210 405.465 -7.95117e-11 1.13608e-11
  211 405.465 -7.89154e-11 -9.91584e-12
  212 405.465 -8.60317e-11 -2.80595e-11
  213 405.465 -7.83588e-11 6.85060e-12
  214 405.465 -8.36861e-11 -3.26619e-12
  215 405.465 -7.52181e-11 6.08204e-11
  216 405.465 -8.81388e-11 3.04322e-11
  217 405.465 -8.27253e-11 2.69573e-11
  218 405.465 -8.17646e-11 2.27610e-11
  219 405.465 -6.06277e-11 7.48443e-12
  220 405.465 -8.76286e-11 1.90886e-11
  221 405.465 -7.60000e-11 -2.67302e-12
  222 405.465 -8.31560e-11 -5.59720e-11
  223 405.465 -8.73436e-11 1.03962e-11
  224 405.465 -9.66068e-11 1.43680e-11
  225 405.465 -6.65911e-11 -2.84270e-11
  226 405.465 -8.37656e-11 2.92296e-11
  227 405.465 -7.53705e-11 -3.63079e-11
  228 405.465 -8.91724e-11 -1.84520e-11
  229 405.465 -8.52432e-11 1.18539e-11
  230 405.465 -8.16652e-11 3.45765e-11
  231 405.465 -8.57534e-11 -1.53662e-12
  232 405.465 -7.58940e-11 -3.92288e-11
  233 405.465 -7.25147e-11 -1.02700e-11
  234 405.465 -8.56739e-11 1.71250e-11
  235 405.465 -7.79215e-11 -6.61115e-12
  236 405.465 -8.13007e-11 9.66749e-12
  237 405.465 -8.43222e-11 4.23673e-11
  238 405.465 -8.37656e-11 2.96482e-11
  239 405.465 -8.14664e-11 -3.95012e-12
  240 405.465 -8.48390e-11 2.67987e-11
  241 405.465 -7.44760e-11 1.17762e-11
</Section>

newXOutput 124

<Section columns = "stress_xx | stress_yy | stress_xy">
  1 388.233 -7.77328e-11 7.98404e-14
  2 388.233 -7.74491e-11 1.90303e-13
  3 388.233 -7.79220e-11 3.34445e-13
  4 388.233 -7.73546e-11 3.07106e-13
  5 388.233 -7.74807e-11 2.15215e-13
  6 388.233 -7.74491e-11 5.00670e-13
  7 388.233 -7.74491e-11 5.53047e-13
  8 388.233 -7.76067e-11 7.00372e-13
  9 388.233 -7.72285e-11 8.70665e-13
  10 388.233 -7.72915e-11 8.23839e-13
  11 388.233 -7.73546e-11 1.66486e-13
  12 388.233 -7.72285e-11 -2.57140e-13
  13 388.233 -7.73546e-11 -5.96125e-13
  14 388.233 -7.74807e-11 -9.04690e-13
  15 388.233 -7.74491e-11 -5.19355e-13
  16 388.233 -7.76067e-11 -5.60298e-13
  17 388.233 -7.76698e-11 -7.17385e-13
  18 388.233 -7.76067e-11 6.34344e-14
  19 388.233 -7.76698e-11 1.16143e-12
  20 388.233 -7.74176e-11 1.52243e-12
  21 388.233 -7.72285e-11 1.23547e-12
  22 388.233 -7.71654e-11 9.87731e-13
  23 388.233 -7.78589e-11 4.93865e-13
  24 388.233 -7.67241e-11 3.32163e-14
  25 388.233 -7.68817e-11 0.00000
  26 388.233 -7.72600e-11 4.98245e-14
  27 388.233 -7.74807e-11 2.49122e-14
  28 388.233 -7.76383e-11 1.96364e-14
  29 388.233 -7.77328e-11 -1.18333e-13
  30 388.233 -7.83002e-11 -1.73060e-13
  31 388.233 -7.74807e-11 9.74716e-13
  32 388.233 -7.74491e-11 1.32176e-12
  33 388.233 -7.73546e-11 1.46631e-12
  34 388.233 -7.78589e-11 1.32116e-12
  35 388.233 -7.68345e-11 1.60923e-12
  36 388.233 -7.69763e-11 1.63661e-12
  37 388.233 -7.68502e-11 1.56186e-13
  38 388.233 -7.68502e-11 -6.94602e-13
  39 388.233 -7.70394e-11 -1.09682e-12
  40 388.233 -7.75437e-11 -1.54518e-12
  41 388.233 -7.76698e-11 -1.54899e-12
  42 388.233 -7.76698e-11 -1.38475e-12
  43 388.233 -7.77328e-11 -7.13286e-13
  44 388.233 -7.79850e-11 -1.96309e-13
  45 388.233 -7.79850e-11 2.74170e-13
  46 388.233 -7.76067e-11 7.44156e-13
  47 388.233 -7.74176e-11 1.30510e-12
  48 388.233 -7.73546e-11 1.34028e-12
  49 388.233 -7.72915e-11 8.01180e-13
  50 388.233 -7.74807e-11 -6.33333e-14
  51 388.233 -7.75437e-11 -6.22806e-14
  52 388.233 -7.74491e-11 -5.00408e-14
  53 388.233 -7.76067e-11 2.09623e-14
  54 388.233 -7.75437e-11 8.34723e-15
  55 388.233 -7.77328e-11 0.00000
  56 388.233 -7.77328e-11 2.23604e-14
  57 388.233 -7.75437e-11 1.27006e-13
  58 388.233 -7.69448e-11 -4.96242e-13
  59 388.233 -7.73276e-11 3.05751e-13
  60 388.233 -7.73546e-11 -5.52570e-13
  61 388.233 -7.73861e-11 3.83200e-13
  62 388.233 -7.74491e-11 -4.51264e-13
  63 388.233 -7.74681e-11 -6.72630e-14
  64 388.233 -7.72915e-11 -6.64170e-13
  65 388.233 -7.75122e-11 -5.46652e-13
  66 388.233 -7.73861e-11 8.98208e-15
  67 388.233 -7.73861e-11 -7.40912e-13
  68 388.233 -7.72285e-11 5.04130e-13
  69 388.233 -7.69493e-11 -4.54550e-13
  70 388.233 -7.73073e-11 5.95698e-15
  71 388.233 -7.75122e-11 1.61931e-13
  72 388.233 -7.75437e-11 6.37695e-13
  73 388.233 -7.76518e-11 -5.16535e-13
  74 388.233 -7.77707e-11 -9.48150e-13
  75 388.233 -7.73546e-11 -6.80845e-13
  76 388.233 -7.73231e-11 -4.30195e-14
  77 388.233 -7.77013e-11 2.12314e-13
  78 388.233 -7.76698e-11 -1.21086e-13
  79 388.233 -7.73005e-11 1.37373e-13
  80 388.233 -7.75437e-11 4.03665e-14
  81 388.233 -7.70078e-11 -4.19358e-13
  82 388.233 -7.70078e-11 5.79211e-13
  83 388.233 -7.74491e-11 1.19062e-13
  84 388.233 -7.73861e-11 -4.95638e-13
  85 388.233 -7.75437e-11 6.66377e-13
  86 388.233 -7.71024e-11 3.79655e-13
  87 388.233 -7.73231e-11 -4.73033e-13
  88 388.233 -7.76950e-11 -3.04393e-13
  89 388.233 -7.76194e-11 -1.09437e-13
  90 388.233 -7.74807e-11 -5.32935e-13
  91 388.233 -7.75059e-11 -7.57770e-13
  92 388.233 -7.76194e-11 4.82747e-13
  93 388.233 -7.70520e-11 -3.70121e-13
  94 388.233 -7.79220e-11 8.02249e-13
  95 388.233 -7.76194e-11 -1.54769e-13
  96 388.233 -7.77644e-11 -3.83605e-13
  97 388.233 -7.75059e-11 4.94859e-13
  98 388.233 -7.75815e-11 -5.44802e-13
  99 388.233 -7.76698e-11 4.59552e-13
  100 388.233 -7.75059e-11 4.70169e-13
  101 388.233 -7.70078e-11 -8.74245e-14
  102 388.233 -7.75059e-11 -1.68953e-13
  103 388.233 -7.72600e-11 -6.80678e-13
  104 388.233 -7.77707e-11 1.39146e-13
  105 388.233 -7.75059e-11 5.67975e-13
  106 388.233 -7.76383e-11 1.56269e-14
  107 388.233 -7.72915e-11 1.01380e-13
  108 388.233 -7.75122e-11 -2.39426e-14
  109 388.233 -7.76572e-11 -3.13829e-14
  110 388.233 -7.73546e-11 2.81653e-14
  111 388.233 -7.75201e-11 -1.53255e-13
  112 388.233 -7.73861e-11 -1.31822e-13
  113 388.233 -7.71384e-11 3.10231e-14
  114 388.233 -7.71384e-11 5.32262e-13
  115 388.233 -7.74807e-11 -1.93798e-13
  116 388.233 -7.75059e-11 6.23160e-14
  117 388.233 -7.74807e-11 -3.96463e-13
  118 388.233 -7.77644e-11 -3.86906e-13
  119 388.233 -7.74086e-11 2.32911e-13
  120 388.233 -7.70394e-11 4.77532e-13
  121 388.233 -7.75707e-11 4.83789e-14
  122 388.233 -7.72195e-11 -3.54341e-13
  123 388.233 -7.71654e-11 -2.26258e-13
  124 388.233 -7.74086e-11 -8.17035e-13
  125 388.233 -7.71418e-11 -1.66346e-13
  126 388.233 -7.74728e-11 -1.74181e-13
  127 388.233 -7.73816e-11 5.23852e-13
  128 388.233 -7.76146e-11 7.37166e-13
  129 388.233 -7.77801e-11 -8.28309e-14
  130 388.233 -7.75122e-11 3.07821e-13
  131 388.233 -7.72915e-11 -2.03039e-13
  132 388.233 -7.75437e-11 -1.48373e-13
  133 388.233 -7.76248e-11 3.20871e-13
  134 388.233 -7.72465e-11 4.46347e-13
  135 388.233 -7.71114e-11 1.09877e-12
  136 388.233 -7.73546e-11 3.28055e-13
  137 388.233 -7.74897e-11 -5.97569e-13
  138 388.233 -7.72285e-11 1.16855e-12
  139 388.233 -7.75437e-11 3.84657e-14
  140 388.233 -7.71114e-11 -4.66290e-13
  141 388.233 -7.74491e-11 -3.06792e-13
  142 388.233 -7.74176e-11 -5.94550e-14
  143 388.233 -7.76788e-11 1.56067e-13
  144 388.233 -7.70898e-11 2.84019e-13
  145 388.233 -7.77328e-11 1.32018e-12
  146 388.233 -7.78139e-11 -1.28195e-13
  147 388.233 -7.74176e-11 -4.36265e-13
  148 388.233 -7.76067e-11 2.31247e-14
  149 388.233 -7.73861e-11 1.36730e-13
  150 388.233 -7.71654e-11 -1.35294e-14
  151 388.233 -7.74807e-11 6.76757e-13
  152 388.233 -7.74176e-11 -2.53290e-14
  153 388.233 -7.77013e-11 -2.63080e-13
  154 388.233 -7.75437e-11 -1.11137e-13
  155 388.233 -7.70709e-11 -6.48558e-13
  156 388.233 -7.73276e-11 8.09414e-14
  157 388.233 -7.76788e-11 1.81523e-13
  158 388.233 -7.72600e-11 -5.48591e-13
  159 388.233 -7.74491e-11 -1.13836e-13
  160 388.233 -7.76950e-11 1.30180e-13
  161 388.233 -7.69385e-11 1.40893e-13
  162 388.233 -7.74807e-11 1.02139e-12
  163 388.233 -7.73861e-11 -3.03562e-13
  164 388.233 -7.74626e-11 -2.60442e-13
  165 388.233 -7.74807e-11 8.15996e-14
  166 388.233 -7.73816e-11 -2.74339e-13
  167 388.233 -7.70844e-11 -1.26539e-13
  168 388.233 -7.76788e-11 -3.29817e-13
  169 388.233 -7.77328e-11 6.64128e-16
  170 388.233 -7.75059e-11 -1.05739e-12
  171 388.233 -7.72195e-11 -3.55521e-13
  172 388.233 -7.73546e-11 -2.62273e-13
  173 388.233 -7.77959e-11 -1.55246e-13
  174 388.233 -7.74176e-11 2.84503e-13
  175 388.233 -7.73546e-11 1.22393e-13
  176 388.233 -7.75437e-11 2.61882e-14
  177 388.233 -7.78589e-11 1.02399e-13
  178 388.233 -7.73861e-11 7.53506e-13
  179 388.233 -7.74302e-11 3.70278e-13
  180 388.233 -7.75977e-11 -1.71433e-13
  181 388.233 -7.72600e-11 2.16551e-14
  182 388.233 -7.70141e-11 5.73027e-14
  183 388.233 -7.76383e-11 -1.05313e-12
  184 388.233 -7.75815e-11 -3.90329e-13
  185 388.233 -7.74176e-11 2.03534e-13
  186 388.233 -7.74681e-11 -4.56728e-13
  187 388.233 -7.74807e-11 1.03324e-12
  188 388.233 -7.71654e-11 -2.82971e-13
  189 388.233 -7.74302e-11 -5.12091e-14
  190 388.233 -7.74897e-11 -9.20585e-13
  191 388.233 -7.74176e-11 9.25240e-13
  192 388.233 -7.77058e-11 3.49367e-13
  193 388.233 -7.69763e-11 1.02778e-12
  194 388.233 -7.73231e-11 -4.19545e-13
  195 388.233 -7.74176e-11 -5.51503e-13
  196 388.233 -7.75122e-11 -7.32937e-13
  197 388.233 -7.74176e-11 -9.54506e-14
  198 388.233 -7.77013e-11 1.17688e-12
  199 388.233 -7.76067e-11 7.22135e-13
  200 388.233 -7.68502e-11 -1.07835e-12
  201 388.233 -7.75122e-11 -3.25909e-13
  202 388.233 -7.71654e-11 -2.67289e-13
  203 388.233 -7.72915e-11 2.77294e-13
  204 388.233 -7.76067e-11 6.80419e-13
  205 388.233 -7.76698e-11 1.02605e-13
  206 388.233 -7.74302e-11 1.19531e-12
  207 388.233 -7.73924e-11 6.28493e-13
  208 388.233 -7.75059e-11 1.26649e-12
  209 388.233 -7.71970e-11 -4.15162e-13
  210 388.233 -7.75122e-11 -9.10542e-13
  211 388.233 -7.74897e-11 1.46781e-13
  212 388.233 -7.73546e-11 8.82833e-13
  213 388.233 -7.72789e-11 5.76324e-13
  214 388.233 -7.74807e-11 -2.39406e-13
  215 388.233 -7.71654e-11 -1.09742e-12
  216 388.233 -7.72033e-11 -1.43791e-12
  217 388.233 -7.73231e-11 -8.43098e-13
  218 388.233 -7.77644e-11 -9.66458e-13
  219 388.233 -7.75437e-11 7.57059e-13
  220 388.233 -7.72915e-11 -9.42606e-13
  221 388.233 -7.75752e-11 -1.21795e-13
  222 388.233 -7.71339e-11 -3.11706e-13
  223 388.233 -7.75059e-11 -5.61915e-14
  224 388.233 -7.75815e-11 -6.32705e-13
  225 388.233 -7.74681e-11 4.68561e-13
  226 388.233 -7.75059e-11 1.05238e-13
  227 388.233 -7.74176e-11 6.30017e-13
  228 388.233 -7.72411e-11 -6.67653e-13
  229 388.233 -7.77328e-11 -3.66946e-14
  230 388.233 -7.74491e-11 2.39901e-14
  231 388.233 -7.77328e-11 -1.19164e-13
  232 388.233 -7.77707e-11 4.01193e-13
  233 388.233 -7.75437e-11 -6.13457e-14
  234 388.233 -7.71970e-11 -3.16387e-13
  235 388.233 -7.76194e-11 -1.11971e-12
  236 388.233 -7.74897e-11 -3.05303e-13
  237 388.233 -7.75059e-11 4.71304e-13
  238 388.233 -7.72789e-11 -2.18399e-13
  239 388.233 -7.70078e-11 2.45636e-13
  240 388.233 -7.70520e-11 -5.10635e-13
  241 388.233 -7.76698e-11 -1.86151e-13
</Section>

newXOutput 125

<Section columns = "stress_xx | stress_yy | stress_xy">
  1 371.066 -7.26640e-11 -1.99351e-13
  2 371.066 -7.33825e-11 1.18014e-13
  3 371.066 -7.34723e-11 1.76262e-13
  4 371.066 -7.33825e-11 1.23539e-13
  5 371.066 -7.28137e-11 -5.38621e-13
  6 371.066 -7.30232e-11 -9.26722e-13
  7 371.066 -7.34723e-11 -1.08092e-12
  8 371.066 -7.39514e-11 -1.07347e-12
  9 371.066 -7.35921e-11 -6.71522e-13
  10 371.066 -7.34125e-11 -1.17683e-13
  11 371.066 -7.34723e-11 3.98184e-13
  12 371.066 -7.34723e-11 6.32514e-13
  13 371.066 -7.33376e-11 8.90153e-13
  14 371.066 -7.33526e-11 1.10494e-12
  15 371.066 -7.30682e-11 1.00811e-12
  16 371.066 -7.31729e-11 8.32642e-13
  17 371.066 -7.31131e-11 1.36151e-13
  18 371.066 -7.33526e-11 1.57352e-14
  19 371.066 -7.33526e-11 -6.80756e-13
  20 371.066 -7.32328e-11 -9.21588e-13
  21 371.066 -7.32927e-11 -7.75167e-13
  22 371.066 -7.28735e-11 -1.12614e-12
  23 371.066 -7.29933e-11 -4.33423e-13
  24 371.066 -7.32927e-11 -7.32104e-14
  25 371.066 -7.32029e-11 -4.72055e-14
  26 371.066 -7.37867e-11 -1.79560e-13
  27 371.066 -7.37119e-11 2.36898e-13
  28 371.066 -7.31580e-11 -1.81362e-13
  29 371.066 -7.29334e-11 8.26097e-14
  30 371.066 -7.31729e-11 -2.05959e-14
  31 371.066 -7.34125e-11 3.31937e-13
  32 371.066 -7.33825e-11 -1.04164e-13
  33 371.066 -7.33825e-11 1.18922e-13
  34 371.066 -7.33526e-11 1.56041e-13
  35 371.066 -7.33825e-11 6.00738e-13
  36 371.066 -7.31131e-11 5.45661e-13
  37 371.066 -7.29334e-11 1.46782e-13
  38 371.066 -7.29933e-11 -2.66710e-13
  39 371.066 -7.31729e-11 -4.76740e-13
  40 371.066 -7.31729e-11 -9.67347e-13
  41 371.066 -7.35322e-11 -9.74376e-13
  42 371.066 -7.34723e-11 -8.37620e-13
  43 371.066 -7.35322e-11 -3.81106e-13
  44 371.066 -7.39514e-11 -1.52844e-13
  45 371.066 -7.40113e-11 2.41297e-13
  46 371.066 -7.42508e-11 3.41271e-13
  47 371.066 -7.35921e-11 5.99913e-13
  48 371.066 -7.33526e-11 6.08727e-13
  49 371.066 -7.33526e-11 3.67357e-13
  50 371.066 -7.34125e-11 -3.32251e-14
  51 371.066 -7.32927e-11 -2.36028e-14
  52 371.066 -7.31580e-11 2.13590e-14
  53 371.066 -7.28735e-11 1.30333e-13
  54 371.066 -7.30682e-11 3.32224e-14
  55 371.066 -7.32029e-11 0.00000
  56 371.066 -7.29933e-11 -5.99490e-14
  57 371.066 -7.33526e-11 4.17193e-13
  58 371.066 -7.33226e-11 -2.41769e-13
  59 371.066 -7.34723e-11 -8.12213e-14
  60 371.066 -7.32628e-11 6.83899e-13
  61 371.066 -7.38316e-11 2.33683e-13
  62 371.066 -7.35921e-11 6.32823e-14
  63 371.066 -7.31849e-11 -5.31089e-13
  64 371.066 -7.38316e-11 -3.35502e-13
  65 371.066 -7.35322e-11 -1.74338e-13
  66 371.066 -7.34723e-11 5.21965e-14
  67 371.066 -7.35622e-11 2.65793e-14
  68 371.066 -7.34125e-11 -3.40932e-13
  69 371.066 -7.32927e-11 1.84623e-13
  70 371.066 -7.32029e-11 3.83123e-13
  71 371.066 -7.38017e-11 -4.26484e-14
  72 371.066 -7.35493e-11 -6.56193e-13
  73 371.066 -7.33184e-11 -2.86109e-13
  74 371.066 -7.36161e-11 -2.78205e-13
  75 371.066 -7.34364e-11 1.06241e-13
  76 371.066 -7.36520e-11 1.00747e-13
  77 371.066 -7.32628e-11 3.45678e-13
  78 371.066 -7.30831e-11 3.78089e-13
  79 371.066 -7.33954e-11 -4.81275e-15
  80 371.066 -7.35622e-11 -3.18524e-13
  81 371.066 -7.30232e-11 -3.08690e-13
  82 371.066 -7.29035e-11 2.93516e-13
  83 371.066 -7.34424e-11 4.08221e-13
  84 371.066 -7.35322e-11 -2.48617e-13
  85 371.066 -7.27239e-11 -1.72321e-13
  86 371.066 -7.33526e-11 4.71912e-13
  87 371.066 -7.34424e-11 -2.09174e-13
  88 371.066 -7.35083e-11 2.26502e-13
  89 371.066 -7.30412e-11 -7.22669e-14
  90 371.066 -7.38915e-11 -7.84559e-13
  91 371.066 -7.33646e-11 9.18210e-14
  92 371.066 -7.34723e-11 5.18567e-13
  93 371.066 -7.36520e-11 -6.14730e-13
  94 371.066 -7.30053e-11 1.66971e-13
  95 371.066 -7.34364e-11 3.43843e-13
  96 371.066 -7.32328e-11 -6.47484e-13
  97 371.066 -7.35083e-11 7.62098e-13
  98 371.066 -7.33286e-11 5.26715e-14
  99 371.066 -7.32328e-11 -9.00282e-13
  100 371.066 -7.34005e-11 1.11654e-13
  101 371.066 -7.37717e-11 -1.02352e-12
  102 371.066 -7.34005e-11 -6.03239e-13
  103 371.066 -7.37418e-11 -1.19044e-13
  104 371.066 -7.34005e-11 2.06326e-13
  105 371.066 -7.32927e-11 3.82277e-13
  106 371.066 -7.35622e-11 -5.96075e-14
  107 371.066 -7.36520e-11 -2.17886e-13
  108 371.066 -7.32927e-11 9.45874e-14
  109 371.066 -7.33646e-11 -3.03018e-14
  110 371.066 -7.35083e-11 -3.55676e-13
  111 371.066 -7.32478e-11 4.12786e-13
  112 371.066 -7.33825e-11 3.17889e-13
  113 371.066 -7.31387e-11 3.16157e-13
  114 371.066 -7.29334e-11 2.71958e-13
  115 371.066 -7.33825e-11 2.42641e-14
  116 371.066 -7.35801e-11 -5.43822e-13
  117 371.066 -7.36520e-11 -4.66777e-13
  118 371.066 -7.34424e-11 -1.76053e-14
  119 371.066 -7.32670e-11 -2.63819e-13
  120 371.066 -7.33226e-11 3.42044e-13
  121 371.066 -7.36520e-11 1.37624e-13
  122 371.066 -7.31387e-11 3.72772e-13
  123 371.066 -7.31729e-11 1.36070e-13
  124 371.066 -7.35237e-11 -2.75835e-14
  125 371.066 -7.34274e-11 1.93238e-13
  126 371.066 -7.37418e-11 -6.55121e-13
  127 371.066 -7.31387e-11 -3.35071e-13
  128 371.066 -7.32927e-11 1.68046e-13
  129 371.066 -7.37193e-11 1.90225e-13
  130 371.066 -7.33825e-11 3.32145e-13
  131 371.066 -7.34424e-11 -3.53075e-13
  132 371.066 -7.36295e-11 1.30776e-14
  133 371.066 -7.29591e-11 -2.02309e-14
  134 371.066 -7.37803e-11 2.20231e-14
  135 371.066 -7.34467e-11 7.28673e-14
  136 371.066 -7.33697e-11 2.72412e-13
  137 371.066 -7.34980e-11 3.99357e-13
  138 371.066 -7.34125e-11 4.97135e-13
  139 371.066 -7.34467e-11 3.52683e-13
  140 371.066 -7.36263e-11 -7.67845e-14
  141 371.066 -7.35322e-11 7.29460e-14
  142 371.066 -7.37717e-11 -6.71522e-13
  143 371.066 -7.33440e-11 2.60796e-13
  144 371.066 -7.32209e-11 3.33272e-13
  145 371.066 -7.32568e-11 1.45792e-13
  146 371.066 -7.34467e-11 4.18323e-14
  147 371.066 -7.30532e-11 -1.55369e-13
  148 371.066 -7.30831e-11 1.73758e-13
  149 371.066 -7.35023e-11 6.68180e-14
  150 371.066 -7.35023e-11 4.61459e-14
  151 371.066 -7.34125e-11 6.22575e-14
  152 371.066 -7.33226e-11 -3.97547e-13
  153 371.066 -7.36220e-11 -2.66484e-13
  154 371.066 -7.35083e-11 -4.96144e-13
  155 371.066 -7.32628e-11 5.21836e-13
  156 371.066 -7.36520e-11 -2.94902e-13
  157 371.066 -7.34980e-11 2.90541e-13
  158 371.066 -7.32029e-11 -2.70636e-13
  159 371.066 -7.31729e-11 -6.53685e-13
  160 371.066 -7.31131e-11 2.05047e-13
  161 371.066 -7.39035e-11 2.58315e-13
  162 371.066 -7.34723e-11 6.19974e-13
  163 371.066 -7.34723e-11 -1.15882e-13
  164 371.066 -7.32927e-11 -1.84289e-13
  165 371.066 -7.34424e-11 -2.74257e-14
  166 371.066 -7.33440e-11 -1.38911e-13
  167 371.066 -7.32157e-11 -1.67700e-13
  168 371.066 -7.32414e-11 -5.45500e-15
  169 371.066 -7.31131e-11 -6.02306e-14
  170 371.066 -7.32568e-11 2.88949e-13
  171 371.066 -7.38829e-11 -3.68633e-13
  172 371.066 -7.32628e-11 6.32950e-13
  173 371.066 -7.36819e-11 9.44091e-14
  174 371.066 -7.31430e-11 3.40378e-14
  175 371.066 -7.34424e-11 5.13468e-14
  176 371.066 -7.28436e-11 -1.36345e-13
  177 371.066 -7.35322e-11 1.46745e-13
  178 371.066 -7.33526e-11 5.64342e-13
  179 371.066 -7.37957e-11 -8.60833e-13
  180 371.066 -7.34210e-11 2.84858e-13
  181 371.066 -7.33526e-11 -1.78057e-13
  182 371.066 -7.27538e-11 1.57638e-13
  183 371.066 -7.35322e-11 -1.84114e-14
  184 371.066 -7.28975e-11 3.44005e-13
  185 371.066 -7.33526e-11 5.57239e-14
  186 371.066 -7.33286e-11 1.02570e-12
  187 371.066 -7.34125e-11 2.62959e-13
  188 371.066 -7.34005e-11 -3.63274e-13
  189 371.066 -7.37957e-11 7.45537e-14
  190 371.066 -7.34723e-11 -1.32997e-13
  191 371.066 -7.33825e-11 5.38172e-13
  192 371.066 -7.29078e-11 -1.76515e-13
  193 371.066 -7.32209e-11 3.30312e-13
  194 371.066 -7.34424e-11 -2.83162e-13
  195 371.066 -7.33825e-11 -2.70760e-13
  196 371.066 -7.37119e-11 2.74136e-14
  197 371.066 -7.33526e-11 -7.58929e-14
  198 371.066 -7.31131e-11 -1.84558e-13
  199 371.066 -7.33526e-11 6.50411e-13
  200 371.066 -7.36220e-11 -3.36273e-13
  201 371.066 -7.35023e-11 2.67236e-13
  202 371.066 -7.30771e-11 -7.47090e-14
  203 371.066 -7.38316e-11 -5.59657e-13
  204 371.066 -7.33825e-11 -8.33845e-13
  205 371.066 -7.35322e-11 8.38934e-14
  206 371.066 -7.35442e-11 -4.61821e-13
  207 371.066 -7.37238e-11 3.59185e-13
  208 371.066 -7.33646e-11 2.98967e-13
  209 371.066 -7.34424e-11 1.42393e-13
  210 371.066 -7.34424e-11 -3.46982e-13
  211 371.066 -7.30874e-11 -4.72931e-13
  212 371.066 -7.28256e-11 -1.39977e-13
  213 371.066 -7.34364e-11 2.82592e-13
  214 371.066 -7.34723e-11 -1.45045e-14
  215 371.066 -7.36879e-11 8.22833e-15
  216 371.066 -7.36161e-11 -2.37755e-14
  217 371.066 -7.34424e-11 1.45385e-13
  218 371.066 -7.35023e-11 -2.84561e-13
  219 371.066 -7.32927e-11 -7.84726e-13
  220 371.066 -7.34424e-11 -1.36068e-13
  221 371.066 -7.35023e-11 -2.18678e-13
  222 371.066 -7.34424e-11 -3.15020e-13
  223 371.066 -7.37598e-11 -3.56605e-13
  224 371.066 -7.39035e-11 -4.65722e-13
  225 371.066 -7.31490e-11 5.09945e-13
  226 371.066 -7.34364e-11 5.70566e-14
  227 371.066 -7.33526e-11 -7.07174e-13
  228 371.066 -7.34005e-11 4.56651e-14
  229 371.066 -7.33526e-11 1.50944e-13
  230 371.066 -7.41011e-11 -8.68024e-14
  231 371.066 -7.27897e-11 -2.64774e-13
  232 371.066 -7.35083e-11 3.66577e-13
  233 371.066 -7.40831e-11 -6.55787e-14
  234 371.066 -7.35622e-11 3.80278e-13
  235 371.066 -7.32927e-11 -5.99749e-13
  236 371.066 -7.33697e-11 -6.73627e-14
  237 371.066 -7.32927e-11 -1.50516e-12
  238 371.066 -7.33646e-11 3.23232e-14
  239 371.066 -7.32628e-11 -4.35990e-13
  240 371.066 -7.35801e-11 2.95868e-13
  241 371.066 -7.30232e-11 4.39758e-13
</Section>

newXOutput 126

<Section columns = "stress_xx | stress_yy | stress_xy">
  1 353.963 -4.69175e-11 -1.23894e-11
  2 353.963 -8.85558e-11 -1.13083e-11
  3 353.963 -7.19516e-11 1.83766e-12
  4 353.963 -6.75238e-11 1.24946e-12
  5 353.963 -5.77316e-11 -3.67389e-11
  6 353.963 -6.76941e-11 -6.13252e-11
  7 353.963 -7.19090e-11 -6.18330e-11
  8 353.963 -7.72025e-11 -5.78831e-11
  9 353.963 -8.00976e-11 -4.26628e-11
  10 353.963 -7.88487e-11 -1.94448e-11
  11 353.963 -8.03814e-11 1.56828e-11
  12 353.963 -8.10058e-11 4.38340e-11
  13 353.963 -7.88487e-11 6.10760e-11
  14 353.963 -6.96525e-11 7.10315e-11
  15 353.963 -6.50544e-11 5.48253e-11
  16 353.963 -6.47706e-11 5.35037e-11
  17 353.963 -5.73910e-11 2.90891e-11
  18 353.963 -5.31335e-11 -4.09163e-13
  19 353.963 -5.63124e-11 -2.99323e-11
  20 353.963 -6.12511e-11 -5.02624e-11
  21 353.963 -6.84604e-11 -6.45912e-11
  22 353.963 -7.37965e-11 -5.92669e-11
  23 353.963 -7.84513e-11 -3.39646e-11
  24 353.963 -8.24250e-11 1.89463e-12
  25 353.963 -7.91042e-11 1.04903e-12
  26 353.963 -7.62942e-11 -1.52721e-13
  27 353.963 -7.64645e-11 5.98914e-13
  28 353.963 -7.40377e-11 8.70461e-13
  29 353.963 -7.28882e-11 2.12038e-13
  30 353.963 -7.24909e-11 1.08043e-13
  31 353.963 -7.07879e-11 4.43791e-12
  32 353.963 -6.96525e-11 6.30309e-12
  33 353.963 -7.00357e-11 6.57191e-12
  34 353.963 -6.93687e-11 8.29772e-12
  35 353.963 -6.89288e-11 6.77032e-12
  36 353.963 -6.80631e-11 5.47224e-12
  37 353.963 -6.76089e-11 3.17944e-12
  38 353.963 -6.76089e-11 7.21918e-13
  39 353.963 -6.78928e-11 -1.48239e-12
  40 353.963 -6.86875e-11 -3.80808e-12
  41 353.963 -6.94822e-11 -4.79080e-12
  42 353.963 -6.99364e-11 -4.61211e-12
  43 353.963 -7.07311e-11 -3.30187e-12
  44 353.963 -7.11285e-11 -8.68471e-13
  45 353.963 -7.12420e-11 1.76383e-12
  46 353.963 -7.05608e-11 4.06767e-12
  47 353.963 -6.97661e-11 5.93569e-12
  48 353.963 -6.92552e-11 5.76620e-12
  49 353.963 -6.84037e-11 3.47140e-12
  50 353.963 -6.74386e-11 2.58386e-13
  51 353.963 -6.59911e-11 3.57116e-13
  52 353.963 -6.45861e-11 8.28264e-13
  53 353.963 -6.28405e-11 6.05424e-13
  54 353.963 -6.12653e-11 7.03779e-13
  55 353.963 -5.82425e-11 1.33919e-12
  56 353.963 -5.37579e-11 1.91060e-12
  57 353.963 -7.25760e-11 4.41824e-12
  58 353.963 -6.68142e-11 2.53403e-12
  59 353.963 -7.02851e-11 -4.16299e-12
  60 353.963 -6.57073e-11 2.14910e-12
  61 353.963 -7.75998e-11 3.99635e-12
  62 353.963 -7.28882e-11 2.08071e-12
  63 353.963 -6.49863e-11 -7.87870e-13
  64 353.963 -7.03337e-11 1.11378e-13
  65 353.963 -6.82050e-11 2.50688e-12
  66 353.963 -6.58776e-11 3.36238e-12
  67 353.963 -7.07027e-11 1.65708e-12
  68 353.963 -6.35785e-11 -1.26876e-11
  69 353.963 -6.69034e-11 3.41206e-14
  70 353.963 -6.82050e-11 -6.18419e-14
  71 353.963 -7.64645e-11 7.52596e-12
  72 353.963 -7.58076e-11 -2.58884e-11
  73 353.963 -6.39353e-11 6.20822e-12
  74 353.963 -7.06403e-11 2.58897e-12
  75 353.963 -7.08446e-11 2.17021e-12
  76 353.963 -7.46196e-11 1.80169e-12
  77 353.963 -6.44016e-11 2.00885e-12
  78 353.963 -6.86307e-11 3.80878e-13
  79 353.963 -7.36181e-11 -2.83942e-12
  80 353.963 -6.77509e-11 -4.82628e-12
  81 353.963 -6.25851e-11 9.26798e-14
  82 353.963 -6.65871e-11 -9.24869e-13
  83 353.963 -7.55279e-11 2.57594e-12
  84 353.963 -6.76089e-11 1.82949e-11
  85 353.963 -5.54893e-11 -1.87252e-11
  86 353.963 -8.14600e-11 1.51114e-11
  87 353.963 -6.75522e-11 3.39562e-13
  88 353.963 -7.25136e-11 2.06424e-13
  89 353.963 -5.40871e-11 1.31448e-11
  90 353.963 -8.99749e-11 -3.90310e-12
  91 353.963 -7.19345e-11 2.24718e-12
  92 353.963 -6.89373e-11 4.55270e-12
  93 353.963 -7.07765e-11 4.55008e-13
  94 353.963 -5.24523e-11 -2.98906e-12
  95 353.963 -7.17302e-11 1.17323e-12
  96 353.963 -6.43165e-11 1.93130e-12
  97 353.963 -6.80517e-11 1.85451e-11
  98 353.963 -6.99250e-11 7.61683e-13
  99 353.963 -6.63317e-11 -3.25646e-11
  100 353.963 -6.98228e-11 -2.70851e-12
  101 353.963 -8.44970e-11 -2.58389e-11
  102 353.963 -6.53269e-11 -3.60933e-12
  103 353.963 -6.90281e-11 4.37241e-12
  104 353.963 -7.23773e-11 1.91781e-12
  105 353.963 -6.84264e-11 -1.15967e-12
  106 353.963 -6.93687e-11 9.51186e-12
  107 353.963 -7.52157e-11 -1.33181e-12
  108 353.963 -6.51396e-11 1.92079e-12
  109 353.963 -6.29427e-11 5.51241e-13
  110 353.963 -7.30245e-11 1.67395e-12
  111 353.963 -7.05253e-11 1.02217e-12
  112 353.963 -7.03337e-11 -2.08957e-13
  113 353.963 -6.74873e-11 -9.14806e-13
  114 353.963 -6.74873e-11 1.53972e-12
  115 353.963 -7.33707e-11 6.84398e-12
  116 353.963 -6.31471e-11 -1.50903e-11
  117 353.963 -6.80347e-11 -3.22130e-12
  118 353.963 -6.95674e-11 2.84241e-12
  119 353.963 -6.50301e-11 -1.09455e-11
  120 353.963 -6.86307e-11 2.11334e-12
  121 353.963 -7.47615e-11 2.38389e-12
  122 353.963 -6.67331e-11 5.59640e-13
  123 353.963 -6.62465e-11 -5.69631e-13
  124 353.963 -6.60519e-11 3.75316e-12
  125 353.963 -7.22283e-11 8.93141e-13
  126 353.963 -7.80824e-11 -9.20303e-12
  127 353.963 -6.47868e-11 -8.00121e-12
  128 353.963 -6.08821e-11 -5.84656e-12
  129 353.963 -7.08233e-11 1.92179e-12
  130 353.963 -6.84037e-11 -1.61651e-12
  131 353.963 -7.81107e-11 -2.56400e-13
  132 353.963 -6.96738e-11 -2.04513e-12
  133 353.963 -5.43986e-11 -5.87228e-13
  134 353.963 -7.67321e-11 4.24506e-13
  135 353.963 -7.42506e-11 -1.65011e-11
  136 353.963 -6.91416e-11 2.73146e-12
  137 353.963 -6.79739e-11 6.07106e-13
  138 353.963 -7.15826e-11 -2.29164e-12
  139 353.963 -6.64898e-11 9.64462e-13
  140 353.963 -7.13312e-11 3.87666e-12
  141 353.963 -7.70038e-11 2.32008e-12
  142 353.963 -8.52633e-11 -1.60206e-11
  143 353.963 -7.15015e-11 2.58322e-12
  144 353.963 -6.69959e-11 -5.30684e-13
  145 353.963 -6.91416e-11 6.07961e-12
  146 353.963 -7.11366e-11 -4.60556e-13
  147 353.963 -6.80915e-11 -1.98909e-12
  148 353.963 -6.24432e-11 1.70140e-13
  149 353.963 -7.51873e-11 1.94241e-12
  150 353.963 -7.21219e-11 8.22512e-12
  151 353.963 -7.64929e-11 -3.50262e-12
  152 353.963 -6.57924e-11 -3.35509e-12
  153 353.963 -6.40610e-11 6.60234e-12
  154 353.963 -6.88010e-11 -4.42372e-12
  155 353.963 -6.59059e-11 2.66215e-12
  156 353.963 -7.30099e-11 -1.62683e-12
  157 353.963 -6.68791e-11 3.26808e-12
  158 353.963 -6.41746e-11 -2.46087e-12
  159 353.963 -6.17336e-11 9.91774e-13
  160 353.963 -6.37602e-11 1.36447e-12
  161 353.963 -7.63283e-11 4.01029e-13
  162 353.963 -7.35410e-11 -1.69665e-12
  163 353.963 -6.59059e-11 -4.08228e-12
  164 353.963 -6.36191e-11 1.35284e-12
  165 353.963 -7.25760e-11 1.21222e-11
  166 353.963 -6.63439e-11 4.91372e-13
  167 353.963 -7.89947e-11 4.03435e-12
  168 353.963 -7.27666e-11 -6.95332e-14
  169 353.963 -5.70017e-11 5.02038e-12
  170 353.963 -6.95163e-11 -1.06459e-12
  171 353.963 -8.68041e-11 7.04233e-12
  172 353.963 -7.30018e-11 3.79695e-11
  173 353.963 -7.10717e-11 8.43821e-13
  174 353.963 -8.37874e-11 -3.64789e-12
  175 353.963 -6.77509e-11 1.03339e-12
  176 353.963 -5.32754e-11 -3.92523e-12
  177 353.963 -7.23206e-11 1.48107e-12
  178 353.963 -7.36262e-11 2.14229e-12
  179 353.963 -7.19686e-11 -3.62412e-11
  180 353.963 -6.99688e-11 2.38597e-12
  181 353.963 -6.39475e-11 -5.69421e-13
  182 353.963 -6.76771e-11 1.04055e-12
  183 353.963 -7.21219e-11 2.94426e-12
  184 353.963 -6.04223e-11 2.23257e-11
  185 353.963 -6.77225e-11 9.91769e-12
  186 353.963 -6.86648e-11 4.86201e-11
  187 353.963 -7.09298e-11 4.62883e-12
  188 353.963 -7.18664e-11 -4.45216e-12
  189 353.963 -7.79972e-11 4.36211e-12
  190 353.963 -7.17448e-11 2.76518e-12
  191 353.963 -7.34275e-11 1.63928e-13
  192 353.963 -5.84371e-11 -1.05519e-11
  193 353.963 -6.82561e-11 3.59391e-12
  194 353.963 -7.38816e-11 3.93599e-12
  195 353.963 -6.68710e-11 1.51576e-12
  196 353.963 -7.20651e-11 -1.70504e-13
  197 353.963 -6.30960e-11 7.82828e-12
  198 353.963 -5.42688e-11 -9.73849e-12
  199 353.963 -7.06743e-11 3.51982e-12
  200 353.963 -6.88862e-11 3.85692e-12
  201 353.963 -7.00215e-11 1.18305e-12
  202 353.963 -6.64509e-11 -1.19825e-13
  203 353.963 -7.97002e-11 -1.27836e-11
  204 353.963 -7.10717e-11 -3.03003e-11
  205 353.963 -7.14407e-11 -3.04238e-13
  206 353.963 -6.60081e-11 -3.47499e-11
  207 353.963 -7.00613e-11 3.60831e-12
  208 353.963 -6.86307e-11 6.17678e-12
  209 353.963 -7.24625e-11 1.95054e-11
  210 353.963 -6.86591e-11 9.07493e-13
  211 353.963 -6.18674e-11 -2.33184e-11
  212 353.963 -7.71117e-11 -2.29528e-11
  213 353.963 -6.86648e-11 2.95990e-12
  214 353.963 -7.05040e-11 -2.26894e-12
  215 353.963 -6.76771e-11 5.02641e-12
  216 353.963 -7.21048e-11 3.37612e-12
  217 353.963 -6.67858e-11 1.51603e-11
  218 353.963 -6.99364e-11 1.94146e-12
  219 353.963 -6.60762e-11 -3.20562e-11
  220 353.963 -7.25476e-11 3.22249e-12
  221 353.963 -6.69561e-11 8.25268e-12
  222 353.963 -6.86875e-11 -1.60644e-12
  223 353.963 -8.32424e-11 -3.32042e-12
  224 353.963 -8.29700e-11 8.80905e-12
  225 353.963 -5.67779e-11 8.08942e-12
  226 353.963 -6.77792e-11 -2.67168e-12
  227 353.963 -6.59627e-11 -2.52923e-11
  228 353.963 -7.11852e-11 1.27995e-12
  229 353.963 -6.36069e-11 -5.73480e-13
  230 353.963 -7.24909e-11 3.32062e-12
  231 353.963 -6.18869e-11 4.31868e-12
  232 353.963 -6.84264e-11 2.98069e-12
  233 353.963 -7.02997e-11 -3.51034e-12
  234 353.963 -7.12988e-11 1.41771e-12
  235 353.963 -6.86989e-11 -3.49972e-12
  236 353.963 -6.27919e-11 1.82652e-11
  237 353.963 -7.20027e-11 -4.65111e-11
  238 353.963 -7.72138e-11 6.72952e-12
  239 353.963 -6.46571e-11 -1.59705e-12
  240 353.963 -8.43324e-11 3.10379e-11
  241 353.963 -6.07686e-11 1.89450e-11
</Section>

newXOutput 127

<Section columns = "stress_xx | stress_yy | stress_xy">
  1 336.923 -6.54103e-11 1.22158e-14
  2 336.923 -6.46048e-11 3.44587e-13
  3 336.923 -6.56520e-11 3.90945e-13
  4 336.923 -6.57325e-11 2.99947e-14
  5 336.923 -6.55177e-11 -4.83744e-14
  6 336.923 -6.54103e-11 -7.20344e-14
  7 336.923 -6.54103e-11 4.26523e-14
  8 336.923 -6.50881e-11 2.40818e-13
  9 336.923 -6.52492e-11 4.74614e-13
  10 336.923 -6.55177e-11 6.57439e-13
  11 336.923 -6.51955e-11 3.19873e-13
  12 336.923 -6.55177e-11 1.75453e-13
  13 336.923 -6.56923e-11 -8.47774e-14
  14 336.923 -6.52492e-11 -2.43767e-13
  15 336.923 -6.52492e-11 -4.37684e-13
  16 336.923 -6.54640e-11 -9.49229e-13
  17 336.923 -6.55714e-11 -1.11099e-12
  18 336.923 -6.58399e-11 -4.31366e-13
  19 336.923 -6.58399e-11 5.39208e-14
  20 336.923 -6.56788e-11 9.89108e-13
  21 336.923 -6.55714e-11 1.31263e-12
  22 336.923 -6.56251e-11 1.29634e-12
  23 336.923 -6.52492e-11 9.46983e-13
  24 336.923 -6.49270e-11 -4.21251e-14
  25 336.923 -6.50075e-11 -6.31876e-14
  26 336.923 -6.49270e-11 -1.36829e-13
  27 336.923 -6.54103e-11 5.43700e-13
  28 336.923 -6.51687e-11 5.52892e-14
  29 336.923 -6.50075e-11 2.63282e-14
  30 336.923 -6.51955e-11 -2.27970e-13
  31 336.923 -6.58936e-11 3.84361e-13
  32 336.923 -6.57325e-11 -2.31526e-14
  33 336.923 -6.55714e-11 -1.61910e-13
  34 336.923 -6.53029e-11 -1.96387e-13
  35 336.923 -6.56520e-11 -1.16426e-13
  36 336.923 -6.53029e-11 -7.62714e-15
  37 336.923 -6.53566e-11 2.91586e-13
  38 336.923 -6.57325e-11 6.01614e-13
  39 336.923 -6.55714e-11 6.16548e-13
  40 336.923 -6.54103e-11 5.47323e-13
  41 336.923 -6.50344e-11 4.05937e-13
  42 336.923 -6.53029e-11 2.55395e-13
  43 336.923 -6.54103e-11 8.33598e-14
  44 336.923 -6.54103e-11 -8.69899e-14
  45 336.923 -6.54640e-11 -1.58511e-13
  46 336.923 -6.56251e-11 -1.50242e-13
  47 336.923 -6.56788e-11 -6.69503e-14
  48 336.923 -6.57325e-11 -7.39698e-14
  49 336.923 -6.56788e-11 9.49693e-15
  50 336.923 -6.55177e-11 7.79323e-14
  51 336.923 -6.54103e-11 -1.57969e-14
  52 336.923 -6.53700e-11 -7.28377e-14
  53 336.923 -6.57325e-11 -7.20344e-14
  54 336.923 -6.54103e-11 4.43898e-14
  55 336.923 -6.54103e-11 0.00000
  56 336.923 -6.50881e-11 3.05758e-14
  57 336.923 -6.54372e-11 -5.34292e-13
  58 336.923 -6.54640e-11 5.47141e-13
  59 336.923 -6.55024e-11 -3.36101e-13
  60 336.923 -6.55446e-11 7.82985e-13
  61 336.923 -6.55714e-11 4.77036e-13
  62 336.923 -6.56251e-11 -1.66756e-13
  63 336.923 -6.55714e-11 -4.24710e-13
  64 336.923 -6.56251e-11 -5.80032e-13
  65 336.923 -6.53835e-11 -3.79366e-13
  66 336.923 -6.52492e-11 3.05919e-13
  67 336.923 -6.54909e-11 1.19883e-13
  68 336.923 -6.54372e-11 2.71885e-13
  69 336.923 -6.54563e-11 -3.35079e-13
  70 336.923 -6.56520e-11 -2.24092e-13
  71 336.923 -6.55983e-11 1.21638e-13
  72 336.923 -6.56635e-11 2.61269e-13
  73 336.923 -6.57555e-11 -4.76831e-13
  74 336.923 -6.54748e-11 1.67551e-13
  75 336.923 -6.57003e-11 -8.06909e-14
  76 336.923 -6.53835e-11 5.40260e-13
  77 336.923 -6.54909e-11 -1.76322e-13
  78 336.923 -6.54640e-11 -6.27898e-13
  79 336.923 -6.50421e-11 -5.26621e-13
  80 336.923 -6.55177e-11 -1.38312e-13
  81 336.923 -6.54640e-11 5.17862e-13
  82 336.923 -6.57594e-11 -3.15781e-13
  83 336.923 -6.52761e-11 -4.54516e-13
  84 336.923 -6.54640e-11 -3.98542e-13
  85 336.923 -6.56251e-11 5.78172e-13
  86 336.923 -6.50344e-11 -2.71357e-13
  87 336.923 -6.55177e-11 4.53554e-13
  88 336.923 -6.53781e-11 -6.83542e-13
  89 336.923 -6.54103e-11 -1.22458e-13
  90 336.923 -6.55177e-11 -5.91266e-13
  91 336.923 -6.56359e-11 5.77415e-13
  92 336.923 -6.53781e-11 -4.38200e-13
  93 336.923 -6.59259e-11 2.30006e-13
  94 336.923 -6.56036e-11 5.44282e-13
  95 336.923 -6.55714e-11 5.38648e-13
  96 336.923 -6.57862e-11 -6.67532e-13
  97 336.923 -6.54425e-11 -3.09874e-13
  98 336.923 -6.54748e-11 8.18531e-13
  99 336.923 -6.55177e-11 -1.18127e-13
  100 336.923 -6.54748e-11 7.36775e-13
  101 336.923 -6.54640e-11 -4.04931e-13
  102 336.923 -6.57003e-11 -7.24391e-13
  103 336.923 -6.56788e-11 6.98758e-13
  104 336.923 -6.52814e-11 -3.33234e-13
  105 336.923 -6.54748e-11 -4.54847e-14
  106 336.923 -6.56520e-11 -2.55808e-13
  107 336.923 -6.51149e-11 -6.42587e-14
  108 336.923 -6.51687e-11 -2.61863e-13
  109 336.923 -6.53137e-11 1.80887e-13
  110 336.923 -6.49592e-11 1.82825e-13
  111 336.923 -6.52291e-11 -5.22759e-13
  112 336.923 -6.55177e-11 1.65839e-13
  113 336.923 -6.57555e-11 8.42418e-14
  114 336.923 -6.53413e-11 -1.07664e-13
  115 336.923 -6.53835e-11 -1.02772e-14
  116 336.923 -6.57003e-11 -1.55848e-15
  117 336.923 -6.53029e-11 -5.54160e-13
  118 336.923 -6.54372e-11 -4.63061e-13
  119 336.923 -6.54794e-11 3.36705e-14
  120 336.923 -6.57594e-11 -3.77181e-13
  121 336.923 -6.53183e-11 8.45225e-14
  122 336.923 -6.53643e-11 3.87013e-13
  123 336.923 -6.57057e-11 -5.04791e-13
  124 336.923 -6.53643e-11 7.71766e-13
  125 336.923 -6.54707e-11 -5.85872e-14
  126 336.923 -6.54103e-11 -2.46052e-13
  127 336.923 -6.54333e-11 1.76957e-13
  128 336.923 -6.56520e-11 3.01514e-13
  129 336.923 -6.55714e-11 5.67937e-13
  130 336.923 -6.54372e-11 3.80077e-13
  131 336.923 -6.54909e-11 -2.90064e-13
  132 336.923 -6.53902e-11 1.72087e-13
  133 336.923 -6.56635e-11 6.46315e-14
  134 336.923 -6.56635e-11 2.81143e-13
  135 336.923 -6.54563e-11 3.63365e-13
  136 336.923 -6.57095e-11 4.40512e-13
  137 336.923 -6.53873e-11 -1.02519e-13
  138 336.923 -6.52492e-11 7.93017e-14
  139 336.923 -6.53873e-11 3.54836e-14
  140 336.923 -6.55714e-11 6.40368e-13
  141 336.923 -6.52224e-11 -4.19781e-13
  142 336.923 -6.53835e-11 -3.39105e-14
  143 336.923 -6.53873e-11 -4.33682e-13
  144 336.923 -6.56359e-11 -4.65067e-13
  145 336.923 -6.53459e-11 -2.16743e-13
  146 336.923 -6.56405e-11 5.01966e-13
  147 336.923 -6.55446e-11 1.93485e-13
  148 336.923 -6.56251e-11 2.28531e-14
  149 336.923 -6.53566e-11 5.83579e-13
  150 336.923 -6.54909e-11 -2.36217e-14
  151 336.923 -6.56520e-11 3.85238e-13
  152 336.923 -6.55177e-11 -3.17626e-13
  153 336.923 -6.54640e-11 -4.82513e-13
  154 336.923 -6.54748e-11 -5.79015e-13
  155 336.923 -6.56520e-11 7.71612e-13
  156 336.923 -6.57786e-11 -9.73091e-14
  157 336.923 -6.54563e-11 -4.26062e-13
  158 336.923 -6.55177e-11 3.89397e-13
  159 336.923 -6.56251e-11 -4.46654e-13
  160 336.923 -6.55714e-11 -1.50757e-13
  161 336.923 -6.55392e-11 5.67431e-13
  162 336.923 -6.54103e-11 -2.29505e-13
  163 336.923 -6.55714e-11 2.03501e-13
  164 336.923 -6.54333e-11 -3.80891e-13
  165 336.923 -6.54909e-11 5.69924e-14
  166 336.923 -6.52722e-11 2.20483e-14
  167 336.923 -6.48349e-11 -2.30802e-13
  168 336.923 -6.50881e-11 -3.52320e-13
  169 336.923 -6.53413e-11 -3.32939e-14
  170 336.923 -6.53459e-11 -5.15953e-13
  171 336.923 -6.53183e-11 -2.36023e-13
  172 336.923 -6.53298e-11 -3.72671e-13
  173 336.923 -6.56251e-11 4.65651e-13
  174 336.923 -6.49001e-11 2.37097e-13
  175 336.923 -6.55983e-11 2.19733e-13
  176 336.923 -6.53029e-11 3.93155e-15
  177 336.923 -6.55177e-11 -1.95895e-13
  178 336.923 -6.52492e-11 -4.50567e-13
  179 336.923 -6.54748e-11 1.20774e-13
  180 336.923 -6.53413e-11 -1.26798e-13
  181 336.923 -6.55446e-11 3.44024e-14
  182 336.923 -6.56036e-11 2.47478e-13
  183 336.923 -6.57057e-11 2.08872e-13
  184 336.923 -6.54748e-11 -4.74671e-13
  185 336.923 -6.52492e-11 1.20646e-13
  186 336.923 -6.52492e-11 -3.89577e-13
  187 336.923 -6.56788e-11 -1.74552e-13
  188 336.923 -6.51525e-11 -6.73914e-13
  189 336.923 -6.56036e-11 1.15003e-13
  190 336.923 -6.53873e-11 2.99447e-13
  191 336.923 -6.54640e-11 -2.17841e-13
  192 336.923 -6.55024e-11 3.01979e-13
  193 336.923 -6.55714e-11 -2.57747e-13
  194 336.923 -6.55177e-11 -5.19723e-13
  195 336.923 -6.51955e-11 -1.68528e-13
  196 336.923 -6.51149e-11 -1.77201e-13
  197 336.923 -6.52224e-11 1.25501e-14
  198 336.923 -6.57325e-11 2.35481e-13
  199 336.923 -6.54372e-11 -4.47952e-13
  200 336.923 -6.56251e-11 5.80385e-13
  201 336.923 -6.57325e-11 -7.50837e-14
  202 336.923 -6.55714e-11 -4.47879e-13
  203 336.923 -6.54372e-11 -1.33889e-13
  204 336.923 -6.55714e-11 5.73745e-13
  205 336.923 -6.53835e-11 3.92522e-13
  206 336.923 -6.56359e-11 9.54228e-13
  207 336.923 -6.56681e-11 2.67842e-13
  208 336.923 -6.55070e-11 -1.03777e-13
  209 336.923 -6.54909e-11 -6.63792e-13
  210 336.923 -6.53029e-11 3.95848e-13
  211 336.923 -6.55254e-11 -2.42221e-14
  212 336.923 -6.53781e-11 7.86654e-13
  213 336.923 -6.57003e-11 2.55408e-13
  214 336.923 -6.53566e-11 3.66623e-13
  215 336.923 -6.54425e-11 7.62383e-13
  216 336.923 -6.57003e-11 -3.73863e-14
  217 336.923 -6.54909e-11 -6.29705e-13
  218 336.923 -6.52492e-11 2.56127e-13
  219 336.923 -6.56036e-11 3.72979e-13
  220 336.923 -6.53835e-11 -2.25231e-13
  221 336.923 -6.55983e-11 -4.64961e-13
  222 336.923 -6.56520e-11 1.49019e-13
  223 336.923 -6.54748e-11 1.10580e-13
  224 336.923 -6.54748e-11 -6.75187e-13
  225 336.923 -6.56359e-11 3.34118e-13
  226 336.923 -6.54425e-11 5.62460e-13
  227 336.923 -6.56520e-11 5.62691e-13
  228 336.923 -6.54748e-11 -4.41889e-14
  229 336.923 -6.54640e-11 2.99697e-13
  230 336.923 -6.51955e-11 5.26218e-13
  231 336.923 -6.57003e-11 -7.24562e-14
  232 336.923 -6.55070e-11 -4.42075e-13
  233 336.923 -6.56681e-11 -3.16951e-13
  234 336.923 -6.54103e-11 1.54390e-13
  235 336.923 -6.51525e-11 3.66299e-13
  236 336.923 -6.52722e-11 -2.31788e-13
  237 336.923 -6.53781e-11 -2.27514e-13
  238 336.923 -6.53459e-11 -1.17067e-13
  239 336.923 -6.56251e-11 -4.65172e-13
  240 336.923 -6.56036e-11 -8.13441e-14
  241 336.923 -6.55177e-11 -1.86335e-13
</Section>

newXOutput 128

<Section columns = "stress_xx | stress_yy | stress_xy">
  1 319.947 -6.15860e-11 -4.19867e-15
  2 319.947 -6.18141e-11 1.92233e-13
  3 319.947 -6.20422e-11 4.36851e-13
  4 319.947 -6.14339e-11 9.62423e-14
  5 319.947 -6.15860e-11 -2.82278e-14
  6 319.947 -6.15100e-11 -2.40292e-14
  7 319.947 -6.16620e-11 -2.26178e-13
  8 319.947 -6.16874e-11 -4.38898e-13
  9 319.947 -6.15860e-11 -3.22951e-13
  10 319.947 -6.15353e-11 -1.69367e-13
  11 319.947 -6.15860e-11 1.86635e-13
  12 319.947 -6.15860e-11 2.29095e-13
  13 319.947 -6.14719e-11 2.46008e-13
  14 319.947 -6.14846e-11 4.16849e-14
  15 319.947 -6.15100e-11 8.06623e-14
  16 319.947 -6.16874e-11 2.45115e-13
  17 319.947 -6.14339e-11 -1.65793e-13
  18 319.947 -6.15353e-11 -5.63479e-13
  19 319.947 -6.15353e-11 -6.51974e-13
  20 319.947 -6.13325e-11 -6.89611e-13
  21 319.947 -6.18901e-11 -9.21505e-13
  22 319.947 -6.18394e-11 -5.52283e-13
  23 319.947 -6.18901e-11 4.32353e-14
  24 319.947 -6.18901e-11 -1.01715e-13
  25 319.947 -6.18901e-11 1.98305e-14
  26 319.947 -6.20422e-11 4.33792e-15
  27 319.947 -6.16367e-11 -2.31356e-14
  28 319.947 -6.18521e-11 -2.23218e-13
  29 319.947 -6.20422e-11 1.98305e-14
  30 319.947 -6.18901e-11 -3.09851e-14
  31 319.947 -6.16874e-11 8.60272e-13
  32 319.947 -6.15860e-11 1.05186e-12
  33 319.947 -6.17761e-11 9.94491e-13
  34 319.947 -6.17887e-11 1.44060e-12
  35 319.947 -6.16620e-11 1.19877e-12
  36 319.947 -6.17380e-11 1.33215e-12
  37 319.947 -6.14846e-11 7.60978e-13
  38 319.947 -6.14846e-11 3.04389e-13
  39 319.947 -6.14339e-11 -2.32712e-13
  40 319.947 -6.13325e-11 -9.73536e-13
  41 319.947 -6.19915e-11 -1.32129e-12
  42 319.947 -6.17380e-11 -1.31611e-12
  43 319.947 -6.19408e-11 -9.91011e-13
  44 319.947 -6.17887e-11 -4.05181e-13
  45 319.947 -6.16367e-11 -4.46237e-14
  46 319.947 -6.18901e-11 3.77417e-13
  47 319.947 -6.16367e-11 8.83335e-13
  48 319.947 -6.15860e-11 9.00109e-13
  49 319.947 -6.15860e-11 4.48487e-13
  50 319.947 -6.18901e-11 -4.55876e-14
  51 319.947 -6.20422e-11 4.46186e-14
  52 319.947 -6.18141e-11 1.51061e-13
  53 319.947 -6.13325e-11 -5.98791e-14
  54 319.947 -6.15480e-11 -7.56159e-14
  55 319.947 -6.15860e-11 3.96610e-14
  56 319.947 -6.15860e-11 4.48124e-14
  57 319.947 -6.15860e-11 -2.32487e-14
  58 319.947 -6.13325e-11 -2.19971e-14
  59 319.947 -6.16946e-11 3.06999e-13
  60 319.947 -6.16113e-11 -1.28498e-12
  61 319.947 -6.16113e-11 -8.03534e-13
  62 319.947 -6.15606e-11 1.08243e-12
  63 319.947 -6.13731e-11 -1.39298e-13
  64 319.947 -6.18901e-11 -2.66673e-13
  65 319.947 -6.18901e-11 1.33785e-12
  66 319.947 -6.14086e-11 -5.05506e-13
  67 319.947 -6.21689e-11 -4.20982e-13
  68 319.947 -6.16367e-11 -7.44026e-13
  69 319.947 -6.16512e-11 1.72364e-13
  70 319.947 -6.12628e-11 4.63853e-13
  71 319.947 -6.16874e-11 -3.52743e-13
  72 319.947 -6.15860e-11 -7.03421e-13
  73 319.947 -6.19336e-11 -4.68269e-13
  74 319.947 -6.17685e-11 7.56199e-13
  75 319.947 -6.13731e-11 4.66182e-13
  76 319.947 -6.16874e-11 2.76276e-13
  77 319.947 -6.14339e-11 -7.90852e-14
  78 319.947 -6.17127e-11 8.72760e-14
  79 319.947 -6.17163e-11 2.87012e-13
  80 319.947 -6.15606e-11 3.08366e-13
  81 319.947 -6.18141e-11 -7.53252e-14
  82 319.947 -6.15100e-11 4.88520e-13
  83 319.947 -6.16367e-11 -8.38661e-15
  84 319.947 -6.14846e-11 4.02763e-13
  85 319.947 -6.15100e-11 -5.95906e-13
  86 319.947 -6.16367e-11 7.20875e-14
  87 319.947 -6.16367e-11 -7.23078e-13
  88 319.947 -6.19814e-11 3.99029e-14
  89 319.947 -6.15556e-11 1.24893e-13
  90 319.947 -6.18648e-11 5.47868e-14
  91 319.947 -6.16772e-11 -5.75616e-13
  92 319.947 -6.15860e-11 -2.08446e-14
  93 319.947 -6.16164e-11 8.25996e-13
  94 319.947 -6.16164e-11 -7.24233e-13
  95 319.947 -6.16468e-11 -1.61900e-13
  96 319.947 -6.17380e-11 1.20256e-12
  97 319.947 -6.17989e-11 1.49820e-13
  98 319.947 -6.15860e-11 -1.70461e-12
  99 319.947 -6.15606e-11 -2.22248e-13
  100 319.947 -6.15556e-11 -9.34405e-13
  101 319.947 -6.17127e-11 -9.26340e-14
  102 319.947 -6.17685e-11 7.83673e-13
  103 319.947 -6.19408e-11 -8.49536e-13
  104 319.947 -6.17380e-11 1.37591e-12
  105 319.947 -6.11906e-11 4.69854e-13
  106 319.947 -6.15606e-11 5.83449e-14
  107 319.947 -6.20675e-11 1.29395e-13
  108 319.947 -6.17380e-11 3.50408e-13
  109 319.947 -6.15556e-11 -2.42391e-13
  110 319.947 -6.18293e-11 -5.63041e-13
  111 319.947 -6.19661e-11 1.99767e-13
  112 319.947 -6.14086e-11 1.00946e-13
  113 319.947 -6.14339e-11 4.96666e-13
  114 319.947 -6.16294e-11 6.73404e-13
  115 319.947 -6.16874e-11 -2.46274e-13
  116 319.947 -6.15556e-11 1.04281e-13
  117 319.947 -6.20422e-11 6.75685e-14
  118 319.947 -6.16874e-11 1.53531e-12
  119 319.947 -6.15643e-11 -4.88330e-13
  120 319.947 -6.15606e-11 5.57518e-13
  121 319.947 -6.15643e-11 -5.19748e-13
  122 319.947 -6.16294e-11 -4.51112e-13
  123 319.947 -6.16620e-11 3.25517e-13
  124 319.947 -6.15425e-11 -1.43692e-12
  125 319.947 -6.14339e-11 6.04043e-13
  126 319.947 -6.16430e-11 2.00141e-13
  127 319.947 -6.15643e-11 -2.91732e-13
  128 319.947 -6.14719e-11 -4.00300e-13
  129 319.947 -6.16620e-11 -1.04713e-12
  130 319.947 -6.17380e-11 -3.08450e-13
  131 319.947 -6.15353e-11 1.52428e-13
  132 319.947 -6.15860e-11 -1.86008e-13
  133 319.947 -6.14991e-11 -6.40888e-13
  134 319.947 -6.16729e-11 -5.44294e-13
  135 319.947 -6.17815e-11 -1.38177e-13
  136 319.947 -6.14774e-11 -5.26050e-13
  137 319.947 -6.15860e-11 -1.28748e-13
  138 319.947 -6.15860e-11 2.27531e-13
  139 319.947 -6.15643e-11 -3.22493e-13
  140 319.947 -6.18032e-11 -2.87309e-13
  141 319.947 -6.17887e-11 -7.79549e-14
  142 319.947 -6.18141e-11 -1.85818e-14
  143 319.947 -6.16729e-11 1.06779e-12
  144 319.947 -6.15860e-11 5.40575e-13
  145 319.947 -6.17685e-11 5.88338e-13
  146 319.947 -6.18249e-11 -7.41756e-13
  147 319.947 -6.11044e-11 -6.39643e-14
  148 319.947 -6.13325e-11 -1.87878e-13
  149 319.947 -6.15353e-11 -9.79548e-14
  150 319.947 -6.16113e-11 -1.04154e-13
  151 319.947 -6.15353e-11 -7.95331e-13
  152 319.947 -6.17127e-11 1.28035e-12
  153 319.947 -6.17634e-11 7.87111e-13
  154 319.947 -6.17076e-11 7.31539e-13
  155 319.947 -6.15860e-11 -1.46138e-12
  156 319.947 -6.18467e-11 4.17594e-13
  157 319.947 -6.15643e-11 3.54430e-13
  158 319.947 -6.17380e-11 -5.76607e-13
  159 319.947 -6.17127e-11 1.47985e-12
  160 319.947 -6.12819e-11 6.48530e-15
  161 319.947 -6.19205e-11 2.12832e-13
  162 319.947 -6.15606e-11 6.00314e-13
  163 319.947 -6.15860e-11 -3.86945e-13
  164 319.947 -6.16077e-11 -4.30834e-13
  165 319.947 -6.15353e-11 -2.94837e-13
  166 319.947 -6.20639e-11 8.69459e-14
  167 319.947 -6.18684e-11 -1.28297e-13
  168 319.947 -6.19336e-11 -6.82031e-14
  169 319.947 -6.15425e-11 -5.08221e-15
  170 319.947 -6.19509e-11 9.19277e-14
  171 319.947 -6.17815e-11 1.53107e-13
  172 319.947 -6.15100e-11 1.09708e-13
  173 319.947 -6.16113e-11 -8.76228e-13
  174 319.947 -6.17887e-11 8.00972e-15
  175 319.947 -6.16620e-11 -2.02839e-13
  176 319.947 -6.15860e-11 4.24305e-14
  177 319.947 -6.18141e-11 1.56978e-13
  178 319.947 -6.16620e-11 8.69037e-14
  179 319.947 -6.16164e-11 -6.14940e-14
  180 319.947 -6.15860e-11 -2.82200e-13
  181 319.947 -6.16620e-11 1.04534e-12
  182 319.947 -6.15252e-11 6.37445e-13
  183 319.947 -6.15860e-11 2.05910e-13
  184 319.947 -6.15860e-11 -1.19164e-13
  185 319.947 -6.13832e-11 -3.92202e-13
  186 319.947 -6.15252e-11 1.01439e-13
  187 319.947 -6.16874e-11 5.81091e-13
  188 319.947 -6.17380e-11 4.05212e-13
  189 319.947 -6.16468e-11 -5.94567e-13
  190 319.947 -6.16946e-11 3.01673e-13
  191 319.947 -6.15100e-11 8.28249e-13
  192 319.947 -6.15208e-11 -5.80732e-13
  193 319.947 -6.16772e-11 9.41349e-13
  194 319.947 -6.18141e-11 -2.34128e-13
  195 319.947 -6.20168e-11 6.91543e-13
  196 319.947 -6.20675e-11 -2.50140e-13
  197 319.947 -6.15100e-11 -1.55538e-13
  198 319.947 -6.15353e-11 -7.86739e-13
  199 319.947 -6.15860e-11 7.99625e-14
  200 319.947 -6.15606e-11 -3.33795e-13
  201 319.947 -6.12819e-11 4.99742e-13
  202 319.947 -6.15556e-11 4.16499e-13
  203 319.947 -6.16874e-11 -4.31707e-13
  204 319.947 -6.15606e-11 -8.41119e-13
  205 319.947 -6.15860e-11 -7.77562e-13
  206 319.947 -6.16164e-11 -5.63587e-13
  207 319.947 -6.16772e-11 -3.44614e-14
  208 319.947 -6.16468e-11 8.28243e-13
  209 319.947 -6.16874e-11 -3.61724e-15
  210 319.947 -6.18394e-11 -5.56594e-13
  211 319.947 -6.15860e-11 4.40258e-14
  212 319.947 -6.17380e-11 -3.79815e-14
  213 319.947 -6.16164e-11 -8.18934e-14
  214 319.947 -6.16113e-11 -5.96962e-13
  215 319.947 -6.17380e-11 -1.27129e-12
  216 319.947 -6.16164e-11 4.76226e-13
  217 319.947 -6.18141e-11 -4.17332e-13
  218 319.947 -6.19408e-11 8.02144e-14
  219 319.947 -6.15252e-11 -8.38359e-13
  220 319.947 -6.15353e-11 1.27315e-12
  221 319.947 -6.17634e-11 3.73270e-13
  222 319.947 -6.15353e-11 1.19644e-12
  223 319.947 -6.17685e-11 -4.85234e-14
  224 319.947 -6.19205e-11 2.87420e-13
  225 319.947 -6.15556e-11 -4.97600e-13
  226 319.947 -6.14339e-11 -7.89765e-13
  227 319.947 -6.16367e-11 -8.70782e-13
  228 319.947 -6.12514e-11 4.17248e-13
  229 319.947 -6.15606e-11 -4.19498e-13
  230 319.947 -6.17634e-11 -5.91320e-13
  231 319.947 -6.13731e-11 1.01297e-13
  232 319.947 -6.14643e-11 3.15563e-13
  233 319.947 -6.21030e-11 6.65491e-13
  234 319.947 -6.14846e-11 3.39223e-13
  235 319.947 -6.14643e-11 -7.36268e-13
  236 319.947 -6.15425e-11 1.55207e-13
  237 319.947 -6.15556e-11 -2.92327e-13
  238 319.947 -6.17685e-11 -3.71900e-13
  239 319.947 -6.16620e-11 1.16504e-12
  240 319.947 -6.16772e-11 3.61419e-13
  241 319.947 -6.17380e-11 -2.35469e-13
</Section>

newXOutput 129

<Section columns = "stress_xx | stress_yy | stress_xy">
  1 303.033 -5.70497e-11 -3.73711e-13
  2 303.033 -5.84814e-11 -1.51268e-13
  3 303.033 -5.98414e-11 1.01950e-12
  4 303.033 -5.64771e-11 2.10329e-13
  5 303.033 -5.75031e-11 -7.84720e-13
  6 303.033 -5.78371e-11 -1.74799e-12
  7 303.033 -5.81234e-11 -1.06880e-12
  8 303.033 -5.80757e-11 -9.49113e-13
  9 303.033 -5.75031e-11 -7.08903e-13
  10 303.033 -5.77894e-11 -1.00658e-12
  11 303.033 -5.79803e-11 3.50821e-13
  12 303.033 -5.83143e-11 1.07256e-12
  13 303.033 -5.77655e-11 1.61365e-12
  14 303.033 -5.73599e-11 5.90196e-13
  15 303.033 -5.72287e-11 -9.12438e-13
  16 303.033 -5.76462e-11 -1.44779e-12
  17 303.033 -5.74076e-11 -2.50948e-12
  18 303.033 -5.75985e-11 -3.25562e-12
  19 303.033 -5.78848e-11 -3.68805e-12
  20 303.033 -5.79326e-11 -3.67745e-12
  21 303.033 -5.83621e-11 -3.07847e-12
  22 303.033 -5.83621e-11 -2.15336e-12
  23 303.033 -5.81234e-11 -1.15723e-12
  24 303.033 -6.01277e-11 -5.24489e-13
  25 303.033 -6.12014e-11 -1.30361e-13
  26 303.033 -6.06646e-11 1.15938e-12
  27 303.033 -5.78371e-11 4.41739e-13
  28 303.033 -6.00919e-11 -1.77448e-12
  29 303.033 -6.11298e-11 1.39672e-13
  30 303.033 -6.06526e-11 6.29880e-13
  31 303.033 -5.89347e-11 3.31436e-12
  32 303.033 -5.76940e-11 4.88759e-12
  33 303.033 -5.84456e-11 6.24768e-12
  34 303.033 -5.81234e-11 7.58781e-12
  35 303.033 -5.70139e-11 7.63981e-12
  36 303.033 -5.70736e-11 6.20020e-12
  37 303.033 -5.64532e-11 4.05274e-12
  38 303.033 -5.58329e-11 1.74431e-13
  39 303.033 -5.56420e-11 -3.39257e-12
  40 303.033 -5.63578e-11 -7.58982e-12
  41 303.033 -5.82666e-11 -9.04255e-12
  42 303.033 -5.86484e-11 -7.88191e-12
  43 303.033 -5.92687e-11 -5.38076e-12
  44 303.033 -5.93165e-11 -2.14922e-12
  45 303.033 -5.87915e-11 -2.60843e-13
  46 303.033 -5.91733e-11 1.74467e-12
  47 303.033 -5.81234e-11 3.88976e-12
  48 303.033 -5.76462e-11 3.70603e-12
  49 303.033 -5.70259e-11 1.50067e-12
  50 303.033 -6.04617e-11 -6.67972e-13
  51 303.033 -5.97698e-11 3.67803e-13
  52 303.033 -5.83382e-11 1.44591e-12
  53 303.033 -5.63101e-11 -1.87028e-13
  54 303.033 -5.86245e-11 -1.25336e-12
  55 303.033 -5.91972e-11 3.72459e-14
  56 303.033 -5.89824e-11 6.26180e-13
  57 303.033 -5.76224e-11 -1.71590e-12
  58 303.033 -5.69782e-11 -1.39448e-12
  59 303.033 -5.81234e-11 4.32015e-13
  60 303.033 -5.72168e-11 -1.40968e-11
  61 303.033 -5.68589e-11 -9.33070e-12
  62 303.033 -5.73599e-11 1.19259e-11
  63 303.033 -5.54320e-11 2.44680e-12
  64 303.033 -6.02709e-11 3.10899e-12
  65 303.033 -5.95789e-11 1.31717e-11
  66 303.033 -5.88870e-11 -6.27200e-12
  67 303.033 -6.02947e-11 -5.48605e-12
  68 303.033 -5.58090e-11 -3.24143e-12
  69 303.033 -5.68964e-11 2.91160e-12
  70 303.033 -5.43655e-11 4.32071e-12
  71 303.033 -5.79087e-11 -2.46551e-12
  72 303.033 -5.50762e-11 -1.92661e-12
  73 303.033 -5.86756e-11 -2.47186e-12
  74 303.033 -5.90969e-11 6.81480e-12
  75 303.033 -5.46017e-11 5.51487e-12
  76 303.033 -5.78371e-11 1.88566e-12
  77 303.033 -5.63339e-11 -5.60918e-13
  78 303.033 -5.97221e-11 7.16225e-12
  79 303.033 -5.87574e-11 1.87033e-13
  80 303.033 -5.61908e-11 7.82297e-13
  81 303.033 -5.89108e-11 -7.75342e-13
  82 303.033 -5.42342e-11 7.94049e-12
  83 303.033 -5.83143e-11 -1.55218e-12
  84 303.033 -5.87438e-11 8.54066e-12
  85 303.033 -5.57613e-11 -4.65677e-12
  86 303.033 -5.98175e-11 -3.91849e-12
  87 303.033 -5.91256e-11 -6.69920e-12
  88 303.033 -6.07862e-11 4.11677e-12
  89 303.033 -5.88965e-11 4.01808e-12
  90 303.033 -5.79564e-11 7.97357e-12
  91 303.033 -5.75222e-11 -8.73923e-12
  92 303.033 -5.78085e-11 5.30820e-13
  93 303.033 -5.69782e-11 8.43986e-12
  94 303.033 -5.69495e-11 -7.64037e-12
  95 303.033 -5.63196e-11 -6.01529e-12
  96 303.033 -5.72406e-11 1.09838e-11
  97 303.033 -5.87247e-11 -7.28803e-12
  98 303.033 -5.91256e-11 -1.65938e-11
  99 303.033 -5.53557e-11 1.16495e-12
  100 303.033 -5.88106e-11 -1.25358e-11
  101 303.033 -5.71452e-11 5.05018e-12
  102 303.033 -5.80662e-11 1.08631e-11
  103 303.033 -5.97459e-11 -1.26797e-11
  104 303.033 -5.72358e-11 1.40301e-11
  105 303.033 -5.52030e-11 2.74472e-12
  106 303.033 -5.55943e-11 -3.96734e-13
  107 303.033 -6.06765e-11 3.81997e-12
  108 303.033 -5.79087e-11 4.02123e-12
  109 303.033 -5.95837e-11 -3.49729e-12
  110 303.033 -6.16738e-11 -4.93655e-12
  111 303.033 -5.98056e-11 5.73201e-12
  112 303.033 -5.50455e-11 7.79044e-13
  113 303.033 -5.52602e-11 3.79391e-12
  114 303.033 -5.61396e-11 7.17993e-12
  115 303.033 -5.70975e-11 -4.81816e-12
  116 303.033 -5.77799e-11 4.17551e-12
  117 303.033 -6.04617e-11 6.52857e-12
  118 303.033 -5.78610e-11 1.60547e-11
  119 303.033 -5.55875e-11 -1.33698e-12
  120 303.033 -5.75508e-11 8.11645e-12
  121 303.033 -5.76531e-11 -8.53472e-12
  122 303.033 -5.67532e-11 -6.54776e-12
  123 303.033 -5.60238e-11 2.86591e-12
  124 303.033 -5.74076e-11 -1.39347e-11
  125 303.033 -5.61908e-11 6.43247e-12
  126 303.033 -5.81950e-11 6.41354e-12
  127 303.033 -5.55261e-11 -1.06568e-12
  128 303.033 -5.82666e-11 -6.58867e-12
  129 303.033 -5.90898e-11 -1.15771e-11
  130 303.033 -5.72883e-11 -4.49821e-12
  131 303.033 -5.70020e-11 3.66795e-12
  132 303.033 -5.66024e-11 -3.02833e-12
  133 303.033 -5.70600e-11 -5.11295e-12
  134 303.033 -5.73667e-11 -4.59887e-12
  135 303.033 -5.86143e-11 -4.24884e-12
  136 303.033 -5.76735e-11 -6.67876e-12
  137 303.033 -5.87370e-11 -1.44567e-12
  138 303.033 -5.80041e-11 3.28499e-14
  139 303.033 -5.74485e-11 -4.55899e-12
  140 303.033 -5.89824e-11 -4.63707e-12
  141 303.033 -5.87677e-11 -3.84346e-12
  142 303.033 -5.81234e-11 4.21551e-12
  143 303.033 -5.76531e-11 1.15195e-11
  144 303.033 -5.38000e-11 6.02512e-12
  145 303.033 -5.89538e-11 7.23800e-12
  146 303.033 -5.84302e-11 -9.14747e-12
  147 303.033 -5.53318e-11 -7.18259e-13
  148 303.033 -5.65487e-11 -2.12117e-12
  149 303.033 -5.74792e-11 -1.93587e-12
  150 303.033 -5.66441e-11 -2.66840e-12
  151 303.033 -5.53079e-11 -5.45901e-12
  152 303.033 -5.87438e-11 1.34297e-11
  153 303.033 -5.66918e-11 6.19049e-12
  154 303.033 -5.64341e-11 3.73619e-12
  155 303.033 -5.61192e-11 -1.49568e-11
  156 303.033 -5.91460e-11 6.79129e-12
  157 303.033 -5.70395e-11 4.77495e-12
  158 303.033 -5.75031e-11 -3.50067e-12
  159 303.033 -5.80280e-11 1.30458e-11
  160 303.033 -5.60047e-11 5.82291e-13
  161 303.033 -5.84098e-11 2.19034e-12
  162 303.033 -5.85529e-11 3.91465e-12
  163 303.033 -5.76224e-11 -2.72146e-12
  164 303.033 -5.62419e-11 -2.61123e-12
  165 303.033 -5.88631e-11 -1.71539e-12
  166 303.033 -6.08435e-11 6.66474e-13
  167 303.033 -6.10889e-11 -8.05048e-13
  168 303.033 -6.17025e-11 5.98938e-13
  169 303.033 -5.97800e-11 5.18230e-13
  170 303.033 -5.97269e-11 1.29003e-12
  171 303.033 -5.81644e-11 4.91325e-12
  172 303.033 -5.68111e-11 1.30712e-12
  173 303.033 -5.85768e-11 -9.94825e-12
  174 303.033 -5.90301e-11 -1.55956e-12
  175 303.033 -5.81234e-11 -2.58359e-12
  176 303.033 -5.84098e-11 1.52121e-12
  177 303.033 -6.02231e-11 2.12160e-12
  178 303.033 -5.78133e-11 6.16124e-13
  179 303.033 -5.80089e-11 2.06093e-12
  180 303.033 -5.77758e-11 -4.81915e-12
  181 303.033 -5.85291e-11 8.99080e-12
  182 303.033 -5.58901e-11 4.19329e-12
  183 303.033 -5.55227e-11 3.59473e-13
  184 303.033 -5.73217e-11 -3.10176e-12
  185 303.033 -5.93880e-11 -3.87683e-12
  186 303.033 -5.68064e-11 3.08860e-14
  187 303.033 -5.87438e-11 4.38741e-12
  188 303.033 -5.89252e-11 7.34961e-13
  189 303.033 -5.73790e-11 -9.39562e-12
  190 303.033 -5.88393e-11 1.96747e-12
  191 303.033 -5.85052e-11 8.11790e-12
  192 303.033 -5.54852e-11 -4.30143e-12
  193 303.033 -5.69209e-11 7.78426e-12
  194 303.033 -6.08435e-11 4.90211e-13
  195 303.033 -6.07719e-11 6.38317e-12
  196 303.033 -6.15116e-11 -1.07420e-12
  197 303.033 -6.02470e-11 -1.39124e-12
  198 303.033 -5.77655e-11 -5.45425e-12
  199 303.033 -5.75747e-11 1.69345e-12
  200 303.033 -5.78133e-11 -5.20883e-12
  201 303.033 -5.44013e-11 5.03861e-12
  202 303.033 -5.46303e-11 2.79306e-12
  203 303.033 -5.71213e-11 1.79894e-12
  204 303.033 -5.46876e-11 -3.14626e-12
  205 303.033 -5.81473e-11 -1.06561e-11
  206 303.033 -5.79803e-11 -4.22480e-12
  207 303.033 -5.85243e-11 -2.79288e-12
  208 303.033 -5.80376e-11 7.78830e-12
  209 303.033 -5.99845e-11 -5.34721e-12
  210 303.033 -6.04856e-11 -5.28093e-12
  211 303.033 -5.80416e-11 2.02051e-12
  212 303.033 -5.82666e-11 -2.42827e-12
  213 303.033 -5.75508e-11 -2.77373e-12
  214 303.033 -5.82189e-11 -7.15606e-12
  215 303.033 -5.88106e-11 -1.57724e-11
  216 303.033 -5.46589e-11 6.22640e-12
  217 303.033 -5.91494e-11 -4.95989e-12
  218 303.033 -5.97459e-11 5.65431e-14
  219 303.033 -5.48594e-11 -3.09792e-12
  220 303.033 -5.67157e-11 1.26034e-11
  221 303.033 -5.54750e-11 2.66221e-12
  222 303.033 -5.75508e-11 1.20001e-11
  223 303.033 -5.77799e-11 2.94384e-12
  224 303.033 -5.79230e-11 9.28518e-12
  225 303.033 -5.78371e-11 -8.36055e-12
  226 303.033 -5.82093e-11 -1.09745e-11
  227 303.033 -5.48785e-11 -3.92538e-12
  228 303.033 -5.50598e-11 4.90006e-12
  229 303.033 -5.81950e-11 -5.57562e-12
  230 303.033 -6.02947e-11 -7.13784e-12
  231 303.033 -5.57470e-11 2.33755e-12
  232 303.033 -5.68923e-11 5.72430e-12
  233 303.033 -6.03854e-11 9.44807e-12
  234 303.033 -5.52125e-11 6.94696e-13
  235 303.033 -5.71213e-11 -5.71186e-12
  236 303.033 -5.97187e-11 4.75384e-12
  237 303.033 -5.55465e-11 2.81555e-12
  238 303.033 -5.81807e-11 -6.59740e-12
  239 303.033 -5.76224e-11 1.26926e-11
  240 303.033 -5.79517e-11 3.62537e-12
  241 303.033 -5.68827e-11 -2.67254e-12
</Section>

newXOutput 130

<Section columns = "stress_xx | stress_yy | stress_xy">
  1 286.183 -5.40948e-11 -2.86962e-14
  2 286.183 -5.43636e-11 6.48971e-14
  3 286.183 -5.36916e-11 -1.67193e-13
  4 286.183 -5.43636e-11 -2.26294e-13
  5 286.183 -5.41620e-11 -8.56480e-14
  6 286.183 -5.42964e-11 -8.60887e-14
  7 286.183 -5.42292e-11 -1.93923e-13
  8 286.183 -5.42516e-11 -2.86820e-13
  9 286.183 -5.40276e-11 -3.79901e-13
  10 286.183 -5.41172e-11 -2.67689e-13
  11 286.183 -5.38484e-11 -4.34721e-13
  12 286.183 -5.39380e-11 -4.37222e-13
  13 286.183 -5.39268e-11 -3.43480e-13
  14 286.183 -5.38932e-11 -2.16324e-14
  15 286.183 -5.37924e-11 2.29132e-13
  16 286.183 -5.36692e-11 3.35826e-13
  17 286.183 -5.38932e-11 1.33034e-13
  18 286.183 -5.39380e-11 6.65172e-14
  19 286.183 -5.38484e-11 1.57907e-13
  20 286.183 -5.39828e-11 2.34430e-13
  21 286.183 -5.40276e-11 1.87925e-13
  22 286.183 -5.39828e-11 1.08162e-13
  23 286.183 -5.41172e-11 -3.14958e-14
  24 286.183 -5.36244e-11 1.56287e-13
  25 286.183 -5.34900e-11 0.00000
  26 286.183 -5.38596e-11 -1.14490e-13
  27 286.183 -5.40276e-11 2.52203e-13
  28 286.183 -5.36244e-11 1.64334e-13
  29 286.183 -5.39604e-11 1.04636e-13
  30 286.183 -5.38036e-11 2.43425e-14
  31 286.183 -5.40276e-11 -4.12122e-13
  32 286.183 -5.42964e-11 -8.75699e-13
  33 286.183 -5.39268e-11 -6.14980e-13
  34 286.183 -5.40276e-11 -7.89335e-13
  35 286.183 -5.42292e-11 -4.30444e-13
  36 286.183 -5.40276e-11 9.01933e-14
  37 286.183 -5.42964e-11 1.10027e-13
  38 286.183 -5.44756e-11 6.86583e-13
  39 286.183 -5.39828e-11 1.25575e-12
  40 286.183 -5.38036e-11 1.61443e-12
  41 286.183 -5.38036e-11 1.50875e-12
  42 286.183 -5.38932e-11 1.40356e-12
  43 286.183 -5.39828e-11 6.41209e-13
  44 286.183 -5.37140e-11 -2.77746e-13
  45 286.183 -5.38484e-11 -6.09559e-13
  46 286.183 -5.38932e-11 -8.98535e-13
  47 286.183 -5.41620e-11 -1.18722e-12
  48 286.183 -5.41620e-11 -1.03067e-12
  49 286.183 -5.41172e-11 -6.03614e-13
  50 286.183 -5.39828e-11 6.50461e-14
  51 286.183 -5.38932e-11 1.74394e-14
  52 286.183 -5.41284e-11 -6.87791e-14
  53 286.183 -5.42964e-11 3.19722e-14
  54 286.183 -5.38260e-11 2.05654e-13
  55 286.183 -5.34900e-11 3.48787e-14
  56 286.183 -5.36692e-11 -9.78818e-14
  57 286.183 -5.39380e-11 -1.36272e-13
  58 286.183 -5.38932e-11 3.08631e-13
  59 286.183 -5.40660e-11 1.89857e-13
  60 286.183 -5.40948e-11 -1.04365e-13
  61 286.183 -5.39156e-11 1.57345e-12
  62 286.183 -5.39828e-11 -6.62990e-13
  63 286.183 -5.41620e-11 -2.11917e-12
  64 286.183 -5.37140e-11 -1.83553e-12
  65 286.183 -5.38260e-11 -4.39729e-13
  66 286.183 -5.38260e-11 1.11806e-12
  67 286.183 -5.38260e-11 4.56889e-13
  68 286.183 -5.46548e-11 -7.49666e-13
  69 286.183 -5.43348e-11 1.07746e-13
  70 286.183 -5.42292e-11 -1.48191e-13
  71 286.183 -5.38260e-11 3.84163e-13
  72 286.183 -5.44884e-11 -3.90042e-13
  73 286.183 -5.42772e-11 -1.46487e-12
  74 286.183 -5.38932e-11 2.01966e-13
  75 286.183 -5.42964e-11 5.52198e-14
  76 286.183 -5.40276e-11 2.58493e-13
  77 286.183 -5.42516e-11 -8.06450e-14
  78 286.183 -5.40500e-11 -4.56910e-13
  79 286.183 -5.39508e-11 1.33276e-13
  80 286.183 -5.39604e-11 2.48725e-13
  81 286.183 -5.44532e-11 6.52939e-13
  82 286.183 -5.43636e-11 -8.55571e-13
  83 286.183 -5.38708e-11 -1.34855e-13
  84 286.183 -5.35572e-11 -1.43844e-12
  85 286.183 -5.42740e-11 5.82824e-13
  86 286.183 -5.37140e-11 9.89861e-13
  87 286.183 -5.40276e-11 6.09168e-13
  88 286.183 -5.37857e-11 -2.27801e-13
  89 286.183 -5.35975e-11 -6.04182e-13
  90 286.183 -5.41172e-11 -1.40498e-12
  91 286.183 -5.37050e-11 8.74676e-13
  92 286.183 -5.39738e-11 -5.35595e-13
  93 286.183 -5.40276e-11 2.59160e-14
  94 286.183 -5.41620e-11 1.80151e-12
  95 286.183 -5.37857e-11 1.98255e-13
  96 286.183 -5.40276e-11 4.90881e-13
  97 286.183 -5.40007e-11 2.03700e-12
  98 286.183 -5.38932e-11 1.15127e-12
  99 286.183 -5.44756e-11 -2.58660e-13
  100 286.183 -5.38932e-11 2.21983e-12
  101 286.183 -5.41396e-11 -1.10620e-12
  102 286.183 -5.42964e-11 -1.91489e-12
  103 286.183 -5.40276e-11 6.44690e-13
  104 286.183 -5.40007e-11 -1.02182e-12
  105 286.183 -5.39201e-11 -6.17192e-13
  106 286.183 -5.43188e-11 4.28753e-13
  107 286.183 -5.37812e-11 -6.50324e-13
  108 286.183 -5.41620e-11 -3.32795e-13
  109 286.183 -5.38125e-11 5.73876e-13
  110 286.183 -5.37588e-11 1.72921e-13
  111 286.183 -5.38596e-11 -2.06600e-13
  112 286.183 -5.42292e-11 -5.48227e-14
  113 286.183 -5.41428e-11 -2.00466e-13
  114 286.183 -5.43540e-11 -6.06072e-13
  115 286.183 -5.42292e-11 1.14529e-12
  116 286.183 -5.39201e-11 -8.97111e-13
  117 286.183 -5.41396e-11 -2.28676e-12
  118 286.183 -5.37812e-11 -7.11907e-13
  119 286.183 -5.43348e-11 -4.30318e-14
  120 286.183 -5.43636e-11 -6.84831e-13
  121 286.183 -5.38164e-11 1.38817e-12
  122 286.183 -5.43924e-11 1.78993e-13
  123 286.183 -5.43412e-11 5.32755e-13
  124 286.183 -5.41044e-11 -2.07271e-14
  125 286.183 -5.41452e-11 -3.71976e-13
  126 286.183 -5.38260e-11 -1.29602e-12
  127 286.183 -5.43540e-11 -7.18618e-13
  128 286.183 -5.40276e-11 1.54426e-12
  129 286.183 -5.39268e-11 6.32652e-13
  130 286.183 -5.43636e-11 -4.15096e-13
  131 286.183 -5.41172e-11 -6.92517e-13
  132 286.183 -5.38764e-11 9.61750e-14
  133 286.183 -5.41236e-11 7.88252e-13
  134 286.183 -5.40084e-11 6.36587e-13
  135 286.183 -5.41044e-11 1.20395e-12
  136 286.183 -5.40468e-11 3.89016e-14
  137 286.183 -5.40276e-11 5.83281e-13
  138 286.183 -5.40948e-11 -7.82942e-13
  139 286.183 -5.40468e-11 5.59357e-13
  140 286.183 -5.41044e-11 2.37152e-13
  141 286.183 -5.37812e-11 8.05578e-13
  142 286.183 -5.40052e-11 -9.49372e-13
  143 286.183 -5.38932e-11 -8.22779e-13
  144 286.183 -5.41889e-11 -8.40899e-14
  145 286.183 -5.40545e-11 -5.32971e-13
  146 286.183 -5.37972e-11 4.54755e-13
  147 286.183 -5.39604e-11 4.41997e-13
  148 286.183 -5.41172e-11 2.55718e-13
  149 286.183 -5.38484e-11 3.99211e-13
  150 286.183 -5.43412e-11 7.76027e-13
  151 286.183 -5.43636e-11 4.27074e-13
  152 286.183 -5.41396e-11 -6.04588e-13
  153 286.183 -5.42068e-11 2.35967e-13
  154 286.183 -5.42964e-11 7.31123e-13
  155 286.183 -5.41172e-11 2.09622e-14
  156 286.183 -5.41044e-11 -7.82800e-13
  157 286.183 -5.41620e-11 -5.83707e-13
  158 286.183 -5.41172e-11 1.86037e-13
  159 286.183 -5.42516e-11 3.37655e-13
  160 286.183 -5.43233e-11 -1.10725e-13
  161 286.183 -5.41351e-11 2.33087e-13
  162 286.183 -5.40052e-11 -1.01267e-12
  163 286.183 -5.39604e-11 -1.60337e-13
  164 286.183 -5.43156e-11 -1.14003e-12
  165 286.183 -5.36468e-11 3.38653e-13
  166 286.183 -5.38932e-11 1.20605e-13
  167 286.183 -5.33940e-11 -9.91991e-14
  168 286.183 -5.36820e-11 2.09168e-13
  169 286.183 -5.35476e-11 -4.48504e-14
  170 286.183 -5.38663e-11 4.43788e-13
  171 286.183 -5.39508e-11 -1.02871e-12
  172 286.183 -5.41844e-11 -1.80183e-13
  173 286.183 -5.36916e-11 4.04863e-13
  174 286.183 -5.39828e-11 5.35271e-13
  175 286.183 -5.41396e-11 3.44457e-14
  176 286.183 -5.38036e-11 -2.85176e-13
  177 286.183 -5.38036e-11 -1.56582e-13
  178 286.183 -5.38932e-11 -6.11608e-13
  179 286.183 -5.40276e-11 -6.53318e-13
  180 286.183 -5.40276e-11 6.29083e-13
  181 286.183 -5.43412e-11 9.09199e-13
  182 286.183 -5.45921e-11 5.69688e-16
  183 286.183 -5.40276e-11 4.57140e-13
  184 286.183 -5.38663e-11 4.05465e-13
  185 286.183 -5.36468e-11 7.31979e-13
  186 286.183 -5.41351e-11 6.56047e-14
  187 286.183 -5.40500e-11 -6.07797e-13
  188 286.183 -5.39469e-11 8.11587e-13
  189 286.183 -5.37050e-11 1.69317e-12
  190 286.183 -5.38548e-11 3.33400e-13
  191 286.183 -5.39156e-11 -1.08836e-12
  192 286.183 -5.45460e-11 3.31133e-13
  193 286.183 -5.41351e-11 -5.06623e-13
  194 286.183 -5.33332e-11 -1.12204e-12
  195 286.183 -5.39156e-11 -7.01318e-14
  196 286.183 -5.37588e-11 2.30283e-13
  197 286.183 -5.36916e-11 3.20048e-13
  198 286.183 -5.39380e-11 1.13232e-12
  199 286.183 -5.38484e-11 -6.47686e-13
  200 286.183 -5.40276e-11 1.96234e-13
  201 286.183 -5.42516e-11 -1.35087e-13
  202 286.183 -5.42695e-11 1.00170e-12
  203 286.183 -5.43636e-11 -5.87220e-13
  204 286.183 -5.44756e-11 -5.50578e-13
  205 286.183 -5.38708e-11 1.86886e-12
  206 286.183 -5.41082e-11 7.25105e-13
  207 286.183 -5.39201e-11 -3.53594e-13
  208 286.183 -5.42964e-11 -6.95386e-13
  209 286.183 -5.36692e-11 4.95794e-13
  210 286.183 -5.38932e-11 7.77892e-13
  211 286.183 -5.40660e-11 -5.00651e-13
  212 286.183 -5.39738e-11 7.87443e-13
  213 286.183 -5.40545e-11 -2.41793e-13
  214 286.183 -5.37588e-11 4.30712e-13
  215 286.183 -5.40276e-11 4.41273e-14
  216 286.183 -5.42695e-11 9.88307e-14
  217 286.183 -5.39828e-11 -1.62112e-13
  218 286.183 -5.39156e-11 5.92728e-13
  219 286.183 -5.45383e-11 -4.13685e-14
  220 286.183 -5.40052e-11 -3.37566e-13
  221 286.183 -5.43412e-11 3.24284e-13
  222 286.183 -5.38036e-11 4.00545e-13
  223 286.183 -5.40007e-11 -8.22322e-13
  224 286.183 -5.39201e-11 -1.64131e-12
  225 286.183 -5.42157e-11 2.12948e-12
  226 286.183 -5.40007e-11 1.97052e-12
  227 286.183 -5.44532e-11 -6.05160e-13
  228 286.183 -5.44845e-11 2.72897e-13
  229 286.183 -5.38932e-11 8.70516e-13
  230 286.183 -5.39380e-11 3.03580e-13
  231 286.183 -5.41620e-11 -1.52474e-12
  232 286.183 -5.38125e-11 -6.50294e-13
  233 286.183 -5.42964e-11 -8.82588e-13
  234 286.183 -5.38932e-11 -1.99875e-13
  235 286.183 -5.37857e-11 1.04974e-12
  236 286.183 -5.35860e-11 -7.35273e-13
  237 286.183 -5.46189e-11 -5.91401e-13
  238 286.183 -5.38125e-11 1.52687e-12
  239 286.183 -5.41396e-11 -5.36838e-13
  240 286.183 -5.38663e-11 -7.72434e-13
  241 286.183 -5.39604e-11 4.18497e-13
</Section>

newXOutput 131

<Section columns = "stress_xx | stress_yy | stress_xy">
  1 269.394 -5.06846e-11 -6.22729e-14
  2 269.394 -5.04331e-11 -1.42199e-13
  3 269.394 -4.99929e-11 -7.76317e-14
  4 269.394 -4.96785e-11 5.17591e-13
  5 269.394 -5.06427e-11 -1.80184e-13
  6 269.394 -5.05588e-11 -3.98352e-13
  7 269.394 -5.04016e-11 -4.67686e-13
  8 269.394 -5.06846e-11 -6.32997e-13
  9 269.394 -5.08104e-11 -6.51630e-13
  10 269.394 -5.09362e-11 -5.98085e-13
  11 269.394 -5.04750e-11 -3.60367e-13
  12 269.394 -5.03912e-11 -2.17449e-13
  13 269.394 -5.07475e-11 1.18859e-13
  14 269.394 -5.08942e-11 3.18394e-13
  15 269.394 -5.05274e-11 1.34451e-13
  16 269.394 -5.04331e-11 -3.56054e-13
  17 269.394 -5.04331e-11 -8.50319e-13
  18 269.394 -5.04750e-11 -9.35703e-13
  19 269.394 -5.04331e-11 -1.04136e-12
  20 269.394 -5.05169e-11 -1.24324e-12
  21 269.394 -5.03912e-11 -1.43428e-12
  22 269.394 -5.04331e-11 -1.13759e-12
  23 269.394 -5.05588e-11 -6.16915e-13
  24 269.394 -5.03492e-11 9.47993e-14
  25 269.394 -5.07475e-11 -4.88374e-14
  26 269.394 -5.06846e-11 -2.66714e-13
  27 269.394 -5.06008e-11 1.89599e-13
  28 269.394 -5.03702e-11 -1.45251e-13
  29 269.394 -4.98671e-11 9.36051e-14
  30 269.394 -4.97204e-11 5.42638e-14
  31 269.394 -5.04331e-11 -2.15916e-13
  32 269.394 -5.06846e-11 -5.65861e-13
  33 269.394 -5.02130e-11 -1.21084e-12
  34 269.394 -5.00977e-11 -2.01944e-12
  35 269.394 -5.02444e-11 -2.58258e-12
  36 269.394 -5.02235e-11 -3.14225e-12
  37 269.394 -5.02235e-11 -3.37965e-12
  38 269.394 -5.04750e-11 -3.97312e-12
  39 269.394 -5.03073e-11 -4.36130e-12
  40 269.394 -5.06846e-11 -4.07187e-12
  41 269.394 -5.13554e-11 -1.99485e-12
  42 269.394 -5.12715e-11 -4.99669e-13
  43 269.394 -5.10619e-11 1.14623e-12
  44 269.394 -5.11038e-11 2.30014e-12
  45 269.394 -5.07265e-11 2.94903e-12
  46 269.394 -5.05169e-11 3.21719e-12
  47 269.394 -5.03912e-11 3.04414e-12
  48 269.394 -5.02654e-11 2.54908e-12
  49 269.394 -5.00139e-11 1.52442e-12
  50 269.394 -4.93850e-11 6.08352e-14
  51 269.394 -4.94898e-11 -6.10468e-14
  52 269.394 -4.96785e-11 -1.13847e-13
  53 269.394 -4.98462e-11 1.40239e-14
  54 269.394 -4.98671e-11 -4.95853e-14
  55 269.394 -5.00558e-11 -6.51166e-14
  56 269.394 -5.02654e-11 -1.00716e-13
  57 269.394 -5.02235e-11 3.25425e-13
  58 269.394 -5.06008e-11 4.92456e-13
  59 269.394 -5.06307e-11 4.66930e-13
  60 269.394 -5.06637e-11 -5.07075e-13
  61 269.394 -5.05588e-11 -8.31683e-13
  62 269.394 -5.07894e-11 -9.60988e-13
  63 269.394 -5.05085e-11 -2.10627e-12
  64 269.394 -5.01815e-11 -1.38798e-12
  65 269.394 -5.00348e-11 -1.37586e-12
  66 269.394 -5.00767e-11 -4.31262e-13
  67 269.394 -5.04960e-11 5.85139e-13
  68 269.394 -5.08104e-11 -1.73393e-12
  69 269.394 -5.05588e-11 1.19064e-12
  70 269.394 -5.11720e-11 1.90009e-12
  71 269.394 -5.03912e-11 -8.86077e-13
  72 269.394 -5.07205e-11 -1.29336e-12
  73 269.394 -5.05768e-11 -1.26979e-12
  74 269.394 -5.03073e-11 -6.15010e-13
  75 269.394 -5.15650e-11 1.45747e-12
  76 269.394 -5.07475e-11 3.68148e-13
  77 269.394 -4.98671e-11 1.09028e-13
  78 269.394 -5.04960e-11 4.69231e-13
  79 269.394 -5.08463e-11 3.61200e-13
  80 269.394 -5.04121e-11 8.09592e-13
  81 269.394 -5.07265e-11 8.57948e-13
  82 269.394 -5.07894e-11 2.19844e-12
  83 269.394 -5.08313e-11 4.98727e-13
  84 269.394 -5.02654e-11 -5.47285e-13
  85 269.394 -5.04331e-11 3.74275e-13
  86 269.394 -5.04540e-11 6.08021e-13
  87 269.394 -4.95527e-11 4.72729e-13
  88 269.394 -5.01312e-11 -1.89237e-13
  89 269.394 -5.01815e-11 -2.64892e-13
  90 269.394 -5.09362e-11 -6.31673e-13
  91 269.394 -5.09865e-11 1.56733e-12
  92 269.394 -4.99552e-11 2.13025e-13
  93 269.394 -5.05588e-11 1.25086e-12
  94 269.394 -5.03576e-11 7.30944e-13
  95 269.394 -5.17159e-11 2.33250e-12
  96 269.394 -5.05379e-11 6.53230e-13
  97 269.394 -5.06092e-11 1.15948e-12
  98 269.394 -5.00306e-11 1.72482e-12
  99 269.394 -5.05798e-11 3.10046e-14
  100 269.394 -5.02570e-11 -5.36627e-13
  101 269.394 -5.09152e-11 -5.72620e-13
  102 269.394 -5.08104e-11 -1.23311e-12
  103 269.394 -5.04540e-11 2.02820e-13
  104 269.394 -5.03828e-11 -1.37972e-12
  105 269.394 -5.17411e-11 2.46916e-12
  106 269.394 -5.07265e-11 -5.38632e-13
  107 269.394 -5.07894e-11 -3.38920e-13
  108 269.394 -4.98252e-11 -3.00997e-13
  109 269.394 -4.98797e-11 -1.44385e-13
  110 269.394 -5.05085e-11 -1.80358e-13
  111 269.394 -5.00872e-11 2.48072e-13
  112 269.394 -5.08104e-11 -4.33463e-13
  113 269.394 -5.08104e-11 -1.11669e-13
  114 269.394 -5.02354e-11 -4.59324e-13
  115 269.394 -5.08942e-11 -2.08957e-14
  116 269.394 -5.02570e-11 -3.99058e-13
  117 269.394 -5.07265e-11 -1.88621e-12
  118 269.394 -5.01396e-11 -1.57635e-12
  119 269.394 -5.04510e-11 5.73969e-14
  120 269.394 -5.04331e-11 -3.00853e-13
  121 269.394 -5.03792e-11 -1.02571e-13
  122 269.394 -5.09362e-11 -1.90941e-13
  123 269.394 -5.07056e-11 1.63328e-12
  124 269.394 -5.06487e-11 -1.38258e-13
  125 269.394 -5.08733e-11 -4.89460e-13
  126 269.394 -5.05746e-11 -5.95021e-13
  127 269.394 -5.08104e-11 -1.46960e-12
  128 269.394 -5.05431e-11 4.62390e-13
  129 269.394 -5.04802e-11 2.38540e-12
  130 269.394 -5.08523e-11 -4.52423e-13
  131 269.394 -5.08523e-11 -7.25712e-14
  132 269.394 -5.16908e-11 1.29597e-12
  133 269.394 -5.04870e-11 1.41469e-13
  134 269.394 -5.07026e-11 -1.07681e-12
  135 269.394 -5.05409e-11 1.75205e-13
  136 269.394 -5.00917e-11 2.02006e-12
  137 269.394 -5.05229e-11 1.36090e-12
  138 269.394 -5.09152e-11 -8.17995e-13
  139 269.394 -4.98761e-11 1.07883e-13
  140 269.394 -5.06127e-11 1.29540e-13
  141 269.394 -5.07894e-11 6.24074e-13
  142 269.394 -5.09571e-11 -5.52042e-13
  143 269.394 -5.03073e-11 -1.10754e-12
  144 269.394 -5.09613e-11 2.40520e-12
  145 269.394 -5.00809e-11 -1.42229e-12
  146 269.394 -5.11697e-11 2.18214e-12
  147 269.394 -5.07894e-11 -8.72357e-13
  148 269.394 -4.98671e-11 -1.82184e-15
  149 269.394 -5.05169e-11 8.33495e-14
  150 269.394 -5.07475e-11 -2.78755e-13
  151 269.394 -5.06217e-11 -1.46682e-12
  152 269.394 -5.07685e-11 -6.38933e-14
  153 269.394 -5.06427e-11 -4.67967e-14
  154 269.394 -5.07601e-11 1.23388e-12
  155 269.394 -5.04540e-11 -2.06079e-13
  156 269.394 -5.05948e-11 1.85898e-14
  157 269.394 -4.99839e-11 -3.07799e-13
  158 269.394 -5.05588e-11 7.44197e-13
  159 269.394 -5.06008e-11 5.89510e-13
  160 269.394 -4.98545e-11 4.44155e-14
  161 269.394 -5.09110e-11 3.34863e-13
  162 269.394 -5.07894e-11 -5.75136e-13
  163 269.394 -5.05379e-11 5.46059e-13
  164 269.394 -5.05229e-11 -1.50897e-12
  165 269.394 -5.02654e-11 -8.25610e-13
  166 269.394 -4.94269e-11 -1.61498e-13
  167 269.394 -5.04331e-11 -1.96455e-13
  168 269.394 -5.03253e-11 2.56630e-13
  169 269.394 -5.00737e-11 -1.69104e-13
  170 269.394 -5.05588e-11 1.72598e-12
  171 269.394 -5.06846e-11 -3.96209e-13
  172 269.394 -5.07475e-11 1.32865e-13
  173 269.394 -5.08313e-11 2.41087e-12
  174 269.394 -5.05798e-11 1.99176e-13
  175 269.394 -4.97204e-11 6.36375e-13
  176 269.394 -5.04121e-11 -1.22405e-13
  177 269.394 -5.02235e-11 -3.68528e-13
  178 269.394 -5.04750e-11 -4.93797e-15
  179 269.394 -5.04582e-11 -5.27253e-13
  180 269.394 -5.00378e-11 2.62404e-13
  181 269.394 -5.08942e-11 1.34346e-12
  182 269.394 -5.03325e-11 -1.84219e-12
  183 269.394 -5.12296e-11 1.05098e-12
  184 269.394 -5.03325e-11 -5.39786e-14
  185 269.394 -5.03073e-11 -7.15619e-13
  186 269.394 -5.06092e-11 2.09159e-13
  187 269.394 -5.03073e-11 -1.00866e-12
  188 269.394 -5.09865e-11 1.03596e-12
  189 269.394 -5.05588e-11 -8.93196e-14
  190 269.394 -5.05229e-11 1.09530e-13
  191 269.394 -5.05379e-11 -9.06671e-13
  192 269.394 -5.07744e-11 -4.41882e-13
  193 269.394 -5.04834e-11 -1.36421e-12
  194 269.394 -5.01815e-11 -7.23662e-13
  195 269.394 -4.96365e-11 -7.92491e-13
  196 269.394 -5.02444e-11 7.26182e-13
  197 269.394 -4.99090e-11 -3.43034e-13
  198 269.394 -5.03702e-11 3.41584e-14
  199 269.394 -5.01396e-11 -1.04440e-13
  200 269.394 -5.04331e-11 2.88163e-13
  201 269.394 -5.14602e-11 1.84912e-12
  202 269.394 -5.10368e-11 1.65031e-12
  203 269.394 -5.08942e-11 -1.07741e-12
  204 269.394 -5.06427e-11 -1.50051e-12
  205 269.394 -5.01396e-11 -2.82712e-13
  206 269.394 -5.06092e-11 -6.34149e-13
  207 269.394 -5.03325e-11 2.70701e-12
  208 269.394 -5.01815e-11 -1.72923e-12
  209 269.394 -5.02025e-11 3.82334e-13
  210 269.394 -4.96575e-11 2.00095e-13
  211 269.394 -5.03612e-11 -2.71088e-13
  212 269.394 -5.06343e-11 -2.91077e-14
  213 269.394 -5.01312e-11 1.64722e-12
  214 269.394 -5.13554e-11 1.71002e-12
  215 269.394 -5.05085e-11 -2.11997e-13
  216 269.394 -5.11877e-11 6.48051e-13
  217 269.394 -5.03702e-11 -1.52889e-13
  218 269.394 -5.00767e-11 -1.94414e-13
  219 269.394 -5.03828e-11 -1.12427e-13
  220 269.394 -5.06217e-11 -7.66433e-13
  221 269.394 -5.08104e-11 -3.86218e-13
  222 269.394 -5.05169e-11 1.06355e-12
  223 269.394 -5.07852e-11 -5.15623e-13
  224 269.394 -5.08104e-11 -6.52133e-13
  225 269.394 -5.03325e-11 1.05886e-12
  226 269.394 -5.01564e-11 -2.90771e-13
  227 269.394 -5.07265e-11 -1.68277e-12
  228 269.394 -5.10368e-11 -2.65726e-13
  229 269.394 -4.98671e-11 -1.38708e-13
  230 269.394 -5.03073e-11 -2.31671e-13
  231 269.394 -5.07601e-11 -1.83164e-12
  232 269.394 -5.01061e-11 -5.82621e-13
  233 269.394 -5.08355e-11 -1.80330e-13
  234 269.394 -5.16698e-11 2.00949e-12
  235 269.394 -5.13135e-11 -1.53967e-12
  236 269.394 -5.01097e-11 -4.52822e-13
  237 269.394 -5.08355e-11 -1.33669e-13
  238 269.394 -5.08104e-11 1.23381e-13
  239 269.394 -5.04960e-11 -6.18990e-14
  240 269.394 -5.07601e-11 -5.86049e-14
  241 269.394 -5.03912e-11 3.15124e-13
</Section>

newXOutput 132

<Section columns = "stress_xx | stress_yy | stress_xy">
  1 252.668 -4.69674e-11 1.84517e-14
  2 252.668 -4.66156e-11 1.28668e-13
  3 252.668 -4.72020e-11 1.84025e-13
  4 252.668 -4.74365e-11 -4.23831e-13
  5 252.668 -4.70261e-11 1.05827e-13
  6 252.668 -4.67915e-11 1.52825e-13
  7 252.668 -4.67915e-11 1.81454e-13
  8 252.668 -4.66352e-11 1.76019e-13
  9 252.668 -4.68697e-11 5.17403e-14
  10 252.668 -4.66352e-11 1.15453e-13
  11 252.668 -4.66743e-11 4.73270e-14
  12 252.668 -4.67915e-11 -2.20664e-14
  13 252.668 -4.68795e-11 -3.69738e-13
  14 252.668 -4.67133e-11 -6.48485e-13
  15 252.668 -4.68795e-11 -4.56679e-13
  16 252.668 -4.68306e-11 -1.19866e-13
  17 252.668 -4.67915e-11 1.24889e-13
  18 252.668 -4.73779e-11 6.67406e-13
  19 252.668 -4.71824e-11 9.13428e-13
  20 252.668 -4.67915e-11 6.95154e-13
  21 252.668 -4.69479e-11 5.37446e-13
  22 252.668 -4.67133e-11 7.93563e-13
  23 252.668 -4.70652e-11 5.33032e-13
  24 252.668 -4.67524e-11 -6.05669e-14
  25 252.668 -4.67329e-11 0.00000
  26 252.668 -4.67915e-11 1.27740e-13
  27 252.668 -4.67915e-11 6.30905e-14
  28 252.668 -4.68795e-11 -4.44697e-14
  29 252.668 -4.72606e-11 2.27126e-14
  30 252.668 -4.74561e-11 -3.05989e-14
  31 252.668 -4.68697e-11 5.05068e-13
  32 252.668 -4.70261e-11 6.48430e-13
  33 252.668 -4.70847e-11 7.24289e-13
  34 252.668 -4.72215e-11 1.23421e-12
  35 252.668 -4.72606e-11 1.79086e-12
  36 252.668 -4.71433e-11 2.63397e-12
  37 252.668 -4.71043e-11 2.97340e-12
  38 252.668 -4.72997e-11 3.35932e-12
  39 252.668 -4.69479e-11 3.71111e-12
  40 252.668 -4.64006e-11 3.51190e-12
  41 252.668 -4.63224e-11 2.10484e-12
  42 252.668 -4.62833e-11 7.72083e-13
  43 252.668 -4.63224e-11 -8.07118e-13
  44 252.668 -4.63615e-11 -1.92376e-12
  45 252.668 -4.67133e-11 -2.46802e-12
  46 252.668 -4.68306e-11 -2.84916e-12
  47 252.668 -4.71043e-11 -2.74761e-12
  48 252.668 -4.71043e-11 -2.15541e-12
  49 252.668 -4.70652e-11 -1.22547e-12
  50 252.668 -4.75733e-11 -3.23377e-15
  51 252.668 -4.74365e-11 4.16397e-14
  52 252.668 -4.73779e-11 6.91972e-14
  53 252.668 -4.72997e-11 4.25845e-14
  54 252.668 -4.72020e-11 5.20496e-14
  55 252.668 -4.70847e-11 3.02834e-14
  56 252.668 -4.67915e-11 -1.17495e-14
  57 252.668 -4.67915e-11 1.17754e-13
  58 252.668 -4.68306e-11 -2.71185e-13
  59 252.668 -4.67748e-11 9.31035e-14
  60 252.668 -4.68502e-11 -1.53062e-13
  61 252.668 -4.65179e-11 3.50676e-13
  62 252.668 -4.67329e-11 4.71404e-13
  63 252.668 -4.66508e-11 2.87268e-13
  64 252.668 -4.71238e-11 -1.28650e-14
  65 252.668 -4.72997e-11 6.30005e-13
  66 252.668 -4.68502e-11 2.09014e-13
  67 252.668 -4.69870e-11 -4.21557e-13
  68 252.668 -4.66938e-11 8.85431e-14
  69 252.668 -4.70763e-11 -7.66998e-13
  70 252.668 -4.64690e-11 -1.14236e-12
  71 252.668 -4.68893e-11 2.78607e-13
  72 252.668 -4.66575e-11 1.81519e-13
  73 252.668 -4.68920e-11 -4.34031e-14
  74 252.668 -4.68619e-11 5.68202e-13
  75 252.668 -4.61113e-11 -7.60815e-13
  76 252.668 -4.66156e-11 1.13539e-13
  77 252.668 -4.72606e-11 7.42707e-14
  78 252.668 -4.71043e-11 -3.52879e-13
  79 252.668 -4.66910e-11 1.28780e-13
  80 252.668 -4.69283e-11 -6.94026e-14
  81 252.668 -4.67524e-11 -3.52642e-13
  82 252.668 -4.67329e-11 -1.59857e-12
  83 252.668 -4.68111e-11 1.07653e-13
  84 252.668 -4.69283e-11 2.90338e-14
  85 252.668 -4.70456e-11 -9.21121e-14
  86 252.668 -4.68306e-11 -1.34069e-13
  87 252.668 -4.75733e-11 4.45955e-15
  88 252.668 -4.71199e-11 -2.75790e-13
  89 252.668 -4.68619e-11 6.24120e-14
  90 252.668 -4.68306e-11 7.70938e-14
  91 252.668 -4.66508e-11 -3.72029e-13
  92 252.668 -4.70026e-11 1.02710e-13
  93 252.668 -4.68384e-11 2.65690e-13
  94 252.668 -4.70964e-11 -4.34714e-13
  95 252.668 -4.61348e-11 -1.07586e-12
  96 252.668 -4.69283e-11 3.96150e-13
  97 252.668 -4.70026e-11 -3.10383e-13
  98 252.668 -4.69792e-11 -2.92445e-13
  99 252.668 -4.69479e-11 9.90429e-14
  100 252.668 -4.68150e-11 4.02078e-13
  101 252.668 -4.68111e-11 -4.64189e-15
  102 252.668 -4.67681e-11 4.98942e-13
  103 252.668 -4.68697e-11 -3.76931e-13
  104 252.668 -4.67681e-11 7.22198e-13
  105 252.668 -4.61583e-11 -1.81005e-12
  106 252.668 -4.66352e-11 3.56102e-13
  107 252.668 -4.66938e-11 2.59259e-13
  108 252.668 -4.72997e-11 1.66449e-13
  109 252.668 -4.71433e-11 8.06278e-14
  110 252.668 -4.68853e-11 -3.03562e-13
  111 252.668 -4.70261e-11 -1.43454e-13
  112 252.668 -4.66156e-11 4.91844e-13
  113 252.668 -4.67748e-11 1.94700e-13
  114 252.668 -4.71098e-11 3.59676e-13
  115 252.668 -4.67133e-11 2.86342e-13
  116 252.668 -4.69792e-11 7.23986e-14
  117 252.668 -4.70456e-11 2.77446e-14
  118 252.668 -4.70456e-11 6.74777e-13
  119 252.668 -4.68418e-11 -8.63830e-14
  120 252.668 -4.72606e-11 6.22851e-14
  121 252.668 -4.68250e-11 2.37121e-13
  122 252.668 -4.67078e-11 5.93288e-15
  123 252.668 -4.67915e-11 -7.14028e-13
  124 252.668 -4.69926e-11 -5.31491e-13
  125 252.668 -4.64983e-11 3.67889e-13
  126 252.668 -4.67915e-11 4.60286e-14
  127 252.668 -4.68250e-11 2.13029e-13
  128 252.668 -4.69381e-11 4.37519e-14
  129 252.668 -4.67915e-11 -1.17894e-12
  130 252.668 -4.68502e-11 -1.08351e-13
  131 252.668 -4.69283e-11 -2.20661e-13
  132 252.668 -4.61905e-11 -7.47382e-13
  133 252.668 -4.70261e-11 3.13493e-14
  134 252.668 -4.67580e-11 2.47931e-13
  135 252.668 -4.67580e-11 1.69224e-13
  136 252.668 -4.72271e-11 -1.19459e-12
  137 252.668 -4.69926e-11 -5.88131e-13
  138 252.668 -4.66938e-11 2.61595e-13
  139 252.668 -4.69591e-11 1.13513e-13
  140 252.668 -4.70093e-11 -2.35355e-13
  141 252.668 -4.66743e-11 9.83449e-14
  142 252.668 -4.68111e-11 5.67875e-14
  143 252.668 -4.67580e-11 5.20122e-13
  144 252.668 -4.66743e-11 -1.22041e-12
  145 252.668 -4.70730e-11 7.83873e-13
  146 252.668 -4.64397e-11 -1.17917e-12
  147 252.668 -4.65374e-11 8.74956e-13
  148 252.668 -4.72606e-11 3.57269e-14
  149 252.668 -4.67329e-11 -2.71890e-13
  150 252.668 -4.66743e-11 3.38382e-13
  151 252.668 -4.67720e-11 3.53669e-13
  152 252.668 -4.68502e-11 2.14389e-13
  153 252.668 -4.67720e-11 3.04047e-13
  154 252.668 -4.69088e-11 1.94922e-13
  155 252.668 -4.67720e-11 -3.50041e-13
  156 252.668 -4.68083e-11 1.43277e-13
  157 252.668 -4.72104e-11 2.21592e-13
  158 252.668 -4.69479e-11 -3.69360e-13
  159 252.668 -4.66743e-11 3.19503e-13
  160 252.668 -4.73779e-11 7.66732e-14
  161 252.668 -4.67681e-11 2.16497e-13
  162 252.668 -4.67720e-11 4.08573e-13
  163 252.668 -4.69870e-11 -3.50750e-13
  164 252.668 -4.68418e-11 -7.09774e-14
  165 252.668 -4.68306e-11 2.86888e-13
  166 252.668 -4.75119e-11 1.10141e-13
  167 252.668 -4.66240e-11 1.02643e-14
  168 252.668 -4.71768e-11 1.71618e-14
  169 252.668 -4.69926e-11 4.74524e-14
  170 252.668 -4.69557e-11 -6.58976e-13
  171 252.668 -4.69088e-11 1.14699e-14
  172 252.668 -4.68111e-11 -3.88583e-13
  173 252.668 -4.67133e-11 -1.37483e-12
  174 252.668 -4.68111e-11 3.18439e-14
  175 252.668 -4.74756e-11 -3.59908e-13
  176 252.668 -4.68697e-11 6.16290e-14
  177 252.668 -4.71824e-11 6.24397e-14
  178 252.668 -4.68306e-11 2.09698e-13
  179 252.668 -4.67915e-11 1.46684e-13
  180 252.668 -4.68083e-11 1.34319e-13
  181 252.668 -4.67329e-11 -6.34837e-14
  182 252.668 -4.70261e-11 1.62163e-12
  183 252.668 -4.64593e-11 -2.20765e-13
  184 252.668 -4.69557e-11 -1.74122e-13
  185 252.668 -4.68306e-11 2.84499e-13
  186 252.668 -4.67446e-11 -4.20980e-13
  187 252.668 -4.70065e-11 3.35363e-13
  188 252.668 -4.65804e-11 1.35240e-13
  189 252.668 -4.66977e-11 1.72136e-13
  190 252.668 -4.66743e-11 2.30709e-13
  191 252.668 -4.68893e-11 5.83142e-13
  192 252.668 -4.68585e-11 -1.26129e-13
  193 252.668 -4.70730e-11 9.03098e-13
  194 252.668 -4.67524e-11 -5.73453e-14
  195 252.668 -4.73779e-11 4.11771e-13
  196 252.668 -4.70261e-11 -2.94165e-13
  197 252.668 -4.70065e-11 9.93248e-14
  198 252.668 -4.71629e-11 3.12880e-13
  199 252.668 -4.68893e-11 1.77287e-13
  200 252.668 -4.69088e-11 -3.41606e-13
  201 252.668 -4.62833e-11 -1.05475e-12
  202 252.668 -4.65804e-11 -2.20103e-13
  203 252.668 -4.68893e-11 1.22789e-13
  204 252.668 -4.67329e-11 2.81352e-13
  205 252.668 -4.67915e-11 3.56598e-13
  206 252.668 -4.68853e-11 3.41384e-13
  207 252.668 -4.68853e-11 -2.01409e-12
  208 252.668 -4.72372e-11 1.10963e-12
  209 252.668 -4.71043e-11 -2.18205e-13
  210 252.668 -4.73583e-11 2.92593e-13
  211 252.668 -4.68920e-11 1.19302e-13
  212 252.668 -4.69323e-11 3.78104e-13
  213 252.668 -4.71433e-11 -1.13955e-12
  214 252.668 -4.61074e-11 -9.60670e-13
  215 252.668 -4.71903e-11 -6.18803e-13
  216 252.668 -4.66743e-11 -1.60354e-13
  217 252.668 -4.71043e-11 -2.35626e-13
  218 252.668 -4.71433e-11 4.76268e-13
  219 252.668 -4.69323e-11 6.31015e-14
  220 252.668 -4.67524e-11 4.71886e-13
  221 252.668 -4.67133e-11 3.55779e-13
  222 252.668 -4.66352e-11 1.93414e-13
  223 252.668 -4.66508e-11 3.57348e-14
  224 252.668 -4.68619e-11 5.03553e-14
  225 252.668 -4.70261e-11 -5.57153e-13
  226 252.668 -4.67681e-11 2.76980e-13
  227 252.668 -4.67915e-11 1.78836e-13
  228 252.668 -4.65101e-11 6.96812e-13
  229 252.668 -4.71238e-11 1.11608e-13
  230 252.668 -4.70456e-11 -4.72337e-13
  231 252.668 -4.68150e-11 2.46393e-13
  232 252.668 -4.70730e-11 2.54303e-13
  233 252.668 -4.69557e-11 1.33979e-13
  234 252.668 -4.61270e-11 -1.18352e-12
  235 252.668 -4.62755e-11 1.64566e-12
  236 252.668 -4.69926e-11 5.86604e-14
  237 252.668 -4.66977e-11 -1.36607e-14
  238 252.668 -4.65804e-11 2.94484e-13
  239 252.668 -4.66743e-11 4.04587e-13
  240 252.668 -4.68853e-11 -1.50064e-13
  241 252.668 -4.71433e-11 -2.49814e-13
</Section>

newXOutput 133

<Section columns = "stress_xx | stress_yy | stress_xy">
  1 236.004 -4.39977e-11 1.79014e-13
  2 236.004 -4.30175e-11 1.50961e-13
  3 236.004 -4.35621e-11 1.12475e-14
  4 236.004 -4.36165e-11 -7.33209e-14
  5 236.004 -4.38888e-11 4.83867e-13
  6 236.004 -4.39977e-11 9.36671e-13
  7 236.004 -4.37526e-11 9.02437e-13
  8 236.004 -4.35984e-11 9.95787e-13
  9 236.004 -4.38162e-11 1.12242e-12
  10 236.004 -4.35258e-11 1.33606e-12
  11 236.004 -4.35621e-11 9.34771e-13
  12 236.004 -4.35984e-11 5.02729e-13
  13 236.004 -4.34531e-11 -2.58178e-13
  14 236.004 -4.33805e-11 -6.06535e-13
  15 236.004 -4.35621e-11 -8.14355e-13
  16 236.004 -4.36347e-11 2.22038e-15
  17 236.004 -4.36347e-11 2.49147e-13
  18 236.004 -4.35984e-11 4.49319e-13
  19 236.004 -4.35621e-11 4.30617e-13
  20 236.004 -4.35621e-11 6.75323e-13
  21 236.004 -4.34168e-11 7.66613e-13
  22 236.004 -4.34531e-11 7.39670e-13
  23 236.004 -4.32716e-11 4.95753e-13
  24 236.004 -4.35258e-11 -6.32368e-14
  25 236.004 -4.35076e-11 2.80531e-14
  26 236.004 -4.38343e-11 -5.69828e-15
  27 236.004 -4.41792e-11 -1.94268e-13
  28 236.004 -4.39977e-11 1.78138e-13
  29 236.004 -4.35621e-11 1.22732e-13
  30 236.004 -4.35258e-11 -3.69370e-14
  31 236.004 -4.35621e-11 3.08338e-13
  32 236.004 -4.35076e-11 4.41829e-13
  33 236.004 -4.35348e-11 -9.39457e-14
  34 236.004 -4.35621e-11 -4.93147e-14
  35 236.004 -4.37254e-11 1.86362e-13
  36 236.004 -4.35621e-11 6.50063e-13
  37 236.004 -4.34894e-11 5.79941e-13
  38 236.004 -4.35258e-11 8.07058e-13
  39 236.004 -4.35984e-11 1.16729e-12
  40 236.004 -4.36710e-11 1.38402e-12
  41 236.004 -4.33079e-11 1.27111e-12
  42 236.004 -4.33805e-11 8.58602e-13
  43 236.004 -4.33442e-11 5.70852e-13
  44 236.004 -4.36347e-11 3.07716e-13
  45 236.004 -4.36710e-11 9.43977e-14
  46 236.004 -4.35258e-11 7.44253e-14
  47 236.004 -4.35984e-11 -6.66773e-14
  48 236.004 -4.36710e-11 -1.12580e-13
  49 236.004 -4.36347e-11 -1.20650e-13
  50 236.004 -4.33442e-11 1.25147e-13
  51 236.004 -4.31264e-11 6.66260e-14
  52 236.004 -4.30175e-11 5.01286e-14
  53 236.004 -4.28360e-11 -3.92295e-15
  54 236.004 -4.28542e-11 -8.02803e-14
  55 236.004 -4.31264e-11 -1.26239e-13
  56 236.004 -4.35984e-11 -1.54567e-13
  57 236.004 -4.28723e-11 5.46984e-14
  58 236.004 -4.41792e-11 -1.71147e-12
  59 236.004 -4.32509e-11 -2.45774e-13
  60 236.004 -4.38525e-11 1.74145e-12
  61 236.004 -4.30538e-11 -8.66936e-13
  62 236.004 -4.30901e-11 1.42126e-12
  63 236.004 -4.40195e-11 -4.27111e-13
  64 236.004 -4.40521e-11 1.90287e-13
  65 236.004 -4.29449e-11 5.55901e-13
  66 236.004 -4.28542e-11 -4.68931e-13
  67 236.004 -4.37617e-11 1.40938e-12
  68 236.004 -4.35621e-11 -1.67182e-12
  69 236.004 -4.37176e-11 1.99148e-12
  70 236.004 -4.34668e-11 1.89056e-12
  71 236.004 -4.30357e-11 -1.62813e-12
  72 236.004 -4.32042e-11 -2.05927e-12
  73 236.004 -4.38888e-11 -7.22897e-13
  74 236.004 -4.29957e-11 1.22683e-12
  75 236.004 -4.36710e-11 2.01836e-12
  76 236.004 -4.38888e-11 -2.34960e-13
  77 236.004 -4.29086e-11 2.36938e-14
  78 236.004 -4.36165e-11 5.70678e-13
  79 236.004 -4.30175e-11 5.55617e-14
  80 236.004 -4.33805e-11 -5.19686e-13
  81 236.004 -4.39977e-11 -1.48967e-12
  82 236.004 -4.37073e-11 9.01710e-13
  83 236.004 -4.28905e-11 1.02859e-13
  84 236.004 -4.34531e-11 -1.65659e-12
  85 236.004 -4.36710e-11 -2.32086e-12
  86 236.004 -4.34531e-11 -1.04716e-12
  87 236.004 -4.33261e-11 5.51010e-13
  88 236.004 -4.34314e-11 -1.27664e-13
  89 236.004 -4.34967e-11 -8.02210e-13
  90 236.004 -4.31264e-11 -2.30325e-12
  91 236.004 -4.35185e-11 1.50313e-12
  92 236.004 -4.28215e-11 8.85080e-14
  93 236.004 -4.42373e-11 -1.31391e-12
  94 236.004 -4.35621e-11 -2.37222e-12
  95 236.004 -4.34314e-11 1.37259e-12
  96 236.004 -4.39251e-11 -7.29530e-13
  97 236.004 -4.34531e-11 -1.93886e-12
  98 236.004 -4.32136e-11 8.86771e-13
  99 236.004 -4.33261e-11 -2.20199e-12
  100 236.004 -4.30393e-11 -2.55802e-13
  101 236.004 -4.31990e-11 -2.50825e-12
  102 236.004 -4.38452e-11 2.42287e-13
  103 236.004 -4.40884e-11 1.81036e-12
  104 236.004 -4.29740e-11 9.08916e-13
  105 236.004 -4.34314e-11 8.34594e-13
  106 236.004 -4.35439e-11 -8.97543e-13
  107 236.004 -4.37980e-11 1.23785e-13
  108 236.004 -4.29812e-11 9.78941e-14
  109 236.004 -4.27779e-11 -1.16145e-13
  110 236.004 -4.40412e-11 3.91132e-13
  111 236.004 -4.33170e-11 2.60180e-13
  112 236.004 -4.32716e-11 1.82128e-12
  113 236.004 -4.34687e-11 7.07828e-13
  114 236.004 -4.37487e-11 6.02477e-13
  115 236.004 -4.29631e-11 -7.90982e-13
  116 236.004 -4.38888e-11 -3.71626e-13
  117 236.004 -4.40884e-11 5.06682e-13
  118 236.004 -4.29449e-11 5.97895e-13
  119 236.004 -4.36398e-11 -1.98054e-12
  120 236.004 -4.36710e-11 3.75734e-13
  121 236.004 -4.29086e-11 -2.51115e-13
  122 236.004 -4.35309e-11 1.95949e-12
  123 236.004 -4.38343e-11 2.77641e-12
  124 236.004 -4.39666e-11 4.74381e-13
  125 236.004 -4.32490e-11 1.60181e-12
  126 236.004 -4.33579e-11 -1.04284e-12
  127 236.004 -4.38732e-11 -1.19616e-12
  128 236.004 -4.37118e-11 -1.24590e-12
  129 236.004 -4.33579e-11 7.91795e-13
  130 236.004 -4.33805e-11 8.21837e-13
  131 236.004 -4.33987e-11 -1.80820e-12
  132 236.004 -4.34259e-11 9.12064e-13
  133 236.004 -4.35776e-11 -1.29290e-12
  134 236.004 -4.30486e-11 -1.64198e-12
  135 236.004 -4.32976e-11 -6.00940e-13
  136 236.004 -4.34843e-11 3.16605e-13
  137 236.004 -4.38577e-11 2.29862e-12
  138 236.004 -4.31083e-11 6.82385e-13
  139 236.004 -4.28308e-11 -1.50290e-14
  140 236.004 -4.42466e-11 -4.33354e-14
  141 236.004 -4.30357e-11 -1.08129e-13
  142 236.004 -4.34168e-11 -4.35628e-13
  143 236.004 -4.29397e-11 6.01942e-13
  144 236.004 -4.34749e-11 2.05963e-12
  145 236.004 -4.34531e-11 -6.74045e-14
  146 236.004 -4.34998e-11 9.17983e-13
  147 236.004 -4.35439e-11 9.49116e-13
  148 236.004 -4.27997e-11 -4.01475e-14
  149 236.004 -4.43062e-11 -8.95365e-14
  150 236.004 -4.32172e-11 -8.63190e-13
  151 236.004 -4.29994e-11 -1.54109e-12
  152 236.004 -4.40158e-11 -2.23162e-13
  153 236.004 -4.35984e-11 -6.54005e-13
  154 236.004 -4.35185e-11 -5.80509e-13
  155 236.004 -4.38888e-11 1.55742e-12
  156 236.004 -4.39510e-11 -2.53781e-13
  157 236.004 -4.29086e-11 1.17482e-13
  158 236.004 -4.38706e-11 -1.40393e-12
  159 236.004 -4.39614e-11 -7.67577e-13
  160 236.004 -4.29086e-11 3.07863e-14
  161 236.004 -4.39105e-11 -2.40135e-13
  162 236.004 -4.29994e-11 5.22301e-13
  163 236.004 -4.37980e-11 -9.77859e-13
  164 236.004 -4.37176e-11 -1.02181e-12
  165 236.004 -4.30901e-11 -1.49298e-12
  166 236.004 -4.32353e-11 2.49721e-13
  167 236.004 -4.38265e-11 -1.50686e-13
  168 236.004 -4.36087e-11 2.48997e-13
  169 236.004 -4.32820e-11 -3.13147e-13
  170 236.004 -4.37363e-11 1.81489e-12
  171 236.004 -4.34065e-11 -1.04066e-12
  172 236.004 -4.34168e-11 -9.93844e-13
  173 236.004 -4.36347e-11 7.41605e-13
  174 236.004 -4.35076e-11 -1.35707e-13
  175 236.004 -4.34713e-11 1.41141e-13
  176 236.004 -4.37436e-11 -1.58192e-13
  177 236.004 -4.35076e-11 -1.19451e-13
  178 236.004 -4.28905e-11 1.75586e-13
  179 236.004 -4.36056e-11 1.79440e-13
  180 236.004 -4.27842e-11 2.42147e-14
  181 236.004 -4.40340e-11 -1.24738e-12
  182 236.004 -4.36492e-11 5.65436e-13
  183 236.004 -4.33079e-11 1.71542e-12
  184 236.004 -4.35403e-11 -8.88648e-13
  185 236.004 -4.30901e-11 -1.06754e-12
  186 236.004 -4.36274e-11 -9.23355e-13
  187 236.004 -4.34531e-11 -1.87185e-13
  188 236.004 -4.29957e-11 -3.95259e-13
  189 236.004 -4.30175e-11 -2.99687e-13
  190 236.004 -4.32665e-11 1.41928e-12
  191 236.004 -4.29812e-11 6.66576e-13
  192 236.004 -4.37487e-11 -1.80139e-12
  193 236.004 -4.34967e-11 4.03731e-13
  194 236.004 -4.38343e-11 -1.97636e-13
  195 236.004 -4.30538e-11 4.79341e-13
  196 236.004 -4.37073e-11 7.31294e-13
  197 236.004 -4.29268e-11 -5.56931e-13
  198 236.004 -4.35621e-11 -8.47441e-13
  199 236.004 -4.28360e-11 9.86794e-14
  200 236.004 -4.42336e-11 -1.03198e-12
  201 236.004 -4.35258e-11 1.95583e-12
  202 236.004 -4.36056e-11 3.19586e-12
  203 236.004 -4.31083e-11 -2.38174e-12
  204 236.004 -4.32535e-11 -2.02568e-12
  205 236.004 -4.29268e-11 -2.11227e-13
  206 236.004 -4.32789e-11 -1.18873e-14
  207 236.004 -4.34749e-11 2.28133e-13
  208 236.004 -4.37363e-11 3.90383e-14
  209 236.004 -4.35802e-11 -1.50559e-12
  210 236.004 -4.30901e-11 8.88934e-13
  211 236.004 -4.38110e-11 1.37200e-14
  212 236.004 -4.33878e-11 7.02735e-14
  213 236.004 -4.35621e-11 9.44495e-14
  214 236.004 -4.33261e-11 7.48650e-13
  215 236.004 -4.39977e-11 6.69148e-13
  216 236.004 -4.33442e-11 1.97110e-12
  217 236.004 -4.40158e-11 -1.27609e-12
  218 236.004 -4.30175e-11 1.14327e-12
  219 236.004 -4.38016e-11 -2.32741e-12
  220 236.004 -4.31990e-11 1.48252e-12
  221 236.004 -4.34350e-11 -7.99795e-13
  222 236.004 -4.40158e-11 -9.00574e-13
  223 236.004 -4.33442e-11 9.51120e-16
  224 236.004 -4.31264e-11 -2.50203e-12
  225 236.004 -4.37363e-11 -2.39469e-12
  226 236.004 -4.28651e-11 -1.77778e-13
  227 236.004 -4.34713e-11 -2.03839e-12
  228 236.004 -4.34967e-11 2.20415e-12
  229 236.004 -4.28179e-11 -8.39597e-14
  230 236.004 -4.42336e-11 5.42450e-13
  231 236.004 -4.39323e-11 -4.73469e-13
  232 236.004 -4.28651e-11 1.40810e-13
  233 236.004 -4.39759e-11 -4.00813e-14
  234 236.004 -4.34531e-11 1.46393e-12
  235 236.004 -4.34096e-11 1.15430e-12
  236 236.004 -4.32976e-11 -1.23272e-12
  237 236.004 -4.31700e-11 -2.55854e-12
  238 236.004 -4.30175e-11 -5.21790e-13
  239 236.004 -4.40521e-11 -3.09291e-13
  240 236.004 -4.34531e-11 -7.68260e-13
  241 236.004 -4.35258e-11 -1.43738e-12
</Section>

newXOutput 134

<Section columns = "stress_xx | stress_yy | stress_xy">
  1 219.402 -4.02659e-11 2.87165e-15
  2 219.402 -4.00142e-11 2.01143e-13
  3 219.402 -4.00646e-11 -5.73571e-14
  4 219.402 -3.97122e-11 5.96929e-14
  5 219.402 -4.00310e-11 1.35535e-13
  6 219.402 -4.01652e-11 3.82185e-13
  7 219.402 -4.01904e-11 4.72695e-13
  8 219.402 -4.02323e-11 5.58420e-13
  9 219.402 -4.01652e-11 5.79493e-13
  10 219.402 -4.00646e-11 6.81029e-13
  11 219.402 -4.00646e-11 4.62641e-13
  12 219.402 -3.97290e-11 4.06130e-13
  13 219.402 -3.98129e-11 2.00431e-13
  14 219.402 -3.99639e-11 -1.62798e-14
  15 219.402 -4.00142e-11 6.46548e-14
  16 219.402 -3.99975e-11 3.19923e-13
  17 219.402 -4.00310e-11 9.64306e-16
  18 219.402 -4.00646e-11 -1.75277e-13
  19 219.402 -4.00646e-11 -2.77778e-13
  20 219.402 -3.98297e-11 -2.01143e-13
  21 219.402 -4.02995e-11 -2.59569e-13
  22 219.402 -4.02659e-11 -1.52304e-13
  23 219.402 -4.03330e-11 7.37412e-14
  24 219.402 -3.98968e-11 -8.42919e-14
  25 219.402 -3.96619e-11 2.58662e-14
  26 219.402 -3.97374e-11 4.20325e-14
  27 219.402 -3.96955e-11 4.52658e-14
  28 219.402 -3.98129e-11 -6.50057e-14
  29 219.402 -3.99136e-11 5.49656e-14
  30 219.402 -3.99639e-11 6.32756e-14
  31 219.402 -3.99975e-11 2.48793e-14
  32 219.402 -3.98632e-11 3.01038e-13
  33 219.402 -4.00646e-11 -1.24454e-13
  34 219.402 -4.01988e-11 -1.66133e-13
  35 219.402 -4.00142e-11 -1.09963e-13
  36 219.402 -4.00981e-11 -1.64558e-13
  37 219.402 -3.98632e-11 -3.23682e-13
  38 219.402 -3.99639e-11 -4.22051e-13
  39 219.402 -3.98632e-11 -5.06865e-13
  40 219.402 -3.99975e-11 -5.23889e-13
  41 219.402 -4.01988e-11 -1.50215e-13
  42 219.402 -4.01317e-11 1.18325e-13
  43 219.402 -3.99639e-11 2.42815e-13
  44 219.402 -4.01317e-11 3.85736e-13
  45 219.402 -3.99975e-11 5.48272e-13
  46 219.402 -4.01988e-11 7.34278e-13
  47 219.402 -4.01988e-11 7.13215e-13
  48 219.402 -4.00981e-11 5.15206e-13
  49 219.402 -3.99304e-11 2.34005e-13
  50 219.402 -4.00646e-11 -1.91550e-14
  51 219.402 -4.00646e-11 -1.93996e-14
  52 219.402 -3.99891e-11 -3.28007e-14
  53 219.402 -4.01317e-11 3.35381e-15
  54 219.402 -4.01652e-11 3.16999e-14
  55 219.402 -4.00646e-11 0.00000
  56 219.402 -4.01652e-11 3.71188e-14
  57 219.402 -4.01149e-11 -4.81571e-13
  58 219.402 -3.98297e-11 -2.69272e-13
  59 219.402 -4.00646e-11 -5.60401e-13
  60 219.402 -4.00142e-11 -3.25575e-13
  61 219.402 -3.99975e-11 5.11973e-13
  62 219.402 -4.00814e-11 1.45756e-13
  63 219.402 -4.01652e-11 9.18691e-13
  64 219.402 -3.99639e-11 3.72014e-13
  65 219.402 -4.01149e-11 1.50826e-13
  66 219.402 -4.00646e-11 2.17308e-13
  67 219.402 -4.02323e-11 -1.93514e-13
  68 219.402 -4.00310e-11 9.19908e-13
  69 219.402 -3.99927e-11 -1.84740e-13
  70 219.402 -3.99387e-11 -4.84846e-14
  71 219.402 -4.02156e-11 3.06150e-13
  72 219.402 -3.99064e-11 5.64587e-13
  73 219.402 -3.98489e-11 4.77071e-13
  74 219.402 -4.01854e-11 -7.37292e-14
  75 219.402 -4.00042e-11 5.49613e-14
  76 219.402 -3.97794e-11 7.56698e-14
  77 219.402 -4.03330e-11 -1.61644e-13
  78 219.402 -3.99807e-11 -1.34174e-13
  79 219.402 -4.00933e-11 -5.66049e-13
  80 219.402 -3.98800e-11 -6.57928e-13
  81 219.402 -3.98465e-11 -4.30436e-13
  82 219.402 -3.98968e-11 -3.16238e-13
  83 219.402 -4.00310e-11 -4.98154e-13
  84 219.402 -4.02323e-11 -4.89241e-16
  85 219.402 -3.97458e-11 9.45873e-14
  86 219.402 -3.99807e-11 -1.80319e-13
  87 219.402 -3.99639e-11 -2.87917e-13
  88 219.402 -3.98028e-11 -8.32812e-14
  89 219.402 -3.98834e-11 9.59015e-14
  90 219.402 -3.98297e-11 1.48697e-13
  91 219.402 -4.00444e-11 -5.46886e-13
  92 219.402 -4.00646e-11 -4.46276e-13
  93 219.402 -3.97827e-11 -1.40817e-14
  94 219.402 -4.00847e-11 5.32638e-15
  95 219.402 -4.01048e-11 -7.56908e-13
  96 219.402 -3.98800e-11 1.33443e-13
  97 219.402 -4.01048e-11 2.30464e-13
  98 219.402 -3.99035e-11 -6.92813e-13
  99 219.402 -3.99639e-11 1.42959e-13
  100 219.402 -4.00646e-11 3.96548e-13
  101 219.402 -3.99639e-11 2.07372e-13
  102 219.402 -3.99236e-11 6.54175e-13
  103 219.402 -4.00646e-11 -1.52715e-13
  104 219.402 -4.01652e-11 1.69449e-14
  105 219.402 -4.00042e-11 -5.21767e-13
  106 219.402 -4.00310e-11 5.62447e-13
  107 219.402 -3.99471e-11 1.51822e-13
  108 219.402 -4.01652e-11 -7.02403e-14
  109 219.402 -4.00646e-11 4.05860e-14
  110 219.402 -3.98632e-11 -1.51862e-13
  111 219.402 -4.00646e-11 -2.08561e-13
  112 219.402 -3.98129e-11 -4.70100e-14
  113 219.402 -3.99064e-11 -4.58521e-13
  114 219.402 -3.98920e-11 -2.32601e-13
  115 219.402 -4.00478e-11 2.59996e-13
  116 219.402 -4.02055e-11 2.25282e-13
  117 219.402 -4.00142e-11 4.14341e-13
  118 219.402 -4.01988e-11 2.13834e-13
  119 219.402 -3.99351e-11 1.60405e-13
  120 219.402 -3.99807e-11 -1.37765e-13
  121 219.402 -4.01509e-11 4.03764e-14
  122 219.402 -3.99495e-11 -2.50897e-14
  123 219.402 -4.00142e-11 1.12314e-14
  124 219.402 -3.99495e-11 -4.60516e-13
  125 219.402 -4.01652e-11 -3.02733e-14
  126 219.402 -4.01023e-11 1.90678e-13
  127 219.402 -3.97338e-11 9.07540e-13
  128 219.402 -3.99387e-11 3.35877e-14
  129 219.402 -4.00268e-11 -3.07529e-13
  130 219.402 -3.99136e-11 -3.51471e-13
  131 219.402 -3.98800e-11 1.40401e-13
  132 219.402 -4.00394e-11 -3.94953e-13
  133 219.402 -3.98920e-11 -1.28687e-13
  134 219.402 -4.00646e-11 4.11379e-13
  135 219.402 -4.01509e-11 -2.62673e-14
  136 219.402 -3.99495e-11 -5.65430e-14
  137 219.402 -3.99064e-11 -6.66406e-14
  138 219.402 -3.98632e-11 -5.14373e-13
  139 219.402 -4.01365e-11 -1.41019e-13
  140 219.402 -4.00646e-11 -2.24858e-13
  141 219.402 -4.01149e-11 -2.33543e-13
  142 219.402 -3.99136e-11 3.72833e-13
  143 219.402 -4.01796e-11 -4.38269e-14
  144 219.402 -3.98431e-11 2.48810e-14
  145 219.402 -4.01048e-11 -1.92616e-13
  146 219.402 -4.00071e-11 -4.67790e-13
  147 219.402 -3.98800e-11 -5.30008e-13
  148 219.402 -4.02156e-11 -3.01346e-16
  149 219.402 -3.97794e-11 3.77215e-14
  150 219.402 -4.00814e-11 4.07411e-13
  151 219.402 -3.98800e-11 6.58286e-13
  152 219.402 -3.98297e-11 4.24462e-13
  153 219.402 -3.99471e-11 4.05293e-13
  154 219.402 -3.99438e-11 -4.72840e-13
  155 219.402 -3.99304e-11 -4.67760e-13
  156 219.402 -3.99495e-11 2.31221e-13
  157 219.402 -4.01077e-11 -1.74372e-13
  158 219.402 -3.98297e-11 -8.75479e-13
  159 219.402 -4.00646e-11 4.14880e-13
  160 219.402 -4.02256e-11 -8.14678e-14
  161 219.402 -3.96015e-11 -2.00803e-15
  162 219.402 -4.01317e-11 -5.93938e-13
  163 219.402 -3.99136e-11 -8.80215e-13
  164 219.402 -4.00933e-11 5.91141e-13
  165 219.402 -4.01149e-11 2.34724e-13
  166 219.402 -4.00790e-11 -3.72692e-14
  167 219.402 -3.98920e-11 -4.16678e-14
  168 219.402 -3.98489e-11 1.50177e-13
  169 219.402 -4.01077e-11 5.24928e-14
  170 219.402 -4.00444e-11 -7.81600e-14
  171 219.402 -3.99783e-11 2.27315e-13
  172 219.402 -3.98632e-11 2.23663e-13
  173 219.402 -4.00142e-11 -2.99860e-13
  174 219.402 -4.01317e-11 -7.80735e-14
  175 219.402 -3.98800e-11 -4.13160e-14
  176 219.402 -4.00814e-11 6.09429e-14
  177 219.402 -3.98465e-11 -6.70367e-14
  178 219.402 -4.00646e-11 -5.93762e-13
  179 219.402 -4.01250e-11 3.35622e-13
  180 219.402 -4.01077e-11 -2.04544e-13
  181 219.402 -3.99136e-11 6.22050e-14
  182 219.402 -3.98632e-11 -3.34586e-13
  183 219.402 -3.98632e-11 -1.87537e-13
  184 219.402 -3.98834e-11 5.80457e-14
  185 219.402 -4.01820e-11 3.05431e-13
  186 219.402 -4.00042e-11 1.73567e-13
  187 219.402 -3.98129e-11 -2.11012e-13
  188 219.402 -4.00042e-11 -5.65957e-13
  189 219.402 -4.01048e-11 2.49425e-13
  190 219.402 -4.02084e-11 -1.53497e-13
  191 219.402 -4.00814e-11 -4.06261e-13
  192 219.402 -3.99064e-11 5.33672e-13
  193 219.402 -4.00444e-11 -2.04666e-13
  194 219.402 -3.99304e-11 1.74331e-13
  195 219.402 -4.01149e-11 3.13954e-14
  196 219.402 -3.99807e-11 -6.75149e-14
  197 219.402 -3.99639e-11 8.66220e-14
  198 219.402 -3.99975e-11 -2.85435e-13
  199 219.402 -4.00814e-11 -4.25056e-13
  200 219.402 -3.98297e-11 -3.40755e-13
  201 219.402 -3.99975e-11 -4.76056e-14
  202 219.402 -4.00243e-11 2.46128e-13
  203 219.402 -3.98968e-11 3.60868e-13
  204 219.402 -3.99807e-11 5.97066e-13
  205 219.402 -4.01149e-11 2.21376e-13
  206 219.402 -3.99840e-11 -6.98216e-14
  207 219.402 -4.00444e-11 3.15118e-13
  208 219.402 -4.00646e-11 -1.09377e-13
  209 219.402 -4.00646e-11 4.88571e-14
  210 219.402 -3.99304e-11 -4.07741e-13
  211 219.402 -4.00071e-11 2.22494e-13
  212 219.402 -4.02458e-11 -1.03456e-13
  213 219.402 -3.99438e-11 9.13087e-14
  214 219.402 -3.99807e-11 -3.50722e-13
  215 219.402 -3.97626e-11 -3.17924e-13
  216 219.402 -4.01854e-11 1.15713e-13
  217 219.402 -3.99807e-11 3.42500e-13
  218 219.402 -4.00646e-11 -3.35831e-13
  219 219.402 -3.98632e-11 2.42529e-13
  220 219.402 -4.00646e-11 2.84237e-13
  221 219.402 -4.00478e-11 5.74302e-13
  222 219.402 -3.99639e-11 2.33721e-13
  223 219.402 -3.99639e-11 3.85195e-13
  224 219.402 -4.00243e-11 7.15403e-14
  225 219.402 -4.00847e-11 8.67878e-14
  226 219.402 -4.00444e-11 2.96691e-13
  227 219.402 -4.00981e-11 6.97918e-13
  228 219.402 -3.98632e-11 2.03739e-13
  229 219.402 -4.02659e-11 6.11786e-14
  230 219.402 -4.00142e-11 -5.98439e-15
  231 219.402 -3.99236e-11 9.13518e-13
  232 219.402 -4.00847e-11 -1.55325e-13
  233 219.402 -4.00444e-11 4.61209e-13
  234 219.402 -4.01485e-11 -3.49860e-13
  235 219.402 -4.00243e-11 -4.34281e-13
  236 219.402 -4.00358e-11 8.44570e-14
  237 219.402 -3.96619e-11 7.88261e-14
  238 219.402 -3.99840e-11 1.57681e-13
  239 219.402 -4.00814e-11 6.35543e-13
  240 219.402 -4.00243e-11 2.57470e-13
  241 219.402 -3.98800e-11 8.38097e-14
</Section>

newXOutput 135

<Section columns = "stress_xx | stress_yy | stress_xy">
  1 202.860 -3.65565e-11 -6.79707e-14
  2 202.860 -3.67416e-11 -9.48866e-14
  3 202.860 -3.66028e-11 1.12665e-13
  4 202.860 -3.65565e-11 9.80922e-15
  5 202.860 -3.67107e-11 -2.11584e-13
  6 202.860 -3.66490e-11 -3.45702e-13
  7 202.860 -3.67184e-11 -3.22602e-13
  8 202.860 -3.66490e-11 -3.32541e-13
  9 202.860 -3.66182e-11 -3.82693e-13
  10 202.860 -3.68341e-11 -4.25768e-13
  11 202.860 -3.67416e-11 -1.94361e-13
  12 202.860 -3.65565e-11 -5.58202e-14
  13 202.860 -3.68573e-11 4.42490e-14
  14 202.860 -3.67724e-11 1.13629e-13
  15 202.860 -3.66490e-11 1.29998e-14
  16 202.860 -3.65256e-11 -3.50845e-13
  17 202.860 -3.66490e-11 -4.50320e-13
  18 202.860 -3.65256e-11 -3.72077e-13
  19 202.860 -3.66182e-11 -2.71773e-13
  20 202.860 -3.65256e-11 -5.26902e-13
  21 202.860 -3.68650e-11 -6.72160e-13
  22 202.860 -3.68650e-11 -5.41887e-13
  23 202.860 -3.65256e-11 -2.30358e-13
  24 202.860 -3.66182e-11 5.99381e-14
  25 202.860 -3.66028e-11 -4.74433e-14
  26 202.860 -3.66722e-11 4.02680e-14
  27 202.860 -3.65565e-11 -7.90722e-15
  28 202.860 -3.67416e-11 -1.18342e-13
  29 202.860 -3.67416e-11 -1.18608e-14
  30 202.860 -3.67107e-11 -5.18911e-15
  31 202.860 -3.66182e-11 2.24937e-13
  32 202.860 -3.66490e-11 2.23127e-13
  33 202.860 -3.66028e-11 1.69668e-13
  34 202.860 -3.65565e-11 1.65915e-13
  35 202.860 -3.65796e-11 3.26866e-13
  36 202.860 -3.66490e-11 3.82424e-13
  37 202.860 -3.66182e-11 4.03104e-13
  38 202.860 -3.67416e-11 3.98195e-13
  39 202.860 -3.67416e-11 4.20168e-13
  40 202.860 -3.65565e-11 4.33855e-13
  41 202.860 -3.65873e-11 3.28949e-13
  42 202.860 -3.67107e-11 1.31609e-13
  43 202.860 -3.66182e-11 9.14530e-14
  44 202.860 -3.66182e-11 1.69250e-13
  45 202.860 -3.66182e-11 1.29121e-13
  46 202.860 -3.66182e-11 9.49772e-14
  47 202.860 -3.66182e-11 6.91083e-14
  48 202.860 -3.66182e-11 9.74031e-14
  49 202.860 -3.66490e-11 3.94333e-14
  50 202.860 -3.66490e-11 1.76875e-14
  51 202.860 -3.67416e-11 -8.89562e-15
  52 202.860 -3.66259e-11 1.23206e-14
  53 202.860 -3.66490e-11 -3.69369e-14
  54 202.860 -3.65796e-11 -1.00670e-14
  55 202.860 -3.65565e-11 0.00000
  56 202.860 -3.65873e-11 2.78338e-14
  57 202.860 -3.67261e-11 -3.40539e-13
  58 202.860 -3.66182e-11 -1.21293e-13
  59 202.860 -3.66226e-11 -3.82922e-13
  60 202.860 -3.66490e-11 9.39786e-14
  61 202.860 -3.67416e-11 -3.65055e-13
  62 202.860 -3.67416e-11 3.73615e-13
  63 202.860 -3.66675e-11 -5.54368e-13
  64 202.860 -3.66028e-11 -2.90400e-13
  65 202.860 -3.65873e-11 2.12989e-13
  66 202.860 -3.67724e-11 -5.04496e-14
  67 202.860 -3.68650e-11 -6.01903e-15
  68 202.860 -3.66490e-11 -3.59427e-14
  69 202.860 -3.66226e-11 -3.64589e-14
  70 202.860 -3.66375e-11 5.05873e-14
  71 202.860 -3.67107e-11 1.71630e-13
  72 202.860 -3.67151e-11 3.25101e-13
  73 202.860 -3.65829e-11 -1.31122e-13
  74 202.860 -3.66305e-11 2.35161e-13
  75 202.860 -3.67046e-11 2.31320e-13
  76 202.860 -3.66953e-11 -1.00353e-13
  77 202.860 -3.66644e-11 -1.54590e-13
  78 202.860 -3.67416e-11 9.34645e-14
  79 202.860 -3.67812e-11 -4.64952e-13
  80 202.860 -3.66644e-11 -4.25244e-13
  81 202.860 -3.67724e-11 -5.18911e-14
  82 202.860 -3.66336e-11 -1.64563e-13
  83 202.860 -3.67261e-11 -4.63009e-13
  84 202.860 -3.66644e-11 4.35887e-13
  85 202.860 -3.65719e-11 8.45038e-13
  86 202.860 -3.67261e-11 4.10631e-13
  87 202.860 -3.66182e-11 2.12460e-14
  88 202.860 -3.68156e-11 8.06409e-15
  89 202.860 -3.66305e-11 2.12219e-13
  90 202.860 -3.68650e-11 5.38493e-13
  91 202.860 -3.66490e-11 -9.26908e-15
  92 202.860 -3.65935e-11 -2.80704e-13
  93 202.860 -3.67231e-11 -8.90876e-14
  94 202.860 -3.66120e-11 8.58951e-13
  95 202.860 -3.67601e-11 5.26065e-14
  96 202.860 -3.65102e-11 -6.72258e-13
  97 202.860 -3.67231e-11 8.12581e-13
  98 202.860 -3.66490e-11 -1.68394e-14
  99 202.860 -3.66799e-11 6.79939e-13
  100 202.860 -3.68156e-11 -2.44380e-13
  101 202.860 -3.68033e-11 6.17377e-13
  102 202.860 -3.66490e-11 -7.16095e-13
  103 202.860 -3.67107e-11 -5.67049e-14
  104 202.860 -3.66305e-11 2.33332e-13
  105 202.860 -3.65380e-11 5.53404e-15
  106 202.860 -3.66182e-11 -5.68415e-13
  107 202.860 -3.65873e-11 9.79124e-14
  108 202.860 -3.65719e-11 1.34944e-14
  109 202.860 -3.67786e-11 -2.17887e-14
  110 202.860 -3.67971e-11 -9.58601e-14
  111 202.860 -3.67300e-11 6.78513e-14
  112 202.860 -3.65565e-11 1.18512e-13
  113 202.860 -3.66755e-11 4.43424e-14
  114 202.860 -3.66358e-11 1.74095e-13
  115 202.860 -3.67416e-11 -5.75036e-13
  116 202.860 -3.66490e-11 5.72795e-14
  117 202.860 -3.65256e-11 -3.65939e-13
  118 202.860 -3.66028e-11 2.26974e-13
  119 202.860 -3.67019e-11 6.37901e-13
  120 202.860 -3.66182e-11 2.04948e-13
  121 202.860 -3.67019e-11 -4.26090e-13
  122 202.860 -3.66358e-11 1.09044e-13
  123 202.860 -3.66336e-11 -5.15601e-14
  124 202.860 -3.67284e-11 -1.85196e-14
  125 202.860 -3.67647e-11 1.90880e-13
  126 202.860 -3.66375e-11 2.52488e-13
  127 202.860 -3.65565e-11 -5.37294e-14
  128 202.860 -3.66375e-11 3.92449e-13
  129 202.860 -3.66490e-11 2.84407e-14
  130 202.860 -3.66799e-11 -7.02421e-14
  131 202.860 -3.68495e-11 4.18240e-13
  132 202.860 -3.66375e-11 6.13674e-14
  133 202.860 -3.65433e-11 3.94245e-13
  134 202.860 -3.67151e-11 9.17275e-14
  135 202.860 -3.68473e-11 2.79147e-13
  136 202.860 -3.66490e-11 1.19789e-14
  137 202.860 -3.66358e-11 3.50070e-14
  138 202.860 -3.66336e-11 -9.79722e-14
  139 202.860 -3.66755e-11 -2.09416e-13
  140 202.860 -3.66887e-11 -1.09205e-13
  141 202.860 -3.67878e-11 -5.68314e-13
  142 202.860 -3.67570e-11 4.64059e-14
  143 202.860 -3.66094e-11 7.72572e-14
  144 202.860 -3.66860e-11 1.60404e-14
  145 202.860 -3.66120e-11 3.93334e-14
  146 202.860 -3.67151e-11 -2.70196e-14
  147 202.860 -3.65719e-11 2.19121e-13
  148 202.860 -3.67261e-11 -1.00484e-13
  149 202.860 -3.67878e-11 -1.66191e-13
  150 202.860 -3.66336e-11 -6.06188e-13
  151 202.860 -3.66490e-11 -6.60429e-14
  152 202.860 -3.67570e-11 -4.23633e-13
  153 202.860 -3.67107e-11 -7.40043e-13
  154 202.860 -3.66120e-11 -5.59456e-13
  155 202.860 -3.67724e-11 9.21055e-14
  156 202.860 -3.67019e-11 -7.28174e-14
  157 202.860 -3.65697e-11 -6.19547e-14
  158 202.860 -3.67107e-11 -1.47253e-13
  159 202.860 -3.65565e-11 -6.31288e-13
  160 202.860 -3.66305e-11 -5.64505e-14
  161 202.860 -3.65750e-11 -4.81315e-14
  162 202.860 -3.67107e-11 -1.07572e-13
  163 202.860 -3.66799e-11 -2.58766e-13
  164 202.860 -3.65300e-11 -1.41971e-13
  165 202.860 -3.68495e-11 1.65984e-13
  166 202.860 -3.66226e-11 5.02501e-14
  167 202.860 -3.65829e-11 7.34028e-14
  168 202.860 -3.67548e-11 3.65276e-14
  169 202.860 -3.66358e-11 7.64251e-14
  170 202.860 -3.67786e-11 1.55640e-13
  171 202.860 -3.67151e-11 3.16263e-13
  172 202.860 -3.67724e-11 1.07955e-13
  173 202.860 -3.66182e-11 2.50563e-14
  174 202.860 -3.66336e-11 -1.26360e-14
  175 202.860 -3.66182e-11 9.54341e-16
  176 202.860 -3.66644e-11 2.18241e-14
  177 202.860 -3.67261e-11 -1.51122e-14
  178 202.860 -3.66644e-11 -3.26445e-13
  179 202.860 -3.66490e-11 -8.99919e-14
  180 202.860 -3.67151e-11 -2.59549e-13
  181 202.860 -3.67878e-11 -2.66389e-13
  182 202.860 -3.66305e-11 1.75650e-13
  183 202.860 -3.66953e-11 1.88668e-13
  184 202.860 -3.65935e-11 9.88322e-14
  185 202.860 -3.68341e-11 7.04799e-14
  186 202.860 -3.66490e-11 1.16532e-13
  187 202.860 -3.66799e-11 1.41904e-13
  188 202.860 -3.66860e-11 -6.17158e-13
  189 202.860 -3.67231e-11 -5.18818e-13
  190 202.860 -3.65961e-11 1.93187e-13
  191 202.860 -3.67416e-11 8.07504e-14
  192 202.860 -3.66490e-11 4.86820e-13
  193 202.860 -3.66490e-11 2.60363e-13
  194 202.860 -3.66028e-11 -8.48499e-14
  195 202.860 -3.65873e-11 1.44720e-13
  196 202.860 -3.67878e-11 8.44978e-15
  197 202.860 -3.67878e-11 1.09791e-13
  198 202.860 -3.66953e-11 3.51894e-13
  199 202.860 -3.66182e-11 -2.02088e-13
  200 202.860 -3.66028e-11 -1.32220e-13
  201 202.860 -3.65256e-11 1.09667e-13
  202 202.860 -3.65935e-11 2.18544e-14
  203 202.860 -3.68650e-11 4.01397e-13
  204 202.860 -3.66490e-11 3.81718e-13
  205 202.860 -3.68495e-11 -2.97436e-13
  206 202.860 -3.66675e-11 -5.51892e-14
  207 202.860 -3.66305e-11 7.25714e-14
  208 202.860 -3.66305e-11 1.61230e-13
  209 202.860 -3.67878e-11 4.07300e-13
  210 202.860 -3.66336e-11 6.70540e-14
  211 202.860 -3.66887e-11 -6.50382e-14
  212 202.860 -3.67231e-11 -1.34532e-13
  213 202.860 -3.66675e-11 1.63025e-14
  214 202.860 -3.67261e-11 2.05397e-14
  215 202.860 -3.66860e-11 -8.02746e-14
  216 202.860 -3.67416e-11 3.31954e-13
  217 202.860 -3.65411e-11 8.09510e-14
  218 202.860 -3.66336e-11 1.48326e-13
  219 202.860 -3.67046e-11 8.32751e-13
  220 202.860 -3.65719e-11 3.78038e-13
  221 202.860 -3.66336e-11 -7.39628e-13
  222 202.860 -3.66490e-11 -1.33702e-13
  223 202.860 -3.68711e-11 -8.53556e-14
  224 202.860 -3.67046e-11 6.57944e-13
  225 202.860 -3.67231e-11 7.41676e-13
  226 202.860 -3.66860e-11 -2.28522e-13
  227 202.860 -3.66182e-11 2.83408e-13
  228 202.860 -3.65935e-11 2.69386e-13
  229 202.860 -3.68495e-11 -1.35354e-13
  230 202.860 -3.69729e-11 -1.46552e-13
  231 202.860 -3.66490e-11 -5.88954e-13
  232 202.860 -3.65565e-11 -4.49091e-14
  233 202.860 -3.67786e-11 -6.86752e-15
  234 202.860 -3.66490e-11 1.18118e-13
  235 202.860 -3.65565e-11 2.90032e-13
  236 202.860 -3.67151e-11 2.96239e-13
  237 202.860 -3.67046e-11 7.22638e-13
  238 202.860 -3.67601e-11 -5.83463e-13
  239 202.860 -3.65102e-11 -6.00907e-13
  240 202.860 -3.67231e-11 2.48377e-13
  241 202.860 -3.66953e-11 3.79057e-13
</Section>

newXOutput 136

<Section columns = "stress_xx | stress_yy | stress_xy">
  1 186.380 -3.14957e-11 -1.00150e-12
  2 186.380 -3.12843e-11 1.23925e-12
  3 186.380 -3.33559e-11 -1.96872e-13
  4 186.380 -3.33136e-11 4.11470e-14
  5 186.380 -3.22708e-11 -3.01270e-12
  6 186.380 -3.30176e-11 -5.11414e-12
  7 186.380 -3.29542e-11 -6.31275e-12
  8 186.380 -3.30881e-11 -7.78300e-12
  9 186.380 -3.30881e-11 -8.37609e-12
  10 186.380 -3.34827e-11 -9.17993e-12
  11 186.380 -3.39336e-11 -8.12303e-12
  12 186.380 -3.43846e-11 -6.67685e-12
  13 186.380 -3.46241e-11 -3.79785e-12
  14 186.380 -3.43000e-11 -1.57165e-12
  15 186.380 -3.52583e-11 1.36194e-12
  16 186.380 -3.42437e-11 5.75588e-12
  17 186.380 -3.41873e-11 8.35052e-12
  18 186.380 -3.41027e-11 9.90196e-12
  19 186.380 -3.34263e-11 1.00079e-11
  20 186.380 -3.30881e-11 9.45645e-12
  21 186.380 -3.29472e-11 8.84364e-12
  22 186.380 -3.26935e-11 7.33685e-12
  23 186.380 -3.22144e-11 3.84469e-12
  24 186.380 -3.17071e-11 -6.92352e-14
  25 186.380 -3.19607e-11 -1.08093e-13
  26 186.380 -3.23201e-11 -2.44711e-13
  27 186.380 -3.28626e-11 6.56321e-14
  28 186.380 -3.30388e-11 -3.82170e-14
  29 186.380 -3.31022e-11 0.00000
  30 186.380 -3.32290e-11 -4.36876e-14
  31 186.380 -3.33136e-11 -3.15053e-13
  32 186.380 -3.33559e-11 -3.94850e-13
  33 186.380 -3.33770e-11 -4.61987e-13
  34 186.380 -3.34263e-11 -6.07449e-13
  35 186.380 -3.35250e-11 -7.13382e-13
  36 186.380 -3.36800e-11 -4.89816e-13
  37 186.380 -3.35672e-11 -3.86697e-13
  38 186.380 -3.34827e-11 -3.19149e-13
  39 186.380 -3.35391e-11 -3.09546e-13
  40 186.380 -3.36518e-11 -1.97309e-13
  41 186.380 -3.36236e-11 1.37681e-13
  42 186.380 -3.34545e-11 1.70455e-13
  43 186.380 -3.34545e-11 2.52183e-13
  44 186.380 -3.33981e-11 2.74021e-13
  45 186.380 -3.33981e-11 3.40549e-13
  46 186.380 -3.33981e-11 3.35283e-13
  47 186.380 -3.34263e-11 2.52138e-13
  48 186.380 -3.33981e-11 1.62575e-13
  49 186.380 -3.33136e-11 9.71852e-14
  50 186.380 -3.31445e-11 1.27539e-13
  51 186.380 -3.28063e-11 7.83674e-14
  52 186.380 -3.27640e-11 1.20746e-14
  53 186.380 -3.27217e-11 -4.60627e-14
  54 186.380 -3.24469e-11 1.98938e-13
  55 186.380 -3.22144e-11 1.62139e-13
  56 186.380 -3.19044e-11 8.48843e-14
  57 186.380 -3.33418e-11 -4.93187e-13
  58 186.380 -3.34545e-11 -1.30740e-12
  59 186.380 -3.41108e-11 -6.70028e-13
  60 186.380 -3.40041e-11 -5.62318e-13
  61 186.380 -3.39477e-11 1.26562e-12
  62 186.380 -3.36377e-11 4.92778e-13
  63 186.380 -3.40238e-11 -3.89584e-14
  64 186.380 -3.27217e-11 -6.47780e-13
  65 186.380 -3.29613e-11 2.27912e-13
  66 186.380 -3.27781e-11 1.19309e-12
  67 186.380 -3.31868e-11 3.24614e-14
  68 186.380 -3.47369e-11 -2.19974e-15
  69 186.380 -3.36759e-11 1.41555e-13
  70 186.380 -3.38737e-11 6.21137e-13
  71 186.380 -3.32713e-11 2.31972e-12
  72 186.380 -3.45698e-11 1.33021e-12
  73 186.380 -3.32894e-11 -1.81190e-12
  74 186.380 -3.33474e-11 8.86650e-13
  75 186.380 -3.38378e-11 1.08228e-12
  76 186.380 -3.26513e-11 -4.91027e-13
  77 186.380 -3.28626e-11 -2.09490e-13
  78 186.380 -3.34545e-11 -2.83637e-13
  79 186.380 -3.39296e-11 -7.25689e-13
  80 186.380 -3.42014e-11 -8.95860e-13
  81 186.380 -3.38350e-11 -1.33224e-12
  82 186.380 -3.39336e-11 2.74962e-13
  83 186.380 -3.36236e-11 -7.35697e-13
  84 186.380 -3.23694e-11 1.09387e-12
  85 186.380 -3.50469e-11 -1.33339e-12
  86 186.380 -3.15803e-11 -8.84752e-13
  87 186.380 -3.31868e-11 5.88192e-13
  88 186.380 -3.32628e-11 -1.70719e-13
  89 186.380 -3.17071e-11 6.30752e-13
  90 186.380 -3.41168e-11 9.42209e-13
  91 186.380 -3.35334e-11 1.44864e-12
  92 186.380 -3.29416e-11 -4.88443e-13
  93 186.380 -3.30261e-11 -8.29346e-13
  94 186.380 -3.43958e-11 -2.73898e-12
  95 186.380 -3.34996e-11 1.31902e-12
  96 186.380 -3.43141e-11 -2.40119e-13
  97 186.380 -3.21806e-11 -1.57786e-12
  98 186.380 -3.32798e-11 1.05532e-12
  99 186.380 -3.54697e-11 5.62014e-14
  100 186.380 -3.29585e-11 1.14262e-12
  101 186.380 -3.48496e-11 9.34100e-13
  102 186.380 -3.34658e-11 8.74879e-14
  103 186.380 -3.34686e-11 -1.26278e-13
  104 186.380 -3.33981e-11 3.12217e-14
  105 186.380 -3.37194e-11 8.27696e-13
  106 186.380 -3.44128e-11 4.25932e-13
  107 186.380 -3.24822e-11 -1.85431e-13
  108 186.380 -3.28063e-11 -7.15530e-14
  109 186.380 -3.25864e-11 4.60495e-13
  110 186.380 -3.31445e-11 -6.70923e-14
  111 186.380 -3.33241e-11 -1.74767e-13
  112 186.380 -3.39759e-11 -1.88118e-13
  113 186.380 -3.37001e-11 1.48049e-13
  114 186.380 -3.36759e-11 -1.31668e-13
  115 186.380 -3.41450e-11 4.79350e-13
  116 186.380 -3.20622e-11 -2.52677e-12
  117 186.380 -3.29895e-11 -2.66993e-13
  118 186.380 -3.31586e-11 5.14819e-14
  119 186.380 -3.52583e-11 -9.19094e-14
  120 186.380 -3.35954e-11 -3.89622e-13
  121 186.380 -3.34585e-11 4.11094e-13
  122 186.380 -3.40746e-11 -2.85605e-13
  123 186.380 -3.38914e-11 4.25340e-13
  124 186.380 -3.35672e-11 -9.29287e-13
  125 186.380 -3.37680e-11 2.19274e-13
  126 186.380 -3.32079e-11 -2.02012e-12
  127 186.380 -3.44007e-11 -3.41197e-13
  128 186.380 -3.33241e-11 1.97186e-12
  129 186.380 -3.33453e-11 9.91506e-13
  130 186.380 -3.40746e-11 -6.56326e-13
  131 186.380 -3.49201e-11 -8.21033e-13
  132 186.380 -3.36835e-11 7.09388e-13
  133 186.380 -3.44732e-11 2.72026e-12
  134 186.380 -3.37122e-11 2.19164e-12
  135 186.380 -3.21178e-11 3.09354e-12
  136 186.380 -3.33861e-11 5.56863e-13
  137 186.380 -3.35672e-11 1.45553e-13
  138 186.380 -3.38632e-11 -7.87669e-13
  139 186.380 -3.28908e-11 3.00791e-14
  140 186.380 -3.30116e-11 -7.88561e-13
  141 186.380 -3.38773e-11 -3.67847e-13
  142 186.380 -3.34968e-11 -4.39995e-12
  143 186.380 -3.33257e-11 -1.21541e-13
  144 186.380 -3.39054e-11 5.74579e-13
  145 186.380 -3.34150e-11 -4.73930e-13
  146 186.380 -3.34102e-11 9.70877e-13
  147 186.380 -3.36236e-11 1.86002e-13
  148 186.380 -3.27358e-11 1.40242e-14
  149 186.380 -3.29613e-11 -2.08017e-13
  150 186.380 -3.42718e-11 4.40079e-13
  151 186.380 -3.41168e-11 1.73540e-12
  152 186.380 -3.33418e-11 -2.72618e-13
  153 186.380 -3.44128e-11 -4.33724e-15
  154 186.380 -3.42098e-11 -5.92484e-13
  155 186.380 -3.38068e-11 -7.38083e-13
  156 186.380 -3.26855e-11 -2.44164e-13
  157 186.380 -3.28546e-11 -2.33847e-13
  158 186.380 -3.39900e-11 -1.47817e-12
  159 186.380 -3.40182e-11 -2.17644e-13
  160 186.380 -3.28232e-11 -1.49146e-13
  161 186.380 -3.26710e-11 -9.68597e-14
  162 186.380 -3.36941e-11 -8.20330e-13
  163 186.380 -3.41873e-11 -1.28717e-12
  164 186.380 -3.37726e-11 -1.55257e-12
  165 186.380 -3.29754e-11 2.27856e-12
  166 186.380 -3.29029e-11 2.24871e-13
  167 186.380 -3.19607e-11 -3.94685e-13
  168 186.380 -3.31807e-11 3.00835e-15
  169 186.380 -3.19970e-11 4.46010e-13
  170 186.380 -3.33474e-11 2.64421e-13
  171 186.380 -3.42920e-11 -2.85680e-12
  172 186.380 -3.48073e-11 -1.24816e-12
  173 186.380 -3.33981e-11 9.10798e-13
  174 186.380 -3.16225e-11 7.83669e-13
  175 186.380 -3.32995e-11 2.21551e-13
  176 186.380 -3.18339e-11 -6.17185e-13
  177 186.380 -3.31727e-11 -1.99552e-13
  178 186.380 -3.33981e-11 -7.07490e-13
  179 186.380 -3.28232e-11 -4.86453e-12
  180 186.380 -3.31686e-11 -4.20085e-14
  181 186.380 -3.35672e-11 -9.25809e-13
  182 186.380 -3.36349e-11 -1.46664e-13
  183 186.380 -3.36095e-11 1.35587e-12
  184 186.380 -3.42944e-11 3.94189e-12
  185 186.380 -3.26372e-11 1.98264e-12
  186 186.380 -3.50384e-11 -1.63134e-13
  187 186.380 -3.33136e-11 -3.34502e-13
  188 186.380 -3.40238e-11 -5.80595e-13
  189 186.380 -3.38040e-11 4.56767e-13
  190 186.380 -3.34585e-11 1.09170e-12
  191 186.380 -3.34827e-11 -4.28128e-13
  192 186.380 -3.43765e-11 -1.76521e-12
  193 186.380 -3.36856e-11 -4.13563e-13
  194 186.380 -3.25244e-11 -7.93439e-13
  195 186.380 -3.28485e-11 3.35959e-13
  196 186.380 -3.32713e-11 -1.87904e-14
  197 186.380 -3.24681e-11 1.14956e-12
  198 186.380 -3.39195e-11 4.14124e-12
  199 186.380 -3.31163e-11 -5.07493e-13
  200 186.380 -3.33418e-11 -1.14959e-12
  201 186.380 -3.39054e-11 9.35883e-13
  202 186.380 -3.39393e-11 5.40439e-13
  203 186.380 -3.42296e-11 2.01255e-12
  204 186.380 -3.48496e-11 8.23111e-13
  205 186.380 -3.31868e-11 8.71453e-13
  206 186.380 -3.26372e-11 6.10289e-12
  207 186.380 -3.33981e-11 4.81677e-13
  208 186.380 -3.34320e-11 -6.50070e-13
  209 186.380 -3.22003e-11 -2.26708e-12
  210 186.380 -3.31163e-11 8.77956e-13
  211 186.380 -3.23231e-11 -2.59833e-12
  212 186.380 -3.23835e-11 3.35323e-12
  213 186.380 -3.33643e-11 2.85919e-13
  214 186.380 -3.34404e-11 7.78812e-13
  215 186.380 -3.35334e-11 -8.30672e-13
  216 186.380 -3.37702e-11 1.26521e-12
  217 186.380 -3.28908e-11 -2.68254e-12
  218 186.380 -3.32149e-11 9.49160e-13
  219 186.380 -3.52583e-11 -9.41549e-13
  220 186.380 -3.35954e-11 8.25584e-13
  221 186.380 -3.43705e-11 2.83786e-13
  222 186.380 -3.31022e-11 -6.86619e-13
  223 186.380 -3.37363e-11 -5.74048e-12
  224 186.380 -3.36180e-11 2.04049e-12
  225 186.380 -3.36518e-11 -3.19121e-12
  226 186.380 -3.29246e-11 8.22988e-13
  227 186.380 -3.49342e-11 3.15410e-13
  228 186.380 -3.38547e-11 2.67158e-13
  229 186.380 -3.27640e-11 3.67564e-13
  230 186.380 -3.30176e-11 -4.70574e-13
  231 186.380 -3.41084e-11 -1.99675e-14
  232 186.380 -3.28739e-11 -2.99091e-13
  233 186.380 -3.27217e-11 -1.26025e-13
  234 186.380 -3.36800e-11 1.22552e-12
  235 186.380 -3.36518e-11 1.58752e-13
  236 186.380 -3.22144e-11 1.33883e-12
  237 186.380 -3.50046e-11 4.65338e-13
  238 186.380 -3.39900e-11 3.81261e-13
  239 186.380 -3.37645e-11 -2.47479e-14
  240 186.380 -3.46157e-11 -3.37205e-12
  241 186.380 -3.51315e-11 1.39036e-12
</Section>

newXOutput 137

<Section columns = "stress_xx | stress_yy | stress_xy">
  1 169.960 -2.99415e-11 -1.09553e-13
  2 169.960 -3.01331e-11 1.05775e-13
  3 169.960 -3.00565e-11 -7.12789e-14
  4 169.960 -2.99031e-11 1.95867e-13
  5 169.960 -3.00309e-11 -2.24436e-13
  6 169.960 -3.02098e-11 -3.47989e-13
  7 169.960 -3.03057e-11 -4.91319e-13
  8 169.960 -3.01587e-11 -6.18942e-13
  9 169.960 -3.02098e-11 -6.81459e-13
  10 169.960 -3.03632e-11 -7.09902e-13
  11 169.960 -3.03887e-11 -6.47979e-13
  12 169.960 -3.02865e-11 -4.64580e-13
  13 169.960 -3.04207e-11 -2.75326e-13
  14 169.960 -3.03121e-11 -1.73032e-13
  15 169.960 -3.03248e-11 -5.66729e-15
  16 169.960 -3.02865e-11 -6.51867e-15
  17 169.960 -3.02609e-11 -3.19990e-14
  18 169.960 -3.02098e-11 -2.24587e-13
  19 169.960 -3.02354e-11 -1.14959e-13
  20 169.960 -3.02354e-11 7.05166e-14
  21 169.960 -3.01587e-11 5.32996e-15
  22 169.960 -3.02098e-11 1.89616e-14
  23 169.960 -3.02609e-11 1.60589e-13
  24 169.960 -3.00820e-11 8.35540e-14
  25 169.960 -3.01331e-11 4.88900e-14
  26 169.960 -3.02482e-11 -1.18634e-13
  27 169.960 -3.01587e-11 1.27996e-13
  28 169.960 -3.00756e-11 6.02210e-14
  29 169.960 -3.02482e-11 2.93340e-14
  30 169.960 -2.99798e-11 -3.99604e-14
  31 169.960 -3.02609e-11 -4.45725e-14
  32 169.960 -3.02098e-11 -8.04194e-15
  33 169.960 -3.00756e-11 -2.39049e-13
  34 169.960 -3.00820e-11 -4.29688e-13
  35 169.960 -3.01715e-11 -4.67664e-13
  36 169.960 -3.01076e-11 -6.50153e-13
  37 169.960 -3.02609e-11 -7.89136e-13
  38 169.960 -3.03121e-11 -8.90076e-13
  39 169.960 -3.04398e-11 -7.18216e-13
  40 169.960 -3.03376e-11 -4.86689e-13
  41 169.960 -3.03632e-11 1.07460e-13
  42 169.960 -3.04910e-11 4.91522e-13
  43 169.960 -3.03632e-11 9.37656e-13
  44 169.960 -3.03887e-11 1.25302e-12
  45 169.960 -3.02865e-11 1.39732e-12
  46 169.960 -3.03376e-11 1.42413e-12
  47 169.960 -3.02609e-11 1.33522e-12
  48 169.960 -3.01843e-11 1.06507e-12
  49 169.960 -3.01587e-11 5.78460e-13
  50 169.960 -2.98776e-11 -1.59240e-14
  51 169.960 -3.00181e-11 -2.44450e-15
  52 169.960 -3.00565e-11 4.13767e-15
  53 169.960 -3.00565e-11 -2.77043e-14
  54 169.960 -3.01331e-11 -3.62775e-14
  55 169.960 -3.01715e-11 0.00000
  56 169.960 -3.00054e-11 2.44330e-15
  57 169.960 -3.00692e-11 -1.81885e-13
  58 169.960 -3.01331e-11 -5.17982e-13
  59 169.960 -3.02865e-11 -2.82563e-13
  60 169.960 -3.02737e-11 3.00965e-13
  61 169.960 -3.04143e-11 -1.85367e-13
  62 169.960 -3.03759e-11 2.71507e-13
  63 169.960 -3.02712e-11 -1.76706e-13
  64 169.960 -3.01843e-11 -1.45927e-14
  65 169.960 -3.01459e-11 1.45493e-13
  66 169.960 -3.01715e-11 -2.66855e-14
  67 169.960 -3.00948e-11 4.06968e-13
  68 169.960 -3.04015e-11 9.40701e-14
  69 169.960 -3.02098e-11 3.13760e-13
  70 169.960 -3.03152e-11 3.14832e-13
  71 169.960 -3.02609e-11 1.47717e-13
  72 169.960 -3.03303e-11 1.98776e-13
  73 169.960 -3.02208e-11 1.39869e-13
  74 169.960 -3.02252e-11 -1.52433e-13
  75 169.960 -3.04552e-11 1.31195e-13
  76 169.960 -3.02226e-11 -2.21179e-13
  77 169.960 -3.00309e-11 -4.99253e-14
  78 169.960 -3.01204e-11 -1.14305e-13
  79 169.960 -3.03522e-11 -2.64358e-13
  80 169.960 -3.03376e-11 -4.66281e-13
  81 169.960 -3.02226e-11 -4.83910e-13
  82 169.960 -3.03759e-11 2.45170e-13
  83 169.960 -3.02993e-11 -2.83993e-13
  84 169.960 -3.01459e-11 1.72586e-13
  85 169.960 -3.01843e-11 4.97465e-13
  86 169.960 -3.01204e-11 2.24733e-13
  87 169.960 -2.99415e-11 -2.59688e-13
  88 169.960 -3.00718e-11 -2.22805e-13
  89 169.960 -3.00565e-11 8.76198e-14
  90 169.960 -3.03376e-11 2.97435e-13
  91 169.960 -3.03938e-11 -5.61965e-13
  92 169.960 -3.00718e-11 -1.09910e-13
  93 169.960 -3.03325e-11 -7.22821e-13
  94 169.960 -3.01331e-11 6.10558e-13
  95 169.960 -3.04398e-11 -3.24737e-13
  96 169.960 -3.03248e-11 -5.45723e-13
  97 169.960 -3.02712e-11 3.02922e-13
  98 169.960 -3.00718e-11 -4.28479e-13
  99 169.960 -3.04526e-11 3.66507e-13
  100 169.960 -3.01638e-11 -1.62486e-13
  101 169.960 -3.04910e-11 3.01470e-13
  102 169.960 -3.01945e-11 -4.49940e-13
  103 169.960 -3.01587e-11 6.25869e-13
  104 169.960 -3.02712e-11 2.69943e-13
  105 169.960 -3.04705e-11 7.16871e-14
  106 169.960 -3.03887e-11 -3.57395e-13
  107 169.960 -3.01076e-11 -2.73010e-13
  108 169.960 -3.00437e-11 5.23494e-14
  109 169.960 -3.01485e-11 -6.99990e-14
  110 169.960 -3.01331e-11 1.78305e-13
  111 169.960 -3.00565e-11 -9.36670e-14
  112 169.960 -3.02993e-11 2.78074e-13
  113 169.960 -3.03413e-11 -2.72314e-13
  114 169.960 -3.02317e-11 -3.07490e-13
  115 169.960 -3.03887e-11 -3.34293e-13
  116 169.960 -3.01331e-11 -1.86662e-13
  117 169.960 -3.01204e-11 -1.47255e-13
  118 169.960 -3.01715e-11 2.85211e-13
  119 169.960 -3.03741e-11 2.84625e-13
  120 169.960 -3.01715e-11 -2.68296e-13
  121 169.960 -3.02098e-11 -2.62469e-13
  122 169.960 -3.02098e-11 3.18594e-13
  123 169.960 -3.03376e-11 6.10954e-13
  124 169.960 -3.02098e-11 2.27935e-13
  125 169.960 -3.04494e-11 1.90951e-13
  126 169.960 -3.02482e-11 -7.60114e-14
  127 169.960 -3.02427e-11 6.83145e-14
  128 169.960 -3.01811e-11 3.16768e-13
  129 169.960 -3.02577e-11 9.95025e-14
  130 169.960 -3.02993e-11 6.81524e-15
  131 169.960 -3.03248e-11 1.77870e-13
  132 169.960 -3.04303e-11 8.00406e-14
  133 169.960 -3.01989e-11 3.06910e-13
  134 169.960 -3.03522e-11 1.14567e-13
  135 169.960 -3.01441e-11 1.13137e-13
  136 169.960 -3.00455e-11 3.28170e-13
  137 169.960 -3.01112e-11 5.43236e-13
  138 169.960 -3.04015e-11 8.31813e-14
  139 169.960 -3.00674e-11 -1.51362e-13
  140 169.960 -3.03413e-11 -3.36478e-15
  141 169.960 -3.03121e-11 -3.86397e-13
  142 169.960 -3.03376e-11 -2.53399e-13
  143 169.960 -3.01551e-11 1.89897e-13
  144 169.960 -3.03018e-11 5.34074e-13
  145 169.960 -3.00565e-11 -3.94351e-13
  146 169.960 -3.04398e-11 1.08282e-13
  147 169.960 -3.04271e-11 -2.53295e-13
  148 169.960 -3.01204e-11 -7.71467e-14
  149 169.960 -3.01843e-11 1.26587e-13
  150 169.960 -3.03376e-11 -3.36848e-13
  151 169.960 -3.03504e-11 5.14783e-14
  152 169.960 -3.01843e-11 -5.04576e-13
  153 169.960 -3.03121e-11 -4.73912e-13
  154 169.960 -3.03325e-11 -5.43582e-13
  155 169.960 -3.03632e-11 4.61846e-13
  156 169.960 -3.01770e-11 -3.85892e-13
  157 169.960 -3.00565e-11 5.44728e-14
  158 169.960 -3.03887e-11 -4.67465e-13
  159 169.960 -3.03887e-11 -6.15017e-13
  160 169.960 -3.00258e-11 -8.84550e-15
  161 169.960 -3.02712e-11 -1.57863e-13
  162 169.960 -3.02865e-11 4.52745e-14
  163 169.960 -3.02737e-11 -4.99354e-13
  164 169.960 -3.02317e-11 1.24441e-13
  165 169.960 -3.02482e-11 1.16569e-13
  166 169.960 -3.00017e-11 -4.45546e-14
  167 169.960 -3.02098e-11 1.05157e-13
  168 169.960 -3.01222e-11 -3.71256e-14
  169 169.960 -3.01112e-11 3.98235e-14
  170 169.960 -2.99951e-11 4.36697e-13
  171 169.960 -3.04179e-11 -7.05705e-14
  172 169.960 -3.03504e-11 -7.33350e-15
  173 169.960 -3.03887e-11 2.32572e-13
  174 169.960 -3.01715e-11 2.18660e-13
  175 169.960 -2.99542e-11 5.64651e-14
  176 169.960 -2.99287e-11 -4.22581e-14
  177 169.960 -3.01076e-11 -1.81106e-13
  178 169.960 -3.02865e-11 -9.99992e-14
  179 169.960 -3.02098e-11 -3.65677e-13
  180 169.960 -3.00455e-11 -2.10218e-13
  181 169.960 -3.01076e-11 -6.60015e-13
  182 169.960 -3.03325e-11 -5.58010e-13
  183 169.960 -3.03759e-11 -1.89312e-13
  184 169.960 -3.02252e-11 2.70925e-13
  185 169.960 -3.02098e-11 8.34218e-14
  186 169.960 -3.02558e-11 -1.76881e-14
  187 169.960 -3.01587e-11 -2.13118e-13
  188 169.960 -3.03325e-11 -3.78041e-13
  189 169.960 -3.04245e-11 -3.76123e-13
  190 169.960 -3.03194e-11 -2.15388e-13
  191 169.960 -3.03887e-11 1.78065e-13
  192 169.960 -3.02098e-11 4.07987e-13
  193 169.960 -3.00871e-11 -5.12852e-13
  194 169.960 -3.01331e-11 2.16290e-14
  195 169.960 -3.01204e-11 1.05167e-14
  196 169.960 -3.01587e-11 1.45523e-13
  197 169.960 -3.01204e-11 6.30900e-14
  198 169.960 -3.01204e-11 2.42954e-13
  199 169.960 -3.00820e-11 -1.66681e-14
  200 169.960 -3.03759e-11 -2.55028e-13
  201 169.960 -3.03376e-11 2.29391e-13
  202 169.960 -3.02712e-11 7.09845e-13
  203 169.960 -3.04782e-11 2.58360e-13
  204 169.960 -3.04782e-11 2.12993e-13
  205 169.960 -3.01587e-11 -1.80329e-13
  206 169.960 -3.01945e-11 1.66571e-13
  207 169.960 -3.01945e-11 9.13380e-13
  208 169.960 -3.00871e-11 -4.23102e-13
  209 169.960 -3.02993e-11 1.63698e-13
  210 169.960 -3.01076e-11 -3.95972e-13
  211 169.960 -3.00674e-11 -1.80629e-13
  212 169.960 -3.01178e-11 1.60529e-13
  213 169.960 -3.01025e-11 3.81735e-13
  214 169.960 -3.04654e-11 2.11099e-13
  215 169.960 -3.02558e-11 2.91956e-13
  216 169.960 -3.04245e-11 6.14180e-14
  217 169.960 -3.01331e-11 2.47695e-13
  218 169.960 -3.01587e-11 -3.92194e-13
  219 169.960 -3.02098e-11 3.92696e-13
  220 169.960 -3.02482e-11 1.83989e-13
  221 169.960 -3.04015e-11 -4.22874e-13
  222 169.960 -3.01331e-11 -6.76570e-13
  223 169.960 -3.02865e-11 -3.99231e-13
  224 169.960 -3.03785e-11 3.60078e-13
  225 169.960 -3.02558e-11 5.44427e-13
  226 169.960 -3.01485e-11 -1.40175e-13
  227 169.960 -3.04398e-11 2.59548e-13
  228 169.960 -3.05472e-11 3.71276e-13
  229 169.960 -3.01076e-11 -1.24442e-13
  230 169.960 -3.02482e-11 3.12656e-13
  231 169.960 -3.03478e-11 -2.33947e-13
  232 169.960 -3.00871e-11 1.28926e-13
  233 169.960 -3.01945e-11 -4.77140e-13
  234 169.960 -3.04398e-11 -1.08675e-13
  235 169.960 -3.03938e-11 -6.75891e-14
  236 169.960 -3.01331e-11 1.44836e-13
  237 169.960 -3.03938e-11 3.88462e-13
  238 169.960 -3.02865e-11 -3.84701e-13
  239 169.960 -3.02226e-11 -5.60351e-13
  240 169.960 -3.03478e-11 -1.41686e-13
  241 169.960 -3.01970e-11 2.26658e-13
</Section>

newXOutput 138

<Section columns = "stress_xx | stress_yy | stress_xy">
  1 153.601 -2.71861e-11 7.00269e-14
  2 153.601 -2.72895e-11 -1.54841e-13
  3 153.601 -2.69793e-11 -1.42592e-13
  4 153.601 -2.65659e-11 3.41412e-13
  5 153.601 -2.71976e-11 2.01948e-13
  6 153.601 -2.71516e-11 3.44009e-13
  7 153.601 -2.72550e-11 3.46016e-13
  8 153.601 -2.73124e-11 3.62633e-13
  9 153.601 -2.72895e-11 4.04389e-13
  10 153.601 -2.72665e-11 5.30993e-13
  11 153.601 -2.72435e-11 4.07557e-13
  12 153.601 -2.71746e-11 2.95880e-13
  13 153.601 -2.72550e-11 1.75489e-13
  14 153.601 -2.72205e-11 3.65436e-14
  15 153.601 -2.72033e-11 7.66267e-14
  16 153.601 -2.71287e-11 2.43491e-13
  17 153.601 -2.72205e-11 5.99208e-14
  18 153.601 -2.72665e-11 1.57796e-13
  19 153.601 -2.71516e-11 5.40765e-14
  20 153.601 -2.71287e-11 -8.95684e-14
  21 153.601 -2.72205e-11 -6.71763e-14
  22 153.601 -2.70827e-11 -1.88922e-13
  23 153.601 -2.71287e-11 -3.35735e-13
  24 153.601 -2.71746e-11 5.84431e-15
  25 153.601 -2.72205e-11 -2.62994e-14
  26 153.601 -2.72033e-11 -5.62431e-14
  27 153.601 -2.71516e-11 1.14916e-13
  28 153.601 -2.67898e-11 1.75113e-13
  29 153.601 -2.66692e-11 1.31497e-14
  30 153.601 -2.67841e-11 -1.45161e-13
  31 153.601 -2.69908e-11 -3.62878e-13
  32 153.601 -2.70138e-11 -7.54228e-13
  33 153.601 -2.70138e-11 -9.38242e-13
  34 153.601 -2.70597e-11 -1.16164e-12
  35 153.601 -2.70827e-11 -1.29933e-12
  36 153.601 -2.71287e-11 -1.36417e-12
  37 153.601 -2.72435e-11 -1.31606e-12
  38 153.601 -2.73354e-11 -8.93930e-13
  39 153.601 -2.75651e-11 -3.93379e-13
  40 153.601 -2.73813e-11 1.85883e-13
  41 153.601 -2.73584e-11 9.42386e-13
  42 153.601 -2.76800e-11 1.79256e-12
  43 153.601 -2.75651e-11 2.66472e-12
  44 153.601 -2.73354e-11 2.98501e-12
  45 153.601 -2.70827e-11 2.97770e-12
  46 153.601 -2.71976e-11 2.82460e-12
  47 153.601 -2.69449e-11 2.57879e-12
  48 153.601 -2.67841e-11 1.93179e-12
  49 153.601 -2.67841e-11 1.00959e-12
  50 153.601 -2.68760e-11 -1.17618e-13
  51 153.601 -2.71172e-11 -7.23233e-14
  52 153.601 -2.72033e-11 2.62900e-14
  53 153.601 -2.69908e-11 7.55367e-14
  54 153.601 -2.69104e-11 -2.49265e-14
  55 153.601 -2.70827e-11 -1.75329e-14
  56 153.601 -2.71516e-11 -4.09018e-14
  57 153.601 -2.72665e-11 8.00090e-13
  58 153.601 -2.72780e-11 8.12349e-13
  59 153.601 -2.73781e-11 1.22415e-12
  60 153.601 -2.71287e-11 1.21924e-12
  61 153.601 -2.72320e-11 -2.83945e-13
  62 153.601 -2.74158e-11 4.43688e-14
  63 153.601 -2.73170e-11 -9.97400e-14
  64 153.601 -2.72320e-11 7.69528e-14
  65 153.601 -2.73584e-11 -8.97728e-14
  66 153.601 -2.70023e-11 -2.28538e-13
  67 153.601 -2.67152e-11 4.17748e-13
  68 153.601 -2.72320e-11 -4.58235e-13
  69 153.601 -2.69941e-11 -3.58517e-13
  70 153.601 -2.73239e-11 -8.98755e-13
  71 153.601 -2.70368e-11 -5.68352e-13
  72 153.601 -2.72796e-11 -6.47951e-13
  73 153.601 -2.71910e-11 -2.30776e-13
  74 153.601 -2.73584e-11 -1.23262e-12
  75 153.601 -2.74411e-11 -1.54021e-12
  76 153.601 -2.70483e-11 2.22412e-13
  77 153.601 -2.70253e-11 3.28033e-13
  78 153.601 -2.67152e-11 -7.90196e-13
  79 153.601 -2.73190e-11 1.26473e-12
  80 153.601 -2.72895e-11 1.26520e-12
  81 153.601 -2.73009e-11 1.19594e-12
  82 153.601 -2.72550e-11 -1.55969e-12
  83 153.601 -2.73928e-11 1.07676e-12
  84 153.601 -2.71057e-11 -3.92109e-13
  85 153.601 -2.72895e-11 -3.62555e-13
  86 153.601 -2.71057e-11 1.83250e-14
  87 153.601 -2.67611e-11 -8.87093e-13
  88 153.601 -2.66417e-11 -4.58474e-13
  89 153.601 -2.72343e-11 -2.38735e-13
  90 153.601 -2.72550e-11 -5.23731e-13
  91 153.601 -2.73997e-11 -2.73199e-12
  92 153.601 -2.70827e-11 6.69269e-13
  93 153.601 -2.70138e-11 2.07090e-13
  94 153.601 -2.71792e-11 -3.85105e-13
  95 153.601 -2.74548e-11 -2.51916e-12
  96 153.601 -2.73584e-11 7.30001e-13
  97 153.601 -2.71103e-11 8.93420e-15
  98 153.601 -2.68484e-11 -1.69096e-12
  99 153.601 -2.70827e-11 -2.64138e-13
  100 153.601 -2.70276e-11 -2.03827e-13
  101 153.601 -2.71401e-11 -4.79133e-13
  102 153.601 -2.71930e-11 2.28937e-13
  103 153.601 -2.67841e-11 9.02162e-13
  104 153.601 -2.74135e-11 6.11833e-13
  105 153.601 -2.75513e-11 -1.93179e-12
  106 153.601 -2.73469e-11 1.45853e-13
  107 153.601 -2.71401e-11 2.04551e-14
  108 153.601 -2.72780e-11 1.92211e-13
  109 153.601 -2.69449e-11 -7.04492e-14
  110 153.601 -2.66692e-11 4.44227e-13
  111 153.601 -2.68501e-11 -5.95171e-13
  112 153.601 -2.73124e-11 9.68008e-13
  113 153.601 -2.74371e-11 -1.51088e-12
  114 153.601 -2.72304e-11 -1.45837e-12
  115 153.601 -2.73009e-11 2.05614e-13
  116 153.601 -2.71930e-11 -1.73213e-14
  117 153.601 -2.72205e-11 -4.78170e-14
  118 153.601 -2.73813e-11 3.20957e-13
  119 153.601 -2.71319e-11 -1.99788e-13
  120 153.601 -2.69334e-11 -1.14805e-12
  121 153.601 -2.71418e-11 2.35660e-13
  122 153.601 -2.72599e-11 1.09436e-12
  123 153.601 -2.69449e-11 -1.60408e-13
  124 153.601 -2.71319e-11 1.04006e-12
  125 153.601 -2.74617e-11 2.45856e-13
  126 153.601 -2.71086e-11 -1.72519e-13
  127 153.601 -2.72796e-11 -2.06676e-13
  128 153.601 -2.70999e-11 -6.01396e-14
  129 153.601 -2.71689e-11 -5.52672e-13
  130 153.601 -2.73584e-11 1.22428e-12
  131 153.601 -2.71401e-11 -1.84761e-13
  132 153.601 -2.75134e-11 -1.02988e-12
  133 153.601 -2.72599e-11 -1.70308e-13
  134 153.601 -2.71418e-11 -5.57404e-13
  135 153.601 -2.71221e-11 2.57859e-14
  136 153.601 -2.66692e-11 3.24441e-13
  137 153.601 -2.68366e-11 2.05582e-13
  138 153.601 -2.74273e-11 1.50705e-12
  139 153.601 -2.70040e-11 3.05570e-13
  140 153.601 -2.68366e-11 5.49516e-13
  141 153.601 -2.73698e-11 7.66027e-13
  142 153.601 -2.71861e-11 2.61679e-14
  143 153.601 -2.74076e-11 5.92049e-13
  144 153.601 -2.73308e-11 -8.28116e-13
  145 153.601 -2.68071e-11 -1.04439e-12
  146 153.601 -2.74371e-11 -5.46846e-13
  147 153.601 -2.76110e-11 -9.83057e-13
  148 153.601 -2.68530e-11 9.53761e-14
  149 153.601 -2.69908e-11 3.07617e-13
  150 153.601 -2.72665e-11 1.81985e-13
  151 153.601 -2.73009e-11 -5.72353e-13
  152 153.601 -2.72550e-11 3.32234e-13
  153 153.601 -2.72091e-11 5.24817e-13
  154 153.601 -2.73721e-11 1.15931e-12
  155 153.601 -2.71401e-11 1.15717e-12
  156 153.601 -2.70138e-11 1.94667e-13
  157 153.601 -2.72107e-11 4.58431e-13
  158 153.601 -2.73584e-11 1.28157e-12
  159 153.601 -2.73698e-11 6.09611e-13
  160 153.601 -2.70689e-11 1.95452e-13
  161 153.601 -2.71378e-11 9.11512e-14
  162 153.601 -2.74388e-11 1.46961e-12
  163 153.601 -2.71861e-11 1.30683e-12
  164 153.601 -2.72501e-11 -2.06720e-13
  165 153.601 -2.70368e-11 -5.45797e-13
  166 153.601 -2.70827e-11 -2.86465e-13
  167 153.601 -2.71713e-11 -4.79973e-14
  168 153.601 -2.65806e-11 -4.14462e-14
  169 153.601 -2.71418e-11 -1.02388e-13
  170 153.601 -2.67795e-11 1.43468e-14
  171 153.601 -2.72107e-11 -9.97517e-14
  172 153.601 -2.71057e-11 3.45899e-14
  173 153.601 -2.72435e-11 -1.53544e-13
  174 153.601 -2.71516e-11 -8.67327e-14
  175 153.601 -2.66922e-11 -9.67608e-15
  176 153.601 -2.71861e-11 -3.79838e-14
  177 153.601 -2.67726e-11 -3.14877e-13
  178 153.601 -2.73239e-11 1.10475e-12
  179 153.601 -2.72481e-11 1.74994e-13
  180 153.601 -2.70335e-11 4.55990e-13
  181 153.601 -2.73009e-11 9.17776e-13
  182 153.601 -2.73721e-11 -1.34544e-12
  183 153.601 -2.73813e-11 -2.02256e-12
  184 153.601 -2.72205e-11 -2.10834e-14
  185 153.601 -2.70483e-11 -4.97889e-13
  186 153.601 -2.71378e-11 6.15969e-14
  187 153.601 -2.69564e-11 -6.07098e-13
  188 153.601 -2.73446e-11 1.13651e-12
  189 153.601 -2.72343e-11 1.08347e-13
  190 153.601 -2.73485e-11 -1.66389e-12
  191 153.601 -2.74847e-11 1.13859e-12
  192 153.601 -2.72895e-11 -2.65103e-13
  193 153.601 -2.69311e-11 -1.35656e-12
  194 153.601 -2.72665e-11 1.51033e-14
  195 153.601 -2.73354e-11 -3.45469e-13
  196 153.601 -2.66692e-11 1.56849e-13
  197 153.601 -2.70712e-11 -2.16444e-13
  198 153.601 -2.71172e-11 -4.47675e-14
  199 153.601 -2.72550e-11 7.58625e-13
  200 153.601 -2.71401e-11 7.23697e-13
  201 153.601 -2.73698e-11 -1.36937e-12
  202 153.601 -2.71103e-11 1.32457e-13
  203 153.601 -2.71976e-11 -6.52581e-13
  204 153.601 -2.72205e-11 -6.51878e-13
  205 153.601 -2.70827e-11 -4.83420e-16
  206 153.601 -2.71654e-11 -6.14731e-14
  207 153.601 -2.69311e-11 1.52132e-12
  208 153.601 -2.70827e-11 -1.23551e-12
  209 153.601 -2.71861e-11 -1.31331e-14
  210 153.601 -2.70942e-11 -1.49603e-12
  211 153.601 -2.71812e-11 4.93709e-14
  212 153.601 -2.70827e-11 -6.08381e-14
  213 153.601 -2.68071e-11 6.08531e-13
  214 153.601 -2.75651e-11 -1.93836e-13
  215 153.601 -2.70138e-11 1.02776e-12
  216 153.601 -2.74548e-11 -1.55535e-12
  217 153.601 -2.71401e-11 -7.37470e-14
  218 153.601 -2.72780e-11 -1.66862e-12
  219 153.601 -2.71654e-11 -3.87885e-13
  220 153.601 -2.73698e-11 -5.54172e-13
  221 153.601 -2.72435e-11 2.10863e-13
  222 153.601 -2.72780e-11 3.16651e-13
  223 153.601 -2.72619e-11 1.41364e-13
  224 153.601 -2.71103e-11 -5.93601e-13
  225 153.601 -2.71654e-11 -2.65029e-13
  226 153.601 -2.69862e-11 -8.15601e-14
  227 153.601 -2.72320e-11 -6.23004e-13
  228 153.601 -2.75100e-11 5.26775e-13
  229 153.601 -2.69334e-11 3.61051e-14
  230 153.601 -2.68300e-11 6.08123e-13
  231 153.601 -2.73308e-11 -4.21869e-14
  232 153.601 -2.72619e-11 5.59561e-13
  233 153.601 -2.71103e-11 1.54206e-13
  234 153.601 -2.75651e-11 -2.18209e-12
  235 153.601 -2.74411e-11 2.07314e-14
  236 153.601 -2.71024e-11 -3.90451e-13
  237 153.601 -2.71930e-11 -4.64494e-13
  238 153.601 -2.73997e-11 2.40008e-13
  239 153.601 -2.73009e-11 4.74184e-13
  240 153.601 -2.71378e-11 9.86497e-14
  241 153.601 -2.72091e-11 -4.20917e-14
</Section>

newXOutput 139

<Section columns = "stress_xx | stress_yy | stress_xy">
  1 137.302 -2.39848e-11 2.39185e-14
  2 137.302 -2.40461e-11 1.07636e-13
  3 137.302 -2.38929e-11 -2.92177e-15
  4 137.302 -2.38623e-11 3.95788e-14
  5 137.302 -2.38929e-11 5.70033e-14
  6 137.302 -2.38929e-11 1.47097e-13
  7 137.302 -2.38776e-11 1.57561e-13
  8 137.302 -2.38725e-11 2.45960e-13
  9 137.302 -2.38725e-11 2.85425e-13
  10 137.302 -2.38317e-11 2.52339e-13
  11 137.302 -2.38521e-11 1.47895e-13
  12 137.302 -2.40155e-11 1.79787e-13
  13 137.302 -2.40461e-11 1.62646e-13
  14 137.302 -2.39951e-11 1.43114e-13
  15 137.302 -2.39542e-11 1.18699e-13
  16 137.302 -2.39134e-11 1.07235e-13
  17 137.302 -2.38929e-11 1.32748e-13
  18 137.302 -2.38521e-11 1.37931e-13
  19 137.302 -2.40972e-11 7.69402e-14
  20 137.302 -2.39951e-11 3.10969e-14
  21 137.302 -2.38929e-11 8.17220e-14
  22 137.302 -2.40767e-11 1.12418e-13
  23 137.302 -2.42401e-11 1.43114e-13
  24 137.302 -2.40155e-11 -1.99292e-14
  25 137.302 -2.39542e-11 2.33227e-14
  26 137.302 -2.39083e-11 -1.22745e-14
  27 137.302 -2.38929e-11 1.81399e-14
  28 137.302 -2.38011e-11 1.45767e-14
  29 137.302 -2.38011e-11 1.74920e-14
  30 137.302 -2.38725e-11 -4.19562e-14
  31 137.302 -2.38521e-11 -7.81541e-14
  32 137.302 -2.38929e-11 -2.64146e-13
  33 137.302 -2.39236e-11 -4.35361e-13
  34 137.302 -2.41380e-11 -6.19670e-13
  35 137.302 -2.40002e-11 -4.90171e-13
  36 137.302 -2.38929e-11 -2.42004e-13
  37 137.302 -2.39951e-11 -1.50785e-13
  38 137.302 -2.39134e-11 -1.07047e-13
  39 137.302 -2.39542e-11 -1.47248e-13
  40 137.302 -2.40767e-11 4.42326e-15
  41 137.302 -2.40155e-11 1.97314e-13
  42 137.302 -2.40155e-11 4.44925e-13
  43 137.302 -2.39542e-11 6.63498e-13
  44 137.302 -2.39134e-11 7.29731e-13
  45 137.302 -2.38725e-11 6.98880e-13
  46 137.302 -2.38929e-11 6.51036e-13
  47 137.302 -2.39134e-11 6.00351e-13
  48 137.302 -2.38725e-11 4.13198e-13
  49 137.302 -2.38929e-11 1.79167e-13
  50 137.302 -2.38725e-11 -2.06792e-14
  51 137.302 -2.39848e-11 -7.77424e-15
  52 137.302 -2.40155e-11 -3.23348e-15
  53 137.302 -2.38317e-11 3.08886e-15
  54 137.302 -2.39389e-11 -2.16394e-14
  55 137.302 -2.40155e-11 -1.55485e-14
  56 137.302 -2.40767e-11 8.32182e-15
  57 137.302 -2.39644e-11 1.67528e-13
  58 137.302 -2.40359e-11 9.81420e-14
  59 137.302 -2.40417e-11 2.42409e-13
  60 137.302 -2.39440e-11 4.25211e-13
  61 137.302 -2.40053e-11 -1.61150e-13
  62 137.302 -2.41482e-11 1.37842e-14
  63 137.302 -2.39297e-11 -1.91764e-13
  64 137.302 -2.38215e-11 -1.26543e-14
  65 137.302 -2.40563e-11 3.80187e-14
  66 137.302 -2.39440e-11 -1.13016e-13
  67 137.302 -2.37704e-11 2.01405e-13
  68 137.302 -2.40053e-11 -7.09051e-14
  69 137.302 -2.40505e-11 -1.29898e-13
  70 137.302 -2.41303e-11 -2.51162e-13
  71 137.302 -2.40359e-11 -1.52483e-13
  72 137.302 -2.39367e-11 -8.26951e-14
  73 137.302 -2.39542e-11 -2.32764e-14
  74 137.302 -2.41012e-11 -2.71455e-13
  75 137.302 -2.40645e-11 -4.30113e-13
  76 137.302 -2.38113e-11 1.12318e-13
  77 137.302 -2.39746e-11 6.77681e-14
  78 137.302 -2.38827e-11 -2.39788e-13
  79 137.302 -2.40242e-11 2.50503e-13
  80 137.302 -2.40155e-11 2.18133e-13
  81 137.302 -2.38623e-11 1.38355e-13
  82 137.302 -2.40767e-11 -5.76343e-13
  83 137.302 -2.40155e-11 2.02608e-13
  84 137.302 -2.39848e-11 -2.74181e-15
  85 137.302 -2.39644e-11 1.18198e-13
  86 137.302 -2.39236e-11 9.75674e-14
  87 137.302 -2.39542e-11 -2.13336e-13
  88 137.302 -2.39175e-11 -2.34262e-13
  89 137.302 -2.40522e-11 3.88537e-15
  90 137.302 -2.39440e-11 -9.41894e-15
  91 137.302 -2.41625e-11 -7.32221e-13
  92 137.302 -2.39665e-11 1.40041e-13
  93 137.302 -2.39052e-11 1.05183e-13
  94 137.302 -2.38929e-11 2.12533e-13
  95 137.302 -2.40767e-11 -6.65773e-13
  96 137.302 -2.40155e-11 3.67657e-14
  97 137.302 -2.39542e-11 2.40622e-13
  98 137.302 -2.40400e-11 -4.97889e-13
  99 137.302 -2.40155e-11 2.53812e-13
  100 137.302 -2.39420e-11 -1.46442e-13
  101 137.302 -2.39746e-11 5.54107e-14
  102 137.302 -2.39787e-11 -1.32745e-13
  103 137.302 -2.39032e-11 2.94572e-13
  104 137.302 -2.40645e-11 2.46267e-13
  105 137.302 -2.41503e-11 -6.06690e-13
  106 137.302 -2.40053e-11 -1.58161e-13
  107 137.302 -2.38623e-11 1.32424e-14
  108 137.302 -2.40563e-11 4.24170e-14
  109 137.302 -2.39297e-11 -5.52225e-14
  110 137.302 -2.37092e-11 9.41792e-14
  111 137.302 -2.38011e-11 -2.17491e-13
  112 137.302 -2.40563e-11 3.41044e-13
  113 137.302 -2.39892e-11 -4.89479e-13
  114 137.302 -2.40155e-11 -4.88646e-13
  115 137.302 -2.39440e-11 -6.42128e-14
  116 137.302 -2.39420e-11 9.61506e-14
  117 137.302 -2.39236e-11 -1.21858e-13
  118 137.302 -2.40870e-11 1.70698e-13
  119 137.302 -2.39280e-11 2.03332e-13
  120 137.302 -2.39951e-11 -4.54091e-13
  121 137.302 -2.40067e-11 -4.39730e-14
  122 137.302 -2.39717e-11 3.84942e-13
  123 137.302 -2.40359e-11 -4.93486e-14
  124 137.302 -2.40767e-11 2.49807e-13
  125 137.302 -2.41074e-11 9.54361e-14
  126 137.302 -2.39236e-11 8.70581e-14
  127 137.302 -2.40505e-11 -9.38791e-14
  128 137.302 -2.40308e-11 1.89780e-13
  129 137.302 -2.39925e-11 -2.34927e-13
  130 137.302 -2.40665e-11 3.70863e-13
  131 137.302 -2.40257e-11 1.24675e-13
  132 137.302 -2.40461e-11 -3.25187e-13
  133 137.302 -2.39717e-11 1.09940e-13
  134 137.302 -2.40505e-11 -1.27858e-13
  135 137.302 -2.39805e-11 1.46501e-13
  136 137.302 -2.39367e-11 3.25146e-14
  137 137.302 -2.40155e-11 1.27092e-13
  138 137.302 -2.40665e-11 4.43887e-13
  139 137.302 -2.39630e-11 2.53683e-14
  140 137.302 -2.38492e-11 1.57864e-13
  141 137.302 -2.40155e-11 6.99613e-14
  142 137.302 -2.38725e-11 1.31152e-13
  143 137.302 -2.40155e-11 2.39205e-13
  144 137.302 -2.40400e-11 -2.41015e-13
  145 137.302 -2.39787e-11 -4.74091e-13
  146 137.302 -2.40592e-11 -1.48362e-13
  147 137.302 -2.41788e-11 -3.77883e-13
  148 137.302 -2.39236e-11 -8.99474e-15
  149 137.302 -2.38011e-11 7.97784e-14
  150 137.302 -2.39338e-11 -1.04931e-13
  151 137.302 -2.39338e-11 -1.27864e-13
  152 137.302 -2.39746e-11 -7.30492e-14
  153 137.302 -2.40767e-11 -6.97598e-14
  154 137.302 -2.40645e-11 1.48266e-13
  155 137.302 -2.39848e-11 3.42864e-13
  156 137.302 -2.38842e-11 1.19423e-13
  157 137.302 -2.40592e-11 1.13675e-13
  158 137.302 -2.38623e-11 1.85085e-13
  159 137.302 -2.38419e-11 3.19068e-14
  160 137.302 -2.39175e-11 4.31123e-14
  161 137.302 -2.38684e-11 2.23046e-14
  162 137.302 -2.40563e-11 3.64906e-13
  163 137.302 -2.39848e-11 2.75939e-13
  164 137.302 -2.39017e-11 -3.36222e-14
  165 137.302 -2.40155e-11 -1.48470e-13
  166 137.302 -2.39805e-11 -6.25194e-14
  167 137.302 -2.39105e-11 -5.74143e-14
  168 137.302 -2.38667e-11 -4.91178e-14
  169 137.302 -2.40155e-11 -1.95839e-14
  170 137.302 -2.38684e-11 5.08287e-14
  171 137.302 -2.39192e-11 1.03447e-13
  172 137.302 -2.39338e-11 2.02361e-13
  173 137.302 -2.40257e-11 -9.26370e-14
  174 137.302 -2.39848e-11 1.00460e-13
  175 137.302 -2.38827e-11 -1.91468e-14
  176 137.302 -2.39951e-11 2.72811e-14
  177 137.302 -2.38827e-11 -1.20765e-13
  178 137.302 -2.39542e-11 2.66665e-13
  179 137.302 -2.38807e-11 1.52838e-13
  180 137.302 -2.39280e-11 4.44175e-14
  181 137.302 -2.40461e-11 5.26226e-14
  182 137.302 -2.40032e-11 -3.29346e-13
  183 137.302 -2.40767e-11 -5.24277e-13
  184 137.302 -2.38684e-11 1.40163e-13
  185 137.302 -2.40053e-11 -1.23381e-13
  186 137.302 -2.39910e-11 2.18856e-13
  187 137.302 -2.38725e-11 -3.01917e-13
  188 137.302 -2.39787e-11 1.60993e-13
  189 137.302 -2.40645e-11 -1.18158e-13
  190 137.302 -2.41293e-11 -4.17007e-13
  191 137.302 -2.41278e-11 2.96188e-13
  192 137.302 -2.40067e-11 8.79890e-15
  193 137.302 -2.39175e-11 -4.67881e-13
  194 137.302 -2.39032e-11 -1.94336e-14
  195 137.302 -2.40563e-11 -6.76950e-14
  196 137.302 -2.37602e-11 7.82138e-14
  197 137.302 -2.39542e-11 -7.19054e-14
  198 137.302 -2.39644e-11 1.95436e-13
  199 137.302 -2.39542e-11 1.71862e-13
  200 137.302 -2.38827e-11 9.04680e-14
  201 137.302 -2.40563e-11 -3.65871e-13
  202 137.302 -2.39787e-11 8.36008e-14
  203 137.302 -2.40257e-11 -5.28212e-14
  204 137.302 -2.40257e-11 -1.12622e-13
  205 137.302 -2.40359e-11 -1.04545e-13
  206 137.302 -2.39787e-11 1.02851e-13
  207 137.302 -2.39297e-11 3.45472e-13
  208 137.302 -2.40400e-11 -5.19207e-13
  209 137.302 -2.39032e-11 8.15234e-14
  210 137.302 -2.40461e-11 -3.84379e-13
  211 137.302 -2.39367e-11 8.79840e-14
  212 137.302 -2.40400e-11 1.90631e-13
  213 137.302 -2.39420e-11 9.40600e-14
  214 137.302 -2.40359e-11 -6.19326e-14
  215 137.302 -2.39420e-11 2.97614e-13
  216 137.302 -2.41135e-11 -4.52023e-13
  217 137.302 -2.38827e-11 9.38075e-14
  218 137.302 -2.40665e-11 -4.27538e-13
  219 137.302 -2.39910e-11 1.37414e-13
  220 137.302 -2.40870e-11 -1.44959e-13
  221 137.302 -2.39848e-11 -1.42412e-13
  222 137.302 -2.39440e-11 1.86373e-14
  223 137.302 -2.38439e-11 1.07393e-13
  224 137.302 -2.39787e-11 -1.94958e-14
  225 137.302 -2.38929e-11 2.81807e-13
  226 137.302 -2.39175e-11 -1.19834e-13
  227 137.302 -2.40257e-11 -3.88403e-14
  228 137.302 -2.40767e-11 2.46360e-13
  229 137.302 -2.39338e-11 -5.92983e-14
  230 137.302 -2.37398e-11 2.28723e-13
  231 137.302 -2.39787e-11 -1.08469e-13
  232 137.302 -2.40400e-11 1.10203e-13
  233 137.302 -2.39542e-11 1.24378e-13
  234 137.302 -2.41482e-11 -6.03132e-13
  235 137.302 -2.40522e-11 -8.06727e-14
  236 137.302 -2.40155e-11 -2.81485e-14
  237 137.302 -2.39420e-11 1.33645e-13
  238 137.302 -2.39787e-11 -8.95147e-14
  239 137.302 -2.39032e-11 -2.78037e-14
  240 137.302 -2.40400e-11 1.76757e-13
  241 137.302 -2.38725e-11 1.63644e-13
</Section>

newXOutput 140

<Section columns = "stress_xx | stress_yy | stress_xy">
  1 121.063 -2.08725e-11 -1.31224e-14
  2 121.063 -2.09262e-11 4.66474e-14
  3 121.063 -2.09800e-11 4.49654e-14
  4 121.063 -2.09531e-11 9.04125e-15
  5 121.063 -2.09889e-11 -7.12644e-14
  6 121.063 -2.11143e-11 -1.10537e-13
  7 121.063 -2.10337e-11 -1.25719e-13
  8 121.063 -2.09531e-11 -1.57184e-13
  9 121.063 -2.10068e-11 -9.15073e-14
  10 121.063 -2.09710e-11 1.11750e-14
  11 121.063 -2.09173e-11 -2.10717e-15
  12 121.063 -2.09531e-11 -8.06169e-15
  13 121.063 -2.10337e-11 -8.27827e-14
  14 121.063 -2.10605e-11 -5.76627e-14
  15 121.063 -2.10471e-11 -1.17613e-13
  16 121.063 -2.09352e-11 -1.78161e-13
  17 121.063 -2.08815e-11 -2.58813e-13
  18 121.063 -2.09531e-11 -2.40997e-13
  19 121.063 -2.10068e-11 -2.72095e-13
  20 121.063 -2.10247e-11 -1.82695e-13
  21 121.063 -2.10605e-11 -6.67305e-14
  22 121.063 -2.09531e-11 1.38315e-13
  23 121.063 -2.10785e-11 1.26820e-13
  24 121.063 -2.08994e-11 -3.10983e-14
  25 121.063 -2.08456e-11 2.04026e-14
  26 121.063 -2.09800e-11 -4.43096e-14
  27 121.063 -2.10247e-11 1.13348e-14
  28 121.063 -2.08994e-11 8.18727e-14
  29 121.063 -2.10068e-11 -1.02013e-14
  30 121.063 -2.10247e-11 -8.88334e-14
  31 121.063 -2.10068e-11 1.30936e-13
  32 121.063 -2.11143e-11 7.14105e-14
  33 121.063 -2.09934e-11 1.70235e-14
  34 121.063 -2.09173e-11 -5.53429e-14
  35 121.063 -2.09262e-11 -5.82283e-14
  36 121.063 -2.09531e-11 -7.42755e-14
  37 121.063 -2.09889e-11 -2.10511e-14
  38 121.063 -2.09710e-11 -1.94235e-14
  39 121.063 -2.10605e-11 8.88939e-14
  40 121.063 -2.09889e-11 1.89677e-13
  41 121.063 -2.10068e-11 1.01718e-13
  42 121.063 -2.09889e-11 1.34584e-13
  43 121.063 -2.09531e-11 1.30531e-13
  44 121.063 -2.10068e-11 1.08088e-13
  45 121.063 -2.10068e-11 1.24025e-13
  46 121.063 -2.10068e-11 7.25216e-14
  47 121.063 -2.09531e-11 1.79940e-15
  48 121.063 -2.10068e-11 3.62528e-15
  49 121.063 -2.10068e-11 1.80602e-14
  50 121.063 -2.09531e-11 -1.07281e-14
  51 121.063 -2.08994e-11 -1.19015e-14
  52 121.063 -2.09665e-11 1.39833e-14
  53 121.063 -2.09710e-11 -6.72099e-15
  54 121.063 -2.09531e-11 -8.38126e-15
  55 121.063 -2.09531e-11 1.36018e-14
  56 121.063 -2.09173e-11 1.63556e-14
  57 121.063 -2.09531e-11 2.25098e-14
  58 121.063 -2.10158e-11 1.00428e-13
  59 121.063 -2.09838e-11 2.04783e-13
  60 121.063 -2.09889e-11 -5.83842e-15
  61 121.063 -2.10516e-11 1.87424e-14
  62 121.063 -2.09889e-11 5.96887e-15
  63 121.063 -2.09101e-11 2.85637e-14
  64 121.063 -2.09979e-11 -4.61606e-14
  65 121.063 -2.09800e-11 3.42186e-14
  66 121.063 -2.10068e-11 5.13468e-15
  67 121.063 -2.09800e-11 -3.99446e-14
  68 121.063 -2.10874e-11 -4.65476e-14
  69 121.063 -2.09377e-11 -1.02294e-13
  70 121.063 -2.10001e-11 -1.08908e-13
  71 121.063 -2.09620e-11 2.21578e-16
  72 121.063 -2.10222e-11 -3.45838e-14
  73 121.063 -2.09531e-11 6.58581e-15
  74 121.063 -2.09209e-11 5.49294e-16
  75 121.063 -2.08994e-11 -1.35570e-13
  76 121.063 -2.10964e-11 3.05316e-14
  77 121.063 -2.09173e-11 3.34863e-15
  78 121.063 -2.09173e-11 -1.74611e-14
  79 121.063 -2.09684e-11 1.67418e-13
  80 121.063 -2.10337e-11 1.61427e-13
  81 121.063 -2.09262e-11 1.29966e-13
  82 121.063 -2.09620e-11 -1.55399e-13
  83 121.063 -2.10247e-11 5.67651e-14
  84 121.063 -2.09800e-11 -1.01851e-14
  85 121.063 -2.09620e-11 -2.68515e-14
  86 121.063 -2.09710e-11 -1.36974e-13
  87 121.063 -2.09710e-11 -1.52524e-14
  88 121.063 -2.10068e-11 -1.60644e-13
  89 121.063 -2.09853e-11 5.80471e-15
  90 121.063 -2.09979e-11 -1.04434e-13
  91 121.063 -2.10391e-11 -1.67141e-13
  92 121.063 -2.09316e-11 5.03621e-14
  93 121.063 -2.09424e-11 2.03574e-13
  94 121.063 -2.10713e-11 -2.64845e-14
  95 121.063 -2.11035e-11 -1.81646e-13
  96 121.063 -2.09979e-11 2.46206e-13
  97 121.063 -2.10176e-11 -2.65324e-14
  98 121.063 -2.09961e-11 -3.99642e-14
  99 121.063 -2.09083e-11 -1.02036e-13
  100 121.063 -2.09209e-11 4.36020e-14
  101 121.063 -2.09531e-11 -7.86320e-14
  102 121.063 -2.09746e-11 9.93318e-15
  103 121.063 -2.10068e-11 -3.37123e-14
  104 121.063 -2.10176e-11 9.99909e-14
  105 121.063 -2.10391e-11 -1.64840e-13
  106 121.063 -2.09710e-11 5.94353e-14
  107 121.063 -2.10247e-11 3.16831e-14
  108 121.063 -2.09531e-11 7.77364e-15
  109 121.063 -2.10498e-11 -6.29306e-15
  110 121.063 -2.08349e-11 6.88986e-14
  111 121.063 -2.09397e-11 -5.38403e-14
  112 121.063 -2.10516e-11 4.41569e-14
  113 121.063 -2.10222e-11 -9.62268e-14
  114 121.063 -2.09454e-11 -8.50631e-14
  115 121.063 -2.09889e-11 4.02019e-14
  116 121.063 -2.09853e-11 -1.78066e-14
  117 121.063 -2.10874e-11 -5.64493e-14
  118 121.063 -2.09800e-11 4.00516e-14
  119 121.063 -2.09991e-11 -8.93680e-14
  120 121.063 -2.09620e-11 -3.23154e-14
  121 121.063 -2.09608e-11 3.92586e-14
  122 121.063 -2.09991e-11 2.68820e-14
  123 121.063 -2.09441e-11 -9.77889e-14
  124 121.063 -2.09991e-11 -2.64580e-14
  125 121.063 -2.09732e-11 -2.50553e-14
  126 121.063 -2.09665e-11 -6.75393e-14
  127 121.063 -2.10068e-11 3.41788e-14
  128 121.063 -2.10270e-11 -7.14916e-14
  129 121.063 -2.09800e-11 -2.87471e-14
  130 121.063 -2.10247e-11 7.26220e-14
  131 121.063 -2.09979e-11 -6.90337e-14
  132 121.063 -2.09934e-11 -8.00412e-14
  133 121.063 -2.09608e-11 -9.40203e-14
  134 121.063 -2.09761e-11 6.69495e-15
  135 121.063 -2.09684e-11 -3.06104e-14
  136 121.063 -2.09761e-11 3.53635e-15
  137 121.063 -2.09838e-11 -3.32963e-14
  138 121.063 -2.10516e-11 1.20566e-13
  139 121.063 -2.09454e-11 3.12229e-14
  140 121.063 -2.09454e-11 2.86009e-15
  141 121.063 -2.10695e-11 9.41537e-14
  142 121.063 -2.09979e-11 -8.76200e-14
  143 121.063 -2.09454e-11 2.28963e-14
  144 121.063 -2.10068e-11 -1.20173e-13
  145 121.063 -2.08886e-11 -1.43849e-14
  146 121.063 -2.09915e-11 -7.97035e-14
  147 121.063 -2.10426e-11 -1.53462e-14
  148 121.063 -2.09441e-11 -8.56476e-15
  149 121.063 -2.08994e-11 7.86320e-14
  150 121.063 -2.09620e-11 4.14771e-14
  151 121.063 -2.10068e-11 -6.21329e-14
  152 121.063 -2.09800e-11 7.28935e-14
  153 121.063 -2.10337e-11 1.41264e-13
  154 121.063 -2.10820e-11 2.08483e-13
  155 121.063 -2.09441e-11 -3.64461e-14
  156 121.063 -2.09915e-11 1.30488e-13
  157 121.063 -2.09531e-11 1.55328e-14
  158 121.063 -2.09800e-11 1.10689e-13
  159 121.063 -2.09352e-11 2.02923e-13
  160 121.063 -2.09424e-11 6.80088e-15
  161 121.063 -2.10391e-11 -1.06897e-14
  162 121.063 -2.09710e-11 1.02238e-13
  163 121.063 -2.10068e-11 1.27495e-13
  164 121.063 -2.09991e-11 1.54047e-14
  165 121.063 -2.09800e-11 -2.69576e-15
  166 121.063 -2.09377e-11 -5.18706e-15
  167 121.063 -2.09070e-11 -5.12778e-14
  168 121.063 -2.10145e-11 -8.63442e-14
  169 121.063 -2.09991e-11 5.58644e-15
  170 121.063 -2.09209e-11 7.63271e-14
  171 121.063 -2.09301e-11 -9.30386e-14
  172 121.063 -2.09262e-11 -1.58805e-13
  173 121.063 -2.09710e-11 -7.00751e-14
  174 121.063 -2.09979e-11 -1.19415e-14
  175 121.063 -2.09531e-11 1.81532e-16
  176 121.063 -2.09262e-11 2.67017e-15
  177 121.063 -2.09979e-11 -9.02442e-14
  178 121.063 -2.10068e-11 3.86656e-14
  179 121.063 -2.09853e-11 -7.18871e-14
  180 121.063 -2.09147e-11 3.73567e-14
  181 121.063 -2.09710e-11 1.33226e-13
  182 121.063 -2.09746e-11 -5.55280e-14
  183 121.063 -2.10605e-11 -1.41392e-13
  184 121.063 -2.08994e-11 -1.18027e-13
  185 121.063 -2.09531e-11 -7.96401e-15
  186 121.063 -2.09531e-11 -1.27424e-13
  187 121.063 -2.10247e-11 -7.73796e-15
  188 121.063 -2.09853e-11 2.09067e-13
  189 121.063 -2.10176e-11 4.48184e-14
  190 121.063 -2.09454e-11 -5.07582e-14
  191 121.063 -2.10158e-11 1.10170e-13
  192 121.063 -2.10605e-11 -3.45373e-14
  193 121.063 -2.09316e-11 -5.01727e-14
  194 121.063 -2.09889e-11 -1.13348e-15
  195 121.063 -2.09531e-11 2.42753e-15
  196 121.063 -2.09441e-11 -9.91933e-14
  197 121.063 -2.10605e-11 -1.99632e-14
  198 121.063 -2.10158e-11 -1.60505e-13
  199 121.063 -2.09531e-11 2.21515e-15
  200 121.063 -2.09531e-11 -2.25373e-14
  201 121.063 -2.09620e-11 -1.42530e-13
  202 121.063 -2.09961e-11 -9.20306e-14
  203 121.063 -2.09800e-11 -7.71952e-14
  204 121.063 -2.09979e-11 -4.39117e-14
  205 121.063 -2.09710e-11 3.83504e-14
  206 121.063 -2.10283e-11 -1.87261e-13
  207 121.063 -2.10176e-11 5.70798e-14
  208 121.063 -2.09316e-11 -6.04255e-14
  209 121.063 -2.10158e-11 -4.90742e-14
  210 121.063 -2.09531e-11 -4.37830e-14
  211 121.063 -2.09991e-11 -4.04147e-14
  212 121.063 -2.10283e-11 4.59194e-14
  213 121.063 -2.10176e-11 -2.80016e-15
  214 121.063 -2.10426e-11 -2.23532e-14
  215 121.063 -2.10820e-11 -1.18086e-13
  216 121.063 -2.10498e-11 -1.43439e-13
  217 121.063 -2.09800e-11 3.61915e-14
  218 121.063 -2.09531e-11 -5.03962e-14
  219 121.063 -2.09531e-11 -6.03735e-14
  220 121.063 -2.10605e-11 3.76121e-14
  221 121.063 -2.11053e-11 1.00248e-13
  222 121.063 -2.11411e-11 1.72135e-13
  223 121.063 -2.09209e-11 -6.91525e-14
  224 121.063 -2.10068e-11 -3.99904e-14
  225 121.063 -2.10283e-11 -1.06462e-14
  226 121.063 -2.09316e-11 4.07379e-14
  227 121.063 -2.10695e-11 -6.90774e-14
  228 121.063 -2.09853e-11 -2.54599e-14
  229 121.063 -2.10426e-11 1.97042e-14
  230 121.063 -2.09620e-11 1.45755e-14
  231 121.063 -2.09531e-11 5.69356e-14
  232 121.063 -2.09853e-11 1.74213e-14
  233 121.063 -2.11035e-11 1.19713e-13
  234 121.063 -2.10337e-11 -1.58613e-13
  235 121.063 -2.09853e-11 6.15391e-14
  236 121.063 -2.09531e-11 -2.77350e-14
  237 121.063 -2.09638e-11 -1.55507e-14
  238 121.063 -2.09961e-11 6.72418e-14
  239 121.063 -2.09352e-11 1.33510e-13
  240 121.063 -2.09638e-11 -4.17146e-14
  241 121.063 -2.09441e-11 -1.00096e-13
</Section>

newXOutput 141

<Section columns = "stress_xx | stress_yy | stress_xy">
  1 104.883 -1.90509e-11 5.48558e-13
  2 104.883 -1.70601e-11 6.10008e-13
  3 104.883 -1.81249e-11 7.77422e-14
  4 104.883 -1.77314e-11 2.70615e-13
  5 104.883 -1.85956e-11 1.73606e-12
  6 104.883 -1.82870e-11 2.93707e-12
  7 104.883 -1.84953e-11 3.93648e-12
  8 104.883 -1.86110e-11 5.27328e-12
  9 104.883 -1.87499e-11 6.12617e-12
  10 104.883 -1.83796e-11 7.37130e-12
  11 104.883 -1.80864e-11 7.81512e-12
  12 104.883 -1.81635e-11 7.93993e-12
  13 104.883 -1.81134e-11 7.43748e-12
  14 104.883 -1.80401e-11 7.49734e-12
  15 104.883 -1.83564e-11 7.01635e-12
  16 104.883 -1.82098e-11 8.19309e-12
  17 104.883 -1.78240e-11 7.90012e-12
  18 104.883 -1.77160e-11 7.47786e-12
  19 104.883 -1.75771e-11 6.57172e-12
  20 104.883 -1.77005e-11 5.79463e-12
  21 104.883 -1.76388e-11 4.80374e-12
  22 104.883 -1.74845e-11 3.48215e-12
  23 104.883 -1.75462e-11 1.77686e-12
  24 104.883 -1.67592e-11 9.20486e-14
  25 104.883 -1.68286e-11 -4.09217e-14
  26 104.883 -1.71180e-11 -2.52246e-13
  27 104.883 -1.76080e-11 -7.01515e-14
  28 104.883 -1.79629e-11 -9.75482e-14
  29 104.883 -1.80092e-11 -3.79988e-14
  30 104.883 -1.81172e-11 -2.36359e-14
  31 104.883 -1.81481e-11 2.33808e-13
  32 104.883 -1.81249e-11 2.25806e-13
  33 104.883 -1.81365e-11 3.22624e-13
  34 104.883 -1.81326e-11 5.16264e-13
  35 104.883 -1.82175e-11 8.78831e-13
  36 104.883 -1.81789e-11 1.22180e-12
  37 104.883 -1.82561e-11 1.47030e-12
  38 104.883 -1.83024e-11 1.91956e-12
  39 104.883 -1.84104e-11 2.28985e-12
  40 104.883 -1.82561e-11 2.76935e-12
  41 104.883 -1.82561e-11 3.02813e-12
  42 104.883 -1.83178e-11 3.41294e-12
  43 104.883 -1.81789e-11 3.70771e-12
  44 104.883 -1.79475e-11 3.57862e-12
  45 104.883 -1.78857e-11 3.25930e-12
  46 104.883 -1.79012e-11 2.90609e-12
  47 104.883 -1.78703e-11 2.35477e-12
  48 104.883 -1.78703e-11 1.71848e-12
  49 104.883 -1.79012e-11 8.73016e-13
  50 104.883 -1.77160e-11 -2.68869e-14
  51 104.883 -1.78472e-11 -6.28441e-14
  52 104.883 -1.80323e-11 -1.13145e-13
  53 104.883 -1.83333e-11 -1.29484e-13
  54 104.883 -1.88309e-11 -1.85039e-13
  55 104.883 -1.90509e-11 -5.84596e-14
  56 104.883 -1.91975e-11 4.77561e-14
  57 104.883 -1.82561e-11 -1.24350e-12
  58 104.883 -1.77546e-11 -1.27517e-12
  59 104.883 -1.82341e-11 -1.93967e-12
  60 104.883 -1.81172e-11 -1.33087e-12
  61 104.883 -1.84181e-11 -2.29754e-12
  62 104.883 -1.81481e-11 -1.06058e-12
  63 104.883 -1.78518e-11 -1.85555e-12
  64 104.883 -1.70138e-11 -1.05882e-12
  65 104.883 -1.79166e-11 -5.84764e-13
  66 104.883 -1.88271e-11 -1.01552e-12
  67 104.883 -1.80709e-11 -3.56961e-13
  68 104.883 -1.79012e-11 -1.38462e-12
  69 104.883 -1.82671e-11 -2.87154e-13
  70 104.883 -1.82002e-11 -6.22724e-13
  71 104.883 -1.87345e-11 -1.14507e-12
  72 104.883 -1.81811e-11 -8.62225e-13
  73 104.883 -1.73280e-11 -9.62322e-13
  74 104.883 -1.79073e-11 -8.77144e-13
  75 104.883 -1.82222e-11 -8.26734e-13
  76 104.883 -1.76543e-11 -4.71453e-13
  77 104.883 -1.83178e-11 -4.62704e-13
  78 104.883 -1.82021e-11 1.67943e-13
  79 104.883 -1.82936e-11 -1.80187e-12
  80 104.883 -1.80786e-11 -1.93791e-12
  81 104.883 -1.79860e-11 -1.67366e-12
  82 104.883 -1.82330e-11 -8.53550e-15
  83 104.883 -1.83255e-11 -1.57430e-12
  84 104.883 -1.91666e-11 6.41083e-13
  85 104.883 -1.79012e-11 1.59101e-12
  86 104.883 -1.68364e-11 4.38752e-13
  87 104.883 -1.76311e-11 -1.49503e-13
  88 104.883 -1.81944e-11 7.27084e-14
  89 104.883 -1.92592e-11 2.18202e-13
  90 104.883 -1.86110e-11 1.37274e-12
  91 104.883 -1.80462e-11 -7.97358e-13
  92 104.883 -1.82407e-11 -8.02222e-13
  93 104.883 -1.77314e-11 -9.67338e-13
  94 104.883 -1.76944e-11 1.18379e-12
  95 104.883 -1.80184e-11 -4.44386e-13
  96 104.883 -1.80169e-11 -2.24438e-12
  97 104.883 -1.70370e-11 1.20697e-12
  98 104.883 -1.77222e-11 -1.42022e-13
  99 104.883 -1.78317e-11 2.55796e-12
  100 104.883 -1.87962e-11 -1.61746e-12
  101 104.883 -1.83410e-11 1.40506e-12
  102 104.883 -1.75833e-11 -1.82279e-12
  103 104.883 -1.80555e-11 -6.67707e-13
  104 104.883 -1.80277e-11 -1.02335e-12
  105 104.883 -1.82870e-11 3.69999e-13
  106 104.883 -1.82175e-11 -2.42846e-12
  107 104.883 -1.72067e-11 -5.83284e-13
  108 104.883 -1.80709e-11 -2.72652e-13
  109 104.883 -1.89073e-11 -4.64247e-13
  110 104.883 -1.80184e-11 -2.37613e-13
  111 104.883 -1.81712e-11 1.20968e-13
  112 104.883 -1.81172e-11 -1.33444e-12
  113 104.883 -1.82473e-11 9.37678e-13
  114 104.883 -1.82274e-11 6.79416e-13
  115 104.883 -1.82793e-11 -2.41940e-12
  116 104.883 -1.90555e-11 2.25120e-12
  117 104.883 -1.72453e-11 -1.32111e-12
  118 104.883 -1.79783e-11 -7.16706e-13
  119 104.883 -1.80555e-11 3.04792e-12
  120 104.883 -1.83564e-11 4.07847e-13
  121 104.883 -1.84854e-11 -1.92197e-12
  122 104.883 -1.81679e-11 -1.27634e-12
  123 104.883 -1.82407e-11 -6.14740e-13
  124 104.883 -1.80753e-11 -1.09839e-12
  125 104.883 -1.81481e-11 -1.17508e-12
  126 104.883 -1.87384e-11 2.57579e-12
  127 104.883 -1.79827e-11 -1.50512e-12
  128 104.883 -1.74826e-11 2.97313e-12
  129 104.883 -1.78819e-11 7.85543e-13
  130 104.883 -1.81789e-11 -1.57638e-12
  131 104.883 -1.80401e-11 3.93799e-12
  132 104.883 -1.82059e-11 1.20430e-12
  133 104.883 -1.78968e-11 4.47740e-12
  134 104.883 -1.86772e-11 -1.41124e-12
  135 104.883 -1.72023e-11 2.50666e-12
  136 104.883 -1.77314e-11 8.88586e-13
  137 104.883 -1.81547e-11 -3.59146e-13
  138 104.883 -1.82021e-11 -1.50500e-12
  139 104.883 -1.84655e-11 -8.88755e-13
  140 104.883 -1.78505e-11 -7.60494e-13
  141 104.883 -1.84104e-11 -2.01722e-12
  142 104.883 -1.86805e-11 4.40325e-12
  143 104.883 -1.80489e-11 -9.30258e-13
  144 104.883 -1.82407e-11 -5.76655e-13
  145 104.883 -1.81481e-11 4.25240e-13
  146 104.883 -1.80621e-11 1.23585e-12
  147 104.883 -1.83873e-11 1.46408e-12
  148 104.883 -1.84953e-11 -3.26295e-13
  149 104.883 -1.77700e-11 -2.02883e-13
  150 104.883 -1.81944e-11 -2.40235e-12
  151 104.883 -1.83641e-11 -1.75777e-12
  152 104.883 -1.74691e-11 -1.49855e-12
  153 104.883 -1.80092e-11 -2.44098e-12
  154 104.883 -1.81573e-11 -2.14648e-12
  155 104.883 -1.80709e-11 -1.24469e-12
  156 104.883 -1.74206e-11 -8.88536e-13
  157 104.883 -1.81216e-11 -5.28857e-13
  158 104.883 -1.80169e-11 -1.80237e-12
  159 104.883 -1.79706e-11 -2.02606e-12
  160 104.883 -1.82314e-11 -2.09601e-13
  161 104.883 -1.75185e-11 -2.32490e-13
  162 104.883 -1.82484e-11 -1.35714e-12
  163 104.883 -1.80786e-11 -1.85340e-12
  164 104.883 -1.75396e-11 -1.13091e-12
  165 104.883 -1.88657e-11 -9.99230e-13
  166 104.883 -1.77777e-11 -1.49177e-13
  167 104.883 -1.68319e-11 -1.36016e-13
  168 104.883 -1.81150e-11 -4.43775e-14
  169 104.883 -1.92129e-11 -1.01163e-13
  170 104.883 -1.81018e-11 -2.06185e-13
  171 104.883 -1.83597e-11 4.58655e-12
  172 104.883 -1.79783e-11 5.89528e-12
  173 104.883 -1.79938e-11 1.29445e-12
  174 104.883 -1.71218e-11 6.87481e-13
  175 104.883 -1.77314e-11 2.00498e-13
  176 104.883 -1.90277e-11 5.64061e-13
  177 104.883 -1.81249e-11 7.64278e-14
  178 104.883 -1.81712e-11 -1.24711e-12
  179 104.883 -1.87592e-11 3.57968e-12
  180 104.883 -1.84920e-11 -1.18187e-12
  181 104.883 -1.78240e-11 -1.53621e-12
  182 104.883 -1.82036e-11 1.26274e-12
  183 104.883 -1.80092e-11 -7.94263e-13
  184 104.883 -1.80647e-11 6.13443e-12
  185 104.883 -1.89197e-11 -1.08252e-12
  186 104.883 -1.81481e-11 6.31718e-12
  187 104.883 -1.81867e-11 2.46803e-13
  188 104.883 -1.82777e-11 -2.01704e-12
  189 104.883 -1.84907e-11 -2.29073e-12
  190 104.883 -1.79695e-11 -8.67888e-13
  191 104.883 -1.81481e-11 -1.16237e-12
  192 104.883 -1.77777e-11 -2.71236e-13
  193 104.883 -1.82684e-11 7.29919e-13
  194 104.883 -1.69598e-11 -6.56488e-13
  195 104.883 -1.78626e-11 -4.15615e-13
  196 104.883 -1.80786e-11 -1.77469e-13
  197 104.883 -1.91203e-11 -5.52614e-13
  198 104.883 -1.76697e-11 4.64758e-12
  199 104.883 -1.81789e-11 -8.70238e-13
  200 104.883 -1.77623e-11 -1.03860e-12
  201 104.883 -1.81867e-11 -7.40285e-13
  202 104.883 -1.82962e-11 -8.32323e-13
  203 104.883 -1.85725e-11 -3.00377e-13
  204 104.883 -1.82021e-11 -1.16418e-12
  205 104.883 -1.86959e-11 -1.76132e-12
  206 104.883 -1.75555e-11 4.20717e-12
  207 104.883 -1.78055e-11 1.86315e-12
  208 104.883 -1.81759e-11 6.32056e-13
  209 104.883 -1.68749e-11 -3.55148e-14
  210 104.883 -1.77777e-11 -5.29421e-13
  211 104.883 -1.87499e-11 1.88653e-12
  212 104.883 -1.74166e-11 1.94699e-12
  213 104.883 -1.78518e-11 8.04877e-13
  214 104.883 -1.82175e-11 1.81964e-12
  215 104.883 -1.79351e-11 -9.52912e-13
  216 104.883 -1.79814e-11 -8.76736e-13
  217 104.883 -1.71141e-11 -5.48224e-13
  218 104.883 -1.78472e-11 -8.27484e-13
  219 104.883 -1.81110e-11 8.50457e-13
  220 104.883 -1.80632e-11 -9.23392e-13
  221 104.883 -1.80401e-11 -2.45548e-12
  222 104.883 -1.75462e-11 -1.13778e-12
  223 104.883 -1.82499e-11 5.76796e-12
  224 104.883 -1.88240e-11 5.75321e-13
  225 104.883 -1.72592e-11 8.60638e-13
  226 104.883 -1.86666e-11 -1.36456e-12
  227 104.883 -1.80015e-11 -1.13271e-12
  228 104.883 -1.81203e-11 -1.23741e-12
  229 104.883 -1.86959e-11 -7.04058e-13
  230 104.883 -1.78780e-11 -4.43631e-13
  231 104.883 -1.79999e-11 -2.03732e-12
  232 104.883 -1.79629e-11 -6.28961e-13
  233 104.883 -1.74166e-11 -1.08204e-12
  234 104.883 -1.81404e-11 -5.26435e-13
  235 104.883 -1.82592e-11 2.25362e-12
  236 104.883 -1.91534e-11 -6.72431e-15
  237 104.883 -1.80092e-11 1.85403e-12
  238 104.883 -1.83518e-11 -2.43492e-12
  239 104.883 -1.77777e-11 -1.84526e-12
  240 104.883 -1.82962e-11 5.98084e-12
  241 104.883 -1.83255e-11 5.11479e-12
</Section>

newXOutput 142

<Section columns = "stress_xx | stress_yy | stress_xy">
  1 88.7626 -1.51213e-11 -1.15771e-15
  2 88.7626 -1.52577e-11 -2.45453e-14
  3 88.7626 -1.51797e-11 2.84677e-15
  4 88.7626 -1.51797e-11 -2.73977e-14
  5 88.7626 -1.51213e-11 -1.44490e-14
  6 88.7626 -1.51213e-11 -3.75584e-14
  7 88.7626 -1.51213e-11 -4.59406e-14
  8 88.7626 -1.51213e-11 -8.86085e-14
  9 88.7626 -1.51213e-11 -1.48319e-13
  10 88.7626 -1.51602e-11 -2.27480e-13
  11 88.7626 -1.51473e-11 -2.31525e-13
  12 88.7626 -1.52122e-11 -2.57521e-13
  13 88.7626 -1.51408e-11 -1.73644e-13
  14 88.7626 -1.51732e-11 -1.45232e-13
  15 88.7626 -1.51213e-11 -1.76897e-13
  16 88.7626 -1.51602e-11 -2.87562e-13
  17 88.7626 -1.51343e-11 -3.87903e-13
  18 88.7626 -1.50303e-11 -3.61907e-13
  19 88.7626 -1.50563e-11 -3.29736e-13
  20 88.7626 -1.51602e-11 -3.52274e-13
  21 88.7626 -1.51862e-11 -3.16645e-13
  22 88.7626 -1.52122e-11 -1.67955e-13
  23 88.7626 -1.53161e-11 -1.05158e-13
  24 88.7626 -1.51213e-11 -3.56289e-14
  25 88.7626 -1.51992e-11 4.90907e-15
  26 88.7626 -1.52090e-11 2.18126e-14
  27 88.7626 -1.51213e-11 3.68943e-14
  28 88.7626 -1.49946e-11 -3.86875e-14
  29 88.7626 -1.49654e-11 9.81814e-15
  30 88.7626 -1.50953e-11 6.85224e-15
  31 88.7626 -1.50953e-11 -1.59025e-14
  32 88.7626 -1.50823e-11 -2.72773e-14
  33 88.7626 -1.51115e-11 -1.03004e-13
  34 88.7626 -1.51213e-11 -1.34704e-13
  35 88.7626 -1.51602e-11 -1.49836e-13
  36 88.7626 -1.50953e-11 -3.20871e-13
  37 88.7626 -1.51083e-11 -3.75936e-13
  38 88.7626 -1.51473e-11 -4.62355e-13
  39 88.7626 -1.51602e-11 -5.07626e-13
  40 88.7626 -1.51083e-11 -5.30811e-13
  41 88.7626 -1.51213e-11 -4.94459e-13
  42 88.7626 -1.50823e-11 -5.68494e-13
  43 88.7626 -1.51473e-11 -5.95919e-13
  44 88.7626 -1.51602e-11 -5.62249e-13
  45 88.7626 -1.51992e-11 -5.01414e-13
  46 88.7626 -1.51602e-11 -4.52411e-13
  47 88.7626 -1.51602e-11 -3.57944e-13
  48 88.7626 -1.51602e-11 -2.16155e-13
  49 88.7626 -1.51602e-11 -9.42827e-14
  50 88.7626 -1.51992e-11 -6.38313e-15
  51 88.7626 -1.51992e-11 2.20908e-14
  52 88.7626 -1.51797e-11 2.53512e-14
  53 88.7626 -1.51213e-11 -4.04452e-15
  54 88.7626 -1.51213e-11 6.68042e-15
  55 88.7626 -1.51213e-11 -9.81814e-15
  56 88.7626 -1.51213e-11 -1.70890e-14
  57 88.7626 -1.51408e-11 8.27549e-14
  58 88.7626 -1.51667e-11 -6.73168e-14
  59 88.7626 -1.51324e-11 9.09428e-14
  60 88.7626 -1.51213e-11 1.97081e-13
  61 88.7626 -1.50953e-11 4.08551e-14
  62 88.7626 -1.51278e-11 1.45934e-13
  63 88.7626 -1.51291e-11 8.77512e-14
  64 88.7626 -1.50888e-11 6.76919e-14
  65 88.7626 -1.52707e-11 8.47790e-14
  66 88.7626 -1.51343e-11 8.58713e-15
  67 88.7626 -1.51862e-11 1.13013e-13
  68 88.7626 -1.51473e-11 8.13425e-14
  69 88.7626 -1.51213e-11 1.25186e-14
  70 88.7626 -1.51505e-11 8.31207e-14
  71 88.7626 -1.51602e-11 4.62693e-14
  72 88.7626 -1.51380e-11 6.30751e-14
  73 88.7626 -1.51658e-11 1.24674e-13
  74 88.7626 -1.51992e-11 9.50767e-14
  75 88.7626 -1.51291e-11 6.66242e-14
  76 88.7626 -1.51018e-11 7.32105e-14
  77 88.7626 -1.51213e-11 2.49118e-14
  78 88.7626 -1.51538e-11 -1.02604e-13
  79 88.7626 -1.51714e-11 1.19383e-13
  80 88.7626 -1.51278e-11 6.04251e-14
  81 88.7626 -1.51083e-11 4.82916e-14
  82 88.7626 -1.52317e-11 -1.19204e-13
  83 88.7626 -1.51343e-11 1.12541e-13
  84 88.7626 -1.50888e-11 6.00546e-15
  85 88.7626 -1.50693e-11 4.40889e-14
  86 88.7626 -1.51602e-11 4.27637e-15
  87 88.7626 -1.52512e-11 -4.37819e-14
  88 88.7626 -1.50589e-11 -1.08367e-13
  89 88.7626 -1.51525e-11 -3.99187e-15
  90 88.7626 -1.51408e-11 2.24423e-14
  91 88.7626 -1.51447e-11 2.17022e-14
  92 88.7626 -1.51213e-11 7.10442e-14
  93 88.7626 -1.51992e-11 -1.46769e-13
  94 88.7626 -1.51992e-11 6.31879e-14
  95 88.7626 -1.51992e-11 -2.84667e-14
  96 88.7626 -1.51862e-11 3.94771e-14
  97 88.7626 -1.51447e-11 4.78863e-14
  98 88.7626 -1.52382e-11 -5.18462e-14
  99 88.7626 -1.50888e-11 -6.09105e-14
  100 88.7626 -1.51213e-11 3.46228e-14
  101 88.7626 -1.51408e-11 6.44970e-14
  102 88.7626 -1.51836e-11 5.10404e-14
  103 88.7626 -1.51473e-11 2.03562e-13
  104 88.7626 -1.51836e-11 1.46539e-13
  105 88.7626 -1.51602e-11 -2.60943e-13
  106 88.7626 -1.51408e-11 1.83899e-14
  107 88.7626 -1.51862e-11 1.21799e-14
  108 88.7626 -1.51862e-11 4.69569e-14
  109 88.7626 -1.51213e-11 1.68389e-14
  110 88.7626 -1.50355e-11 4.96502e-14
  111 88.7626 -1.51700e-11 -1.23525e-13
  112 88.7626 -1.51408e-11 2.23889e-13
  113 88.7626 -1.52048e-11 -2.92247e-13
  114 88.7626 -1.51435e-11 -2.00204e-13
  115 88.7626 -1.51408e-11 3.41399e-14
  116 88.7626 -1.50901e-11 -1.75147e-14
  117 88.7626 -1.51083e-11 3.38153e-14
  118 88.7626 -1.51927e-11 1.13188e-13
  119 88.7626 -1.50934e-11 -3.01579e-14
  120 88.7626 -1.51667e-11 -1.08917e-13
  121 88.7626 -1.51380e-11 6.29640e-14
  122 88.7626 -1.51435e-11 1.92781e-13
  123 88.7626 -1.51083e-11 8.01988e-14
  124 88.7626 -1.51491e-11 1.24964e-13
  125 88.7626 -1.51456e-11 1.72974e-13
  126 88.7626 -1.51310e-11 -3.57952e-14
  127 88.7626 -1.51770e-11 8.03076e-14
  128 88.7626 -1.51359e-11 -4.58711e-14
  129 88.7626 -1.51797e-11 -1.97014e-13
  130 88.7626 -1.51343e-11 1.42477e-13
  131 88.7626 -1.51213e-11 -7.89370e-14
  132 88.7626 -1.51261e-11 -3.19669e-13
  133 88.7626 -1.51101e-11 -1.37531e-13
  134 88.7626 -1.51101e-11 5.98018e-14
  135 88.7626 -1.51770e-11 -8.07797e-14
  136 88.7626 -1.52104e-11 -1.65596e-13
  137 88.7626 -1.51658e-11 1.09941e-13
  138 88.7626 -1.51602e-11 1.86126e-13
  139 88.7626 -1.51491e-11 4.30880e-14
  140 88.7626 -1.51324e-11 2.91102e-14
  141 88.7626 -1.51343e-11 7.50058e-14
  142 88.7626 -1.51602e-11 -9.61494e-14
  143 88.7626 -1.51937e-11 1.35127e-13
  144 88.7626 -1.51680e-11 7.67615e-14
  145 88.7626 -1.51213e-11 -1.48506e-13
  146 88.7626 -1.51435e-11 -2.77869e-13
  147 88.7626 -1.51278e-11 -3.95848e-13
  148 88.7626 -1.51213e-11 1.05750e-15
  149 88.7626 -1.50238e-11 3.52389e-14
  150 88.7626 -1.51148e-11 3.87612e-14
  151 88.7626 -1.51083e-11 5.68170e-14
  152 88.7626 -1.51992e-11 2.28141e-15
  153 88.7626 -1.51732e-11 2.39781e-14
  154 88.7626 -1.51602e-11 6.86386e-14
  155 88.7626 -1.50888e-11 2.03032e-13
  156 88.7626 -1.51324e-11 -3.69828e-14
  157 88.7626 -1.51825e-11 6.43317e-14
  158 88.7626 -1.51408e-11 3.28199e-14
  159 88.7626 -1.51083e-11 2.59117e-14
  160 88.7626 -1.51213e-11 1.08323e-14
  161 88.7626 -1.51369e-11 1.13916e-13
  162 88.7626 -1.51343e-11 1.84654e-13
  163 88.7626 -1.51992e-11 4.24525e-14
  164 88.7626 -1.51268e-11 7.20709e-14
  165 88.7626 -1.51018e-11 4.59530e-14
  166 88.7626 -1.52326e-11 6.21991e-15
  167 88.7626 -1.52048e-11 -3.17827e-14
  168 88.7626 -1.50322e-11 4.91122e-14
  169 88.7626 -1.51435e-11 -5.34561e-15
  170 88.7626 -1.52148e-11 1.11472e-13
  171 88.7626 -1.51658e-11 -7.35450e-14
  172 88.7626 -1.51538e-11 -1.99717e-13
  173 88.7626 -1.51408e-11 -2.85166e-13
  174 88.7626 -1.51992e-11 -7.28014e-14
  175 88.7626 -1.52057e-11 -4.73495e-14
  176 88.7626 -1.51213e-11 -8.40539e-15
  177 88.7626 -1.50888e-11 -3.86365e-14
  178 88.7626 -1.51213e-11 1.11016e-13
  179 88.7626 -1.51057e-11 -4.97009e-14
  180 88.7626 -1.51380e-11 5.04003e-14
  181 88.7626 -1.50953e-11 -2.72787e-15
  182 88.7626 -1.51992e-11 -3.23881e-13
  183 88.7626 -1.51473e-11 5.29770e-14
  184 88.7626 -1.51525e-11 -2.29741e-13
  185 88.7626 -1.51213e-11 2.03909e-14
  186 88.7626 -1.51291e-11 -2.06576e-13
  187 88.7626 -1.50888e-11 -1.22767e-13
  188 88.7626 -1.51602e-11 8.43705e-14
  189 88.7626 -1.51369e-11 5.08228e-14
  190 88.7626 -1.52271e-11 8.03662e-14
  191 88.7626 -1.51148e-11 1.70642e-13
  192 88.7626 -1.51157e-11 6.73372e-14
  193 88.7626 -1.51525e-11 -1.72172e-13
  194 88.7626 -1.51667e-11 -3.42677e-15
  195 88.7626 -1.52447e-11 4.82392e-14
  196 88.7626 -1.51213e-11 5.82629e-14
  197 88.7626 -1.51473e-11 7.21702e-15
  198 88.7626 -1.51408e-11 -1.25688e-13
  199 88.7626 -1.51408e-11 8.85592e-14
  200 88.7626 -1.51862e-11 -4.82213e-14
  201 88.7626 -1.51602e-11 6.47438e-14
  202 88.7626 -1.51447e-11 1.42667e-13
  203 88.7626 -1.51148e-11 5.39534e-14
  204 88.7626 -1.51278e-11 7.99782e-14
  205 88.7626 -1.51408e-11 4.75314e-14
  206 88.7626 -1.51602e-11 -2.49969e-13
  207 88.7626 -1.51680e-11 -2.98317e-13
  208 88.7626 -1.51135e-11 -1.28909e-13
  209 88.7626 -1.51732e-11 8.07364e-14
  210 88.7626 -1.52447e-11 2.19635e-14
  211 88.7626 -1.51213e-11 -1.73798e-14
  212 88.7626 -1.51602e-11 -6.57618e-14
  213 88.7626 -1.51836e-11 -1.18204e-13
  214 88.7626 -1.51278e-11 -3.57044e-13
  215 88.7626 -1.52148e-11 8.85921e-14
  216 88.7626 -1.51836e-11 6.71082e-14
  217 88.7626 -1.51018e-11 1.66374e-13
  218 88.7626 -1.52252e-11 7.14168e-14
  219 88.7626 -1.50823e-11 5.70098e-14
  220 88.7626 -1.51602e-11 1.26755e-13
  221 88.7626 -1.51473e-11 2.44799e-14
  222 88.7626 -1.51732e-11 -8.65863e-14
  223 88.7626 -1.51836e-11 -1.43402e-13
  224 88.7626 -1.51447e-11 3.00566e-14
  225 88.7626 -1.51992e-11 1.44932e-13
  226 88.7626 -1.51447e-11 1.01888e-14
  227 88.7626 -1.50953e-11 6.41069e-14
  228 88.7626 -1.51213e-11 2.32020e-13
  229 88.7626 -1.51343e-11 1.80134e-14
  230 88.7626 -1.50628e-11 8.70731e-14
  231 88.7626 -1.52226e-11 7.43396e-14
  232 88.7626 -1.51836e-11 6.42828e-14
  233 88.7626 -1.51057e-11 -4.39213e-14
  234 88.7626 -1.51538e-11 -1.02629e-14
  235 88.7626 -1.51291e-11 -4.92721e-13
  236 88.7626 -1.51213e-11 -3.62699e-15
  237 88.7626 -1.51602e-11 -3.36769e-14
  238 88.7626 -1.51213e-11 2.96770e-14
  239 88.7626 -1.51018e-11 3.61928e-14
  240 88.7626 -1.51680e-11 -1.29560e-13
  241 88.7626 -1.51278e-11 -1.35414e-13
</Section>

newXOutput 143

<Section columns = "stress_xx | stress_yy | stress_xy">
  1 72.7012 -1.21929e-11 -1.53860e-14
  2 72.7012 -1.22564e-11 -1.19694e-14
  3 72.7012 -1.23199e-11 -1.69065e-14
  4 72.7012 -1.23199e-11 7.60484e-15
  5 72.7012 -1.21929e-11 -1.54447e-14
  6 72.7012 -1.21770e-11 -5.88542e-15
  7 72.7012 -1.22326e-11 -1.72816e-14
  8 72.7012 -1.23199e-11 -2.43059e-14
  9 72.7012 -1.23517e-11 -1.17708e-14
  10 72.7012 -1.23411e-11 1.98828e-14
  11 72.7012 -1.22670e-11 2.31745e-14
  12 72.7012 -1.23411e-11 3.04199e-15
  13 72.7012 -1.23596e-11 -8.89762e-14
  14 72.7012 -1.22776e-11 -1.05336e-13
  15 72.7012 -1.23358e-11 -8.35423e-15
  16 72.7012 -1.23940e-11 6.06474e-14
  17 72.7012 -1.22988e-11 -5.00080e-14
  18 72.7012 -1.23411e-11 5.26678e-14
  19 72.7012 -1.23305e-11 3.16536e-14
  20 72.7012 -1.22670e-11 1.55621e-14
  21 72.7012 -1.22988e-11 -5.29326e-14
  22 72.7012 -1.23623e-11 -7.63419e-14
  23 72.7012 -1.22988e-11 -5.67238e-14
  24 72.7012 -1.22458e-11 1.30346e-14
  25 72.7012 -1.22247e-11 0.00000
  26 72.7012 -1.21850e-11 1.54699e-15
  27 72.7012 -1.22353e-11 3.40488e-14
  28 72.7012 -1.22485e-11 -4.42388e-14
  29 72.7012 -1.22247e-11 6.98214e-15
  30 72.7012 -1.22564e-11 -1.03070e-14
  31 72.7012 -1.23940e-11 1.43362e-14
  32 72.7012 -1.24311e-11 3.21679e-15
  33 72.7012 -1.23120e-11 -5.35377e-14
  34 72.7012 -1.22988e-11 -1.07458e-13
  35 72.7012 -1.23120e-11 -4.82463e-14
  36 72.7012 -1.22882e-11 6.11076e-15
  37 72.7012 -1.22882e-11 -4.83244e-14
  38 72.7012 -1.22882e-11 -2.09351e-14
  39 72.7012 -1.22776e-11 -5.24770e-14
  40 72.7012 -1.23093e-11 -2.05595e-14
  41 72.7012 -1.23411e-11 5.57995e-14
  42 72.7012 -1.22670e-11 1.89165e-14
  43 72.7012 -1.22670e-11 5.45044e-14
  44 72.7012 -1.22776e-11 5.46772e-14
  45 72.7012 -1.22776e-11 1.82655e-14
  46 72.7012 -1.22776e-11 -1.69170e-14
  47 72.7012 -1.23305e-11 -2.59348e-14
  48 72.7012 -1.23199e-11 -5.04085e-15
  49 72.7012 -1.22564e-11 1.35568e-14
  50 72.7012 -1.22988e-11 -2.64332e-15
  51 72.7012 -1.22564e-11 9.97449e-16
  52 72.7012 -1.22564e-11 2.48121e-15
  53 72.7012 -1.22564e-11 0.00000
  54 72.7012 -1.23279e-11 -2.18221e-15
  55 72.7012 -1.23040e-11 3.98980e-15
  56 72.7012 -1.22564e-11 -5.36937e-15
  57 72.7012 -1.23093e-11 7.04458e-15
  58 72.7012 -1.23464e-11 -1.90350e-14
  59 72.7012 -1.23426e-11 -1.19165e-14
  60 72.7012 -1.23728e-11 2.94259e-14
  61 72.7012 -1.23093e-11 -3.28181e-14
  62 72.7012 -1.22723e-11 -2.54385e-15
  63 72.7012 -1.23199e-11 -2.20649e-14
  64 72.7012 -1.22776e-11 2.29429e-15
  65 72.7012 -1.22882e-11 5.06436e-15
  66 72.7012 -1.23040e-11 -3.06543e-14
  67 72.7012 -1.23093e-11 -7.06605e-15
  68 72.7012 -1.22723e-11 -8.78677e-15
  69 72.7012 -1.22927e-11 -2.90122e-14
  70 72.7012 -1.23080e-11 1.99549e-14
  71 72.7012 -1.23093e-11 -7.17399e-15
  72 72.7012 -1.23199e-11 1.33501e-14
  73 72.7012 -1.23290e-11 -1.05877e-14
  74 72.7012 -1.23136e-11 8.30140e-15
  75 72.7012 -1.23199e-11 1.43191e-14
  76 72.7012 -1.22511e-11 4.04983e-14
  77 72.7012 -1.22511e-11 1.06192e-14
  78 72.7012 -1.22458e-11 -7.26923e-15
  79 72.7012 -1.23335e-11 -3.05735e-14
  80 72.7012 -1.23411e-11 -1.08065e-14
  81 72.7012 -1.22776e-11 -1.12382e-14
  82 72.7012 -1.22511e-11 -3.38891e-14
  83 72.7012 -1.22829e-11 1.54447e-14
  84 72.7012 -1.23040e-11 5.44461e-15
  85 72.7012 -1.23623e-11 4.47875e-14
  86 72.7012 -1.22300e-11 6.93763e-14
  87 72.7012 -1.22776e-11 -1.57246e-14
  88 72.7012 -1.22755e-11 4.58041e-15
  89 72.7012 -1.22945e-11 2.19945e-14
  90 72.7012 -1.23305e-11 -5.66127e-15
  91 72.7012 -1.22882e-11 -4.29721e-14
  92 72.7012 -1.22755e-11 2.97403e-14
  93 72.7012 -1.22755e-11 3.64282e-14
  94 72.7012 -1.22755e-11 -3.85034e-15
  95 72.7012 -1.23199e-11 -4.96453e-14
  96 72.7012 -1.23040e-11 -1.35995e-14
  97 72.7012 -1.22755e-11 -4.14864e-15
  98 72.7012 -1.22628e-11 -4.39160e-16
  99 72.7012 -1.23093e-11 5.16373e-14
  100 72.7012 -1.22755e-11 -1.55711e-14
  101 72.7012 -1.23411e-11 -1.24720e-15
  102 72.7012 -1.22882e-11 -2.23410e-15
  103 72.7012 -1.23040e-11 -2.94511e-14
  104 72.7012 -1.23136e-11 1.45240e-14
  105 72.7012 -1.22818e-11 -9.41513e-14
  106 72.7012 -1.23305e-11 -2.58683e-14
  107 72.7012 -1.22511e-11 4.35616e-15
  108 72.7012 -1.22564e-11 7.01149e-15
  109 72.7012 -1.23136e-11 -1.77357e-14
  110 72.7012 -1.22945e-11 -4.91965e-14
  111 72.7012 -1.22604e-11 2.66015e-15
  112 72.7012 -1.23252e-11 7.42720e-14
  113 72.7012 -1.22791e-11 -2.97190e-14
  114 72.7012 -1.22927e-11 -4.46531e-14
  115 72.7012 -1.23305e-11 -3.28901e-14
  116 72.7012 -1.22945e-11 -2.81271e-15
  117 72.7012 -1.23040e-11 1.66249e-14
  118 72.7012 -1.22988e-11 1.28010e-14
  119 72.7012 -1.22700e-11 1.22905e-14
  120 72.7012 -1.22935e-11 -2.98331e-14
  121 72.7012 -1.23517e-11 -1.98717e-14
  122 72.7012 -1.23426e-11 2.90234e-14
  123 72.7012 -1.22935e-11 2.30087e-14
  124 72.7012 -1.23063e-11 -4.18180e-14
  125 72.7012 -1.22882e-11 3.57992e-14
  126 72.7012 -1.22723e-11 2.02592e-15
  127 72.7012 -1.22791e-11 8.29362e-15
  128 72.7012 -1.23358e-11 1.12969e-14
  129 72.7012 -1.22683e-11 -1.93297e-15
  130 72.7012 -1.23305e-11 2.06772e-14
  131 72.7012 -1.23358e-11 -1.11575e-14
  132 72.7012 -1.23160e-11 -5.31993e-14
  133 72.7012 -1.23109e-11 1.69573e-14
  134 72.7012 -1.23199e-11 -1.04026e-14
  135 72.7012 -1.22972e-11 1.40224e-14
  136 72.7012 -1.22927e-11 -8.70468e-15
  137 72.7012 -1.22700e-11 1.90080e-14
  138 72.7012 -1.23199e-11 7.97585e-15
  139 72.7012 -1.22746e-11 -4.62586e-15
  140 72.7012 -1.22836e-11 -1.46994e-14
  141 72.7012 -1.23093e-11 -1.80218e-14
  142 72.7012 -1.23093e-11 -2.00117e-16
  143 72.7012 -1.23154e-11 1.76092e-14
  144 72.7012 -1.22755e-11 7.64607e-15
  145 72.7012 -1.22437e-11 -6.87171e-14
  146 72.7012 -1.22972e-11 -1.42077e-14
  147 72.7012 -1.22776e-11 -6.02033e-14
  148 72.7012 -1.22670e-11 1.50445e-15
  149 72.7012 -1.22511e-11 4.02367e-15
  150 72.7012 -1.23305e-11 -3.32226e-14
  151 72.7012 -1.23464e-11 1.32331e-14
  152 72.7012 -1.23093e-11 4.68494e-14
  153 72.7012 -1.23199e-11 -1.53612e-14
  154 72.7012 -1.23263e-11 2.39388e-15
  155 72.7012 -1.23411e-11 2.59514e-14
  156 72.7012 -1.22564e-11 1.33092e-14
  157 72.7012 -1.22564e-11 1.62842e-14
  158 72.7012 -1.23305e-11 -2.80633e-14
  159 72.7012 -1.22882e-11 -3.23194e-14
  160 72.7012 -1.22437e-11 8.50857e-15
  161 72.7012 -1.22374e-11 4.76412e-14
  162 72.7012 -1.23040e-11 3.77632e-14
  163 72.7012 -1.23676e-11 -2.84951e-14
  164 72.7012 -1.23063e-11 -3.91730e-14
  165 72.7012 -1.22988e-11 5.97999e-16
  166 72.7012 -1.22564e-11 -6.27356e-15
  167 72.7012 -1.22201e-11 5.90028e-15
  168 72.7012 -1.22473e-11 9.34779e-15
  169 72.7012 -1.23063e-11 5.77062e-16
  170 72.7012 -1.22818e-11 1.24487e-14
  171 72.7012 -1.23335e-11 -1.62172e-14
  172 72.7012 -1.23093e-11 -3.16536e-14
  173 72.7012 -1.22723e-11 -3.28371e-15
  174 72.7012 -1.22511e-11 3.04411e-14
  175 72.7012 -1.22776e-11 4.34449e-16
  176 72.7012 -1.22247e-11 1.14715e-15
  177 72.7012 -1.22882e-11 -2.26599e-14
  178 72.7012 -1.22988e-11 1.51122e-14
  179 72.7012 -1.22628e-11 -1.48128e-14
  180 72.7012 -1.22882e-11 5.79257e-15
  181 72.7012 -1.23040e-11 2.34913e-14
  182 72.7012 -1.23136e-11 -3.67817e-14
  183 72.7012 -1.23040e-11 -2.09559e-14
  184 72.7012 -1.23580e-11 2.45382e-14
  185 72.7012 -1.23040e-11 -1.95594e-14
  186 72.7012 -1.22437e-11 -2.88674e-14
  187 72.7012 -1.23676e-11 -7.07436e-15
  188 72.7012 -1.23199e-11 -4.53734e-14
  189 72.7012 -1.23326e-11 -4.18153e-14
  190 72.7012 -1.22882e-11 -1.02598e-14
  191 72.7012 -1.22829e-11 1.94014e-14
  192 72.7012 -1.23517e-11 1.47342e-14
  193 72.7012 -1.22691e-11 -3.37462e-14
  194 72.7012 -1.22405e-11 8.54529e-15
  195 72.7012 -1.22776e-11 -9.57957e-16
  196 72.7012 -1.22988e-11 -8.60186e-15
  197 72.7012 -1.23040e-11 -1.16460e-14
  198 72.7012 -1.23146e-11 4.01658e-14
  199 72.7012 -1.22776e-11 2.61135e-14
  200 72.7012 -1.23040e-11 -3.25435e-14
  201 72.7012 -1.23040e-11 2.58945e-15
  202 72.7012 -1.22691e-11 5.25481e-14
  203 72.7012 -1.23411e-11 8.01269e-15
  204 72.7012 -1.23411e-11 1.29684e-15
  205 72.7012 -1.23411e-11 -4.69691e-15
  206 72.7012 -1.22945e-11 5.18862e-15
  207 72.7012 -1.22755e-11 -9.90616e-16
  208 72.7012 -1.23009e-11 -7.67592e-14
  209 72.7012 -1.22511e-11 3.88028e-14
  210 72.7012 -1.22829e-11 -1.15025e-14
  211 72.7012 -1.22519e-11 -1.07038e-16
  212 72.7012 -1.22755e-11 -9.11697e-15
  213 72.7012 -1.22691e-11 -2.56558e-15
  214 72.7012 -1.23146e-11 -2.14166e-14
  215 72.7012 -1.23009e-11 -7.84952e-14
  216 72.7012 -1.22882e-11 3.34417e-15
  217 72.7012 -1.23040e-11 -2.42059e-14
  218 72.7012 -1.22723e-11 -9.79023e-15
  219 72.7012 -1.22882e-11 7.37120e-15
  220 72.7012 -1.22723e-11 -1.03657e-14
  221 72.7012 -1.23305e-11 5.97999e-16
  222 72.7012 -1.23305e-11 6.54858e-14
  223 72.7012 -1.23263e-11 -1.26789e-14
  224 72.7012 -1.22564e-11 1.38849e-14
  225 72.7012 -1.23453e-11 -6.28393e-15
  226 72.7012 -1.22628e-11 -2.07380e-14
  227 72.7012 -1.23146e-11 -3.30915e-17
  228 72.7012 -1.22755e-11 9.83333e-14
  229 72.7012 -1.22882e-11 -1.98606e-14
  230 72.7012 -1.23093e-11 -1.34333e-14
  231 72.7012 -1.22945e-11 -2.82897e-14
  232 72.7012 -1.23009e-11 1.74712e-14
  233 72.7012 -1.22818e-11 6.71515e-14
  234 72.7012 -1.23305e-11 -3.44905e-14
  235 72.7012 -1.23199e-11 -2.70013e-14
  236 72.7012 -1.23426e-11 2.55069e-15
  237 72.7012 -1.23453e-11 4.43856e-14
  238 72.7012 -1.23453e-11 -4.30123e-14
  239 72.7012 -1.22670e-11 -1.58434e-14
  240 72.7012 -1.23580e-11 -3.92716e-14
  241 72.7012 -1.23781e-11 4.54856e-14
</Section>

newXOutput 144

<Section columns = "stress_xx | stress_yy | stress_xy">
  1 56.6985 -9.53336e-12 1.50032e-14
  2 56.6985 -9.50872e-12 -1.23510e-14
  3 56.6985 -9.53336e-12 1.10721e-14
  4 56.6985 -9.53336e-12 -6.87425e-15
  5 56.6985 -9.50051e-12 2.02064e-14
  6 56.6985 -9.55799e-12 2.91352e-14
  7 56.6985 -9.54567e-12 7.95538e-14
  8 56.6985 -9.54978e-12 1.31583e-13
  9 56.6985 -9.50051e-12 1.36685e-13
  10 56.6985 -9.50051e-12 1.49933e-13
  11 56.6985 -9.56620e-12 1.37265e-13
  12 56.6985 -9.51693e-12 1.19812e-13
  13 56.6985 -9.52104e-12 1.33496e-13
  14 56.6985 -9.53336e-12 1.30509e-13
  15 56.6985 -9.55799e-12 1.25255e-13
  16 56.6985 -9.51693e-12 1.20393e-13
  17 56.6985 -9.46767e-12 5.50503e-14
  18 56.6985 -9.54157e-12 1.20305e-13
  19 56.6985 -9.53336e-12 1.46801e-13
  20 56.6985 -9.45945e-12 2.14202e-13
  21 56.6985 -9.49230e-12 1.40802e-13
  22 56.6985 -9.50051e-12 3.25832e-14
  23 56.6985 -9.50051e-12 -3.58915e-14
  24 56.6985 -9.50051e-12 3.97191e-28
  25 56.6985 -9.48409e-12 1.23510e-14
  26 56.6985 -9.50256e-12 -6.81513e-15
  27 56.6985 -9.49230e-12 4.28757e-14
  28 56.6985 -9.45330e-12 4.08411e-14
  29 56.6985 -9.50872e-12 1.15791e-14
  30 56.6985 -9.52514e-12 -2.96241e-14
  31 56.6985 -9.53336e-12 3.24760e-14
  32 56.6985 -9.53336e-12 3.14552e-14
  33 56.6985 -9.52720e-12 -4.12113e-14
  34 56.6985 -9.53336e-12 -9.03513e-14
  35 56.6985 -9.50872e-12 -5.84069e-14
  36 56.6985 -9.53336e-12 1.44578e-14
  37 56.6985 -9.53336e-12 -1.77163e-14
  38 56.6985 -9.53336e-12 -2.10282e-14
  39 56.6985 -9.50872e-12 -2.92905e-15
  40 56.6985 -9.54978e-12 -3.71762e-14
  41 56.6985 -9.51693e-12 -5.76229e-14
  42 56.6985 -9.53336e-12 -3.57758e-14
  43 56.6985 -9.50872e-12 -1.49386e-14
  44 56.6985 -9.50872e-12 -2.34012e-14
  45 56.6985 -9.54978e-12 -1.60983e-14
  46 56.6985 -9.53336e-12 -3.52698e-14
  47 56.6985 -9.53336e-12 -1.72342e-14
  48 56.6985 -9.53336e-12 -1.91579e-14
  49 56.6985 -9.53336e-12 -1.73997e-14
  50 56.6985 -9.51693e-12 -3.58033e-15
  51 56.6985 -9.48409e-12 -1.54388e-15
  52 56.6985 -9.49025e-12 3.40067e-15
  53 56.6985 -9.53336e-12 4.87792e-15
  54 56.6985 -9.50872e-12 1.56042e-15
  55 56.6985 -9.53336e-12 0.00000
  56 56.6985 -9.51693e-12 5.40357e-15
  57 56.6985 -9.52925e-12 5.41001e-15
  58 56.6985 -9.50872e-12 2.21877e-14
  59 56.6985 -9.51928e-12 3.33092e-14
  60 56.6985 -9.52104e-12 4.47605e-14
  61 56.6985 -9.55388e-12 -4.34850e-14
  62 56.6985 -9.52925e-12 9.07856e-15
  63 56.6985 -9.54814e-12 -2.70399e-14
  64 56.6985 -9.51283e-12 -4.02676e-14
  65 56.6985 -9.50462e-12 -2.09043e-15
  66 56.6985 -9.50872e-12 -2.25902e-14
  67 56.6985 -9.55388e-12 2.01072e-14
  68 56.6985 -9.53336e-12 -2.45862e-14
  69 56.6985 -9.53688e-12 -3.78703e-14
  70 56.6985 -9.53951e-12 -4.35809e-14
  71 56.6985 -9.53336e-12 -2.39522e-14
  72 56.6985 -9.52632e-12 -2.34986e-14
  73 56.6985 -9.50168e-12 -3.28562e-14
  74 56.6985 -9.52350e-12 -9.56101e-15
  75 56.6985 -9.51365e-12 -4.07628e-14
  76 56.6985 -9.51283e-12 -1.23069e-14
  77 56.6985 -9.52104e-12 7.80486e-15
  78 56.6985 -9.54157e-12 4.14551e-15
  79 56.6985 -9.49113e-12 7.63432e-15
  80 56.6985 -9.55799e-12 1.89272e-14
  81 56.6985 -9.52925e-12 -7.69733e-15
  82 56.6985 -9.50051e-12 -6.46781e-14
  83 56.6985 -9.52514e-12 -2.65124e-15
  84 56.6985 -9.53336e-12 3.53622e-15
  85 56.6985 -9.50051e-12 5.38189e-14
  86 56.6985 -9.53746e-12 -1.38580e-15
  87 56.6985 -9.52514e-12 -1.44422e-14
  88 56.6985 -9.52350e-12 -4.58593e-14
  89 56.6985 -9.49887e-12 5.44437e-15
  90 56.6985 -9.50051e-12 2.61991e-14
  91 56.6985 -9.50380e-12 -6.85327e-14
  92 56.6985 -9.53336e-12 1.51190e-14
  93 56.6985 -9.53336e-12 8.03743e-14
  94 56.6985 -9.56292e-12 2.19275e-14
  95 56.6985 -9.52843e-12 -6.95363e-14
  96 56.6985 -9.52925e-12 -9.97087e-15
  97 56.6985 -9.50872e-12 -2.02204e-14
  98 56.6985 -9.51365e-12 -4.71555e-14
  99 56.6985 -9.52104e-12 3.82845e-14
  100 56.6985 -9.53336e-12 -2.31074e-14
  101 56.6985 -9.52514e-12 3.38367e-14
  102 56.6985 -9.52843e-12 -2.42411e-14
  103 56.6985 -9.50872e-12 -1.58762e-14
  104 56.6985 -9.49887e-12 2.34978e-14
  105 56.6985 -9.54814e-12 -4.48579e-14
  106 56.6985 -9.52514e-12 -3.86116e-14
  107 56.6985 -9.51283e-12 -2.75693e-14
  108 56.6985 -9.50051e-12 1.86557e-16
  109 56.6985 -9.50380e-12 -6.55266e-15
  110 56.6985 -9.48409e-12 4.82087e-14
  111 56.6985 -9.53336e-12 -7.03187e-15
  112 56.6985 -9.53746e-12 2.56178e-14
  113 56.6985 -9.51576e-12 -4.98356e-14
  114 56.6985 -9.52984e-12 -3.79387e-14
  115 56.6985 -9.53746e-12 -4.39281e-14
  116 56.6985 -9.52350e-12 4.92762e-14
  117 56.6985 -9.50051e-12 -2.63268e-14
  118 56.6985 -9.52514e-12 1.68841e-14
  119 56.6985 -9.55095e-12 5.02989e-14
  120 56.6985 -9.52514e-12 -3.33202e-14
  121 56.6985 -9.51576e-12 -2.23744e-14
  122 56.6985 -9.54391e-12 2.85815e-14
  123 56.6985 -9.50051e-12 -4.51373e-14
  124 56.6985 -9.50872e-12 1.99771e-14
  125 56.6985 -9.49641e-12 2.69938e-15
  126 56.6985 -9.53951e-12 4.76466e-14
  127 56.6985 -9.53336e-12 -1.00163e-14
  128 56.6985 -9.51180e-12 5.30874e-14
  129 56.6985 -9.53336e-12 -4.55904e-14
  130 56.6985 -9.53746e-12 4.46558e-14
  131 56.6985 -9.52925e-12 8.54966e-14
  132 56.6985 -9.53644e-12 -4.33041e-14
  133 56.6985 -9.52984e-12 4.56326e-14
  134 56.6985 -9.51224e-12 -3.33698e-14
  135 56.6985 -9.53688e-12 4.06450e-14
  136 56.6985 -9.53336e-12 -2.24162e-14
  137 56.6985 -9.51576e-12 2.67670e-14
  138 56.6985 -9.50872e-12 5.02229e-14
  139 56.6985 -9.52632e-12 1.18493e-14
  140 56.6985 -9.52280e-12 6.47485e-15
  141 56.6985 -9.52925e-12 -2.06319e-14
  142 56.6985 -9.50051e-12 7.74733e-14
  143 56.6985 -9.51928e-12 1.77861e-14
  144 56.6985 -9.52843e-12 -6.41396e-14
  145 56.6985 -9.52843e-12 -7.79190e-14
  146 56.6985 -9.51224e-12 -5.75759e-14
  147 56.6985 -9.53746e-12 -3.01556e-14
  148 56.6985 -9.51693e-12 1.53285e-15
  149 56.6985 -9.50051e-12 2.58526e-14
  150 56.6985 -9.51283e-12 -4.41109e-14
  151 56.6985 -9.54157e-12 -5.03047e-14
  152 56.6985 -9.52514e-12 -5.26388e-15
  153 56.6985 -9.52104e-12 -3.72185e-14
  154 56.6985 -9.53828e-12 1.47639e-14
  155 56.6985 -9.52104e-12 1.52945e-14
  156 56.6985 -9.50872e-12 6.25429e-15
  157 56.6985 -9.52280e-12 1.70772e-15
  158 56.6985 -9.53746e-12 2.12008e-14
  159 56.6985 -9.50051e-12 -2.82989e-14
  160 56.6985 -9.50380e-12 5.87446e-15
  161 56.6985 -9.53336e-12 1.52800e-14
  162 56.6985 -9.50872e-12 9.31473e-15
  163 56.6985 -9.53336e-12 2.55512e-14
  164 56.6985 -9.52984e-12 -2.67469e-14
  165 56.6985 -9.53336e-12 -3.31438e-14
  166 56.6985 -9.50520e-12 -4.67890e-15
  167 56.6985 -9.52984e-12 -1.18343e-14
  168 56.6985 -9.49816e-12 5.16568e-15
  169 56.6985 -9.50168e-12 -5.29409e-15
  170 56.6985 -9.53828e-12 5.16273e-14
  171 56.6985 -9.52632e-12 8.45265e-14
  172 56.6985 -9.52925e-12 8.81922e-14
  173 56.6985 -9.51693e-12 -6.40230e-14
  174 56.6985 -9.52104e-12 -3.20208e-14
  175 56.6985 -9.52514e-12 -8.67784e-15
  176 56.6985 -9.50051e-12 1.20220e-14
  177 56.6985 -9.52925e-12 -4.76929e-14
  178 56.6985 -9.50462e-12 1.69744e-14
  179 56.6985 -9.54321e-12 7.52442e-14
  180 56.6985 -9.54039e-12 6.19600e-15
  181 56.6985 -9.52514e-12 1.21489e-15
  182 56.6985 -9.53336e-12 -3.21447e-14
  183 56.6985 -9.54157e-12 -3.88671e-14
  184 56.6985 -9.47423e-12 1.17860e-13
  185 56.6985 -9.52514e-12 -3.14244e-14
  186 56.6985 -9.51858e-12 9.83252e-14
  187 56.6985 -9.52514e-12 -4.82742e-14
  188 56.6985 -9.51365e-12 2.50007e-14
  189 56.6985 -9.54321e-12 -3.25262e-14
  190 56.6985 -9.50520e-12 -3.05197e-14
  191 56.6985 -9.52514e-12 3.10163e-14
  192 56.6985 -9.55447e-12 -2.13087e-14
  193 56.6985 -9.52350e-12 -2.60346e-14
  194 56.6985 -9.53746e-12 -1.78005e-14
  195 56.6985 -9.53336e-12 -5.26549e-15
  196 56.6985 -9.53746e-12 2.57520e-14
  197 56.6985 -9.49641e-12 -1.90605e-14
  198 56.6985 -9.53746e-12 8.96479e-14
  199 56.6985 -9.54157e-12 1.62916e-14
  200 56.6985 -9.52925e-12 -2.86095e-14
  201 56.6985 -9.52514e-12 -5.27110e-14
  202 56.6985 -9.51365e-12 -4.99731e-14
  203 56.6985 -9.51693e-12 -1.56189e-14
  204 56.6985 -9.54157e-12 -1.22104e-14
  205 56.6985 -9.54157e-12 -2.67688e-14
  206 56.6985 -9.47423e-12 6.91481e-14
  207 56.6985 -9.53336e-12 -2.33873e-14
  208 56.6985 -9.54814e-12 -7.73617e-14
  209 56.6985 -9.52925e-12 6.21044e-15
  210 56.6985 -9.51693e-12 -2.54306e-14
  211 56.6985 -9.51928e-12 3.44773e-14
  212 56.6985 -9.49394e-12 1.17908e-14
  213 56.6985 -9.53336e-12 -1.82232e-14
  214 56.6985 -9.53336e-12 -3.75194e-14
  215 56.6985 -9.50380e-12 -1.91071e-14
  216 56.6985 -9.54321e-12 -4.15871e-14
  217 56.6985 -9.45535e-12 -1.33067e-15
  218 56.6985 -9.50051e-12 -2.51636e-14
  219 56.6985 -9.49887e-12 3.40646e-14
  220 56.6985 -9.52925e-12 1.51557e-14
  221 56.6985 -9.52104e-12 -4.62649e-14
  222 56.6985 -9.55799e-12 6.65522e-14
  223 56.6985 -9.54321e-12 9.91093e-14
  224 56.6985 -9.51365e-12 1.79973e-15
  225 56.6985 -9.54814e-12 1.52271e-14
  226 56.6985 -9.52350e-12 -3.50461e-15
  227 56.6985 -9.54567e-12 -2.57717e-14
  228 56.6985 -9.49887e-12 -5.59765e-15
  229 56.6985 -9.52514e-12 -5.93566e-15
  230 56.6985 -9.55388e-12 1.62695e-14
  231 56.6985 -9.52350e-12 -1.84471e-14
  232 56.6985 -9.51858e-12 1.94750e-15
  233 56.6985 -9.58262e-12 8.16094e-14
  234 56.6985 -9.54157e-12 -4.62120e-14
  235 56.6985 -9.55799e-12 -2.14601e-14
  236 56.6985 -9.51224e-12 -8.01086e-16
  237 56.6985 -9.54814e-12 4.47534e-14
  238 56.6985 -9.52843e-12 -3.09746e-14
  239 56.6985 -9.54978e-12 -3.69005e-14
  240 56.6985 -9.51365e-12 1.15632e-13
  241 56.6985 -9.53746e-12 1.32141e-13
</Section>

newXOutput 145

<Section columns = "stress_xx | stress_yy | stress_xy">
  1 40.7542 -6.81704e-12 2.73341e-15
  2 40.7542 -6.76419e-12 1.08545e-14
  3 40.7542 -6.75539e-12 4.38495e-15
  4 40.7542 -6.80823e-12 3.43626e-15
  5 40.7542 -6.82878e-12 1.31098e-14
  6 40.7542 -6.79942e-12 2.61932e-14
  7 40.7542 -6.79942e-12 1.28312e-14
  8 40.7542 -6.80529e-12 9.87192e-15
  9 40.7542 -6.82878e-12 8.75745e-15
  10 40.7542 -6.81117e-12 9.28884e-29
  11 40.7542 -6.78768e-12 -1.52860e-14
  12 40.7542 -6.78768e-12 7.60568e-16
  13 40.7542 -6.80383e-12 -1.03632e-14
  14 40.7542 -6.77594e-12 -2.03989e-14
  15 40.7542 -6.77300e-12 -2.43352e-14
  16 40.7542 -6.77006e-12 -4.81396e-14
  17 40.7542 -6.78181e-12 -3.64454e-14
  18 40.7542 -6.79355e-12 -3.64454e-14
  19 40.7542 -6.79355e-12 -1.75149e-14
  20 40.7542 -6.77594e-12 2.91563e-14
  21 40.7542 -6.78181e-12 1.46837e-15
  22 40.7542 -6.77594e-12 1.16414e-14
  23 40.7542 -6.79355e-12 1.38704e-14
  24 40.7542 -6.76419e-12 -1.46837e-15
  25 40.7542 -6.70254e-12 0.00000
  26 40.7542 -6.77300e-12 -7.28564e-15
  27 40.7542 -6.78181e-12 3.20931e-14
  28 40.7542 -6.76860e-12 -8.59341e-15
  29 40.7542 -6.72016e-12 1.21140e-14
  30 40.7542 -6.77594e-12 9.77383e-15
  31 40.7542 -6.76419e-12 1.91277e-14
  32 40.7542 -6.74658e-12 1.31268e-14
  33 40.7542 -6.79942e-12 -1.39636e-16
  34 40.7542 -6.79355e-12 -1.43809e-15
  35 40.7542 -6.79062e-12 1.40575e-14
  36 40.7542 -6.81704e-12 4.45624e-14
  37 40.7542 -6.77594e-12 3.74123e-14
  38 40.7542 -6.77006e-12 2.43376e-14
  39 40.7542 -6.79942e-12 2.43384e-14
  40 40.7542 -6.77594e-12 1.54118e-14
  41 40.7542 -6.81704e-12 1.96558e-15
  42 40.7542 -6.79355e-12 2.71528e-16
  43 40.7542 -6.82878e-12 1.37000e-14
  44 40.7542 -6.80529e-12 1.73497e-14
  45 40.7542 -6.82291e-12 1.05631e-14
  46 40.7542 -6.81704e-12 6.10934e-15
  47 40.7542 -6.81704e-12 -6.29150e-16
  48 40.7542 -6.81704e-12 5.62169e-15
  49 40.7542 -6.81704e-12 4.02441e-15
  50 40.7542 -6.79942e-12 -5.24255e-16
  51 40.7542 -6.79942e-12 -2.20255e-15
  52 40.7542 -6.82144e-12 -1.52910e-15
  53 40.7542 -6.80529e-12 -9.68178e-15
  54 40.7542 -6.80383e-12 4.36553e-15
  55 40.7542 -6.81704e-12 4.40511e-15
  56 40.7542 -6.82291e-12 -2.55646e-15
  57 40.7542 -6.81117e-12 -1.30966e-14
  58 40.7542 -6.78768e-12 -3.22766e-14
  59 40.7542 -6.80697e-12 2.13251e-14
  60 40.7542 -6.80823e-12 -1.20791e-14
  61 40.7542 -6.80236e-12 5.70426e-16
  62 40.7542 -6.80529e-12 -4.04089e-15
  63 40.7542 -6.77476e-12 1.29001e-14
  64 40.7542 -6.81117e-12 6.64997e-15
  65 40.7542 -6.80529e-12 1.00385e-14
  66 40.7542 -6.79942e-12 1.46837e-15
  67 40.7542 -6.77594e-12 1.34052e-14
  68 40.7542 -6.81997e-12 1.33851e-14
  69 40.7542 -6.78684e-12 -3.43150e-14
  70 40.7542 -6.79722e-12 -2.83340e-14
  71 40.7542 -6.79942e-12 1.00324e-14
  72 40.7542 -6.81452e-12 7.34120e-15
  73 40.7542 -6.81201e-12 2.77330e-14
  74 40.7542 -6.80999e-12 -6.78723e-15
  75 40.7542 -6.79942e-12 -2.50863e-14
  76 40.7542 -6.76419e-12 2.93674e-15
  77 40.7542 -6.79942e-12 -3.18897e-15
  78 40.7542 -6.84640e-12 -4.32034e-14
  79 40.7542 -6.79942e-12 1.13762e-14
  80 40.7542 -6.80529e-12 1.28345e-14
  81 40.7542 -6.77594e-12 -3.20535e-14
  82 40.7542 -6.78768e-12 -3.60247e-14
  83 40.7542 -6.80529e-12 -1.11254e-15
  84 40.7542 -6.80823e-12 -2.80869e-15
  85 40.7542 -6.78181e-12 6.17473e-14
  86 40.7542 -6.77300e-12 5.65168e-14
  87 40.7542 -6.80529e-12 -1.22110e-14
  88 40.7542 -6.79942e-12 -4.56122e-14
  89 40.7542 -6.82056e-12 -8.30755e-15
  90 40.7542 -6.80823e-12 1.40981e-14
  91 40.7542 -6.79942e-12 -3.33749e-14
  92 40.7542 -6.80999e-12 -1.65902e-14
  93 40.7542 -6.80647e-12 -3.19040e-14
  94 40.7542 -6.80999e-12 9.07804e-14
  95 40.7542 -6.80647e-12 -3.45626e-14
  96 40.7542 -6.77887e-12 -3.43461e-15
  97 40.7542 -6.77124e-12 5.90574e-14
  98 40.7542 -6.82056e-12 -2.88953e-14
  99 40.7542 -6.80529e-12 2.60492e-14
  100 40.7542 -6.80999e-12 8.20022e-15
  101 40.7542 -6.81704e-12 1.55157e-14
  102 40.7542 -6.82408e-12 -9.75783e-15
  103 40.7542 -6.77006e-12 2.37912e-14
  104 40.7542 -6.80999e-12 1.19169e-14
  105 40.7542 -6.77476e-12 -4.01003e-14
  106 40.7542 -6.79355e-12 4.10341e-15
  107 40.7542 -6.76713e-12 4.26745e-15
  108 40.7542 -6.81410e-12 -2.46138e-15
  109 40.7542 -6.81352e-12 6.87868e-15
  110 40.7542 -6.76067e-12 -1.67229e-14
  111 40.7542 -6.79502e-12 -3.37580e-14
  112 40.7542 -6.78768e-12 -5.75834e-15
  113 40.7542 -6.79942e-12 -1.43278e-14
  114 40.7542 -6.79439e-12 -4.55150e-15
  115 40.7542 -6.81997e-12 1.05549e-14
  116 40.7542 -6.80999e-12 4.16111e-15
  117 40.7542 -6.83465e-12 2.83699e-14
  118 40.7542 -6.78474e-12 1.48602e-14
  119 40.7542 -6.80949e-12 4.32682e-14
  120 40.7542 -6.83172e-12 -4.15448e-14
  121 40.7542 -6.80949e-12 -9.73672e-15
  122 40.7542 -6.80949e-12 -3.29818e-15
  123 40.7542 -6.78181e-12 -1.81751e-14
  124 40.7542 -6.79691e-12 -2.05575e-14
  125 40.7542 -6.79942e-12 -4.33668e-15
  126 40.7542 -6.81484e-12 1.98864e-15
  127 40.7542 -6.78181e-12 2.16313e-14
  128 40.7542 -6.79282e-12 4.56518e-14
  129 40.7542 -6.82805e-12 -2.04737e-14
  130 40.7542 -6.79942e-12 3.11369e-15
  131 40.7542 -6.80236e-12 1.47239e-15
  132 40.7542 -6.78621e-12 -3.41898e-14
  133 40.7542 -6.79942e-12 2.68564e-14
  134 40.7542 -6.79691e-12 2.14965e-14
  135 40.7542 -6.77174e-12 2.87217e-14
  136 40.7542 -6.81452e-12 -9.67320e-15
  137 40.7542 -6.79691e-12 2.39429e-15
  138 40.7542 -6.79649e-12 6.52305e-16
  139 40.7542 -6.80446e-12 1.30700e-14
  140 40.7542 -6.80446e-12 -3.65903e-14
  141 40.7542 -6.80529e-12 -1.78358e-14
  142 40.7542 -6.82585e-12 -4.18199e-15
  143 40.7542 -6.79691e-12 5.94727e-15
  144 40.7542 -6.80295e-12 -4.60506e-14
  145 40.7542 -6.82056e-12 -7.69809e-15
  146 40.7542 -6.80697e-12 -2.29739e-14
  147 40.7542 -6.79355e-12 -6.94579e-15
  148 40.7542 -6.80529e-12 -7.40781e-16
  149 40.7542 -6.76126e-12 -8.29859e-15
  150 40.7542 -6.78768e-12 2.33762e-14
  151 40.7542 -6.81410e-12 1.60597e-14
  152 40.7542 -6.79649e-12 -7.66937e-15
  153 40.7542 -6.79649e-12 -3.39560e-15
  154 40.7542 -6.81704e-12 2.04356e-14
  155 40.7542 -6.79355e-12 -2.28160e-14
  156 40.7542 -6.79439e-12 -6.09046e-15
  157 40.7542 -6.81201e-12 -1.11563e-14
  158 40.7542 -6.79942e-12 -4.75362e-14
  159 40.7542 -6.78181e-12 1.02258e-14
  160 40.7542 -6.80295e-12 -1.07371e-14
  161 40.7542 -6.76419e-12 3.32255e-14
  162 40.7542 -6.79649e-12 3.45102e-14
  163 40.7542 -6.79062e-12 -2.29685e-14
  164 40.7542 -6.78181e-12 5.18756e-14
  165 40.7542 -6.80236e-12 8.97944e-16
  166 40.7542 -6.80949e-12 -1.09280e-15
  167 40.7542 -6.76671e-12 5.54572e-15
  168 40.7542 -6.77426e-12 1.27178e-14
  169 40.7542 -6.82459e-12 -2.49542e-15
  170 40.7542 -6.77829e-12 1.10279e-14
  171 40.7542 -6.79187e-12 5.84765e-15
  172 40.7542 -6.79649e-12 -1.80908e-15
  173 40.7542 -6.79355e-12 -1.99177e-14
  174 40.7542 -6.77300e-12 3.72060e-14
  175 40.7542 -6.80529e-12 -5.29888e-15
  176 40.7542 -6.82878e-12 -1.74699e-15
  177 40.7542 -6.79942e-12 -2.13356e-15
  178 40.7542 -6.82878e-12 4.41967e-15
  179 40.7542 -6.80295e-12 6.25749e-15
  180 40.7542 -6.80949e-12 3.05936e-15
  181 40.7542 -6.80236e-12 -2.61839e-14
  182 40.7542 -6.75362e-12 1.81190e-14
  183 40.7542 -6.81704e-12 -3.32660e-14
  184 40.7542 -6.79590e-12 -5.28613e-15
  185 40.7542 -6.79942e-12 -7.13658e-15
  186 40.7542 -6.79942e-12 -1.97438e-15
  187 40.7542 -6.77887e-12 -1.38075e-14
  188 40.7542 -6.80295e-12 3.98819e-14
  189 40.7542 -6.79590e-12 -1.68093e-14
  190 40.7542 -6.78432e-12 -1.48701e-14
  191 40.7542 -6.80823e-12 3.49658e-14
  192 40.7542 -6.76923e-12 4.48245e-14
  193 40.7542 -6.78533e-12 -9.12274e-15
  194 40.7542 -6.77006e-12 -1.72099e-14
  195 40.7542 -6.82291e-12 6.20711e-15
  196 40.7542 -6.77887e-12 -4.58637e-15
  197 40.7542 -6.80529e-12 -3.72079e-15
  198 40.7542 -6.81117e-12 1.52860e-14
  199 40.7542 -6.79942e-12 -4.88319e-15
  200 40.7542 -6.79062e-12 -6.54605e-14
  201 40.7542 -6.77300e-12 -2.88021e-14
  202 40.7542 -6.79942e-12 -2.29685e-14
  203 40.7542 -6.80529e-12 3.02576e-14
  204 40.7542 -6.78768e-12 5.37447e-16
  205 40.7542 -6.80529e-12 3.67092e-16
  206 40.7542 -6.78885e-12 2.01369e-14
  207 40.7542 -6.83113e-12 -1.49302e-15
  208 40.7542 -6.83113e-12 -8.14111e-15
  209 40.7542 -6.73777e-12 2.75995e-14
  210 40.7542 -6.81704e-12 -8.74130e-15
  211 40.7542 -6.81704e-12 7.15781e-15
  212 40.7542 -6.77476e-12 5.16320e-14
  213 40.7542 -6.80999e-12 -6.46287e-15
  214 40.7542 -6.79649e-12 -2.44561e-14
  215 40.7542 -6.78533e-12 -2.70185e-14
  216 40.7542 -6.82408e-12 -3.71417e-14
  217 40.7542 -6.79649e-12 4.91359e-14
  218 40.7542 -6.81997e-12 -1.20691e-14
  219 40.7542 -6.79942e-12 6.33992e-14
  220 40.7542 -6.80236e-12 1.66511e-15
  221 40.7542 -6.81704e-12 -1.19305e-15
  222 40.7542 -6.79355e-12 7.73760e-16
  223 40.7542 -6.79590e-12 -9.32292e-15
  224 40.7542 -6.82761e-12 7.87379e-15
  225 40.7542 -6.78181e-12 6.91492e-14
  226 40.7542 -6.82056e-12 1.19366e-14
  227 40.7542 -6.80529e-12 1.97043e-14
  228 40.7542 -6.79238e-12 -1.22314e-14
  229 40.7542 -6.79942e-12 1.49961e-14
  230 40.7542 -6.77887e-12 -3.38362e-14
  231 40.7542 -6.79942e-12 4.72171e-16
  232 40.7542 -6.79942e-12 -1.17683e-14
  233 40.7542 -6.84522e-12 1.75255e-14
  234 40.7542 -6.80529e-12 -3.83109e-14
  235 40.7542 -6.79590e-12 1.70094e-15
  236 40.7542 -6.79942e-12 -5.33610e-15
  237 40.7542 -6.80647e-12 5.63649e-15
  238 40.7542 -6.82408e-12 -1.51811e-14
  239 40.7542 -6.77006e-12 1.28312e-14
  240 40.7542 -6.79590e-12 -2.15506e-15
  241 40.7542 -6.78768e-12 1.01994e-14
</Section>

newXOutput 146

<Section columns = "stress_xx | stress_yy | stress_xy">
  1 24.8681 -4.12773e-12 8.28807e-16
  2 24.8681 -4.11703e-12 5.25792e-15
  3 24.8681 -4.11703e-12 1.08166e-14
  4 24.8681 -4.12238e-12 -1.89090e-15
  5 24.8681 -4.12773e-12 -1.20828e-16
  6 24.8681 -4.12773e-12 6.47564e-16
  7 24.8681 -4.11436e-12 4.62971e-15
  8 24.8681 -4.09208e-12 6.73366e-16
  9 24.8681 -4.10990e-12 -3.96279e-15
  10 24.8681 -4.12060e-12 -2.07806e-14
  11 24.8681 -4.12060e-12 -2.78427e-14
  12 24.8681 -4.12416e-12 -3.82201e-14
  13 24.8681 -4.12238e-12 -1.54042e-14
  14 24.8681 -4.13486e-12 -3.00271e-14
  15 24.8681 -4.12238e-12 -8.03555e-15
  16 24.8681 -4.10990e-12 2.38541e-14
  17 24.8681 -4.09921e-12 3.53624e-14
  18 24.8681 -4.10990e-12 2.29649e-14
  19 24.8681 -4.11347e-12 -1.75264e-15
  20 24.8681 -4.12773e-12 1.32867e-14
  21 24.8681 -4.11703e-12 1.91102e-28
  22 24.8681 -4.08852e-12 -3.00271e-14
  23 24.8681 -4.12060e-12 -1.10508e-14
  24 24.8681 -4.12773e-12 -2.66766e-15
  25 24.8681 -4.13842e-12 1.33383e-15
  26 24.8681 -4.10634e-12 7.79756e-15
  27 24.8681 -4.09921e-12 3.11227e-15
  28 24.8681 -4.11971e-12 -6.67511e-15
  29 24.8681 -4.12773e-12 6.66916e-15
  30 24.8681 -4.12060e-12 2.77881e-15
  31 24.8681 -4.12773e-12 1.88448e-14
  32 24.8681 -4.11169e-12 2.66448e-14
  33 24.8681 -4.10367e-12 5.43291e-15
  34 24.8681 -4.12773e-12 -1.08866e-14
  35 24.8681 -4.12773e-12 7.67817e-15
  36 24.8681 -4.14555e-12 2.08926e-14
  37 24.8681 -4.10634e-12 1.50044e-14
  38 24.8681 -4.11703e-12 1.66116e-14
  39 24.8681 -4.11703e-12 6.62703e-15
  40 24.8681 -4.12060e-12 -1.21663e-14
  41 24.8681 -4.11703e-12 -7.89633e-15
  42 24.8681 -4.12416e-12 1.79793e-15
  43 24.8681 -4.13129e-12 -3.55145e-15
  44 24.8681 -4.12773e-12 -1.19334e-14
  45 24.8681 -4.12060e-12 -1.43038e-14
  46 24.8681 -4.10634e-12 -1.52928e-14
  47 24.8681 -4.10634e-12 -1.27966e-14
  48 24.8681 -4.11347e-12 -1.16678e-14
  49 24.8681 -4.12773e-12 -4.66645e-15
  50 24.8681 -4.11703e-12 2.19080e-16
  51 24.8681 -4.11703e-12 -1.00037e-15
  52 24.8681 -4.12505e-12 2.66097e-16
  53 24.8681 -4.11347e-12 -1.77199e-15
  54 24.8681 -4.12505e-12 1.24321e-15
  55 24.8681 -4.12773e-12 0.00000
  56 24.8681 -4.12773e-12 -1.11153e-16
  57 24.8681 -4.11703e-12 2.70873e-15
  58 24.8681 -4.09208e-12 -1.56966e-14
  59 24.8681 -4.11703e-12 5.56761e-15
  60 24.8681 -4.11347e-12 7.01651e-16
  61 24.8681 -4.11347e-12 -8.35257e-16
  62 24.8681 -4.12238e-12 3.58640e-16
  63 24.8681 -4.12345e-12 3.16249e-15
  64 24.8681 -4.10812e-12 2.11777e-14
  65 24.8681 -4.11882e-12 5.68155e-15
  66 24.8681 -4.11347e-12 2.63966e-15
  67 24.8681 -4.12416e-12 7.40207e-15
  68 24.8681 -4.10634e-12 9.01701e-15
  69 24.8681 -4.11856e-12 -3.55832e-15
  70 24.8681 -4.11703e-12 -8.44347e-17
  71 24.8681 -4.11703e-12 5.38644e-15
  72 24.8681 -4.11703e-12 1.82927e-15
  73 24.8681 -4.12467e-12 2.05944e-15
  74 24.8681 -4.12345e-12 1.41247e-15
  75 24.8681 -4.10848e-12 -8.78082e-16
  76 24.8681 -4.12416e-12 1.79134e-15
  77 24.8681 -4.11703e-12 -4.92124e-16
  78 24.8681 -4.12238e-12 -1.62571e-14
  79 24.8681 -4.12620e-12 6.68915e-15
  80 24.8681 -4.10456e-12 6.29700e-15
  81 24.8681 -4.10634e-12 -5.79681e-15
  82 24.8681 -4.11882e-12 -2.11524e-14
  83 24.8681 -4.12595e-12 5.67158e-15
  84 24.8681 -4.12060e-12 -1.81305e-15
  85 24.8681 -4.10278e-12 3.54398e-15
  86 24.8681 -4.11169e-12 2.34388e-15
  87 24.8681 -4.12595e-12 -1.59489e-15
  88 24.8681 -4.11917e-12 1.04658e-14
  89 24.8681 -4.12773e-12 -7.03164e-16
  90 24.8681 -4.12060e-12 3.12958e-15
  91 24.8681 -4.10848e-12 -6.99145e-15
  92 24.8681 -4.11062e-12 2.16651e-15
  93 24.8681 -4.11490e-12 -1.73532e-14
  94 24.8681 -4.12773e-12 -6.83440e-15
  95 24.8681 -4.10206e-12 -9.82123e-15
  96 24.8681 -4.11703e-12 1.09525e-14
  97 24.8681 -4.10634e-12 -3.97053e-15
  98 24.8681 -4.12131e-12 -5.70957e-15
  99 24.8681 -4.10990e-12 1.31562e-14
  100 24.8681 -4.10634e-12 1.24722e-14
  101 24.8681 -4.12238e-12 1.58045e-14
  102 24.8681 -4.10848e-12 1.60107e-14
  103 24.8681 -4.09921e-12 1.54711e-14
  104 24.8681 -4.11703e-12 1.03381e-14
  105 24.8681 -4.11490e-12 -2.60294e-14
  106 24.8681 -4.10278e-12 1.36370e-14
  107 24.8681 -4.11525e-12 9.40927e-15
  108 24.8681 -4.12595e-12 1.98121e-15
  109 24.8681 -4.12345e-12 4.64906e-15
  110 24.8681 -4.11490e-12 -6.14039e-15
  111 24.8681 -4.11035e-12 -9.81989e-15
  112 24.8681 -4.11882e-12 1.56803e-14
  113 24.8681 -4.12314e-12 -1.73528e-14
  114 24.8681 -4.12009e-12 -5.63571e-15
  115 24.8681 -4.11347e-12 1.73489e-16
  116 24.8681 -4.11490e-12 3.11322e-15
  117 24.8681 -4.11169e-12 2.09473e-14
  118 24.8681 -4.11525e-12 8.57959e-15
  119 24.8681 -4.11092e-12 -1.56234e-15
  120 24.8681 -4.12238e-12 5.83551e-16
  121 24.8681 -4.11856e-12 2.89894e-15
  122 24.8681 -4.10634e-12 1.29464e-14
  123 24.8681 -4.11525e-12 6.12233e-15
  124 24.8681 -4.10634e-12 -6.26467e-15
  125 24.8681 -4.12238e-12 8.75776e-15
  126 24.8681 -4.11035e-12 -2.54048e-15
  127 24.8681 -4.10634e-12 4.98528e-15
  128 24.8681 -4.12238e-12 -1.80015e-15
  129 24.8681 -4.11971e-12 -9.33626e-15
  130 24.8681 -4.11525e-12 -2.34183e-15
  131 24.8681 -4.11169e-12 1.62329e-14
  132 24.8681 -4.11169e-12 -1.99337e-14
  133 24.8681 -4.11245e-12 1.13610e-14
  134 24.8681 -4.10634e-12 4.74710e-15
  135 24.8681 -4.10176e-12 6.07540e-15
  136 24.8681 -4.11703e-12 -7.35781e-15
  137 24.8681 -4.11398e-12 1.33170e-14
  138 24.8681 -4.12060e-12 3.86013e-15
  139 24.8681 -4.11551e-12 5.04775e-15
  140 24.8681 -4.13537e-12 -2.15812e-15
  141 24.8681 -4.12416e-12 -6.17790e-16
  142 24.8681 -4.11703e-12 -8.62475e-15
  143 24.8681 -4.11703e-12 5.91728e-15
  144 24.8681 -4.12131e-12 -5.83164e-15
  145 24.8681 -4.11490e-12 -9.29046e-15
  146 24.8681 -4.11703e-12 -9.45267e-15
  147 24.8681 -4.12238e-12 -7.18608e-15
  148 24.8681 -4.11703e-12 1.77522e-15
  149 24.8681 -4.10990e-12 -4.56123e-15
  150 24.8681 -4.11169e-12 9.09845e-15
  151 24.8681 -4.10990e-12 -1.59720e-15
  152 24.8681 -4.10634e-12 1.88451e-14
  153 24.8681 -4.11169e-12 2.01757e-14
  154 24.8681 -4.09779e-12 2.18534e-15
  155 24.8681 -4.12060e-12 5.01725e-15
  156 24.8681 -4.12620e-12 9.87252e-15
  157 24.8681 -4.11703e-12 2.53959e-15
  158 24.8681 -4.12951e-12 -5.90151e-15
  159 24.8681 -4.12060e-12 1.70634e-14
  160 24.8681 -4.11703e-12 -1.82337e-15
  161 24.8681 -4.09565e-12 1.16913e-14
  162 24.8681 -4.12951e-12 9.34079e-15
  163 24.8681 -4.11347e-12 1.28163e-14
  164 24.8681 -4.11856e-12 -1.62371e-14
  165 24.8681 -4.12595e-12 3.63380e-15
  166 24.8681 -4.12162e-12 1.19592e-15
  167 24.8681 -4.12009e-12 -5.57691e-15
  168 24.8681 -4.12773e-12 7.89666e-15
  169 24.8681 -4.12773e-12 2.15057e-16
  170 24.8681 -4.10634e-12 -9.01587e-15
  171 24.8681 -4.12467e-12 -5.93488e-15
  172 24.8681 -4.10634e-12 -2.07320e-15
  173 24.8681 -4.12773e-12 -1.04181e-14
  174 24.8681 -4.12416e-12 3.41670e-15
  175 24.8681 -4.12416e-12 -5.26698e-16
  176 24.8681 -4.12773e-12 1.93227e-15
  177 24.8681 -4.12060e-12 2.46422e-15
  178 24.8681 -4.11882e-12 8.04523e-15
  179 24.8681 -4.09779e-12 1.91664e-15
  180 24.8681 -4.11398e-12 8.24734e-15
  181 24.8681 -4.08495e-12 1.17861e-14
  182 24.8681 -4.10848e-12 -5.28968e-15
  183 24.8681 -4.10099e-12 2.46992e-15
  184 24.8681 -4.09779e-12 1.19348e-14
  185 24.8681 -4.10456e-12 2.53496e-15
  186 24.8681 -4.12131e-12 -9.32417e-15
  187 24.8681 -4.11347e-12 7.94326e-15
  188 24.8681 -4.11703e-12 1.11426e-14
  189 24.8681 -4.11062e-12 -2.37767e-15
  190 24.8681 -4.12314e-12 -1.18699e-15
  191 24.8681 -4.11882e-12 9.26146e-15
  192 24.8681 -4.11092e-12 -2.18838e-14
  193 24.8681 -4.12987e-12 5.07576e-15
  194 24.8681 -4.09743e-12 -7.10323e-15
  195 24.8681 -4.12238e-12 2.11461e-15
  196 24.8681 -4.11882e-12 1.13634e-14
  197 24.8681 -4.12060e-12 2.69818e-17
  198 24.8681 -4.11525e-12 9.71692e-15
  199 24.8681 -4.10634e-12 5.64298e-15
  200 24.8681 -4.10456e-12 -1.98914e-14
  201 24.8681 -4.10634e-12 -1.08151e-15
  202 24.8681 -4.11703e-12 9.27489e-15
  203 24.8681 -4.12060e-12 5.69372e-15
  204 24.8681 -4.12238e-12 3.91267e-15
  205 24.8681 -4.12773e-12 1.08953e-14
  206 24.8681 -4.11490e-12 1.27429e-14
  207 24.8681 -4.11276e-12 -7.87412e-15
  208 24.8681 -4.12773e-12 -2.62212e-15
  209 24.8681 -4.10278e-12 -1.26480e-14
  210 24.8681 -4.12238e-12 -4.83218e-15
  211 24.8681 -4.12467e-12 1.79085e-15
  212 24.8681 -4.11062e-12 6.94008e-16
  213 24.8681 -4.12131e-12 -4.97249e-15
  214 24.8681 -4.11882e-12 -1.70139e-14
  215 24.8681 -4.09351e-12 -8.66038e-15
  216 24.8681 -4.11490e-12 5.11058e-15
  217 24.8681 -4.12773e-12 -4.02482e-15
  218 24.8681 -4.12060e-12 -3.25950e-15
  219 24.8681 -4.11276e-12 4.12327e-15
  220 24.8681 -4.11169e-12 -3.20085e-15
  221 24.8681 -4.10812e-12 2.30399e-14
  222 24.8681 -4.10812e-12 9.90698e-16
  223 24.8681 -4.12131e-12 -1.85290e-14
  224 24.8681 -4.11917e-12 2.91121e-15
  225 24.8681 -4.12559e-12 2.86774e-15
  226 24.8681 -4.09137e-12 1.00791e-14
  227 24.8681 -4.12238e-12 6.51285e-15
  228 24.8681 -4.11062e-12 1.83179e-14
  229 24.8681 -4.11703e-12 5.66996e-15
  230 24.8681 -4.13129e-12 6.08759e-15
  231 24.8681 -4.11490e-12 -4.51180e-15
  232 24.8681 -4.10634e-12 9.06373e-15
  233 24.8681 -4.11703e-12 1.42062e-14
  234 24.8681 -4.10812e-12 -1.50711e-14
  235 24.8681 -4.12131e-12 -1.29455e-14
  236 24.8681 -4.12620e-12 -2.47624e-15
  237 24.8681 -4.09779e-12 1.12601e-14
  238 24.8681 -4.12131e-12 -2.18534e-15
  239 24.8681 -4.10456e-12 1.83481e-14
  240 24.8681 -4.12131e-12 -2.11865e-15
  241 24.8681 -4.11525e-12 -2.22305e-16
</Section>

newXOutput 147

<Section columns = "stress_xx | stress_yy | stress_xy">
  1 9.03987 -1.16423e-05 8.98305e-16
  2 9.03987 -1.16423e-05 6.69459e-15
  3 9.03987 -1.16423e-05 -1.97910e-15
  4 9.03987 -1.16423e-05 8.26471e-16
  5 9.03987 -1.16423e-05 1.23341e-15
  6 9.03987 -1.16423e-05 2.51313e-15
  7 9.03987 -1.16423e-05 2.40611e-16
  8 9.03987 -1.16423e-05 1.91780e-15
  9 9.03987 -1.16423e-05 4.77679e-16
  10 9.03987 -1.16423e-05 -3.35793e-15
  11 9.03987 -1.16423e-05 1.11931e-15
  12 9.03987 -1.16423e-05 1.59699e-15
  13 9.03987 -1.16423e-05 1.79661e-15
  14 9.03987 -1.16423e-05 -6.70876e-15
  15 9.03987 -1.16423e-05 -4.39532e-15
  16 9.03987 -1.16423e-05 3.83560e-15
  17 9.03987 -1.16423e-05 -9.55357e-16
  18 9.03987 -1.16423e-05 -3.20106e-15
  19 9.03987 -1.16423e-05 -2.55234e-15
  20 9.03987 -1.16423e-05 -4.47015e-15
  21 9.03987 -1.16423e-05 -1.24551e-14
  22 9.03987 -1.16423e-05 -5.10469e-15
  23 9.03987 -1.16423e-05 3.35084e-15
  24 9.03987 -1.16423e-05 -7.35039e-15
  25 9.03987 -1.16423e-05 -4.81223e-16
  26 9.03987 -1.16423e-05 5.15629e-15
  27 9.03987 -1.16423e-05 4.81223e-16
  28 9.03987 -1.16423e-05 -2.50515e-15
  29 9.03987 -1.16423e-05 2.16550e-15
  30 9.03987 -1.16423e-05 3.65515e-15
  31 9.03987 -1.16423e-05 -3.86349e-16
  32 9.03987 -1.16423e-05 -5.72467e-16
  33 9.03987 -1.16423e-05 -1.99192e-15
  34 9.03987 -1.16423e-05 -9.46098e-15
  35 9.03987 -1.16423e-05 -6.76767e-16
  36 9.03987 -1.16423e-05 2.26206e-15
  37 9.03987 -1.16423e-05 5.66973e-15
  38 9.03987 -1.16423e-05 5.43108e-15
  39 9.03987 -1.16423e-05 3.01499e-15
  40 9.03987 -1.16423e-05 -5.88964e-16
  41 9.03987 -1.16423e-05 2.33836e-15
  42 9.03987 -1.16423e-05 4.02659e-16
  43 9.03987 -1.16423e-05 -1.67051e-15
  44 9.03987 -1.16423e-05 -3.75964e-15
  45 9.03987 -1.16423e-05 -1.23571e-15
  46 9.03987 -1.16423e-05 1.54746e-15
  47 9.03987 -1.16423e-05 3.84193e-15
  48 9.03987 -1.16423e-05 2.52736e-15
  49 9.03987 -1.16423e-05 2.61785e-15
  50 9.03987 -1.16423e-05 -8.80469e-16
  51 9.03987 -1.16423e-05 -6.01528e-16
  52 9.03987 -1.16423e-05 -8.85261e-16
  53 9.03987 -1.16423e-05 3.17271e-16
  54 9.03987 -1.16423e-05 9.15582e-17
  55 9.03987 -1.16423e-05 4.81223e-16
  56 9.03987 -1.16423e-05 4.41121e-16
  57 9.03987 -1.16423e-05 1.65670e-15
  58 9.03987 -1.16423e-05 -2.79650e-15
  59 9.03987 -1.16423e-05 5.27087e-16
  60 9.03987 -1.16423e-05 1.51856e-15
  61 9.03987 -1.16423e-05 1.04448e-15
  62 9.03987 -1.16423e-05 -2.67811e-15
  63 9.03987 -1.16423e-05 2.53772e-15
  64 9.03987 -1.16423e-05 7.23363e-15
  65 9.03987 -1.16423e-05 -1.27662e-15
  66 9.03987 -1.16423e-05 1.67554e-16
  67 9.03987 -1.16423e-05 -4.16467e-15
  68 9.03987 -1.16423e-05 1.97928e-15
  69 9.03987 -1.16423e-05 -2.38595e-15
  70 9.03987 -1.16423e-05 -4.10832e-15
  71 9.03987 -1.16423e-05 5.18224e-16
  72 9.03987 -1.16423e-05 1.03677e-15
  73 9.03987 -1.16423e-05 8.82109e-17
  74 9.03987 -1.16423e-05 -1.01441e-15
  75 9.03987 -1.16423e-05 -5.54384e-15
  76 9.03987 -1.16423e-05 3.71353e-15
  77 9.03987 -1.16423e-05 1.53728e-15
  78 9.03987 -1.16423e-05 -2.16343e-15
  79 9.03987 -1.16423e-05 1.84741e-15
  80 9.03987 -1.16423e-05 3.73535e-15
  81 9.03987 -1.16423e-05 -4.99502e-16
  82 9.03987 -1.16423e-05 -2.36473e-15
  83 9.03987 -1.16423e-05 1.40938e-15
  84 9.03987 -1.16423e-05 -1.80901e-16
  85 9.03987 -1.16423e-05 4.18739e-17
  86 9.03987 -1.16423e-05 4.42007e-16
  87 9.03987 -1.16423e-05 -2.04714e-15
  88 9.03987 -1.16423e-05 1.10379e-14
  89 9.03987 -1.16423e-05 4.91854e-17
  90 9.03987 -1.16423e-05 2.14595e-15
  91 9.03987 -1.16423e-05 -4.84952e-15
  92 9.03987 -1.16423e-05 7.92422e-16
  93 9.03987 -1.16423e-05 -6.79721e-15
  94 9.03987 -1.16423e-05 4.23543e-15
  95 9.03987 -1.16423e-05 -1.22340e-15
  96 9.03987 -1.16423e-05 7.85815e-15
  97 9.03987 -1.16423e-05 1.29335e-14
  98 9.03987 -1.16423e-05 -4.44756e-15
  99 9.03987 -1.16423e-05 3.65515e-15
  100 9.03987 -1.16423e-05 6.02060e-16
  101 9.03987 -1.16423e-05 5.98693e-15
  102 9.03987 -1.16423e-05 -4.69365e-15
  103 9.03987 -1.16423e-05 3.55135e-15
  104 9.03987 -1.16423e-05 4.64447e-15
  105 9.03987 -1.16423e-05 -6.59960e-15
  106 9.03987 -1.16423e-05 2.21325e-15
  107 9.03987 -1.16423e-05 1.16631e-14
  108 9.03987 -1.16423e-05 -1.32719e-15
  109 9.03987 -1.16423e-05 3.38451e-16
  110 9.03987 -1.16423e-05 -2.53347e-15
  111 9.03987 -1.16423e-05 -1.57729e-15
  112 9.03987 -1.16423e-05 -4.27952e-15
  113 9.03987 -1.16423e-05 -7.29624e-16
  114 9.03987 -1.16423e-05 7.93461e-16
  115 9.03987 -1.16423e-05 2.03070e-15
  116 9.03987 -1.16423e-05 8.85477e-16
  117 9.03987 -1.16423e-05 -9.33534e-16
  118 9.03987 -1.16423e-05 -2.02498e-15
  119 9.03987 -1.16423e-05 -3.19709e-16
  120 9.03987 -1.16423e-05 2.23463e-15
  121 9.03987 -1.16423e-05 1.16527e-15
  122 9.03987 -1.16423e-05 -2.02079e-15
  123 9.03987 -1.16423e-05 -4.12840e-15
  124 9.03987 -1.16423e-05 -1.84886e-15
  125 9.03987 -1.16423e-05 -4.26772e-15
  126 9.03987 -1.16423e-05 8.53523e-16
  127 9.03987 -1.16423e-05 8.35209e-15
  128 9.03987 -1.16423e-05 1.02423e-14
  129 9.03987 -1.16423e-05 -2.01361e-15
  130 9.03987 -1.16423e-05 -1.17990e-15
  131 9.03987 -1.16423e-05 4.69428e-15
  132 9.03987 -1.16423e-05 -1.78167e-15
  133 9.03987 -1.16423e-05 -2.53449e-15
  134 9.03987 -1.16423e-05 2.37981e-15
  135 9.03987 -1.16423e-05 3.15017e-15
  136 9.03987 -1.16423e-05 -2.25171e-15
  137 9.03987 -1.16423e-05 -1.21828e-15
  138 9.03987 -1.16423e-05 -2.96777e-16
  139 9.03987 -1.16423e-05 2.25265e-15
  140 9.03987 -1.16423e-05 3.90334e-15
  141 9.03987 -1.16423e-05 -3.54214e-16
  142 9.03987 -1.16423e-05 3.15499e-16
  143 9.03987 -1.16423e-05 6.84423e-16
  144 9.03987 -1.16423e-05 -3.80206e-15
  145 9.03987 -1.16423e-05 -7.42184e-15
  146 9.03987 -1.16423e-05 -2.64473e-15
  147 9.03987 -1.16423e-05 -3.86393e-15
  148 9.03987 -1.16423e-05 7.59721e-16
  149 9.03987 -1.16423e-05 -5.94440e-16
  150 9.03987 -1.16423e-05 2.39632e-15
  151 9.03987 -1.16423e-05 4.58957e-16
  152 9.03987 -1.16423e-05 -5.50925e-15
  153 9.03987 -1.16423e-05 7.06791e-15
  154 9.03987 -1.16423e-05 3.66434e-15
  155 9.03987 -1.16423e-05 -2.59245e-15
  156 9.03987 -1.16423e-05 7.43313e-15
  157 9.03987 -1.16423e-05 -1.64231e-15
  158 9.03987 -1.16423e-05 -3.50122e-15
  159 9.03987 -1.16423e-05 5.84009e-15
  160 9.03987 -1.16423e-05 9.45364e-16
  161 9.03987 -1.16423e-05 1.05018e-15
  162 9.03987 -1.16423e-05 2.39592e-15
  163 9.03987 -1.16423e-05 1.77745e-15
  164 9.03987 -1.16423e-05 -2.24944e-16
  165 9.03987 -1.16423e-05 -1.31450e-15
  166 9.03987 -1.16423e-05 -1.13032e-15
  167 9.03987 -1.16423e-05 -4.37293e-15
  168 9.03987 -1.16423e-05 3.62584e-15
  169 9.03987 -1.16423e-05 6.18335e-16
  170 9.03987 -1.16423e-05 -2.75852e-15
  171 9.03987 -1.16423e-05 5.94593e-15
  172 9.03987 -1.16423e-05 7.47643e-28
  173 9.03987 -1.16423e-05 -4.07297e-15
  174 9.03987 -1.16423e-05 1.47402e-15
  175 9.03987 -1.16423e-05 -4.10708e-16
  176 9.03987 -1.16423e-05 1.05827e-15
  177 9.03987 -1.16423e-05 3.34634e-15
  178 9.03987 -1.16423e-05 1.86612e-15
  179 9.03987 -1.16423e-05 1.36457e-15
  180 9.03987 -1.16423e-05 3.06538e-15
  181 9.03987 -1.16423e-05 -5.15011e-15
  182 9.03987 -1.16423e-05 1.45630e-15
  183 9.03987 -1.16423e-05 -3.26327e-15
  184 9.03987 -1.16423e-05 -1.33892e-15
  185 9.03987 -1.16423e-05 -2.63252e-15
  186 9.03987 -1.16423e-05 -6.39508e-15
  187 9.03987 -1.16423e-05 1.34601e-15
  188 9.03987 -1.16423e-05 1.45458e-15
  189 9.03987 -1.16423e-05 2.14523e-15
  190 9.03987 -1.16423e-05 -1.38894e-15
  191 9.03987 -1.16423e-05 5.82026e-15
  192 9.03987 -1.16423e-05 4.27689e-15
  193 9.03987 -1.16423e-05 1.44356e-15
  194 9.03987 -1.16423e-05 -1.83228e-15
  195 9.03987 -1.16423e-05 -3.27961e-16
  196 9.03987 -1.16423e-05 2.05837e-15
  197 9.03987 -1.16423e-05 -1.39028e-16
  198 9.03987 -1.16423e-05 3.35084e-15
  199 9.03987 -1.16423e-05 -1.03645e-15
  200 9.03987 -1.16423e-05 5.17781e-16
  201 9.03987 -1.16423e-05 -2.73959e-15
  202 9.03987 -1.16423e-05 -3.50123e-15
  203 9.03987 -1.16423e-05 4.99059e-16
  204 9.03987 -1.16423e-05 2.46389e-15
  205 9.03987 -1.16423e-05 2.93819e-15
  206 9.03987 -1.16423e-05 7.65703e-16
  207 9.03987 -1.16423e-05 3.58044e-16
  208 9.03987 -1.16423e-05 -2.16625e-15
  209 9.03987 -1.16423e-05 1.51856e-15
  210 9.03987 -1.16423e-05 -1.27072e-15
  211 9.03987 -1.16423e-05 1.11219e-15
  212 9.03987 -1.16423e-05 7.43024e-15
  213 9.03987 -1.16423e-05 -2.41810e-16
  214 9.03987 -1.16423e-05 -5.24416e-16
  215 9.03987 -1.16423e-05 6.41605e-15
  216 9.03987 -1.16423e-05 -6.45082e-15
  217 9.03987 -1.16423e-05 6.73059e-15
  218 9.03987 -1.16423e-05 -1.00235e-15
  219 9.03987 -1.16423e-05 1.27471e-15
  220 9.03987 -1.16423e-05 2.79827e-16
  221 9.03987 -1.16423e-05 2.26044e-15
  222 9.03987 -1.16423e-05 -8.66401e-15
  223 9.03987 -1.16423e-05 9.45364e-16
  224 9.03987 -1.16423e-05 1.91426e-15
  225 9.03987 -1.16423e-05 9.50974e-15
  226 9.03987 -1.16423e-05 -2.18145e-16
  227 9.03987 -1.16423e-05 1.57871e-15
  228 9.03987 -1.16423e-05 -3.83064e-15
  229 9.03987 -1.16423e-05 8.94732e-16
  230 9.03987 -1.16423e-05 3.23408e-15
  231 9.03987 -1.16423e-05 8.33925e-15
  232 9.03987 -1.16423e-05 -4.14184e-15
  233 9.03987 -1.16423e-05 5.85603e-15
  234 9.03987 -1.16423e-05 -4.27075e-15
  235 9.03987 -1.16423e-05 -3.77974e-15
  236 9.03987 -1.16423e-05 -1.16104e-16
  237 9.03987 -1.16423e-05 2.08910e-15
  238 9.03987 -1.16423e-05 1.17049e-15
  239 9.03987 -1.16423e-05 9.17027e-16
  240 9.03987 -1.16423e-05 6.12988e-15
  241 9.03987 -1.16423e-05 3.24359e-16
</Section>

newXOutput 148

<Section columns = "stress_xx | stress_yy | stress_xy">
  1 0.00000 0.00000 0.00000
  2 0.00000 0.00000 0.00000
  3 0.00000 0.00000 0.00000
  4 0.00000 0.00000 0.00000
  5 0.00000 0.00000 0.00000
  6 0.00000 0.00000 0.00000
  7 0.00000 0.00000 0.00000
  8 0.00000 0.00000 0.00000
  9 0.00000 0.00000 0.00000
  10 0.00000 0.00000 0.00000
  11 0.00000 0.00000 0.00000
  12 0.00000 0.00000 0.00000
  13 0.00000 0.00000 0.00000
  14 0.00000 0.00000 0.00000
  15 0.00000 0.00000 0.00000
  16 0.00000 0.00000 0.00000
  17 0.00000 0.00000 0.00000
  18 0.00000 0.00000 0.00000
  19 0.00000 0.00000 0.00000
  20 0.00000 0.00000 0.00000
  21 0.00000 0.00000 0.00000
  22 0.00000 0.00000 0.00000
  23 0.00000 0.00000 0.00000
  24 0.00000 0.00000 0.00000
  25 0.00000 0.00000 0.00000
  26 0.00000 0.00000 0.00000
  27 0.00000 0.00000 0.00000
  28 0.00000 0.00000 0.00000
  29 0.00000 0.00000 0.00000
  30 0.00000 0.00000 0.00000
  31 0.00000 0.00000 0.00000
  32 0.00000 0.00000 0.00000
  33 0.00000 0.00000 0.00000
  34 0.00000 0.00000 0.00000
  35 0.00000 0.00000 0.00000
  36 0.00000 0.00000 0.00000
  37 0.00000 0.00000 0.00000
  38 0.00000 0.00000 0.00000
  39 0.00000 0.00000 0.00000
  40 0.00000 0.00000 0.00000
  41 0.00000 0.00000 0.00000
  42 0.00000 0.00000 0.00000
  43 0.00000 0.00000 0.00000
  44 0.00000 0.00000 0.00000
  45 0.00000 0.00000 0.00000
  46 0.00000 0.00000 0.00000
  47 0.00000 0.00000 0.00000
  48 0.00000 0.00000 0.00000
  49 0.00000 0.00000 0.00000
  50 0.00000 0.00000 0.00000
  51 0.00000 0.00000 0.00000
  52 0.00000 0.00000 0.00000
  53 0.00000 0.00000 0.00000
  54 0.00000 0.00000 0.00000
  55 0.00000 0.00000 0.00000
  56 0.00000 0.00000 0.00000
  57 0.00000 0.00000 0.00000
  58 0.00000 0.00000 0.00000
  59 0.00000 0.00000 0.00000
  60 0.00000 0.00000 0.00000
  61 0.00000 0.00000 0.00000
  62 0.00000 0.00000 0.00000
  63 0.00000 0.00000 0.00000
  64 0.00000 0.00000 0.00000
  65 0.00000 0.00000 0.00000
  66 0.00000 0.00000 0.00000
  67 0.00000 0.00000 0.00000
  68 0.00000 0.00000 0.00000
  69 0.00000 0.00000 0.00000
  70 0.00000 0.00000 0.00000
  71 0.00000 0.00000 0.00000
  72 0.00000 0.00000 0.00000
  73 0.00000 0.00000 0.00000
  74 0.00000 0.00000 0.00000
  75 0.00000 0.00000 0.00000
  76 0.00000 0.00000 0.00000
  77 0.00000 0.00000 0.00000
  78 0.00000 0.00000 0.00000
  79 0.00000 0.00000 0.00000
  80 0.00000 0.00000 0.00000
  81 0.00000 0.00000 0.00000
  82 0.00000 0.00000 0.00000
  83 0.00000 0.00000 0.00000
  84 0.00000 0.00000 0.00000
  85 0.00000 0.00000 0.00000
  86 0.00000 0.00000 0.00000
  87 0.00000 0.00000 0.00000
  88 0.00000 0.00000 0.00000
  89 0.00000 0.00000 0.00000
  90 0.00000 0.00000 0.00000
  91 0.00000 0.00000 0.00000
  92 0.00000 0.00000 0.00000
  93 0.00000 0.00000 0.00000
  94 0.00000 0.00000 0.00000
  95 0.00000 0.00000 0.00000
  96 0.00000 0.00000 0.00000
  97 0.00000 0.00000 0.00000
  98 0.00000 0.00000 0.00000
  99 0.00000 0.00000 0.00000
  100 0.00000 0.00000 0.00000
  101 0.00000 0.00000 0.00000
  102 0.00000 0.00000 0.00000
  103 0.00000 0.00000 0.00000
  104 0.00000 0.00000 0.00000
  105 0.00000 0.00000 0.00000
  106 0.00000 0.00000 0.00000
  107 0.00000 0.00000 0.00000
  108 0.00000 0.00000 0.00000
  109 0.00000 0.00000 0.00000
  110 0.00000 0.00000 0.00000
  111 0.00000 0.00000 0.00000
  112 0.00000 0.00000 0.00000
  113 0.00000 0.00000 0.00000
  114 0.00000 0.00000 0.00000
  115 0.00000 0.00000 0.00000
  116 0.00000 0.00000 0.00000
  117 0.00000 0.00000 0.00000
  118 0.00000 0.00000 0.00000
  119 0.00000 0.00000 0.00000
  120 0.00000 0.00000 0.00000
  121 0.00000 0.00000 0.00000
  122 0.00000 0.00000 0.00000
  123 0.00000 0.00000 0.00000
  124 0.00000 0.00000 0.00000
  125 0.00000 0.00000 0.00000
  126 0.00000 0.00000 0.00000
  127 0.00000 0.00000 0.00000
  128 0.00000 0.00000 0.00000
  129 0.00000 0.00000 0.00000
  130 0.00000 0.00000 0.00000
  131 0.00000 0.00000 0.00000
  132 0.00000 0.00000 0.00000
  133 0.00000 0.00000 0.00000
  134 0.00000 0.00000 0.00000
  135 0.00000 0.00000 0.00000
  136 0.00000 0.00000 0.00000
  137 0.00000 0.00000 0.00000
  138 0.00000 0.00000 0.00000
  139 0.00000 0.00000 0.00000
  140 0.00000 0.00000 0.00000
  141 0.00000 0.00000 0.00000
  142 0.00000 0.00000 0.00000
  143 0.00000 0.00000 0.00000
  144 0.00000 0.00000 0.00000
  145 0.00000 0.00000 0.00000
  146 0.00000 0.00000 0.00000
  147 0.00000 0.00000 0.00000
  148 0.00000 0.00000 0.00000
  149 0.00000 0.00000 0.00000
  150 0.00000 0.00000 0.00000
  151 0.00000 0.00000 0.00000
  152 0.00000 0.00000 0.00000
  153 0.00000 0.00000 0.00000
  154 0.00000 0.00000 0.00000
  155 0.00000 0.00000 0.00000
  156 0.00000 0.00000 0.00000
  157 0.00000 0.00000 0.00000
  158 0.00000 0.00000 0.00000
  159 0.00000 0.00000 0.00000
  160 0.00000 0.00000 0.00000
  161 0.00000 0.00000 0.00000
  162 0.00000 0.00000 0.00000
  163 0.00000 0.00000 0.00000
  164 0.00000 0.00000 0.00000
  165 0.00000 0.00000 0.00000
  166 0.00000 0.00000 0.00000
  167 0.00000 0.00000 0.00000
  168 0.00000 0.00000 0.00000
  169 0.00000 0.00000 0.00000
  170 0.00000 0.00000 0.00000
  171 0.00000 0.00000 0.00000
  172 0.00000 0.00000 0.00000
  173 0.00000 0.00000 0.00000
  174 0.00000 0.00000 0.00000
  175 0.00000 0.00000 0.00000
  176 0.00000 0.00000 0.00000
  177 0.00000 0.00000 0.00000
  178 0.00000 0.00000 0.00000
  179 0.00000 0.00000 0.00000
  180 0.00000 0.00000 0.00000
  181 0.00000 0.00000 0.00000
  182 0.00000 0.00000 0.00000
  183 0.00000 0.00000 0.00000
  184 0.00000 0.00000 0.00000
  185 0.00000 0.00000 0.00000
  186 0.00000 0.00000 0.00000
  187 0.00000 0.00000 0.00000
  188 0.00000 0.00000 0.00000
  189 0.00000 0.00000 0.00000
  190 0.00000 0.00000 0.00000
  191 0.00000 0.00000 0.00000
  192 0.00000 0.00000 0.00000
  193 0.00000 0.00000 0.00000
  194 0.00000 0.00000 0.00000
  195 0.00000 0.00000 0.00000
  196 0.00000 0.00000 0.00000
  197 0.00000 0.00000 0.00000
  198 0.00000 0.00000 0.00000
  199 0.00000 0.00000 0.00000
  200 0.00000 0.00000 0.00000
  201 0.00000 0.00000 0.00000
  202 0.00000 0.00000 0.00000
  203 0.00000 0.00000 0.00000
  204 0.00000 0.00000 0.00000
  205 0.00000 0.00000 0.00000
  206 0.00000 0.00000 0.00000
  207 0.00000 0.00000 0.00000
  208 0.00000 0.00000 0.00000
  209 0.00000 0.00000 0.00000
  210 0.00000 0.00000 0.00000
  211 0.00000 0.00000 0.00000
  212 0.00000 0.00000 0.00000
  213 0.00000 0.00000 0.00000
  214 0.00000 0.00000 0.00000
  215 0.00000 0.00000 0.00000
  216 0.00000 0.00000 0.00000
  217 0.00000 0.00000 0.00000
  218 0.00000 0.00000 0.00000
  219 0.00000 0.00000 0.00000
  220 0.00000 0.00000 0.00000
  221 0.00000 0.00000 0.00000
  222 0.00000 0.00000 0.00000
  223 0.00000 0.00000 0.00000
  224 0.00000 0.00000 0.00000
  225 0.00000 0.00000 0.00000
  226 0.00000 0.00000 0.00000
  227 0.00000 0.00000 0.00000
  228 0.00000 0.00000 0.00000
  229 0.00000 0.00000 0.00000
  230 0.00000 0.00000 0.00000
  231 0.00000 0.00000 0.00000
  232 0.00000 0.00000 0.00000
  233 0.00000 0.00000 0.00000
  234 0.00000 0.00000 0.00000
  235 0.00000 0.00000 0.00000
  236 0.00000 0.00000 0.00000
  237 0.00000 0.00000 0.00000
  238 0.00000 0.00000 0.00000
  239 0.00000 0.00000 0.00000
  240 0.00000 0.00000 0.00000
  241 0.00000 0.00000 0.00000
</Section>

newXOutput 149

<Section columns = "stress_xx | stress_yy | stress_xy">
  1 0.00000 0.00000 0.00000
  2 0.00000 0.00000 0.00000
  3 0.00000 0.00000 0.00000
  4 0.00000 0.00000 0.00000
  5 0.00000 0.00000 0.00000
  6 0.00000 0.00000 0.00000
  7 0.00000 0.00000 0.00000
  8 0.00000 0.00000 0.00000
  9 0.00000 0.00000 0.00000
  10 0.00000 0.00000 0.00000
  11 0.00000 0.00000 0.00000
  12 0.00000 0.00000 0.00000
  13 0.00000 0.00000 0.00000
  14 0.00000 0.00000 0.00000
  15 0.00000 0.00000 0.00000
  16 0.00000 0.00000 0.00000
  17 0.00000 0.00000 0.00000
  18 0.00000 0.00000 0.00000
  19 0.00000 0.00000 0.00000
  20 0.00000 0.00000 0.00000
  21 0.00000 0.00000 0.00000
  22 0.00000 0.00000 0.00000
  23 0.00000 0.00000 0.00000
  24 0.00000 0.00000 0.00000
  25 0.00000 0.00000 0.00000
  26 0.00000 0.00000 0.00000
  27 0.00000 0.00000 0.00000
  28 0.00000 0.00000 0.00000
  29 0.00000 0.00000 0.00000
  30 0.00000 0.00000 0.00000
  31 0.00000 0.00000 0.00000
  32 0.00000 0.00000 0.00000
  33 0.00000 0.00000 0.00000
  34 0.00000 0.00000 0.00000
  35 0.00000 0.00000 0.00000
  36 0.00000 0.00000 0.00000
  37 0.00000 0.00000 0.00000
  38 0.00000 0.00000 0.00000
  39 0.00000 0.00000 0.00000
  40 0.00000 0.00000 0.00000
  41 0.00000 0.00000 0.00000
  42 0.00000 0.00000 0.00000
  43 0.00000 0.00000 0.00000
  44 0.00000 0.00000 0.00000
  45 0.00000 0.00000 0.00000
  46 0.00000 0.00000 0.00000
  47 0.00000 0.00000 0.00000
  48 0.00000 0.00000 0.00000
  49 0.00000 0.00000 0.00000
  50 0.00000 0.00000 0.00000
  51 0.00000 0.00000 0.00000
  52 0.00000 0.00000 0.00000
  53 0.00000 0.00000 0.00000
  54 0.00000 0.00000 0.00000
  55 0.00000 0.00000 0.00000
  56 0.00000 0.00000 0.00000
  57 0.00000 0.00000 0.00000
  58 0.00000 0.00000 0.00000
  59 0.00000 0.00000 0.00000
  60 0.00000 0.00000 0.00000
  61 0.00000 0.00000 0.00000
  62 0.00000 0.00000 0.00000
  63 0.00000 0.00000 0.00000
  64 0.00000 0.00000 0.00000
  65 0.00000 0.00000 0.00000
  66 0.00000 0.00000 0.00000
  67 0.00000 0.00000 0.00000
  68 0.00000 0.00000 0.00000
  69 0.00000 0.00000 0.00000
  70 0.00000 0.00000 0.00000
  71 0.00000 0.00000 0.00000
  72 0.00000 0.00000 0.00000
  73 0.00000 0.00000 0.00000
  74 0.00000 0.00000 0.00000
  75 0.00000 0.00000 0.00000
  76 0.00000 0.00000 0.00000
  77 0.00000 0.00000 0.00000
  78 0.00000 0.00000 0.00000
  79 0.00000 0.00000 0.00000
  80 0.00000 0.00000 0.00000
  81 0.00000 0.00000 0.00000
  82 0.00000 0.00000 0.00000
  83 0.00000 0.00000 0.00000
  84 0.00000 0.00000 0.00000
  85 0.00000 0.00000 0.00000
  86 0.00000 0.00000 0.00000
  87 0.00000 0.00000 0.00000
  88 0.00000 0.00000 0.00000
  89 0.00000 0.00000 0.00000
  90 0.00000 0.00000 0.00000
  91 0.00000 0.00000 0.00000
  92 0.00000 0.00000 0.00000
  93 0.00000 0.00000 0.00000
  94 0.00000 0.00000 0.00000
  95 0.00000 0.00000 0.00000
  96 0.00000 0.00000 0.00000
  97 0.00000 0.00000 0.00000
  98 0.00000 0.00000 0.00000
  99 0.00000 0.00000 0.00000
  100 0.00000 0.00000 0.00000
  101 0.00000 0.00000 0.00000
  102 0.00000 0.00000 0.00000
  103 0.00000 0.00000 0.00000
  104 0.00000 0.00000 0.00000
  105 0.00000 0.00000 0.00000
  106 0.00000 0.00000 0.00000
  107 0.00000 0.00000 0.00000
  108 0.00000 0.00000 0.00000
  109 0.00000 0.00000 0.00000
  110 0.00000 0.00000 0.00000
  111 0.00000 0.00000 0.00000
  112 0.00000 0.00000 0.00000
  113 0.00000 0.00000 0.00000
  114 0.00000 0.00000 0.00000
  115 0.00000 0.00000 0.00000
  116 0.00000 0.00000 0.00000
  117 0.00000 0.00000 0.00000
  118 0.00000 0.00000 0.00000
  119 0.00000 0.00000 0.00000
  120 0.00000 0.00000 0.00000
  121 0.00000 0.00000 0.00000
  122 0.00000 0.00000 0.00000
  123 0.00000 0.00000 0.00000
  124 0.00000 0.00000 0.00000
  125 0.00000 0.00000 0.00000
  126 0.00000 0.00000 0.00000
  127 0.00000 0.00000 0.00000
  128 0.00000 0.00000 0.00000
  129 0.00000 0.00000 0.00000
  130 0.00000 0.00000 0.00000
  131 0.00000 0.00000 0.00000
  132 0.00000 0.00000 0.00000
  133 0.00000 0.00000 0.00000
  134 0.00000 0.00000 0.00000
  135 0.00000 0.00000 0.00000
  136 0.00000 0.00000 0.00000
  137 0.00000 0.00000 0.00000
  138 0.00000 0.00000 0.00000
  139 0.00000 0.00000 0.00000
  140 0.00000 0.00000 0.00000
  141 0.00000 0.00000 0.00000
  142 0.00000 0.00000 0.00000
  143 0.00000 0.00000 0.00000
  144 0.00000 0.00000 0.00000
  145 0.00000 0.00000 0.00000
  146 0.00000 0.00000 0.00000
  147 0.00000 0.00000 0.00000
  148 0.00000 0.00000 0.00000
  149 0.00000 0.00000 0.00000
  150 0.00000 0.00000 0.00000
  151 0.00000 0.00000 0.00000
  152 0.00000 0.00000 0.00000
  153 0.00000 0.00000 0.00000
  154 0.00000 0.00000 0.00000
  155 0.00000 0.00000 0.00000
  156 0.00000 0.00000 0.00000
  157 0.00000 0.00000 0.00000
  158 0.00000 0.00000 0.00000
  159 0.00000 0.00000 0.00000
  160 0.00000 0.00000 0.00000
  161 0.00000 0.00000 0.00000
  162 0.00000 0.00000 0.00000
  163 0.00000 0.00000 0.00000
  164 0.00000 0.00000 0.00000
  165 0.00000 0.00000 0.00000
  166 0.00000 0.00000 0.00000
  167 0.00000 0.00000 0.00000
  168 0.00000 0.00000 0.00000
  169 0.00000 0.00000 0.00000
  170 0.00000 0.00000 0.00000
  171 0.00000 0.00000 0.00000
  172 0.00000 0.00000 0.00000
  173 0.00000 0.00000 0.00000
  174 0.00000 0.00000 0.00000
  175 0.00000 0.00000 0.00000
  176 0.00000 0.00000 0.00000
  177 0.00000 0.00000 0.00000
  178 0.00000 0.00000 0.00000
  179 0.00000 0.00000 0.00000
  180 0.00000 0.00000 0.00000
  181 0.00000 0.00000 0.00000
  182 0.00000 0.00000 0.00000
  183 0.00000 0.00000 0.00000
  184 0.00000 0.00000 0.00000
  185 0.00000 0.00000 0.00000
  186 0.00000 0.00000 0.00000
  187 0.00000 0.00000 0.00000
  188 0.00000 0.00000 0.00000
  189 0.00000 0.00000 0.00000
  190 0.00000 0.00000 0.00000
  191 0.00000 0.00000 0.00000
  192 0.00000 0.00000 0.00000
  193 0.00000 0.00000 0.00000
  194 0.00000 0.00000 0.00000
  195 0.00000 0.00000 0.00000
  196 0.00000 0.00000 0.00000
  197 0.00000 0.00000 0.00000
  198 0.00000 0.00000 0.00000
  199 0.00000 0.00000 0.00000
  200 0.00000 0.00000 0.00000
  201 0.00000 0.00000 0.00000
  202 0.00000 0.00000 0.00000
  203 0.00000 0.00000 0.00000
  204 0.00000 0.00000 0.00000
  205 0.00000 0.00000 0.00000
  206 0.00000 0.00000 0.00000
  207 0.00000 0.00000 0.00000
  208 0.00000 0.00000 0.00000
  209 0.00000 0.00000 0.00000
  210 0.00000 0.00000 0.00000
  211 0.00000 0.00000 0.00000
  212 0.00000 0.00000 0.00000
  213 0.00000 0.00000 0.00000
  214 0.00000 0.00000 0.00000
  215 0.00000 0.00000 0.00000
  216 0.00000 0.00000 0.00000
  217 0.00000 0.00000 0.00000
  218 0.00000 0.00000 0.00000
  219 0.00000 0.00000 0.00000
  220 0.00000 0.00000 0.00000
  221 0.00000 0.00000 0.00000
  222 0.00000 0.00000 0.00000
  223 0.00000 0.00000 0.00000
  224 0.00000 0.00000 0.00000
  225 0.00000 0.00000 0.00000
  226 0.00000 0.00000 0.00000
  227 0.00000 0.00000 0.00000
  228 0.00000 0.00000 0.00000
  229 0.00000 0.00000 0.00000
  230 0.00000 0.00000 0.00000
  231 0.00000 0.00000 0.00000
  232 0.00000 0.00000 0.00000
  233 0.00000 0.00000 0.00000
  234 0.00000 0.00000 0.00000
  235 0.00000 0.00000 0.00000
  236 0.00000 0.00000 0.00000
  237 0.00000 0.00000 0.00000
  238 0.00000 0.00000 0.00000
  239 0.00000 0.00000 0.00000
  240 0.00000 0.00000 0.00000
  241 0.00000 0.00000 0.00000
</Section>

newXOutput 150

<Section columns = "stress_xx | stress_yy | stress_xy">
  1 0.00000 0.00000 0.00000
  2 0.00000 0.00000 0.00000
  3 0.00000 0.00000 0.00000
  4 0.00000 0.00000 0.00000
  5 0.00000 0.00000 0.00000
  6 0.00000 0.00000 0.00000
  7 0.00000 0.00000 0.00000
  8 0.00000 0.00000 0.00000
  9 0.00000 0.00000 0.00000
  10 0.00000 0.00000 0.00000
  11 0.00000 0.00000 0.00000
  12 0.00000 0.00000 0.00000
  13 0.00000 0.00000 0.00000
  14 0.00000 0.00000 0.00000
  15 0.00000 0.00000 0.00000
  16 0.00000 0.00000 0.00000
  17 0.00000 0.00000 0.00000
  18 0.00000 0.00000 0.00000
  19 0.00000 0.00000 0.00000
  20 0.00000 0.00000 0.00000
  21 0.00000 0.00000 0.00000
  22 0.00000 0.00000 0.00000
  23 0.00000 0.00000 0.00000
  24 0.00000 0.00000 0.00000
  25 0.00000 0.00000 0.00000
  26 0.00000 0.00000 0.00000
  27 0.00000 0.00000 0.00000
  28 0.00000 0.00000 0.00000
  29 0.00000 0.00000 0.00000
  30 0.00000 0.00000 0.00000
  31 0.00000 0.00000 0.00000
  32 0.00000 0.00000 0.00000
  33 0.00000 0.00000 0.00000
  34 0.00000 0.00000 0.00000
  35 0.00000 0.00000 0.00000
  36 0.00000 0.00000 0.00000
  37 0.00000 0.00000 0.00000
  38 0.00000 0.00000 0.00000
  39 0.00000 0.00000 0.00000
  40 0.00000 0.00000 0.00000
  41 0.00000 0.00000 0.00000
  42 0.00000 0.00000 0.00000
  43 0.00000 0.00000 0.00000
  44 0.00000 0.00000 0.00000
  45 0.00000 0.00000 0.00000
  46 0.00000 0.00000 0.00000
  47 0.00000 0.00000 0.00000
  48 0.00000 0.00000 0.00000
  49 0.00000 0.00000 0.00000
  50 0.00000 0.00000 0.00000
  51 0.00000 0.00000 0.00000
  52 0.00000 0.00000 0.00000
  53 0.00000 0.00000 0.00000
  54 0.00000 0.00000 0.00000
  55 0.00000 0.00000 0.00000
  56 0.00000 0.00000 0.00000
  57 0.00000 0.00000 0.00000
  58 0.00000 0.00000 0.00000
  59 0.00000 0.00000 0.00000
  60 0.00000 0.00000 0.00000
  61 0.00000 0.00000 0.00000
  62 0.00000 0.00000 0.00000
  63 0.00000 0.00000 0.00000
  64 0.00000 0.00000 0.00000
  65 0.00000 0.00000 0.00000
  66 0.00000 0.00000 0.00000
  67 0.00000 0.00000 0.00000
  68 0.00000 0.00000 0.00000
  69 0.00000 0.00000 0.00000
  70 0.00000 0.00000 0.00000
  71 0.00000 0.00000 0.00000
  72 0.00000 0.00000 0.00000
  73 0.00000 0.00000 0.00000
  74 0.00000 0.00000 0.00000
  75 0.00000 0.00000 0.00000
  76 0.00000 0.00000 0.00000
  77 0.00000 0.00000 0.00000
  78 0.00000 0.00000 0.00000
  79 0.00000 0.00000 0.00000
  80 0.00000 0.00000 0.00000
  81 0.00000 0.00000 0.00000
  82 0.00000 0.00000 0.00000
  83 0.00000 0.00000 0.00000
  84 0.00000 0.00000 0.00000
  85 0.00000 0.00000 0.00000
  86 0.00000 0.00000 0.00000
  87 0.00000 0.00000 0.00000
  88 0.00000 0.00000 0.00000
  89 0.00000 0.00000 0.00000
  90 0.00000 0.00000 0.00000
  91 0.00000 0.00000 0.00000
  92 0.00000 0.00000 0.00000
  93 0.00000 0.00000 0.00000
  94 0.00000 0.00000 0.00000
  95 0.00000 0.00000 0.00000
  96 0.00000 0.00000 0.00000
  97 0.00000 0.00000 0.00000
  98 0.00000 0.00000 0.00000
  99 0.00000 0.00000 0.00000
  100 0.00000 0.00000 0.00000
  101 0.00000 0.00000 0.00000
  102 0.00000 0.00000 0.00000
  103 0.00000 0.00000 0.00000
  104 0.00000 0.00000 0.00000
  105 0.00000 0.00000 0.00000
  106 0.00000 0.00000 0.00000
  107 0.00000 0.00000 0.00000
  108 0.00000 0.00000 0.00000
  109 0.00000 0.00000 0.00000
  110 0.00000 0.00000 0.00000
  111 0.00000 0.00000 0.00000
  112 0.00000 0.00000 0.00000
  113 0.00000 0.00000 0.00000
  114 0.00000 0.00000 0.00000
  115 0.00000 0.00000 0.00000
  116 0.00000 0.00000 0.00000
  117 0.00000 0.00000 0.00000
  118 0.00000 0.00000 0.00000
  119 0.00000 0.00000 0.00000
  120 0.00000 0.00000 0.00000
  121 0.00000 0.00000 0.00000
  122 0.00000 0.00000 0.00000
  123 0.00000 0.00000 0.00000
  124 0.00000 0.00000 0.00000
  125 0.00000 0.00000 0.00000
  126 0.00000 0.00000 0.00000
  127 0.00000 0.00000 0.00000
  128 0.00000 0.00000 0.00000
  129 0.00000 0.00000 0.00000
  130 0.00000 0.00000 0.00000
  131 0.00000 0.00000 0.00000
  132 0.00000 0.00000 0.00000
  133 0.00000 0.00000 0.00000
  134 0.00000 0.00000 0.00000
  135 0.00000 0.00000 0.00000
  136 0.00000 0.00000 0.00000
  137 0.00000 0.00000 0.00000
  138 0.00000 0.00000 0.00000
  139 0.00000 0.00000 0.00000
  140 0.00000 0.00000 0.00000
  141 0.00000 0.00000 0.00000
  142 0.00000 0.00000 0.00000
  143 0.00000 0.00000 0.00000
  144 0.00000 0.00000 0.00000
  145 0.00000 0.00000 0.00000
  146 0.00000 0.00000 0.00000
  147 0.00000 0.00000 0.00000
  148 0.00000 0.00000 0.00000
  149 0.00000 0.00000 0.00000
  150 0.00000 0.00000 0.00000
  151 0.00000 0.00000 0.00000
  152 0.00000 0.00000 0.00000
  153 0.00000 0.00000 0.00000
  154 0.00000 0.00000 0.00000
  155 0.00000 0.00000 0.00000
  156 0.00000 0.00000 0.00000
  157 0.00000 0.00000 0.00000
  158 0.00000 0.00000 0.00000
  159 0.00000 0.00000 0.00000
  160 0.00000 0.00000 0.00000
  161 0.00000 0.00000 0.00000
  162 0.00000 0.00000 0.00000
  163 0.00000 0.00000 0.00000
  164 0.00000 0.00000 0.00000
  165 0.00000 0.00000 0.00000
  166 0.00000 0.00000 0.00000
  167 0.00000 0.00000 0.00000
  168 0.00000 0.00000 0.00000
  169 0.00000 0.00000 0.00000
  170 0.00000 0.00000 0.00000
  171 0.00000 0.00000 0.00000
  172 0.00000 0.00000 0.00000
  173 0.00000 0.00000 0.00000
  174 0.00000 0.00000 0.00000
  175 0.00000 0.00000 0.00000
  176 0.00000 0.00000 0.00000
  177 0.00000 0.00000 0.00000
  178 0.00000 0.00000 0.00000
  179 0.00000 0.00000 0.00000
  180 0.00000 0.00000 0.00000
  181 0.00000 0.00000 0.00000
  182 0.00000 0.00000 0.00000
  183 0.00000 0.00000 0.00000
  184 0.00000 0.00000 0.00000
  185 0.00000 0.00000 0.00000
  186 0.00000 0.00000 0.00000
  187 0.00000 0.00000 0.00000
  188 0.00000 0.00000 0.00000
  189 0.00000 0.00000 0.00000
  190 0.00000 0.00000 0.00000
  191 0.00000 0.00000 0.00000
  192 0.00000 0.00000 0.00000
  193 0.00000 0.00000 0.00000
  194 0.00000 0.00000 0.00000
  195 0.00000 0.00000 0.00000
  196 0.00000 0.00000 0.00000
  197 0.00000 0.00000 0.00000
  198 0.00000 0.00000 0.00000
  199 0.00000 0.00000 0.00000
  200 0.00000 0.00000 0.00000
  201 0.00000 0.00000 0.00000
  202 0.00000 0.00000 0.00000
  203 0.00000 0.00000 0.00000
  204 0.00000 0.00000 0.00000
  205 0.00000 0.00000 0.00000
  206 0.00000 0.00000 0.00000
  207 0.00000 0.00000 0.00000
  208 0.00000 0.00000 0.00000
  209 0.00000 0.00000 0.00000
  210 0.00000 0.00000 0.00000
  211 0.00000 0.00000 0.00000
  212 0.00000 0.00000 0.00000
  213 0.00000 0.00000 0.00000
  214 0.00000 0.00000 0.00000
  215 0.00000 0.00000 0.00000
  216 0.00000 0.00000 0.00000
  217 0.00000 0.00000 0.00000
  218 0.00000 0.00000 0.00000
  219 0.00000 0.00000 0.00000
  220 0.00000 0.00000 0.00000
  221 0.00000 0.00000 0.00000
  222 0.00000 0.00000 0.00000
  223 0.00000 0.00000 0.00000
  224 0.00000 0.00000 0.00000
  225 0.00000 0.00000 0.00000
  226 0.00000 0.00000 0.00000
  227 0.00000 0.00000 0.00000
  228 0.00000 0.00000 0.00000
  229 0.00000 0.00000 0.00000
  230 0.00000 0.00000 0.00000
  231 0.00000 0.00000 0.00000
  232 0.00000 0.00000 0.00000
  233 0.00000 0.00000 0.00000
  234 0.00000 0.00000 0.00000
  235 0.00000 0.00000 0.00000
  236 0.00000 0.00000 0.00000
  237 0.00000 0.00000 0.00000
  238 0.00000 0.00000 0.00000
  239 0.00000 0.00000 0.00000
  240 0.00000 0.00000 0.00000
  241 0.00000 0.00000 0.00000
</Section>

newXOutput 151

<Section columns = "stress_xx | stress_yy | stress_xy">
  1 0.00000 0.00000 0.00000
  2 0.00000 0.00000 0.00000
  3 0.00000 0.00000 0.00000
  4 0.00000 0.00000 0.00000
  5 0.00000 0.00000 0.00000
  6 0.00000 0.00000 0.00000
  7 0.00000 0.00000 0.00000
  8 0.00000 0.00000 0.00000
  9 0.00000 0.00000 0.00000
  10 0.00000 0.00000 0.00000
  11 0.00000 0.00000 0.00000
  12 0.00000 0.00000 0.00000
  13 0.00000 0.00000 0.00000
  14 0.00000 0.00000 0.00000
  15 0.00000 0.00000 0.00000
  16 0.00000 0.00000 0.00000
  17 0.00000 0.00000 0.00000
  18 0.00000 0.00000 0.00000
  19 0.00000 0.00000 0.00000
  20 0.00000 0.00000 0.00000
  21 0.00000 0.00000 0.00000
  22 0.00000 0.00000 0.00000
  23 0.00000 0.00000 0.00000
  24 0.00000 0.00000 0.00000
  25 0.00000 0.00000 0.00000
  26 0.00000 0.00000 0.00000
  27 0.00000 0.00000 0.00000
  28 0.00000 0.00000 0.00000
  29 0.00000 0.00000 0.00000
  30 0.00000 0.00000 0.00000
  31 0.00000 0.00000 0.00000
  32 0.00000 0.00000 0.00000
  33 0.00000 0.00000 0.00000
  34 0.00000 0.00000 0.00000
  35 0.00000 0.00000 0.00000
  36 0.00000 0.00000 0.00000
  37 0.00000 0.00000 0.00000
  38 0.00000 0.00000 0.00000
  39 0.00000 0.00000 0.00000
  40 0.00000 0.00000 0.00000
  41 0.00000 0.00000 0.00000
  42 0.00000 0.00000 0.00000
  43 0.00000 0.00000 0.00000
  44 0.00000 0.00000 0.00000
  45 0.00000 0.00000 0.00000
  46 0.00000 0.00000 0.00000
  47 0.00000 0.00000 0.00000
  48 0.00000 0.00000 0.00000
  49 0.00000 0.00000 0.00000
  50 0.00000 0.00000 0.00000
  51 0.00000 0.00000 0.00000
  52 0.00000 0.00000 0.00000
  53 0.00000 0.00000 0.00000
  54 0.00000 0.00000 0.00000
  55 0.00000 0.00000 0.00000
  56 0.00000 0.00000 0.00000
  57 0.00000 0.00000 0.00000
  58 0.00000 0.00000 0.00000
  59 0.00000 0.00000 0.00000
  60 0.00000 0.00000 0.00000
  61 0.00000 0.00000 0.00000
  62 0.00000 0.00000 0.00000
  63 0.00000 0.00000 0.00000
  64 0.00000 0.00000 0.00000
  65 0.00000 0.00000 0.00000
  66 0.00000 0.00000 0.00000
  67 0.00000 0.00000 0.00000
  68 0.00000 0.00000 0.00000
  69 0.00000 0.00000 0.00000
  70 0.00000 0.00000 0.00000
  71 0.00000 0.00000 0.00000
  72 0.00000 0.00000 0.00000
  73 0.00000 0.00000 0.00000
  74 0.00000 0.00000 0.00000
  75 0.00000 0.00000 0.00000
  76 0.00000 0.00000 0.00000
  77 0.00000 0.00000 0.00000
  78 0.00000 0.00000 0.00000
  79 0.00000 0.00000 0.00000
  80 0.00000 0.00000 0.00000
  81 0.00000 0.00000 0.00000
  82 0.00000 0.00000 0.00000
  83 0.00000 0.00000 0.00000
  84 0.00000 0.00000 0.00000
  85 0.00000 0.00000 0.00000
  86 0.00000 0.00000 0.00000
  87 0.00000 0.00000 0.00000
  88 0.00000 0.00000 0.00000
  89 0.00000 0.00000 0.00000
  90 0.00000 0.00000 0.00000
  91 0.00000 0.00000 0.00000
  92 0.00000 0.00000 0.00000
  93 0.00000 0.00000 0.00000
  94 0.00000 0.00000 0.00000
  95 0.00000 0.00000 0.00000
  96 0.00000 0.00000 0.00000
  97 0.00000 0.00000 0.00000
  98 0.00000 0.00000 0.00000
  99 0.00000 0.00000 0.00000
  100 0.00000 0.00000 0.00000
  101 0.00000 0.00000 0.00000
  102 0.00000 0.00000 0.00000
  103 0.00000 0.00000 0.00000
  104 0.00000 0.00000 0.00000
  105 0.00000 0.00000 0.00000
  106 0.00000 0.00000 0.00000
  107 0.00000 0.00000 0.00000
  108 0.00000 0.00000 0.00000
  109 0.00000 0.00000 0.00000
  110 0.00000 0.00000 0.00000
  111 0.00000 0.00000 0.00000
  112 0.00000 0.00000 0.00000
  113 0.00000 0.00000 0.00000
  114 0.00000 0.00000 0.00000
  115 0.00000 0.00000 0.00000
  116 0.00000 0.00000 0.00000
  117 0.00000 0.00000 0.00000
  118 0.00000 0.00000 0.00000
  119 0.00000 0.00000 0.00000
  120 0.00000 0.00000 0.00000
  121 0.00000 0.00000 0.00000
  122 0.00000 0.00000 0.00000
  123 0.00000 0.00000 0.00000
  124 0.00000 0.00000 0.00000
  125 0.00000 0.00000 0.00000
  126 0.00000 0.00000 0.00000
  127 0.00000 0.00000 0.00000
  128 0.00000 0.00000 0.00000
  129 0.00000 0.00000 0.00000
  130 0.00000 0.00000 0.00000
  131 0.00000 0.00000 0.00000
  132 0.00000 0.00000 0.00000
  133 0.00000 0.00000 0.00000
  134 0.00000 0.00000 0.00000
  135 0.00000 0.00000 0.00000
  136 0.00000 0.00000 0.00000
  137 0.00000 0.00000 0.00000
  138 0.00000 0.00000 0.00000
  139 0.00000 0.00000 0.00000
  140 0.00000 0.00000 0.00000
  141 0.00000 0.00000 0.00000
  142 0.00000 0.00000 0.00000
  143 0.00000 0.00000 0.00000
  144 0.00000 0.00000 0.00000
  145 0.00000 0.00000 0.00000
  146 0.00000 0.00000 0.00000
  147 0.00000 0.00000 0.00000
  148 0.00000 0.00000 0.00000
  149 0.00000 0.00000 0.00000
  150 0.00000 0.00000 0.00000
  151 0.00000 0.00000 0.00000
  152 0.00000 0.00000 0.00000
  153 0.00000 0.00000 0.00000
  154 0.00000 0.00000 0.00000
  155 0.00000 0.00000 0.00000
  156 0.00000 0.00000 0.00000
  157 0.00000 0.00000 0.00000
  158 0.00000 0.00000 0.00000
  159 0.00000 0.00000 0.00000
  160 0.00000 0.00000 0.00000
  161 0.00000 0.00000 0.00000
  162 0.00000 0.00000 0.00000
  163 0.00000 0.00000 0.00000
  164 0.00000 0.00000 0.00000
  165 0.00000 0.00000 0.00000
  166 0.00000 0.00000 0.00000
  167 0.00000 0.00000 0.00000
  168 0.00000 0.00000 0.00000
  169 0.00000 0.00000 0.00000
  170 0.00000 0.00000 0.00000
  171 0.00000 0.00000 0.00000
  172 0.00000 0.00000 0.00000
  173 0.00000 0.00000 0.00000
  174 0.00000 0.00000 0.00000
  175 0.00000 0.00000 0.00000
  176 0.00000 0.00000 0.00000
  177 0.00000 0.00000 0.00000
  178 0.00000 0.00000 0.00000
  179 0.00000 0.00000 0.00000
  180 0.00000 0.00000 0.00000
  181 0.00000 0.00000 0.00000
  182 0.00000 0.00000 0.00000
  183 0.00000 0.00000 0.00000
  184 0.00000 0.00000 0.00000
  185 0.00000 0.00000 0.00000
  186 0.00000 0.00000 0.00000
  187 0.00000 0.00000 0.00000
  188 0.00000 0.00000 0.00000
  189 0.00000 0.00000 0.00000
  190 0.00000 0.00000 0.00000
  191 0.00000 0.00000 0.00000
  192 0.00000 0.00000 0.00000
  193 0.00000 0.00000 0.00000
  194 0.00000 0.00000 0.00000
  195 0.00000 0.00000 0.00000
  196 0.00000 0.00000 0.00000
  197 0.00000 0.00000 0.00000
  198 0.00000 0.00000 0.00000
  199 0.00000 0.00000 0.00000
  200 0.00000 0.00000 0.00000
  201 0.00000 0.00000 0.00000
  202 0.00000 0.00000 0.00000
  203 0.00000 0.00000 0.00000
  204 0.00000 0.00000 0.00000
  205 0.00000 0.00000 0.00000
  206 0.00000 0.00000 0.00000
  207 0.00000 0.00000 0.00000
  208 0.00000 0.00000 0.00000
  209 0.00000 0.00000 0.00000
  210 0.00000 0.00000 0.00000
  211 0.00000 0.00000 0.00000
  212 0.00000 0.00000 0.00000
  213 0.00000 0.00000 0.00000
  214 0.00000 0.00000 0.00000
  215 0.00000 0.00000 0.00000
  216 0.00000 0.00000 0.00000
  217 0.00000 0.00000 0.00000
  218 0.00000 0.00000 0.00000
  219 0.00000 0.00000 0.00000
  220 0.00000 0.00000 0.00000
  221 0.00000 0.00000 0.00000
  222 0.00000 0.00000 0.00000
  223 0.00000 0.00000 0.00000
  224 0.00000 0.00000 0.00000
  225 0.00000 0.00000 0.00000
  226 0.00000 0.00000 0.00000
  227 0.00000 0.00000 0.00000
  228 0.00000 0.00000 0.00000
  229 0.00000 0.00000 0.00000
  230 0.00000 0.00000 0.00000
  231 0.00000 0.00000 0.00000
  232 0.00000 0.00000 0.00000
  233 0.00000 0.00000 0.00000
  234 0.00000 0.00000 0.00000
  235 0.00000 0.00000 0.00000
  236 0.00000 0.00000 0.00000
  237 0.00000 0.00000 0.00000
  238 0.00000 0.00000 0.00000
  239 0.00000 0.00000 0.00000
  240 0.00000 0.00000 0.00000
  241 0.00000 0.00000 0.00000
</Section>

newXOutput 152

<Section columns = "stress_xx | stress_yy | stress_xy">
  1 0.00000 0.00000 0.00000
  2 0.00000 0.00000 0.00000
  3 0.00000 0.00000 0.00000
  4 0.00000 0.00000 0.00000
  5 0.00000 0.00000 0.00000
  6 0.00000 0.00000 0.00000
  7 0.00000 0.00000 0.00000
  8 0.00000 0.00000 0.00000
  9 0.00000 0.00000 0.00000
  10 0.00000 0.00000 0.00000
  11 0.00000 0.00000 0.00000
  12 0.00000 0.00000 0.00000
  13 0.00000 0.00000 0.00000
  14 0.00000 0.00000 0.00000
  15 0.00000 0.00000 0.00000
  16 0.00000 0.00000 0.00000
  17 0.00000 0.00000 0.00000
  18 0.00000 0.00000 0.00000
  19 0.00000 0.00000 0.00000
  20 0.00000 0.00000 0.00000
  21 0.00000 0.00000 0.00000
  22 0.00000 0.00000 0.00000
  23 0.00000 0.00000 0.00000
  24 0.00000 0.00000 0.00000
  25 0.00000 0.00000 0.00000
  26 0.00000 0.00000 0.00000
  27 0.00000 0.00000 0.00000
  28 0.00000 0.00000 0.00000
  29 0.00000 0.00000 0.00000
  30 0.00000 0.00000 0.00000
  31 0.00000 0.00000 0.00000
  32 0.00000 0.00000 0.00000
  33 0.00000 0.00000 0.00000
  34 0.00000 0.00000 0.00000
  35 0.00000 0.00000 0.00000
  36 0.00000 0.00000 0.00000
  37 0.00000 0.00000 0.00000
  38 0.00000 0.00000 0.00000
  39 0.00000 0.00000 0.00000
  40 0.00000 0.00000 0.00000
  41 0.00000 0.00000 0.00000
  42 0.00000 0.00000 0.00000
  43 0.00000 0.00000 0.00000
  44 0.00000 0.00000 0.00000
  45 0.00000 0.00000 0.00000
  46 0.00000 0.00000 0.00000
  47 0.00000 0.00000 0.00000
  48 0.00000 0.00000 0.00000
  49 0.00000 0.00000 0.00000
  50 0.00000 0.00000 0.00000
  51 0.00000 0.00000 0.00000
  52 0.00000 0.00000 0.00000
  53 0.00000 0.00000 0.00000
  54 0.00000 0.00000 0.00000
  55 0.00000 0.00000 0.00000
  56 0.00000 0.00000 0.00000
  57 0.00000 0.00000 0.00000
  58 0.00000 0.00000 0.00000
  59 0.00000 0.00000 0.00000
  60 0.00000 0.00000 0.00000
  61 0.00000 0.00000 0.00000
  62 0.00000 0.00000 0.00000
  63 0.00000 0.00000 0.00000
  64 0.00000 0.00000 0.00000
  65 0.00000 0.00000 0.00000
  66 0.00000 0.00000 0.00000
  67 0.00000 0.00000 0.00000
  68 0.00000 0.00000 0.00000
  69 0.00000 0.00000 0.00000
  70 0.00000 0.00000 0.00000
  71 0.00000 0.00000 0.00000
  72 0.00000 0.00000 0.00000
  73 0.00000 0.00000 0.00000
  74 0.00000 0.00000 0.00000
  75 0.00000 0.00000 0.00000
  76 0.00000 0.00000 0.00000
  77 0.00000 0.00000 0.00000
  78 0.00000 0.00000 0.00000
  79 0.00000 0.00000 0.00000
  80 0.00000 0.00000 0.00000
  81 0.00000 0.00000 0.00000
  82 0.00000 0.00000 0.00000
  83 0.00000 0.00000 0.00000
  84 0.00000 0.00000 0.00000
  85 0.00000 0.00000 0.00000
  86 0.00000 0.00000 0.00000
  87 0.00000 0.00000 0.00000
  88 0.00000 0.00000 0.00000
  89 0.00000 0.00000 0.00000
  90 0.00000 0.00000 0.00000
  91 0.00000 0.00000 0.00000
  92 0.00000 0.00000 0.00000
  93 0.00000 0.00000 0.00000
  94 0.00000 0.00000 0.00000
  95 0.00000 0.00000 0.00000
  96 0.00000 0.00000 0.00000
  97 0.00000 0.00000 0.00000
  98 0.00000 0.00000 0.00000
  99 0.00000 0.00000 0.00000
  100 0.00000 0.00000 0.00000
  101 0.00000 0.00000 0.00000
  102 0.00000 0.00000 0.00000
  103 0.00000 0.00000 0.00000
  104 0.00000 0.00000 0.00000
  105 0.00000 0.00000 0.00000
  106 0.00000 0.00000 0.00000
  107 0.00000 0.00000 0.00000
  108 0.00000 0.00000 0.00000
  109 0.00000 0.00000 0.00000
  110 0.00000 0.00000 0.00000
  111 0.00000 0.00000 0.00000
  112 0.00000 0.00000 0.00000
  113 0.00000 0.00000 0.00000
  114 0.00000 0.00000 0.00000
  115 0.00000 0.00000 0.00000
  116 0.00000 0.00000 0.00000
  117 0.00000 0.00000 0.00000
  118 0.00000 0.00000 0.00000
  119 0.00000 0.00000 0.00000
  120 0.00000 0.00000 0.00000
  121 0.00000 0.00000 0.00000
  122 0.00000 0.00000 0.00000
  123 0.00000 0.00000 0.00000
  124 0.00000 0.00000 0.00000
  125 0.00000 0.00000 0.00000
  126 0.00000 0.00000 0.00000
  127 0.00000 0.00000 0.00000
  128 0.00000 0.00000 0.00000
  129 0.00000 0.00000 0.00000
  130 0.00000 0.00000 0.00000
  131 0.00000 0.00000 0.00000
  132 0.00000 0.00000 0.00000
  133 0.00000 0.00000 0.00000
  134 0.00000 0.00000 0.00000
  135 0.00000 0.00000 0.00000
  136 0.00000 0.00000 0.00000
  137 0.00000 0.00000 0.00000
  138 0.00000 0.00000 0.00000
  139 0.00000 0.00000 0.00000
  140 0.00000 0.00000 0.00000
  141 0.00000 0.00000 0.00000
  142 0.00000 0.00000 0.00000
  143 0.00000 0.00000 0.00000
  144 0.00000 0.00000 0.00000
  145 0.00000 0.00000 0.00000
  146 0.00000 0.00000 0.00000
  147 0.00000 0.00000 0.00000
  148 0.00000 0.00000 0.00000
  149 0.00000 0.00000 0.00000
  150 0.00000 0.00000 0.00000
  151 0.00000 0.00000 0.00000
  152 0.00000 0.00000 0.00000
  153 0.00000 0.00000 0.00000
  154 0.00000 0.00000 0.00000
  155 0.00000 0.00000 0.00000
  156 0.00000 0.00000 0.00000
  157 0.00000 0.00000 0.00000
  158 0.00000 0.00000 0.00000
  159 0.00000 0.00000 0.00000
  160 0.00000 0.00000 0.00000
  161 0.00000 0.00000 0.00000
  162 0.00000 0.00000 0.00000
  163 0.00000 0.00000 0.00000
  164 0.00000 0.00000 0.00000
  165 0.00000 0.00000 0.00000
  166 0.00000 0.00000 0.00000
  167 0.00000 0.00000 0.00000
  168 0.00000 0.00000 0.00000
  169 0.00000 0.00000 0.00000
  170 0.00000 0.00000 0.00000
  171 0.00000 0.00000 0.00000
  172 0.00000 0.00000 0.00000
  173 0.00000 0.00000 0.00000
  174 0.00000 0.00000 0.00000
  175 0.00000 0.00000 0.00000
  176 0.00000 0.00000 0.00000
  177 0.00000 0.00000 0.00000
  178 0.00000 0.00000 0.00000
  179 0.00000 0.00000 0.00000
  180 0.00000 0.00000 0.00000
  181 0.00000 0.00000 0.00000
  182 0.00000 0.00000 0.00000
  183 0.00000 0.00000 0.00000
  184 0.00000 0.00000 0.00000
  185 0.00000 0.00000 0.00000
  186 0.00000 0.00000 0.00000
  187 0.00000 0.00000 0.00000
  188 0.00000 0.00000 0.00000
  189 0.00000 0.00000 0.00000
  190 0.00000 0.00000 0.00000
  191 0.00000 0.00000 0.00000
  192 0.00000 0.00000 0.00000
  193 0.00000 0.00000 0.00000
  194 0.00000 0.00000 0.00000
  195 0.00000 0.00000 0.00000
  196 0.00000 0.00000 0.00000
  197 0.00000 0.00000 0.00000
  198 0.00000 0.00000 0.00000
  199 0.00000 0.00000 0.00000
  200 0.00000 0.00000 0.00000
  201 0.00000 0.00000 0.00000
  202 0.00000 0.00000 0.00000
  203 0.00000 0.00000 0.00000
  204 0.00000 0.00000 0.00000
  205 0.00000 0.00000 0.00000
  206 0.00000 0.00000 0.00000
  207 0.00000 0.00000 0.00000
  208 0.00000 0.00000 0.00000
  209 0.00000 0.00000 0.00000
  210 0.00000 0.00000 0.00000
  211 0.00000 0.00000 0.00000
  212 0.00000 0.00000 0.00000
  213 0.00000 0.00000 0.00000
  214 0.00000 0.00000 0.00000
  215 0.00000 0.00000 0.00000
  216 0.00000 0.00000 0.00000
  217 0.00000 0.00000 0.00000
  218 0.00000 0.00000 0.00000
  219 0.00000 0.00000 0.00000
  220 0.00000 0.00000 0.00000
  221 0.00000 0.00000 0.00000
  222 0.00000 0.00000 0.00000
  223 0.00000 0.00000 0.00000
  224 0.00000 0.00000 0.00000
  225 0.00000 0.00000 0.00000
  226 0.00000 0.00000 0.00000
  227 0.00000 0.00000 0.00000
  228 0.00000 0.00000 0.00000
  229 0.00000 0.00000 0.00000
  230 0.00000 0.00000 0.00000
  231 0.00000 0.00000 0.00000
  232 0.00000 0.00000 0.00000
  233 0.00000 0.00000 0.00000
  234 0.00000 0.00000 0.00000
  235 0.00000 0.00000 0.00000
  236 0.00000 0.00000 0.00000
  237 0.00000 0.00000 0.00000
  238 0.00000 0.00000 0.00000
  239 0.00000 0.00000 0.00000
  240 0.00000 0.00000 0.00000
  241 0.00000 0.00000 0.00000
</Section>

newXOutput 153

<Section columns = "stress_xx | stress_yy | stress_xy">
  1 0.00000 0.00000 0.00000
  2 0.00000 0.00000 0.00000
  3 0.00000 0.00000 0.00000
  4 0.00000 0.00000 0.00000
  5 0.00000 0.00000 0.00000
  6 0.00000 0.00000 0.00000
  7 0.00000 0.00000 0.00000
  8 0.00000 0.00000 0.00000
  9 0.00000 0.00000 0.00000
  10 0.00000 0.00000 0.00000
  11 0.00000 0.00000 0.00000
  12 0.00000 0.00000 0.00000
  13 0.00000 0.00000 0.00000
  14 0.00000 0.00000 0.00000
  15 0.00000 0.00000 0.00000
  16 0.00000 0.00000 0.00000
  17 0.00000 0.00000 0.00000
  18 0.00000 0.00000 0.00000
  19 0.00000 0.00000 0.00000
  20 0.00000 0.00000 0.00000
  21 0.00000 0.00000 0.00000
  22 0.00000 0.00000 0.00000
  23 0.00000 0.00000 0.00000
  24 0.00000 0.00000 0.00000
  25 0.00000 0.00000 0.00000
  26 0.00000 0.00000 0.00000
  27 0.00000 0.00000 0.00000
  28 0.00000 0.00000 0.00000
  29 0.00000 0.00000 0.00000
  30 0.00000 0.00000 0.00000
  31 0.00000 0.00000 0.00000
  32 0.00000 0.00000 0.00000
  33 0.00000 0.00000 0.00000
  34 0.00000 0.00000 0.00000
  35 0.00000 0.00000 0.00000
  36 0.00000 0.00000 0.00000
  37 0.00000 0.00000 0.00000
  38 0.00000 0.00000 0.00000
  39 0.00000 0.00000 0.00000
  40 0.00000 0.00000 0.00000
  41 0.00000 0.00000 0.00000
  42 0.00000 0.00000 0.00000
  43 0.00000 0.00000 0.00000
  44 0.00000 0.00000 0.00000
  45 0.00000 0.00000 0.00000
  46 0.00000 0.00000 0.00000
  47 0.00000 0.00000 0.00000
  48 0.00000 0.00000 0.00000
  49 0.00000 0.00000 0.00000
  50 0.00000 0.00000 0.00000
  51 0.00000 0.00000 0.00000
  52 0.00000 0.00000 0.00000
  53 0.00000 0.00000 0.00000
  54 0.00000 0.00000 0.00000
  55 0.00000 0.00000 0.00000
  56 0.00000 0.00000 0.00000
  57 0.00000 0.00000 0.00000
  58 0.00000 0.00000 0.00000
  59 0.00000 0.00000 0.00000
  60 0.00000 0.00000 0.00000
  61 0.00000 0.00000 0.00000
  62 0.00000 0.00000 0.00000
  63 0.00000 0.00000 0.00000
  64 0.00000 0.00000 0.00000
  65 0.00000 0.00000 0.00000
  66 0.00000 0.00000 0.00000
  67 0.00000 0.00000 0.00000
  68 0.00000 0.00000 0.00000
  69 0.00000 0.00000 0.00000
  70 0.00000 0.00000 0.00000
  71 0.00000 0.00000 0.00000
  72 0.00000 0.00000 0.00000
  73 0.00000 0.00000 0.00000
  74 0.00000 0.00000 0.00000
  75 0.00000 0.00000 0.00000
  76 0.00000 0.00000 0.00000
  77 0.00000 0.00000 0.00000
  78 0.00000 0.00000 0.00000
  79 0.00000 0.00000 0.00000
  80 0.00000 0.00000 0.00000
  81 0.00000 0.00000 0.00000
  82 0.00000 0.00000 0.00000
  83 0.00000 0.00000 0.00000
  84 0.00000 0.00000 0.00000
  85 0.00000 0.00000 0.00000
  86 0.00000 0.00000 0.00000
  87 0.00000 0.00000 0.00000
  88 0.00000 0.00000 0.00000
  89 0.00000 0.00000 0.00000
  90 0.00000 0.00000 0.00000
  91 0.00000 0.00000 0.00000
  92 0.00000 0.00000 0.00000
  93 0.00000 0.00000 0.00000
  94 0.00000 0.00000 0.00000
  95 0.00000 0.00000 0.00000
  96 0.00000 0.00000 0.00000
  97 0.00000 0.00000 0.00000
  98 0.00000 0.00000 0.00000
  99 0.00000 0.00000 0.00000
  100 0.00000 0.00000 0.00000
  101 0.00000 0.00000 0.00000
  102 0.00000 0.00000 0.00000
  103 0.00000 0.00000 0.00000
  104 0.00000 0.00000 0.00000
  105 0.00000 0.00000 0.00000
  106 0.00000 0.00000 0.00000
  107 0.00000 0.00000 0.00000
  108 0.00000 0.00000 0.00000
  109 0.00000 0.00000 0.00000
  110 0.00000 0.00000 0.00000
  111 0.00000 0.00000 0.00000
  112 0.00000 0.00000 0.00000
  113 0.00000 0.00000 0.00000
  114 0.00000 0.00000 0.00000
  115 0.00000 0.00000 0.00000
  116 0.00000 0.00000 0.00000
  117 0.00000 0.00000 0.00000
  118 0.00000 0.00000 0.00000
  119 0.00000 0.00000 0.00000
  120 0.00000 0.00000 0.00000
  121 0.00000 0.00000 0.00000
  122 0.00000 0.00000 0.00000
  123 0.00000 0.00000 0.00000
  124 0.00000 0.00000 0.00000
  125 0.00000 0.00000 0.00000
  126 0.00000 0.00000 0.00000
  127 0.00000 0.00000 0.00000
  128 0.00000 0.00000 0.00000
  129 0.00000 0.00000 0.00000
  130 0.00000 0.00000 0.00000
  131 0.00000 0.00000 0.00000
  132 0.00000 0.00000 0.00000
  133 0.00000 0.00000 0.00000
  134 0.00000 0.00000 0.00000
  135 0.00000 0.00000 0.00000
  136 0.00000 0.00000 0.00000
  137 0.00000 0.00000 0.00000
  138 0.00000 0.00000 0.00000
  139 0.00000 0.00000 0.00000
  140 0.00000 0.00000 0.00000
  141 0.00000 0.00000 0.00000
  142 0.00000 0.00000 0.00000
  143 0.00000 0.00000 0.00000
  144 0.00000 0.00000 0.00000
  145 0.00000 0.00000 0.00000
  146 0.00000 0.00000 0.00000
  147 0.00000 0.00000 0.00000
  148 0.00000 0.00000 0.00000
  149 0.00000 0.00000 0.00000
  150 0.00000 0.00000 0.00000
  151 0.00000 0.00000 0.00000
  152 0.00000 0.00000 0.00000
  153 0.00000 0.00000 0.00000
  154 0.00000 0.00000 0.00000
  155 0.00000 0.00000 0.00000
  156 0.00000 0.00000 0.00000
  157 0.00000 0.00000 0.00000
  158 0.00000 0.00000 0.00000
  159 0.00000 0.00000 0.00000
  160 0.00000 0.00000 0.00000
  161 0.00000 0.00000 0.00000
  162 0.00000 0.00000 0.00000
  163 0.00000 0.00000 0.00000
  164 0.00000 0.00000 0.00000
  165 0.00000 0.00000 0.00000
  166 0.00000 0.00000 0.00000
  167 0.00000 0.00000 0.00000
  168 0.00000 0.00000 0.00000
  169 0.00000 0.00000 0.00000
  170 0.00000 0.00000 0.00000
  171 0.00000 0.00000 0.00000
  172 0.00000 0.00000 0.00000
  173 0.00000 0.00000 0.00000
  174 0.00000 0.00000 0.00000
  175 0.00000 0.00000 0.00000
  176 0.00000 0.00000 0.00000
  177 0.00000 0.00000 0.00000
  178 0.00000 0.00000 0.00000
  179 0.00000 0.00000 0.00000
  180 0.00000 0.00000 0.00000
  181 0.00000 0.00000 0.00000
  182 0.00000 0.00000 0.00000
  183 0.00000 0.00000 0.00000
  184 0.00000 0.00000 0.00000
  185 0.00000 0.00000 0.00000
  186 0.00000 0.00000 0.00000
  187 0.00000 0.00000 0.00000
  188 0.00000 0.00000 0.00000
  189 0.00000 0.00000 0.00000
  190 0.00000 0.00000 0.00000
  191 0.00000 0.00000 0.00000
  192 0.00000 0.00000 0.00000
  193 0.00000 0.00000 0.00000
  194 0.00000 0.00000 0.00000
  195 0.00000 0.00000 0.00000
  196 0.00000 0.00000 0.00000
  197 0.00000 0.00000 0.00000
  198 0.00000 0.00000 0.00000
  199 0.00000 0.00000 0.00000
  200 0.00000 0.00000 0.00000
  201 0.00000 0.00000 0.00000
  202 0.00000 0.00000 0.00000
  203 0.00000 0.00000 0.00000
  204 0.00000 0.00000 0.00000
  205 0.00000 0.00000 0.00000
  206 0.00000 0.00000 0.00000
  207 0.00000 0.00000 0.00000
  208 0.00000 0.00000 0.00000
  209 0.00000 0.00000 0.00000
  210 0.00000 0.00000 0.00000
  211 0.00000 0.00000 0.00000
  212 0.00000 0.00000 0.00000
  213 0.00000 0.00000 0.00000
  214 0.00000 0.00000 0.00000
  215 0.00000 0.00000 0.00000
  216 0.00000 0.00000 0.00000
  217 0.00000 0.00000 0.00000
  218 0.00000 0.00000 0.00000
  219 0.00000 0.00000 0.00000
  220 0.00000 0.00000 0.00000
  221 0.00000 0.00000 0.00000
  222 0.00000 0.00000 0.00000
  223 0.00000 0.00000 0.00000
  224 0.00000 0.00000 0.00000
  225 0.00000 0.00000 0.00000
  226 0.00000 0.00000 0.00000
  227 0.00000 0.00000 0.00000
  228 0.00000 0.00000 0.00000
  229 0.00000 0.00000 0.00000
  230 0.00000 0.00000 0.00000
  231 0.00000 0.00000 0.00000
  232 0.00000 0.00000 0.00000
  233 0.00000 0.00000 0.00000
  234 0.00000 0.00000 0.00000
  235 0.00000 0.00000 0.00000
  236 0.00000 0.00000 0.00000
  237 0.00000 0.00000 0.00000
  238 0.00000 0.00000 0.00000
  239 0.00000 0.00000 0.00000
  240 0.00000 0.00000 0.00000
  241 0.00000 0.00000 0.00000
</Section>

newXOutput 154

<Section columns = "stress_xx | stress_yy | stress_xy">
  1 0.00000 0.00000 0.00000
  2 0.00000 0.00000 0.00000
  3 0.00000 0.00000 0.00000
  4 0.00000 0.00000 0.00000
  5 0.00000 0.00000 0.00000
  6 0.00000 0.00000 0.00000
  7 0.00000 0.00000 0.00000
  8 0.00000 0.00000 0.00000
  9 0.00000 0.00000 0.00000
  10 0.00000 0.00000 0.00000
  11 0.00000 0.00000 0.00000
  12 0.00000 0.00000 0.00000
  13 0.00000 0.00000 0.00000
  14 0.00000 0.00000 0.00000
  15 0.00000 0.00000 0.00000
  16 0.00000 0.00000 0.00000
  17 0.00000 0.00000 0.00000
  18 0.00000 0.00000 0.00000
  19 0.00000 0.00000 0.00000
  20 0.00000 0.00000 0.00000
  21 0.00000 0.00000 0.00000
  22 0.00000 0.00000 0.00000
  23 0.00000 0.00000 0.00000
  24 0.00000 0.00000 0.00000
  25 0.00000 0.00000 0.00000
  26 0.00000 0.00000 0.00000
  27 0.00000 0.00000 0.00000
  28 0.00000 0.00000 0.00000
  29 0.00000 0.00000 0.00000
  30 0.00000 0.00000 0.00000
  31 0.00000 0.00000 0.00000
  32 0.00000 0.00000 0.00000
  33 0.00000 0.00000 0.00000
  34 0.00000 0.00000 0.00000
  35 0.00000 0.00000 0.00000
  36 0.00000 0.00000 0.00000
  37 0.00000 0.00000 0.00000
  38 0.00000 0.00000 0.00000
  39 0.00000 0.00000 0.00000
  40 0.00000 0.00000 0.00000
  41 0.00000 0.00000 0.00000
  42 0.00000 0.00000 0.00000
  43 0.00000 0.00000 0.00000
  44 0.00000 0.00000 0.00000
  45 0.00000 0.00000 0.00000
  46 0.00000 0.00000 0.00000
  47 0.00000 0.00000 0.00000
  48 0.00000 0.00000 0.00000
  49 0.00000 0.00000 0.00000
  50 0.00000 0.00000 0.00000
  51 0.00000 0.00000 0.00000
  52 0.00000 0.00000 0.00000
  53 0.00000 0.00000 0.00000
  54 0.00000 0.00000 0.00000
  55 0.00000 0.00000 0.00000
  56 0.00000 0.00000 0.00000
  57 0.00000 0.00000 0.00000
  58 0.00000 0.00000 0.00000
  59 0.00000 0.00000 0.00000
  60 0.00000 0.00000 0.00000
  61 0.00000 0.00000 0.00000
  62 0.00000 0.00000 0.00000
  63 0.00000 0.00000 0.00000
  64 0.00000 0.00000 0.00000
  65 0.00000 0.00000 0.00000
  66 0.00000 0.00000 0.00000
  67 0.00000 0.00000 0.00000
  68 0.00000 0.00000 0.00000
  69 0.00000 0.00000 0.00000
  70 0.00000 0.00000 0.00000
  71 0.00000 0.00000 0.00000
  72 0.00000 0.00000 0.00000
  73 0.00000 0.00000 0.00000
  74 0.00000 0.00000 0.00000
  75 0.00000 0.00000 0.00000
  76 0.00000 0.00000 0.00000
  77 0.00000 0.00000 0.00000
  78 0.00000 0.00000 0.00000
  79 0.00000 0.00000 0.00000
  80 0.00000 0.00000 0.00000
  81 0.00000 0.00000 0.00000
  82 0.00000 0.00000 0.00000
  83 0.00000 0.00000 0.00000
  84 0.00000 0.00000 0.00000
  85 0.00000 0.00000 0.00000
  86 0.00000 0.00000 0.00000
  87 0.00000 0.00000 0.00000
  88 0.00000 0.00000 0.00000
  89 0.00000 0.00000 0.00000
  90 0.00000 0.00000 0.00000
  91 0.00000 0.00000 0.00000
  92 0.00000 0.00000 0.00000
  93 0.00000 0.00000 0.00000
  94 0.00000 0.00000 0.00000
  95 0.00000 0.00000 0.00000
  96 0.00000 0.00000 0.00000
  97 0.00000 0.00000 0.00000
  98 0.00000 0.00000 0.00000
  99 0.00000 0.00000 0.00000
  100 0.00000 0.00000 0.00000
  101 0.00000 0.00000 0.00000
  102 0.00000 0.00000 0.00000
  103 0.00000 0.00000 0.00000
  104 0.00000 0.00000 0.00000
  105 0.00000 0.00000 0.00000
  106 0.00000 0.00000 0.00000
  107 0.00000 0.00000 0.00000
  108 0.00000 0.00000 0.00000
  109 0.00000 0.00000 0.00000
  110 0.00000 0.00000 0.00000
  111 0.00000 0.00000 0.00000
  112 0.00000 0.00000 0.00000
  113 0.00000 0.00000 0.00000
  114 0.00000 0.00000 0.00000
  115 0.00000 0.00000 0.00000
  116 0.00000 0.00000 0.00000
  117 0.00000 0.00000 0.00000
  118 0.00000 0.00000 0.00000
  119 0.00000 0.00000 0.00000
  120 0.00000 0.00000 0.00000
  121 0.00000 0.00000 0.00000
  122 0.00000 0.00000 0.00000
  123 0.00000 0.00000 0.00000
  124 0.00000 0.00000 0.00000
  125 0.00000 0.00000 0.00000
  126 0.00000 0.00000 0.00000
  127 0.00000 0.00000 0.00000
  128 0.00000 0.00000 0.00000
  129 0.00000 0.00000 0.00000
  130 0.00000 0.00000 0.00000
  131 0.00000 0.00000 0.00000
  132 0.00000 0.00000 0.00000
  133 0.00000 0.00000 0.00000
  134 0.00000 0.00000 0.00000
  135 0.00000 0.00000 0.00000
  136 0.00000 0.00000 0.00000
  137 0.00000 0.00000 0.00000
  138 0.00000 0.00000 0.00000
  139 0.00000 0.00000 0.00000
  140 0.00000 0.00000 0.00000
  141 0.00000 0.00000 0.00000
  142 0.00000 0.00000 0.00000
  143 0.00000 0.00000 0.00000
  144 0.00000 0.00000 0.00000
  145 0.00000 0.00000 0.00000
  146 0.00000 0.00000 0.00000
  147 0.00000 0.00000 0.00000
  148 0.00000 0.00000 0.00000
  149 0.00000 0.00000 0.00000
  150 0.00000 0.00000 0.00000
  151 0.00000 0.00000 0.00000
  152 0.00000 0.00000 0.00000
  153 0.00000 0.00000 0.00000
  154 0.00000 0.00000 0.00000
  155 0.00000 0.00000 0.00000
  156 0.00000 0.00000 0.00000
  157 0.00000 0.00000 0.00000
  158 0.00000 0.00000 0.00000
  159 0.00000 0.00000 0.00000
  160 0.00000 0.00000 0.00000
  161 0.00000 0.00000 0.00000
  162 0.00000 0.00000 0.00000
  163 0.00000 0.00000 0.00000
  164 0.00000 0.00000 0.00000
  165 0.00000 0.00000 0.00000
  166 0.00000 0.00000 0.00000
  167 0.00000 0.00000 0.00000
  168 0.00000 0.00000 0.00000
  169 0.00000 0.00000 0.00000
  170 0.00000 0.00000 0.00000
  171 0.00000 0.00000 0.00000
  172 0.00000 0.00000 0.00000
  173 0.00000 0.00000 0.00000
  174 0.00000 0.00000 0.00000
  175 0.00000 0.00000 0.00000
  176 0.00000 0.00000 0.00000
  177 0.00000 0.00000 0.00000
  178 0.00000 0.00000 0.00000
  179 0.00000 0.00000 0.00000
  180 0.00000 0.00000 0.00000
  181 0.00000 0.00000 0.00000
  182 0.00000 0.00000 0.00000
  183 0.00000 0.00000 0.00000
  184 0.00000 0.00000 0.00000
  185 0.00000 0.00000 0.00000
  186 0.00000 0.00000 0.00000
  187 0.00000 0.00000 0.00000
  188 0.00000 0.00000 0.00000
  189 0.00000 0.00000 0.00000
  190 0.00000 0.00000 0.00000
  191 0.00000 0.00000 0.00000
  192 0.00000 0.00000 0.00000
  193 0.00000 0.00000 0.00000
  194 0.00000 0.00000 0.00000
  195 0.00000 0.00000 0.00000
  196 0.00000 0.00000 0.00000
  197 0.00000 0.00000 0.00000
  198 0.00000 0.00000 0.00000
  199 0.00000 0.00000 0.00000
  200 0.00000 0.00000 0.00000
  201 0.00000 0.00000 0.00000
  202 0.00000 0.00000 0.00000
  203 0.00000 0.00000 0.00000
  204 0.00000 0.00000 0.00000
  205 0.00000 0.00000 0.00000
  206 0.00000 0.00000 0.00000
  207 0.00000 0.00000 0.00000
  208 0.00000 0.00000 0.00000
  209 0.00000 0.00000 0.00000
  210 0.00000 0.00000 0.00000
  211 0.00000 0.00000 0.00000
  212 0.00000 0.00000 0.00000
  213 0.00000 0.00000 0.00000
  214 0.00000 0.00000 0.00000
  215 0.00000 0.00000 0.00000
  216 0.00000 0.00000 0.00000
  217 0.00000 0.00000 0.00000
  218 0.00000 0.00000 0.00000
  219 0.00000 0.00000 0.00000
  220 0.00000 0.00000 0.00000
  221 0.00000 0.00000 0.00000
  222 0.00000 0.00000 0.00000
  223 0.00000 0.00000 0.00000
  224 0.00000 0.00000 0.00000
  225 0.00000 0.00000 0.00000
  226 0.00000 0.00000 0.00000
  227 0.00000 0.00000 0.00000
  228 0.00000 0.00000 0.00000
  229 0.00000 0.00000 0.00000
  230 0.00000 0.00000 0.00000
  231 0.00000 0.00000 0.00000
  232 0.00000 0.00000 0.00000
  233 0.00000 0.00000 0.00000
  234 0.00000 0.00000 0.00000
  235 0.00000 0.00000 0.00000
  236 0.00000 0.00000 0.00000
  237 0.00000 0.00000 0.00000
  238 0.00000 0.00000 0.00000
  239 0.00000 0.00000 0.00000
  240 0.00000 0.00000 0.00000
  241 0.00000 0.00000 0.00000
</Section>

newXOutput 155

<Section columns = "stress_xx | stress_yy | stress_xy">
  1 0.00000 0.00000 0.00000
  2 0.00000 0.00000 0.00000
  3 0.00000 0.00000 0.00000
  4 0.00000 0.00000 0.00000
  5 0.00000 0.00000 0.00000
  6 0.00000 0.00000 0.00000
  7 0.00000 0.00000 0.00000
  8 0.00000 0.00000 0.00000
  9 0.00000 0.00000 0.00000
  10 0.00000 0.00000 0.00000
  11 0.00000 0.00000 0.00000
  12 0.00000 0.00000 0.00000
  13 0.00000 0.00000 0.00000
  14 0.00000 0.00000 0.00000
  15 0.00000 0.00000 0.00000
  16 0.00000 0.00000 0.00000
  17 0.00000 0.00000 0.00000
  18 0.00000 0.00000 0.00000
  19 0.00000 0.00000 0.00000
  20 0.00000 0.00000 0.00000
  21 0.00000 0.00000 0.00000
  22 0.00000 0.00000 0.00000
  23 0.00000 0.00000 0.00000
  24 0.00000 0.00000 0.00000
  25 0.00000 0.00000 0.00000
  26 0.00000 0.00000 0.00000
  27 0.00000 0.00000 0.00000
  28 0.00000 0.00000 0.00000
  29 0.00000 0.00000 0.00000
  30 0.00000 0.00000 0.00000
  31 0.00000 0.00000 0.00000
  32 0.00000 0.00000 0.00000
  33 0.00000 0.00000 0.00000
  34 0.00000 0.00000 0.00000
  35 0.00000 0.00000 0.00000
  36 0.00000 0.00000 0.00000
  37 0.00000 0.00000 0.00000
  38 0.00000 0.00000 0.00000
  39 0.00000 0.00000 0.00000
  40 0.00000 0.00000 0.00000
  41 0.00000 0.00000 0.00000
  42 0.00000 0.00000 0.00000
  43 0.00000 0.00000 0.00000
  44 0.00000 0.00000 0.00000
  45 0.00000 0.00000 0.00000
  46 0.00000 0.00000 0.00000
  47 0.00000 0.00000 0.00000
  48 0.00000 0.00000 0.00000
  49 0.00000 0.00000 0.00000
  50 0.00000 0.00000 0.00000
  51 0.00000 0.00000 0.00000
  52 0.00000 0.00000 0.00000
  53 0.00000 0.00000 0.00000
  54 0.00000 0.00000 0.00000
  55 0.00000 0.00000 0.00000
  56 0.00000 0.00000 0.00000
  57 0.00000 0.00000 0.00000
  58 0.00000 0.00000 0.00000
  59 0.00000 0.00000 0.00000
  60 0.00000 0.00000 0.00000
  61 0.00000 0.00000 0.00000
  62 0.00000 0.00000 0.00000
  63 0.00000 0.00000 0.00000
  64 0.00000 0.00000 0.00000
  65 0.00000 0.00000 0.00000
  66 0.00000 0.00000 0.00000
  67 0.00000 0.00000 0.00000
  68 0.00000 0.00000 0.00000
  69 0.00000 0.00000 0.00000
  70 0.00000 0.00000 0.00000
  71 0.00000 0.00000 0.00000
  72 0.00000 0.00000 0.00000
  73 0.00000 0.00000 0.00000
  74 0.00000 0.00000 0.00000
  75 0.00000 0.00000 0.00000
  76 0.00000 0.00000 0.00000
  77 0.00000 0.00000 0.00000
  78 0.00000 0.00000 0.00000
  79 0.00000 0.00000 0.00000
  80 0.00000 0.00000 0.00000
  81 0.00000 0.00000 0.00000
  82 0.00000 0.00000 0.00000
  83 0.00000 0.00000 0.00000
  84 0.00000 0.00000 0.00000
  85 0.00000 0.00000 0.00000
  86 0.00000 0.00000 0.00000
  87 0.00000 0.00000 0.00000
  88 0.00000 0.00000 0.00000
  89 0.00000 0.00000 0.00000
  90 0.00000 0.00000 0.00000
  91 0.00000 0.00000 0.00000
  92 0.00000 0.00000 0.00000
  93 0.00000 0.00000 0.00000
  94 0.00000 0.00000 0.00000
  95 0.00000 0.00000 0.00000
  96 0.00000 0.00000 0.00000
  97 0.00000 0.00000 0.00000
  98 0.00000 0.00000 0.00000
  99 0.00000 0.00000 0.00000
  100 0.00000 0.00000 0.00000
  101 0.00000 0.00000 0.00000
  102 0.00000 0.00000 0.00000
  103 0.00000 0.00000 0.00000
  104 0.00000 0.00000 0.00000
  105 0.00000 0.00000 0.00000
  106 0.00000 0.00000 0.00000
  107 0.00000 0.00000 0.00000
  108 0.00000 0.00000 0.00000
  109 0.00000 0.00000 0.00000
  110 0.00000 0.00000 0.00000
  111 0.00000 0.00000 0.00000
  112 0.00000 0.00000 0.00000
  113 0.00000 0.00000 0.00000
  114 0.00000 0.00000 0.00000
  115 0.00000 0.00000 0.00000
  116 0.00000 0.00000 0.00000
  117 0.00000 0.00000 0.00000
  118 0.00000 0.00000 0.00000
  119 0.00000 0.00000 0.00000
  120 0.00000 0.00000 0.00000
  121 0.00000 0.00000 0.00000
  122 0.00000 0.00000 0.00000
  123 0.00000 0.00000 0.00000
  124 0.00000 0.00000 0.00000
  125 0.00000 0.00000 0.00000
  126 0.00000 0.00000 0.00000
  127 0.00000 0.00000 0.00000
  128 0.00000 0.00000 0.00000
  129 0.00000 0.00000 0.00000
  130 0.00000 0.00000 0.00000
  131 0.00000 0.00000 0.00000
  132 0.00000 0.00000 0.00000
  133 0.00000 0.00000 0.00000
  134 0.00000 0.00000 0.00000
  135 0.00000 0.00000 0.00000
  136 0.00000 0.00000 0.00000
  137 0.00000 0.00000 0.00000
  138 0.00000 0.00000 0.00000
  139 0.00000 0.00000 0.00000
  140 0.00000 0.00000 0.00000
  141 0.00000 0.00000 0.00000
  142 0.00000 0.00000 0.00000
  143 0.00000 0.00000 0.00000
  144 0.00000 0.00000 0.00000
  145 0.00000 0.00000 0.00000
  146 0.00000 0.00000 0.00000
  147 0.00000 0.00000 0.00000
  148 0.00000 0.00000 0.00000
  149 0.00000 0.00000 0.00000
  150 0.00000 0.00000 0.00000
  151 0.00000 0.00000 0.00000
  152 0.00000 0.00000 0.00000
  153 0.00000 0.00000 0.00000
  154 0.00000 0.00000 0.00000
  155 0.00000 0.00000 0.00000
  156 0.00000 0.00000 0.00000
  157 0.00000 0.00000 0.00000
  158 0.00000 0.00000 0.00000
  159 0.00000 0.00000 0.00000
  160 0.00000 0.00000 0.00000
  161 0.00000 0.00000 0.00000
  162 0.00000 0.00000 0.00000
  163 0.00000 0.00000 0.00000
  164 0.00000 0.00000 0.00000
  165 0.00000 0.00000 0.00000
  166 0.00000 0.00000 0.00000
  167 0.00000 0.00000 0.00000
  168 0.00000 0.00000 0.00000
  169 0.00000 0.00000 0.00000
  170 0.00000 0.00000 0.00000
  171 0.00000 0.00000 0.00000
  172 0.00000 0.00000 0.00000
  173 0.00000 0.00000 0.00000
  174 0.00000 0.00000 0.00000
  175 0.00000 0.00000 0.00000
  176 0.00000 0.00000 0.00000
  177 0.00000 0.00000 0.00000
  178 0.00000 0.00000 0.00000
  179 0.00000 0.00000 0.00000
  180 0.00000 0.00000 0.00000
  181 0.00000 0.00000 0.00000
  182 0.00000 0.00000 0.00000
  183 0.00000 0.00000 0.00000
  184 0.00000 0.00000 0.00000
  185 0.00000 0.00000 0.00000
  186 0.00000 0.00000 0.00000
  187 0.00000 0.00000 0.00000
  188 0.00000 0.00000 0.00000
  189 0.00000 0.00000 0.00000
  190 0.00000 0.00000 0.00000
  191 0.00000 0.00000 0.00000
  192 0.00000 0.00000 0.00000
  193 0.00000 0.00000 0.00000
  194 0.00000 0.00000 0.00000
  195 0.00000 0.00000 0.00000
  196 0.00000 0.00000 0.00000
  197 0.00000 0.00000 0.00000
  198 0.00000 0.00000 0.00000
  199 0.00000 0.00000 0.00000
  200 0.00000 0.00000 0.00000
  201 0.00000 0.00000 0.00000
  202 0.00000 0.00000 0.00000
  203 0.00000 0.00000 0.00000
  204 0.00000 0.00000 0.00000
  205 0.00000 0.00000 0.00000
  206 0.00000 0.00000 0.00000
  207 0.00000 0.00000 0.00000
  208 0.00000 0.00000 0.00000
  209 0.00000 0.00000 0.00000
  210 0.00000 0.00000 0.00000
  211 0.00000 0.00000 0.00000
  212 0.00000 0.00000 0.00000
  213 0.00000 0.00000 0.00000
  214 0.00000 0.00000 0.00000
  215 0.00000 0.00000 0.00000
  216 0.00000 0.00000 0.00000
  217 0.00000 0.00000 0.00000
  218 0.00000 0.00000 0.00000
  219 0.00000 0.00000 0.00000
  220 0.00000 0.00000 0.00000
  221 0.00000 0.00000 0.00000
  222 0.00000 0.00000 0.00000
  223 0.00000 0.00000 0.00000
  224 0.00000 0.00000 0.00000
  225 0.00000 0.00000 0.00000
  226 0.00000 0.00000 0.00000
  227 0.00000 0.00000 0.00000
  228 0.00000 0.00000 0.00000
  229 0.00000 0.00000 0.00000
  230 0.00000 0.00000 0.00000
  231 0.00000 0.00000 0.00000
  232 0.00000 0.00000 0.00000
  233 0.00000 0.00000 0.00000
  234 0.00000 0.00000 0.00000
  235 0.00000 0.00000 0.00000
  236 0.00000 0.00000 0.00000
  237 0.00000 0.00000 0.00000
  238 0.00000 0.00000 0.00000
  239 0.00000 0.00000 0.00000
  240 0.00000 0.00000 0.00000
  241 0.00000 0.00000 0.00000
</Section>

newXOutput 156

<Section columns = "stress_xx | stress_yy | stress_xy">
  1 0.00000 0.00000 0.00000
  2 0.00000 0.00000 0.00000
  3 0.00000 0.00000 0.00000
  4 0.00000 0.00000 0.00000
  5 0.00000 0.00000 0.00000
  6 0.00000 0.00000 0.00000
  7 0.00000 0.00000 0.00000
  8 0.00000 0.00000 0.00000
  9 0.00000 0.00000 0.00000
  10 0.00000 0.00000 0.00000
  11 0.00000 0.00000 0.00000
  12 0.00000 0.00000 0.00000
  13 0.00000 0.00000 0.00000
  14 0.00000 0.00000 0.00000
  15 0.00000 0.00000 0.00000
  16 0.00000 0.00000 0.00000
  17 0.00000 0.00000 0.00000
  18 0.00000 0.00000 0.00000
  19 0.00000 0.00000 0.00000
  20 0.00000 0.00000 0.00000
  21 0.00000 0.00000 0.00000
  22 0.00000 0.00000 0.00000
  23 0.00000 0.00000 0.00000
  24 0.00000 0.00000 0.00000
  25 0.00000 0.00000 0.00000
  26 0.00000 0.00000 0.00000
  27 0.00000 0.00000 0.00000
  28 0.00000 0.00000 0.00000
  29 0.00000 0.00000 0.00000
  30 0.00000 0.00000 0.00000
  31 0.00000 0.00000 0.00000
  32 0.00000 0.00000 0.00000
  33 0.00000 0.00000 0.00000
  34 0.00000 0.00000 0.00000
  35 0.00000 0.00000 0.00000
  36 0.00000 0.00000 0.00000
  37 0.00000 0.00000 0.00000
  38 0.00000 0.00000 0.00000
  39 0.00000 0.00000 0.00000
  40 0.00000 0.00000 0.00000
  41 0.00000 0.00000 0.00000
  42 0.00000 0.00000 0.00000
  43 0.00000 0.00000 0.00000
  44 0.00000 0.00000 0.00000
  45 0.00000 0.00000 0.00000
  46 0.00000 0.00000 0.00000
  47 0.00000 0.00000 0.00000
  48 0.00000 0.00000 0.00000
  49 0.00000 0.00000 0.00000
  50 0.00000 0.00000 0.00000
  51 0.00000 0.00000 0.00000
  52 0.00000 0.00000 0.00000
  53 0.00000 0.00000 0.00000
  54 0.00000 0.00000 0.00000
  55 0.00000 0.00000 0.00000
  56 0.00000 0.00000 0.00000
  57 0.00000 0.00000 0.00000
  58 0.00000 0.00000 0.00000
  59 0.00000 0.00000 0.00000
  60 0.00000 0.00000 0.00000
  61 0.00000 0.00000 0.00000
  62 0.00000 0.00000 0.00000
  63 0.00000 0.00000 0.00000
  64 0.00000 0.00000 0.00000
  65 0.00000 0.00000 0.00000
  66 0.00000 0.00000 0.00000
  67 0.00000 0.00000 0.00000
  68 0.00000 0.00000 0.00000
  69 0.00000 0.00000 0.00000
  70 0.00000 0.00000 0.00000
  71 0.00000 0.00000 0.00000
  72 0.00000 0.00000 0.00000
  73 0.00000 0.00000 0.00000
  74 0.00000 0.00000 0.00000
  75 0.00000 0.00000 0.00000
  76 0.00000 0.00000 0.00000
  77 0.00000 0.00000 0.00000
  78 0.00000 0.00000 0.00000
  79 0.00000 0.00000 0.00000
  80 0.00000 0.00000 0.00000
  81 0.00000 0.00000 0.00000
  82 0.00000 0.00000 0.00000
  83 0.00000 0.00000 0.00000
  84 0.00000 0.00000 0.00000
  85 0.00000 0.00000 0.00000
  86 0.00000 0.00000 0.00000
  87 0.00000 0.00000 0.00000
  88 0.00000 0.00000 0.00000
  89 0.00000 0.00000 0.00000
  90 0.00000 0.00000 0.00000
  91 0.00000 0.00000 0.00000
  92 0.00000 0.00000 0.00000
  93 0.00000 0.00000 0.00000
  94 0.00000 0.00000 0.00000
  95 0.00000 0.00000 0.00000
  96 0.00000 0.00000 0.00000
  97 0.00000 0.00000 0.00000
  98 0.00000 0.00000 0.00000
  99 0.00000 0.00000 0.00000
  100 0.00000 0.00000 0.00000
  101 0.00000 0.00000 0.00000
  102 0.00000 0.00000 0.00000
  103 0.00000 0.00000 0.00000
  104 0.00000 0.00000 0.00000
  105 0.00000 0.00000 0.00000
  106 0.00000 0.00000 0.00000
  107 0.00000 0.00000 0.00000
  108 0.00000 0.00000 0.00000
  109 0.00000 0.00000 0.00000
  110 0.00000 0.00000 0.00000
  111 0.00000 0.00000 0.00000
  112 0.00000 0.00000 0.00000
  113 0.00000 0.00000 0.00000
  114 0.00000 0.00000 0.00000
  115 0.00000 0.00000 0.00000
  116 0.00000 0.00000 0.00000
  117 0.00000 0.00000 0.00000
  118 0.00000 0.00000 0.00000
  119 0.00000 0.00000 0.00000
  120 0.00000 0.00000 0.00000
  121 0.00000 0.00000 0.00000
  122 0.00000 0.00000 0.00000
  123 0.00000 0.00000 0.00000
  124 0.00000 0.00000 0.00000
  125 0.00000 0.00000 0.00000
  126 0.00000 0.00000 0.00000
  127 0.00000 0.00000 0.00000
  128 0.00000 0.00000 0.00000
  129 0.00000 0.00000 0.00000
  130 0.00000 0.00000 0.00000
  131 0.00000 0.00000 0.00000
  132 0.00000 0.00000 0.00000
  133 0.00000 0.00000 0.00000
  134 0.00000 0.00000 0.00000
  135 0.00000 0.00000 0.00000
  136 0.00000 0.00000 0.00000
  137 0.00000 0.00000 0.00000
  138 0.00000 0.00000 0.00000
  139 0.00000 0.00000 0.00000
  140 0.00000 0.00000 0.00000
  141 0.00000 0.00000 0.00000
  142 0.00000 0.00000 0.00000
  143 0.00000 0.00000 0.00000
  144 0.00000 0.00000 0.00000
  145 0.00000 0.00000 0.00000
  146 0.00000 0.00000 0.00000
  147 0.00000 0.00000 0.00000
  148 0.00000 0.00000 0.00000
  149 0.00000 0.00000 0.00000
  150 0.00000 0.00000 0.00000
  151 0.00000 0.00000 0.00000
  152 0.00000 0.00000 0.00000
  153 0.00000 0.00000 0.00000
  154 0.00000 0.00000 0.00000
  155 0.00000 0.00000 0.00000
  156 0.00000 0.00000 0.00000
  157 0.00000 0.00000 0.00000
  158 0.00000 0.00000 0.00000
  159 0.00000 0.00000 0.00000
  160 0.00000 0.00000 0.00000
  161 0.00000 0.00000 0.00000
  162 0.00000 0.00000 0.00000
  163 0.00000 0.00000 0.00000
  164 0.00000 0.00000 0.00000
  165 0.00000 0.00000 0.00000
  166 0.00000 0.00000 0.00000
  167 0.00000 0.00000 0.00000
  168 0.00000 0.00000 0.00000
  169 0.00000 0.00000 0.00000
  170 0.00000 0.00000 0.00000
  171 0.00000 0.00000 0.00000
  172 0.00000 0.00000 0.00000
  173 0.00000 0.00000 0.00000
  174 0.00000 0.00000 0.00000
  175 0.00000 0.00000 0.00000
  176 0.00000 0.00000 0.00000
  177 0.00000 0.00000 0.00000
  178 0.00000 0.00000 0.00000
  179 0.00000 0.00000 0.00000
  180 0.00000 0.00000 0.00000
  181 0.00000 0.00000 0.00000
  182 0.00000 0.00000 0.00000
  183 0.00000 0.00000 0.00000
  184 0.00000 0.00000 0.00000
  185 0.00000 0.00000 0.00000
  186 0.00000 0.00000 0.00000
  187 0.00000 0.00000 0.00000
  188 0.00000 0.00000 0.00000
  189 0.00000 0.00000 0.00000
  190 0.00000 0.00000 0.00000
  191 0.00000 0.00000 0.00000
  192 0.00000 0.00000 0.00000
  193 0.00000 0.00000 0.00000
  194 0.00000 0.00000 0.00000
  195 0.00000 0.00000 0.00000
  196 0.00000 0.00000 0.00000
  197 0.00000 0.00000 0.00000
  198 0.00000 0.00000 0.00000
  199 0.00000 0.00000 0.00000
  200 0.00000 0.00000 0.00000
  201 0.00000 0.00000 0.00000
  202 0.00000 0.00000 0.00000
  203 0.00000 0.00000 0.00000
  204 0.00000 0.00000 0.00000
  205 0.00000 0.00000 0.00000
  206 0.00000 0.00000 0.00000
  207 0.00000 0.00000 0.00000
  208 0.00000 0.00000 0.00000
  209 0.00000 0.00000 0.00000
  210 0.00000 0.00000 0.00000
  211 0.00000 0.00000 0.00000
  212 0.00000 0.00000 0.00000
  213 0.00000 0.00000 0.00000
  214 0.00000 0.00000 0.00000
  215 0.00000 0.00000 0.00000
  216 0.00000 0.00000 0.00000
  217 0.00000 0.00000 0.00000
  218 0.00000 0.00000 0.00000
  219 0.00000 0.00000 0.00000
  220 0.00000 0.00000 0.00000
  221 0.00000 0.00000 0.00000
  222 0.00000 0.00000 0.00000
  223 0.00000 0.00000 0.00000
  224 0.00000 0.00000 0.00000
  225 0.00000 0.00000 0.00000
  226 0.00000 0.00000 0.00000
  227 0.00000 0.00000 0.00000
  228 0.00000 0.00000 0.00000
  229 0.00000 0.00000 0.00000
  230 0.00000 0.00000 0.00000
  231 0.00000 0.00000 0.00000
  232 0.00000 0.00000 0.00000
  233 0.00000 0.00000 0.00000
  234 0.00000 0.00000 0.00000
  235 0.00000 0.00000 0.00000
  236 0.00000 0.00000 0.00000
  237 0.00000 0.00000 0.00000
  238 0.00000 0.00000 0.00000
  239 0.00000 0.00000 0.00000
  240 0.00000 0.00000 0.00000
  241 0.00000 0.00000 0.00000
</Section>

newXOutput 157

<Section columns = "stress_xx | stress_yy | stress_xy">
  1 0.00000 0.00000 0.00000
  2 0.00000 0.00000 0.00000
  3 0.00000 0.00000 0.00000
  4 0.00000 0.00000 0.00000
  5 0.00000 0.00000 0.00000
  6 0.00000 0.00000 0.00000
  7 0.00000 0.00000 0.00000
  8 0.00000 0.00000 0.00000
  9 0.00000 0.00000 0.00000
  10 0.00000 0.00000 0.00000
  11 0.00000 0.00000 0.00000
  12 0.00000 0.00000 0.00000
  13 0.00000 0.00000 0.00000
  14 0.00000 0.00000 0.00000
  15 0.00000 0.00000 0.00000
  16 0.00000 0.00000 0.00000
  17 0.00000 0.00000 0.00000
  18 0.00000 0.00000 0.00000
  19 0.00000 0.00000 0.00000
  20 0.00000 0.00000 0.00000
  21 0.00000 0.00000 0.00000
  22 0.00000 0.00000 0.00000
  23 0.00000 0.00000 0.00000
  24 0.00000 0.00000 0.00000
  25 0.00000 0.00000 0.00000
  26 0.00000 0.00000 0.00000
  27 0.00000 0.00000 0.00000
  28 0.00000 0.00000 0.00000
  29 0.00000 0.00000 0.00000
  30 0.00000 0.00000 0.00000
  31 0.00000 0.00000 0.00000
  32 0.00000 0.00000 0.00000
  33 0.00000 0.00000 0.00000
  34 0.00000 0.00000 0.00000
  35 0.00000 0.00000 0.00000
  36 0.00000 0.00000 0.00000
  37 0.00000 0.00000 0.00000
  38 0.00000 0.00000 0.00000
  39 0.00000 0.00000 0.00000
  40 0.00000 0.00000 0.00000
  41 0.00000 0.00000 0.00000
  42 0.00000 0.00000 0.00000
  43 0.00000 0.00000 0.00000
  44 0.00000 0.00000 0.00000
  45 0.00000 0.00000 0.00000
  46 0.00000 0.00000 0.00000
  47 0.00000 0.00000 0.00000
  48 0.00000 0.00000 0.00000
  49 0.00000 0.00000 0.00000
  50 0.00000 0.00000 0.00000
  51 0.00000 0.00000 0.00000
  52 0.00000 0.00000 0.00000
  53 0.00000 0.00000 0.00000
  54 0.00000 0.00000 0.00000
  55 0.00000 0.00000 0.00000
  56 0.00000 0.00000 0.00000
  57 0.00000 0.00000 0.00000
  58 0.00000 0.00000 0.00000
  59 0.00000 0.00000 0.00000
  60 0.00000 0.00000 0.00000
  61 0.00000 0.00000 0.00000
  62 0.00000 0.00000 0.00000
  63 0.00000 0.00000 0.00000
  64 0.00000 0.00000 0.00000
  65 0.00000 0.00000 0.00000
  66 0.00000 0.00000 0.00000
  67 0.00000 0.00000 0.00000
  68 0.00000 0.00000 0.00000
  69 0.00000 0.00000 0.00000
  70 0.00000 0.00000 0.00000
  71 0.00000 0.00000 0.00000
  72 0.00000 0.00000 0.00000
  73 0.00000 0.00000 0.00000
  74 0.00000 0.00000 0.00000
  75 0.00000 0.00000 0.00000
  76 0.00000 0.00000 0.00000
  77 0.00000 0.00000 0.00000
  78 0.00000 0.00000 0.00000
  79 0.00000 0.00000 0.00000
  80 0.00000 0.00000 0.00000
  81 0.00000 0.00000 0.00000
  82 0.00000 0.00000 0.00000
  83 0.00000 0.00000 0.00000
  84 0.00000 0.00000 0.00000
  85 0.00000 0.00000 0.00000
  86 0.00000 0.00000 0.00000
  87 0.00000 0.00000 0.00000
  88 0.00000 0.00000 0.00000
  89 0.00000 0.00000 0.00000
  90 0.00000 0.00000 0.00000
  91 0.00000 0.00000 0.00000
  92 0.00000 0.00000 0.00000
  93 0.00000 0.00000 0.00000
  94 0.00000 0.00000 0.00000
  95 0.00000 0.00000 0.00000
  96 0.00000 0.00000 0.00000
  97 0.00000 0.00000 0.00000
  98 0.00000 0.00000 0.00000
  99 0.00000 0.00000 0.00000
  100 0.00000 0.00000 0.00000
  101 0.00000 0.00000 0.00000
  102 0.00000 0.00000 0.00000
  103 0.00000 0.00000 0.00000
  104 0.00000 0.00000 0.00000
  105 0.00000 0.00000 0.00000
  106 0.00000 0.00000 0.00000
  107 0.00000 0.00000 0.00000
  108 0.00000 0.00000 0.00000
  109 0.00000 0.00000 0.00000
  110 0.00000 0.00000 0.00000
  111 0.00000 0.00000 0.00000
  112 0.00000 0.00000 0.00000
  113 0.00000 0.00000 0.00000
  114 0.00000 0.00000 0.00000
  115 0.00000 0.00000 0.00000
  116 0.00000 0.00000 0.00000
  117 0.00000 0.00000 0.00000
  118 0.00000 0.00000 0.00000
  119 0.00000 0.00000 0.00000
  120 0.00000 0.00000 0.00000
  121 0.00000 0.00000 0.00000
  122 0.00000 0.00000 0.00000
  123 0.00000 0.00000 0.00000
  124 0.00000 0.00000 0.00000
  125 0.00000 0.00000 0.00000
  126 0.00000 0.00000 0.00000
  127 0.00000 0.00000 0.00000
  128 0.00000 0.00000 0.00000
  129 0.00000 0.00000 0.00000
  130 0.00000 0.00000 0.00000
  131 0.00000 0.00000 0.00000
  132 0.00000 0.00000 0.00000
  133 0.00000 0.00000 0.00000
  134 0.00000 0.00000 0.00000
  135 0.00000 0.00000 0.00000
  136 0.00000 0.00000 0.00000
  137 0.00000 0.00000 0.00000
  138 0.00000 0.00000 0.00000
  139 0.00000 0.00000 0.00000
  140 0.00000 0.00000 0.00000
  141 0.00000 0.00000 0.00000
  142 0.00000 0.00000 0.00000
  143 0.00000 0.00000 0.00000
  144 0.00000 0.00000 0.00000
  145 0.00000 0.00000 0.00000
  146 0.00000 0.00000 0.00000
  147 0.00000 0.00000 0.00000
  148 0.00000 0.00000 0.00000
  149 0.00000 0.00000 0.00000
  150 0.00000 0.00000 0.00000
  151 0.00000 0.00000 0.00000
  152 0.00000 0.00000 0.00000
  153 0.00000 0.00000 0.00000
  154 0.00000 0.00000 0.00000
  155 0.00000 0.00000 0.00000
  156 0.00000 0.00000 0.00000
  157 0.00000 0.00000 0.00000
  158 0.00000 0.00000 0.00000
  159 0.00000 0.00000 0.00000
  160 0.00000 0.00000 0.00000
  161 0.00000 0.00000 0.00000
  162 0.00000 0.00000 0.00000
  163 0.00000 0.00000 0.00000
  164 0.00000 0.00000 0.00000
  165 0.00000 0.00000 0.00000
  166 0.00000 0.00000 0.00000
  167 0.00000 0.00000 0.00000
  168 0.00000 0.00000 0.00000
  169 0.00000 0.00000 0.00000
  170 0.00000 0.00000 0.00000
  171 0.00000 0.00000 0.00000
  172 0.00000 0.00000 0.00000
  173 0.00000 0.00000 0.00000
  174 0.00000 0.00000 0.00000
  175 0.00000 0.00000 0.00000
  176 0.00000 0.00000 0.00000
  177 0.00000 0.00000 0.00000
  178 0.00000 0.00000 0.00000
  179 0.00000 0.00000 0.00000
  180 0.00000 0.00000 0.00000
  181 0.00000 0.00000 0.00000
  182 0.00000 0.00000 0.00000
  183 0.00000 0.00000 0.00000
  184 0.00000 0.00000 0.00000
  185 0.00000 0.00000 0.00000
  186 0.00000 0.00000 0.00000
  187 0.00000 0.00000 0.00000
  188 0.00000 0.00000 0.00000
  189 0.00000 0.00000 0.00000
  190 0.00000 0.00000 0.00000
  191 0.00000 0.00000 0.00000
  192 0.00000 0.00000 0.00000
  193 0.00000 0.00000 0.00000
  194 0.00000 0.00000 0.00000
  195 0.00000 0.00000 0.00000
  196 0.00000 0.00000 0.00000
  197 0.00000 0.00000 0.00000
  198 0.00000 0.00000 0.00000
  199 0.00000 0.00000 0.00000
  200 0.00000 0.00000 0.00000
  201 0.00000 0.00000 0.00000
  202 0.00000 0.00000 0.00000
  203 0.00000 0.00000 0.00000
  204 0.00000 0.00000 0.00000
  205 0.00000 0.00000 0.00000
  206 0.00000 0.00000 0.00000
  207 0.00000 0.00000 0.00000
  208 0.00000 0.00000 0.00000
  209 0.00000 0.00000 0.00000
  210 0.00000 0.00000 0.00000
  211 0.00000 0.00000 0.00000
  212 0.00000 0.00000 0.00000
  213 0.00000 0.00000 0.00000
  214 0.00000 0.00000 0.00000
  215 0.00000 0.00000 0.00000
  216 0.00000 0.00000 0.00000
  217 0.00000 0.00000 0.00000
  218 0.00000 0.00000 0.00000
  219 0.00000 0.00000 0.00000
  220 0.00000 0.00000 0.00000
  221 0.00000 0.00000 0.00000
  222 0.00000 0.00000 0.00000
  223 0.00000 0.00000 0.00000
  224 0.00000 0.00000 0.00000
  225 0.00000 0.00000 0.00000
  226 0.00000 0.00000 0.00000
  227 0.00000 0.00000 0.00000
  228 0.00000 0.00000 0.00000
  229 0.00000 0.00000 0.00000
  230 0.00000 0.00000 0.00000
  231 0.00000 0.00000 0.00000
  232 0.00000 0.00000 0.00000
  233 0.00000 0.00000 0.00000
  234 0.00000 0.00000 0.00000
  235 0.00000 0.00000 0.00000
  236 0.00000 0.00000 0.00000
  237 0.00000 0.00000 0.00000
  238 0.00000 0.00000 0.00000
  239 0.00000 0.00000 0.00000
  240 0.00000 0.00000 0.00000
  241 0.00000 0.00000 0.00000
</Section>

newXOutput 158

<Section columns = "stress_xx | stress_yy | stress_xy">
  1 0.00000 0.00000 0.00000
  2 0.00000 0.00000 0.00000
  3 0.00000 0.00000 0.00000
  4 0.00000 0.00000 0.00000
  5 0.00000 0.00000 0.00000
  6 0.00000 0.00000 0.00000
  7 0.00000 0.00000 0.00000
  8 0.00000 0.00000 0.00000
  9 0.00000 0.00000 0.00000
  10 0.00000 0.00000 0.00000
  11 0.00000 0.00000 0.00000
  12 0.00000 0.00000 0.00000
  13 0.00000 0.00000 0.00000
  14 0.00000 0.00000 0.00000
  15 0.00000 0.00000 0.00000
  16 0.00000 0.00000 0.00000
  17 0.00000 0.00000 0.00000
  18 0.00000 0.00000 0.00000
  19 0.00000 0.00000 0.00000
  20 0.00000 0.00000 0.00000
  21 0.00000 0.00000 0.00000
  22 0.00000 0.00000 0.00000
  23 0.00000 0.00000 0.00000
  24 0.00000 0.00000 0.00000
  25 0.00000 0.00000 0.00000
  26 0.00000 0.00000 0.00000
  27 0.00000 0.00000 0.00000
  28 0.00000 0.00000 0.00000
  29 0.00000 0.00000 0.00000
  30 0.00000 0.00000 0.00000
  31 0.00000 0.00000 0.00000
  32 0.00000 0.00000 0.00000
  33 0.00000 0.00000 0.00000
  34 0.00000 0.00000 0.00000
  35 0.00000 0.00000 0.00000
  36 0.00000 0.00000 0.00000
  37 0.00000 0.00000 0.00000
  38 0.00000 0.00000 0.00000
  39 0.00000 0.00000 0.00000
  40 0.00000 0.00000 0.00000
  41 0.00000 0.00000 0.00000
  42 0.00000 0.00000 0.00000
  43 0.00000 0.00000 0.00000
  44 0.00000 0.00000 0.00000
  45 0.00000 0.00000 0.00000
  46 0.00000 0.00000 0.00000
  47 0.00000 0.00000 0.00000
  48 0.00000 0.00000 0.00000
  49 0.00000 0.00000 0.00000
  50 0.00000 0.00000 0.00000
  51 0.00000 0.00000 0.00000
  52 0.00000 0.00000 0.00000
  53 0.00000 0.00000 0.00000
  54 0.00000 0.00000 0.00000
  55 0.00000 0.00000 0.00000
  56 0.00000 0.00000 0.00000
  57 0.00000 0.00000 0.00000
  58 0.00000 0.00000 0.00000
  59 0.00000 0.00000 0.00000
  60 0.00000 0.00000 0.00000
  61 0.00000 0.00000 0.00000
  62 0.00000 0.00000 0.00000
  63 0.00000 0.00000 0.00000
  64 0.00000 0.00000 0.00000
  65 0.00000 0.00000 0.00000
  66 0.00000 0.00000 0.00000
  67 0.00000 0.00000 0.00000
  68 0.00000 0.00000 0.00000
  69 0.00000 0.00000 0.00000
  70 0.00000 0.00000 0.00000
  71 0.00000 0.00000 0.00000
  72 0.00000 0.00000 0.00000
  73 0.00000 0.00000 0.00000
  74 0.00000 0.00000 0.00000
  75 0.00000 0.00000 0.00000
  76 0.00000 0.00000 0.00000
  77 0.00000 0.00000 0.00000
  78 0.00000 0.00000 0.00000
  79 0.00000 0.00000 0.00000
  80 0.00000 0.00000 0.00000
  81 0.00000 0.00000 0.00000
  82 0.00000 0.00000 0.00000
  83 0.00000 0.00000 0.00000
  84 0.00000 0.00000 0.00000
  85 0.00000 0.00000 0.00000
  86 0.00000 0.00000 0.00000
  87 0.00000 0.00000 0.00000
  88 0.00000 0.00000 0.00000
  89 0.00000 0.00000 0.00000
  90 0.00000 0.00000 0.00000
  91 0.00000 0.00000 0.00000
  92 0.00000 0.00000 0.00000
  93 0.00000 0.00000 0.00000
  94 0.00000 0.00000 0.00000
  95 0.00000 0.00000 0.00000
  96 0.00000 0.00000 0.00000
  97 0.00000 0.00000 0.00000
  98 0.00000 0.00000 0.00000
  99 0.00000 0.00000 0.00000
  100 0.00000 0.00000 0.00000
  101 0.00000 0.00000 0.00000
  102 0.00000 0.00000 0.00000
  103 0.00000 0.00000 0.00000
  104 0.00000 0.00000 0.00000
  105 0.00000 0.00000 0.00000
  106 0.00000 0.00000 0.00000
  107 0.00000 0.00000 0.00000
  108 0.00000 0.00000 0.00000
  109 0.00000 0.00000 0.00000
  110 0.00000 0.00000 0.00000
  111 0.00000 0.00000 0.00000
  112 0.00000 0.00000 0.00000
  113 0.00000 0.00000 0.00000
  114 0.00000 0.00000 0.00000
  115 0.00000 0.00000 0.00000
  116 0.00000 0.00000 0.00000
  117 0.00000 0.00000 0.00000
  118 0.00000 0.00000 0.00000
  119 0.00000 0.00000 0.00000
  120 0.00000 0.00000 0.00000
  121 0.00000 0.00000 0.00000
  122 0.00000 0.00000 0.00000
  123 0.00000 0.00000 0.00000
  124 0.00000 0.00000 0.00000
  125 0.00000 0.00000 0.00000
  126 0.00000 0.00000 0.00000
  127 0.00000 0.00000 0.00000
  128 0.00000 0.00000 0.00000
  129 0.00000 0.00000 0.00000
  130 0.00000 0.00000 0.00000
  131 0.00000 0.00000 0.00000
  132 0.00000 0.00000 0.00000
  133 0.00000 0.00000 0.00000
  134 0.00000 0.00000 0.00000
  135 0.00000 0.00000 0.00000
  136 0.00000 0.00000 0.00000
  137 0.00000 0.00000 0.00000
  138 0.00000 0.00000 0.00000
  139 0.00000 0.00000 0.00000
  140 0.00000 0.00000 0.00000
  141 0.00000 0.00000 0.00000
  142 0.00000 0.00000 0.00000
  143 0.00000 0.00000 0.00000
  144 0.00000 0.00000 0.00000
  145 0.00000 0.00000 0.00000
  146 0.00000 0.00000 0.00000
  147 0.00000 0.00000 0.00000
  148 0.00000 0.00000 0.00000
  149 0.00000 0.00000 0.00000
  150 0.00000 0.00000 0.00000
  151 0.00000 0.00000 0.00000
  152 0.00000 0.00000 0.00000
  153 0.00000 0.00000 0.00000
  154 0.00000 0.00000 0.00000
  155 0.00000 0.00000 0.00000
  156 0.00000 0.00000 0.00000
  157 0.00000 0.00000 0.00000
  158 0.00000 0.00000 0.00000
  159 0.00000 0.00000 0.00000
  160 0.00000 0.00000 0.00000
  161 0.00000 0.00000 0.00000
  162 0.00000 0.00000 0.00000
  163 0.00000 0.00000 0.00000
  164 0.00000 0.00000 0.00000
  165 0.00000 0.00000 0.00000
  166 0.00000 0.00000 0.00000
  167 0.00000 0.00000 0.00000
  168 0.00000 0.00000 0.00000
  169 0.00000 0.00000 0.00000
  170 0.00000 0.00000 0.00000
  171 0.00000 0.00000 0.00000
  172 0.00000 0.00000 0.00000
  173 0.00000 0.00000 0.00000
  174 0.00000 0.00000 0.00000
  175 0.00000 0.00000 0.00000
  176 0.00000 0.00000 0.00000
  177 0.00000 0.00000 0.00000
  178 0.00000 0.00000 0.00000
  179 0.00000 0.00000 0.00000
  180 0.00000 0.00000 0.00000
  181 0.00000 0.00000 0.00000
  182 0.00000 0.00000 0.00000
  183 0.00000 0.00000 0.00000
  184 0.00000 0.00000 0.00000
  185 0.00000 0.00000 0.00000
  186 0.00000 0.00000 0.00000
  187 0.00000 0.00000 0.00000
  188 0.00000 0.00000 0.00000
  189 0.00000 0.00000 0.00000
  190 0.00000 0.00000 0.00000
  191 0.00000 0.00000 0.00000
  192 0.00000 0.00000 0.00000
  193 0.00000 0.00000 0.00000
  194 0.00000 0.00000 0.00000
  195 0.00000 0.00000 0.00000
  196 0.00000 0.00000 0.00000
  197 0.00000 0.00000 0.00000
  198 0.00000 0.00000 0.00000
  199 0.00000 0.00000 0.00000
  200 0.00000 0.00000 0.00000
  201 0.00000 0.00000 0.00000
  202 0.00000 0.00000 0.00000
  203 0.00000 0.00000 0.00000
  204 0.00000 0.00000 0.00000
  205 0.00000 0.00000 0.00000
  206 0.00000 0.00000 0.00000
  207 0.00000 0.00000 0.00000
  208 0.00000 0.00000 0.00000
  209 0.00000 0.00000 0.00000
  210 0.00000 0.00000 0.00000
  211 0.00000 0.00000 0.00000
  212 0.00000 0.00000 0.00000
  213 0.00000 0.00000 0.00000
  214 0.00000 0.00000 0.00000
  215 0.00000 0.00000 0.00000
  216 0.00000 0.00000 0.00000
  217 0.00000 0.00000 0.00000
  218 0.00000 0.00000 0.00000
  219 0.00000 0.00000 0.00000
  220 0.00000 0.00000 0.00000
  221 0.00000 0.00000 0.00000
  222 0.00000 0.00000 0.00000
  223 0.00000 0.00000 0.00000
  224 0.00000 0.00000 0.00000
  225 0.00000 0.00000 0.00000
  226 0.00000 0.00000 0.00000
  227 0.00000 0.00000 0.00000
  228 0.00000 0.00000 0.00000
  229 0.00000 0.00000 0.00000
  230 0.00000 0.00000 0.00000
  231 0.00000 0.00000 0.00000
  232 0.00000 0.00000 0.00000
  233 0.00000 0.00000 0.00000
  234 0.00000 0.00000 0.00000
  235 0.00000 0.00000 0.00000
  236 0.00000 0.00000 0.00000
  237 0.00000 0.00000 0.00000
  238 0.00000 0.00000 0.00000
  239 0.00000 0.00000 0.00000
  240 0.00000 0.00000 0.00000
  241 0.00000 0.00000 0.00000
</Section>

newXOutput 159

<Section columns = "stress_xx | stress_yy | stress_xy">
  1 0.00000 0.00000 0.00000
  2 0.00000 0.00000 0.00000
  3 0.00000 0.00000 0.00000
  4 0.00000 0.00000 0.00000
  5 0.00000 0.00000 0.00000
  6 0.00000 0.00000 0.00000
  7 0.00000 0.00000 0.00000
  8 0.00000 0.00000 0.00000
  9 0.00000 0.00000 0.00000
  10 0.00000 0.00000 0.00000
  11 0.00000 0.00000 0.00000
  12 0.00000 0.00000 0.00000
  13 0.00000 0.00000 0.00000
  14 0.00000 0.00000 0.00000
  15 0.00000 0.00000 0.00000
  16 0.00000 0.00000 0.00000
  17 0.00000 0.00000 0.00000
  18 0.00000 0.00000 0.00000
  19 0.00000 0.00000 0.00000
  20 0.00000 0.00000 0.00000
  21 0.00000 0.00000 0.00000
  22 0.00000 0.00000 0.00000
  23 0.00000 0.00000 0.00000
  24 0.00000 0.00000 0.00000
  25 0.00000 0.00000 0.00000
  26 0.00000 0.00000 0.00000
  27 0.00000 0.00000 0.00000
  28 0.00000 0.00000 0.00000
  29 0.00000 0.00000 0.00000
  30 0.00000 0.00000 0.00000
  31 0.00000 0.00000 0.00000
  32 0.00000 0.00000 0.00000
  33 0.00000 0.00000 0.00000
  34 0.00000 0.00000 0.00000
  35 0.00000 0.00000 0.00000
  36 0.00000 0.00000 0.00000
  37 0.00000 0.00000 0.00000
  38 0.00000 0.00000 0.00000
  39 0.00000 0.00000 0.00000
  40 0.00000 0.00000 0.00000
  41 0.00000 0.00000 0.00000
  42 0.00000 0.00000 0.00000
  43 0.00000 0.00000 0.00000
  44 0.00000 0.00000 0.00000
  45 0.00000 0.00000 0.00000
  46 0.00000 0.00000 0.00000
  47 0.00000 0.00000 0.00000
  48 0.00000 0.00000 0.00000
  49 0.00000 0.00000 0.00000
  50 0.00000 0.00000 0.00000
  51 0.00000 0.00000 0.00000
  52 0.00000 0.00000 0.00000
  53 0.00000 0.00000 0.00000
  54 0.00000 0.00000 0.00000
  55 0.00000 0.00000 0.00000
  56 0.00000 0.00000 0.00000
  57 0.00000 0.00000 0.00000
  58 0.00000 0.00000 0.00000
  59 0.00000 0.00000 0.00000
  60 0.00000 0.00000 0.00000
  61 0.00000 0.00000 0.00000
  62 0.00000 0.00000 0.00000
  63 0.00000 0.00000 0.00000
  64 0.00000 0.00000 0.00000
  65 0.00000 0.00000 0.00000
  66 0.00000 0.00000 0.00000
  67 0.00000 0.00000 0.00000
  68 0.00000 0.00000 0.00000
  69 0.00000 0.00000 0.00000
  70 0.00000 0.00000 0.00000
  71 0.00000 0.00000 0.00000
  72 0.00000 0.00000 0.00000
  73 0.00000 0.00000 0.00000
  74 0.00000 0.00000 0.00000
  75 0.00000 0.00000 0.00000
  76 0.00000 0.00000 0.00000
  77 0.00000 0.00000 0.00000
  78 0.00000 0.00000 0.00000
  79 0.00000 0.00000 0.00000
  80 0.00000 0.00000 0.00000
  81 0.00000 0.00000 0.00000
  82 0.00000 0.00000 0.00000
  83 0.00000 0.00000 0.00000
  84 0.00000 0.00000 0.00000
  85 0.00000 0.00000 0.00000
  86 0.00000 0.00000 0.00000
  87 0.00000 0.00000 0.00000
  88 0.00000 0.00000 0.00000
  89 0.00000 0.00000 0.00000
  90 0.00000 0.00000 0.00000
  91 0.00000 0.00000 0.00000
  92 0.00000 0.00000 0.00000
  93 0.00000 0.00000 0.00000
  94 0.00000 0.00000 0.00000
  95 0.00000 0.00000 0.00000
  96 0.00000 0.00000 0.00000
  97 0.00000 0.00000 0.00000
  98 0.00000 0.00000 0.00000
  99 0.00000 0.00000 0.00000
  100 0.00000 0.00000 0.00000
  101 0.00000 0.00000 0.00000
  102 0.00000 0.00000 0.00000
  103 0.00000 0.00000 0.00000
  104 0.00000 0.00000 0.00000
  105 0.00000 0.00000 0.00000
  106 0.00000 0.00000 0.00000
  107 0.00000 0.00000 0.00000
  108 0.00000 0.00000 0.00000
  109 0.00000 0.00000 0.00000
  110 0.00000 0.00000 0.00000
  111 0.00000 0.00000 0.00000
  112 0.00000 0.00000 0.00000
  113 0.00000 0.00000 0.00000
  114 0.00000 0.00000 0.00000
  115 0.00000 0.00000 0.00000
  116 0.00000 0.00000 0.00000
  117 0.00000 0.00000 0.00000
  118 0.00000 0.00000 0.00000
  119 0.00000 0.00000 0.00000
  120 0.00000 0.00000 0.00000
  121 0.00000 0.00000 0.00000
  122 0.00000 0.00000 0.00000
  123 0.00000 0.00000 0.00000
  124 0.00000 0.00000 0.00000
  125 0.00000 0.00000 0.00000
  126 0.00000 0.00000 0.00000
  127 0.00000 0.00000 0.00000
  128 0.00000 0.00000 0.00000
  129 0.00000 0.00000 0.00000
  130 0.00000 0.00000 0.00000
  131 0.00000 0.00000 0.00000
  132 0.00000 0.00000 0.00000
  133 0.00000 0.00000 0.00000
  134 0.00000 0.00000 0.00000
  135 0.00000 0.00000 0.00000
  136 0.00000 0.00000 0.00000
  137 0.00000 0.00000 0.00000
  138 0.00000 0.00000 0.00000
  139 0.00000 0.00000 0.00000
  140 0.00000 0.00000 0.00000
  141 0.00000 0.00000 0.00000
  142 0.00000 0.00000 0.00000
  143 0.00000 0.00000 0.00000
  144 0.00000 0.00000 0.00000
  145 0.00000 0.00000 0.00000
  146 0.00000 0.00000 0.00000
  147 0.00000 0.00000 0.00000
  148 0.00000 0.00000 0.00000
  149 0.00000 0.00000 0.00000
  150 0.00000 0.00000 0.00000
  151 0.00000 0.00000 0.00000
  152 0.00000 0.00000 0.00000
  153 0.00000 0.00000 0.00000
  154 0.00000 0.00000 0.00000
  155 0.00000 0.00000 0.00000
  156 0.00000 0.00000 0.00000
  157 0.00000 0.00000 0.00000
  158 0.00000 0.00000 0.00000
  159 0.00000 0.00000 0.00000
  160 0.00000 0.00000 0.00000
  161 0.00000 0.00000 0.00000
  162 0.00000 0.00000 0.00000
  163 0.00000 0.00000 0.00000
  164 0.00000 0.00000 0.00000
  165 0.00000 0.00000 0.00000
  166 0.00000 0.00000 0.00000
  167 0.00000 0.00000 0.00000
  168 0.00000 0.00000 0.00000
  169 0.00000 0.00000 0.00000
  170 0.00000 0.00000 0.00000
  171 0.00000 0.00000 0.00000
  172 0.00000 0.00000 0.00000
  173 0.00000 0.00000 0.00000
  174 0.00000 0.00000 0.00000
  175 0.00000 0.00000 0.00000
  176 0.00000 0.00000 0.00000
  177 0.00000 0.00000 0.00000
  178 0.00000 0.00000 0.00000
  179 0.00000 0.00000 0.00000
  180 0.00000 0.00000 0.00000
  181 0.00000 0.00000 0.00000
  182 0.00000 0.00000 0.00000
  183 0.00000 0.00000 0.00000
  184 0.00000 0.00000 0.00000
  185 0.00000 0.00000 0.00000
  186 0.00000 0.00000 0.00000
  187 0.00000 0.00000 0.00000
  188 0.00000 0.00000 0.00000
  189 0.00000 0.00000 0.00000
  190 0.00000 0.00000 0.00000
  191 0.00000 0.00000 0.00000
  192 0.00000 0.00000 0.00000
  193 0.00000 0.00000 0.00000
  194 0.00000 0.00000 0.00000
  195 0.00000 0.00000 0.00000
  196 0.00000 0.00000 0.00000
  197 0.00000 0.00000 0.00000
  198 0.00000 0.00000 0.00000
  199 0.00000 0.00000 0.00000
  200 0.00000 0.00000 0.00000
  201 0.00000 0.00000 0.00000
  202 0.00000 0.00000 0.00000
  203 0.00000 0.00000 0.00000
  204 0.00000 0.00000 0.00000
  205 0.00000 0.00000 0.00000
  206 0.00000 0.00000 0.00000
  207 0.00000 0.00000 0.00000
  208 0.00000 0.00000 0.00000
  209 0.00000 0.00000 0.00000
  210 0.00000 0.00000 0.00000
  211 0.00000 0.00000 0.00000
  212 0.00000 0.00000 0.00000
  213 0.00000 0.00000 0.00000
  214 0.00000 0.00000 0.00000
  215 0.00000 0.00000 0.00000
  216 0.00000 0.00000 0.00000
  217 0.00000 0.00000 0.00000
  218 0.00000 0.00000 0.00000
  219 0.00000 0.00000 0.00000
  220 0.00000 0.00000 0.00000
  221 0.00000 0.00000 0.00000
  222 0.00000 0.00000 0.00000
  223 0.00000 0.00000 0.00000
  224 0.00000 0.00000 0.00000
  225 0.00000 0.00000 0.00000
  226 0.00000 0.00000 0.00000
  227 0.00000 0.00000 0.00000
  228 0.00000 0.00000 0.00000
  229 0.00000 0.00000 0.00000
  230 0.00000 0.00000 0.00000
  231 0.00000 0.00000 0.00000
  232 0.00000 0.00000 0.00000
  233 0.00000 0.00000 0.00000
  234 0.00000 0.00000 0.00000
  235 0.00000 0.00000 0.00000
  236 0.00000 0.00000 0.00000
  237 0.00000 0.00000 0.00000
  238 0.00000 0.00000 0.00000
  239 0.00000 0.00000 0.00000
  240 0.00000 0.00000 0.00000
  241 0.00000 0.00000 0.00000
</Section>

newXOutput 160

<Section columns = "stress_xx | stress_yy | stress_xy">
  1 0.00000 0.00000 0.00000
  2 0.00000 0.00000 0.00000
  3 0.00000 0.00000 0.00000
  4 0.00000 0.00000 0.00000
  5 0.00000 0.00000 0.00000
  6 0.00000 0.00000 0.00000
  7 0.00000 0.00000 0.00000
  8 0.00000 0.00000 0.00000
  9 0.00000 0.00000 0.00000
  10 0.00000 0.00000 0.00000
  11 0.00000 0.00000 0.00000
  12 0.00000 0.00000 0.00000
  13 0.00000 0.00000 0.00000
  14 0.00000 0.00000 0.00000
  15 0.00000 0.00000 0.00000
  16 0.00000 0.00000 0.00000
  17 0.00000 0.00000 0.00000
  18 0.00000 0.00000 0.00000
  19 0.00000 0.00000 0.00000
  20 0.00000 0.00000 0.00000
  21 0.00000 0.00000 0.00000
  22 0.00000 0.00000 0.00000
  23 0.00000 0.00000 0.00000
  24 0.00000 0.00000 0.00000
  25 0.00000 0.00000 0.00000
  26 0.00000 0.00000 0.00000
  27 0.00000 0.00000 0.00000
  28 0.00000 0.00000 0.00000
  29 0.00000 0.00000 0.00000
  30 0.00000 0.00000 0.00000
  31 0.00000 0.00000 0.00000
  32 0.00000 0.00000 0.00000
  33 0.00000 0.00000 0.00000
  34 0.00000 0.00000 0.00000
  35 0.00000 0.00000 0.00000
  36 0.00000 0.00000 0.00000
  37 0.00000 0.00000 0.00000
  38 0.00000 0.00000 0.00000
  39 0.00000 0.00000 0.00000
  40 0.00000 0.00000 0.00000
  41 0.00000 0.00000 0.00000
  42 0.00000 0.00000 0.00000
  43 0.00000 0.00000 0.00000
  44 0.00000 0.00000 0.00000
  45 0.00000 0.00000 0.00000
  46 0.00000 0.00000 0.00000
  47 0.00000 0.00000 0.00000
  48 0.00000 0.00000 0.00000
  49 0.00000 0.00000 0.00000
  50 0.00000 0.00000 0.00000
  51 0.00000 0.00000 0.00000
  52 0.00000 0.00000 0.00000
  53 0.00000 0.00000 0.00000
  54 0.00000 0.00000 0.00000
  55 0.00000 0.00000 0.00000
  56 0.00000 0.00000 0.00000
  57 0.00000 0.00000 0.00000
  58 0.00000 0.00000 0.00000
  59 0.00000 0.00000 0.00000
  60 0.00000 0.00000 0.00000
  61 0.00000 0.00000 0.00000
  62 0.00000 0.00000 0.00000
  63 0.00000 0.00000 0.00000
  64 0.00000 0.00000 0.00000
  65 0.00000 0.00000 0.00000
  66 0.00000 0.00000 0.00000
  67 0.00000 0.00000 0.00000
  68 0.00000 0.00000 0.00000
  69 0.00000 0.00000 0.00000
  70 0.00000 0.00000 0.00000
  71 0.00000 0.00000 0.00000
  72 0.00000 0.00000 0.00000
  73 0.00000 0.00000 0.00000
  74 0.00000 0.00000 0.00000
  75 0.00000 0.00000 0.00000
  76 0.00000 0.00000 0.00000
  77 0.00000 0.00000 0.00000
  78 0.00000 0.00000 0.00000
  79 0.00000 0.00000 0.00000
  80 0.00000 0.00000 0.00000
  81 0.00000 0.00000 0.00000
  82 0.00000 0.00000 0.00000
  83 0.00000 0.00000 0.00000
  84 0.00000 0.00000 0.00000
  85 0.00000 0.00000 0.00000
  86 0.00000 0.00000 0.00000
  87 0.00000 0.00000 0.00000
  88 0.00000 0.00000 0.00000
  89 0.00000 0.00000 0.00000
  90 0.00000 0.00000 0.00000
  91 0.00000 0.00000 0.00000
  92 0.00000 0.00000 0.00000
  93 0.00000 0.00000 0.00000
  94 0.00000 0.00000 0.00000
  95 0.00000 0.00000 0.00000
  96 0.00000 0.00000 0.00000
  97 0.00000 0.00000 0.00000
  98 0.00000 0.00000 0.00000
  99 0.00000 0.00000 0.00000
  100 0.00000 0.00000 0.00000
  101 0.00000 0.00000 0.00000
  102 0.00000 0.00000 0.00000
  103 0.00000 0.00000 0.00000
  104 0.00000 0.00000 0.00000
  105 0.00000 0.00000 0.00000
  106 0.00000 0.00000 0.00000
  107 0.00000 0.00000 0.00000
  108 0.00000 0.00000 0.00000
  109 0.00000 0.00000 0.00000
  110 0.00000 0.00000 0.00000
  111 0.00000 0.00000 0.00000
  112 0.00000 0.00000 0.00000
  113 0.00000 0.00000 0.00000
  114 0.00000 0.00000 0.00000
  115 0.00000 0.00000 0.00000
  116 0.00000 0.00000 0.00000
  117 0.00000 0.00000 0.00000
  118 0.00000 0.00000 0.00000
  119 0.00000 0.00000 0.00000
  120 0.00000 0.00000 0.00000
  121 0.00000 0.00000 0.00000
  122 0.00000 0.00000 0.00000
  123 0.00000 0.00000 0.00000
  124 0.00000 0.00000 0.00000
  125 0.00000 0.00000 0.00000
  126 0.00000 0.00000 0.00000
  127 0.00000 0.00000 0.00000
  128 0.00000 0.00000 0.00000
  129 0.00000 0.00000 0.00000
  130 0.00000 0.00000 0.00000
  131 0.00000 0.00000 0.00000
  132 0.00000 0.00000 0.00000
  133 0.00000 0.00000 0.00000
  134 0.00000 0.00000 0.00000
  135 0.00000 0.00000 0.00000
  136 0.00000 0.00000 0.00000
  137 0.00000 0.00000 0.00000
  138 0.00000 0.00000 0.00000
  139 0.00000 0.00000 0.00000
  140 0.00000 0.00000 0.00000
  141 0.00000 0.00000 0.00000
  142 0.00000 0.00000 0.00000
  143 0.00000 0.00000 0.00000
  144 0.00000 0.00000 0.00000
  145 0.00000 0.00000 0.00000
  146 0.00000 0.00000 0.00000
  147 0.00000 0.00000 0.00000
  148 0.00000 0.00000 0.00000
  149 0.00000 0.00000 0.00000
  150 0.00000 0.00000 0.00000
  151 0.00000 0.00000 0.00000
  152 0.00000 0.00000 0.00000
  153 0.00000 0.00000 0.00000
  154 0.00000 0.00000 0.00000
  155 0.00000 0.00000 0.00000
  156 0.00000 0.00000 0.00000
  157 0.00000 0.00000 0.00000
  158 0.00000 0.00000 0.00000
  159 0.00000 0.00000 0.00000
  160 0.00000 0.00000 0.00000
  161 0.00000 0.00000 0.00000
  162 0.00000 0.00000 0.00000
  163 0.00000 0.00000 0.00000
  164 0.00000 0.00000 0.00000
  165 0.00000 0.00000 0.00000
  166 0.00000 0.00000 0.00000
  167 0.00000 0.00000 0.00000
  168 0.00000 0.00000 0.00000
  169 0.00000 0.00000 0.00000
  170 0.00000 0.00000 0.00000
  171 0.00000 0.00000 0.00000
  172 0.00000 0.00000 0.00000
  173 0.00000 0.00000 0.00000
  174 0.00000 0.00000 0.00000
  175 0.00000 0.00000 0.00000
  176 0.00000 0.00000 0.00000
  177 0.00000 0.00000 0.00000
  178 0.00000 0.00000 0.00000
  179 0.00000 0.00000 0.00000
  180 0.00000 0.00000 0.00000
  181 0.00000 0.00000 0.00000
  182 0.00000 0.00000 0.00000
  183 0.00000 0.00000 0.00000
  184 0.00000 0.00000 0.00000
  185 0.00000 0.00000 0.00000
  186 0.00000 0.00000 0.00000
  187 0.00000 0.00000 0.00000
  188 0.00000 0.00000 0.00000
  189 0.00000 0.00000 0.00000
  190 0.00000 0.00000 0.00000
  191 0.00000 0.00000 0.00000
  192 0.00000 0.00000 0.00000
  193 0.00000 0.00000 0.00000
  194 0.00000 0.00000 0.00000
  195 0.00000 0.00000 0.00000
  196 0.00000 0.00000 0.00000
  197 0.00000 0.00000 0.00000
  198 0.00000 0.00000 0.00000
  199 0.00000 0.00000 0.00000
  200 0.00000 0.00000 0.00000
  201 0.00000 0.00000 0.00000
  202 0.00000 0.00000 0.00000
  203 0.00000 0.00000 0.00000
  204 0.00000 0.00000 0.00000
  205 0.00000 0.00000 0.00000
  206 0.00000 0.00000 0.00000
  207 0.00000 0.00000 0.00000
  208 0.00000 0.00000 0.00000
  209 0.00000 0.00000 0.00000
  210 0.00000 0.00000 0.00000
  211 0.00000 0.00000 0.00000
  212 0.00000 0.00000 0.00000
  213 0.00000 0.00000 0.00000
  214 0.00000 0.00000 0.00000
  215 0.00000 0.00000 0.00000
  216 0.00000 0.00000 0.00000
  217 0.00000 0.00000 0.00000
  218 0.00000 0.00000 0.00000
  219 0.00000 0.00000 0.00000
  220 0.00000 0.00000 0.00000
  221 0.00000 0.00000 0.00000
  222 0.00000 0.00000 0.00000
  223 0.00000 0.00000 0.00000
  224 0.00000 0.00000 0.00000
  225 0.00000 0.00000 0.00000
  226 0.00000 0.00000 0.00000
  227 0.00000 0.00000 0.00000
  228 0.00000 0.00000 0.00000
  229 0.00000 0.00000 0.00000
  230 0.00000 0.00000 0.00000
  231 0.00000 0.00000 0.00000
  232 0.00000 0.00000 0.00000
  233 0.00000 0.00000 0.00000
  234 0.00000 0.00000 0.00000
  235 0.00000 0.00000 0.00000
  236 0.00000 0.00000 0.00000
  237 0.00000 0.00000 0.00000
  238 0.00000 0.00000 0.00000
  239 0.00000 0.00000 0.00000
  240 0.00000 0.00000 0.00000
  241 0.00000 0.00000 0.00000
</Section>

newXOutput 161

<Section columns = "stress_xx | stress_yy | stress_xy">
  1 0.00000 0.00000 0.00000
  2 0.00000 0.00000 0.00000
  3 0.00000 0.00000 0.00000
  4 0.00000 0.00000 0.00000
  5 0.00000 0.00000 0.00000
  6 0.00000 0.00000 0.00000
  7 0.00000 0.00000 0.00000
  8 0.00000 0.00000 0.00000
  9 0.00000 0.00000 0.00000
  10 0.00000 0.00000 0.00000
  11 0.00000 0.00000 0.00000
  12 0.00000 0.00000 0.00000
  13 0.00000 0.00000 0.00000
  14 0.00000 0.00000 0.00000
  15 0.00000 0.00000 0.00000
  16 0.00000 0.00000 0.00000
  17 0.00000 0.00000 0.00000
  18 0.00000 0.00000 0.00000
  19 0.00000 0.00000 0.00000
  20 0.00000 0.00000 0.00000
  21 0.00000 0.00000 0.00000
  22 0.00000 0.00000 0.00000
  23 0.00000 0.00000 0.00000
  24 0.00000 0.00000 0.00000
  25 0.00000 0.00000 0.00000
  26 0.00000 0.00000 0.00000
  27 0.00000 0.00000 0.00000
  28 0.00000 0.00000 0.00000
  29 0.00000 0.00000 0.00000
  30 0.00000 0.00000 0.00000
  31 0.00000 0.00000 0.00000
  32 0.00000 0.00000 0.00000
  33 0.00000 0.00000 0.00000
  34 0.00000 0.00000 0.00000
  35 0.00000 0.00000 0.00000
  36 0.00000 0.00000 0.00000
  37 0.00000 0.00000 0.00000
  38 0.00000 0.00000 0.00000
  39 0.00000 0.00000 0.00000
  40 0.00000 0.00000 0.00000
  41 0.00000 0.00000 0.00000
  42 0.00000 0.00000 0.00000
  43 0.00000 0.00000 0.00000
  44 0.00000 0.00000 0.00000
  45 0.00000 0.00000 0.00000
  46 0.00000 0.00000 0.00000
  47 0.00000 0.00000 0.00000
  48 0.00000 0.00000 0.00000
  49 0.00000 0.00000 0.00000
  50 0.00000 0.00000 0.00000
  51 0.00000 0.00000 0.00000
  52 0.00000 0.00000 0.00000
  53 0.00000 0.00000 0.00000
  54 0.00000 0.00000 0.00000
  55 0.00000 0.00000 0.00000
  56 0.00000 0.00000 0.00000
  57 0.00000 0.00000 0.00000
  58 0.00000 0.00000 0.00000
  59 0.00000 0.00000 0.00000
  60 0.00000 0.00000 0.00000
  61 0.00000 0.00000 0.00000
  62 0.00000 0.00000 0.00000
  63 0.00000 0.00000 0.00000
  64 0.00000 0.00000 0.00000
  65 0.00000 0.00000 0.00000
  66 0.00000 0.00000 0.00000
  67 0.00000 0.00000 0.00000
  68 0.00000 0.00000 0.00000
  69 0.00000 0.00000 0.00000
  70 0.00000 0.00000 0.00000
  71 0.00000 0.00000 0.00000
  72 0.00000 0.00000 0.00000
  73 0.00000 0.00000 0.00000
  74 0.00000 0.00000 0.00000
  75 0.00000 0.00000 0.00000
  76 0.00000 0.00000 0.00000
  77 0.00000 0.00000 0.00000
  78 0.00000 0.00000 0.00000
  79 0.00000 0.00000 0.00000
  80 0.00000 0.00000 0.00000
  81 0.00000 0.00000 0.00000
  82 0.00000 0.00000 0.00000
  83 0.00000 0.00000 0.00000
  84 0.00000 0.00000 0.00000
  85 0.00000 0.00000 0.00000
  86 0.00000 0.00000 0.00000
  87 0.00000 0.00000 0.00000
  88 0.00000 0.00000 0.00000
  89 0.00000 0.00000 0.00000
  90 0.00000 0.00000 0.00000
  91 0.00000 0.00000 0.00000
  92 0.00000 0.00000 0.00000
  93 0.00000 0.00000 0.00000
  94 0.00000 0.00000 0.00000
  95 0.00000 0.00000 0.00000
  96 0.00000 0.00000 0.00000
  97 0.00000 0.00000 0.00000
  98 0.00000 0.00000 0.00000
  99 0.00000 0.00000 0.00000
  100 0.00000 0.00000 0.00000
  101 0.00000 0.00000 0.00000
  102 0.00000 0.00000 0.00000
  103 0.00000 0.00000 0.00000
  104 0.00000 0.00000 0.00000
  105 0.00000 0.00000 0.00000
  106 0.00000 0.00000 0.00000
  107 0.00000 0.00000 0.00000
  108 0.00000 0.00000 0.00000
  109 0.00000 0.00000 0.00000
  110 0.00000 0.00000 0.00000
  111 0.00000 0.00000 0.00000
  112 0.00000 0.00000 0.00000
  113 0.00000 0.00000 0.00000
  114 0.00000 0.00000 0.00000
  115 0.00000 0.00000 0.00000
  116 0.00000 0.00000 0.00000
  117 0.00000 0.00000 0.00000
  118 0.00000 0.00000 0.00000
  119 0.00000 0.00000 0.00000
  120 0.00000 0.00000 0.00000
  121 0.00000 0.00000 0.00000
  122 0.00000 0.00000 0.00000
  123 0.00000 0.00000 0.00000
  124 0.00000 0.00000 0.00000
  125 0.00000 0.00000 0.00000
  126 0.00000 0.00000 0.00000
  127 0.00000 0.00000 0.00000
  128 0.00000 0.00000 0.00000
  129 0.00000 0.00000 0.00000
  130 0.00000 0.00000 0.00000
  131 0.00000 0.00000 0.00000
  132 0.00000 0.00000 0.00000
  133 0.00000 0.00000 0.00000
  134 0.00000 0.00000 0.00000
  135 0.00000 0.00000 0.00000
  136 0.00000 0.00000 0.00000
  137 0.00000 0.00000 0.00000
  138 0.00000 0.00000 0.00000
  139 0.00000 0.00000 0.00000
  140 0.00000 0.00000 0.00000
  141 0.00000 0.00000 0.00000
  142 0.00000 0.00000 0.00000
  143 0.00000 0.00000 0.00000
  144 0.00000 0.00000 0.00000
  145 0.00000 0.00000 0.00000
  146 0.00000 0.00000 0.00000
  147 0.00000 0.00000 0.00000
  148 0.00000 0.00000 0.00000
  149 0.00000 0.00000 0.00000
  150 0.00000 0.00000 0.00000
  151 0.00000 0.00000 0.00000
  152 0.00000 0.00000 0.00000
  153 0.00000 0.00000 0.00000
  154 0.00000 0.00000 0.00000
  155 0.00000 0.00000 0.00000
  156 0.00000 0.00000 0.00000
  157 0.00000 0.00000 0.00000
  158 0.00000 0.00000 0.00000
  159 0.00000 0.00000 0.00000
  160 0.00000 0.00000 0.00000
  161 0.00000 0.00000 0.00000
  162 0.00000 0.00000 0.00000
  163 0.00000 0.00000 0.00000
  164 0.00000 0.00000 0.00000
  165 0.00000 0.00000 0.00000
  166 0.00000 0.00000 0.00000
  167 0.00000 0.00000 0.00000
  168 0.00000 0.00000 0.00000
  169 0.00000 0.00000 0.00000
  170 0.00000 0.00000 0.00000
  171 0.00000 0.00000 0.00000
  172 0.00000 0.00000 0.00000
  173 0.00000 0.00000 0.00000
  174 0.00000 0.00000 0.00000
  175 0.00000 0.00000 0.00000
  176 0.00000 0.00000 0.00000
  177 0.00000 0.00000 0.00000
  178 0.00000 0.00000 0.00000
  179 0.00000 0.00000 0.00000
  180 0.00000 0.00000 0.00000
  181 0.00000 0.00000 0.00000
  182 0.00000 0.00000 0.00000
  183 0.00000 0.00000 0.00000
  184 0.00000 0.00000 0.00000
  185 0.00000 0.00000 0.00000
  186 0.00000 0.00000 0.00000
  187 0.00000 0.00000 0.00000
  188 0.00000 0.00000 0.00000
  189 0.00000 0.00000 0.00000
  190 0.00000 0.00000 0.00000
  191 0.00000 0.00000 0.00000
  192 0.00000 0.00000 0.00000
  193 0.00000 0.00000 0.00000
  194 0.00000 0.00000 0.00000
  195 0.00000 0.00000 0.00000
  196 0.00000 0.00000 0.00000
  197 0.00000 0.00000 0.00000
  198 0.00000 0.00000 0.00000
  199 0.00000 0.00000 0.00000
  200 0.00000 0.00000 0.00000
  201 0.00000 0.00000 0.00000
  202 0.00000 0.00000 0.00000
  203 0.00000 0.00000 0.00000
  204 0.00000 0.00000 0.00000
  205 0.00000 0.00000 0.00000
  206 0.00000 0.00000 0.00000
  207 0.00000 0.00000 0.00000
  208 0.00000 0.00000 0.00000
  209 0.00000 0.00000 0.00000
  210 0.00000 0.00000 0.00000
  211 0.00000 0.00000 0.00000
  212 0.00000 0.00000 0.00000
  213 0.00000 0.00000 0.00000
  214 0.00000 0.00000 0.00000
  215 0.00000 0.00000 0.00000
  216 0.00000 0.00000 0.00000
  217 0.00000 0.00000 0.00000
  218 0.00000 0.00000 0.00000
  219 0.00000 0.00000 0.00000
  220 0.00000 0.00000 0.00000
  221 0.00000 0.00000 0.00000
  222 0.00000 0.00000 0.00000
  223 0.00000 0.00000 0.00000
  224 0.00000 0.00000 0.00000
  225 0.00000 0.00000 0.00000
  226 0.00000 0.00000 0.00000
  227 0.00000 0.00000 0.00000
  228 0.00000 0.00000 0.00000
  229 0.00000 0.00000 0.00000
  230 0.00000 0.00000 0.00000
  231 0.00000 0.00000 0.00000
  232 0.00000 0.00000 0.00000
  233 0.00000 0.00000 0.00000
  234 0.00000 0.00000 0.00000
  235 0.00000 0.00000 0.00000
  236 0.00000 0.00000 0.00000
  237 0.00000 0.00000 0.00000
  238 0.00000 0.00000 0.00000
  239 0.00000 0.00000 0.00000
  240 0.00000 0.00000 0.00000
  241 0.00000 0.00000 0.00000
</Section>

newXOutput 162

<Section columns = "stress_xx | stress_yy | stress_xy">
  1 0.00000 0.00000 0.00000
  2 0.00000 0.00000 0.00000
  3 0.00000 0.00000 0.00000
  4 0.00000 0.00000 0.00000
  5 0.00000 0.00000 0.00000
  6 0.00000 0.00000 0.00000
  7 0.00000 0.00000 0.00000
  8 0.00000 0.00000 0.00000
  9 0.00000 0.00000 0.00000
  10 0.00000 0.00000 0.00000
  11 0.00000 0.00000 0.00000
  12 0.00000 0.00000 0.00000
  13 0.00000 0.00000 0.00000
  14 0.00000 0.00000 0.00000
  15 0.00000 0.00000 0.00000
  16 0.00000 0.00000 0.00000
  17 0.00000 0.00000 0.00000
  18 0.00000 0.00000 0.00000
  19 0.00000 0.00000 0.00000
  20 0.00000 0.00000 0.00000
  21 0.00000 0.00000 0.00000
  22 0.00000 0.00000 0.00000
  23 0.00000 0.00000 0.00000
  24 0.00000 0.00000 0.00000
  25 0.00000 0.00000 0.00000
  26 0.00000 0.00000 0.00000
  27 0.00000 0.00000 0.00000
  28 0.00000 0.00000 0.00000
  29 0.00000 0.00000 0.00000
  30 0.00000 0.00000 0.00000
  31 0.00000 0.00000 0.00000
  32 0.00000 0.00000 0.00000
  33 0.00000 0.00000 0.00000
  34 0.00000 0.00000 0.00000
  35 0.00000 0.00000 0.00000
  36 0.00000 0.00000 0.00000
  37 0.00000 0.00000 0.00000
  38 0.00000 0.00000 0.00000
  39 0.00000 0.00000 0.00000
  40 0.00000 0.00000 0.00000
  41 0.00000 0.00000 0.00000
  42 0.00000 0.00000 0.00000
  43 0.00000 0.00000 0.00000
  44 0.00000 0.00000 0.00000
  45 0.00000 0.00000 0.00000
  46 0.00000 0.00000 0.00000
  47 0.00000 0.00000 0.00000
  48 0.00000 0.00000 0.00000
  49 0.00000 0.00000 0.00000
  50 0.00000 0.00000 0.00000
  51 0.00000 0.00000 0.00000
  52 0.00000 0.00000 0.00000
  53 0.00000 0.00000 0.00000
  54 0.00000 0.00000 0.00000
  55 0.00000 0.00000 0.00000
  56 0.00000 0.00000 0.00000
  57 0.00000 0.00000 0.00000
  58 0.00000 0.00000 0.00000
  59 0.00000 0.00000 0.00000
  60 0.00000 0.00000 0.00000
  61 0.00000 0.00000 0.00000
  62 0.00000 0.00000 0.00000
  63 0.00000 0.00000 0.00000
  64 0.00000 0.00000 0.00000
  65 0.00000 0.00000 0.00000
  66 0.00000 0.00000 0.00000
  67 0.00000 0.00000 0.00000
  68 0.00000 0.00000 0.00000
  69 0.00000 0.00000 0.00000
  70 0.00000 0.00000 0.00000
  71 0.00000 0.00000 0.00000
  72 0.00000 0.00000 0.00000
  73 0.00000 0.00000 0.00000
  74 0.00000 0.00000 0.00000
  75 0.00000 0.00000 0.00000
  76 0.00000 0.00000 0.00000
  77 0.00000 0.00000 0.00000
  78 0.00000 0.00000 0.00000
  79 0.00000 0.00000 0.00000
  80 0.00000 0.00000 0.00000
  81 0.00000 0.00000 0.00000
  82 0.00000 0.00000 0.00000
  83 0.00000 0.00000 0.00000
  84 0.00000 0.00000 0.00000
  85 0.00000 0.00000 0.00000
  86 0.00000 0.00000 0.00000
  87 0.00000 0.00000 0.00000
  88 0.00000 0.00000 0.00000
  89 0.00000 0.00000 0.00000
  90 0.00000 0.00000 0.00000
  91 0.00000 0.00000 0.00000
  92 0.00000 0.00000 0.00000
  93 0.00000 0.00000 0.00000
  94 0.00000 0.00000 0.00000
  95 0.00000 0.00000 0.00000
  96 0.00000 0.00000 0.00000
  97 0.00000 0.00000 0.00000
  98 0.00000 0.00000 0.00000
  99 0.00000 0.00000 0.00000
  100 0.00000 0.00000 0.00000
  101 0.00000 0.00000 0.00000
  102 0.00000 0.00000 0.00000
  103 0.00000 0.00000 0.00000
  104 0.00000 0.00000 0.00000
  105 0.00000 0.00000 0.00000
  106 0.00000 0.00000 0.00000
  107 0.00000 0.00000 0.00000
  108 0.00000 0.00000 0.00000
  109 0.00000 0.00000 0.00000
  110 0.00000 0.00000 0.00000
  111 0.00000 0.00000 0.00000
  112 0.00000 0.00000 0.00000
  113 0.00000 0.00000 0.00000
  114 0.00000 0.00000 0.00000
  115 0.00000 0.00000 0.00000
  116 0.00000 0.00000 0.00000
  117 0.00000 0.00000 0.00000
  118 0.00000 0.00000 0.00000
  119 0.00000 0.00000 0.00000
  120 0.00000 0.00000 0.00000
  121 0.00000 0.00000 0.00000
  122 0.00000 0.00000 0.00000
  123 0.00000 0.00000 0.00000
  124 0.00000 0.00000 0.00000
  125 0.00000 0.00000 0.00000
  126 0.00000 0.00000 0.00000
  127 0.00000 0.00000 0.00000
  128 0.00000 0.00000 0.00000
  129 0.00000 0.00000 0.00000
  130 0.00000 0.00000 0.00000
  131 0.00000 0.00000 0.00000
  132 0.00000 0.00000 0.00000
  133 0.00000 0.00000 0.00000
  134 0.00000 0.00000 0.00000
  135 0.00000 0.00000 0.00000
  136 0.00000 0.00000 0.00000
  137 0.00000 0.00000 0.00000
  138 0.00000 0.00000 0.00000
  139 0.00000 0.00000 0.00000
  140 0.00000 0.00000 0.00000
  141 0.00000 0.00000 0.00000
  142 0.00000 0.00000 0.00000
  143 0.00000 0.00000 0.00000
  144 0.00000 0.00000 0.00000
  145 0.00000 0.00000 0.00000
  146 0.00000 0.00000 0.00000
  147 0.00000 0.00000 0.00000
  148 0.00000 0.00000 0.00000
  149 0.00000 0.00000 0.00000
  150 0.00000 0.00000 0.00000
  151 0.00000 0.00000 0.00000
  152 0.00000 0.00000 0.00000
  153 0.00000 0.00000 0.00000
  154 0.00000 0.00000 0.00000
  155 0.00000 0.00000 0.00000
  156 0.00000 0.00000 0.00000
  157 0.00000 0.00000 0.00000
  158 0.00000 0.00000 0.00000
  159 0.00000 0.00000 0.00000
  160 0.00000 0.00000 0.00000
  161 0.00000 0.00000 0.00000
  162 0.00000 0.00000 0.00000
  163 0.00000 0.00000 0.00000
  164 0.00000 0.00000 0.00000
  165 0.00000 0.00000 0.00000
  166 0.00000 0.00000 0.00000
  167 0.00000 0.00000 0.00000
  168 0.00000 0.00000 0.00000
  169 0.00000 0.00000 0.00000
  170 0.00000 0.00000 0.00000
  171 0.00000 0.00000 0.00000
  172 0.00000 0.00000 0.00000
  173 0.00000 0.00000 0.00000
  174 0.00000 0.00000 0.00000
  175 0.00000 0.00000 0.00000
  176 0.00000 0.00000 0.00000
  177 0.00000 0.00000 0.00000
  178 0.00000 0.00000 0.00000
  179 0.00000 0.00000 0.00000
  180 0.00000 0.00000 0.00000
  181 0.00000 0.00000 0.00000
  182 0.00000 0.00000 0.00000
  183 0.00000 0.00000 0.00000
  184 0.00000 0.00000 0.00000
  185 0.00000 0.00000 0.00000
  186 0.00000 0.00000 0.00000
  187 0.00000 0.00000 0.00000
  188 0.00000 0.00000 0.00000
  189 0.00000 0.00000 0.00000
  190 0.00000 0.00000 0.00000
  191 0.00000 0.00000 0.00000
  192 0.00000 0.00000 0.00000
  193 0.00000 0.00000 0.00000
  194 0.00000 0.00000 0.00000
  195 0.00000 0.00000 0.00000
  196 0.00000 0.00000 0.00000
  197 0.00000 0.00000 0.00000
  198 0.00000 0.00000 0.00000
  199 0.00000 0.00000 0.00000
  200 0.00000 0.00000 0.00000
  201 0.00000 0.00000 0.00000
  202 0.00000 0.00000 0.00000
  203 0.00000 0.00000 0.00000
  204 0.00000 0.00000 0.00000
  205 0.00000 0.00000 0.00000
  206 0.00000 0.00000 0.00000
  207 0.00000 0.00000 0.00000
  208 0.00000 0.00000 0.00000
  209 0.00000 0.00000 0.00000
  210 0.00000 0.00000 0.00000
  211 0.00000 0.00000 0.00000
  212 0.00000 0.00000 0.00000
  213 0.00000 0.00000 0.00000
  214 0.00000 0.00000 0.00000
  215 0.00000 0.00000 0.00000
  216 0.00000 0.00000 0.00000
  217 0.00000 0.00000 0.00000
  218 0.00000 0.00000 0.00000
  219 0.00000 0.00000 0.00000
  220 0.00000 0.00000 0.00000
  221 0.00000 0.00000 0.00000
  222 0.00000 0.00000 0.00000
  223 0.00000 0.00000 0.00000
  224 0.00000 0.00000 0.00000
  225 0.00000 0.00000 0.00000
  226 0.00000 0.00000 0.00000
  227 0.00000 0.00000 0.00000
  228 0.00000 0.00000 0.00000
  229 0.00000 0.00000 0.00000
  230 0.00000 0.00000 0.00000
  231 0.00000 0.00000 0.00000
  232 0.00000 0.00000 0.00000
  233 0.00000 0.00000 0.00000
  234 0.00000 0.00000 0.00000
  235 0.00000 0.00000 0.00000
  236 0.00000 0.00000 0.00000
  237 0.00000 0.00000 0.00000
  238 0.00000 0.00000 0.00000
  239 0.00000 0.00000 0.00000
  240 0.00000 0.00000 0.00000
  241 0.00000 0.00000 0.00000
</Section>

newXOutput 163

<Section columns = "stress_xx | stress_yy | stress_xy">
  1 0.00000 0.00000 0.00000
  2 0.00000 0.00000 0.00000
  3 0.00000 0.00000 0.00000
  4 0.00000 0.00000 0.00000
  5 0.00000 0.00000 0.00000
  6 0.00000 0.00000 0.00000
  7 0.00000 0.00000 0.00000
  8 0.00000 0.00000 0.00000
  9 0.00000 0.00000 0.00000
  10 0.00000 0.00000 0.00000
  11 0.00000 0.00000 0.00000
  12 0.00000 0.00000 0.00000
  13 0.00000 0.00000 0.00000
  14 0.00000 0.00000 0.00000
  15 0.00000 0.00000 0.00000
  16 0.00000 0.00000 0.00000
  17 0.00000 0.00000 0.00000
  18 0.00000 0.00000 0.00000
  19 0.00000 0.00000 0.00000
  20 0.00000 0.00000 0.00000
  21 0.00000 0.00000 0.00000
  22 0.00000 0.00000 0.00000
  23 0.00000 0.00000 0.00000
  24 0.00000 0.00000 0.00000
  25 0.00000 0.00000 0.00000
  26 0.00000 0.00000 0.00000
  27 0.00000 0.00000 0.00000
  28 0.00000 0.00000 0.00000
  29 0.00000 0.00000 0.00000
  30 0.00000 0.00000 0.00000
  31 0.00000 0.00000 0.00000
  32 0.00000 0.00000 0.00000
  33 0.00000 0.00000 0.00000
  34 0.00000 0.00000 0.00000
  35 0.00000 0.00000 0.00000
  36 0.00000 0.00000 0.00000
  37 0.00000 0.00000 0.00000
  38 0.00000 0.00000 0.00000
  39 0.00000 0.00000 0.00000
  40 0.00000 0.00000 0.00000
  41 0.00000 0.00000 0.00000
  42 0.00000 0.00000 0.00000
  43 0.00000 0.00000 0.00000
  44 0.00000 0.00000 0.00000
  45 0.00000 0.00000 0.00000
  46 0.00000 0.00000 0.00000
  47 0.00000 0.00000 0.00000
  48 0.00000 0.00000 0.00000
  49 0.00000 0.00000 0.00000
  50 0.00000 0.00000 0.00000
  51 0.00000 0.00000 0.00000
  52 0.00000 0.00000 0.00000
  53 0.00000 0.00000 0.00000
  54 0.00000 0.00000 0.00000
  55 0.00000 0.00000 0.00000
  56 0.00000 0.00000 0.00000
  57 0.00000 0.00000 0.00000
  58 0.00000 0.00000 0.00000
  59 0.00000 0.00000 0.00000
  60 0.00000 0.00000 0.00000
  61 0.00000 0.00000 0.00000
  62 0.00000 0.00000 0.00000
  63 0.00000 0.00000 0.00000
  64 0.00000 0.00000 0.00000
  65 0.00000 0.00000 0.00000
  66 0.00000 0.00000 0.00000
  67 0.00000 0.00000 0.00000
  68 0.00000 0.00000 0.00000
  69 0.00000 0.00000 0.00000
  70 0.00000 0.00000 0.00000
  71 0.00000 0.00000 0.00000
  72 0.00000 0.00000 0.00000
  73 0.00000 0.00000 0.00000
  74 0.00000 0.00000 0.00000
  75 0.00000 0.00000 0.00000
  76 0.00000 0.00000 0.00000
  77 0.00000 0.00000 0.00000
  78 0.00000 0.00000 0.00000
  79 0.00000 0.00000 0.00000
  80 0.00000 0.00000 0.00000
  81 0.00000 0.00000 0.00000
  82 0.00000 0.00000 0.00000
  83 0.00000 0.00000 0.00000
  84 0.00000 0.00000 0.00000
  85 0.00000 0.00000 0.00000
  86 0.00000 0.00000 0.00000
  87 0.00000 0.00000 0.00000
  88 0.00000 0.00000 0.00000
  89 0.00000 0.00000 0.00000
  90 0.00000 0.00000 0.00000
  91 0.00000 0.00000 0.00000
  92 0.00000 0.00000 0.00000
  93 0.00000 0.00000 0.00000
  94 0.00000 0.00000 0.00000
  95 0.00000 0.00000 0.00000
  96 0.00000 0.00000 0.00000
  97 0.00000 0.00000 0.00000
  98 0.00000 0.00000 0.00000
  99 0.00000 0.00000 0.00000
  100 0.00000 0.00000 0.00000
  101 0.00000 0.00000 0.00000
  102 0.00000 0.00000 0.00000
  103 0.00000 0.00000 0.00000
  104 0.00000 0.00000 0.00000
  105 0.00000 0.00000 0.00000
  106 0.00000 0.00000 0.00000
  107 0.00000 0.00000 0.00000
  108 0.00000 0.00000 0.00000
  109 0.00000 0.00000 0.00000
  110 0.00000 0.00000 0.00000
  111 0.00000 0.00000 0.00000
  112 0.00000 0.00000 0.00000
  113 0.00000 0.00000 0.00000
  114 0.00000 0.00000 0.00000
  115 0.00000 0.00000 0.00000
  116 0.00000 0.00000 0.00000
  117 0.00000 0.00000 0.00000
  118 0.00000 0.00000 0.00000
  119 0.00000 0.00000 0.00000
  120 0.00000 0.00000 0.00000
  121 0.00000 0.00000 0.00000
  122 0.00000 0.00000 0.00000
  123 0.00000 0.00000 0.00000
  124 0.00000 0.00000 0.00000
  125 0.00000 0.00000 0.00000
  126 0.00000 0.00000 0.00000
  127 0.00000 0.00000 0.00000
  128 0.00000 0.00000 0.00000
  129 0.00000 0.00000 0.00000
  130 0.00000 0.00000 0.00000
  131 0.00000 0.00000 0.00000
  132 0.00000 0.00000 0.00000
  133 0.00000 0.00000 0.00000
  134 0.00000 0.00000 0.00000
  135 0.00000 0.00000 0.00000
  136 0.00000 0.00000 0.00000
  137 0.00000 0.00000 0.00000
  138 0.00000 0.00000 0.00000
  139 0.00000 0.00000 0.00000
  140 0.00000 0.00000 0.00000
  141 0.00000 0.00000 0.00000
  142 0.00000 0.00000 0.00000
  143 0.00000 0.00000 0.00000
  144 0.00000 0.00000 0.00000
  145 0.00000 0.00000 0.00000
  146 0.00000 0.00000 0.00000
  147 0.00000 0.00000 0.00000
  148 0.00000 0.00000 0.00000
  149 0.00000 0.00000 0.00000
  150 0.00000 0.00000 0.00000
  151 0.00000 0.00000 0.00000
  152 0.00000 0.00000 0.00000
  153 0.00000 0.00000 0.00000
  154 0.00000 0.00000 0.00000
  155 0.00000 0.00000 0.00000
  156 0.00000 0.00000 0.00000
  157 0.00000 0.00000 0.00000
  158 0.00000 0.00000 0.00000
  159 0.00000 0.00000 0.00000
  160 0.00000 0.00000 0.00000
  161 0.00000 0.00000 0.00000
  162 0.00000 0.00000 0.00000
  163 0.00000 0.00000 0.00000
  164 0.00000 0.00000 0.00000
  165 0.00000 0.00000 0.00000
  166 0.00000 0.00000 0.00000
  167 0.00000 0.00000 0.00000
  168 0.00000 0.00000 0.00000
  169 0.00000 0.00000 0.00000
  170 0.00000 0.00000 0.00000
  171 0.00000 0.00000 0.00000
  172 0.00000 0.00000 0.00000
  173 0.00000 0.00000 0.00000
  174 0.00000 0.00000 0.00000
  175 0.00000 0.00000 0.00000
  176 0.00000 0.00000 0.00000
  177 0.00000 0.00000 0.00000
  178 0.00000 0.00000 0.00000
  179 0.00000 0.00000 0.00000
  180 0.00000 0.00000 0.00000
  181 0.00000 0.00000 0.00000
  182 0.00000 0.00000 0.00000
  183 0.00000 0.00000 0.00000
  184 0.00000 0.00000 0.00000
  185 0.00000 0.00000 0.00000
  186 0.00000 0.00000 0.00000
  187 0.00000 0.00000 0.00000
  188 0.00000 0.00000 0.00000
  189 0.00000 0.00000 0.00000
  190 0.00000 0.00000 0.00000
  191 0.00000 0.00000 0.00000
  192 0.00000 0.00000 0.00000
  193 0.00000 0.00000 0.00000
  194 0.00000 0.00000 0.00000
  195 0.00000 0.00000 0.00000
  196 0.00000 0.00000 0.00000
  197 0.00000 0.00000 0.00000
  198 0.00000 0.00000 0.00000
  199 0.00000 0.00000 0.00000
  200 0.00000 0.00000 0.00000
  201 0.00000 0.00000 0.00000
  202 0.00000 0.00000 0.00000
  203 0.00000 0.00000 0.00000
  204 0.00000 0.00000 0.00000
  205 0.00000 0.00000 0.00000
  206 0.00000 0.00000 0.00000
  207 0.00000 0.00000 0.00000
  208 0.00000 0.00000 0.00000
  209 0.00000 0.00000 0.00000
  210 0.00000 0.00000 0.00000
  211 0.00000 0.00000 0.00000
  212 0.00000 0.00000 0.00000
  213 0.00000 0.00000 0.00000
  214 0.00000 0.00000 0.00000
  215 0.00000 0.00000 0.00000
  216 0.00000 0.00000 0.00000
  217 0.00000 0.00000 0.00000
  218 0.00000 0.00000 0.00000
  219 0.00000 0.00000 0.00000
  220 0.00000 0.00000 0.00000
  221 0.00000 0.00000 0.00000
  222 0.00000 0.00000 0.00000
  223 0.00000 0.00000 0.00000
  224 0.00000 0.00000 0.00000
  225 0.00000 0.00000 0.00000
  226 0.00000 0.00000 0.00000
  227 0.00000 0.00000 0.00000
  228 0.00000 0.00000 0.00000
  229 0.00000 0.00000 0.00000
  230 0.00000 0.00000 0.00000
  231 0.00000 0.00000 0.00000
  232 0.00000 0.00000 0.00000
  233 0.00000 0.00000 0.00000
  234 0.00000 0.00000 0.00000
  235 0.00000 0.00000 0.00000
  236 0.00000 0.00000 0.00000
  237 0.00000 0.00000 0.00000
  238 0.00000 0.00000 0.00000
  239 0.00000 0.00000 0.00000
  240 0.00000 0.00000 0.00000
  241 0.00000 0.00000 0.00000
</Section>

newXOutput 164

<Section columns = "stress_xx | stress_yy | stress_xy">
  1 0.00000 0.00000 0.00000
  2 0.00000 0.00000 0.00000
  3 0.00000 0.00000 0.00000
  4 0.00000 0.00000 0.00000
  5 0.00000 0.00000 0.00000
  6 0.00000 0.00000 0.00000
  7 0.00000 0.00000 0.00000
  8 0.00000 0.00000 0.00000
  9 0.00000 0.00000 0.00000
  10 0.00000 0.00000 0.00000
  11 0.00000 0.00000 0.00000
  12 0.00000 0.00000 0.00000
  13 0.00000 0.00000 0.00000
  14 0.00000 0.00000 0.00000
  15 0.00000 0.00000 0.00000
  16 0.00000 0.00000 0.00000
  17 0.00000 0.00000 0.00000
  18 0.00000 0.00000 0.00000
  19 0.00000 0.00000 0.00000
  20 0.00000 0.00000 0.00000
  21 0.00000 0.00000 0.00000
  22 0.00000 0.00000 0.00000
  23 0.00000 0.00000 0.00000
  24 0.00000 0.00000 0.00000
  25 0.00000 0.00000 0.00000
  26 0.00000 0.00000 0.00000
  27 0.00000 0.00000 0.00000
  28 0.00000 0.00000 0.00000
  29 0.00000 0.00000 0.00000
  30 0.00000 0.00000 0.00000
  31 0.00000 0.00000 0.00000
  32 0.00000 0.00000 0.00000
  33 0.00000 0.00000 0.00000
  34 0.00000 0.00000 0.00000
  35 0.00000 0.00000 0.00000
  36 0.00000 0.00000 0.00000
  37 0.00000 0.00000 0.00000
  38 0.00000 0.00000 0.00000
  39 0.00000 0.00000 0.00000
  40 0.00000 0.00000 0.00000
  41 0.00000 0.00000 0.00000
  42 0.00000 0.00000 0.00000
  43 0.00000 0.00000 0.00000
  44 0.00000 0.00000 0.00000
  45 0.00000 0.00000 0.00000
  46 0.00000 0.00000 0.00000
  47 0.00000 0.00000 0.00000
  48 0.00000 0.00000 0.00000
  49 0.00000 0.00000 0.00000
  50 0.00000 0.00000 0.00000
  51 0.00000 0.00000 0.00000
  52 0.00000 0.00000 0.00000
  53 0.00000 0.00000 0.00000
  54 0.00000 0.00000 0.00000
  55 0.00000 0.00000 0.00000
  56 0.00000 0.00000 0.00000
  57 0.00000 0.00000 0.00000
  58 0.00000 0.00000 0.00000
  59 0.00000 0.00000 0.00000
  60 0.00000 0.00000 0.00000
  61 0.00000 0.00000 0.00000
  62 0.00000 0.00000 0.00000
  63 0.00000 0.00000 0.00000
  64 0.00000 0.00000 0.00000
  65 0.00000 0.00000 0.00000
  66 0.00000 0.00000 0.00000
  67 0.00000 0.00000 0.00000
  68 0.00000 0.00000 0.00000
  69 0.00000 0.00000 0.00000
  70 0.00000 0.00000 0.00000
  71 0.00000 0.00000 0.00000
  72 0.00000 0.00000 0.00000
  73 0.00000 0.00000 0.00000
  74 0.00000 0.00000 0.00000
  75 0.00000 0.00000 0.00000
  76 0.00000 0.00000 0.00000
  77 0.00000 0.00000 0.00000
  78 0.00000 0.00000 0.00000
  79 0.00000 0.00000 0.00000
  80 0.00000 0.00000 0.00000
  81 0.00000 0.00000 0.00000
  82 0.00000 0.00000 0.00000
  83 0.00000 0.00000 0.00000
  84 0.00000 0.00000 0.00000
  85 0.00000 0.00000 0.00000
  86 0.00000 0.00000 0.00000
  87 0.00000 0.00000 0.00000
  88 0.00000 0.00000 0.00000
  89 0.00000 0.00000 0.00000
  90 0.00000 0.00000 0.00000
  91 0.00000 0.00000 0.00000
  92 0.00000 0.00000 0.00000
  93 0.00000 0.00000 0.00000
  94 0.00000 0.00000 0.00000
  95 0.00000 0.00000 0.00000
  96 0.00000 0.00000 0.00000
  97 0.00000 0.00000 0.00000
  98 0.00000 0.00000 0.00000
  99 0.00000 0.00000 0.00000
  100 0.00000 0.00000 0.00000
  101 0.00000 0.00000 0.00000
  102 0.00000 0.00000 0.00000
  103 0.00000 0.00000 0.00000
  104 0.00000 0.00000 0.00000
  105 0.00000 0.00000 0.00000
  106 0.00000 0.00000 0.00000
  107 0.00000 0.00000 0.00000
  108 0.00000 0.00000 0.00000
  109 0.00000 0.00000 0.00000
  110 0.00000 0.00000 0.00000
  111 0.00000 0.00000 0.00000
  112 0.00000 0.00000 0.00000
  113 0.00000 0.00000 0.00000
  114 0.00000 0.00000 0.00000
  115 0.00000 0.00000 0.00000
  116 0.00000 0.00000 0.00000
  117 0.00000 0.00000 0.00000
  118 0.00000 0.00000 0.00000
  119 0.00000 0.00000 0.00000
  120 0.00000 0.00000 0.00000
  121 0.00000 0.00000 0.00000
  122 0.00000 0.00000 0.00000
  123 0.00000 0.00000 0.00000
  124 0.00000 0.00000 0.00000
  125 0.00000 0.00000 0.00000
  126 0.00000 0.00000 0.00000
  127 0.00000 0.00000 0.00000
  128 0.00000 0.00000 0.00000
  129 0.00000 0.00000 0.00000
  130 0.00000 0.00000 0.00000
  131 0.00000 0.00000 0.00000
  132 0.00000 0.00000 0.00000
  133 0.00000 0.00000 0.00000
  134 0.00000 0.00000 0.00000
  135 0.00000 0.00000 0.00000
  136 0.00000 0.00000 0.00000
  137 0.00000 0.00000 0.00000
  138 0.00000 0.00000 0.00000
  139 0.00000 0.00000 0.00000
  140 0.00000 0.00000 0.00000
  141 0.00000 0.00000 0.00000
  142 0.00000 0.00000 0.00000
  143 0.00000 0.00000 0.00000
  144 0.00000 0.00000 0.00000
  145 0.00000 0.00000 0.00000
  146 0.00000 0.00000 0.00000
  147 0.00000 0.00000 0.00000
  148 0.00000 0.00000 0.00000
  149 0.00000 0.00000 0.00000
  150 0.00000 0.00000 0.00000
  151 0.00000 0.00000 0.00000
  152 0.00000 0.00000 0.00000
  153 0.00000 0.00000 0.00000
  154 0.00000 0.00000 0.00000
  155 0.00000 0.00000 0.00000
  156 0.00000 0.00000 0.00000
  157 0.00000 0.00000 0.00000
  158 0.00000 0.00000 0.00000
  159 0.00000 0.00000 0.00000
  160 0.00000 0.00000 0.00000
  161 0.00000 0.00000 0.00000
  162 0.00000 0.00000 0.00000
  163 0.00000 0.00000 0.00000
  164 0.00000 0.00000 0.00000
  165 0.00000 0.00000 0.00000
  166 0.00000 0.00000 0.00000
  167 0.00000 0.00000 0.00000
  168 0.00000 0.00000 0.00000
  169 0.00000 0.00000 0.00000
  170 0.00000 0.00000 0.00000
  171 0.00000 0.00000 0.00000
  172 0.00000 0.00000 0.00000
  173 0.00000 0.00000 0.00000
  174 0.00000 0.00000 0.00000
  175 0.00000 0.00000 0.00000
  176 0.00000 0.00000 0.00000
  177 0.00000 0.00000 0.00000
  178 0.00000 0.00000 0.00000
  179 0.00000 0.00000 0.00000
  180 0.00000 0.00000 0.00000
  181 0.00000 0.00000 0.00000
  182 0.00000 0.00000 0.00000
  183 0.00000 0.00000 0.00000
  184 0.00000 0.00000 0.00000
  185 0.00000 0.00000 0.00000
  186 0.00000 0.00000 0.00000
  187 0.00000 0.00000 0.00000
  188 0.00000 0.00000 0.00000
  189 0.00000 0.00000 0.00000
  190 0.00000 0.00000 0.00000
  191 0.00000 0.00000 0.00000
  192 0.00000 0.00000 0.00000
  193 0.00000 0.00000 0.00000
  194 0.00000 0.00000 0.00000
  195 0.00000 0.00000 0.00000
  196 0.00000 0.00000 0.00000
  197 0.00000 0.00000 0.00000
  198 0.00000 0.00000 0.00000
  199 0.00000 0.00000 0.00000
  200 0.00000 0.00000 0.00000
  201 0.00000 0.00000 0.00000
  202 0.00000 0.00000 0.00000
  203 0.00000 0.00000 0.00000
  204 0.00000 0.00000 0.00000
  205 0.00000 0.00000 0.00000
  206 0.00000 0.00000 0.00000
  207 0.00000 0.00000 0.00000
  208 0.00000 0.00000 0.00000
  209 0.00000 0.00000 0.00000
  210 0.00000 0.00000 0.00000
  211 0.00000 0.00000 0.00000
  212 0.00000 0.00000 0.00000
  213 0.00000 0.00000 0.00000
  214 0.00000 0.00000 0.00000
  215 0.00000 0.00000 0.00000
  216 0.00000 0.00000 0.00000
  217 0.00000 0.00000 0.00000
  218 0.00000 0.00000 0.00000
  219 0.00000 0.00000 0.00000
  220 0.00000 0.00000 0.00000
  221 0.00000 0.00000 0.00000
  222 0.00000 0.00000 0.00000
  223 0.00000 0.00000 0.00000
  224 0.00000 0.00000 0.00000
  225 0.00000 0.00000 0.00000
  226 0.00000 0.00000 0.00000
  227 0.00000 0.00000 0.00000
  228 0.00000 0.00000 0.00000
  229 0.00000 0.00000 0.00000
  230 0.00000 0.00000 0.00000
  231 0.00000 0.00000 0.00000
  232 0.00000 0.00000 0.00000
  233 0.00000 0.00000 0.00000
  234 0.00000 0.00000 0.00000
  235 0.00000 0.00000 0.00000
  236 0.00000 0.00000 0.00000
  237 0.00000 0.00000 0.00000
  238 0.00000 0.00000 0.00000
  239 0.00000 0.00000 0.00000
  240 0.00000 0.00000 0.00000
  241 0.00000 0.00000 0.00000
</Section>

newXOutput 165

<Section columns = "stress_xx | stress_yy | stress_xy">
  1 0.00000 0.00000 0.00000
  2 0.00000 0.00000 0.00000
  3 0.00000 0.00000 0.00000
  4 0.00000 0.00000 0.00000
  5 0.00000 0.00000 0.00000
  6 0.00000 0.00000 0.00000
  7 0.00000 0.00000 0.00000
  8 0.00000 0.00000 0.00000
  9 0.00000 0.00000 0.00000
  10 0.00000 0.00000 0.00000
  11 0.00000 0.00000 0.00000
  12 0.00000 0.00000 0.00000
  13 0.00000 0.00000 0.00000
  14 0.00000 0.00000 0.00000
  15 0.00000 0.00000 0.00000
  16 0.00000 0.00000 0.00000
  17 0.00000 0.00000 0.00000
  18 0.00000 0.00000 0.00000
  19 0.00000 0.00000 0.00000
  20 0.00000 0.00000 0.00000
  21 0.00000 0.00000 0.00000
  22 0.00000 0.00000 0.00000
  23 0.00000 0.00000 0.00000
  24 0.00000 0.00000 0.00000
  25 0.00000 0.00000 0.00000
  26 0.00000 0.00000 0.00000
  27 0.00000 0.00000 0.00000
  28 0.00000 0.00000 0.00000
  29 0.00000 0.00000 0.00000
  30 0.00000 0.00000 0.00000
  31 0.00000 0.00000 0.00000
  32 0.00000 0.00000 0.00000
  33 0.00000 0.00000 0.00000
  34 0.00000 0.00000 0.00000
  35 0.00000 0.00000 0.00000
  36 0.00000 0.00000 0.00000
  37 0.00000 0.00000 0.00000
  38 0.00000 0.00000 0.00000
  39 0.00000 0.00000 0.00000
  40 0.00000 0.00000 0.00000
  41 0.00000 0.00000 0.00000
  42 0.00000 0.00000 0.00000
  43 0.00000 0.00000 0.00000
  44 0.00000 0.00000 0.00000
  45 0.00000 0.00000 0.00000
  46 0.00000 0.00000 0.00000
  47 0.00000 0.00000 0.00000
  48 0.00000 0.00000 0.00000
  49 0.00000 0.00000 0.00000
  50 0.00000 0.00000 0.00000
  51 0.00000 0.00000 0.00000
  52 0.00000 0.00000 0.00000
  53 0.00000 0.00000 0.00000
  54 0.00000 0.00000 0.00000
  55 0.00000 0.00000 0.00000
  56 0.00000 0.00000 0.00000
  57 0.00000 0.00000 0.00000
  58 0.00000 0.00000 0.00000
  59 0.00000 0.00000 0.00000
  60 0.00000 0.00000 0.00000
  61 0.00000 0.00000 0.00000
  62 0.00000 0.00000 0.00000
  63 0.00000 0.00000 0.00000
  64 0.00000 0.00000 0.00000
  65 0.00000 0.00000 0.00000
  66 0.00000 0.00000 0.00000
  67 0.00000 0.00000 0.00000
  68 0.00000 0.00000 0.00000
  69 0.00000 0.00000 0.00000
  70 0.00000 0.00000 0.00000
  71 0.00000 0.00000 0.00000
  72 0.00000 0.00000 0.00000
  73 0.00000 0.00000 0.00000
  74 0.00000 0.00000 0.00000
  75 0.00000 0.00000 0.00000
  76 0.00000 0.00000 0.00000
  77 0.00000 0.00000 0.00000
  78 0.00000 0.00000 0.00000
  79 0.00000 0.00000 0.00000
  80 0.00000 0.00000 0.00000
  81 0.00000 0.00000 0.00000
  82 0.00000 0.00000 0.00000
  83 0.00000 0.00000 0.00000
  84 0.00000 0.00000 0.00000
  85 0.00000 0.00000 0.00000
  86 0.00000 0.00000 0.00000
  87 0.00000 0.00000 0.00000
  88 0.00000 0.00000 0.00000
  89 0.00000 0.00000 0.00000
  90 0.00000 0.00000 0.00000
  91 0.00000 0.00000 0.00000
  92 0.00000 0.00000 0.00000
  93 0.00000 0.00000 0.00000
  94 0.00000 0.00000 0.00000
  95 0.00000 0.00000 0.00000
  96 0.00000 0.00000 0.00000
  97 0.00000 0.00000 0.00000
  98 0.00000 0.00000 0.00000
  99 0.00000 0.00000 0.00000
  100 0.00000 0.00000 0.00000
  101 0.00000 0.00000 0.00000
  102 0.00000 0.00000 0.00000
  103 0.00000 0.00000 0.00000
  104 0.00000 0.00000 0.00000
  105 0.00000 0.00000 0.00000
  106 0.00000 0.00000 0.00000
  107 0.00000 0.00000 0.00000
  108 0.00000 0.00000 0.00000
  109 0.00000 0.00000 0.00000
  110 0.00000 0.00000 0.00000
  111 0.00000 0.00000 0.00000
  112 0.00000 0.00000 0.00000
  113 0.00000 0.00000 0.00000
  114 0.00000 0.00000 0.00000
  115 0.00000 0.00000 0.00000
  116 0.00000 0.00000 0.00000
  117 0.00000 0.00000 0.00000
  118 0.00000 0.00000 0.00000
  119 0.00000 0.00000 0.00000
  120 0.00000 0.00000 0.00000
  121 0.00000 0.00000 0.00000
  122 0.00000 0.00000 0.00000
  123 0.00000 0.00000 0.00000
  124 0.00000 0.00000 0.00000
  125 0.00000 0.00000 0.00000
  126 0.00000 0.00000 0.00000
  127 0.00000 0.00000 0.00000
  128 0.00000 0.00000 0.00000
  129 0.00000 0.00000 0.00000
  130 0.00000 0.00000 0.00000
  131 0.00000 0.00000 0.00000
  132 0.00000 0.00000 0.00000
  133 0.00000 0.00000 0.00000
  134 0.00000 0.00000 0.00000
  135 0.00000 0.00000 0.00000
  136 0.00000 0.00000 0.00000
  137 0.00000 0.00000 0.00000
  138 0.00000 0.00000 0.00000
  139 0.00000 0.00000 0.00000
  140 0.00000 0.00000 0.00000
  141 0.00000 0.00000 0.00000
  142 0.00000 0.00000 0.00000
  143 0.00000 0.00000 0.00000
  144 0.00000 0.00000 0.00000
  145 0.00000 0.00000 0.00000
  146 0.00000 0.00000 0.00000
  147 0.00000 0.00000 0.00000
  148 0.00000 0.00000 0.00000
  149 0.00000 0.00000 0.00000
  150 0.00000 0.00000 0.00000
  151 0.00000 0.00000 0.00000
  152 0.00000 0.00000 0.00000
  153 0.00000 0.00000 0.00000
  154 0.00000 0.00000 0.00000
  155 0.00000 0.00000 0.00000
  156 0.00000 0.00000 0.00000
  157 0.00000 0.00000 0.00000
  158 0.00000 0.00000 0.00000
  159 0.00000 0.00000 0.00000
  160 0.00000 0.00000 0.00000
  161 0.00000 0.00000 0.00000
  162 0.00000 0.00000 0.00000
  163 0.00000 0.00000 0.00000
  164 0.00000 0.00000 0.00000
  165 0.00000 0.00000 0.00000
  166 0.00000 0.00000 0.00000
  167 0.00000 0.00000 0.00000
  168 0.00000 0.00000 0.00000
  169 0.00000 0.00000 0.00000
  170 0.00000 0.00000 0.00000
  171 0.00000 0.00000 0.00000
  172 0.00000 0.00000 0.00000
  173 0.00000 0.00000 0.00000
  174 0.00000 0.00000 0.00000
  175 0.00000 0.00000 0.00000
  176 0.00000 0.00000 0.00000
  177 0.00000 0.00000 0.00000
  178 0.00000 0.00000 0.00000
  179 0.00000 0.00000 0.00000
  180 0.00000 0.00000 0.00000
  181 0.00000 0.00000 0.00000
  182 0.00000 0.00000 0.00000
  183 0.00000 0.00000 0.00000
  184 0.00000 0.00000 0.00000
  185 0.00000 0.00000 0.00000
  186 0.00000 0.00000 0.00000
  187 0.00000 0.00000 0.00000
  188 0.00000 0.00000 0.00000
  189 0.00000 0.00000 0.00000
  190 0.00000 0.00000 0.00000
  191 0.00000 0.00000 0.00000
  192 0.00000 0.00000 0.00000
  193 0.00000 0.00000 0.00000
  194 0.00000 0.00000 0.00000
  195 0.00000 0.00000 0.00000
  196 0.00000 0.00000 0.00000
  197 0.00000 0.00000 0.00000
  198 0.00000 0.00000 0.00000
  199 0.00000 0.00000 0.00000
  200 0.00000 0.00000 0.00000
  201 0.00000 0.00000 0.00000
  202 0.00000 0.00000 0.00000
  203 0.00000 0.00000 0.00000
  204 0.00000 0.00000 0.00000
  205 0.00000 0.00000 0.00000
  206 0.00000 0.00000 0.00000
  207 0.00000 0.00000 0.00000
  208 0.00000 0.00000 0.00000
  209 0.00000 0.00000 0.00000
  210 0.00000 0.00000 0.00000
  211 0.00000 0.00000 0.00000
  212 0.00000 0.00000 0.00000
  213 0.00000 0.00000 0.00000
  214 0.00000 0.00000 0.00000
  215 0.00000 0.00000 0.00000
  216 0.00000 0.00000 0.00000
  217 0.00000 0.00000 0.00000
  218 0.00000 0.00000 0.00000
  219 0.00000 0.00000 0.00000
  220 0.00000 0.00000 0.00000
  221 0.00000 0.00000 0.00000
  222 0.00000 0.00000 0.00000
  223 0.00000 0.00000 0.00000
  224 0.00000 0.00000 0.00000
  225 0.00000 0.00000 0.00000
  226 0.00000 0.00000 0.00000
  227 0.00000 0.00000 0.00000
  228 0.00000 0.00000 0.00000
  229 0.00000 0.00000 0.00000
  230 0.00000 0.00000 0.00000
  231 0.00000 0.00000 0.00000
  232 0.00000 0.00000 0.00000
  233 0.00000 0.00000 0.00000
  234 0.00000 0.00000 0.00000
  235 0.00000 0.00000 0.00000
  236 0.00000 0.00000 0.00000
  237 0.00000 0.00000 0.00000
  238 0.00000 0.00000 0.00000
  239 0.00000 0.00000 0.00000
  240 0.00000 0.00000 0.00000
  241 0.00000 0.00000 0.00000
</Section>

newXOutput 166

<Section columns = "stress_xx | stress_yy | stress_xy">
  1 0.00000 0.00000 0.00000
  2 0.00000 0.00000 0.00000
  3 0.00000 0.00000 0.00000
  4 0.00000 0.00000 0.00000
  5 0.00000 0.00000 0.00000
  6 0.00000 0.00000 0.00000
  7 0.00000 0.00000 0.00000
  8 0.00000 0.00000 0.00000
  9 0.00000 0.00000 0.00000
  10 0.00000 0.00000 0.00000
  11 0.00000 0.00000 0.00000
  12 0.00000 0.00000 0.00000
  13 0.00000 0.00000 0.00000
  14 0.00000 0.00000 0.00000
  15 0.00000 0.00000 0.00000
  16 0.00000 0.00000 0.00000
  17 0.00000 0.00000 0.00000
  18 0.00000 0.00000 0.00000
  19 0.00000 0.00000 0.00000
  20 0.00000 0.00000 0.00000
  21 0.00000 0.00000 0.00000
  22 0.00000 0.00000 0.00000
  23 0.00000 0.00000 0.00000
  24 0.00000 0.00000 0.00000
  25 0.00000 0.00000 0.00000
  26 0.00000 0.00000 0.00000
  27 0.00000 0.00000 0.00000
  28 0.00000 0.00000 0.00000
  29 0.00000 0.00000 0.00000
  30 0.00000 0.00000 0.00000
  31 0.00000 0.00000 0.00000
  32 0.00000 0.00000 0.00000
  33 0.00000 0.00000 0.00000
  34 0.00000 0.00000 0.00000
  35 0.00000 0.00000 0.00000
  36 0.00000 0.00000 0.00000
  37 0.00000 0.00000 0.00000
  38 0.00000 0.00000 0.00000
  39 0.00000 0.00000 0.00000
  40 0.00000 0.00000 0.00000
  41 0.00000 0.00000 0.00000
  42 0.00000 0.00000 0.00000
  43 0.00000 0.00000 0.00000
  44 0.00000 0.00000 0.00000
  45 0.00000 0.00000 0.00000
  46 0.00000 0.00000 0.00000
  47 0.00000 0.00000 0.00000
  48 0.00000 0.00000 0.00000
  49 0.00000 0.00000 0.00000
  50 0.00000 0.00000 0.00000
  51 0.00000 0.00000 0.00000
  52 0.00000 0.00000 0.00000
  53 0.00000 0.00000 0.00000
  54 0.00000 0.00000 0.00000
  55 0.00000 0.00000 0.00000
  56 0.00000 0.00000 0.00000
  57 0.00000 0.00000 0.00000
  58 0.00000 0.00000 0.00000
  59 0.00000 0.00000 0.00000
  60 0.00000 0.00000 0.00000
  61 0.00000 0.00000 0.00000
  62 0.00000 0.00000 0.00000
  63 0.00000 0.00000 0.00000
  64 0.00000 0.00000 0.00000
  65 0.00000 0.00000 0.00000
  66 0.00000 0.00000 0.00000
  67 0.00000 0.00000 0.00000
  68 0.00000 0.00000 0.00000
  69 0.00000 0.00000 0.00000
  70 0.00000 0.00000 0.00000
  71 0.00000 0.00000 0.00000
  72 0.00000 0.00000 0.00000
  73 0.00000 0.00000 0.00000
  74 0.00000 0.00000 0.00000
  75 0.00000 0.00000 0.00000
  76 0.00000 0.00000 0.00000
  77 0.00000 0.00000 0.00000
  78 0.00000 0.00000 0.00000
  79 0.00000 0.00000 0.00000
  80 0.00000 0.00000 0.00000
  81 0.00000 0.00000 0.00000
  82 0.00000 0.00000 0.00000
  83 0.00000 0.00000 0.00000
  84 0.00000 0.00000 0.00000
  85 0.00000 0.00000 0.00000
  86 0.00000 0.00000 0.00000
  87 0.00000 0.00000 0.00000
  88 0.00000 0.00000 0.00000
  89 0.00000 0.00000 0.00000
  90 0.00000 0.00000 0.00000
  91 0.00000 0.00000 0.00000
  92 0.00000 0.00000 0.00000
  93 0.00000 0.00000 0.00000
  94 0.00000 0.00000 0.00000
  95 0.00000 0.00000 0.00000
  96 0.00000 0.00000 0.00000
  97 0.00000 0.00000 0.00000
  98 0.00000 0.00000 0.00000
  99 0.00000 0.00000 0.00000
  100 0.00000 0.00000 0.00000
  101 0.00000 0.00000 0.00000
  102 0.00000 0.00000 0.00000
  103 0.00000 0.00000 0.00000
  104 0.00000 0.00000 0.00000
  105 0.00000 0.00000 0.00000
  106 0.00000 0.00000 0.00000
  107 0.00000 0.00000 0.00000
  108 0.00000 0.00000 0.00000
  109 0.00000 0.00000 0.00000
  110 0.00000 0.00000 0.00000
  111 0.00000 0.00000 0.00000
  112 0.00000 0.00000 0.00000
  113 0.00000 0.00000 0.00000
  114 0.00000 0.00000 0.00000
  115 0.00000 0.00000 0.00000
  116 0.00000 0.00000 0.00000
  117 0.00000 0.00000 0.00000
  118 0.00000 0.00000 0.00000
  119 0.00000 0.00000 0.00000
  120 0.00000 0.00000 0.00000
  121 0.00000 0.00000 0.00000
  122 0.00000 0.00000 0.00000
  123 0.00000 0.00000 0.00000
  124 0.00000 0.00000 0.00000
  125 0.00000 0.00000 0.00000
  126 0.00000 0.00000 0.00000
  127 0.00000 0.00000 0.00000
  128 0.00000 0.00000 0.00000
  129 0.00000 0.00000 0.00000
  130 0.00000 0.00000 0.00000
  131 0.00000 0.00000 0.00000
  132 0.00000 0.00000 0.00000
  133 0.00000 0.00000 0.00000
  134 0.00000 0.00000 0.00000
  135 0.00000 0.00000 0.00000
  136 0.00000 0.00000 0.00000
  137 0.00000 0.00000 0.00000
  138 0.00000 0.00000 0.00000
  139 0.00000 0.00000 0.00000
  140 0.00000 0.00000 0.00000
  141 0.00000 0.00000 0.00000
  142 0.00000 0.00000 0.00000
  143 0.00000 0.00000 0.00000
  144 0.00000 0.00000 0.00000
  145 0.00000 0.00000 0.00000
  146 0.00000 0.00000 0.00000
  147 0.00000 0.00000 0.00000
  148 0.00000 0.00000 0.00000
  149 0.00000 0.00000 0.00000
  150 0.00000 0.00000 0.00000
  151 0.00000 0.00000 0.00000
  152 0.00000 0.00000 0.00000
  153 0.00000 0.00000 0.00000
  154 0.00000 0.00000 0.00000
  155 0.00000 0.00000 0.00000
  156 0.00000 0.00000 0.00000
  157 0.00000 0.00000 0.00000
  158 0.00000 0.00000 0.00000
  159 0.00000 0.00000 0.00000
  160 0.00000 0.00000 0.00000
  161 0.00000 0.00000 0.00000
  162 0.00000 0.00000 0.00000
  163 0.00000 0.00000 0.00000
  164 0.00000 0.00000 0.00000
  165 0.00000 0.00000 0.00000
  166 0.00000 0.00000 0.00000
  167 0.00000 0.00000 0.00000
  168 0.00000 0.00000 0.00000
  169 0.00000 0.00000 0.00000
  170 0.00000 0.00000 0.00000
  171 0.00000 0.00000 0.00000
  172 0.00000 0.00000 0.00000
  173 0.00000 0.00000 0.00000
  174 0.00000 0.00000 0.00000
  175 0.00000 0.00000 0.00000
  176 0.00000 0.00000 0.00000
  177 0.00000 0.00000 0.00000
  178 0.00000 0.00000 0.00000
  179 0.00000 0.00000 0.00000
  180 0.00000 0.00000 0.00000
  181 0.00000 0.00000 0.00000
  182 0.00000 0.00000 0.00000
  183 0.00000 0.00000 0.00000
  184 0.00000 0.00000 0.00000
  185 0.00000 0.00000 0.00000
  186 0.00000 0.00000 0.00000
  187 0.00000 0.00000 0.00000
  188 0.00000 0.00000 0.00000
  189 0.00000 0.00000 0.00000
  190 0.00000 0.00000 0.00000
  191 0.00000 0.00000 0.00000
  192 0.00000 0.00000 0.00000
  193 0.00000 0.00000 0.00000
  194 0.00000 0.00000 0.00000
  195 0.00000 0.00000 0.00000
  196 0.00000 0.00000 0.00000
  197 0.00000 0.00000 0.00000
  198 0.00000 0.00000 0.00000
  199 0.00000 0.00000 0.00000
  200 0.00000 0.00000 0.00000
  201 0.00000 0.00000 0.00000
  202 0.00000 0.00000 0.00000
  203 0.00000 0.00000 0.00000
  204 0.00000 0.00000 0.00000
  205 0.00000 0.00000 0.00000
  206 0.00000 0.00000 0.00000
  207 0.00000 0.00000 0.00000
  208 0.00000 0.00000 0.00000
  209 0.00000 0.00000 0.00000
  210 0.00000 0.00000 0.00000
  211 0.00000 0.00000 0.00000
  212 0.00000 0.00000 0.00000
  213 0.00000 0.00000 0.00000
  214 0.00000 0.00000 0.00000
  215 0.00000 0.00000 0.00000
  216 0.00000 0.00000 0.00000
  217 0.00000 0.00000 0.00000
  218 0.00000 0.00000 0.00000
  219 0.00000 0.00000 0.00000
  220 0.00000 0.00000 0.00000
  221 0.00000 0.00000 0.00000
  222 0.00000 0.00000 0.00000
  223 0.00000 0.00000 0.00000
  224 0.00000 0.00000 0.00000
  225 0.00000 0.00000 0.00000
  226 0.00000 0.00000 0.00000
  227 0.00000 0.00000 0.00000
  228 0.00000 0.00000 0.00000
  229 0.00000 0.00000 0.00000
  230 0.00000 0.00000 0.00000
  231 0.00000 0.00000 0.00000
  232 0.00000 0.00000 0.00000
  233 0.00000 0.00000 0.00000
  234 0.00000 0.00000 0.00000
  235 0.00000 0.00000 0.00000
  236 0.00000 0.00000 0.00000
  237 0.00000 0.00000 0.00000
  238 0.00000 0.00000 0.00000
  239 0.00000 0.00000 0.00000
  240 0.00000 0.00000 0.00000
  241 0.00000 0.00000 0.00000
</Section>

newXOutput 167

<Section columns = "stress_xx | stress_yy | stress_xy">
  1 0.00000 0.00000 0.00000
  2 0.00000 0.00000 0.00000
  3 0.00000 0.00000 0.00000
  4 0.00000 0.00000 0.00000
  5 0.00000 0.00000 0.00000
  6 0.00000 0.00000 0.00000
  7 0.00000 0.00000 0.00000
  8 0.00000 0.00000 0.00000
  9 0.00000 0.00000 0.00000
  10 0.00000 0.00000 0.00000
  11 0.00000 0.00000 0.00000
  12 0.00000 0.00000 0.00000
  13 0.00000 0.00000 0.00000
  14 0.00000 0.00000 0.00000
  15 0.00000 0.00000 0.00000
  16 0.00000 0.00000 0.00000
  17 0.00000 0.00000 0.00000
  18 0.00000 0.00000 0.00000
  19 0.00000 0.00000 0.00000
  20 0.00000 0.00000 0.00000
  21 0.00000 0.00000 0.00000
  22 0.00000 0.00000 0.00000
  23 0.00000 0.00000 0.00000
  24 0.00000 0.00000 0.00000
  25 0.00000 0.00000 0.00000
  26 0.00000 0.00000 0.00000
  27 0.00000 0.00000 0.00000
  28 0.00000 0.00000 0.00000
  29 0.00000 0.00000 0.00000
  30 0.00000 0.00000 0.00000
  31 0.00000 0.00000 0.00000
  32 0.00000 0.00000 0.00000
  33 0.00000 0.00000 0.00000
  34 0.00000 0.00000 0.00000
  35 0.00000 0.00000 0.00000
  36 0.00000 0.00000 0.00000
  37 0.00000 0.00000 0.00000
  38 0.00000 0.00000 0.00000
  39 0.00000 0.00000 0.00000
  40 0.00000 0.00000 0.00000
  41 0.00000 0.00000 0.00000
  42 0.00000 0.00000 0.00000
  43 0.00000 0.00000 0.00000
  44 0.00000 0.00000 0.00000
  45 0.00000 0.00000 0.00000
  46 0.00000 0.00000 0.00000
  47 0.00000 0.00000 0.00000
  48 0.00000 0.00000 0.00000
  49 0.00000 0.00000 0.00000
  50 0.00000 0.00000 0.00000
  51 0.00000 0.00000 0.00000
  52 0.00000 0.00000 0.00000
  53 0.00000 0.00000 0.00000
  54 0.00000 0.00000 0.00000
  55 0.00000 0.00000 0.00000
  56 0.00000 0.00000 0.00000
  57 0.00000 0.00000 0.00000
  58 0.00000 0.00000 0.00000
  59 0.00000 0.00000 0.00000
  60 0.00000 0.00000 0.00000
  61 0.00000 0.00000 0.00000
  62 0.00000 0.00000 0.00000
  63 0.00000 0.00000 0.00000
  64 0.00000 0.00000 0.00000
  65 0.00000 0.00000 0.00000
  66 0.00000 0.00000 0.00000
  67 0.00000 0.00000 0.00000
  68 0.00000 0.00000 0.00000
  69 0.00000 0.00000 0.00000
  70 0.00000 0.00000 0.00000
  71 0.00000 0.00000 0.00000
  72 0.00000 0.00000 0.00000
  73 0.00000 0.00000 0.00000
  74 0.00000 0.00000 0.00000
  75 0.00000 0.00000 0.00000
  76 0.00000 0.00000 0.00000
  77 0.00000 0.00000 0.00000
  78 0.00000 0.00000 0.00000
  79 0.00000 0.00000 0.00000
  80 0.00000 0.00000 0.00000
  81 0.00000 0.00000 0.00000
  82 0.00000 0.00000 0.00000
  83 0.00000 0.00000 0.00000
  84 0.00000 0.00000 0.00000
  85 0.00000 0.00000 0.00000
  86 0.00000 0.00000 0.00000
  87 0.00000 0.00000 0.00000
  88 0.00000 0.00000 0.00000
  89 0.00000 0.00000 0.00000
  90 0.00000 0.00000 0.00000
  91 0.00000 0.00000 0.00000
  92 0.00000 0.00000 0.00000
  93 0.00000 0.00000 0.00000
  94 0.00000 0.00000 0.00000
  95 0.00000 0.00000 0.00000
  96 0.00000 0.00000 0.00000
  97 0.00000 0.00000 0.00000
  98 0.00000 0.00000 0.00000
  99 0.00000 0.00000 0.00000
  100 0.00000 0.00000 0.00000
  101 0.00000 0.00000 0.00000
  102 0.00000 0.00000 0.00000
  103 0.00000 0.00000 0.00000
  104 0.00000 0.00000 0.00000
  105 0.00000 0.00000 0.00000
  106 0.00000 0.00000 0.00000
  107 0.00000 0.00000 0.00000
  108 0.00000 0.00000 0.00000
  109 0.00000 0.00000 0.00000
  110 0.00000 0.00000 0.00000
  111 0.00000 0.00000 0.00000
  112 0.00000 0.00000 0.00000
  113 0.00000 0.00000 0.00000
  114 0.00000 0.00000 0.00000
  115 0.00000 0.00000 0.00000
  116 0.00000 0.00000 0.00000
  117 0.00000 0.00000 0.00000
  118 0.00000 0.00000 0.00000
  119 0.00000 0.00000 0.00000
  120 0.00000 0.00000 0.00000
  121 0.00000 0.00000 0.00000
  122 0.00000 0.00000 0.00000
  123 0.00000 0.00000 0.00000
  124 0.00000 0.00000 0.00000
  125 0.00000 0.00000 0.00000
  126 0.00000 0.00000 0.00000
  127 0.00000 0.00000 0.00000
  128 0.00000 0.00000 0.00000
  129 0.00000 0.00000 0.00000
  130 0.00000 0.00000 0.00000
  131 0.00000 0.00000 0.00000
  132 0.00000 0.00000 0.00000
  133 0.00000 0.00000 0.00000
  134 0.00000 0.00000 0.00000
  135 0.00000 0.00000 0.00000
  136 0.00000 0.00000 0.00000
  137 0.00000 0.00000 0.00000
  138 0.00000 0.00000 0.00000
  139 0.00000 0.00000 0.00000
  140 0.00000 0.00000 0.00000
  141 0.00000 0.00000 0.00000
  142 0.00000 0.00000 0.00000
  143 0.00000 0.00000 0.00000
  144 0.00000 0.00000 0.00000
  145 0.00000 0.00000 0.00000
  146 0.00000 0.00000 0.00000
  147 0.00000 0.00000 0.00000
  148 0.00000 0.00000 0.00000
  149 0.00000 0.00000 0.00000
  150 0.00000 0.00000 0.00000
  151 0.00000 0.00000 0.00000
  152 0.00000 0.00000 0.00000
  153 0.00000 0.00000 0.00000
  154 0.00000 0.00000 0.00000
  155 0.00000 0.00000 0.00000
  156 0.00000 0.00000 0.00000
  157 0.00000 0.00000 0.00000
  158 0.00000 0.00000 0.00000
  159 0.00000 0.00000 0.00000
  160 0.00000 0.00000 0.00000
  161 0.00000 0.00000 0.00000
  162 0.00000 0.00000 0.00000
  163 0.00000 0.00000 0.00000
  164 0.00000 0.00000 0.00000
  165 0.00000 0.00000 0.00000
  166 0.00000 0.00000 0.00000
  167 0.00000 0.00000 0.00000
  168 0.00000 0.00000 0.00000
  169 0.00000 0.00000 0.00000
  170 0.00000 0.00000 0.00000
  171 0.00000 0.00000 0.00000
  172 0.00000 0.00000 0.00000
  173 0.00000 0.00000 0.00000
  174 0.00000 0.00000 0.00000
  175 0.00000 0.00000 0.00000
  176 0.00000 0.00000 0.00000
  177 0.00000 0.00000 0.00000
  178 0.00000 0.00000 0.00000
  179 0.00000 0.00000 0.00000
  180 0.00000 0.00000 0.00000
  181 0.00000 0.00000 0.00000
  182 0.00000 0.00000 0.00000
  183 0.00000 0.00000 0.00000
  184 0.00000 0.00000 0.00000
  185 0.00000 0.00000 0.00000
  186 0.00000 0.00000 0.00000
  187 0.00000 0.00000 0.00000
  188 0.00000 0.00000 0.00000
  189 0.00000 0.00000 0.00000
  190 0.00000 0.00000 0.00000
  191 0.00000 0.00000 0.00000
  192 0.00000 0.00000 0.00000
  193 0.00000 0.00000 0.00000
  194 0.00000 0.00000 0.00000
  195 0.00000 0.00000 0.00000
  196 0.00000 0.00000 0.00000
  197 0.00000 0.00000 0.00000
  198 0.00000 0.00000 0.00000
  199 0.00000 0.00000 0.00000
  200 0.00000 0.00000 0.00000
  201 0.00000 0.00000 0.00000
  202 0.00000 0.00000 0.00000
  203 0.00000 0.00000 0.00000
  204 0.00000 0.00000 0.00000
  205 0.00000 0.00000 0.00000
  206 0.00000 0.00000 0.00000
  207 0.00000 0.00000 0.00000
  208 0.00000 0.00000 0.00000
  209 0.00000 0.00000 0.00000
  210 0.00000 0.00000 0.00000
  211 0.00000 0.00000 0.00000
  212 0.00000 0.00000 0.00000
  213 0.00000 0.00000 0.00000
  214 0.00000 0.00000 0.00000
  215 0.00000 0.00000 0.00000
  216 0.00000 0.00000 0.00000
  217 0.00000 0.00000 0.00000
  218 0.00000 0.00000 0.00000
  219 0.00000 0.00000 0.00000
  220 0.00000 0.00000 0.00000
  221 0.00000 0.00000 0.00000
  222 0.00000 0.00000 0.00000
  223 0.00000 0.00000 0.00000
  224 0.00000 0.00000 0.00000
  225 0.00000 0.00000 0.00000
  226 0.00000 0.00000 0.00000
  227 0.00000 0.00000 0.00000
  228 0.00000 0.00000 0.00000
  229 0.00000 0.00000 0.00000
  230 0.00000 0.00000 0.00000
  231 0.00000 0.00000 0.00000
  232 0.00000 0.00000 0.00000
  233 0.00000 0.00000 0.00000
  234 0.00000 0.00000 0.00000
  235 0.00000 0.00000 0.00000
  236 0.00000 0.00000 0.00000
  237 0.00000 0.00000 0.00000
  238 0.00000 0.00000 0.00000
  239 0.00000 0.00000 0.00000
  240 0.00000 0.00000 0.00000
  241 0.00000 0.00000 0.00000
</Section>

newXOutput 168

<Section columns = "stress_xx | stress_yy | stress_xy">
  1 0.00000 0.00000 0.00000
  2 0.00000 0.00000 0.00000
  3 0.00000 0.00000 0.00000
  4 0.00000 0.00000 0.00000
  5 0.00000 0.00000 0.00000
  6 0.00000 0.00000 0.00000
  7 0.00000 0.00000 0.00000
  8 0.00000 0.00000 0.00000
  9 0.00000 0.00000 0.00000
  10 0.00000 0.00000 0.00000
  11 0.00000 0.00000 0.00000
  12 0.00000 0.00000 0.00000
  13 0.00000 0.00000 0.00000
  14 0.00000 0.00000 0.00000
  15 0.00000 0.00000 0.00000
  16 0.00000 0.00000 0.00000
  17 0.00000 0.00000 0.00000
  18 0.00000 0.00000 0.00000
  19 0.00000 0.00000 0.00000
  20 0.00000 0.00000 0.00000
  21 0.00000 0.00000 0.00000
  22 0.00000 0.00000 0.00000
  23 0.00000 0.00000 0.00000
  24 0.00000 0.00000 0.00000
  25 0.00000 0.00000 0.00000
  26 0.00000 0.00000 0.00000
  27 0.00000 0.00000 0.00000
  28 0.00000 0.00000 0.00000
  29 0.00000 0.00000 0.00000
  30 0.00000 0.00000 0.00000
  31 0.00000 0.00000 0.00000
  32 0.00000 0.00000 0.00000
  33 0.00000 0.00000 0.00000
  34 0.00000 0.00000 0.00000
  35 0.00000 0.00000 0.00000
  36 0.00000 0.00000 0.00000
  37 0.00000 0.00000 0.00000
  38 0.00000 0.00000 0.00000
  39 0.00000 0.00000 0.00000
  40 0.00000 0.00000 0.00000
  41 0.00000 0.00000 0.00000
  42 0.00000 0.00000 0.00000
  43 0.00000 0.00000 0.00000
  44 0.00000 0.00000 0.00000
  45 0.00000 0.00000 0.00000
  46 0.00000 0.00000 0.00000
  47 0.00000 0.00000 0.00000
  48 0.00000 0.00000 0.00000
  49 0.00000 0.00000 0.00000
  50 0.00000 0.00000 0.00000
  51 0.00000 0.00000 0.00000
  52 0.00000 0.00000 0.00000
  53 0.00000 0.00000 0.00000
  54 0.00000 0.00000 0.00000
  55 0.00000 0.00000 0.00000
  56 0.00000 0.00000 0.00000
  57 0.00000 0.00000 0.00000
  58 0.00000 0.00000 0.00000
  59 0.00000 0.00000 0.00000
  60 0.00000 0.00000 0.00000
  61 0.00000 0.00000 0.00000
  62 0.00000 0.00000 0.00000
  63 0.00000 0.00000 0.00000
  64 0.00000 0.00000 0.00000
  65 0.00000 0.00000 0.00000
  66 0.00000 0.00000 0.00000
  67 0.00000 0.00000 0.00000
  68 0.00000 0.00000 0.00000
  69 0.00000 0.00000 0.00000
  70 0.00000 0.00000 0.00000
  71 0.00000 0.00000 0.00000
  72 0.00000 0.00000 0.00000
  73 0.00000 0.00000 0.00000
  74 0.00000 0.00000 0.00000
  75 0.00000 0.00000 0.00000
  76 0.00000 0.00000 0.00000
  77 0.00000 0.00000 0.00000
  78 0.00000 0.00000 0.00000
  79 0.00000 0.00000 0.00000
  80 0.00000 0.00000 0.00000
  81 0.00000 0.00000 0.00000
  82 0.00000 0.00000 0.00000
  83 0.00000 0.00000 0.00000
  84 0.00000 0.00000 0.00000
  85 0.00000 0.00000 0.00000
  86 0.00000 0.00000 0.00000
  87 0.00000 0.00000 0.00000
  88 0.00000 0.00000 0.00000
  89 0.00000 0.00000 0.00000
  90 0.00000 0.00000 0.00000
  91 0.00000 0.00000 0.00000
  92 0.00000 0.00000 0.00000
  93 0.00000 0.00000 0.00000
  94 0.00000 0.00000 0.00000
  95 0.00000 0.00000 0.00000
  96 0.00000 0.00000 0.00000
  97 0.00000 0.00000 0.00000
  98 0.00000 0.00000 0.00000
  99 0.00000 0.00000 0.00000
  100 0.00000 0.00000 0.00000
  101 0.00000 0.00000 0.00000
  102 0.00000 0.00000 0.00000
  103 0.00000 0.00000 0.00000
  104 0.00000 0.00000 0.00000
  105 0.00000 0.00000 0.00000
  106 0.00000 0.00000 0.00000
  107 0.00000 0.00000 0.00000
  108 0.00000 0.00000 0.00000
  109 0.00000 0.00000 0.00000
  110 0.00000 0.00000 0.00000
  111 0.00000 0.00000 0.00000
  112 0.00000 0.00000 0.00000
  113 0.00000 0.00000 0.00000
  114 0.00000 0.00000 0.00000
  115 0.00000 0.00000 0.00000
  116 0.00000 0.00000 0.00000
  117 0.00000 0.00000 0.00000
  118 0.00000 0.00000 0.00000
  119 0.00000 0.00000 0.00000
  120 0.00000 0.00000 0.00000
  121 0.00000 0.00000 0.00000
  122 0.00000 0.00000 0.00000
  123 0.00000 0.00000 0.00000
  124 0.00000 0.00000 0.00000
  125 0.00000 0.00000 0.00000
  126 0.00000 0.00000 0.00000
  127 0.00000 0.00000 0.00000
  128 0.00000 0.00000 0.00000
  129 0.00000 0.00000 0.00000
  130 0.00000 0.00000 0.00000
  131 0.00000 0.00000 0.00000
  132 0.00000 0.00000 0.00000
  133 0.00000 0.00000 0.00000
  134 0.00000 0.00000 0.00000
  135 0.00000 0.00000 0.00000
  136 0.00000 0.00000 0.00000
  137 0.00000 0.00000 0.00000
  138 0.00000 0.00000 0.00000
  139 0.00000 0.00000 0.00000
  140 0.00000 0.00000 0.00000
  141 0.00000 0.00000 0.00000
  142 0.00000 0.00000 0.00000
  143 0.00000 0.00000 0.00000
  144 0.00000 0.00000 0.00000
  145 0.00000 0.00000 0.00000
  146 0.00000 0.00000 0.00000
  147 0.00000 0.00000 0.00000
  148 0.00000 0.00000 0.00000
  149 0.00000 0.00000 0.00000
  150 0.00000 0.00000 0.00000
  151 0.00000 0.00000 0.00000
  152 0.00000 0.00000 0.00000
  153 0.00000 0.00000 0.00000
  154 0.00000 0.00000 0.00000
  155 0.00000 0.00000 0.00000
  156 0.00000 0.00000 0.00000
  157 0.00000 0.00000 0.00000
  158 0.00000 0.00000 0.00000
  159 0.00000 0.00000 0.00000
  160 0.00000 0.00000 0.00000
  161 0.00000 0.00000 0.00000
  162 0.00000 0.00000 0.00000
  163 0.00000 0.00000 0.00000
  164 0.00000 0.00000 0.00000
  165 0.00000 0.00000 0.00000
  166 0.00000 0.00000 0.00000
  167 0.00000 0.00000 0.00000
  168 0.00000 0.00000 0.00000
  169 0.00000 0.00000 0.00000
  170 0.00000 0.00000 0.00000
  171 0.00000 0.00000 0.00000
  172 0.00000 0.00000 0.00000
  173 0.00000 0.00000 0.00000
  174 0.00000 0.00000 0.00000
  175 0.00000 0.00000 0.00000
  176 0.00000 0.00000 0.00000
  177 0.00000 0.00000 0.00000
  178 0.00000 0.00000 0.00000
  179 0.00000 0.00000 0.00000
  180 0.00000 0.00000 0.00000
  181 0.00000 0.00000 0.00000
  182 0.00000 0.00000 0.00000
  183 0.00000 0.00000 0.00000
  184 0.00000 0.00000 0.00000
  185 0.00000 0.00000 0.00000
  186 0.00000 0.00000 0.00000
  187 0.00000 0.00000 0.00000
  188 0.00000 0.00000 0.00000
  189 0.00000 0.00000 0.00000
  190 0.00000 0.00000 0.00000
  191 0.00000 0.00000 0.00000
  192 0.00000 0.00000 0.00000
  193 0.00000 0.00000 0.00000
  194 0.00000 0.00000 0.00000
  195 0.00000 0.00000 0.00000
  196 0.00000 0.00000 0.00000
  197 0.00000 0.00000 0.00000
  198 0.00000 0.00000 0.00000
  199 0.00000 0.00000 0.00000
  200 0.00000 0.00000 0.00000
  201 0.00000 0.00000 0.00000
  202 0.00000 0.00000 0.00000
  203 0.00000 0.00000 0.00000
  204 0.00000 0.00000 0.00000
  205 0.00000 0.00000 0.00000
  206 0.00000 0.00000 0.00000
  207 0.00000 0.00000 0.00000
  208 0.00000 0.00000 0.00000
  209 0.00000 0.00000 0.00000
  210 0.00000 0.00000 0.00000
  211 0.00000 0.00000 0.00000
  212 0.00000 0.00000 0.00000
  213 0.00000 0.00000 0.00000
  214 0.00000 0.00000 0.00000
  215 0.00000 0.00000 0.00000
  216 0.00000 0.00000 0.00000
  217 0.00000 0.00000 0.00000
  218 0.00000 0.00000 0.00000
  219 0.00000 0.00000 0.00000
  220 0.00000 0.00000 0.00000
  221 0.00000 0.00000 0.00000
  222 0.00000 0.00000 0.00000
  223 0.00000 0.00000 0.00000
  224 0.00000 0.00000 0.00000
  225 0.00000 0.00000 0.00000
  226 0.00000 0.00000 0.00000
  227 0.00000 0.00000 0.00000
  228 0.00000 0.00000 0.00000
  229 0.00000 0.00000 0.00000
  230 0.00000 0.00000 0.00000
  231 0.00000 0.00000 0.00000
  232 0.00000 0.00000 0.00000
  233 0.00000 0.00000 0.00000
  234 0.00000 0.00000 0.00000
  235 0.00000 0.00000 0.00000
  236 0.00000 0.00000 0.00000
  237 0.00000 0.00000 0.00000
  238 0.00000 0.00000 0.00000
  239 0.00000 0.00000 0.00000
  240 0.00000 0.00000 0.00000
  241 0.00000 0.00000 0.00000
</Section>

newXOutput 169

<Section columns = "stress_xx | stress_yy | stress_xy">
  1 0.00000 0.00000 0.00000
  2 0.00000 0.00000 0.00000
  3 0.00000 0.00000 0.00000
  4 0.00000 0.00000 0.00000
  5 0.00000 0.00000 0.00000
  6 0.00000 0.00000 0.00000
  7 0.00000 0.00000 0.00000
  8 0.00000 0.00000 0.00000
  9 0.00000 0.00000 0.00000
  10 0.00000 0.00000 0.00000
  11 0.00000 0.00000 0.00000
  12 0.00000 0.00000 0.00000
  13 0.00000 0.00000 0.00000
  14 0.00000 0.00000 0.00000
  15 0.00000 0.00000 0.00000
  16 0.00000 0.00000 0.00000
  17 0.00000 0.00000 0.00000
  18 0.00000 0.00000 0.00000
  19 0.00000 0.00000 0.00000
  20 0.00000 0.00000 0.00000
  21 0.00000 0.00000 0.00000
  22 0.00000 0.00000 0.00000
  23 0.00000 0.00000 0.00000
  24 0.00000 0.00000 0.00000
  25 0.00000 0.00000 0.00000
  26 0.00000 0.00000 0.00000
  27 0.00000 0.00000 0.00000
  28 0.00000 0.00000 0.00000
  29 0.00000 0.00000 0.00000
  30 0.00000 0.00000 0.00000
  31 0.00000 0.00000 0.00000
  32 0.00000 0.00000 0.00000
  33 0.00000 0.00000 0.00000
  34 0.00000 0.00000 0.00000
  35 0.00000 0.00000 0.00000
  36 0.00000 0.00000 0.00000
  37 0.00000 0.00000 0.00000
  38 0.00000 0.00000 0.00000
  39 0.00000 0.00000 0.00000
  40 0.00000 0.00000 0.00000
  41 0.00000 0.00000 0.00000
  42 0.00000 0.00000 0.00000
  43 0.00000 0.00000 0.00000
  44 0.00000 0.00000 0.00000
  45 0.00000 0.00000 0.00000
  46 0.00000 0.00000 0.00000
  47 0.00000 0.00000 0.00000
  48 0.00000 0.00000 0.00000
  49 0.00000 0.00000 0.00000
  50 0.00000 0.00000 0.00000
  51 0.00000 0.00000 0.00000
  52 0.00000 0.00000 0.00000
  53 0.00000 0.00000 0.00000
  54 0.00000 0.00000 0.00000
  55 0.00000 0.00000 0.00000
  56 0.00000 0.00000 0.00000
  57 0.00000 0.00000 0.00000
  58 0.00000 0.00000 0.00000
  59 0.00000 0.00000 0.00000
  60 0.00000 0.00000 0.00000
  61 0.00000 0.00000 0.00000
  62 0.00000 0.00000 0.00000
  63 0.00000 0.00000 0.00000
  64 0.00000 0.00000 0.00000
  65 0.00000 0.00000 0.00000
  66 0.00000 0.00000 0.00000
  67 0.00000 0.00000 0.00000
  68 0.00000 0.00000 0.00000
  69 0.00000 0.00000 0.00000
  70 0.00000 0.00000 0.00000
  71 0.00000 0.00000 0.00000
  72 0.00000 0.00000 0.00000
  73 0.00000 0.00000 0.00000
  74 0.00000 0.00000 0.00000
  75 0.00000 0.00000 0.00000
  76 0.00000 0.00000 0.00000
  77 0.00000 0.00000 0.00000
  78 0.00000 0.00000 0.00000
  79 0.00000 0.00000 0.00000
  80 0.00000 0.00000 0.00000
  81 0.00000 0.00000 0.00000
  82 0.00000 0.00000 0.00000
  83 0.00000 0.00000 0.00000
  84 0.00000 0.00000 0.00000
  85 0.00000 0.00000 0.00000
  86 0.00000 0.00000 0.00000
  87 0.00000 0.00000 0.00000
  88 0.00000 0.00000 0.00000
  89 0.00000 0.00000 0.00000
  90 0.00000 0.00000 0.00000
  91 0.00000 0.00000 0.00000
  92 0.00000 0.00000 0.00000
  93 0.00000 0.00000 0.00000
  94 0.00000 0.00000 0.00000
  95 0.00000 0.00000 0.00000
  96 0.00000 0.00000 0.00000
  97 0.00000 0.00000 0.00000
  98 0.00000 0.00000 0.00000
  99 0.00000 0.00000 0.00000
  100 0.00000 0.00000 0.00000
  101 0.00000 0.00000 0.00000
  102 0.00000 0.00000 0.00000
  103 0.00000 0.00000 0.00000
  104 0.00000 0.00000 0.00000
  105 0.00000 0.00000 0.00000
  106 0.00000 0.00000 0.00000
  107 0.00000 0.00000 0.00000
  108 0.00000 0.00000 0.00000
  109 0.00000 0.00000 0.00000
  110 0.00000 0.00000 0.00000
  111 0.00000 0.00000 0.00000
  112 0.00000 0.00000 0.00000
  113 0.00000 0.00000 0.00000
  114 0.00000 0.00000 0.00000
  115 0.00000 0.00000 0.00000
  116 0.00000 0.00000 0.00000
  117 0.00000 0.00000 0.00000
  118 0.00000 0.00000 0.00000
  119 0.00000 0.00000 0.00000
  120 0.00000 0.00000 0.00000
  121 0.00000 0.00000 0.00000
  122 0.00000 0.00000 0.00000
  123 0.00000 0.00000 0.00000
  124 0.00000 0.00000 0.00000
  125 0.00000 0.00000 0.00000
  126 0.00000 0.00000 0.00000
  127 0.00000 0.00000 0.00000
  128 0.00000 0.00000 0.00000
  129 0.00000 0.00000 0.00000
  130 0.00000 0.00000 0.00000
  131 0.00000 0.00000 0.00000
  132 0.00000 0.00000 0.00000
  133 0.00000 0.00000 0.00000
  134 0.00000 0.00000 0.00000
  135 0.00000 0.00000 0.00000
  136 0.00000 0.00000 0.00000
  137 0.00000 0.00000 0.00000
  138 0.00000 0.00000 0.00000
  139 0.00000 0.00000 0.00000
  140 0.00000 0.00000 0.00000
  141 0.00000 0.00000 0.00000
  142 0.00000 0.00000 0.00000
  143 0.00000 0.00000 0.00000
  144 0.00000 0.00000 0.00000
  145 0.00000 0.00000 0.00000
  146 0.00000 0.00000 0.00000
  147 0.00000 0.00000 0.00000
  148 0.00000 0.00000 0.00000
  149 0.00000 0.00000 0.00000
  150 0.00000 0.00000 0.00000
  151 0.00000 0.00000 0.00000
  152 0.00000 0.00000 0.00000
  153 0.00000 0.00000 0.00000
  154 0.00000 0.00000 0.00000
  155 0.00000 0.00000 0.00000
  156 0.00000 0.00000 0.00000
  157 0.00000 0.00000 0.00000
  158 0.00000 0.00000 0.00000
  159 0.00000 0.00000 0.00000
  160 0.00000 0.00000 0.00000
  161 0.00000 0.00000 0.00000
  162 0.00000 0.00000 0.00000
  163 0.00000 0.00000 0.00000
  164 0.00000 0.00000 0.00000
  165 0.00000 0.00000 0.00000
  166 0.00000 0.00000 0.00000
  167 0.00000 0.00000 0.00000
  168 0.00000 0.00000 0.00000
  169 0.00000 0.00000 0.00000
  170 0.00000 0.00000 0.00000
  171 0.00000 0.00000 0.00000
  172 0.00000 0.00000 0.00000
  173 0.00000 0.00000 0.00000
  174 0.00000 0.00000 0.00000
  175 0.00000 0.00000 0.00000
  176 0.00000 0.00000 0.00000
  177 0.00000 0.00000 0.00000
  178 0.00000 0.00000 0.00000
  179 0.00000 0.00000 0.00000
  180 0.00000 0.00000 0.00000
  181 0.00000 0.00000 0.00000
  182 0.00000 0.00000 0.00000
  183 0.00000 0.00000 0.00000
  184 0.00000 0.00000 0.00000
  185 0.00000 0.00000 0.00000
  186 0.00000 0.00000 0.00000
  187 0.00000 0.00000 0.00000
  188 0.00000 0.00000 0.00000
  189 0.00000 0.00000 0.00000
  190 0.00000 0.00000 0.00000
  191 0.00000 0.00000 0.00000
  192 0.00000 0.00000 0.00000
  193 0.00000 0.00000 0.00000
  194 0.00000 0.00000 0.00000
  195 0.00000 0.00000 0.00000
  196 0.00000 0.00000 0.00000
  197 0.00000 0.00000 0.00000
  198 0.00000 0.00000 0.00000
  199 0.00000 0.00000 0.00000
  200 0.00000 0.00000 0.00000
  201 0.00000 0.00000 0.00000
  202 0.00000 0.00000 0.00000
  203 0.00000 0.00000 0.00000
  204 0.00000 0.00000 0.00000
  205 0.00000 0.00000 0.00000
  206 0.00000 0.00000 0.00000
  207 0.00000 0.00000 0.00000
  208 0.00000 0.00000 0.00000
  209 0.00000 0.00000 0.00000
  210 0.00000 0.00000 0.00000
  211 0.00000 0.00000 0.00000
  212 0.00000 0.00000 0.00000
  213 0.00000 0.00000 0.00000
  214 0.00000 0.00000 0.00000
  215 0.00000 0.00000 0.00000
  216 0.00000 0.00000 0.00000
  217 0.00000 0.00000 0.00000
  218 0.00000 0.00000 0.00000
  219 0.00000 0.00000 0.00000
  220 0.00000 0.00000 0.00000
  221 0.00000 0.00000 0.00000
  222 0.00000 0.00000 0.00000
  223 0.00000 0.00000 0.00000
  224 0.00000 0.00000 0.00000
  225 0.00000 0.00000 0.00000
  226 0.00000 0.00000 0.00000
  227 0.00000 0.00000 0.00000
  228 0.00000 0.00000 0.00000
  229 0.00000 0.00000 0.00000
  230 0.00000 0.00000 0.00000
  231 0.00000 0.00000 0.00000
  232 0.00000 0.00000 0.00000
  233 0.00000 0.00000 0.00000
  234 0.00000 0.00000 0.00000
  235 0.00000 0.00000 0.00000
  236 0.00000 0.00000 0.00000
  237 0.00000 0.00000 0.00000
  238 0.00000 0.00000 0.00000
  239 0.00000 0.00000 0.00000
  240 0.00000 0.00000 0.00000
  241 0.00000 0.00000 0.00000
</Section>

newXOutput 170

<Section columns = "stress_xx | stress_yy | stress_xy">
  1 0.00000 0.00000 0.00000
  2 0.00000 0.00000 0.00000
  3 0.00000 0.00000 0.00000
  4 0.00000 0.00000 0.00000
  5 0.00000 0.00000 0.00000
  6 0.00000 0.00000 0.00000
  7 0.00000 0.00000 0.00000
  8 0.00000 0.00000 0.00000
  9 0.00000 0.00000 0.00000
  10 0.00000 0.00000 0.00000
  11 0.00000 0.00000 0.00000
  12 0.00000 0.00000 0.00000
  13 0.00000 0.00000 0.00000
  14 0.00000 0.00000 0.00000
  15 0.00000 0.00000 0.00000
  16 0.00000 0.00000 0.00000
  17 0.00000 0.00000 0.00000
  18 0.00000 0.00000 0.00000
  19 0.00000 0.00000 0.00000
  20 0.00000 0.00000 0.00000
  21 0.00000 0.00000 0.00000
  22 0.00000 0.00000 0.00000
  23 0.00000 0.00000 0.00000
  24 0.00000 0.00000 0.00000
  25 0.00000 0.00000 0.00000
  26 0.00000 0.00000 0.00000
  27 0.00000 0.00000 0.00000
  28 0.00000 0.00000 0.00000
  29 0.00000 0.00000 0.00000
  30 0.00000 0.00000 0.00000
  31 0.00000 0.00000 0.00000
  32 0.00000 0.00000 0.00000
  33 0.00000 0.00000 0.00000
  34 0.00000 0.00000 0.00000
  35 0.00000 0.00000 0.00000
  36 0.00000 0.00000 0.00000
  37 0.00000 0.00000 0.00000
  38 0.00000 0.00000 0.00000
  39 0.00000 0.00000 0.00000
  40 0.00000 0.00000 0.00000
  41 0.00000 0.00000 0.00000
  42 0.00000 0.00000 0.00000
  43 0.00000 0.00000 0.00000
  44 0.00000 0.00000 0.00000
  45 0.00000 0.00000 0.00000
  46 0.00000 0.00000 0.00000
  47 0.00000 0.00000 0.00000
  48 0.00000 0.00000 0.00000
  49 0.00000 0.00000 0.00000
  50 0.00000 0.00000 0.00000
  51 0.00000 0.00000 0.00000
  52 0.00000 0.00000 0.00000
  53 0.00000 0.00000 0.00000
  54 0.00000 0.00000 0.00000
  55 0.00000 0.00000 0.00000
  56 0.00000 0.00000 0.00000
  57 0.00000 0.00000 0.00000
  58 0.00000 0.00000 0.00000
  59 0.00000 0.00000 0.00000
  60 0.00000 0.00000 0.00000
  61 0.00000 0.00000 0.00000
  62 0.00000 0.00000 0.00000
  63 0.00000 0.00000 0.00000
  64 0.00000 0.00000 0.00000
  65 0.00000 0.00000 0.00000
  66 0.00000 0.00000 0.00000
  67 0.00000 0.00000 0.00000
  68 0.00000 0.00000 0.00000
  69 0.00000 0.00000 0.00000
  70 0.00000 0.00000 0.00000
  71 0.00000 0.00000 0.00000
  72 0.00000 0.00000 0.00000
  73 0.00000 0.00000 0.00000
  74 0.00000 0.00000 0.00000
  75 0.00000 0.00000 0.00000
  76 0.00000 0.00000 0.00000
  77 0.00000 0.00000 0.00000
  78 0.00000 0.00000 0.00000
  79 0.00000 0.00000 0.00000
  80 0.00000 0.00000 0.00000
  81 0.00000 0.00000 0.00000
  82 0.00000 0.00000 0.00000
  83 0.00000 0.00000 0.00000
  84 0.00000 0.00000 0.00000
  85 0.00000 0.00000 0.00000
  86 0.00000 0.00000 0.00000
  87 0.00000 0.00000 0.00000
  88 0.00000 0.00000 0.00000
  89 0.00000 0.00000 0.00000
  90 0.00000 0.00000 0.00000
  91 0.00000 0.00000 0.00000
  92 0.00000 0.00000 0.00000
  93 0.00000 0.00000 0.00000
  94 0.00000 0.00000 0.00000
  95 0.00000 0.00000 0.00000
  96 0.00000 0.00000 0.00000
  97 0.00000 0.00000 0.00000
  98 0.00000 0.00000 0.00000
  99 0.00000 0.00000 0.00000
  100 0.00000 0.00000 0.00000
  101 0.00000 0.00000 0.00000
  102 0.00000 0.00000 0.00000
  103 0.00000 0.00000 0.00000
  104 0.00000 0.00000 0.00000
  105 0.00000 0.00000 0.00000
  106 0.00000 0.00000 0.00000
  107 0.00000 0.00000 0.00000
  108 0.00000 0.00000 0.00000
  109 0.00000 0.00000 0.00000
  110 0.00000 0.00000 0.00000
  111 0.00000 0.00000 0.00000
  112 0.00000 0.00000 0.00000
  113 0.00000 0.00000 0.00000
  114 0.00000 0.00000 0.00000
  115 0.00000 0.00000 0.00000
  116 0.00000 0.00000 0.00000
  117 0.00000 0.00000 0.00000
  118 0.00000 0.00000 0.00000
  119 0.00000 0.00000 0.00000
  120 0.00000 0.00000 0.00000
  121 0.00000 0.00000 0.00000
  122 0.00000 0.00000 0.00000
  123 0.00000 0.00000 0.00000
  124 0.00000 0.00000 0.00000
  125 0.00000 0.00000 0.00000
  126 0.00000 0.00000 0.00000
  127 0.00000 0.00000 0.00000
  128 0.00000 0.00000 0.00000
  129 0.00000 0.00000 0.00000
  130 0.00000 0.00000 0.00000
  131 0.00000 0.00000 0.00000
  132 0.00000 0.00000 0.00000
  133 0.00000 0.00000 0.00000
  134 0.00000 0.00000 0.00000
  135 0.00000 0.00000 0.00000
  136 0.00000 0.00000 0.00000
  137 0.00000 0.00000 0.00000
  138 0.00000 0.00000 0.00000
  139 0.00000 0.00000 0.00000
  140 0.00000 0.00000 0.00000
  141 0.00000 0.00000 0.00000
  142 0.00000 0.00000 0.00000
  143 0.00000 0.00000 0.00000
  144 0.00000 0.00000 0.00000
  145 0.00000 0.00000 0.00000
  146 0.00000 0.00000 0.00000
  147 0.00000 0.00000 0.00000
  148 0.00000 0.00000 0.00000
  149 0.00000 0.00000 0.00000
  150 0.00000 0.00000 0.00000
  151 0.00000 0.00000 0.00000
  152 0.00000 0.00000 0.00000
  153 0.00000 0.00000 0.00000
  154 0.00000 0.00000 0.00000
  155 0.00000 0.00000 0.00000
  156 0.00000 0.00000 0.00000
  157 0.00000 0.00000 0.00000
  158 0.00000 0.00000 0.00000
  159 0.00000 0.00000 0.00000
  160 0.00000 0.00000 0.00000
  161 0.00000 0.00000 0.00000
  162 0.00000 0.00000 0.00000
  163 0.00000 0.00000 0.00000
  164 0.00000 0.00000 0.00000
  165 0.00000 0.00000 0.00000
  166 0.00000 0.00000 0.00000
  167 0.00000 0.00000 0.00000
  168 0.00000 0.00000 0.00000
  169 0.00000 0.00000 0.00000
  170 0.00000 0.00000 0.00000
  171 0.00000 0.00000 0.00000
  172 0.00000 0.00000 0.00000
  173 0.00000 0.00000 0.00000
  174 0.00000 0.00000 0.00000
  175 0.00000 0.00000 0.00000
  176 0.00000 0.00000 0.00000
  177 0.00000 0.00000 0.00000
  178 0.00000 0.00000 0.00000
  179 0.00000 0.00000 0.00000
  180 0.00000 0.00000 0.00000
  181 0.00000 0.00000 0.00000
  182 0.00000 0.00000 0.00000
  183 0.00000 0.00000 0.00000
  184 0.00000 0.00000 0.00000
  185 0.00000 0.00000 0.00000
  186 0.00000 0.00000 0.00000
  187 0.00000 0.00000 0.00000
  188 0.00000 0.00000 0.00000
  189 0.00000 0.00000 0.00000
  190 0.00000 0.00000 0.00000
  191 0.00000 0.00000 0.00000
  192 0.00000 0.00000 0.00000
  193 0.00000 0.00000 0.00000
  194 0.00000 0.00000 0.00000
  195 0.00000 0.00000 0.00000
  196 0.00000 0.00000 0.00000
  197 0.00000 0.00000 0.00000
  198 0.00000 0.00000 0.00000
  199 0.00000 0.00000 0.00000
  200 0.00000 0.00000 0.00000
  201 0.00000 0.00000 0.00000
  202 0.00000 0.00000 0.00000
  203 0.00000 0.00000 0.00000
  204 0.00000 0.00000 0.00000
  205 0.00000 0.00000 0.00000
  206 0.00000 0.00000 0.00000
  207 0.00000 0.00000 0.00000
  208 0.00000 0.00000 0.00000
  209 0.00000 0.00000 0.00000
  210 0.00000 0.00000 0.00000
  211 0.00000 0.00000 0.00000
  212 0.00000 0.00000 0.00000
  213 0.00000 0.00000 0.00000
  214 0.00000 0.00000 0.00000
  215 0.00000 0.00000 0.00000
  216 0.00000 0.00000 0.00000
  217 0.00000 0.00000 0.00000
  218 0.00000 0.00000 0.00000
  219 0.00000 0.00000 0.00000
  220 0.00000 0.00000 0.00000
  221 0.00000 0.00000 0.00000
  222 0.00000 0.00000 0.00000
  223 0.00000 0.00000 0.00000
  224 0.00000 0.00000 0.00000
  225 0.00000 0.00000 0.00000
  226 0.00000 0.00000 0.00000
  227 0.00000 0.00000 0.00000
  228 0.00000 0.00000 0.00000
  229 0.00000 0.00000 0.00000
  230 0.00000 0.00000 0.00000
  231 0.00000 0.00000 0.00000
  232 0.00000 0.00000 0.00000
  233 0.00000 0.00000 0.00000
  234 0.00000 0.00000 0.00000
  235 0.00000 0.00000 0.00000
  236 0.00000 0.00000 0.00000
  237 0.00000 0.00000 0.00000
  238 0.00000 0.00000 0.00000
  239 0.00000 0.00000 0.00000
  240 0.00000 0.00000 0.00000
  241 0.00000 0.00000 0.00000
</Section>

newXOutput 171

<Section columns = "stress_xx | stress_yy | stress_xy">
  1 0.00000 0.00000 0.00000
  2 0.00000 0.00000 0.00000
  3 0.00000 0.00000 0.00000
  4 0.00000 0.00000 0.00000
  5 0.00000 0.00000 0.00000
  6 0.00000 0.00000 0.00000
  7 0.00000 0.00000 0.00000
  8 0.00000 0.00000 0.00000
  9 0.00000 0.00000 0.00000
  10 0.00000 0.00000 0.00000
  11 0.00000 0.00000 0.00000
  12 0.00000 0.00000 0.00000
  13 0.00000 0.00000 0.00000
  14 0.00000 0.00000 0.00000
  15 0.00000 0.00000 0.00000
  16 0.00000 0.00000 0.00000
  17 0.00000 0.00000 0.00000
  18 0.00000 0.00000 0.00000
  19 0.00000 0.00000 0.00000
  20 0.00000 0.00000 0.00000
  21 0.00000 0.00000 0.00000
  22 0.00000 0.00000 0.00000
  23 0.00000 0.00000 0.00000
  24 0.00000 0.00000 0.00000
  25 0.00000 0.00000 0.00000
  26 0.00000 0.00000 0.00000
  27 0.00000 0.00000 0.00000
  28 0.00000 0.00000 0.00000
  29 0.00000 0.00000 0.00000
  30 0.00000 0.00000 0.00000
  31 0.00000 0.00000 0.00000
  32 0.00000 0.00000 0.00000
  33 0.00000 0.00000 0.00000
  34 0.00000 0.00000 0.00000
  35 0.00000 0.00000 0.00000
  36 0.00000 0.00000 0.00000
  37 0.00000 0.00000 0.00000
  38 0.00000 0.00000 0.00000
  39 0.00000 0.00000 0.00000
  40 0.00000 0.00000 0.00000
  41 0.00000 0.00000 0.00000
  42 0.00000 0.00000 0.00000
  43 0.00000 0.00000 0.00000
  44 0.00000 0.00000 0.00000
  45 0.00000 0.00000 0.00000
  46 0.00000 0.00000 0.00000
  47 0.00000 0.00000 0.00000
  48 0.00000 0.00000 0.00000
  49 0.00000 0.00000 0.00000
  50 0.00000 0.00000 0.00000
  51 0.00000 0.00000 0.00000
  52 0.00000 0.00000 0.00000
  53 0.00000 0.00000 0.00000
  54 0.00000 0.00000 0.00000
  55 0.00000 0.00000 0.00000
  56 0.00000 0.00000 0.00000
  57 0.00000 0.00000 0.00000
  58 0.00000 0.00000 0.00000
  59 0.00000 0.00000 0.00000
  60 0.00000 0.00000 0.00000
  61 0.00000 0.00000 0.00000
  62 0.00000 0.00000 0.00000
  63 0.00000 0.00000 0.00000
  64 0.00000 0.00000 0.00000
  65 0.00000 0.00000 0.00000
  66 0.00000 0.00000 0.00000
  67 0.00000 0.00000 0.00000
  68 0.00000 0.00000 0.00000
  69 0.00000 0.00000 0.00000
  70 0.00000 0.00000 0.00000
  71 0.00000 0.00000 0.00000
  72 0.00000 0.00000 0.00000
  73 0.00000 0.00000 0.00000
  74 0.00000 0.00000 0.00000
  75 0.00000 0.00000 0.00000
  76 0.00000 0.00000 0.00000
  77 0.00000 0.00000 0.00000
  78 0.00000 0.00000 0.00000
  79 0.00000 0.00000 0.00000
  80 0.00000 0.00000 0.00000
  81 0.00000 0.00000 0.00000
  82 0.00000 0.00000 0.00000
  83 0.00000 0.00000 0.00000
  84 0.00000 0.00000 0.00000
  85 0.00000 0.00000 0.00000
  86 0.00000 0.00000 0.00000
  87 0.00000 0.00000 0.00000
  88 0.00000 0.00000 0.00000
  89 0.00000 0.00000 0.00000
  90 0.00000 0.00000 0.00000
  91 0.00000 0.00000 0.00000
  92 0.00000 0.00000 0.00000
  93 0.00000 0.00000 0.00000
  94 0.00000 0.00000 0.00000
  95 0.00000 0.00000 0.00000
  96 0.00000 0.00000 0.00000
  97 0.00000 0.00000 0.00000
  98 0.00000 0.00000 0.00000
  99 0.00000 0.00000 0.00000
  100 0.00000 0.00000 0.00000
  101 0.00000 0.00000 0.00000
  102 0.00000 0.00000 0.00000
  103 0.00000 0.00000 0.00000
  104 0.00000 0.00000 0.00000
  105 0.00000 0.00000 0.00000
  106 0.00000 0.00000 0.00000
  107 0.00000 0.00000 0.00000
  108 0.00000 0.00000 0.00000
  109 0.00000 0.00000 0.00000
  110 0.00000 0.00000 0.00000
  111 0.00000 0.00000 0.00000
  112 0.00000 0.00000 0.00000
  113 0.00000 0.00000 0.00000
  114 0.00000 0.00000 0.00000
  115 0.00000 0.00000 0.00000
  116 0.00000 0.00000 0.00000
  117 0.00000 0.00000 0.00000
  118 0.00000 0.00000 0.00000
  119 0.00000 0.00000 0.00000
  120 0.00000 0.00000 0.00000
  121 0.00000 0.00000 0.00000
  122 0.00000 0.00000 0.00000
  123 0.00000 0.00000 0.00000
  124 0.00000 0.00000 0.00000
  125 0.00000 0.00000 0.00000
  126 0.00000 0.00000 0.00000
  127 0.00000 0.00000 0.00000
  128 0.00000 0.00000 0.00000
  129 0.00000 0.00000 0.00000
  130 0.00000 0.00000 0.00000
  131 0.00000 0.00000 0.00000
  132 0.00000 0.00000 0.00000
  133 0.00000 0.00000 0.00000
  134 0.00000 0.00000 0.00000
  135 0.00000 0.00000 0.00000
  136 0.00000 0.00000 0.00000
  137 0.00000 0.00000 0.00000
  138 0.00000 0.00000 0.00000
  139 0.00000 0.00000 0.00000
  140 0.00000 0.00000 0.00000
  141 0.00000 0.00000 0.00000
  142 0.00000 0.00000 0.00000
  143 0.00000 0.00000 0.00000
  144 0.00000 0.00000 0.00000
  145 0.00000 0.00000 0.00000
  146 0.00000 0.00000 0.00000
  147 0.00000 0.00000 0.00000
  148 0.00000 0.00000 0.00000
  149 0.00000 0.00000 0.00000
  150 0.00000 0.00000 0.00000
  151 0.00000 0.00000 0.00000
  152 0.00000 0.00000 0.00000
  153 0.00000 0.00000 0.00000
  154 0.00000 0.00000 0.00000
  155 0.00000 0.00000 0.00000
  156 0.00000 0.00000 0.00000
  157 0.00000 0.00000 0.00000
  158 0.00000 0.00000 0.00000
  159 0.00000 0.00000 0.00000
  160 0.00000 0.00000 0.00000
  161 0.00000 0.00000 0.00000
  162 0.00000 0.00000 0.00000
  163 0.00000 0.00000 0.00000
  164 0.00000 0.00000 0.00000
  165 0.00000 0.00000 0.00000
  166 0.00000 0.00000 0.00000
  167 0.00000 0.00000 0.00000
  168 0.00000 0.00000 0.00000
  169 0.00000 0.00000 0.00000
  170 0.00000 0.00000 0.00000
  171 0.00000 0.00000 0.00000
  172 0.00000 0.00000 0.00000
  173 0.00000 0.00000 0.00000
  174 0.00000 0.00000 0.00000
  175 0.00000 0.00000 0.00000
  176 0.00000 0.00000 0.00000
  177 0.00000 0.00000 0.00000
  178 0.00000 0.00000 0.00000
  179 0.00000 0.00000 0.00000
  180 0.00000 0.00000 0.00000
  181 0.00000 0.00000 0.00000
  182 0.00000 0.00000 0.00000
  183 0.00000 0.00000 0.00000
  184 0.00000 0.00000 0.00000
  185 0.00000 0.00000 0.00000
  186 0.00000 0.00000 0.00000
  187 0.00000 0.00000 0.00000
  188 0.00000 0.00000 0.00000
  189 0.00000 0.00000 0.00000
  190 0.00000 0.00000 0.00000
  191 0.00000 0.00000 0.00000
  192 0.00000 0.00000 0.00000
  193 0.00000 0.00000 0.00000
  194 0.00000 0.00000 0.00000
  195 0.00000 0.00000 0.00000
  196 0.00000 0.00000 0.00000
  197 0.00000 0.00000 0.00000
  198 0.00000 0.00000 0.00000
  199 0.00000 0.00000 0.00000
  200 0.00000 0.00000 0.00000
  201 0.00000 0.00000 0.00000
  202 0.00000 0.00000 0.00000
  203 0.00000 0.00000 0.00000
  204 0.00000 0.00000 0.00000
  205 0.00000 0.00000 0.00000
  206 0.00000 0.00000 0.00000
  207 0.00000 0.00000 0.00000
  208 0.00000 0.00000 0.00000
  209 0.00000 0.00000 0.00000
  210 0.00000 0.00000 0.00000
  211 0.00000 0.00000 0.00000
  212 0.00000 0.00000 0.00000
  213 0.00000 0.00000 0.00000
  214 0.00000 0.00000 0.00000
  215 0.00000 0.00000 0.00000
  216 0.00000 0.00000 0.00000
  217 0.00000 0.00000 0.00000
  218 0.00000 0.00000 0.00000
  219 0.00000 0.00000 0.00000
  220 0.00000 0.00000 0.00000
  221 0.00000 0.00000 0.00000
  222 0.00000 0.00000 0.00000
  223 0.00000 0.00000 0.00000
  224 0.00000 0.00000 0.00000
  225 0.00000 0.00000 0.00000
  226 0.00000 0.00000 0.00000
  227 0.00000 0.00000 0.00000
  228 0.00000 0.00000 0.00000
  229 0.00000 0.00000 0.00000
  230 0.00000 0.00000 0.00000
  231 0.00000 0.00000 0.00000
  232 0.00000 0.00000 0.00000
  233 0.00000 0.00000 0.00000
  234 0.00000 0.00000 0.00000
  235 0.00000 0.00000 0.00000
  236 0.00000 0.00000 0.00000
  237 0.00000 0.00000 0.00000
  238 0.00000 0.00000 0.00000
  239 0.00000 0.00000 0.00000
  240 0.00000 0.00000 0.00000
  241 0.00000 0.00000 0.00000
</Section>

newXOutput 172

<Section columns = "stress_xx | stress_yy | stress_xy">
  1 0.00000 0.00000 0.00000
  2 0.00000 0.00000 0.00000
  3 0.00000 0.00000 0.00000
  4 0.00000 0.00000 0.00000
  5 0.00000 0.00000 0.00000
  6 0.00000 0.00000 0.00000
  7 0.00000 0.00000 0.00000
  8 0.00000 0.00000 0.00000
  9 0.00000 0.00000 0.00000
  10 0.00000 0.00000 0.00000
  11 0.00000 0.00000 0.00000
  12 0.00000 0.00000 0.00000
  13 0.00000 0.00000 0.00000
  14 0.00000 0.00000 0.00000
  15 0.00000 0.00000 0.00000
  16 0.00000 0.00000 0.00000
  17 0.00000 0.00000 0.00000
  18 0.00000 0.00000 0.00000
  19 0.00000 0.00000 0.00000
  20 0.00000 0.00000 0.00000
  21 0.00000 0.00000 0.00000
  22 0.00000 0.00000 0.00000
  23 0.00000 0.00000 0.00000
  24 0.00000 0.00000 0.00000
  25 0.00000 0.00000 0.00000
  26 0.00000 0.00000 0.00000
  27 0.00000 0.00000 0.00000
  28 0.00000 0.00000 0.00000
  29 0.00000 0.00000 0.00000
  30 0.00000 0.00000 0.00000
  31 0.00000 0.00000 0.00000
  32 0.00000 0.00000 0.00000
  33 0.00000 0.00000 0.00000
  34 0.00000 0.00000 0.00000
  35 0.00000 0.00000 0.00000
  36 0.00000 0.00000 0.00000
  37 0.00000 0.00000 0.00000
  38 0.00000 0.00000 0.00000
  39 0.00000 0.00000 0.00000
  40 0.00000 0.00000 0.00000
  41 0.00000 0.00000 0.00000
  42 0.00000 0.00000 0.00000
  43 0.00000 0.00000 0.00000
  44 0.00000 0.00000 0.00000
  45 0.00000 0.00000 0.00000
  46 0.00000 0.00000 0.00000
  47 0.00000 0.00000 0.00000
  48 0.00000 0.00000 0.00000
  49 0.00000 0.00000 0.00000
  50 0.00000 0.00000 0.00000
  51 0.00000 0.00000 0.00000
  52 0.00000 0.00000 0.00000
  53 0.00000 0.00000 0.00000
  54 0.00000 0.00000 0.00000
  55 0.00000 0.00000 0.00000
  56 0.00000 0.00000 0.00000
  57 0.00000 0.00000 0.00000
  58 0.00000 0.00000 0.00000
  59 0.00000 0.00000 0.00000
  60 0.00000 0.00000 0.00000
  61 0.00000 0.00000 0.00000
  62 0.00000 0.00000 0.00000
  63 0.00000 0.00000 0.00000
  64 0.00000 0.00000 0.00000
  65 0.00000 0.00000 0.00000
  66 0.00000 0.00000 0.00000
  67 0.00000 0.00000 0.00000
  68 0.00000 0.00000 0.00000
  69 0.00000 0.00000 0.00000
  70 0.00000 0.00000 0.00000
  71 0.00000 0.00000 0.00000
  72 0.00000 0.00000 0.00000
  73 0.00000 0.00000 0.00000
  74 0.00000 0.00000 0.00000
  75 0.00000 0.00000 0.00000
  76 0.00000 0.00000 0.00000
  77 0.00000 0.00000 0.00000
  78 0.00000 0.00000 0.00000
  79 0.00000 0.00000 0.00000
  80 0.00000 0.00000 0.00000
  81 0.00000 0.00000 0.00000
  82 0.00000 0.00000 0.00000
  83 0.00000 0.00000 0.00000
  84 0.00000 0.00000 0.00000
  85 0.00000 0.00000 0.00000
  86 0.00000 0.00000 0.00000
  87 0.00000 0.00000 0.00000
  88 0.00000 0.00000 0.00000
  89 0.00000 0.00000 0.00000
  90 0.00000 0.00000 0.00000
  91 0.00000 0.00000 0.00000
  92 0.00000 0.00000 0.00000
  93 0.00000 0.00000 0.00000
  94 0.00000 0.00000 0.00000
  95 0.00000 0.00000 0.00000
  96 0.00000 0.00000 0.00000
  97 0.00000 0.00000 0.00000
  98 0.00000 0.00000 0.00000
  99 0.00000 0.00000 0.00000
  100 0.00000 0.00000 0.00000
  101 0.00000 0.00000 0.00000
  102 0.00000 0.00000 0.00000
  103 0.00000 0.00000 0.00000
  104 0.00000 0.00000 0.00000
  105 0.00000 0.00000 0.00000
  106 0.00000 0.00000 0.00000
  107 0.00000 0.00000 0.00000
  108 0.00000 0.00000 0.00000
  109 0.00000 0.00000 0.00000
  110 0.00000 0.00000 0.00000
  111 0.00000 0.00000 0.00000
  112 0.00000 0.00000 0.00000
  113 0.00000 0.00000 0.00000
  114 0.00000 0.00000 0.00000
  115 0.00000 0.00000 0.00000
  116 0.00000 0.00000 0.00000
  117 0.00000 0.00000 0.00000
  118 0.00000 0.00000 0.00000
  119 0.00000 0.00000 0.00000
  120 0.00000 0.00000 0.00000
  121 0.00000 0.00000 0.00000
  122 0.00000 0.00000 0.00000
  123 0.00000 0.00000 0.00000
  124 0.00000 0.00000 0.00000
  125 0.00000 0.00000 0.00000
  126 0.00000 0.00000 0.00000
  127 0.00000 0.00000 0.00000
  128 0.00000 0.00000 0.00000
  129 0.00000 0.00000 0.00000
  130 0.00000 0.00000 0.00000
  131 0.00000 0.00000 0.00000
  132 0.00000 0.00000 0.00000
  133 0.00000 0.00000 0.00000
  134 0.00000 0.00000 0.00000
  135 0.00000 0.00000 0.00000
  136 0.00000 0.00000 0.00000
  137 0.00000 0.00000 0.00000
  138 0.00000 0.00000 0.00000
  139 0.00000 0.00000 0.00000
  140 0.00000 0.00000 0.00000
  141 0.00000 0.00000 0.00000
  142 0.00000 0.00000 0.00000
  143 0.00000 0.00000 0.00000
  144 0.00000 0.00000 0.00000
  145 0.00000 0.00000 0.00000
  146 0.00000 0.00000 0.00000
  147 0.00000 0.00000 0.00000
  148 0.00000 0.00000 0.00000
  149 0.00000 0.00000 0.00000
  150 0.00000 0.00000 0.00000
  151 0.00000 0.00000 0.00000
  152 0.00000 0.00000 0.00000
  153 0.00000 0.00000 0.00000
  154 0.00000 0.00000 0.00000
  155 0.00000 0.00000 0.00000
  156 0.00000 0.00000 0.00000
  157 0.00000 0.00000 0.00000
  158 0.00000 0.00000 0.00000
  159 0.00000 0.00000 0.00000
  160 0.00000 0.00000 0.00000
  161 0.00000 0.00000 0.00000
  162 0.00000 0.00000 0.00000
  163 0.00000 0.00000 0.00000
  164 0.00000 0.00000 0.00000
  165 0.00000 0.00000 0.00000
  166 0.00000 0.00000 0.00000
  167 0.00000 0.00000 0.00000
  168 0.00000 0.00000 0.00000
  169 0.00000 0.00000 0.00000
  170 0.00000 0.00000 0.00000
  171 0.00000 0.00000 0.00000
  172 0.00000 0.00000 0.00000
  173 0.00000 0.00000 0.00000
  174 0.00000 0.00000 0.00000
  175 0.00000 0.00000 0.00000
  176 0.00000 0.00000 0.00000
  177 0.00000 0.00000 0.00000
  178 0.00000 0.00000 0.00000
  179 0.00000 0.00000 0.00000
  180 0.00000 0.00000 0.00000
  181 0.00000 0.00000 0.00000
  182 0.00000 0.00000 0.00000
  183 0.00000 0.00000 0.00000
  184 0.00000 0.00000 0.00000
  185 0.00000 0.00000 0.00000
  186 0.00000 0.00000 0.00000
  187 0.00000 0.00000 0.00000
  188 0.00000 0.00000 0.00000
  189 0.00000 0.00000 0.00000
  190 0.00000 0.00000 0.00000
  191 0.00000 0.00000 0.00000
  192 0.00000 0.00000 0.00000
  193 0.00000 0.00000 0.00000
  194 0.00000 0.00000 0.00000
  195 0.00000 0.00000 0.00000
  196 0.00000 0.00000 0.00000
  197 0.00000 0.00000 0.00000
  198 0.00000 0.00000 0.00000
  199 0.00000 0.00000 0.00000
  200 0.00000 0.00000 0.00000
  201 0.00000 0.00000 0.00000
  202 0.00000 0.00000 0.00000
  203 0.00000 0.00000 0.00000
  204 0.00000 0.00000 0.00000
  205 0.00000 0.00000 0.00000
  206 0.00000 0.00000 0.00000
  207 0.00000 0.00000 0.00000
  208 0.00000 0.00000 0.00000
  209 0.00000 0.00000 0.00000
  210 0.00000 0.00000 0.00000
  211 0.00000 0.00000 0.00000
  212 0.00000 0.00000 0.00000
  213 0.00000 0.00000 0.00000
  214 0.00000 0.00000 0.00000
  215 0.00000 0.00000 0.00000
  216 0.00000 0.00000 0.00000
  217 0.00000 0.00000 0.00000
  218 0.00000 0.00000 0.00000
  219 0.00000 0.00000 0.00000
  220 0.00000 0.00000 0.00000
  221 0.00000 0.00000 0.00000
  222 0.00000 0.00000 0.00000
  223 0.00000 0.00000 0.00000
  224 0.00000 0.00000 0.00000
  225 0.00000 0.00000 0.00000
  226 0.00000 0.00000 0.00000
  227 0.00000 0.00000 0.00000
  228 0.00000 0.00000 0.00000
  229 0.00000 0.00000 0.00000
  230 0.00000 0.00000 0.00000
  231 0.00000 0.00000 0.00000
  232 0.00000 0.00000 0.00000
  233 0.00000 0.00000 0.00000
  234 0.00000 0.00000 0.00000
  235 0.00000 0.00000 0.00000
  236 0.00000 0.00000 0.00000
  237 0.00000 0.00000 0.00000
  238 0.00000 0.00000 0.00000
  239 0.00000 0.00000 0.00000
  240 0.00000 0.00000 0.00000
  241 0.00000 0.00000 0.00000
</Section>

newXOutput 173

<Section columns = "stress_xx | stress_yy | stress_xy">
  1 0.00000 0.00000 0.00000
  2 0.00000 0.00000 0.00000
  3 0.00000 0.00000 0.00000
  4 0.00000 0.00000 0.00000
  5 0.00000 0.00000 0.00000
  6 0.00000 0.00000 0.00000
  7 0.00000 0.00000 0.00000
  8 0.00000 0.00000 0.00000
  9 0.00000 0.00000 0.00000
  10 0.00000 0.00000 0.00000
  11 0.00000 0.00000 0.00000
  12 0.00000 0.00000 0.00000
  13 0.00000 0.00000 0.00000
  14 0.00000 0.00000 0.00000
  15 0.00000 0.00000 0.00000
  16 0.00000 0.00000 0.00000
  17 0.00000 0.00000 0.00000
  18 0.00000 0.00000 0.00000
  19 0.00000 0.00000 0.00000
  20 0.00000 0.00000 0.00000
  21 0.00000 0.00000 0.00000
  22 0.00000 0.00000 0.00000
  23 0.00000 0.00000 0.00000
  24 0.00000 0.00000 0.00000
  25 0.00000 0.00000 0.00000
  26 0.00000 0.00000 0.00000
  27 0.00000 0.00000 0.00000
  28 0.00000 0.00000 0.00000
  29 0.00000 0.00000 0.00000
  30 0.00000 0.00000 0.00000
  31 0.00000 0.00000 0.00000
  32 0.00000 0.00000 0.00000
  33 0.00000 0.00000 0.00000
  34 0.00000 0.00000 0.00000
  35 0.00000 0.00000 0.00000
  36 0.00000 0.00000 0.00000
  37 0.00000 0.00000 0.00000
  38 0.00000 0.00000 0.00000
  39 0.00000 0.00000 0.00000
  40 0.00000 0.00000 0.00000
  41 0.00000 0.00000 0.00000
  42 0.00000 0.00000 0.00000
  43 0.00000 0.00000 0.00000
  44 0.00000 0.00000 0.00000
  45 0.00000 0.00000 0.00000
  46 0.00000 0.00000 0.00000
  47 0.00000 0.00000 0.00000
  48 0.00000 0.00000 0.00000
  49 0.00000 0.00000 0.00000
  50 0.00000 0.00000 0.00000
  51 0.00000 0.00000 0.00000
  52 0.00000 0.00000 0.00000
  53 0.00000 0.00000 0.00000
  54 0.00000 0.00000 0.00000
  55 0.00000 0.00000 0.00000
  56 0.00000 0.00000 0.00000
  57 0.00000 0.00000 0.00000
  58 0.00000 0.00000 0.00000
  59 0.00000 0.00000 0.00000
  60 0.00000 0.00000 0.00000
  61 0.00000 0.00000 0.00000
  62 0.00000 0.00000 0.00000
  63 0.00000 0.00000 0.00000
  64 0.00000 0.00000 0.00000
  65 0.00000 0.00000 0.00000
  66 0.00000 0.00000 0.00000
  67 0.00000 0.00000 0.00000
  68 0.00000 0.00000 0.00000
  69 0.00000 0.00000 0.00000
  70 0.00000 0.00000 0.00000
  71 0.00000 0.00000 0.00000
  72 0.00000 0.00000 0.00000
  73 0.00000 0.00000 0.00000
  74 0.00000 0.00000 0.00000
  75 0.00000 0.00000 0.00000
  76 0.00000 0.00000 0.00000
  77 0.00000 0.00000 0.00000
  78 0.00000 0.00000 0.00000
  79 0.00000 0.00000 0.00000
  80 0.00000 0.00000 0.00000
  81 0.00000 0.00000 0.00000
  82 0.00000 0.00000 0.00000
  83 0.00000 0.00000 0.00000
  84 0.00000 0.00000 0.00000
  85 0.00000 0.00000 0.00000
  86 0.00000 0.00000 0.00000
  87 0.00000 0.00000 0.00000
  88 0.00000 0.00000 0.00000
  89 0.00000 0.00000 0.00000
  90 0.00000 0.00000 0.00000
  91 0.00000 0.00000 0.00000
  92 0.00000 0.00000 0.00000
  93 0.00000 0.00000 0.00000
  94 0.00000 0.00000 0.00000
  95 0.00000 0.00000 0.00000
  96 0.00000 0.00000 0.00000
  97 0.00000 0.00000 0.00000
  98 0.00000 0.00000 0.00000
  99 0.00000 0.00000 0.00000
  100 0.00000 0.00000 0.00000
  101 0.00000 0.00000 0.00000
  102 0.00000 0.00000 0.00000
  103 0.00000 0.00000 0.00000
  104 0.00000 0.00000 0.00000
  105 0.00000 0.00000 0.00000
  106 0.00000 0.00000 0.00000
  107 0.00000 0.00000 0.00000
  108 0.00000 0.00000 0.00000
  109 0.00000 0.00000 0.00000
  110 0.00000 0.00000 0.00000
  111 0.00000 0.00000 0.00000
  112 0.00000 0.00000 0.00000
  113 0.00000 0.00000 0.00000
  114 0.00000 0.00000 0.00000
  115 0.00000 0.00000 0.00000
  116 0.00000 0.00000 0.00000
  117 0.00000 0.00000 0.00000
  118 0.00000 0.00000 0.00000
  119 0.00000 0.00000 0.00000
  120 0.00000 0.00000 0.00000
  121 0.00000 0.00000 0.00000
  122 0.00000 0.00000 0.00000
  123 0.00000 0.00000 0.00000
  124 0.00000 0.00000 0.00000
  125 0.00000 0.00000 0.00000
  126 0.00000 0.00000 0.00000
  127 0.00000 0.00000 0.00000
  128 0.00000 0.00000 0.00000
  129 0.00000 0.00000 0.00000
  130 0.00000 0.00000 0.00000
  131 0.00000 0.00000 0.00000
  132 0.00000 0.00000 0.00000
  133 0.00000 0.00000 0.00000
  134 0.00000 0.00000 0.00000
  135 0.00000 0.00000 0.00000
  136 0.00000 0.00000 0.00000
  137 0.00000 0.00000 0.00000
  138 0.00000 0.00000 0.00000
  139 0.00000 0.00000 0.00000
  140 0.00000 0.00000 0.00000
  141 0.00000 0.00000 0.00000
  142 0.00000 0.00000 0.00000
  143 0.00000 0.00000 0.00000
  144 0.00000 0.00000 0.00000
  145 0.00000 0.00000 0.00000
  146 0.00000 0.00000 0.00000
  147 0.00000 0.00000 0.00000
  148 0.00000 0.00000 0.00000
  149 0.00000 0.00000 0.00000
  150 0.00000 0.00000 0.00000
  151 0.00000 0.00000 0.00000
  152 0.00000 0.00000 0.00000
  153 0.00000 0.00000 0.00000
  154 0.00000 0.00000 0.00000
  155 0.00000 0.00000 0.00000
  156 0.00000 0.00000 0.00000
  157 0.00000 0.00000 0.00000
  158 0.00000 0.00000 0.00000
  159 0.00000 0.00000 0.00000
  160 0.00000 0.00000 0.00000
  161 0.00000 0.00000 0.00000
  162 0.00000 0.00000 0.00000
  163 0.00000 0.00000 0.00000
  164 0.00000 0.00000 0.00000
  165 0.00000 0.00000 0.00000
  166 0.00000 0.00000 0.00000
  167 0.00000 0.00000 0.00000
  168 0.00000 0.00000 0.00000
  169 0.00000 0.00000 0.00000
  170 0.00000 0.00000 0.00000
  171 0.00000 0.00000 0.00000
  172 0.00000 0.00000 0.00000
  173 0.00000 0.00000 0.00000
  174 0.00000 0.00000 0.00000
  175 0.00000 0.00000 0.00000
  176 0.00000 0.00000 0.00000
  177 0.00000 0.00000 0.00000
  178 0.00000 0.00000 0.00000
  179 0.00000 0.00000 0.00000
  180 0.00000 0.00000 0.00000
  181 0.00000 0.00000 0.00000
  182 0.00000 0.00000 0.00000
  183 0.00000 0.00000 0.00000
  184 0.00000 0.00000 0.00000
  185 0.00000 0.00000 0.00000
  186 0.00000 0.00000 0.00000
  187 0.00000 0.00000 0.00000
  188 0.00000 0.00000 0.00000
  189 0.00000 0.00000 0.00000
  190 0.00000 0.00000 0.00000
  191 0.00000 0.00000 0.00000
  192 0.00000 0.00000 0.00000
  193 0.00000 0.00000 0.00000
  194 0.00000 0.00000 0.00000
  195 0.00000 0.00000 0.00000
  196 0.00000 0.00000 0.00000
  197 0.00000 0.00000 0.00000
  198 0.00000 0.00000 0.00000
  199 0.00000 0.00000 0.00000
  200 0.00000 0.00000 0.00000
  201 0.00000 0.00000 0.00000
  202 0.00000 0.00000 0.00000
  203 0.00000 0.00000 0.00000
  204 0.00000 0.00000 0.00000
  205 0.00000 0.00000 0.00000
  206 0.00000 0.00000 0.00000
  207 0.00000 0.00000 0.00000
  208 0.00000 0.00000 0.00000
  209 0.00000 0.00000 0.00000
  210 0.00000 0.00000 0.00000
  211 0.00000 0.00000 0.00000
  212 0.00000 0.00000 0.00000
  213 0.00000 0.00000 0.00000
  214 0.00000 0.00000 0.00000
  215 0.00000 0.00000 0.00000
  216 0.00000 0.00000 0.00000
  217 0.00000 0.00000 0.00000
  218 0.00000 0.00000 0.00000
  219 0.00000 0.00000 0.00000
  220 0.00000 0.00000 0.00000
  221 0.00000 0.00000 0.00000
  222 0.00000 0.00000 0.00000
  223 0.00000 0.00000 0.00000
  224 0.00000 0.00000 0.00000
  225 0.00000 0.00000 0.00000
  226 0.00000 0.00000 0.00000
  227 0.00000 0.00000 0.00000
  228 0.00000 0.00000 0.00000
  229 0.00000 0.00000 0.00000
  230 0.00000 0.00000 0.00000
  231 0.00000 0.00000 0.00000
  232 0.00000 0.00000 0.00000
  233 0.00000 0.00000 0.00000
  234 0.00000 0.00000 0.00000
  235 0.00000 0.00000 0.00000
  236 0.00000 0.00000 0.00000
  237 0.00000 0.00000 0.00000
  238 0.00000 0.00000 0.00000
  239 0.00000 0.00000 0.00000
  240 0.00000 0.00000 0.00000
  241 0.00000 0.00000 0.00000
</Section>

newXOutput 174

<Section columns = "stress_xx | stress_yy | stress_xy">
  1 0.00000 0.00000 0.00000
  2 0.00000 0.00000 0.00000
  3 0.00000 0.00000 0.00000
  4 0.00000 0.00000 0.00000
  5 0.00000 0.00000 0.00000
  6 0.00000 0.00000 0.00000
  7 0.00000 0.00000 0.00000
  8 0.00000 0.00000 0.00000
  9 0.00000 0.00000 0.00000
  10 0.00000 0.00000 0.00000
  11 0.00000 0.00000 0.00000
  12 0.00000 0.00000 0.00000
  13 0.00000 0.00000 0.00000
  14 0.00000 0.00000 0.00000
  15 0.00000 0.00000 0.00000
  16 0.00000 0.00000 0.00000
  17 0.00000 0.00000 0.00000
  18 0.00000 0.00000 0.00000
  19 0.00000 0.00000 0.00000
  20 0.00000 0.00000 0.00000
  21 0.00000 0.00000 0.00000
  22 0.00000 0.00000 0.00000
  23 0.00000 0.00000 0.00000
  24 0.00000 0.00000 0.00000
  25 0.00000 0.00000 0.00000
  26 0.00000 0.00000 0.00000
  27 0.00000 0.00000 0.00000
  28 0.00000 0.00000 0.00000
  29 0.00000 0.00000 0.00000
  30 0.00000 0.00000 0.00000
  31 0.00000 0.00000 0.00000
  32 0.00000 0.00000 0.00000
  33 0.00000 0.00000 0.00000
  34 0.00000 0.00000 0.00000
  35 0.00000 0.00000 0.00000
  36 0.00000 0.00000 0.00000
  37 0.00000 0.00000 0.00000
  38 0.00000 0.00000 0.00000
  39 0.00000 0.00000 0.00000
  40 0.00000 0.00000 0.00000
  41 0.00000 0.00000 0.00000
  42 0.00000 0.00000 0.00000
  43 0.00000 0.00000 0.00000
  44 0.00000 0.00000 0.00000
  45 0.00000 0.00000 0.00000
  46 0.00000 0.00000 0.00000
  47 0.00000 0.00000 0.00000
  48 0.00000 0.00000 0.00000
  49 0.00000 0.00000 0.00000
  50 0.00000 0.00000 0.00000
  51 0.00000 0.00000 0.00000
  52 0.00000 0.00000 0.00000
  53 0.00000 0.00000 0.00000
  54 0.00000 0.00000 0.00000
  55 0.00000 0.00000 0.00000
  56 0.00000 0.00000 0.00000
  57 0.00000 0.00000 0.00000
  58 0.00000 0.00000 0.00000
  59 0.00000 0.00000 0.00000
  60 0.00000 0.00000 0.00000
  61 0.00000 0.00000 0.00000
  62 0.00000 0.00000 0.00000
  63 0.00000 0.00000 0.00000
  64 0.00000 0.00000 0.00000
  65 0.00000 0.00000 0.00000
  66 0.00000 0.00000 0.00000
  67 0.00000 0.00000 0.00000
  68 0.00000 0.00000 0.00000
  69 0.00000 0.00000 0.00000
  70 0.00000 0.00000 0.00000
  71 0.00000 0.00000 0.00000
  72 0.00000 0.00000 0.00000
  73 0.00000 0.00000 0.00000
  74 0.00000 0.00000 0.00000
  75 0.00000 0.00000 0.00000
  76 0.00000 0.00000 0.00000
  77 0.00000 0.00000 0.00000
  78 0.00000 0.00000 0.00000
  79 0.00000 0.00000 0.00000
  80 0.00000 0.00000 0.00000
  81 0.00000 0.00000 0.00000
  82 0.00000 0.00000 0.00000
  83 0.00000 0.00000 0.00000
  84 0.00000 0.00000 0.00000
  85 0.00000 0.00000 0.00000
  86 0.00000 0.00000 0.00000
  87 0.00000 0.00000 0.00000
  88 0.00000 0.00000 0.00000
  89 0.00000 0.00000 0.00000
  90 0.00000 0.00000 0.00000
  91 0.00000 0.00000 0.00000
  92 0.00000 0.00000 0.00000
  93 0.00000 0.00000 0.00000
  94 0.00000 0.00000 0.00000
  95 0.00000 0.00000 0.00000
  96 0.00000 0.00000 0.00000
  97 0.00000 0.00000 0.00000
  98 0.00000 0.00000 0.00000
  99 0.00000 0.00000 0.00000
  100 0.00000 0.00000 0.00000
  101 0.00000 0.00000 0.00000
  102 0.00000 0.00000 0.00000
  103 0.00000 0.00000 0.00000
  104 0.00000 0.00000 0.00000
  105 0.00000 0.00000 0.00000
  106 0.00000 0.00000 0.00000
  107 0.00000 0.00000 0.00000
  108 0.00000 0.00000 0.00000
  109 0.00000 0.00000 0.00000
  110 0.00000 0.00000 0.00000
  111 0.00000 0.00000 0.00000
  112 0.00000 0.00000 0.00000
  113 0.00000 0.00000 0.00000
  114 0.00000 0.00000 0.00000
  115 0.00000 0.00000 0.00000
  116 0.00000 0.00000 0.00000
  117 0.00000 0.00000 0.00000
  118 0.00000 0.00000 0.00000
  119 0.00000 0.00000 0.00000
  120 0.00000 0.00000 0.00000
  121 0.00000 0.00000 0.00000
  122 0.00000 0.00000 0.00000
  123 0.00000 0.00000 0.00000
  124 0.00000 0.00000 0.00000
  125 0.00000 0.00000 0.00000
  126 0.00000 0.00000 0.00000
  127 0.00000 0.00000 0.00000
  128 0.00000 0.00000 0.00000
  129 0.00000 0.00000 0.00000
  130 0.00000 0.00000 0.00000
  131 0.00000 0.00000 0.00000
  132 0.00000 0.00000 0.00000
  133 0.00000 0.00000 0.00000
  134 0.00000 0.00000 0.00000
  135 0.00000 0.00000 0.00000
  136 0.00000 0.00000 0.00000
  137 0.00000 0.00000 0.00000
  138 0.00000 0.00000 0.00000
  139 0.00000 0.00000 0.00000
  140 0.00000 0.00000 0.00000
  141 0.00000 0.00000 0.00000
  142 0.00000 0.00000 0.00000
  143 0.00000 0.00000 0.00000
  144 0.00000 0.00000 0.00000
  145 0.00000 0.00000 0.00000
  146 0.00000 0.00000 0.00000
  147 0.00000 0.00000 0.00000
  148 0.00000 0.00000 0.00000
  149 0.00000 0.00000 0.00000
  150 0.00000 0.00000 0.00000
  151 0.00000 0.00000 0.00000
  152 0.00000 0.00000 0.00000
  153 0.00000 0.00000 0.00000
  154 0.00000 0.00000 0.00000
  155 0.00000 0.00000 0.00000
  156 0.00000 0.00000 0.00000
  157 0.00000 0.00000 0.00000
  158 0.00000 0.00000 0.00000
  159 0.00000 0.00000 0.00000
  160 0.00000 0.00000 0.00000
  161 0.00000 0.00000 0.00000
  162 0.00000 0.00000 0.00000
  163 0.00000 0.00000 0.00000
  164 0.00000 0.00000 0.00000
  165 0.00000 0.00000 0.00000
  166 0.00000 0.00000 0.00000
  167 0.00000 0.00000 0.00000
  168 0.00000 0.00000 0.00000
  169 0.00000 0.00000 0.00000
  170 0.00000 0.00000 0.00000
  171 0.00000 0.00000 0.00000
  172 0.00000 0.00000 0.00000
  173 0.00000 0.00000 0.00000
  174 0.00000 0.00000 0.00000
  175 0.00000 0.00000 0.00000
  176 0.00000 0.00000 0.00000
  177 0.00000 0.00000 0.00000
  178 0.00000 0.00000 0.00000
  179 0.00000 0.00000 0.00000
  180 0.00000 0.00000 0.00000
  181 0.00000 0.00000 0.00000
  182 0.00000 0.00000 0.00000
  183 0.00000 0.00000 0.00000
  184 0.00000 0.00000 0.00000
  185 0.00000 0.00000 0.00000
  186 0.00000 0.00000 0.00000
  187 0.00000 0.00000 0.00000
  188 0.00000 0.00000 0.00000
  189 0.00000 0.00000 0.00000
  190 0.00000 0.00000 0.00000
  191 0.00000 0.00000 0.00000
  192 0.00000 0.00000 0.00000
  193 0.00000 0.00000 0.00000
  194 0.00000 0.00000 0.00000
  195 0.00000 0.00000 0.00000
  196 0.00000 0.00000 0.00000
  197 0.00000 0.00000 0.00000
  198 0.00000 0.00000 0.00000
  199 0.00000 0.00000 0.00000
  200 0.00000 0.00000 0.00000
  201 0.00000 0.00000 0.00000
  202 0.00000 0.00000 0.00000
  203 0.00000 0.00000 0.00000
  204 0.00000 0.00000 0.00000
  205 0.00000 0.00000 0.00000
  206 0.00000 0.00000 0.00000
  207 0.00000 0.00000 0.00000
  208 0.00000 0.00000 0.00000
  209 0.00000 0.00000 0.00000
  210 0.00000 0.00000 0.00000
  211 0.00000 0.00000 0.00000
  212 0.00000 0.00000 0.00000
  213 0.00000 0.00000 0.00000
  214 0.00000 0.00000 0.00000
  215 0.00000 0.00000 0.00000
  216 0.00000 0.00000 0.00000
  217 0.00000 0.00000 0.00000
  218 0.00000 0.00000 0.00000
  219 0.00000 0.00000 0.00000
  220 0.00000 0.00000 0.00000
  221 0.00000 0.00000 0.00000
  222 0.00000 0.00000 0.00000
  223 0.00000 0.00000 0.00000
  224 0.00000 0.00000 0.00000
  225 0.00000 0.00000 0.00000
  226 0.00000 0.00000 0.00000
  227 0.00000 0.00000 0.00000
  228 0.00000 0.00000 0.00000
  229 0.00000 0.00000 0.00000
  230 0.00000 0.00000 0.00000
  231 0.00000 0.00000 0.00000
  232 0.00000 0.00000 0.00000
  233 0.00000 0.00000 0.00000
  234 0.00000 0.00000 0.00000
  235 0.00000 0.00000 0.00000
  236 0.00000 0.00000 0.00000
  237 0.00000 0.00000 0.00000
  238 0.00000 0.00000 0.00000
  239 0.00000 0.00000 0.00000
  240 0.00000 0.00000 0.00000
  241 0.00000 0.00000 0.00000
</Section>

newXOutput 175

<Section columns = "stress_xx | stress_yy | stress_xy">
  1 0.00000 0.00000 0.00000
  2 0.00000 0.00000 0.00000
  3 0.00000 0.00000 0.00000
  4 0.00000 0.00000 0.00000
  5 0.00000 0.00000 0.00000
  6 0.00000 0.00000 0.00000
  7 0.00000 0.00000 0.00000
  8 0.00000 0.00000 0.00000
  9 0.00000 0.00000 0.00000
  10 0.00000 0.00000 0.00000
  11 0.00000 0.00000 0.00000
  12 0.00000 0.00000 0.00000
  13 0.00000 0.00000 0.00000
  14 0.00000 0.00000 0.00000
  15 0.00000 0.00000 0.00000
  16 0.00000 0.00000 0.00000
  17 0.00000 0.00000 0.00000
  18 0.00000 0.00000 0.00000
  19 0.00000 0.00000 0.00000
  20 0.00000 0.00000 0.00000
  21 0.00000 0.00000 0.00000
  22 0.00000 0.00000 0.00000
  23 0.00000 0.00000 0.00000
  24 0.00000 0.00000 0.00000
  25 0.00000 0.00000 0.00000
  26 0.00000 0.00000 0.00000
  27 0.00000 0.00000 0.00000
  28 0.00000 0.00000 0.00000
  29 0.00000 0.00000 0.00000
  30 0.00000 0.00000 0.00000
  31 0.00000 0.00000 0.00000
  32 0.00000 0.00000 0.00000
  33 0.00000 0.00000 0.00000
  34 0.00000 0.00000 0.00000
  35 0.00000 0.00000 0.00000
  36 0.00000 0.00000 0.00000
  37 0.00000 0.00000 0.00000
  38 0.00000 0.00000 0.00000
  39 0.00000 0.00000 0.00000
  40 0.00000 0.00000 0.00000
  41 0.00000 0.00000 0.00000
  42 0.00000 0.00000 0.00000
  43 0.00000 0.00000 0.00000
  44 0.00000 0.00000 0.00000
  45 0.00000 0.00000 0.00000
  46 0.00000 0.00000 0.00000
  47 0.00000 0.00000 0.00000
  48 0.00000 0.00000 0.00000
  49 0.00000 0.00000 0.00000
  50 0.00000 0.00000 0.00000
  51 0.00000 0.00000 0.00000
  52 0.00000 0.00000 0.00000
  53 0.00000 0.00000 0.00000
  54 0.00000 0.00000 0.00000
  55 0.00000 0.00000 0.00000
  56 0.00000 0.00000 0.00000
  57 0.00000 0.00000 0.00000
  58 0.00000 0.00000 0.00000
  59 0.00000 0.00000 0.00000
  60 0.00000 0.00000 0.00000
  61 0.00000 0.00000 0.00000
  62 0.00000 0.00000 0.00000
  63 0.00000 0.00000 0.00000
  64 0.00000 0.00000 0.00000
  65 0.00000 0.00000 0.00000
  66 0.00000 0.00000 0.00000
  67 0.00000 0.00000 0.00000
  68 0.00000 0.00000 0.00000
  69 0.00000 0.00000 0.00000
  70 0.00000 0.00000 0.00000
  71 0.00000 0.00000 0.00000
  72 0.00000 0.00000 0.00000
  73 0.00000 0.00000 0.00000
  74 0.00000 0.00000 0.00000
  75 0.00000 0.00000 0.00000
  76 0.00000 0.00000 0.00000
  77 0.00000 0.00000 0.00000
  78 0.00000 0.00000 0.00000
  79 0.00000 0.00000 0.00000
  80 0.00000 0.00000 0.00000
  81 0.00000 0.00000 0.00000
  82 0.00000 0.00000 0.00000
  83 0.00000 0.00000 0.00000
  84 0.00000 0.00000 0.00000
  85 0.00000 0.00000 0.00000
  86 0.00000 0.00000 0.00000
  87 0.00000 0.00000 0.00000
  88 0.00000 0.00000 0.00000
  89 0.00000 0.00000 0.00000
  90 0.00000 0.00000 0.00000
  91 0.00000 0.00000 0.00000
  92 0.00000 0.00000 0.00000
  93 0.00000 0.00000 0.00000
  94 0.00000 0.00000 0.00000
  95 0.00000 0.00000 0.00000
  96 0.00000 0.00000 0.00000
  97 0.00000 0.00000 0.00000
  98 0.00000 0.00000 0.00000
  99 0.00000 0.00000 0.00000
  100 0.00000 0.00000 0.00000
  101 0.00000 0.00000 0.00000
  102 0.00000 0.00000 0.00000
  103 0.00000 0.00000 0.00000
  104 0.00000 0.00000 0.00000
  105 0.00000 0.00000 0.00000
  106 0.00000 0.00000 0.00000
  107 0.00000 0.00000 0.00000
  108 0.00000 0.00000 0.00000
  109 0.00000 0.00000 0.00000
  110 0.00000 0.00000 0.00000
  111 0.00000 0.00000 0.00000
  112 0.00000 0.00000 0.00000
  113 0.00000 0.00000 0.00000
  114 0.00000 0.00000 0.00000
  115 0.00000 0.00000 0.00000
  116 0.00000 0.00000 0.00000
  117 0.00000 0.00000 0.00000
  118 0.00000 0.00000 0.00000
  119 0.00000 0.00000 0.00000
  120 0.00000 0.00000 0.00000
  121 0.00000 0.00000 0.00000
  122 0.00000 0.00000 0.00000
  123 0.00000 0.00000 0.00000
  124 0.00000 0.00000 0.00000
  125 0.00000 0.00000 0.00000
  126 0.00000 0.00000 0.00000
  127 0.00000 0.00000 0.00000
  128 0.00000 0.00000 0.00000
  129 0.00000 0.00000 0.00000
  130 0.00000 0.00000 0.00000
  131 0.00000 0.00000 0.00000
  132 0.00000 0.00000 0.00000
  133 0.00000 0.00000 0.00000
  134 0.00000 0.00000 0.00000
  135 0.00000 0.00000 0.00000
  136 0.00000 0.00000 0.00000
  137 0.00000 0.00000 0.00000
  138 0.00000 0.00000 0.00000
  139 0.00000 0.00000 0.00000
  140 0.00000 0.00000 0.00000
  141 0.00000 0.00000 0.00000
  142 0.00000 0.00000 0.00000
  143 0.00000 0.00000 0.00000
  144 0.00000 0.00000 0.00000
  145 0.00000 0.00000 0.00000
  146 0.00000 0.00000 0.00000
  147 0.00000 0.00000 0.00000
  148 0.00000 0.00000 0.00000
  149 0.00000 0.00000 0.00000
  150 0.00000 0.00000 0.00000
  151 0.00000 0.00000 0.00000
  152 0.00000 0.00000 0.00000
  153 0.00000 0.00000 0.00000
  154 0.00000 0.00000 0.00000
  155 0.00000 0.00000 0.00000
  156 0.00000 0.00000 0.00000
  157 0.00000 0.00000 0.00000
  158 0.00000 0.00000 0.00000
  159 0.00000 0.00000 0.00000
  160 0.00000 0.00000 0.00000
  161 0.00000 0.00000 0.00000
  162 0.00000 0.00000 0.00000
  163 0.00000 0.00000 0.00000
  164 0.00000 0.00000 0.00000
  165 0.00000 0.00000 0.00000
  166 0.00000 0.00000 0.00000
  167 0.00000 0.00000 0.00000
  168 0.00000 0.00000 0.00000
  169 0.00000 0.00000 0.00000
  170 0.00000 0.00000 0.00000
  171 0.00000 0.00000 0.00000
  172 0.00000 0.00000 0.00000
  173 0.00000 0.00000 0.00000
  174 0.00000 0.00000 0.00000
  175 0.00000 0.00000 0.00000
  176 0.00000 0.00000 0.00000
  177 0.00000 0.00000 0.00000
  178 0.00000 0.00000 0.00000
  179 0.00000 0.00000 0.00000
  180 0.00000 0.00000 0.00000
  181 0.00000 0.00000 0.00000
  182 0.00000 0.00000 0.00000
  183 0.00000 0.00000 0.00000
  184 0.00000 0.00000 0.00000
  185 0.00000 0.00000 0.00000
  186 0.00000 0.00000 0.00000
  187 0.00000 0.00000 0.00000
  188 0.00000 0.00000 0.00000
  189 0.00000 0.00000 0.00000
  190 0.00000 0.00000 0.00000
  191 0.00000 0.00000 0.00000
  192 0.00000 0.00000 0.00000
  193 0.00000 0.00000 0.00000
  194 0.00000 0.00000 0.00000
  195 0.00000 0.00000 0.00000
  196 0.00000 0.00000 0.00000
  197 0.00000 0.00000 0.00000
  198 0.00000 0.00000 0.00000
  199 0.00000 0.00000 0.00000
  200 0.00000 0.00000 0.00000
  201 0.00000 0.00000 0.00000
  202 0.00000 0.00000 0.00000
  203 0.00000 0.00000 0.00000
  204 0.00000 0.00000 0.00000
  205 0.00000 0.00000 0.00000
  206 0.00000 0.00000 0.00000
  207 0.00000 0.00000 0.00000
  208 0.00000 0.00000 0.00000
  209 0.00000 0.00000 0.00000
  210 0.00000 0.00000 0.00000
  211 0.00000 0.00000 0.00000
  212 0.00000 0.00000 0.00000
  213 0.00000 0.00000 0.00000
  214 0.00000 0.00000 0.00000
  215 0.00000 0.00000 0.00000
  216 0.00000 0.00000 0.00000
  217 0.00000 0.00000 0.00000
  218 0.00000 0.00000 0.00000
  219 0.00000 0.00000 0.00000
  220 0.00000 0.00000 0.00000
  221 0.00000 0.00000 0.00000
  222 0.00000 0.00000 0.00000
  223 0.00000 0.00000 0.00000
  224 0.00000 0.00000 0.00000
  225 0.00000 0.00000 0.00000
  226 0.00000 0.00000 0.00000
  227 0.00000 0.00000 0.00000
  228 0.00000 0.00000 0.00000
  229 0.00000 0.00000 0.00000
  230 0.00000 0.00000 0.00000
  231 0.00000 0.00000 0.00000
  232 0.00000 0.00000 0.00000
  233 0.00000 0.00000 0.00000
  234 0.00000 0.00000 0.00000
  235 0.00000 0.00000 0.00000
  236 0.00000 0.00000 0.00000
  237 0.00000 0.00000 0.00000
  238 0.00000 0.00000 0.00000
  239 0.00000 0.00000 0.00000
  240 0.00000 0.00000 0.00000
  241 0.00000 0.00000 0.00000
</Section>

newXOutput 176

<Section columns = "stress_xx | stress_yy | stress_xy">
  1 0.00000 0.00000 0.00000
  2 0.00000 0.00000 0.00000
  3 0.00000 0.00000 0.00000
  4 0.00000 0.00000 0.00000
  5 0.00000 0.00000 0.00000
  6 0.00000 0.00000 0.00000
  7 0.00000 0.00000 0.00000
  8 0.00000 0.00000 0.00000
  9 0.00000 0.00000 0.00000
  10 0.00000 0.00000 0.00000
  11 0.00000 0.00000 0.00000
  12 0.00000 0.00000 0.00000
  13 0.00000 0.00000 0.00000
  14 0.00000 0.00000 0.00000
  15 0.00000 0.00000 0.00000
  16 0.00000 0.00000 0.00000
  17 0.00000 0.00000 0.00000
  18 0.00000 0.00000 0.00000
  19 0.00000 0.00000 0.00000
  20 0.00000 0.00000 0.00000
  21 0.00000 0.00000 0.00000
  22 0.00000 0.00000 0.00000
  23 0.00000 0.00000 0.00000
  24 0.00000 0.00000 0.00000
  25 0.00000 0.00000 0.00000
  26 0.00000 0.00000 0.00000
  27 0.00000 0.00000 0.00000
  28 0.00000 0.00000 0.00000
  29 0.00000 0.00000 0.00000
  30 0.00000 0.00000 0.00000
  31 0.00000 0.00000 0.00000
  32 0.00000 0.00000 0.00000
  33 0.00000 0.00000 0.00000
  34 0.00000 0.00000 0.00000
  35 0.00000 0.00000 0.00000
  36 0.00000 0.00000 0.00000
  37 0.00000 0.00000 0.00000
  38 0.00000 0.00000 0.00000
  39 0.00000 0.00000 0.00000
  40 0.00000 0.00000 0.00000
  41 0.00000 0.00000 0.00000
  42 0.00000 0.00000 0.00000
  43 0.00000 0.00000 0.00000
  44 0.00000 0.00000 0.00000
  45 0.00000 0.00000 0.00000
  46 0.00000 0.00000 0.00000
  47 0.00000 0.00000 0.00000
  48 0.00000 0.00000 0.00000
  49 0.00000 0.00000 0.00000
  50 0.00000 0.00000 0.00000
  51 0.00000 0.00000 0.00000
  52 0.00000 0.00000 0.00000
  53 0.00000 0.00000 0.00000
  54 0.00000 0.00000 0.00000
  55 0.00000 0.00000 0.00000
  56 0.00000 0.00000 0.00000
  57 0.00000 0.00000 0.00000
  58 0.00000 0.00000 0.00000
  59 0.00000 0.00000 0.00000
  60 0.00000 0.00000 0.00000
  61 0.00000 0.00000 0.00000
  62 0.00000 0.00000 0.00000
  63 0.00000 0.00000 0.00000
  64 0.00000 0.00000 0.00000
  65 0.00000 0.00000 0.00000
  66 0.00000 0.00000 0.00000
  67 0.00000 0.00000 0.00000
  68 0.00000 0.00000 0.00000
  69 0.00000 0.00000 0.00000
  70 0.00000 0.00000 0.00000
  71 0.00000 0.00000 0.00000
  72 0.00000 0.00000 0.00000
  73 0.00000 0.00000 0.00000
  74 0.00000 0.00000 0.00000
  75 0.00000 0.00000 0.00000
  76 0.00000 0.00000 0.00000
  77 0.00000 0.00000 0.00000
  78 0.00000 0.00000 0.00000
  79 0.00000 0.00000 0.00000
  80 0.00000 0.00000 0.00000
  81 0.00000 0.00000 0.00000
  82 0.00000 0.00000 0.00000
  83 0.00000 0.00000 0.00000
  84 0.00000 0.00000 0.00000
  85 0.00000 0.00000 0.00000
  86 0.00000 0.00000 0.00000
  87 0.00000 0.00000 0.00000
  88 0.00000 0.00000 0.00000
  89 0.00000 0.00000 0.00000
  90 0.00000 0.00000 0.00000
  91 0.00000 0.00000 0.00000
  92 0.00000 0.00000 0.00000
  93 0.00000 0.00000 0.00000
  94 0.00000 0.00000 0.00000
  95 0.00000 0.00000 0.00000
  96 0.00000 0.00000 0.00000
  97 0.00000 0.00000 0.00000
  98 0.00000 0.00000 0.00000
  99 0.00000 0.00000 0.00000
  100 0.00000 0.00000 0.00000
  101 0.00000 0.00000 0.00000
  102 0.00000 0.00000 0.00000
  103 0.00000 0.00000 0.00000
  104 0.00000 0.00000 0.00000
  105 0.00000 0.00000 0.00000
  106 0.00000 0.00000 0.00000
  107 0.00000 0.00000 0.00000
  108 0.00000 0.00000 0.00000
  109 0.00000 0.00000 0.00000
  110 0.00000 0.00000 0.00000
  111 0.00000 0.00000 0.00000
  112 0.00000 0.00000 0.00000
  113 0.00000 0.00000 0.00000
  114 0.00000 0.00000 0.00000
  115 0.00000 0.00000 0.00000
  116 0.00000 0.00000 0.00000
  117 0.00000 0.00000 0.00000
  118 0.00000 0.00000 0.00000
  119 0.00000 0.00000 0.00000
  120 0.00000 0.00000 0.00000
  121 0.00000 0.00000 0.00000
  122 0.00000 0.00000 0.00000
  123 0.00000 0.00000 0.00000
  124 0.00000 0.00000 0.00000
  125 0.00000 0.00000 0.00000
  126 0.00000 0.00000 0.00000
  127 0.00000 0.00000 0.00000
  128 0.00000 0.00000 0.00000
  129 0.00000 0.00000 0.00000
  130 0.00000 0.00000 0.00000
  131 0.00000 0.00000 0.00000
  132 0.00000 0.00000 0.00000
  133 0.00000 0.00000 0.00000
  134 0.00000 0.00000 0.00000
  135 0.00000 0.00000 0.00000
  136 0.00000 0.00000 0.00000
  137 0.00000 0.00000 0.00000
  138 0.00000 0.00000 0.00000
  139 0.00000 0.00000 0.00000
  140 0.00000 0.00000 0.00000
  141 0.00000 0.00000 0.00000
  142 0.00000 0.00000 0.00000
  143 0.00000 0.00000 0.00000
  144 0.00000 0.00000 0.00000
  145 0.00000 0.00000 0.00000
  146 0.00000 0.00000 0.00000
  147 0.00000 0.00000 0.00000
  148 0.00000 0.00000 0.00000
  149 0.00000 0.00000 0.00000
  150 0.00000 0.00000 0.00000
  151 0.00000 0.00000 0.00000
  152 0.00000 0.00000 0.00000
  153 0.00000 0.00000 0.00000
  154 0.00000 0.00000 0.00000
  155 0.00000 0.00000 0.00000
  156 0.00000 0.00000 0.00000
  157 0.00000 0.00000 0.00000
  158 0.00000 0.00000 0.00000
  159 0.00000 0.00000 0.00000
  160 0.00000 0.00000 0.00000
  161 0.00000 0.00000 0.00000
  162 0.00000 0.00000 0.00000
  163 0.00000 0.00000 0.00000
  164 0.00000 0.00000 0.00000
  165 0.00000 0.00000 0.00000
  166 0.00000 0.00000 0.00000
  167 0.00000 0.00000 0.00000
  168 0.00000 0.00000 0.00000
  169 0.00000 0.00000 0.00000
  170 0.00000 0.00000 0.00000
  171 0.00000 0.00000 0.00000
  172 0.00000 0.00000 0.00000
  173 0.00000 0.00000 0.00000
  174 0.00000 0.00000 0.00000
  175 0.00000 0.00000 0.00000
  176 0.00000 0.00000 0.00000
  177 0.00000 0.00000 0.00000
  178 0.00000 0.00000 0.00000
  179 0.00000 0.00000 0.00000
  180 0.00000 0.00000 0.00000
  181 0.00000 0.00000 0.00000
  182 0.00000 0.00000 0.00000
  183 0.00000 0.00000 0.00000
  184 0.00000 0.00000 0.00000
  185 0.00000 0.00000 0.00000
  186 0.00000 0.00000 0.00000
  187 0.00000 0.00000 0.00000
  188 0.00000 0.00000 0.00000
  189 0.00000 0.00000 0.00000
  190 0.00000 0.00000 0.00000
  191 0.00000 0.00000 0.00000
  192 0.00000 0.00000 0.00000
  193 0.00000 0.00000 0.00000
  194 0.00000 0.00000 0.00000
  195 0.00000 0.00000 0.00000
  196 0.00000 0.00000 0.00000
  197 0.00000 0.00000 0.00000
  198 0.00000 0.00000 0.00000
  199 0.00000 0.00000 0.00000
  200 0.00000 0.00000 0.00000
  201 0.00000 0.00000 0.00000
  202 0.00000 0.00000 0.00000
  203 0.00000 0.00000 0.00000
  204 0.00000 0.00000 0.00000
  205 0.00000 0.00000 0.00000
  206 0.00000 0.00000 0.00000
  207 0.00000 0.00000 0.00000
  208 0.00000 0.00000 0.00000
  209 0.00000 0.00000 0.00000
  210 0.00000 0.00000 0.00000
  211 0.00000 0.00000 0.00000
  212 0.00000 0.00000 0.00000
  213 0.00000 0.00000 0.00000
  214 0.00000 0.00000 0.00000
  215 0.00000 0.00000 0.00000
  216 0.00000 0.00000 0.00000
  217 0.00000 0.00000 0.00000
  218 0.00000 0.00000 0.00000
  219 0.00000 0.00000 0.00000
  220 0.00000 0.00000 0.00000
  221 0.00000 0.00000 0.00000
  222 0.00000 0.00000 0.00000
  223 0.00000 0.00000 0.00000
  224 0.00000 0.00000 0.00000
  225 0.00000 0.00000 0.00000
  226 0.00000 0.00000 0.00000
  227 0.00000 0.00000 0.00000
  228 0.00000 0.00000 0.00000
  229 0.00000 0.00000 0.00000
  230 0.00000 0.00000 0.00000
  231 0.00000 0.00000 0.00000
  232 0.00000 0.00000 0.00000
  233 0.00000 0.00000 0.00000
  234 0.00000 0.00000 0.00000
  235 0.00000 0.00000 0.00000
  236 0.00000 0.00000 0.00000
  237 0.00000 0.00000 0.00000
  238 0.00000 0.00000 0.00000
  239 0.00000 0.00000 0.00000
  240 0.00000 0.00000 0.00000
  241 0.00000 0.00000 0.00000
</Section>

newXOutput 177

<Section columns = "stress_xx | stress_yy | stress_xy">
  1 0.00000 0.00000 0.00000
  2 0.00000 0.00000 0.00000
  3 0.00000 0.00000 0.00000
  4 0.00000 0.00000 0.00000
  5 0.00000 0.00000 0.00000
  6 0.00000 0.00000 0.00000
  7 0.00000 0.00000 0.00000
  8 0.00000 0.00000 0.00000
  9 0.00000 0.00000 0.00000
  10 0.00000 0.00000 0.00000
  11 0.00000 0.00000 0.00000
  12 0.00000 0.00000 0.00000
  13 0.00000 0.00000 0.00000
  14 0.00000 0.00000 0.00000
  15 0.00000 0.00000 0.00000
  16 0.00000 0.00000 0.00000
  17 0.00000 0.00000 0.00000
  18 0.00000 0.00000 0.00000
  19 0.00000 0.00000 0.00000
  20 0.00000 0.00000 0.00000
  21 0.00000 0.00000 0.00000
  22 0.00000 0.00000 0.00000
  23 0.00000 0.00000 0.00000
  24 0.00000 0.00000 0.00000
  25 0.00000 0.00000 0.00000
  26 0.00000 0.00000 0.00000
  27 0.00000 0.00000 0.00000
  28 0.00000 0.00000 0.00000
  29 0.00000 0.00000 0.00000
  30 0.00000 0.00000 0.00000
  31 0.00000 0.00000 0.00000
  32 0.00000 0.00000 0.00000
  33 0.00000 0.00000 0.00000
  34 0.00000 0.00000 0.00000
  35 0.00000 0.00000 0.00000
  36 0.00000 0.00000 0.00000
  37 0.00000 0.00000 0.00000
  38 0.00000 0.00000 0.00000
  39 0.00000 0.00000 0.00000
  40 0.00000 0.00000 0.00000
  41 0.00000 0.00000 0.00000
  42 0.00000 0.00000 0.00000
  43 0.00000 0.00000 0.00000
  44 0.00000 0.00000 0.00000
  45 0.00000 0.00000 0.00000
  46 0.00000 0.00000 0.00000
  47 0.00000 0.00000 0.00000
  48 0.00000 0.00000 0.00000
  49 0.00000 0.00000 0.00000
  50 0.00000 0.00000 0.00000
  51 0.00000 0.00000 0.00000
  52 0.00000 0.00000 0.00000
  53 0.00000 0.00000 0.00000
  54 0.00000 0.00000 0.00000
  55 0.00000 0.00000 0.00000
  56 0.00000 0.00000 0.00000
  57 0.00000 0.00000 0.00000
  58 0.00000 0.00000 0.00000
  59 0.00000 0.00000 0.00000
  60 0.00000 0.00000 0.00000
  61 0.00000 0.00000 0.00000
  62 0.00000 0.00000 0.00000
  63 0.00000 0.00000 0.00000
  64 0.00000 0.00000 0.00000
  65 0.00000 0.00000 0.00000
  66 0.00000 0.00000 0.00000
  67 0.00000 0.00000 0.00000
  68 0.00000 0.00000 0.00000
  69 0.00000 0.00000 0.00000
  70 0.00000 0.00000 0.00000
  71 0.00000 0.00000 0.00000
  72 0.00000 0.00000 0.00000
  73 0.00000 0.00000 0.00000
  74 0.00000 0.00000 0.00000
  75 0.00000 0.00000 0.00000
  76 0.00000 0.00000 0.00000
  77 0.00000 0.00000 0.00000
  78 0.00000 0.00000 0.00000
  79 0.00000 0.00000 0.00000
  80 0.00000 0.00000 0.00000
  81 0.00000 0.00000 0.00000
  82 0.00000 0.00000 0.00000
  83 0.00000 0.00000 0.00000
  84 0.00000 0.00000 0.00000
  85 0.00000 0.00000 0.00000
  86 0.00000 0.00000 0.00000
  87 0.00000 0.00000 0.00000
  88 0.00000 0.00000 0.00000
  89 0.00000 0.00000 0.00000
  90 0.00000 0.00000 0.00000
  91 0.00000 0.00000 0.00000
  92 0.00000 0.00000 0.00000
  93 0.00000 0.00000 0.00000
  94 0.00000 0.00000 0.00000
  95 0.00000 0.00000 0.00000
  96 0.00000 0.00000 0.00000
  97 0.00000 0.00000 0.00000
  98 0.00000 0.00000 0.00000
  99 0.00000 0.00000 0.00000
  100 0.00000 0.00000 0.00000
  101 0.00000 0.00000 0.00000
  102 0.00000 0.00000 0.00000
  103 0.00000 0.00000 0.00000
  104 0.00000 0.00000 0.00000
  105 0.00000 0.00000 0.00000
  106 0.00000 0.00000 0.00000
  107 0.00000 0.00000 0.00000
  108 0.00000 0.00000 0.00000
  109 0.00000 0.00000 0.00000
  110 0.00000 0.00000 0.00000
  111 0.00000 0.00000 0.00000
  112 0.00000 0.00000 0.00000
  113 0.00000 0.00000 0.00000
  114 0.00000 0.00000 0.00000
  115 0.00000 0.00000 0.00000
  116 0.00000 0.00000 0.00000
  117 0.00000 0.00000 0.00000
  118 0.00000 0.00000 0.00000
  119 0.00000 0.00000 0.00000
  120 0.00000 0.00000 0.00000
  121 0.00000 0.00000 0.00000
  122 0.00000 0.00000 0.00000
  123 0.00000 0.00000 0.00000
  124 0.00000 0.00000 0.00000
  125 0.00000 0.00000 0.00000
  126 0.00000 0.00000 0.00000
  127 0.00000 0.00000 0.00000
  128 0.00000 0.00000 0.00000
  129 0.00000 0.00000 0.00000
  130 0.00000 0.00000 0.00000
  131 0.00000 0.00000 0.00000
  132 0.00000 0.00000 0.00000
  133 0.00000 0.00000 0.00000
  134 0.00000 0.00000 0.00000
  135 0.00000 0.00000 0.00000
  136 0.00000 0.00000 0.00000
  137 0.00000 0.00000 0.00000
  138 0.00000 0.00000 0.00000
  139 0.00000 0.00000 0.00000
  140 0.00000 0.00000 0.00000
  141 0.00000 0.00000 0.00000
  142 0.00000 0.00000 0.00000
  143 0.00000 0.00000 0.00000
  144 0.00000 0.00000 0.00000
  145 0.00000 0.00000 0.00000
  146 0.00000 0.00000 0.00000
  147 0.00000 0.00000 0.00000
  148 0.00000 0.00000 0.00000
  149 0.00000 0.00000 0.00000
  150 0.00000 0.00000 0.00000
  151 0.00000 0.00000 0.00000
  152 0.00000 0.00000 0.00000
  153 0.00000 0.00000 0.00000
  154 0.00000 0.00000 0.00000
  155 0.00000 0.00000 0.00000
  156 0.00000 0.00000 0.00000
  157 0.00000 0.00000 0.00000
  158 0.00000 0.00000 0.00000
  159 0.00000 0.00000 0.00000
  160 0.00000 0.00000 0.00000
  161 0.00000 0.00000 0.00000
  162 0.00000 0.00000 0.00000
  163 0.00000 0.00000 0.00000
  164 0.00000 0.00000 0.00000
  165 0.00000 0.00000 0.00000
  166 0.00000 0.00000 0.00000
  167 0.00000 0.00000 0.00000
  168 0.00000 0.00000 0.00000
  169 0.00000 0.00000 0.00000
  170 0.00000 0.00000 0.00000
  171 0.00000 0.00000 0.00000
  172 0.00000 0.00000 0.00000
  173 0.00000 0.00000 0.00000
  174 0.00000 0.00000 0.00000
  175 0.00000 0.00000 0.00000
  176 0.00000 0.00000 0.00000
  177 0.00000 0.00000 0.00000
  178 0.00000 0.00000 0.00000
  179 0.00000 0.00000 0.00000
  180 0.00000 0.00000 0.00000
  181 0.00000 0.00000 0.00000
  182 0.00000 0.00000 0.00000
  183 0.00000 0.00000 0.00000
  184 0.00000 0.00000 0.00000
  185 0.00000 0.00000 0.00000
  186 0.00000 0.00000 0.00000
  187 0.00000 0.00000 0.00000
  188 0.00000 0.00000 0.00000
  189 0.00000 0.00000 0.00000
  190 0.00000 0.00000 0.00000
  191 0.00000 0.00000 0.00000
  192 0.00000 0.00000 0.00000
  193 0.00000 0.00000 0.00000
  194 0.00000 0.00000 0.00000
  195 0.00000 0.00000 0.00000
  196 0.00000 0.00000 0.00000
  197 0.00000 0.00000 0.00000
  198 0.00000 0.00000 0.00000
  199 0.00000 0.00000 0.00000
  200 0.00000 0.00000 0.00000
  201 0.00000 0.00000 0.00000
  202 0.00000 0.00000 0.00000
  203 0.00000 0.00000 0.00000
  204 0.00000 0.00000 0.00000
  205 0.00000 0.00000 0.00000
  206 0.00000 0.00000 0.00000
  207 0.00000 0.00000 0.00000
  208 0.00000 0.00000 0.00000
  209 0.00000 0.00000 0.00000
  210 0.00000 0.00000 0.00000
  211 0.00000 0.00000 0.00000
  212 0.00000 0.00000 0.00000
  213 0.00000 0.00000 0.00000
  214 0.00000 0.00000 0.00000
  215 0.00000 0.00000 0.00000
  216 0.00000 0.00000 0.00000
  217 0.00000 0.00000 0.00000
  218 0.00000 0.00000 0.00000
  219 0.00000 0.00000 0.00000
  220 0.00000 0.00000 0.00000
  221 0.00000 0.00000 0.00000
  222 0.00000 0.00000 0.00000
  223 0.00000 0.00000 0.00000
  224 0.00000 0.00000 0.00000
  225 0.00000 0.00000 0.00000
  226 0.00000 0.00000 0.00000
  227 0.00000 0.00000 0.00000
  228 0.00000 0.00000 0.00000
  229 0.00000 0.00000 0.00000
  230 0.00000 0.00000 0.00000
  231 0.00000 0.00000 0.00000
  232 0.00000 0.00000 0.00000
  233 0.00000 0.00000 0.00000
  234 0.00000 0.00000 0.00000
  235 0.00000 0.00000 0.00000
  236 0.00000 0.00000 0.00000
  237 0.00000 0.00000 0.00000
  238 0.00000 0.00000 0.00000
  239 0.00000 0.00000 0.00000
  240 0.00000 0.00000 0.00000
  241 0.00000 0.00000 0.00000
</Section>

newXOutput 178

<Section columns = "stress_xx | stress_yy | stress_xy">
  1 0.00000 0.00000 0.00000
  2 0.00000 0.00000 0.00000
  3 0.00000 0.00000 0.00000
  4 0.00000 0.00000 0.00000
  5 0.00000 0.00000 0.00000
  6 0.00000 0.00000 0.00000
  7 0.00000 0.00000 0.00000
  8 0.00000 0.00000 0.00000
  9 0.00000 0.00000 0.00000
  10 0.00000 0.00000 0.00000
  11 0.00000 0.00000 0.00000
  12 0.00000 0.00000 0.00000
  13 0.00000 0.00000 0.00000
  14 0.00000 0.00000 0.00000
  15 0.00000 0.00000 0.00000
  16 0.00000 0.00000 0.00000
  17 0.00000 0.00000 0.00000
  18 0.00000 0.00000 0.00000
  19 0.00000 0.00000 0.00000
  20 0.00000 0.00000 0.00000
  21 0.00000 0.00000 0.00000
  22 0.00000 0.00000 0.00000
  23 0.00000 0.00000 0.00000
  24 0.00000 0.00000 0.00000
  25 0.00000 0.00000 0.00000
  26 0.00000 0.00000 0.00000
  27 0.00000 0.00000 0.00000
  28 0.00000 0.00000 0.00000
  29 0.00000 0.00000 0.00000
  30 0.00000 0.00000 0.00000
  31 0.00000 0.00000 0.00000
  32 0.00000 0.00000 0.00000
  33 0.00000 0.00000 0.00000
  34 0.00000 0.00000 0.00000
  35 0.00000 0.00000 0.00000
  36 0.00000 0.00000 0.00000
  37 0.00000 0.00000 0.00000
  38 0.00000 0.00000 0.00000
  39 0.00000 0.00000 0.00000
  40 0.00000 0.00000 0.00000
  41 0.00000 0.00000 0.00000
  42 0.00000 0.00000 0.00000
  43 0.00000 0.00000 0.00000
  44 0.00000 0.00000 0.00000
  45 0.00000 0.00000 0.00000
  46 0.00000 0.00000 0.00000
  47 0.00000 0.00000 0.00000
  48 0.00000 0.00000 0.00000
  49 0.00000 0.00000 0.00000
  50 0.00000 0.00000 0.00000
  51 0.00000 0.00000 0.00000
  52 0.00000 0.00000 0.00000
  53 0.00000 0.00000 0.00000
  54 0.00000 0.00000 0.00000
  55 0.00000 0.00000 0.00000
  56 0.00000 0.00000 0.00000
  57 0.00000 0.00000 0.00000
  58 0.00000 0.00000 0.00000
  59 0.00000 0.00000 0.00000
  60 0.00000 0.00000 0.00000
  61 0.00000 0.00000 0.00000
  62 0.00000 0.00000 0.00000
  63 0.00000 0.00000 0.00000
  64 0.00000 0.00000 0.00000
  65 0.00000 0.00000 0.00000
  66 0.00000 0.00000 0.00000
  67 0.00000 0.00000 0.00000
  68 0.00000 0.00000 0.00000
  69 0.00000 0.00000 0.00000
  70 0.00000 0.00000 0.00000
  71 0.00000 0.00000 0.00000
  72 0.00000 0.00000 0.00000
  73 0.00000 0.00000 0.00000
  74 0.00000 0.00000 0.00000
  75 0.00000 0.00000 0.00000
  76 0.00000 0.00000 0.00000
  77 0.00000 0.00000 0.00000
  78 0.00000 0.00000 0.00000
  79 0.00000 0.00000 0.00000
  80 0.00000 0.00000 0.00000
  81 0.00000 0.00000 0.00000
  82 0.00000 0.00000 0.00000
  83 0.00000 0.00000 0.00000
  84 0.00000 0.00000 0.00000
  85 0.00000 0.00000 0.00000
  86 0.00000 0.00000 0.00000
  87 0.00000 0.00000 0.00000
  88 0.00000 0.00000 0.00000
  89 0.00000 0.00000 0.00000
  90 0.00000 0.00000 0.00000
  91 0.00000 0.00000 0.00000
  92 0.00000 0.00000 0.00000
  93 0.00000 0.00000 0.00000
  94 0.00000 0.00000 0.00000
  95 0.00000 0.00000 0.00000
  96 0.00000 0.00000 0.00000
  97 0.00000 0.00000 0.00000
  98 0.00000 0.00000 0.00000
  99 0.00000 0.00000 0.00000
  100 0.00000 0.00000 0.00000
  101 0.00000 0.00000 0.00000
  102 0.00000 0.00000 0.00000
  103 0.00000 0.00000 0.00000
  104 0.00000 0.00000 0.00000
  105 0.00000 0.00000 0.00000
  106 0.00000 0.00000 0.00000
  107 0.00000 0.00000 0.00000
  108 0.00000 0.00000 0.00000
  109 0.00000 0.00000 0.00000
  110 0.00000 0.00000 0.00000
  111 0.00000 0.00000 0.00000
  112 0.00000 0.00000 0.00000
  113 0.00000 0.00000 0.00000
  114 0.00000 0.00000 0.00000
  115 0.00000 0.00000 0.00000
  116 0.00000 0.00000 0.00000
  117 0.00000 0.00000 0.00000
  118 0.00000 0.00000 0.00000
  119 0.00000 0.00000 0.00000
  120 0.00000 0.00000 0.00000
  121 0.00000 0.00000 0.00000
  122 0.00000 0.00000 0.00000
  123 0.00000 0.00000 0.00000
  124 0.00000 0.00000 0.00000
  125 0.00000 0.00000 0.00000
  126 0.00000 0.00000 0.00000
  127 0.00000 0.00000 0.00000
  128 0.00000 0.00000 0.00000
  129 0.00000 0.00000 0.00000
  130 0.00000 0.00000 0.00000
  131 0.00000 0.00000 0.00000
  132 0.00000 0.00000 0.00000
  133 0.00000 0.00000 0.00000
  134 0.00000 0.00000 0.00000
  135 0.00000 0.00000 0.00000
  136 0.00000 0.00000 0.00000
  137 0.00000 0.00000 0.00000
  138 0.00000 0.00000 0.00000
  139 0.00000 0.00000 0.00000
  140 0.00000 0.00000 0.00000
  141 0.00000 0.00000 0.00000
  142 0.00000 0.00000 0.00000
  143 0.00000 0.00000 0.00000
  144 0.00000 0.00000 0.00000
  145 0.00000 0.00000 0.00000
  146 0.00000 0.00000 0.00000
  147 0.00000 0.00000 0.00000
  148 0.00000 0.00000 0.00000
  149 0.00000 0.00000 0.00000
  150 0.00000 0.00000 0.00000
  151 0.00000 0.00000 0.00000
  152 0.00000 0.00000 0.00000
  153 0.00000 0.00000 0.00000
  154 0.00000 0.00000 0.00000
  155 0.00000 0.00000 0.00000
  156 0.00000 0.00000 0.00000
  157 0.00000 0.00000 0.00000
  158 0.00000 0.00000 0.00000
  159 0.00000 0.00000 0.00000
  160 0.00000 0.00000 0.00000
  161 0.00000 0.00000 0.00000
  162 0.00000 0.00000 0.00000
  163 0.00000 0.00000 0.00000
  164 0.00000 0.00000 0.00000
  165 0.00000 0.00000 0.00000
  166 0.00000 0.00000 0.00000
  167 0.00000 0.00000 0.00000
  168 0.00000 0.00000 0.00000
  169 0.00000 0.00000 0.00000
  170 0.00000 0.00000 0.00000
  171 0.00000 0.00000 0.00000
  172 0.00000 0.00000 0.00000
  173 0.00000 0.00000 0.00000
  174 0.00000 0.00000 0.00000
  175 0.00000 0.00000 0.00000
  176 0.00000 0.00000 0.00000
  177 0.00000 0.00000 0.00000
  178 0.00000 0.00000 0.00000
  179 0.00000 0.00000 0.00000
  180 0.00000 0.00000 0.00000
  181 0.00000 0.00000 0.00000
  182 0.00000 0.00000 0.00000
  183 0.00000 0.00000 0.00000
  184 0.00000 0.00000 0.00000
  185 0.00000 0.00000 0.00000
  186 0.00000 0.00000 0.00000
  187 0.00000 0.00000 0.00000
  188 0.00000 0.00000 0.00000
  189 0.00000 0.00000 0.00000
  190 0.00000 0.00000 0.00000
  191 0.00000 0.00000 0.00000
  192 0.00000 0.00000 0.00000
  193 0.00000 0.00000 0.00000
  194 0.00000 0.00000 0.00000
  195 0.00000 0.00000 0.00000
  196 0.00000 0.00000 0.00000
  197 0.00000 0.00000 0.00000
  198 0.00000 0.00000 0.00000
  199 0.00000 0.00000 0.00000
  200 0.00000 0.00000 0.00000
  201 0.00000 0.00000 0.00000
  202 0.00000 0.00000 0.00000
  203 0.00000 0.00000 0.00000
  204 0.00000 0.00000 0.00000
  205 0.00000 0.00000 0.00000
  206 0.00000 0.00000 0.00000
  207 0.00000 0.00000 0.00000
  208 0.00000 0.00000 0.00000
  209 0.00000 0.00000 0.00000
  210 0.00000 0.00000 0.00000
  211 0.00000 0.00000 0.00000
  212 0.00000 0.00000 0.00000
  213 0.00000 0.00000 0.00000
  214 0.00000 0.00000 0.00000
  215 0.00000 0.00000 0.00000
  216 0.00000 0.00000 0.00000
  217 0.00000 0.00000 0.00000
  218 0.00000 0.00000 0.00000
  219 0.00000 0.00000 0.00000
  220 0.00000 0.00000 0.00000
  221 0.00000 0.00000 0.00000
  222 0.00000 0.00000 0.00000
  223 0.00000 0.00000 0.00000
  224 0.00000 0.00000 0.00000
  225 0.00000 0.00000 0.00000
  226 0.00000 0.00000 0.00000
  227 0.00000 0.00000 0.00000
  228 0.00000 0.00000 0.00000
  229 0.00000 0.00000 0.00000
  230 0.00000 0.00000 0.00000
  231 0.00000 0.00000 0.00000
  232 0.00000 0.00000 0.00000
  233 0.00000 0.00000 0.00000
  234 0.00000 0.00000 0.00000
  235 0.00000 0.00000 0.00000
  236 0.00000 0.00000 0.00000
  237 0.00000 0.00000 0.00000
  238 0.00000 0.00000 0.00000
  239 0.00000 0.00000 0.00000
  240 0.00000 0.00000 0.00000
  241 0.00000 0.00000 0.00000
</Section>

newXOutput 179

<Section columns = "stress_xx | stress_yy | stress_xy">
  1 0.00000 0.00000 0.00000
  2 0.00000 0.00000 0.00000
  3 0.00000 0.00000 0.00000
  4 0.00000 0.00000 0.00000
  5 0.00000 0.00000 0.00000
  6 0.00000 0.00000 0.00000
  7 0.00000 0.00000 0.00000
  8 0.00000 0.00000 0.00000
  9 0.00000 0.00000 0.00000
  10 0.00000 0.00000 0.00000
  11 0.00000 0.00000 0.00000
  12 0.00000 0.00000 0.00000
  13 0.00000 0.00000 0.00000
  14 0.00000 0.00000 0.00000
  15 0.00000 0.00000 0.00000
  16 0.00000 0.00000 0.00000
  17 0.00000 0.00000 0.00000
  18 0.00000 0.00000 0.00000
  19 0.00000 0.00000 0.00000
  20 0.00000 0.00000 0.00000
  21 0.00000 0.00000 0.00000
  22 0.00000 0.00000 0.00000
  23 0.00000 0.00000 0.00000
  24 0.00000 0.00000 0.00000
  25 0.00000 0.00000 0.00000
  26 0.00000 0.00000 0.00000
  27 0.00000 0.00000 0.00000
  28 0.00000 0.00000 0.00000
  29 0.00000 0.00000 0.00000
  30 0.00000 0.00000 0.00000
  31 0.00000 0.00000 0.00000
  32 0.00000 0.00000 0.00000
  33 0.00000 0.00000 0.00000
  34 0.00000 0.00000 0.00000
  35 0.00000 0.00000 0.00000
  36 0.00000 0.00000 0.00000
  37 0.00000 0.00000 0.00000
  38 0.00000 0.00000 0.00000
  39 0.00000 0.00000 0.00000
  40 0.00000 0.00000 0.00000
  41 0.00000 0.00000 0.00000
  42 0.00000 0.00000 0.00000
  43 0.00000 0.00000 0.00000
  44 0.00000 0.00000 0.00000
  45 0.00000 0.00000 0.00000
  46 0.00000 0.00000 0.00000
  47 0.00000 0.00000 0.00000
  48 0.00000 0.00000 0.00000
  49 0.00000 0.00000 0.00000
  50 0.00000 0.00000 0.00000
  51 0.00000 0.00000 0.00000
  52 0.00000 0.00000 0.00000
  53 0.00000 0.00000 0.00000
  54 0.00000 0.00000 0.00000
  55 0.00000 0.00000 0.00000
  56 0.00000 0.00000 0.00000
  57 0.00000 0.00000 0.00000
  58 0.00000 0.00000 0.00000
  59 0.00000 0.00000 0.00000
  60 0.00000 0.00000 0.00000
  61 0.00000 0.00000 0.00000
  62 0.00000 0.00000 0.00000
  63 0.00000 0.00000 0.00000
  64 0.00000 0.00000 0.00000
  65 0.00000 0.00000 0.00000
  66 0.00000 0.00000 0.00000
  67 0.00000 0.00000 0.00000
  68 0.00000 0.00000 0.00000
  69 0.00000 0.00000 0.00000
  70 0.00000 0.00000 0.00000
  71 0.00000 0.00000 0.00000
  72 0.00000 0.00000 0.00000
  73 0.00000 0.00000 0.00000
  74 0.00000 0.00000 0.00000
  75 0.00000 0.00000 0.00000
  76 0.00000 0.00000 0.00000
  77 0.00000 0.00000 0.00000
  78 0.00000 0.00000 0.00000
  79 0.00000 0.00000 0.00000
  80 0.00000 0.00000 0.00000
  81 0.00000 0.00000 0.00000
  82 0.00000 0.00000 0.00000
  83 0.00000 0.00000 0.00000
  84 0.00000 0.00000 0.00000
  85 0.00000 0.00000 0.00000
  86 0.00000 0.00000 0.00000
  87 0.00000 0.00000 0.00000
  88 0.00000 0.00000 0.00000
  89 0.00000 0.00000 0.00000
  90 0.00000 0.00000 0.00000
  91 0.00000 0.00000 0.00000
  92 0.00000 0.00000 0.00000
  93 0.00000 0.00000 0.00000
  94 0.00000 0.00000 0.00000
  95 0.00000 0.00000 0.00000
  96 0.00000 0.00000 0.00000
  97 0.00000 0.00000 0.00000
  98 0.00000 0.00000 0.00000
  99 0.00000 0.00000 0.00000
  100 0.00000 0.00000 0.00000
  101 0.00000 0.00000 0.00000
  102 0.00000 0.00000 0.00000
  103 0.00000 0.00000 0.00000
  104 0.00000 0.00000 0.00000
  105 0.00000 0.00000 0.00000
  106 0.00000 0.00000 0.00000
  107 0.00000 0.00000 0.00000
  108 0.00000 0.00000 0.00000
  109 0.00000 0.00000 0.00000
  110 0.00000 0.00000 0.00000
  111 0.00000 0.00000 0.00000
  112 0.00000 0.00000 0.00000
  113 0.00000 0.00000 0.00000
  114 0.00000 0.00000 0.00000
  115 0.00000 0.00000 0.00000
  116 0.00000 0.00000 0.00000
  117 0.00000 0.00000 0.00000
  118 0.00000 0.00000 0.00000
  119 0.00000 0.00000 0.00000
  120 0.00000 0.00000 0.00000
  121 0.00000 0.00000 0.00000
  122 0.00000 0.00000 0.00000
  123 0.00000 0.00000 0.00000
  124 0.00000 0.00000 0.00000
  125 0.00000 0.00000 0.00000
  126 0.00000 0.00000 0.00000
  127 0.00000 0.00000 0.00000
  128 0.00000 0.00000 0.00000
  129 0.00000 0.00000 0.00000
  130 0.00000 0.00000 0.00000
  131 0.00000 0.00000 0.00000
  132 0.00000 0.00000 0.00000
  133 0.00000 0.00000 0.00000
  134 0.00000 0.00000 0.00000
  135 0.00000 0.00000 0.00000
  136 0.00000 0.00000 0.00000
  137 0.00000 0.00000 0.00000
  138 0.00000 0.00000 0.00000
  139 0.00000 0.00000 0.00000
  140 0.00000 0.00000 0.00000
  141 0.00000 0.00000 0.00000
  142 0.00000 0.00000 0.00000
  143 0.00000 0.00000 0.00000
  144 0.00000 0.00000 0.00000
  145 0.00000 0.00000 0.00000
  146 0.00000 0.00000 0.00000
  147 0.00000 0.00000 0.00000
  148 0.00000 0.00000 0.00000
  149 0.00000 0.00000 0.00000
  150 0.00000 0.00000 0.00000
  151 0.00000 0.00000 0.00000
  152 0.00000 0.00000 0.00000
  153 0.00000 0.00000 0.00000
  154 0.00000 0.00000 0.00000
  155 0.00000 0.00000 0.00000
  156 0.00000 0.00000 0.00000
  157 0.00000 0.00000 0.00000
  158 0.00000 0.00000 0.00000
  159 0.00000 0.00000 0.00000
  160 0.00000 0.00000 0.00000
  161 0.00000 0.00000 0.00000
  162 0.00000 0.00000 0.00000
  163 0.00000 0.00000 0.00000
  164 0.00000 0.00000 0.00000
  165 0.00000 0.00000 0.00000
  166 0.00000 0.00000 0.00000
  167 0.00000 0.00000 0.00000
  168 0.00000 0.00000 0.00000
  169 0.00000 0.00000 0.00000
  170 0.00000 0.00000 0.00000
  171 0.00000 0.00000 0.00000
  172 0.00000 0.00000 0.00000
  173 0.00000 0.00000 0.00000
  174 0.00000 0.00000 0.00000
  175 0.00000 0.00000 0.00000
  176 0.00000 0.00000 0.00000
  177 0.00000 0.00000 0.00000
  178 0.00000 0.00000 0.00000
  179 0.00000 0.00000 0.00000
  180 0.00000 0.00000 0.00000
  181 0.00000 0.00000 0.00000
  182 0.00000 0.00000 0.00000
  183 0.00000 0.00000 0.00000
  184 0.00000 0.00000 0.00000
  185 0.00000 0.00000 0.00000
  186 0.00000 0.00000 0.00000
  187 0.00000 0.00000 0.00000
  188 0.00000 0.00000 0.00000
  189 0.00000 0.00000 0.00000
  190 0.00000 0.00000 0.00000
  191 0.00000 0.00000 0.00000
  192 0.00000 0.00000 0.00000
  193 0.00000 0.00000 0.00000
  194 0.00000 0.00000 0.00000
  195 0.00000 0.00000 0.00000
  196 0.00000 0.00000 0.00000
  197 0.00000 0.00000 0.00000
  198 0.00000 0.00000 0.00000
  199 0.00000 0.00000 0.00000
  200 0.00000 0.00000 0.00000
  201 0.00000 0.00000 0.00000
  202 0.00000 0.00000 0.00000
  203 0.00000 0.00000 0.00000
  204 0.00000 0.00000 0.00000
  205 0.00000 0.00000 0.00000
  206 0.00000 0.00000 0.00000
  207 0.00000 0.00000 0.00000
  208 0.00000 0.00000 0.00000
  209 0.00000 0.00000 0.00000
  210 0.00000 0.00000 0.00000
  211 0.00000 0.00000 0.00000
  212 0.00000 0.00000 0.00000
  213 0.00000 0.00000 0.00000
  214 0.00000 0.00000 0.00000
  215 0.00000 0.00000 0.00000
  216 0.00000 0.00000 0.00000
  217 0.00000 0.00000 0.00000
  218 0.00000 0.00000 0.00000
  219 0.00000 0.00000 0.00000
  220 0.00000 0.00000 0.00000
  221 0.00000 0.00000 0.00000
  222 0.00000 0.00000 0.00000
  223 0.00000 0.00000 0.00000
  224 0.00000 0.00000 0.00000
  225 0.00000 0.00000 0.00000
  226 0.00000 0.00000 0.00000
  227 0.00000 0.00000 0.00000
  228 0.00000 0.00000 0.00000
  229 0.00000 0.00000 0.00000
  230 0.00000 0.00000 0.00000
  231 0.00000 0.00000 0.00000
  232 0.00000 0.00000 0.00000
  233 0.00000 0.00000 0.00000
  234 0.00000 0.00000 0.00000
  235 0.00000 0.00000 0.00000
  236 0.00000 0.00000 0.00000
  237 0.00000 0.00000 0.00000
  238 0.00000 0.00000 0.00000
  239 0.00000 0.00000 0.00000
  240 0.00000 0.00000 0.00000
  241 0.00000 0.00000 0.00000
</Section>

newXOutput 180

<Section columns = "stress_xx | stress_yy | stress_xy">
  1 0.00000 0.00000 0.00000
  2 0.00000 0.00000 0.00000
  3 0.00000 0.00000 0.00000
  4 0.00000 0.00000 0.00000
  5 0.00000 0.00000 0.00000
  6 0.00000 0.00000 0.00000
  7 0.00000 0.00000 0.00000
  8 0.00000 0.00000 0.00000
  9 0.00000 0.00000 0.00000
  10 0.00000 0.00000 0.00000
  11 0.00000 0.00000 0.00000
  12 0.00000 0.00000 0.00000
  13 0.00000 0.00000 0.00000
  14 0.00000 0.00000 0.00000
  15 0.00000 0.00000 0.00000
  16 0.00000 0.00000 0.00000
  17 0.00000 0.00000 0.00000
  18 0.00000 0.00000 0.00000
  19 0.00000 0.00000 0.00000
  20 0.00000 0.00000 0.00000
  21 0.00000 0.00000 0.00000
  22 0.00000 0.00000 0.00000
  23 0.00000 0.00000 0.00000
  24 0.00000 0.00000 0.00000
  25 0.00000 0.00000 0.00000
  26 0.00000 0.00000 0.00000
  27 0.00000 0.00000 0.00000
  28 0.00000 0.00000 0.00000
  29 0.00000 0.00000 0.00000
  30 0.00000 0.00000 0.00000
  31 0.00000 0.00000 0.00000
  32 0.00000 0.00000 0.00000
  33 0.00000 0.00000 0.00000
  34 0.00000 0.00000 0.00000
  35 0.00000 0.00000 0.00000
  36 0.00000 0.00000 0.00000
  37 0.00000 0.00000 0.00000
  38 0.00000 0.00000 0.00000
  39 0.00000 0.00000 0.00000
  40 0.00000 0.00000 0.00000
  41 0.00000 0.00000 0.00000
  42 0.00000 0.00000 0.00000
  43 0.00000 0.00000 0.00000
  44 0.00000 0.00000 0.00000
  45 0.00000 0.00000 0.00000
  46 0.00000 0.00000 0.00000
  47 0.00000 0.00000 0.00000
  48 0.00000 0.00000 0.00000
  49 0.00000 0.00000 0.00000
  50 0.00000 0.00000 0.00000
  51 0.00000 0.00000 0.00000
  52 0.00000 0.00000 0.00000
  53 0.00000 0.00000 0.00000
  54 0.00000 0.00000 0.00000
  55 0.00000 0.00000 0.00000
  56 0.00000 0.00000 0.00000
  57 0.00000 0.00000 0.00000
  58 0.00000 0.00000 0.00000
  59 0.00000 0.00000 0.00000
  60 0.00000 0.00000 0.00000
  61 0.00000 0.00000 0.00000
  62 0.00000 0.00000 0.00000
  63 0.00000 0.00000 0.00000
  64 0.00000 0.00000 0.00000
  65 0.00000 0.00000 0.00000
  66 0.00000 0.00000 0.00000
  67 0.00000 0.00000 0.00000
  68 0.00000 0.00000 0.00000
  69 0.00000 0.00000 0.00000
  70 0.00000 0.00000 0.00000
  71 0.00000 0.00000 0.00000
  72 0.00000 0.00000 0.00000
  73 0.00000 0.00000 0.00000
  74 0.00000 0.00000 0.00000
  75 0.00000 0.00000 0.00000
  76 0.00000 0.00000 0.00000
  77 0.00000 0.00000 0.00000
  78 0.00000 0.00000 0.00000
  79 0.00000 0.00000 0.00000
  80 0.00000 0.00000 0.00000
  81 0.00000 0.00000 0.00000
  82 0.00000 0.00000 0.00000
  83 0.00000 0.00000 0.00000
  84 0.00000 0.00000 0.00000
  85 0.00000 0.00000 0.00000
  86 0.00000 0.00000 0.00000
  87 0.00000 0.00000 0.00000
  88 0.00000 0.00000 0.00000
  89 0.00000 0.00000 0.00000
  90 0.00000 0.00000 0.00000
  91 0.00000 0.00000 0.00000
  92 0.00000 0.00000 0.00000
  93 0.00000 0.00000 0.00000
  94 0.00000 0.00000 0.00000
  95 0.00000 0.00000 0.00000
  96 0.00000 0.00000 0.00000
  97 0.00000 0.00000 0.00000
  98 0.00000 0.00000 0.00000
  99 0.00000 0.00000 0.00000
  100 0.00000 0.00000 0.00000
  101 0.00000 0.00000 0.00000
  102 0.00000 0.00000 0.00000
  103 0.00000 0.00000 0.00000
  104 0.00000 0.00000 0.00000
  105 0.00000 0.00000 0.00000
  106 0.00000 0.00000 0.00000
  107 0.00000 0.00000 0.00000
  108 0.00000 0.00000 0.00000
  109 0.00000 0.00000 0.00000
  110 0.00000 0.00000 0.00000
  111 0.00000 0.00000 0.00000
  112 0.00000 0.00000 0.00000
  113 0.00000 0.00000 0.00000
  114 0.00000 0.00000 0.00000
  115 0.00000 0.00000 0.00000
  116 0.00000 0.00000 0.00000
  117 0.00000 0.00000 0.00000
  118 0.00000 0.00000 0.00000
  119 0.00000 0.00000 0.00000
  120 0.00000 0.00000 0.00000
  121 0.00000 0.00000 0.00000
  122 0.00000 0.00000 0.00000
  123 0.00000 0.00000 0.00000
  124 0.00000 0.00000 0.00000
  125 0.00000 0.00000 0.00000
  126 0.00000 0.00000 0.00000
  127 0.00000 0.00000 0.00000
  128 0.00000 0.00000 0.00000
  129 0.00000 0.00000 0.00000
  130 0.00000 0.00000 0.00000
  131 0.00000 0.00000 0.00000
  132 0.00000 0.00000 0.00000
  133 0.00000 0.00000 0.00000
  134 0.00000 0.00000 0.00000
  135 0.00000 0.00000 0.00000
  136 0.00000 0.00000 0.00000
  137 0.00000 0.00000 0.00000
  138 0.00000 0.00000 0.00000
  139 0.00000 0.00000 0.00000
  140 0.00000 0.00000 0.00000
  141 0.00000 0.00000 0.00000
  142 0.00000 0.00000 0.00000
  143 0.00000 0.00000 0.00000
  144 0.00000 0.00000 0.00000
  145 0.00000 0.00000 0.00000
  146 0.00000 0.00000 0.00000
  147 0.00000 0.00000 0.00000
  148 0.00000 0.00000 0.00000
  149 0.00000 0.00000 0.00000
  150 0.00000 0.00000 0.00000
  151 0.00000 0.00000 0.00000
  152 0.00000 0.00000 0.00000
  153 0.00000 0.00000 0.00000
  154 0.00000 0.00000 0.00000
  155 0.00000 0.00000 0.00000
  156 0.00000 0.00000 0.00000
  157 0.00000 0.00000 0.00000
  158 0.00000 0.00000 0.00000
  159 0.00000 0.00000 0.00000
  160 0.00000 0.00000 0.00000
  161 0.00000 0.00000 0.00000
  162 0.00000 0.00000 0.00000
  163 0.00000 0.00000 0.00000
  164 0.00000 0.00000 0.00000
  165 0.00000 0.00000 0.00000
  166 0.00000 0.00000 0.00000
  167 0.00000 0.00000 0.00000
  168 0.00000 0.00000 0.00000
  169 0.00000 0.00000 0.00000
  170 0.00000 0.00000 0.00000
  171 0.00000 0.00000 0.00000
  172 0.00000 0.00000 0.00000
  173 0.00000 0.00000 0.00000
  174 0.00000 0.00000 0.00000
  175 0.00000 0.00000 0.00000
  176 0.00000 0.00000 0.00000
  177 0.00000 0.00000 0.00000
  178 0.00000 0.00000 0.00000
  179 0.00000 0.00000 0.00000
  180 0.00000 0.00000 0.00000
  181 0.00000 0.00000 0.00000
  182 0.00000 0.00000 0.00000
  183 0.00000 0.00000 0.00000
  184 0.00000 0.00000 0.00000
  185 0.00000 0.00000 0.00000
  186 0.00000 0.00000 0.00000
  187 0.00000 0.00000 0.00000
  188 0.00000 0.00000 0.00000
  189 0.00000 0.00000 0.00000
  190 0.00000 0.00000 0.00000
  191 0.00000 0.00000 0.00000
  192 0.00000 0.00000 0.00000
  193 0.00000 0.00000 0.00000
  194 0.00000 0.00000 0.00000
  195 0.00000 0.00000 0.00000
  196 0.00000 0.00000 0.00000
  197 0.00000 0.00000 0.00000
  198 0.00000 0.00000 0.00000
  199 0.00000 0.00000 0.00000
  200 0.00000 0.00000 0.00000
  201 0.00000 0.00000 0.00000
  202 0.00000 0.00000 0.00000
  203 0.00000 0.00000 0.00000
  204 0.00000 0.00000 0.00000
  205 0.00000 0.00000 0.00000
  206 0.00000 0.00000 0.00000
  207 0.00000 0.00000 0.00000
  208 0.00000 0.00000 0.00000
  209 0.00000 0.00000 0.00000
  210 0.00000 0.00000 0.00000
  211 0.00000 0.00000 0.00000
  212 0.00000 0.00000 0.00000
  213 0.00000 0.00000 0.00000
  214 0.00000 0.00000 0.00000
  215 0.00000 0.00000 0.00000
  216 0.00000 0.00000 0.00000
  217 0.00000 0.00000 0.00000
  218 0.00000 0.00000 0.00000
  219 0.00000 0.00000 0.00000
  220 0.00000 0.00000 0.00000
  221 0.00000 0.00000 0.00000
  222 0.00000 0.00000 0.00000
  223 0.00000 0.00000 0.00000
  224 0.00000 0.00000 0.00000
  225 0.00000 0.00000 0.00000
  226 0.00000 0.00000 0.00000
  227 0.00000 0.00000 0.00000
  228 0.00000 0.00000 0.00000
  229 0.00000 0.00000 0.00000
  230 0.00000 0.00000 0.00000
  231 0.00000 0.00000 0.00000
  232 0.00000 0.00000 0.00000
  233 0.00000 0.00000 0.00000
  234 0.00000 0.00000 0.00000
  235 0.00000 0.00000 0.00000
  236 0.00000 0.00000 0.00000
  237 0.00000 0.00000 0.00000
  238 0.00000 0.00000 0.00000
  239 0.00000 0.00000 0.00000
  240 0.00000 0.00000 0.00000
  241 0.00000 0.00000 0.00000
</Section>

newXOutput 181

<Section columns = "stress_xx | stress_yy | stress_xy">
  1 0.00000 0.00000 0.00000
  2 0.00000 0.00000 0.00000
  3 0.00000 0.00000 0.00000
  4 0.00000 0.00000 0.00000
  5 0.00000 0.00000 0.00000
  6 0.00000 0.00000 0.00000
  7 0.00000 0.00000 0.00000
  8 0.00000 0.00000 0.00000
  9 0.00000 0.00000 0.00000
  10 0.00000 0.00000 0.00000
  11 0.00000 0.00000 0.00000
  12 0.00000 0.00000 0.00000
  13 0.00000 0.00000 0.00000
  14 0.00000 0.00000 0.00000
  15 0.00000 0.00000 0.00000
  16 0.00000 0.00000 0.00000
  17 0.00000 0.00000 0.00000
  18 0.00000 0.00000 0.00000
  19 0.00000 0.00000 0.00000
  20 0.00000 0.00000 0.00000
  21 0.00000 0.00000 0.00000
  22 0.00000 0.00000 0.00000
  23 0.00000 0.00000 0.00000
  24 0.00000 0.00000 0.00000
  25 0.00000 0.00000 0.00000
  26 0.00000 0.00000 0.00000
  27 0.00000 0.00000 0.00000
  28 0.00000 0.00000 0.00000
  29 0.00000 0.00000 0.00000
  30 0.00000 0.00000 0.00000
  31 0.00000 0.00000 0.00000
  32 0.00000 0.00000 0.00000
  33 0.00000 0.00000 0.00000
  34 0.00000 0.00000 0.00000
  35 0.00000 0.00000 0.00000
  36 0.00000 0.00000 0.00000
  37 0.00000 0.00000 0.00000
  38 0.00000 0.00000 0.00000
  39 0.00000 0.00000 0.00000
  40 0.00000 0.00000 0.00000
  41 0.00000 0.00000 0.00000
  42 0.00000 0.00000 0.00000
  43 0.00000 0.00000 0.00000
  44 0.00000 0.00000 0.00000
  45 0.00000 0.00000 0.00000
  46 0.00000 0.00000 0.00000
  47 0.00000 0.00000 0.00000
  48 0.00000 0.00000 0.00000
  49 0.00000 0.00000 0.00000
  50 0.00000 0.00000 0.00000
  51 0.00000 0.00000 0.00000
  52 0.00000 0.00000 0.00000
  53 0.00000 0.00000 0.00000
  54 0.00000 0.00000 0.00000
  55 0.00000 0.00000 0.00000
  56 0.00000 0.00000 0.00000
  57 0.00000 0.00000 0.00000
  58 0.00000 0.00000 0.00000
  59 0.00000 0.00000 0.00000
  60 0.00000 0.00000 0.00000
  61 0.00000 0.00000 0.00000
  62 0.00000 0.00000 0.00000
  63 0.00000 0.00000 0.00000
  64 0.00000 0.00000 0.00000
  65 0.00000 0.00000 0.00000
  66 0.00000 0.00000 0.00000
  67 0.00000 0.00000 0.00000
  68 0.00000 0.00000 0.00000
  69 0.00000 0.00000 0.00000
  70 0.00000 0.00000 0.00000
  71 0.00000 0.00000 0.00000
  72 0.00000 0.00000 0.00000
  73 0.00000 0.00000 0.00000
  74 0.00000 0.00000 0.00000
  75 0.00000 0.00000 0.00000
  76 0.00000 0.00000 0.00000
  77 0.00000 0.00000 0.00000
  78 0.00000 0.00000 0.00000
  79 0.00000 0.00000 0.00000
  80 0.00000 0.00000 0.00000
  81 0.00000 0.00000 0.00000
  82 0.00000 0.00000 0.00000
  83 0.00000 0.00000 0.00000
  84 0.00000 0.00000 0.00000
  85 0.00000 0.00000 0.00000
  86 0.00000 0.00000 0.00000
  87 0.00000 0.00000 0.00000
  88 0.00000 0.00000 0.00000
  89 0.00000 0.00000 0.00000
  90 0.00000 0.00000 0.00000
  91 0.00000 0.00000 0.00000
  92 0.00000 0.00000 0.00000
  93 0.00000 0.00000 0.00000
  94 0.00000 0.00000 0.00000
  95 0.00000 0.00000 0.00000
  96 0.00000 0.00000 0.00000
  97 0.00000 0.00000 0.00000
  98 0.00000 0.00000 0.00000
  99 0.00000 0.00000 0.00000
  100 0.00000 0.00000 0.00000
  101 0.00000 0.00000 0.00000
  102 0.00000 0.00000 0.00000
  103 0.00000 0.00000 0.00000
  104 0.00000 0.00000 0.00000
  105 0.00000 0.00000 0.00000
  106 0.00000 0.00000 0.00000
  107 0.00000 0.00000 0.00000
  108 0.00000 0.00000 0.00000
  109 0.00000 0.00000 0.00000
  110 0.00000 0.00000 0.00000
  111 0.00000 0.00000 0.00000
  112 0.00000 0.00000 0.00000
  113 0.00000 0.00000 0.00000
  114 0.00000 0.00000 0.00000
  115 0.00000 0.00000 0.00000
  116 0.00000 0.00000 0.00000
  117 0.00000 0.00000 0.00000
  118 0.00000 0.00000 0.00000
  119 0.00000 0.00000 0.00000
  120 0.00000 0.00000 0.00000
  121 0.00000 0.00000 0.00000
  122 0.00000 0.00000 0.00000
  123 0.00000 0.00000 0.00000
  124 0.00000 0.00000 0.00000
  125 0.00000 0.00000 0.00000
  126 0.00000 0.00000 0.00000
  127 0.00000 0.00000 0.00000
  128 0.00000 0.00000 0.00000
  129 0.00000 0.00000 0.00000
  130 0.00000 0.00000 0.00000
  131 0.00000 0.00000 0.00000
  132 0.00000 0.00000 0.00000
  133 0.00000 0.00000 0.00000
  134 0.00000 0.00000 0.00000
  135 0.00000 0.00000 0.00000
  136 0.00000 0.00000 0.00000
  137 0.00000 0.00000 0.00000
  138 0.00000 0.00000 0.00000
  139 0.00000 0.00000 0.00000
  140 0.00000 0.00000 0.00000
  141 0.00000 0.00000 0.00000
  142 0.00000 0.00000 0.00000
  143 0.00000 0.00000 0.00000
  144 0.00000 0.00000 0.00000
  145 0.00000 0.00000 0.00000
  146 0.00000 0.00000 0.00000
  147 0.00000 0.00000 0.00000
  148 0.00000 0.00000 0.00000
  149 0.00000 0.00000 0.00000
  150 0.00000 0.00000 0.00000
  151 0.00000 0.00000 0.00000
  152 0.00000 0.00000 0.00000
  153 0.00000 0.00000 0.00000
  154 0.00000 0.00000 0.00000
  155 0.00000 0.00000 0.00000
  156 0.00000 0.00000 0.00000
  157 0.00000 0.00000 0.00000
  158 0.00000 0.00000 0.00000
  159 0.00000 0.00000 0.00000
  160 0.00000 0.00000 0.00000
  161 0.00000 0.00000 0.00000
  162 0.00000 0.00000 0.00000
  163 0.00000 0.00000 0.00000
  164 0.00000 0.00000 0.00000
  165 0.00000 0.00000 0.00000
  166 0.00000 0.00000 0.00000
  167 0.00000 0.00000 0.00000
  168 0.00000 0.00000 0.00000
  169 0.00000 0.00000 0.00000
  170 0.00000 0.00000 0.00000
  171 0.00000 0.00000 0.00000
  172 0.00000 0.00000 0.00000
  173 0.00000 0.00000 0.00000
  174 0.00000 0.00000 0.00000
  175 0.00000 0.00000 0.00000
  176 0.00000 0.00000 0.00000
  177 0.00000 0.00000 0.00000
  178 0.00000 0.00000 0.00000
  179 0.00000 0.00000 0.00000
  180 0.00000 0.00000 0.00000
  181 0.00000 0.00000 0.00000
  182 0.00000 0.00000 0.00000
  183 0.00000 0.00000 0.00000
  184 0.00000 0.00000 0.00000
  185 0.00000 0.00000 0.00000
  186 0.00000 0.00000 0.00000
  187 0.00000 0.00000 0.00000
  188 0.00000 0.00000 0.00000
  189 0.00000 0.00000 0.00000
  190 0.00000 0.00000 0.00000
  191 0.00000 0.00000 0.00000
  192 0.00000 0.00000 0.00000
  193 0.00000 0.00000 0.00000
  194 0.00000 0.00000 0.00000
  195 0.00000 0.00000 0.00000
  196 0.00000 0.00000 0.00000
  197 0.00000 0.00000 0.00000
  198 0.00000 0.00000 0.00000
  199 0.00000 0.00000 0.00000
  200 0.00000 0.00000 0.00000
  201 0.00000 0.00000 0.00000
  202 0.00000 0.00000 0.00000
  203 0.00000 0.00000 0.00000
  204 0.00000 0.00000 0.00000
  205 0.00000 0.00000 0.00000
  206 0.00000 0.00000 0.00000
  207 0.00000 0.00000 0.00000
  208 0.00000 0.00000 0.00000
  209 0.00000 0.00000 0.00000
  210 0.00000 0.00000 0.00000
  211 0.00000 0.00000 0.00000
  212 0.00000 0.00000 0.00000
  213 0.00000 0.00000 0.00000
  214 0.00000 0.00000 0.00000
  215 0.00000 0.00000 0.00000
  216 0.00000 0.00000 0.00000
  217 0.00000 0.00000 0.00000
  218 0.00000 0.00000 0.00000
  219 0.00000 0.00000 0.00000
  220 0.00000 0.00000 0.00000
  221 0.00000 0.00000 0.00000
  222 0.00000 0.00000 0.00000
  223 0.00000 0.00000 0.00000
  224 0.00000 0.00000 0.00000
  225 0.00000 0.00000 0.00000
  226 0.00000 0.00000 0.00000
  227 0.00000 0.00000 0.00000
  228 0.00000 0.00000 0.00000
  229 0.00000 0.00000 0.00000
  230 0.00000 0.00000 0.00000
  231 0.00000 0.00000 0.00000
  232 0.00000 0.00000 0.00000
  233 0.00000 0.00000 0.00000
  234 0.00000 0.00000 0.00000
  235 0.00000 0.00000 0.00000
  236 0.00000 0.00000 0.00000
  237 0.00000 0.00000 0.00000
  238 0.00000 0.00000 0.00000
  239 0.00000 0.00000 0.00000
  240 0.00000 0.00000 0.00000
  241 0.00000 0.00000 0.00000
</Section>

newXOutput 182

<Section columns = "stress_xx | stress_yy | stress_xy">
  1 0.00000 0.00000 0.00000
  2 0.00000 0.00000 0.00000
  3 0.00000 0.00000 0.00000
  4 0.00000 0.00000 0.00000
  5 0.00000 0.00000 0.00000
  6 0.00000 0.00000 0.00000
  7 0.00000 0.00000 0.00000
  8 0.00000 0.00000 0.00000
  9 0.00000 0.00000 0.00000
  10 0.00000 0.00000 0.00000
  11 0.00000 0.00000 0.00000
  12 0.00000 0.00000 0.00000
  13 0.00000 0.00000 0.00000
  14 0.00000 0.00000 0.00000
  15 0.00000 0.00000 0.00000
  16 0.00000 0.00000 0.00000
  17 0.00000 0.00000 0.00000
  18 0.00000 0.00000 0.00000
  19 0.00000 0.00000 0.00000
  20 0.00000 0.00000 0.00000
  21 0.00000 0.00000 0.00000
  22 0.00000 0.00000 0.00000
  23 0.00000 0.00000 0.00000
  24 0.00000 0.00000 0.00000
  25 0.00000 0.00000 0.00000
  26 0.00000 0.00000 0.00000
  27 0.00000 0.00000 0.00000
  28 0.00000 0.00000 0.00000
  29 0.00000 0.00000 0.00000
  30 0.00000 0.00000 0.00000
  31 0.00000 0.00000 0.00000
  32 0.00000 0.00000 0.00000
  33 0.00000 0.00000 0.00000
  34 0.00000 0.00000 0.00000
  35 0.00000 0.00000 0.00000
  36 0.00000 0.00000 0.00000
  37 0.00000 0.00000 0.00000
  38 0.00000 0.00000 0.00000
  39 0.00000 0.00000 0.00000
  40 0.00000 0.00000 0.00000
  41 0.00000 0.00000 0.00000
  42 0.00000 0.00000 0.00000
  43 0.00000 0.00000 0.00000
  44 0.00000 0.00000 0.00000
  45 0.00000 0.00000 0.00000
  46 0.00000 0.00000 0.00000
  47 0.00000 0.00000 0.00000
  48 0.00000 0.00000 0.00000
  49 0.00000 0.00000 0.00000
  50 0.00000 0.00000 0.00000
  51 0.00000 0.00000 0.00000
  52 0.00000 0.00000 0.00000
  53 0.00000 0.00000 0.00000
  54 0.00000 0.00000 0.00000
  55 0.00000 0.00000 0.00000
  56 0.00000 0.00000 0.00000
  57 0.00000 0.00000 0.00000
  58 0.00000 0.00000 0.00000
  59 0.00000 0.00000 0.00000
  60 0.00000 0.00000 0.00000
  61 0.00000 0.00000 0.00000
  62 0.00000 0.00000 0.00000
  63 0.00000 0.00000 0.00000
  64 0.00000 0.00000 0.00000
  65 0.00000 0.00000 0.00000
  66 0.00000 0.00000 0.00000
  67 0.00000 0.00000 0.00000
  68 0.00000 0.00000 0.00000
  69 0.00000 0.00000 0.00000
  70 0.00000 0.00000 0.00000
  71 0.00000 0.00000 0.00000
  72 0.00000 0.00000 0.00000
  73 0.00000 0.00000 0.00000
  74 0.00000 0.00000 0.00000
  75 0.00000 0.00000 0.00000
  76 0.00000 0.00000 0.00000
  77 0.00000 0.00000 0.00000
  78 0.00000 0.00000 0.00000
  79 0.00000 0.00000 0.00000
  80 0.00000 0.00000 0.00000
  81 0.00000 0.00000 0.00000
  82 0.00000 0.00000 0.00000
  83 0.00000 0.00000 0.00000
  84 0.00000 0.00000 0.00000
  85 0.00000 0.00000 0.00000
  86 0.00000 0.00000 0.00000
  87 0.00000 0.00000 0.00000
  88 0.00000 0.00000 0.00000
  89 0.00000 0.00000 0.00000
  90 0.00000 0.00000 0.00000
  91 0.00000 0.00000 0.00000
  92 0.00000 0.00000 0.00000
  93 0.00000 0.00000 0.00000
  94 0.00000 0.00000 0.00000
  95 0.00000 0.00000 0.00000
  96 0.00000 0.00000 0.00000
  97 0.00000 0.00000 0.00000
  98 0.00000 0.00000 0.00000
  99 0.00000 0.00000 0.00000
  100 0.00000 0.00000 0.00000
  101 0.00000 0.00000 0.00000
  102 0.00000 0.00000 0.00000
  103 0.00000 0.00000 0.00000
  104 0.00000 0.00000 0.00000
  105 0.00000 0.00000 0.00000
  106 0.00000 0.00000 0.00000
  107 0.00000 0.00000 0.00000
  108 0.00000 0.00000 0.00000
  109 0.00000 0.00000 0.00000
  110 0.00000 0.00000 0.00000
  111 0.00000 0.00000 0.00000
  112 0.00000 0.00000 0.00000
  113 0.00000 0.00000 0.00000
  114 0.00000 0.00000 0.00000
  115 0.00000 0.00000 0.00000
  116 0.00000 0.00000 0.00000
  117 0.00000 0.00000 0.00000
  118 0.00000 0.00000 0.00000
  119 0.00000 0.00000 0.00000
  120 0.00000 0.00000 0.00000
  121 0.00000 0.00000 0.00000
  122 0.00000 0.00000 0.00000
  123 0.00000 0.00000 0.00000
  124 0.00000 0.00000 0.00000
  125 0.00000 0.00000 0.00000
  126 0.00000 0.00000 0.00000
  127 0.00000 0.00000 0.00000
  128 0.00000 0.00000 0.00000
  129 0.00000 0.00000 0.00000
  130 0.00000 0.00000 0.00000
  131 0.00000 0.00000 0.00000
  132 0.00000 0.00000 0.00000
  133 0.00000 0.00000 0.00000
  134 0.00000 0.00000 0.00000
  135 0.00000 0.00000 0.00000
  136 0.00000 0.00000 0.00000
  137 0.00000 0.00000 0.00000
  138 0.00000 0.00000 0.00000
  139 0.00000 0.00000 0.00000
  140 0.00000 0.00000 0.00000
  141 0.00000 0.00000 0.00000
  142 0.00000 0.00000 0.00000
  143 0.00000 0.00000 0.00000
  144 0.00000 0.00000 0.00000
  145 0.00000 0.00000 0.00000
  146 0.00000 0.00000 0.00000
  147 0.00000 0.00000 0.00000
  148 0.00000 0.00000 0.00000
  149 0.00000 0.00000 0.00000
  150 0.00000 0.00000 0.00000
  151 0.00000 0.00000 0.00000
  152 0.00000 0.00000 0.00000
  153 0.00000 0.00000 0.00000
  154 0.00000 0.00000 0.00000
  155 0.00000 0.00000 0.00000
  156 0.00000 0.00000 0.00000
  157 0.00000 0.00000 0.00000
  158 0.00000 0.00000 0.00000
  159 0.00000 0.00000 0.00000
  160 0.00000 0.00000 0.00000
  161 0.00000 0.00000 0.00000
  162 0.00000 0.00000 0.00000
  163 0.00000 0.00000 0.00000
  164 0.00000 0.00000 0.00000
  165 0.00000 0.00000 0.00000
  166 0.00000 0.00000 0.00000
  167 0.00000 0.00000 0.00000
  168 0.00000 0.00000 0.00000
  169 0.00000 0.00000 0.00000
  170 0.00000 0.00000 0.00000
  171 0.00000 0.00000 0.00000
  172 0.00000 0.00000 0.00000
  173 0.00000 0.00000 0.00000
  174 0.00000 0.00000 0.00000
  175 0.00000 0.00000 0.00000
  176 0.00000 0.00000 0.00000
  177 0.00000 0.00000 0.00000
  178 0.00000 0.00000 0.00000
  179 0.00000 0.00000 0.00000
  180 0.00000 0.00000 0.00000
  181 0.00000 0.00000 0.00000
  182 0.00000 0.00000 0.00000
  183 0.00000 0.00000 0.00000
  184 0.00000 0.00000 0.00000
  185 0.00000 0.00000 0.00000
  186 0.00000 0.00000 0.00000
  187 0.00000 0.00000 0.00000
  188 0.00000 0.00000 0.00000
  189 0.00000 0.00000 0.00000
  190 0.00000 0.00000 0.00000
  191 0.00000 0.00000 0.00000
  192 0.00000 0.00000 0.00000
  193 0.00000 0.00000 0.00000
  194 0.00000 0.00000 0.00000
  195 0.00000 0.00000 0.00000
  196 0.00000 0.00000 0.00000
  197 0.00000 0.00000 0.00000
  198 0.00000 0.00000 0.00000
  199 0.00000 0.00000 0.00000
  200 0.00000 0.00000 0.00000
  201 0.00000 0.00000 0.00000
  202 0.00000 0.00000 0.00000
  203 0.00000 0.00000 0.00000
  204 0.00000 0.00000 0.00000
  205 0.00000 0.00000 0.00000
  206 0.00000 0.00000 0.00000
  207 0.00000 0.00000 0.00000
  208 0.00000 0.00000 0.00000
  209 0.00000 0.00000 0.00000
  210 0.00000 0.00000 0.00000
  211 0.00000 0.00000 0.00000
  212 0.00000 0.00000 0.00000
  213 0.00000 0.00000 0.00000
  214 0.00000 0.00000 0.00000
  215 0.00000 0.00000 0.00000
  216 0.00000 0.00000 0.00000
  217 0.00000 0.00000 0.00000
  218 0.00000 0.00000 0.00000
  219 0.00000 0.00000 0.00000
  220 0.00000 0.00000 0.00000
  221 0.00000 0.00000 0.00000
  222 0.00000 0.00000 0.00000
  223 0.00000 0.00000 0.00000
  224 0.00000 0.00000 0.00000
  225 0.00000 0.00000 0.00000
  226 0.00000 0.00000 0.00000
  227 0.00000 0.00000 0.00000
  228 0.00000 0.00000 0.00000
  229 0.00000 0.00000 0.00000
  230 0.00000 0.00000 0.00000
  231 0.00000 0.00000 0.00000
  232 0.00000 0.00000 0.00000
  233 0.00000 0.00000 0.00000
  234 0.00000 0.00000 0.00000
  235 0.00000 0.00000 0.00000
  236 0.00000 0.00000 0.00000
  237 0.00000 0.00000 0.00000
  238 0.00000 0.00000 0.00000
  239 0.00000 0.00000 0.00000
  240 0.00000 0.00000 0.00000
  241 0.00000 0.00000 0.00000
</Section>

