newXOutput 1

<Section columns = "stress_xx | stress_yy | stress_xy">
  1 0.00000 0.00000 0.00000
  2 0.00000 0.00000 0.00000
  3 0.00000 0.00000 0.00000
  4 0.00000 0.00000 0.00000
  5 0.00000 0.00000 0.00000
  6 0.00000 0.00000 0.00000
  7 0.00000 0.00000 0.00000
  8 0.00000 0.00000 0.00000
  9 0.00000 0.00000 0.00000
  10 0.00000 0.00000 0.00000
  11 0.00000 0.00000 0.00000
  12 0.00000 0.00000 0.00000
</Section>

newXOutput 2

<Section columns = "stress_xx | stress_yy | stress_xy">
  1 31.1266 0.00000 7.67968e-15
  2 31.1266 0.00000 7.67968e-15
  3 31.1266 0.00000 2.54637e-15
  4 31.1266 0.00000 2.75805e-15
  5 31.1266 0.00000 2.65262e-15
  6 31.1266 0.00000 3.35824e-15
  7 31.1266 0.00000 -5.03696e-15
  8 31.1266 0.00000 -4.46694e-15
  9 31.1266 0.00000 -6.59281e-15
  10 31.1266 0.00000 -3.82271e-15
  11 31.1266 0.00000 2.00988e-15
  12 31.1266 0.00000 3.93045e-15
</Section>

newXOutput 3

<Section columns = "stress_xx | stress_yy | stress_xy">
  1 62.2717 0.00000 -6.34626e-14
  2 62.2717 0.00000 -5.47897e-14
  3 62.2717 0.00000 -2.53976e-14
  4 62.2717 0.00000 -2.20038e-14
  5 62.2717 0.00000 -1.35422e-14
  6 62.2717 0.00000 -1.33536e-14
  7 62.2717 0.00000 -1.44454e-14
  8 62.2717 0.00000 -1.51096e-14
  9 62.2717 0.00000 -2.41524e-14
  10 62.2717 0.00000 -2.55848e-14
  11 62.2717 0.00000 -3.25885e-14
  12 62.2717 0.00000 -3.09961e-14
</Section>

newXOutput 4

<Section columns = "stress_xx | stress_yy | stress_xy">
  1 93.4356 0.00000 3.78789e-14
  2 93.4356 0.00000 4.04019e-14
  3 93.4356 0.00000 2.02255e-14
  4 93.4356 0.00000 2.26363e-14
  5 93.4356 0.00000 2.66308e-14
  6 93.4356 0.00000 2.67253e-14
  7 93.4356 0.00000 1.86293e-14
  8 93.4356 0.00000 1.90407e-14
  9 93.4356 0.00000 1.02160e-14
  10 93.4356 0.00000 1.40498e-14
  11 93.4356 0.00000 2.15171e-14
  12 93.4356 0.00000 3.14476e-14
</Section>

newXOutput 5

<Section columns = "stress_xx | stress_yy | stress_xy">
  1 124.618 0.00000 8.09566e-15
  2 124.618 0.00000 9.60999e-15
  3 124.618 0.00000 1.34185e-15
  4 124.618 0.00000 2.66689e-15
  5 124.618 0.00000 1.18822e-14
  6 124.618 0.00000 1.15037e-14
  7 124.618 0.00000 -2.03642e-16
  8 124.618 0.00000 -1.21571e-15
  9 124.618 0.00000 8.25168e-15
  10 124.618 0.00000 5.44331e-15
  11 124.618 0.00000 4.11981e-15
  12 124.618 0.00000 -1.36572e-15
</Section>

newXOutput 6

<Section columns = "stress_xx | stress_yy | stress_xy">
  1 155.820 0.00000 1.13725e-15
  2 155.820 0.00000 2.65458e-15
  3 155.820 0.00000 2.34600e-15
  4 155.820 0.00000 3.67367e-15
  5 155.820 0.00000 9.67484e-16
  6 155.820 0.00000 3.98482e-16
  7 155.820 0.00000 -1.20773e-14
  8 155.820 0.00000 -1.18236e-14
  9 155.820 0.00000 -2.34811e-14
  10 155.820 0.00000 -1.77017e-14
  11 155.820 0.00000 -4.88581e-14
  12 155.820 0.00000 -3.31640e-14
</Section>

newXOutput 7

<Section columns = "stress_xx | stress_yy | stress_xy">
  1 187.040 0.00000 1.10121e-14
  2 187.040 0.00000 1.02520e-14
  3 187.040 0.00000 5.51674e-16
  4 187.040 0.00000 5.51674e-16
  5 187.040 0.00000 2.24902e-14
  6 187.040 0.00000 2.05897e-14
  7 187.040 0.00000 1.37578e-14
  8 187.040 0.00000 1.24264e-14
  9 187.040 0.00000 -8.09342e-15
  10 187.040 0.00000 -7.39752e-15
  11 187.040 0.00000 -1.32751e-14
  12 187.040 0.00000 -3.97117e-14
</Section>

newXOutput 8

<Section columns = "stress_xx | stress_yy | stress_xy">
  1 218.279 0.00000 1.74375e-14
  2 218.279 0.00000 1.78183e-14
  3 218.279 0.00000 5.99585e-15
  4 218.279 0.00000 7.13836e-15
  5 218.279 0.00000 1.50073e-14
  6 218.279 0.00000 1.46264e-14
  7 218.279 0.00000 -3.11890e-15
  8 218.279 0.00000 -6.09740e-15
  9 218.279 0.00000 4.14776e-14
  10 218.279 0.00000 3.95456e-14
  11 218.279 0.00000 1.15129e-14
  12 218.279 0.00000 2.47614e-14
</Section>

newXOutput 9

<Section columns = "stress_xx | stress_yy | stress_xy">
  1 249.537 0.00000 -1.05520e-14
  2 249.537 0.00000 -9.78885e-15
  3 249.537 0.00000 -5.81621e-15
  4 249.537 0.00000 -4.28986e-15
  5 249.537 0.00000 -1.27197e-14
  6 249.537 0.00000 -1.42461e-14
  7 249.537 0.00000 -3.20051e-14
  8 249.537 0.00000 -3.30306e-14
  9 249.537 0.00000 3.94554e-15
  10 249.537 0.00000 1.00699e-14
  11 249.537 0.00000 3.35144e-14
  12 249.537 0.00000 2.86589e-14
</Section>

newXOutput 10

<Section columns = "stress_xx | stress_yy | stress_xy">
  1 280.814 0.00000 -1.25110e-14
  2 280.814 0.00000 -8.68761e-15
  3 280.814 0.00000 4.89814e-16
  4 280.814 0.00000 3.16619e-15
  5 280.814 0.00000 2.12074e-14
  6 280.814 0.00000 2.19721e-14
  7 280.814 0.00000 3.27976e-14
  8 280.814 0.00000 3.19167e-14
  9 280.814 0.00000 -6.54430e-15
  10 280.814 0.00000 -9.08094e-15
  11 280.814 0.00000 1.59950e-14
  12 280.814 0.00000 1.26835e-14
</Section>

newXOutput 11

<Section columns = "stress_xx | stress_yy | stress_xy">
  1 312.110 0.00000 -3.51643e-14
  2 312.110 0.00000 -2.42113e-14
  3 312.110 0.00000 -1.25478e-14
  4 312.110 0.00000 -1.70666e-15
  5 312.110 0.00000 9.03507e-15
  6 312.110 0.00000 1.13336e-14
  7 312.110 0.00000 -3.42789e-14
  8 312.110 0.00000 -3.21153e-14
  9 312.110 0.00000 -6.54260e-15
  10 312.110 0.00000 -6.66829e-15
  11 312.110 0.00000 -2.55523e-14
  12 312.110 0.00000 -6.73056e-14
</Section>

newXOutput 12

<Section columns = "stress_xx | stress_yy | stress_xy">
  1 343.425 0.00000 -2.87544e-14
  2 343.425 0.00000 -1.80068e-14
  3 343.425 0.00000 9.40116e-15
  4 343.425 0.00000 1.70780e-14
  5 343.425 0.00000 -1.77982e-14
  6 343.425 0.00000 -1.51113e-14
  7 343.425 0.00000 -1.97424e-15
  8 343.425 0.00000 -5.37559e-15
  9 343.425 0.00000 -2.15100e-14
  10 343.425 0.00000 -3.26760e-14
  11 343.425 0.00000 -5.15013e-14
  12 343.425 0.00000 -5.24745e-14
</Section>

newXOutput 13

<Section columns = "stress_xx | stress_yy | stress_xy">
  1 374.759 0.00000 -7.11440e-15
  2 374.759 0.00000 5.19256e-15
  3 374.759 0.00000 1.27584e-14
  4 374.759 0.00000 2.16041e-14
  5 374.759 0.00000 1.28648e-14
  6 374.759 0.00000 1.47877e-14
  7 374.759 0.00000 -6.95366e-15
  8 374.759 0.00000 -8.04444e-15
  9 374.759 0.00000 -3.22651e-15
  10 374.759 0.00000 -1.01445e-14
  11 374.759 0.00000 2.05140e-14
  12 374.759 0.00000 2.11013e-14
</Section>

newXOutput 14

<Section columns = "stress_xx | stress_yy | stress_xy">
  1 406.112 0.00000 -5.10948e-15
  2 406.112 0.00000 1.82671e-15
  3 406.112 0.00000 -1.11302e-15
  4 406.112 0.00000 5.05248e-15
  5 406.112 0.00000 7.44733e-15
  6 406.112 0.00000 8.98870e-15
  7 406.112 0.00000 -6.74647e-15
  8 406.112 0.00000 -4.33022e-15
  9 406.112 0.00000 -4.84938e-14
  10 406.112 0.00000 -4.08120e-14
  11 406.112 0.00000 -4.07438e-14
  12 406.112 0.00000 -4.62967e-14
</Section>

newXOutput 15

<Section columns = "stress_xx | stress_yy | stress_xy">
  1 437.485 0.00000 -5.14124e-14
  2 437.485 0.00000 -3.90574e-14
  3 437.485 0.00000 -3.34957e-14
  4 437.485 0.00000 -2.26851e-14
  5 437.485 0.00000 -8.49020e-14
  6 437.485 0.00000 -8.25854e-14
  7 437.485 0.00000 -2.13922e-14
  8 437.485 0.00000 -2.35250e-14
  9 437.485 0.00000 -1.80661e-14
  10 437.485 0.00000 -2.92321e-14
  11 437.485 0.00000 3.60461e-14
  12 437.485 0.00000 -1.41808e-14
</Section>

newXOutput 16

<Section columns = "stress_xx | stress_yy | stress_xy">
  1 468.877 0.00000 2.62075e-14
  2 468.877 0.00000 3.93602e-14
  3 468.877 0.00000 3.93730e-14
  4 468.877 0.00000 5.17520e-14
  5 468.877 0.00000 2.05559e-14
  6 468.877 0.00000 2.36507e-14
  7 468.877 0.00000 -3.21298e-14
  8 468.877 0.00000 -3.15466e-14
  9 468.877 0.00000 -1.46884e-14
  10 468.877 0.00000 4.57413e-15
  11 468.877 0.00000 -3.68756e-16
  12 468.877 0.00000 3.15741e-14
</Section>

newXOutput 17

<Section columns = "stress_xx | stress_yy | stress_xy">
  1 500.288 0.00000 -3.88262e-14
  2 500.288 0.00000 -2.95239e-14
  3 500.288 0.00000 -3.53556e-14
  4 500.288 0.00000 -2.76036e-14
  5 500.288 0.00000 -2.88788e-14
  6 500.288 0.00000 -2.73284e-14
  7 500.288 0.00000 -7.39931e-15
  8 500.288 0.00000 -6.81441e-15
  9 500.288 0.00000 -7.69042e-15
  10 500.288 0.00000 -1.02933e-14
  11 500.288 0.00000 8.36686e-14
  12 500.288 0.00000 7.41922e-14
</Section>

newXOutput 18

<Section columns = "stress_xx | stress_yy | stress_xy">
  1 531.718 0.00000 8.18467e-16
  2 531.718 0.00000 1.79058e-14
  3 531.718 0.00000 -1.22487e-14
  4 531.718 0.00000 1.78458e-16
  5 531.718 0.00000 -2.94901e-14
  6 531.718 0.00000 -2.71600e-14
  7 531.718 0.00000 -4.31073e-14
  8 531.718 0.00000 -4.68789e-14
  9 531.718 0.00000 -5.63053e-14
  10 531.718 0.00000 -5.74009e-14
  11 531.718 0.00000 -7.60997e-14
  12 531.718 0.00000 -1.20308e-14
</Section>

newXOutput 19

<Section columns = "stress_xx | stress_yy | stress_xy">
  1 563.168 0.00000 4.32578e-15
  2 563.168 0.00000 2.36025e-14
  3 563.168 0.00000 6.16573e-15
  4 563.168 0.00000 2.24881e-14
  5 563.168 0.00000 3.54984e-14
  6 563.168 0.00000 3.86112e-14
  7 563.168 0.00000 3.25074e-14
  8 563.168 0.00000 4.08241e-14
  9 563.168 0.00000 -6.68526e-14
  10 563.168 0.00000 -3.69753e-14
  11 563.168 0.00000 3.34689e-15
  12 563.168 0.00000 -8.42464e-14
</Section>

newXOutput 20

<Section columns = "stress_xx | stress_yy | stress_xy">
  1 594.637 0.00000 -1.94609e-14
  2 594.637 0.00000 2.37071e-15
  3 594.637 0.00000 2.21869e-14
  4 594.637 0.00000 4.32389e-14
  5 594.637 0.00000 7.28787e-14
  6 594.637 0.00000 7.83366e-14
  7 594.637 0.00000 -2.22668e-14
  8 594.637 0.00000 -1.31736e-14
  9 594.637 0.00000 2.65776e-14
  10 594.637 0.00000 7.54018e-14
  11 594.637 0.00000 1.42615e-13
  12 594.637 0.00000 1.44112e-13
</Section>

newXOutput 21

<Section columns = "stress_xx | stress_yy | stress_xy">
  1 626.126 0.00000 -3.03303e-14
  2 626.126 0.00000 -9.68678e-15
  3 626.126 0.00000 -4.27849e-14
  4 626.126 0.00000 -1.62320e-14
  5 626.126 0.00000 -2.98971e-14
  6 626.126 0.00000 -2.28663e-14
  7 626.126 0.00000 4.30664e-14
  8 626.126 0.00000 4.55762e-14
  9 626.126 0.00000 -5.84375e-14
  10 626.126 0.00000 -3.14356e-14
  11 626.126 0.00000 2.58599e-14
  12 626.126 0.00000 2.90167e-14
</Section>

newXOutput 22

<Section columns = "stress_xx | stress_yy | stress_xy">
  1 657.634 0.00000 -3.25317e-14
  2 657.634 0.00000 -1.02958e-14
  3 657.634 0.00000 -2.87525e-14
  4 657.634 0.00000 -1.38964e-15
  5 657.634 0.00000 -1.26556e-14
  6 657.634 0.00000 -1.69774e-15
  7 657.634 0.00000 -1.74280e-14
  8 657.634 0.00000 -3.32171e-15
  9 657.634 0.00000 -2.19386e-13
  10 657.634 0.00000 -1.45491e-13
  11 657.634 0.00000 -1.54090e-13
  12 657.634 0.00000 -5.87908e-14
</Section>

newXOutput 23

<Section columns = "stress_xx | stress_yy | stress_xy">
  1 689.162 0.00000 1.39793e-14
  2 689.162 0.00000 3.12319e-14
  3 689.162 0.00000 -9.10918e-15
  4 689.162 0.00000 9.71182e-15
  5 689.162 0.00000 -3.16311e-14
  6 689.162 0.00000 -1.75153e-14
  7 689.162 0.00000 5.58190e-14
  8 689.162 0.00000 7.46258e-14
  9 689.162 0.00000 5.52472e-14
  10 689.162 0.00000 1.07525e-13
  11 689.162 0.00000 1.07443e-13
  12 689.162 0.00000 4.52630e-14
</Section>

newXOutput 24

<Section columns = "stress_xx | stress_yy | stress_xy">
  1 720.709 0.00000 -3.52957e-14
  2 720.709 0.00000 -1.17244e-14
  3 720.709 0.00000 -6.64882e-14
  4 720.709 0.00000 -4.76311e-14
  5 720.709 0.00000 -1.56650e-13
  6 720.709 0.00000 -1.37793e-13
  7 720.709 0.00000 -1.26036e-13
  8 720.709 0.00000 -1.10960e-13
  9 720.709 0.00000 -1.40100e-13
  10 720.709 0.00000 -1.11256e-13
  11 720.709 0.00000 -3.44661e-14
  12 720.709 0.00000 -1.07358e-14
</Section>

newXOutput 25

<Section columns = "stress_xx | stress_yy | stress_xy">
  1 752.276 0.00000 2.56382e-14
  2 752.276 0.00000 4.76802e-14
  3 752.276 0.00000 3.83452e-15
  4 752.276 0.00000 1.87916e-14
  5 752.276 0.00000 3.48702e-14
  6 752.276 0.00000 7.26565e-14
  7 752.276 0.00000 -2.31527e-14
  8 752.276 0.00000 1.00521e-14
  9 752.276 0.00000 -1.69532e-13
  10 752.276 0.00000 -1.74720e-13
  11 752.276 0.00000 2.37373e-13
  12 752.276 0.00000 2.55646e-13
</Section>

newXOutput 26

<Section columns = "stress_xx | stress_yy | stress_xy">
  1 783.862 0.00000 -4.15741e-14
  2 783.862 0.00000 -2.07958e-14
  3 783.862 0.00000 -4.98394e-14
  4 783.862 0.00000 -1.52631e-14
  5 783.862 0.00000 -1.19517e-13
  6 783.862 0.00000 -1.16362e-13
  7 783.862 0.00000 -1.62000e-13
  8 783.862 0.00000 -1.94991e-13
  9 783.862 0.00000 -8.94150e-14
  10 783.862 0.00000 -9.37574e-14
  11 783.862 0.00000 -6.94451e-14
  12 783.862 0.00000 -8.15559e-14
</Section>

newXOutput 27

<Section columns = "stress_xx | stress_yy | stress_xy">
  1 815.469 0.00000 1.71250e-14
  2 815.469 0.00000 3.45098e-14
  3 815.469 0.00000 1.74901e-14
  4 815.469 0.00000 4.51477e-14
  5 815.469 0.00000 1.17054e-13
  6 815.469 0.00000 1.17054e-13
  7 815.469 0.00000 9.60111e-14
  8 815.469 0.00000 5.67597e-14
  9 815.469 0.00000 -4.27696e-14
  10 815.469 0.00000 -4.33312e-14
  11 815.469 0.00000 -3.39840e-14
  12 815.469 0.00000 -4.91842e-14
</Section>

newXOutput 28

<Section columns = "stress_xx | stress_yy | stress_xy">
  1 847.095 0.00000 -3.34584e-14
  2 847.095 0.00000 -6.98775e-14
  3 847.095 0.00000 1.27203e-13
  4 847.095 0.00000 1.24828e-13
  5 847.095 0.00000 -1.08009e-13
  6 847.095 0.00000 -8.58408e-14
  7 847.095 0.00000 -2.11676e-14
  8 847.095 0.00000 -4.07133e-14
  9 847.095 0.00000 -5.59564e-14
  10 847.095 0.00000 -4.97252e-14
  11 847.095 0.00000 -2.36190e-14
  12 847.095 0.00000 4.06023e-14
</Section>

newXOutput 29

<Section columns = "stress_xx | stress_yy | stress_xy">
  1 878.740 0.00000 -3.05063e-14
  2 878.740 0.00000 -5.74758e-14
  3 878.740 0.00000 3.89014e-14
  4 878.740 0.00000 5.00065e-14
  5 878.740 0.00000 -1.58122e-13
  6 878.740 0.00000 -1.27186e-13
  7 878.740 0.00000 -5.12084e-14
  8 878.740 0.00000 -1.02798e-13
  9 878.740 0.00000 8.75848e-14
  10 878.740 0.00000 -1.54935e-14
  11 878.740 0.00000 6.34226e-14
  12 878.740 0.00000 9.59426e-14
</Section>

newXOutput 30

<Section columns = "stress_xx | stress_yy | stress_xy">
  1 910.406 0.00000 -5.68508e-14
  2 910.406 0.00000 -6.00297e-14
  3 910.406 0.00000 5.62822e-14
  4 910.406 0.00000 5.07191e-14
  5 910.406 0.00000 1.61061e-14
  6 910.406 0.00000 1.92850e-14
  7 910.406 0.00000 -2.05388e-13
  8 910.406 0.00000 -2.04482e-13
  9 910.406 0.00000 1.32361e-13
  10 910.406 0.00000 1.06038e-13
  11 910.406 0.00000 7.82117e-14
  12 910.406 0.00000 -5.73973e-14
</Section>

newXOutput 31

<Section columns = "stress_xx | stress_yy | stress_xy">
  1 942.091 0.00000 -2.59572e-14
  2 942.091 0.00000 -1.48101e-14
  3 942.091 0.00000 5.94824e-14
  4 942.091 0.00000 3.95767e-14
  5 942.091 0.00000 -7.90406e-14
  6 942.091 0.00000 -9.65576e-14
  7 942.091 0.00000 -4.45173e-14
  8 942.091 0.00000 -2.73165e-14
  9 942.091 0.00000 6.09227e-14
  10 942.091 0.00000 4.68507e-14
  11 942.091 0.00000 -7.98975e-14
  12 942.091 0.00000 -4.47512e-14
</Section>

newXOutput 32

<Section columns = "stress_xx | stress_yy | stress_xy">
  1 973.796 0.00000 8.63424e-15
  2 973.796 0.00000 8.63424e-15
  3 973.796 0.00000 7.66773e-14
  4 973.796 0.00000 5.75318e-14
  5 973.796 0.00000 -3.13057e-14
  6 973.796 0.00000 -4.56649e-14
  7 973.796 0.00000 -6.34851e-14
  8 973.796 0.00000 -3.61637e-14
  9 973.796 0.00000 -5.56858e-15
  10 973.796 0.00000 2.12115e-14
  11 973.796 0.00000 5.00364e-14
  12 973.796 0.00000 5.85266e-14
</Section>

newXOutput 33

<Section columns = "stress_xx | stress_yy | stress_xy">
  1 1005.52 0.00000 -2.79020e-14
  2 1005.52 0.00000 -3.74928e-14
  3 1005.52 0.00000 4.13092e-14
  4 1005.52 0.00000 1.34760e-15
  5 1005.52 0.00000 -1.24551e-13
  6 1005.52 0.00000 -1.53323e-13
  7 1005.52 0.00000 -1.02235e-13
  8 1005.52 0.00000 -6.29799e-14
  9 1005.52 0.00000 4.40431e-14
  10 1005.52 0.00000 4.60134e-14
  11 1005.52 0.00000 -5.70352e-14
  12 1005.52 0.00000 -2.68534e-13
</Section>

newXOutput 34

<Section columns = "stress_xx | stress_yy | stress_xy">
  1 1037.27 0.00000 -6.43414e-15
  2 1037.27 0.00000 -1.74702e-14
  3 1037.27 0.00000 9.62641e-14
  4 1037.27 0.00000 6.71191e-14
  5 1037.27 0.00000 7.90980e-14
  6 1037.27 0.00000 5.98804e-14
  7 1037.27 0.00000 9.01265e-14
  8 1037.27 0.00000 1.14688e-13
  9 1037.27 0.00000 2.26035e-13
  10 1037.27 0.00000 1.92489e-13
  11 1037.27 0.00000 2.30627e-13
  12 1037.27 0.00000 4.16203e-14
</Section>

newXOutput 35

<Section columns = "stress_xx | stress_yy | stress_xy">
  1 1069.03 0.00000 1.72885e-14
  2 1069.03 0.00000 1.90549e-14
  3 1069.03 0.00000 6.15541e-14
  4 1069.03 0.00000 4.99802e-14
  5 1069.03 0.00000 6.99692e-14
  6 1069.03 0.00000 5.87379e-14
  7 1069.03 0.00000 1.37550e-13
  8 1069.03 0.00000 1.79753e-13
  9 1069.03 0.00000 1.21367e-13
  10 1069.03 0.00000 2.25692e-13
  11 1069.03 0.00000 6.55862e-14
  12 1069.03 0.00000 2.05878e-13
</Section>

newXOutput 36

<Section columns = "stress_xx | stress_yy | stress_xy">
  1 1100.82 0.00000 -4.07037e-14
  2 1100.82 0.00000 -5.99934e-14
  3 1100.82 0.00000 4.96865e-14
  4 1100.82 0.00000 2.39669e-14
  5 1100.82 0.00000 2.06110e-14
  6 1100.82 0.00000 7.75115e-15
  7 1100.82 0.00000 -3.00977e-14
  8 1100.82 0.00000 -2.06027e-14
  9 1100.82 0.00000 1.32264e-13
  10 1100.82 0.00000 1.21595e-13
  11 1100.82 0.00000 1.19989e-13
  12 1100.82 0.00000 8.60913e-14
</Section>

newXOutput 37

<Section columns = "stress_xx | stress_yy | stress_xy">
  1 1132.62 0.00000 -9.30904e-15
  2 1132.62 0.00000 -1.25300e-14
  3 1132.62 0.00000 8.79296e-15
  4 1132.62 0.00000 -4.09089e-15
  5 1132.62 0.00000 3.85749e-14
  6 1132.62 0.00000 3.85749e-14
  7 1132.62 0.00000 2.15946e-14
  8 1132.62 0.00000 3.91724e-14
  9 1132.62 0.00000 1.93782e-13
  10 1132.62 0.00000 1.89594e-13
  11 1132.62 0.00000 3.01703e-14
  12 1132.62 0.00000 9.18612e-15
</Section>

newXOutput 38

<Section columns = "stress_xx | stress_yy | stress_xy">
  1 1164.45 0.00000 8.60094e-15
  2 1164.45 0.00000 8.60094e-15
  3 1164.45 0.00000 1.37949e-14
  4 1164.45 0.00000 4.11400e-15
  5 1164.45 0.00000 -5.84725e-14
  6 1164.45 0.00000 -5.84725e-14
  7 1164.45 0.00000 -7.10462e-14
  8 1164.45 0.00000 -4.00141e-14
  9 1164.45 0.00000 -9.16988e-14
  10 1164.45 0.00000 -2.28868e-16
  11 1164.45 0.00000 -1.30243e-13
  12 1164.45 0.00000 9.99474e-15
</Section>

newXOutput 39

<Section columns = "stress_xx | stress_yy | stress_xy">
  1 1196.29 0.00000 -4.65367e-15
  2 1196.29 0.00000 5.04528e-15
  3 1196.29 0.00000 -6.78304e-15
  4 1196.29 0.00000 -1.00160e-14
  5 1196.29 0.00000 -1.56708e-14
  6 1196.29 0.00000 -1.56708e-14
  7 1196.29 0.00000 -1.84459e-13
  8 1196.29 0.00000 -1.50173e-13
  9 1196.29 0.00000 -1.70336e-13
  10 1196.29 0.00000 -6.72179e-14
  11 1196.29 0.00000 -1.28788e-13
  12 1196.29 0.00000 1.06389e-13
</Section>

newXOutput 40

<Section columns = "stress_xx | stress_yy | stress_xy">
  1 1228.16 0.00000 -1.35330e-14
  2 1228.16 0.00000 2.66196e-15
  3 1228.16 0.00000 1.35278e-14
  4 1228.16 0.00000 1.02889e-14
  5 1228.16 0.00000 7.15040e-15
  6 1228.16 0.00000 2.29191e-15
  7 1228.16 0.00000 1.49352e-14
  8 1228.16 0.00000 4.27690e-14
  9 1228.16 0.00000 7.38292e-14
  10 1228.16 0.00000 1.07696e-13
  11 1228.16 0.00000 9.61032e-14
  12 1228.16 0.00000 -1.22757e-13
</Section>

newXOutput 41

<Section columns = "stress_xx | stress_yy | stress_xy">
  1 1260.04 0.00000 -4.99558e-15
  2 1260.04 0.00000 1.12294e-14
  3 1260.04 0.00000 1.93008e-14
  4 1260.04 0.00000 1.60558e-14
  5 1260.04 0.00000 -9.23648e-14
  6 1260.04 0.00000 -1.02100e-13
  7 1260.04 0.00000 3.22731e-14
  8 1260.04 0.00000 1.25376e-14
  9 1260.04 0.00000 5.82726e-14
  10 1260.04 0.00000 -7.12787e-15
  11 1260.04 0.00000 -2.57027e-14
  12 1260.04 0.00000 -8.67073e-14
</Section>

newXOutput 42

<Section columns = "stress_xx | stress_yy | stress_xy">
  1 1291.95 0.00000 6.51605e-15
  2 1291.95 0.00000 6.51605e-15
  3 1291.95 0.00000 3.74755e-14
  4 1291.95 0.00000 3.09735e-14
  5 1291.95 0.00000 -2.49227e-14
  6 1291.95 0.00000 -3.14247e-14
  7 1291.95 0.00000 1.43083e-13
  8 1291.95 0.00000 1.51287e-13
  9 1291.95 0.00000 8.87136e-14
  10 1291.95 0.00000 1.03794e-13
  11 1291.95 0.00000 2.23718e-13
  12 1291.95 0.00000 1.56284e-13
</Section>

newXOutput 43

<Section columns = "stress_xx | stress_yy | stress_xy">
  1 1323.87 0.00000 -4.57817e-14
  2 1323.87 0.00000 -3.27536e-14
  3 1323.87 0.00000 -1.49572e-14
  4 1323.87 0.00000 -1.00717e-14
  5 1323.87 0.00000 -1.09970e-13
  6 1323.87 0.00000 -1.09970e-13
  7 1323.87 0.00000 -1.85855e-13
  8 1323.87 0.00000 -1.94189e-13
  9 1323.87 0.00000 -2.08938e-13
  10 1323.87 0.00000 -2.61225e-13
  11 1323.87 0.00000 -1.43259e-13
  12 1323.87 0.00000 -2.00861e-13
</Section>

newXOutput 44

<Section columns = "stress_xx | stress_yy | stress_xy">
  1 1355.82 0.00000 2.13279e-14
  2 1355.82 0.00000 3.11170e-14
  3 1355.82 0.00000 2.92608e-14
  4 1355.82 0.00000 3.57869e-14
  5 1355.82 0.00000 1.52021e-14
  6 1355.82 0.00000 1.84651e-14
  7 1355.82 0.00000 6.72413e-14
  8 1355.82 0.00000 7.05560e-14
  9 1355.82 0.00000 -1.66487e-13
  10 1355.82 0.00000 -1.23452e-13
  11 1355.82 0.00000 3.76124e-15
  12 1355.82 0.00000 1.13493e-13
</Section>

newXOutput 45

<Section columns = "stress_xx | stress_yy | stress_xy">
  1 1387.79 0.00000 -5.94334e-14
  2 1387.79 0.00000 -3.65501e-14
  3 1387.79 0.00000 -5.86671e-14
  4 1387.79 0.00000 -4.72255e-14
  5 1387.79 0.00000 -9.70844e-15
  6 1387.79 0.00000 -9.70844e-15
  7 1387.79 0.00000 -2.00455e-13
  8 1387.79 0.00000 -1.82436e-13
  9 1387.79 0.00000 -7.39349e-14
  10 1387.79 0.00000 -4.90283e-14
  11 1387.79 0.00000 2.79634e-14
  12 1387.79 0.00000 -3.92877e-14
</Section>

newXOutput 46

<Section columns = "stress_xx | stress_yy | stress_xy">
  1 1419.77 0.00000 3.37930e-14
  2 1419.77 0.00000 6.64893e-14
  3 1419.77 0.00000 6.29777e-14
  4 1419.77 0.00000 7.23806e-14
  5 1419.77 0.00000 -4.94585e-14
  6 1419.77 0.00000 -4.29084e-14
  7 1419.77 0.00000 -1.33952e-13
  8 1419.77 0.00000 -1.22462e-13
  9 1419.77 0.00000 -1.44178e-13
  10 1419.77 0.00000 -1.22522e-13
  11 1419.77 0.00000 1.46321e-13
  12 1419.77 0.00000 8.56813e-14
</Section>

newXOutput 47

<Section columns = "stress_xx | stress_yy | stress_xy">
  1 1451.78 0.00000 -7.53104e-14
  2 1451.78 0.00000 -4.24703e-14
  3 1451.78 0.00000 5.25832e-14
  4 1451.78 0.00000 8.24896e-14
  5 1451.78 0.00000 -2.85706e-14
  6 1451.78 0.00000 -2.52896e-14
  7 1451.78 0.00000 -9.74582e-15
  8 1451.78 0.00000 -1.63522e-14
  9 1451.78 0.00000 1.09628e-13
  10 1451.78 0.00000 8.88405e-14
  11 1451.78 0.00000 -1.49866e-13
  12 1451.78 0.00000 -3.68022e-14
</Section>

newXOutput 48

<Section columns = "stress_xx | stress_yy | stress_xy">
  1 1483.81 0.00000 4.49970e-14
  2 1483.81 0.00000 7.45805e-14
  3 1483.81 0.00000 6.24879e-14
  4 1483.81 0.00000 8.54973e-14
  5 1483.81 0.00000 -5.04140e-14
  6 1483.81 0.00000 -6.19187e-14
  7 1483.81 0.00000 -6.86662e-14
  8 1483.81 0.00000 -9.57905e-14
  9 1483.81 0.00000 -1.02603e-13
  10 1483.81 0.00000 -1.07543e-13
  11 1483.81 0.00000 -9.38209e-14
  12 1483.81 0.00000 -4.84650e-14
</Section>

newXOutput 49

<Section columns = "stress_xx | stress_yy | stress_xy">
  1 1515.85 0.00000 -3.30516e-14
  2 1515.85 0.00000 -2.97585e-14
  3 1515.85 0.00000 6.05808e-14
  4 1515.85 0.00000 6.88135e-14
  5 1515.85 0.00000 1.07341e-13
  6 1515.85 0.00000 9.41685e-14
  7 1515.85 0.00000 1.17591e-13
  8 1515.85 0.00000 4.68592e-14
  9 1515.85 0.00000 -1.25729e-13
  10 1515.85 0.00000 -2.79193e-13
  11 1515.85 0.00000 -3.63274e-15
  12 1515.85 0.00000 -7.39315e-14
</Section>

newXOutput 50

<Section columns = "stress_xx | stress_yy | stress_xy">
  1 1547.92 0.00000 -5.15046e-14
  2 1547.92 0.00000 -5.15046e-14
  3 1547.92 0.00000 -3.38989e-15
  4 1547.92 0.00000 -5.03943e-15
  5 1547.92 0.00000 -2.48013e-14
  6 1547.92 0.00000 -4.78949e-14
  7 1547.92 0.00000 -2.76511e-13
  8 1547.92 0.00000 -2.99627e-13
  9 1547.92 0.00000 5.28930e-14
  10 1547.92 0.00000 4.65799e-14
  11 1547.92 0.00000 1.73588e-13
  12 1547.92 0.00000 8.35503e-14
</Section>

newXOutput 51

<Section columns = "stress_xx | stress_yy | stress_xy">
  1 1580.01 0.00000 -7.76354e-14
  2 1580.01 0.00000 -1.10686e-13
  3 1580.01 0.00000 1.00137e-13
  4 1580.01 0.00000 9.18742e-14
  5 1580.01 0.00000 -1.52038e-14
  6 1580.01 0.00000 -6.94104e-15
  7 1580.01 0.00000 -2.71207e-15
  8 1580.01 0.00000 1.54314e-14
  9 1580.01 0.00000 -9.86892e-14
  10 1580.01 0.00000 -2.42333e-14
  11 1580.01 0.00000 -2.70914e-13
  12 1580.01 0.00000 -1.04489e-13
</Section>

newXOutput 52

<Section columns = "stress_xx | stress_yy | stress_xy">
  1 1612.12 0.00000 -1.92744e-14
  2 1612.12 0.00000 -7.87804e-14
  3 1612.12 0.00000 2.07911e-13
  4 1612.12 0.00000 1.79617e-13
  5 1612.12 0.00000 -9.47269e-14
  6 1612.12 0.00000 -1.04660e-13
  7 1612.12 0.00000 2.78708e-13
  8 1612.12 0.00000 2.57092e-13
  9 1612.12 0.00000 8.15130e-14
  10 1612.12 0.00000 1.46285e-13
  11 1612.12 0.00000 1.81797e-13
  12 1612.12 0.00000 3.04906e-13
</Section>

newXOutput 53

<Section columns = "stress_xx | stress_yy | stress_xy">
  1 1645.15 0.00000 6.05332e-14
  2 1645.15 0.00000 8.37530e-14
  3 1645.15 0.00000 -9.26640e-14
  4 1645.15 0.00000 -5.12002e-14
  5 1645.15 0.00000 -1.82270e-13
  6 1645.15 0.00000 -1.64026e-13
  7 1645.15 0.00000 -9.38436e-14
  8 1645.15 0.00000 -1.30165e-13
  9 1645.15 0.00000 -1.53843e-13
  10 1645.15 0.00000 -2.18729e-13
  11 1645.15 0.00000 3.87338e-14
  12 1645.15 0.00000 -1.47318e-14
</Section>

newXOutput 54

<Section columns = "stress_xx | stress_yy | stress_xy">
  1 1681.47 0.00000 -3.15763e-14
  2 1681.47 0.00000 1.16243e-14
  3 1681.47 0.00000 -3.11363e-14
  4 1681.47 0.00000 3.36966e-14
  5 1681.47 0.00000 -2.69823e-13
  6 1681.47 0.00000 -2.46618e-13
  7 1681.47 0.00000 2.94641e-14
  8 1681.47 0.00000 2.89699e-14
  9 1681.47 0.00000 -1.23881e-13
  10 1681.47 0.00000 -4.00179e-14
  11 1681.47 0.00000 4.26831e-13
  12 1681.47 0.00000 2.33238e-13
</Section>

newXOutput 55

<Section columns = "stress_xx | stress_yy | stress_xy">
  1 1717.86 0.00000 -7.11556e-14
  2 1717.86 0.00000 -3.78643e-14
  3 1717.86 0.00000 -1.14722e-13
  4 1717.86 0.00000 -7.46443e-14
  5 1717.86 0.00000 4.91135e-14
  6 1717.86 0.00000 6.75519e-14
  7 1717.86 0.00000 3.83204e-13
  8 1717.86 0.00000 3.36398e-13
  9 1717.86 0.00000 -3.72568e-13
  10 1717.86 0.00000 -3.96105e-13
  11 1717.86 0.00000 -3.65008e-14
  12 1717.86 0.00000 2.68037e-14
</Section>

newXOutput 56

<Section columns = "stress_xx | stress_yy | stress_xy">
  1 1754.30 0.00000 -4.86932e-14
  2 1754.30 0.00000 1.44815e-14
  3 1754.30 0.00000 -3.75009e-14
  4 1754.30 0.00000 3.58392e-14
  5 1754.30 0.00000 -2.08813e-13
  6 1754.30 0.00000 -1.83927e-13
  7 1754.30 0.00000 1.78058e-14
  8 1754.30 0.00000 -1.75343e-14
  9 1754.30 0.00000 4.90517e-14
  10 1754.30 0.00000 4.19304e-14
  11 1754.30 0.00000 2.38186e-13
  12 1754.30 0.00000 2.87697e-13
</Section>

newXOutput 57

<Section columns = "stress_xx | stress_yy | stress_xy">
  1 1790.80 0.00000 -3.34473e-14
  2 1790.80 0.00000 1.33288e-14
  3 1790.80 0.00000 -5.49378e-14
  4 1790.80 0.00000 -3.32203e-14
  5 1790.80 0.00000 1.65966e-13
  6 1790.80 0.00000 1.32298e-13
  7 1790.80 0.00000 -3.22631e-13
  8 1790.80 0.00000 -3.67829e-13
  9 1790.80 0.00000 -7.76640e-14
  10 1790.80 0.00000 -1.22161e-13
  11 1790.80 0.00000 -3.50671e-14
  12 1790.80 0.00000 -2.04522e-13
</Section>

newXOutput 58

<Section columns = "stress_xx | stress_yy | stress_xy">
  1 1827.36 0.00000 1.02252e-13
  2 1827.36 0.00000 -6.90745e-14
  3 1827.36 0.00000 5.14058e-14
  4 1827.36 0.00000 -3.94261e-14
  5 1827.36 0.00000 -4.52984e-14
  6 1827.36 0.00000 -8.14204e-15
  7 1827.36 0.00000 -6.25740e-13
  8 1827.36 0.00000 -6.03693e-13
  9 1827.36 0.00000 -1.87466e-13
  10 1827.36 0.00000 -1.32119e-13
  11 1827.36 0.00000 -2.15399e-13
  12 1827.36 0.00000 -1.13469e-14
</Section>

newXOutput 59

<Section columns = "stress_xx | stress_yy | stress_xy">
  1 1863.98 0.00000 -8.81118e-14
  2 1863.98 0.00000 -1.28808e-13
  3 1863.98 0.00000 1.28277e-13
  4 1863.98 0.00000 9.79428e-14
  5 1863.98 0.00000 -2.15458e-13
  6 1863.98 0.00000 -2.03722e-13
  7 1863.98 0.00000 -3.39462e-13
  8 1863.98 0.00000 -2.73067e-13
  9 1863.98 0.00000 -2.54267e-13
  10 1863.98 0.00000 -1.23191e-13
  11 1863.98 0.00000 -1.01129e-13
  12 1863.98 0.00000 -8.43361e-15
</Section>

newXOutput 60

<Section columns = "stress_xx | stress_yy | stress_xy">
  1 1900.66 0.00000 8.21248e-14
  2 1900.66 0.00000 5.52514e-14
  3 1900.66 0.00000 2.77902e-13
  4 1900.66 0.00000 2.52708e-13
  5 1900.66 0.00000 5.58195e-14
  6 1900.66 0.00000 8.60521e-14
  7 1900.66 0.00000 -2.01846e-13
  8 1900.66 0.00000 -1.68400e-13
  9 1900.66 0.00000 4.15645e-14
  10 1900.66 0.00000 1.56062e-14
  11 1900.66 0.00000 5.17603e-13
  12 1900.66 0.00000 5.09509e-13
</Section>

newXOutput 61

<Section columns = "stress_xx | stress_yy | stress_xy">
  1 1937.41 0.00000 -4.72979e-14
  2 1937.41 0.00000 -6.87710e-14
  3 1937.41 0.00000 -2.37293e-15
  4 1937.41 0.00000 -6.37911e-15
  5 1937.41 0.00000 -1.72273e-13
  6 1937.41 0.00000 -1.79003e-13
  7 1937.41 0.00000 -2.52476e-13
  8 1937.41 0.00000 -2.89176e-13
  9 1937.41 0.00000 -4.43934e-13
  10 1937.41 0.00000 -4.83476e-13
  11 1937.41 0.00000 -2.81213e-14
  12 1937.41 0.00000 -6.07263e-14
</Section>

newXOutput 62

<Section columns = "stress_xx | stress_yy | stress_xy">
  1 1974.21 0.00000 7.71459e-15
  2 1974.21 0.00000 1.44570e-14
  3 1974.21 0.00000 5.54006e-14
  4 1974.21 0.00000 4.19159e-14
  5 1974.21 0.00000 -1.78505e-13
  6 1974.21 0.00000 -2.08845e-13
  7 1974.21 0.00000 -1.46003e-14
  8 1974.21 0.00000 -3.93712e-14
  9 1974.21 0.00000 -3.27462e-13
  10 1974.21 0.00000 -3.54511e-13
  11 1974.21 0.00000 -1.34263e-13
  12 1974.21 0.00000 -3.23065e-14
</Section>

newXOutput 63

<Section columns = "stress_xx | stress_yy | stress_xy">
  1 2011.07 0.00000 -7.67099e-14
  2 2011.07 0.00000 -6.99555e-14
  3 2011.07 0.00000 -1.33175e-14
  4 2011.07 0.00000 -6.78656e-14
  5 2011.07 0.00000 -1.17502e-13
  6 2011.07 0.00000 -1.95691e-13
  7 2011.07 0.00000 -2.06915e-13
  8 2011.07 0.00000 -1.62500e-13
  9 2011.07 0.00000 1.71856e-13
  10 2011.07 0.00000 2.37590e-13
  11 2011.07 0.00000 3.35856e-13
  12 2011.07 0.00000 1.23957e-13
</Section>

newXOutput 64

<Section columns = "stress_xx | stress_yy | stress_xy">
  1 2048.00 0.00000 7.19014e-14
  2 2048.00 0.00000 1.19266e-13
  3 2048.00 0.00000 -2.99312e-14
  4 2048.00 0.00000 -3.79796e-14
  5 2048.00 0.00000 1.07235e-13
  6 2048.00 0.00000 5.75622e-14
  7 2048.00 0.00000 -8.86972e-14
  8 2048.00 0.00000 -6.53920e-14
  9 2048.00 0.00000 -5.31792e-13
  10 2048.00 0.00000 -4.97296e-13
  11 2048.00 0.00000 -3.49320e-13
  12 2048.00 0.00000 -2.56187e-13
</Section>

newXOutput 65

<Section columns = "stress_xx | stress_yy | stress_xy">
  1 2084.99 0.00000 -7.45070e-14
  2 2084.99 0.00000 -9.96739e-14
  3 2084.99 0.00000 -6.23783e-15
  4 2084.99 0.00000 5.08415e-14
  5 2084.99 0.00000 -3.31299e-13
  6 2084.99 0.00000 -3.52512e-13
  7 2084.99 0.00000 -1.76257e-14
  8 2084.99 0.00000 -5.60029e-14
  9 2084.99 0.00000 -5.96049e-14
  10 2084.99 0.00000 1.64266e-13
  11 2084.99 0.00000 -1.01383e-14
  12 2084.99 0.00000 3.58358e-13
</Section>

newXOutput 66

<Section columns = "stress_xx | stress_yy | stress_xy">
  1 2122.04 0.00000 -4.10827e-15
  2 2122.04 0.00000 -4.69022e-14
  3 2122.04 0.00000 1.11444e-13
  4 2122.04 0.00000 1.03223e-13
  5 2122.04 0.00000 -4.19251e-13
  6 2122.04 0.00000 -4.46818e-13
  7 2122.04 0.00000 3.65571e-13
  8 2122.04 0.00000 2.93532e-13
  9 2122.04 0.00000 1.91109e-14
  10 2122.04 0.00000 -8.16346e-15
  11 2122.04 0.00000 -2.82922e-13
  12 2122.04 0.00000 -3.41062e-14
</Section>

newXOutput 67

<Section columns = "stress_xx | stress_yy | stress_xy">
  1 2159.15 0.00000 8.05036e-14
  2 2159.15 0.00000 -3.17731e-15
  3 2159.15 0.00000 -1.22802e-13
  4 2159.15 0.00000 -2.05970e-13
  5 2159.15 0.00000 2.20929e-13
  6 2159.15 0.00000 2.03411e-13
  7 2159.15 0.00000 1.56287e-13
  8 2159.15 0.00000 1.91639e-13
  9 2159.15 0.00000 -2.93174e-13
  10 2159.15 0.00000 -2.45791e-13
  11 2159.15 0.00000 2.64234e-13
  12 2159.15 0.00000 1.22506e-13
</Section>

newXOutput 68

<Section columns = "stress_xx | stress_yy | stress_xy">
  1 2196.33 0.00000 -3.79932e-14
  2 2196.33 0.00000 2.53885e-14
  3 2196.33 0.00000 -1.20679e-13
  4 2196.33 0.00000 -8.86776e-14
  5 2196.33 0.00000 2.26676e-13
  6 2196.33 0.00000 2.30084e-13
  7 2196.33 0.00000 -2.59979e-13
  8 2196.33 0.00000 -2.84161e-13
  9 2196.33 0.00000 -2.13300e-13
  10 2196.33 0.00000 -3.11368e-13
  11 2196.33 0.00000 3.90896e-13
  12 2196.33 0.00000 2.49908e-13
</Section>

newXOutput 69

<Section columns = "stress_xx | stress_yy | stress_xy">
  1 2233.56 0.00000 -4.04494e-14
  2 2233.56 0.00000 -6.77555e-14
  3 2233.56 0.00000 7.78080e-14
  4 2233.56 0.00000 6.80810e-14
  5 2233.56 0.00000 -1.23711e-13
  6 2233.56 0.00000 -7.54125e-14
  7 2233.56 0.00000 5.28683e-14
  8 2233.56 0.00000 1.30811e-13
  9 2233.56 0.00000 1.67854e-14
  10 2233.56 0.00000 1.50191e-14
  11 2233.56 0.00000 -3.05016e-13
  12 2233.56 0.00000 -7.40395e-13
</Section>

newXOutput 70

<Section columns = "stress_xx | stress_yy | stress_xy">
  1 2270.86 0.00000 -7.93614e-15
  2 2270.86 0.00000 -2.44907e-14
  3 2270.86 0.00000 -4.48360e-14
  4 2270.86 0.00000 -8.00627e-14
  5 2270.86 0.00000 -3.37212e-13
  6 2270.86 0.00000 -3.30374e-13
  7 2270.86 0.00000 2.29838e-13
  8 2270.86 0.00000 2.65015e-13
  9 2270.86 0.00000 -3.60427e-15
  10 2270.86 0.00000 1.45422e-13
  11 2270.86 0.00000 2.55206e-13
  12 2270.86 0.00000 5.25710e-13
</Section>

newXOutput 71

<Section columns = "stress_xx | stress_yy | stress_xy">
  1 2308.23 0.00000 2.61745e-14
  2 2308.23 0.00000 1.93240e-14
  3 2308.23 0.00000 1.35323e-13
  4 2308.23 0.00000 1.24534e-13
  5 2308.23 0.00000 1.98448e-13
  6 2308.23 0.00000 1.77384e-13
  7 2308.23 0.00000 3.97175e-13
  8 2308.23 0.00000 3.03208e-13
  9 2308.23 0.00000 6.36907e-14
  10 2308.23 0.00000 -5.78808e-14
  11 2308.23 0.00000 1.89490e-13
  12 2308.23 0.00000 7.91689e-14
</Section>

newXOutput 72

<Section columns = "stress_xx | stress_yy | stress_xy">
  1 2345.66 0.00000 6.86914e-14
  2 2345.66 0.00000 6.92826e-15
  3 2345.66 0.00000 2.21273e-14
  4 2345.66 0.00000 -5.32299e-15
  5 2345.66 0.00000 1.18112e-14
  6 2345.66 0.00000 1.18112e-14
  7 2345.66 0.00000 -5.39695e-14
  8 2345.66 0.00000 -1.06228e-13
  9 2345.66 0.00000 -1.93206e-14
  10 2345.66 0.00000 1.20785e-14
  11 2345.66 0.00000 -2.04014e-13
  12 2345.66 0.00000 -4.35608e-14
</Section>

newXOutput 73

<Section columns = "stress_xx | stress_yy | stress_xy">
  1 2383.15 0.00000 -4.58510e-14
  2 2383.15 0.00000 5.93190e-14
  3 2383.15 0.00000 -6.60254e-15
  4 2383.15 0.00000 7.55320e-14
  5 2383.15 0.00000 1.64791e-13
  6 2383.15 0.00000 1.53092e-13
  7 2383.15 0.00000 -1.47149e-14
  8 2383.15 0.00000 -8.98268e-14
  9 2383.15 0.00000 3.13405e-13
  10 2383.15 0.00000 2.95809e-13
  11 2383.15 0.00000 1.91056e-13
  12 2383.15 0.00000 4.37264e-13
</Section>

newXOutput 74

<Section columns = "stress_xx | stress_yy | stress_xy">
  1 2420.70 0.00000 -9.44524e-14
  2 2420.70 0.00000 -2.55863e-14
  3 2420.70 0.00000 -1.92348e-13
  4 2420.70 0.00000 -1.30369e-13
  5 2420.70 0.00000 -8.31134e-14
  6 2420.70 0.00000 -1.12603e-13
  7 2420.70 0.00000 1.74562e-13
  8 2420.70 0.00000 7.90789e-14
  9 2420.70 0.00000 2.98510e-13
  10 2420.70 0.00000 1.43567e-13
  11 2420.70 0.00000 1.08239e-13
  12 2420.70 0.00000 -3.10026e-13
</Section>

newXOutput 75

<Section columns = "stress_xx | stress_yy | stress_xy">
  1 2458.32 0.00000 -2.44308e-14
  2 2458.32 0.00000 -1.16164e-13
  3 2458.32 0.00000 2.48421e-13
  4 2458.32 0.00000 2.46882e-13
  5 2458.32 0.00000 -1.19908e-13
  6 2458.32 0.00000 -1.12497e-13
  7 2458.32 0.00000 4.07863e-13
  8 2458.32 0.00000 2.69824e-13
  9 2458.32 0.00000 -2.27046e-13
  10 2458.32 0.00000 -2.93844e-13
  11 2458.32 0.00000 4.88351e-13
  12 2458.32 0.00000 4.87130e-13
</Section>

newXOutput 76

<Section columns = "stress_xx | stress_yy | stress_xy">
  1 2496.01 0.00000 3.48557e-13
  2 2496.01 0.00000 3.38149e-13
  3 2496.01 0.00000 -2.79746e-13
  4 2496.01 0.00000 -2.63937e-13
  5 2496.01 0.00000 -1.14784e-13
  6 2496.01 0.00000 -9.04886e-14
  7 2496.01 0.00000 -3.35091e-13
  8 2496.01 0.00000 -3.40905e-13
  9 2496.01 0.00000 1.31212e-13
  10 2496.01 0.00000 -1.47622e-14
  11 2496.01 0.00000 2.24699e-13
  12 2496.01 0.00000 -2.84547e-13
</Section>

newXOutput 77

<Section columns = "stress_xx | stress_yy | stress_xy">
  1 2533.76 0.00000 -1.73904e-13
  2 2533.76 0.00000 -6.59614e-14
  3 2533.76 0.00000 -9.05164e-14
  4 2533.76 0.00000 -2.16744e-14
  5 2533.76 0.00000 1.32305e-13
  6 2533.76 0.00000 1.01153e-13
  7 2533.76 0.00000 -2.47949e-13
  8 2533.76 0.00000 -2.75948e-13
  9 2533.76 0.00000 2.98697e-13
  10 2533.76 0.00000 3.42949e-13
  11 2533.76 0.00000 2.83931e-13
  12 2533.76 0.00000 3.36387e-13
</Section>

newXOutput 78

<Section columns = "stress_xx | stress_yy | stress_xy">
  1 2571.57 0.00000 -4.98955e-14
  2 2571.57 0.00000 -1.53916e-13
  3 2571.57 0.00000 -2.47516e-13
  4 2571.57 0.00000 -2.85657e-13
  5 2571.57 0.00000 -5.82307e-13
  6 2571.57 0.00000 -5.54568e-13
  7 2571.57 0.00000 -1.24827e-13
  8 2571.57 0.00000 -1.19041e-13
  9 2571.57 0.00000 -4.78773e-14
  10 2571.57 0.00000 4.66694e-14
  11 2571.57 0.00000 1.11416e-13
  12 2571.57 0.00000 2.90286e-13
</Section>

newXOutput 79

<Section columns = "stress_xx | stress_yy | stress_xy">
  1 2609.46 0.00000 3.38182e-14
  2 2609.46 0.00000 -2.58577e-14
  3 2609.46 0.00000 -6.98342e-14
  4 2609.46 0.00000 -9.61988e-14
  5 2609.46 0.00000 -9.95756e-14
  6 2609.46 0.00000 -7.52621e-14
  7 2609.46 0.00000 1.99146e-13
  8 2609.46 0.00000 1.70682e-13
  9 2609.46 0.00000 -9.77140e-14
  10 2609.46 0.00000 -5.87267e-14
  11 2609.46 0.00000 1.17802e-13
  12 2609.46 0.00000 2.41052e-13
</Section>

newXOutput 80

<Section columns = "stress_xx | stress_yy | stress_xy">
  1 2647.40 0.00000 -4.82285e-14
  2 2647.40 0.00000 -8.30221e-14
  3 2647.40 0.00000 -1.19164e-13
  4 2647.40 0.00000 -1.33081e-13
  5 2647.40 0.00000 -3.40183e-13
  6 2647.40 0.00000 -3.12861e-13
  7 2647.40 0.00000 -2.52936e-13
  8 2647.40 0.00000 -2.80707e-13
  9 2647.40 0.00000 -2.75911e-13
  10 2647.40 0.00000 -4.08551e-13
  11 2647.40 0.00000 2.24919e-13
  12 2647.40 0.00000 1.13494e-14
</Section>

newXOutput 81

<Section columns = "stress_xx | stress_yy | stress_xy">
  1 2685.42 0.00000 -2.89141e-14
  2 2685.42 0.00000 -3.05508e-14
  3 2685.42 0.00000 -1.19256e-13
  4 2685.42 0.00000 -1.14656e-13
  5 2685.42 0.00000 1.44814e-13
  6 2685.42 0.00000 1.23902e-13
  7 2685.42 0.00000 -3.88294e-14
  8 2685.42 0.00000 -1.07225e-14
  9 2685.42 0.00000 -2.65478e-14
  10 2685.42 0.00000 1.64314e-13
  11 2685.42 0.00000 -2.63192e-13
  12 2685.42 0.00000 -7.05222e-14
</Section>

newXOutput 82

<Section columns = "stress_xx | stress_yy | stress_xy">
  1 2723.49 0.00000 1.60877e-14
  2 2723.49 0.00000 -3.11044e-14
  3 2723.49 0.00000 6.21213e-14
  4 2723.49 0.00000 -1.57170e-14
  5 2723.49 0.00000 -1.48101e-13
  6 2723.49 0.00000 -1.96980e-13
  7 2723.49 0.00000 -2.49675e-13
  8 2723.49 0.00000 -3.22731e-13
  9 2723.49 0.00000 -3.16428e-14
  10 2723.49 0.00000 -1.93012e-13
  11 2723.49 0.00000 1.00499e-13
  12 2723.49 0.00000 -6.42160e-14
</Section>

newXOutput 83

<Section columns = "stress_xx | stress_yy | stress_xy">
  1 2761.64 0.00000 -7.48391e-14
  2 2761.64 0.00000 1.17281e-13
  3 2761.64 0.00000 -6.43537e-14
  4 2761.64 0.00000 7.92235e-14
  5 2761.64 0.00000 -6.73093e-14
  6 2761.64 0.00000 -3.37817e-14
  7 2761.64 0.00000 -4.82009e-13
  8 2761.64 0.00000 -4.93370e-13
  9 2761.64 0.00000 4.33829e-13
  10 2761.64 0.00000 4.49629e-13
  11 2761.64 0.00000 1.54908e-13
  12 2761.64 0.00000 7.60833e-14
</Section>

newXOutput 84

<Section columns = "stress_xx | stress_yy | stress_xy">
  1 2799.85 0.00000 8.27459e-15
  2 2799.85 0.00000 -9.16088e-14
  3 2799.85 0.00000 -1.00777e-13
  4 2799.85 0.00000 -1.34957e-13
  5 2799.85 0.00000 -1.51919e-13
  6 2799.85 0.00000 -1.55422e-13
  7 2799.85 0.00000 2.49993e-13
  8 2799.85 0.00000 2.18508e-13
  9 2799.85 0.00000 3.65052e-13
  10 2799.85 0.00000 3.62784e-13
  11 2799.85 0.00000 3.21643e-13
  12 2799.85 0.00000 2.89004e-13
</Section>

newXOutput 85

<Section columns = "stress_xx | stress_yy | stress_xy">
  1 2838.13 0.00000 -6.00392e-14
  2 2838.13 0.00000 -1.60875e-14
  3 2838.13 0.00000 -1.76119e-14
  4 2838.13 0.00000 5.73704e-14
  5 2838.13 0.00000 1.88161e-13
  6 2838.13 0.00000 2.74438e-13
  7 2838.13 0.00000 4.46291e-13
  8 2838.13 0.00000 4.58215e-13
  9 2838.13 0.00000 -2.07674e-13
  10 2838.13 0.00000 -8.81375e-14
  11 2838.13 0.00000 -8.44680e-14
  12 2838.13 0.00000 -1.70227e-13
</Section>

newXOutput 86

<Section columns = "stress_xx | stress_yy | stress_xy">
  1 2876.48 0.00000 7.42533e-14
  2 2876.48 0.00000 1.98961e-14
  3 2876.48 0.00000 1.27233e-13
  4 2876.48 0.00000 4.01324e-14
  5 2876.48 0.00000 -1.25530e-13
  6 2876.48 0.00000 -2.06100e-13
  7 2876.48 0.00000 -2.52901e-13
  8 2876.48 0.00000 -3.56709e-13
  9 2876.48 0.00000 -1.27661e-13
  10 2876.48 0.00000 -2.00789e-13
  11 2876.48 0.00000 -6.20582e-14
  12 2876.48 0.00000 2.20321e-13
</Section>

newXOutput 87

<Section columns = "stress_xx | stress_yy | stress_xy">
  1 2914.90 0.00000 1.36889e-13
  2 2914.90 0.00000 1.69052e-13
  3 2914.90 0.00000 -1.15683e-13
  4 2914.90 0.00000 -6.88897e-14
  5 2914.90 0.00000 8.06162e-14
  6 2914.90 0.00000 1.82293e-13
  7 2914.90 0.00000 7.17616e-14
  8 2914.90 0.00000 7.93046e-14
  9 2914.90 0.00000 6.67153e-14
  10 2914.90 0.00000 -2.08396e-14
  11 2914.90 0.00000 6.98496e-13
  12 2914.90 0.00000 4.40535e-13
</Section>

newXOutput 88

<Section columns = "stress_xx | stress_yy | stress_xy">
  1 2953.38 0.00000 -1.37792e-13
  2 2953.38 0.00000 -1.08483e-13
  3 2953.38 0.00000 -1.31260e-13
  4 2953.38 0.00000 -1.63962e-13
  5 2953.38 0.00000 2.46184e-14
  6 2953.38 0.00000 3.23703e-15
  7 2953.38 0.00000 5.63503e-14
  8 2953.38 0.00000 9.20795e-14
  9 2953.38 0.00000 -1.27196e-12
  10 2953.38 0.00000 -9.98045e-13
  11 2953.38 0.00000 -7.34404e-13
  12 2953.38 0.00000 -2.78327e-13
</Section>

newXOutput 89

<Section columns = "stress_xx | stress_yy | stress_xy">
  1 2991.94 0.00000 4.28909e-14
  2 2991.94 0.00000 1.18585e-13
  3 2991.94 0.00000 5.64833e-14
  4 2991.94 0.00000 9.51990e-14
  5 2991.94 0.00000 -1.27796e-13
  6 2991.94 0.00000 -1.81367e-13
  7 2991.94 0.00000 1.55320e-13
  8 2991.94 0.00000 1.83707e-13
  9 2991.94 0.00000 1.70335e-14
  10 2991.94 0.00000 1.95103e-13
  11 2991.94 0.00000 1.36288e-13
  12 2991.94 0.00000 3.65183e-14
</Section>

newXOutput 90

<Section columns = "stress_xx | stress_yy | stress_xy">
  1 3030.56 0.00000 -3.16726e-14
  2 3030.56 0.00000 1.57873e-14
  3 3030.56 0.00000 1.45066e-13
  4 3030.56 0.00000 1.80790e-13
  5 3030.56 0.00000 3.96831e-13
  6 3030.56 0.00000 3.75594e-13
  7 3030.56 0.00000 1.08498e-13
  8 3030.56 0.00000 3.37684e-14
  9 3030.56 0.00000 5.78241e-14
  10 3030.56 0.00000 -8.72347e-14
  11 3030.56 0.00000 4.29268e-14
  12 3030.56 0.00000 -7.28390e-15
</Section>

newXOutput 91

<Section columns = "stress_xx | stress_yy | stress_xy">
  1 3069.25 0.00000 -6.55449e-14
  2 3069.25 0.00000 -1.36454e-13
  3 3069.25 0.00000 2.50552e-13
  4 3069.25 0.00000 1.81137e-13
  5 3069.25 0.00000 -1.91120e-13
  6 3069.25 0.00000 -1.95257e-13
  7 3069.25 0.00000 1.68415e-13
  8 3069.25 0.00000 1.80459e-13
  9 3069.25 0.00000 -1.50860e-13
  10 3069.25 0.00000 -1.41629e-13
  11 3069.25 0.00000 3.43162e-13
  12 3069.25 0.00000 4.22128e-13
</Section>

newXOutput 92

<Section columns = "stress_xx | stress_yy | stress_xy">
  1 3108.01 0.00000 1.73263e-13
  2 3108.01 0.00000 1.31452e-13
  3 3108.01 0.00000 -1.30026e-13
  4 3108.01 0.00000 -1.46130e-13
  5 3108.01 0.00000 -1.06920e-13
  6 3108.01 0.00000 -8.25343e-14
  7 3108.01 0.00000 3.97521e-14
  8 3108.01 0.00000 9.85553e-14
  9 3108.01 0.00000 1.09288e-13
  10 3108.01 0.00000 7.90500e-14
  11 3108.01 0.00000 2.26368e-13
  12 3108.01 0.00000 3.52303e-14
</Section>

newXOutput 93

<Section columns = "stress_xx | stress_yy | stress_xy">
  1 3146.84 0.00000 -7.60728e-14
  2 3146.84 0.00000 -1.25878e-13
  3 3146.84 0.00000 -1.06171e-13
  4 3146.84 0.00000 -1.48861e-13
  5 3146.84 0.00000 1.70102e-13
  6 3146.84 0.00000 2.07728e-13
  7 3146.84 0.00000 -9.91626e-14
  8 3146.84 0.00000 4.21703e-15
  9 3146.84 0.00000 -2.06138e-13
  10 3146.84 0.00000 -6.36284e-14
  11 3146.84 0.00000 -3.32703e-14
  12 3146.84 0.00000 -1.58459e-13
</Section>

newXOutput 94

<Section columns = "stress_xx | stress_yy | stress_xy">
  1 3185.74 0.00000 7.99687e-14
  2 3185.74 0.00000 6.57147e-14
  3 3185.74 0.00000 -5.09795e-14
  4 3185.74 0.00000 -6.52335e-14
  5 3185.74 0.00000 -4.56086e-14
  6 3185.74 0.00000 -1.14860e-14
  7 3185.74 0.00000 -6.33864e-14
  8 3185.74 0.00000 -7.57086e-14
  9 3185.74 0.00000 1.48338e-13
  10 3185.74 0.00000 3.44905e-15
  11 3185.74 0.00000 3.30423e-14
  12 3185.74 0.00000 -4.53106e-14
</Section>

newXOutput 95

<Section columns = "stress_xx | stress_yy | stress_xy">
  1 3224.71 0.00000 -1.38806e-13
  2 3224.71 0.00000 -1.79293e-13
  3 3224.71 0.00000 2.45602e-14
  4 3224.71 0.00000 -6.93792e-14
  5 3224.71 0.00000 3.53720e-13
  6 3224.71 0.00000 3.05482e-13
  7 3224.71 0.00000 1.21590e-14
  8 3224.71 0.00000 5.52786e-14
  9 3224.71 0.00000 -2.22151e-13
  10 3224.71 0.00000 -1.29699e-13
  11 3224.71 0.00000 9.78457e-14
  12 3224.71 0.00000 8.99410e-14
</Section>

newXOutput 96

<Section columns = "stress_xx | stress_yy | stress_xy">
  1 3263.75 0.00000 3.23030e-14
  2 3263.75 0.00000 -3.45213e-15
  3 3263.75 0.00000 1.16417e-13
  4 3263.75 0.00000 8.57616e-14
  5 3263.75 0.00000 4.21978e-13
  6 3263.75 0.00000 4.02050e-13
  7 3263.75 0.00000 -1.46438e-13
  8 3263.75 0.00000 -1.33118e-13
  9 3263.75 0.00000 -5.08061e-13
  10 3263.75 0.00000 -3.92529e-13
  11 3263.75 0.00000 -2.47077e-13
  12 3263.75 0.00000 4.59810e-14
</Section>

newXOutput 97

<Section columns = "stress_xx | stress_yy | stress_xy">
  1 3302.86 0.00000 -2.71361e-14
  2 3302.86 0.00000 -5.57882e-14
  3 3302.86 0.00000 1.01010e-13
  4 3302.86 0.00000 9.58979e-14
  5 3302.86 0.00000 1.92808e-13
  6 3302.86 0.00000 2.21981e-13
  7 3302.86 0.00000 -1.46384e-13
  8 3302.86 0.00000 -1.18731e-13
  9 3302.86 0.00000 3.30736e-13
  10 3302.86 0.00000 2.14730e-13
  11 3302.86 0.00000 -4.60110e-14
  12 3302.86 0.00000 -2.97681e-14
</Section>

newXOutput 98

<Section columns = "stress_xx | stress_yy | stress_xy">
  1 3342.05 0.00000 -5.32516e-14
  2 3342.05 0.00000 -6.29268e-14
  3 3342.05 0.00000 -1.45575e-14
  4 3342.05 0.00000 1.37686e-14
  5 3342.05 0.00000 5.79971e-14
  6 3342.05 0.00000 6.15847e-14
  7 3342.05 0.00000 2.83022e-14
  8 3342.05 0.00000 -5.81155e-14
  9 3342.05 0.00000 -3.59095e-13
  10 3342.05 0.00000 -6.25641e-13
  11 3342.05 0.00000 -1.94262e-13
  12 3342.05 0.00000 -8.91623e-14
</Section>

newXOutput 99

<Section columns = "stress_xx | stress_yy | stress_xy">
  1 3381.30 0.00000 -2.85961e-15
  2 3381.30 0.00000 2.33374e-14
  3 3381.30 0.00000 -5.86468e-15
  4 3381.30 0.00000 -2.73715e-14
  5 3381.30 0.00000 -1.18796e-13
  6 3381.30 0.00000 -2.29679e-13
  7 3381.30 0.00000 -2.85536e-13
  8 3381.30 0.00000 -2.29025e-13
  9 3381.30 0.00000 -6.55636e-13
  10 3381.30 0.00000 -4.67587e-13
  11 3381.30 0.00000 6.93329e-13
  12 3381.30 0.00000 4.55520e-13
</Section>

newXOutput 100

<Section columns = "stress_xx | stress_yy | stress_xy">
  1 3420.63 0.00000 5.57304e-15
  2 3420.63 0.00000 -3.50190e-14
  3 3420.63 0.00000 -2.47700e-14
  4 3420.63 0.00000 -6.38144e-14
  5 3420.63 0.00000 1.39870e-13
  6 3420.63 0.00000 1.68667e-13
  7 3420.63 0.00000 7.38476e-14
  8 3420.63 0.00000 1.14656e-13
  9 3420.63 0.00000 -2.65765e-13
  10 3420.63 0.00000 -1.85566e-13
  11 3420.63 0.00000 1.20574e-13
  12 3420.63 0.00000 8.56797e-14
</Section>

newXOutput 101

<Section columns = "stress_xx | stress_yy | stress_xy">
  1 3460.03 0.00000 -4.37202e-14
  2 3460.03 0.00000 -6.07961e-14
  3 3460.03 0.00000 6.25471e-14
  4 3460.03 0.00000 2.27757e-14
  5 3460.03 0.00000 2.00455e-13
  6 3460.03 0.00000 1.43295e-13
  7 3460.03 0.00000 8.02178e-14
  8 3460.03 0.00000 1.24209e-13
  9 3460.03 0.00000 1.52530e-13
  10 3460.03 0.00000 1.98536e-13
  11 3460.03 0.00000 1.74014e-13
  12 3460.03 0.00000 7.43363e-14
</Section>

newXOutput 102

<Section columns = "stress_xx | stress_yy | stress_xy">
  1 3499.50 0.00000 3.57729e-14
  2 3499.50 0.00000 9.58532e-15
  3 3499.50 0.00000 5.19902e-14
  4 3499.50 0.00000 -5.35340e-14
  5 3499.50 0.00000 -2.04732e-14
  6 3499.50 0.00000 -6.53283e-14
  7 3499.50 0.00000 1.71730e-13
  8 3499.50 0.00000 1.77073e-13
  9 3499.50 0.00000 -3.23887e-13
  10 3499.50 0.00000 -4.52636e-13
  11 3499.50 0.00000 -2.22183e-13
  12 3499.50 0.00000 -3.36299e-13
</Section>

newXOutput 103

<Section columns = "stress_xx | stress_yy | stress_xy">
  1 3539.05 0.00000 -1.08556e-14
  2 3539.05 0.00000 -2.53259e-14
  3 3539.05 0.00000 -2.92803e-14
  4 3539.05 0.00000 -9.38558e-14
  5 3539.05 0.00000 -3.12740e-14
  6 3539.05 0.00000 -1.08753e-13
  7 3539.05 0.00000 -4.87081e-14
  8 3539.05 0.00000 -1.44334e-14
  9 3539.05 0.00000 -2.66864e-13
  10 3539.05 0.00000 3.91516e-15
  11 3539.05 0.00000 1.36577e-13
  12 3539.05 0.00000 2.85251e-13
</Section>

newXOutput 104

<Section columns = "stress_xx | stress_yy | stress_xy">
  1 3578.67 0.00000 -2.31987e-15
  2 3578.67 0.00000 -9.65330e-14
  3 3578.67 0.00000 4.76754e-14
  4 3578.67 0.00000 2.23103e-14
  5 3578.67 0.00000 1.05310e-13
  6 3578.67 0.00000 2.00218e-13
  7 3578.67 0.00000 -1.99959e-13
  8 3578.67 0.00000 -1.11785e-13
  9 3578.67 0.00000 -8.21137e-13
  10 3578.67 0.00000 -7.04066e-13
  11 3578.67 0.00000 -2.39707e-13
  12 3578.67 0.00000 -6.72848e-15
</Section>

newXOutput 105

<Section columns = "stress_xx | stress_yy | stress_xy">
  1 3618.36 0.00000 1.90081e-14
  2 3618.36 0.00000 -1.72878e-14
  3 3618.36 0.00000 -7.32801e-15
  4 3618.36 0.00000 -1.97952e-14
  5 3618.36 0.00000 -4.63349e-13
  6 3618.36 0.00000 -5.08147e-13
  7 3618.36 0.00000 -2.94847e-13
  8 3618.36 0.00000 -3.16259e-13
  9 3618.36 0.00000 -5.02289e-13
  10 3618.36 0.00000 -3.46154e-13
  11 3618.36 0.00000 -3.09567e-13
  12 3618.36 0.00000 4.79443e-14
</Section>

newXOutput 106

<Section columns = "stress_xx | stress_yy | stress_xy">
  1 3658.13 0.00000 1.11351e-13
  2 3658.13 0.00000 1.84435e-14
  3 3658.13 0.00000 -2.97182e-13
  4 3658.13 0.00000 -3.40592e-13
  5 3658.13 0.00000 -1.01833e-13
  6 3658.13 0.00000 -9.81974e-14
  7 3658.13 0.00000 1.73664e-13
  8 3658.13 0.00000 1.80472e-13
  9 3658.13 0.00000 7.47352e-13
  10 3658.13 0.00000 7.85866e-13
  11 3658.13 0.00000 6.77296e-13
  12 3658.13 0.00000 4.26102e-13
</Section>

newXOutput 107

<Section columns = "stress_xx | stress_yy | stress_xy">
  1 3697.97 0.00000 -1.74100e-13
  2 3697.97 0.00000 -2.17799e-13
  3 3697.97 0.00000 -3.48131e-14
  4 3697.97 0.00000 -1.57786e-15
  5 3697.97 0.00000 1.87298e-13
  6 3697.97 0.00000 2.14841e-13
  7 3697.97 0.00000 5.70829e-13
  8 3697.97 0.00000 5.50156e-13
  9 3697.97 0.00000 -3.43401e-14
  10 3697.97 0.00000 4.43879e-14
  11 3697.97 0.00000 1.21436e-13
  12 3697.97 0.00000 -4.80152e-14
</Section>

newXOutput 108

<Section columns = "stress_xx | stress_yy | stress_xy">
  1 3737.88 0.00000 1.03015e-14
  2 3737.88 0.00000 7.29454e-14
  3 3737.88 0.00000 -9.83416e-14
  4 3737.88 0.00000 -8.41074e-15
  5 3737.88 0.00000 -5.57394e-13
  6 3737.88 0.00000 -5.84979e-13
  7 3737.88 0.00000 -5.32253e-13
  8 3737.88 0.00000 -5.61984e-13
  9 3737.88 0.00000 -7.73823e-13
  10 3737.88 0.00000 -5.37454e-13
  11 3737.88 0.00000 -2.70958e-13
  12 3737.88 0.00000 1.87238e-13
</Section>

newXOutput 109

<Section columns = "stress_xx | stress_yy | stress_xy">
  1 3777.88 0.00000 4.71563e-14
  2 3777.88 0.00000 8.67574e-14
  3 3777.88 0.00000 1.49662e-13
  4 3777.88 0.00000 1.61972e-13
  5 3777.88 0.00000 1.24254e-13
  6 3777.88 0.00000 1.02332e-13
  7 3777.88 0.00000 3.63164e-13
  8 3777.88 0.00000 3.03173e-13
  9 3777.88 0.00000 1.97928e-13
  10 3777.88 0.00000 2.76449e-13
  11 3777.88 0.00000 -1.62353e-13
  12 3777.88 0.00000 1.39696e-13
</Section>

newXOutput 110

<Section columns = "stress_xx | stress_yy | stress_xy">
  1 3817.94 0.00000 -1.92788e-14
  2 3817.94 0.00000 3.19561e-14
  3 3817.94 0.00000 -1.32420e-14
  4 3817.94 0.00000 2.59884e-14
  5 3817.94 0.00000 -9.77379e-14
  6 3817.94 0.00000 -1.54101e-13
  7 3817.94 0.00000 1.47652e-13
  8 3817.94 0.00000 7.49339e-14
  9 3817.94 0.00000 -3.96771e-13
  10 3817.94 0.00000 -2.73169e-13
  11 3817.94 0.00000 -1.50748e-13
  12 3817.94 0.00000 2.00156e-13
</Section>

newXOutput 111

<Section columns = "stress_xx | stress_yy | stress_xy">
  1 3858.09 0.00000 -1.84596e-13
  2 3858.09 0.00000 -2.44120e-13
  3 3858.09 0.00000 8.81136e-14
  4 3858.09 0.00000 6.93487e-14
  5 3858.09 0.00000 1.42460e-13
  6 3858.09 0.00000 1.49791e-13
  7 3858.09 0.00000 2.39526e-13
  8 3858.09 0.00000 2.41608e-13
  9 3858.09 0.00000 -2.00683e-13
  10 3858.09 0.00000 -9.76120e-14
  11 3858.09 0.00000 -2.65253e-13
  12 3858.09 0.00000 -1.91718e-14
</Section>

newXOutput 112

<Section columns = "stress_xx | stress_yy | stress_xy">
  1 3898.31 0.00000 -3.91145e-14
  2 3898.31 0.00000 -5.38011e-14
  3 3898.31 0.00000 4.51377e-14
  4 3898.31 0.00000 -1.36088e-14
  5 3898.31 0.00000 -5.25274e-13
  6 3898.31 0.00000 -5.61991e-13
  7 3898.31 0.00000 -2.42111e-13
  8 3898.31 0.00000 -1.76476e-13
  9 3898.31 0.00000 -4.37270e-13
  10 3898.31 0.00000 -4.81075e-13
  11 3898.31 0.00000 1.76310e-14
  12 3898.31 0.00000 -3.77439e-13
</Section>

newXOutput 113

<Section columns = "stress_xx | stress_yy | stress_xy">
  1 3938.60 0.00000 5.64878e-14
  2 3938.60 0.00000 5.64878e-14
  3 3938.60 0.00000 3.80465e-13
  4 3938.60 0.00000 3.73110e-13
  5 3938.60 0.00000 1.60593e-13
  6 3938.60 0.00000 1.38527e-13
  7 3938.60 0.00000 -1.58197e-14
  8 3938.60 0.00000 -2.89258e-14
  9 3938.60 0.00000 -1.85803e-13
  10 3938.60 0.00000 -1.71206e-13
  11 3938.60 0.00000 3.74612e-13
  12 3938.60 0.00000 9.22370e-13
</Section>

newXOutput 114

<Section columns = "stress_xx | stress_yy | stress_xy">
  1 3978.98 0.00000 1.97816e-14
  2 3978.98 0.00000 -4.73618e-14
  3 3978.98 0.00000 1.24468e-13
  4 3978.98 0.00000 1.12999e-13
  5 3978.98 0.00000 -3.36340e-13
  6 3978.98 0.00000 -3.36340e-13
  7 3978.98 0.00000 -5.41055e-13
  8 3978.98 0.00000 -5.90863e-13
  9 3978.98 0.00000 -3.09484e-13
  10 3978.98 0.00000 -4.92548e-13
  11 3978.98 0.00000 -5.90410e-13
  12 3978.98 0.00000 -4.32271e-13
</Section>

newXOutput 115

<Section columns = "stress_xx | stress_yy | stress_xy">
  1 4019.43 0.00000 -9.26989e-15
  2 4019.43 0.00000 -5.35461e-14
  3 4019.43 0.00000 -6.98116e-14
  4 4019.43 0.00000 -6.98116e-14
  5 4019.43 0.00000 -3.49552e-13
  6 4019.43 0.00000 -3.10170e-13
  7 4019.43 0.00000 -1.68951e-13
  8 4019.43 0.00000 -1.98804e-13
  9 4019.43 0.00000 5.52379e-13
  10 4019.43 0.00000 2.69007e-13
  11 4019.43 0.00000 1.20645e-12
  12 4019.43 0.00000 5.42214e-13
</Section>

newXOutput 116

<Section columns = "stress_xx | stress_yy | stress_xy">
  1 4059.95 0.00000 -2.81090e-14
  2 4059.95 0.00000 1.62393e-14
  3 4059.95 0.00000 2.79943e-14
  4 4059.95 0.00000 4.07259e-14
  5 4059.95 0.00000 1.74370e-15
  6 4059.95 0.00000 -7.58390e-14
  7 4059.95 0.00000 -3.40898e-13
  8 4059.95 0.00000 -2.83858e-13
  9 4059.95 0.00000 -1.01903e-12
  10 4059.95 0.00000 -6.67245e-13
  11 4059.95 0.00000 -4.33508e-13
  12 4059.95 0.00000 -1.67107e-13
</Section>

newXOutput 117

<Section columns = "stress_xx | stress_yy | stress_xy">
  1 4100.56 0.00000 7.43498e-14
  2 4100.56 0.00000 1.18770e-13
  3 4100.56 0.00000 3.44258e-13
  4 4100.56 0.00000 3.58632e-13
  5 4100.56 0.00000 -3.25231e-13
  6 4100.56 0.00000 -3.65483e-13
  7 4100.56 0.00000 -4.19235e-13
  8 4100.56 0.00000 -4.53856e-13
  9 4100.56 0.00000 -5.33886e-14
  10 4100.56 0.00000 -3.34841e-14
  11 4100.56 0.00000 -1.30121e-13
  12 4100.56 0.00000 -3.47245e-14
</Section>

newXOutput 118

<Section columns = "stress_xx | stress_yy | stress_xy">
  1 4141.25 0.00000 4.96976e-14
  2 4141.25 0.00000 -4.74922e-14
  3 4141.25 0.00000 -1.53491e-13
  4 4141.25 0.00000 -2.70876e-13
  5 4141.25 0.00000 1.28585e-13
  6 4141.25 0.00000 8.40928e-14
  7 4141.25 0.00000 -1.05561e-13
  8 4141.25 0.00000 -9.66427e-15
  9 4141.25 0.00000 2.13737e-13
  10 4141.25 0.00000 3.24572e-13
  11 4141.25 0.00000 2.91106e-13
  12 4141.25 0.00000 4.15974e-13
</Section>

newXOutput 119

<Section columns = "stress_xx | stress_yy | stress_xy">
  1 4182.01 0.00000 -4.40510e-14
  2 4182.01 0.00000 -1.03471e-13
  3 4182.01 0.00000 -1.38622e-13
  4 4182.01 0.00000 -1.60904e-13
  5 4182.01 0.00000 5.42705e-14
  6 4182.01 0.00000 9.14077e-14
  7 4182.01 0.00000 3.94866e-14
  8 4182.01 0.00000 3.26691e-14
  9 4182.01 0.00000 -5.20412e-13
  10 4182.01 0.00000 -5.89725e-13
  11 4182.01 0.00000 3.74142e-14
  12 4182.01 0.00000 -4.43982e-13
</Section>

newXOutput 120

<Section columns = "stress_xx | stress_yy | stress_xy">
  1 4222.85 0.00000 3.07806e-14
  2 4222.85 0.00000 -1.38562e-14
  3 4222.85 0.00000 6.33455e-15
  4 4222.85 0.00000 -4.19711e-14
  5 4222.85 0.00000 1.45976e-13
  6 4222.85 0.00000 1.47594e-13
  7 4222.85 0.00000 -2.46979e-13
  8 4222.85 0.00000 -1.86128e-13
  9 4222.85 0.00000 -5.72196e-14
  10 4222.85 0.00000 8.05396e-14
  11 4222.85 0.00000 5.25280e-13
  12 4222.85 0.00000 9.38492e-13
</Section>

newXOutput 121

<Section columns = "stress_xx | stress_yy | stress_xy">
  1 4263.78 0.00000 -8.10166e-14
  2 4263.78 0.00000 -1.89440e-13
  3 4263.78 0.00000 8.55640e-14
  4 4263.78 0.00000 7.27122e-14
  5 4263.78 0.00000 -2.34251e-13
  6 4263.78 0.00000 -2.58656e-13
  7 4263.78 0.00000 1.80422e-13
  8 4263.78 0.00000 9.41854e-14
  9 4263.78 0.00000 -2.57065e-13
  10 4263.78 0.00000 -1.00104e-13
  11 4263.78 0.00000 -7.99009e-13
  12 4263.78 0.00000 -3.90774e-13
</Section>

newXOutput 122

<Section columns = "stress_xx | stress_yy | stress_xy">
  1 4304.78 0.00000 -4.15298e-14
  2 4304.78 0.00000 -1.31330e-13
  3 4304.78 0.00000 -5.51414e-15
  4 4304.78 0.00000 -1.04564e-13
  5 4304.78 0.00000 -5.54705e-14
  6 4304.78 0.00000 -1.41671e-13
  7 4304.78 0.00000 -2.82979e-13
  8 4304.78 0.00000 -2.70923e-13
  9 4304.78 0.00000 -3.10893e-13
  10 4304.78 0.00000 -2.01639e-13
  11 4304.78 0.00000 7.81372e-13
  12 4304.78 0.00000 4.43557e-13
</Section>

newXOutput 123

<Section columns = "stress_xx | stress_yy | stress_xy">
  1 4345.87 0.00000 2.27298e-13
  2 4345.87 0.00000 3.65960e-13
  3 4345.87 0.00000 1.75424e-13
  4 4345.87 0.00000 1.88324e-13
  5 4345.87 0.00000 8.44420e-14
  6 4345.87 0.00000 1.48214e-15
  7 4345.87 0.00000 -7.06590e-14
  8 4345.87 0.00000 -2.21205e-14
  9 4345.87 0.00000 -2.82928e-13
  10 4345.87 0.00000 -1.00931e-13
  11 4345.87 0.00000 -3.93048e-13
  12 4345.87 0.00000 -1.79189e-13
</Section>

newXOutput 124

<Section columns = "stress_xx | stress_yy | stress_xy">
  1 4387.03 0.00000 -2.68265e-13
  2 4387.03 0.00000 -1.85185e-13
  3 4387.03 0.00000 -4.77431e-13
  4 4387.03 0.00000 -4.57019e-13
  5 4387.03 0.00000 -3.36889e-13
  6 4387.03 0.00000 -4.50203e-13
  7 4387.03 0.00000 1.14469e-13
  8 4387.03 0.00000 5.69746e-14
  9 4387.03 0.00000 -2.82715e-13
  10 4387.03 0.00000 -2.11327e-13
  11 4387.03 0.00000 1.04622e-13
  12 4387.03 0.00000 -1.87561e-13
</Section>

newXOutput 125

<Section columns = "stress_xx | stress_yy | stress_xy">
  1 4428.28 0.00000 9.39754e-14
  2 4428.28 0.00000 -4.24268e-14
  3 4428.28 0.00000 -9.13144e-14
  4 4428.28 0.00000 -1.28650e-13
  5 4428.28 0.00000 -5.11220e-13
  6 4428.28 0.00000 -4.49335e-13
  7 4428.28 0.00000 1.38567e-14
  8 4428.28 0.00000 9.09264e-14
  9 4428.28 0.00000 -2.02618e-13
  10 4428.28 0.00000 -3.93517e-14
  11 4428.28 0.00000 3.26367e-13
  12 4428.28 0.00000 1.97901e-13
</Section>

newXOutput 126

<Section columns = "stress_xx | stress_yy | stress_xy">
  1 4469.61 0.00000 -1.24140e-13
  2 4469.61 0.00000 -8.58887e-14
  3 4469.61 0.00000 -1.34040e-13
  4 4469.61 0.00000 -1.52472e-13
  5 4469.61 0.00000 -1.27805e-13
  6 4469.61 0.00000 -1.92000e-13
  7 4469.61 0.00000 -5.44422e-13
  8 4469.61 0.00000 -5.39282e-13
  9 4469.61 0.00000 -8.09438e-13
  10 4469.61 0.00000 -6.92586e-13
  11 4469.61 0.00000 -1.19294e-12
  12 4469.61 0.00000 -7.64137e-13
</Section>

newXOutput 127

<Section columns = "stress_xx | stress_yy | stress_xy">
  1 4511.02 0.00000 -9.97364e-15
  2 4511.02 0.00000 -7.01624e-14
  3 4511.02 0.00000 3.52122e-14
  4 4511.02 0.00000 -4.61772e-14
  5 4511.02 0.00000 2.16194e-13
  6 4511.02 0.00000 7.48022e-14
  7 4511.02 0.00000 -1.47458e-13
  8 4511.02 0.00000 -1.71628e-13
  9 4511.02 0.00000 -3.41020e-13
  10 4511.02 0.00000 -1.28408e-13
  11 4511.02 0.00000 8.95339e-13
  12 4511.02 0.00000 9.40750e-13
</Section>

newXOutput 128

<Section columns = "stress_xx | stress_yy | stress_xy">
  1 4552.51 0.00000 1.65395e-13
  2 4552.51 0.00000 -8.59298e-15
  3 4552.51 0.00000 1.97887e-13
  4 4552.51 0.00000 7.32150e-14
  5 4552.51 0.00000 1.45225e-13
  6 4552.51 0.00000 1.89057e-13
  7 4552.51 0.00000 -1.12421e-13
  8 4552.51 0.00000 -1.45179e-15
  9 4552.51 0.00000 -6.81527e-13
  10 4552.51 0.00000 -5.85711e-13
  11 4552.51 0.00000 -1.13587e-12
  12 4552.51 0.00000 -5.76277e-13
</Section>

newXOutput 129

<Section columns = "stress_xx | stress_yy | stress_xy">
  1 4594.09 0.00000 -1.45541e-13
  2 4594.09 0.00000 -9.20506e-14
  3 4594.09 0.00000 -1.31715e-13
  4 4594.09 0.00000 -3.29384e-14
  5 4594.09 0.00000 -2.93965e-13
  6 4594.09 0.00000 -2.99685e-13
  7 4594.09 0.00000 -1.74016e-13
  8 4594.09 0.00000 -2.05749e-13
  9 4594.09 0.00000 -1.14358e-12
  10 4594.09 0.00000 -9.46433e-13
  11 4594.09 0.00000 -5.42499e-13
  12 4594.09 0.00000 2.53519e-13
</Section>

newXOutput 130

<Section columns = "stress_xx | stress_yy | stress_xy">
  1 4635.75 0.00000 -8.23914e-14
  2 4635.75 0.00000 1.40971e-15
  3 4635.75 0.00000 -6.49333e-14
  4 4635.75 0.00000 2.64274e-14
  5 4635.75 0.00000 4.91984e-14
  6 4635.75 0.00000 8.14881e-14
  7 4635.75 0.00000 5.38386e-13
  8 4635.75 0.00000 6.50026e-13
  9 4635.75 0.00000 1.32807e-13
  10 4635.75 0.00000 4.05134e-13
  11 4635.75 0.00000 9.72626e-14
  12 4635.75 0.00000 6.49170e-13
</Section>

newXOutput 131

<Section columns = "stress_xx | stress_yy | stress_xy">
  1 4677.50 0.00000 1.27070e-13
  2 4677.50 0.00000 -1.92605e-13
  3 4677.50 0.00000 1.62255e-13
  4 4677.50 0.00000 -6.86455e-14
  5 4677.50 0.00000 2.35188e-13
  6 4677.50 0.00000 2.42760e-13
  7 4677.50 0.00000 -1.13345e-14
  8 4677.50 0.00000 2.22777e-13
  9 4677.50 0.00000 -2.48478e-13
  10 4677.50 0.00000 -9.92827e-14
  11 4677.50 0.00000 -2.95761e-14
  12 4677.50 0.00000 -6.60720e-13
</Section>

newXOutput 132

<Section columns = "stress_xx | stress_yy | stress_xy">
  1 4719.33 0.00000 -1.01269e-13
  2 4719.33 0.00000 -1.78348e-13
  3 4719.33 0.00000 -1.77935e-13
  4 4719.33 0.00000 -2.16474e-13
  5 4719.33 0.00000 -3.54625e-13
  6 4719.33 0.00000 -3.01105e-13
  7 4719.33 0.00000 -7.83938e-13
  8 4719.33 0.00000 -6.79788e-13
  9 4719.33 0.00000 7.11351e-14
  10 4719.33 0.00000 1.85322e-13
  11 4719.33 0.00000 7.63548e-13
  12 4719.33 0.00000 2.74987e-13
</Section>

newXOutput 133

<Section columns = "stress_xx | stress_yy | stress_xy">
  1 4761.24 0.00000 1.17514e-13
  2 4761.24 0.00000 -1.22223e-14
  3 4761.24 0.00000 1.82390e-13
  4 4761.24 0.00000 2.26297e-13
  5 4761.24 0.00000 6.18365e-14
  6 4761.24 0.00000 1.55421e-13
  7 4761.24 0.00000 2.27835e-13
  8 4761.24 0.00000 2.80729e-13
  9 4761.24 0.00000 -8.95827e-13
  10 4761.24 0.00000 -3.57517e-13
  11 4761.24 0.00000 -1.00127e-12
  12 4761.24 0.00000 -1.14564e-13
</Section>

newXOutput 134

<Section columns = "stress_xx | stress_yy | stress_xy">
  1 4785.47 0.00000 0.275006
  2 4785.47 0.00000 -0.275006
  3 4785.20 0.00000 0.620298
  4 4785.20 0.00000 -0.620298
  5 4774.65 0.00000 0.482821
  6 4774.65 0.00000 -0.482821
  7 4774.65 0.00000 -0.482821
  8 4774.65 0.00000 0.482821
  9 4785.20 0.00000 -0.620298
  10 4785.20 0.00000 0.620298
  11 4785.47 0.00000 -0.275006
  12 4785.47 0.00000 0.275006
</Section>

newXOutput 135

<Section columns = "stress_xx | stress_yy | stress_xy">
  1 4785.91 0.00000 1.01925
  2 4785.91 0.00000 -1.01925
  3 4785.30 0.00000 1.54366
  4 4785.30 0.00000 -1.54366
  5 4757.97 0.00000 1.03414
  6 4757.97 0.00000 -1.03414
  7 4757.97 0.00000 -1.03414
  8 4757.97 0.00000 1.03414
  9 4785.30 0.00000 -1.54366
  10 4785.30 0.00000 1.54366
  11 4785.91 0.00000 -1.01925
  12 4785.91 0.00000 1.01925
</Section>

newXOutput 136

<Section columns = "stress_xx | stress_yy | stress_xy">
  1 4787.28 0.00000 1.40215
  2 4787.28 0.00000 -1.40215
  3 4786.44 0.00000 2.00627
  4 4786.44 0.00000 -2.00627
  5 4741.99 0.00000 1.30533
  6 4741.99 0.00000 -1.30533
  7 4741.99 0.00000 -1.30533
  8 4741.99 0.00000 1.30533
  9 4786.44 0.00000 -2.00627
  10 4786.44 0.00000 2.00627
  11 4787.28 0.00000 -1.40215
  12 4787.28 0.00000 1.40215
</Section>

newXOutput 137

<Section columns = "stress_xx | stress_yy | stress_xy">
  1 4787.20 0.00000 1.61946
  2 4787.20 0.00000 -1.61946
  3 4786.23 0.00000 2.26962
  4 4786.23 0.00000 -2.26962
  5 4724.46 0.00000 1.46007
  6 4724.46 0.00000 -1.46007
  7 4724.46 0.00000 -1.46007
  8 4724.46 0.00000 1.46007
  9 4786.23 0.00000 -2.26962
  10 4786.23 0.00000 2.26962
  11 4787.20 0.00000 -1.61946
  12 4787.20 0.00000 1.61946
</Section>

newXOutput 138

<Section columns = "stress_xx | stress_yy | stress_xy">
  1 4785.45 0.00000 1.75029
  2 4785.45 0.00000 -1.75029
  3 4784.39 0.00000 2.42367
  4 4784.39 0.00000 -2.42367
  5 4704.99 0.00000 1.54872
  6 4704.99 0.00000 -1.54872
  7 4704.99 0.00000 -1.54872
  8 4704.99 0.00000 1.54872
  9 4784.39 0.00000 -2.42367
  10 4784.39 0.00000 2.42367
  11 4785.45 0.00000 -1.75029
  12 4785.45 0.00000 1.75029
</Section>

newXOutput 139

<Section columns = "stress_xx | stress_yy | stress_xy">
  1 4780.24 0.00000 1.62984
  2 4780.24 0.00000 -1.62984
  3 4779.33 0.00000 2.23248
  4 4779.33 0.00000 -2.23248
  5 4682.59 0.00000 1.41772
  6 4682.59 0.00000 -1.41772
  7 4682.59 0.00000 -1.41772
  8 4682.59 0.00000 1.41772
  9 4779.33 0.00000 -2.23248
  10 4779.33 0.00000 2.23248
  11 4780.24 0.00000 -1.62984
  12 4780.24 0.00000 1.62984
</Section>

newXOutput 140

<Section columns = "stress_xx | stress_yy | stress_xy">
  1 4776.30 0.00000 1.74042
  2 4776.30 0.00000 -1.74042
  3 4775.24 0.00000 2.38027
  4 4775.24 0.00000 -2.38027
  5 4659.61 0.00000 1.51024
  6 4659.61 0.00000 -1.51024
  7 4659.61 0.00000 -1.51024
  8 4659.61 0.00000 1.51024
  9 4775.24 0.00000 -2.38027
  10 4775.24 0.00000 2.38027
  11 4776.30 0.00000 -1.74042
  12 4776.30 0.00000 1.74042
</Section>

newXOutput 141

<Section columns = "stress_xx | stress_yy | stress_xy">
  1 4766.52 0.00000 1.63842
  2 4766.52 0.00000 -1.63842
  3 4765.60 0.00000 2.23169
  4 4765.60 0.00000 -2.23169
  5 4631.56 0.00000 1.41264
  6 4631.56 0.00000 -1.41264
  7 4631.56 0.00000 -1.41264
  8 4631.56 0.00000 1.41264
  9 4765.60 0.00000 -2.23169
  10 4765.60 0.00000 2.23169
  11 4766.52 0.00000 -1.63842
  12 4766.52 0.00000 1.63842
</Section>

newXOutput 142

<Section columns = "stress_xx | stress_yy | stress_xy">
  1 4758.25 0.00000 1.78048
  2 4758.25 0.00000 -1.78048
  3 4757.15 0.00000 2.40258
  4 4757.15 0.00000 -2.40258
  5 4603.19 0.00000 1.51252
  6 4603.19 0.00000 -1.51252
  7 4603.19 0.00000 -1.51252
  8 4603.19 0.00000 1.51252
  9 4757.15 0.00000 -2.40258
  10 4757.15 0.00000 2.40258
  11 4758.25 0.00000 -1.78048
  12 4758.25 0.00000 1.78048
</Section>

newXOutput 143

<Section columns = "stress_xx | stress_yy | stress_xy">
  1 4742.64 0.00000 1.67761
  2 4742.64 0.00000 -1.67761
  3 4741.70 0.00000 2.27665
  4 4741.70 0.00000 -2.27665
  5 4568.22 0.00000 1.43801
  6 4568.22 0.00000 -1.43801
  7 4568.22 0.00000 -1.43801
  8 4568.22 0.00000 1.43801
  9 4741.70 0.00000 -2.27665
  10 4741.70 0.00000 2.27665
  11 4742.64 0.00000 -1.67761
  12 4742.64 0.00000 1.67761
</Section>

newXOutput 144

<Section columns = "stress_xx | stress_yy | stress_xy">
  1 4726.17 0.00000 1.61325
  2 4726.17 0.00000 -1.61325
  3 4725.27 0.00000 2.19307
  4 4725.27 0.00000 -2.19307
  5 4531.33 0.00000 1.38660
  6 4531.33 0.00000 -1.38660
  7 4531.33 0.00000 -1.38660
  8 4531.33 0.00000 1.38660
  9 4725.27 0.00000 -2.19307
  10 4725.27 0.00000 2.19307
  11 4726.17 0.00000 -1.61325
  12 4726.17 0.00000 1.61325
</Section>

newXOutput 145

<Section columns = "stress_xx | stress_yy | stress_xy">
  1 4705.92 0.00000 1.59819
  2 4705.92 0.00000 -1.59819
  3 4705.04 0.00000 2.18513
  4 4705.04 0.00000 -2.18513
  5 4489.91 0.00000 1.38619
  6 4489.91 0.00000 -1.38619
  7 4489.91 0.00000 -1.38619
  8 4489.91 0.00000 1.38619
  9 4705.04 0.00000 -2.18513
  10 4705.04 0.00000 2.18513
  11 4705.92 0.00000 -1.59819
  12 4705.92 0.00000 1.59819
</Section>

newXOutput 146

<Section columns = "stress_xx | stress_yy | stress_xy">
  1 4681.26 0.00000 1.61049
  2 4681.26 0.00000 -1.61049
  3 4680.39 0.00000 2.22109
  4 4680.39 0.00000 -2.22109
  5 4443.32 0.00000 1.41601
  6 4443.32 0.00000 -1.41601
  7 4443.32 0.00000 -1.41601
  8 4443.32 0.00000 1.41601
  9 4680.39 0.00000 -2.22109
  10 4680.39 0.00000 2.22109
  11 4681.26 0.00000 -1.61049
  12 4681.26 0.00000 1.61049
</Section>

newXOutput 147

<Section columns = "stress_xx | stress_yy | stress_xy">
  1 4651.20 0.00000 1.63646
  2 4651.20 0.00000 -1.63646
  3 4650.34 0.00000 2.29354
  4 4650.34 0.00000 -2.29354
  5 4390.51 0.00000 1.47550
  6 4390.51 0.00000 -1.47550
  7 4390.51 0.00000 -1.47550
  8 4390.51 0.00000 1.47550
  9 4650.34 0.00000 -2.29354
  10 4650.34 0.00000 2.29354
  11 4651.20 0.00000 -1.63646
  12 4651.20 0.00000 1.63646
</Section>

newXOutput 148

<Section columns = "stress_xx | stress_yy | stress_xy">
  1 4620.82 0.00000 1.60237
  2 4620.82 0.00000 -1.60237
  3 4619.75 0.00000 1.87203
  4 4619.75 0.00000 -1.87203
  5 4336.67 0.00000 1.07091
  6 4336.67 0.00000 -1.07091
  7 4336.67 0.00000 -1.07091
  8 4336.67 0.00000 1.07091
  9 4619.75 0.00000 -1.87203
  10 4619.75 0.00000 1.87203
  11 4620.82 0.00000 -1.60237
  12 4620.82 0.00000 1.60237
</Section>

newXOutput 149

<Section columns = "stress_xx | stress_yy | stress_xy">
  1 4580.31 0.00000 1.62967
  2 4580.31 0.00000 -1.62967
  3 4579.14 0.00000 1.77133
  4 4579.14 0.00000 -1.77133
  5 4271.42 0.00000 0.956529
  6 4271.42 0.00000 -0.956529
  7 4271.42 0.00000 -0.956529
  8 4271.42 0.00000 0.956529
  9 4579.14 0.00000 -1.77133
  10 4579.14 0.00000 1.77133
  11 4580.31 0.00000 -1.62967
  12 4580.31 0.00000 1.62967
</Section>

newXOutput 150

<Section columns = "stress_xx | stress_yy | stress_xy">
  1 4514.95 0.00000 0.939282
  2 4514.95 0.00000 -0.939282
  3 4514.56 0.00000 1.41669
  4 4514.56 0.00000 -1.41669
  5 4180.73 0.00000 0.947128
  6 4180.73 0.00000 -0.947128
  7 4180.73 0.00000 -0.947128
  8 4180.73 0.00000 0.947128
  9 4514.56 0.00000 -1.41669
  10 4514.56 0.00000 1.41669
  11 4514.95 0.00000 -0.939282
  12 4514.95 0.00000 0.939282
</Section>

newXOutput 151

<Section columns = "stress_xx | stress_yy | stress_xy">
  1 4441.81 0.00000 -0.122089
  2 4441.81 0.00000 0.122089
  3 4442.16 0.00000 0.315855
  4 4442.16 0.00000 -0.315855
  5 4080.90 0.00000 0.376916
  6 4080.90 0.00000 -0.376916
  7 4080.90 0.00000 -0.376916
  8 4080.90 0.00000 0.376916
  9 4442.16 0.00000 -0.315855
  10 4442.16 0.00000 0.315855
  11 4441.81 0.00000 0.122089
  12 4441.81 0.00000 -0.122089
</Section>

