newXOutput 1

<Section columns = "stress_xx | stress_yy | stress_xy">
  1 0.00000 0.00000 0.00000
  2 0.00000 0.00000 0.00000
  3 0.00000 0.00000 0.00000
  4 0.00000 0.00000 0.00000
</Section>

newXOutput 2

<Section columns = "stress_xx | stress_yy | stress_xy">
  1 77.8659 0.00000 9.89916e-17
  2 77.8659 0.00000 9.89916e-17
  3 77.8659 0.00000 1.46174e-16
  4 77.8659 0.00000 1.46174e-16
</Section>

newXOutput 3

<Section columns = "stress_xx | stress_yy | stress_xy">
  1 155.849 0.00000 -1.98968e-16
  2 155.849 0.00000 -1.98968e-16
  3 155.849 0.00000 -2.93802e-16
  4 155.849 0.00000 -2.93802e-16
</Section>

newXOutput 4

<Section columns = "stress_xx | stress_yy | stress_xy">
  1 233.950 0.00000 2.69720e-16
  2 233.950 0.00000 2.69720e-16
  3 233.950 0.00000 5.55629e-16
  4 233.950 0.00000 5.55629e-16
</Section>

newXOutput 5

<Section columns = "stress_xx | stress_yy | stress_xy">
  1 312.169 0.00000 4.01876e-16
  2 312.169 0.00000 4.01876e-16
  3 312.169 0.00000 5.93421e-16
  4 312.169 0.00000 5.93421e-16
</Section>

newXOutput 6

<Section columns = "stress_xx | stress_yy | stress_xy">
  1 390.508 0.00000 0.00000
  2 390.508 0.00000 0.00000
  3 390.508 0.00000 0.00000
  4 390.508 0.00000 0.00000
</Section>

newXOutput 7

<Section columns = "stress_xx | stress_yy | stress_xy">
  1 468.966 0.00000 8.11632e-16
  2 468.966 0.00000 8.11632e-16
  3 468.966 0.00000 1.19848e-15
  4 468.966 0.00000 1.19848e-15
</Section>

newXOutput 8

<Section columns = "stress_xx | stress_yy | stress_xy">
  1 547.546 0.00000 5.50069e-16
  2 547.546 0.00000 5.50069e-16
  3 547.546 0.00000 1.13315e-15
  4 547.546 0.00000 1.13315e-15
</Section>

newXOutput 9

<Section columns = "stress_xx | stress_yy | stress_xy">
  1 626.246 0.00000 0.00000
  2 626.246 0.00000 0.00000
  3 626.246 0.00000 0.00000
  4 626.246 0.00000 0.00000
</Section>

newXOutput 10

<Section columns = "stress_xx | stress_yy | stress_xy">
  1 705.069 0.00000 0.00000
  2 705.069 0.00000 0.00000
  3 705.069 0.00000 0.00000
  4 705.069 0.00000 0.00000
</Section>

newXOutput 11

<Section columns = "stress_xx | stress_yy | stress_xy">
  1 784.014 0.00000 -5.77380e-16
  2 784.014 0.00000 -5.77380e-16
  3 784.014 0.00000 -2.15481e-15
  4 784.014 0.00000 -2.15481e-15
</Section>

newXOutput 12

<Section columns = "stress_xx | stress_yy | stress_xy">
  1 863.083 0.00000 -1.12140e-15
  2 863.083 0.00000 -1.12140e-15
  3 863.083 0.00000 -2.31010e-15
  4 863.083 0.00000 -2.31010e-15
</Section>

newXOutput 13

<Section columns = "stress_xx | stress_yy | stress_xy">
  1 942.275 0.00000 -2.25342e-15
  2 942.275 0.00000 -2.25342e-15
  3 942.275 0.00000 -4.64210e-15
  4 942.275 0.00000 -4.64210e-15
</Section>

newXOutput 14

<Section columns = "stress_xx | stress_yy | stress_xy">
  1 1021.59 0.00000 0.00000
  2 1021.59 0.00000 0.00000
  3 1021.59 0.00000 0.00000
  4 1021.59 0.00000 0.00000
</Section>

newXOutput 15

<Section columns = "stress_xx | stress_yy | stress_xy">
  1 1101.03 0.00000 1.13734e-15
  2 1101.03 0.00000 1.13734e-15
  3 1101.03 0.00000 2.34295e-15
  4 1101.03 0.00000 2.34295e-15
</Section>

newXOutput 16

<Section columns = "stress_xx | stress_yy | stress_xy">
  1 1180.60 0.00000 3.42797e-15
  2 1180.60 0.00000 3.42797e-15
  3 1180.60 0.00000 7.06169e-15
  4 1180.60 0.00000 7.06169e-15
</Section>

newXOutput 17

<Section columns = "stress_xx | stress_yy | stress_xy">
  1 1260.29 0.00000 4.59188e-15
  2 1260.29 0.00000 4.59188e-15
  3 1260.29 0.00000 9.45938e-15
  4 1260.29 0.00000 9.45938e-15
</Section>

newXOutput 18

<Section columns = "stress_xx | stress_yy | stress_xy">
  1 1340.11 0.00000 4.61314e-15
  2 1340.11 0.00000 4.61314e-15
  3 1340.11 0.00000 9.50317e-15
  4 1340.11 0.00000 9.50317e-15
</Section>

newXOutput 19

<Section columns = "stress_xx | stress_yy | stress_xy">
  1 1420.06 0.00000 4.63440e-15
  2 1420.06 0.00000 4.63440e-15
  3 1420.06 0.00000 9.54697e-15
  4 1420.06 0.00000 9.54697e-15
</Section>

newXOutput 20

<Section columns = "stress_xx | stress_yy | stress_xy">
  1 1500.13 0.00000 4.65566e-15
  2 1500.13 0.00000 4.65566e-15
  3 1500.13 0.00000 9.59076e-15
  4 1500.13 0.00000 9.59076e-15
</Section>

newXOutput 21

<Section columns = "stress_xx | stress_yy | stress_xy">
  1 1580.33 0.00000 4.67692e-15
  2 1580.33 0.00000 4.67692e-15
  3 1580.33 0.00000 9.63455e-15
  4 1580.33 0.00000 9.63455e-15
</Section>

newXOutput 22

<Section columns = "stress_xx | stress_yy | stress_xy">
  1 1663.60 0.00000 7.04726e-15
  2 1663.60 0.00000 7.04726e-15
  3 1663.60 0.00000 1.45175e-14
  4 1663.60 0.00000 1.45175e-14
</Section>

newXOutput 23

<Section columns = "stress_xx | stress_yy | stress_xy">
  1 1754.60 0.00000 9.43887e-15
  2 1754.60 0.00000 9.43887e-15
  3 1754.60 0.00000 1.94443e-14
  4 1754.60 0.00000 1.94443e-14
</Section>

newXOutput 24

<Section columns = "stress_xx | stress_yy | stress_xy">
  1 1845.98 0.00000 9.48138e-15
  2 1845.98 0.00000 9.48138e-15
  3 1845.98 0.00000 1.95319e-14
  4 1845.98 0.00000 1.95319e-14
</Section>

newXOutput 25

<Section columns = "stress_xx | stress_yy | stress_xy">
  1 1937.73 0.00000 1.06731e-14
  2 1937.73 0.00000 1.06731e-14
  3 1937.73 0.00000 1.99274e-14
  4 1937.73 0.00000 1.99274e-14
</Section>

newXOutput 26

<Section columns = "stress_xx | stress_yy | stress_xy">
  1 2029.87 0.00000 6.02045e-15
  2 2029.87 0.00000 6.02045e-15
  3 2029.87 0.00000 1.44710e-14
  4 2029.87 0.00000 1.44710e-14
</Section>

newXOutput 27

<Section columns = "stress_xx | stress_yy | stress_xy">
  1 2122.39 0.00000 6.04721e-15
  2 2122.39 0.00000 6.04721e-15
  3 2122.39 0.00000 1.45353e-14
  4 2122.39 0.00000 1.45353e-14
</Section>

newXOutput 28

<Section columns = "stress_xx | stress_yy | stress_xy">
  1 2215.31 0.00000 3.66110e-15
  2 2215.31 0.00000 3.66110e-15
  3 2215.31 0.00000 9.62905e-15
  4 2215.31 0.00000 9.62905e-15
</Section>

newXOutput 29

<Section columns = "stress_xx | stress_yy | stress_xy">
  1 2308.61 0.00000 2.42349e-15
  2 2308.61 0.00000 2.42349e-15
  3 2308.61 0.00000 4.99245e-15
  4 2308.61 0.00000 4.99245e-15
</Section>

newXOutput 30

<Section columns = "stress_xx | stress_yy | stress_xy">
  1 2402.31 0.00000 4.86824e-15
  2 2402.31 0.00000 4.86824e-15
  3 2402.31 0.00000 1.00287e-14
  4 2402.31 0.00000 1.00287e-14
</Section>

newXOutput 31

<Section columns = "stress_xx | stress_yy | stress_xy">
  1 2496.42 0.00000 4.88950e-15
  2 2496.42 0.00000 4.88950e-15
  3 2496.42 0.00000 1.00725e-14
  4 2496.42 0.00000 1.00725e-14
</Section>

newXOutput 32

<Section columns = "stress_xx | stress_yy | stress_xy">
  1 2590.93 0.00000 1.27024e-15
  2 2590.93 0.00000 1.27024e-15
  3 2590.93 0.00000 4.74058e-15
  4 2590.93 0.00000 4.74058e-15
</Section>

newXOutput 33

<Section columns = "stress_xx | stress_yy | stress_xy">
  1 2685.85 0.00000 4.93202e-15
  2 2685.85 0.00000 4.93202e-15
  3 2685.85 0.00000 1.01601e-14
  4 2685.85 0.00000 1.01601e-14
</Section>

newXOutput 34

<Section columns = "stress_xx | stress_yy | stress_xy">
  1 2781.18 0.00000 0.00000
  2 2781.18 0.00000 0.00000
  3 2781.18 0.00000 0.00000
  4 2781.18 0.00000 0.00000
</Section>

newXOutput 35

<Section columns = "stress_xx | stress_yy | stress_xy">
  1 2876.94 0.00000 4.97454e-15
  2 2876.94 0.00000 4.97454e-15
  3 2876.94 0.00000 1.02477e-14
  4 2876.94 0.00000 1.02477e-14
</Section>

newXOutput 36

<Section columns = "stress_xx | stress_yy | stress_xy">
  1 2973.12 0.00000 2.41133e-15
  2 2973.12 0.00000 2.41133e-15
  3 2973.12 0.00000 6.46115e-16
  4 2973.12 0.00000 6.46115e-16
</Section>

newXOutput 37

<Section columns = "stress_xx | stress_yy | stress_xy">
  1 3069.73 0.00000 2.42160e-15
  2 3069.73 0.00000 2.42160e-15
  3 3069.73 0.00000 6.48865e-16
  4 3069.73 0.00000 6.48865e-16
</Section>

newXOutput 38

<Section columns = "stress_xx | stress_yy | stress_xy">
  1 3166.77 0.00000 2.43186e-15
  2 3166.77 0.00000 2.43186e-15
  3 3166.77 0.00000 6.51614e-16
  4 3166.77 0.00000 6.51614e-16
</Section>

newXOutput 39

<Section columns = "stress_xx | stress_yy | stress_xy">
  1 3264.26 0.00000 0.00000
  2 3264.26 0.00000 0.00000
  3 3264.26 0.00000 0.00000
  4 3264.26 0.00000 0.00000
</Section>

newXOutput 40

<Section columns = "stress_xx | stress_yy | stress_xy">
  1 3362.18 0.00000 0.00000
  2 3362.18 0.00000 0.00000
  3 3362.18 0.00000 0.00000
  4 3362.18 0.00000 0.00000
</Section>

newXOutput 41

<Section columns = "stress_xx | stress_yy | stress_xy">
  1 3460.56 0.00000 0.00000
  2 3460.56 0.00000 0.00000
  3 3460.56 0.00000 0.00000
  4 3460.56 0.00000 0.00000
</Section>

newXOutput 42

<Section columns = "stress_xx | stress_yy | stress_xy">
  1 3559.39 0.00000 0.00000
  2 3559.39 0.00000 0.00000
  3 3559.39 0.00000 0.00000
  4 3559.39 0.00000 0.00000
</Section>

newXOutput 43

<Section columns = "stress_xx | stress_yy | stress_xy">
  1 3658.68 0.00000 -7.62777e-15
  2 3658.68 0.00000 -7.62777e-15
  3 3658.68 0.00000 -1.12634e-14
  4 3658.68 0.00000 -1.12634e-14
</Section>

newXOutput 44

<Section columns = "stress_xx | stress_yy | stress_xy">
  1 3758.43 0.00000 -1.03317e-14
  2 3758.43 0.00000 -1.03317e-14
  3 3758.43 0.00000 -2.12836e-14
  4 3758.43 0.00000 -2.12836e-14
</Section>

newXOutput 45

<Section columns = "stress_xx | stress_yy | stress_xy">
  1 3858.66 0.00000 -7.69081e-15
  2 3858.66 0.00000 -7.69081e-15
  3 3858.66 0.00000 -1.13565e-14
  4 3858.66 0.00000 -1.13565e-14
</Section>

newXOutput 46

<Section columns = "stress_xx | stress_yy | stress_xy">
  1 3959.36 0.00000 -5.20838e-15
  2 3959.36 0.00000 -5.20838e-15
  3 3959.36 0.00000 -1.07294e-14
  4 3959.36 0.00000 -1.07294e-14
</Section>

newXOutput 47

<Section columns = "stress_xx | stress_yy | stress_xy">
  1 4060.55 0.00000 -5.22964e-15
  2 4060.55 0.00000 -5.22964e-15
  3 4060.55 0.00000 -1.07732e-14
  4 4060.55 0.00000 -1.07732e-14
</Section>

newXOutput 48

<Section columns = "stress_xx | stress_yy | stress_xy">
  1 4162.22 0.00000 -1.05018e-14
  2 4162.22 0.00000 -1.05018e-14
  3 4162.22 0.00000 -2.16340e-14
  4 4162.22 0.00000 -2.16340e-14
</Section>

newXOutput 49

<Section columns = "stress_xx | stress_yy | stress_xy">
  1 4264.39 0.00000 0.00000
  2 4264.39 0.00000 0.00000
  3 4264.39 0.00000 0.00000
  4 4264.39 0.00000 0.00000
</Section>

newXOutput 50

<Section columns = "stress_xx | stress_yy | stress_xy">
  1 4367.06 0.00000 0.00000
  2 4367.06 0.00000 0.00000
  3 4367.06 0.00000 0.00000
  4 4367.06 0.00000 0.00000
</Section>

newXOutput 51

<Section columns = "stress_xx | stress_yy | stress_xy">
  1 4470.24 0.00000 0.00000
  2 4470.24 0.00000 0.00000
  3 4470.24 0.00000 0.00000
  4 4470.24 0.00000 0.00000
</Section>

newXOutput 52

<Section columns = "stress_xx | stress_yy | stress_xy">
  1 4573.93 0.00000 0.00000
  2 4573.93 0.00000 0.00000
  3 4573.93 0.00000 0.00000
  4 4573.93 0.00000 0.00000
</Section>

newXOutput 53

<Section columns = "stress_xx | stress_yy | stress_xy">
  1 4678.15 0.00000 0.00000
  2 4678.15 0.00000 0.00000
  3 4678.15 0.00000 0.00000
  4 4678.15 0.00000 0.00000
</Section>

newXOutput 54

<Section columns = "stress_xx | stress_yy | stress_xy">
  1 4780.65 0.00000 0.00000
  2 4780.65 0.00000 0.00000
  3 4780.65 0.00000 0.00000
  4 4780.65 0.00000 0.00000
</Section>

newXOutput 55

<Section columns = "stress_xx | stress_yy | stress_xy">
  1 4759.56 0.00000 0.00000
  2 4759.56 0.00000 0.00000
  3 4759.56 0.00000 0.00000
  4 4759.56 0.00000 0.00000
</Section>

newXOutput 56

<Section columns = "stress_xx | stress_yy | stress_xy">
  1 4738.30 0.00000 0.00000
  2 4738.30 0.00000 0.00000
  3 4738.30 0.00000 0.00000
  4 4738.30 0.00000 0.00000
</Section>

newXOutput 57

<Section columns = "stress_xx | stress_yy | stress_xy">
  1 4716.87 0.00000 0.00000
  2 4716.87 0.00000 0.00000
  3 4716.87 0.00000 0.00000
  4 4716.87 0.00000 0.00000
</Section>

newXOutput 58

<Section columns = "stress_xx | stress_yy | stress_xy">
  1 4695.28 0.00000 0.00000
  2 4695.28 0.00000 0.00000
  3 4695.28 0.00000 0.00000
  4 4695.28 0.00000 0.00000
</Section>

newXOutput 59

<Section columns = "stress_xx | stress_yy | stress_xy">
  1 4673.53 0.00000 0.00000
  2 4673.53 0.00000 0.00000
  3 4673.53 0.00000 0.00000
  4 4673.53 0.00000 0.00000
</Section>

newXOutput 60

<Section columns = "stress_xx | stress_yy | stress_xy">
  1 4651.64 0.00000 4.55931e-15
  2 4651.64 0.00000 4.55931e-15
  3 4651.64 0.00000 1.22166e-15
  4 4651.64 0.00000 1.22166e-15
</Section>

newXOutput 61

<Section columns = "stress_xx | stress_yy | stress_xy">
  1 4629.61 0.00000 9.25216e-15
  2 4629.61 0.00000 9.25216e-15
  3 4629.61 0.00000 1.90597e-14
  4 4629.61 0.00000 1.90597e-14
</Section>

newXOutput 62

<Section columns = "stress_xx | stress_yy | stress_xy">
  1 4607.45 0.00000 4.37508e-15
  2 4607.45 0.00000 4.37508e-15
  3 4607.45 0.00000 1.17230e-15
  4 4607.45 0.00000 1.17230e-15
</Section>

newXOutput 63

<Section columns = "stress_xx | stress_yy | stress_xy">
  1 4585.15 0.00000 8.88202e-15
  2 4585.15 0.00000 8.88202e-15
  3 4585.15 0.00000 1.82972e-14
  4 4585.15 0.00000 1.82972e-14
</Section>

newXOutput 64

<Section columns = "stress_xx | stress_yy | stress_xy">
  1 4562.73 0.00000 0.00000
  2 4562.73 0.00000 0.00000
  3 4562.73 0.00000 0.00000
  4 4562.73 0.00000 0.00000
</Section>

newXOutput 65

<Section columns = "stress_xx | stress_yy | stress_xy">
  1 4540.19 0.00000 0.00000
  2 4540.19 0.00000 0.00000
  3 4540.19 0.00000 0.00000
  4 4540.19 0.00000 0.00000
</Section>

newXOutput 66

<Section columns = "stress_xx | stress_yy | stress_xy">
  1 4517.54 0.00000 0.00000
  2 4517.54 0.00000 0.00000
  3 4517.54 0.00000 0.00000
  4 4517.54 0.00000 0.00000
</Section>

newXOutput 67

<Section columns = "stress_xx | stress_yy | stress_xy">
  1 4494.77 0.00000 0.00000
  2 4494.77 0.00000 0.00000
  3 4494.77 0.00000 0.00000
  4 4494.77 0.00000 0.00000
</Section>

newXOutput 68

<Section columns = "stress_xx | stress_yy | stress_xy">
  1 4471.90 0.00000 0.00000
  2 4471.90 0.00000 0.00000
  3 4471.90 0.00000 0.00000
  4 4471.90 0.00000 0.00000
</Section>

newXOutput 69

<Section columns = "stress_xx | stress_yy | stress_xy">
  1 4448.92 0.00000 0.00000
  2 4448.92 0.00000 0.00000
  3 4448.92 0.00000 0.00000
  4 4448.92 0.00000 0.00000
</Section>

newXOutput 70

<Section columns = "stress_xx | stress_yy | stress_xy">
  1 4425.84 0.00000 0.00000
  2 4425.84 0.00000 0.00000
  3 4425.84 0.00000 0.00000
  4 4425.84 0.00000 0.00000
</Section>

newXOutput 71

<Section columns = "stress_xx | stress_yy | stress_xy">
  1 4402.66 0.00000 0.00000
  2 4402.66 0.00000 0.00000
  3 4402.66 0.00000 0.00000
  4 4402.66 0.00000 0.00000
</Section>

newXOutput 72

<Section columns = "stress_xx | stress_yy | stress_xy">
  1 4379.38 0.00000 0.00000
  2 4379.38 0.00000 0.00000
  3 4379.38 0.00000 0.00000
  4 4379.38 0.00000 0.00000
</Section>

newXOutput 73

<Section columns = "stress_xx | stress_yy | stress_xy">
  1 4356.02 0.00000 0.00000
  2 4356.02 0.00000 0.00000
  3 4356.02 0.00000 0.00000
  4 4356.02 0.00000 0.00000
</Section>

newXOutput 74

<Section columns = "stress_xx | stress_yy | stress_xy">
  1 4332.56 0.00000 0.00000
  2 4332.56 0.00000 0.00000
  3 4332.56 0.00000 0.00000
  4 4332.56 0.00000 0.00000
</Section>

newXOutput 75

<Section columns = "stress_xx | stress_yy | stress_xy">
  1 4309.02 0.00000 0.00000
  2 4309.02 0.00000 0.00000
  3 4309.02 0.00000 0.00000
  4 4309.02 0.00000 0.00000
</Section>

newXOutput 76

<Section columns = "stress_xx | stress_yy | stress_xy">
  1 4285.39 0.00000 0.00000
  2 4285.39 0.00000 0.00000
  3 4285.39 0.00000 0.00000
  4 4285.39 0.00000 0.00000
</Section>

newXOutput 77

<Section columns = "stress_xx | stress_yy | stress_xy">
  1 4261.68 0.00000 0.00000
  2 4261.68 0.00000 0.00000
  3 4261.68 0.00000 0.00000
  4 4261.68 0.00000 0.00000
</Section>

newXOutput 78

<Section columns = "stress_xx | stress_yy | stress_xy">
  1 4237.89 0.00000 0.00000
  2 4237.89 0.00000 0.00000
  3 4237.89 0.00000 0.00000
  4 4237.89 0.00000 0.00000
</Section>

newXOutput 79

<Section columns = "stress_xx | stress_yy | stress_xy">
  1 4214.02 0.00000 0.00000
  2 4214.02 0.00000 0.00000
  3 4214.02 0.00000 0.00000
  4 4214.02 0.00000 0.00000
</Section>

newXOutput 80

<Section columns = "stress_xx | stress_yy | stress_xy">
  1 4190.07 0.00000 0.00000
  2 4190.07 0.00000 0.00000
  3 4190.07 0.00000 0.00000
  4 4190.07 0.00000 0.00000
</Section>

newXOutput 81

<Section columns = "stress_xx | stress_yy | stress_xy">
  1 4166.05 0.00000 0.00000
  2 4166.05 0.00000 0.00000
  3 4166.05 0.00000 0.00000
  4 4166.05 0.00000 0.00000
</Section>

newXOutput 82

<Section columns = "stress_xx | stress_yy | stress_xy">
  1 4141.95 0.00000 0.00000
  2 4141.95 0.00000 0.00000
  3 4141.95 0.00000 0.00000
  4 4141.95 0.00000 0.00000
</Section>

newXOutput 83

<Section columns = "stress_xx | stress_yy | stress_xy">
  1 4117.78 0.00000 0.00000
  2 4117.78 0.00000 0.00000
  3 4117.78 0.00000 0.00000
  4 4117.78 0.00000 0.00000
</Section>

newXOutput 84

<Section columns = "stress_xx | stress_yy | stress_xy">
  1 4093.55 0.00000 0.00000
  2 4093.55 0.00000 0.00000
  3 4093.55 0.00000 0.00000
  4 4093.55 0.00000 0.00000
</Section>

newXOutput 85

<Section columns = "stress_xx | stress_yy | stress_xy">
  1 4069.24 0.00000 0.00000
  2 4069.24 0.00000 0.00000
  3 4069.24 0.00000 0.00000
  4 4069.24 0.00000 0.00000
</Section>

newXOutput 86

<Section columns = "stress_xx | stress_yy | stress_xy">
  1 4044.87 0.00000 0.00000
  2 4044.87 0.00000 0.00000
  3 4044.87 0.00000 0.00000
  4 4044.87 0.00000 0.00000
</Section>

newXOutput 87

<Section columns = "stress_xx | stress_yy | stress_xy">
  1 4020.42 0.00000 0.00000
  2 4020.42 0.00000 0.00000
  3 4020.42 0.00000 0.00000
  4 4020.42 0.00000 0.00000
</Section>

newXOutput 88

<Section columns = "stress_xx | stress_yy | stress_xy">
  1 3995.92 0.00000 0.00000
  2 3995.92 0.00000 0.00000
  3 3995.92 0.00000 0.00000
  4 3995.92 0.00000 0.00000
</Section>

newXOutput 89

<Section columns = "stress_xx | stress_yy | stress_xy">
  1 3971.35 0.00000 0.00000
  2 3971.35 0.00000 0.00000
  3 3971.35 0.00000 0.00000
  4 3971.35 0.00000 0.00000
</Section>

newXOutput 90

<Section columns = "stress_xx | stress_yy | stress_xy">
  1 3946.72 0.00000 0.00000
  2 3946.72 0.00000 0.00000
  3 3946.72 0.00000 0.00000
  4 3946.72 0.00000 0.00000
</Section>

newXOutput 91

<Section columns = "stress_xx | stress_yy | stress_xy">
  1 3922.02 0.00000 0.00000
  2 3922.02 0.00000 0.00000
  3 3922.02 0.00000 0.00000
  4 3922.02 0.00000 0.00000
</Section>

newXOutput 92

<Section columns = "stress_xx | stress_yy | stress_xy">
  1 3897.27 0.00000 0.00000
  2 3897.27 0.00000 0.00000
  3 3897.27 0.00000 0.00000
  4 3897.27 0.00000 0.00000
</Section>

newXOutput 93

<Section columns = "stress_xx | stress_yy | stress_xy">
  1 3872.46 0.00000 0.00000
  2 3872.46 0.00000 0.00000
  3 3872.46 0.00000 0.00000
  4 3872.46 0.00000 0.00000
</Section>

newXOutput 94

<Section columns = "stress_xx | stress_yy | stress_xy">
  1 3847.58 0.00000 0.00000
  2 3847.58 0.00000 0.00000
  3 3847.58 0.00000 0.00000
  4 3847.58 0.00000 0.00000
</Section>

newXOutput 95

<Section columns = "stress_xx | stress_yy | stress_xy">
  1 3822.65 0.00000 0.00000
  2 3822.65 0.00000 0.00000
  3 3822.65 0.00000 0.00000
  4 3822.65 0.00000 0.00000
</Section>

newXOutput 96

<Section columns = "stress_xx | stress_yy | stress_xy">
  1 3797.66 0.00000 0.00000
  2 3797.66 0.00000 0.00000
  3 3797.66 0.00000 0.00000
  4 3797.66 0.00000 0.00000
</Section>

newXOutput 97

<Section columns = "stress_xx | stress_yy | stress_xy">
  1 3772.62 0.00000 0.00000
  2 3772.62 0.00000 0.00000
  3 3772.62 0.00000 0.00000
  4 3772.62 0.00000 0.00000
</Section>

newXOutput 98

<Section columns = "stress_xx | stress_yy | stress_xy">
  1 3747.52 0.00000 0.00000
  2 3747.52 0.00000 0.00000
  3 3747.52 0.00000 0.00000
  4 3747.52 0.00000 0.00000
</Section>

newXOutput 99

<Section columns = "stress_xx | stress_yy | stress_xy">
  1 3722.37 0.00000 0.00000
  2 3722.37 0.00000 0.00000
  3 3722.37 0.00000 0.00000
  4 3722.37 0.00000 0.00000
</Section>

newXOutput 100

<Section columns = "stress_xx | stress_yy | stress_xy">
  1 3697.16 0.00000 0.00000
  2 3697.16 0.00000 0.00000
  3 3697.16 0.00000 0.00000
  4 3697.16 0.00000 0.00000
</Section>

newXOutput 101

<Section columns = "stress_xx | stress_yy | stress_xy">
  1 3671.90 0.00000 0.00000
  2 3671.90 0.00000 0.00000
  3 3671.90 0.00000 0.00000
  4 3671.90 0.00000 0.00000
</Section>

newXOutput 102

<Section columns = "stress_xx | stress_yy | stress_xy">
  1 3646.58 0.00000 0.00000
  2 3646.58 0.00000 0.00000
  3 3646.58 0.00000 0.00000
  4 3646.58 0.00000 0.00000
</Section>

newXOutput 103

<Section columns = "stress_xx | stress_yy | stress_xy">
  1 3621.22 0.00000 0.00000
  2 3621.22 0.00000 0.00000
  3 3621.22 0.00000 0.00000
  4 3621.22 0.00000 0.00000
</Section>

newXOutput 104

<Section columns = "stress_xx | stress_yy | stress_xy">
  1 3595.80 0.00000 0.00000
  2 3595.80 0.00000 0.00000
  3 3595.80 0.00000 0.00000
  4 3595.80 0.00000 0.00000
</Section>

newXOutput 105

<Section columns = "stress_xx | stress_yy | stress_xy">
  1 3570.33 0.00000 0.00000
  2 3570.33 0.00000 0.00000
  3 3570.33 0.00000 0.00000
  4 3570.33 0.00000 0.00000
</Section>

newXOutput 106

<Section columns = "stress_xx | stress_yy | stress_xy">
  1 3544.82 0.00000 0.00000
  2 3544.82 0.00000 0.00000
  3 3544.82 0.00000 0.00000
  4 3544.82 0.00000 0.00000
</Section>

newXOutput 107

<Section columns = "stress_xx | stress_yy | stress_xy">
  1 3519.25 0.00000 0.00000
  2 3519.25 0.00000 0.00000
  3 3519.25 0.00000 0.00000
  4 3519.25 0.00000 0.00000
</Section>

newXOutput 108

<Section columns = "stress_xx | stress_yy | stress_xy">
  1 3493.63 0.00000 0.00000
  2 3493.63 0.00000 0.00000
  3 3493.63 0.00000 0.00000
  4 3493.63 0.00000 0.00000
</Section>

newXOutput 109

<Section columns = "stress_xx | stress_yy | stress_xy">
  1 3467.97 0.00000 0.00000
  2 3467.97 0.00000 0.00000
  3 3467.97 0.00000 0.00000
  4 3467.97 0.00000 0.00000
</Section>

newXOutput 110

<Section columns = "stress_xx | stress_yy | stress_xy">
  1 3442.26 0.00000 0.00000
  2 3442.26 0.00000 0.00000
  3 3442.26 0.00000 0.00000
  4 3442.26 0.00000 0.00000
</Section>

newXOutput 111

<Section columns = "stress_xx | stress_yy | stress_xy">
  1 3416.49 0.00000 0.00000
  2 3416.49 0.00000 0.00000
  3 3416.49 0.00000 0.00000
  4 3416.49 0.00000 0.00000
</Section>

newXOutput 112

<Section columns = "stress_xx | stress_yy | stress_xy">
  1 3390.69 0.00000 0.00000
  2 3390.69 0.00000 0.00000
  3 3390.69 0.00000 0.00000
  4 3390.69 0.00000 0.00000
</Section>

newXOutput 113

<Section columns = "stress_xx | stress_yy | stress_xy">
  1 3364.83 0.00000 0.00000
  2 3364.83 0.00000 0.00000
  3 3364.83 0.00000 0.00000
  4 3364.83 0.00000 0.00000
</Section>

newXOutput 114

<Section columns = "stress_xx | stress_yy | stress_xy">
  1 3338.93 0.00000 0.00000
  2 3338.93 0.00000 0.00000
  3 3338.93 0.00000 0.00000
  4 3338.93 0.00000 0.00000
</Section>

newXOutput 115

<Section columns = "stress_xx | stress_yy | stress_xy">
  1 3312.98 0.00000 0.00000
  2 3312.98 0.00000 0.00000
  3 3312.98 0.00000 0.00000
  4 3312.98 0.00000 0.00000
</Section>

newXOutput 116

<Section columns = "stress_xx | stress_yy | stress_xy">
  1 3286.99 0.00000 0.00000
  2 3286.99 0.00000 0.00000
  3 3286.99 0.00000 0.00000
  4 3286.99 0.00000 0.00000
</Section>

newXOutput 117

<Section columns = "stress_xx | stress_yy | stress_xy">
  1 3260.95 0.00000 0.00000
  2 3260.95 0.00000 0.00000
  3 3260.95 0.00000 0.00000
  4 3260.95 0.00000 0.00000
</Section>

newXOutput 118

<Section columns = "stress_xx | stress_yy | stress_xy">
  1 3234.87 0.00000 0.00000
  2 3234.87 0.00000 0.00000
  3 3234.87 0.00000 0.00000
  4 3234.87 0.00000 0.00000
</Section>

newXOutput 119

<Section columns = "stress_xx | stress_yy | stress_xy">
  1 3208.74 0.00000 0.00000
  2 3208.74 0.00000 0.00000
  3 3208.74 0.00000 0.00000
  4 3208.74 0.00000 0.00000
</Section>

newXOutput 120

<Section columns = "stress_xx | stress_yy | stress_xy">
  1 3182.57 0.00000 0.00000
  2 3182.57 0.00000 0.00000
  3 3182.57 0.00000 0.00000
  4 3182.57 0.00000 0.00000
</Section>

newXOutput 121

<Section columns = "stress_xx | stress_yy | stress_xy">
  1 3156.36 0.00000 0.00000
  2 3156.36 0.00000 0.00000
  3 3156.36 0.00000 0.00000
  4 3156.36 0.00000 0.00000
</Section>

newXOutput 122

<Section columns = "stress_xx | stress_yy | stress_xy">
  1 3130.10 0.00000 0.00000
  2 3130.10 0.00000 0.00000
  3 3130.10 0.00000 0.00000
  4 3130.10 0.00000 0.00000
</Section>

newXOutput 123

<Section columns = "stress_xx | stress_yy | stress_xy">
  1 3103.79 0.00000 0.00000
  2 3103.79 0.00000 0.00000
  3 3103.79 0.00000 0.00000
  4 3103.79 0.00000 0.00000
</Section>

newXOutput 124

<Section columns = "stress_xx | stress_yy | stress_xy">
  1 3077.45 0.00000 0.00000
  2 3077.45 0.00000 0.00000
  3 3077.45 0.00000 0.00000
  4 3077.45 0.00000 0.00000
</Section>

newXOutput 125

<Section columns = "stress_xx | stress_yy | stress_xy">
  1 3051.06 0.00000 0.00000
  2 3051.06 0.00000 0.00000
  3 3051.06 0.00000 0.00000
  4 3051.06 0.00000 0.00000
</Section>

newXOutput 126

<Section columns = "stress_xx | stress_yy | stress_xy">
  1 3024.62 0.00000 0.00000
  2 3024.62 0.00000 0.00000
  3 3024.62 0.00000 0.00000
  4 3024.62 0.00000 0.00000
</Section>

newXOutput 127

<Section columns = "stress_xx | stress_yy | stress_xy">
  1 2998.15 0.00000 0.00000
  2 2998.15 0.00000 0.00000
  3 2998.15 0.00000 0.00000
  4 2998.15 0.00000 0.00000
</Section>

newXOutput 128

<Section columns = "stress_xx | stress_yy | stress_xy">
  1 2971.63 0.00000 0.00000
  2 2971.63 0.00000 0.00000
  3 2971.63 0.00000 0.00000
  4 2971.63 0.00000 0.00000
</Section>

newXOutput 129

<Section columns = "stress_xx | stress_yy | stress_xy">
  1 2945.07 0.00000 0.00000
  2 2945.07 0.00000 0.00000
  3 2945.07 0.00000 0.00000
  4 2945.07 0.00000 0.00000
</Section>

newXOutput 130

<Section columns = "stress_xx | stress_yy | stress_xy">
  1 2918.46 0.00000 0.00000
  2 2918.46 0.00000 0.00000
  3 2918.46 0.00000 0.00000
  4 2918.46 0.00000 0.00000
</Section>

newXOutput 131

<Section columns = "stress_xx | stress_yy | stress_xy">
  1 2891.82 0.00000 0.00000
  2 2891.82 0.00000 0.00000
  3 2891.82 0.00000 0.00000
  4 2891.82 0.00000 0.00000
</Section>

newXOutput 132

<Section columns = "stress_xx | stress_yy | stress_xy">
  1 2865.13 0.00000 0.00000
  2 2865.13 0.00000 0.00000
  3 2865.13 0.00000 0.00000
  4 2865.13 0.00000 0.00000
</Section>

newXOutput 133

<Section columns = "stress_xx | stress_yy | stress_xy">
  1 2838.39 0.00000 0.00000
  2 2838.39 0.00000 0.00000
  3 2838.39 0.00000 0.00000
  4 2838.39 0.00000 0.00000
</Section>

newXOutput 134

<Section columns = "stress_xx | stress_yy | stress_xy">
  1 2811.62 0.00000 0.00000
  2 2811.62 0.00000 0.00000
  3 2811.62 0.00000 0.00000
  4 2811.62 0.00000 0.00000
</Section>

newXOutput 135

<Section columns = "stress_xx | stress_yy | stress_xy">
  1 2784.80 0.00000 -4.80703e-15
  2 2784.80 0.00000 -4.80703e-15
  3 2784.80 0.00000 -9.90260e-15
  4 2784.80 0.00000 -9.90260e-15
</Section>

newXOutput 136

<Section columns = "stress_xx | stress_yy | stress_xy">
  1 2757.93 0.00000 -4.71080e-15
  2 2757.93 0.00000 -4.71080e-15
  3 2757.93 0.00000 -9.70436e-15
  4 2757.93 0.00000 -9.70436e-15
</Section>

newXOutput 137

<Section columns = "stress_xx | stress_yy | stress_xy">
  1 2731.03 0.00000 -6.84346e-15
  2 2731.03 0.00000 -6.84346e-15
  3 2731.03 0.00000 -1.01052e-14
  4 2731.03 0.00000 -1.01052e-14
</Section>

newXOutput 138

<Section columns = "stress_xx | stress_yy | stress_xy">
  1 2704.07 0.00000 -6.70386e-15
  2 2704.07 0.00000 -6.70386e-15
  3 2704.07 0.00000 -9.89911e-15
  4 2704.07 0.00000 -9.89911e-15
</Section>

newXOutput 139

<Section columns = "stress_xx | stress_yy | stress_xy">
  1 2677.08 0.00000 -4.42833e-15
  2 2677.08 0.00000 -4.42833e-15
  3 2677.08 0.00000 -9.12247e-15
  4 2677.08 0.00000 -9.12247e-15
</Section>

newXOutput 140

<Section columns = "stress_xx | stress_yy | stress_xy">
  1 2650.04 0.00000 -4.33618e-15
  2 2650.04 0.00000 -4.33618e-15
  3 2650.04 0.00000 -8.93263e-15
  4 2650.04 0.00000 -8.93263e-15
</Section>

newXOutput 141

<Section columns = "stress_xx | stress_yy | stress_xy">
  1 2622.95 0.00000 -4.24499e-15
  2 2622.95 0.00000 -4.24499e-15
  3 2622.95 0.00000 -8.74478e-15
  4 2622.95 0.00000 -8.74478e-15
</Section>

newXOutput 142

<Section columns = "stress_xx | stress_yy | stress_xy">
  1 2595.81 0.00000 0.00000
  2 2595.81 0.00000 0.00000
  3 2595.81 0.00000 0.00000
  4 2595.81 0.00000 0.00000
</Section>

newXOutput 143

<Section columns = "stress_xx | stress_yy | stress_xy">
  1 2568.63 0.00000 0.00000
  2 2568.63 0.00000 0.00000
  3 2568.63 0.00000 0.00000
  4 2568.63 0.00000 0.00000
</Section>

newXOutput 144

<Section columns = "stress_xx | stress_yy | stress_xy">
  1 2541.40 0.00000 0.00000
  2 2541.40 0.00000 0.00000
  3 2541.40 0.00000 0.00000
  4 2541.40 0.00000 0.00000
</Section>

newXOutput 145

<Section columns = "stress_xx | stress_yy | stress_xy">
  1 2514.12 0.00000 0.00000
  2 2514.12 0.00000 0.00000
  3 2514.12 0.00000 0.00000
  4 2514.12 0.00000 0.00000
</Section>

newXOutput 146

<Section columns = "stress_xx | stress_yy | stress_xy">
  1 2486.79 0.00000 0.00000
  2 2486.79 0.00000 0.00000
  3 2486.79 0.00000 0.00000
  4 2486.79 0.00000 0.00000
</Section>

newXOutput 147

<Section columns = "stress_xx | stress_yy | stress_xy">
  1 2459.40 0.00000 0.00000
  2 2459.40 0.00000 0.00000
  3 2459.40 0.00000 0.00000
  4 2459.40 0.00000 0.00000
</Section>

newXOutput 148

<Section columns = "stress_xx | stress_yy | stress_xy">
  1 2431.96 0.00000 0.00000
  2 2431.96 0.00000 0.00000
  3 2431.96 0.00000 0.00000
  4 2431.96 0.00000 0.00000
</Section>

newXOutput 149

<Section columns = "stress_xx | stress_yy | stress_xy">
  1 2404.47 0.00000 0.00000
  2 2404.47 0.00000 0.00000
  3 2404.47 0.00000 0.00000
  4 2404.47 0.00000 0.00000
</Section>

newXOutput 150

<Section columns = "stress_xx | stress_yy | stress_xy">
  1 2376.92 0.00000 0.00000
  2 2376.92 0.00000 0.00000
  3 2376.92 0.00000 0.00000
  4 2376.92 0.00000 0.00000
</Section>

newXOutput 151

<Section columns = "stress_xx | stress_yy | stress_xy">
  1 2349.30 0.00000 0.00000
  2 2349.30 0.00000 0.00000
  3 2349.30 0.00000 0.00000
  4 2349.30 0.00000 0.00000
</Section>

newXOutput 152

<Section columns = "stress_xx | stress_yy | stress_xy">
  1 2321.63 0.00000 0.00000
  2 2321.63 0.00000 0.00000
  3 2321.63 0.00000 0.00000
  4 2321.63 0.00000 0.00000
</Section>

newXOutput 153

<Section columns = "stress_xx | stress_yy | stress_xy">
  1 2293.88 0.00000 0.00000
  2 2293.88 0.00000 0.00000
  3 2293.88 0.00000 0.00000
  4 2293.88 0.00000 0.00000
</Section>

newXOutput 154

<Section columns = "stress_xx | stress_yy | stress_xy">
  1 2266.07 0.00000 0.00000
  2 2266.07 0.00000 0.00000
  3 2266.07 0.00000 0.00000
  4 2266.07 0.00000 0.00000
</Section>

newXOutput 155

<Section columns = "stress_xx | stress_yy | stress_xy">
  1 2238.19 0.00000 0.00000
  2 2238.19 0.00000 0.00000
  3 2238.19 0.00000 0.00000
  4 2238.19 0.00000 0.00000
</Section>

newXOutput 156

<Section columns = "stress_xx | stress_yy | stress_xy">
  1 2210.22 0.00000 0.00000
  2 2210.22 0.00000 0.00000
  3 2210.22 0.00000 0.00000
  4 2210.22 0.00000 0.00000
</Section>

newXOutput 157

<Section columns = "stress_xx | stress_yy | stress_xy">
  1 2182.18 0.00000 0.00000
  2 2182.18 0.00000 0.00000
  3 2182.18 0.00000 0.00000
  4 2182.18 0.00000 0.00000
</Section>

newXOutput 158

<Section columns = "stress_xx | stress_yy | stress_xy">
  1 2154.05 0.00000 0.00000
  2 2154.05 0.00000 0.00000
  3 2154.05 0.00000 0.00000
  4 2154.05 0.00000 0.00000
</Section>

newXOutput 159

<Section columns = "stress_xx | stress_yy | stress_xy">
  1 2125.82 0.00000 0.00000
  2 2125.82 0.00000 0.00000
  3 2125.82 0.00000 0.00000
  4 2125.82 0.00000 0.00000
</Section>

newXOutput 160

<Section columns = "stress_xx | stress_yy | stress_xy">
  1 2097.50 0.00000 0.00000
  2 2097.50 0.00000 0.00000
  3 2097.50 0.00000 0.00000
  4 2097.50 0.00000 0.00000
</Section>

newXOutput 161

<Section columns = "stress_xx | stress_yy | stress_xy">
  1 2069.07 0.00000 0.00000
  2 2069.07 0.00000 0.00000
  3 2069.07 0.00000 0.00000
  4 2069.07 0.00000 0.00000
</Section>

newXOutput 162

<Section columns = "stress_xx | stress_yy | stress_xy">
  1 2040.52 0.00000 0.00000
  2 2040.52 0.00000 0.00000
  3 2040.52 0.00000 0.00000
  4 2040.52 0.00000 0.00000
</Section>

newXOutput 163

<Section columns = "stress_xx | stress_yy | stress_xy">
  1 2011.85 0.00000 0.00000
  2 2011.85 0.00000 0.00000
  3 2011.85 0.00000 0.00000
  4 2011.85 0.00000 0.00000
</Section>

newXOutput 164

<Section columns = "stress_xx | stress_yy | stress_xy">
  1 1983.05 0.00000 0.00000
  2 1983.05 0.00000 0.00000
  3 1983.05 0.00000 0.00000
  4 1983.05 0.00000 0.00000
</Section>

newXOutput 165

<Section columns = "stress_xx | stress_yy | stress_xy">
  1 1954.10 0.00000 0.00000
  2 1954.10 0.00000 0.00000
  3 1954.10 0.00000 0.00000
  4 1954.10 0.00000 0.00000
</Section>

newXOutput 166

<Section columns = "stress_xx | stress_yy | stress_xy">
  1 1924.99 0.00000 0.00000
  2 1924.99 0.00000 0.00000
  3 1924.99 0.00000 0.00000
  4 1924.99 0.00000 0.00000
</Section>

newXOutput 167

<Section columns = "stress_xx | stress_yy | stress_xy">
  1 1895.70 0.00000 0.00000
  2 1895.70 0.00000 0.00000
  3 1895.70 0.00000 0.00000
  4 1895.70 0.00000 0.00000
</Section>

newXOutput 168

<Section columns = "stress_xx | stress_yy | stress_xy">
  1 1866.22 0.00000 5.36879e-15
  2 1866.22 0.00000 5.36879e-15
  3 1866.22 0.00000 2.00366e-14
  4 1866.22 0.00000 2.00366e-14
</Section>

newXOutput 169

<Section columns = "stress_xx | stress_yy | stress_xy">
  1 1836.53 0.00000 0.00000
  2 1836.53 0.00000 0.00000
  3 1836.53 0.00000 0.00000
  4 1836.53 0.00000 0.00000
</Section>

newXOutput 170

<Section columns = "stress_xx | stress_yy | stress_xy">
  1 1806.61 0.00000 0.00000
  2 1806.61 0.00000 0.00000
  3 1806.61 0.00000 0.00000
  4 1806.61 0.00000 0.00000
</Section>

newXOutput 171

<Section columns = "stress_xx | stress_yy | stress_xy">
  1 1776.43 0.00000 0.00000
  2 1776.43 0.00000 0.00000
  3 1776.43 0.00000 0.00000
  4 1776.43 0.00000 0.00000
</Section>

newXOutput 172

<Section columns = "stress_xx | stress_yy | stress_xy">
  1 1745.97 0.00000 0.00000
  2 1745.97 0.00000 0.00000
  3 1745.97 0.00000 0.00000
  4 1745.97 0.00000 0.00000
</Section>

newXOutput 173

<Section columns = "stress_xx | stress_yy | stress_xy">
  1 1715.18 0.00000 0.00000
  2 1715.18 0.00000 0.00000
  3 1715.18 0.00000 0.00000
  4 1715.18 0.00000 0.00000
</Section>

newXOutput 174

<Section columns = "stress_xx | stress_yy | stress_xy">
  1 1684.05 0.00000 0.00000
  2 1684.05 0.00000 0.00000
  3 1684.05 0.00000 0.00000
  4 1684.05 0.00000 0.00000
</Section>

newXOutput 175

<Section columns = "stress_xx | stress_yy | stress_xy">
  1 1652.52 0.00000 0.00000
  2 1652.52 0.00000 0.00000
  3 1652.52 0.00000 0.00000
  4 1652.52 0.00000 0.00000
</Section>

newXOutput 176

<Section columns = "stress_xx | stress_yy | stress_xy">
  1 1620.55 0.00000 0.00000
  2 1620.55 0.00000 0.00000
  3 1620.55 0.00000 0.00000
  4 1620.55 0.00000 0.00000
</Section>

newXOutput 177

<Section columns = "stress_xx | stress_yy | stress_xy">
  1 1588.08 0.00000 0.00000
  2 1588.08 0.00000 0.00000
  3 1588.08 0.00000 0.00000
  4 1588.08 0.00000 0.00000
</Section>

newXOutput 178

<Section columns = "stress_xx | stress_yy | stress_xy">
  1 1555.05 0.00000 1.35382e-15
  2 1555.05 0.00000 1.35382e-15
  3 1555.05 0.00000 3.62755e-16
  4 1555.05 0.00000 3.62755e-16
</Section>

newXOutput 179

<Section columns = "stress_xx | stress_yy | stress_xy">
  1 1521.38 0.00000 1.29052e-15
  2 1521.38 0.00000 1.29052e-15
  3 1521.38 0.00000 3.45795e-16
  4 1521.38 0.00000 3.45795e-16
</Section>

newXOutput 180

<Section columns = "stress_xx | stress_yy | stress_xy">
  1 1487.00 0.00000 5.93496e-15
  2 1487.00 0.00000 4.84026e-15
  3 1487.00 0.00000 1.78968e-14
  4 1487.00 0.00000 1.38113e-14
</Section>

newXOutput 181

<Section columns = "stress_xx | stress_yy | stress_xy">
  1 1451.80 0.00000 0.00000
  2 1451.80 0.00000 0.00000
  3 1451.80 0.00000 0.00000
  4 1451.80 0.00000 0.00000
</Section>

newXOutput 182

<Section columns = "stress_xx | stress_yy | stress_xy">
  1 1415.68 0.00000 0.00000
  2 1415.68 0.00000 0.00000
  3 1415.68 0.00000 0.00000
  4 1415.68 0.00000 0.00000
</Section>

newXOutput 183

<Section columns = "stress_xx | stress_yy | stress_xy">
  1 1378.48 0.00000 0.00000
  2 1378.48 0.00000 0.00000
  3 1378.48 0.00000 0.00000
  4 1378.48 0.00000 0.00000
</Section>

newXOutput 184

<Section columns = "stress_xx | stress_yy | stress_xy">
  1 1340.07 0.00000 0.00000
  2 1340.07 0.00000 0.00000
  3 1340.07 0.00000 0.00000
  4 1340.07 0.00000 0.00000
</Section>

newXOutput 185

<Section columns = "stress_xx | stress_yy | stress_xy">
  1 1300.25 0.00000 0.00000
  2 1300.25 0.00000 0.00000
  3 1300.25 0.00000 0.00000
  4 1300.25 0.00000 0.00000
</Section>

newXOutput 186

<Section columns = "stress_xx | stress_yy | stress_xy">
  1 1258.81 0.00000 0.00000
  2 1258.81 0.00000 0.00000
  3 1258.81 0.00000 0.00000
  4 1258.81 0.00000 0.00000
</Section>

newXOutput 187

<Section columns = "stress_xx | stress_yy | stress_xy">
  1 1215.48 0.00000 0.00000
  2 1215.48 0.00000 0.00000
  3 1215.48 0.00000 0.00000
  4 1215.48 0.00000 0.00000
</Section>

newXOutput 188

<Section columns = "stress_xx | stress_yy | stress_xy">
  1 1169.96 0.00000 0.00000
  2 1169.96 0.00000 0.00000
  3 1169.96 0.00000 0.00000
  4 1169.96 0.00000 0.00000
</Section>

newXOutput 189

<Section columns = "stress_xx | stress_yy | stress_xy">
  1 1121.87 0.00000 0.00000
  2 1121.87 0.00000 0.00000
  3 1121.87 0.00000 0.00000
  4 1121.87 0.00000 0.00000
</Section>

newXOutput 190

<Section columns = "stress_xx | stress_yy | stress_xy">
  1 1070.76 0.00000 0.00000
  2 1070.76 0.00000 0.00000
  3 1070.76 0.00000 0.00000
  4 1070.76 0.00000 0.00000
</Section>

newXOutput 191

<Section columns = "stress_xx | stress_yy | stress_xy">
  1 1016.09 0.00000 0.00000
  2 1016.09 0.00000 0.00000
  3 1016.09 0.00000 0.00000
  4 1016.09 0.00000 0.00000
</Section>

newXOutput 192

<Section columns = "stress_xx | stress_yy | stress_xy">
  1 957.191 0.00000 0.00000
  2 957.191 0.00000 0.00000
  3 957.191 0.00000 0.00000
  4 957.191 0.00000 0.00000
</Section>

newXOutput 193

<Section columns = "stress_xx | stress_yy | stress_xy">
  1 893.244 0.00000 0.00000
  2 893.244 0.00000 0.00000
  3 893.244 0.00000 0.00000
  4 893.244 0.00000 0.00000
</Section>

newXOutput 194

<Section columns = "stress_xx | stress_yy | stress_xy">
  1 823.238 0.00000 0.00000
  2 823.238 0.00000 0.00000
  3 823.238 0.00000 0.00000
  4 823.238 0.00000 0.00000
</Section>

newXOutput 195

<Section columns = "stress_xx | stress_yy | stress_xy">
  1 745.910 0.00000 0.00000
  2 745.910 0.00000 0.00000
  3 745.910 0.00000 0.00000
  4 745.910 0.00000 0.00000
</Section>

newXOutput 196

<Section columns = "stress_xx | stress_yy | stress_xy">
  1 659.673 0.00000 0.00000
  2 659.673 0.00000 0.00000
  3 659.673 0.00000 0.00000
  4 659.673 0.00000 0.00000
</Section>

newXOutput 197

<Section columns = "stress_xx | stress_yy | stress_xy">
  1 562.516 0.00000 0.00000
  2 562.516 0.00000 0.00000
  3 562.516 0.00000 0.00000
  4 562.516 0.00000 0.00000
</Section>

newXOutput 198

<Section columns = "stress_xx | stress_yy | stress_xy">
  1 451.859 0.00000 0.00000
  2 451.859 0.00000 0.00000
  3 451.859 0.00000 0.00000
  4 451.859 0.00000 0.00000
</Section>

newXOutput 199

<Section columns = "stress_xx | stress_yy | stress_xy">
  1 324.368 0.00000 0.00000
  2 324.368 0.00000 0.00000
  3 324.368 0.00000 0.00000
  4 324.368 0.00000 0.00000
</Section>

newXOutput 200

<Section columns = "stress_xx | stress_yy | stress_xy">
  1 175.677 0.00000 0.00000
  2 175.677 0.00000 0.00000
  3 175.677 0.00000 0.00000
  4 175.677 0.00000 0.00000
</Section>

newXOutput 201

<Section columns = "stress_xx | stress_yy | stress_xy">
  1 6.49055e-06 0.00000 0.00000
  2 6.49055e-06 0.00000 0.00000
  3 6.49055e-06 0.00000 0.00000
  4 6.49055e-06 0.00000 0.00000
</Section>

newXOutput 202

<Section columns = "stress_xx | stress_yy | stress_xy">
  1 0.00000 0.00000 0.00000
  2 0.00000 0.00000 0.00000
  3 0.00000 0.00000 0.00000
  4 0.00000 0.00000 0.00000
</Section>

newXOutput 203

<Section columns = "stress_xx | stress_yy | stress_xy">
  1 0.00000 0.00000 0.00000
  2 0.00000 0.00000 0.00000
  3 0.00000 0.00000 0.00000
  4 0.00000 0.00000 0.00000
</Section>

newXOutput 204

<Section columns = "stress_xx | stress_yy | stress_xy">
  1 0.00000 0.00000 0.00000
  2 0.00000 0.00000 0.00000
  3 0.00000 0.00000 0.00000
  4 0.00000 0.00000 0.00000
</Section>

newXOutput 205

<Section columns = "stress_xx | stress_yy | stress_xy">
  1 0.00000 0.00000 0.00000
  2 0.00000 0.00000 0.00000
  3 0.00000 0.00000 0.00000
  4 0.00000 0.00000 0.00000
</Section>

newXOutput 206

<Section columns = "stress_xx | stress_yy | stress_xy">
  1 0.00000 0.00000 0.00000
  2 0.00000 0.00000 0.00000
  3 0.00000 0.00000 0.00000
  4 0.00000 0.00000 0.00000
</Section>

newXOutput 207

<Section columns = "stress_xx | stress_yy | stress_xy">
  1 0.00000 0.00000 0.00000
  2 0.00000 0.00000 0.00000
  3 0.00000 0.00000 0.00000
  4 0.00000 0.00000 0.00000
</Section>

newXOutput 208

<Section columns = "stress_xx | stress_yy | stress_xy">
  1 0.00000 0.00000 0.00000
  2 0.00000 0.00000 0.00000
  3 0.00000 0.00000 0.00000
  4 0.00000 0.00000 0.00000
</Section>

newXOutput 209

<Section columns = "stress_xx | stress_yy | stress_xy">
  1 0.00000 0.00000 0.00000
  2 0.00000 0.00000 0.00000
  3 0.00000 0.00000 0.00000
  4 0.00000 0.00000 0.00000
</Section>

newXOutput 210

<Section columns = "stress_xx | stress_yy | stress_xy">
  1 0.00000 0.00000 0.00000
  2 0.00000 0.00000 0.00000
  3 0.00000 0.00000 0.00000
  4 0.00000 0.00000 0.00000
</Section>

newXOutput 211

<Section columns = "stress_xx | stress_yy | stress_xy">
  1 0.00000 0.00000 0.00000
  2 0.00000 0.00000 0.00000
  3 0.00000 0.00000 0.00000
  4 0.00000 0.00000 0.00000
</Section>

newXOutput 212

<Section columns = "stress_xx | stress_yy | stress_xy">
  1 0.00000 0.00000 0.00000
  2 0.00000 0.00000 0.00000
  3 0.00000 0.00000 0.00000
  4 0.00000 0.00000 0.00000
</Section>

newXOutput 213

<Section columns = "stress_xx | stress_yy | stress_xy">
  1 0.00000 0.00000 0.00000
  2 0.00000 0.00000 0.00000
  3 0.00000 0.00000 0.00000
  4 0.00000 0.00000 0.00000
</Section>

newXOutput 214

<Section columns = "stress_xx | stress_yy | stress_xy">
  1 0.00000 0.00000 0.00000
  2 0.00000 0.00000 0.00000
  3 0.00000 0.00000 0.00000
  4 0.00000 0.00000 0.00000
</Section>

newXOutput 215

<Section columns = "stress_xx | stress_yy | stress_xy">
  1 0.00000 0.00000 0.00000
  2 0.00000 0.00000 0.00000
  3 0.00000 0.00000 0.00000
  4 0.00000 0.00000 0.00000
</Section>

newXOutput 216

<Section columns = "stress_xx | stress_yy | stress_xy">
  1 0.00000 0.00000 0.00000
  2 0.00000 0.00000 0.00000
  3 0.00000 0.00000 0.00000
  4 0.00000 0.00000 0.00000
</Section>

newXOutput 217

<Section columns = "stress_xx | stress_yy | stress_xy">
  1 0.00000 0.00000 0.00000
  2 0.00000 0.00000 0.00000
  3 0.00000 0.00000 0.00000
  4 0.00000 0.00000 0.00000
</Section>

newXOutput 218

<Section columns = "stress_xx | stress_yy | stress_xy">
  1 0.00000 0.00000 0.00000
  2 0.00000 0.00000 0.00000
  3 0.00000 0.00000 0.00000
  4 0.00000 0.00000 0.00000
</Section>

newXOutput 219

<Section columns = "stress_xx | stress_yy | stress_xy">
  1 0.00000 0.00000 0.00000
  2 0.00000 0.00000 0.00000
  3 0.00000 0.00000 0.00000
  4 0.00000 0.00000 0.00000
</Section>

newXOutput 220

<Section columns = "stress_xx | stress_yy | stress_xy">
  1 0.00000 0.00000 0.00000
  2 0.00000 0.00000 0.00000
  3 0.00000 0.00000 0.00000
  4 0.00000 0.00000 0.00000
</Section>

newXOutput 221

<Section columns = "stress_xx | stress_yy | stress_xy">
  1 0.00000 0.00000 0.00000
  2 0.00000 0.00000 0.00000
  3 0.00000 0.00000 0.00000
  4 0.00000 0.00000 0.00000
</Section>

newXOutput 222

<Section columns = "stress_xx | stress_yy | stress_xy">
  1 0.00000 0.00000 0.00000
  2 0.00000 0.00000 0.00000
  3 0.00000 0.00000 0.00000
  4 0.00000 0.00000 0.00000
</Section>

newXOutput 223

<Section columns = "stress_xx | stress_yy | stress_xy">
  1 0.00000 0.00000 0.00000
  2 0.00000 0.00000 0.00000
  3 0.00000 0.00000 0.00000
  4 0.00000 0.00000 0.00000
</Section>

newXOutput 224

<Section columns = "stress_xx | stress_yy | stress_xy">
  1 0.00000 0.00000 0.00000
  2 0.00000 0.00000 0.00000
  3 0.00000 0.00000 0.00000
  4 0.00000 0.00000 0.00000
</Section>

newXOutput 225

<Section columns = "stress_xx | stress_yy | stress_xy">
  1 0.00000 0.00000 0.00000
  2 0.00000 0.00000 0.00000
  3 0.00000 0.00000 0.00000
  4 0.00000 0.00000 0.00000
</Section>

newXOutput 226

<Section columns = "stress_xx | stress_yy | stress_xy">
  1 0.00000 0.00000 0.00000
  2 0.00000 0.00000 0.00000
  3 0.00000 0.00000 0.00000
  4 0.00000 0.00000 0.00000
</Section>

newXOutput 227

<Section columns = "stress_xx | stress_yy | stress_xy">
  1 0.00000 0.00000 0.00000
  2 0.00000 0.00000 0.00000
  3 0.00000 0.00000 0.00000
  4 0.00000 0.00000 0.00000
</Section>

newXOutput 228

<Section columns = "stress_xx | stress_yy | stress_xy">
  1 0.00000 0.00000 0.00000
  2 0.00000 0.00000 0.00000
  3 0.00000 0.00000 0.00000
  4 0.00000 0.00000 0.00000
</Section>

newXOutput 229

<Section columns = "stress_xx | stress_yy | stress_xy">
  1 0.00000 0.00000 0.00000
  2 0.00000 0.00000 0.00000
  3 0.00000 0.00000 0.00000
  4 0.00000 0.00000 0.00000
</Section>

newXOutput 230

<Section columns = "stress_xx | stress_yy | stress_xy">
  1 0.00000 0.00000 0.00000
  2 0.00000 0.00000 0.00000
  3 0.00000 0.00000 0.00000
  4 0.00000 0.00000 0.00000
</Section>

newXOutput 231

<Section columns = "stress_xx | stress_yy | stress_xy">
  1 0.00000 0.00000 0.00000
  2 0.00000 0.00000 0.00000
  3 0.00000 0.00000 0.00000
  4 0.00000 0.00000 0.00000
</Section>

newXOutput 232

<Section columns = "stress_xx | stress_yy | stress_xy">
  1 0.00000 0.00000 0.00000
  2 0.00000 0.00000 0.00000
  3 0.00000 0.00000 0.00000
  4 0.00000 0.00000 0.00000
</Section>

newXOutput 233

<Section columns = "stress_xx | stress_yy | stress_xy">
  1 0.00000 0.00000 0.00000
  2 0.00000 0.00000 0.00000
  3 0.00000 0.00000 0.00000
  4 0.00000 0.00000 0.00000
</Section>

newXOutput 234

<Section columns = "stress_xx | stress_yy | stress_xy">
  1 0.00000 0.00000 0.00000
  2 0.00000 0.00000 0.00000
  3 0.00000 0.00000 0.00000
  4 0.00000 0.00000 0.00000
</Section>

newXOutput 235

<Section columns = "stress_xx | stress_yy | stress_xy">
  1 0.00000 0.00000 0.00000
  2 0.00000 0.00000 0.00000
  3 0.00000 0.00000 0.00000
  4 0.00000 0.00000 0.00000
</Section>

newXOutput 236

<Section columns = "stress_xx | stress_yy | stress_xy">
  1 0.00000 0.00000 0.00000
  2 0.00000 0.00000 0.00000
  3 0.00000 0.00000 0.00000
  4 0.00000 0.00000 0.00000
</Section>

newXOutput 237

<Section columns = "stress_xx | stress_yy | stress_xy">
  1 0.00000 0.00000 0.00000
  2 0.00000 0.00000 0.00000
  3 0.00000 0.00000 0.00000
  4 0.00000 0.00000 0.00000
</Section>

newXOutput 238

<Section columns = "stress_xx | stress_yy | stress_xy">
  1 0.00000 0.00000 0.00000
  2 0.00000 0.00000 0.00000
  3 0.00000 0.00000 0.00000
  4 0.00000 0.00000 0.00000
</Section>

newXOutput 239

<Section columns = "stress_xx | stress_yy | stress_xy">
  1 0.00000 0.00000 0.00000
  2 0.00000 0.00000 0.00000
  3 0.00000 0.00000 0.00000
  4 0.00000 0.00000 0.00000
</Section>

newXOutput 240

<Section columns = "stress_xx | stress_yy | stress_xy">
  1 0.00000 0.00000 0.00000
  2 0.00000 0.00000 0.00000
  3 0.00000 0.00000 0.00000
  4 0.00000 0.00000 0.00000
</Section>

newXOutput 241

<Section columns = "stress_xx | stress_yy | stress_xy">
  1 0.00000 0.00000 0.00000
  2 0.00000 0.00000 0.00000
  3 0.00000 0.00000 0.00000
  4 0.00000 0.00000 0.00000
</Section>

newXOutput 242

<Section columns = "stress_xx | stress_yy | stress_xy">
  1 0.00000 0.00000 0.00000
  2 0.00000 0.00000 0.00000
  3 0.00000 0.00000 0.00000
  4 0.00000 0.00000 0.00000
</Section>

newXOutput 243

<Section columns = "stress_xx | stress_yy | stress_xy">
  1 0.00000 0.00000 0.00000
  2 0.00000 0.00000 0.00000
  3 0.00000 0.00000 0.00000
  4 0.00000 0.00000 0.00000
</Section>

newXOutput 244

<Section columns = "stress_xx | stress_yy | stress_xy">
  1 0.00000 0.00000 0.00000
  2 0.00000 0.00000 0.00000
  3 0.00000 0.00000 0.00000
  4 0.00000 0.00000 0.00000
</Section>

newXOutput 245

<Section columns = "stress_xx | stress_yy | stress_xy">
  1 0.00000 0.00000 0.00000
  2 0.00000 0.00000 0.00000
  3 0.00000 0.00000 0.00000
  4 0.00000 0.00000 0.00000
</Section>

newXOutput 246

<Section columns = "stress_xx | stress_yy | stress_xy">
  1 0.00000 0.00000 0.00000
  2 0.00000 0.00000 0.00000
  3 0.00000 0.00000 0.00000
  4 0.00000 0.00000 0.00000
</Section>

newXOutput 247

<Section columns = "stress_xx | stress_yy | stress_xy">
  1 0.00000 0.00000 0.00000
  2 0.00000 0.00000 0.00000
  3 0.00000 0.00000 0.00000
  4 0.00000 0.00000 0.00000
</Section>

newXOutput 248

<Section columns = "stress_xx | stress_yy | stress_xy">
  1 0.00000 0.00000 0.00000
  2 0.00000 0.00000 0.00000
  3 0.00000 0.00000 0.00000
  4 0.00000 0.00000 0.00000
</Section>

newXOutput 249

<Section columns = "stress_xx | stress_yy | stress_xy">
  1 0.00000 0.00000 0.00000
  2 0.00000 0.00000 0.00000
  3 0.00000 0.00000 0.00000
  4 0.00000 0.00000 0.00000
</Section>

newXOutput 250

<Section columns = "stress_xx | stress_yy | stress_xy">
  1 0.00000 0.00000 0.00000
  2 0.00000 0.00000 0.00000
  3 0.00000 0.00000 0.00000
  4 0.00000 0.00000 0.00000
</Section>

newXOutput 251

<Section columns = "stress_xx | stress_yy | stress_xy">
  1 0.00000 0.00000 0.00000
  2 0.00000 0.00000 0.00000
  3 0.00000 0.00000 0.00000
  4 0.00000 0.00000 0.00000
</Section>

newXOutput 252

<Section columns = "stress_xx | stress_yy | stress_xy">
  1 0.00000 0.00000 0.00000
  2 0.00000 0.00000 0.00000
  3 0.00000 0.00000 0.00000
  4 0.00000 0.00000 0.00000
</Section>

