newXOutput 1

<Section columns = "stress_xx | stress_yy | stress_xy">
  1 0.00000 0.00000 0.00000
  2 0.00000 0.00000 0.00000
  3 0.00000 0.00000 0.00000
  4 0.00000 0.00000 0.00000
  5 0.00000 0.00000 0.00000
  6 0.00000 0.00000 0.00000
  7 0.00000 0.00000 0.00000
  8 0.00000 0.00000 0.00000
  9 0.00000 0.00000 0.00000
  10 0.00000 0.00000 0.00000
  11 0.00000 0.00000 0.00000
  12 0.00000 0.00000 0.00000
  13 0.00000 0.00000 0.00000
  14 0.00000 0.00000 0.00000
  15 0.00000 0.00000 0.00000
  16 0.00000 0.00000 0.00000
  17 0.00000 0.00000 0.00000
  18 0.00000 0.00000 0.00000
  19 0.00000 0.00000 0.00000
  20 0.00000 0.00000 0.00000
  21 0.00000 0.00000 0.00000
  22 0.00000 0.00000 0.00000
  23 0.00000 0.00000 0.00000
  24 0.00000 0.00000 0.00000
  25 0.00000 0.00000 0.00000
  26 0.00000 0.00000 0.00000
  27 0.00000 0.00000 0.00000
  28 0.00000 0.00000 0.00000
  29 0.00000 0.00000 0.00000
  30 0.00000 0.00000 0.00000
  31 0.00000 0.00000 0.00000
  32 0.00000 0.00000 0.00000
  33 0.00000 0.00000 0.00000
  34 0.00000 0.00000 0.00000
  35 0.00000 0.00000 0.00000
  36 0.00000 0.00000 0.00000
  37 0.00000 0.00000 0.00000
  38 0.00000 0.00000 0.00000
  39 0.00000 0.00000 0.00000
  40 0.00000 0.00000 0.00000
  41 0.00000 0.00000 0.00000
  42 0.00000 0.00000 0.00000
  43 0.00000 0.00000 0.00000
  44 0.00000 0.00000 0.00000
  45 0.00000 0.00000 0.00000
  46 0.00000 0.00000 0.00000
  47 0.00000 0.00000 0.00000
  48 0.00000 0.00000 0.00000
  49 0.00000 0.00000 0.00000
  50 0.00000 0.00000 0.00000
  51 0.00000 0.00000 0.00000
  52 0.00000 0.00000 0.00000
  53 0.00000 0.00000 0.00000
  54 0.00000 0.00000 0.00000
  55 0.00000 0.00000 0.00000
  56 0.00000 0.00000 0.00000
  57 0.00000 0.00000 0.00000
  58 0.00000 0.00000 0.00000
  59 0.00000 0.00000 0.00000
  60 0.00000 0.00000 0.00000
  61 0.00000 0.00000 0.00000
  62 0.00000 0.00000 0.00000
  63 0.00000 0.00000 0.00000
  64 0.00000 0.00000 0.00000
  65 0.00000 0.00000 0.00000
  66 0.00000 0.00000 0.00000
</Section>

newXOutput 2

<Section columns = "stress_xx | stress_yy | stress_xy">
  1 19.3695 -5.49335e-10 -1.28892e-15
  2 19.3695 -5.49335e-10 -3.22651e-15
  3 19.3695 -5.49335e-10 4.35733e-15
  4 19.3695 -5.49335e-10 -2.16093e-15
  5 19.3695 -5.49335e-10 2.61493e-15
  6 19.3695 -5.49335e-10 3.91925e-15
  7 19.3695 -5.49335e-10 1.98236e-15
  8 19.3695 -5.49335e-10 4.77221e-16
  9 19.3695 -5.49335e-10 -1.90190e-15
  10 19.3695 -5.49335e-10 -1.03534e-14
  11 19.3695 -5.49335e-10 8.50708e-16
  12 19.3695 -5.49335e-10 4.37478e-15
  13 19.3695 -5.49335e-10 4.36918e-15
  14 19.3695 -5.49335e-10 -6.69722e-15
  15 19.3695 -5.49335e-10 -1.29732e-15
  16 19.3695 -5.49335e-10 -1.23767e-15
  17 19.3695 -5.49335e-10 -4.12752e-15
  18 19.3695 -5.49335e-10 -1.01484e-14
  19 19.3695 -5.49335e-10 -3.36548e-15
  20 19.3695 -5.49335e-10 -1.60353e-14
  21 19.3695 -5.49335e-10 -2.33720e-15
  22 19.3695 -5.49335e-10 -2.67129e-15
  23 19.3695 -5.49335e-10 -6.69095e-16
  24 19.3695 -5.49335e-10 4.21991e-16
  25 19.3695 -5.49335e-10 -8.98024e-16
  26 19.3695 -5.49335e-10 -8.60681e-16
  27 19.3695 -5.49335e-10 -1.29732e-15
  28 19.3695 -5.49335e-10 -3.75586e-16
  29 19.3695 -5.49335e-10 2.34501e-16
  30 19.3695 -5.49335e-10 1.04865e-15
  31 19.3695 -5.49335e-10 -7.61720e-16
  32 19.3695 -5.49335e-10 5.86269e-15
  33 19.3695 -5.49335e-10 -1.62094e-14
  34 19.3695 -5.49335e-10 1.25156e-15
  35 19.3695 -5.49335e-10 -1.47413e-15
  36 19.3695 -5.49335e-10 6.27846e-15
  37 19.3695 -5.49335e-10 1.35491e-15
  38 19.3695 -5.49335e-10 5.33969e-17
  39 19.3695 -5.49335e-10 8.54095e-16
  40 19.3695 -5.49335e-10 2.40221e-15
  41 19.3695 -5.49335e-10 1.55640e-15
  42 19.3695 -5.49335e-10 3.95659e-15
  43 19.3695 -5.49335e-10 -2.41112e-15
  44 19.3695 -5.49335e-10 2.52223e-16
  45 19.3695 -5.49335e-10 1.45113e-15
  46 19.3695 -5.49335e-10 -1.48732e-16
  47 19.3695 -5.49335e-10 4.74032e-16
  48 19.3695 -5.49335e-10 3.80195e-16
  49 19.3695 -5.49335e-10 -4.51530e-16
  50 19.3695 -5.49335e-10 -4.97254e-16
  51 19.3695 -5.49335e-10 -2.07053e-15
  52 19.3695 -5.49335e-10 5.14290e-17
  53 19.3695 -5.49335e-10 -1.33060e-15
  54 19.3695 -5.49335e-10 3.84303e-15
  55 19.3695 -5.49335e-10 -2.85232e-16
  56 19.3695 -5.49335e-10 2.20921e-15
  57 19.3695 -5.49335e-10 -8.85137e-15
  58 19.3695 -5.49335e-10 -1.16783e-16
  59 19.3695 -5.49335e-10 -1.23945e-16
  60 19.3695 -5.49335e-10 2.50602e-15
  61 19.3695 -5.49335e-10 -1.03555e-14
  62 19.3695 -5.49335e-10 1.70222e-15
  63 19.3695 -5.49335e-10 2.13087e-15
  64 19.3695 -5.49335e-10 -7.36922e-15
  65 19.3695 -5.49335e-10 -3.13101e-16
  66 19.3695 -5.49335e-10 -7.71793e-16
</Section>

newXOutput 3

<Section columns = "stress_xx | stress_yy | stress_xy">
  1 38.6546 -5.50244e-10 -1.27267e-15
  2 38.6546 -5.50244e-10 2.72121e-15
  3 38.6546 -5.50244e-10 -3.82476e-15
  4 38.6546 -5.50244e-10 -2.11323e-15
  5 38.6546 -5.50244e-10 9.18237e-16
  6 38.6546 -5.50244e-10 -3.32106e-16
  7 38.6546 -5.50244e-10 -2.45602e-15
  8 38.6546 -5.50244e-10 2.76029e-15
  9 38.6546 -5.50244e-10 1.02746e-14
  10 38.6546 -5.50244e-10 -2.35274e-15
  11 38.6546 -5.50244e-10 -9.51366e-15
  12 38.6546 -5.50244e-10 -1.10550e-14
  13 38.6546 -5.50244e-10 1.05499e-14
  14 38.6546 -5.50244e-10 -1.55233e-14
  15 38.6546 -5.50244e-10 -3.23403e-15
  16 38.6546 -5.50244e-10 4.75868e-16
  17 38.6546 -5.50244e-10 -7.32034e-15
  18 38.6546 -5.50244e-10 -1.06372e-14
  19 38.6546 -5.50244e-10 -1.09979e-14
  20 38.6546 -5.50244e-10 5.07429e-16
  21 38.6546 -5.50244e-10 1.85887e-15
  22 38.6546 -5.50244e-10 -9.69676e-16
  23 38.6546 -5.50244e-10 3.81958e-16
  24 38.6546 -5.50244e-10 2.60093e-15
  25 38.6546 -5.50244e-10 -1.36718e-15
  26 38.6546 -5.50244e-10 -4.22829e-16
  27 38.6546 -5.50244e-10 -6.46805e-16
  28 38.6546 -5.50244e-10 1.08778e-15
  29 38.6546 -5.50244e-10 -4.06118e-15
  30 38.6546 -5.50244e-10 1.43089e-14
  31 38.6546 -5.50244e-10 -6.16211e-16
  32 38.6546 -5.50244e-10 4.53256e-15
  33 38.6546 -5.50244e-10 -1.09676e-14
  34 38.6546 -5.50244e-10 1.15201e-15
  35 38.6546 -5.50244e-10 -9.10959e-16
  36 38.6546 -5.50244e-10 5.54371e-15
  37 38.6546 -5.50244e-10 -3.26163e-15
  38 38.6546 -5.50244e-10 -4.24272e-15
  39 38.6546 -5.50244e-10 1.73908e-15
  40 38.6546 -5.50244e-10 4.35778e-15
  41 38.6546 -5.50244e-10 -1.29193e-15
  42 38.6546 -5.50244e-10 5.92560e-15
  43 38.6546 -5.50244e-10 -3.52338e-15
  44 38.6546 -5.50244e-10 -4.04112e-15
  45 38.6546 -5.50244e-10 1.46908e-15
  46 38.6546 -5.50244e-10 4.30475e-15
  47 38.6546 -5.50244e-10 4.17873e-15
  48 38.6546 -5.50244e-10 -1.58719e-16
  49 38.6546 -5.50244e-10 2.49633e-16
  50 38.6546 -5.50244e-10 8.34677e-16
  51 38.6546 -5.50244e-10 2.16258e-15
  52 38.6546 -5.50244e-10 -2.68348e-15
  53 38.6546 -5.50244e-10 8.53516e-15
  54 38.6546 -5.50244e-10 -2.72664e-15
  55 38.6546 -5.50244e-10 -7.36051e-17
  56 38.6546 -5.50244e-10 -6.00699e-15
  57 38.6546 -5.50244e-10 -5.70959e-15
  58 38.6546 -5.50244e-10 -6.55391e-16
  59 38.6546 -5.50244e-10 -7.15427e-16
  60 38.6546 -5.50244e-10 1.69573e-14
  61 38.6546 -5.50244e-10 -3.44792e-15
  62 38.6546 -5.50244e-10 2.72347e-15
  63 38.6546 -5.50244e-10 5.26250e-16
  64 38.6546 -5.50244e-10 -1.95599e-14
  65 38.6546 -5.50244e-10 -7.29023e-16
  66 38.6546 -5.50244e-10 -1.49984e-15
</Section>

newXOutput 4

<Section columns = "stress_xx | stress_yy | stress_xy">
  1 57.8559 -5.46606e-10 -5.10955e-15
  2 57.8559 -5.46606e-10 -2.56981e-14
  3 57.8559 -5.46606e-10 -1.75555e-14
  4 57.8559 -5.46606e-10 -1.10684e-15
  5 57.8559 -5.46606e-10 2.71348e-15
  6 57.8559 -5.46606e-10 4.52107e-15
  7 57.8559 -5.46606e-10 -2.30420e-15
  8 57.8559 -5.46606e-10 -3.95727e-15
  9 57.8559 -5.46606e-10 6.98833e-15
  10 57.8559 -5.46606e-10 -1.76078e-14
  11 57.8559 -5.46606e-10 -2.72364e-15
  12 57.8559 -5.46606e-10 -3.92199e-16
  13 57.8559 -5.46606e-10 -1.34918e-14
  14 57.8559 -5.46606e-10 3.50660e-15
  15 57.8559 -5.46606e-10 1.16093e-14
  16 57.8559 -5.46606e-10 7.59134e-15
  17 57.8559 -5.46606e-10 -1.12501e-14
  18 57.8559 -5.46606e-10 -4.51639e-15
  19 57.8559 -5.46606e-10 -3.58011e-15
  20 57.8559 -5.46606e-10 3.75190e-15
  21 57.8559 -5.46606e-10 -8.24668e-15
  22 57.8559 -5.46606e-10 -4.54602e-15
  23 57.8559 -5.46606e-10 -3.02661e-15
  24 57.8559 -5.46606e-10 -2.57457e-17
  25 57.8559 -5.46606e-10 9.36470e-16
  26 57.8559 -5.46606e-10 -1.05823e-15
  27 57.8559 -5.46606e-10 -2.57983e-15
  28 57.8559 -5.46606e-10 -1.26904e-15
  29 57.8559 -5.46606e-10 -8.75322e-15
  30 57.8559 -5.46606e-10 1.54311e-15
  31 57.8559 -5.46606e-10 3.61043e-15
  32 57.8559 -5.46606e-10 2.86600e-15
  33 57.8559 -5.46606e-10 -6.53707e-15
  34 57.8559 -5.46606e-10 3.01883e-15
  35 57.8559 -5.46606e-10 -3.88912e-15
  36 57.8559 -5.46606e-10 1.87478e-14
  37 57.8559 -5.46606e-10 4.54286e-15
  38 57.8559 -5.46606e-10 -3.71868e-15
  39 57.8559 -5.46606e-10 1.34989e-15
  40 57.8559 -5.46606e-10 1.07871e-14
  41 57.8559 -5.46606e-10 -6.15634e-15
  42 57.8559 -5.46606e-10 5.89983e-15
  43 57.8559 -5.46606e-10 -7.31020e-16
  44 57.8559 -5.46606e-10 -2.93510e-16
  45 57.8559 -5.46606e-10 -2.68633e-15
  46 57.8559 -5.46606e-10 -8.65188e-16
  47 57.8559 -5.46606e-10 8.32732e-15
  48 57.8559 -5.46606e-10 2.53180e-15
  49 57.8559 -5.46606e-10 1.04517e-14
  50 57.8559 -5.46606e-10 -8.36703e-16
  51 57.8559 -5.46606e-10 1.15936e-14
  52 57.8559 -5.46606e-10 -4.05659e-15
  53 57.8559 -5.46606e-10 8.30512e-15
  54 57.8559 -5.46606e-10 -8.69983e-15
  55 57.8559 -5.46606e-10 -1.85761e-15
  56 57.8559 -5.46606e-10 7.21439e-15
  57 57.8559 -5.46606e-10 -7.96275e-15
  58 57.8559 -5.46606e-10 2.79951e-15
  59 57.8559 -5.46606e-10 -5.08339e-15
  60 57.8559 -5.46606e-10 5.38846e-15
  61 57.8559 -5.46606e-10 -4.49324e-15
  62 57.8559 -5.46606e-10 5.81180e-15
  63 57.8559 -5.46606e-10 4.16851e-15
  64 57.8559 -5.46606e-10 7.88524e-15
  65 57.8559 -5.46606e-10 4.30206e-15
  66 57.8559 -5.46606e-10 -1.63800e-14
</Section>

newXOutput 5

<Section columns = "stress_xx | stress_yy | stress_xy">
  1 76.9738 -5.43878e-10 3.28257e-14
  2 76.9738 -5.44787e-10 -6.37389e-14
  3 76.9738 -5.42968e-10 7.45295e-14
  4 76.9738 -5.44787e-10 4.79908e-15
  5 76.9738 -5.42968e-10 -7.81856e-15
  6 76.9738 -5.42968e-10 -8.49663e-14
  7 76.9738 -5.42968e-10 3.09661e-15
  8 76.9738 -5.42968e-10 6.53603e-14
  9 76.9738 -5.43878e-10 -4.90539e-14
  10 76.9738 -5.43878e-10 -5.20362e-14
  11 76.9738 -5.42968e-10 -9.39656e-14
  12 76.9738 -5.44181e-10 -1.73089e-13
  13 76.9738 -5.44787e-10 -2.28840e-13
  14 76.9738 -5.44181e-10 6.65290e-14
  15 76.9738 -5.42968e-10 2.44385e-14
  16 76.9738 -5.42968e-10 3.09430e-14
  17 76.9738 -5.42968e-10 1.59000e-13
  18 76.9738 -5.42968e-10 2.47880e-13
  19 76.9738 -5.43423e-10 -1.65560e-13
  20 76.9738 -5.42968e-10 -4.24086e-13
  21 76.9738 -5.43423e-10 3.14084e-14
  22 76.9738 -5.44787e-10 3.45712e-13
  23 76.9738 -5.44787e-10 1.46247e-13
  24 76.9738 -5.44787e-10 6.50128e-14
  25 76.9738 -5.44787e-10 3.12283e-14
  26 76.9738 -5.44787e-10 6.73576e-14
  27 76.9738 -5.44787e-10 8.61780e-14
  28 76.9738 -5.44787e-10 -3.12630e-14
  29 76.9738 -5.44787e-10 -1.95730e-14
  30 76.9738 -5.44060e-10 -1.82543e-15
  31 76.9738 -5.43423e-10 -1.18917e-13
  32 76.9738 -5.42968e-10 4.14050e-14
  33 76.9738 -5.43696e-10 1.41499e-14
  34 76.9738 -5.44787e-10 6.96215e-14
  35 76.9738 -5.44787e-10 -4.87439e-14
  36 76.9738 -5.42968e-10 1.84598e-14
  37 76.9738 -5.42968e-10 1.19872e-13
  38 76.9738 -5.42968e-10 -1.31472e-13
  39 76.9738 -5.44484e-10 6.73345e-14
  40 76.9738 -5.43575e-10 2.59110e-14
  41 76.9738 -5.42968e-10 -6.90020e-14
  42 76.9738 -5.43878e-10 1.02104e-14
  43 76.9738 -5.43423e-10 -6.03796e-14
  44 76.9738 -5.43878e-10 -1.60280e-13
  45 76.9738 -5.44787e-10 1.18720e-13
  46 76.9738 -5.43696e-10 -5.81131e-14
  47 76.9738 -5.43488e-10 2.34966e-14
  48 76.9738 -5.44060e-10 1.62796e-14
  49 76.9738 -5.43423e-10 -1.01208e-14
  50 76.9738 -5.44787e-10 6.74002e-15
  51 76.9738 -5.42968e-10 1.41600e-13
  52 76.9738 -5.43878e-10 -5.77270e-14
  53 76.9738 -5.43575e-10 1.59210e-13
  54 76.9738 -5.42968e-10 -2.30202e-13
  55 76.9738 -5.44181e-10 -4.22466e-14
  56 76.9738 -5.42968e-10 6.69364e-14
  57 76.9738 -5.44787e-10 1.64867e-14
  58 76.9738 -5.44787e-10 7.28347e-14
  59 76.9738 -5.44787e-10 -8.97646e-14
  60 76.9738 -5.42968e-10 -1.82366e-13
  61 76.9738 -5.44424e-10 -2.27792e-14
  62 76.9738 -5.44787e-10 7.30639e-14
  63 76.9738 -5.43696e-10 -5.84836e-14
  64 76.9738 -5.42968e-10 1.50939e-13
  65 76.9738 -5.43332e-10 -7.44434e-14
  66 76.9738 -5.42968e-10 -1.76649e-13
</Section>

newXOutput 6

<Section columns = "stress_xx | stress_yy | stress_xy">
  1 96.0088 -5.42059e-10 2.83413e-14
  2 96.0088 -5.41604e-10 -1.03769e-13
  3 96.0088 -5.41149e-10 1.36256e-13
  4 96.0088 -5.42059e-10 -2.97367e-14
  5 96.0088 -5.42059e-10 -3.12938e-15
  6 96.0088 -5.41756e-10 5.64749e-14
  7 96.0088 -5.41149e-10 -9.35989e-14
  8 96.0088 -5.41149e-10 5.22687e-15
  9 96.0088 -5.41149e-10 6.12683e-15
  10 96.0088 -5.41149e-10 -7.29151e-14
  11 96.0088 -5.41149e-10 -1.15592e-14
  12 96.0088 -5.41453e-10 1.68407e-13
  13 96.0088 -5.42059e-10 -1.37433e-14
  14 96.0088 -5.41756e-10 4.84367e-14
  15 96.0088 -5.42059e-10 1.48779e-13
  16 96.0088 -5.41453e-10 -1.86777e-15
  17 96.0088 -5.41149e-10 1.50975e-13
  18 96.0088 -5.41149e-10 1.22023e-13
  19 96.0088 -5.41377e-10 -1.89808e-13
  20 96.0088 -5.41149e-10 1.09438e-13
  21 96.0088 -5.41149e-10 2.67148e-13
  22 96.0088 -5.41756e-10 3.00348e-13
  23 96.0088 -5.42059e-10 1.79764e-14
  24 96.0088 -5.42059e-10 -3.19028e-14
  25 96.0088 -5.42059e-10 -2.40866e-14
  26 96.0088 -5.42059e-10 3.18861e-14
  27 96.0088 -5.42059e-10 6.41288e-14
  28 96.0088 -5.42059e-10 1.16920e-14
  29 96.0088 -5.42059e-10 8.55299e-14
  30 96.0088 -5.41331e-10 -6.22765e-14
  31 96.0088 -5.41263e-10 -7.05073e-14
  32 96.0088 -5.41149e-10 -2.67143e-14
  33 96.0088 -5.41513e-10 7.94280e-14
  34 96.0088 -5.41877e-10 -3.25879e-14
  35 96.0088 -5.41877e-10 2.80691e-14
  36 96.0088 -5.41149e-10 -1.51508e-13
  37 96.0088 -5.41149e-10 7.01276e-14
  38 96.0088 -5.41149e-10 -1.81392e-13
  39 96.0088 -5.41907e-10 6.68950e-14
  40 96.0088 -5.41149e-10 -4.11024e-14
  41 96.0088 -5.41149e-10 4.12437e-14
  42 96.0088 -5.41453e-10 -1.32584e-13
  43 96.0088 -5.41149e-10 5.14606e-14
  44 96.0088 -5.41718e-10 -7.85599e-15
  45 96.0088 -5.42059e-10 1.58426e-14
  46 96.0088 -5.41149e-10 -1.42699e-13
  47 96.0088 -5.41409e-10 -1.02349e-13
  48 96.0088 -5.41513e-10 1.82664e-13
  49 96.0088 -5.41604e-10 -7.83639e-14
  50 96.0088 -5.41831e-10 -1.18853e-14
  51 96.0088 -5.41149e-10 4.90128e-14
  52 96.0088 -5.41604e-10 6.69211e-14
  53 96.0088 -5.41149e-10 1.14677e-13
  54 96.0088 -5.41149e-10 -7.18689e-14
  55 96.0088 -5.42059e-10 -6.90004e-14
  56 96.0088 -5.41149e-10 -4.60945e-14
  57 96.0088 -5.41907e-10 9.37647e-14
  58 96.0088 -5.42059e-10 -4.39576e-15
  59 96.0088 -5.41756e-10 3.09682e-14
  60 96.0088 -5.41149e-10 -2.89624e-13
  61 96.0088 -5.41695e-10 1.61698e-13
  62 96.0088 -5.42059e-10 -3.51607e-14
  63 96.0088 -5.42059e-10 3.92027e-14
  64 96.0088 -5.41149e-10 9.28231e-14
  65 96.0088 -5.41149e-10 -8.88471e-14
  66 96.0088 -5.41149e-10 3.00520e-14
</Section>

newXOutput 7

<Section columns = "stress_xx | stress_yy | stress_xy">
  1 114.961 -5.42059e-10 4.83257e-14
  2 114.961 -5.42514e-10 -4.99637e-14
  3 114.961 -5.42968e-10 -4.02515e-14
  4 114.961 -5.42059e-10 -1.04321e-13
  5 114.961 -5.42059e-10 5.93352e-14
  6 114.961 -5.42059e-10 1.75625e-13
  7 114.961 -5.42362e-10 1.55659e-13
  8 114.961 -5.43575e-10 -3.73185e-13
  9 114.961 -5.42741e-10 9.54501e-14
  10 114.961 -5.43423e-10 -3.13052e-13
  11 114.961 -5.43423e-10 -1.89082e-13
  12 114.961 -5.42968e-10 -4.69640e-13
  13 114.961 -5.42968e-10 -1.25657e-13
  14 114.961 -5.43272e-10 -3.94087e-15
  15 114.961 -5.42059e-10 2.30207e-14
  16 114.961 -5.42665e-10 2.01406e-14
  17 114.961 -5.42968e-10 -3.49464e-14
  18 114.961 -5.42362e-10 -7.68564e-14
  19 114.961 -5.41377e-10 -1.67340e-13
  20 114.961 -5.42665e-10 -2.01794e-13
  21 114.961 -5.42059e-10 4.74768e-13
  22 114.961 -5.41756e-10 1.74218e-14
  23 114.961 -5.42059e-10 -6.21871e-15
  24 114.961 -5.42059e-10 -5.29547e-14
  25 114.961 -5.42059e-10 -6.79422e-14
  26 114.961 -5.42059e-10 -7.51344e-14
  27 114.961 -5.42059e-10 1.99512e-13
  28 114.961 -5.42059e-10 1.25186e-13
  29 114.961 -5.42059e-10 -1.45193e-13
  30 114.961 -5.42423e-10 3.66402e-13
  31 114.961 -5.41718e-10 -9.10884e-14
  32 114.961 -5.41149e-10 1.22433e-13
  33 114.961 -5.42241e-10 7.40779e-14
  34 114.961 -5.42059e-10 1.25612e-14
  35 114.961 -5.42059e-10 -2.23449e-14
  36 114.961 -5.43696e-10 9.00217e-14
  37 114.961 -5.42817e-10 -1.31071e-13
  38 114.961 -5.42817e-10 6.12164e-14
  39 114.961 -5.42059e-10 -1.33318e-13
  40 114.961 -5.42362e-10 1.09612e-13
  41 114.961 -5.41604e-10 1.38422e-14
  42 114.961 -5.41301e-10 1.17907e-13
  43 114.961 -5.41831e-10 1.12368e-13
  44 114.961 -5.42514e-10 1.64237e-15
  45 114.961 -5.42059e-10 1.49597e-14
  46 114.961 -5.42786e-10 6.33224e-14
  47 114.961 -5.42838e-10 -1.34326e-14
  48 114.961 -5.41695e-10 -4.56162e-14
  49 114.961 -5.43196e-10 -2.43707e-14
  50 114.961 -5.42059e-10 6.61554e-15
  51 114.961 -5.41756e-10 -1.48853e-13
  52 114.961 -5.42514e-10 -7.89677e-15
  53 114.961 -5.41149e-10 3.38354e-13
  54 114.961 -5.41149e-10 -2.15976e-13
  55 114.961 -5.42059e-10 5.17315e-14
  56 114.961 -5.42968e-10 3.07671e-14
  57 114.961 -5.43120e-10 2.97064e-14
  58 114.961 -5.42059e-10 -1.18366e-13
  59 114.961 -5.42059e-10 -5.62858e-14
  60 114.961 -5.43272e-10 1.20991e-13
  61 114.961 -5.42605e-10 -1.55377e-14
  62 114.961 -5.42059e-10 -3.93438e-14
  63 114.961 -5.41877e-10 9.70091e-14
  64 114.961 -5.42968e-10 6.45815e-15
  65 114.961 -5.43696e-10 2.12544e-15
  66 114.961 -5.41695e-10 8.07076e-15
</Section>

newXOutput 8

<Section columns = "stress_xx | stress_yy | stress_xy">
  1 133.832 -5.38421e-10 4.22559e-14
  2 133.832 -5.37057e-10 -1.99871e-13
  3 133.832 -5.35692e-10 1.29824e-13
  4 133.832 -5.38421e-10 2.00654e-14
  5 133.832 -5.36602e-10 1.62151e-13
  6 133.832 -5.35692e-10 -1.26501e-13
  7 133.832 -5.35692e-10 -8.21910e-14
  8 133.832 -5.35692e-10 -9.59839e-14
  9 133.832 -5.36375e-10 -5.44787e-14
  10 133.832 -5.38421e-10 -9.73757e-14
  11 133.832 -5.38421e-10 -4.36422e-14
  12 133.832 -5.38421e-10 -4.86847e-14
  13 133.832 -5.38421e-10 -1.21342e-13
  14 133.832 -5.36602e-10 5.47210e-14
  15 133.832 -5.35692e-10 1.09675e-13
  16 133.832 -5.35692e-10 5.00859e-14
  17 133.832 -5.35692e-10 2.66813e-13
  18 133.832 -5.37511e-10 2.50278e-13
  19 133.832 -5.38421e-10 -3.17318e-14
  20 133.832 -5.38421e-10 -1.39043e-13
  21 133.832 -5.38421e-10 -1.75663e-15
  22 133.832 -5.38724e-10 -4.26851e-14
  23 133.832 -5.38724e-10 9.29776e-15
  24 133.832 -5.38421e-10 -1.54076e-14
  25 133.832 -5.38421e-10 1.03764e-15
  26 133.832 -5.38421e-10 -2.00559e-14
  27 133.832 -5.38421e-10 6.63152e-14
  28 133.832 -5.38421e-10 -7.71485e-17
  29 133.832 -5.38421e-10 1.52539e-13
  30 133.832 -5.38421e-10 -7.88653e-14
  31 133.832 -5.38080e-10 1.19124e-14
  32 133.832 -5.38421e-10 2.85862e-14
  33 133.832 -5.38421e-10 1.21873e-13
  34 133.832 -5.38421e-10 -2.31101e-15
  35 133.832 -5.38421e-10 1.72919e-15
  36 133.832 -5.36238e-10 -3.43342e-14
  37 133.832 -5.38421e-10 -1.37887e-15
  38 133.832 -5.36602e-10 -5.26683e-14
  39 133.832 -5.38572e-10 -2.58360e-14
  40 133.832 -5.37511e-10 5.73570e-14
  41 133.832 -5.38421e-10 1.44813e-14
  42 133.832 -5.38421e-10 -7.68597e-14
  43 133.832 -5.38421e-10 3.29937e-14
  44 133.832 -5.37398e-10 -1.94974e-14
  45 133.832 -5.38421e-10 2.10081e-14
  46 133.832 -5.36784e-10 -1.23029e-14
  47 133.832 -5.38031e-10 -5.52468e-14
  48 133.832 -5.38421e-10 -3.20386e-14
  49 133.832 -5.36716e-10 1.30741e-14
  50 133.832 -5.38421e-10 -6.11794e-15
  51 133.832 -5.38421e-10 4.31171e-14
  52 133.832 -5.37966e-10 4.15284e-14
  53 133.832 -5.38421e-10 7.33792e-14
  54 133.832 -5.38421e-10 -1.39864e-13
  55 133.832 -5.37966e-10 4.67013e-14
  56 133.832 -5.35692e-10 8.48209e-14
  57 133.832 -5.37966e-10 -6.70434e-15
  58 133.832 -5.38421e-10 -3.48779e-14
  59 133.832 -5.38421e-10 3.38176e-14
  60 133.832 -5.37966e-10 -1.09622e-13
  61 133.832 -5.38421e-10 4.13700e-14
  62 133.832 -5.38421e-10 -1.19643e-14
  63 133.832 -5.36784e-10 1.75937e-14
  64 133.832 -5.36238e-10 2.25881e-13
  65 133.832 -5.37875e-10 -9.24357e-15
  66 133.832 -5.38421e-10 -1.18770e-13
</Section>

newXOutput 9

<Section columns = "stress_xx | stress_yy | stress_xy">
  1 152.621 -5.34783e-10 5.11967e-14
  2 152.621 -5.34783e-10 -2.59611e-14
  3 152.621 -5.34783e-10 5.29023e-14
  4 152.621 -5.34783e-10 3.75782e-14
  5 152.621 -5.34783e-10 1.19349e-14
  6 152.621 -5.34783e-10 -7.04168e-14
  7 152.621 -5.34783e-10 4.53212e-14
  8 152.621 -5.34783e-10 -2.51449e-14
  9 152.621 -5.34783e-10 5.06690e-14
  10 152.621 -5.34783e-10 2.59611e-14
  11 152.621 -5.34783e-10 -6.00799e-14
  12 152.621 -5.34783e-10 -1.00165e-13
  13 152.621 -5.34783e-10 -3.87094e-14
  14 152.621 -5.34783e-10 3.59586e-14
  15 152.621 -5.34783e-10 -1.50057e-13
  16 152.621 -5.34783e-10 -4.06935e-14
  17 152.621 -5.34783e-10 9.22967e-14
  18 152.621 -5.34783e-10 1.37245e-13
  19 152.621 -5.34783e-10 -9.80361e-14
  20 152.621 -5.34783e-10 -8.37452e-14
  21 152.621 -5.34783e-10 6.24724e-14
  22 152.621 -5.34783e-10 3.77153e-14
  23 152.621 -5.34783e-10 -4.39628e-14
  24 152.621 -5.34783e-10 -1.03580e-14
  25 152.621 -5.34783e-10 1.91948e-14
  26 152.621 -5.34783e-10 -1.33146e-15
  27 152.621 -5.34783e-10 2.79768e-14
  28 152.621 -5.34783e-10 -2.26201e-14
  29 152.621 -5.34783e-10 3.49669e-14
  30 152.621 -5.34783e-10 7.29391e-14
  31 152.621 -5.34783e-10 -2.52591e-14
  32 152.621 -5.34783e-10 2.47818e-14
  33 152.621 -5.34783e-10 -2.43485e-14
  34 152.621 -5.34783e-10 2.23482e-14
  35 152.621 -5.34783e-10 -7.44911e-15
  36 152.621 -5.34783e-10 -2.43897e-14
  37 152.621 -5.34783e-10 -3.44886e-14
  38 152.621 -5.34783e-10 8.61791e-15
  39 152.621 -5.34783e-10 -9.62458e-15
  40 152.621 -5.34783e-10 1.09890e-14
  41 152.621 -5.34783e-10 1.83989e-14
  42 152.621 -5.34783e-10 -2.19548e-14
  43 152.621 -5.34783e-10 8.01167e-15
  44 152.621 -5.34783e-10 2.37616e-14
  45 152.621 -5.34783e-10 -2.55490e-14
  46 152.621 -5.34783e-10 -1.23089e-14
  47 152.621 -5.34783e-10 -1.44137e-14
  48 152.621 -5.34783e-10 3.20332e-14
  49 152.621 -5.34783e-10 -2.60693e-14
  50 152.621 -5.34783e-10 4.36761e-15
  51 152.621 -5.34783e-10 -2.17868e-15
  52 152.621 -5.34783e-10 1.19601e-14
  53 152.621 -5.34783e-10 7.39870e-14
  54 152.621 -5.34783e-10 -7.71200e-14
  55 152.621 -5.34783e-10 2.81642e-15
  56 152.621 -5.34783e-10 3.13745e-14
  57 152.621 -5.34783e-10 1.41045e-14
  58 152.621 -5.34783e-10 -2.60075e-15
  59 152.621 -5.34783e-10 2.69695e-14
  60 152.621 -5.34783e-10 -1.64895e-14
  61 152.621 -5.34783e-10 -5.51704e-14
  62 152.621 -5.34783e-10 4.28032e-15
  63 152.621 -5.34783e-10 -6.02254e-14
  64 152.621 -5.34783e-10 9.84075e-14
  65 152.621 -5.34783e-10 -2.01114e-14
  66 152.621 -5.34783e-10 1.77033e-15
</Section>

newXOutput 10

<Section columns = "stress_xx | stress_yy | stress_xy">
  1 171.329 -5.35692e-10 6.59395e-14
  2 171.329 -5.36602e-10 8.11563e-14
  3 171.329 -5.35692e-10 3.35850e-14
  4 171.329 -5.36602e-10 7.53364e-15
  5 171.329 -5.35996e-10 5.69430e-14
  6 171.329 -5.34783e-10 -3.27525e-14
  7 171.329 -5.34783e-10 6.86435e-14
  8 171.329 -5.35996e-10 -8.39192e-14
  9 171.329 -5.35238e-10 2.52332e-14
  10 171.329 -5.34783e-10 1.09222e-13
  11 171.329 -5.36147e-10 2.75175e-14
  12 171.329 -5.36602e-10 -2.22502e-13
  13 171.329 -5.35996e-10 -5.05253e-14
  14 171.329 -5.35996e-10 -8.07616e-14
  15 171.329 -5.34783e-10 -1.11590e-13
  16 171.329 -5.35389e-10 5.07227e-15
  17 171.329 -5.35389e-10 5.27748e-14
  18 171.329 -5.35389e-10 1.05376e-13
  19 171.329 -5.36602e-10 8.26487e-14
  20 171.329 -5.36602e-10 -2.39307e-13
  21 171.329 -5.36602e-10 -7.38328e-14
  22 171.329 -5.36602e-10 1.47748e-13
  23 171.329 -5.36602e-10 -1.49343e-13
  24 171.329 -5.35996e-10 4.64694e-14
  25 171.329 -5.35389e-10 -3.76096e-14
  26 171.329 -5.35389e-10 -1.30507e-14
  27 171.329 -5.34783e-10 1.52168e-14
  28 171.329 -5.34783e-10 4.67756e-15
  29 171.329 -5.35692e-10 1.69717e-13
  30 171.329 -5.35874e-10 -8.07003e-14
  31 171.329 -5.35238e-10 -3.00201e-14
  32 171.329 -5.35996e-10 -8.85673e-14
  33 171.329 -5.35874e-10 3.63052e-14
  34 171.329 -5.35510e-10 -3.35267e-14
  35 171.329 -5.35510e-10 -2.10044e-14
  36 171.329 -5.35874e-10 1.90563e-15
  37 171.329 -5.36602e-10 3.84231e-14
  38 171.329 -5.35086e-10 -6.37204e-14
  39 171.329 -5.36299e-10 1.73641e-14
  40 171.329 -5.35692e-10 1.05334e-13
  41 171.329 -5.35692e-10 -7.39789e-14
  42 171.329 -5.36299e-10 -8.54415e-14
  43 171.329 -5.36375e-10 -8.37079e-14
  44 171.329 -5.35010e-10 3.11632e-15
  45 171.329 -5.36375e-10 2.08523e-14
  46 171.329 -5.35510e-10 -2.09165e-14
  47 171.329 -5.35562e-10 4.65478e-14
  48 171.329 -5.35874e-10 1.52370e-13
  49 171.329 -5.35920e-10 -1.51428e-14
  50 171.329 -5.35010e-10 -2.15913e-14
  51 171.329 -5.35692e-10 -3.53136e-14
  52 171.329 -5.35692e-10 -6.17559e-14
  53 171.329 -5.36299e-10 -9.33509e-14
  54 171.329 -5.36602e-10 -1.80615e-13
  55 171.329 -5.35389e-10 8.44951e-14
  56 171.329 -5.35996e-10 2.49884e-14
  57 171.329 -5.35996e-10 4.36323e-14
  58 171.329 -5.35692e-10 -6.54473e-14
  59 171.329 -5.35692e-10 2.58188e-14
  60 171.329 -5.35692e-10 3.60409e-14
  61 171.329 -5.35510e-10 -9.80843e-14
  62 171.329 -5.35874e-10 -6.13630e-15
  63 171.329 -5.35147e-10 -9.40678e-15
  64 171.329 -5.35510e-10 7.03348e-15
  65 171.329 -5.35510e-10 1.35700e-13
  66 171.329 -5.36602e-10 -2.40418e-13
</Section>

newXOutput 11

<Section columns = "stress_xx | stress_yy | stress_xy">
  1 189.956 -5.32964e-10 1.15922e-13
  2 189.956 -5.32509e-10 -7.01545e-14
  3 189.956 -5.32964e-10 -8.43927e-14
  4 189.956 -5.33873e-10 2.48081e-13
  5 189.956 -5.32964e-10 -1.96301e-13
  6 189.956 -5.32964e-10 -2.58527e-13
  7 189.956 -5.32964e-10 -8.13273e-14
  8 189.956 -5.32964e-10 9.79867e-14
  9 189.956 -5.32964e-10 9.21633e-14
  10 189.956 -5.32964e-10 2.21235e-13
  11 189.956 -5.32964e-10 -3.60877e-15
  12 189.956 -5.32964e-10 -3.38415e-13
  13 189.956 -5.32358e-10 -2.97605e-13
  14 189.956 -5.32964e-10 6.91884e-14
  15 189.956 -5.32964e-10 -3.54053e-14
  16 189.956 -5.32964e-10 -3.58587e-14
  17 189.956 -5.32661e-10 5.05721e-15
  18 189.956 -5.32661e-10 3.55197e-13
  19 189.956 -5.32737e-10 8.97706e-14
  20 189.956 -5.32964e-10 4.11066e-13
  21 189.956 -5.33873e-10 -2.03344e-13
  22 189.956 -5.32964e-10 -2.27385e-13
  23 189.956 -5.33570e-10 1.77364e-13
  24 189.956 -5.32358e-10 7.71520e-14
  25 189.956 -5.32358e-10 2.08935e-13
  26 189.956 -5.33570e-10 -1.63922e-13
  27 189.956 -5.32964e-10 -3.54053e-14
  28 189.956 -5.32964e-10 -1.11934e-14
  29 189.956 -5.32964e-10 -1.22143e-13
  30 189.956 -5.32964e-10 1.35942e-13
  31 189.956 -5.32964e-10 7.23388e-14
  32 189.956 -5.33722e-10 1.22587e-14
  33 189.956 -5.32782e-10 2.63432e-13
  34 189.956 -5.33691e-10 3.04538e-14
  35 189.956 -5.32964e-10 1.05752e-14
  36 189.956 -5.32418e-10 -2.30859e-13
  37 189.956 -5.32964e-10 -1.44260e-13
  38 189.956 -5.32964e-10 1.38545e-14
  39 189.956 -5.33267e-10 3.65401e-14
  40 189.956 -5.32964e-10 7.63483e-15
  41 189.956 -5.33873e-10 -4.13123e-14
  42 189.956 -5.32964e-10 -8.52881e-15
  43 189.956 -5.32964e-10 5.26680e-14
  44 189.956 -5.32964e-10 -8.55613e-14
  45 189.956 -5.33419e-10 -5.49658e-14
  46 189.956 -5.32964e-10 9.08291e-14
  47 189.956 -5.32574e-10 -5.75918e-14
  48 189.956 -5.33328e-10 -2.05760e-13
  49 189.956 -5.32850e-10 1.91464e-15
  50 189.956 -5.32964e-10 2.05982e-14
  51 189.956 -5.32964e-10 -1.02843e-13
  52 189.956 -5.32964e-10 -2.83600e-14
  53 189.956 -5.32964e-10 3.63475e-14
  54 189.956 -5.33328e-10 1.32341e-13
  55 189.956 -5.32964e-10 -6.60827e-15
  56 189.956 -5.32661e-10 -1.04071e-13
  57 189.956 -5.32509e-10 7.24874e-14
  58 189.956 -5.33570e-10 5.30345e-14
  59 189.956 -5.32964e-10 -9.51179e-14
  60 189.956 -5.32812e-10 -7.41897e-14
  61 189.956 -5.32600e-10 -4.97862e-14
  62 189.956 -5.33328e-10 8.36783e-15
  63 189.956 -5.32964e-10 -1.45952e-13
  64 189.956 -5.32418e-10 5.43437e-14
  65 189.956 -5.32964e-10 1.93286e-13
  66 189.956 -5.34055e-10 9.99228e-14
</Section>

newXOutput 12

<Section columns = "stress_xx | stress_yy | stress_xy">
  1 208.503 -5.27507e-10 9.14147e-14
  2 208.503 -5.31145e-10 -4.32283e-14
  3 208.503 -5.29781e-10 1.30477e-13
  4 208.503 -5.29781e-10 -1.06265e-14
  5 208.503 -5.28416e-10 -6.52054e-14
  6 208.503 -5.30235e-10 -1.17744e-13
  7 208.503 -5.29932e-10 7.40298e-14
  8 208.503 -5.30842e-10 -1.41461e-13
  9 208.503 -5.30008e-10 1.72200e-13
  10 208.503 -5.28416e-10 3.60971e-13
  11 208.503 -5.28416e-10 -1.13492e-14
  12 208.503 -5.29932e-10 -1.92262e-15
  13 208.503 -5.30842e-10 -1.03991e-13
  14 208.503 -5.31145e-10 -1.63321e-14
  15 208.503 -5.31145e-10 -1.46264e-13
  16 208.503 -5.30235e-10 8.55594e-14
  17 208.503 -5.31145e-10 -1.62615e-14
  18 208.503 -5.31145e-10 7.73979e-14
  19 208.503 -5.31145e-10 -1.71331e-13
  20 208.503 -5.30842e-10 -3.20792e-13
  21 208.503 -5.31145e-10 -1.44510e-13
  22 208.503 -5.30235e-10 1.52684e-13
  23 208.503 -5.29023e-10 1.40878e-13
  24 208.503 -5.29023e-10 8.79872e-14
  25 208.503 -5.28416e-10 -1.53622e-14
  26 208.503 -5.30235e-10 -2.80397e-14
  27 208.503 -5.29781e-10 4.03488e-14
  28 208.503 -5.29326e-10 -8.94591e-15
  29 208.503 -5.31145e-10 -6.99195e-14
  30 208.503 -5.31145e-10 1.16674e-13
  31 208.503 -5.30918e-10 9.67241e-15
  32 208.503 -5.29477e-10 1.48784e-13
  33 208.503 -5.29690e-10 -1.87710e-14
  34 208.503 -5.30054e-10 5.78120e-14
  35 208.503 -5.31145e-10 -5.15070e-14
  36 208.503 -5.31145e-10 9.57933e-15
  37 208.503 -5.30235e-10 -8.85029e-14
  38 208.503 -5.29932e-10 7.30467e-15
  39 208.503 -5.30235e-10 4.38870e-14
  40 208.503 -5.30842e-10 1.11438e-13
  41 208.503 -5.30539e-10 -9.56407e-14
  42 208.503 -5.30690e-10 1.14484e-13
  43 208.503 -5.29894e-10 -2.01087e-14
  44 208.503 -5.30463e-10 -9.52417e-14
  45 208.503 -5.30008e-10 9.80933e-14
  46 208.503 -5.30781e-10 6.88791e-14
  47 208.503 -5.31145e-10 7.70370e-14
  48 208.503 -5.30963e-10 -6.64529e-14
  49 208.503 -5.31145e-10 7.58611e-15
  50 208.503 -5.30690e-10 9.11957e-15
  51 208.503 -5.31145e-10 2.54345e-14
  52 208.503 -5.30690e-10 -9.96806e-14
  53 208.503 -5.31145e-10 1.37466e-13
  54 208.503 -5.29508e-10 -1.00035e-13
  55 208.503 -5.29326e-10 -6.15416e-15
  56 208.503 -5.30690e-10 -2.49284e-14
  57 208.503 -5.30690e-10 -6.24136e-14
  58 208.503 -5.29781e-10 -5.87885e-14
  59 208.503 -5.31145e-10 5.19787e-14
  60 208.503 -5.31145e-10 3.45146e-14
  61 208.503 -5.29508e-10 -3.64952e-14
  62 208.503 -5.28416e-10 -2.41795e-15
  63 208.503 -5.30054e-10 -8.86859e-14
  64 208.503 -5.31145e-10 -8.69517e-14
  65 208.503 -5.29326e-10 9.48170e-14
  66 208.503 -5.29508e-10 -8.33255e-14
</Section>

newXOutput 13

<Section columns = "stress_xx | stress_yy | stress_xy">
  1 226.970 -5.31145e-10 6.89422e-14
  2 226.970 -5.32054e-10 9.20949e-14
  3 226.970 -5.31145e-10 -3.29036e-14
  4 226.970 -5.32054e-10 -4.59134e-14
  5 226.970 -5.31751e-10 6.49243e-15
  6 226.970 -5.31751e-10 -8.49083e-14
  7 226.970 -5.31145e-10 -1.49895e-13
  8 226.970 -5.31751e-10 -1.52571e-13
  9 226.970 -5.31827e-10 3.44890e-14
  10 226.970 -5.31600e-10 -1.41605e-13
  11 226.970 -5.31145e-10 -1.33505e-13
  12 226.970 -5.31448e-10 -1.28015e-13
  13 226.970 -5.31448e-10 -6.58353e-14
  14 226.970 -5.31751e-10 -7.51107e-14
  15 226.970 -5.31145e-10 2.36379e-13
  16 226.970 -5.29932e-10 3.59406e-14
  17 226.970 -5.31145e-10 2.92210e-13
  18 226.970 -5.31751e-10 -2.93607e-13
  19 226.970 -5.31372e-10 -2.15859e-13
  20 226.970 -5.31145e-10 6.45198e-14
  21 226.970 -5.31372e-10 1.29297e-13
  22 226.970 -5.31751e-10 4.81361e-13
  23 226.970 -5.30539e-10 -2.43428e-13
  24 226.970 -5.31751e-10 -5.25095e-13
  25 226.970 -5.32054e-10 -1.05925e-13
  26 226.970 -5.32054e-10 1.37544e-13
  27 226.970 -5.32054e-10 2.61526e-13
  28 226.970 -5.31448e-10 -5.49933e-14
  29 226.970 -5.30690e-10 5.40436e-13
  30 226.970 -5.31509e-10 1.24589e-13
  31 226.970 -5.31600e-10 -1.20583e-13
  32 226.970 -5.31296e-10 1.71730e-14
  33 226.970 -5.31145e-10 -2.22821e-13
  34 226.970 -5.31327e-10 -1.71087e-13
  35 226.970 -5.31873e-10 1.93545e-13
  36 226.970 -5.30781e-10 8.33057e-14
  37 226.970 -5.31448e-10 2.20221e-13
  38 226.970 -5.31600e-10 -1.97043e-13
  39 226.970 -5.31448e-10 1.83119e-13
  40 226.970 -5.31600e-10 -6.53910e-14
  41 226.970 -5.31296e-10 6.68752e-15
  42 226.970 -5.31145e-10 -6.00475e-14
  43 226.970 -5.31372e-10 9.87125e-14
  44 226.970 -5.31713e-10 1.76760e-13
  45 226.970 -5.30690e-10 -1.37429e-13
  46 226.970 -5.31691e-10 -2.94550e-13
  47 226.970 -5.31665e-10 -7.88877e-14
  48 226.970 -5.31691e-10 3.38721e-13
  49 226.970 -5.30463e-10 -2.99676e-14
  50 226.970 -5.31600e-10 -1.53706e-15
  51 226.970 -5.31296e-10 -1.63481e-14
  52 226.970 -5.31448e-10 2.48895e-13
  53 226.970 -5.31145e-10 1.81567e-13
  54 226.970 -5.31145e-10 3.37426e-14
  55 226.970 -5.31600e-10 -4.59997e-14
  56 226.970 -5.30690e-10 3.03383e-16
  57 226.970 -5.31600e-10 -6.22866e-14
  58 226.970 -5.31903e-10 -3.29502e-14
  59 226.970 -5.31145e-10 2.26554e-13
  60 226.970 -5.30842e-10 1.68704e-13
  61 226.970 -5.31327e-10 1.13337e-15
  62 226.970 -5.31873e-10 -3.08025e-13
  63 226.970 -5.32054e-10 8.59068e-14
  64 226.970 -5.31509e-10 -1.89374e-13
  65 226.970 -5.31691e-10 4.33102e-14
  66 226.970 -5.31327e-10 1.04375e-13
</Section>

newXOutput 14

<Section columns = "stress_xx | stress_yy | stress_xy">
  1 245.358 -5.28871e-10 2.24327e-13
  2 245.358 -5.29326e-10 -2.95957e-13
  3 245.358 -5.28416e-10 1.06245e-13
  4 245.358 -5.29326e-10 -1.82889e-13
  5 245.358 -5.29023e-10 3.38942e-13
  6 245.358 -5.29023e-10 -2.18748e-13
  7 245.358 -5.29023e-10 -1.49551e-13
  8 245.358 -5.29326e-10 1.40565e-13
  9 245.358 -5.28871e-10 1.82736e-13
  10 245.358 -5.29781e-10 -3.56266e-13
  11 245.358 -5.29326e-10 -3.64388e-14
  12 245.358 -5.29629e-10 -3.28870e-13
  13 245.358 -5.30842e-10 -5.25892e-13
  14 245.358 -5.28416e-10 1.24836e-13
  15 245.358 -5.28416e-10 6.51970e-14
  16 245.358 -5.28416e-10 8.24574e-14
  17 245.358 -5.28720e-10 5.28838e-14
  18 245.358 -5.29023e-10 -2.55957e-13
  19 245.358 -5.28644e-10 2.58949e-14
  20 245.358 -5.28416e-10 2.25563e-13
  21 245.358 -5.28871e-10 4.14246e-14
  22 245.358 -5.29326e-10 -2.65396e-14
  23 245.358 -5.29023e-10 1.97732e-13
  24 245.358 -5.29023e-10 -8.43146e-14
  25 245.358 -5.29326e-10 -1.92988e-13
  26 245.358 -5.30235e-10 -1.92854e-13
  27 245.358 -5.29326e-10 2.30697e-13
  28 245.358 -5.28416e-10 1.46215e-13
  29 245.358 -5.29326e-10 1.20438e-13
  30 245.358 -5.28780e-10 1.30391e-13
  31 245.358 -5.29212e-10 -1.77446e-13
  32 245.358 -5.29326e-10 5.62794e-14
  33 245.358 -5.29144e-10 2.03406e-13
  34 245.358 -5.31145e-10 -1.67489e-13
  35 245.358 -5.29326e-10 1.45324e-13
  36 245.358 -5.28962e-10 1.65669e-13
  37 245.358 -5.28871e-10 5.77811e-14
  38 245.358 -5.29023e-10 1.42199e-15
  39 245.358 -5.29326e-10 -2.56846e-14
  40 245.358 -5.29023e-10 -1.86426e-14
  41 245.358 -5.29174e-10 1.29491e-13
  42 245.358 -5.28720e-10 -8.90119e-14
  43 245.358 -5.28871e-10 1.76712e-13
  44 245.358 -5.29099e-10 1.51507e-14
  45 245.358 -5.29667e-10 2.94031e-15
  46 245.358 -5.28962e-10 1.55320e-13
  47 245.358 -5.29066e-10 -3.50775e-14
  48 245.358 -5.29326e-10 -1.86449e-13
  49 245.358 -5.28530e-10 6.65448e-14
  50 245.358 -5.29894e-10 1.47097e-14
  51 245.358 -5.29174e-10 -8.37302e-14
  52 245.358 -5.29174e-10 7.32616e-14
  53 245.358 -5.28416e-10 1.74604e-13
  54 245.358 -5.29144e-10 5.96372e-14
  55 245.358 -5.29023e-10 1.82030e-13
  56 245.358 -5.28720e-10 3.63761e-14
  57 245.358 -5.29477e-10 5.64963e-14
  58 245.358 -5.30235e-10 -2.81702e-13
  59 245.358 -5.29932e-10 5.27833e-14
  60 245.358 -5.29174e-10 4.63510e-14
  61 245.358 -5.29872e-10 -3.50404e-14
  62 245.358 -5.30054e-10 -2.15455e-13
  63 245.358 -5.29144e-10 6.00293e-14
  64 245.358 -5.29144e-10 1.96239e-14
  65 245.358 -5.29508e-10 1.22928e-14
  66 245.358 -5.28780e-10 1.48873e-13
</Section>

newXOutput 15

<Section columns = "stress_xx | stress_yy | stress_xy">
  1 263.667 -5.25688e-10 -1.31618e-13
  2 263.667 -5.27052e-10 -7.36509e-14
  3 263.667 -5.25233e-10 1.00243e-13
  4 263.667 -5.24778e-10 1.13382e-13
  5 263.667 -5.25688e-10 -2.59674e-13
  6 263.667 -5.25688e-10 -1.52076e-13
  7 263.667 -5.25688e-10 -4.27361e-14
  8 263.667 -5.25385e-10 6.12240e-14
  9 263.667 -5.25688e-10 1.06612e-13
  10 263.667 -5.25688e-10 1.97312e-13
  11 263.667 -5.26143e-10 1.40028e-13
  12 263.667 -5.25991e-10 1.06992e-13
  13 263.667 -5.25688e-10 -2.16103e-13
  14 263.667 -5.26597e-10 5.45564e-14
  15 263.667 -5.25688e-10 2.00041e-14
  16 263.667 -5.25688e-10 6.88021e-14
  17 263.667 -5.24778e-10 2.99751e-14
  18 263.667 -5.24778e-10 8.04551e-14
  19 263.667 -5.25006e-10 3.97818e-16
  20 263.667 -5.25688e-10 3.98150e-14
  21 263.667 -5.25688e-10 1.08852e-14
  22 263.667 -5.25082e-10 -4.81330e-14
  23 263.667 -5.25082e-10 8.99568e-15
  24 263.667 -5.25688e-10 5.58763e-15
  25 263.667 -5.25082e-10 5.80362e-14
  26 263.667 -5.25082e-10 5.78147e-14
  27 263.667 -5.25688e-10 -1.30027e-13
  28 263.667 -5.25991e-10 -1.22298e-13
  29 263.667 -5.25233e-10 7.62960e-14
  30 263.667 -5.25688e-10 1.20134e-14
  31 263.667 -5.25233e-10 5.54798e-15
  32 263.667 -5.25536e-10 -4.25658e-14
  33 263.667 -5.25688e-10 1.82036e-13
  34 263.667 -5.25506e-10 5.70451e-14
  35 263.667 -5.25142e-10 1.01668e-13
  36 263.667 -5.25506e-10 -2.29592e-13
  37 263.667 -5.25688e-10 -1.15857e-13
  38 263.667 -5.25536e-10 -1.24744e-14
  39 263.667 -5.24930e-10 -1.31458e-14
  40 263.667 -5.25385e-10 -6.70830e-14
  41 263.667 -5.25385e-10 4.16042e-14
  42 263.667 -5.25385e-10 -4.81921e-14
  43 263.667 -5.26029e-10 9.60564e-14
  44 263.667 -5.25233e-10 1.97282e-14
  45 263.667 -5.25461e-10 -5.88774e-15
  46 263.667 -5.25506e-10 1.06629e-13
  47 263.667 -5.25168e-10 -3.02856e-14
  48 263.667 -5.25142e-10 -4.43984e-14
  49 263.667 -5.25688e-10 -8.01320e-15
  50 263.667 -5.25574e-10 7.16051e-14
  51 263.667 -5.24930e-10 -1.38357e-13
  52 263.667 -5.25385e-10 5.80555e-15
  53 263.667 -5.25385e-10 -1.00229e-13
  54 263.667 -5.25688e-10 -3.21047e-14
  55 263.667 -5.25688e-10 -7.13404e-14
  56 263.667 -5.25385e-10 -8.13817e-14
  57 263.667 -5.26143e-10 -2.43231e-14
  58 263.667 -5.24930e-10 1.15821e-13
  59 263.667 -5.25385e-10 1.25356e-13
  60 263.667 -5.25688e-10 3.16630e-14
  61 263.667 -5.25688e-10 4.90103e-14
  62 263.667 -5.25506e-10 3.36478e-14
  63 263.667 -5.25324e-10 -2.02212e-13
  64 263.667 -5.24960e-10 -6.83946e-14
  65 263.667 -5.25688e-10 1.07112e-13
  66 263.667 -5.25688e-10 3.12839e-14
</Section>

newXOutput 16

<Section columns = "stress_xx | stress_yy | stress_xy">
  1 281.897 -5.25688e-10 2.06764e-14
  2 281.897 -5.24778e-10 -1.21630e-13
  3 281.897 -5.25688e-10 1.00506e-14
  4 281.897 -5.24778e-10 3.29875e-14
  5 281.897 -5.25385e-10 1.71251e-13
  6 281.897 -5.25082e-10 1.54714e-13
  7 281.897 -5.24778e-10 1.51658e-14
  8 281.897 -5.24778e-10 -3.98955e-14
  9 281.897 -5.24778e-10 -3.01645e-14
  10 281.897 -5.24778e-10 3.16963e-13
  11 281.897 -5.25006e-10 1.63711e-13
  12 281.897 -5.24778e-10 1.38987e-13
  13 281.897 -5.24778e-10 4.46016e-14
  14 281.897 -5.25385e-10 2.86262e-14
  15 281.897 -5.25233e-10 6.98172e-14
  16 281.897 -5.25082e-10 5.31940e-14
  17 281.897 -5.25688e-10 -6.58300e-14
  18 281.897 -5.25082e-10 -1.05902e-13
  19 281.897 -5.24778e-10 -8.16053e-14
  20 281.897 -5.25082e-10 3.63847e-15
  21 281.897 -5.25461e-10 3.97131e-14
  22 281.897 -5.24778e-10 4.52319e-15
  23 281.897 -5.24778e-10 2.36327e-14
  24 281.897 -5.24778e-10 7.31007e-14
  25 281.897 -5.24778e-10 9.30276e-14
  26 281.897 -5.24778e-10 1.97858e-14
  27 281.897 -5.24778e-10 4.48825e-14
  28 281.897 -5.25082e-10 -1.52632e-14
  29 281.897 -5.25006e-10 3.61622e-14
  30 281.897 -5.24778e-10 -9.01660e-14
  31 281.897 -5.25120e-10 3.92369e-14
  32 281.897 -5.25082e-10 -1.42457e-14
  33 281.897 -5.24960e-10 -1.61603e-13
  34 281.897 -5.24778e-10 -3.40831e-15
  35 281.897 -5.24778e-10 -1.98093e-13
  36 281.897 -5.24960e-10 1.15244e-13
  37 281.897 -5.24930e-10 -7.10560e-14
  38 281.897 -5.25082e-10 1.79432e-14
  39 281.897 -5.24930e-10 6.72056e-15
  40 281.897 -5.24778e-10 -1.17797e-13
  41 281.897 -5.25385e-10 2.16190e-15
  42 281.897 -5.24778e-10 -3.75561e-14
  43 281.897 -5.24778e-10 -5.97363e-14
  44 281.897 -5.25120e-10 -4.83175e-14
  45 281.897 -5.24778e-10 3.00479e-14
  46 281.897 -5.24778e-10 -1.16051e-14
  47 281.897 -5.24778e-10 8.00537e-15
  48 281.897 -5.25324e-10 2.91086e-14
  49 281.897 -5.25233e-10 -1.02898e-14
  50 281.897 -5.24778e-10 -3.24507e-14
  51 281.897 -5.25082e-10 5.06019e-15
  52 281.897 -5.25082e-10 6.73905e-15
  53 281.897 -5.24930e-10 -9.68921e-14
  54 281.897 -5.24778e-10 -5.00958e-14
  55 281.897 -5.25233e-10 -5.43358e-14
  56 281.897 -5.25233e-10 7.50618e-14
  57 281.897 -5.25082e-10 -6.41559e-14
  58 281.897 -5.24778e-10 4.53162e-14
  59 281.897 -5.24930e-10 -4.58317e-14
  60 281.897 -5.24930e-10 -6.59039e-14
  61 281.897 -5.24778e-10 6.83014e-14
  62 281.897 -5.24778e-10 8.20751e-14
  63 281.897 -5.25142e-10 -5.26635e-14
  64 281.897 -5.25142e-10 1.98873e-14
  65 281.897 -5.24960e-10 -4.54396e-14
  66 281.897 -5.25142e-10 4.48512e-15
</Section>

newXOutput 17

<Section columns = "stress_xx | stress_yy | stress_xy">
  1 300.049 -5.21140e-10 1.07211e-14
  2 300.049 -5.21140e-10 1.78243e-14
  3 300.049 -5.21140e-10 -3.39795e-14
  4 300.049 -5.21140e-10 2.91297e-14
  5 300.049 -5.21140e-10 -7.00515e-14
  6 300.049 -5.21140e-10 -1.00881e-13
  7 300.049 -5.21140e-10 1.09060e-13
  8 300.049 -5.21140e-10 6.87175e-14
  9 300.049 -5.21140e-10 4.30451e-14
  10 300.049 -5.21140e-10 -9.94584e-15
  11 300.049 -5.21823e-10 4.30451e-14
  12 300.049 -5.22050e-10 -9.38704e-15
  13 300.049 -5.21140e-10 2.44549e-14
  14 300.049 -5.21140e-10 1.32611e-14
  15 300.049 -5.21140e-10 -4.97292e-15
  16 300.049 -5.21140e-10 -8.28820e-15
  17 300.049 -5.21140e-10 -1.12660e-13
  18 300.049 -5.21140e-10 -9.93064e-14
  19 300.049 -5.21140e-10 2.54086e-14
  20 300.049 -5.21140e-10 6.37636e-14
  21 300.049 -5.21140e-10 -1.61690e-15
  22 300.049 -5.21140e-10 -4.95529e-14
  23 300.049 -5.21140e-10 -1.03467e-14
  24 300.049 -5.21140e-10 3.26172e-15
  25 300.049 -5.21140e-10 2.48383e-14
  26 300.049 -5.21140e-10 5.85529e-15
  27 300.049 -5.21140e-10 -4.97292e-15
  28 300.049 -5.21140e-10 -1.00320e-14
  29 300.049 -5.21140e-10 -1.42534e-14
  30 300.049 -5.21140e-10 2.42898e-14
  31 300.049 -5.21140e-10 2.43535e-14
  32 300.049 -5.21140e-10 -3.22867e-14
  33 300.049 -5.21140e-10 -2.33224e-14
  34 300.049 -5.21140e-10 1.34750e-15
  35 300.049 -5.21140e-10 1.47700e-14
  36 300.049 -5.21140e-10 4.35745e-14
  37 300.049 -5.21595e-10 1.31563e-14
  38 300.049 -5.21140e-10 1.79512e-14
  39 300.049 -5.21140e-10 2.34854e-14
  40 300.049 -5.21595e-10 3.91138e-14
  41 300.049 -5.21140e-10 -4.75030e-15
  42 300.049 -5.21140e-10 -4.25026e-14
  43 300.049 -5.21482e-10 3.02444e-14
  44 300.049 -5.21140e-10 8.68782e-16
  45 300.049 -5.21140e-10 4.01277e-16
  46 300.049 -5.21140e-10 4.15055e-14
  47 300.049 -5.21140e-10 1.13511e-14
  48 300.049 -5.21140e-10 3.63751e-15
  49 300.049 -5.21140e-10 3.40840e-14
  50 300.049 -5.21140e-10 -2.11515e-14
  51 300.049 -5.21140e-10 -4.91515e-14
  52 300.049 -5.21140e-10 -5.40067e-15
  53 300.049 -5.21140e-10 -9.18218e-15
  54 300.049 -5.21140e-10 -3.27295e-14
  55 300.049 -5.21140e-10 -4.07519e-14
  56 300.049 -5.21140e-10 -2.15470e-14
  57 300.049 -5.21140e-10 3.47453e-14
  58 300.049 -5.21140e-10 2.18484e-14
  59 300.049 -5.21140e-10 -2.68411e-14
  60 300.049 -5.21140e-10 4.97321e-14
  61 300.049 -5.21140e-10 -5.37801e-14
  62 300.049 -5.21140e-10 2.48912e-14
  63 300.049 -5.21140e-10 -4.63326e-14
  64 300.049 -5.21140e-10 -5.32362e-14
  65 300.049 -5.21686e-10 2.91726e-14
  66 300.049 -5.21140e-10 -2.51586e-14
</Section>

newXOutput 18

<Section columns = "stress_xx | stress_yy | stress_xy">
  1 318.124 -5.20231e-10 1.07728e-13
  2 318.124 -5.21595e-10 -2.47947e-13
  3 318.124 -5.22959e-10 -8.91586e-14
  4 318.124 -5.22959e-10 -8.77303e-15
  5 318.124 -5.19625e-10 1.21245e-13
  6 318.124 -5.19625e-10 -4.27363e-14
  7 318.124 -5.22050e-10 3.36661e-14
  8 318.124 -5.22050e-10 -4.51489e-14
  9 318.124 -5.19321e-10 -1.26272e-13
  10 318.124 -5.18412e-10 2.27075e-13
  11 318.124 -5.22050e-10 7.08533e-14
  12 318.124 -5.23263e-10 -1.94667e-13
  13 318.124 -5.22959e-10 -4.76789e-13
  14 318.124 -5.20231e-10 9.25671e-14
  15 318.124 -5.21595e-10 7.93432e-14
  16 318.124 -5.22959e-10 3.47126e-14
  17 318.124 -5.21140e-10 9.59548e-14
  18 318.124 -5.20231e-10 7.12962e-14
  19 318.124 -5.22277e-10 -2.51020e-14
  20 318.124 -5.22959e-10 -5.50755e-14
  21 318.124 -5.22959e-10 -3.66247e-13
  22 318.124 -5.22050e-10 -1.05349e-13
  23 318.124 -5.22959e-10 2.42920e-13
  24 318.124 -5.22959e-10 2.61082e-14
  25 318.124 -5.22959e-10 -2.62493e-14
  26 318.124 -5.22959e-10 -3.26847e-14
  27 318.124 -5.21595e-10 -3.96716e-14
  28 318.124 -5.20231e-10 4.67449e-14
  29 318.124 -5.21595e-10 9.62675e-14
  30 318.124 -5.22959e-10 -2.82842e-14
  31 318.124 -5.21595e-10 9.20574e-15
  32 318.124 -5.22050e-10 2.26519e-14
  33 318.124 -5.22414e-10 -1.61443e-13
  34 318.124 -5.22959e-10 -2.53447e-14
  35 318.124 -5.20777e-10 -3.96315e-14
  36 318.124 -5.22959e-10 1.70554e-13
  37 318.124 -5.22959e-10 -8.50316e-14
  38 318.124 -5.22050e-10 1.27863e-14
  39 318.124 -5.21595e-10 9.74257e-15
  40 318.124 -5.21747e-10 5.63905e-14
  41 318.124 -5.22050e-10 -2.79622e-14
  42 318.124 -5.22959e-10 -1.50897e-13
  43 318.124 -5.23073e-10 -3.56926e-14
  44 318.124 -5.20913e-10 -1.14903e-13
  45 318.124 -5.22959e-10 1.10345e-13
  46 318.124 -5.21504e-10 1.43356e-13
  47 318.124 -5.22180e-10 2.47499e-14
  48 318.124 -5.21322e-10 -3.66333e-13
  49 318.124 -5.21936e-10 8.78196e-14
  50 318.124 -5.21595e-10 -8.24603e-14
  51 318.124 -5.22050e-10 5.21259e-14
  52 318.124 -5.21140e-10 -2.39806e-13
  53 318.124 -5.22505e-10 -4.95985e-14
  54 318.124 -5.22959e-10 -1.03232e-13
  55 318.124 -5.20231e-10 2.09018e-13
  56 318.124 -5.22505e-10 9.87999e-14
  57 318.124 -5.21595e-10 -2.34551e-13
  58 318.124 -5.22959e-10 -6.57251e-14
  59 318.124 -5.22050e-10 -2.57549e-14
  60 318.124 -5.22959e-10 1.60150e-14
  61 318.124 -5.22959e-10 -2.33970e-13
  62 318.124 -5.22959e-10 -1.97876e-14
  63 318.124 -5.19867e-10 3.97665e-14
  64 318.124 -5.21322e-10 4.77989e-14
  65 318.124 -5.20595e-10 8.70017e-14
  66 318.124 -5.22959e-10 1.21963e-14
</Section>

newXOutput 19

<Section columns = "stress_xx | stress_yy | stress_xy">
  1 336.122 -5.20231e-10 9.89007e-15
  2 336.122 -5.21140e-10 4.94504e-14
  3 336.122 -5.21140e-10 6.23456e-14
  4 336.122 -5.21140e-10 2.34497e-14
  5 336.122 -5.21140e-10 3.33526e-14
  6 336.122 -5.21140e-10 -1.29939e-14
  7 336.122 -5.21140e-10 -2.44453e-14
  8 336.122 -5.21140e-10 3.47079e-15
  9 336.122 -5.21140e-10 -5.99470e-14
  10 336.122 -5.20231e-10 -7.68067e-14
  11 336.122 -5.19321e-10 5.38169e-14
  12 336.122 -5.19321e-10 3.26721e-13
  13 336.122 -5.20534e-10 2.33082e-13
  14 336.122 -5.19928e-10 2.13227e-14
  15 336.122 -5.20231e-10 -9.89007e-15
  16 336.122 -5.21140e-10 -2.46194e-14
  17 336.122 -5.21140e-10 4.84589e-14
  18 336.122 -5.21140e-10 4.43429e-14
  19 336.122 -5.20686e-10 -1.59937e-14
  20 336.122 -5.20534e-10 1.58112e-13
  21 336.122 -5.21140e-10 9.68978e-14
  22 336.122 -5.21140e-10 6.88432e-14
  23 336.122 -5.21140e-10 -6.49179e-14
  24 336.122 -5.21140e-10 -4.39818e-14
  25 336.122 -5.21140e-10 -1.20195e-14
  26 336.122 -5.21140e-10 -1.39581e-14
  27 336.122 -5.21140e-10 -5.93404e-14
  28 336.122 -5.20534e-10 -1.46952e-14
  29 336.122 -5.21140e-10 6.88295e-14
  30 336.122 -5.21140e-10 4.32565e-14
  31 336.122 -5.20913e-10 -6.30243e-14
  32 336.122 -5.20534e-10 9.00089e-14
  33 336.122 -5.19321e-10 -9.43550e-14
  34 336.122 -5.21140e-10 1.78931e-15
  35 336.122 -5.21140e-10 2.24495e-14
  36 336.122 -5.21140e-10 -8.90517e-14
  37 336.122 -5.20231e-10 7.25536e-14
  38 336.122 -5.21140e-10 -1.16080e-14
  39 336.122 -5.21140e-10 7.99327e-17
  40 336.122 -5.20534e-10 -5.34745e-14
  41 336.122 -5.20837e-10 4.89463e-14
  42 336.122 -5.21140e-10 -1.78332e-14
  43 336.122 -5.20004e-10 8.38218e-14
  44 336.122 -5.21140e-10 2.82679e-14
  45 336.122 -5.21140e-10 6.49758e-15
  46 336.122 -5.21140e-10 -4.17805e-14
  47 336.122 -5.21140e-10 -4.63320e-14
  48 336.122 -5.21140e-10 -1.63366e-14
  49 336.122 -5.20231e-10 -3.70878e-15
  50 336.122 -5.21140e-10 -1.55815e-14
  51 336.122 -5.20231e-10 -3.54909e-14
  52 336.122 -5.21140e-10 7.91252e-14
  53 336.122 -5.20837e-10 2.06836e-14
  54 336.122 -5.20777e-10 1.55107e-13
  55 336.122 -5.20837e-10 1.81971e-14
  56 336.122 -5.21140e-10 -3.92241e-14
  57 336.122 -5.20231e-10 2.76362e-14
  58 336.122 -5.21140e-10 8.77545e-15
  59 336.122 -5.21140e-10 3.37177e-14
  60 336.122 -5.20534e-10 -1.09836e-14
  61 336.122 -5.19685e-10 1.12620e-13
  62 336.122 -5.21140e-10 -2.70174e-14
  63 336.122 -5.21140e-10 3.13245e-14
  64 336.122 -5.21140e-10 -1.03411e-13
  65 336.122 -5.20049e-10 -5.54479e-14
  66 336.122 -5.21140e-10 2.16684e-13
</Section>

newXOutput 20

<Section columns = "stress_xx | stress_yy | stress_xy">
  1 354.042 -5.16593e-10 9.83191e-14
  2 354.042 -5.18412e-10 2.73592e-13
  3 354.042 -5.18412e-10 2.74817e-13
  4 354.042 -5.18412e-10 8.60507e-16
  5 354.042 -5.17199e-10 5.83621e-14
  6 354.042 -5.18412e-10 -7.99599e-15
  7 354.042 -5.18412e-10 -7.41511e-14
  8 354.042 -5.18412e-10 -1.15834e-13
  9 354.042 -5.18412e-10 -2.74554e-14
  10 354.042 -5.19776e-10 2.41451e-13
  11 354.042 -5.19094e-10 1.03496e-13
  12 354.042 -5.18412e-10 1.86534e-13
  13 354.042 -5.17806e-10 6.11309e-13
  14 354.042 -5.18412e-10 -2.03744e-13
  15 354.042 -5.18412e-10 -2.95871e-14
  16 354.042 -5.18412e-10 -9.04050e-15
  17 354.042 -5.17806e-10 5.35739e-13
  18 354.042 -5.17806e-10 1.70335e-13
  19 354.042 -5.18412e-10 -7.15535e-14
  20 354.042 -5.18412e-10 -3.84045e-13
  21 354.042 -5.17957e-10 -8.37216e-14
  22 354.042 -5.17806e-10 8.36539e-14
  23 354.042 -5.17199e-10 -4.80260e-15
  24 354.042 -5.17806e-10 5.29941e-14
  25 354.042 -5.17199e-10 6.08491e-15
  26 354.042 -5.18412e-10 3.60408e-14
  27 354.042 -5.18412e-10 -1.28211e-13
  28 354.042 -5.17806e-10 -8.90461e-14
  29 354.042 -5.17502e-10 -5.60344e-15
  30 354.042 -5.18048e-10 -8.47515e-14
  31 354.042 -5.18185e-10 4.23655e-14
  32 354.042 -5.18412e-10 1.45827e-13
  33 354.042 -5.18048e-10 -1.00050e-13
  34 354.042 -5.16593e-10 1.19143e-13
  35 354.042 -5.17321e-10 -1.06506e-13
  36 354.042 -5.18048e-10 2.29954e-13
  37 354.042 -5.18412e-10 3.94225e-14
  38 354.042 -5.18412e-10 -9.44104e-15
  39 354.042 -5.17806e-10 -1.99929e-14
  40 354.042 -5.18412e-10 1.72696e-14
  41 354.042 -5.17806e-10 -1.91089e-14
  42 354.042 -5.18412e-10 -4.94854e-14
  43 354.042 -5.18185e-10 3.37441e-14
  44 354.042 -5.18185e-10 -3.14590e-14
  45 354.042 -5.17502e-10 1.99194e-14
  46 354.042 -5.18412e-10 9.93382e-15
  47 354.042 -5.18412e-10 1.06438e-13
  48 354.042 -5.17684e-10 -6.89788e-14
  49 354.042 -5.18185e-10 -2.36597e-13
  50 354.042 -5.17502e-10 -2.95607e-14
  51 354.042 -5.18412e-10 2.25229e-14
  52 354.042 -5.18412e-10 3.03402e-14
  53 354.042 -5.18109e-10 -7.88670e-14
  54 354.042 -5.18412e-10 -5.44051e-14
  55 354.042 -5.16896e-10 -3.99783e-14
  56 354.042 -5.18109e-10 3.32724e-13
  57 354.042 -5.17806e-10 1.43400e-13
  58 354.042 -5.17502e-10 8.33515e-14
  59 354.042 -5.16896e-10 -1.59126e-14
  60 354.042 -5.18412e-10 -2.36594e-13
  61 354.042 -5.17684e-10 4.66360e-13
  62 354.042 -5.16957e-10 7.17976e-14
  63 354.042 -5.17684e-10 -2.44590e-14
  64 354.042 -5.18048e-10 4.86571e-13
  65 354.042 -5.18958e-10 7.78067e-14
  66 354.042 -5.18412e-10 -3.84223e-14
</Section>

newXOutput 21

<Section columns = "stress_xx | stress_yy | stress_xy">
  1 371.886 -5.15229e-10 1.22493e-13
  2 371.886 -5.14774e-10 6.88433e-14
  3 371.886 -5.14774e-10 -7.23313e-14
  4 371.886 -5.14774e-10 -1.07419e-13
  5 371.886 -5.15683e-10 1.56981e-13
  6 371.886 -5.15683e-10 1.22920e-13
  7 371.886 -5.15683e-10 1.66948e-13
  8 371.886 -5.15380e-10 3.91770e-14
  9 371.886 -5.14774e-10 -9.43893e-14
  10 371.886 -5.14319e-10 7.27694e-15
  11 371.886 -5.14547e-10 -1.46639e-13
  12 371.886 -5.15380e-10 -6.32715e-14
  13 371.886 -5.15380e-10 3.27825e-14
  14 371.886 -5.14774e-10 1.00053e-13
  15 371.886 -5.15229e-10 -1.96695e-14
  16 371.886 -5.15380e-10 -1.88499e-14
  17 371.886 -5.15380e-10 -2.04393e-13
  18 371.886 -5.15683e-10 2.14857e-14
  19 371.886 -5.15001e-10 7.44280e-14
  20 371.886 -5.15380e-10 -2.65453e-13
  21 371.886 -5.15456e-10 -2.63334e-14
  22 371.886 -5.15380e-10 -9.81101e-14
  23 371.886 -5.15380e-10 -5.35456e-14
  24 371.886 -5.15380e-10 1.30398e-13
  25 371.886 -5.15683e-10 9.53448e-14
  26 371.886 -5.15077e-10 -2.82914e-14
  27 371.886 -5.15683e-10 -9.83475e-15
  28 371.886 -5.15077e-10 7.06379e-15
  29 371.886 -5.15683e-10 -1.36597e-13
  30 371.886 -5.15502e-10 5.46067e-15
  31 371.886 -5.15342e-10 2.66117e-14
  32 371.886 -5.15229e-10 1.69438e-13
  33 371.886 -5.14956e-10 -3.29266e-14
  34 371.886 -5.15683e-10 -1.44124e-13
  35 371.886 -5.15683e-10 -6.63513e-14
  36 371.886 -5.14956e-10 1.43825e-13
  37 371.886 -5.14926e-10 -1.65096e-13
  38 371.886 -5.15683e-10 6.09834e-14
  39 371.886 -5.15380e-10 3.20104e-14
  40 371.886 -5.14926e-10 -2.00904e-13
  41 371.886 -5.15683e-10 1.39108e-13
  42 371.886 -5.15077e-10 1.00315e-13
  43 371.886 -5.15001e-10 -1.87785e-14
  44 371.886 -5.15683e-10 1.12769e-17
  45 371.886 -5.15342e-10 -6.15198e-14
  46 371.886 -5.15138e-10 -1.26586e-14
  47 371.886 -5.15424e-10 1.53415e-13
  48 371.886 -5.15502e-10 1.07486e-15
  49 371.886 -5.15115e-10 3.65978e-14
  50 371.886 -5.15570e-10 -2.84388e-14
  51 371.886 -5.15077e-10 1.92944e-14
  52 371.886 -5.15532e-10 1.88953e-14
  53 371.886 -5.14926e-10 4.36582e-14
  54 371.886 -5.15138e-10 3.11341e-14
  55 371.886 -5.15380e-10 5.99016e-14
  56 371.886 -5.15077e-10 -8.84461e-14
  57 371.886 -5.15077e-10 1.53423e-13
  58 371.886 -5.15380e-10 -6.55849e-14
  59 371.886 -5.15683e-10 -1.19608e-13
  60 371.886 -5.15077e-10 5.89127e-14
  61 371.886 -5.15138e-10 4.97646e-14
  62 371.886 -5.15502e-10 2.24454e-14
  63 371.886 -5.15683e-10 7.22170e-14
  64 371.886 -5.15502e-10 -1.85843e-14
  65 371.886 -5.14592e-10 -1.73960e-13
  66 371.886 -5.15683e-10 -5.41243e-14
</Section>

newXOutput 22

<Section columns = "stress_xx | stress_yy | stress_xy">
  1 389.655 -5.13865e-10 -3.08577e-14
  2 389.655 -5.13865e-10 2.76510e-14
  3 389.655 -5.14774e-10 -1.68272e-13
  4 389.655 -5.14319e-10 1.95697e-13
  5 389.655 -5.14168e-10 1.36280e-13
  6 389.655 -5.14168e-10 9.78493e-14
  7 389.655 -5.14774e-10 2.45325e-13
  8 389.655 -5.14471e-10 -1.59141e-14
  9 389.655 -5.15683e-10 -1.29957e-13
  10 389.655 -5.16593e-10 -5.92930e-13
  11 389.655 -5.16138e-10 -1.74760e-13
  12 389.655 -5.15683e-10 4.17718e-15
  13 389.655 -5.13865e-10 8.26352e-14
  14 389.655 -5.13865e-10 -1.30763e-13
  15 389.655 -5.14319e-10 1.27494e-13
  16 389.655 -5.14471e-10 1.78286e-14
  17 389.655 -5.15077e-10 -1.09289e-13
  18 389.655 -5.15683e-10 -1.85027e-13
  19 389.655 -5.15683e-10 1.31903e-13
  20 389.655 -5.13561e-10 1.59872e-13
  21 389.655 -5.13637e-10 -6.17811e-14
  22 389.655 -5.14471e-10 -1.56782e-14
  23 389.655 -5.14168e-10 -2.49029e-13
  24 389.655 -5.15380e-10 8.57190e-14
  25 389.655 -5.15380e-10 3.38251e-13
  26 389.655 -5.14774e-10 1.73262e-13
  27 389.655 -5.14774e-10 -9.80726e-14
  28 389.655 -5.14168e-10 -3.00094e-13
  29 389.655 -5.13865e-10 -2.11905e-13
  30 389.655 -5.14774e-10 -6.81468e-14
  31 389.655 -5.15797e-10 -1.93823e-14
  32 389.655 -5.15987e-10 -2.47452e-14
  33 389.655 -5.14592e-10 6.97269e-14
  34 389.655 -5.14592e-10 9.73837e-14
  35 389.655 -5.14228e-10 -1.94040e-13
  36 389.655 -5.14956e-10 -6.60628e-15
  37 389.655 -5.15077e-10 1.02435e-13
  38 389.655 -5.15077e-10 6.21462e-14
  39 389.655 -5.15229e-10 -4.79848e-14
  40 389.655 -5.15532e-10 9.22324e-14
  41 389.655 -5.15532e-10 -4.41739e-16
  42 389.655 -5.15683e-10 8.83571e-14
  43 389.655 -5.15229e-10 -2.23104e-14
  44 389.655 -5.14206e-10 7.82206e-14
  45 389.655 -5.14433e-10 -1.83872e-13
  46 389.655 -5.15138e-10 -9.00112e-14
  47 389.655 -5.15813e-10 -5.28919e-14
  48 389.655 -5.14410e-10 2.51345e-14
  49 389.655 -5.14319e-10 -6.82081e-14
  50 389.655 -5.14433e-10 -8.17317e-14
  51 389.655 -5.15987e-10 -2.31371e-14
  52 389.655 -5.15229e-10 -5.12051e-14
  53 389.655 -5.15380e-10 -3.37692e-14
  54 389.655 -5.14956e-10 1.42113e-13
  55 389.655 -5.14319e-10 -2.23673e-13
  56 389.655 -5.14926e-10 -4.28025e-14
  57 389.655 -5.13865e-10 4.21387e-14
  58 389.655 -5.14622e-10 3.00554e-13
  59 389.655 -5.14016e-10 -1.21463e-13
  60 389.655 -5.14622e-10 -1.55739e-13
  61 389.655 -5.14228e-10 1.52653e-13
  62 389.655 -5.15320e-10 2.54735e-13
  63 389.655 -5.14228e-10 -3.80809e-14
  64 389.655 -5.15683e-10 -4.74867e-14
  65 389.655 -5.15865e-10 -3.76399e-14
  66 389.655 -5.14410e-10 9.43502e-14
</Section>

newXOutput 23

<Section columns = "stress_xx | stress_yy | stress_xy">
  1 407.348 -5.12046e-10 2.40648e-13
  2 407.348 -5.12046e-10 -1.78837e-13
  3 407.348 -5.12500e-10 2.34056e-13
  4 407.348 -5.12046e-10 -1.00577e-13
  5 407.348 -5.12349e-10 -9.68772e-14
  6 407.348 -5.12349e-10 7.61512e-14
  7 407.348 -5.12046e-10 1.34830e-13
  8 407.348 -5.12349e-10 1.02406e-14
  9 407.348 -5.13182e-10 -4.05191e-14
  10 407.348 -5.12500e-10 6.98762e-14
  11 407.348 -5.12273e-10 1.39787e-14
  12 407.348 -5.12349e-10 -1.05263e-13
  13 407.348 -5.12046e-10 -2.17035e-13
  14 407.348 -5.12046e-10 -4.56394e-14
  15 407.348 -5.12046e-10 -2.93396e-14
  16 407.348 -5.12349e-10 -6.08880e-14
  17 407.348 -5.12349e-10 4.04504e-13
  18 407.348 -5.12046e-10 7.59342e-14
  19 407.348 -5.12046e-10 2.69162e-14
  20 407.348 -5.12652e-10 -2.26131e-13
  21 407.348 -5.12500e-10 -1.03091e-13
  22 407.348 -5.12046e-10 -1.63950e-13
  23 407.348 -5.12046e-10 -1.73402e-13
  24 407.348 -5.12349e-10 5.10440e-14
  25 407.348 -5.12955e-10 2.00631e-13
  26 407.348 -5.12046e-10 -2.23540e-13
  27 407.348 -5.12046e-10 -9.77987e-14
  28 407.348 -5.12046e-10 1.95249e-13
  29 407.348 -5.12955e-10 -1.25202e-13
  30 407.348 -5.12227e-10 2.75608e-14
  31 407.348 -5.13069e-10 1.39204e-14
  32 407.348 -5.12803e-10 1.50607e-15
  33 407.348 -5.12227e-10 -1.76003e-14
  34 407.348 -5.12227e-10 -2.49898e-14
  35 407.348 -5.12773e-10 7.32180e-16
  36 407.348 -5.12409e-10 6.45541e-14
  37 407.348 -5.12955e-10 -1.02373e-13
  38 407.348 -5.12652e-10 3.93429e-14
  39 407.348 -5.12803e-10 -7.52327e-14
  40 407.348 -5.13561e-10 -6.20419e-14
  41 407.348 -5.12803e-10 -2.43478e-14
  42 407.348 -5.12197e-10 3.53361e-14
  43 407.348 -5.12500e-10 1.81623e-14
  44 407.348 -5.12728e-10 1.81535e-14
  45 407.348 -5.12273e-10 -8.96273e-14
  46 407.348 -5.12773e-10 9.09668e-15
  47 407.348 -5.12175e-10 3.12028e-14
  48 407.348 -5.12409e-10 1.89696e-14
  49 407.348 -5.12159e-10 3.27944e-14
  50 407.348 -5.12387e-10 -1.84690e-14
  51 407.348 -5.12955e-10 -2.00049e-13
  52 407.348 -5.13410e-10 -6.25032e-14
  53 407.348 -5.12500e-10 -1.61149e-13
  54 407.348 -5.12409e-10 8.34752e-14
  55 407.348 -5.12046e-10 9.80852e-14
  56 407.348 -5.12500e-10 1.62724e-13
  57 407.348 -5.12046e-10 -1.32267e-13
  58 407.348 -5.12500e-10 -3.60385e-14
  59 407.348 -5.12955e-10 -8.51098e-14
  60 407.348 -5.12197e-10 1.20633e-13
  61 407.348 -5.12227e-10 -1.29665e-13
  62 407.348 -5.12591e-10 1.40653e-13
  63 407.348 -5.12227e-10 -5.25681e-14
  64 407.348 -5.12409e-10 1.19461e-13
  65 407.348 -5.12955e-10 -4.58167e-14
  66 407.348 -5.12955e-10 -2.31385e-14
</Section>

newXOutput 24

<Section columns = "stress_xx | stress_yy | stress_xy">
  1 424.965 -5.12955e-10 -1.13846e-13
  2 424.965 -5.12955e-10 7.80207e-14
  3 424.965 -5.12955e-10 7.95080e-14
  4 424.965 -5.12046e-10 2.23147e-13
  5 424.965 -5.12955e-10 -2.92466e-13
  6 424.965 -5.12955e-10 -1.61879e-13
  7 424.965 -5.12955e-10 -5.68788e-14
  8 424.965 -5.12955e-10 -8.45224e-14
  9 424.965 -5.11136e-10 -4.13325e-14
  10 424.965 -5.12955e-10 -1.06283e-13
  11 424.965 -5.12955e-10 1.13614e-13
  12 424.965 -5.12955e-10 3.47156e-13
  13 424.965 -5.12955e-10 2.95806e-13
  14 424.965 -5.12955e-10 1.75592e-14
  15 424.965 -5.12955e-10 1.95052e-14
  16 424.965 -5.12955e-10 -3.28292e-14
  17 424.965 -5.12955e-10 -5.62296e-15
  18 424.965 -5.12955e-10 9.85835e-14
  19 424.965 -5.12955e-10 7.22394e-14
  20 424.965 -5.12955e-10 1.70268e-13
  21 424.965 -5.12955e-10 -2.25549e-15
  22 424.965 -5.12955e-10 -3.54903e-14
  23 424.965 -5.12955e-10 1.53805e-14
  24 424.965 -5.12955e-10 1.35370e-13
  25 424.965 -5.12955e-10 3.14520e-13
  26 424.965 -5.10227e-10 -5.13614e-14
  27 424.965 -5.11136e-10 -1.95052e-14
  28 424.965 -5.12955e-10 -1.38935e-14
  29 424.965 -5.11136e-10 -5.48307e-14
  30 424.965 -5.12955e-10 -1.99940e-13
  31 424.965 -5.12500e-10 3.80439e-14
  32 424.965 -5.12349e-10 -6.11196e-14
  33 424.965 -5.12591e-10 -2.55690e-13
  34 424.965 -5.12227e-10 1.46278e-13
  35 424.965 -5.11500e-10 -8.70399e-14
  36 424.965 -5.11500e-10 3.89176e-14
  37 424.965 -5.11742e-10 -6.07849e-14
  38 424.965 -5.12955e-10 3.22487e-14
  39 424.965 -5.12955e-10 -6.37648e-16
  40 424.965 -5.09923e-10 -7.73461e-14
  41 424.965 -5.12955e-10 -1.21559e-13
  42 424.965 -5.12349e-10 -1.37130e-15
  43 424.965 -5.12955e-10 -4.34015e-14
  44 424.965 -5.11591e-10 -1.64293e-13
  45 424.965 -5.12955e-10 1.75865e-13
  46 424.965 -5.12227e-10 -1.71501e-14
  47 424.965 -5.12435e-10 -6.58773e-14
  48 424.965 -5.12955e-10 -1.07753e-13
  49 424.965 -5.12728e-10 -1.40109e-14
  50 424.965 -5.11250e-10 -1.30220e-14
  51 424.965 -5.11742e-10 5.94936e-14
  52 424.965 -5.12349e-10 5.61908e-14
  53 424.965 -5.12349e-10 -3.40624e-14
  54 424.965 -5.12955e-10 1.40518e-14
  55 424.965 -5.12955e-10 -1.44036e-13
  56 424.965 -5.12349e-10 -1.47743e-14
  57 424.965 -5.12955e-10 4.79559e-14
  58 424.965 -5.11591e-10 1.45931e-13
  59 424.965 -5.11136e-10 1.94142e-14
  60 424.965 -5.12652e-10 -1.55479e-13
  61 424.965 -5.12955e-10 7.50882e-14
  62 424.965 -5.12955e-10 2.73861e-13
  63 424.965 -5.12955e-10 -2.16670e-13
  64 424.965 -5.11500e-10 1.01759e-14
  65 424.965 -5.11500e-10 -9.63380e-14
  66 424.965 -5.12955e-10 -1.92069e-13
</Section>

newXOutput 25

<Section columns = "stress_xx | stress_yy | stress_xy">
  1 442.508 -5.10227e-10 -3.03817e-15
  2 442.508 -5.09317e-10 7.78033e-14
  3 442.508 -5.11136e-10 -4.86538e-14
  4 442.508 -5.11136e-10 4.44062e-14
  5 442.508 -5.10530e-10 -8.93505e-14
  6 442.508 -5.09317e-10 -3.01394e-14
  7 442.508 -5.09923e-10 -4.63980e-14
  8 442.508 -5.11136e-10 7.72969e-14
  9 442.508 -5.11136e-10 1.38434e-13
  10 442.508 -5.11136e-10 -8.38797e-14
  11 442.508 -5.11136e-10 -1.23541e-13
  12 442.508 -5.09923e-10 -8.83378e-14
  13 442.508 -5.09317e-10 1.31698e-13
  14 442.508 -5.10530e-10 -6.24034e-14
  15 442.508 -5.10227e-10 9.72541e-15
  16 442.508 -5.10530e-10 1.02927e-13
  17 442.508 -5.10530e-10 -3.75560e-15
  18 442.508 -5.10227e-10 -6.26937e-14
  19 442.508 -5.09772e-10 1.22726e-13
  20 442.508 -5.11742e-10 -3.06929e-13
  21 442.508 -5.10681e-10 -2.00319e-13
  22 442.508 -5.11136e-10 -9.93351e-15
  23 442.508 -5.11136e-10 -2.35044e-14
  24 442.508 -5.10530e-10 -6.17158e-15
  25 442.508 -5.10530e-10 5.79782e-14
  26 442.508 -5.11136e-10 6.12861e-15
  27 442.508 -5.10227e-10 -9.72541e-14
  28 442.508 -5.09317e-10 -2.18313e-14
  29 442.508 -5.11136e-10 1.03883e-14
  30 442.508 -5.11136e-10 9.73967e-16
  31 442.508 -5.09544e-10 -8.99156e-14
  32 442.508 -5.09923e-10 2.10816e-13
  33 442.508 -5.11136e-10 8.48041e-15
  34 442.508 -5.11136e-10 9.80319e-14
  35 442.508 -5.10772e-10 -9.50119e-14
  36 442.508 -5.10045e-10 -2.30975e-13
  37 442.508 -5.11136e-10 -7.38502e-14
  38 442.508 -5.10227e-10 2.69095e-14
  39 442.508 -5.10227e-10 -7.06475e-14
  40 442.508 -5.10833e-10 2.07745e-14
  41 442.508 -5.09620e-10 -2.48193e-14
  42 442.508 -5.10530e-10 1.68623e-13
  43 442.508 -5.10909e-10 -4.39909e-14
  44 442.508 -5.10454e-10 -9.72880e-14
  45 442.508 -5.10681e-10 4.29947e-14
  46 442.508 -5.10408e-10 1.48137e-13
  47 442.508 -5.10227e-10 -6.07371e-14
  48 442.508 -5.10408e-10 -1.48358e-13
  49 442.508 -5.10681e-10 -4.13315e-14
  50 442.508 -5.10454e-10 -2.79131e-14
  51 442.508 -5.10227e-10 6.60008e-14
  52 442.508 -5.10227e-10 3.12224e-14
  53 442.508 -5.11136e-10 9.60385e-14
  54 442.508 -5.10408e-10 3.90320e-15
  55 442.508 -5.10227e-10 -1.75754e-14
  56 442.508 -5.10530e-10 -3.26286e-14
  57 442.508 -5.10227e-10 4.27269e-14
  58 442.508 -5.10833e-10 1.37626e-13
  59 442.508 -5.11136e-10 -1.05671e-13
  60 442.508 -5.10530e-10 -1.11739e-13
  61 442.508 -5.10045e-10 1.46822e-13
  62 442.508 -5.10408e-10 1.28216e-13
  63 442.508 -5.10408e-10 -6.72490e-14
  64 442.508 -5.10227e-10 -2.13524e-13
  65 442.508 -5.11136e-10 -1.08436e-13
  66 442.508 -5.10408e-10 -1.23084e-13
</Section>

newXOutput 26

<Section columns = "stress_xx | stress_yy | stress_xy">
  1 459.976 -5.07498e-10 -7.99543e-14
  2 459.976 -5.07498e-10 7.75868e-14
  3 459.976 -5.07498e-10 -8.02173e-14
  4 459.976 -5.06589e-10 -8.23350e-15
  5 459.976 -5.07498e-10 -1.26266e-13
  6 459.976 -5.07498e-10 8.58938e-14
  7 459.976 -5.07498e-10 2.63884e-14
  8 459.976 -5.06892e-10 -1.24050e-14
  9 459.976 -5.07043e-10 1.96772e-14
  10 459.976 -5.07498e-10 -7.75868e-14
  11 459.976 -5.07043e-10 -4.05999e-15
  12 459.976 -5.07498e-10 2.06746e-13
  13 459.976 -5.07498e-10 2.63884e-13
  14 459.976 -5.07498e-10 -1.50356e-14
  15 459.976 -5.07498e-10 4.84917e-14
  16 459.976 -5.07498e-10 4.84917e-15
  17 459.976 -5.06892e-10 -3.27673e-13
  18 459.976 -5.07498e-10 -3.86430e-13
  19 459.976 -5.07498e-10 4.67163e-14
  20 459.976 -5.07498e-10 2.31632e-13
  21 459.976 -5.06589e-10 1.05046e-13
  22 459.976 -5.07498e-10 -1.38147e-13
  23 459.976 -5.07498e-10 -5.90844e-14
  24 459.976 -5.07498e-10 2.69739e-14
  25 459.976 -5.07498e-10 2.11646e-14
  26 459.976 -5.06892e-10 2.01859e-14
  27 459.976 -5.07498e-10 -1.93967e-14
  28 459.976 -5.07498e-10 5.45136e-16
  29 459.976 -5.07498e-10 2.65766e-14
  30 459.976 -5.07134e-10 -3.02798e-14
  31 459.976 -5.07498e-10 -2.01829e-14
  32 459.976 -5.07195e-10 -8.12696e-14
  33 459.976 -5.07316e-10 -1.13199e-13
  34 459.976 -5.07134e-10 7.92383e-14
  35 459.976 -5.07498e-10 -9.58496e-14
  36 459.976 -5.07134e-10 1.86996e-13
  37 459.976 -5.06892e-10 6.06796e-14
  38 459.976 -5.07498e-10 3.91575e-14
  39 459.976 -5.07498e-10 -3.63975e-14
  40 459.976 -5.07195e-10 4.09644e-15
  41 459.976 -5.06892e-10 -4.69518e-14
  42 459.976 -5.07195e-10 3.95723e-14
  43 459.976 -5.07384e-10 4.42689e-14
  44 459.976 -5.07498e-10 1.46097e-14
  45 459.976 -5.07498e-10 3.29722e-14
  46 459.976 -5.07134e-10 -8.63914e-15
  47 459.976 -5.07238e-10 -1.42534e-14
  48 459.976 -5.07134e-10 -2.91569e-14
  49 459.976 -5.07498e-10 -4.29794e-14
  50 459.976 -5.07271e-10 2.46476e-14
  51 459.976 -5.07195e-10 4.92599e-14
  52 459.976 -5.07498e-10 7.26528e-14
  53 459.976 -5.07195e-10 -3.68299e-14
  54 459.976 -5.07498e-10 4.60834e-14
  55 459.976 -5.07498e-10 -1.15374e-13
  56 459.976 -5.06892e-10 2.25608e-14
  57 459.976 -5.07498e-10 4.40752e-14
  58 459.976 -5.07195e-10 5.95991e-14
  59 459.976 -5.07195e-10 -1.83192e-14
  60 459.976 -5.07498e-10 -1.22640e-14
  61 459.976 -5.07316e-10 1.51045e-13
  62 459.976 -5.07498e-10 8.25999e-14
  63 459.976 -5.07498e-10 -8.03323e-14
  64 459.976 -5.06770e-10 -7.40752e-14
  65 459.976 -5.06770e-10 -1.34084e-13
  66 459.976 -5.07134e-10 -1.26354e-14
</Section>

newXOutput 27

<Section columns = "stress_xx | stress_yy | stress_xy">
  1 477.371 -5.07498e-10 2.90142e-14
  2 477.371 -5.06134e-10 4.52348e-14
  3 477.371 -5.07498e-10 -4.28398e-14
  4 477.371 -5.05679e-10 -6.71097e-14
  5 477.371 -5.07498e-10 -8.30000e-14
  6 477.371 -5.06285e-10 2.34361e-14
  7 477.371 -5.06892e-10 2.27950e-13
  8 477.371 -5.07498e-10 1.34410e-14
  9 477.371 -5.07498e-10 -1.70887e-13
  10 477.371 -5.07498e-10 -1.61291e-13
  11 477.371 -5.06589e-10 -9.28494e-14
  12 477.371 -5.07498e-10 -1.07426e-13
  13 477.371 -5.07195e-10 5.06926e-14
  14 477.371 -5.06892e-10 3.22380e-14
  15 477.371 -5.06589e-10 -2.32113e-13
  16 477.371 -5.06892e-10 1.37684e-13
  17 477.371 -5.06892e-10 1.27405e-13
  18 477.371 -5.05982e-10 -1.65667e-13
  19 477.371 -5.06134e-10 5.28730e-14
  20 477.371 -5.07498e-10 1.75610e-13
  21 477.371 -5.06589e-10 3.78936e-14
  22 477.371 -5.07498e-10 1.24201e-13
  23 477.371 -5.07498e-10 9.26284e-15
  24 477.371 -5.06892e-10 -9.90819e-15
  25 477.371 -5.05679e-10 -9.15001e-14
  26 477.371 -5.05679e-10 1.34410e-14
  27 477.371 -5.06589e-10 1.93428e-14
  28 477.371 -5.07498e-10 2.17479e-14
  29 477.371 -5.05679e-10 -1.69512e-13
  30 477.371 -5.07498e-10 -1.00835e-13
  31 477.371 -5.06589e-10 6.28987e-14
  32 477.371 -5.05982e-10 -8.62874e-14
  33 477.371 -5.06952e-10 -3.76177e-15
  34 477.371 -5.06407e-10 5.63020e-16
  35 477.371 -5.06770e-10 -4.02105e-14
  36 477.371 -5.06407e-10 -1.24449e-13
  37 477.371 -5.06285e-10 -3.51478e-14
  38 477.371 -5.07498e-10 7.40826e-14
  39 477.371 -5.06589e-10 1.90431e-14
  40 477.371 -5.06589e-10 -5.79547e-14
  41 477.371 -5.05982e-10 6.02408e-14
  42 477.371 -5.06589e-10 -1.29553e-13
  43 477.371 -5.07043e-10 -1.56969e-14
  44 477.371 -5.06361e-10 -6.34688e-14
  45 477.371 -5.06589e-10 -2.67586e-15
  46 477.371 -5.07498e-10 -8.33088e-16
  47 477.371 -5.06459e-10 -6.71530e-14
  48 477.371 -5.06407e-10 -1.05727e-14
  49 477.371 -5.07157e-10 6.12089e-15
  50 477.371 -5.06816e-10 -1.66942e-15
  51 477.371 -5.06285e-10 1.38729e-13
  52 477.371 -5.06285e-10 -1.20193e-13
  53 477.371 -5.07195e-10 -5.15934e-14
  54 477.371 -5.06407e-10 2.24214e-14
  55 477.371 -5.07195e-10 -2.44514e-14
  56 477.371 -5.06740e-10 7.58533e-14
  57 477.371 -5.06892e-10 1.35799e-13
  58 477.371 -5.05679e-10 -2.98047e-14
  59 477.371 -5.06892e-10 -5.04606e-14
  60 477.371 -5.07498e-10 -3.54784e-14
  61 477.371 -5.06952e-10 1.17565e-13
  62 477.371 -5.06043e-10 -4.41508e-15
  63 477.371 -5.06407e-10 -5.92772e-14
  64 477.371 -5.05861e-10 -1.53163e-13
  65 477.371 -5.06770e-10 -2.11644e-13
  66 477.371 -5.06407e-10 5.97183e-14
</Section>

newXOutput 28

<Section columns = "stress_xx | stress_yy | stress_xy">
  1 494.692 -5.04770e-10 8.34088e-14
  2 494.692 -5.04770e-10 0.00000
  3 494.692 -5.04770e-10 -8.91332e-14
  4 494.692 -5.04770e-10 7.87912e-14
  5 494.692 -5.04770e-10 1.29653e-13
  6 494.692 -5.04770e-10 3.66281e-13
  7 494.692 -5.04770e-10 1.05913e-13
  8 494.692 -5.04770e-10 -1.76571e-13
  9 494.692 -5.04770e-10 -7.95419e-14
  10 494.692 -5.04770e-10 -9.64453e-14
  11 494.692 -5.04770e-10 2.18330e-14
  12 494.692 -5.04770e-10 1.92891e-14
  13 494.692 -5.04770e-10 -2.67363e-13
  14 494.692 -5.04770e-10 -1.28594e-14
  15 494.692 -5.04770e-10 -1.92891e-14
  16 494.692 -5.04770e-10 -9.00156e-14
  17 494.692 -5.04770e-10 1.04766e-13
  18 494.692 -5.04770e-10 -1.96355e-14
  19 494.692 -5.04997e-10 1.27182e-13
  20 494.692 -5.04770e-10 2.40988e-13
  21 494.692 -5.04770e-10 7.97148e-14
  22 494.692 -5.04770e-10 -1.36604e-15
  23 494.692 -5.04770e-10 -8.34930e-15
  24 494.692 -5.04770e-10 7.75284e-14
  25 494.692 -5.04770e-10 3.83331e-13
  26 494.692 -5.04770e-10 -1.39829e-13
  27 494.692 -5.04770e-10 2.89336e-14
  28 494.692 -5.04770e-10 3.60342e-14
  29 494.692 -5.04770e-10 -2.73259e-13
  30 494.692 -5.04770e-10 -1.06302e-13
  31 494.692 -5.04770e-10 8.49205e-14
  32 494.692 -5.04770e-10 -5.99923e-14
  33 494.692 -5.04770e-10 8.83949e-15
  34 494.692 -5.04770e-10 -4.21260e-13
  35 494.692 -5.04770e-10 1.18611e-13
  36 494.692 -5.04770e-10 8.68867e-14
  37 494.692 -5.04770e-10 5.18530e-14
  38 494.692 -5.04770e-10 -8.43306e-14
  39 494.692 -5.04770e-10 1.56912e-13
  40 494.692 -5.04770e-10 -2.15616e-14
  41 494.692 -5.04770e-10 -3.54382e-14
  42 494.692 -5.04921e-10 -1.59469e-15
  43 494.692 -5.04770e-10 -2.76871e-15
  44 494.692 -5.04770e-10 1.05568e-13
  45 494.692 -5.04770e-10 -2.25500e-13
  46 494.692 -5.04770e-10 8.74017e-15
  47 494.692 -5.04770e-10 1.23096e-13
  48 494.692 -5.04770e-10 7.80145e-14
  49 494.692 -5.04770e-10 -2.39785e-14
  50 494.692 -5.04770e-10 -8.40335e-14
  51 494.692 -5.04770e-10 -8.28914e-15
  52 494.692 -5.04770e-10 -1.14821e-14
  53 494.692 -5.04770e-10 -9.88838e-14
  54 494.692 -5.04951e-10 1.70700e-13
  55 494.692 -5.04770e-10 1.16935e-13
  56 494.692 -5.04770e-10 8.56740e-15
  57 494.692 -5.04770e-10 -6.68409e-14
  58 494.692 -5.04770e-10 -9.04296e-14
  59 494.692 -5.04770e-10 -2.81367e-13
  60 494.692 -5.04770e-10 9.26925e-14
  61 494.692 -5.04770e-10 -1.60651e-13
  62 494.692 -5.04770e-10 -7.12834e-14
  63 494.692 -5.04770e-10 2.50747e-13
  64 494.692 -5.04770e-10 4.93788e-14
  65 494.692 -5.04770e-10 -8.42998e-14
  66 494.692 -5.04770e-10 6.42489e-14
</Section>

newXOutput 29

<Section columns = "stress_xx | stress_yy | stress_xy">
  1 511.940 -5.01132e-10 1.04918e-13
  2 511.940 -5.00677e-10 4.54885e-14
  3 511.940 -5.01132e-10 4.55116e-13
  4 511.940 -5.02041e-10 -4.37002e-14
  5 511.940 -5.01435e-10 3.52088e-13
  6 511.940 -5.01738e-10 3.62029e-13
  7 511.940 -5.01132e-10 1.86715e-14
  8 511.940 -5.01435e-10 -1.31161e-13
  9 511.940 -5.02041e-10 -1.77537e-13
  10 511.940 -5.04770e-10 1.66103e-13
  11 511.940 -5.02268e-10 1.09180e-14
  12 511.940 -5.01132e-10 9.44442e-14
  13 511.940 -5.01132e-10 3.69631e-13
  14 511.940 -5.00828e-10 -1.07268e-13
  15 511.940 -5.00677e-10 -9.61778e-15
  16 511.940 -5.01132e-10 1.39458e-13
  17 511.940 -5.01132e-10 3.03092e-13
  18 511.940 -5.01435e-10 1.48558e-13
  19 511.940 -5.01359e-10 1.63919e-13
  20 511.940 -5.01738e-10 1.25959e-13
  21 511.940 -5.01132e-10 7.74763e-14
  22 511.940 -5.01132e-10 2.40957e-13
  23 511.940 -5.01738e-10 2.47731e-14
  24 511.940 -5.01738e-10 -2.10019e-13
  25 511.940 -5.01435e-10 -3.03065e-13
  26 511.940 -5.02951e-10 1.87698e-13
  27 511.940 -5.02951e-10 -2.50062e-13
  28 511.940 -5.01132e-10 -5.83018e-14
  29 511.940 -5.01586e-10 -3.17434e-14
  30 511.940 -5.01313e-10 -2.25018e-13
  31 511.940 -5.01586e-10 3.91966e-14
  32 511.940 -5.00980e-10 -1.90123e-13
  33 511.940 -5.01495e-10 -2.75560e-13
  34 511.940 -5.01132e-10 6.41110e-14
  35 511.940 -5.01132e-10 -7.72664e-14
  36 511.940 -5.01313e-10 2.58399e-14
  37 511.940 -5.01586e-10 1.30685e-13
  38 511.940 -5.01283e-10 -5.26746e-14
  39 511.940 -5.01435e-10 2.67377e-14
  40 511.940 -5.01586e-10 -2.09679e-13
  41 511.940 -5.01435e-10 1.08893e-13
  42 511.940 -5.01132e-10 2.14000e-14
  43 511.940 -5.01132e-10 -3.62999e-15
  44 511.940 -5.01359e-10 -1.19998e-13
  45 511.940 -5.01586e-10 -3.63868e-14
  46 511.940 -5.01313e-10 -1.68187e-13
  47 511.940 -5.01521e-10 -4.52342e-14
  48 511.940 -5.01313e-10 2.13609e-13
  49 511.940 -5.01132e-10 -1.57148e-13
  50 511.940 -5.01700e-10 -2.55286e-14
  51 511.940 -5.01738e-10 5.36770e-14
  52 511.940 -5.01283e-10 -1.11516e-13
  53 511.940 -5.01132e-10 1.67651e-13
  54 511.940 -5.01313e-10 -9.21598e-14
  55 511.940 -5.01132e-10 4.34055e-14
  56 511.940 -5.01132e-10 2.49552e-13
  57 511.940 -5.01132e-10 -8.01482e-14
  58 511.940 -5.01586e-10 4.08791e-14
  59 511.940 -5.01435e-10 -1.09088e-13
  60 511.940 -5.01283e-10 -4.35247e-13
  61 511.940 -5.01495e-10 1.44552e-13
  62 511.940 -5.01313e-10 9.04992e-15
  63 511.940 -5.01495e-10 2.09592e-13
  64 511.940 -5.01132e-10 2.57045e-13
  65 511.940 -5.02951e-10 -9.91913e-14
  66 511.940 -5.01132e-10 -1.99103e-13
</Section>

newXOutput 30

<Section columns = "stress_xx | stress_yy | stress_xy">
  1 529.115 -4.96584e-10 -1.71734e-13
  2 529.115 -4.97494e-10 8.39787e-14
  3 529.115 -4.96584e-10 1.08128e-13
  4 529.115 -4.97948e-10 3.19797e-13
  5 529.115 -4.97190e-10 1.05326e-13
  6 529.115 -4.97797e-10 2.56972e-13
  7 529.115 -4.96584e-10 3.59480e-14
  8 529.115 -4.97190e-10 1.37045e-13
  9 529.115 -4.97721e-10 -2.26033e-13
  10 529.115 -4.98403e-10 -4.67624e-13
  11 529.115 -4.97494e-10 -2.18519e-13
  12 529.115 -4.97190e-10 3.83646e-14
  13 529.115 -4.97797e-10 5.33982e-13
  14 529.115 -4.97797e-10 -1.98217e-13
  15 529.115 -4.96584e-10 3.83646e-14
  16 529.115 -4.96584e-10 1.66246e-13
  17 529.115 -4.97190e-10 -5.35298e-13
  18 529.115 -4.97190e-10 -4.31339e-13
  19 529.115 -4.97494e-10 -1.98685e-13
  20 529.115 -4.96887e-10 2.15410e-13
  21 529.115 -4.97948e-10 1.19396e-15
  22 529.115 -4.98100e-10 6.74378e-14
  23 529.115 -4.97797e-10 -1.24201e-13
  24 529.115 -4.97190e-10 -1.02268e-13
  25 529.115 -4.98100e-10 1.10783e-13
  26 529.115 -4.97494e-10 2.11307e-13
  27 529.115 -4.98403e-10 3.83646e-14
  28 529.115 -4.97190e-10 -1.99727e-13
  29 529.115 -4.97948e-10 1.80474e-13
  30 529.115 -4.97494e-10 1.25527e-13
  31 529.115 -4.97948e-10 -1.30439e-13
  32 529.115 -4.97190e-10 4.02670e-13
  33 529.115 -4.97312e-10 2.20430e-13
  34 529.115 -4.96584e-10 -1.44786e-13
  35 529.115 -4.96948e-10 -7.05815e-14
  36 529.115 -4.97130e-10 -1.49644e-13
  37 529.115 -4.97797e-10 -1.52794e-13
  38 529.115 -4.97342e-10 1.92217e-14
  39 529.115 -4.98100e-10 -4.44568e-14
  40 529.115 -4.97797e-10 -2.77822e-13
  41 529.115 -4.98100e-10 9.55758e-14
  42 529.115 -4.97342e-10 1.01846e-13
  43 529.115 -4.96925e-10 1.64357e-13
  44 529.115 -4.97494e-10 7.98153e-14
  45 529.115 -4.97380e-10 -8.87567e-14
  46 529.115 -4.97494e-10 -9.78898e-14
  47 529.115 -4.97364e-10 -8.94305e-14
  48 529.115 -4.98221e-10 1.84053e-14
  49 529.115 -4.97494e-10 -1.28895e-13
  50 529.115 -4.97039e-10 -7.92873e-14
  51 529.115 -4.97494e-10 -4.60380e-14
  52 529.115 -4.97948e-10 -1.11837e-13
  53 529.115 -4.97039e-10 1.92357e-13
  54 529.115 -4.97130e-10 2.46996e-13
  55 529.115 -4.96584e-10 -2.39149e-13
  56 529.115 -4.96584e-10 -7.66907e-14
  57 529.115 -4.97797e-10 2.67028e-13
  58 529.115 -4.97342e-10 9.40974e-14
  59 529.115 -4.97494e-10 2.59286e-14
  60 529.115 -4.97645e-10 -1.72785e-13
  61 529.115 -4.97312e-10 4.66219e-13
  62 529.115 -4.97130e-10 -5.17958e-14
  63 529.115 -4.97312e-10 1.21317e-13
  64 529.115 -4.96948e-10 -2.91303e-13
  65 529.115 -4.98221e-10 -3.99527e-13
  66 529.115 -4.97494e-10 4.18138e-13
</Section>

newXOutput 31

<Section columns = "stress_xx | stress_yy | stress_xy">
  1 546.218 -4.99767e-10 1.53969e-13
  2 546.218 -4.99313e-10 5.73876e-14
  3 546.218 -4.99767e-10 1.33973e-13
  4 546.218 -4.99767e-10 -2.34558e-13
  5 546.218 -4.99616e-10 -1.27074e-13
  6 546.218 -4.99313e-10 -1.69527e-13
  7 546.218 -4.99313e-10 5.86344e-14
  8 546.218 -4.99616e-10 5.75301e-14
  9 546.218 -4.99767e-10 1.00535e-13
  10 546.218 -4.99767e-10 1.79643e-13
  11 546.218 -4.99540e-10 1.58537e-13
  12 546.218 -4.99616e-10 2.23993e-13
  13 546.218 -4.99313e-10 -2.37031e-13
  14 546.218 -4.99313e-10 -1.32515e-13
  15 546.218 -4.99313e-10 -4.78230e-14
  16 546.218 -4.99313e-10 3.36809e-14
  17 546.218 -4.99919e-10 3.44930e-13
  18 546.218 -4.99313e-10 4.29594e-14
  19 546.218 -4.99995e-10 1.41096e-13
  20 546.218 -4.99919e-10 -1.49160e-14
  21 546.218 -4.99995e-10 -1.64988e-14
  22 546.218 -5.00222e-10 2.58811e-13
  23 546.218 -4.99616e-10 7.64359e-14
  24 546.218 -4.99616e-10 1.24492e-13
  25 546.218 -5.00222e-10 -2.01901e-13
  26 546.218 -4.99313e-10 3.05639e-14
  27 546.218 -4.99313e-10 -9.56460e-14
  28 546.218 -4.99919e-10 7.46466e-14
  29 546.218 -4.99767e-10 -5.18528e-14
  30 546.218 -5.00222e-10 5.52542e-14
  31 546.218 -4.99654e-10 -1.27066e-13
  32 546.218 -5.00222e-10 -1.28552e-14
  33 546.218 -5.00040e-10 -4.38743e-14
  34 546.218 -4.99858e-10 1.16217e-13
  35 546.218 -4.99858e-10 1.11277e-13
  36 546.218 -4.99858e-10 9.88039e-14
  37 546.218 -4.99767e-10 3.98680e-14
  38 546.218 -4.99313e-10 -1.56900e-13
  39 546.218 -5.00071e-10 8.45890e-14
  40 546.218 -4.99616e-10 -5.37373e-14
  41 546.218 -5.00071e-10 5.19495e-14
  42 546.218 -5.00071e-10 -8.08627e-14
  43 546.218 -5.00222e-10 8.07980e-14
  44 546.218 -4.99654e-10 -1.75471e-13
  45 546.218 -4.99654e-10 1.12966e-13
  46 546.218 -4.99494e-10 -3.88687e-14
  47 546.218 -4.99832e-10 1.03262e-13
  48 546.218 -5.00040e-10 1.03703e-13
  49 546.218 -4.99313e-10 4.08031e-14
  50 546.218 -4.99767e-10 6.08257e-14
  51 546.218 -5.00222e-10 1.82197e-14
  52 546.218 -4.99767e-10 -1.51493e-13
  53 546.218 -5.00374e-10 2.65431e-14
  54 546.218 -5.00222e-10 -8.47367e-14
  55 546.218 -4.99919e-10 1.30093e-13
  56 546.218 -4.99767e-10 1.03742e-13
  57 546.218 -4.99464e-10 -1.05068e-13
  58 546.218 -4.99767e-10 -1.06327e-13
  59 546.218 -5.00071e-10 -9.36489e-15
  60 546.218 -4.99767e-10 2.19190e-13
  61 546.218 -4.99858e-10 -1.37191e-13
  62 546.218 -4.99858e-10 1.60217e-14
  63 546.218 -4.99494e-10 -2.26158e-15
  64 546.218 -5.00040e-10 -1.57961e-14
  65 546.218 -4.99494e-10 1.08203e-13
  66 546.218 -5.00040e-10 -9.31101e-15
</Section>

newXOutput 32

<Section columns = "stress_xx | stress_yy | stress_xy">
  1 563.248 -4.96129e-10 -4.10441e-14
  2 563.248 -4.96129e-10 1.79397e-13
  3 563.248 -4.94765e-10 1.05739e-13
  4 563.248 -4.96129e-10 2.34630e-14
  5 563.248 -4.96281e-10 -5.72956e-14
  6 563.248 -4.95675e-10 -4.99730e-14
  7 563.248 -4.95675e-10 4.50873e-14
  8 563.248 -4.95978e-10 -5.72956e-14
  9 563.248 -4.96584e-10 -3.53112e-14
  10 563.248 -4.95675e-10 -3.01566e-13
  11 563.248 -4.95675e-10 -2.04256e-13
  12 563.248 -4.96281e-10 -1.92115e-13
  13 563.248 -4.95978e-10 2.13761e-13
  14 563.248 -4.96584e-10 -8.26641e-14
  15 563.248 -4.96584e-10 -1.43072e-13
  16 563.248 -4.95675e-10 -3.37548e-14
  17 563.248 -4.95371e-10 -2.65133e-13
  18 563.248 -4.96281e-10 -4.59698e-13
  19 563.248 -4.95902e-10 1.37716e-13
  20 563.248 -4.95978e-10 3.15912e-13
  21 563.248 -4.96357e-10 2.49307e-13
  22 563.248 -4.96281e-10 8.03378e-14
  23 563.248 -4.95978e-10 3.22729e-14
  24 563.248 -4.95978e-10 1.70687e-14
  25 563.248 -4.96281e-10 1.01046e-14
  26 563.248 -4.95675e-10 2.41500e-14
  27 563.248 -4.96129e-10 1.90763e-14
  28 563.248 -4.96281e-10 -1.11279e-14
  29 563.248 -4.96129e-10 -1.95733e-13
  30 563.248 -4.96038e-10 -9.65503e-14
  31 563.248 -4.96129e-10 -6.60500e-14
  32 563.248 -4.96129e-10 -1.77079e-13
  33 563.248 -4.96038e-10 -1.85709e-13
  34 563.248 -4.96038e-10 5.72813e-14
  35 563.248 -4.96220e-10 -1.39435e-14
  36 563.248 -4.95493e-10 3.25411e-13
  37 563.248 -4.96129e-10 1.15912e-13
  38 563.248 -4.96129e-10 -3.17098e-14
  39 563.248 -4.95978e-10 2.01277e-14
  40 563.248 -4.96584e-10 2.81677e-13
  41 563.248 -4.95978e-10 -5.40632e-14
  42 563.248 -4.95826e-10 2.65512e-14
  43 563.248 -4.96129e-10 -2.04276e-13
  44 563.248 -4.96129e-10 -3.94279e-14
  45 563.248 -4.95902e-10 -2.44123e-14
  46 563.248 -4.96220e-10 -7.36475e-14
  47 563.248 -4.95934e-10 3.59716e-14
  48 563.248 -4.96220e-10 7.23414e-15
  49 563.248 -4.95902e-10 -7.99320e-14
  50 563.248 -4.96129e-10 5.82214e-15
  51 563.248 -4.96281e-10 -1.46089e-14
  52 563.248 -4.96129e-10 -4.34843e-14
  53 563.248 -4.96281e-10 -1.71744e-13
  54 563.248 -4.96038e-10 1.33964e-13
  55 563.248 -4.96433e-10 -3.50149e-14
  56 563.248 -4.95220e-10 5.57268e-14
  57 563.248 -4.96281e-10 1.57751e-13
  58 563.248 -4.95978e-10 3.01881e-14
  59 563.248 -4.95826e-10 -4.98442e-14
  60 563.248 -4.95826e-10 -5.18703e-14
  61 563.248 -4.96402e-10 -7.04225e-15
  62 563.248 -4.96038e-10 8.05129e-14
  63 563.248 -4.96220e-10 -7.17607e-14
  64 563.248 -4.95857e-10 -1.14862e-14
  65 563.248 -4.96220e-10 2.03243e-13
  66 563.248 -4.95857e-10 6.17745e-14
</Section>

newXOutput 33

<Section columns = "stress_xx | stress_yy | stress_xy">
  1 580.207 -4.95675e-10 -5.01242e-14
  2 580.207 -4.95675e-10 -6.81555e-14
  3 580.207 -4.92946e-10 2.04209e-14
  4 580.207 -4.92946e-10 1.46643e-13
  5 580.207 -4.95675e-10 -2.39094e-13
  6 580.207 -4.95675e-10 -1.23023e-13
  7 580.207 -4.93856e-10 2.29770e-13
  8 580.207 -4.92946e-10 1.00361e-14
  9 580.207 -4.94992e-10 -1.58434e-13
  10 580.207 -4.95675e-10 -3.04378e-13
  11 580.207 -4.95675e-10 -1.12906e-14
  12 580.207 -4.95978e-10 1.23129e-13
  13 580.207 -4.95978e-10 2.79563e-13
  14 580.207 -4.95675e-10 -1.06752e-13
  15 580.207 -4.95675e-10 2.94867e-13
  16 580.207 -4.94765e-10 9.56551e-14
  17 580.207 -4.93856e-10 2.70479e-13
  18 580.207 -4.95675e-10 -1.34061e-13
  19 580.207 -4.95675e-10 -9.43391e-14
  20 580.207 -4.95675e-10 -4.31128e-14
  21 580.207 -4.94992e-10 1.05694e-15
  22 580.207 -4.93856e-10 -3.12155e-13
  23 580.207 -4.95675e-10 -8.93336e-14
  24 580.207 -4.93856e-10 6.13126e-14
  25 580.207 -4.92946e-10 3.22489e-13
  26 580.207 -4.94765e-10 1.46672e-14
  27 580.207 -4.95675e-10 -1.52189e-13
  28 580.207 -4.95675e-10 -1.23654e-13
  29 580.207 -4.95675e-10 -4.49029e-14
  30 580.207 -4.95675e-10 -5.55234e-14
  31 580.207 -4.95334e-10 2.00540e-13
  32 580.207 -4.94765e-10 4.61243e-13
  33 580.207 -4.94583e-10 -5.16035e-14
  34 580.207 -4.95129e-10 1.02056e-13
  35 580.207 -4.95675e-10 -1.07626e-13
  36 580.207 -4.94583e-10 -1.93569e-13
  37 580.207 -4.95220e-10 -3.41246e-13
  38 580.207 -4.94310e-10 1.60959e-13
  39 580.207 -4.94310e-10 -5.77804e-14
  40 580.207 -4.95220e-10 -2.01547e-13
  41 580.207 -4.95675e-10 4.22438e-13
  42 580.207 -4.94765e-10 2.70897e-13
  43 580.207 -4.95334e-10 -3.05718e-14
  44 580.207 -4.95334e-10 8.63437e-14
  45 580.207 -4.94992e-10 -3.91386e-14
  46 580.207 -4.94583e-10 -4.68645e-14
  47 580.207 -4.95285e-10 -2.74486e-13
  48 580.207 -4.94583e-10 -1.11465e-13
  49 580.207 -4.95675e-10 -4.59722e-14
  50 580.207 -4.95334e-10 1.70513e-15
  51 580.207 -4.95675e-10 1.47964e-14
  52 580.207 -4.94765e-10 8.14299e-14
  53 580.207 -4.95220e-10 -1.09118e-13
  54 580.207 -4.95129e-10 3.05061e-13
  55 580.207 -4.95675e-10 -2.10075e-13
  56 580.207 -4.93856e-10 6.44147e-14
  57 580.207 -4.95220e-10 -6.71757e-14
  58 580.207 -4.94310e-10 1.92484e-13
  59 580.207 -4.95220e-10 8.68761e-14
  60 580.207 -4.95675e-10 -1.00825e-13
  61 580.207 -4.94765e-10 5.76252e-14
  62 580.207 -4.94038e-10 1.49451e-13
  63 580.207 -4.95675e-10 -1.79172e-13
  64 580.207 -4.94038e-10 1.01804e-13
  65 580.207 -4.95129e-10 -2.26059e-13
  66 580.207 -4.95675e-10 2.80974e-13
</Section>

newXOutput 34

<Section columns = "stress_xx | stress_yy | stress_xy">
  1 597.095 -4.92491e-10 1.14848e-13
  2 597.095 -4.92946e-10 -1.40965e-13
  3 597.095 -4.92491e-10 9.55379e-15
  4 597.095 -4.92946e-10 1.24675e-13
  5 597.095 -4.92946e-10 -2.52949e-14
  6 597.095 -4.92946e-10 -9.84575e-14
  7 597.095 -4.92643e-10 -1.21657e-14
  8 597.095 -4.92340e-10 -1.91073e-13
  9 597.095 -4.92946e-10 -2.84568e-14
  10 597.095 -4.92946e-10 -4.52670e-13
  11 597.095 -4.93174e-10 3.06247e-15
  12 597.095 -4.92946e-10 1.06624e-13
  13 597.095 -4.93856e-10 -1.06624e-13
  14 597.095 -4.93249e-10 1.26475e-14
  15 597.095 -4.94765e-10 -7.80972e-29
  16 597.095 -4.93856e-10 -9.32750e-14
  17 597.095 -4.92340e-10 1.32148e-13
  18 597.095 -4.92946e-10 -2.58117e-13
  19 597.095 -4.92946e-10 1.93279e-13
  20 597.095 -4.92946e-10 1.61339e-13
  21 597.095 -4.92946e-10 -1.30088e-14
  22 597.095 -4.92946e-10 -8.87854e-14
  23 597.095 -4.92946e-10 -3.58246e-14
  24 597.095 -4.92643e-10 -6.84335e-14
  25 597.095 -4.92643e-10 1.60584e-13
  26 597.095 -4.92946e-10 -8.05071e-14
  27 597.095 -4.92946e-10 -1.13827e-13
  28 597.095 -4.92643e-10 -7.04614e-14
  29 597.095 -4.92946e-10 5.92699e-14
  30 597.095 -4.92764e-10 -1.89790e-13
  31 597.095 -4.92946e-10 -1.19178e-15
  32 597.095 -4.92795e-10 -2.09055e-13
  33 597.095 -4.94038e-10 1.52492e-13
  34 597.095 -4.92582e-10 1.18389e-13
  35 597.095 -4.92946e-10 2.65935e-14
  36 597.095 -4.92582e-10 -1.47843e-13
  37 597.095 -4.93098e-10 1.35892e-13
  38 597.095 -4.92643e-10 -1.30990e-13
  39 597.095 -4.92946e-10 -6.47177e-14
  40 597.095 -4.92946e-10 2.11899e-13
  41 597.095 -4.92946e-10 1.58029e-14
  42 597.095 -4.92643e-10 -1.47959e-13
  43 597.095 -4.92946e-10 1.48631e-13
  44 597.095 -4.92946e-10 7.22402e-14
  45 597.095 -4.92832e-10 1.50386e-14
  46 597.095 -4.92764e-10 2.14358e-14
  47 597.095 -4.92816e-10 -2.05443e-13
  48 597.095 -4.92946e-10 3.22983e-15
  49 597.095 -4.93742e-10 -1.16297e-13
  50 597.095 -4.92946e-10 -2.95815e-14
  51 597.095 -4.92946e-10 -1.35046e-14
  52 597.095 -4.92946e-10 -1.13201e-13
  53 597.095 -4.92643e-10 -1.50715e-13
  54 597.095 -4.92946e-10 2.98471e-14
  55 597.095 -4.92795e-10 1.08104e-15
  56 597.095 -4.92491e-10 -6.74066e-15
  57 597.095 -4.94310e-10 8.25698e-14
  58 597.095 -4.92795e-10 4.74955e-14
  59 597.095 -4.92946e-10 1.41259e-13
  60 597.095 -4.92946e-10 -1.60464e-13
  61 597.095 -4.94038e-10 2.92904e-13
  62 597.095 -4.92400e-10 6.40921e-14
  63 597.095 -4.92946e-10 -6.68459e-14
  64 597.095 -4.92400e-10 -1.30396e-13
  65 597.095 -4.93128e-10 1.36643e-13
  66 597.095 -4.92946e-10 -1.66368e-13
</Section>

newXOutput 35

<Section columns = "stress_xx | stress_yy | stress_xy">
  1 613.912 -4.92037e-10 -1.68207e-14
  2 613.912 -4.92037e-10 3.11096e-13
  3 613.912 -4.92037e-10 -3.07413e-13
  4 613.912 -4.92037e-10 2.74910e-14
  5 613.912 -4.92037e-10 -2.45258e-14
  6 613.912 -4.92037e-10 -8.75889e-14
  7 613.912 -4.92037e-10 4.19645e-15
  8 613.912 -4.92037e-10 -6.58607e-14
  9 613.912 -4.91809e-10 -6.51671e-14
  10 613.912 -4.92037e-10 -2.92177e-13
  11 613.912 -4.91809e-10 -7.88230e-14
  12 613.912 -4.92037e-10 -7.35891e-14
  13 613.912 -4.91733e-10 2.33998e-13
  14 613.912 -4.92037e-10 -5.59526e-15
  15 613.912 -4.92037e-10 1.89189e-14
  16 613.912 -4.92037e-10 2.13610e-14
  17 613.912 -4.92037e-10 -4.24927e-13
  18 613.912 -4.92037e-10 -3.33245e-13
  19 613.912 -4.92037e-10 9.85477e-15
  20 613.912 -4.92037e-10 1.38013e-13
  21 613.912 -4.92037e-10 1.61611e-13
  22 613.912 -4.92037e-10 1.16144e-13
  23 613.912 -4.92037e-10 4.38462e-14
  24 613.912 -4.92037e-10 -4.25049e-14
  25 613.912 -4.92037e-10 1.31010e-14
  26 613.912 -4.92037e-10 -5.25720e-15
  27 613.912 -4.92037e-10 3.78379e-14
  28 613.912 -4.92037e-10 -3.15315e-14
  29 613.912 -4.92037e-10 3.84284e-14
  30 613.912 -4.92037e-10 -4.75528e-15
  31 613.912 -4.91923e-10 -1.94413e-14
  32 613.912 -4.92037e-10 -1.88300e-14
  33 613.912 -4.92037e-10 6.45097e-14
  34 613.912 -4.92037e-10 5.57969e-14
  35 613.912 -4.92037e-10 1.18724e-14
  36 613.912 -4.92037e-10 5.05408e-14
  37 613.912 -4.91733e-10 5.13276e-14
  38 613.912 -4.92037e-10 -3.17562e-14
  39 613.912 -4.92037e-10 2.83883e-14
  40 613.912 -4.91582e-10 -2.09326e-14
  41 613.912 -4.92037e-10 7.79111e-14
  42 613.912 -4.92037e-10 9.95706e-14
  43 613.912 -4.92037e-10 2.44514e-14
  44 613.912 -4.92037e-10 -1.87548e-14
  45 613.912 -4.92037e-10 3.90202e-14
  46 613.912 -4.91855e-10 1.94330e-14
  47 613.912 -4.92037e-10 1.37872e-14
  48 613.912 -4.92037e-10 4.16090e-14
  49 613.912 -4.92037e-10 1.14244e-14
  50 613.912 -4.92037e-10 1.02441e-14
  51 613.912 -4.91733e-10 6.97675e-15
  52 613.912 -4.92037e-10 -2.06319e-14
  53 613.912 -4.92037e-10 4.85570e-14
  54 613.912 -4.92037e-10 1.01530e-14
  55 613.912 -4.92037e-10 -1.73453e-14
  56 613.912 -4.92037e-10 -8.62726e-14
  57 613.912 -4.91885e-10 1.49408e-13
  58 613.912 -4.92037e-10 1.38876e-14
  59 613.912 -4.92037e-10 4.43579e-14
  60 613.912 -4.92037e-10 1.56053e-14
  61 613.912 -4.91855e-10 1.74012e-13
  62 613.912 -4.92037e-10 3.89848e-15
  63 613.912 -4.92037e-10 -7.46615e-15
  64 613.912 -4.92037e-10 -1.97055e-13
  65 613.912 -4.91855e-10 -6.01139e-14
  66 613.912 -4.92037e-10 7.27616e-14
</Section>

newXOutput 36

<Section columns = "stress_xx | stress_yy | stress_xy">
  1 630.659 -4.89308e-10 1.07725e-15
  2 630.659 -4.87944e-10 -2.35020e-13
  3 630.659 -4.89308e-10 1.53566e-13
  4 630.659 -4.88853e-10 2.47010e-14
  5 630.659 -4.89005e-10 -2.80285e-14
  6 630.659 -4.88399e-10 -1.51284e-13
  7 630.659 -4.88702e-10 -1.70869e-13
  8 630.659 -4.88702e-10 1.49848e-13
  9 630.659 -4.88853e-10 1.21266e-14
  10 630.659 -4.88853e-10 -4.87277e-13
  11 630.659 -4.89308e-10 3.42401e-14
  12 630.659 -4.89611e-10 -4.55832e-13
  13 630.659 -4.89308e-10 -6.28507e-13
  14 630.659 -4.87792e-10 -3.77337e-14
  15 630.659 -4.88399e-10 -5.66006e-14
  16 630.659 -4.89005e-10 -6.91785e-14
  17 630.659 -4.88702e-10 3.24513e-13
  18 630.659 -4.89005e-10 8.49910e-14
  19 630.659 -4.89081e-10 1.46307e-13
  20 630.659 -4.89308e-10 1.12876e-13
  21 630.659 -4.89081e-10 -2.20786e-14
  22 630.659 -4.87186e-10 -1.14625e-14
  23 630.659 -4.87792e-10 3.49630e-14
  24 630.659 -4.88702e-10 -3.53718e-15
  25 630.659 -4.89005e-10 4.73725e-14
  26 630.659 -4.88702e-10 1.50042e-14
  27 630.659 -4.88853e-10 5.66006e-14
  28 630.659 -4.89308e-10 -1.55865e-14
  29 630.659 -4.89081e-10 -1.60373e-14
  30 630.659 -4.88944e-10 -7.09427e-14
  31 630.659 -4.88967e-10 -5.12982e-14
  32 630.659 -4.89157e-10 -5.52416e-14
  33 630.659 -4.88944e-10 2.06511e-13
  34 630.659 -4.88581e-10 3.38388e-14
  35 630.659 -4.88762e-10 1.84913e-14
  36 630.659 -4.89126e-10 6.45225e-15
  37 630.659 -4.89157e-10 2.66563e-13
  38 630.659 -4.88702e-10 -9.73244e-14
  39 630.659 -4.87944e-10 1.91277e-14
  40 630.659 -4.89157e-10 2.24046e-13
  41 630.659 -4.89157e-10 -1.62477e-14
  42 630.659 -4.89005e-10 -1.45170e-13
  43 630.659 -4.89194e-10 1.24669e-13
  44 630.659 -4.88512e-10 -9.22735e-14
  45 630.659 -4.88740e-10 3.75099e-14
  46 630.659 -4.88944e-10 1.40723e-13
  47 630.659 -4.88918e-10 -5.87095e-14
  48 630.659 -4.88217e-10 -3.65019e-14
  49 630.659 -4.88967e-10 -3.60449e-14
  50 630.659 -4.88967e-10 -1.43026e-15
  51 630.659 -4.89157e-10 5.68421e-14
  52 630.659 -4.88853e-10 -8.44914e-14
  53 630.659 -4.89157e-10 -2.79166e-14
  54 630.659 -4.89308e-10 -1.03460e-14
  55 630.659 -4.89308e-10 -3.14205e-14
  56 630.659 -4.89157e-10 1.63570e-14
  57 630.659 -4.88550e-10 3.05907e-14
  58 630.659 -4.88853e-10 2.97167e-14
  59 630.659 -4.88550e-10 4.30596e-14
  60 630.659 -4.89308e-10 4.97587e-14
  61 630.659 -4.89126e-10 -1.70266e-14
  62 630.659 -4.88581e-10 6.10059e-14
  63 630.659 -4.88762e-10 -6.96937e-14
  64 630.659 -4.88762e-10 -8.32679e-14
  65 630.659 -4.88944e-10 7.21833e-14
  66 630.659 -4.89490e-10 -9.10661e-14
</Section>

newXOutput 37

<Section columns = "stress_xx | stress_yy | stress_xy">
  1 647.335 -4.89308e-10 6.19713e-14
  2 647.335 -4.88399e-10 -1.50520e-13
  3 647.335 -4.89308e-10 7.14394e-17
  4 647.335 -4.89308e-10 -3.69361e-14
  5 647.335 -4.88702e-10 8.18916e-14
  6 647.335 -4.86277e-10 4.35247e-14
  7 647.335 -4.86883e-10 1.81502e-13
  8 647.335 -4.87489e-10 1.88150e-13
  9 647.335 -4.87944e-10 3.75169e-13
  10 647.335 -4.87489e-10 4.49298e-13
  11 647.335 -4.87034e-10 -2.77599e-15
  12 647.335 -4.88095e-10 -4.25343e-13
  13 647.335 -4.88702e-10 -2.28728e-13
  14 647.335 -4.88702e-10 -5.68220e-14
  15 647.335 -4.87489e-10 -3.76300e-14
  16 647.335 -4.88702e-10 1.28192e-13
  17 647.335 -4.89308e-10 2.50557e-14
  18 647.335 -4.87489e-10 4.48034e-13
  19 647.335 -4.87489e-10 2.87674e-14
  20 647.335 -4.87489e-10 -1.99352e-13
  21 647.335 -4.87489e-10 -1.53722e-13
  22 647.335 -4.89308e-10 1.10165e-13
  23 647.335 -4.88702e-10 -1.25882e-13
  24 647.335 -4.88702e-10 -4.23599e-13
  25 647.335 -4.89308e-10 -6.13342e-14
  26 647.335 -4.88702e-10 -1.32802e-14
  27 647.335 -4.88399e-10 -3.76300e-14
  28 647.335 -4.88702e-10 -3.82726e-14
  29 647.335 -4.86580e-10 1.32172e-13
  30 647.335 -4.87489e-10 7.47396e-15
  31 647.335 -4.87717e-10 -1.18866e-13
  32 647.335 -4.87489e-10 2.63157e-13
  33 647.335 -4.88217e-10 -1.95676e-13
  34 647.335 -4.87489e-10 9.06989e-14
  35 647.335 -4.87853e-10 7.54798e-14
  36 647.335 -4.87489e-10 4.64237e-13
  37 647.335 -4.88399e-10 -3.20716e-13
  38 647.335 -4.87489e-10 1.17879e-13
  39 647.335 -4.88702e-10 -1.81812e-13
  40 647.335 -4.89005e-10 -1.26119e-13
  41 647.335 -4.87489e-10 -1.09853e-14
  42 647.335 -4.87186e-10 1.21034e-13
  43 647.335 -4.87489e-10 -1.61267e-13
  44 647.335 -4.86580e-10 1.51024e-13
  45 647.335 -4.88171e-10 -7.23775e-14
  46 647.335 -4.88217e-10 3.01081e-13
  47 647.335 -4.86969e-10 3.93417e-13
  48 647.335 -4.88217e-10 -1.50821e-13
  49 647.335 -4.88171e-10 1.09690e-13
  50 647.335 -4.88171e-10 -6.26043e-15
  51 647.335 -4.88399e-10 1.04986e-14
  52 647.335 -4.87186e-10 -1.07304e-13
  53 647.335 -4.88095e-10 7.31738e-14
  54 647.335 -4.87489e-10 6.56379e-14
  55 647.335 -4.89308e-10 2.77127e-14
  56 647.335 -4.88702e-10 1.22947e-13
  57 647.335 -4.89005e-10 -5.92210e-14
  58 647.335 -4.87792e-10 -1.03709e-13
  59 647.335 -4.87186e-10 2.32188e-13
  60 647.335 -4.87186e-10 8.32276e-14
  61 647.335 -4.88944e-10 -3.93553e-13
  62 647.335 -4.88217e-10 -1.77675e-13
  63 647.335 -4.87853e-10 8.26691e-14
  64 647.335 -4.88217e-10 4.20597e-13
  65 647.335 -4.88581e-10 -6.20999e-15
  66 647.335 -4.87489e-10 -9.85355e-14
</Section>

newXOutput 38

<Section columns = "stress_xx | stress_yy | stress_xy">
  1 663.942 -4.86125e-10 -3.97929e-14
  2 663.942 -4.87489e-10 -6.53549e-14
  3 663.942 -4.87489e-10 -8.40513e-14
  4 663.942 -4.86125e-10 -3.10712e-14
  5 663.942 -4.87489e-10 1.59530e-14
  6 663.942 -4.87489e-10 6.82548e-14
  7 663.942 -4.87489e-10 -2.12408e-14
  8 663.942 -4.87489e-10 -2.15673e-13
  9 663.942 -4.87489e-10 -6.56718e-14
  10 663.942 -4.87489e-10 -6.53549e-14
  11 663.942 -4.87489e-10 -1.16954e-13
  12 663.942 -4.87489e-10 -1.40831e-13
  13 663.942 -4.87489e-10 -2.84261e-13
  14 663.942 -4.87489e-10 6.25445e-14
  15 663.942 -4.87489e-10 -3.75267e-14
  16 663.942 -4.87489e-10 2.63702e-14
  17 663.942 -4.87489e-10 1.11927e-13
  18 663.942 -4.87489e-10 3.77689e-13
  19 663.942 -4.87489e-10 1.61328e-14
  20 663.942 -4.87489e-10 6.20325e-14
  21 663.942 -4.87489e-10 -6.48174e-14
  22 663.942 -4.86277e-10 -5.47411e-14
  23 663.942 -4.87489e-10 -6.48861e-15
  24 663.942 -4.87489e-10 -4.64509e-14
  25 663.942 -4.87489e-10 -1.27394e-13
  26 663.942 -4.86580e-10 -4.01706e-14
  27 663.942 -4.87489e-10 1.50107e-13
  28 663.942 -4.86580e-10 -7.00986e-15
  29 663.942 -4.87489e-10 -2.24908e-13
  30 663.942 -4.87489e-10 3.79230e-14
  31 663.942 -4.87489e-10 1.55034e-13
  32 663.942 -4.87489e-10 -6.30726e-15
  33 663.942 -4.87489e-10 -3.33871e-13
  34 663.942 -4.87489e-10 1.23853e-13
  35 663.942 -4.87489e-10 -2.69169e-14
  36 663.942 -4.87489e-10 -3.00350e-13
  37 663.942 -4.87034e-10 1.36969e-13
  38 663.942 -4.87489e-10 1.18797e-14
  39 663.942 -4.86883e-10 9.82487e-14
  40 663.942 -4.87034e-10 1.54670e-13
  41 663.942 -4.87489e-10 2.34767e-14
  42 663.942 -4.87489e-10 -3.50493e-15
  43 663.942 -4.87489e-10 -7.41937e-14
  44 663.942 -4.87489e-10 -4.10540e-15
  45 663.942 -4.87489e-10 -7.22993e-15
  46 663.942 -4.87489e-10 -1.12849e-14
  47 663.942 -4.87489e-10 -4.96401e-14
  48 663.942 -4.86762e-10 -4.29583e-14
  49 663.942 -4.87489e-10 -8.72481e-14
  50 663.942 -4.87489e-10 -2.52247e-14
  51 663.942 -4.87034e-10 1.14008e-13
  52 663.942 -4.87489e-10 6.60514e-14
  53 663.942 -4.87489e-10 1.22791e-13
  54 663.942 -4.87489e-10 -3.96164e-14
  55 663.942 -4.87034e-10 -4.63804e-15
  56 663.942 -4.87489e-10 -1.28870e-13
  57 663.942 -4.87489e-10 -1.99342e-13
  58 663.942 -4.87034e-10 -7.70197e-15
  59 663.942 -4.87489e-10 -1.05973e-13
  60 663.942 -4.87489e-10 -2.08016e-13
  61 663.942 -4.87489e-10 -2.28270e-13
  62 663.942 -4.87489e-10 4.35381e-14
  63 663.942 -4.87489e-10 1.02985e-13
  64 663.942 -4.87489e-10 -1.63923e-13
  65 663.942 -4.87489e-10 -1.10679e-14
  66 663.942 -4.87489e-10 -2.35798e-14
</Section>

newXOutput 39

<Section columns = "stress_xx | stress_yy | stress_xy">
  1 680.480 -4.83851e-10 -1.98727e-14
  2 680.480 -4.83851e-10 -1.49556e-13
  3 680.480 -4.85670e-10 1.48066e-13
  4 680.480 -4.87489e-10 5.43579e-14
  5 680.480 -4.83851e-10 -2.57231e-14
  6 680.480 -4.85064e-10 1.12271e-13
  7 680.480 -4.86277e-10 9.19655e-14
  8 680.480 -4.83851e-10 -1.54776e-15
  9 680.480 -4.84761e-10 1.43822e-13
  10 680.480 -4.85670e-10 5.51793e-13
  11 680.480 -4.84761e-10 7.94909e-14
  12 680.480 -4.85064e-10 -1.30983e-13
  13 680.480 -4.85064e-10 -2.08880e-13
  14 680.480 -4.83851e-10 1.87582e-14
  15 680.480 -4.83851e-10 -5.67980e-29
  16 680.480 -4.83851e-10 -6.39324e-14
  17 680.480 -4.84761e-10 2.54255e-13
  18 680.480 -4.85064e-10 -1.55200e-13
  19 680.480 -4.84761e-10 2.26978e-14
  20 680.480 -4.86277e-10 9.55213e-14
  21 680.480 -4.83851e-10 -2.35391e-13
  22 680.480 -4.85064e-10 -1.05007e-13
  23 680.480 -4.83851e-10 5.13757e-14
  24 680.480 -4.85064e-10 1.29270e-13
  25 680.480 -4.86277e-10 4.04104e-14
  26 680.480 -4.86277e-10 -3.31212e-14
  27 680.480 -4.83851e-10 5.61357e-14
  28 680.480 -4.83851e-10 2.57462e-14
  29 680.480 -4.85670e-10 -1.19858e-13
  30 680.480 -4.83851e-10 -7.59685e-14
  31 680.480 -4.84306e-10 1.84371e-14
  32 680.480 -4.85670e-10 5.61357e-14
  33 680.480 -4.86580e-10 -3.35747e-13
  34 680.480 -4.83851e-10 2.78094e-14
  35 680.480 -4.83851e-10 -4.43376e-14
  36 680.480 -4.85306e-10 -6.08345e-14
  37 680.480 -4.83851e-10 -1.74942e-13
  38 680.480 -4.85064e-10 1.84712e-14
  39 680.480 -4.84458e-10 1.06166e-14
  40 680.480 -4.84458e-10 6.67879e-14
  41 680.480 -4.84458e-10 -4.89523e-14
  42 680.480 -4.85064e-10 -3.97223e-14
  43 680.480 -4.84647e-10 -1.01716e-13
  44 680.480 -4.85215e-10 2.56763e-14
  45 680.480 -4.84761e-10 4.54311e-14
  46 680.480 -4.84579e-10 3.99079e-14
  47 680.480 -4.84891e-10 -6.08643e-14
  48 680.480 -4.84579e-10 -1.44345e-13
  49 680.480 -4.85215e-10 -1.29177e-13
  50 680.480 -4.84306e-10 -3.96382e-14
  51 680.480 -4.83851e-10 3.79830e-14
  52 680.480 -4.85064e-10 4.38506e-15
  53 680.480 -4.84458e-10 -1.30134e-13
  54 680.480 -4.86034e-10 5.31217e-14
  55 680.480 -4.83851e-10 -2.64854e-14
  56 680.480 -4.84306e-10 4.54107e-14
  57 680.480 -4.85670e-10 -2.06501e-13
  58 680.480 -4.85670e-10 2.09258e-15
  59 680.480 -4.84458e-10 -1.33975e-13
  60 680.480 -4.85670e-10 -1.22160e-13
  61 680.480 -4.85124e-10 -1.46868e-13
  62 680.480 -4.84579e-10 1.05118e-13
  63 680.480 -4.83851e-10 3.85474e-14
  64 680.480 -4.85124e-10 5.38067e-15
  65 680.480 -4.84579e-10 2.45057e-13
  66 680.480 -4.85306e-10 -4.65889e-15
</Section>

newXOutput 40

<Section columns = "stress_xx | stress_yy | stress_xy">
  1 696.948 -4.82942e-10 -2.13586e-13
  2 696.948 -4.82032e-10 -5.51020e-13
  3 696.948 -4.82942e-10 -2.76965e-15
  4 696.948 -4.83851e-10 1.54038e-13
  5 696.948 -4.82942e-10 -3.96189e-13
  6 696.948 -4.83245e-10 -3.24951e-13
  7 696.948 -4.83245e-10 -5.53076e-14
  8 696.948 -4.82335e-10 6.69557e-14
  9 696.948 -4.82487e-10 -7.93962e-14
  10 696.948 -4.84306e-10 -1.30625e-13
  11 696.948 -4.83396e-10 -2.05267e-13
  12 696.948 -4.82639e-10 -3.30261e-13
  13 696.948 -4.82032e-10 -4.57834e-13
  14 696.948 -4.82942e-10 1.24640e-13
  15 696.948 -4.82942e-10 3.73213e-14
  16 696.948 -4.82942e-10 -2.02157e-14
  17 696.948 -4.82942e-10 4.13577e-13
  18 696.948 -4.84458e-10 -3.50959e-13
  19 696.948 -4.83624e-10 1.01868e-13
  20 696.948 -4.82942e-10 -1.66181e-13
  21 696.948 -4.82714e-10 -3.71589e-14
  22 696.948 -4.81729e-10 1.71824e-13
  23 696.948 -4.81729e-10 2.14221e-14
  24 696.948 -4.81729e-10 -2.46844e-13
  25 696.948 -4.82942e-10 -3.22582e-14
  26 696.948 -4.82335e-10 1.01959e-13
  27 696.948 -4.82032e-10 -5.59820e-14
  28 696.948 -4.82942e-10 4.72409e-15
  29 696.948 -4.82942e-10 2.03437e-13
  30 696.948 -4.82760e-10 -2.29515e-13
  31 696.948 -4.82942e-10 -5.87369e-14
  32 696.948 -4.83548e-10 -1.72010e-13
  33 696.948 -4.82760e-10 -6.27783e-14
  34 696.948 -4.82214e-10 2.33855e-13
  35 696.948 -4.82214e-10 -1.93039e-15
  36 696.948 -4.82942e-10 1.27914e-13
  37 696.948 -4.82184e-10 -1.98269e-14
  38 696.948 -4.82942e-10 2.22221e-14
  39 696.948 -4.82335e-10 -4.84072e-14
  40 696.948 -4.82942e-10 -1.39560e-13
  41 696.948 -4.83396e-10 9.70437e-14
  42 696.948 -4.83700e-10 2.56011e-15
  43 696.948 -4.81919e-10 -1.86266e-13
  44 696.948 -4.82828e-10 -4.32892e-14
  45 696.948 -4.82032e-10 5.60154e-14
  46 696.948 -4.82578e-10 2.58246e-14
  47 696.948 -4.83591e-10 -2.37212e-14
  48 696.948 -4.82214e-10 4.41070e-14
  49 696.948 -4.82714e-10 1.80775e-14
  50 696.948 -4.82260e-10 1.52823e-13
  51 696.948 -4.82335e-10 2.31937e-13
  52 696.948 -4.82942e-10 -8.76236e-14
  53 696.948 -4.82184e-10 -1.65702e-13
  54 696.948 -4.83669e-10 -2.22683e-13
  55 696.948 -4.82639e-10 -1.50210e-13
  56 696.948 -4.83245e-10 1.07153e-13
  57 696.948 -4.82942e-10 2.72871e-14
  58 696.948 -4.82639e-10 1.71641e-13
  59 696.948 -4.82942e-10 2.65783e-13
  60 696.948 -4.82032e-10 -2.22959e-13
  61 696.948 -4.82760e-10 -1.23946e-14
  62 696.948 -4.82214e-10 9.69863e-15
  63 696.948 -4.82214e-10 -4.28364e-13
  64 696.948 -4.84033e-10 1.22255e-13
  65 696.948 -4.83669e-10 -2.24105e-13
  66 696.948 -4.83851e-10 -3.44388e-13
</Section>

newXOutput 41

<Section columns = "stress_xx | stress_yy | stress_xy">
  1 713.348 -4.81123e-10 -3.84350e-14
  2 713.348 -4.81123e-10 2.61378e-13
  3 713.348 -4.81123e-10 2.94001e-14
  4 713.348 -4.82032e-10 -1.16545e-13
  5 713.348 -4.81123e-10 1.15959e-14
  6 713.348 -4.81123e-10 6.77058e-14
  7 713.348 -4.81123e-10 6.44636e-14
  8 713.348 -4.81123e-10 1.07853e-14
  9 713.348 -4.81577e-10 2.66986e-14
  10 713.348 -4.81123e-10 3.35816e-13
  11 713.348 -4.81123e-10 -4.69457e-14
  12 713.348 -4.81123e-10 -9.09304e-14
  13 713.348 -4.81123e-10 4.41271e-13
  14 713.348 -4.82335e-10 -2.48128e-14
  15 713.348 -4.82032e-10 -7.44384e-14
  16 713.348 -4.81123e-10 -1.07286e-13
  17 713.348 -4.81123e-10 -5.28710e-14
  18 713.348 -4.81123e-10 -3.30951e-13
  19 713.348 -4.81577e-10 -1.48372e-13
  20 713.348 -4.82335e-10 -2.23321e-13
  21 713.348 -4.81123e-10 3.59217e-14
  22 713.348 -4.81729e-10 5.18893e-14
  23 713.348 -4.82942e-10 -8.35382e-15
  24 713.348 -4.82942e-10 -7.83296e-14
  25 713.348 -4.82942e-10 -6.97013e-14
  26 713.348 -4.81729e-10 1.79396e-14
  27 713.348 -4.81123e-10 5.58288e-14
  28 713.348 -4.81123e-10 9.08975e-14
  29 713.348 -4.82032e-10 1.71510e-15
  30 713.348 -4.81850e-10 2.65059e-13
  31 713.348 -4.81123e-10 -1.43530e-13
  32 713.348 -4.81426e-10 1.47467e-13
  33 713.348 -4.81850e-10 7.21754e-14
  34 713.348 -4.82214e-10 1.01800e-13
  35 713.348 -4.81850e-10 9.37546e-15
  36 713.348 -4.81850e-10 -1.17493e-13
  37 713.348 -4.81729e-10 -2.35507e-13
  38 713.348 -4.81123e-10 3.03854e-14
  39 713.348 -4.81729e-10 -6.86269e-14
  40 713.348 -4.81426e-10 -1.92231e-13
  41 713.348 -4.81123e-10 -1.30849e-14
  42 713.348 -4.81123e-10 1.44233e-13
  43 713.348 -4.82032e-10 1.32250e-13
  44 713.348 -4.81350e-10 5.67665e-15
  45 713.348 -4.82487e-10 4.41410e-14
  46 713.348 -4.81123e-10 2.23688e-14
  47 713.348 -4.81383e-10 -1.11343e-13
  48 713.348 -4.81123e-10 3.79266e-14
  49 713.348 -4.82032e-10 -7.05257e-14
  50 713.348 -4.81577e-10 4.12527e-14
  51 713.348 -4.81729e-10 -2.17823e-13
  52 713.348 -4.81426e-10 -7.99943e-14
  53 713.348 -4.82335e-10 8.25449e-14
  54 713.348 -4.81850e-10 7.54608e-14
  55 713.348 -4.81426e-10 2.84602e-14
  56 713.348 -4.81123e-10 -7.81013e-14
  57 713.348 -4.81426e-10 9.13028e-14
  58 713.348 -4.82639e-10 2.27323e-14
  59 713.348 -4.81426e-10 1.03909e-14
  60 713.348 -4.82335e-10 1.75274e-13
  61 713.348 -4.81486e-10 6.24489e-14
  62 713.348 -4.82942e-10 5.56119e-14
  63 713.348 -4.81850e-10 2.27992e-14
  64 713.348 -4.81123e-10 -1.06924e-13
  65 713.348 -4.81486e-10 -9.71916e-14
  66 713.348 -4.81486e-10 3.99997e-14
</Section>

newXOutput 42

<Section columns = "stress_xx | stress_yy | stress_xy">
  1 729.679 -4.84761e-10 -5.44331e-14
  2 729.679 -4.84761e-10 3.71175e-14
  3 729.679 -4.84761e-10 -1.86822e-13
  4 729.679 -4.84761e-10 -2.24005e-14
  5 729.679 -4.84761e-10 -1.23725e-14
  6 729.679 -4.84761e-10 6.02050e-14
  7 729.679 -4.84761e-10 9.05755e-15
  8 729.679 -4.84761e-10 4.04324e-14
  9 729.679 -4.84761e-10 9.27937e-15
  10 729.679 -4.84761e-10 -2.79712e-13
  11 729.679 -4.84761e-10 -3.46313e-14
  12 729.679 -4.84761e-10 -4.38127e-13
  13 729.679 -4.84761e-10 -3.91952e-13
  14 729.679 -4.84761e-10 -3.62876e-29
  15 729.679 -4.84761e-10 -3.71175e-14
  16 729.679 -4.84761e-10 5.19238e-14
  17 729.679 -4.84761e-10 -1.25345e-13
  18 729.679 -4.84761e-10 -2.75841e-14
  19 729.679 -4.84761e-10 -2.30969e-13
  20 729.679 -4.83548e-10 -6.01089e-13
  21 729.679 -4.84761e-10 -1.19832e-13
  22 729.679 -4.84761e-10 6.60722e-14
  23 729.679 -4.84761e-10 -7.07055e-14
  24 729.679 -4.84761e-10 -2.30146e-14
  25 729.679 -4.84761e-10 -2.73488e-15
  26 729.679 -4.84761e-10 -1.60725e-14
  27 729.679 -4.84761e-10 -5.56762e-14
  28 729.679 -4.84761e-10 -2.87131e-15
  29 729.679 -4.84761e-10 -5.54261e-14
  30 729.679 -4.84761e-10 4.80873e-14
  31 729.679 -4.84761e-10 1.57528e-14
  32 729.679 -4.84761e-10 1.88684e-13
  33 729.679 -4.84761e-10 1.99741e-13
  34 729.679 -4.83305e-10 8.93044e-14
  35 729.679 -4.84033e-10 2.43925e-14
  36 729.679 -4.84761e-10 1.22887e-13
  37 729.679 -4.84761e-10 7.11988e-14
  38 729.679 -4.84761e-10 3.07795e-14
  39 729.679 -4.84761e-10 -5.43390e-14
  40 729.679 -4.84761e-10 1.33448e-13
  41 729.679 -4.84761e-10 3.69392e-14
  42 729.679 -4.84761e-10 4.36773e-14
  43 729.679 -4.84761e-10 2.34896e-14
  44 729.679 -4.84306e-10 -1.04641e-14
  45 729.679 -4.84306e-10 -1.84137e-14
  46 729.679 -4.84761e-10 1.34155e-13
  47 729.679 -4.84761e-10 7.78223e-14
  48 729.679 -4.84761e-10 -8.12354e-14
  49 729.679 -4.84761e-10 6.81049e-14
  50 729.679 -4.84306e-10 7.20257e-14
  51 729.679 -4.84761e-10 6.98313e-14
  52 729.679 -4.84761e-10 2.46720e-15
  53 729.679 -4.84761e-10 3.34729e-14
  54 729.679 -4.84033e-10 -3.14176e-13
  55 729.679 -4.84761e-10 3.94111e-14
  56 729.679 -4.84761e-10 -2.72546e-14
  57 729.679 -4.84761e-10 6.68056e-14
  58 729.679 -4.84761e-10 3.22660e-14
  59 729.679 -4.83548e-10 1.39889e-14
  60 729.679 -4.84761e-10 1.72609e-14
  61 729.679 -4.84761e-10 -1.00518e-13
  62 729.679 -4.84761e-10 -8.20171e-15
  63 729.679 -4.84033e-10 2.52451e-14
  64 729.679 -4.84761e-10 7.61452e-14
  65 729.679 -4.84761e-10 7.45011e-14
  66 729.679 -4.84033e-10 -1.89881e-13
</Section>

newXOutput 43

<Section columns = "stress_xx | stress_yy | stress_xy">
  1 745.943 -4.76575e-10 -3.82864e-14
  2 745.943 -4.77030e-10 0.00000
  3 745.943 -4.76575e-10 -1.28691e-13
  4 745.943 -4.76575e-10 -2.30903e-15
  5 745.943 -4.76575e-10 8.89115e-14
  6 745.943 -4.76575e-10 4.23416e-15
  7 745.943 -4.76575e-10 -1.31855e-13
  8 745.943 -4.75969e-10 4.59675e-14
  9 745.943 -4.76575e-10 1.11048e-13
  10 745.943 -4.76575e-10 4.46010e-13
  11 745.943 -4.76120e-10 1.01794e-13
  12 745.943 -4.76575e-10 -2.30082e-13
  13 745.943 -4.77485e-10 -2.79437e-13
  14 745.943 -4.76575e-10 -1.42501e-13
  15 745.943 -4.77030e-10 -3.70161e-14
  16 745.943 -4.76878e-10 -1.15675e-13
  17 745.943 -4.76575e-10 1.07971e-13
  18 745.943 -4.76575e-10 1.03581e-13
  19 745.943 -4.76575e-10 3.40564e-14
  20 745.943 -4.76575e-10 -1.90931e-13
  21 745.943 -4.76575e-10 -3.05970e-13
  22 745.943 -4.76575e-10 -2.67324e-13
  23 745.943 -4.77182e-10 4.52333e-14
  24 745.943 -4.77182e-10 8.67980e-14
  25 745.943 -4.76575e-10 1.06720e-13
  26 745.943 -4.76575e-10 7.01619e-15
  27 745.943 -4.76575e-10 0.00000
  28 745.943 -4.76575e-10 5.59782e-14
  29 745.943 -4.76575e-10 -1.95644e-15
  30 745.943 -4.75848e-10 -1.84261e-13
  31 745.943 -4.76462e-10 4.51824e-14
  32 745.943 -4.76575e-10 1.00101e-13
  33 745.943 -4.76575e-10 1.36453e-14
  34 745.943 -4.76575e-10 2.21868e-15
  35 745.943 -4.76939e-10 -1.14314e-14
  36 745.943 -4.75848e-10 -9.90705e-15
  37 745.943 -4.76575e-10 6.00828e-14
  38 745.943 -4.75969e-10 -8.93348e-15
  39 745.943 -4.76727e-10 -7.31561e-14
  40 745.943 -4.76878e-10 5.40948e-14
  41 745.943 -4.76575e-10 2.60892e-14
  42 745.943 -4.76272e-10 -1.44467e-13
  43 745.943 -4.76120e-10 7.20647e-14
  44 745.943 -4.76689e-10 -3.43312e-14
  45 745.943 -4.76916e-10 1.05014e-14
  46 745.943 -4.75848e-10 7.10110e-14
  47 745.943 -4.76056e-10 -1.31784e-13
  48 745.943 -4.76575e-10 -1.91339e-13
  49 745.943 -4.76689e-10 -5.84161e-14
  50 745.943 -4.76575e-10 1.54691e-14
  51 745.943 -4.77030e-10 1.65328e-15
  52 745.943 -4.76575e-10 -1.27913e-15
  53 745.943 -4.76120e-10 8.42917e-14
  54 745.943 -4.76575e-10 -2.37784e-14
  55 745.943 -4.76727e-10 4.11746e-14
  56 745.943 -4.76575e-10 -6.83456e-14
  57 745.943 -4.77030e-10 -6.29638e-14
  58 745.943 -4.76575e-10 1.42698e-15
  59 745.943 -4.76575e-10 2.31645e-15
  60 745.943 -4.76272e-10 1.53063e-14
  61 745.943 -4.76939e-10 -1.95098e-13
  62 745.943 -4.76757e-10 7.06941e-14
  63 745.943 -4.76939e-10 3.26069e-14
  64 745.943 -4.76211e-10 8.78440e-14
  65 745.943 -4.76575e-10 1.66573e-13
  66 745.943 -4.76575e-10 -6.51237e-14
</Section>

newXOutput 44

<Section columns = "stress_xx | stress_yy | stress_xy">
  1 762.139 -4.76575e-10 -1.29726e-15
  2 762.139 -4.78394e-10 -9.22880e-14
  3 762.139 -4.76575e-10 1.19070e-13
  4 762.139 -4.78394e-10 -1.31160e-13
  5 762.139 -4.76575e-10 4.83554e-14
  6 762.139 -4.75969e-10 3.08613e-14
  7 762.139 -4.75969e-10 -2.52776e-14
  8 762.139 -4.77182e-10 -1.33429e-13
  9 762.139 -4.77485e-10 1.99029e-14
  10 762.139 -4.76575e-10 2.50327e-13
  11 762.139 -4.76575e-10 6.20071e-14
  12 762.139 -4.76575e-10 3.69152e-13
  13 762.139 -4.78394e-10 4.07600e-13
  14 762.139 -4.77788e-10 1.23051e-14
  15 762.139 -4.77485e-10 7.38304e-14
  16 762.139 -4.77788e-10 1.00745e-13
  17 762.139 -4.76575e-10 -2.15318e-14
  18 762.139 -4.76575e-10 -2.28604e-13
  19 762.139 -4.76575e-10 -6.75972e-14
  20 762.139 -4.76575e-10 1.39163e-13
  21 762.139 -4.77030e-10 -5.15083e-14
  22 762.139 -4.77182e-10 2.94975e-14
  23 762.139 -4.76575e-10 1.36233e-14
  24 762.139 -4.76575e-10 -1.40640e-13
  25 762.139 -4.77788e-10 -5.47437e-13
  26 762.139 -4.77182e-10 1.91210e-13
  27 762.139 -4.77485e-10 1.10746e-13
  28 762.139 -4.77182e-10 8.19042e-14
  29 762.139 -4.76575e-10 -3.55180e-16
  30 762.139 -4.76575e-10 -1.09126e-13
  31 762.139 -4.76575e-10 4.66100e-14
  32 762.139 -4.76575e-10 -7.93996e-14
  33 762.139 -4.78030e-10 -2.60587e-13
  34 762.139 -4.76575e-10 -4.26342e-14
  35 762.139 -4.77303e-10 3.95541e-14
  36 762.139 -4.77121e-10 9.29776e-14
  37 762.139 -4.76878e-10 1.09112e-13
  38 762.139 -4.76575e-10 -3.60940e-14
  39 762.139 -4.76575e-10 2.91380e-14
  40 762.139 -4.77182e-10 8.03149e-14
  41 762.139 -4.76575e-10 1.87471e-14
  42 762.139 -4.76575e-10 -1.26915e-13
  43 762.139 -4.76575e-10 -4.02258e-14
  44 762.139 -4.76575e-10 1.54515e-14
  45 762.139 -4.76575e-10 -4.34871e-14
  46 762.139 -4.76939e-10 -2.72881e-14
  47 762.139 -4.76575e-10 2.43554e-14
  48 762.139 -4.76939e-10 5.21282e-14
  49 762.139 -4.77939e-10 -4.62855e-14
  50 762.139 -4.77030e-10 5.91672e-14
  51 762.139 -4.76575e-10 -2.31656e-14
  52 762.139 -4.76575e-10 -3.38100e-14
  53 762.139 -4.76575e-10 -2.40997e-13
  54 762.139 -4.76575e-10 1.21433e-13
  55 762.139 -4.76575e-10 5.41220e-14
  56 762.139 -4.77333e-10 5.35304e-14
  57 762.139 -4.78394e-10 -6.93089e-14
  58 762.139 -4.77485e-10 -1.66245e-13
  59 762.139 -4.77182e-10 8.78809e-15
  60 762.139 -4.77182e-10 1.69224e-14
  61 762.139 -4.77303e-10 2.75826e-13
  62 762.139 -4.76939e-10 -2.35862e-13
  63 762.139 -4.76575e-10 2.29867e-14
  64 762.139 -4.76757e-10 -1.69099e-13
  65 762.139 -4.77303e-10 1.55274e-13
  66 762.139 -4.76575e-10 2.49418e-14
</Section>

newXOutput 45

<Section columns = "stress_xx | stress_yy | stress_xy">
  1 778.268 -4.76575e-10 2.23536e-13
  2 778.268 -4.72937e-10 -1.57852e-13
  3 778.268 -4.75211e-10 1.64301e-13
  4 778.268 -4.73847e-10 -3.16515e-13
  5 778.268 -4.76575e-10 2.95487e-13
  6 778.268 -4.76575e-10 2.28920e-13
  7 778.268 -4.76575e-10 1.48315e-13
  8 778.268 -4.75969e-10 -1.31282e-13
  9 778.268 -4.74529e-10 1.52751e-13
  10 778.268 -4.73847e-10 2.20888e-13
  11 778.268 -4.75211e-10 -9.48153e-14
  12 778.268 -4.74756e-10 4.57291e-14
  13 778.268 -4.74453e-10 -8.75794e-14
  14 778.268 -4.75059e-10 2.45431e-14
  15 778.268 -4.75666e-10 -2.20888e-13
  16 778.268 -4.73544e-10 1.84073e-14
  17 778.268 -4.76575e-10 -1.05832e-13
  18 778.268 -4.75666e-10 -1.75140e-13
  19 778.268 -4.75893e-10 9.98588e-14
  20 778.268 -4.76575e-10 -2.09215e-13
  21 778.268 -4.76803e-10 -2.52442e-13
  22 778.268 -4.76878e-10 -5.37579e-15
  23 778.268 -4.75666e-10 6.35772e-15
  24 778.268 -4.74756e-10 -3.88109e-14
  25 778.268 -4.73847e-10 -1.99931e-13
  26 778.268 -4.75666e-10 -3.05919e-14
  27 778.268 -4.75666e-10 -5.52220e-14
  28 778.268 -4.75969e-10 7.20519e-14
  29 778.268 -4.75211e-10 -1.51412e-14
  30 778.268 -4.74938e-10 1.45609e-13
  31 778.268 -4.75552e-10 1.56043e-13
  32 778.268 -4.75514e-10 1.26624e-14
  33 778.268 -4.76030e-10 -3.19280e-13
  34 778.268 -4.74392e-10 1.24419e-13
  35 778.268 -4.76030e-10 -1.99620e-13
  36 778.268 -4.74938e-10 2.68452e-13
  37 778.268 -4.75514e-10 -3.18728e-14
  38 778.268 -4.75666e-10 -2.48260e-14
  39 778.268 -4.75211e-10 1.25461e-13
  40 778.268 -4.75666e-10 1.08195e-13
  41 778.268 -4.76575e-10 1.06170e-13
  42 778.268 -4.74908e-10 1.61553e-13
  43 778.268 -4.75552e-10 -1.62801e-14
  44 778.268 -4.75893e-10 4.81968e-14
  45 778.268 -4.74870e-10 -4.06433e-14
  46 778.268 -4.75848e-10 6.35675e-14
  47 778.268 -4.74626e-10 1.27873e-13
  48 778.268 -4.76211e-10 1.14283e-13
  49 778.268 -4.75325e-10 -5.70019e-14
  50 778.268 -4.75325e-10 3.82745e-14
  51 778.268 -4.75817e-10 -1.78956e-13
  52 778.268 -4.74756e-10 2.84567e-14
  53 778.268 -4.74756e-10 -3.02592e-14
  54 778.268 -4.76030e-10 1.65089e-13
  55 778.268 -4.76575e-10 7.01923e-14
  56 778.268 -4.75666e-10 1.91143e-13
  57 778.268 -4.74908e-10 -1.12673e-13
  58 778.268 -4.74756e-10 -5.06048e-14
  59 778.268 -4.74301e-10 -3.18399e-15
  60 778.268 -4.75666e-10 9.90337e-14
  61 778.268 -4.74938e-10 -1.21940e-13
  62 778.268 -4.74938e-10 -2.28518e-14
  63 778.268 -4.76575e-10 8.18349e-15
  64 778.268 -4.75484e-10 8.94287e-14
  65 778.268 -4.74211e-10 1.81503e-13
  66 778.268 -4.76211e-10 -1.02012e-13
</Section>

newXOutput 46

<Section columns = "stress_xx | stress_yy | stress_xy">
  1 794.330 -4.74301e-10 6.45277e-14
  2 794.330 -4.76575e-10 1.10143e-13
  3 794.330 -4.76575e-10 4.11777e-14
  4 794.330 -4.74301e-10 -1.23043e-13
  5 794.330 -4.72937e-10 8.78381e-14
  6 794.330 -4.72937e-10 -6.20914e-14
  7 794.330 -4.75059e-10 -6.11908e-14
  8 794.330 -4.76272e-10 1.36695e-14
  9 794.330 -4.76348e-10 1.24448e-13
  10 794.330 -4.76575e-10 1.46858e-13
  11 794.330 -4.76575e-10 1.71692e-13
  12 794.330 -4.76272e-10 -3.88855e-14
  13 794.330 -4.75969e-10 -2.90853e-13
  14 794.330 -4.76272e-10 -2.22458e-13
  15 794.330 -4.74301e-10 -1.28501e-13
  16 794.330 -4.75363e-10 1.86188e-13
  17 794.330 -4.76575e-10 2.06240e-13
  18 794.330 -4.76575e-10 4.17218e-13
  19 794.330 -4.76575e-10 -1.53258e-13
  20 794.330 -4.75969e-10 -6.81081e-14
  21 794.330 -4.74529e-10 -2.26798e-14
  22 794.330 -4.76575e-10 -1.37672e-13
  23 794.330 -4.76575e-10 -4.08403e-14
  24 794.330 -4.75969e-10 5.88661e-14
  25 794.330 -4.73847e-10 -9.26953e-14
  26 794.330 -4.76272e-10 4.21179e-14
  27 794.330 -4.76575e-10 1.46858e-13
  28 794.330 -4.75059e-10 -3.07803e-14
  29 794.330 -4.74756e-10 1.78767e-13
  30 794.330 -4.76393e-10 6.57900e-14
  31 794.330 -4.76007e-10 -6.47611e-14
  32 794.330 -4.76120e-10 -1.28794e-14
  33 794.330 -4.76575e-10 -1.93410e-13
  34 794.330 -4.75302e-10 1.77534e-13
  35 794.330 -4.74211e-10 -1.88030e-13
  36 794.330 -4.76030e-10 5.24810e-14
  37 794.330 -4.76575e-10 4.97548e-14
  38 794.330 -4.75363e-10 -3.08884e-14
  39 794.330 -4.76575e-10 -1.88739e-13
  40 794.330 -4.76272e-10 -2.98792e-14
  41 794.330 -4.74908e-10 -5.93862e-14
  42 794.330 -4.76575e-10 -9.56659e-14
  43 794.330 -4.76462e-10 1.95184e-13
  44 794.330 -4.74756e-10 -7.98694e-14
  45 794.330 -4.75097e-10 5.22411e-14
  46 794.330 -4.76211e-10 1.34985e-13
  47 794.330 -4.76445e-10 6.81082e-14
  48 794.330 -4.75848e-10 -2.07842e-13
  49 794.330 -4.75779e-10 -7.71114e-14
  50 794.330 -4.75211e-10 6.20854e-15
  51 794.330 -4.76272e-10 4.72534e-14
  52 794.330 -4.74908e-10 1.71736e-14
  53 794.330 -4.76424e-10 3.63826e-13
  54 794.330 -4.76211e-10 -3.34999e-13
  55 794.330 -4.73392e-10 -4.85024e-14
  56 794.330 -4.76424e-10 2.44055e-13
  57 794.330 -4.76424e-10 -2.60165e-13
  58 794.330 -4.75211e-10 6.06983e-14
  59 794.330 -4.74756e-10 -6.43244e-14
  60 794.330 -4.76272e-10 -6.37815e-14
  61 794.330 -4.76211e-10 -2.38118e-13
  62 794.330 -4.75484e-10 2.05973e-14
  63 794.330 -4.72937e-10 -9.09180e-15
  64 794.330 -4.76575e-10 2.80053e-13
  65 794.330 -4.76575e-10 2.95791e-14
  66 794.330 -4.75120e-10 -1.17644e-13
</Section>

newXOutput 47

<Section columns = "stress_xx | stress_yy | stress_xy">
  1 810.326 -4.73847e-10 1.30906e-13
  2 810.326 -4.75666e-10 -3.88186e-13
  3 810.326 -4.74301e-10 4.31500e-13
  4 810.326 -4.72482e-10 -1.57848e-13
  5 810.326 -4.73847e-10 2.12993e-13
  6 810.326 -4.73847e-10 2.00788e-13
  7 810.326 -4.74453e-10 -4.67160e-14
  8 810.326 -4.74453e-10 -2.52747e-13
  9 810.326 -4.75211e-10 7.82507e-14
  10 810.326 -4.74756e-10 5.23625e-13
  11 810.326 -4.74301e-10 1.68410e-13
  12 810.326 -4.72937e-10 -2.27035e-13
  13 810.326 -4.75059e-10 -2.90547e-13
  14 810.326 -4.74453e-10 1.41600e-13
  15 810.326 -4.73847e-10 2.19688e-13
  16 810.326 -4.74453e-10 -1.58100e-13
  17 810.326 -4.74756e-10 1.00993e-12
  18 810.326 -4.75363e-10 5.32153e-13
  19 810.326 -4.75438e-10 7.72441e-14
  20 810.326 -4.74453e-10 -9.22350e-14
  21 810.326 -4.73847e-10 -1.34311e-14
  22 810.326 -4.75059e-10 -1.13531e-14
  23 810.326 -4.75059e-10 3.89500e-14
  24 810.326 -4.74453e-10 2.46774e-13
  25 810.326 -4.72634e-10 -1.33238e-13
  26 810.326 -4.73847e-10 -3.23195e-14
  27 810.326 -4.73847e-10 3.66147e-14
  28 810.326 -4.73847e-10 -5.67733e-14
  29 810.326 -4.75211e-10 -2.98380e-13
  30 810.326 -4.74938e-10 -2.23818e-13
  31 810.326 -4.74643e-10 4.80827e-14
  32 810.326 -4.75059e-10 2.27035e-13
  33 810.326 -4.75666e-10 -7.78151e-14
  34 810.326 -4.75302e-10 1.51360e-14
  35 810.326 -4.74211e-10 -1.56053e-14
  36 810.326 -4.74574e-10 -4.09497e-13
  37 810.326 -4.75211e-10 1.33080e-13
  38 810.326 -4.74756e-10 -1.57088e-13
  39 810.326 -4.75059e-10 8.18182e-14
  40 810.326 -4.75059e-10 -9.60980e-15
  41 810.326 -4.73847e-10 1.72776e-13
  42 810.326 -4.75211e-10 1.48703e-13
  43 810.326 -4.74415e-10 -3.03964e-14
  44 810.326 -4.74756e-10 -5.81086e-14
  45 810.326 -4.74756e-10 1.06060e-14
  46 810.326 -4.74211e-10 -8.80847e-14
  47 810.326 -4.75276e-10 -8.56615e-14
  48 810.326 -4.74574e-10 1.44791e-13
  49 810.326 -4.74643e-10 -1.45359e-13
  50 810.326 -4.74301e-10 7.41459e-14
  51 810.326 -4.75059e-10 1.80374e-14
  52 810.326 -4.74908e-10 -6.90628e-15
  53 810.326 -4.75211e-10 1.76138e-13
  54 810.326 -4.75120e-10 -1.02937e-13
  55 810.326 -4.74150e-10 -5.58770e-14
  56 810.326 -4.74756e-10 1.59371e-13
  57 810.326 -4.75363e-10 -1.94552e-13
  58 810.326 -4.73847e-10 -9.84994e-15
  59 810.326 -4.74908e-10 -7.87830e-14
  60 810.326 -4.75211e-10 -3.51340e-13
  61 810.326 -4.74029e-10 -1.06396e-13
  62 810.326 -4.74392e-10 3.00415e-14
  63 810.326 -4.73847e-10 -1.99955e-14
  64 810.326 -4.74756e-10 4.67002e-13
  65 810.326 -4.75120e-10 2.47149e-13
  66 810.326 -4.74756e-10 3.80690e-14
</Section>

newXOutput 48

<Section columns = "stress_xx | stress_yy | stress_xy">
  1 826.255 -4.70209e-10 -1.08142e-13
  2 826.255 -4.72028e-10 7.30306e-14
  3 826.255 -4.72937e-10 -4.18921e-13
  4 826.255 -4.72028e-10 1.32050e-14
  5 826.255 -4.71421e-10 -3.37075e-14
  6 826.255 -4.72634e-10 -1.40441e-13
  7 826.255 -4.70815e-10 -2.62200e-14
  8 826.255 -4.69602e-10 -1.32949e-13
  9 826.255 -4.69754e-10 3.58100e-14
  10 826.255 -4.69754e-10 -3.14585e-13
  11 826.255 -4.72482e-10 -8.14541e-14
  12 826.255 -4.71118e-10 -4.11995e-14
  13 826.255 -4.69906e-10 -1.49805e-13
  14 826.255 -4.72331e-10 -2.02236e-13
  15 826.255 -4.69754e-10 -1.82577e-14
  16 826.255 -4.71421e-10 9.25701e-14
  17 826.255 -4.72634e-10 -7.18874e-13
  18 826.255 -4.72634e-10 -1.98527e-13
  19 826.255 -4.72937e-10 -4.58664e-14
  20 826.255 -4.72634e-10 -2.55665e-15
  21 826.255 -4.72937e-10 1.44236e-13
  22 826.255 -4.71725e-10 1.79241e-13
  23 826.255 -4.70512e-10 -1.44413e-14
  24 826.255 -4.72634e-10 -3.62817e-14
  25 826.255 -4.73240e-10 5.25978e-14
  26 826.255 -4.70209e-10 -7.25694e-15
  27 826.255 -4.70664e-10 -3.65153e-14
  28 826.255 -4.70815e-10 9.70982e-15
  29 826.255 -4.72482e-10 1.48169e-13
  30 826.255 -4.70573e-10 9.36549e-14
  31 826.255 -4.70664e-10 2.83800e-14
  32 826.255 -4.71573e-10 2.87881e-14
  33 826.255 -4.70936e-10 -2.43103e-13
  34 826.255 -4.70209e-10 1.19335e-13
  35 826.255 -4.71482e-10 5.77876e-14
  36 826.255 -4.70754e-10 3.46044e-13
  37 826.255 -4.71876e-10 4.68706e-14
  38 826.255 -4.70057e-10 4.65153e-14
  39 826.255 -4.70815e-10 -1.85611e-14
  40 826.255 -4.71270e-10 1.87602e-13
  41 826.255 -4.71421e-10 1.45341e-13
  42 826.255 -4.71270e-10 5.17244e-14
  43 826.255 -4.71346e-10 -1.17188e-14
  44 826.255 -4.71346e-10 1.50547e-14
  45 826.255 -4.71459e-10 1.15391e-13
  46 826.255 -4.70573e-10 -5.89847e-15
  47 826.255 -4.72028e-10 2.07930e-13
  48 826.255 -4.71482e-10 1.34872e-13
  49 826.255 -4.70436e-10 -2.46236e-14
  50 826.255 -4.70664e-10 6.42909e-14
  51 826.255 -4.70967e-10 -3.26667e-14
  52 826.255 -4.70664e-10 4.45396e-14
  53 826.255 -4.70209e-10 -1.58759e-13
  54 826.255 -4.72392e-10 1.22293e-13
  55 826.255 -4.70815e-10 3.20040e-14
  56 826.255 -4.70967e-10 1.31478e-14
  57 826.255 -4.72028e-10 -2.90712e-13
  58 826.255 -4.71270e-10 4.19671e-14
  59 826.255 -4.72028e-10 1.62838e-13
  60 826.255 -4.70209e-10 1.64650e-13
  61 826.255 -4.71118e-10 -2.94225e-13
  62 826.255 -4.72392e-10 7.39887e-14
  63 826.255 -4.71482e-10 -8.90400e-14
  64 826.255 -4.71846e-10 -7.86568e-14
  65 826.255 -4.70754e-10 1.02099e-13
  66 826.255 -4.73483e-10 1.70530e-13
</Section>

newXOutput 49

<Section columns = "stress_xx | stress_yy | stress_xy">
  1 842.119 -4.70209e-10 3.33468e-13
  2 842.119 -4.70209e-10 1.82081e-13
  3 842.119 -4.70209e-10 -2.88328e-13
  4 842.119 -4.70209e-10 -2.85547e-13
  5 842.119 -4.70512e-10 3.41095e-13
  6 842.119 -4.70512e-10 2.07826e-13
  7 842.119 -4.70209e-10 9.76233e-14
  8 842.119 -4.70209e-10 -4.04393e-13
  9 842.119 -4.70436e-10 -9.49465e-14
  10 842.119 -4.70664e-10 7.12703e-13
  11 842.119 -4.70209e-10 1.99244e-13
  12 842.119 -4.70209e-10 1.21388e-14
  13 842.119 -4.70209e-10 7.66465e-14
  14 842.119 -4.70209e-10 8.49713e-14
  15 842.119 -4.70209e-10 -1.45665e-13
  16 842.119 -4.70209e-10 -1.66496e-14
  17 842.119 -4.70209e-10 -2.63780e-13
  18 842.119 -4.70209e-10 -9.00849e-17
  19 842.119 -4.70436e-10 2.28346e-13
  20 842.119 -4.70512e-10 6.25595e-13
  21 842.119 -4.70664e-10 -6.87679e-14
  22 842.119 -4.70512e-10 -2.56606e-13
  23 842.119 -4.70209e-10 -1.05896e-13
  24 842.119 -4.70209e-10 3.99051e-14
  25 842.119 -4.70209e-10 -1.76526e-13
  26 842.119 -4.70209e-10 -1.12284e-13
  27 842.119 -4.70209e-10 1.82081e-13
  28 842.119 -4.70209e-10 7.33964e-14
  29 842.119 -4.70209e-10 2.84255e-14
  30 842.119 -4.70391e-10 -6.93382e-14
  31 842.119 -4.70436e-10 3.07661e-13
  32 842.119 -4.70664e-10 1.69635e-13
  33 842.119 -4.70209e-10 1.10652e-13
  34 842.119 -4.70391e-10 8.67210e-14
  35 842.119 -4.70391e-10 -6.98538e-14
  36 842.119 -4.70209e-10 1.93314e-13
  37 842.119 -4.69906e-10 -1.21541e-13
  38 842.119 -4.70360e-10 -5.97412e-15
  39 842.119 -4.70360e-10 1.05438e-13
  40 842.119 -4.70209e-10 -1.57850e-13
  41 842.119 -4.70664e-10 2.09528e-13
  42 842.119 -4.70360e-10 8.99083e-14
  43 842.119 -4.70209e-10 1.56415e-13
  44 842.119 -4.70322e-10 4.11725e-14
  45 842.119 -4.70209e-10 8.74655e-14
  46 842.119 -4.70209e-10 -3.20617e-13
  47 842.119 -4.70339e-10 -4.04136e-15
  48 842.119 -4.70573e-10 1.37721e-13
  49 842.119 -4.70209e-10 1.25212e-13
  50 842.119 -4.70322e-10 -3.70334e-14
  51 842.119 -4.70057e-10 2.15097e-14
  52 842.119 -4.70512e-10 1.69413e-13
  53 842.119 -4.69906e-10 -1.30287e-13
  54 842.119 -4.70573e-10 5.65183e-13
  55 842.119 -4.70209e-10 1.68446e-13
  56 842.119 -4.70209e-10 -7.33079e-14
  57 842.119 -4.70209e-10 1.36213e-13
  58 842.119 -4.70209e-10 -1.51920e-13
  59 842.119 -4.70512e-10 -8.20330e-14
  60 842.119 -4.70360e-10 1.62223e-13
  61 842.119 -4.70209e-10 4.87439e-14
  62 842.119 -4.70209e-10 5.87124e-14
  63 842.119 -4.70391e-10 2.21419e-13
  64 842.119 -4.70209e-10 5.29394e-14
  65 842.119 -4.70391e-10 9.43631e-14
  66 842.119 -4.70391e-10 2.12723e-13
</Section>

newXOutput 50

<Section columns = "stress_xx | stress_yy | stress_xy">
  1 857.917 -4.67480e-10 4.50562e-14
  2 857.917 -4.70209e-10 0.00000
  3 857.917 -4.67480e-10 5.08345e-14
  4 857.917 -4.70664e-10 9.70222e-14
  5 857.917 -4.68390e-10 1.00276e-13
  6 857.917 -4.69299e-10 -2.03280e-14
  7 857.917 -4.67480e-10 -1.24943e-13
  8 857.917 -4.68390e-10 -2.47489e-13
  9 857.917 -4.68162e-10 8.46276e-14
  10 857.917 -4.67480e-10 -4.79690e-14
  11 857.917 -4.68845e-10 6.38967e-14
  12 857.917 -4.69299e-10 6.60576e-13
  13 857.917 -4.70512e-10 3.82595e-13
  14 857.917 -4.70209e-10 1.53038e-13
  15 857.917 -4.70664e-10 1.81588e-14
  16 857.917 -4.69602e-10 -9.55352e-14
  17 857.917 -4.69299e-10 2.05865e-13
  18 857.917 -4.70209e-10 -1.85715e-13
  19 857.917 -4.70436e-10 1.22201e-13
  20 857.917 -4.69602e-10 2.28814e-13
  21 857.917 -4.67480e-10 7.54057e-14
  22 857.917 -4.67480e-10 -4.23593e-15
  23 857.917 -4.68390e-10 1.07322e-14
  24 857.917 -4.69299e-10 6.20639e-14
  25 857.917 -4.70209e-10 1.30581e-13
  26 857.917 -4.69602e-10 -9.93674e-15
  27 857.917 -4.68845e-10 1.45271e-13
  28 857.917 -4.69299e-10 -3.52331e-14
  29 857.917 -4.69527e-10 -1.33778e-13
  30 857.917 -4.69117e-10 -3.16280e-13
  31 857.917 -4.68845e-10 6.54168e-14
  32 857.917 -4.68996e-10 -3.42167e-13
  33 857.917 -4.70391e-10 -9.48411e-14
  34 857.917 -4.70573e-10 2.26428e-14
  35 857.917 -4.69117e-10 -6.94405e-14
  36 857.917 -4.69663e-10 -1.43938e-13
  37 857.917 -4.68845e-10 -3.54345e-14
  38 857.917 -4.67935e-10 -5.70350e-14
  39 857.917 -4.68845e-10 4.21452e-14
  40 857.917 -4.68390e-10 2.39704e-13
  41 857.917 -4.68390e-10 9.64239e-14
  42 857.917 -4.69754e-10 -1.39961e-13
  43 857.917 -4.68845e-10 2.64442e-14
  44 857.917 -4.68845e-10 -2.57352e-14
  45 857.917 -4.69754e-10 -2.07653e-15
  46 857.917 -4.69117e-10 6.59265e-15
  47 857.917 -4.69819e-10 -2.00669e-14
  48 857.917 -4.68572e-10 1.37143e-13
  49 857.917 -4.70322e-10 -2.41356e-14
  50 857.917 -4.69868e-10 -2.68819e-15
  51 857.917 -4.67480e-10 -9.51631e-14
  52 857.917 -4.68390e-10 2.85592e-14
  53 857.917 -4.68390e-10 -3.44310e-13
  54 857.917 -4.70027e-10 5.23571e-14
  55 857.917 -4.68390e-10 -4.39974e-14
  56 857.917 -4.69299e-10 -8.61566e-14
  57 857.917 -4.70512e-10 1.26513e-13
  58 857.917 -4.70360e-10 2.26790e-14
  59 857.917 -4.70360e-10 -9.91020e-14
  60 857.917 -4.69299e-10 -1.33000e-13
  61 857.917 -4.70573e-10 4.10941e-13
  62 857.917 -4.70391e-10 8.09239e-14
  63 857.917 -4.68572e-10 4.19295e-14
  64 857.917 -4.70209e-10 -6.56607e-14
  65 857.917 -4.68572e-10 -9.69979e-14
  66 857.917 -4.69299e-10 8.86687e-14
</Section>

newXOutput 51

<Section columns = "stress_xx | stress_yy | stress_xy">
  1 873.651 -4.67480e-10 6.47064e-14
  2 873.651 -4.67480e-10 -3.62194e-14
  3 873.651 -4.67026e-10 -1.47640e-14
  4 873.651 -4.67026e-10 -1.03462e-13
  5 873.651 -4.67480e-10 6.01523e-14
  6 873.651 -4.67480e-10 2.61229e-14
  7 873.651 -4.67480e-10 1.76335e-15
  8 873.651 -4.67480e-10 -8.88917e-14
  9 873.651 -4.66798e-10 -1.76649e-13
  10 873.651 -4.66571e-10 3.62194e-14
  11 873.651 -4.67253e-10 -8.13336e-14
  12 873.651 -4.67480e-10 -3.90080e-13
  13 873.651 -4.67480e-10 -4.37986e-15
  14 873.651 -4.67480e-10 -2.41463e-14
  15 873.651 -4.67480e-10 -5.44314e-29
  16 873.651 -4.67480e-10 2.26371e-14
  17 873.651 -4.67177e-10 -2.08892e-13
  18 873.651 -4.67480e-10 -2.70867e-13
  19 873.651 -4.67480e-10 -1.43326e-14
  20 873.651 -4.67480e-10 -5.04871e-13
  21 873.651 -4.67253e-10 -3.06876e-13
  22 873.651 -4.67783e-10 -1.73212e-13
  23 873.651 -4.67480e-10 -7.57356e-14
  24 873.651 -4.67480e-10 1.83790e-13
  25 873.651 -4.67480e-10 8.13167e-14
  26 873.651 -4.67177e-10 -1.71214e-14
  27 873.651 -4.67480e-10 5.43291e-14
  28 873.651 -4.67480e-10 -1.95655e-14
  29 873.651 -4.67480e-10 3.62950e-14
  30 873.651 -4.67662e-10 2.21937e-13
  31 873.651 -4.66798e-10 1.77924e-14
  32 873.651 -4.67329e-10 5.71341e-14
  33 873.651 -4.67298e-10 9.80014e-14
  34 873.651 -4.67480e-10 -1.06973e-14
  35 873.651 -4.67116e-10 -9.82008e-14
  36 873.651 -4.67116e-10 7.75517e-14
  37 873.651 -4.67329e-10 -1.56246e-15
  38 873.651 -4.67177e-10 3.37721e-14
  39 873.651 -4.67026e-10 -3.49542e-14
  40 873.651 -4.66874e-10 9.22743e-14
  41 873.651 -4.66874e-10 2.73634e-14
  42 873.651 -4.67480e-10 7.84025e-14
  43 873.651 -4.67367e-10 7.98665e-14
  44 873.651 -4.67253e-10 -1.21320e-14
  45 873.651 -4.67480e-10 5.50895e-14
  46 873.651 -4.67298e-10 -7.21788e-14
  47 873.651 -4.67480e-10 4.51687e-15
  48 873.651 -4.66753e-10 -1.38912e-13
  49 873.651 -4.67480e-10 -4.47083e-14
  50 873.651 -4.67480e-10 -3.54681e-14
  51 873.651 -4.67177e-10 2.13535e-14
  52 873.651 -4.67177e-10 1.02530e-13
  53 873.651 -4.67480e-10 9.64945e-15
  54 873.651 -4.67480e-10 -1.10361e-13
  55 873.651 -4.67329e-10 -2.79991e-14
  56 873.651 -4.67177e-10 -8.56604e-14
  57 873.651 -4.67480e-10 1.36932e-13
  58 873.651 -4.67329e-10 -1.82138e-14
  59 873.651 -4.67480e-10 -4.35492e-14
  60 873.651 -4.67632e-10 3.09414e-14
  61 873.651 -4.67298e-10 3.65513e-13
  62 873.651 -4.67480e-10 1.32525e-13
  63 873.651 -4.67116e-10 -1.85342e-14
  64 873.651 -4.67116e-10 -2.56999e-13
  65 873.651 -4.66935e-10 1.41689e-13
  66 873.651 -4.67116e-10 -3.80871e-13
</Section>

newXOutput 52

<Section columns = "stress_xx | stress_yy | stress_xy">
  1 889.319 -4.62933e-10 7.52598e-14
  2 889.319 -4.63842e-10 3.61215e-14
  3 889.319 -4.63842e-10 -2.63686e-13
  4 889.319 -4.63842e-10 1.27482e-13
  5 889.319 -4.64145e-10 1.70685e-14
  6 889.319 -4.64752e-10 1.00346e-13
  7 889.319 -4.64752e-10 1.32472e-13
  8 889.319 -4.63539e-10 2.08764e-13
  9 889.319 -4.63842e-10 2.61941e-13
  10 889.319 -4.64752e-10 2.04742e-13
  11 889.319 -4.63388e-10 4.51719e-14
  12 889.319 -4.62933e-10 2.56900e-13
  13 889.319 -4.64449e-10 -1.00346e-13
  14 889.319 -4.63539e-10 1.04369e-13
  15 889.319 -4.63842e-10 -2.52850e-13
  16 889.319 -4.64752e-10 -3.91316e-14
  17 889.319 -4.64145e-10 -1.07043e-13
  18 889.319 -4.64752e-10 2.10339e-13
  19 889.319 -4.63388e-10 -3.68723e-13
  20 889.319 -4.62933e-10 -3.95217e-13
  21 889.319 -4.63388e-10 -7.36690e-14
  22 889.319 -4.62326e-10 -2.01446e-13
  23 889.319 -4.64752e-10 -3.33792e-14
  24 889.319 -4.64752e-10 1.43906e-13
  25 889.319 -4.64752e-10 2.24453e-13
  26 889.319 -4.63539e-10 1.70551e-14
  27 889.319 -4.64752e-10 -7.22430e-14
  28 889.319 -4.64145e-10 -3.76266e-14
  29 889.319 -4.63842e-10 -1.63463e-13
  30 889.319 -4.64752e-10 8.86695e-14
  31 889.319 -4.64070e-10 2.33277e-14
  32 889.319 -4.63842e-10 1.35589e-14
  33 889.319 -4.65116e-10 5.78064e-14
  34 889.319 -4.64388e-10 -8.88053e-15
  35 889.319 -4.63660e-10 -7.40531e-14
  36 889.319 -4.64388e-10 -1.93889e-13
  37 889.319 -4.64145e-10 1.13548e-15
  38 889.319 -4.64449e-10 7.69283e-14
  39 889.319 -4.63842e-10 2.55373e-14
  40 889.319 -4.63842e-10 3.79386e-14
  41 889.319 -4.64449e-10 1.31256e-13
  42 889.319 -4.63994e-10 -6.82306e-14
  43 889.319 -4.64297e-10 2.23260e-13
  44 889.319 -4.63842e-10 1.96819e-14
  45 889.319 -4.64752e-10 -5.44683e-14
  46 889.319 -4.63297e-10 1.40066e-13
  47 889.319 -4.63842e-10 -8.02767e-14
  48 889.319 -4.62933e-10 -2.98189e-14
  49 889.319 -4.64638e-10 -4.36535e-14
  50 889.319 -4.64297e-10 -2.52144e-14
  51 889.319 -4.63842e-10 -1.53241e-13
  52 889.319 -4.64449e-10 -1.47208e-14
  53 889.319 -4.64145e-10 2.72277e-14
  54 889.319 -4.63660e-10 -3.57049e-13
  55 889.319 -4.63842e-10 -7.29955e-14
  56 889.319 -4.64752e-10 -2.08327e-13
  57 889.319 -4.64752e-10 1.43004e-13
  58 889.319 -4.63842e-10 6.13155e-14
  59 889.319 -4.64145e-10 -6.27202e-14
  60 889.319 -4.64449e-10 -2.14471e-14
  61 889.319 -4.64388e-10 6.02199e-14
  62 889.319 -4.64752e-10 1.27187e-13
  63 889.319 -4.64024e-10 -6.05015e-14
  64 889.319 -4.64570e-10 2.79990e-14
  65 889.319 -4.64388e-10 2.25807e-13
  66 889.319 -4.64024e-10 -1.45614e-13
</Section>

newXOutput 53

<Section columns = "stress_xx | stress_yy | stress_xy">
  1 904.923 -4.62023e-10 -3.06838e-15
  2 904.923 -4.61569e-10 1.44096e-13
  3 904.923 -4.62933e-10 -8.09668e-14
  4 904.923 -4.61569e-10 1.32279e-15
  5 904.923 -4.62023e-10 -2.00310e-13
  6 904.923 -4.61720e-10 1.30308e-14
  7 904.923 -4.61114e-10 -5.79944e-14
  8 904.923 -4.61720e-10 -5.00776e-14
  9 904.923 -4.61796e-10 2.70180e-14
  10 904.923 -4.61569e-10 -2.76715e-13
  11 904.923 -4.62023e-10 -1.23215e-13
  12 904.923 -4.62023e-10 1.73000e-13
  13 904.923 -4.61720e-10 2.28948e-13
  14 904.923 -4.61114e-10 1.56104e-13
  15 904.923 -4.61569e-10 1.08072e-13
  16 904.923 -4.62630e-10 -3.00200e-14
  17 904.923 -4.62023e-10 3.50621e-13
  18 904.923 -4.61417e-10 2.22811e-13
  19 904.923 -4.61796e-10 2.23564e-13
  20 904.923 -4.62023e-10 -7.41559e-14
  21 904.923 -4.62023e-10 -1.32809e-14
  22 904.923 -4.62023e-10 -2.69729e-13
  23 904.923 -4.61417e-10 -1.12475e-13
  24 904.923 -4.61417e-10 1.48675e-14
  25 904.923 -4.61417e-10 4.05141e-14
  26 904.923 -4.61720e-10 -3.60240e-14
  27 904.923 -4.61114e-10 7.20480e-14
  28 904.923 -4.61417e-10 9.10827e-14
  29 904.923 -4.62023e-10 4.32189e-14
  30 904.923 -4.61660e-10 1.34653e-13
  31 904.923 -4.61682e-10 6.03542e-15
  32 904.923 -4.61720e-10 -8.27609e-14
  33 904.923 -4.61478e-10 9.66747e-14
  34 904.923 -4.61296e-10 -2.66783e-14
  35 904.923 -4.61660e-10 8.46760e-16
  36 904.923 -4.61478e-10 4.60818e-14
  37 904.923 -4.62326e-10 2.64003e-14
  38 904.923 -4.61720e-10 -5.21214e-14
  39 904.923 -4.61569e-10 6.48212e-14
  40 904.923 -4.62023e-10 1.90395e-13
  41 904.923 -4.61872e-10 6.12104e-14
  42 904.923 -4.61720e-10 1.31537e-13
  43 904.923 -4.61796e-10 3.67809e-14
  44 904.923 -4.61796e-10 1.17327e-13
  45 904.923 -4.61455e-10 5.46866e-14
  46 904.923 -4.62023e-10 6.98890e-14
  47 904.923 -4.61634e-10 1.47618e-13
  48 904.923 -4.61660e-10 -5.74706e-14
  49 904.923 -4.61455e-10 6.77441e-14
  50 904.923 -4.61341e-10 -6.00234e-14
  51 904.923 -4.62175e-10 -1.50796e-13
  52 904.923 -4.61872e-10 7.26915e-14
  53 904.923 -4.61720e-10 -1.76839e-13
  54 904.923 -4.62023e-10 1.42848e-13
  55 904.923 -4.61720e-10 -8.05425e-14
  56 904.923 -4.62023e-10 -6.83395e-14
  57 904.923 -4.61417e-10 2.27660e-13
  58 904.923 -4.61569e-10 -2.00234e-15
  59 904.923 -4.61569e-10 5.81177e-14
  60 904.923 -4.61720e-10 7.17439e-14
  61 904.923 -4.61841e-10 2.60408e-13
  62 904.923 -4.61296e-10 1.81018e-14
  63 904.923 -4.62023e-10 1.10004e-14
  64 904.923 -4.61478e-10 9.69420e-14
  65 904.923 -4.61841e-10 9.00599e-14
  66 904.923 -4.62023e-10 -8.17845e-15
</Section>

newXOutput 54

<Section columns = "stress_xx | stress_yy | stress_xy">
  1 920.463 -4.64752e-10 -1.10900e-13
  2 920.463 -4.63842e-10 0.00000
  3 920.463 -4.63842e-10 1.79306e-13
  4 920.463 -4.64752e-10 6.17061e-14
  5 920.463 -4.64752e-10 -1.30155e-13
  6 920.463 -4.64752e-10 -1.12443e-13
  7 920.463 -4.64752e-10 2.18714e-14
  8 920.463 -4.64752e-10 -3.17672e-14
  9 920.463 -4.64297e-10 -4.06064e-14
  10 920.463 -4.64297e-10 -1.32738e-13
  11 920.463 -4.64524e-10 2.30706e-14
  12 920.463 -4.64449e-10 -8.25680e-13
  13 920.463 -4.64145e-10 -4.52926e-13
  14 920.463 -4.63842e-10 -1.19756e-14
  15 920.463 -4.62933e-10 -1.25744e-13
  16 920.463 -4.63539e-10 -8.25043e-14
  17 920.463 -4.63842e-10 1.43493e-13
  18 920.463 -4.64449e-10 2.32254e-13
  19 920.463 -4.64524e-10 1.02525e-13
  20 920.463 -4.64449e-10 1.06179e-13
  21 920.463 -4.64524e-10 1.10781e-13
  22 920.463 -4.64449e-10 2.24635e-13
  23 920.463 -4.63842e-10 7.03979e-14
  24 920.463 -4.64449e-10 2.59163e-14
  25 920.463 -4.64752e-10 1.27192e-13
  26 920.463 -4.64449e-10 1.38038e-14
  27 920.463 -4.64297e-10 -3.59268e-14
  28 920.463 -4.64752e-10 -9.77001e-15
  29 920.463 -4.63615e-10 -1.26005e-13
  30 920.463 -4.64206e-10 1.82480e-13
  31 920.463 -4.64183e-10 5.76133e-15
  32 920.463 -4.64449e-10 -2.94421e-14
  33 920.463 -4.64570e-10 1.67684e-13
  34 920.463 -4.64752e-10 3.42751e-14
  35 920.463 -4.64752e-10 -1.78024e-14
  36 920.463 -4.64388e-10 -5.80868e-14
  37 920.463 -4.63842e-10 4.04544e-14
  38 920.463 -4.64145e-10 1.65689e-14
  39 920.463 -4.64297e-10 1.12672e-13
  40 920.463 -4.63084e-10 2.19142e-13
  41 920.463 -4.64752e-10 -2.37350e-14
  42 920.463 -4.64145e-10 1.56951e-13
  43 920.463 -4.64524e-10 4.62773e-14
  44 920.463 -4.63842e-10 -1.91694e-14
  45 920.463 -4.64297e-10 -4.82362e-14
  46 920.463 -4.64388e-10 1.82437e-13
  47 920.463 -4.64622e-10 -5.77038e-14
  48 920.463 -4.64752e-10 1.20806e-13
  49 920.463 -4.63956e-10 -5.28965e-14
  50 920.463 -4.64638e-10 5.33525e-14
  51 920.463 -4.63994e-10 -3.29205e-13
  52 920.463 -4.63994e-10 2.07081e-14
  53 920.463 -4.64600e-10 1.24621e-13
  54 920.463 -4.64206e-10 4.13462e-14
  55 920.463 -4.64752e-10 8.65046e-15
  56 920.463 -4.64145e-10 6.49219e-14
  57 920.463 -4.64145e-10 -1.16997e-13
  58 920.463 -4.64752e-10 -6.40158e-15
  59 920.463 -4.63994e-10 -4.26841e-14
  60 920.463 -4.64297e-10 5.40957e-14
  61 920.463 -4.64388e-10 -4.77520e-13
  62 920.463 -4.64752e-10 -5.34118e-14
  63 920.463 -4.64752e-10 -4.93516e-14
  64 920.463 -4.64206e-10 2.10477e-13
  65 920.463 -4.63660e-10 1.95801e-13
  66 920.463 -4.64388e-10 3.87268e-14
</Section>

newXOutput 55

<Section columns = "stress_xx | stress_yy | stress_xy">
  1 935.939 -4.61569e-10 -7.27696e-14
  2 935.939 -4.62933e-10 -3.12006e-13
  3 935.939 -4.62933e-10 4.91877e-13
  4 935.939 -4.62933e-10 1.82979e-13
  5 935.939 -4.62023e-10 -1.55369e-13
  6 935.939 -4.62933e-10 -9.24812e-14
  7 935.939 -4.62933e-10 -1.76504e-14
  8 935.939 -4.62933e-10 1.15206e-13
  9 935.939 -4.62933e-10 -7.80016e-14
  10 935.939 -4.62933e-10 -7.16601e-14
  11 935.939 -4.62933e-10 3.00433e-14
  12 935.939 -4.62933e-10 -6.20525e-13
  13 935.939 -4.62933e-10 -7.73040e-13
  14 935.939 -4.62933e-10 7.66275e-14
  15 935.939 -4.62933e-10 -7.16601e-14
  16 935.939 -4.62933e-10 -2.22934e-13
  17 935.939 -4.62933e-10 4.04237e-13
  18 935.939 -4.62933e-10 -1.31211e-13
  19 935.939 -4.62933e-10 2.50212e-13
  20 935.939 -4.62933e-10 -1.85382e-14
  21 935.939 -4.62933e-10 -2.30668e-13
  22 935.939 -4.62933e-10 -1.00203e-13
  23 935.939 -4.62933e-10 5.41825e-14
  24 935.939 -4.62933e-10 3.44524e-14
  25 935.939 -4.62933e-10 8.19623e-14
  26 935.939 -4.62933e-10 -2.28824e-14
  27 935.939 -4.62933e-10 1.43320e-13
  28 935.939 -4.62933e-10 1.05376e-13
  29 935.939 -4.62933e-10 -4.59305e-14
  30 935.939 -4.62933e-10 -1.22046e-13
  31 935.939 -4.62933e-10 -1.41515e-13
  32 935.939 -4.62933e-10 -6.66792e-14
  33 935.939 -4.62933e-10 -2.97420e-14
  34 935.939 -4.62387e-10 -2.75490e-13
  35 935.939 -4.62933e-10 2.02258e-13
  36 935.939 -4.62933e-10 1.90406e-13
  37 935.939 -4.62933e-10 -3.06676e-14
  38 935.939 -4.62933e-10 -1.24650e-13
  39 935.939 -4.62933e-10 6.49845e-15
  40 935.939 -4.62933e-10 -1.87814e-13
  41 935.939 -4.62933e-10 2.97371e-14
  42 935.939 -4.62933e-10 -5.52380e-14
  43 935.939 -4.62933e-10 -5.10375e-14
  44 935.939 -4.62933e-10 -2.97674e-14
  45 935.939 -4.62933e-10 -4.65095e-14
  46 935.939 -4.62933e-10 -1.32218e-13
  47 935.939 -4.62933e-10 7.14258e-14
  48 935.939 -4.62933e-10 -5.00701e-14
  49 935.939 -4.62933e-10 -2.42769e-15
  50 935.939 -4.62592e-10 -3.05583e-14
  51 935.939 -4.62933e-10 -8.14523e-14
  52 935.939 -4.62933e-10 -1.16841e-13
  53 935.939 -4.62933e-10 -3.02240e-13
  54 935.939 -4.62933e-10 1.84807e-13
  55 935.939 -4.62478e-10 1.94478e-14
  56 935.939 -4.62933e-10 9.37919e-14
  57 935.939 -4.62933e-10 -1.63745e-13
  58 935.939 -4.62478e-10 -8.75653e-14
  59 935.939 -4.62933e-10 -1.06661e-14
  60 935.939 -4.62933e-10 2.25726e-13
  61 935.939 -4.62933e-10 -4.84910e-13
  62 935.939 -4.62933e-10 -9.75249e-14
  63 935.939 -4.62933e-10 8.46638e-15
  64 935.939 -4.62933e-10 -2.92301e-14
  65 935.939 -4.62933e-10 -5.47915e-14
  66 935.939 -4.62933e-10 -1.40806e-13
</Section>

newXOutput 56

<Section columns = "stress_xx | stress_yy | stress_xy">
  1 951.352 -4.60204e-10 6.44310e-15
  2 951.352 -4.62023e-10 1.07201e-13
  3 951.352 -4.60204e-10 1.57980e-13
  4 951.352 -4.60204e-10 2.41689e-14
  5 951.352 -4.58992e-10 2.85770e-13
  6 951.352 -4.60811e-10 3.24627e-13
  7 951.352 -4.62023e-10 2.24943e-13
  8 951.352 -4.60811e-10 3.71000e-13
  9 951.352 -4.59977e-10 8.93341e-15
  10 951.352 -4.57476e-10 3.21603e-13
  11 951.352 -4.59977e-10 -7.93729e-14
  12 951.352 -4.61417e-10 -7.91990e-13
  13 951.352 -4.61417e-10 -1.73002e-13
  14 951.352 -4.61417e-10 -2.38224e-14
  15 951.352 -4.59295e-10 -1.07201e-13
  16 951.352 -4.59598e-10 -1.83939e-13
  17 951.352 -4.60204e-10 7.82213e-13
  18 951.352 -4.59901e-10 7.36908e-13
  19 951.352 -4.61114e-10 -3.92239e-13
  20 951.352 -4.62023e-10 -4.44308e-13
  21 951.352 -4.61569e-10 -1.70448e-13
  22 951.352 -4.62023e-10 -2.38117e-13
  23 951.352 -4.61417e-10 -1.66869e-14
  24 951.352 -4.61417e-10 1.37803e-13
  25 951.352 -4.60204e-10 -8.77901e-14
  26 951.352 -4.58385e-10 2.73406e-15
  27 951.352 -4.58840e-10 1.07201e-13
  28 951.352 -4.60204e-10 6.54196e-15
  29 951.352 -4.61114e-10 -3.74142e-13
  30 951.352 -4.60932e-10 1.07612e-13
  31 951.352 -4.61114e-10 -3.75041e-14
  32 951.352 -4.61417e-10 1.22090e-13
  33 951.352 -4.60932e-10 -1.00315e-13
  34 951.352 -4.60932e-10 1.02791e-13
  35 951.352 -4.61296e-10 -1.85081e-13
  36 951.352 -4.60204e-10 -2.05611e-13
  37 951.352 -4.60507e-10 -1.09724e-13
  38 951.352 -4.61417e-10 1.27463e-13
  39 951.352 -4.61417e-10 -2.29780e-14
  40 951.352 -4.60204e-10 1.14330e-14
  41 951.352 -4.61720e-10 9.94064e-14
  42 951.352 -4.60811e-10 -1.90869e-13
  43 951.352 -4.60886e-10 -2.47606e-13
  44 951.352 -4.61341e-10 -9.05990e-14
  45 951.352 -4.61341e-10 9.74558e-15
  46 951.352 -4.60568e-10 6.55886e-14
  47 951.352 -4.60594e-10 -7.07073e-15
  48 951.352 -4.62023e-10 -9.85792e-14
  49 951.352 -4.60432e-10 -9.20417e-14
  50 951.352 -4.59977e-10 2.33773e-14
  51 951.352 -4.60811e-10 -1.76989e-13
  52 951.352 -4.61720e-10 -8.41249e-14
  53 951.352 -4.60507e-10 -3.00877e-13
  54 951.352 -4.61660e-10 -2.07277e-13
  55 951.352 -4.60507e-10 -1.07385e-14
  56 951.352 -4.60204e-10 7.08694e-14
  57 951.352 -4.61114e-10 1.44839e-13
  58 951.352 -4.59446e-10 -5.36660e-14
  59 951.352 -4.61114e-10 -6.41433e-14
  60 951.352 -4.60811e-10 -9.91304e-14
  61 951.352 -4.61296e-10 -2.57132e-13
  62 951.352 -4.60932e-10 9.92044e-14
  63 951.352 -4.60204e-10 8.70939e-14
  64 951.352 -4.60022e-10 3.05323e-13
  65 951.352 -4.59113e-10 1.43551e-13
  66 951.352 -4.61660e-10 -1.42376e-16
</Section>

newXOutput 57

<Section columns = "stress_xx | stress_yy | stress_xy">
  1 966.702 -4.56566e-10 -1.18187e-13
  2 966.702 -4.60204e-10 3.56376e-14
  3 966.702 -4.56566e-10 -1.29571e-13
  4 966.702 -4.55657e-10 -1.51184e-13
  5 966.702 -4.57476e-10 1.51513e-14
  6 966.702 -4.58385e-10 -1.25336e-13
  7 966.702 -4.60204e-10 1.06913e-13
  8 966.702 -4.60204e-10 6.59402e-14
  9 966.702 -4.60204e-10 1.75094e-13
  10 966.702 -4.60204e-10 -2.04365e-13
  11 966.702 -4.59977e-10 1.28004e-13
  12 966.702 -4.60204e-10 5.30887e-14
  13 966.702 -4.59598e-10 8.00008e-14
  14 966.702 -4.60507e-10 -4.75168e-14
  15 966.702 -4.58385e-10 -8.90940e-14
  16 966.702 -4.56263e-10 1.48122e-13
  17 966.702 -4.56566e-10 3.11600e-14
  18 966.702 -4.56263e-10 -2.73930e-13
  19 966.702 -4.56794e-10 -1.75969e-13
  20 966.702 -4.59901e-10 -5.68917e-13
  21 966.702 -4.60432e-10 -4.22960e-13
  22 966.702 -4.59901e-10 -1.65984e-13
  23 966.702 -4.57476e-10 -1.28544e-13
  24 966.702 -4.56566e-10 1.63482e-14
  25 966.702 -4.56263e-10 7.21334e-15
  26 966.702 -4.58385e-10 6.00006e-14
  27 966.702 -4.60204e-10 0.00000
  28 966.702 -4.58992e-10 -6.95799e-14
  29 966.702 -4.57931e-10 -1.96619e-13
  30 966.702 -4.58385e-10 -2.10597e-13
  31 966.702 -4.58272e-10 7.19319e-14
  32 966.702 -4.59143e-10 3.27138e-14
  33 966.702 -4.58931e-10 9.30398e-15
  34 966.702 -4.59477e-10 1.45783e-13
  35 966.702 -4.58567e-10 6.97261e-14
  36 966.702 -4.57840e-10 -1.29462e-13
  37 966.702 -4.57173e-10 1.70993e-14
  38 966.702 -4.59446e-10 1.00067e-13
  39 966.702 -4.59295e-10 7.39481e-15
  40 966.702 -4.57173e-10 -6.36891e-14
  41 966.702 -4.59750e-10 4.18335e-14
  42 966.702 -4.58234e-10 -4.20174e-14
  43 966.702 -4.58158e-10 6.16048e-14
  44 966.702 -4.58385e-10 1.65222e-14
  45 966.702 -4.58272e-10 -9.16298e-14
  46 966.702 -4.58385e-10 1.24122e-13
  47 966.702 -4.57606e-10 -2.72317e-13
  48 966.702 -4.60022e-10 -4.50555e-14
  49 966.702 -4.58272e-10 1.44226e-13
  50 966.702 -4.59636e-10 1.23887e-13
  51 966.702 -4.57627e-10 -4.11370e-14
  52 966.702 -4.59598e-10 -1.26744e-14
  53 966.702 -4.57931e-10 5.70538e-14
  54 966.702 -4.58567e-10 -2.89258e-13
  55 966.702 -4.59143e-10 -4.97351e-15
  56 966.702 -4.56415e-10 -1.66458e-14
  57 966.702 -4.60053e-10 -7.18798e-14
  58 966.702 -4.57931e-10 6.28193e-14
  59 966.702 -4.57931e-10 1.10972e-13
  60 966.702 -4.57931e-10 4.25141e-14
  61 966.702 -4.60204e-10 -6.34222e-14
  62 966.702 -4.57294e-10 6.33823e-14
  63 966.702 -4.59113e-10 -2.54660e-15
  64 966.702 -4.56566e-10 -3.29847e-13
  65 966.702 -4.59295e-10 -2.74537e-14
  66 966.702 -4.60022e-10 -3.98874e-13
</Section>

newXOutput 58

<Section columns = "stress_xx | stress_yy | stress_xy">
  1 981.988 -4.55657e-10 2.88972e-14
  2 981.988 -4.56112e-10 1.06626e-13
  3 981.988 -4.56566e-10 3.71154e-14
  4 981.988 -4.56566e-10 2.35494e-14
  5 981.988 -4.56566e-10 -3.69841e-14
  6 981.988 -4.56566e-10 -6.28936e-14
  7 981.988 -4.56566e-10 -2.81244e-14
  8 981.988 -4.55960e-10 -2.67955e-13
  9 981.988 -4.55657e-10 -2.54973e-14
  10 981.988 -4.55202e-10 5.59708e-13
  11 981.988 -4.57703e-10 9.44179e-14
  12 981.988 -4.57779e-10 -1.15485e-13
  13 981.988 -4.56566e-10 1.92648e-14
  14 981.988 -4.56263e-10 -1.77193e-14
  15 981.988 -4.56566e-10 5.33129e-14
  16 981.988 -4.57173e-10 6.51602e-14
  17 981.988 -4.56566e-10 1.63046e-13
  18 981.988 -4.56566e-10 2.17715e-14
  19 981.988 -4.56566e-10 -9.96791e-14
  20 981.988 -4.56566e-10 -1.14965e-13
  21 981.988 -4.56566e-10 -1.43099e-13
  22 981.988 -4.56566e-10 -5.36469e-14
  23 981.988 -4.56566e-10 1.04017e-14
  24 981.988 -4.57173e-10 -2.51473e-14
  25 981.988 -4.57173e-10 8.53147e-14
  26 981.988 -4.56566e-10 1.99859e-14
  27 981.988 -4.56566e-10 -5.33129e-14
  28 981.988 -4.55960e-10 5.40340e-14
  29 981.988 -4.56566e-10 5.17869e-14
  30 981.988 -4.57476e-10 1.37476e-13
  31 981.988 -4.57021e-10 3.58755e-14
  32 981.988 -4.55960e-10 5.55795e-14
  33 981.988 -4.56930e-10 -2.62485e-13
  34 981.988 -4.56930e-10 1.39467e-13
  35 981.988 -4.56930e-10 -3.39154e-14
  36 981.988 -4.55657e-10 -9.99500e-14
  37 981.988 -4.57476e-10 -1.11004e-13
  38 981.988 -4.56566e-10 -8.41338e-14
  39 981.988 -4.56566e-10 2.40118e-14
  40 981.988 -4.56566e-10 -8.69487e-14
  41 981.988 -4.57173e-10 -2.39335e-14
  42 981.988 -4.56263e-10 -2.30892e-14
  43 981.988 -4.57931e-10 1.12430e-13
  44 981.988 -4.56566e-10 -7.06660e-14
  45 981.988 -4.56566e-10 1.24935e-13
  46 981.988 -4.56203e-10 -2.17268e-14
  47 981.988 -4.56436e-10 -1.41022e-13
  48 981.988 -4.56930e-10 -8.31636e-14
  49 981.988 -4.56794e-10 7.80386e-15
  50 981.988 -4.57021e-10 1.15028e-14
  51 981.988 -4.56566e-10 -6.46522e-14
  52 981.988 -4.56566e-10 -1.54240e-15
  53 981.988 -4.56263e-10 8.51848e-14
  54 981.988 -4.56566e-10 9.26133e-14
  55 981.988 -4.56263e-10 2.90645e-14
  56 981.988 -4.56718e-10 -1.03114e-13
  57 981.988 -4.56415e-10 -1.06188e-13
  58 981.988 -4.56566e-10 1.70958e-14
  59 981.988 -4.57173e-10 7.22202e-14
  60 981.988 -4.57324e-10 2.70728e-13
  61 981.988 -4.56930e-10 -2.28735e-13
  62 981.988 -4.56930e-10 6.55397e-14
  63 981.988 -4.56566e-10 -6.56558e-14
  64 981.988 -4.56021e-10 -2.86129e-13
  65 981.988 -4.56384e-10 9.24400e-14
  66 981.988 -4.56566e-10 -1.09083e-13
</Section>

newXOutput 59

<Section columns = "stress_xx | stress_yy | stress_xy">
  1 997.213 -4.55202e-10 4.21914e-14
  2 997.213 -4.54747e-10 -7.08932e-14
  3 997.213 -4.54747e-10 2.10705e-13
  4 997.213 -4.55202e-10 3.68154e-14
  5 997.213 -4.54747e-10 9.73224e-14
  6 997.213 -4.54747e-10 1.35592e-13
  7 997.213 -4.54747e-10 -2.24826e-15
  8 997.213 -4.54747e-10 7.98862e-14
  9 997.213 -4.54747e-10 3.30392e-13
  10 997.213 -4.55202e-10 5.94125e-13
  11 997.213 -4.55429e-10 6.75208e-14
  12 997.213 -4.54747e-10 -2.64536e-14
  13 997.213 -4.54747e-10 -1.37290e-13
  14 997.213 -4.55051e-10 -9.45243e-14
  15 997.213 -4.55202e-10 -2.12680e-13
  16 997.213 -4.54747e-10 -6.79393e-14
  17 997.213 -4.54747e-10 4.87348e-14
  18 997.213 -4.54747e-10 -3.70803e-13
  19 997.213 -4.54747e-10 4.83782e-14
  20 997.213 -4.54747e-10 -4.02085e-13
  21 997.213 -4.54747e-10 -1.55396e-13
  22 997.213 -4.54747e-10 -3.67441e-13
  23 997.213 -4.54747e-10 1.23315e-15
  24 997.213 -4.55051e-10 1.12842e-13
  25 997.213 -4.55051e-10 -1.50281e-15
  26 997.213 -4.55051e-10 -4.80991e-14
  27 997.213 -4.54747e-10 -1.77233e-14
  28 997.213 -4.55051e-10 2.79962e-14
  29 997.213 -4.54747e-10 3.99744e-14
  30 997.213 -4.54747e-10 6.62361e-14
  31 997.213 -4.54747e-10 7.11974e-15
  32 997.213 -4.55202e-10 2.85181e-13
  33 997.213 -4.54929e-10 1.07128e-14
  34 997.213 -4.54747e-10 2.59214e-14
  35 997.213 -4.54747e-10 -1.70545e-13
  36 997.213 -4.54565e-10 -4.29298e-13
  37 997.213 -4.55051e-10 -1.75010e-13
  38 997.213 -4.54747e-10 1.74941e-13
  39 997.213 -4.54747e-10 -2.50774e-13
  40 997.213 -4.54747e-10 4.35011e-17
  41 997.213 -4.54747e-10 2.08581e-13
  42 997.213 -4.55051e-10 1.04863e-13
  43 997.213 -4.54975e-10 1.44814e-13
  44 997.213 -4.54747e-10 3.54458e-14
  45 997.213 -4.54747e-10 -2.27626e-14
  46 997.213 -4.54747e-10 1.22658e-13
  47 997.213 -4.54747e-10 -2.81122e-13
  48 997.213 -4.54747e-10 -2.21250e-13
  49 997.213 -4.54861e-10 -3.43734e-13
  50 997.213 -4.54747e-10 -6.47086e-14
  51 997.213 -4.54747e-10 9.64894e-14
  52 997.213 -4.54747e-10 -2.28291e-14
  53 997.213 -4.54747e-10 8.68360e-14
  54 997.213 -4.55293e-10 -8.49132e-14
  55 997.213 -4.54899e-10 -1.40441e-13
  56 997.213 -4.54596e-10 2.88806e-14
  57 997.213 -4.54747e-10 3.08527e-15
  58 997.213 -4.54899e-10 -1.19779e-14
  59 997.213 -4.54747e-10 3.53872e-14
  60 997.213 -4.55051e-10 -3.71426e-13
  61 997.213 -4.54565e-10 1.74082e-13
  62 997.213 -4.54929e-10 1.08008e-13
  63 997.213 -4.54747e-10 -1.13924e-13
  64 997.213 -4.54747e-10 -7.43790e-14
  65 997.213 -4.54929e-10 4.04328e-13
  66 997.213 -4.54929e-10 -1.10996e-13
</Section>

newXOutput 60

<Section columns = "stress_xx | stress_yy | stress_xy">
  1 1012.38 -4.53838e-10 1.06055e-13
  2 1012.38 -4.53838e-10 -3.53516e-14
  3 1012.38 -4.53838e-10 1.78554e-13
  4 1012.38 -4.53838e-10 -1.99606e-13
  5 1012.38 -4.53838e-10 3.42109e-14
  6 1012.38 -4.53838e-10 1.29246e-14
  7 1012.38 -4.53838e-10 -4.94170e-14
  8 1012.38 -4.53838e-10 1.36886e-14
  9 1012.38 -4.53838e-10 7.55540e-14
  10 1012.38 -4.53838e-10 3.80894e-13
  11 1012.38 -4.53838e-10 1.35426e-13
  12 1012.38 -4.53838e-10 6.53870e-14
  13 1012.38 -4.53838e-10 -2.81306e-14
  14 1012.38 -4.53838e-10 -4.71355e-14
  15 1012.38 -4.53838e-10 -1.06055e-13
  16 1012.38 -4.53838e-10 -1.32569e-13
  17 1012.38 -4.53838e-10 3.07401e-13
  18 1012.38 -4.53838e-10 -5.57764e-14
  19 1012.38 -4.53838e-10 4.18862e-14
  20 1012.38 -4.53838e-10 -1.82672e-14
  21 1012.38 -4.53838e-10 3.73520e-14
  22 1012.38 -4.53838e-10 7.12377e-14
  23 1012.38 -4.53838e-10 1.63681e-13
  24 1012.38 -4.53838e-10 2.07476e-13
  25 1012.38 -4.53838e-10 -3.19005e-13
  26 1012.38 -4.53838e-10 8.22988e-14
  27 1012.38 -4.53838e-10 -1.76758e-14
  28 1012.38 -4.53838e-10 2.48968e-14
  29 1012.38 -4.53838e-10 1.07871e-13
  30 1012.38 -4.54020e-10 1.69647e-14
  31 1012.38 -4.53838e-10 -3.52774e-14
  32 1012.38 -4.53989e-10 5.15545e-15
  33 1012.38 -4.54020e-10 -1.53726e-13
  34 1012.38 -4.53838e-10 1.75893e-13
  35 1012.38 -4.54384e-10 -3.30142e-14
  36 1012.38 -4.53838e-10 -2.10462e-13
  37 1012.38 -4.53838e-10 1.35087e-14
  38 1012.38 -4.53838e-10 1.90885e-14
  39 1012.38 -4.53838e-10 1.43973e-14
  40 1012.38 -4.53838e-10 9.83737e-15
  41 1012.38 -4.53838e-10 2.74841e-14
  42 1012.38 -4.53838e-10 -1.67012e-14
  43 1012.38 -4.53952e-10 -5.97702e-14
  44 1012.38 -4.53838e-10 7.69223e-14
  45 1012.38 -4.53838e-10 1.52342e-13
  46 1012.38 -4.53838e-10 3.23911e-14
  47 1012.38 -4.53968e-10 -1.31919e-13
  48 1012.38 -4.53838e-10 1.15578e-13
  49 1012.38 -4.53838e-10 7.54461e-14
  50 1012.38 -4.53838e-10 5.71619e-14
  51 1012.38 -4.53838e-10 -5.76665e-14
  52 1012.38 -4.53838e-10 1.11425e-13
  53 1012.38 -4.53838e-10 9.98223e-14
  54 1012.38 -4.54020e-10 1.00081e-13
  55 1012.38 -4.54293e-10 -2.18726e-15
  56 1012.38 -4.53838e-10 -6.18424e-14
  57 1012.38 -4.53838e-10 -2.40439e-14
  58 1012.38 -4.53838e-10 -6.87213e-14
  59 1012.38 -4.53838e-10 6.09872e-14
  60 1012.38 -4.53989e-10 -1.67235e-14
  61 1012.38 -4.54020e-10 -1.67070e-13
  62 1012.38 -4.53838e-10 1.21019e-14
  63 1012.38 -4.54384e-10 7.99034e-16
  64 1012.38 -4.53838e-10 -3.40119e-13
  65 1012.38 -4.53838e-10 1.54125e-13
  66 1012.38 -4.54020e-10 -1.57908e-14
</Section>

newXOutput 61

<Section columns = "stress_xx | stress_yy | stress_xy">
  1 1027.48 -4.50200e-10 2.83137e-14
  2 1027.48 -4.51109e-10 6.62400e-13
  3 1027.48 -4.51109e-10 6.22339e-13
  4 1027.48 -4.50200e-10 -2.77497e-15
  5 1027.48 -4.50200e-10 4.83467e-14
  6 1027.48 -4.50806e-10 4.10432e-14
  7 1027.48 -4.51109e-10 -7.49629e-14
  8 1027.48 -4.51109e-10 2.49456e-15
  9 1027.48 -4.51109e-10 1.40218e-14
  10 1027.48 -4.51564e-10 -1.41028e-13
  11 1027.48 -4.50655e-10 7.74574e-14
  12 1027.48 -4.50806e-10 -3.09830e-13
  13 1027.48 -4.51413e-10 4.83620e-13
  14 1027.48 -4.50806e-10 -2.18305e-13
  15 1027.48 -4.50655e-10 -4.40713e-13
  16 1027.48 -4.51109e-10 -1.08709e-13
  17 1027.48 -4.50503e-10 1.04068e-12
  18 1027.48 -4.50503e-10 3.27932e-14
  19 1027.48 -4.50655e-10 -3.65119e-13
  20 1027.48 -4.50200e-10 -5.91155e-13
  21 1027.48 -4.51109e-10 -4.49258e-14
  22 1027.48 -4.51109e-10 1.86304e-13
  23 1027.48 -4.51109e-10 1.08012e-13
  24 1027.48 -4.51109e-10 3.15568e-14
  25 1027.48 -4.50503e-10 -1.34039e-13
  26 1027.48 -4.50200e-10 3.56173e-15
  27 1027.48 -4.50200e-10 0.00000
  28 1027.48 -4.50200e-10 6.57951e-14
  29 1027.48 -4.50200e-10 -3.43952e-14
  30 1027.48 -4.51109e-10 4.03502e-14
  31 1027.48 -4.50427e-10 -5.38198e-14
  32 1027.48 -4.50351e-10 2.29767e-13
  33 1027.48 -4.50746e-10 6.72545e-14
  34 1027.48 -4.50564e-10 -3.09762e-14
  35 1027.48 -4.50564e-10 4.66480e-14
  36 1027.48 -4.50746e-10 6.04192e-14
  37 1027.48 -4.50503e-10 -1.91350e-13
  38 1027.48 -4.50806e-10 -5.01346e-14
  39 1027.48 -4.50655e-10 6.60704e-14
  40 1027.48 -4.50806e-10 -4.04581e-13
  41 1027.48 -4.50655e-10 9.32496e-14
  42 1027.48 -4.50958e-10 7.36604e-15
  43 1027.48 -4.50541e-10 1.03162e-14
  44 1027.48 -4.50655e-10 -1.53533e-14
  45 1027.48 -4.50655e-10 4.52262e-14
  46 1027.48 -4.50927e-10 3.26648e-14
  47 1027.48 -4.50850e-10 -1.70803e-14
  48 1027.48 -4.50746e-10 -2.03232e-14
  49 1027.48 -4.50996e-10 -9.30487e-14
  50 1027.48 -4.50200e-10 3.32223e-15
  51 1027.48 -4.50351e-10 8.22524e-15
  52 1027.48 -4.50200e-10 -1.02673e-14
  53 1027.48 -4.50655e-10 1.10844e-13
  54 1027.48 -4.50018e-10 -4.75322e-13
  55 1027.48 -4.50351e-10 6.46829e-14
  56 1027.48 -4.50806e-10 4.75699e-13
  57 1027.48 -4.50806e-10 1.92043e-13
  58 1027.48 -4.50351e-10 -8.65570e-14
  59 1027.48 -4.50200e-10 -1.34344e-16
  60 1027.48 -4.50958e-10 1.68043e-13
  61 1027.48 -4.51109e-10 -2.11060e-13
  62 1027.48 -4.50927e-10 -6.94779e-14
  63 1027.48 -4.50746e-10 1.00949e-13
  64 1027.48 -4.50382e-10 5.13243e-13
  65 1027.48 -4.51291e-10 -3.38035e-13
  66 1027.48 -4.50564e-10 -2.69892e-13
</Section>

newXOutput 62

<Section columns = "stress_xx | stress_yy | stress_xy">
  1 1042.52 -4.50200e-10 6.68047e-14
  2 1042.52 -4.51109e-10 1.05488e-13
  3 1042.52 -4.51109e-10 -1.69192e-13
  4 1042.52 -4.50200e-10 7.57914e-14
  5 1042.52 -4.50200e-10 -1.52388e-13
  6 1042.52 -4.50200e-10 6.79783e-14
  7 1042.52 -4.50200e-10 -8.44248e-14
  8 1042.52 -4.50200e-10 -1.87566e-13
  9 1042.52 -4.50200e-10 2.60235e-13
  10 1042.52 -4.50200e-10 3.79795e-13
  11 1042.52 -4.50200e-10 -1.60005e-13
  12 1042.52 -4.50200e-10 -5.74388e-13
  13 1042.52 -4.50200e-10 -1.68819e-13
  14 1042.52 -4.50806e-10 -9.37675e-14
  15 1042.52 -4.50200e-10 -1.58233e-13
  16 1042.52 -4.50200e-10 -6.15349e-14
  17 1042.52 -4.52019e-10 -4.81826e-13
  18 1042.52 -4.50806e-10 -2.73169e-13
  19 1042.52 -4.50200e-10 2.12444e-13
  20 1042.52 -4.50200e-10 -7.68123e-14
  21 1042.52 -4.50200e-10 1.61850e-15
  22 1042.52 -4.50200e-10 -2.59427e-13
  23 1042.52 -4.50200e-10 -1.27797e-14
  24 1042.52 -4.50200e-10 1.49306e-13
  25 1042.52 -4.50200e-10 6.89632e-14
  26 1042.52 -4.50200e-10 -5.86822e-15
  27 1042.52 -4.50200e-10 -1.75814e-14
  28 1042.52 -4.50200e-10 4.51271e-14
  29 1042.52 -4.50200e-10 -2.45622e-14
  30 1042.52 -4.50200e-10 -3.51628e-14
  31 1042.52 -4.50200e-10 -1.89341e-14
  32 1042.52 -4.50200e-10 -1.39650e-13
  33 1042.52 -4.50200e-10 -5.97395e-15
  34 1042.52 -4.50200e-10 -5.60966e-14
  35 1042.52 -4.50200e-10 -2.91888e-14
  36 1042.52 -4.50018e-10 4.91645e-13
  37 1042.52 -4.50200e-10 -4.35202e-14
  38 1042.52 -4.50200e-10 -1.03089e-13
  39 1042.52 -4.50200e-10 1.30451e-14
  40 1042.52 -4.50200e-10 -6.11846e-14
  41 1042.52 -4.50200e-10 4.58107e-14
  42 1042.52 -4.50200e-10 -4.70295e-14
  43 1042.52 -4.50200e-10 1.62326e-13
  44 1042.52 -4.50200e-10 -4.15786e-15
  45 1042.52 -4.50200e-10 5.64051e-14
  46 1042.52 -4.50200e-10 9.22965e-15
  47 1042.52 -4.50200e-10 6.17445e-15
  48 1042.52 -4.50200e-10 -7.54561e-14
  49 1042.52 -4.50086e-10 3.93570e-14
  50 1042.52 -4.50200e-10 -2.24212e-14
  51 1042.52 -4.50200e-10 -1.57565e-13
  52 1042.52 -4.50200e-10 8.50609e-14
  53 1042.52 -4.50200e-10 1.61473e-15
  54 1042.52 -4.50200e-10 -8.01826e-15
  55 1042.52 -4.50200e-10 -2.72543e-14
  56 1042.52 -4.50655e-10 -2.21013e-14
  57 1042.52 -4.50503e-10 -1.45361e-13
  58 1042.52 -4.50200e-10 -2.49295e-14
  59 1042.52 -4.50200e-10 -4.37403e-14
  60 1042.52 -4.50200e-10 4.01788e-13
  61 1042.52 -4.50200e-10 -3.61874e-13
  62 1042.52 -4.50200e-10 1.89712e-14
  63 1042.52 -4.50200e-10 -6.43540e-14
  64 1042.52 -4.50927e-10 -1.03955e-13
  65 1042.52 -4.50200e-10 2.09937e-13
  66 1042.52 -4.50200e-10 -8.53872e-14
</Section>

newXOutput 63

<Section columns = "stress_xx | stress_yy | stress_xy">
  1 1057.49 -4.49290e-10 -7.01378e-14
  2 1057.49 -4.47926e-10 3.50689e-14
  3 1057.49 -4.49290e-10 1.41411e-13
  4 1057.49 -4.49290e-10 -7.95457e-14
  5 1057.49 -4.49290e-10 -4.75993e-15
  6 1057.49 -4.47471e-10 6.29979e-14
  7 1057.49 -4.48381e-10 3.24788e-14
  8 1057.49 -4.49290e-10 -1.40696e-13
  9 1057.49 -4.49290e-10 2.10413e-13
  10 1057.49 -4.49290e-10 2.10413e-13
  11 1057.49 -4.49290e-10 2.29891e-13
  12 1057.49 -4.49594e-10 -2.03904e-13
  13 1057.49 -4.49290e-10 -1.92214e-13
  14 1057.49 -4.47471e-10 -4.67585e-14
  15 1057.49 -4.47926e-10 -3.50689e-14
  16 1057.49 -4.49290e-10 3.21465e-14
  17 1057.49 -4.48381e-10 4.18543e-13
  18 1057.49 -4.49594e-10 1.62047e-13
  19 1057.49 -4.49290e-10 -9.40544e-14
  20 1057.49 -4.47775e-10 -4.24945e-14
  21 1057.49 -4.48381e-10 -2.27395e-13
  22 1057.49 -4.48684e-10 -1.70840e-13
  23 1057.49 -4.48078e-10 -1.76602e-14
  24 1057.49 -4.47471e-10 9.15092e-14
  25 1057.49 -4.48684e-10 -7.09246e-14
  26 1057.49 -4.49290e-10 -7.96577e-14
  27 1057.49 -4.48381e-10 1.40276e-13
  28 1057.49 -4.48078e-10 9.58971e-14
  29 1057.49 -4.49290e-10 -3.66154e-13
  30 1057.49 -4.49472e-10 -2.17925e-13
  31 1057.49 -4.48836e-10 5.86633e-14
  32 1057.49 -4.49139e-10 8.69196e-14
  33 1057.49 -4.48927e-10 -4.40546e-13
  34 1057.49 -4.49290e-10 -1.98428e-13
  35 1057.49 -4.48017e-10 1.02351e-13
  36 1057.49 -4.48017e-10 -3.22361e-13
  37 1057.49 -4.49290e-10 1.79728e-13
  38 1057.49 -4.49290e-10 -8.28802e-14
  39 1057.49 -4.48684e-10 -6.66789e-15
  40 1057.49 -4.49290e-10 1.04542e-13
  41 1057.49 -4.48684e-10 4.24690e-14
  42 1057.49 -4.49442e-10 1.75292e-13
  43 1057.49 -4.49404e-10 -3.22278e-13
  44 1057.49 -4.48267e-10 -1.94656e-14
  45 1057.49 -4.48608e-10 -1.47834e-13
  46 1057.49 -4.49290e-10 7.50516e-14
  47 1057.49 -4.49550e-10 1.10291e-13
  48 1057.49 -4.48927e-10 4.13097e-14
  49 1057.49 -4.48495e-10 -1.21396e-13
  50 1057.49 -4.48381e-10 -4.00564e-14
  51 1057.49 -4.48684e-10 -4.55185e-14
  52 1057.49 -4.48987e-10 -1.44659e-13
  53 1057.49 -4.49442e-10 -4.88283e-14
  54 1057.49 -4.48927e-10 5.95738e-14
  55 1057.49 -4.48684e-10 4.55686e-14
  56 1057.49 -4.47926e-10 -2.77295e-13
  57 1057.49 -4.48532e-10 2.14736e-13
  58 1057.49 -4.49290e-10 -1.74473e-13
  59 1057.49 -4.48532e-10 -1.68351e-13
  60 1057.49 -4.48987e-10 -3.59893e-13
  61 1057.49 -4.48927e-10 4.06547e-14
  62 1057.49 -4.48563e-10 -1.38917e-14
  63 1057.49 -4.48745e-10 4.75424e-14
  64 1057.49 -4.48563e-10 -3.98335e-13
  65 1057.49 -4.49290e-10 2.86263e-13
  66 1057.49 -4.48563e-10 -6.09006e-14
</Section>

newXOutput 64

<Section columns = "stress_xx | stress_yy | stress_xy">
  1 1072.41 -4.45652e-10 9.40700e-14
  2 1072.41 -4.45652e-10 -1.04926e-13
  3 1072.41 -4.45652e-10 4.09560e-14
  4 1072.41 -4.47017e-10 9.74553e-15
  5 1072.41 -4.45652e-10 1.46331e-13
  6 1072.41 -4.45652e-10 -8.44256e-14
  7 1072.41 -4.45652e-10 -8.92505e-14
  8 1072.41 -4.47471e-10 -8.44256e-14
  9 1072.41 -4.48381e-10 3.58842e-14
  10 1072.41 -4.48381e-10 3.72678e-13
  11 1072.41 -4.47699e-10 3.28353e-13
  12 1072.41 -4.46562e-10 6.01830e-13
  13 1072.41 -4.46562e-10 2.75786e-13
  14 1072.41 -4.45652e-10 1.12567e-13
  15 1072.41 -4.47017e-10 -8.74384e-14
  16 1072.41 -4.46562e-10 -2.12767e-13
  17 1072.41 -4.46562e-10 2.43270e-13
  18 1072.41 -4.47471e-10 -8.13270e-14
  19 1072.41 -4.45652e-10 1.38636e-13
  20 1072.41 -4.45652e-10 -2.18437e-13
  21 1072.41 -4.47017e-10 -1.14274e-13
  22 1072.41 -4.45652e-10 -1.68287e-13
  23 1072.41 -4.45652e-10 1.06814e-13
  24 1072.41 -4.45652e-10 1.59782e-13
  25 1072.41 -4.47471e-10 -2.39731e-13
  26 1072.41 -4.46562e-10 1.06935e-13
  27 1072.41 -4.47017e-10 -1.39901e-13
  28 1072.41 -4.45652e-10 -3.37691e-14
  29 1072.41 -4.47017e-10 -3.28774e-13
  30 1072.41 -4.46744e-10 2.51179e-13
  31 1072.41 -4.46676e-10 -2.40824e-14
  32 1072.41 -4.47017e-10 -9.18104e-14
  33 1072.41 -4.45652e-10 2.79927e-13
  34 1072.41 -4.47289e-10 -2.03600e-13
  35 1072.41 -4.46744e-10 1.26934e-13
  36 1072.41 -4.45652e-10 1.04206e-13
  37 1072.41 -4.47017e-10 1.28145e-13
  38 1072.41 -4.47471e-10 -3.61915e-14
  39 1072.41 -4.45652e-10 1.35491e-14
  40 1072.41 -4.47471e-10 7.03820e-15
  41 1072.41 -4.47017e-10 -8.28093e-15
  42 1072.41 -4.47017e-10 3.80865e-13
  43 1072.41 -4.45993e-10 1.27506e-13
  44 1072.41 -4.47017e-10 -7.32936e-14
  45 1072.41 -4.46335e-10 -9.78416e-14
  46 1072.41 -4.48381e-10 -1.10955e-13
  47 1072.41 -4.46432e-10 4.47721e-13
  48 1072.41 -4.46198e-10 -1.37699e-13
  49 1072.41 -4.45993e-10 -8.34063e-14
  50 1072.41 -4.45993e-10 -1.98261e-14
  51 1072.41 -4.45652e-10 1.35842e-13
  52 1072.41 -4.47017e-10 -6.65167e-14
  53 1072.41 -4.46107e-10 -6.69870e-14
  54 1072.41 -4.46744e-10 -9.55106e-14
  55 1072.41 -4.46107e-10 7.71854e-14
  56 1072.41 -4.45652e-10 6.93845e-14
  57 1072.41 -4.45652e-10 2.03723e-13
  58 1072.41 -4.47017e-10 -1.68616e-13
  59 1072.41 -4.46562e-10 -8.38540e-14
  60 1072.41 -4.45652e-10 -8.05899e-14
  61 1072.41 -4.46198e-10 6.02068e-13
  62 1072.41 -4.47289e-10 -1.66930e-13
  63 1072.41 -4.46744e-10 8.49029e-14
  64 1072.41 -4.46744e-10 3.84664e-13
  65 1072.41 -4.48381e-10 1.74641e-13
  66 1072.41 -4.47289e-10 -7.56519e-14
</Section>

newXOutput 65

<Section columns = "stress_xx | stress_yy | stress_xy">
  1 1087.27 -4.43833e-10 3.12150e-14
  2 1087.27 -4.44743e-10 -1.74411e-13
  3 1087.27 -4.44743e-10 -6.14885e-14
  4 1087.27 -4.46562e-10 2.07837e-14
  5 1087.27 -4.44440e-10 1.01605e-13
  6 1087.27 -4.45956e-10 -9.15354e-15
  7 1087.27 -4.45956e-10 1.53601e-13
  8 1087.27 -4.46259e-10 -2.10486e-13
  9 1087.27 -4.46107e-10 -1.51600e-14
  10 1087.27 -4.46562e-10 2.38631e-13
  11 1087.27 -4.46335e-10 -6.97644e-14
  12 1087.27 -4.45652e-10 -1.16274e-13
  13 1087.27 -4.46259e-10 -1.86038e-13
  14 1087.27 -4.42924e-10 1.16274e-14
  15 1087.27 -4.43833e-10 1.04647e-13
  16 1087.27 -4.44137e-10 1.74411e-13
  17 1087.27 -4.45956e-10 -3.40714e-13
  18 1087.27 -4.45652e-10 7.69914e-14
  19 1087.27 -4.44970e-10 -9.27455e-14
  20 1087.27 -4.44137e-10 2.41284e-13
  21 1087.27 -4.45425e-10 8.29342e-14
  22 1087.27 -4.43833e-10 4.34098e-14
  23 1087.27 -4.43530e-10 2.18814e-14
  24 1087.27 -4.43530e-10 -1.43660e-13
  25 1087.27 -4.45349e-10 -1.71115e-13
  26 1087.27 -4.45956e-10 -3.73270e-14
  27 1087.27 -4.44743e-10 -5.23233e-14
  28 1087.27 -4.43833e-10 5.13992e-14
  29 1087.27 -4.45198e-10 1.14648e-13
  30 1087.27 -4.46380e-10 -1.37825e-13
  31 1087.27 -4.46107e-10 4.94598e-14
  32 1087.27 -4.45198e-10 -1.64304e-13
  33 1087.27 -4.46016e-10 -4.44159e-13
  34 1087.27 -4.45289e-10 8.60475e-14
  35 1087.27 -4.44561e-10 5.97516e-14
  36 1087.27 -4.43106e-10 2.35894e-13
  37 1087.27 -4.46259e-10 2.57333e-14
  38 1087.27 -4.46107e-10 -3.44915e-16
  39 1087.27 -4.45198e-10 4.76629e-14
  40 1087.27 -4.45652e-10 -5.36275e-14
  41 1087.27 -4.45956e-10 1.70177e-13
  42 1087.27 -4.45956e-10 -3.40534e-13
  43 1087.27 -4.46107e-10 -9.11940e-14
  44 1087.27 -4.45652e-10 3.08853e-14
  45 1087.27 -4.44402e-10 5.47097e-14
  46 1087.27 -4.46380e-10 -8.40927e-14
  47 1087.27 -4.45263e-10 -4.13034e-15
  48 1087.27 -4.45107e-10 1.26001e-13
  49 1087.27 -4.43833e-10 -1.60550e-14
  50 1087.27 -4.44629e-10 -1.84450e-15
  51 1087.27 -4.45349e-10 3.67814e-13
  52 1087.27 -4.45956e-10 -4.81373e-14
  53 1087.27 -4.45349e-10 2.54190e-13
  54 1087.27 -4.45107e-10 -3.66304e-13
  55 1087.27 -4.44288e-10 4.25295e-14
  56 1087.27 -4.44137e-10 2.60134e-14
  57 1087.27 -4.44894e-10 -2.46456e-13
  58 1087.27 -4.46107e-10 -4.20192e-14
  59 1087.27 -4.44137e-10 8.36786e-14
  60 1087.27 -4.45349e-10 -2.19635e-13
  61 1087.27 -4.46198e-10 -1.95063e-13
  62 1087.27 -4.45107e-10 -9.24817e-14
  63 1087.27 -4.45471e-10 6.85878e-14
  64 1087.27 -4.44925e-10 -3.59038e-14
  65 1087.27 -4.46198e-10 -1.21614e-13
  66 1087.27 -4.45471e-10 -1.76035e-13
</Section>

newXOutput 66

<Section columns = "stress_xx | stress_yy | stress_xy">
  1 1102.06 -4.45652e-10 -5.84322e-14
  2 1102.06 -4.45652e-10 -2.38460e-13
  3 1102.06 -4.45652e-10 4.57902e-13
  4 1102.06 -4.44743e-10 4.12363e-14
  5 1102.06 -4.45349e-10 -2.01305e-13
  6 1102.06 -4.45046e-10 -4.29857e-13
  7 1102.06 -4.45652e-10 -1.24295e-13
  8 1102.06 -4.45652e-10 8.93947e-14
  9 1102.06 -4.45652e-10 6.70460e-14
  10 1102.06 -4.45652e-10 -1.04368e-13
  11 1102.06 -4.45425e-10 2.70800e-13
  12 1102.06 -4.45349e-10 3.77617e-13
  13 1102.06 -4.45349e-10 -2.38460e-13
  14 1102.06 -4.45349e-10 -4.63858e-14
  15 1102.06 -4.45652e-10 0.00000
  16 1102.06 -4.45349e-10 2.36707e-14
  17 1102.06 -4.45652e-10 2.91728e-13
  18 1102.06 -4.45652e-10 1.43164e-13
  19 1102.06 -4.45425e-10 3.33868e-13
  20 1102.06 -4.45652e-10 2.75774e-13
  21 1102.06 -4.45198e-10 -5.53755e-14
  22 1102.06 -4.45349e-10 9.07303e-14
  23 1102.06 -4.45652e-10 -4.54727e-14
  24 1102.06 -4.45652e-10 -3.74520e-13
  25 1102.06 -4.45046e-10 8.71003e-14
  26 1102.06 -4.45046e-10 -5.67438e-14
  27 1102.06 -4.45652e-10 -1.73947e-14
  28 1102.06 -4.45652e-10 4.13761e-14
  29 1102.06 -4.45425e-10 1.90835e-13
  30 1102.06 -4.45471e-10 3.99361e-14
  31 1102.06 -4.45425e-10 1.13440e-13
  32 1102.06 -4.45652e-10 2.87522e-14
  33 1102.06 -4.45471e-10 -1.41690e-14
  34 1102.06 -4.45289e-10 2.91907e-13
  35 1102.06 -4.45652e-10 2.10426e-13
  36 1102.06 -4.45289e-10 -2.14461e-13
  37 1102.06 -4.45349e-10 2.65699e-13
  38 1102.06 -4.45501e-10 8.95624e-14
  39 1102.06 -4.45652e-10 -5.55737e-14
  40 1102.06 -4.45652e-10 4.55683e-13
  41 1102.06 -4.45198e-10 -4.48576e-14
  42 1102.06 -4.45501e-10 1.86290e-13
  43 1102.06 -4.45311e-10 1.82059e-13
  44 1102.06 -4.45311e-10 -8.90419e-14
  45 1102.06 -4.45652e-10 1.54884e-13
  46 1102.06 -4.45652e-10 3.04881e-13
  47 1102.06 -4.45522e-10 2.27045e-14
  48 1102.06 -4.45107e-10 -5.25680e-14
  49 1102.06 -4.45198e-10 -7.37482e-14
  50 1102.06 -4.45425e-10 1.29532e-13
  51 1102.06 -4.45501e-10 4.23129e-14
  52 1102.06 -4.45349e-10 -5.27328e-14
  53 1102.06 -4.45349e-10 7.73123e-14
  54 1102.06 -4.45471e-10 2.08858e-13
  55 1102.06 -4.45652e-10 1.23537e-13
  56 1102.06 -4.45501e-10 2.09632e-14
  57 1102.06 -4.45349e-10 -9.72756e-14
  58 1102.06 -4.44743e-10 2.31188e-14
  59 1102.06 -4.45652e-10 4.17021e-13
  60 1102.06 -4.45349e-10 1.14400e-13
  61 1102.06 -4.45471e-10 -1.71414e-14
  62 1102.06 -4.45289e-10 -3.77519e-14
  63 1102.06 -4.45289e-10 -1.02240e-13
  64 1102.06 -4.45652e-10 -1.25175e-13
  65 1102.06 -4.45652e-10 1.93234e-13
  66 1102.06 -4.45652e-10 5.59596e-14
</Section>

newXOutput 67

<Section columns = "stress_xx | stress_yy | stress_xy">
  1 1116.80 -4.42014e-10 -3.46969e-14
  2 1116.80 -4.42014e-10 1.04091e-13
  3 1116.80 -4.42014e-10 6.56924e-14
  4 1116.80 -4.42014e-10 -2.05662e-15
  5 1116.80 -4.42014e-10 8.72319e-14
  6 1116.80 -4.42014e-10 6.41006e-14
  7 1116.80 -4.40802e-10 2.60441e-13
  8 1116.80 -4.41711e-10 9.25250e-14
  9 1116.80 -4.42014e-10 -1.12352e-13
  10 1116.80 -4.42014e-10 -6.15366e-13
  11 1116.80 -4.41787e-10 -1.40257e-13
  12 1116.80 -4.41711e-10 3.53946e-13
  13 1116.80 -4.42318e-10 7.94298e-14
  14 1116.80 -4.41408e-10 -1.12597e-13
  15 1116.80 -4.41560e-10 -1.04091e-13
  16 1116.80 -4.42621e-10 3.46969e-14
  17 1116.80 -4.42014e-10 -8.66849e-14
  18 1116.80 -4.42318e-10 7.70766e-14
  19 1116.80 -4.42697e-10 4.72887e-14
  20 1116.80 -4.42014e-10 -5.28022e-13
  21 1116.80 -4.42242e-10 -6.89496e-14
  22 1116.80 -4.42318e-10 -1.44835e-13
  23 1116.80 -4.42318e-10 -3.41924e-14
  24 1116.80 -4.42621e-10 2.33228e-13
  25 1116.80 -4.42014e-10 2.56956e-14
  26 1116.80 -4.42014e-10 -5.37895e-14
  27 1116.80 -4.42014e-10 0.00000
  28 1116.80 -4.42014e-10 4.96436e-14
  29 1116.80 -4.42242e-10 -1.94675e-13
  30 1116.80 -4.42924e-10 -4.35540e-13
  31 1116.80 -4.42355e-10 -6.57575e-14
  32 1116.80 -4.41863e-10 2.03237e-14
  33 1116.80 -4.42560e-10 -6.68418e-14
  34 1116.80 -4.42560e-10 -1.31849e-13
  35 1116.80 -4.42378e-10 6.24956e-14
  36 1116.80 -4.42560e-10 -9.56458e-14
  37 1116.80 -4.42166e-10 -1.34623e-13
  38 1116.80 -4.41863e-10 5.91141e-14
  39 1116.80 -4.42318e-10 -1.11296e-13
  40 1116.80 -4.42166e-10 -1.30049e-13
  41 1116.80 -4.42166e-10 9.08671e-14
  42 1116.80 -4.42621e-10 -7.18189e-14
  43 1116.80 -4.42128e-10 -2.53584e-15
  44 1116.80 -4.42014e-10 3.63588e-14
  45 1116.80 -4.42583e-10 -8.31413e-14
  46 1116.80 -4.42378e-10 6.58003e-14
  47 1116.80 -4.42794e-10 -1.69298e-13
  48 1116.80 -4.42560e-10 9.81841e-15
  49 1116.80 -4.42242e-10 3.78868e-14
  50 1116.80 -4.42128e-10 -6.31069e-15
  51 1116.80 -4.42166e-10 1.49185e-13
  52 1116.80 -4.42166e-10 -1.54766e-13
  53 1116.80 -4.42469e-10 6.43757e-14
  54 1116.80 -4.41651e-10 -1.47221e-13
  55 1116.80 -4.42014e-10 1.03135e-13
  56 1116.80 -4.42621e-10 1.03318e-14
  57 1116.80 -4.42318e-10 2.52579e-14
  58 1116.80 -4.42014e-10 -1.03352e-13
  59 1116.80 -4.42621e-10 -1.13468e-13
  60 1116.80 -4.42469e-10 -2.55413e-13
  61 1116.80 -4.42378e-10 4.67401e-14
  62 1116.80 -4.42378e-10 2.85766e-14
  63 1116.80 -4.42196e-10 1.17469e-13
  64 1116.80 -4.42378e-10 -1.52657e-13
  65 1116.80 -4.42014e-10 -5.22602e-13
  66 1116.80 -4.42014e-10 -3.67650e-13
</Section>

newXOutput 68

<Section columns = "stress_xx | stress_yy | stress_xy">
  1 1131.48 -4.42924e-10 -3.84160e-14
  2 1131.48 -4.42469e-10 -6.50951e-14
  3 1131.48 -4.41560e-10 1.35702e-13
  4 1131.48 -4.42469e-10 1.02537e-13
  5 1131.48 -4.42924e-10 -1.79275e-13
  6 1131.48 -4.42621e-10 -6.40267e-14
  7 1131.48 -4.42621e-10 1.21600e-13
  8 1131.48 -4.41711e-10 -1.79881e-14
  9 1131.48 -4.41560e-10 2.49856e-13
  10 1131.48 -4.42469e-10 2.07628e-13
  11 1131.48 -4.42924e-10 -2.29468e-13
  12 1131.48 -4.42318e-10 -3.65003e-13
  13 1131.48 -4.42318e-10 -1.68909e-13
  14 1131.48 -4.42318e-10 -6.64665e-14
  15 1131.48 -4.42924e-10 1.38419e-13
  16 1131.48 -4.42621e-10 7.49769e-14
  17 1131.48 -4.40802e-10 1.13052e-13
  18 1131.48 -4.41408e-10 2.90456e-14
  19 1131.48 -4.42469e-10 -2.03694e-13
  20 1131.48 -4.42318e-10 -2.43372e-13
  21 1131.48 -4.42469e-10 -8.19243e-14
  22 1131.48 -4.42318e-10 7.81926e-14
  23 1131.48 -4.42924e-10 1.84653e-13
  24 1131.48 -4.42318e-10 -6.88100e-15
  25 1131.48 -4.42014e-10 1.30994e-13
  26 1131.48 -4.42924e-10 -9.55059e-14
  27 1131.48 -4.42924e-10 -5.19071e-14
  28 1131.48 -4.42924e-10 4.15416e-15
  29 1131.48 -4.42697e-10 -6.51957e-14
  30 1131.48 -4.42742e-10 2.90131e-14
  31 1131.48 -4.41901e-10 -1.02867e-14
  32 1131.48 -4.42318e-10 -3.58446e-14
  33 1131.48 -4.41833e-10 1.03814e-14
  34 1131.48 -4.42924e-10 9.57163e-14
  35 1131.48 -4.42924e-10 1.25424e-13
  36 1131.48 -4.41833e-10 1.34631e-13
  37 1131.48 -4.42469e-10 7.81683e-14
  38 1131.48 -4.42166e-10 -6.89028e-14
  39 1131.48 -4.42318e-10 1.20184e-13
  40 1131.48 -4.41711e-10 4.63426e-14
  41 1131.48 -4.42469e-10 -5.67449e-14
  42 1131.48 -4.42469e-10 -2.17469e-13
  43 1131.48 -4.42469e-10 6.38622e-15
  44 1131.48 -4.42697e-10 3.18814e-14
  45 1131.48 -4.42924e-10 1.20540e-13
  46 1131.48 -4.41469e-10 1.64289e-13
  47 1131.48 -4.42404e-10 -1.43352e-14
  48 1131.48 -4.42014e-10 -3.91362e-14
  49 1131.48 -4.42014e-10 8.21862e-14
  50 1131.48 -4.42924e-10 1.61641e-14
  51 1131.48 -4.42166e-10 -2.30151e-13
  52 1131.48 -4.42318e-10 -7.98538e-14
  53 1131.48 -4.42318e-10 -9.27982e-14
  54 1131.48 -4.42014e-10 1.74194e-14
  55 1131.48 -4.42924e-10 3.21848e-14
  56 1131.48 -4.41863e-10 2.07224e-14
  57 1131.48 -4.42166e-10 -7.73157e-14
  58 1131.48 -4.42772e-10 1.19988e-14
  59 1131.48 -4.42924e-10 7.79359e-14
  60 1131.48 -4.42014e-10 3.54918e-13
  61 1131.48 -4.42014e-10 -1.26392e-13
  62 1131.48 -4.42560e-10 -2.18905e-14
  63 1131.48 -4.42742e-10 -7.92565e-16
  64 1131.48 -4.41651e-10 -1.39206e-13
  65 1131.48 -4.42378e-10 1.69563e-13
  66 1131.48 -4.42378e-10 1.12367e-13
</Section>

newXOutput 69

<Section columns = "stress_xx | stress_yy | stress_xy">
  1 1146.09 -4.38376e-10 -1.15765e-14
  2 1146.09 -4.41105e-10 -7.90155e-13
  3 1146.09 -4.39286e-10 -3.07968e-14
  4 1146.09 -4.38831e-10 -3.38461e-14
  5 1146.09 -4.40499e-10 -1.53487e-13
  6 1146.09 -4.40499e-10 6.88815e-14
  7 1146.09 -4.39589e-10 1.50770e-13
  8 1146.09 -4.39589e-10 4.11727e-13
  9 1146.09 -4.40650e-10 2.23423e-13
  10 1146.09 -4.43379e-10 1.38052e-13
  11 1146.09 -4.40423e-10 -2.92666e-13
  12 1146.09 -4.42014e-10 6.85402e-13
  13 1146.09 -4.40802e-10 4.34736e-13
  14 1146.09 -4.42014e-10 -1.17471e-13
  15 1146.09 -4.40195e-10 3.10616e-13
  16 1146.09 -4.38983e-10 1.00663e-13
  17 1146.09 -4.39589e-10 9.00787e-14
  18 1146.09 -4.39286e-10 2.73502e-14
  19 1146.09 -4.39286e-10 3.27804e-13
  20 1146.09 -4.41711e-10 -1.36699e-13
  21 1146.09 -4.42924e-10 -4.22617e-13
  22 1146.09 -4.41711e-10 -4.67518e-13
  23 1146.09 -4.39286e-10 -2.49097e-13
  24 1146.09 -4.38680e-10 -1.22635e-13
  25 1146.09 -4.38983e-10 -1.43294e-13
  26 1146.09 -4.37467e-10 -5.14511e-15
  27 1146.09 -4.38376e-10 0.00000
  28 1146.09 -4.38680e-10 -2.55812e-14
  29 1146.09 -4.39059e-10 -7.87254e-14
  30 1146.09 -4.39468e-10 -6.25812e-13
  31 1146.09 -4.39172e-10 -6.64199e-14
  32 1146.09 -4.41408e-10 -1.81561e-13
  33 1146.09 -4.41833e-10 -3.04425e-13
  34 1146.09 -4.37467e-10 5.64955e-14
  35 1146.09 -4.38195e-10 -1.27281e-13
  36 1146.09 -4.39104e-10 1.43948e-13
  37 1146.09 -4.39589e-10 9.49106e-14
  38 1146.09 -4.39438e-10 -5.20876e-14
  39 1146.09 -4.39286e-10 -2.46862e-14
  40 1146.09 -4.39892e-10 1.83176e-13
  41 1146.09 -4.41105e-10 7.25797e-15
  42 1146.09 -4.40195e-10 -2.85208e-13
  43 1146.09 -4.40309e-10 -3.49328e-14
  44 1146.09 -4.38831e-10 -4.51048e-14
  45 1146.09 -4.38263e-10 -1.32755e-15
  46 1146.09 -4.39468e-10 1.08104e-13
  47 1146.09 -4.39286e-10 -1.17007e-13
  48 1146.09 -4.41469e-10 -3.10570e-13
  49 1146.09 -4.40536e-10 5.84085e-14
  50 1146.09 -4.38376e-10 -5.25606e-14
  51 1146.09 -4.39438e-10 1.47343e-16
  52 1146.09 -4.38831e-10 -7.74721e-14
  53 1146.09 -4.39589e-10 -4.32116e-13
  54 1146.09 -4.41651e-10 1.53127e-13
  55 1146.09 -4.38680e-10 -1.94395e-13
  56 1146.09 -4.38983e-10 2.28093e-14
  57 1146.09 -4.41560e-10 -1.59846e-13
  58 1146.09 -4.37922e-10 -1.26405e-14
  59 1146.09 -4.38073e-10 -3.92945e-14
  60 1146.09 -4.40499e-10 -1.69317e-13
  61 1146.09 -4.41105e-10 4.85175e-13
  62 1146.09 -4.37831e-10 -1.24476e-14
  63 1146.09 -4.39286e-10 -1.48943e-13
  64 1146.09 -4.39650e-10 9.60171e-15
  65 1146.09 -4.41287e-10 2.15975e-13
  66 1146.09 -4.43106e-10 -3.24958e-13
</Section>

newXOutput 70

<Section columns = "stress_xx | stress_yy | stress_xy">
  1 1160.65 -4.38831e-10 -4.22337e-14
  2 1160.65 -4.38831e-10 -3.44215e-14
  3 1160.65 -4.39286e-10 -2.38845e-13
  4 1160.65 -4.39286e-10 5.38448e-14
  5 1160.65 -4.39589e-10 -2.52913e-13
  6 1160.65 -4.39286e-10 -6.93321e-14
  7 1160.65 -4.39589e-10 -2.07018e-13
  8 1160.65 -4.39286e-10 -3.11829e-13
  9 1160.65 -4.38376e-10 -2.50230e-14
  10 1160.65 -4.38831e-10 -1.03264e-13
  11 1160.65 -4.39741e-10 -1.25174e-13
  12 1160.65 -4.38680e-10 -3.87995e-13
  13 1160.65 -4.39286e-10 -2.52424e-13
  14 1160.65 -4.38680e-10 1.58519e-13
  15 1160.65 -4.39286e-10 -2.75372e-13
  16 1160.65 -4.38983e-10 9.35888e-15
  17 1160.65 -4.39286e-10 -2.84770e-13
  18 1160.65 -4.38983e-10 -3.82643e-13
  19 1160.65 -4.38604e-10 -1.84681e-13
  20 1160.65 -4.38983e-10 -4.40890e-13
  21 1160.65 -4.38376e-10 -1.58808e-14
  22 1160.65 -4.38376e-10 3.65114e-13
  23 1160.65 -4.39286e-10 3.45616e-14
  24 1160.65 -4.38983e-10 -1.65369e-13
  25 1160.65 -4.39286e-10 1.17282e-13
  26 1160.65 -4.38680e-10 -5.50096e-14
  27 1160.65 -4.38831e-10 -6.88430e-14
  28 1160.65 -4.38983e-10 -1.48710e-14
  29 1160.65 -4.38831e-10 8.70602e-15
  30 1160.65 -4.38195e-10 -5.21458e-16
  31 1160.65 -4.39059e-10 -5.11644e-14
  32 1160.65 -4.38831e-10 -2.63594e-13
  33 1160.65 -4.38740e-10 -1.24869e-13
  34 1160.65 -4.38376e-10 6.03719e-14
  35 1160.65 -4.38740e-10 5.79187e-14
  36 1160.65 -4.38558e-10 -2.18101e-13
  37 1160.65 -4.40195e-10 3.33640e-14
  38 1160.65 -4.39589e-10 -7.09464e-14
  39 1160.65 -4.38831e-10 3.84128e-14
  40 1160.65 -4.39438e-10 -2.73573e-14
  41 1160.65 -4.38831e-10 5.18722e-14
  42 1160.65 -4.38376e-10 -2.24757e-13
  43 1160.65 -4.38718e-10 1.70398e-14
  44 1160.65 -4.39059e-10 4.70669e-14
  45 1160.65 -4.38831e-10 -3.32964e-14
  46 1160.65 -4.38740e-10 -4.97223e-14
  47 1160.65 -4.38506e-10 -9.49834e-14
  48 1160.65 -4.38376e-10 2.45823e-13
  49 1160.65 -4.38490e-10 -5.88793e-14
  50 1160.65 -4.38718e-10 -5.44627e-14
  51 1160.65 -4.38983e-10 -4.40385e-13
  52 1160.65 -4.39286e-10 -6.09199e-14
  53 1160.65 -4.38983e-10 -1.99130e-13
  54 1160.65 -4.39104e-10 -2.62557e-13
  55 1160.65 -4.39286e-10 -7.75805e-14
  56 1160.65 -4.38680e-10 -5.19880e-14
  57 1160.65 -4.38831e-10 4.95173e-14
  58 1160.65 -4.38831e-10 2.46563e-14
  59 1160.65 -4.38376e-10 -5.03375e-15
  60 1160.65 -4.38376e-10 -1.85903e-13
  61 1160.65 -4.38922e-10 -2.65045e-13
  62 1160.65 -4.38922e-10 1.15306e-13
  63 1160.65 -4.39286e-10 -5.94078e-14
  64 1160.65 -4.39286e-10 -1.87987e-13
  65 1160.65 -4.39832e-10 2.00184e-14
  66 1160.65 -4.38922e-10 -7.45552e-14
</Section>

newXOutput 71

<Section columns = "stress_xx | stress_yy | stress_xy">
  1 1175.15 -4.36103e-10 -7.65671e-14
  2 1175.15 -4.36557e-10 6.86607e-14
  3 1175.15 -4.36103e-10 -7.56935e-14
  4 1175.15 -4.35648e-10 9.21881e-15
  5 1175.15 -4.36254e-10 -1.07360e-13
  6 1175.15 -4.36557e-10 1.23451e-14
  7 1175.15 -4.36557e-10 1.04725e-13
  8 1175.15 -4.36557e-10 1.58405e-13
  9 1175.15 -4.36557e-10 8.44735e-14
  10 1175.15 -4.36557e-10 -6.46867e-13
  11 1175.15 -4.36557e-10 -3.81483e-13
  12 1175.15 -4.36557e-10 -3.85471e-13
  13 1175.15 -4.36557e-10 -1.02089e-13
  14 1175.15 -4.36254e-10 -9.15476e-14
  15 1175.15 -4.37467e-10 -3.08973e-13
  16 1175.15 -4.37164e-10 -9.15476e-14
  17 1175.15 -4.36557e-10 5.07184e-14
  18 1175.15 -4.36557e-10 -1.34255e-13
  19 1175.15 -4.36557e-10 -3.44624e-13
  20 1175.15 -4.36557e-10 1.28165e-14
  21 1175.15 -4.36557e-10 7.98045e-14
  22 1175.15 -4.36557e-10 2.49385e-13
  23 1175.15 -4.36557e-10 8.62735e-14
  24 1175.15 -4.36557e-10 2.17977e-13
  25 1175.15 -4.35951e-10 6.44420e-14
  26 1175.15 -4.36254e-10 2.15692e-14
  27 1175.15 -4.36557e-10 0.00000
  28 1175.15 -4.36557e-10 2.63893e-14
  29 1175.15 -4.36557e-10 3.61668e-14
  30 1175.15 -4.37103e-10 1.54907e-13
  31 1175.15 -4.36557e-10 4.75720e-15
  32 1175.15 -4.36557e-10 -1.99133e-13
  33 1175.15 -4.36376e-10 -1.51012e-13
  34 1175.15 -4.36376e-10 -6.62706e-14
  35 1175.15 -4.36557e-10 3.84812e-14
  36 1175.15 -4.36557e-10 4.20079e-14
  37 1175.15 -4.36406e-10 7.41570e-14
  38 1175.15 -4.36557e-10 -1.76664e-15
  39 1175.15 -4.36557e-10 -4.46042e-14
  40 1175.15 -4.36406e-10 1.49025e-13
  41 1175.15 -4.36557e-10 -2.87522e-14
  42 1175.15 -4.37012e-10 -1.67647e-13
  43 1175.15 -4.36444e-10 -1.23661e-13
  44 1175.15 -4.36557e-10 -2.98943e-15
  45 1175.15 -4.36557e-10 7.97158e-15
  46 1175.15 -4.36557e-10 3.28323e-14
  47 1175.15 -4.36557e-10 2.85812e-15
  48 1175.15 -4.36557e-10 1.55121e-13
  49 1175.15 -4.36785e-10 -3.61379e-14
  50 1175.15 -4.36444e-10 4.60339e-14
  51 1175.15 -4.36406e-10 -2.54406e-14
  52 1175.15 -4.36557e-10 -9.67669e-14
  53 1175.15 -4.37012e-10 2.60191e-13
  54 1175.15 -4.36557e-10 -1.98063e-13
  55 1175.15 -4.36406e-10 -2.50889e-14
  56 1175.15 -4.36406e-10 -1.26419e-13
  57 1175.15 -4.36557e-10 -1.06043e-13
  58 1175.15 -4.36103e-10 -1.38322e-14
  59 1175.15 -4.36406e-10 5.52161e-14
  60 1175.15 -4.36557e-10 2.01365e-13
  61 1175.15 -4.36376e-10 -1.95912e-13
  62 1175.15 -4.36376e-10 4.79166e-14
  63 1175.15 -4.36557e-10 -8.86347e-14
  64 1175.15 -4.36557e-10 -1.43110e-13
  65 1175.15 -4.36557e-10 -2.07792e-13
  66 1175.15 -4.36557e-10 2.51543e-14
</Section>

newXOutput 72

<Section columns = "stress_xx | stress_yy | stress_xy">
  1 1189.59 -4.36557e-10 0.00000
  2 1189.59 -4.36557e-10 -6.84792e-14
  3 1189.59 -4.38376e-10 -3.58441e-13
  4 1189.59 -4.36557e-10 1.54763e-13
  5 1189.59 -4.37467e-10 2.01597e-14
  6 1189.59 -4.37467e-10 -8.56529e-14
  7 1189.59 -4.36861e-10 -1.29385e-13
  8 1189.59 -4.36557e-10 1.12639e-13
  9 1189.59 -4.36330e-10 2.11198e-14
  10 1189.59 -4.37012e-10 5.09115e-13
  11 1189.59 -4.36557e-10 3.05357e-13
  12 1189.59 -4.36254e-10 -1.70451e-13
  13 1189.59 -4.36557e-10 -2.38931e-13
  14 1189.59 -4.37164e-10 4.56528e-14
  15 1189.59 -4.39286e-10 3.42396e-14
  16 1189.59 -4.38680e-10 6.12796e-14
  17 1189.59 -4.37164e-10 3.14966e-13
  18 1189.59 -4.36861e-10 2.37320e-13
  19 1189.59 -4.36103e-10 -2.62454e-13
  20 1189.59 -4.36254e-10 -3.36314e-13
  21 1189.59 -4.36785e-10 -2.25598e-13
  22 1189.59 -4.35951e-10 2.76420e-14
  23 1189.59 -4.36254e-10 6.05754e-14
  24 1189.59 -4.36557e-10 4.53715e-14
  25 1189.59 -4.36557e-10 2.61642e-13
  26 1189.59 -4.36557e-10 -2.68264e-14
  27 1189.59 -4.36557e-10 0.00000
  28 1189.59 -4.36557e-10 1.51996e-15
  29 1189.59 -4.36557e-10 -4.16485e-15
  30 1189.59 -4.36557e-10 5.79236e-14
  31 1189.59 -4.36557e-10 4.52790e-14
  32 1189.59 -4.36709e-10 1.45825e-13
  33 1189.59 -4.36376e-10 -5.91977e-15
  34 1189.59 -4.36557e-10 -4.70755e-14
  35 1189.59 -4.36557e-10 -9.52631e-14
  36 1189.59 -4.36557e-10 3.99548e-13
  37 1189.59 -4.36557e-10 -2.20538e-13
  38 1189.59 -4.36709e-10 -7.87508e-14
  39 1189.59 -4.36254e-10 8.10092e-14
  40 1189.59 -4.36557e-10 -2.92634e-13
  41 1189.59 -4.36861e-10 -8.10577e-15
  42 1189.59 -4.36254e-10 5.48130e-14
  43 1189.59 -4.36216e-10 4.75647e-14
  44 1189.59 -4.36557e-10 -1.01912e-13
  45 1189.59 -4.36557e-10 2.51454e-15
  46 1189.59 -4.36376e-10 -9.36268e-14
  47 1189.59 -4.36298e-10 -4.19606e-14
  48 1189.59 -4.36376e-10 6.61415e-14
  49 1189.59 -4.37240e-10 2.88517e-13
  50 1189.59 -4.36557e-10 -5.03695e-14
  51 1189.59 -4.36709e-10 -4.23454e-14
  52 1189.59 -4.36557e-10 -6.55085e-14
  53 1189.59 -4.36709e-10 -3.22862e-14
  54 1189.59 -4.36194e-10 -1.07662e-13
  55 1189.59 -4.36557e-10 -6.40126e-14
  56 1189.59 -4.37467e-10 7.51578e-14
  57 1189.59 -4.36406e-10 -4.96528e-14
  58 1189.59 -4.36557e-10 8.31775e-14
  59 1189.59 -4.36557e-10 -1.73782e-14
  60 1189.59 -4.36557e-10 3.15107e-13
  61 1189.59 -4.36376e-10 1.09761e-14
  62 1189.59 -4.36557e-10 1.09988e-13
  63 1189.59 -4.37103e-10 -9.47032e-14
  64 1189.59 -4.37285e-10 -3.60879e-14
  65 1189.59 -4.36739e-10 -3.42396e-14
  66 1189.59 -4.36557e-10 -1.80765e-13
</Section>

newXOutput 73

<Section columns = "stress_xx | stress_yy | stress_xy">
  1 1203.98 -4.33829e-10 4.22423e-14
  2 1203.98 -4.33829e-10 4.09790e-13
  3 1203.98 -4.35193e-10 7.72509e-14
  4 1203.98 -4.33829e-10 6.92745e-14
  5 1203.98 -4.33829e-10 1.52783e-13
  6 1203.98 -4.33829e-10 1.19752e-14
  7 1203.98 -4.33829e-10 -1.09949e-13
  8 1203.98 -4.33829e-10 -2.09106e-13
  9 1203.98 -4.34966e-10 2.20193e-13
  10 1203.98 -4.33829e-10 5.08684e-13
  11 1203.98 -4.33829e-10 -2.03563e-13
  12 1203.98 -4.34738e-10 -3.05566e-13
  13 1203.98 -4.33829e-10 4.64929e-13
  14 1203.98 -4.35345e-10 2.27661e-13
  15 1203.98 -4.35193e-10 3.41492e-14
  16 1203.98 -4.35042e-10 1.56517e-13
  17 1203.98 -4.33829e-10 -4.74654e-13
  18 1203.98 -4.33829e-10 -2.71027e-13
  19 1203.98 -4.33829e-10 -3.17763e-13
  20 1203.98 -4.33829e-10 9.91031e-14
  21 1203.98 -4.35193e-10 3.40506e-13
  22 1203.98 -4.36557e-10 6.82029e-14
  23 1203.98 -4.35648e-10 1.03941e-13
  24 1203.98 -4.33829e-10 1.50763e-13
  25 1203.98 -4.33829e-10 1.33425e-13
  26 1203.98 -4.33829e-10 -4.95788e-14
  27 1203.98 -4.33829e-10 -3.41492e-14
  28 1203.98 -4.33829e-10 1.84234e-14
  29 1203.98 -4.34511e-10 -5.16985e-14
  30 1203.98 -4.34193e-10 -1.82522e-13
  31 1203.98 -4.35421e-10 -4.71739e-14
  32 1203.98 -4.34284e-10 9.67559e-14
  33 1203.98 -4.34193e-10 -1.24931e-13
  34 1203.98 -4.33829e-10 -2.96214e-14
  35 1203.98 -4.34375e-10 -3.75246e-14
  36 1203.98 -4.34920e-10 -3.46190e-13
  37 1203.98 -4.34738e-10 -9.87135e-14
  38 1203.98 -4.34284e-10 -2.14664e-13
  39 1203.98 -4.36557e-10 1.67998e-13
  40 1203.98 -4.35951e-10 8.93805e-14
  41 1203.98 -4.34587e-10 -2.44188e-14
  42 1203.98 -4.33829e-10 -1.37436e-13
  43 1203.98 -4.34397e-10 5.59149e-14
  44 1203.98 -4.34511e-10 -1.07243e-13
  45 1203.98 -4.34511e-10 1.23148e-13
  46 1203.98 -4.35284e-10 8.75692e-15
  47 1203.98 -4.34219e-10 -3.34455e-13
  48 1203.98 -4.36012e-10 1.77902e-13
  49 1203.98 -4.34852e-10 4.22854e-14
  50 1203.98 -4.33829e-10 -7.91427e-14
  51 1203.98 -4.35042e-10 -2.44233e-13
  52 1203.98 -4.35193e-10 -1.86784e-14
  53 1203.98 -4.34587e-10 1.34166e-13
  54 1203.98 -4.33829e-10 -5.05957e-14
  55 1203.98 -4.33829e-10 4.50881e-14
  56 1203.98 -4.34284e-10 -1.19622e-13
  57 1203.98 -4.34587e-10 2.50723e-13
  58 1203.98 -4.33829e-10 1.12499e-14
  59 1203.98 -4.33829e-10 -1.44522e-13
  60 1203.98 -4.34738e-10 -2.71743e-13
  61 1203.98 -4.34738e-10 -9.14921e-14
  62 1203.98 -4.33829e-10 1.28862e-13
  63 1203.98 -4.34375e-10 1.10314e-13
  64 1203.98 -4.33829e-10 -2.81366e-13
  65 1203.98 -4.34920e-10 1.69680e-13
  66 1203.98 -4.33829e-10 1.84732e-13
</Section>

newXOutput 74

<Section columns = "stress_xx | stress_yy | stress_xy">
  1 1218.30 -4.32010e-10 2.99661e-14
  2 1218.30 -4.32010e-10 2.03039e-13
  3 1218.30 -4.35648e-10 -5.87423e-15
  4 1218.30 -4.32010e-10 8.77493e-14
  5 1218.30 -4.32010e-10 1.56214e-13
  6 1218.30 -4.32010e-10 1.02616e-13
  7 1218.30 -4.31404e-10 -1.91004e-14
  8 1218.30 -4.31404e-10 2.67892e-13
  9 1218.30 -4.33829e-10 -2.11882e-13
  10 1218.30 -4.32010e-10 -8.48845e-13
  11 1218.30 -4.32237e-10 -1.61123e-13
  12 1218.30 -4.32010e-10 -4.74196e-13
  13 1218.30 -4.34132e-10 2.95179e-13
  14 1218.30 -4.33829e-10 -1.80771e-13
  15 1218.30 -4.35648e-10 -1.36236e-13
  16 1218.30 -4.35951e-10 1.09815e-13
  17 1218.30 -4.33526e-10 4.37798e-14
  18 1218.30 -4.30797e-10 -4.26307e-13
  19 1218.30 -4.32237e-10 1.42919e-13
  20 1218.30 -4.32919e-10 2.06231e-13
  21 1218.30 -4.34284e-10 -1.29368e-13
  22 1218.30 -4.35345e-10 -1.64800e-13
  23 1218.30 -4.35648e-10 -2.58536e-13
  24 1218.30 -4.34435e-10 -1.49554e-13
  25 1218.30 -4.32010e-10 6.39263e-15
  26 1218.30 -4.32010e-10 -3.95163e-14
  27 1218.30 -4.32010e-10 0.00000
  28 1218.30 -4.32010e-10 8.64023e-14
  29 1218.30 -4.33602e-10 4.09030e-14
  30 1218.30 -4.35830e-10 -1.69688e-13
  31 1218.30 -4.35534e-10 -4.46339e-14
  32 1218.30 -4.34284e-10 -5.99933e-15
  33 1218.30 -4.33465e-10 -3.76345e-13
  34 1218.30 -4.32010e-10 -1.09987e-13
  35 1218.30 -4.33283e-10 9.06512e-14
  36 1218.30 -4.35830e-10 6.08459e-14
  37 1218.30 -4.33677e-10 5.67651e-14
  38 1218.30 -4.32919e-10 3.86928e-15
  39 1218.30 -4.35496e-10 -1.55744e-13
  40 1218.30 -4.35648e-10 1.24460e-13
  41 1218.30 -4.35042e-10 6.41500e-15
  42 1218.30 -4.33526e-10 -1.11892e-13
  43 1218.30 -4.32692e-10 1.15434e-14
  44 1218.30 -4.33261e-10 9.51613e-14
  45 1218.30 -4.33829e-10 -1.24555e-13
  46 1218.30 -4.34193e-10 1.57874e-13
  47 1218.30 -4.33569e-10 -1.06009e-13
  48 1218.30 -4.35284e-10 -6.40886e-14
  49 1218.30 -4.35193e-10 -2.08854e-13
  50 1218.30 -4.32010e-10 -4.37295e-14
  51 1218.30 -4.34890e-10 -1.44938e-13
  52 1218.30 -4.34435e-10 -2.64677e-14
  53 1218.30 -4.34738e-10 -9.15855e-14
  54 1218.30 -4.32192e-10 5.54056e-14
  55 1218.30 -4.32465e-10 6.81729e-14
  56 1218.30 -4.35951e-10 7.13980e-14
  57 1218.30 -4.33981e-10 1.65057e-13
  58 1218.30 -4.32010e-10 -3.56890e-14
  59 1218.30 -4.32465e-10 -5.18049e-14
  60 1218.30 -4.33829e-10 -2.18910e-13
  61 1218.30 -4.34011e-10 2.52037e-13
  62 1218.30 -4.32738e-10 -2.77449e-14
  63 1218.30 -4.33283e-10 1.63469e-13
  64 1218.30 -4.33465e-10 -2.94088e-13
  65 1218.30 -4.34011e-10 -2.07760e-13
  66 1218.30 -4.33101e-10 -1.42490e-14
</Section>

newXOutput 75

<Section columns = "stress_xx | stress_yy | stress_xy">
  1 1232.57 -4.32010e-10 -1.73129e-13
  2 1232.57 -4.32919e-10 -1.68133e-13
  3 1232.57 -4.31100e-10 3.75059e-13
  4 1232.57 -4.32919e-10 -1.13215e-14
  5 1232.57 -4.32616e-10 -3.15904e-13
  6 1232.57 -4.32919e-10 -1.38637e-13
  7 1232.57 -4.32919e-10 -7.34573e-14
  8 1232.57 -4.31707e-10 1.65562e-14
  9 1232.57 -4.32010e-10 3.34269e-13
  10 1232.57 -4.32465e-10 4.73856e-13
  11 1232.57 -4.32919e-10 2.11665e-13
  12 1232.57 -4.32313e-10 1.00518e-12
  13 1232.57 -4.32616e-10 5.71280e-16
  14 1232.57 -4.32616e-10 9.05848e-14
  15 1232.57 -4.32465e-10 -1.01908e-13
  16 1232.57 -4.31707e-10 4.81232e-14
  17 1232.57 -4.32919e-10 1.39511e-13
  18 1232.57 -4.31707e-10 -6.49654e-14
  19 1232.57 -4.31555e-10 1.09806e-13
  20 1232.57 -4.32919e-10 -1.34969e-13
  21 1232.57 -4.32919e-10 -1.64634e-13
  22 1232.57 -4.32919e-10 2.82659e-14
  23 1232.57 -4.32313e-10 2.01286e-13
  24 1232.57 -4.32616e-10 1.59171e-13
  25 1232.57 -4.32919e-10 5.18868e-14
  26 1232.57 -4.32313e-10 1.85071e-14
  27 1232.57 -4.32010e-10 3.39693e-14
  28 1232.57 -4.32010e-10 1.32475e-13
  29 1232.57 -4.32919e-10 -1.60152e-13
  30 1232.57 -4.32919e-10 7.13355e-14
  31 1232.57 -4.32692e-10 1.27066e-13
  32 1232.57 -4.32616e-10 1.64743e-13
  33 1232.57 -4.32374e-10 -2.41895e-13
  34 1232.57 -4.32919e-10 -1.29097e-14
  35 1232.57 -4.32738e-10 -6.40776e-14
  36 1232.57 -4.32374e-10 1.20178e-14
  37 1232.57 -4.32768e-10 -2.14074e-13
  38 1232.57 -4.32313e-10 2.40421e-14
  39 1232.57 -4.32616e-10 2.43672e-13
  40 1232.57 -4.32616e-10 1.61018e-13
  41 1232.57 -4.32919e-10 1.15243e-13
  42 1232.57 -4.32010e-10 -1.43324e-14
  43 1232.57 -4.32465e-10 2.14003e-13
  44 1232.57 -4.32919e-10 -9.12311e-14
  45 1232.57 -4.32578e-10 1.25822e-14
  46 1232.57 -4.32010e-10 3.01666e-13
  47 1232.57 -4.31880e-10 -1.68696e-13
  48 1232.57 -4.32919e-10 -6.17826e-14
  49 1232.57 -4.32806e-10 -9.44675e-15
  50 1232.57 -4.32578e-10 1.89534e-13
  51 1232.57 -4.32919e-10 -1.83487e-13
  52 1232.57 -4.32616e-10 1.81636e-13
  53 1232.57 -4.32465e-10 3.07815e-14
  54 1232.57 -4.32556e-10 9.93879e-15
  55 1232.57 -4.32313e-10 -3.86911e-14
  56 1232.57 -4.32313e-10 1.51626e-13
  57 1232.57 -4.32768e-10 -2.89019e-14
  58 1232.57 -4.32768e-10 -7.54617e-14
  59 1232.57 -4.32919e-10 4.51083e-14
  60 1232.57 -4.32616e-10 3.19890e-14
  61 1232.57 -4.32374e-10 1.27171e-13
  62 1232.57 -4.32919e-10 -1.60083e-13
  63 1232.57 -4.32556e-10 -3.15893e-13
  64 1232.57 -4.32192e-10 -6.43185e-14
  65 1232.57 -4.32374e-10 1.72558e-13
  66 1232.57 -4.32919e-10 -1.17567e-13
</Section>

newXOutput 76

<Section columns = "stress_xx | stress_yy | stress_xy">
  1 1246.78 -4.30191e-10 1.43889e-13
  2 1246.78 -4.31100e-10 -3.72278e-13
  3 1246.78 -4.31555e-10 5.56496e-14
  4 1246.78 -4.30646e-10 9.57239e-14
  5 1246.78 -4.30494e-10 2.59345e-13
  6 1246.78 -4.31404e-10 3.63908e-13
  7 1246.78 -4.31707e-10 1.80693e-13
  8 1246.78 -4.31707e-10 7.86526e-14
  9 1246.78 -4.31783e-10 -7.23451e-14
  10 1246.78 -4.31555e-10 -1.69399e-13
  11 1246.78 -4.31328e-10 2.62168e-13
  12 1246.78 -4.31100e-10 3.15411e-13
  13 1246.78 -4.30797e-10 -1.14268e-14
  14 1246.78 -4.31100e-10 5.99534e-29
  15 1246.78 -4.31555e-10 6.77597e-14
  16 1246.78 -4.31100e-10 3.10565e-14
  17 1246.78 -4.32010e-10 -3.71908e-13
  18 1246.78 -4.31707e-10 -1.02090e-12
  19 1246.78 -4.30873e-10 -9.58694e-14
  20 1246.78 -4.31404e-10 5.18892e-13
  21 1246.78 -4.31783e-10 2.78298e-13
  22 1246.78 -4.31404e-10 -5.61610e-14
  23 1246.78 -4.31404e-10 -3.04893e-14
  24 1246.78 -4.31404e-10 -4.85949e-15
  25 1246.78 -4.30494e-10 1.07194e-13
  26 1246.78 -4.30494e-10 -7.48681e-14
  27 1246.78 -4.30646e-10 -6.77597e-14
  28 1246.78 -4.30797e-10 -4.51398e-14
  29 1246.78 -4.30646e-10 8.10249e-14
  30 1246.78 -4.32010e-10 2.74410e-13
  31 1246.78 -4.31669e-10 -5.38016e-14
  32 1246.78 -4.30949e-10 -3.10365e-13
  33 1246.78 -4.31100e-10 -1.91361e-13
  34 1246.78 -4.30191e-10 1.16686e-13
  35 1246.78 -4.31100e-10 -2.25789e-13
  36 1246.78 -4.31828e-10 1.42095e-13
  37 1246.78 -4.31252e-10 2.59278e-13
  38 1246.78 -4.31707e-10 3.71575e-14
  39 1246.78 -4.31404e-10 3.99248e-14
  40 1246.78 -4.31404e-10 -4.66153e-14
  41 1246.78 -4.31404e-10 1.83548e-13
  42 1246.78 -4.30949e-10 -9.89164e-14
  43 1246.78 -4.31442e-10 7.70131e-14
  44 1246.78 -4.31442e-10 6.02738e-14
  45 1246.78 -4.30987e-10 7.30432e-14
  46 1246.78 -4.31828e-10 -1.73053e-15
  47 1246.78 -4.31750e-10 -1.20652e-13
  48 1246.78 -4.31646e-10 2.05048e-13
  49 1246.78 -4.31214e-10 2.64186e-14
  50 1246.78 -4.30646e-10 -1.01814e-13
  51 1246.78 -4.31100e-10 1.64083e-14
  52 1246.78 -4.31404e-10 1.80664e-14
  53 1246.78 -4.31555e-10 4.07379e-14
  54 1246.78 -4.31100e-10 -2.54388e-13
  55 1246.78 -4.30494e-10 -3.81816e-14
  56 1246.78 -4.31555e-10 8.20746e-14
  57 1246.78 -4.30949e-10 -8.88846e-14
  58 1246.78 -4.30343e-10 1.18887e-13
  59 1246.78 -4.30949e-10 -1.03901e-13
  60 1246.78 -4.31707e-10 5.79307e-14
  61 1246.78 -4.30737e-10 1.19853e-13
  62 1246.78 -4.30555e-10 1.58655e-13
  63 1246.78 -4.30919e-10 1.04518e-13
  64 1246.78 -4.32374e-10 -4.38280e-13
  65 1246.78 -4.31100e-10 -7.46959e-14
  66 1246.78 -4.31464e-10 -2.90847e-14
</Section>

newXOutput 77

<Section columns = "stress_xx | stress_yy | stress_xy">
  1 1260.94 -4.28372e-10 -1.26917e-14
  2 1260.94 -4.30646e-10 -4.05597e-13
  3 1260.94 -4.30646e-10 -2.26740e-13
  4 1260.94 -4.29281e-10 -9.34239e-15
  5 1260.94 -4.29281e-10 -2.08421e-13
  6 1260.94 -4.30797e-10 3.09883e-14
  7 1260.94 -4.30797e-10 2.25272e-14
  8 1260.94 -4.30797e-10 2.36589e-13
  9 1260.94 -4.31100e-10 3.21066e-13
  10 1260.94 -4.31100e-10 3.04171e-13
  11 1260.94 -4.30191e-10 2.95723e-13
  12 1260.94 -4.30797e-10 -4.95688e-13
  13 1260.94 -4.30191e-10 -8.67458e-13
  14 1260.94 -4.30494e-10 -6.75815e-14
  15 1260.94 -4.29736e-10 -5.06861e-13
  16 1260.94 -4.29888e-10 -5.59593e-15
  17 1260.94 -4.29888e-10 -3.60024e-13
  18 1260.94 -4.29281e-10 -2.60246e-13
  19 1260.94 -4.29964e-10 -4.00878e-13
  20 1260.94 -4.30191e-10 -4.78962e-13
  21 1260.94 -4.30418e-10 -7.30516e-14
  22 1260.94 -4.31100e-10 3.05244e-13
  23 1260.94 -4.31100e-10 1.13647e-13
  24 1260.94 -4.30797e-10 2.13687e-13
  25 1260.94 -4.28978e-10 1.19906e-14
  26 1260.94 -4.28978e-10 -1.68954e-14
  27 1260.94 -4.29736e-10 3.37908e-14
  28 1260.94 -4.30191e-10 3.37952e-14
  29 1260.94 -4.28372e-10 1.32326e-13
  30 1260.94 -4.30737e-10 2.17761e-13
  31 1260.94 -4.30191e-10 -9.49763e-14
  32 1260.94 -4.30949e-10 5.06861e-14
  33 1260.94 -4.29827e-10 -2.70380e-14
  34 1260.94 -4.29281e-10 1.26581e-15
  35 1260.94 -4.30191e-10 1.67730e-13
  36 1260.94 -4.30919e-10 3.38015e-14
  37 1260.94 -4.30343e-10 2.19676e-13
  38 1260.94 -4.30797e-10 2.47349e-14
  39 1260.94 -4.30039e-10 1.73778e-14
  40 1260.94 -4.30797e-10 1.97227e-13
  41 1260.94 -4.30797e-10 5.54604e-15
  42 1260.94 -4.30494e-10 -2.36580e-13
  43 1260.94 -4.30077e-10 1.39400e-13
  44 1260.94 -4.30305e-10 8.04262e-14
  45 1260.94 -4.29736e-10 4.22910e-14
  46 1260.94 -4.30919e-10 1.42069e-13
  47 1260.94 -4.30061e-10 1.76453e-14
  48 1260.94 -4.30737e-10 1.31708e-13
  49 1260.94 -4.30418e-10 -5.06660e-14
  50 1260.94 -4.29509e-10 3.40569e-14
  51 1260.94 -4.30797e-10 -6.34636e-14
  52 1260.94 -4.29130e-10 -4.66913e-14
  53 1260.94 -4.30797e-10 -8.16790e-14
  54 1260.94 -4.30737e-10 -3.81146e-13
  55 1260.94 -4.29130e-10 2.53408e-14
  56 1260.94 -4.30191e-10 -2.41736e-13
  57 1260.94 -4.30191e-10 -1.40835e-13
  58 1260.94 -4.28978e-10 -7.34022e-15
  59 1260.94 -4.29130e-10 4.85835e-14
  60 1260.94 -4.30646e-10 8.85337e-14
  61 1260.94 -4.29827e-10 -1.04768e-13
  62 1260.94 -4.30191e-10 4.59987e-14
  63 1260.94 -4.30009e-10 8.45038e-14
  64 1260.94 -4.30009e-10 -5.74816e-13
  65 1260.94 -4.30373e-10 3.51478e-13
  66 1260.94 -4.30555e-10 -1.14107e-13
</Section>

newXOutput 78

<Section columns = "stress_xx | stress_yy | stress_xy">
  1 1252.74 -4.20435e-10 8.40243e-15
  2 1252.74 -4.21328e-10 4.64571e-13
  3 1252.74 -4.22669e-10 -4.83341e-13
  4 1252.74 -4.20435e-10 1.83891e-13
  5 1252.74 -4.20881e-10 -7.15469e-13
  6 1252.74 -4.21775e-10 -3.67869e-13
  7 1252.74 -4.20881e-10 9.91723e-14
  8 1252.74 -4.20881e-10 -2.27015e-13
  9 1252.74 -4.20881e-10 -2.61197e-13
  10 1252.74 -4.21328e-10 -7.96195e-13
  11 1252.74 -4.21328e-10 -2.50830e-14
  12 1252.74 -4.22073e-10 -4.39845e-14
  13 1252.74 -4.23264e-10 1.05039e-12
  14 1252.74 -4.21477e-10 -1.54857e-13
  15 1252.74 -4.20881e-10 0.00000
  16 1252.74 -4.22371e-10 -3.00219e-14
  17 1252.74 -4.20881e-10 -6.57638e-13
  18 1252.74 -4.20881e-10 2.25121e-13
  19 1252.74 -4.21105e-10 4.49558e-13
  20 1252.74 -4.20881e-10 1.05754e-13
  21 1252.74 -4.21552e-10 -9.93044e-14
  22 1252.74 -4.21179e-10 -9.16520e-14
  23 1252.74 -4.21179e-10 -7.67960e-14
  24 1252.74 -4.22371e-10 3.16020e-13
  25 1252.74 -4.21179e-10 7.21061e-13
  26 1252.74 -4.20286e-10 -1.50325e-13
  27 1252.74 -4.20435e-10 -1.65563e-13
  28 1252.74 -4.21179e-10 9.53853e-14
  29 1252.74 -4.20211e-10 -6.35904e-14
  30 1252.74 -4.21239e-10 -2.90730e-14
  31 1252.74 -4.21216e-10 2.39940e-13
  32 1252.74 -4.21030e-10 1.04940e-13
  33 1252.74 -4.20703e-10 -1.47327e-13
  34 1252.74 -4.20703e-10 -7.25891e-13
  35 1252.74 -4.20881e-10 6.90607e-13
  36 1252.74 -4.21060e-10 -3.14968e-13
  37 1252.74 -4.21626e-10 -3.33211e-13
  38 1252.74 -4.21030e-10 2.95843e-13
  39 1252.74 -4.21030e-10 -2.10055e-13
  40 1252.74 -4.21030e-10 -2.12851e-13
  41 1252.74 -4.21626e-10 5.40220e-14
  42 1252.74 -4.21030e-10 -9.94623e-14
  43 1252.74 -4.21440e-10 3.01678e-13
  44 1252.74 -4.21328e-10 3.43135e-13
  45 1252.74 -4.21552e-10 -3.84221e-13
  46 1252.74 -4.20881e-10 5.96954e-14
  47 1252.74 -4.21137e-10 -1.59573e-13
  48 1252.74 -4.21239e-10 -4.72632e-14
  49 1252.74 -4.21328e-10 -1.00249e-13
  50 1252.74 -4.20099e-10 -9.14208e-15
  51 1252.74 -4.21179e-10 -2.58286e-13
  52 1252.74 -4.20881e-10 1.48105e-13
  53 1252.74 -4.21477e-10 -2.90978e-14
  54 1252.74 -4.20881e-10 1.42483e-13
  55 1252.74 -4.20732e-10 4.24129e-13
  56 1252.74 -4.21626e-10 -4.55154e-13
  57 1252.74 -4.21626e-10 2.19806e-13
  58 1252.74 -4.20435e-10 -3.04104e-13
  59 1252.74 -4.20881e-10 -1.49319e-13
  60 1252.74 -4.21477e-10 3.51795e-13
  61 1252.74 -4.21954e-10 4.39563e-13
  62 1252.74 -4.22311e-10 -8.69189e-13
  63 1252.74 -4.21596e-10 7.98174e-13
  64 1252.74 -4.20881e-10 -6.95321e-13
  65 1252.74 -4.21060e-10 -1.19603e-13
  66 1252.74 -4.21417e-10 -2.35207e-13
</Section>

newXOutput 79

<Section columns = "stress_xx | stress_yy | stress_xy">
  1 1232.27 -4.06886e-10 1.32660e-13
  2 1232.27 -4.09494e-10 -4.51678e-13
  3 1232.27 -4.08624e-10 6.36316e-13
  4 1232.27 -4.08190e-10 -2.18784e-13
  5 1232.27 -4.06306e-10 4.37300e-13
  6 1232.27 -4.06596e-10 -3.36919e-13
  7 1232.27 -4.07175e-10 -3.91386e-13
  8 1232.27 -4.07755e-10 -2.05027e-13
  9 1232.27 -4.06451e-10 -7.47740e-13
  10 1232.27 -4.06886e-10 -4.19455e-12
  11 1232.27 -4.08624e-10 -5.81578e-13
  12 1232.27 -4.06596e-10 -1.11879e-12
  13 1232.27 -4.08624e-10 -2.02093e-12
  14 1232.27 -4.07175e-10 3.64165e-13
  15 1232.27 -4.07320e-10 -6.42644e-14
  16 1232.27 -4.08045e-10 -9.70058e-14
  17 1232.27 -4.06306e-10 1.88487e-12
  18 1232.27 -4.06596e-10 6.85256e-13
  19 1232.27 -4.08190e-10 -4.40145e-13
  20 1232.27 -4.07465e-10 9.44601e-13
  21 1232.27 -4.07320e-10 -4.21573e-13
  22 1232.27 -4.07465e-10 2.45678e-13
  23 1232.27 -4.07465e-10 1.16501e-13
  24 1232.27 -4.07465e-10 -6.42182e-13
  25 1232.27 -4.08335e-10 -1.37220e-12
  26 1232.27 -4.07465e-10 2.20027e-13
  27 1232.27 -4.07755e-10 -1.92793e-13
  28 1232.27 -4.07175e-10 -2.20103e-13
  29 1232.27 -4.07755e-10 -1.41123e-13
  30 1232.27 -4.07755e-10 -6.28682e-13
  31 1232.27 -4.07755e-10 4.88083e-14
  32 1232.27 -4.08045e-10 -2.03033e-12
  33 1232.27 -4.06886e-10 1.46007e-12
  34 1232.27 -4.06712e-10 1.16472e-12
  35 1232.27 -4.06886e-10 -6.81990e-13
  36 1232.27 -4.06712e-10 -1.22293e-12
  37 1232.27 -4.08624e-10 1.46187e-12
  38 1232.27 -4.07610e-10 -6.10162e-13
  39 1232.27 -4.07465e-10 4.54794e-13
  40 1232.27 -4.06886e-10 1.11377e-12
  41 1232.27 -4.08045e-10 -8.95397e-13
  42 1232.27 -4.08335e-10 -1.49863e-12
  43 1232.27 -4.07646e-10 8.04003e-13
  44 1232.27 -4.07103e-10 -9.20140e-13
  45 1232.27 -4.07212e-10 7.25783e-13
  46 1232.27 -4.07059e-10 -2.32156e-13
  47 1232.27 -4.07258e-10 -9.14299e-13
  48 1232.27 -4.07233e-10 -1.05660e-13
  49 1232.27 -4.07538e-10 -4.13521e-13
  50 1232.27 -4.07429e-10 -7.60820e-14
  51 1232.27 -4.08190e-10 6.56947e-13
  52 1232.27 -4.07610e-10 -8.69471e-14
  53 1232.27 -4.08335e-10 2.63355e-13
  54 1232.27 -4.08103e-10 -1.76115e-12
  55 1232.27 -4.07031e-10 -4.15606e-13
  56 1232.27 -4.07465e-10 -3.93115e-13
  57 1232.27 -4.08480e-10 9.96543e-13
  58 1232.27 -4.07900e-10 4.73703e-13
  59 1232.27 -4.07031e-10 -2.44031e-13
  60 1232.27 -4.06451e-10 -9.61278e-13
  61 1232.27 -4.06538e-10 2.40658e-12
  62 1232.27 -4.07407e-10 9.46881e-13
  63 1232.27 -4.06364e-10 -1.00276e-12
  64 1232.27 -4.06538e-10 -1.15515e-12
  65 1232.27 -4.07581e-10 -3.73724e-13
  66 1232.27 -4.07581e-10 -1.63015e-12
</Section>

newXOutput 80

<Section columns = "stress_xx | stress_yy | stress_xy">
  1 1211.87 -3.98818e-10 7.18287e-13
  2 1211.87 -3.95435e-10 -3.13099e-13
  3 1211.87 -3.98818e-10 1.65511e-12
  4 1211.87 -3.95012e-10 3.64100e-13
  5 1211.87 -3.96704e-10 1.60103e-12
  6 1211.87 -3.95576e-10 1.12845e-12
  7 1211.87 -3.95012e-10 7.85048e-14
  8 1211.87 -3.95576e-10 -1.34183e-12
  9 1211.87 -3.97972e-10 -1.13109e-12
  10 1211.87 -3.97126e-10 1.88121e-12
  11 1211.87 -3.96281e-10 9.48724e-13
  12 1211.87 -3.95576e-10 4.30470e-13
  13 1211.87 -3.95294e-10 -1.04279e-12
  14 1211.87 -3.95012e-10 1.25588e-13
  15 1211.87 -3.95435e-10 -9.35382e-14
  16 1211.87 -3.96985e-10 9.52288e-15
  17 1211.87 -3.96704e-10 3.12277e-12
  18 1211.87 -3.95576e-10 2.06624e-12
  19 1211.87 -3.95858e-10 1.10140e-14
  20 1211.87 -3.96140e-10 -7.14764e-13
  21 1211.87 -3.96069e-10 -6.92974e-13
  22 1211.87 -3.95858e-10 -2.99698e-15
  23 1211.87 -3.95858e-10 4.77037e-13
  24 1211.87 -3.95858e-10 7.40864e-13
  25 1211.87 -3.95576e-10 1.02320e-12
  26 1211.87 -3.95294e-10 -1.58386e-13
  27 1211.87 -3.95435e-10 -1.87076e-13
  28 1211.87 -3.98113e-10 -1.92926e-13
  29 1211.87 -3.95646e-10 -5.51492e-13
  30 1211.87 -3.95519e-10 -7.81316e-13
  31 1211.87 -3.97126e-10 9.83708e-13
  32 1211.87 -3.95717e-10 7.46372e-13
  33 1211.87 -3.95858e-10 7.46450e-13
  34 1211.87 -3.95519e-10 -8.06074e-14
  35 1211.87 -3.96534e-10 -5.94105e-13
  36 1211.87 -3.95350e-10 -1.24368e-12
  37 1211.87 -3.95717e-10 -3.89742e-14
  38 1211.87 -3.95717e-10 8.88117e-14
  39 1211.87 -3.97408e-10 1.14335e-13
  40 1211.87 -3.96704e-10 -4.02864e-13
  41 1211.87 -3.96422e-10 3.35887e-13
  42 1211.87 -3.95717e-10 1.76961e-13
  43 1211.87 -3.95646e-10 3.11810e-13
  44 1211.87 -3.95858e-10 -9.42253e-14
  45 1211.87 -3.96281e-10 2.10464e-13
  46 1211.87 -3.96873e-10 -4.24587e-13
  47 1211.87 -3.95495e-10 -2.02476e-13
  48 1211.87 -3.97380e-10 1.45656e-13
  49 1211.87 -3.95646e-10 -3.73183e-13
  50 1211.87 -3.96386e-10 -6.15412e-13
  51 1211.87 -3.95717e-10 1.09848e-12
  52 1211.87 -3.96845e-10 -1.01280e-13
  53 1211.87 -3.95435e-10 2.38616e-13
  54 1211.87 -3.96027e-10 9.06678e-15
  55 1211.87 -3.97831e-10 3.70600e-13
  56 1211.87 -3.96704e-10 4.95848e-13
  57 1211.87 -3.95576e-10 2.29688e-13
  58 1211.87 -3.95294e-10 2.39891e-13
  59 1211.87 -3.95999e-10 -8.94029e-13
  60 1211.87 -3.95294e-10 -1.28465e-12
  61 1211.87 -3.95519e-10 1.07228e-12
  62 1211.87 -3.95689e-10 7.59621e-13
  63 1211.87 -3.95858e-10 1.25049e-12
  64 1211.87 -3.95519e-10 1.01623e-12
  65 1211.87 -3.97211e-10 -4.68996e-13
  66 1211.87 -3.96027e-10 -2.22236e-13
</Section>

newXOutput 81

<Section columns = "stress_xx | stress_yy | stress_xy">
  1 1191.56 -3.78934e-10 -3.30441e-12
  2 1191.56 -3.87575e-10 -1.73781e-12
  3 1191.56 -3.82226e-10 -2.08497e-12
  4 1191.56 -3.87575e-10 -1.78190e-12
  5 1191.56 -3.84283e-10 -8.16721e-12
  6 1191.56 -3.86478e-10 -6.01104e-12
  7 1191.56 -3.88398e-10 -1.13683e-12
  8 1191.56 -3.88123e-10 2.53585e-12
  9 1191.56 -3.84695e-10 4.49116e-12
  10 1191.56 -3.84283e-10 5.82017e-12
  11 1191.56 -3.82843e-10 6.76512e-14
  12 1191.56 -3.83460e-10 -3.63247e-12
  13 1191.56 -3.83735e-10 -4.26049e-12
  14 1191.56 -3.87026e-10 5.46787e-13
  15 1191.56 -3.84283e-10 6.35315e-13
  16 1191.56 -3.82637e-10 6.26056e-13
  17 1191.56 -3.82637e-10 -4.86925e-12
  18 1191.56 -3.84283e-10 -5.63725e-12
  19 1191.56 -3.88192e-10 -4.61466e-13
  20 1191.56 -3.84557e-10 6.51546e-12
  21 1191.56 -3.83872e-10 4.98196e-12
  22 1191.56 -3.83735e-10 2.42002e-12
  23 1191.56 -3.81266e-10 -1.12677e-12
  24 1191.56 -3.83186e-10 -3.49635e-12
  25 1191.56 -3.85655e-10 -3.77849e-12
  26 1191.56 -3.87575e-10 5.15976e-13
  27 1191.56 -3.84695e-10 6.95822e-13
  28 1191.56 -3.81815e-10 1.13811e-12
  29 1191.56 -3.84489e-10 3.07503e-12
  30 1191.56 -3.85600e-10 1.69771e-12
  31 1191.56 -3.84797e-10 -2.88582e-12
  32 1191.56 -3.87300e-10 -2.53701e-12
  33 1191.56 -3.85929e-10 1.79164e-12
  34 1191.56 -3.86093e-10 1.16836e-12
  35 1191.56 -3.84448e-10 3.92458e-12
  36 1191.56 -3.83625e-10 2.40493e-12
  37 1191.56 -3.82775e-10 -1.21675e-12
  38 1191.56 -3.86889e-10 -3.63577e-13
  39 1191.56 -3.82912e-10 9.13862e-15
  40 1191.56 -3.83323e-10 -7.18265e-13
  41 1191.56 -3.85655e-10 -5.03382e-13
  42 1191.56 -3.87712e-10 -6.13547e-13
  43 1191.56 -3.83975e-10 7.95949e-14
  44 1191.56 -3.86032e-10 6.76331e-13
  45 1191.56 -3.83049e-10 -9.11278e-14
  46 1191.56 -3.86587e-10 7.93053e-13
  47 1191.56 -3.85929e-10 -1.70739e-13
  48 1191.56 -3.84119e-10 1.19819e-12
  49 1191.56 -3.84797e-10 1.83879e-12
  50 1191.56 -3.85003e-10 2.28593e-12
  51 1191.56 -3.84832e-10 -3.02743e-12
  52 1191.56 -3.84009e-10 4.67693e-13
  53 1191.56 -3.84146e-10 -4.26265e-13
  54 1191.56 -3.88233e-10 1.00807e-12
  55 1191.56 -3.82637e-10 -4.51439e-13
  56 1191.56 -3.82912e-10 -6.11069e-13
  57 1191.56 -3.86066e-10 -3.34992e-13
  58 1191.56 -3.86752e-10 -1.04065e-12
  59 1191.56 -3.84695e-10 3.70007e-12
  60 1191.56 -3.84832e-10 3.02038e-12
  61 1191.56 -3.84119e-10 -1.63257e-12
  62 1191.56 -3.85106e-10 -3.29482e-12
  63 1191.56 -3.85600e-10 -2.78052e-12
  64 1191.56 -3.83131e-10 -3.43023e-12
  65 1191.56 -3.82802e-10 2.31562e-12
  66 1191.56 -3.85929e-10 2.78061e-12
</Section>

newXOutput 82

<Section columns = "stress_xx | stress_yy | stress_xy">
  1 1171.33 -3.72219e-10 -4.50147e-13
  2 1171.33 -3.68617e-10 1.78132e-12
  3 1171.33 -3.72219e-10 1.20525e-14
  4 1171.33 -3.72219e-10 2.13758e-13
  5 1171.33 -3.72219e-10 -6.13266e-13
  6 1171.33 -3.72486e-10 -1.14795e-13
  7 1171.33 -3.72486e-10 6.81159e-13
  8 1171.33 -3.71685e-10 2.44083e-13
  9 1171.33 -3.71419e-10 -3.28816e-13
  10 1171.33 -3.72219e-10 1.48780e-13
  11 1171.33 -3.73019e-10 -1.68272e-13
  12 1171.33 -3.73553e-10 2.53874e-12
  13 1171.33 -3.71685e-10 4.44860e-12
  14 1171.33 -3.71685e-10 -5.71516e-13
  15 1171.33 -3.72219e-10 -1.17410e-13
  16 1171.33 -3.72219e-10 -1.66330e-13
  17 1171.33 -3.72753e-10 9.17948e-13
  18 1171.33 -3.73286e-10 1.52667e-12
  19 1171.33 -3.72819e-10 1.12144e-12
  20 1171.33 -3.70885e-10 1.71168e-12
  21 1171.33 -3.69818e-10 -5.45764e-13
  22 1171.33 -3.73019e-10 -6.50173e-13
  23 1171.33 -3.71952e-10 2.14387e-15
  24 1171.33 -3.71685e-10 6.17122e-13
  25 1171.33 -3.71152e-10 2.50659e-14
  26 1171.33 -3.71685e-10 3.32355e-14
  27 1171.33 -3.70618e-10 0.00000
  28 1171.33 -3.71685e-10 9.44627e-14
  29 1171.33 -3.72619e-10 -5.64191e-13
  30 1171.33 -3.71419e-10 -3.81783e-13
  31 1171.33 -3.72819e-10 5.14036e-13
  32 1171.33 -3.72352e-10 -8.14468e-13
  33 1171.33 -3.71579e-10 -1.81907e-12
  34 1171.33 -3.72379e-10 -2.86831e-13
  35 1171.33 -3.71579e-10 4.64549e-13
  36 1171.33 -3.71739e-10 -1.41203e-12
  37 1171.33 -3.72486e-10 3.18076e-13
  38 1171.33 -3.72352e-10 3.42436e-15
  39 1171.33 -3.72619e-10 1.39004e-13
  40 1171.33 -3.71552e-10 -9.30381e-14
  41 1171.33 -3.71285e-10 -4.46328e-13
  42 1171.33 -3.72352e-10 -5.49024e-13
  43 1171.33 -3.72719e-10 3.13669e-13
  44 1171.33 -3.72219e-10 2.54873e-13
  45 1171.33 -3.71919e-10 -1.57264e-13
  46 1171.33 -3.72219e-10 -1.93227e-13
  47 1171.33 -3.72448e-10 -4.09350e-13
  48 1171.33 -3.72219e-10 -1.68668e-13
  49 1171.33 -3.72019e-10 -5.45863e-13
  50 1171.33 -3.71719e-10 2.51301e-14
  51 1171.33 -3.72086e-10 1.67899e-12
  52 1171.33 -3.72486e-10 -1.18474e-13
  53 1171.33 -3.72219e-10 8.47122e-13
  54 1171.33 -3.72379e-10 -2.07172e-13
  55 1171.33 -3.72219e-10 -1.49162e-13
  56 1171.33 -3.72486e-10 -6.84235e-13
  57 1171.33 -3.70751e-10 8.99296e-14
  58 1171.33 -3.72086e-10 2.03764e-13
  59 1171.33 -3.71685e-10 -3.53061e-13
  60 1171.33 -3.71952e-10 -1.02535e-13
  61 1171.33 -3.72859e-10 1.14626e-12
  62 1171.33 -3.71579e-10 7.45823e-13
  63 1171.33 -3.72219e-10 -5.37941e-13
  64 1171.33 -3.72699e-10 -8.26203e-13
  65 1171.33 -3.71739e-10 -7.30251e-13
  66 1171.33 -3.71098e-10 -1.05827e-12
</Section>

newXOutput 83

<Section columns = "stress_xx | stress_yy | stress_xy">
  1 1151.17 -3.57773e-10 -1.60267e-12
  2 1151.17 -3.62055e-10 -1.93366e-12
  3 1151.17 -3.57773e-10 -2.99762e-12
  4 1151.17 -3.64391e-10 -2.32585e-12
  5 1151.17 -3.60239e-10 -4.16648e-12
  6 1151.17 -3.62055e-10 -4.28195e-12
  7 1151.17 -3.63353e-10 -1.72428e-12
  8 1151.17 -3.63872e-10 2.25282e-12
  9 1151.17 -3.63613e-10 6.53064e-12
  10 1151.17 -3.62445e-10 1.10566e-11
  11 1151.17 -3.57968e-10 -1.56914e-25
  12 1151.17 -3.60498e-10 -4.48262e-12
  13 1151.17 -3.61277e-10 -4.07615e-12
  14 1151.17 -3.62055e-10 3.60700e-13
  15 1151.17 -3.60498e-10 9.39718e-13
  16 1151.17 -3.58681e-10 1.11282e-12
  17 1151.17 -3.60758e-10 -6.82887e-12
  18 1151.17 -3.61536e-10 -5.59135e-12
  19 1151.17 -3.64002e-10 -9.15719e-13
  20 1151.17 -3.61277e-10 3.37178e-12
  21 1151.17 -3.60693e-10 5.41503e-12
  22 1151.17 -3.58681e-10 2.45035e-12
  23 1151.17 -3.58162e-10 -1.59532e-12
  24 1151.17 -3.59979e-10 -4.91117e-12
  25 1151.17 -3.61277e-10 -5.39627e-12
  26 1151.17 -3.62834e-10 7.22115e-13
  27 1151.17 -3.61277e-10 6.54955e-13
  28 1151.17 -3.58941e-10 6.10421e-13
  29 1151.17 -3.60303e-10 3.73490e-12
  30 1151.17 -3.60965e-10 2.66482e-12
  31 1151.17 -3.60206e-10 -3.12603e-12
  32 1151.17 -3.62055e-10 -5.82253e-13
  33 1151.17 -3.62522e-10 -8.99937e-14
  34 1151.17 -3.61588e-10 2.09196e-12
  35 1151.17 -3.59719e-10 1.67179e-12
  36 1151.17 -3.60187e-10 3.59083e-12
  37 1151.17 -3.58552e-10 -2.71723e-12
  38 1151.17 -3.63093e-10 -1.83729e-13
  39 1151.17 -3.59460e-10 -9.20878e-14
  40 1151.17 -3.59979e-10 -1.32673e-12
  41 1151.17 -3.61277e-10 1.74367e-13
  42 1151.17 -3.62964e-10 8.95070e-13
  43 1151.17 -3.59525e-10 -8.59849e-13
  44 1151.17 -3.61666e-10 3.68767e-13
  45 1151.17 -3.60303e-10 5.70529e-14
  46 1151.17 -3.62678e-10 1.08513e-12
  47 1151.17 -3.61610e-10 7.14289e-13
  48 1151.17 -3.60342e-10 1.42567e-12
  49 1151.17 -3.60401e-10 2.32980e-12
  50 1151.17 -3.60790e-10 2.18813e-12
  51 1151.17 -3.60368e-10 -4.80805e-12
  52 1151.17 -3.61277e-10 1.25927e-12
  53 1151.17 -3.60109e-10 -8.90243e-13
  54 1151.17 -3.63613e-10 2.45697e-12
  55 1151.17 -3.58681e-10 -8.64124e-13
  56 1151.17 -3.59200e-10 -5.94542e-13
  57 1151.17 -3.62185e-10 -1.77821e-12
  58 1151.17 -3.62315e-10 -9.43197e-13
  59 1151.17 -3.60368e-10 4.30085e-12
  60 1151.17 -3.61147e-10 4.36058e-12
  61 1151.17 -3.62522e-10 -4.69068e-12
  62 1151.17 -3.60965e-10 -3.68195e-12
  63 1151.17 -3.60654e-10 -3.23522e-12
  64 1151.17 -3.60810e-10 -3.15511e-12
  65 1151.17 -3.59408e-10 3.52186e-12
  66 1151.17 -3.61121e-10 4.49565e-12
</Section>

newXOutput 84

<Section columns = "stress_xx | stress_yy | stress_xy">
  1 1131.10 -3.96060e-10 3.40417e-11
  2 1131.10 -3.10865e-10 2.83414e-11
  3 1131.10 -4.03254e-10 3.72820e-11
  4 1131.10 -3.08972e-10 3.14163e-11
  5 1131.10 -3.55419e-10 7.98497e-11
  6 1131.10 -3.33457e-10 7.26130e-11
  7 1131.10 -3.08467e-10 2.65089e-11
  8 1131.10 -3.13768e-10 -3.68679e-11
  9 1131.10 -3.00263e-10 -9.76438e-11
  10 1131.10 -3.36234e-10 -2.01751e-10
  11 1131.10 -4.13856e-10 -7.58253e-12
  12 1131.10 -3.70564e-10 6.51934e-11
  13 1131.10 -3.45321e-10 6.97760e-11
  14 1131.10 -3.15535e-10 -7.84007e-12
  15 1131.10 -3.43428e-10 -1.03866e-11
  16 1131.10 -3.77632e-10 -1.27791e-11
  17 1131.10 -3.59205e-10 9.16695e-11
  18 1131.10 -3.40273e-10 8.19341e-11
  19 1131.10 -3.10865e-10 1.53170e-11
  20 1131.10 -3.42040e-10 -4.30492e-11
  21 1131.10 -3.58763e-10 -7.23685e-11
  22 1131.10 -3.77380e-10 -2.89472e-11
  23 1131.10 -3.86720e-10 2.68608e-11
  24 1131.10 -3.65011e-10 6.77078e-11
  25 1131.10 -3.45826e-10 7.32250e-11
  26 1131.10 -3.18312e-10 -1.01753e-11
  27 1131.10 -3.51380e-10 -1.12429e-11
  28 1131.10 -3.85205e-10 -1.07593e-11
  29 1131.10 -3.49297e-10 -5.64544e-11
  30 1131.10 -3.40323e-10 -3.56312e-11
  31 1131.10 -3.57817e-10 4.58137e-11
  32 1131.10 -3.19826e-10 5.97307e-12
  33 1131.10 -3.35174e-10 -1.71306e-11
  34 1131.10 -3.38203e-10 -2.87113e-11
  35 1131.10 -3.61073e-10 -3.19177e-11
  36 1131.10 -3.57741e-10 -5.20579e-11
  37 1131.10 -3.92652e-10 4.69144e-11
  38 1131.10 -3.23234e-10 3.75859e-12
  39 1131.10 -3.76370e-10 2.70638e-12
  40 1131.10 -3.53021e-10 2.82437e-11
  41 1131.10 -3.49865e-10 -2.80746e-12
  42 1131.10 -3.17807e-10 -1.21471e-11
  43 1131.10 -3.77790e-10 9.27297e-12
  44 1131.10 -3.39358e-10 -4.18703e-12
  45 1131.10 -3.59615e-10 -3.76306e-12
  46 1131.10 -3.15333e-10 -1.48283e-11
  47 1131.10 -3.35801e-10 -9.32250e-12
  48 1131.10 -3.65314e-10 -1.82023e-11
  49 1131.10 -3.44280e-10 -3.20288e-11
  50 1131.10 -3.50812e-10 -3.39288e-11
  51 1131.10 -3.60720e-10 6.47917e-11
  52 1131.10 -3.50370e-10 -1.84325e-11
  53 1131.10 -3.49487e-10 1.21184e-11
  54 1131.10 -3.10638e-10 -3.36009e-11
  55 1131.10 -3.75865e-10 1.39423e-11
  56 1131.10 -3.75108e-10 6.42697e-12
  57 1131.10 -3.24370e-10 1.65628e-11
  58 1131.10 -3.25885e-10 1.36575e-11
  59 1131.10 -3.49865e-10 -6.44582e-11
  60 1131.10 -3.46836e-10 -5.51055e-11
  61 1131.10 -3.51077e-10 5.23678e-11
  62 1131.10 -3.51228e-10 5.02774e-11
  63 1131.10 -3.48048e-10 5.25011e-11
  64 1131.10 -3.51531e-10 4.17967e-11
  65 1131.10 -3.69403e-10 -5.36475e-11
  66 1131.10 -3.34417e-10 -6.18389e-11
</Section>

newXOutput 85

<Section columns = "stress_xx | stress_yy | stress_xy">
  1 1111.10 -3.35827e-10 -1.16069e-12
  2 1111.10 -3.40246e-10 -1.33339e-12
  3 1111.10 -3.38037e-10 -6.06869e-13
  4 1111.10 -3.41719e-10 -1.14703e-12
  5 1111.10 -3.37791e-10 -2.87302e-12
  6 1111.10 -3.38528e-10 -2.62558e-12
  7 1111.10 -3.40246e-10 -4.05734e-13
  8 1111.10 -3.39264e-10 1.41174e-12
  9 1111.10 -3.39694e-10 2.20835e-12
  10 1111.10 -3.40983e-10 2.80075e-12
  11 1111.10 -3.38957e-10 -1.84517e-13
  12 1111.10 -3.38037e-10 -2.44853e-12
  13 1111.10 -3.38773e-10 -3.32560e-12
  14 1111.10 -3.39264e-10 6.31050e-13
  15 1111.10 -3.39878e-10 2.67944e-14
  16 1111.10 -3.39264e-10 -1.42903e-13
  17 1111.10 -3.38773e-10 -2.08877e-12
  18 1111.10 -3.38773e-10 -3.04072e-12
  19 1111.10 -3.40614e-10 -4.71580e-13
  20 1111.10 -3.39264e-10 1.04319e-12
  21 1111.10 -3.38037e-10 2.47089e-12
  22 1111.10 -3.38037e-10 8.89534e-13
  23 1111.10 -3.38037e-10 -9.74319e-13
  24 1111.10 -3.38282e-10 -2.62444e-12
  25 1111.10 -3.39755e-10 -2.89808e-12
  26 1111.10 -3.39755e-10 2.86741e-13
  27 1111.10 -3.38405e-10 1.33972e-13
  28 1111.10 -3.37546e-10 3.72565e-13
  29 1111.10 -3.39694e-10 1.84509e-12
  30 1111.10 -3.39951e-10 1.37778e-12
  31 1111.10 -3.39418e-10 -1.54270e-12
  32 1111.10 -3.40369e-10 4.22023e-14
  33 1111.10 -3.38479e-10 1.33146e-12
  34 1111.10 -3.39657e-10 1.27386e-12
  35 1111.10 -3.38479e-10 1.34289e-12
  36 1111.10 -3.38331e-10 4.65638e-13
  37 1111.10 -3.39264e-10 -9.07845e-13
  38 1111.10 -3.40369e-10 1.60547e-14
  39 1111.10 -3.39141e-10 -1.02381e-13
  40 1111.10 -3.38405e-10 -4.54471e-13
  41 1111.10 -3.38896e-10 2.36632e-13
  42 1111.10 -3.40860e-10 6.59540e-13
  43 1111.10 -3.38497e-10 3.33674e-13
  44 1111.10 -3.39510e-10 1.77564e-13
  45 1111.10 -3.38681e-10 2.46375e-13
  46 1111.10 -3.39068e-10 4.48806e-13
  47 1111.10 -3.39404e-10 -2.80448e-13
  48 1111.10 -3.38773e-10 5.30724e-13
  49 1111.10 -3.38957e-10 6.89835e-13
  50 1111.10 -3.39602e-10 1.06592e-12
  51 1111.10 -3.38528e-10 -2.19967e-12
  52 1111.10 -3.40123e-10 6.05107e-13
  53 1111.10 -3.39632e-10 -4.56612e-13
  54 1111.10 -3.40835e-10 1.17206e-12
  55 1111.10 -3.37914e-10 -3.31685e-13
  56 1111.10 -3.38773e-10 -5.33852e-13
  57 1111.10 -3.39141e-10 -1.07321e-13
  58 1111.10 -3.40246e-10 -3.55473e-13
  59 1111.10 -3.39387e-10 1.97283e-12
  60 1111.10 -3.38773e-10 1.07371e-12
  61 1111.10 -3.38331e-10 -7.75847e-13
  62 1111.10 -3.38626e-10 -1.24561e-12
  63 1111.10 -3.38184e-10 -1.91945e-12
  64 1111.10 -3.38773e-10 -2.11294e-12
  65 1111.10 -3.39510e-10 1.00952e-12
  66 1111.10 -3.39657e-10 2.10755e-12
</Section>

newXOutput 86

<Section columns = "stress_xx | stress_yy | stress_xy">
  1 1091.18 -3.26915e-10 -5.81268e-13
  2 1091.18 -3.29063e-10 -9.25469e-13
  3 1091.18 -3.29063e-10 -5.12182e-14
  4 1091.18 -3.28705e-10 -4.84729e-13
  5 1091.18 -3.27273e-10 -9.32455e-13
  6 1091.18 -3.29183e-10 -1.20417e-12
  7 1091.18 -3.30138e-10 -4.53765e-13
  8 1091.18 -3.30376e-10 1.04126e-12
  9 1091.18 -3.29601e-10 2.26694e-12
  10 1091.18 -3.27989e-10 3.75066e-12
  11 1091.18 -3.26378e-10 9.41397e-14
  12 1091.18 -3.28705e-10 -1.72967e-12
  13 1091.18 -3.29422e-10 -2.68341e-12
  14 1091.18 -3.28467e-10 2.42544e-13
  15 1091.18 -3.29063e-10 5.19738e-14
  16 1091.18 -3.28705e-10 4.76259e-13
  17 1091.18 -3.28944e-10 1.49113e-13
  18 1091.18 -3.28944e-10 -2.96974e-13
  19 1091.18 -3.26915e-10 -9.40423e-13
  20 1091.18 -3.29660e-10 -7.22423e-12
  21 1091.18 -3.30675e-10 -5.88520e-13
  22 1091.18 -3.29422e-10 -2.34479e-13
  23 1091.18 -3.28228e-10 -8.14766e-13
  24 1091.18 -3.29183e-10 -1.09697e-12
  25 1091.18 -3.30138e-10 -1.14686e-12
  26 1091.18 -3.27273e-10 2.28713e-13
  27 1091.18 -3.28705e-10 2.59869e-13
  28 1091.18 -3.28944e-10 3.21763e-14
  29 1091.18 -3.30496e-10 1.46214e-12
  30 1091.18 -3.30854e-10 1.98250e-13
  31 1091.18 -3.29063e-10 -6.71893e-13
  32 1091.18 -3.28705e-10 4.16970e-12
  33 1091.18 -3.29135e-10 3.53422e-13
  34 1091.18 -3.28419e-10 1.36697e-13
  35 1091.18 -3.28276e-10 3.51527e-13
  36 1091.18 -3.29422e-10 1.35717e-12
  37 1091.18 -3.27631e-10 -2.51993e-13
  38 1091.18 -3.28586e-10 -1.34187e-13
  39 1091.18 -3.29422e-10 3.23180e-13
  40 1091.18 -3.29183e-10 -1.77904e-13
  41 1091.18 -3.30615e-10 1.85740e-12
  42 1091.18 -3.27989e-10 2.35279e-12
  43 1091.18 -3.28079e-10 -2.18558e-14
  44 1091.18 -3.29422e-10 1.36768e-13
  45 1091.18 -3.29153e-10 1.04509e-13
  46 1091.18 -3.29422e-10 5.91958e-13
  47 1091.18 -3.28501e-10 8.86722e-13
  48 1091.18 -3.31427e-10 4.80220e-13
  49 1091.18 -3.29690e-10 6.17063e-13
  50 1091.18 -3.28258e-10 6.37648e-13
  51 1091.18 -3.28228e-10 -2.76666e-12
  52 1091.18 -3.28944e-10 7.76799e-13
  53 1091.18 -3.28228e-10 -1.77183e-12
  54 1091.18 -3.28419e-10 3.14919e-12
  55 1091.18 -3.27989e-10 -5.17915e-13
  56 1091.18 -3.29899e-10 5.10140e-13
  57 1091.18 -3.28944e-10 -4.64327e-13
  58 1091.18 -3.28705e-10 -3.28450e-13
  59 1091.18 -3.28705e-10 1.61014e-12
  60 1091.18 -3.29660e-10 7.46008e-13
  61 1091.18 -3.28849e-10 -6.33779e-13
  62 1091.18 -3.29565e-10 -9.30227e-13
  63 1091.18 -3.28419e-10 -1.49561e-12
  64 1091.18 -3.28849e-10 -5.56735e-14
  65 1091.18 -3.27560e-10 1.22284e-12
  66 1091.18 -3.30424e-10 3.20116e-12
</Section>

newXOutput 87

<Section columns = "stress_xx | stress_yy | stress_xy">
  1 1071.34 -3.17503e-10 -1.12567e-12
  2 1071.34 -3.18547e-10 -4.67326e-13
  3 1071.34 -3.15762e-10 -2.19116e-12
  4 1071.34 -3.19940e-10 -1.01158e-12
  5 1071.34 -3.19127e-10 -2.93002e-12
  6 1071.34 -3.19824e-10 -2.70466e-12
  7 1071.34 -3.19824e-10 -1.11747e-12
  8 1071.34 -3.20520e-10 7.50248e-13
  9 1071.34 -3.20810e-10 3.00616e-12
  10 1071.34 -3.18547e-10 6.96309e-12
  11 1071.34 -3.18373e-10 1.17950e-12
  12 1071.34 -3.19360e-10 -4.50526e-13
  13 1071.34 -3.18431e-10 -9.27795e-13
  14 1071.34 -3.18199e-10 5.42185e-13
  15 1071.34 -3.16807e-10 4.03210e-13
  16 1071.34 -3.16342e-10 2.77579e-13
  17 1071.34 -3.18895e-10 -5.99050e-12
  18 1071.34 -3.21448e-10 -6.29343e-12
  19 1071.34 -3.26554e-10 2.32857e-12
  20 1071.34 -3.19824e-10 2.50302e-11
  21 1071.34 -3.13847e-10 8.48267e-12
  22 1071.34 -3.17503e-10 2.25678e-12
  23 1071.34 -3.17039e-10 -6.12500e-13
  24 1071.34 -3.18431e-10 -1.84769e-12
  25 1071.34 -3.18895e-10 -1.77141e-12
  26 1071.34 -3.20288e-10 3.80667e-13
  27 1071.34 -3.17851e-10 3.52809e-13
  28 1071.34 -3.16807e-10 2.65464e-13
  29 1071.34 -3.19940e-10 2.10618e-12
  30 1071.34 -3.18199e-10 2.28869e-12
  31 1071.34 -3.19505e-10 -1.22720e-12
  32 1071.34 -3.20868e-10 -1.22052e-11
  33 1071.34 -3.19174e-10 5.65463e-13
  34 1071.34 -3.19174e-10 1.52022e-12
  35 1071.34 -3.18895e-10 2.22998e-13
  36 1071.34 -3.17503e-10 2.18772e-12
  37 1071.34 -3.19360e-10 -1.44765e-12
  38 1071.34 -3.20636e-10 -4.48357e-14
  39 1071.34 -3.18083e-10 5.97401e-14
  40 1071.34 -3.19127e-10 -4.25576e-13
  41 1071.34 -3.15066e-10 -4.44791e-12
  42 1071.34 -3.23073e-10 -5.25072e-12
  43 1071.34 -3.19244e-10 7.25898e-13
  44 1071.34 -3.19853e-10 -5.15423e-13
  45 1071.34 -3.18547e-10 8.57404e-13
  46 1071.34 -3.21263e-10 9.73370e-13
  47 1071.34 -3.21979e-10 -9.23526e-13
  48 1071.34 -3.15136e-10 5.62692e-13
  49 1071.34 -3.17329e-10 1.58474e-12
  50 1071.34 -3.18721e-10 1.12964e-12
  51 1071.34 -3.19592e-10 1.18825e-12
  52 1071.34 -3.19708e-10 7.27039e-13
  53 1071.34 -3.20636e-10 3.09702e-12
  54 1071.34 -3.24048e-10 -3.64674e-12
  55 1071.34 -3.18083e-10 -7.72249e-13
  56 1071.34 -3.16923e-10 -1.16124e-12
  57 1071.34 -3.18315e-10 -1.88363e-14
  58 1071.34 -3.19708e-10 -2.88384e-13
  59 1071.34 -3.19360e-10 2.44773e-12
  60 1071.34 -3.19476e-10 2.84509e-12
  61 1071.34 -3.19731e-10 -9.68519e-13
  62 1071.34 -3.18478e-10 -1.67070e-12
  63 1071.34 -3.19731e-10 -1.98938e-12
  64 1071.34 -3.18895e-10 -3.96508e-12
  65 1071.34 -3.19174e-10 1.68008e-12
  66 1071.34 -3.16807e-10 -1.26718e-12
</Section>

newXOutput 88

<Section columns = "stress_xx | stress_yy | stress_xy">
  1 1051.57 -3.07642e-10 -3.18082e-13
  2 1051.57 -3.07642e-10 -2.80888e-14
  3 1051.57 -3.08657e-10 -5.95331e-13
  4 1051.57 -3.08996e-10 -8.29172e-13
  5 1051.57 -3.07529e-10 -1.03199e-12
  6 1051.57 -3.07304e-10 -8.64413e-13
  7 1051.57 -3.07529e-10 -3.00812e-13
  8 1051.57 -3.08657e-10 -1.23583e-13
  9 1051.57 -3.08319e-10 6.88259e-13
  10 1051.57 -3.07304e-10 6.91485e-13
  11 1051.57 -3.07642e-10 2.02216e-13
  12 1051.57 -3.07755e-10 -8.01404e-13
  13 1051.57 -3.07755e-10 -8.22185e-13
  14 1051.57 -3.07755e-10 1.30319e-13
  15 1051.57 -3.07980e-10 7.33047e-14
  16 1051.57 -3.07980e-10 3.11944e-13
  17 1051.57 -3.09109e-10 -1.56652e-12
  18 1051.57 -3.07755e-10 -1.21451e-12
  19 1051.57 -3.07304e-10 -1.42230e-12
  20 1051.57 -3.08432e-10 -7.16163e-12
  21 1051.57 -3.10180e-10 -4.80726e-13
  22 1051.57 -3.09109e-10 5.76933e-13
  23 1051.57 -3.07529e-10 -3.47528e-13
  24 1051.57 -3.07529e-10 -1.35067e-12
  25 1051.57 -3.08432e-10 -1.83564e-12
  26 1051.57 -3.07304e-10 1.44364e-13
  27 1051.57 -3.07642e-10 1.71044e-13
  28 1051.57 -3.07980e-10 2.43835e-13
  29 1051.57 -3.07642e-10 4.83555e-13
  30 1051.57 -3.08793e-10 -6.98951e-14
  31 1051.57 -3.08657e-10 -5.78088e-13
  32 1051.57 -3.08996e-10 3.85626e-12
  33 1051.57 -3.08116e-10 4.34016e-13
  34 1051.57 -3.07980e-10 5.05263e-13
  35 1051.57 -3.07574e-10 4.74810e-13
  36 1051.57 -3.07574e-10 5.02742e-13
  37 1051.57 -3.07642e-10 2.46399e-13
  38 1051.57 -3.08770e-10 -2.64256e-13
  39 1051.57 -3.08319e-10 2.51975e-13
  40 1051.57 -3.08545e-10 1.65843e-13
  41 1051.57 -3.10124e-10 1.74512e-12
  42 1051.57 -3.08319e-10 1.81969e-12
  43 1051.57 -3.07896e-10 2.49241e-13
  44 1051.57 -3.07388e-10 2.49641e-14
  45 1051.57 -3.07896e-10 7.85691e-15
  46 1051.57 -3.08928e-10 -1.48078e-13
  47 1051.57 -3.07400e-10 4.20005e-14
  48 1051.57 -3.09876e-10 6.36136e-13
  49 1051.57 -3.07896e-10 4.28367e-13
  50 1051.57 -3.07727e-10 4.46335e-13
  51 1051.57 -3.07868e-10 -2.18287e-12
  52 1051.57 -3.08093e-10 2.10661e-13
  53 1051.57 -3.07980e-10 -1.33365e-12
  54 1051.57 -3.08251e-10 2.02362e-12
  55 1051.57 -3.07755e-10 -9.48186e-14
  56 1051.57 -3.08319e-10 -2.64403e-13
  57 1051.57 -3.07642e-10 -3.61862e-14
  58 1051.57 -3.08093e-10 -3.27824e-13
  59 1051.57 -3.07642e-10 6.48051e-13
  60 1051.57 -3.07529e-10 4.16788e-13
  61 1051.57 -3.08116e-10 -3.79141e-13
  62 1051.57 -3.07710e-10 -9.10606e-13
  63 1051.57 -3.07574e-10 -5.07584e-13
  64 1051.57 -3.08116e-10 -7.69693e-13
  65 1051.57 -3.08251e-10 9.39487e-13
  66 1051.57 -3.09740e-10 2.06190e-12
</Section>

newXOutput 89

<Section columns = "stress_xx | stress_yy | stress_xy">
  1 1031.89 -3.01329e-10 4.14297e-13
  2 1031.89 -3.00671e-10 -3.63058e-13
  3 1031.89 -3.01329e-10 1.17831e-13
  4 1031.89 -2.99355e-10 5.11044e-13
  5 1031.89 -3.00013e-10 1.06576e-12
  6 1031.89 -2.99136e-10 1.25813e-12
  7 1031.89 -2.99136e-10 1.25583e-12
  8 1031.89 -2.99136e-10 2.62980e-13
  9 1031.89 -2.99520e-10 -1.24508e-12
  10 1031.89 -3.01329e-10 -2.15079e-12
  11 1031.89 -3.00178e-10 -5.50638e-13
  12 1031.89 -2.98917e-10 -5.39523e-13
  13 1031.89 -3.00013e-10 -7.70918e-13
  14 1031.89 -3.00013e-10 -1.13123e-13
  15 1031.89 -2.99684e-10 -2.36889e-14
  16 1031.89 -3.01110e-10 7.62159e-14
  17 1031.89 -3.00233e-10 2.00541e-12
  18 1031.89 -2.99355e-10 2.12050e-12
  19 1031.89 -2.99520e-10 6.67830e-13
  20 1031.89 -3.00233e-10 1.31907e-12
  21 1031.89 -2.99355e-10 -5.57341e-13
  22 1031.89 -3.01110e-10 -8.06811e-13
  23 1031.89 -3.01549e-10 -1.54020e-13
  24 1031.89 -3.01549e-10 6.58724e-13
  25 1031.89 -3.01110e-10 1.16658e-12
  26 1031.89 -2.99794e-10 -2.33863e-13
  27 1031.89 -3.00671e-10 -1.65822e-13
  28 1031.89 -3.00671e-10 -1.42134e-13
  29 1031.89 -3.00671e-10 -9.40206e-13
  30 1031.89 -3.00013e-10 -2.16161e-13
  31 1031.89 -2.99355e-10 6.95699e-13
  32 1031.89 -2.98149e-10 -4.61118e-13
  33 1031.89 -3.00540e-10 -8.59701e-13
  34 1031.89 -3.00803e-10 -8.05278e-13
  35 1031.89 -3.00934e-10 4.94660e-14
  36 1031.89 -3.00934e-10 2.16178e-15
  37 1031.89 -3.00452e-10 4.39660e-13
  38 1031.89 -2.99136e-10 6.14994e-13
  39 1031.89 -3.00342e-10 -3.38128e-13
  40 1031.89 -2.99684e-10 7.82406e-13
  41 1031.89 -2.98259e-10 -4.29189e-13
  42 1031.89 -2.98917e-10 1.00940e-13
  43 1031.89 -3.00013e-10 -7.41935e-13
  44 1031.89 -2.99931e-10 3.50351e-13
  45 1031.89 -3.01000e-10 -4.57586e-13
  46 1031.89 -2.99355e-10 2.88474e-13
  47 1031.89 -2.99825e-10 5.51401e-13
  48 1031.89 -2.99487e-10 -5.84741e-13
  49 1031.89 -3.01082e-10 -1.56971e-13
  50 1031.89 -3.00260e-10 -4.21810e-13
  51 1031.89 -2.99355e-10 1.05334e-12
  52 1031.89 -2.99904e-10 -3.43309e-13
  53 1031.89 -3.00013e-10 4.55107e-14
  54 1031.89 -2.99619e-10 -1.12097e-13
  55 1031.89 -3.00781e-10 3.99653e-13
  56 1031.89 -3.01110e-10 2.10849e-13
  57 1031.89 -3.00891e-10 -2.95382e-13
  58 1031.89 -2.99904e-10 1.86140e-14
  59 1031.89 -3.00891e-10 -8.63105e-13
  60 1031.89 -3.00123e-10 -5.22744e-13
  61 1031.89 -2.99355e-10 9.30556e-14
  62 1031.89 -3.01461e-10 2.97084e-13
  63 1031.89 -2.99882e-10 1.10643e-12
  64 1031.89 -3.00408e-10 6.14462e-13
  65 1031.89 -3.00540e-10 -1.13423e-12
  66 1031.89 -2.99355e-10 -2.82858e-13
</Section>

newXOutput 90

<Section columns = "stress_xx | stress_yy | stress_xy">
  1 1012.27 -2.91244e-10 5.94317e-14
  2 1012.27 -2.90605e-10 8.38794e-13
  3 1012.27 -2.90285e-10 9.71069e-13
  4 1012.27 -2.88047e-10 6.64804e-13
  5 1012.27 -2.91564e-10 4.85809e-13
  6 1012.27 -2.91138e-10 9.84223e-13
  7 1012.27 -2.90712e-10 7.81615e-13
  8 1012.27 -2.90498e-10 -1.29669e-13
  9 1012.27 -2.89486e-10 -1.23793e-12
  10 1012.27 -2.89646e-10 -3.59831e-12
  11 1012.27 -2.91244e-10 -4.50465e-13
  12 1012.27 -2.90498e-10 1.69110e-12
  13 1012.27 -2.90072e-10 1.59655e-12
  14 1012.27 -2.90712e-10 -2.07111e-13
  15 1012.27 -2.90285e-10 -6.88862e-14
  16 1012.27 -2.89859e-10 -1.63437e-13
  17 1012.27 -2.90285e-10 1.88228e-12
  18 1012.27 -2.90712e-10 9.33445e-13
  19 1012.27 -2.90445e-10 -1.76141e-13
  20 1012.27 -2.90285e-10 -1.61817e-12
  21 1012.27 -2.90125e-10 -1.14879e-12
  22 1012.27 -2.90072e-10 -8.64294e-13
  23 1012.27 -2.90072e-10 1.66932e-14
  24 1012.27 -2.90712e-10 9.60506e-13
  25 1012.27 -2.90072e-10 1.40928e-12
  26 1012.27 -2.89646e-10 -2.51008e-13
  27 1012.27 -2.90285e-10 -2.52583e-13
  28 1012.27 -2.90285e-10 -3.03839e-15
  29 1012.27 -2.91724e-10 -8.92600e-13
  30 1012.27 -2.91180e-10 -4.15262e-13
  31 1012.27 -2.90445e-10 3.46796e-13
  32 1012.27 -2.90179e-10 3.30755e-13
  33 1012.27 -2.91053e-10 -9.78728e-13
  34 1012.27 -2.90413e-10 -8.65623e-13
  35 1012.27 -2.90413e-10 -1.19538e-13
  36 1012.27 -2.91053e-10 -6.36051e-13
  37 1012.27 -2.90605e-10 9.08834e-13
  38 1012.27 -2.91031e-10 -6.19836e-14
  39 1012.27 -2.89859e-10 -4.44112e-14
  40 1012.27 -2.90498e-10 7.82485e-13
  41 1012.27 -2.90179e-10 7.41984e-15
  42 1012.27 -2.90818e-10 3.67900e-13
  43 1012.27 -2.90685e-10 -9.65766e-14
  44 1012.27 -2.90765e-10 -5.75462e-14
  45 1012.27 -2.90605e-10 -2.51416e-13
  46 1012.27 -2.90285e-10 4.76450e-14
  47 1012.27 -2.90833e-10 8.54615e-14
  48 1012.27 -2.90285e-10 -4.38870e-13
  49 1012.27 -2.90925e-10 -5.92795e-13
  50 1012.27 -2.90685e-10 -3.57137e-13
  51 1012.27 -2.90818e-10 2.57528e-13
  52 1012.27 -2.91031e-10 -4.44528e-13
  53 1012.27 -2.90285e-10 -1.77170e-13
  54 1012.27 -2.90413e-10 -6.37097e-14
  55 1012.27 -2.90925e-10 3.60761e-14
  56 1012.27 -2.90605e-10 2.08317e-13
  57 1012.27 -2.90605e-10 -4.11969e-14
  58 1012.27 -2.89859e-10 1.61875e-13
  59 1012.27 -2.90498e-10 -7.97206e-13
  60 1012.27 -2.90712e-10 -5.07433e-13
  61 1012.27 -2.90413e-10 7.36952e-13
  62 1012.27 -2.90541e-10 7.56369e-13
  63 1012.27 -2.90669e-10 2.07742e-13
  64 1012.27 -2.90669e-10 4.85924e-13
  65 1012.27 -2.90541e-10 -1.01047e-12
  66 1012.27 -2.90030e-10 -2.28795e-13
</Section>

newXOutput 91

<Section columns = "stress_xx | stress_yy | stress_xy">
  1 992.737 -2.82061e-10 2.76975e-13
  2 992.737 -2.80507e-10 4.09023e-13
  3 992.737 -2.81129e-10 1.23948e-12
  4 992.737 -2.81439e-10 -1.51108e-13
  5 992.737 -2.81439e-10 2.70475e-13
  6 992.737 -2.80818e-10 1.70426e-14
  7 992.737 -2.80818e-10 -4.22264e-13
  8 992.737 -2.80818e-10 -8.90260e-13
  9 992.737 -2.81595e-10 -6.84246e-13
  10 992.737 -2.82061e-10 -2.04512e-13
  11 992.737 -2.81595e-10 5.88889e-13
  12 992.737 -2.82061e-10 1.03420e-12
  13 992.737 -2.81853e-10 9.42370e-13
  14 992.737 -2.80197e-10 -1.36341e-13
  15 992.737 -2.80507e-10 -2.67044e-13
  16 992.737 -2.81025e-10 -2.72682e-13
  17 992.737 -2.82268e-10 1.84407e-12
  18 992.737 -2.82268e-10 6.68890e-13
  19 992.737 -2.80663e-10 -6.46245e-13
  20 992.737 -2.81439e-10 -3.59291e-12
  21 992.737 -2.82837e-10 -5.41474e-13
  22 992.737 -2.82475e-10 3.39103e-13
  23 992.737 -2.82061e-10 3.04969e-13
  24 992.737 -2.81439e-10 2.46140e-13
  25 992.737 -2.82061e-10 4.11643e-14
  26 992.737 -2.81025e-10 1.98503e-13
  27 992.737 -2.82061e-10 6.67610e-14
  28 992.737 -2.81439e-10 -9.20935e-14
  29 992.737 -2.80818e-10 -1.28850e-14
  30 992.737 -2.82185e-10 -3.88872e-13
  31 992.737 -2.82061e-10 2.12733e-13
  32 992.737 -2.80922e-10 1.60101e-12
  33 992.737 -2.81315e-10 -7.51563e-13
  34 992.737 -2.80197e-10 5.45597e-13
  35 992.737 -2.81688e-10 -8.40097e-13
  36 992.737 -2.82682e-10 -3.16536e-13
  37 992.737 -2.82164e-10 2.38578e-13
  38 992.737 -2.81543e-10 -2.66429e-13
  39 992.737 -2.82475e-10 2.46198e-13
  40 992.737 -2.82371e-10 1.84152e-13
  41 992.737 -2.82475e-10 5.58419e-13
  42 992.737 -2.80611e-10 6.09037e-13
  43 992.737 -2.81983e-10 -9.13512e-14
  44 992.737 -2.81750e-10 -5.84941e-13
  45 992.737 -2.80896e-10 5.40899e-13
  46 992.737 -2.81688e-10 -1.87083e-13
  47 992.737 -2.81706e-10 9.71248e-14
  48 992.737 -2.83055e-10 9.10055e-14
  49 992.737 -2.81206e-10 -3.77506e-13
  50 992.737 -2.80896e-10 2.14314e-14
  51 992.737 -2.82164e-10 -7.08651e-13
  52 992.737 -2.81336e-10 3.68701e-14
  53 992.737 -2.81853e-10 -9.33562e-13
  54 992.737 -2.80569e-10 4.16820e-13
  55 992.737 -2.81439e-10 -2.47554e-13
  56 992.737 -2.82268e-10 3.87273e-13
  57 992.737 -2.81025e-10 -1.97585e-13
  58 992.737 -2.80922e-10 1.18233e-13
  59 992.737 -2.81129e-10 1.00340e-13
  60 992.737 -2.81957e-10 -1.91613e-13
  61 992.737 -2.82185e-10 7.17797e-14
  62 992.737 -2.80942e-10 9.10086e-14
  63 992.737 -2.81688e-10 -2.67373e-13
  64 992.737 -2.82433e-10 6.77499e-13
  65 992.737 -2.82061e-10 1.61918e-13
  66 992.737 -2.82185e-10 4.51110e-13
</Section>

newXOutput 92

<Section columns = "stress_xx | stress_yy | stress_xy">
  1 973.275 -2.73715e-10 3.60275e-13
  2 973.275 -2.71301e-10 -2.59516e-14
  3 973.275 -2.71603e-10 -7.46992e-13
  4 973.275 -2.72810e-10 -6.51318e-13
  5 973.275 -2.73212e-10 9.60733e-13
  6 973.275 -2.73212e-10 9.14681e-13
  7 973.275 -2.70798e-10 1.29505e-13
  8 973.275 -2.70396e-10 -6.48546e-13
  9 973.275 -2.71754e-10 -7.86288e-13
  10 973.275 -2.72508e-10 -6.81622e-13
  11 973.275 -2.72055e-10 -2.13532e-13
  12 973.275 -2.72005e-10 4.86091e-13
  13 973.275 -2.72206e-10 2.07107e-13
  14 973.275 -2.70396e-10 -5.85139e-15
  15 973.275 -2.70396e-10 2.15631e-14
  16 973.275 -2.71603e-10 2.51362e-13
  17 973.275 -2.72408e-10 -1.61786e-12
  18 973.275 -2.72408e-10 -1.19290e-12
  19 973.275 -2.73112e-10 4.93705e-13
  20 973.275 -2.73413e-10 9.79959e-13
  21 973.275 -2.73715e-10 9.38695e-13
  22 973.275 -2.72408e-10 3.19717e-13
  23 973.275 -2.71804e-10 -5.14291e-13
  24 973.275 -2.72206e-10 -1.34449e-12
  25 973.275 -2.72206e-10 -1.53091e-12
  26 973.275 -2.72609e-10 8.99095e-14
  27 973.275 -2.72206e-10 8.62524e-14
  28 973.275 -2.73011e-10 -4.32527e-15
  29 973.275 -2.72206e-10 3.11409e-13
  30 973.275 -2.73534e-10 -4.20332e-13
  31 973.275 -2.71376e-10 9.38389e-14
  32 973.275 -2.73313e-10 -1.09048e-13
  33 973.275 -2.72086e-10 -7.24347e-13
  34 973.275 -2.72689e-10 4.32960e-13
  35 973.275 -2.71844e-10 -2.60961e-13
  36 973.275 -2.72327e-10 1.13284e-12
  37 973.275 -2.72106e-10 1.55696e-13
  38 973.275 -2.71402e-10 -5.62879e-14
  39 973.275 -2.71502e-10 1.61321e-13
  40 973.275 -2.72106e-10 -5.57127e-14
  41 973.275 -2.73112e-10 4.36799e-13
  42 973.275 -2.73212e-10 7.40634e-14
  43 973.275 -2.72055e-10 -1.50002e-13
  44 973.275 -2.71980e-10 2.10191e-13
  45 973.275 -2.72055e-10 -1.01493e-13
  46 973.275 -2.71361e-10 -2.73097e-13
  47 973.275 -2.72465e-10 1.21030e-13
  48 973.275 -2.72810e-10 4.94601e-13
  49 973.275 -2.71678e-10 2.05320e-13
  50 973.275 -2.72584e-10 1.45348e-13
  51 973.275 -2.71804e-10 -7.94298e-13
  52 973.275 -2.71703e-10 2.42824e-13
  53 973.275 -2.72709e-10 -9.07179e-13
  54 973.275 -2.74258e-10 1.29092e-12
  55 973.275 -2.72408e-10 1.19773e-13
  56 973.275 -2.72307e-10 9.37776e-14
  57 973.275 -2.71402e-10 -3.13523e-13
  58 973.275 -2.72810e-10 -2.97442e-13
  59 973.275 -2.72106e-10 2.75810e-13
  60 973.275 -2.72810e-10 9.63342e-14
  61 973.275 -2.71844e-10 1.31611e-13
  62 973.275 -2.72206e-10 -8.74355e-13
  63 973.275 -2.72448e-10 4.56297e-13
  64 973.275 -2.72448e-10 -5.90857e-13
  65 973.275 -2.72568e-10 -5.53045e-13
  66 973.275 -2.74500e-10 1.43339e-12
</Section>

newXOutput 93

<Section columns = "stress_xx | stress_yy | stress_xy">
  1 953.889 -2.63511e-10 -1.50762e-13
  2 953.889 -2.64390e-10 4.26863e-13
  3 953.889 -2.62631e-10 2.96879e-13
  4 953.889 -2.62338e-10 5.05639e-13
  5 953.889 -2.63218e-10 -5.08897e-13
  6 953.889 -2.63218e-10 -3.77513e-13
  7 953.889 -2.62631e-10 5.14689e-14
  8 953.889 -2.63218e-10 -3.56016e-13
  9 953.889 -2.62925e-10 -3.56461e-13
  10 953.889 -2.62045e-10 -3.26948e-13
  11 953.889 -2.63364e-10 2.40677e-13
  12 953.889 -2.62631e-10 1.03531e-13
  13 953.889 -2.63218e-10 5.94575e-13
  14 953.889 -2.63999e-10 -8.51970e-29
  15 953.889 -2.64976e-10 -1.04449e-13
  16 953.889 -2.63999e-10 -3.36800e-13
  17 953.889 -2.62827e-10 7.78984e-13
  18 953.889 -2.62436e-10 1.00453e-12
  19 953.889 -2.62192e-10 1.54804e-14
  20 953.889 -2.62436e-10 -5.58369e-13
  21 953.889 -2.62485e-10 -5.53574e-13
  22 953.889 -2.62631e-10 -6.23425e-13
  23 953.889 -2.63413e-10 -1.27279e-13
  24 953.889 -2.62827e-10 7.99752e-13
  25 953.889 -2.62827e-10 1.28757e-12
  26 953.889 -2.62631e-10 -3.42089e-14
  27 953.889 -2.62631e-10 -4.17796e-14
  28 953.889 -2.63218e-10 -9.45301e-14
  29 953.889 -2.64390e-10 -2.42320e-13
  30 953.889 -2.63335e-10 -3.98154e-13
  31 953.889 -2.63218e-10 2.65864e-13
  32 953.889 -2.62925e-10 -3.97614e-14
  33 953.889 -2.63687e-10 -2.97967e-14
  34 953.889 -2.62983e-10 -2.84955e-13
  35 953.889 -2.64390e-10 -7.47857e-14
  36 953.889 -2.63687e-10 -4.10525e-13
  37 953.889 -2.63413e-10 1.45564e-13
  38 953.889 -2.62534e-10 2.24205e-14
  39 953.889 -2.63511e-10 -1.39358e-13
  40 953.889 -2.63120e-10 4.49077e-13
  41 953.889 -2.63120e-10 -3.24148e-13
  42 953.889 -2.62631e-10 -8.37445e-14
  43 953.889 -2.63511e-10 -6.62598e-14
  44 953.889 -2.63731e-10 -1.44575e-13
  45 953.889 -2.63731e-10 -5.64850e-15
  46 953.889 -2.62983e-10 1.52805e-13
  47 953.889 -2.62799e-10 1.56604e-13
  48 953.889 -2.62631e-10 -4.89568e-13
  49 953.889 -2.64170e-10 -4.01095e-13
  50 953.889 -2.63291e-10 -2.00289e-13
  51 953.889 -2.63413e-10 1.90734e-13
  52 953.889 -2.63706e-10 2.65759e-14
  53 953.889 -2.62925e-10 -2.48109e-13
  54 953.889 -2.62514e-10 -3.49351e-13
  55 953.889 -2.63804e-10 -1.06446e-13
  56 953.889 -2.63218e-10 -2.79850e-13
  57 953.889 -2.63609e-10 4.22923e-13
  58 953.889 -2.62631e-10 2.15997e-13
  59 953.889 -2.64097e-10 -4.07347e-13
  60 953.889 -2.64097e-10 -6.38361e-13
  61 953.889 -2.62983e-10 8.34099e-13
  62 953.889 -2.62749e-10 5.46899e-13
  63 953.889 -2.63687e-10 -1.36135e-13
  64 953.889 -2.62749e-10 3.49448e-13
  65 953.889 -2.63100e-10 -9.61734e-14
  66 953.889 -2.62514e-10 -4.61421e-13
</Section>

newXOutput 94

<Section columns = "stress_xx | stress_yy | stress_xy">
  1 934.578 -2.55604e-10 3.01930e-13
  2 934.578 -2.54465e-10 -1.21399e-13
  3 934.578 -2.55604e-10 8.35359e-13
  4 934.578 -2.55604e-10 -1.33465e-13
  5 934.578 -2.55984e-10 8.99569e-13
  6 934.578 -2.54655e-10 1.08426e-12
  7 934.578 -2.54465e-10 4.02574e-13
  8 934.578 -2.54086e-10 -4.93885e-13
  9 934.578 -2.53612e-10 -9.92955e-13
  10 934.578 -2.54750e-10 -1.69020e-12
  11 934.578 -2.55035e-10 -3.40057e-13
  12 934.578 -2.55224e-10 4.13993e-13
  13 934.578 -2.55224e-10 1.95062e-13
  14 934.578 -2.54465e-10 -1.07910e-13
  15 934.578 -2.54750e-10 -1.41632e-13
  16 934.578 -2.55984e-10 -1.64713e-13
  17 934.578 -2.54655e-10 2.17212e-12
  18 934.578 -2.54655e-10 1.33167e-12
  19 934.578 -2.55035e-10 5.23470e-13
  20 934.578 -2.56173e-10 -2.09142e-14
  21 934.578 -2.54892e-10 -4.51346e-13
  22 934.578 -2.54655e-10 -3.51128e-13
  23 934.578 -2.54465e-10 -4.62273e-13
  24 934.578 -2.55224e-10 -4.33452e-13
  25 934.578 -2.56743e-10 -1.81067e-13
  26 934.578 -2.55794e-10 7.34108e-14
  27 934.578 -2.56458e-10 4.04663e-14
  28 934.578 -2.55984e-10 -4.94167e-14
  29 934.578 -2.55604e-10 -3.09752e-14
  30 934.578 -2.55262e-10 -1.43728e-13
  31 934.578 -2.54323e-10 2.32600e-13
  32 934.578 -2.54276e-10 2.70094e-13
  33 934.578 -2.55376e-10 -4.76246e-13
  34 934.578 -2.55604e-10 -6.40248e-13
  35 934.578 -2.55604e-10 3.02242e-13
  36 934.578 -2.56287e-10 -4.44809e-13
  37 934.578 -2.54845e-10 -8.66980e-14
  38 934.578 -2.54655e-10 3.83554e-13
  39 934.578 -2.54655e-10 -2.97271e-13
  40 934.578 -2.54181e-10 1.63355e-13
  41 934.578 -2.54181e-10 -1.58568e-13
  42 934.578 -2.54750e-10 6.14564e-13
  43 934.578 -2.55319e-10 -4.40861e-13
  44 934.578 -2.54892e-10 6.64249e-13
  45 934.578 -2.55319e-10 -6.31753e-13
  46 934.578 -2.53896e-10 -1.37815e-13
  47 934.578 -2.55197e-10 2.66930e-13
  48 934.578 -2.54352e-10 -3.54929e-13
  49 934.578 -2.55248e-10 -2.13902e-13
  50 934.578 -2.56387e-10 -6.33744e-14
  51 934.578 -2.54655e-10 -1.39571e-14
  52 934.578 -2.54940e-10 1.78265e-13
  53 934.578 -2.54940e-10 -8.31666e-14
  54 934.578 -2.54807e-10 2.90317e-13
  55 934.578 -2.55889e-10 3.22875e-13
  56 934.578 -2.55889e-10 4.18268e-13
  57 934.578 -2.54845e-10 -9.57163e-14
  58 934.578 -2.55889e-10 -2.99732e-13
  59 934.578 -2.56173e-10 -8.00634e-14
  60 934.578 -2.55319e-10 -3.22264e-13
  61 934.578 -2.55832e-10 -1.14860e-13
  62 934.578 -2.55376e-10 -5.96672e-13
  63 934.578 -2.55035e-10 9.00971e-13
  64 934.578 -2.55376e-10 8.94892e-13
  65 934.578 -2.54579e-10 -6.39502e-13
  66 934.578 -2.54807e-10 -1.54775e-13
</Section>

newXOutput 95

<Section columns = "stress_xx | stress_yy | stress_xy">
  1 915.341 -2.46218e-10 -6.70044e-13
  2 915.341 -2.47324e-10 -6.85278e-13
  3 915.341 -2.46771e-10 5.84083e-13
  4 915.341 -2.44837e-10 1.21896e-12
  5 915.341 -2.46495e-10 -1.39174e-12
  6 915.341 -2.47047e-10 -1.35140e-12
  7 915.341 -2.46495e-10 -5.81658e-13
  8 915.341 -2.46495e-10 1.00432e-13
  9 915.341 -2.47738e-10 9.66093e-13
  10 915.341 -2.47876e-10 2.68712e-12
  11 915.341 -2.45942e-10 2.62957e-13
  12 915.341 -2.46495e-10 -8.58269e-13
  13 915.341 -2.45758e-10 -1.30031e-12
  14 915.341 -2.47232e-10 1.40182e-13
  15 915.341 -2.47047e-10 0.00000
  16 915.341 -2.46679e-10 -3.32843e-13
  17 915.341 -2.46495e-10 1.78180e-12
  18 915.341 -2.46495e-10 2.06738e-12
  19 915.341 -2.45942e-10 3.61728e-13
  20 915.341 -2.46495e-10 -1.93689e-12
  21 915.341 -2.47047e-10 -1.93257e-12
  22 915.341 -2.47784e-10 -6.51517e-13
  23 915.341 -2.48337e-10 8.53725e-13
  24 915.341 -2.47969e-10 2.20639e-12
  25 915.341 -2.45942e-10 2.55267e-12
  26 915.341 -2.45021e-10 -2.30817e-13
  27 915.341 -2.44284e-10 -3.91853e-14
  28 915.341 -2.45389e-10 6.10529e-14
  29 915.341 -2.46633e-10 -4.18772e-13
  30 915.341 -2.45610e-10 -5.61482e-13
  31 915.341 -2.47807e-10 5.07244e-13
  32 915.341 -2.46587e-10 4.66726e-13
  33 915.341 -2.46163e-10 7.88641e-13
  34 915.341 -2.45942e-10 -1.10149e-12
  35 915.341 -2.45831e-10 6.66468e-13
  36 915.341 -2.46716e-10 -1.50536e-12
  37 915.341 -2.46495e-10 -8.03281e-13
  38 915.341 -2.47600e-10 -3.97687e-13
  39 915.341 -2.46955e-10 5.52646e-13
  40 915.341 -2.47139e-10 -9.70813e-13
  41 915.341 -2.47047e-10 6.51778e-13
  42 915.341 -2.45666e-10 -6.05063e-13
  43 915.341 -2.46357e-10 4.56077e-13
  44 915.341 -2.46909e-10 3.72545e-14
  45 915.341 -2.46909e-10 -1.04760e-13
  46 915.341 -2.47711e-10 -2.31489e-13
  47 915.341 -2.46495e-10 -5.76934e-13
  48 915.341 -2.47047e-10 -7.02390e-14
  49 915.341 -2.46495e-10 -1.67704e-13
  50 915.341 -2.45458e-10 -2.63122e-13
  51 915.341 -2.47139e-10 8.34269e-13
  52 915.341 -2.47324e-10 -3.12144e-14
  53 915.341 -2.46403e-10 3.85771e-13
  54 915.341 -2.46053e-10 -8.31473e-13
  55 915.341 -2.45850e-10 -2.28664e-13
  56 915.341 -2.46495e-10 8.52632e-14
  57 915.341 -2.46403e-10 -2.18193e-13
  58 915.341 -2.45850e-10 4.53548e-13
  59 915.341 -2.45942e-10 -4.67961e-13
  60 915.341 -2.46495e-10 -3.85080e-13
  61 915.341 -2.45610e-10 -9.09930e-13
  62 915.341 -2.46826e-10 1.63605e-12
  63 915.341 -2.46274e-10 -9.34486e-13
  64 915.341 -2.47158e-10 1.09035e-12
  65 915.341 -2.46716e-10 5.94149e-13
  66 915.341 -2.46384e-10 -1.57447e-12
</Section>

newXOutput 96

<Section columns = "stress_xx | stress_yy | stress_xy">
  1 896.178 -2.37640e-10 -1.04273e-12
  2 896.178 -2.40054e-10 -1.32890e-12
  3 896.178 -2.40322e-10 1.63804e-12
  4 896.178 -2.38713e-10 3.06808e-13
  5 896.178 -2.38892e-10 -1.60819e-12
  6 896.178 -2.39786e-10 -7.66161e-13
  7 896.178 -2.39965e-10 1.13939e-12
  8 896.178 -2.40144e-10 2.75608e-12
  9 896.178 -2.39384e-10 2.22804e-12
  10 896.178 -2.40054e-10 8.02109e-13
  11 896.178 -2.38177e-10 -1.86653e-12
  12 896.178 -2.38534e-10 -3.45233e-12
  13 896.178 -2.39071e-10 -3.01406e-12
  14 896.178 -2.40680e-10 8.23859e-14
  15 896.178 -2.41395e-10 7.58710e-14
  16 896.178 -2.40859e-10 -2.21483e-13
  17 896.178 -2.39249e-10 4.02418e-12
  18 896.178 -2.37998e-10 3.79429e-12
  19 896.178 -2.37506e-10 2.10497e-12
  20 896.178 -2.38534e-10 -7.29984e-13
  21 896.178 -2.38981e-10 -2.27364e-12
  22 896.178 -2.39249e-10 -2.61396e-12
  23 896.178 -2.39607e-10 -1.15700e-12
  24 896.178 -2.39071e-10 -6.25683e-14
  25 896.178 -2.38713e-10 1.40805e-13
  26 896.178 -2.38892e-10 -2.61695e-13
  27 896.178 -2.39518e-10 1.89678e-13
  28 896.178 -2.38892e-10 4.55085e-13
  29 896.178 -2.39920e-10 2.80679e-13
  30 896.178 -2.38284e-10 3.83631e-13
  31 896.178 -2.39451e-10 -1.69514e-13
  32 896.178 -2.37998e-10 1.52037e-12
  33 896.178 -2.40108e-10 9.72665e-14
  34 896.178 -2.39142e-10 -2.32852e-12
  35 896.178 -2.39035e-10 2.87238e-12
  36 896.178 -2.40537e-10 -9.10367e-13
  37 896.178 -2.37640e-10 -1.68290e-12
  38 896.178 -2.39428e-10 9.41937e-13
  39 896.178 -2.39071e-10 -1.02067e-12
  40 896.178 -2.38087e-10 -9.36749e-13
  41 896.178 -2.38624e-10 8.42882e-13
  42 896.178 -2.38087e-10 1.16308e-12
  43 896.178 -2.38914e-10 -9.77355e-13
  44 896.178 -2.39249e-10 2.24555e-12
  45 896.178 -2.39317e-10 -2.14432e-12
  46 896.178 -2.39357e-10 8.22688e-13
  47 896.178 -2.38866e-10 1.02023e-12
  48 896.178 -2.38928e-10 -7.20859e-13
  49 896.178 -2.40993e-10 4.63060e-14
  50 896.178 -2.39249e-10 2.92658e-13
  51 896.178 -2.38534e-10 3.01474e-13
  52 896.178 -2.39428e-10 -1.01820e-13
  53 896.178 -2.38087e-10 6.84625e-13
  54 896.178 -2.37855e-10 5.38093e-13
  55 896.178 -2.38624e-10 2.09017e-13
  56 896.178 -2.40322e-10 7.44027e-13
  57 896.178 -2.39786e-10 -1.09035e-12
  58 896.178 -2.38892e-10 -4.70723e-13
  59 896.178 -2.39339e-10 4.03005e-13
  60 896.178 -2.39786e-10 5.74417e-13
  61 896.178 -2.39035e-10 -2.76279e-12
  62 896.178 -2.38606e-10 9.69405e-14
  63 896.178 -2.39142e-10 -7.61216e-13
  64 896.178 -2.39571e-10 1.98504e-12
  65 896.178 -2.37962e-10 3.97749e-13
  66 896.178 -2.38391e-10 -1.07214e-12
</Section>

newXOutput 97

<Section columns = "stress_xx | stress_yy | stress_xy">
  1 877.089 -2.32416e-10 1.51721e-12
  2 877.089 -2.29033e-10 2.41951e-12
  3 877.089 -2.29553e-10 -1.42644e-12
  4 877.089 -2.32156e-10 -1.30658e-12
  5 877.089 -2.30768e-10 2.95367e-12
  6 877.089 -2.29727e-10 3.14000e-12
  7 877.089 -2.28165e-10 9.23751e-13
  8 877.089 -2.29380e-10 -3.02801e-12
  9 877.089 -2.30204e-10 -5.04534e-12
  10 877.089 -2.31895e-10 -5.88012e-12
  11 877.089 -2.33587e-10 3.47865e-13
  12 877.089 -2.31635e-10 4.47952e-12
  13 877.089 -2.30074e-10 4.46729e-12
  14 877.089 -2.28512e-10 -4.82695e-13
  15 877.089 -2.29033e-10 -9.17898e-14
  16 877.089 -2.29380e-10 3.86057e-13
  17 877.089 -2.30594e-10 -2.96055e-12
  18 877.089 -2.31462e-10 -4.47307e-12
  19 877.089 -2.33457e-10 -9.43698e-13
  20 877.089 -2.31982e-10 3.96752e-12
  21 877.089 -2.30334e-10 4.41958e-12
  22 877.089 -2.29553e-10 2.39751e-12
  23 877.089 -2.28859e-10 -4.94352e-13
  24 877.089 -2.30421e-10 -2.51529e-12
  25 877.089 -2.31288e-10 -2.32340e-12
  26 877.089 -2.33023e-10 4.26248e-13
  27 877.089 -2.32676e-10 -3.67159e-14
  28 877.089 -2.32329e-10 -4.47250e-13
  29 877.089 -2.31375e-10 -1.77540e-13
  30 877.089 -2.32572e-10 -4.45113e-13
  31 877.089 -2.30139e-10 2.97084e-13
  32 877.089 -2.32242e-10 -2.82116e-12
  33 877.089 -2.29969e-10 -3.10189e-12
  34 877.089 -2.31843e-10 3.14754e-12
  35 877.089 -2.32676e-10 -3.42533e-12
  36 877.089 -2.30282e-10 2.55741e-12
  37 877.089 -2.32850e-10 2.81205e-12
  38 877.089 -2.29900e-10 -1.23992e-13
  39 877.089 -2.30247e-10 2.22619e-13
  40 877.089 -2.32069e-10 2.72876e-12
  41 877.089 -2.31028e-10 -2.00990e-12
  42 877.089 -2.32589e-10 3.06263e-13
  43 877.089 -2.31375e-10 -7.48819e-13
  44 877.089 -2.31050e-10 -2.14476e-12
  45 877.089 -2.31180e-10 2.17304e-12
  46 877.089 -2.30594e-10 -3.12677e-13
  47 877.089 -2.31858e-10 2.29019e-13
  48 877.089 -2.30698e-10 2.49030e-13
  49 877.089 -2.29813e-10 -3.23859e-13
  50 877.089 -2.32156e-10 -9.50764e-14
  51 877.089 -2.32242e-10 -7.38070e-13
  52 877.089 -2.30681e-10 -1.77079e-13
  53 877.089 -2.32069e-10 -1.83625e-12
  54 877.089 -2.33613e-10 1.20571e-12
  55 877.089 -2.32156e-10 1.68021e-13
  56 877.089 -2.29900e-10 -2.94063e-14
  57 877.089 -2.28946e-10 5.20812e-13
  58 877.089 -2.31809e-10 -8.24320e-14
  59 877.089 -2.31982e-10 -1.37047e-13
  60 877.089 -2.31201e-10 -9.31051e-13
  61 877.089 -2.29969e-10 3.50545e-12
  62 877.089 -2.31739e-10 -2.11687e-12
  63 877.089 -2.31947e-10 2.40599e-12
  64 877.089 -2.30178e-10 -2.68278e-12
  65 877.089 -2.32572e-10 -2.79724e-12
  66 877.089 -2.32052e-10 3.06185e-12
</Section>

newXOutput 98

<Section columns = "stress_xx | stress_yy | stress_xy">
  1 858.073 -2.24956e-10 1.06058e-12
  2 858.073 -2.22936e-10 1.06058e-12
  3 858.073 -2.21926e-10 -1.12137e-12
  4 858.073 -2.25714e-10 -1.29324e-12
  5 858.073 -2.23862e-10 2.02704e-12
  6 858.073 -2.23694e-10 1.92936e-12
  7 858.073 -2.22179e-10 5.85871e-13
  8 858.073 -2.22179e-10 -1.65216e-12
  9 858.073 -2.22936e-10 -2.61619e-12
  10 858.073 -2.24199e-10 -1.43607e-12
  11 858.073 -2.25714e-10 1.71147e-14
  12 858.073 -2.24872e-10 1.50202e-12
  13 858.073 -2.23525e-10 1.60099e-12
  14 858.073 -2.22852e-10 -2.65535e-13
  15 858.073 -2.22684e-10 3.55256e-14
  16 858.073 -2.23189e-10 3.66602e-13
  17 858.073 -2.22684e-10 -2.62196e-12
  18 858.073 -2.23189e-10 -3.00387e-12
  19 858.073 -2.24956e-10 -1.99643e-13
  20 858.073 -2.23189e-10 2.88429e-12
  21 858.073 -2.22558e-10 3.05941e-12
  22 858.073 -2.21842e-10 1.28869e-12
  23 858.073 -2.21674e-10 -8.41104e-13
  24 858.073 -2.23020e-10 -2.77606e-12
  25 858.073 -2.23189e-10 -2.97681e-12
  26 858.073 -2.25040e-10 2.45439e-13
  27 858.073 -2.24704e-10 0.00000
  28 858.073 -2.24535e-10 -1.40774e-13
  29 858.073 -2.23063e-10 9.90622e-14
  30 858.073 -2.25108e-10 2.17754e-13
  31 858.073 -2.23378e-10 -2.54367e-14
  32 858.073 -2.24367e-10 -1.28387e-12
  33 858.073 -2.23088e-10 -1.72180e-12
  34 858.073 -2.24300e-10 2.14994e-12
  35 858.073 -2.24199e-10 -1.59943e-12
  36 858.073 -2.23593e-10 2.28507e-12
  37 858.073 -2.24788e-10 2.02225e-13
  38 858.073 -2.22936e-10 2.49303e-13
  39 858.073 -2.23525e-10 -4.17269e-13
  40 858.073 -2.23694e-10 6.46769e-13
  41 858.073 -2.23694e-10 -8.75726e-13
  42 858.073 -2.24956e-10 7.68632e-13
  43 858.073 -2.24388e-10 -9.71223e-13
  44 858.073 -2.23631e-10 -6.87546e-13
  45 858.073 -2.23820e-10 6.81125e-13
  46 858.073 -2.23290e-10 -2.15420e-13
  47 858.073 -2.24271e-10 7.16867e-13
  48 858.073 -2.23391e-10 2.18366e-13
  49 858.073 -2.23378e-10 7.92525e-15
  50 858.073 -2.24072e-10 7.89400e-14
  51 858.073 -2.23694e-10 -7.08567e-13
  52 858.073 -2.23189e-10 -7.34427e-14
  53 858.073 -2.24199e-10 -9.78647e-13
  54 858.073 -2.25108e-10 8.92128e-13
  55 858.073 -2.24114e-10 2.56043e-13
  56 858.073 -2.23105e-10 5.67100e-14
  57 858.073 -2.23020e-10 8.49894e-14
  58 858.073 -2.24199e-10 -1.45428e-13
  59 858.073 -2.24030e-10 4.18239e-15
  60 858.073 -2.24199e-10 -2.12670e-13
  61 858.073 -2.22987e-10 1.27369e-12
  62 858.073 -2.23896e-10 -1.79454e-12
  63 858.073 -2.24199e-10 1.66063e-12
  64 858.073 -2.22987e-10 -1.45219e-12
  65 858.073 -2.24906e-10 -1.76974e-12
  66 858.073 -2.23593e-10 1.98182e-12
</Section>

newXOutput 99

<Section columns = "stress_xx | stress_yy | stress_xy">
  1 839.130 -2.16690e-10 1.18916e-13
  2 839.130 -2.18159e-10 -7.86746e-13
  3 839.130 -2.16445e-10 6.82804e-13
  4 839.130 -2.16935e-10 -2.49255e-13
  5 839.130 -2.16282e-10 8.55172e-13
  6 839.130 -2.16118e-10 1.37967e-12
  7 839.130 -2.16118e-10 1.37565e-12
  8 839.130 -2.15792e-10 1.24714e-12
  9 839.130 -2.15465e-10 -5.94579e-14
  10 839.130 -2.15710e-10 -1.19730e-12
  11 839.130 -2.16200e-10 -1.44252e-12
  12 839.130 -2.15955e-10 -1.99952e-12
  13 839.130 -2.16445e-10 -1.81745e-12
  14 839.130 -2.18730e-10 -7.21435e-14
  15 839.130 -2.18159e-10 -6.87274e-14
  16 839.130 -2.17424e-10 -2.57728e-14
  17 839.130 -2.15629e-10 2.14179e-12
  18 839.130 -2.16118e-10 2.12033e-12
  19 839.130 -2.15955e-10 1.17881e-12
  20 839.130 -2.15629e-10 2.70980e-13
  21 839.130 -2.15588e-10 -8.07898e-13
  22 839.130 -2.15792e-10 -1.01076e-12
  23 839.130 -2.16118e-10 -1.22131e-12
  24 839.130 -2.16282e-10 -1.43321e-12
  25 839.130 -2.16608e-10 -1.02870e-12
  26 839.130 -2.17098e-10 -1.72471e-13
  27 839.130 -2.17914e-10 8.59092e-14
  28 839.130 -2.17098e-10 2.69257e-13
  29 839.130 -2.16445e-10 2.30084e-14
  30 839.130 -2.15563e-10 4.17296e-13
  31 839.130 -2.14609e-10 1.46826e-13
  32 839.130 -2.14323e-10 8.46468e-13
  33 839.130 -2.16935e-10 -3.65792e-13
  34 839.130 -2.16837e-10 -1.28386e-12
  35 839.130 -2.16935e-10 1.42437e-12
  36 839.130 -2.16739e-10 3.64314e-13
  37 839.130 -2.15792e-10 -1.09173e-12
  38 839.130 -2.15384e-10 1.09299e-12
  39 839.130 -2.15384e-10 -1.04633e-12
  40 839.130 -2.14976e-10 -2.19894e-13
  41 839.130 -2.14649e-10 1.82744e-13
  42 839.130 -2.15384e-10 1.18868e-12
  43 839.130 -2.16016e-10 -1.12982e-12
  44 839.130 -2.16200e-10 1.58434e-12
  45 839.130 -2.16261e-10 -1.57737e-12
  46 839.130 -2.15270e-10 5.05360e-13
  47 839.130 -2.16095e-10 1.12674e-12
  48 839.130 -2.15563e-10 -5.66251e-13
  49 839.130 -2.17730e-10 -1.10156e-13
  50 839.130 -2.17363e-10 1.80673e-14
  51 839.130 -2.14486e-10 4.26379e-13
  52 839.130 -2.15302e-10 -8.93477e-14
  53 839.130 -2.15465e-10 3.17455e-13
  54 839.130 -2.15074e-10 4.41648e-13
  55 839.130 -2.16608e-10 7.61915e-13
  56 839.130 -2.16690e-10 7.39212e-13
  57 839.130 -2.17343e-10 -6.50974e-13
  58 839.130 -2.16771e-10 -6.73257e-13
  59 839.130 -2.17016e-10 -4.89638e-14
  60 839.130 -2.16445e-10 -1.72918e-14
  61 839.130 -2.16249e-10 -1.33774e-12
  62 839.130 -2.16347e-10 -1.13132e-12
  63 839.130 -2.16151e-10 1.24876e-12
  64 839.130 -2.15955e-10 1.66727e-12
  65 839.130 -2.15955e-10 -9.95972e-13
  66 839.130 -2.14976e-10 -1.20520e-13
</Section>

newXOutput 100

<Section columns = "stress_xx | stress_yy | stress_xy">
  1 820.259 -2.05090e-10 -2.19432e-12
  2 820.259 -2.05328e-10 2.71620e-12
  3 820.259 -2.05565e-10 -2.23487e-12
  4 820.259 -2.05802e-10 1.92559e-12
  5 820.259 -2.07939e-10 -7.18051e-12
  6 820.259 -2.07939e-10 -1.05733e-11
  7 820.259 -2.09363e-10 -1.07765e-11
  8 820.259 -2.11895e-10 -8.04214e-12
  9 820.259 -2.13042e-10 6.13129e-13
  10 820.259 -2.10075e-10 7.51119e-12
  11 820.259 -2.10194e-10 1.02560e-11
  12 820.259 -2.08888e-10 1.17676e-11
  13 820.259 -2.07306e-10 8.50556e-12
  14 820.259 -2.02083e-10 9.31007e-13
  15 820.259 -2.01055e-10 -1.16302e-13
  16 820.259 -2.01609e-10 -1.11514e-12
  17 820.259 -2.07464e-10 -7.61555e-12
  18 820.259 -2.07780e-10 -1.11885e-11
  19 820.259 -2.09719e-10 -1.04352e-11
  20 820.259 -2.09679e-10 -8.15685e-12
  21 820.259 -2.13517e-10 7.35227e-13
  22 820.259 -2.11104e-10 8.21959e-12
  23 820.259 -2.09521e-10 1.05047e-11
  24 820.259 -2.08730e-10 1.02434e-11
  25 820.259 -2.08097e-10 6.64183e-12
  26 820.259 -2.02242e-10 1.14560e-12
  27 820.259 -2.01530e-10 8.30730e-14
  28 820.259 -2.02400e-10 -9.83441e-13
  29 820.259 -2.07108e-10 3.37874e-13
  30 820.259 -2.09078e-10 -2.64089e-12
  31 820.259 -2.16247e-10 2.52864e-13
  32 820.259 -2.15772e-10 -4.49592e-12
  33 820.259 -2.02906e-10 6.55625e-12
  34 820.259 -2.03951e-10 7.04387e-12
  35 820.259 -2.03951e-10 -6.93081e-12
  36 820.259 -2.03381e-10 -7.07617e-12
  37 820.259 -2.14506e-10 7.62446e-12
  38 820.259 -2.12607e-10 -7.70435e-12
  39 820.259 -2.11974e-10 7.89791e-12
  40 820.259 -2.16247e-10 1.72941e-12
  41 820.259 -2.16247e-10 -5.02862e-13
  42 820.259 -2.10945e-10 -8.86130e-12
  43 820.259 -2.08591e-10 9.50034e-12
  44 820.259 -2.08176e-10 -9.69634e-12
  45 820.259 -2.08057e-10 9.82604e-12
  46 820.259 -2.14680e-10 -3.67617e-12
  47 820.259 -2.06921e-10 -9.86176e-12
  48 820.259 -2.14015e-10 4.27408e-12
  49 820.259 -2.00046e-10 -2.67642e-13
  50 820.259 -2.01233e-10 1.90972e-13
  51 820.259 -2.17354e-10 -1.13625e-13
  52 820.259 -2.11262e-10 3.05286e-13
  53 820.259 -2.13319e-10 -7.39579e-13
  54 820.259 -2.11072e-10 -6.44781e-12
  55 820.259 -2.04378e-10 -4.34727e-12
  56 820.259 -2.03982e-10 -4.55145e-12
  57 820.259 -2.03429e-10 4.43092e-12
  58 820.259 -2.04536e-10 4.13240e-12
  59 820.259 -2.05328e-10 3.85065e-13
  60 820.259 -2.04615e-10 -2.57172e-13
  61 820.259 -2.07654e-10 8.96617e-12
  62 820.259 -2.08224e-10 7.65697e-12
  63 820.259 -2.07844e-10 -8.25524e-12
  64 820.259 -2.07274e-10 -8.61881e-12
  65 820.259 -2.12401e-10 6.47578e-12
  66 820.259 -2.12971e-10 -3.16612e-12
</Section>

newXOutput 101

<Section columns = "stress_xx | stress_yy | stress_xy">
  1 801.461 -2.03133e-10 5.72285e-13
  2 801.461 -2.00372e-10 8.34385e-13
  3 801.461 -2.01293e-10 -1.04439e-12
  4 801.461 -2.03133e-10 -8.83491e-13
  5 801.461 -2.02136e-10 1.34243e-12
  6 801.461 -2.00756e-10 1.39235e-12
  7 801.461 -2.00142e-10 4.49186e-13
  8 801.461 -2.00756e-10 -9.55647e-13
  9 801.461 -2.01178e-10 -1.14181e-12
  10 801.461 -2.01293e-10 -4.70600e-13
  11 801.461 -2.02098e-10 1.36419e-13
  12 801.461 -2.02289e-10 1.05549e-12
  13 801.461 -2.01063e-10 1.61872e-12
  14 801.461 -2.00602e-10 -2.52974e-13
  15 801.461 -2.01523e-10 4.81820e-14
  16 801.461 -2.02289e-10 2.46282e-13
  17 801.461 -2.01829e-10 -1.77954e-12
  18 801.461 -2.02289e-10 -1.24799e-12
  19 801.461 -2.02903e-10 -8.72795e-15
  20 801.461 -2.02443e-10 5.04334e-13
  21 801.461 -2.01523e-10 1.46819e-12
  22 801.461 -2.01216e-10 6.62140e-13
  23 801.461 -2.00449e-10 -5.61241e-13
  24 801.461 -2.00756e-10 -1.70224e-12
  25 801.461 -2.01983e-10 -1.82087e-12
  26 801.461 -2.02289e-10 2.21884e-13
  27 801.461 -2.02213e-10 9.63640e-14
  28 801.461 -2.02596e-10 -7.07101e-14
  29 801.461 -2.01523e-10 6.13657e-14
  30 801.461 -2.02903e-10 6.30822e-14
  31 801.461 -2.01178e-10 8.32715e-15
  32 801.461 -2.02136e-10 3.20572e-14
  33 801.461 -2.01339e-10 -2.08668e-12
  34 801.461 -2.02443e-10 1.17252e-12
  35 801.461 -2.01615e-10 -8.96542e-13
  36 801.461 -2.01615e-10 2.03592e-12
  37 801.461 -2.02136e-10 1.66267e-13
  38 801.461 -2.01293e-10 4.54273e-13
  39 801.461 -2.00909e-10 -4.33165e-13
  40 801.461 -2.01369e-10 7.28297e-13
  41 801.461 -2.01753e-10 -2.22061e-13
  42 801.461 -2.02826e-10 7.87106e-13
  43 801.461 -2.02155e-10 -1.09104e-12
  44 801.461 -2.01120e-10 -2.55511e-13
  45 801.461 -2.01523e-10 3.41292e-13
  46 801.461 -2.01247e-10 1.26754e-14
  47 801.461 -2.02574e-10 9.88791e-13
  48 801.461 -2.01523e-10 -1.72431e-15
  49 801.461 -2.01580e-10 1.65626e-14
  50 801.461 -2.02155e-10 1.17855e-13
  51 801.461 -2.01829e-10 -5.44228e-13
  52 801.461 -2.01139e-10 1.49002e-13
  53 801.461 -2.02596e-10 -9.56013e-13
  54 801.461 -2.02995e-10 8.94073e-13
  55 801.461 -2.02213e-10 2.55126e-13
  56 801.461 -2.01983e-10 7.52125e-14
  57 801.461 -2.00909e-10 -1.84634e-13
  58 801.461 -2.02443e-10 -2.90509e-13
  59 801.461 -2.01906e-10 1.35717e-13
  60 801.461 -2.01753e-10 1.44720e-13
  61 801.461 -2.01615e-10 3.38495e-13
  62 801.461 -2.01615e-10 -1.29596e-12
  63 801.461 -2.01707e-10 1.19890e-12
  64 801.461 -2.02075e-10 -6.13588e-13
  65 801.461 -2.01523e-10 -5.29463e-13
  66 801.461 -2.02443e-10 1.38114e-12
</Section>

newXOutput 102

<Section columns = "stress_xx | stress_yy | stress_xy">
  1 782.734 -1.94343e-10 -2.09742e-13
  2 782.734 -1.95234e-10 -2.27795e-13
  3 782.734 -1.95457e-10 3.42252e-13
  4 782.734 -1.95457e-10 1.53719e-13
  5 782.734 -1.95531e-10 -6.64422e-13
  6 782.734 -1.95977e-10 -5.15979e-13
  7 782.734 -1.95680e-10 -7.24683e-14
  8 782.734 -1.95234e-10 1.58790e-13
  9 782.734 -1.95457e-10 4.14193e-13
  10 782.734 -1.95680e-10 4.86628e-13
  11 782.734 -1.95568e-10 1.34547e-13
  12 782.734 -1.95680e-10 -1.62209e-13
  13 782.734 -1.95977e-10 6.90050e-14
  14 782.734 -1.95383e-10 6.20786e-14
  15 782.734 -1.95680e-10 4.65589e-14
  16 782.734 -1.95531e-10 1.26744e-13
  17 782.734 -1.95828e-10 7.18067e-13
  18 782.734 -1.95680e-10 1.13489e-12
  19 782.734 -1.95123e-10 4.06188e-13
  20 782.734 -1.95828e-10 -6.48154e-13
  21 782.734 -1.96126e-10 -5.37570e-13
  22 782.734 -1.95828e-10 -4.83936e-13
  23 782.734 -1.96126e-10 -1.59694e-13
  24 782.734 -1.96126e-10 1.84265e-13
  25 782.734 -1.95531e-10 3.28686e-13
  26 782.734 -1.95234e-10 -1.68238e-13
  27 782.734 -1.94788e-10 -1.24157e-13
  28 782.734 -1.94640e-10 1.52323e-13
  29 782.734 -1.95234e-10 1.75122e-13
  30 782.734 -1.94877e-10 2.12575e-14
  31 782.734 -1.94955e-10 7.82276e-14
  32 782.734 -1.94714e-10 4.29450e-13
  33 782.734 -1.95323e-10 -4.56011e-13
  34 782.734 -1.94967e-10 -7.47084e-13
  35 782.734 -1.95323e-10 8.41106e-13
  36 782.734 -1.95591e-10 -2.95451e-13
  37 782.734 -1.95085e-10 -3.56220e-13
  38 782.734 -1.95383e-10 1.78135e-13
  39 782.734 -1.95605e-10 -2.02367e-13
  40 782.734 -1.94788e-10 -2.88576e-13
  41 782.734 -1.95234e-10 3.62701e-13
  42 782.734 -1.95011e-10 1.82705e-13
  43 782.734 -1.95178e-10 -1.55084e-13
  44 782.734 -1.95568e-10 4.86782e-13
  45 782.734 -1.95401e-10 -4.38100e-13
  46 782.734 -1.95056e-10 6.76470e-15
  47 782.734 -1.95361e-10 2.86310e-13
  48 782.734 -1.95591e-10 -1.99089e-14
  49 782.734 -1.95345e-10 -1.58171e-13
  50 782.734 -1.95178e-10 9.33512e-14
  51 782.734 -1.94714e-10 -1.45400e-13
  52 782.734 -1.95234e-10 1.49071e-13
  53 782.734 -1.95085e-10 -1.04614e-14
  54 782.734 -1.94967e-10 -4.88922e-14
  55 782.734 -1.95085e-10 7.00359e-14
  56 782.734 -1.95605e-10 2.31948e-13
  57 782.734 -1.95383e-10 -2.74375e-13
  58 782.734 -1.95308e-10 -2.10803e-13
  59 782.734 -1.95308e-10 2.67129e-13
  60 782.734 -1.95160e-10 -1.99877e-13
  61 782.734 -1.95769e-10 -5.76116e-13
  62 782.734 -1.95412e-10 -7.81990e-14
  63 782.734 -1.95591e-10 -3.51549e-13
  64 782.734 -1.96036e-10 7.20515e-13
  65 782.734 -1.95412e-10 4.75213e-13
  66 782.734 -1.95323e-10 -3.74407e-13
</Section>

newXOutput 103

<Section columns = "stress_xx | stress_yy | stress_xy">
  1 764.079 -1.89069e-10 2.60564e-13
  2 764.079 -1.88206e-10 0.00000
  3 764.079 -1.89285e-10 1.98695e-13
  4 764.079 -1.88637e-10 -4.31641e-13
  5 764.079 -1.88494e-10 7.56348e-13
  6 764.079 -1.88637e-10 1.16190e-12
  7 764.079 -1.87918e-10 6.74562e-13
  8 764.079 -1.88206e-10 2.66030e-14
  9 764.079 -1.88745e-10 -5.78450e-13
  10 764.079 -1.88206e-10 -1.40204e-12
  11 764.079 -1.88637e-10 -4.73297e-13
  12 764.079 -1.88494e-10 -1.96933e-13
  13 764.079 -1.88206e-10 -1.73422e-13
  14 764.079 -1.89069e-10 2.99823e-14
  15 764.079 -1.89717e-10 -7.49556e-14
  16 764.079 -1.89501e-10 7.70041e-14
  17 764.079 -1.89213e-10 5.87669e-13
  18 764.079 -1.88350e-10 3.40322e-13
  19 764.079 -1.88206e-10 9.60347e-13
  20 764.079 -1.87918e-10 1.68152e-12
  21 764.079 -1.87990e-10 5.90852e-13
  22 764.079 -1.88062e-10 -1.79282e-13
  23 764.079 -1.87918e-10 -7.81741e-13
  24 764.079 -1.88206e-10 -1.29151e-12
  25 764.079 -1.88206e-10 -1.20270e-12
  26 764.079 -1.88925e-10 8.08913e-16
  27 764.079 -1.88637e-10 5.99645e-14
  28 764.079 -1.89213e-10 9.25171e-14
  29 764.079 -1.87990e-10 -1.62276e-13
  30 764.079 -1.88551e-10 -2.36283e-13
  31 764.079 -1.87936e-10 1.27422e-13
  32 764.079 -1.87630e-10 -2.73763e-13
  33 764.079 -1.88896e-10 -3.72997e-13
  34 764.079 -1.88810e-10 -1.17545e-13
  35 764.079 -1.88378e-10 4.20014e-13
  36 764.079 -1.88810e-10 5.81006e-13
  37 764.079 -1.88350e-10 -2.14054e-13
  38 764.079 -1.88278e-10 4.98243e-13
  39 764.079 -1.87846e-10 -5.53039e-13
  40 764.079 -1.88709e-10 6.85699e-14
  41 764.079 -1.87702e-10 -1.29315e-13
  42 764.079 -1.87774e-10 4.20437e-13
  43 764.079 -1.88637e-10 -5.25724e-13
  44 764.079 -1.88206e-10 6.75308e-13
  45 764.079 -1.88098e-10 -7.00412e-13
  46 764.079 -1.88551e-10 1.50272e-13
  47 764.079 -1.88514e-10 5.69390e-13
  48 764.079 -1.87774e-10 -5.87885e-14
  49 764.079 -1.89663e-10 1.09838e-13
  50 764.079 -1.89231e-10 4.59238e-14
  51 764.079 -1.87846e-10 1.01158e-14
  52 764.079 -1.88062e-10 -2.38224e-14
  53 764.079 -1.87990e-10 -2.33474e-13
  54 764.079 -1.87860e-10 4.99504e-13
  55 764.079 -1.88925e-10 3.65241e-13
  56 764.079 -1.89357e-10 2.69923e-13
  57 764.079 -1.88637e-10 9.10428e-14
  58 764.079 -1.88781e-10 -3.45815e-13
  59 764.079 -1.88350e-10 -3.90409e-14
  60 764.079 -1.89069e-10 -6.93902e-14
  61 764.079 -1.88206e-10 2.67003e-13
  62 764.079 -1.88119e-10 -8.08171e-13
  63 764.079 -1.88465e-10 8.91483e-13
  64 764.079 -1.88465e-10 1.31678e-13
  65 764.079 -1.88637e-10 -7.13014e-13
  66 764.079 -1.88033e-10 2.54567e-13
</Section>

newXOutput 104

<Section columns = "stress_xx | stress_yy | stress_xy">
  1 745.495 -1.80726e-10 1.34861e-13
  2 745.495 -1.81144e-10 2.13244e-13
  3 745.495 -1.80726e-10 -3.92037e-13
  4 745.495 -1.80935e-10 -1.00604e-13
  5 745.495 -1.81214e-10 -1.87353e-13
  6 745.495 -1.81353e-10 -2.71617e-13
  7 745.495 -1.81214e-10 -4.39670e-13
  8 745.495 -1.81632e-10 -8.72512e-13
  9 745.495 -1.81353e-10 -7.00458e-13
  10 745.495 -1.81771e-10 2.71143e-13
  11 745.495 -1.81248e-10 4.20834e-13
  12 745.495 -1.81492e-10 7.03748e-13
  13 745.495 -1.81910e-10 6.84922e-13
  14 745.495 -1.80796e-10 -2.51843e-13
  15 745.495 -1.80099e-10 -4.34243e-14
  16 745.495 -1.79960e-10 2.19275e-13
  17 745.495 -1.81074e-10 -1.26775e-12
  18 745.495 -1.81353e-10 -1.69347e-12
  19 745.495 -1.81771e-10 -5.88264e-13
  20 745.495 -1.81910e-10 8.19440e-13
  21 745.495 -1.81980e-10 1.34596e-12
  22 745.495 -1.81632e-10 1.41358e-12
  23 745.495 -1.81214e-10 5.20907e-13
  24 745.495 -1.81910e-10 1.13383e-13
  25 745.495 -1.81771e-10 6.75016e-14
  26 745.495 -1.80517e-10 1.17510e-13
  27 745.495 -1.80935e-10 -7.23738e-14
  28 745.495 -1.81214e-10 -8.90023e-14
  29 745.495 -1.81248e-10 -6.60918e-14
  30 745.495 -1.81520e-10 7.31492e-14
  31 745.495 -1.81823e-10 -1.75925e-13
  32 745.495 -1.82049e-10 -9.11715e-13
  33 745.495 -1.81186e-10 -3.07789e-13
  34 745.495 -1.81604e-10 9.47702e-13
  35 745.495 -1.81437e-10 -9.75410e-13
  36 745.495 -1.81102e-10 4.53241e-13
  37 745.495 -1.81701e-10 4.24776e-13
  38 745.495 -1.81980e-10 -5.63029e-13
  39 745.495 -1.81632e-10 4.57593e-13
  40 745.495 -1.81771e-10 3.38542e-13
  41 745.495 -1.81562e-10 -3.95175e-13
  42 745.495 -1.81701e-10 -4.25742e-13
  43 745.495 -1.81092e-10 2.47945e-13
  44 745.495 -1.81666e-10 -1.01550e-12
  45 745.495 -1.81666e-10 8.18389e-13
  46 745.495 -1.81854e-10 -2.52932e-13
  47 745.495 -1.81413e-10 -6.30560e-13
  48 745.495 -1.81687e-10 5.75773e-13
  49 745.495 -1.80517e-10 2.34148e-13
  50 745.495 -1.81040e-10 3.93777e-15
  51 745.495 -1.81840e-10 -2.37982e-13
  52 745.495 -1.81632e-10 -2.62616e-13
  53 745.495 -1.81910e-10 -7.70369e-14
  54 745.495 -1.81854e-10 -2.33892e-13
  55 745.495 -1.81074e-10 -2.93873e-13
  56 745.495 -1.80656e-10 -8.71253e-14
  57 745.495 -1.81353e-10 -1.07091e-13
  58 745.495 -1.81214e-10 2.70295e-13
  59 745.495 -1.81632e-10 -1.66166e-14
  60 745.495 -1.81353e-10 3.19694e-13
  61 745.495 -1.81854e-10 3.52983e-13
  62 745.495 -1.82189e-10 1.01511e-13
  63 745.495 -1.81687e-10 -2.59705e-13
  64 745.495 -1.81102e-10 -1.27319e-12
  65 745.495 -1.81520e-10 -9.06998e-14
  66 745.495 -1.82022e-10 2.58481e-13
</Section>

newXOutput 105

<Section columns = "stress_xx | stress_yy | stress_xy">
  1 726.982 -1.74872e-10 -1.83068e-13
  2 726.982 -1.74872e-10 8.38210e-14
  3 726.982 -1.74872e-10 3.75872e-14
  4 726.982 -1.74872e-10 1.45467e-13
  5 726.982 -1.75344e-10 -6.51328e-13
  6 726.982 -1.74940e-10 -8.36962e-13
  7 726.982 -1.74940e-10 -6.61924e-13
  8 726.982 -1.75075e-10 -3.30800e-13
  9 726.982 -1.75075e-10 2.83268e-13
  10 726.982 -1.74872e-10 4.96201e-13
  11 726.982 -1.74974e-10 4.56457e-13
  12 726.982 -1.74940e-10 6.80228e-13
  13 726.982 -1.74670e-10 5.61395e-13
  14 726.982 -1.74805e-10 3.72538e-14
  15 726.982 -1.74670e-10 -2.79403e-14
  16 726.982 -1.74940e-10 -1.11848e-13
  17 726.982 -1.74670e-10 3.07932e-13
  18 726.982 -1.74805e-10 -5.28166e-14
  19 726.982 -1.74974e-10 -5.16524e-13
  20 726.982 -1.74940e-10 -2.01532e-14
  21 726.982 -1.75075e-10 3.51655e-13
  22 726.982 -1.75075e-10 3.65336e-13
  23 726.982 -1.75075e-10 6.51709e-13
  24 726.982 -1.74670e-10 6.95523e-13
  25 726.982 -1.74805e-10 4.25510e-13
  26 726.982 -1.74940e-10 6.62398e-14
  27 726.982 -1.74872e-10 -4.19105e-14
  28 726.982 -1.74670e-10 -6.46337e-14
  29 726.982 -1.74974e-10 1.24916e-13
  30 726.982 -1.75075e-10 -3.00683e-14
  31 726.982 -1.75125e-10 -1.61368e-13
  32 726.982 -1.75007e-10 -6.30190e-13
  33 726.982 -1.74670e-10 3.12557e-13
  34 726.982 -1.74670e-10 1.53412e-13
  35 726.982 -1.74994e-10 -7.50367e-14
  36 726.982 -1.74670e-10 -4.66863e-13
  37 726.982 -1.75007e-10 3.11570e-13
  38 726.982 -1.74805e-10 -4.29020e-13
  39 726.982 -1.75007e-10 3.57930e-13
  40 726.982 -1.74940e-10 6.06601e-14
  41 726.982 -1.75344e-10 -2.28142e-13
  42 726.982 -1.74940e-10 -4.19346e-13
  43 726.982 -1.74872e-10 4.81454e-13
  44 726.982 -1.74974e-10 -3.54422e-13
  45 726.982 -1.74872e-10 3.94579e-13
  46 726.982 -1.74994e-10 -1.49437e-13
  47 726.982 -1.74844e-10 -4.82171e-13
  48 726.982 -1.75317e-10 2.49309e-13
  49 726.982 -1.74822e-10 -8.56322e-14
  50 726.982 -1.74771e-10 1.74627e-14
  51 726.982 -1.74940e-10 -1.63228e-13
  52 726.982 -1.74805e-10 -1.54047e-14
  53 726.982 -1.74940e-10 1.89255e-13
  54 726.982 -1.74913e-10 -7.29759e-13
  55 726.982 -1.75075e-10 -2.21648e-13
  56 726.982 -1.74805e-10 -1.33080e-13
  57 726.982 -1.74872e-10 2.44726e-13
  58 726.982 -1.74738e-10 1.69929e-13
  59 726.982 -1.75007e-10 8.68619e-14
  60 726.982 -1.74738e-10 -2.39083e-13
  61 726.982 -1.74751e-10 8.89112e-13
  62 726.982 -1.74670e-10 3.59974e-13
  63 726.982 -1.75236e-10 -5.23280e-13
  64 726.982 -1.74751e-10 -2.97139e-13
  65 726.982 -1.74994e-10 4.73124e-13
  66 726.982 -1.74913e-10 -4.21551e-13
</Section>

newXOutput 106

<Section columns = "stress_xx | stress_yy | stress_xy">
  1 708.539 -1.68544e-10 0.00000
  2 708.539 -1.68935e-10 -5.39080e-14
  3 708.539 -1.69131e-10 8.30086e-14
  4 708.539 -1.67957e-10 -6.42342e-14
  5 708.539 -1.68935e-10 9.38837e-15
  6 708.539 -1.68283e-10 -1.40272e-13
  7 708.539 -1.68023e-10 -2.89528e-13
  8 708.539 -1.68414e-10 -2.56719e-13
  9 708.539 -1.68935e-10 3.25568e-13
  10 708.539 -1.68935e-10 9.31880e-13
  11 708.539 -1.68055e-10 6.21531e-13
  12 708.539 -1.68544e-10 7.54105e-14
  13 708.539 -1.69326e-10 -6.25892e-15
  14 708.539 -1.68935e-10 -1.29319e-13
  15 708.539 -1.68544e-10 -5.39080e-14
  16 708.539 -1.68805e-10 -1.57232e-14
  17 708.539 -1.68935e-10 1.63859e-13
  18 708.539 -1.68935e-10 2.91538e-13
  19 708.539 -1.68349e-10 2.46916e-13
  20 708.539 -1.68935e-10 -6.08009e-13
  21 708.539 -1.69326e-10 -5.16429e-13
  22 708.539 -1.68935e-10 -1.57820e-13
  23 708.539 -1.68935e-10 -2.94118e-14
  24 708.539 -1.68935e-10 -2.88039e-13
  25 708.539 -1.68283e-10 -1.98660e-13
  26 708.539 -1.68544e-10 -1.19123e-14
  27 708.539 -1.68935e-10 -5.39080e-14
  28 708.539 -1.68674e-10 -4.42798e-14
  29 708.539 -1.68935e-10 2.47182e-13
  30 708.539 -1.68779e-10 -3.75567e-13
  31 708.539 -1.68837e-10 9.81991e-14
  32 708.539 -1.68674e-10 7.07543e-14
  33 708.539 -1.69170e-10 1.12661e-13
  34 708.539 -1.68935e-10 1.63670e-13
  35 708.539 -1.68857e-10 -1.85270e-14
  36 708.539 -1.68309e-10 -4.46679e-13
  37 708.539 -1.68349e-10 2.03404e-13
  38 708.539 -1.68544e-10 -1.27877e-13
  39 708.539 -1.68935e-10 1.41110e-14
  40 708.539 -1.68740e-10 -2.62151e-15
  41 708.539 -1.69065e-10 7.23615e-14
  42 708.539 -1.68544e-10 -1.15034e-13
  43 708.539 -1.68446e-10 3.39198e-13
  44 708.539 -1.68495e-10 9.15476e-15
  45 708.539 -1.68935e-10 4.22469e-14
  46 708.539 -1.68779e-10 -1.32722e-13
  47 708.539 -1.68488e-10 -2.97395e-13
  48 708.539 -1.68857e-10 -5.77871e-14
  49 708.539 -1.68837e-10 1.91364e-14
  50 708.539 -1.69082e-10 8.29487e-14
  51 708.539 -1.68935e-10 2.91797e-14
  52 708.539 -1.68935e-10 1.76410e-13
  53 708.539 -1.68805e-10 -1.36382e-13
  54 708.539 -1.68388e-10 2.65753e-14
  55 708.539 -1.68674e-10 -5.00781e-14
  56 708.539 -1.69000e-10 -2.09629e-13
  57 708.539 -1.68935e-10 -5.50941e-14
  58 708.539 -1.68414e-10 3.91158e-15
  59 708.539 -1.69131e-10 2.06655e-13
  60 708.539 -1.68870e-10 3.94954e-14
  61 708.539 -1.68857e-10 -1.41009e-13
  62 708.539 -1.68700e-10 -8.06841e-14
  63 708.539 -1.68466e-10 -1.90881e-13
  64 708.539 -1.68779e-10 -2.33123e-13
  65 708.539 -1.68544e-10 5.99847e-13
  66 708.539 -1.69092e-10 -3.33460e-13
</Section>

newXOutput 107

<Section columns = "stress_xx | stress_yy | stress_xy">
  1 690.166 -1.62552e-10 -8.42449e-15
  2 690.166 -1.62174e-10 -1.40523e-13
  3 690.166 -1.61796e-10 1.03987e-13
  4 690.166 -1.62174e-10 1.28245e-13
  5 690.166 -1.62048e-10 8.45412e-14
  6 690.166 -1.62300e-10 -3.77002e-14
  7 690.166 -1.62048e-10 3.51308e-14
  8 690.166 -1.62300e-10 -6.41677e-14
  9 690.166 -1.62363e-10 5.61920e-14
  10 690.166 -1.62174e-10 1.03960e-13
  11 690.166 -1.61985e-10 8.44671e-14
  12 690.166 -1.62300e-10 -1.31860e-13
  13 690.166 -1.62300e-10 -3.85006e-13
  14 690.166 -1.62300e-10 2.02780e-13
  15 690.166 -1.62552e-10 9.09646e-14
  16 690.166 -1.62048e-10 -1.34833e-13
  17 690.166 -1.62048e-10 -2.72109e-14
  18 690.166 -1.61796e-10 -5.49272e-13
  19 690.166 -1.61985e-10 -5.75978e-13
  20 690.166 -1.61922e-10 -6.85596e-13
  21 690.166 -1.62269e-10 2.16219e-13
  22 690.166 -1.62300e-10 4.24210e-13
  23 690.166 -1.62048e-10 6.47471e-13
  24 690.166 -1.62048e-10 5.85447e-13
  25 690.166 -1.61796e-10 4.05495e-13
  26 690.166 -1.62552e-10 -5.93584e-14
  27 690.166 -1.62552e-10 -4.73317e-29
  28 690.166 -1.62552e-10 -5.11357e-14
  29 690.166 -1.62174e-10 -3.80602e-13
  30 690.166 -1.62174e-10 1.66577e-13
  31 690.166 -1.62363e-10 -1.98107e-13
  32 690.166 -1.61796e-10 2.96388e-13
  33 690.166 -1.62174e-10 1.00931e-13
  34 690.166 -1.62250e-10 3.69454e-14
  35 690.166 -1.61948e-10 -1.84783e-13
  36 690.166 -1.62250e-10 1.89484e-13
  37 690.166 -1.62111e-10 6.92374e-14
  38 690.166 -1.62174e-10 -2.00332e-13
  39 690.166 -1.62048e-10 1.47741e-13
  40 690.166 -1.62237e-10 -4.57355e-14
  41 690.166 -1.62174e-10 2.91084e-13
  42 690.166 -1.62048e-10 -3.87068e-14
  43 690.166 -1.62174e-10 1.30710e-13
  44 690.166 -1.62080e-10 -2.40278e-13
  45 690.166 -1.62174e-10 1.99140e-13
  46 690.166 -1.62401e-10 -2.31945e-13
  47 690.166 -1.62066e-10 -1.37453e-13
  48 690.166 -1.62250e-10 2.95229e-13
  49 690.166 -1.62033e-10 9.82743e-14
  50 690.166 -1.62363e-10 -8.09744e-14
  51 690.166 -1.61922e-10 2.20605e-14
  52 690.166 -1.62048e-10 -3.79153e-13
  53 690.166 -1.61922e-10 2.34116e-13
  54 690.166 -1.61948e-10 -3.58369e-13
  55 690.166 -1.62300e-10 -7.57400e-14
  56 690.166 -1.62174e-10 -1.43446e-14
  57 690.166 -1.62174e-10 1.18359e-13
  58 690.166 -1.62174e-10 1.11998e-13
  59 690.166 -1.62174e-10 -2.18465e-13
  60 690.166 -1.62048e-10 8.63571e-14
  61 690.166 -1.62401e-10 -1.18046e-13
  62 690.166 -1.62099e-10 4.66015e-13
  63 690.166 -1.61948e-10 -1.28667e-13
  64 690.166 -1.62250e-10 -1.27457e-13
  65 690.166 -1.62477e-10 1.73406e-13
  66 690.166 -1.61872e-10 -9.34952e-14
</Section>

newXOutput 108

<Section columns = "stress_xx | stress_yy | stress_xy">
  1 671.863 -1.57422e-10 -1.34949e-13
  2 671.863 -1.57605e-10 -7.51420e-14
  3 671.863 -1.57240e-10 1.90407e-13
  4 671.863 -1.56509e-10 -1.60304e-13
  5 671.863 -1.57544e-10 -2.78248e-13
  6 671.863 -1.56448e-10 1.66982e-14
  7 671.863 -1.56327e-10 8.75469e-14
  8 671.863 -1.57057e-10 6.24996e-14
  9 671.863 -1.56874e-10 1.31730e-13
  10 671.863 -1.57422e-10 -2.35957e-13
  11 671.863 -1.57788e-10 -3.26255e-13
  12 671.863 -1.57301e-10 -6.82824e-13
  13 671.863 -1.57422e-10 -3.03841e-13
  14 671.863 -1.57544e-10 -1.00189e-13
  15 671.863 -1.57422e-10 -1.62808e-13
  16 671.863 -1.57544e-10 -9.39275e-14
  17 671.863 -1.57301e-10 8.18413e-13
  18 671.863 -1.57179e-10 6.53643e-13
  19 671.863 -1.57605e-10 5.30829e-13
  20 671.863 -1.57179e-10 4.94335e-13
  21 671.863 -1.57605e-10 3.50252e-13
  22 671.863 -1.57422e-10 -3.10857e-13
  23 671.863 -1.57057e-10 -1.54319e-13
  24 671.863 -1.56935e-10 -2.01317e-13
  25 671.863 -1.56935e-10 -3.07460e-13
  26 671.863 -1.57179e-10 1.37334e-14
  27 671.863 -1.57788e-10 3.75710e-14
  28 671.863 -1.57301e-10 8.38705e-14
  29 671.863 -1.57605e-10 4.17526e-14
  30 671.863 -1.56984e-10 -1.20398e-13
  31 671.863 -1.56920e-10 3.75598e-14
  32 671.863 -1.56692e-10 1.61527e-13
  33 671.863 -1.57714e-10 -4.52403e-13
  34 671.863 -1.57276e-10 -5.67557e-14
  35 671.863 -1.56692e-10 3.59425e-13
  36 671.863 -1.57641e-10 1.99041e-13
  37 671.863 -1.56753e-10 6.30926e-14
  38 671.863 -1.56692e-10 1.89456e-13
  39 671.863 -1.57422e-10 -2.39563e-13
  40 671.863 -1.56387e-10 1.85871e-13
  41 671.863 -1.57301e-10 1.79174e-13
  42 671.863 -1.57179e-10 3.02699e-13
  43 671.863 -1.57148e-10 -2.60604e-13
  44 671.863 -1.56646e-10 2.68955e-13
  45 671.863 -1.57240e-10 -1.97262e-13
  46 671.863 -1.56619e-10 1.85346e-13
  47 671.863 -1.57422e-10 3.35106e-13
  48 671.863 -1.57349e-10 -5.00344e-14
  49 671.863 -1.57605e-10 -2.70397e-13
  50 671.863 -1.57468e-10 9.43766e-14
  51 671.863 -1.56692e-10 -1.70920e-13
  52 671.863 -1.57118e-10 -3.07084e-14
  53 671.863 -1.56327e-10 -1.49193e-13
  54 671.863 -1.57057e-10 4.76142e-13
  55 671.863 -1.56874e-10 2.91389e-14
  56 671.863 -1.57544e-10 1.80072e-13
  57 671.863 -1.57666e-10 -1.37037e-13
  58 671.863 -1.56753e-10 -7.49012e-14
  59 671.863 -1.57727e-10 6.89264e-14
  60 671.863 -1.57422e-10 -1.55478e-13
  61 671.863 -1.57495e-10 -1.45260e-13
  62 671.863 -1.56765e-10 -1.08301e-13
  63 671.863 -1.56546e-10 3.80157e-14
  64 671.863 -1.57495e-10 4.19951e-13
  65 671.863 -1.57203e-10 8.31115e-14
  66 671.863 -1.57130e-10 5.23377e-13
</Section>

newXOutput 109

<Section columns = "stress_xx | stress_yy | stress_xy">
  1 653.630 -1.52545e-10 5.90632e-13
  2 653.630 -1.51664e-10 -4.31081e-13
  3 653.630 -1.50253e-10 -2.70533e-13
  4 653.630 -1.51487e-10 2.00649e-14
  5 653.630 -1.51899e-10 1.39893e-12
  6 653.630 -1.51664e-10 1.92052e-12
  7 653.630 -1.50253e-10 1.65665e-12
  8 653.630 -1.51076e-10 6.28947e-13
  9 653.630 -1.50782e-10 -3.50966e-13
  10 653.630 -1.51135e-10 -1.10024e-12
  11 653.630 -1.50870e-10 -1.29336e-12
  12 653.630 -1.50958e-10 -1.14394e-12
  13 653.630 -1.51899e-10 -6.30007e-13
  14 653.630 -1.51076e-10 -1.03484e-13
  15 653.630 -1.51311e-10 -1.20629e-14
  16 653.630 -1.50841e-10 2.73314e-13
  17 653.630 -1.51546e-10 -6.98679e-13
  18 653.630 -1.51429e-10 -8.85405e-13
  19 653.630 -1.51487e-10 -3.42087e-13
  20 653.630 -1.50723e-10 2.87973e-13
  21 653.630 -1.50870e-10 4.18302e-13
  22 653.630 -1.50606e-10 1.39387e-13
  23 653.630 -1.51311e-10 1.41590e-13
  24 653.630 -1.51546e-10 2.16665e-13
  25 653.630 -1.51546e-10 8.22744e-14
  26 653.630 -1.51429e-10 -7.41225e-14
  27 653.630 -1.51311e-10 -1.44754e-13
  28 653.630 -1.52839e-10 -5.31836e-14
  29 653.630 -1.51311e-10 -1.01741e-12
  30 653.630 -1.51382e-10 8.30945e-13
  31 653.630 -1.50738e-10 -7.81092e-14
  32 653.630 -1.51135e-10 1.87554e-13
  33 653.630 -1.51805e-10 -2.75129e-13
  34 653.630 -1.51523e-10 -2.96776e-13
  35 653.630 -1.51946e-10 -2.63346e-13
  36 653.630 -1.51734e-10 7.12192e-13
  37 653.630 -1.51252e-10 -1.68438e-13
  38 653.630 -1.50841e-10 5.46833e-13
  39 653.630 -1.50841e-10 -2.98196e-13
  40 653.630 -1.50782e-10 3.13077e-13
  41 653.630 -1.51135e-10 -9.74735e-14
  42 653.630 -1.51076e-10 4.13621e-13
  43 653.630 -1.51091e-10 -3.94503e-13
  44 653.630 -1.51135e-10 2.71669e-13
  45 653.630 -1.51443e-10 -3.14001e-13
  46 653.630 -1.50535e-10 3.69276e-13
  47 653.630 -1.51361e-10 2.21370e-13
  48 653.630 -1.50747e-10 -1.31182e-13
  49 653.630 -1.51664e-10 3.35614e-13
  50 653.630 -1.52105e-10 -3.54335e-13
  51 653.630 -1.51664e-10 2.84445e-13
  52 653.630 -1.51017e-10 -7.31641e-13
  53 653.630 -1.51193e-10 6.37089e-13
  54 653.630 -1.51029e-10 -1.17571e-13
  55 653.630 -1.52487e-10 3.92694e-13
  56 653.630 -1.51487e-10 1.64092e-13
  57 653.630 -1.51781e-10 -3.01386e-13
  58 653.630 -1.51487e-10 -8.10191e-14
  59 653.630 -1.51605e-10 -8.46129e-13
  60 653.630 -1.51546e-10 6.19469e-13
  61 653.630 -1.51523e-10 -6.70339e-13
  62 653.630 -1.51382e-10 3.19795e-14
  63 653.630 -1.51664e-10 1.30833e-12
  64 653.630 -1.51664e-10 -4.61919e-13
  65 653.630 -1.51099e-10 -7.92926e-13
  66 653.630 -1.50958e-10 2.01600e-13
</Section>

newXOutput 110

<Section columns = "stress_xx | stress_yy | stress_xy">
  1 635.465 -1.45349e-10 1.02299e-13
  2 635.465 -1.45349e-10 -2.32244e-14
  3 635.465 -1.45178e-10 1.66658e-13
  4 635.465 -1.45349e-10 -2.89302e-14
  5 635.465 -1.45349e-10 2.26348e-13
  6 635.465 -1.45122e-10 1.71494e-13
  7 635.465 -1.45122e-10 9.91652e-14
  8 635.465 -1.45122e-10 -6.04578e-14
  9 635.465 -1.45178e-10 -1.29726e-13
  10 635.465 -1.45349e-10 -1.72968e-13
  11 635.465 -1.45349e-10 -2.56853e-13
  12 635.465 -1.45122e-10 6.88631e-14
  13 635.465 -1.45349e-10 7.44667e-14
  14 635.465 -1.45349e-10 0.00000
  15 635.465 -1.45349e-10 -2.32244e-14
  16 635.465 -1.45802e-10 -8.24107e-14
  17 635.465 -1.45122e-10 8.27909e-13
  18 635.465 -1.45235e-10 1.02076e-12
  19 635.465 -1.45349e-10 7.64842e-13
  20 635.465 -1.45122e-10 5.31589e-13
  21 635.465 -1.45008e-10 -5.88324e-14
  22 635.465 -1.44895e-10 -5.74952e-13
  23 635.465 -1.45349e-10 -4.22622e-13
  24 635.465 -1.45349e-10 -2.81440e-13
  25 635.465 -1.45349e-10 -1.32081e-13
  26 635.465 -1.45575e-10 -5.34533e-14
  27 635.465 -1.46029e-10 -1.16122e-13
  28 635.465 -1.45802e-10 -2.30951e-14
  29 635.465 -1.45349e-10 1.03607e-13
  30 635.465 -1.45212e-10 -3.39674e-13
  31 635.465 -1.45221e-10 1.87329e-13
  32 635.465 -1.44951e-10 2.73101e-13
  33 635.465 -1.45893e-10 -8.74471e-13
  34 635.465 -1.45621e-10 -1.99604e-13
  35 635.465 -1.45621e-10 1.62396e-13
  36 635.465 -1.45553e-10 -8.45941e-15
  37 635.465 -1.45235e-10 -2.77264e-13
  38 635.465 -1.45349e-10 2.35177e-13
  39 635.465 -1.45235e-10 -3.00253e-13
  40 635.465 -1.45349e-10 1.39256e-14
  41 635.465 -1.44895e-10 4.89525e-14
  42 635.465 -1.45292e-10 4.50788e-13
  43 635.465 -1.45263e-10 -6.18532e-13
  44 635.465 -1.45263e-10 2.81202e-13
  45 635.465 -1.45434e-10 -2.92853e-13
  46 635.465 -1.45212e-10 1.24860e-13
  47 635.465 -1.45154e-10 4.66794e-13
  48 635.465 -1.44940e-10 -2.71505e-13
  49 635.465 -1.45774e-10 -2.13341e-13
  50 635.465 -1.45774e-10 -2.85454e-15
  51 635.465 -1.45235e-10 3.94416e-14
  52 635.465 -1.45349e-10 1.67251e-13
  53 635.465 -1.45235e-10 -2.87144e-13
  54 635.465 -1.45212e-10 5.64415e-13
  55 635.465 -1.45575e-10 1.07967e-13
  56 635.465 -1.45575e-10 1.14739e-13
  57 635.465 -1.45802e-10 -3.19688e-13
  58 635.465 -1.45462e-10 -1.24716e-13
  59 635.465 -1.45575e-10 7.97447e-14
  60 635.465 -1.45292e-10 -4.41053e-13
  61 635.465 -1.45621e-10 -3.33936e-13
  62 635.465 -1.45485e-10 -2.54828e-13
  63 635.465 -1.45349e-10 1.41649e-13
  64 635.465 -1.45076e-10 7.09674e-13
  65 635.465 -1.45349e-10 -1.54510e-13
  66 635.465 -1.44872e-10 2.16189e-13
</Section>

newXOutput 111

<Section columns = "stress_xx | stress_yy | stress_xy">
  1 617.370 -1.39695e-10 -2.40826e-13
  2 617.370 -1.39531e-10 3.45451e-13
  3 617.370 -1.40023e-10 3.52053e-13
  4 617.370 -1.39695e-10 -1.94019e-13
  5 617.370 -1.39202e-10 -5.90785e-13
  6 617.370 -1.39312e-10 -5.02843e-13
  7 617.370 -1.39531e-10 -3.12201e-14
  8 617.370 -1.38984e-10 2.34451e-13
  9 617.370 -1.39038e-10 4.53256e-14
  10 617.370 -1.38874e-10 1.22021e-13
  11 617.370 -1.39202e-10 2.66818e-13
  12 617.370 -1.38655e-10 3.29403e-13
  13 617.370 -1.38436e-10 4.18774e-13
  14 617.370 -1.39859e-10 -2.07381e-13
  15 617.370 -1.40023e-10 -8.93718e-14
  16 617.370 -1.40297e-10 6.83142e-14
  17 617.370 -1.40078e-10 1.05770e-12
  18 617.370 -1.39640e-10 1.30991e-12
  19 617.370 -1.38546e-10 8.43696e-13
  20 617.370 -1.38765e-10 3.84176e-13
  21 617.370 -1.39038e-10 -4.50452e-14
  22 617.370 -1.38655e-10 -7.97611e-13
  23 617.370 -1.38874e-10 -9.08433e-13
  24 617.370 -1.39531e-10 -7.15752e-13
  25 617.370 -1.39859e-10 -5.28586e-13
  26 617.370 -1.40078e-10 3.00907e-15
  27 617.370 -1.39531e-10 8.93718e-14
  28 617.370 -1.39750e-10 1.75158e-13
  29 617.370 -1.39449e-10 5.91994e-13
  30 617.370 -1.39399e-10 -4.57022e-13
  31 617.370 -1.38997e-10 1.43232e-13
  32 617.370 -1.38929e-10 1.97462e-13
  33 617.370 -1.39202e-10 -6.06341e-13
  34 617.370 -1.39399e-10 -2.20418e-13
  35 617.370 -1.39006e-10 6.56986e-13
  36 617.370 -1.39728e-10 -5.69781e-14
  37 617.370 -1.39148e-10 -3.20063e-13
  38 617.370 -1.39093e-10 3.06962e-13
  39 617.370 -1.38765e-10 -3.20870e-13
  40 617.370 -1.39312e-10 -1.14897e-13
  41 617.370 -1.38765e-10 7.78400e-14
  42 617.370 -1.38819e-10 3.23046e-13
  43 617.370 -1.39326e-10 -2.63305e-13
  44 617.370 -1.39120e-10 4.32074e-13
  45 617.370 -1.39244e-10 -3.39797e-13
  46 617.370 -1.39006e-10 2.60164e-13
  47 617.370 -1.39296e-10 3.31576e-13
  48 617.370 -1.38940e-10 -2.63676e-13
  49 617.370 -1.39900e-10 -1.55270e-13
  50 617.370 -1.39859e-10 3.15010e-13
  51 617.370 -1.39202e-10 -2.55650e-13
  52 617.370 -1.39257e-10 5.14983e-13
  53 617.370 -1.39312e-10 -3.81506e-13
  54 617.370 -1.38546e-10 3.86397e-13
  55 617.370 -1.39531e-10 7.36867e-14
  56 617.370 -1.39804e-10 3.84956e-13
  57 617.370 -1.39093e-10 -2.01582e-13
  58 617.370 -1.39804e-10 -2.92342e-13
  59 617.370 -1.39202e-10 6.36186e-13
  60 617.370 -1.39804e-10 -2.65059e-13
  61 617.370 -1.38809e-10 4.33058e-14
  62 617.370 -1.39399e-10 -6.53052e-13
  63 617.370 -1.38677e-10 -3.16004e-13
  64 617.370 -1.39662e-10 6.12639e-13
  65 617.370 -1.39202e-10 5.52520e-14
  66 617.370 -1.38546e-10 1.97757e-13
</Section>

newXOutput 112

<Section columns = "stress_xx | stress_yy | stress_xy">
  1 599.343 -1.34961e-10 6.18504e-13
  2 599.343 -1.34645e-10 -6.85227e-13
  3 599.343 -1.33696e-10 -3.72572e-13
  4 599.343 -1.33696e-10 4.13321e-13
  5 599.343 -1.35014e-10 1.37461e-12
  6 599.343 -1.35120e-10 2.18121e-12
  7 599.343 -1.34592e-10 2.15597e-12
  8 599.343 -1.33748e-10 1.64979e-12
  9 599.343 -1.33854e-10 1.80907e-14
  10 599.343 -1.34487e-10 -1.17713e-12
  11 599.343 -1.34091e-10 -1.88780e-12
  12 599.343 -1.34170e-10 -2.02632e-12
  13 599.343 -1.34698e-10 -1.39838e-12
  14 599.343 -1.34803e-10 3.35812e-13
  15 599.343 -1.34645e-10 2.79249e-13
  16 599.343 -1.33748e-10 1.18144e-13
  17 599.343 -1.33854e-10 -1.24156e-12
  18 599.343 -1.34170e-10 -2.25630e-12
  19 599.343 -1.35041e-10 -1.90617e-12
  20 599.343 -1.34909e-10 -6.65668e-13
  21 599.343 -1.34724e-10 9.15479e-13
  22 599.343 -1.34170e-10 1.71454e-12
  23 599.343 -1.34381e-10 1.80308e-12
  24 599.343 -1.33854e-10 1.62299e-12
  25 599.343 -1.34381e-10 1.07385e-12
  26 599.343 -1.33643e-10 -2.33288e-13
  27 599.343 -1.34487e-10 -2.79249e-13
  28 599.343 -1.35120e-10 -6.73726e-14
  29 599.343 -1.34170e-10 -2.05510e-12
  30 599.343 -1.34170e-10 1.87923e-12
  31 599.343 -1.33854e-10 -9.69891e-13
  32 599.343 -1.35278e-10 1.47009e-13
  33 599.343 -1.34677e-10 5.49233e-13
  34 599.343 -1.34044e-10 -3.00002e-13
  35 599.343 -1.34993e-10 -6.22092e-13
  36 599.343 -1.33664e-10 6.27986e-13
  37 599.343 -1.33696e-10 8.85207e-14
  38 599.343 -1.34065e-10 7.62879e-14
  39 599.343 -1.34487e-10 1.14729e-13
  40 599.343 -1.33326e-10 1.33852e-14
  41 599.343 -1.35225e-10 -5.79643e-14
  42 599.343 -1.34434e-10 2.05249e-13
  43 599.343 -1.34170e-10 6.71985e-14
  44 599.343 -1.34724e-10 -2.98154e-13
  45 599.343 -1.34289e-10 4.17935e-14
  46 599.343 -1.33664e-10 4.00614e-13
  47 599.343 -1.34080e-10 -1.90959e-13
  48 599.343 -1.34613e-10 3.92413e-13
  49 599.343 -1.34368e-10 6.93017e-13
  50 599.343 -1.34447e-10 -6.58895e-13
  51 599.343 -1.34223e-10 5.26407e-13
  52 599.343 -1.34223e-10 -2.03334e-12
  53 599.343 -1.34434e-10 1.70327e-12
  54 599.343 -1.35310e-10 -9.71625e-13
  55 599.343 -1.35225e-10 4.22493e-13
  56 599.343 -1.33696e-10 -3.14470e-13
  57 599.343 -1.34803e-10 -1.79919e-13
  58 599.343 -1.34012e-10 1.98267e-13
  59 599.343 -1.34381e-10 -1.72458e-12
  60 599.343 -1.33959e-10 1.62670e-12
  61 599.343 -1.34677e-10 -1.12367e-12
  62 599.343 -1.34297e-10 9.91384e-13
  63 599.343 -1.35246e-10 1.52375e-12
  64 599.343 -1.33664e-10 -1.29869e-12
  65 599.343 -1.33727e-10 -1.19029e-12
  66 599.343 -1.35626e-10 -4.93239e-14
</Section>

newXOutput 113

<Section columns = "stress_xx | stress_yy | stress_xy">
  1 581.383 -1.28619e-10 -3.43880e-13
  2 581.383 -1.28619e-10 3.91632e-13
  3 581.383 -1.29686e-10 2.72269e-13
  4 581.383 -1.29076e-10 -4.19770e-13
  5 581.383 -1.28822e-10 -6.88560e-13
  6 581.383 -1.28619e-10 -7.28876e-13
  7 581.383 -1.28314e-10 -8.01027e-13
  8 581.383 -1.28924e-10 -6.27450e-13
  9 581.383 -1.28924e-10 -5.97552e-14
  10 581.383 -1.28924e-10 4.22352e-13
  11 581.383 -1.28924e-10 8.15185e-13
  12 581.383 -1.28822e-10 9.78766e-13
  13 581.383 -1.28720e-10 7.48712e-13
  14 581.383 -1.29025e-10 3.43951e-14
  15 581.383 -1.29838e-10 -1.03185e-13
  16 581.383 -1.29432e-10 -8.75502e-14
  17 581.383 -1.28924e-10 9.47768e-13
  18 581.383 -1.28822e-10 1.30937e-12
  19 581.383 -1.28695e-10 1.02136e-12
  20 581.383 -1.28619e-10 8.47578e-13
  21 581.383 -1.28847e-10 1.61630e-13
  22 581.383 -1.28619e-10 -6.64043e-13
  23 581.383 -1.28822e-10 -1.00532e-12
  24 581.383 -1.29228e-10 -1.17266e-12
  25 581.383 -1.29228e-10 -9.27423e-13
  26 581.383 -1.29330e-10 8.29488e-14
  27 581.383 -1.28924e-10 1.85734e-13
  28 581.383 -1.28720e-10 1.68819e-13
  29 581.383 -1.29000e-10 9.63507e-13
  30 581.383 -1.28802e-10 -9.61049e-13
  31 581.383 -1.28771e-10 3.40339e-13
  32 581.383 -1.28416e-10 -3.20830e-13
  33 581.383 -1.28558e-10 -6.46444e-14
  34 581.383 -1.28863e-10 2.33931e-13
  35 581.383 -1.28680e-10 3.75274e-13
  36 581.383 -1.28680e-10 -6.54637e-13
  37 581.383 -1.28924e-10 9.30410e-14
  38 581.383 -1.28771e-10 1.05790e-13
  39 581.383 -1.28771e-10 -1.62740e-13
  40 581.383 -1.28974e-10 1.31843e-13
  41 581.383 -1.28771e-10 -1.04772e-13
  42 581.383 -1.28670e-10 -9.04545e-14
  43 581.383 -1.28886e-10 8.12268e-14
  44 581.383 -1.28733e-10 1.41780e-13
  45 581.383 -1.28847e-10 -5.82845e-14
  46 581.383 -1.29046e-10 2.49287e-14
  47 581.383 -1.28662e-10 1.32549e-13
  48 581.383 -1.28741e-10 -1.60249e-13
  49 581.383 -1.28924e-10 -3.09906e-13
  50 581.383 -1.29000e-10 3.68188e-13
  51 581.383 -1.28517e-10 -6.23148e-13
  52 581.383 -1.28822e-10 8.74727e-13
  53 581.383 -1.28771e-10 -1.10759e-12
  54 581.383 -1.28619e-10 7.99402e-13
  55 581.383 -1.28568e-10 -8.35725e-14
  56 581.383 -1.28974e-10 -8.10618e-14
  57 581.383 -1.28466e-10 2.73448e-13
  58 581.383 -1.29178e-10 -2.51653e-13
  59 581.383 -1.28924e-10 8.03008e-13
  60 581.383 -1.28924e-10 -5.82740e-13
  61 581.383 -1.28497e-10 6.63956e-13
  62 581.383 -1.29046e-10 -7.73307e-13
  63 581.383 -1.28741e-10 -4.58061e-13
  64 581.383 -1.28741e-10 5.20397e-13
  65 581.383 -1.29046e-10 4.70873e-13
  66 581.383 -1.28558e-10 4.57338e-13
</Section>

newXOutput 114

<Section columns = "stress_xx | stress_yy | stress_xy">
  1 563.492 -1.21881e-10 -1.42190e-12
  2 563.492 -1.22321e-10 1.13948e-12
  3 563.492 -1.25694e-10 1.77928e-12
  4 563.492 -1.24814e-10 -1.14976e-12
  5 563.492 -1.23299e-10 -3.34382e-12
  6 563.492 -1.23983e-10 -4.40408e-12
  7 563.492 -1.24081e-10 -4.11547e-12
  8 563.492 -1.23983e-10 -2.88435e-12
  9 563.492 -1.24521e-10 -2.43364e-13
  10 563.492 -1.23054e-10 1.69446e-12
  11 563.492 -1.23861e-10 3.50029e-12
  12 563.492 -1.23494e-10 3.83476e-12
  13 563.492 -1.23103e-10 2.60771e-12
  14 563.492 -1.22321e-10 -4.49152e-13
  15 563.492 -1.24081e-10 -5.74538e-13
  16 563.492 -1.25254e-10 -3.63272e-13
  17 563.492 -1.24765e-10 4.24733e-12
  18 563.492 -1.23592e-10 5.81383e-12
  19 563.492 -1.23201e-10 5.21150e-12
  20 563.492 -1.23201e-10 3.29466e-12
  21 563.492 -1.21368e-10 -9.73099e-13
  22 563.492 -1.23005e-10 -3.97891e-12
  23 563.492 -1.23299e-10 -4.74220e-12
  24 563.492 -1.23885e-10 -4.55166e-12
  25 563.492 -1.23885e-10 -2.97498e-12
  26 563.492 -1.25254e-10 3.02164e-13
  27 563.492 -1.23788e-10 5.54727e-13
  28 563.492 -1.22028e-10 4.39657e-13
  29 563.492 -1.24081e-10 4.61509e-12
  30 563.492 -1.23788e-10 -4.56827e-12
  31 563.492 -1.24044e-10 1.59889e-12
  32 563.492 -1.22125e-10 -1.00599e-12
  33 563.492 -1.22497e-10 -1.35123e-12
  34 563.492 -1.24902e-10 8.06956e-13
  35 563.492 -1.22438e-10 1.57863e-12
  36 563.492 -1.25430e-10 -1.34035e-12
  37 563.492 -1.24472e-10 -3.92681e-14
  38 563.492 -1.24570e-10 1.31988e-13
  39 563.492 -1.23152e-10 -7.98883e-13
  40 563.492 -1.25645e-10 2.42322e-13
  41 563.492 -1.21539e-10 -3.07059e-13
  42 563.492 -1.23054e-10 -3.80380e-13
  43 563.492 -1.23641e-10 -5.83852e-13
  44 563.492 -1.23788e-10 6.67278e-13
  45 563.492 -1.24044e-10 -1.19363e-13
  46 563.492 -1.24902e-10 -3.38063e-13
  47 563.492 -1.23955e-10 8.72890e-13
  48 563.492 -1.22380e-10 -1.39847e-12
  49 563.492 -1.23898e-10 -1.59014e-12
  50 563.492 -1.23751e-10 1.57837e-12
  51 563.492 -1.23543e-10 -1.69374e-12
  52 563.492 -1.24081e-10 4.28379e-12
  53 563.492 -1.23250e-10 -4.31422e-12
  54 563.492 -1.22849e-10 2.94172e-12
  55 563.492 -1.21979e-10 -7.21791e-13
  56 563.492 -1.25694e-10 9.06141e-13
  57 563.492 -1.22272e-10 5.92968e-13
  58 563.492 -1.25059e-10 -7.86784e-13
  59 563.492 -1.23836e-10 3.95541e-12
  60 563.492 -1.23934e-10 -3.81804e-12
  61 563.492 -1.23025e-10 2.64774e-12
  62 563.492 -1.24374e-10 -2.97703e-12
  63 563.492 -1.23025e-10 -2.98041e-12
  64 563.492 -1.24726e-10 3.34587e-12
  65 563.492 -1.24609e-10 2.00158e-12
  66 563.492 -1.21852e-10 1.15955e-12
</Section>

newXOutput 115

<Section columns = "stress_xx | stress_yy | stress_xy">
  1 545.668 -1.18336e-10 -3.46274e-13
  2 545.668 -1.17913e-10 3.23669e-13
  3 545.668 -1.19888e-10 2.41878e-13
  4 545.668 -1.20029e-10 -3.74798e-13
  5 545.668 -1.18289e-10 -8.59718e-13
  6 545.668 -1.18477e-10 -1.41530e-12
  7 545.668 -1.18665e-10 -1.37043e-12
  8 545.668 -1.18759e-10 -9.88012e-13
  9 545.668 -1.18971e-10 -1.61184e-13
  10 545.668 -1.19324e-10 5.14311e-13
  11 545.668 -1.18830e-10 1.17720e-12
  12 545.668 -1.18571e-10 1.39683e-12
  13 545.668 -1.18383e-10 1.10464e-12
  14 545.668 -1.18007e-10 -1.07890e-13
  15 545.668 -1.18336e-10 -1.33028e-13
  16 545.668 -1.19135e-10 -6.65138e-14
  17 545.668 -1.19041e-10 1.32265e-12
  18 545.668 -1.18383e-10 1.96626e-12
  19 545.668 -1.18548e-10 1.33420e-12
  20 545.668 -1.18947e-10 4.72095e-13
  21 545.668 -1.18618e-10 -2.54331e-13
  22 545.668 -1.18383e-10 -1.21421e-12
  23 545.668 -1.18383e-10 -1.41803e-12
  24 545.668 -1.18571e-10 -1.40037e-12
  25 545.668 -1.19230e-10 -9.64825e-13
  26 545.668 -1.19230e-10 7.85167e-14
  27 545.668 -1.18336e-10 1.33028e-13
  28 545.668 -1.18195e-10 1.30778e-13
  29 545.668 -1.18477e-10 1.46605e-12
  30 545.668 -1.18534e-10 -1.39604e-12
  31 545.668 -1.18795e-10 5.65825e-13
  32 545.668 -1.18195e-10 -1.71481e-13
  33 545.668 -1.18364e-10 -8.58871e-13
  34 545.668 -1.18759e-10 3.80524e-13
  35 545.668 -1.18139e-10 2.92376e-13
  36 545.668 -1.18872e-10 -1.35487e-13
  37 545.668 -1.18900e-10 1.93909e-13
  38 545.668 -1.18665e-10 -1.55101e-14
  39 545.668 -1.18383e-10 -1.98669e-13
  40 545.668 -1.19135e-10 2.17976e-13
  41 545.668 -1.18383e-10 4.41711e-15
  42 545.668 -1.18618e-10 3.55809e-14
  43 545.668 -1.18407e-10 -3.99695e-13
  44 545.668 -1.18371e-10 5.64995e-14
  45 545.668 -1.18513e-10 1.17940e-13
  46 545.668 -1.19041e-10 -1.36235e-13
  47 545.668 -1.18719e-10 3.70113e-13
  48 545.668 -1.18534e-10 -3.14262e-13
  49 545.668 -1.18583e-10 -4.36317e-13
  50 545.668 -1.18583e-10 4.62741e-13
  51 545.668 -1.18712e-10 -4.76518e-13
  52 545.668 -1.18430e-10 1.35661e-12
  53 545.668 -1.18524e-10 -1.27663e-12
  54 545.668 -1.18647e-10 6.97779e-13
  55 545.668 -1.18289e-10 -2.15138e-13
  56 545.668 -1.19277e-10 2.62557e-13
  57 545.668 -1.18242e-10 1.47833e-13
  58 545.668 -1.19324e-10 -2.65739e-13
  59 545.668 -1.18383e-10 1.26443e-12
  60 545.668 -1.18524e-10 -1.25445e-12
  61 545.668 -1.18364e-10 9.09666e-13
  62 545.668 -1.18590e-10 -1.00796e-12
  63 545.668 -1.18308e-10 -8.90812e-13
  64 545.668 -1.18759e-10 1.03997e-12
  65 545.668 -1.19098e-10 6.27535e-13
  66 545.668 -1.18534e-10 4.08120e-13
</Section>

newXOutput 116

<Section columns = "stress_xx | stress_yy | stress_xy">
  1 527.911 -1.13294e-10 -7.34705e-13
  2 527.911 -1.13565e-10 1.02317e-12
  3 527.911 -1.14920e-10 7.92156e-13
  4 527.911 -1.14785e-10 -6.54036e-13
  5 527.911 -1.13655e-10 -1.74351e-12
  6 527.911 -1.14017e-10 -2.49169e-12
  7 527.911 -1.14107e-10 -2.29206e-12
  8 527.911 -1.14017e-10 -1.63851e-12
  9 527.911 -1.14107e-10 -1.94458e-13
  10 527.911 -1.14243e-10 6.49262e-13
  11 527.911 -1.14514e-10 1.77127e-12
  12 527.911 -1.13836e-10 2.30706e-12
  13 527.911 -1.13475e-10 1.91814e-12
  14 527.911 -1.13746e-10 -2.19277e-13
  15 527.911 -1.14920e-10 -3.00521e-13
  16 527.911 -1.15553e-10 -2.06777e-13
  17 527.911 -1.13565e-10 2.17852e-12
  18 527.911 -1.13655e-10 3.20205e-12
  19 527.911 -1.13226e-10 2.94465e-12
  20 527.911 -1.13384e-10 1.70201e-12
  21 527.911 -1.12820e-10 -4.85580e-13
  22 527.911 -1.13926e-10 -2.13180e-12
  23 527.911 -1.13926e-10 -2.44790e-12
  24 527.911 -1.13836e-10 -2.36395e-12
  25 527.911 -1.14017e-10 -1.66598e-12
  26 527.911 -1.14920e-10 1.61064e-13
  27 527.911 -1.14107e-10 2.73201e-13
  28 527.911 -1.13113e-10 2.63650e-13
  29 527.911 -1.14243e-10 2.47175e-12
  30 527.911 -1.13945e-10 -2.45767e-12
  31 527.911 -1.13531e-10 8.38738e-13
  32 527.911 -1.12571e-10 -4.71253e-13
  33 527.911 -1.13023e-10 -1.05965e-12
  34 527.911 -1.14324e-10 3.45249e-13
  35 527.911 -1.13565e-10 8.73871e-13
  36 527.911 -1.14595e-10 -7.77982e-13
  37 527.911 -1.14198e-10 -2.27578e-13
  38 527.911 -1.14152e-10 5.20112e-15
  39 527.911 -1.13610e-10 -4.15279e-13
  40 527.911 -1.14288e-10 9.15643e-14
  41 527.911 -1.12752e-10 -1.34164e-13
  42 527.911 -1.13204e-10 3.73022e-14
  43 527.911 -1.13904e-10 -5.44092e-13
  44 527.911 -1.14073e-10 3.52714e-13
  45 527.911 -1.14073e-10 -7.92605e-14
  46 527.911 -1.13945e-10 -3.15895e-13
  47 527.911 -1.13914e-10 6.72820e-13
  48 527.911 -1.13402e-10 -6.95857e-13
  49 527.911 -1.14277e-10 -1.03944e-12
  50 527.911 -1.14006e-10 8.23190e-13
  51 527.911 -1.13339e-10 -9.51095e-13
  52 527.911 -1.14062e-10 2.26875e-12
  53 527.911 -1.13520e-10 -2.38803e-12
  54 527.911 -1.12915e-10 1.53174e-12
  55 527.911 -1.13249e-10 -3.10080e-13
  56 527.911 -1.14694e-10 4.33959e-13
  57 527.911 -1.13384e-10 4.37306e-13
  58 527.911 -1.14514e-10 -5.24844e-13
  59 527.911 -1.14107e-10 2.09571e-12
  60 527.911 -1.13972e-10 -2.34943e-12
  61 527.911 -1.13131e-10 1.57521e-12
  62 527.911 -1.14053e-10 -1.68042e-12
  63 527.911 -1.13619e-10 -1.54192e-12
  64 527.911 -1.13999e-10 1.89643e-12
  65 527.911 -1.14541e-10 9.39607e-13
  66 527.911 -1.12589e-10 5.96289e-13
</Section>

newXOutput 117

<Section columns = "stress_xx | stress_yy | stress_xy">
  1 510.221 -1.08755e-10 -5.50633e-14
  2 510.221 -1.09145e-10 2.53627e-13
  3 510.221 -1.09015e-10 1.37615e-13
  4 510.221 -1.08755e-10 2.69137e-14
  5 510.221 -1.08928e-10 -2.63306e-13
  6 510.221 -1.09015e-10 -2.86352e-13
  7 510.221 -1.08928e-10 -1.45419e-13
  8 510.221 -1.08928e-10 3.08956e-14
  9 510.221 -1.08950e-10 4.46658e-13
  10 510.221 -1.08885e-10 6.75188e-13
  11 510.221 -1.08885e-10 3.28255e-13
  12 510.221 -1.08928e-10 1.70088e-13
  13 510.221 -1.09102e-10 2.07623e-13
  14 510.221 -1.09015e-10 -3.53810e-14
  15 510.221 -1.09145e-10 -2.61594e-14
  16 510.221 -1.09102e-10 -1.03686e-13
  17 510.221 -1.09102e-10 2.83512e-13
  18 510.221 -1.08928e-10 3.59525e-13
  19 510.221 -1.09145e-10 3.35781e-13
  20 510.221 -1.08842e-10 3.78008e-13
  21 510.221 -1.08885e-10 -1.83583e-14
  22 510.221 -1.08842e-10 -3.86338e-13
  23 510.221 -1.09362e-10 -1.99813e-13
  24 510.221 -1.09275e-10 -1.43519e-13
  25 510.221 -1.08842e-10 -6.73058e-15
  26 510.221 -1.08755e-10 -1.27477e-14
  27 510.221 -1.08755e-10 -1.74396e-14
  28 510.221 -1.08842e-10 4.16072e-14
  29 510.221 -1.08885e-10 3.64070e-13
  30 510.221 -1.08599e-10 -4.95989e-13
  31 510.221 -1.08885e-10 7.94899e-14
  32 510.221 -1.08842e-10 -2.78270e-13
  33 510.221 -1.08859e-10 -1.55514e-13
  34 510.221 -1.08755e-10 1.83356e-15
  35 510.221 -1.08963e-10 1.62224e-13
  36 510.221 -1.08599e-10 -3.14267e-13
  37 510.221 -1.08972e-10 5.29904e-14
  38 510.221 -1.08798e-10 9.29453e-14
  39 510.221 -1.09102e-10 -7.20150e-14
  40 510.221 -1.08928e-10 1.55701e-13
  41 510.221 -1.08972e-10 -7.89686e-14
  42 510.221 -1.08928e-10 -5.01977e-14
  43 510.221 -1.08820e-10 7.04357e-15
  44 510.221 -1.08885e-10 1.73902e-13
  45 510.221 -1.09178e-10 -9.80288e-15
  46 510.221 -1.08859e-10 1.27170e-13
  47 510.221 -1.08532e-10 -5.98946e-14
  48 510.221 -1.08911e-10 -1.07444e-13
  49 510.221 -1.08950e-10 -2.22751e-13
  50 510.221 -1.08820e-10 5.78020e-14
  51 510.221 -1.08928e-10 -1.83171e-13
  52 510.221 -1.08928e-10 2.86199e-13
  53 510.221 -1.08842e-10 -3.11301e-13
  54 510.221 -1.08911e-10 8.37607e-14
  55 510.221 -1.08928e-10 -6.52142e-14
  56 510.221 -1.09059e-10 -1.32659e-13
  57 510.221 -1.08928e-10 7.26650e-15
  58 510.221 -1.08755e-10 -1.58105e-14
  59 510.221 -1.08842e-10 2.76510e-13
  60 510.221 -1.08495e-10 -2.76150e-13
  61 510.221 -1.08911e-10 9.69716e-14
  62 510.221 -1.08911e-10 -4.80000e-14
  63 510.221 -1.09015e-10 -2.22780e-13
  64 510.221 -1.08963e-10 1.00255e-14
  65 510.221 -1.09015e-10 4.16750e-13
  66 510.221 -1.08859e-10 -5.97553e-14
</Section>

newXOutput 118

<Section columns = "stress_xx | stress_yy | stress_xy">
  1 492.597 -1.04044e-10 9.59459e-14
  2 492.597 -1.04419e-10 -3.33642e-14
  3 492.597 -1.03795e-10 -5.74653e-14
  4 492.597 -1.03545e-10 -9.50938e-14
  5 492.597 -1.03379e-10 3.67520e-13
  6 492.597 -1.03379e-10 3.80956e-13
  7 492.597 -1.03296e-10 2.76835e-13
  8 492.597 -1.03462e-10 1.23536e-14
  9 492.597 -1.03795e-10 -2.32673e-13
  10 492.597 -1.04294e-10 -5.54301e-13
  11 492.597 -1.03670e-10 -3.29993e-13
  12 492.597 -1.03462e-10 -1.79461e-14
  13 492.597 -1.04460e-10 1.35321e-13
  14 492.597 -1.04044e-10 -8.40425e-14
  15 492.597 -1.03545e-10 5.00463e-14
  16 492.597 -1.03961e-10 1.07675e-13
  17 492.597 -1.03462e-10 -1.19455e-13
  18 492.597 -1.03628e-10 2.03173e-13
  19 492.597 -1.03545e-10 1.21843e-14
  20 492.597 -1.03462e-10 -3.34722e-15
  21 492.597 -1.03795e-10 1.15360e-14
  22 492.597 -1.04211e-10 -2.02176e-13
  23 492.597 -1.03462e-10 -3.49805e-13
  24 492.597 -1.03628e-10 -4.39456e-13
  25 492.597 -1.03795e-10 -2.82290e-13
  26 492.597 -1.03462e-10 3.66106e-14
  27 492.597 -1.04419e-10 0.00000
  28 492.597 -1.04211e-10 -6.00935e-14
  29 492.597 -1.03545e-10 3.50645e-14
  30 492.597 -1.03645e-10 2.95158e-14
  31 492.597 -1.03545e-10 3.18024e-14
  32 492.597 -1.03587e-10 -9.99664e-14
  33 492.597 -1.04543e-10 -3.56959e-13
  34 492.597 -1.03495e-10 5.77855e-14
  35 492.597 -1.04294e-10 -1.64762e-13
  36 492.597 -1.03595e-10 2.37284e-13
  37 492.597 -1.03462e-10 5.52515e-14
  38 492.597 -1.03421e-10 -4.11050e-14
  39 492.597 -1.03836e-10 -2.07991e-14
  40 492.597 -1.03587e-10 1.01035e-13
  41 492.597 -1.04044e-10 -1.36182e-13
  42 492.597 -1.03504e-10 3.69027e-14
  43 492.597 -1.03514e-10 -3.75882e-14
  44 492.597 -1.03545e-10 -3.48111e-14
  45 492.597 -1.03608e-10 -1.14625e-14
  46 492.597 -1.03346e-10 -3.52090e-14
  47 492.597 -1.03724e-10 1.39298e-13
  48 492.597 -1.04244e-10 -2.70784e-14
  49 492.597 -1.04138e-10 -5.85297e-15
  50 492.597 -1.03920e-10 8.05077e-15
  51 492.597 -1.03587e-10 -6.79054e-14
  52 492.597 -1.03545e-10 -4.09617e-15
  53 492.597 -1.03379e-10 -1.52457e-15
  54 492.597 -1.03396e-10 9.27432e-14
  55 492.597 -1.04127e-10 8.57804e-15
  56 492.597 -1.03545e-10 9.33859e-14
  57 492.597 -1.04834e-10 -9.16094e-14
  58 492.597 -1.03545e-10 -1.01606e-13
  59 492.597 -1.03545e-10 9.72379e-14
  60 492.597 -1.03836e-10 -1.58843e-13
  61 492.597 -1.04194e-10 -4.94208e-14
  62 492.597 -1.03695e-10 -3.63208e-13
  63 492.597 -1.03895e-10 2.02756e-13
  64 492.597 -1.03695e-10 9.12720e-14
  65 492.597 -1.04094e-10 -3.29623e-13
  66 492.597 -1.03595e-10 7.22495e-14
</Section>

newXOutput 119

<Section columns = "stress_xx | stress_yy | stress_xy">
  1 475.040 -9.93111e-11 -1.20677e-13
  2 475.040 -9.93111e-11 -1.27524e-13
  3 475.040 -9.96696e-11 7.12662e-14
  4 475.040 -9.96696e-11 -2.21570e-14
  5 475.040 -9.96696e-11 -1.82059e-13
  6 475.040 -9.96696e-11 -8.03535e-14
  7 475.040 -9.96696e-11 -1.28077e-13
  8 475.040 -9.91916e-11 -2.95238e-13
  9 475.040 -9.91318e-11 -1.64073e-13
  10 475.040 -9.89525e-11 2.16320e-13
  11 475.040 -9.93111e-11 2.40792e-13
  12 475.040 -9.96696e-11 1.50276e-13
  13 475.040 -9.96696e-11 -1.51913e-14
  14 475.040 -9.88729e-11 -1.00956e-13
  15 475.040 -9.88330e-11 -9.56427e-14
  16 475.040 -9.94306e-11 -1.32837e-15
  17 475.040 -9.96696e-11 3.97042e-14
  18 475.040 -9.96696e-11 -3.43732e-14
  19 475.040 -9.96696e-11 3.30546e-14
  20 475.040 -9.94306e-11 -1.26164e-13
  21 475.040 -9.93111e-11 -1.29455e-13
  22 475.040 -9.96696e-11 -6.28911e-14
  23 475.040 -9.96696e-11 -1.28290e-14
  24 475.040 -9.96696e-11 -1.17833e-13
  25 475.040 -9.96696e-11 -8.24860e-14
  26 475.040 -9.94306e-11 1.85972e-14
  27 475.040 -9.93111e-11 4.78214e-14
  28 475.040 -9.94306e-11 5.80651e-14
  29 475.040 -9.91318e-11 2.95950e-14
  30 475.040 -9.94784e-11 -3.45698e-13
  31 475.040 -9.95800e-11 9.87726e-14
  32 475.040 -9.97094e-11 -1.08339e-13
  33 475.040 -9.92394e-11 6.77365e-14
  34 475.040 -9.96696e-11 1.22657e-13
  35 475.040 -9.93828e-11 -3.76796e-14
  36 475.040 -9.94306e-11 -3.23560e-13
  37 475.040 -9.96298e-11 1.57850e-13
  38 475.040 -9.94306e-11 -1.74885e-13
  39 475.040 -9.94306e-11 1.34633e-13
  40 475.040 -9.95501e-11 -6.27075e-14
  41 475.040 -9.95501e-11 5.98916e-14
  42 475.040 -9.97094e-11 -3.42204e-13
  43 475.040 -9.94306e-11 2.34048e-13
  44 475.040 -9.93111e-11 -1.54159e-13
  45 475.040 -9.94903e-11 1.27791e-13
  46 475.040 -9.92394e-11 -1.42761e-13
  47 475.040 -9.96696e-11 -3.73509e-13
  48 475.040 -9.96696e-11 3.87418e-14
  49 475.040 -9.91916e-11 -5.04525e-14
  50 475.040 -9.94903e-11 7.76697e-14
  51 475.040 -9.97094e-11 5.09762e-14
  52 475.040 -9.91916e-11 2.16301e-14
  53 475.040 -9.96298e-11 -1.55279e-13
  54 475.040 -9.97174e-11 -6.67905e-15
  55 475.040 -9.95501e-11 -5.40756e-14
  56 475.040 -9.95501e-11 -9.09441e-14
  57 475.040 -9.93111e-11 -1.93637e-14
  58 475.040 -9.96696e-11 -2.01864e-14
  59 475.040 -9.91916e-11 8.92674e-14
  60 475.040 -9.93111e-11 -9.97172e-14
  61 475.040 -9.96696e-11 2.03670e-13
  62 475.040 -9.96696e-11 -8.36248e-14
  63 475.040 -9.96696e-11 -1.16804e-13
  64 475.040 -9.95262e-11 -3.18680e-13
  65 475.040 -9.92394e-11 4.36115e-14
  66 475.040 -9.93828e-11 -6.76398e-14
</Section>

newXOutput 120

<Section columns = "stress_xx | stress_yy | stress_xy">
  1 457.548 -9.47970e-11 2.12398e-14
  2 457.548 -9.49113e-11 -1.00173e-13
  3 457.548 -9.49113e-11 -1.66951e-13
  4 457.548 -9.51400e-11 5.53064e-17
  5 457.548 -9.48351e-11 2.83699e-14
  6 457.548 -9.47588e-11 6.28655e-14
  7 457.548 -9.47588e-11 1.45816e-13
  8 457.548 -9.48351e-11 1.11371e-13
  9 457.548 -9.46826e-11 1.29923e-14
  10 457.548 -9.46826e-11 -8.49591e-14
  11 457.548 -9.47398e-11 -1.47247e-13
  12 457.548 -9.47588e-11 -6.67822e-14
  13 457.548 -9.48351e-11 -1.15388e-13
  14 457.548 -9.51400e-11 -4.05714e-14
  15 457.548 -9.50257e-11 -6.08570e-14
  16 457.548 -9.49113e-11 5.53716e-14
  17 457.548 -9.50638e-11 3.46152e-14
  18 457.548 -9.50638e-11 1.92767e-13
  19 457.548 -9.48541e-11 2.41193e-13
  20 457.548 -9.50638e-11 2.52899e-13
  21 457.548 -9.48541e-11 4.59603e-14
  22 457.548 -9.47588e-11 -2.80247e-13
  23 457.548 -9.48351e-11 -2.50611e-13
  24 457.548 -9.52162e-11 -1.76877e-13
  25 457.548 -9.52162e-11 -7.13498e-14
  26 457.548 -9.49113e-11 -2.22440e-14
  27 457.548 -9.49113e-11 -1.52143e-14
  28 457.548 -9.49113e-11 2.45663e-14
  29 457.548 -9.51400e-11 -5.26075e-14
  30 457.548 -9.49570e-11 2.24430e-14
  31 457.548 -9.47398e-11 1.93236e-14
  32 457.548 -9.48732e-11 -2.16405e-13
  33 457.548 -9.50028e-11 -3.90977e-13
  34 457.548 -9.49570e-11 -9.67219e-14
  35 457.548 -9.49113e-11 1.05009e-13
  36 457.548 -9.48656e-11 1.84620e-13
  37 457.548 -9.46826e-11 -1.05352e-13
  38 457.548 -9.47970e-11 6.18204e-14
  39 457.548 -9.48351e-11 -4.01394e-14
  40 457.548 -9.46445e-11 7.45011e-15
  41 457.548 -9.47970e-11 -6.03645e-14
  42 457.548 -9.49113e-11 6.59967e-15
  43 457.548 -9.48255e-11 -1.85323e-13
  44 457.548 -9.48827e-11 7.69105e-14
  45 457.548 -9.50828e-11 -1.13808e-13
  46 457.548 -9.46826e-11 7.01891e-14
  47 457.548 -9.49113e-11 2.53658e-13
  48 457.548 -9.48198e-11 -8.10458e-14
  49 457.548 -9.49399e-11 -5.29346e-14
  50 457.548 -9.48827e-11 -9.94674e-15
  51 457.548 -9.47970e-11 -1.08945e-13
  52 457.548 -9.50257e-11 4.61304e-14
  53 457.548 -9.49113e-11 -1.38953e-13
  54 457.548 -9.50028e-11 -1.82293e-16
  55 457.548 -9.48732e-11 4.66785e-14
  56 457.548 -9.48351e-11 -4.31788e-14
  57 457.548 -9.50638e-11 -1.74399e-13
  58 457.548 -9.49875e-11 -4.61109e-14
  59 457.548 -9.48732e-11 -1.29268e-14
  60 457.548 -9.48351e-11 7.92890e-15
  61 457.548 -9.49113e-11 -1.67689e-13
  62 457.548 -9.51857e-11 -1.37746e-13
  63 457.548 -9.48656e-11 1.07923e-13
  64 457.548 -9.50943e-11 1.43978e-13
  65 457.548 -9.46826e-11 -8.80020e-14
  66 457.548 -9.49113e-11 2.25514e-14
</Section>

newXOutput 121

<Section columns = "stress_xx | stress_yy | stress_xy">
  1 440.122 -8.92821e-11 -1.06139e-12
  2 440.122 -8.93913e-11 9.51218e-13
  3 440.122 -8.96099e-11 -6.72590e-13
  4 440.122 -8.98285e-11 5.63489e-13
  5 440.122 -9.01927e-11 -2.33344e-12
  6 440.122 -9.04113e-11 -3.21114e-12
  7 440.122 -9.08484e-11 -3.13866e-12
  8 440.122 -9.10670e-11 -2.28895e-12
  9 440.122 -9.14130e-11 -4.64741e-13
  10 440.122 -9.03749e-11 8.67038e-13
  11 440.122 -9.05934e-11 2.20466e-12
  12 440.122 -9.01199e-11 2.68529e-12
  13 440.122 -9.00470e-11 1.99708e-12
  14 440.122 -8.95371e-11 -8.50229e-14
  15 440.122 -8.96099e-11 -8.70187e-14
  16 440.122 -8.97556e-11 9.95260e-14
  17 440.122 -9.01199e-11 -1.31249e-12
  18 440.122 -9.04841e-11 -1.90911e-12
  19 440.122 -9.06481e-11 -1.90117e-12
  20 440.122 -9.04113e-11 -1.36198e-12
  21 440.122 -9.09759e-11 5.16484e-13
  22 440.122 -9.06299e-11 1.69793e-12
  23 440.122 -9.04113e-11 1.85300e-12
  24 440.122 -9.04113e-11 1.68478e-12
  25 440.122 -9.04841e-11 1.14453e-12
  26 440.122 -8.95371e-11 -2.75029e-14
  27 440.122 -8.92821e-11 7.97671e-14
  28 440.122 -8.91728e-11 1.81934e-13
  29 440.122 -9.01017e-11 7.68958e-13
  30 440.122 -9.04404e-11 2.02623e-13
  31 440.122 -9.13857e-11 8.28806e-14
  32 440.122 -9.08848e-11 1.12472e-12
  33 440.122 -8.96973e-11 -1.28792e-12
  34 440.122 -8.98722e-11 -1.03223e-12
  35 440.122 -8.95662e-11 1.47550e-12
  36 440.122 -8.95662e-11 1.14754e-12
  37 440.122 -9.08484e-11 -4.61178e-13
  38 440.122 -9.09213e-11 1.68351e-13
  39 440.122 -9.06299e-11 -2.56412e-13
  40 440.122 -9.15405e-11 1.11862e-13
  41 440.122 -9.09577e-11 2.23528e-13
  42 440.122 -9.08484e-11 1.02610e-12
  43 440.122 -9.03202e-11 -8.92964e-13
  44 440.122 -9.02929e-11 8.42671e-13
  45 440.122 -9.02929e-11 -7.83313e-13
  46 440.122 -9.11835e-11 -3.45348e-13
  47 440.122 -9.02031e-11 3.48393e-13
  48 440.122 -9.09650e-11 3.69220e-13
  49 440.122 -8.98285e-11 -2.08798e-13
  50 440.122 -8.95826e-11 3.00258e-13
  51 440.122 -9.07027e-11 -6.72335e-13
  52 440.122 -9.06663e-11 5.81707e-13
  53 440.122 -9.06299e-11 -8.19133e-13
  54 440.122 -9.08776e-11 -8.39682e-13
  55 440.122 -8.93913e-11 -4.71091e-13
  56 440.122 -8.97192e-11 -1.61350e-13
  57 440.122 -8.97556e-11 5.25615e-13
  58 440.122 -8.99377e-11 1.83602e-13
  59 440.122 -8.99377e-11 6.89610e-13
  60 440.122 -9.00470e-11 -5.87007e-13
  61 440.122 -8.96973e-11 1.83620e-12
  62 440.122 -9.00907e-11 1.01567e-12
  63 440.122 -8.98722e-11 -2.08964e-12
  64 440.122 -8.98722e-11 -1.00419e-12
  65 440.122 -9.13147e-11 1.17271e-12
  66 440.122 -9.10087e-11 -1.66857e-13
</Section>

newXOutput 122

<Section columns = "stress_xx | stress_yy | stress_xy">
  1 422.761 -8.57296e-11 -1.04990e-13
  2 422.761 -8.61468e-11 2.76132e-14
  3 422.761 -8.59382e-11 -2.35514e-13
  4 422.761 -8.56253e-11 1.26824e-13
  5 422.761 -8.58687e-11 -1.99088e-13
  6 422.761 -8.61468e-11 -2.80239e-13
  7 422.761 -8.61468e-11 -2.01869e-13
  8 422.761 -8.61468e-11 -2.71035e-13
  9 422.761 -8.60425e-11 -2.69628e-13
  10 422.761 -8.60425e-11 -3.56689e-13
  11 422.761 -8.58339e-11 1.09783e-13
  12 422.761 -8.55906e-11 2.61565e-13
  13 422.761 -8.61468e-11 7.36353e-14
  14 422.761 -8.60078e-11 3.22154e-14
  15 422.761 -8.59382e-11 -2.07099e-14
  16 422.761 -8.59382e-11 -1.27799e-14
  17 422.761 -8.57992e-11 -3.50113e-13
  18 422.761 -8.60773e-11 -4.19479e-13
  19 422.761 -8.60425e-11 -5.19931e-13
  20 422.761 -8.60773e-11 -5.36261e-13
  21 422.761 -8.60947e-11 -1.49286e-13
  22 422.761 -8.60773e-11 6.69860e-14
  23 422.761 -8.61468e-11 3.09285e-13
  24 422.761 -8.61468e-11 3.17489e-13
  25 422.761 -8.55906e-11 2.00858e-13
  26 422.761 -8.57296e-11 -2.84771e-15
  27 422.761 -8.60425e-11 5.52265e-14
  28 422.761 -8.58687e-11 5.81921e-15
  29 422.761 -8.61468e-11 -1.37850e-13
  30 422.761 -8.58965e-11 2.82381e-13
  31 422.761 -8.60164e-11 5.75019e-14
  32 422.761 -8.61468e-11 1.41646e-13
  33 422.761 -8.60217e-11 -4.05897e-13
  34 422.761 -8.58548e-11 -2.93284e-13
  35 422.761 -8.60634e-11 3.00767e-13
  36 422.761 -8.59799e-11 4.32894e-13
  37 422.761 -8.61816e-11 -6.69313e-14
  38 422.761 -8.61120e-11 1.46664e-13
  39 422.761 -8.60425e-11 -1.56497e-13
  40 422.761 -8.60425e-11 6.62871e-14
  41 422.761 -8.60425e-11 -6.18977e-14
  42 422.761 -8.60078e-11 2.14471e-13
  43 422.761 -8.58600e-11 -2.09752e-13
  44 422.761 -8.61207e-11 2.48622e-13
  45 422.761 -8.61207e-11 -2.69910e-13
  46 422.761 -8.60217e-11 -2.67719e-14
  47 422.761 -8.60574e-11 1.82198e-13
  48 422.761 -8.60634e-11 -9.43601e-14
  49 422.761 -8.59382e-11 2.02321e-14
  50 422.761 -8.59382e-11 -3.05094e-14
  51 422.761 -8.62163e-11 4.36390e-14
  52 422.761 -8.60773e-11 -6.42652e-14
  53 422.761 -8.61816e-11 9.17874e-14
  54 422.761 -8.60634e-11 -4.68383e-13
  55 422.761 -8.58687e-11 -9.05946e-15
  56 422.761 -8.58339e-11 -1.41975e-14
  57 422.761 -8.61120e-11 -7.05400e-14
  58 422.761 -8.55210e-11 3.62056e-16
  59 422.761 -8.60773e-11 -1.04168e-13
  60 422.761 -8.59382e-11 1.17510e-13
  61 422.761 -8.59382e-11 -5.64226e-15
  62 422.761 -8.57714e-11 1.87593e-13
  63 422.761 -8.59382e-11 -9.79083e-14
  64 422.761 -8.59799e-11 -1.19200e-13
  65 422.761 -8.60634e-11 -5.30069e-14
  66 422.761 -8.60217e-11 -3.61952e-13
</Section>

newXOutput 123

<Section columns = "stress_xx | stress_yy | stress_xy">
  1 405.465 -8.14995e-11 -2.60443e-13
  2 405.465 -8.11020e-11 2.52651e-13
  3 405.465 -8.16983e-11 -3.99391e-13
  4 405.465 -8.14995e-11 2.30286e-13
  5 405.465 -8.18308e-11 -4.93205e-13
  6 405.465 -8.17646e-11 -7.56453e-13
  7 405.465 -8.18971e-11 -8.11548e-13
  8 405.465 -8.21621e-11 -6.87957e-13
  9 405.465 -8.20959e-11 -1.80875e-13
  10 405.465 -8.13007e-11 -7.87464e-14
  11 405.465 -8.18971e-11 6.77156e-13
  12 405.465 -8.17646e-11 1.18014e-12
  13 405.465 -8.18971e-11 9.23109e-13
  14 405.465 -8.11020e-11 -6.78138e-14
  15 405.465 -8.15989e-11 -2.62488e-14
  16 405.465 -8.18308e-11 5.46894e-14
  17 405.465 -8.17646e-11 -8.40402e-13
  18 405.465 -8.19633e-11 -1.22549e-12
  19 405.465 -8.19965e-11 -9.75829e-13
  20 405.465 -8.20296e-11 -4.55668e-13
  21 405.465 -8.22946e-11 3.16487e-13
  22 405.465 -8.20959e-11 8.26111e-13
  23 405.465 -8.20959e-11 9.65485e-13
  24 405.465 -8.18971e-11 9.22239e-13
  25 405.465 -8.15658e-11 5.16061e-13
  26 405.465 -8.14333e-11 -1.07342e-14
  27 405.465 -8.16983e-11 1.31244e-14
  28 405.465 -8.13670e-11 -2.65206e-14
  29 405.465 -8.18971e-11 -1.20150e-13
  30 405.465 -8.18573e-11 3.26232e-13
  31 405.465 -8.22450e-11 -8.96200e-14
  32 405.465 -8.20959e-11 5.51512e-13
  33 405.465 -8.15393e-11 -8.35471e-13
  34 405.465 -8.16188e-11 -4.03862e-13
  35 405.465 -8.15790e-11 3.60765e-13
  36 405.465 -8.16983e-11 9.13727e-13
  37 405.465 -8.20296e-11 -1.95162e-13
  38 405.465 -8.20959e-11 1.43756e-13
  39 405.465 -8.20627e-11 -1.88969e-13
  40 405.465 -8.22284e-11 2.18093e-13
  41 405.465 -8.21953e-11 5.65996e-14
  42 405.465 -8.19965e-11 5.44130e-13
  43 405.465 -8.17232e-11 -5.52418e-13
  44 405.465 -8.18225e-11 2.85179e-13
  45 405.465 -8.20213e-11 -3.47169e-13
  46 405.465 -8.22549e-11 -2.40808e-14
  47 405.465 -8.18687e-11 2.53865e-13
  48 405.465 -8.22151e-11 1.31408e-13
  49 405.465 -8.15989e-11 6.13168e-14
  50 405.465 -8.15244e-11 -1.18819e-14
  51 405.465 -8.19965e-11 -1.62248e-13
  52 405.465 -8.20296e-11 -1.46825e-13
  53 405.465 -8.20296e-11 -2.38365e-13
  54 405.465 -8.21754e-11 -4.02157e-13
  55 405.465 -8.15327e-11 -1.42835e-13
  56 405.465 -8.17314e-11 -3.68837e-14
  57 405.465 -8.14664e-11 6.51453e-14
  58 405.465 -8.14664e-11 1.08147e-13
  59 405.465 -8.16983e-11 -6.37876e-14
  60 405.465 -8.17977e-11 5.32508e-14
  61 405.465 -8.16586e-11 6.65508e-13
  62 405.465 -8.16188e-11 5.66856e-13
  63 405.465 -8.16586e-11 -5.12380e-13
  64 405.465 -8.17778e-11 -5.77039e-13
  65 405.465 -8.20561e-11 3.78978e-13
  66 405.465 -8.21754e-11 -3.55926e-14
</Section>

newXOutput 124

<Section columns = "stress_xx | stress_yy | stress_xy">
  1 388.233 -7.74491e-11 8.23923e-14
  2 388.233 -7.78274e-11 -3.10367e-13
  3 388.233 -7.77328e-11 6.11365e-14
  4 388.233 -7.78274e-11 -1.62034e-13
  5 388.233 -7.76067e-11 1.81696e-13
  6 388.233 -7.74807e-11 2.95056e-13
  7 388.233 -7.73546e-11 2.89203e-13
  8 388.233 -7.72285e-11 2.40128e-13
  9 388.233 -7.73073e-11 -1.23481e-13
  10 388.233 -7.72600e-11 -5.38039e-13
  11 388.233 -7.73073e-11 -8.10734e-13
  12 388.233 -7.75437e-11 -8.37449e-13
  13 388.233 -7.77959e-11 -7.17385e-13
  14 388.233 -7.77328e-11 5.92824e-14
  15 388.233 -7.76383e-11 1.24561e-14
  16 388.233 -7.77328e-11 -8.41992e-15
  17 388.233 -7.74807e-11 1.57179e-13
  18 388.233 -7.75437e-11 5.33509e-13
  19 388.233 -7.75437e-11 5.07460e-13
  20 388.233 -7.75437e-11 2.79878e-13
  21 388.233 -7.72127e-11 6.25330e-14
  22 388.233 -7.71654e-11 -2.87742e-13
  23 388.233 -7.74176e-11 -4.36946e-13
  24 388.233 -7.73546e-11 -5.52200e-13
  25 388.233 -7.76698e-11 -3.75610e-13
  26 388.233 -7.74807e-11 2.68156e-14
  27 388.233 -7.75437e-11 1.24561e-14
  28 388.233 -7.73546e-11 -2.14382e-14
  29 388.233 -7.73073e-11 1.03520e-13
  30 388.233 -7.75437e-11 -1.01319e-13
  31 388.233 -7.72836e-11 3.60558e-14
  32 388.233 -7.73546e-11 -1.81912e-13
  33 388.233 -7.77328e-11 3.97560e-13
  34 388.233 -7.75437e-11 3.91116e-13
  35 388.233 -7.75815e-11 -3.65739e-13
  36 388.233 -7.74681e-11 -1.32192e-13
  37 388.233 -7.73546e-11 9.27003e-14
  38 388.233 -7.73861e-11 -1.88512e-13
  39 388.233 -7.73546e-11 1.28776e-13
  40 388.233 -7.74491e-11 -2.10582e-14
  41 388.233 -7.74491e-11 4.76516e-14
  42 388.233 -7.72285e-11 -1.78986e-13
  43 388.233 -7.74964e-11 2.03029e-13
  44 388.233 -7.74964e-11 -3.30696e-13
  45 388.233 -7.74255e-11 3.02102e-13
  46 388.233 -7.73546e-11 -2.64459e-14
  47 388.233 -7.75167e-11 -8.85131e-15
  48 388.233 -7.72411e-11 6.42713e-14
  49 388.233 -7.76383e-11 2.79828e-14
  50 388.233 -7.73546e-11 4.24152e-14
  51 388.233 -7.75122e-11 1.45477e-13
  52 388.233 -7.72915e-11 2.63989e-14
  53 388.233 -7.74176e-11 2.20492e-13
  54 388.233 -7.72033e-11 2.73825e-13
  55 388.233 -7.75437e-11 -2.90790e-14
  56 388.233 -7.74807e-11 1.40928e-14
  57 388.233 -7.78904e-11 -7.40167e-14
  58 388.233 -7.76067e-11 -6.74328e-14
  59 388.233 -7.74807e-11 1.10543e-13
  60 388.233 -7.76698e-11 1.00450e-13
  61 388.233 -7.77328e-11 -4.28389e-13
  62 388.233 -7.76572e-11 -3.63406e-13
  63 388.233 -7.77328e-11 1.25195e-13
  64 388.233 -7.74681e-11 3.19721e-13
  65 388.233 -7.73546e-11 -5.36170e-13
  66 388.233 -7.72033e-11 1.58493e-13
</Section>

newXOutput 125

<Section columns = "stress_xx | stress_yy | stress_xy">
  1 371.066 -7.36520e-11 1.20840e-13
  2 371.066 -7.34723e-11 -3.54042e-14
  3 371.066 -7.43705e-11 2.36585e-13
  4 371.066 -7.43705e-11 -1.88581e-13
  5 371.066 -7.38915e-11 1.85111e-13
  6 371.066 -7.40113e-11 3.43111e-13
  7 371.066 -7.37717e-11 3.91517e-13
  8 371.066 -7.32927e-11 2.68368e-13
  9 371.066 -7.32478e-11 -9.57003e-14
  10 371.066 -7.32927e-11 -1.33418e-13
  11 371.066 -7.34274e-11 -4.98765e-13
  12 371.066 -7.33526e-11 -5.42037e-13
  13 371.066 -7.34723e-11 -2.42198e-13
  14 371.066 -7.37717e-11 3.93379e-15
  15 371.066 -7.40113e-11 2.95035e-14
  16 371.066 -7.40711e-11 -9.46287e-14
  17 371.066 -7.36520e-11 5.93981e-13
  18 371.066 -7.34723e-11 6.36121e-13
  19 371.066 -7.34723e-11 6.52720e-13
  20 371.066 -7.31729e-11 4.69553e-13
  21 371.066 -7.31580e-11 -1.91242e-13
  22 371.066 -7.35322e-11 -4.82838e-13
  23 371.066 -7.34723e-11 -4.89210e-13
  24 371.066 -7.34723e-11 -4.95917e-13
  25 371.066 -7.38915e-11 -4.13755e-13
  26 371.066 -7.39514e-11 7.91938e-14
  27 371.066 -7.34723e-11 -1.77021e-14
  28 371.066 -7.35322e-11 -4.18640e-14
  29 371.066 -7.34274e-11 7.16333e-14
  30 371.066 -7.35801e-11 -1.87631e-13
  31 371.066 -7.32927e-11 4.79462e-14
  32 371.066 -7.30532e-11 8.17481e-14
  33 371.066 -7.35801e-11 -1.11399e-13
  34 371.066 -7.35801e-11 3.88439e-13
  35 371.066 -7.34723e-11 -3.04248e-13
  36 371.066 -7.36520e-11 -2.37115e-13
  37 371.066 -7.34424e-11 -3.09516e-13
  38 371.066 -7.33526e-11 -2.02893e-13
  39 371.066 -7.33825e-11 1.82744e-13
  40 371.066 -7.32628e-11 -3.73672e-13
  41 371.066 -7.32328e-11 1.31490e-13
  42 371.066 -7.33226e-11 9.21831e-14
  43 371.066 -7.34723e-11 -1.89506e-13
  44 371.066 -7.36071e-11 -2.80858e-13
  45 371.066 -7.34948e-11 3.13364e-13
  46 371.066 -7.32927e-11 -8.29291e-14
  47 371.066 -7.35493e-11 1.16505e-13
  48 371.066 -7.34364e-11 -6.99273e-14
  49 371.066 -7.37418e-11 -3.52606e-14
  50 371.066 -7.34274e-11 2.67385e-14
  51 371.066 -7.34125e-11 8.80891e-14
  52 371.066 -7.32927e-11 5.70588e-14
  53 371.066 -7.35622e-11 -2.46744e-14
  54 371.066 -7.31490e-11 4.16665e-13
  55 371.066 -7.36520e-11 1.30438e-15
  56 371.066 -7.38017e-11 1.40545e-13
  57 371.066 -7.37119e-11 -1.39272e-13
  58 371.066 -7.39813e-11 -4.43168e-14
  59 371.066 -7.33226e-11 5.33885e-14
  60 371.066 -7.36220e-11 -8.01027e-14
  61 371.066 -7.34723e-11 -4.42063e-13
  62 371.066 -7.37598e-11 -3.09979e-13
  63 371.066 -7.39753e-11 2.04969e-13
  64 371.066 -7.35083e-11 3.35750e-13
  65 371.066 -7.32209e-11 -4.09404e-13
  66 371.066 -7.28616e-11 1.34446e-13
</Section>

newXOutput 126

<Section columns = "stress_xx | stress_yy | stress_xy">
  1 353.963 -6.93971e-11 9.20666e-14
  2 353.963 -6.93971e-11 -1.19035e-13
  3 353.963 -6.99080e-11 1.20463e-13
  4 353.963 -6.94822e-11 -8.14851e-14
  5 353.963 -6.92552e-11 1.96222e-13
  6 353.963 -6.94822e-11 2.92163e-13
  7 353.963 -6.93687e-11 3.30446e-13
  8 353.963 -6.90849e-11 2.10170e-13
  9 353.963 -6.90565e-11 -1.00203e-13
  10 353.963 -6.93119e-11 -5.24495e-13
  11 353.963 -6.93971e-11 -4.44984e-13
  12 353.963 -6.93119e-11 -6.91890e-13
  13 353.963 -6.94255e-11 -4.66220e-13
  14 353.963 -6.95390e-11 4.21574e-14
  15 353.963 -6.93971e-11 -5.57994e-15
  16 353.963 -6.96525e-11 5.76594e-14
  17 353.963 -6.93687e-11 4.94314e-13
  18 353.963 -6.93119e-11 5.11486e-13
  19 353.963 -6.89288e-11 4.56790e-13
  20 353.963 -6.88578e-11 1.23261e-13
  21 353.963 -6.89713e-11 -1.76596e-13
  22 353.963 -6.91416e-11 -5.54268e-13
  23 353.963 -6.92552e-11 -7.08575e-13
  24 353.963 -6.92552e-11 -5.23251e-13
  25 353.963 -6.92552e-11 -2.41488e-13
  26 353.963 -6.95958e-11 -4.51041e-14
  27 353.963 -6.95674e-11 -2.78997e-14
  28 353.963 -6.95958e-11 1.95298e-14
  29 353.963 -6.92694e-11 1.61130e-13
  30 353.963 -6.93801e-11 4.43831e-14
  31 353.963 -6.92906e-11 1.31848e-13
  32 353.963 -6.90565e-11 -1.13916e-14
  33 353.963 -6.95504e-11 2.25051e-13
  34 353.963 -6.95844e-11 1.02413e-13
  35 353.963 -6.95844e-11 -8.46270e-14
  36 353.963 -6.94141e-11 -8.79754e-14
  37 353.963 -6.94538e-11 6.25422e-14
  38 353.963 -6.92268e-11 -1.25498e-14
  39 353.963 -6.92552e-11 -2.15141e-14
  40 353.963 -6.92552e-11 -5.96037e-14
  41 353.963 -6.91700e-11 1.38100e-13
  42 353.963 -6.90565e-11 1.80570e-14
  43 353.963 -6.94397e-11 1.05320e-13
  44 353.963 -6.93545e-11 -4.70434e-14
  45 353.963 -6.93332e-11 3.82014e-14
  46 353.963 -6.91416e-11 1.60757e-14
  47 353.963 -6.92633e-11 7.47399e-14
  48 353.963 -6.92098e-11 -6.28941e-14
  49 353.963 -6.95461e-11 1.33915e-13
  50 353.963 -6.95461e-11 2.13603e-14
  51 353.963 -6.93403e-11 7.10652e-14
  52 353.963 -6.91700e-11 1.61299e-13
  53 353.963 -6.93971e-11 1.25082e-13
  54 353.963 -6.87670e-11 1.70519e-13
  55 353.963 -6.95390e-11 8.21465e-14
  56 353.963 -6.95674e-11 1.06026e-13
  57 353.963 -6.95106e-11 -4.12282e-14
  58 353.963 -6.95390e-11 -1.22269e-13
  59 353.963 -6.93119e-11 1.13104e-13
  60 353.963 -6.94255e-11 2.16700e-13
  61 353.963 -6.94822e-11 -3.80539e-13
  62 353.963 -6.95163e-11 -3.60202e-13
  63 353.963 -6.95504e-11 2.05475e-13
  64 353.963 -6.93119e-11 2.95459e-13
  65 353.963 -6.93119e-11 -2.46437e-13
  66 353.963 -6.89713e-11 5.03726e-14
</Section>

newXOutput 127

<Section columns = "stress_xx | stress_yy | stress_xy">
  1 336.923 -6.55714e-11 -2.93821e-14
  2 336.923 -6.50881e-11 8.08812e-14
  3 336.923 -6.53298e-11 -1.25690e-13
  4 336.923 -6.50881e-11 8.82346e-14
  5 336.923 -6.55714e-11 -3.21553e-14
  6 336.923 -6.54103e-11 -3.23311e-14
  7 336.923 -6.52492e-11 2.93478e-14
  8 336.923 -6.53029e-11 8.79020e-14
  9 336.923 -6.55714e-11 -1.56394e-14
  10 336.923 -6.56520e-11 -3.87561e-14
  11 336.923 -6.55714e-11 -1.20480e-13
  12 336.923 -6.56251e-11 9.49229e-14
  13 336.923 -6.52492e-11 2.22704e-13
  14 336.923 -6.55177e-11 -5.39208e-14
  15 336.923 -6.56520e-11 1.57969e-14
  16 336.923 -6.56788e-11 6.18192e-14
  17 336.923 -6.54103e-11 -2.02455e-13
  18 336.923 -6.51955e-11 -1.85932e-14
  19 336.923 -6.55311e-11 -7.72529e-14
  20 336.923 -6.55714e-11 -5.33307e-14
  21 336.923 -6.56520e-11 9.20199e-14
  22 336.923 -6.55714e-11 2.29928e-13
  23 336.923 -6.52492e-11 2.58920e-13
  24 336.923 -6.52492e-11 2.54092e-13
  25 336.923 -6.50881e-11 1.93407e-13
  26 336.923 -6.54640e-11 1.05020e-16
  27 336.923 -6.56520e-11 -1.57969e-14
  28 336.923 -6.55714e-11 -6.84512e-15
  29 336.923 -6.53700e-11 -1.18329e-13
  30 336.923 -6.54425e-11 2.18156e-14
  31 336.923 -6.54103e-11 -9.40647e-14
  32 336.923 -6.55983e-11 1.52345e-13
  33 336.923 -6.55392e-11 -2.03866e-13
  34 336.923 -6.51525e-11 -1.09534e-13
  35 336.923 -6.54748e-11 4.96506e-14
  36 336.923 -6.56359e-11 1.86869e-13
  37 336.923 -6.54909e-11 -2.12392e-13
  38 336.923 -6.51687e-11 2.57342e-14
  39 336.923 -6.54103e-11 1.80739e-14
  40 336.923 -6.53835e-11 -1.49035e-13
  41 336.923 -6.55714e-11 7.03364e-14
  42 336.923 -6.56788e-11 1.06446e-13
  43 336.923 -6.55714e-11 -1.83095e-13
  44 336.923 -6.53298e-11 5.62563e-14
  45 336.923 -6.53499e-11 -6.77200e-14
  46 336.923 -6.53459e-11 -2.97168e-14
  47 336.923 -6.53873e-11 1.05138e-13
  48 336.923 -6.55070e-11 7.57943e-14
  49 336.923 -6.56318e-11 3.85580e-14
  50 336.923 -6.54103e-11 -2.46630e-14
  51 336.923 -6.53298e-11 2.08561e-14
  52 336.923 -6.55177e-11 -1.13478e-13
  53 336.923 -6.55446e-11 6.28455e-14
  54 336.923 -6.56681e-11 -6.81231e-14
  55 336.923 -6.55714e-11 -1.03514e-15
  56 336.923 -6.55446e-11 1.93177e-15
  57 336.923 -6.54103e-11 -5.46227e-14
  58 336.923 -6.51418e-11 2.07166e-14
  59 336.923 -6.52492e-11 -5.99086e-14
  60 336.923 -6.54909e-11 2.10059e-14
  61 336.923 -6.55392e-11 -6.67476e-14
  62 336.923 -6.51525e-11 1.16275e-13
  63 336.923 -6.54748e-11 -3.64867e-15
  64 336.923 -6.54425e-11 4.64178e-14
  65 336.923 -6.56359e-11 -1.20311e-13
  66 336.923 -6.56681e-11 -6.87157e-14
</Section>

newXOutput 128

<Section columns = "stress_xx | stress_yy | stress_xy">
  1 319.947 -6.15100e-11 -1.14429e-13
  2 319.947 -6.18141e-11 -1.62487e-13
  3 319.947 -6.17380e-11 -1.28104e-13
  4 319.947 -6.17380e-11 -1.26360e-13
  5 319.947 -6.14846e-11 -2.66495e-13
  6 319.947 -6.15353e-11 -3.72603e-13
  7 319.947 -6.15860e-11 -3.17622e-13
  8 319.947 -6.15860e-11 -3.45344e-13
  9 319.947 -6.15860e-11 -4.51241e-13
  10 319.947 -6.15860e-11 -3.88310e-13
  11 319.947 -6.16620e-11 -3.55504e-13
  12 319.947 -6.15860e-11 -3.08450e-13
  13 319.947 -6.15860e-11 -2.03430e-13
  14 319.947 -6.16874e-11 6.40777e-14
  15 319.947 -6.15100e-11 3.47033e-14
  16 319.947 -6.16367e-11 2.14830e-14
  17 319.947 -6.15353e-11 -1.75029e-13
  18 319.947 -6.15860e-11 -6.03275e-13
  19 319.947 -6.15480e-11 -7.61359e-13
  20 319.947 -6.15353e-11 -1.05902e-12
  21 319.947 -6.17000e-11 -1.01101e-12
  22 319.947 -6.19915e-11 -9.84928e-13
  23 319.947 -6.16367e-11 -7.94392e-13
  24 319.947 -6.16874e-11 -6.51514e-13
  25 319.947 -6.17887e-11 -3.85571e-13
  26 319.947 -6.18394e-11 6.67422e-14
  27 319.947 -6.16620e-11 6.94067e-14
  28 319.947 -6.15353e-11 2.70139e-14
  29 319.947 -6.16620e-11 4.89301e-13
  30 319.947 -6.16164e-11 5.02489e-13
  31 319.947 -6.17571e-11 4.84494e-13
  32 319.947 -6.16113e-11 4.01372e-13
  33 319.947 -6.15556e-11 -5.93188e-14
  34 319.947 -6.16468e-11 2.56215e-13
  35 319.947 -6.14947e-11 9.96517e-15
  36 319.947 -6.16164e-11 2.91234e-13
  37 319.947 -6.16620e-11 -1.28260e-13
  38 319.947 -6.15860e-11 -1.56173e-13
  39 319.947 -6.18141e-11 5.33742e-14
  40 319.947 -6.17380e-11 -2.43242e-13
  41 319.947 -6.15860e-11 1.67575e-13
  42 319.947 -6.15860e-11 1.24354e-13
  43 319.947 -6.15860e-11 -1.53307e-14
  44 319.947 -6.15670e-11 -1.06058e-13
  45 319.947 -6.15860e-11 1.48951e-13
  46 319.947 -6.16164e-11 -2.44904e-13
  47 319.947 -6.16729e-11 -6.43167e-14
  48 319.947 -6.19205e-11 -2.78924e-13
  49 319.947 -6.15100e-11 1.15226e-13
  50 319.947 -6.17000e-11 1.61328e-13
  51 319.947 -6.17127e-11 6.14660e-13
  52 319.947 -6.16113e-11 5.49869e-13
  53 319.947 -6.15860e-11 5.70651e-13
  54 319.947 -6.15556e-11 -6.11273e-13
  55 319.947 -6.15100e-11 -8.67491e-14
  56 319.947 -6.15860e-11 2.02809e-14
  57 319.947 -6.16620e-11 -7.76857e-14
  58 319.947 -6.18141e-11 -5.92457e-14
  59 319.947 -6.15606e-11 4.05820e-13
  60 319.947 -6.15606e-11 3.15095e-13
  61 319.947 -6.15860e-11 -1.82287e-13
  62 319.947 -6.16164e-11 -3.63665e-13
  63 319.947 -6.15556e-11 -2.58514e-13
  64 319.947 -6.16468e-11 -1.88349e-13
  65 319.947 -6.16164e-11 -4.67794e-13
  66 319.947 -6.16164e-11 -6.69049e-13
</Section>

newXOutput 129

<Section columns = "stress_xx | stress_yy | stress_xy">
  1 303.033 -5.77655e-11 2.25979e-14
  2 303.033 -5.79087e-11 -1.86230e-14
  3 303.033 -5.75508e-11 1.71211e-13
  4 303.033 -5.79803e-11 -6.81816e-15
  5 303.033 -5.76940e-11 6.44448e-14
  6 303.033 -5.77417e-11 1.61253e-13
  7 303.033 -5.76940e-11 1.13407e-13
  8 303.033 -5.76940e-11 1.68076e-14
  9 303.033 -5.78371e-11 2.32513e-14
  10 303.033 -5.78371e-11 1.18326e-13
  11 303.033 -5.80161e-11 3.25902e-14
  12 303.033 -5.78371e-11 -1.77153e-14
  13 303.033 -5.79326e-11 -6.11688e-14
  14 303.033 -5.79326e-11 -4.47420e-14
  15 303.033 -5.81950e-11 -3.25902e-14
  16 303.033 -5.79326e-11 -8.53552e-15
  17 303.033 -5.77894e-11 4.54406e-13
  18 303.033 -5.80280e-11 4.68919e-13
  19 303.033 -5.78729e-11 2.77873e-13
  20 303.033 -5.79326e-11 5.13116e-13
  21 303.033 -5.77298e-11 4.00003e-13
  22 303.033 -5.76940e-11 2.92672e-13
  23 303.033 -5.77894e-11 2.22268e-13
  24 303.033 -5.79803e-11 1.35012e-13
  25 303.033 -5.78848e-11 1.18423e-14
  26 303.033 -5.77417e-11 -1.34327e-15
  27 303.033 -5.78371e-11 -2.79344e-14
  28 303.033 -5.80280e-11 -1.51787e-14
  29 303.033 -5.76940e-11 -1.53532e-13
  30 303.033 -5.81807e-11 -2.35874e-13
  31 303.033 -5.76940e-11 -1.29866e-13
  32 303.033 -5.77417e-11 -1.03129e-13
  33 303.033 -5.81521e-11 -7.71843e-14
  34 303.033 -5.78085e-11 2.19512e-14
  35 303.033 -5.79803e-11 -5.84839e-14
  36 303.033 -5.79230e-11 -1.87574e-13
  37 303.033 -5.79087e-11 4.35012e-14
  38 303.033 -5.78371e-11 -3.91252e-14
  39 303.033 -5.76940e-11 7.02234e-14
  40 303.033 -5.78848e-11 -1.51703e-14
  41 303.033 -5.77417e-11 8.98226e-14
  42 303.033 -5.79087e-11 -8.47605e-14
  43 303.033 -5.80519e-11 -4.86026e-14
  44 303.033 -5.78550e-11 -3.89987e-14
  45 303.033 -5.78371e-11 3.69112e-14
  46 303.033 -5.77512e-11 -5.82437e-14
  47 303.033 -5.80825e-11 -3.00820e-14
  48 303.033 -5.77226e-11 1.60975e-13
  49 303.033 -5.79982e-11 -6.78432e-14
  50 303.033 -5.78729e-11 -3.08409e-14
  51 303.033 -5.78133e-11 -1.33697e-13
  52 303.033 -5.78610e-11 -1.47908e-13
  53 303.033 -5.79087e-11 -1.77500e-13
  54 303.033 -5.77799e-11 2.67032e-13
  55 303.033 -5.79087e-11 -5.72449e-15
  56 303.033 -5.77417e-11 6.19823e-14
  57 303.033 -5.79803e-11 -6.65823e-14
  58 303.033 -5.77894e-11 2.64383e-15
  59 303.033 -5.78848e-11 -9.42881e-14
  60 303.033 -5.80519e-11 -1.56248e-13
  61 303.033 -5.79803e-11 -1.42980e-13
  62 303.033 -5.78085e-11 4.32189e-14
  63 303.033 -5.78944e-11 9.11225e-14
  64 303.033 -5.80376e-11 2.33139e-13
  65 303.033 -5.79230e-11 8.49629e-14
  66 303.033 -5.76940e-11 3.14942e-13
</Section>

newXOutput 130

<Section columns = "stress_xx | stress_yy | stress_xy">
  1 286.183 -5.40948e-11 -8.47667e-14
  2 286.183 -5.39604e-11 -2.37289e-14
  3 286.183 -5.38260e-11 -1.34584e-13
  4 286.183 -5.41620e-11 -1.86337e-13
  5 286.183 -5.40276e-11 -1.64381e-13
  6 286.183 -5.41172e-11 -2.57093e-13
  7 286.183 -5.38484e-11 -2.30714e-13
  8 286.183 -5.38036e-11 -2.69380e-13
  9 286.183 -5.38260e-11 -3.22699e-13
  10 286.183 -5.37588e-11 -5.10029e-13
  11 286.183 -5.41956e-11 -3.35475e-13
  12 286.183 -5.39828e-11 -3.56172e-13
  13 286.183 -5.38036e-11 -1.45471e-13
  14 286.183 -5.41620e-11 1.00110e-13
  15 286.183 -5.39604e-11 5.66780e-14
  16 286.183 -5.38484e-11 -4.05250e-14
  17 286.183 -5.41172e-11 -7.36168e-13
  18 286.183 -5.39380e-11 -1.07041e-12
  19 286.183 -5.38932e-11 -1.06804e-12
  20 286.183 -5.39380e-11 -1.48234e-12
  21 286.183 -5.40612e-11 -1.10285e-12
  22 286.183 -5.41172e-11 -8.65476e-13
  23 286.183 -5.41620e-11 -7.27359e-13
  24 286.183 -5.43412e-11 -6.30915e-13
  25 286.183 -5.42068e-11 -4.12064e-13
  26 286.183 -5.43412e-11 4.73686e-14
  27 286.183 -5.44308e-11 4.35984e-14
  28 286.183 -5.42964e-11 2.48070e-14
  29 286.183 -5.44308e-11 4.41552e-13
  30 286.183 -5.38663e-11 6.03186e-13
  31 286.183 -5.41452e-11 4.44075e-13
  32 286.183 -5.40052e-11 2.09922e-13
  33 286.183 -5.42157e-11 1.06959e-13
  34 286.183 -5.42964e-11 2.24111e-13
  35 286.183 -5.41082e-11 -5.15213e-15
  36 286.183 -5.38125e-11 1.55468e-13
  37 286.183 -5.42068e-11 2.72827e-13
  38 286.183 -5.40724e-11 2.27632e-14
  39 286.183 -5.39604e-11 -1.07928e-13
  40 286.183 -5.42516e-11 2.10767e-13
  41 286.183 -5.39828e-11 -1.31824e-13
  42 286.183 -5.39380e-11 1.55814e-14
  43 286.183 -5.40444e-11 1.57243e-13
  44 286.183 -5.41956e-11 -3.71440e-14
  45 286.183 -5.43132e-11 6.38767e-14
  46 286.183 -5.40545e-11 -1.08788e-14
  47 286.183 -5.38356e-11 -1.78321e-13
  48 286.183 -5.40276e-11 -4.21193e-13
  49 286.183 -5.40108e-11 1.61243e-13
  50 286.183 -5.41956e-11 1.47015e-13
  51 286.183 -5.41396e-11 6.06665e-13
  52 286.183 -5.42292e-11 4.54723e-13
  53 286.183 -5.38932e-11 6.54116e-13
  54 286.183 -5.40276e-11 -8.43415e-13
  55 286.183 -5.40500e-11 -5.64872e-14
  56 286.183 -5.38260e-11 -1.65430e-13
  57 286.183 -5.40276e-11 -5.29136e-14
  58 286.183 -5.42292e-11 -9.58211e-14
  59 286.183 -5.43636e-11 3.82686e-13
  60 286.183 -5.39380e-11 4.84001e-13
  61 286.183 -5.40813e-11 -3.16002e-13
  62 286.183 -5.43501e-11 -4.11664e-13
  63 286.183 -5.40813e-11 -1.58361e-13
  64 286.183 -5.39469e-11 -5.80815e-13
  65 286.183 -5.40813e-11 -3.21463e-13
  66 286.183 -5.40545e-11 -8.80506e-13
</Section>

newXOutput 131

<Section columns = "stress_xx | stress_yy | stress_xy">
  1 269.394 -5.03073e-11 -2.61840e-14
  2 269.394 -5.06217e-11 1.19937e-13
  3 269.394 -5.08733e-11 8.84542e-14
  4 269.394 -5.03073e-11 1.37907e-13
  5 269.394 -5.04750e-11 -3.37352e-14
  6 269.394 -5.04750e-11 6.64906e-14
  7 269.394 -5.03073e-11 1.00324e-13
  8 269.394 -5.04750e-11 8.25088e-14
  9 269.394 -5.05903e-11 2.44926e-13
  10 269.394 -5.04331e-11 4.56999e-13
  11 269.394 -5.03073e-11 4.35693e-13
  12 269.394 -5.04331e-11 2.56547e-13
  13 269.394 -5.06008e-11 2.31572e-13
  14 269.394 -5.04750e-11 -2.29810e-14
  15 269.394 -5.05588e-11 -1.22094e-14
  16 269.394 -5.06846e-11 -2.50158e-14
  17 269.394 -5.07265e-11 4.11527e-13
  18 269.394 -5.05588e-11 5.21519e-13
  19 269.394 -5.03073e-11 4.42460e-13
  20 269.394 -5.03073e-11 4.08754e-13
  21 269.394 -5.05274e-11 4.54206e-13
  22 269.394 -5.04750e-11 5.05317e-13
  23 269.394 -5.03073e-11 5.22459e-13
  24 269.394 -5.03073e-11 5.22188e-13
  25 269.394 -5.03073e-11 3.61022e-13
  26 269.394 -5.03073e-11 -3.08915e-14
  27 269.394 -5.03073e-11 -2.44187e-14
  28 269.394 -5.03073e-11 -2.12475e-15
  29 269.394 -5.03073e-11 -2.91347e-13
  30 269.394 -5.04834e-11 -4.50134e-13
  31 269.394 -5.03702e-11 -2.29473e-13
  32 269.394 -5.05588e-11 -3.62124e-13
  33 269.394 -5.03325e-11 -2.59527e-14
  34 269.394 -5.04331e-11 -1.81931e-13
  35 269.394 -5.03073e-11 2.82146e-14
  36 269.394 -5.05085e-11 -2.40340e-13
  37 269.394 -5.03912e-11 1.69887e-13
  38 269.394 -5.04331e-11 8.63047e-14
  39 269.394 -5.03702e-11 -2.06965e-14
  40 269.394 -5.03702e-11 1.38733e-13
  41 269.394 -5.05169e-11 -1.01514e-13
  42 269.394 -5.04331e-11 -2.40773e-13
  43 269.394 -5.04331e-11 9.52530e-14
  44 269.394 -5.03545e-11 7.43056e-14
  45 269.394 -5.03859e-11 -9.50796e-14
  46 269.394 -5.04079e-11 8.15668e-14
  47 269.394 -5.04151e-11 -9.93375e-14
  48 269.394 -5.05085e-11 1.57866e-13
  49 269.394 -5.04645e-11 -5.94445e-14
  50 269.394 -5.03073e-11 -8.26099e-14
  51 269.394 -5.03073e-11 -4.65805e-13
  52 269.394 -5.04331e-11 -2.83876e-13
  53 269.394 -5.04540e-11 -4.93511e-13
  54 269.394 -5.05085e-11 2.90965e-13
  55 269.394 -5.03073e-11 -1.37457e-14
  56 269.394 -5.06008e-11 -7.10276e-15
  57 269.394 -5.04960e-11 3.13002e-14
  58 269.394 -5.03073e-11 5.65441e-14
  59 269.394 -5.03912e-11 -2.13940e-13
  60 269.394 -5.05588e-11 -1.82919e-13
  61 269.394 -5.04834e-11 1.34153e-13
  62 269.394 -5.03325e-11 2.92132e-13
  63 269.394 -5.04079e-11 2.31934e-14
  64 269.394 -5.05588e-11 1.59956e-13
  65 269.394 -5.04331e-11 4.58651e-13
  66 269.394 -5.05337e-11 2.70205e-13
</Section>

newXOutput 132

<Section columns = "stress_xx | stress_yy | stress_xy">
  1 252.668 -4.65570e-11 -2.13602e-13
  2 252.668 -4.73193e-11 -2.17616e-13
  3 252.668 -4.62638e-11 -4.49951e-13
  4 252.668 -4.74952e-11 -4.05136e-13
  5 252.668 -4.66352e-11 -6.11088e-13
  6 252.668 -4.67524e-11 -1.07165e-12
  7 252.668 -4.65179e-11 -1.34487e-12
  8 252.668 -4.64397e-11 -1.73786e-12
  9 252.668 -4.67622e-11 -1.88696e-12
  10 252.668 -4.70847e-11 -1.73534e-12
  11 252.668 -4.70261e-11 -1.55343e-12
  12 252.668 -4.69479e-11 -1.16824e-12
  13 252.668 -4.69870e-11 -6.88204e-13
  14 252.668 -4.74561e-11 4.66930e-14
  15 252.668 -4.70261e-11 1.02207e-13
  16 252.668 -4.64397e-11 1.17961e-13
  17 252.668 -4.66352e-11 -1.18096e-12
  18 252.668 -4.65961e-11 -1.98349e-12
  19 252.668 -4.66743e-11 -2.41223e-12
  20 252.668 -4.67915e-11 -3.09780e-12
  21 252.668 -4.70261e-11 -2.64994e-12
  22 252.668 -4.69870e-11 -2.46574e-12
  23 252.668 -4.69479e-11 -1.96949e-12
  24 252.668 -4.70261e-11 -1.62007e-12
  25 252.668 -4.70652e-11 -1.00978e-12
  26 252.668 -4.74170e-11 1.55026e-13
  27 252.668 -4.69088e-11 1.74130e-13
  28 252.668 -4.64397e-11 3.75434e-14
  29 252.668 -4.68502e-11 1.46077e-12
  30 252.668 -4.70495e-11 1.84220e-12
  31 252.668 -4.68502e-11 1.60327e-12
  32 252.668 -4.68502e-11 1.62350e-12
  33 252.668 -4.71668e-11 -1.66966e-15
  34 252.668 -4.73310e-11 7.55347e-13
  35 252.668 -4.63928e-11 -1.92094e-13
  36 252.668 -4.61817e-11 7.71127e-13
  37 252.668 -4.71238e-11 -4.94817e-13
  38 252.668 -4.65765e-11 -6.58397e-13
  39 252.668 -4.69283e-11 4.03142e-13
  40 252.668 -4.70261e-11 -7.50642e-13
  41 252.668 -4.68111e-11 6.99222e-13
  42 252.668 -4.68306e-11 7.36993e-13
  43 252.668 -4.70554e-11 -2.26509e-13
  44 252.668 -4.66743e-11 -4.49307e-13
  45 252.668 -4.69088e-11 6.40045e-13
  46 252.668 -4.67446e-11 -1.04499e-12
  47 252.668 -4.66072e-11 -1.53209e-14
  48 252.668 -4.69557e-11 -5.58238e-13
  49 252.668 -4.69088e-11 3.83482e-13
  50 252.668 -4.68208e-11 4.12681e-13
  51 252.668 -4.70261e-11 2.08270e-12
  52 252.668 -4.67329e-11 1.71316e-12
  53 252.668 -4.71238e-11 2.07501e-12
  54 252.668 -4.66273e-11 -1.73490e-12
  55 252.668 -4.63811e-11 -2.59136e-13
  56 252.668 -4.62443e-11 -1.99488e-13
  57 252.668 -4.73388e-11 -2.44267e-13
  58 252.668 -4.73583e-11 -1.85593e-13
  59 252.668 -4.68306e-11 1.15116e-12
  60 252.668 -4.68111e-11 1.18851e-12
  61 252.668 -4.70261e-11 -7.87803e-13
  62 252.668 -4.71668e-11 -1.03517e-12
  63 252.668 -4.65335e-11 -7.19167e-13
  64 252.668 -4.62990e-11 -1.00935e-12
  65 252.668 -4.71433e-11 -1.81103e-12
  66 252.668 -4.68384e-11 -1.86581e-12
</Section>

newXOutput 133

<Section columns = "stress_xx | stress_yy | stress_xy">
  1 236.004 -4.32898e-11 -1.25999e-13
  2 236.004 -4.38343e-11 -4.74276e-14
  3 236.004 -4.38343e-11 1.45738e-13
  4 236.004 -4.31264e-11 2.34277e-13
  5 236.004 -4.35258e-11 -3.95193e-13
  6 236.004 -4.34894e-11 -6.70410e-13
  7 236.004 -4.35984e-11 -8.13368e-13
  8 236.004 -4.37073e-11 -1.00062e-12
  9 236.004 -4.35893e-11 -1.05001e-12
  10 236.004 -4.38343e-11 -1.09548e-12
  11 236.004 -4.37799e-11 -7.51596e-13
  12 236.004 -4.36710e-11 -5.94494e-13
  13 236.004 -4.36710e-11 -2.93127e-13
  14 236.004 -4.36710e-11 4.67551e-15
  15 236.004 -4.38888e-11 -4.90929e-14
  16 236.004 -4.40340e-11 4.09107e-15
  17 236.004 -4.36347e-11 6.59431e-13
  18 236.004 -4.39251e-11 1.05552e-12
  19 236.004 -4.37254e-11 1.16931e-12
  20 236.004 -4.34531e-11 1.51582e-12
  21 236.004 -4.33987e-11 1.49817e-12
  22 236.004 -4.34894e-11 1.43930e-12
  23 236.004 -4.34168e-11 1.28128e-12
  24 236.004 -4.34894e-11 1.03078e-12
  25 236.004 -4.34894e-11 6.47719e-13
  26 236.004 -4.30175e-11 2.16536e-14
  27 236.004 -4.31264e-11 -1.75332e-14
  28 236.004 -4.30175e-11 -4.46842e-14
  29 236.004 -4.30175e-11 -2.12842e-13
  30 236.004 -4.40195e-11 -2.19713e-13
  31 236.004 -4.34668e-11 -1.55066e-13
  32 236.004 -4.36710e-11 1.72425e-13
  33 236.004 -4.36710e-11 -2.39482e-13
  34 236.004 -4.30611e-11 1.71301e-13
  35 236.004 -4.30175e-11 -2.34204e-13
  36 236.004 -4.40848e-11 1.49648e-14
  37 236.004 -4.35984e-11 -4.19425e-13
  38 236.004 -4.35076e-11 -6.07430e-13
  39 236.004 -4.34350e-11 6.52236e-13
  40 236.004 -4.35076e-11 -5.48077e-13
  41 236.004 -4.34713e-11 5.68505e-13
  42 236.004 -4.39069e-11 3.69952e-13
  43 236.004 -4.36982e-11 -3.46734e-13
  44 236.004 -4.32217e-11 -4.48126e-13
  45 236.004 -4.32490e-11 4.29010e-13
  46 236.004 -4.35621e-11 -7.45130e-13
  47 236.004 -4.40132e-11 4.05142e-13
  48 236.004 -4.34096e-11 9.31688e-13
  49 236.004 -4.38615e-11 -9.01647e-14
  50 236.004 -4.30720e-11 -6.51209e-14
  51 236.004 -4.35802e-11 -2.17967e-13
  52 236.004 -4.32353e-11 -2.32838e-13
  53 236.004 -4.37980e-11 -2.25558e-13
  54 236.004 -4.36056e-11 1.06036e-12
  55 236.004 -4.31990e-11 -1.93867e-13
  56 236.004 -4.39069e-11 1.74702e-13
  57 236.004 -4.37436e-11 -1.10646e-13
  58 236.004 -4.31446e-11 2.77551e-13
  59 236.004 -4.30357e-11 -1.77665e-13
  60 236.004 -4.38888e-11 -2.31815e-13
  61 236.004 -4.35838e-11 -3.28656e-13
  62 236.004 -4.33660e-11 7.35432e-13
  63 236.004 -4.33007e-11 -4.62060e-13
  64 236.004 -4.39541e-11 6.33211e-13
  65 236.004 -4.36492e-11 -8.75313e-13
  66 236.004 -4.34967e-11 1.15482e-12
</Section>

newXOutput 134

<Section columns = "stress_xx | stress_yy | stress_xy">
  1 219.402 -4.03162e-11 1.47986e-13
  2 219.402 -3.97626e-11 1.39371e-13
  3 219.402 -3.95109e-11 -2.36174e-13
  4 219.402 -4.04672e-11 -1.56263e-13
  5 219.402 -4.01652e-11 4.62166e-13
  6 219.402 -4.01317e-11 7.68681e-13
  7 219.402 -4.01317e-11 9.83722e-13
  8 219.402 -4.01317e-11 1.11639e-12
  9 219.402 -4.01149e-11 1.18212e-12
  10 219.402 -4.00646e-11 1.13147e-12
  11 219.402 -3.99136e-11 8.94765e-13
  12 219.402 -3.97290e-11 5.75437e-13
  13 219.402 -3.97290e-11 3.03644e-13
  14 219.402 -3.96619e-11 6.92033e-14
  15 219.402 -3.95612e-11 -1.29331e-14
  16 219.402 -3.95277e-11 -1.67052e-14
  17 219.402 -3.97626e-11 -7.07206e-13
  18 219.402 -3.97290e-11 -1.21342e-12
  19 219.402 -3.97122e-11 -1.42019e-12
  20 219.402 -3.97626e-11 -1.69504e-12
  21 219.402 -3.98632e-11 -1.55235e-12
  22 219.402 -4.01317e-11 -1.37472e-12
  23 219.402 -4.00646e-11 -1.17147e-12
  24 219.402 -4.00981e-11 -8.85419e-13
  25 219.402 -4.03666e-11 -4.85312e-13
  26 219.402 -4.06015e-11 -5.23208e-14
  27 219.402 -4.06182e-11 0.00000
  28 219.402 -4.05008e-11 4.76517e-14
  29 219.402 -4.05176e-11 3.45007e-14
  30 219.402 -3.96820e-11 1.63216e-14
  31 219.402 -4.01149e-11 1.17292e-13
  32 219.402 -3.98297e-11 -7.91421e-13
  33 219.402 -3.96820e-11 4.85892e-13
  34 219.402 -4.04672e-11 -3.82937e-13
  35 219.402 -4.04471e-11 3.65952e-13
  36 219.402 -3.95411e-11 -2.63967e-13
  37 219.402 -3.98632e-11 8.70416e-13
  38 219.402 -4.01652e-11 9.22708e-13
  39 219.402 -4.01652e-11 -9.48335e-13
  40 219.402 -3.99975e-11 9.76318e-13
  41 219.402 -3.98968e-11 -9.82390e-13
  42 219.402 -3.96619e-11 -8.48714e-13
  43 219.402 -3.97374e-11 7.04808e-13
  44 219.402 -4.02533e-11 6.51458e-13
  45 219.402 -4.02659e-11 -6.83143e-13
  46 219.402 -4.02256e-11 1.05268e-12
  47 219.402 -3.96332e-11 -7.18866e-13
  48 219.402 -3.99840e-11 -1.15433e-12
  49 219.402 -3.95487e-11 7.43333e-14
  50 219.402 -4.06056e-11 5.43354e-15
  51 219.402 -3.99471e-11 2.45226e-13
  52 219.402 -4.03330e-11 6.23236e-14
  53 219.402 -3.97626e-11 1.95216e-13
  54 219.402 -3.97022e-11 -1.43012e-12
  55 219.402 -4.03833e-11 2.51318e-13
  56 219.402 -3.96284e-11 -2.63532e-13
  57 219.402 -3.96955e-11 2.98914e-13
  58 219.402 -4.04672e-11 -2.76703e-13
  59 219.402 -4.05343e-11 3.60006e-14
  60 219.402 -3.95780e-11 1.35579e-13
  61 219.402 -3.98230e-11 5.40271e-13
  62 219.402 -4.02055e-11 -6.28355e-13
  63 219.402 -4.01250e-11 5.40591e-13
  64 219.402 -3.97827e-11 -7.62716e-13
  65 219.402 -3.99438e-11 1.01991e-12
  66 219.402 -3.97827e-11 -1.44925e-12
</Section>

newXOutput 135

<Section columns = "stress_xx | stress_yy | stress_xy">
  1 202.860 -3.60012e-11 -5.42979e-13
  2 202.860 -3.72043e-11 -4.81021e-13
  3 202.860 -3.70192e-11 1.57175e-13
  4 202.860 -3.65565e-11 1.58792e-13
  5 202.860 -3.63714e-11 -1.31446e-12
  6 202.860 -3.62171e-11 -2.20310e-12
  7 202.860 -3.61863e-11 -2.76688e-12
  8 202.860 -3.64639e-11 -3.38109e-12
  9 202.860 -3.66490e-11 -3.49646e-12
  10 202.860 -3.67416e-11 -3.56380e-12
  11 202.860 -3.70192e-11 -3.06273e-12
  12 202.860 -3.70192e-11 -2.47014e-12
  13 202.860 -3.68650e-11 -1.42007e-12
  14 202.860 -3.74820e-11 4.38067e-14
  15 202.860 -3.71118e-11 7.41302e-14
  16 202.860 -3.68958e-11 6.77056e-14
  17 202.860 -3.68650e-11 4.72588e-13
  18 202.860 -3.67416e-11 7.01955e-13
  19 202.860 -3.66722e-11 8.27533e-13
  20 202.860 -3.66182e-11 9.41882e-13
  21 202.860 -3.66490e-11 8.66162e-13
  22 202.860 -3.65873e-11 8.18058e-13
  23 202.860 -3.65565e-11 6.46796e-13
  24 202.860 -3.65256e-11 5.21076e-13
  25 202.860 -3.65565e-11 3.27047e-13
  26 202.860 -3.65256e-11 4.98077e-14
  27 202.860 -3.62788e-11 8.59910e-14
  28 202.860 -3.60629e-11 5.17168e-14
  29 202.860 -3.62788e-11 9.33461e-13
  30 202.860 -3.70007e-11 7.09872e-13
  31 202.860 -3.64292e-11 1.09389e-12
  32 202.860 -3.66799e-11 -3.40673e-13
  33 202.860 -3.75745e-11 5.56122e-13
  34 202.860 -3.63899e-11 -1.68588e-13
  35 202.860 -3.59827e-11 5.59949e-13
  36 202.860 -3.69637e-11 -1.40238e-14
  37 202.860 -3.69112e-11 4.16311e-13
  38 202.860 -3.63251e-11 -1.51543e-13
  39 202.860 -3.65411e-11 2.32350e-14
  40 202.860 -3.67724e-11 -2.89342e-14
  41 202.860 -3.66953e-11 -1.79082e-14
  42 202.860 -3.66953e-11 -1.20103e-13
  43 202.860 -3.69729e-11 3.24127e-13
  44 202.860 -3.63135e-11 2.14932e-13
  45 202.860 -3.65218e-11 -9.52441e-14
  46 202.860 -3.65380e-11 -1.17316e-12
  47 202.860 -3.68473e-11 1.17799e-13
  48 202.860 -3.65565e-11 3.18467e-13
  49 202.860 -3.72853e-11 2.78145e-13
  50 202.860 -3.62673e-11 2.53483e-13
  51 202.860 -3.66644e-11 1.42799e-12
  52 202.860 -3.64177e-11 1.06521e-12
  53 202.860 -3.67724e-11 1.36870e-12
  54 202.860 -3.66490e-11 5.79722e-13
  55 202.860 -3.60320e-11 -3.46058e-13
  56 202.860 -3.69421e-11 2.24108e-13
  57 202.860 -3.73894e-11 -3.80204e-13
  58 202.860 -3.64948e-11 1.10707e-13
  59 202.860 -3.63714e-11 7.19026e-13
  60 202.860 -3.71272e-11 8.37724e-13
  61 202.860 -3.72043e-11 -1.52971e-12
  62 202.860 -3.64454e-11 3.25824e-13
  63 202.860 -3.61122e-11 -1.34839e-12
  64 202.860 -3.68526e-11 5.30795e-13
  65 202.860 -3.69267e-11 -3.28763e-12
  66 202.860 -3.67046e-11 6.31197e-13
</Section>

newXOutput 136

<Section columns = "stress_xx | stress_yy | stress_xy">
  1 186.380 -3.41591e-11 4.35389e-13
  2 186.380 -3.29754e-11 4.18487e-13
  3 186.380 -3.33981e-11 -4.52952e-14
  4 186.380 -3.37363e-11 -1.22109e-13
  5 186.380 -3.38773e-11 1.04736e-12
  6 186.380 -3.37082e-11 1.75569e-12
  7 186.380 -3.37927e-11 2.20667e-12
  8 186.380 -3.35109e-11 2.60637e-12
  9 186.380 -3.33981e-11 2.66074e-12
  10 186.380 -3.34827e-11 2.57048e-12
  11 186.380 -3.33559e-11 2.21687e-12
  12 186.380 -3.32290e-11 1.77928e-12
  13 186.380 -3.32290e-11 1.06051e-12
  14 186.380 -3.29190e-11 -8.00445e-14
  15 186.380 -3.30176e-11 -5.94511e-14
  16 186.380 -3.33981e-11 1.02967e-14
  17 186.380 -3.33699e-11 -8.42707e-14
  18 186.380 -3.33981e-11 -2.84478e-13
  19 186.380 -3.34615e-11 -2.77573e-13
  20 186.380 -3.34263e-11 -3.90589e-13
  21 186.380 -3.35884e-11 -2.78587e-13
  22 186.380 -3.35391e-11 -3.38021e-13
  23 186.380 -3.35391e-11 -2.88386e-13
  24 186.380 -3.36236e-11 -2.26177e-13
  25 186.380 -3.37363e-11 -1.67977e-13
  26 186.380 -3.35391e-11 3.63790e-15
  27 186.380 -3.37363e-11 -4.86418e-14
  28 186.380 -3.39618e-11 -9.79275e-14
  29 186.380 -3.36307e-11 -8.13193e-13
  30 186.380 -3.32967e-11 -4.94318e-13
  31 186.380 -3.36307e-11 -9.45249e-13
  32 186.380 -3.36377e-11 7.52578e-13
  33 186.380 -3.28739e-11 -6.93572e-13
  34 186.380 -3.34996e-11 3.74371e-13
  35 186.380 -3.38040e-11 -7.11715e-13
  36 186.380 -3.33812e-11 3.79801e-13
  37 186.380 -3.33699e-11 -7.99905e-13
  38 186.380 -3.36800e-11 -2.73301e-13
  39 186.380 -3.34968e-11 4.17501e-13
  40 186.380 -3.32713e-11 -4.27154e-13
  41 186.380 -3.34968e-11 5.05832e-13
  42 186.380 -3.35531e-11 5.15508e-13
  43 186.380 -3.33559e-11 -5.33586e-13
  44 186.380 -3.36201e-11 -5.15633e-13
  45 186.380 -3.34615e-11 4.35334e-13
  46 186.380 -3.35165e-11 6.19423e-13
  47 186.380 -3.33861e-11 3.00231e-13
  48 186.380 -3.36011e-11 1.94020e-13
  49 186.380 -3.31762e-11 -2.36121e-13
  50 186.380 -3.36518e-11 -2.17940e-13
  51 186.380 -3.35531e-11 -1.26436e-12
  52 186.380 -3.34968e-11 -9.31675e-13
  53 186.380 -3.35531e-11 -1.14887e-12
  54 186.380 -3.35503e-11 -7.34685e-14
  55 186.380 -3.39759e-11 2.04055e-13
  56 186.380 -3.33418e-11 7.48857e-14
  57 186.380 -3.29895e-11 2.03097e-13
  58 186.380 -3.36377e-11 6.07822e-15
  59 186.380 -3.35531e-11 -6.30765e-13
  60 186.380 -3.32713e-11 -7.11667e-13
  61 186.380 -3.30430e-11 1.13069e-12
  62 186.380 -3.36518e-11 -1.18662e-13
  63 186.380 -3.38378e-11 1.04300e-12
  64 186.380 -3.32628e-11 -7.83787e-14
  65 186.380 -3.32290e-11 2.37330e-12
  66 186.380 -3.35334e-11 -1.00901e-13
</Section>

newXOutput 137

<Section columns = "stress_xx | stress_yy | stress_xy">
  1 169.960 -3.01331e-11 -9.33223e-15
  2 169.960 -3.02865e-11 -2.84425e-14
  3 169.960 -3.03632e-11 -1.67862e-14
  4 169.960 -3.02865e-11 -3.90746e-14
  5 169.960 -3.01843e-11 -3.36262e-14
  6 169.960 -3.02098e-11 -1.23105e-13
  7 169.960 -3.02098e-11 -1.49623e-13
  8 169.960 -3.01076e-11 -2.00583e-13
  9 169.960 -3.03057e-11 -2.54321e-13
  10 169.960 -3.02865e-11 -3.39987e-13
  11 169.960 -3.02673e-11 -2.34212e-13
  12 169.960 -3.02865e-11 -2.42063e-13
  13 169.960 -3.01843e-11 -1.88140e-13
  14 169.960 -3.03887e-11 2.87396e-14
  15 169.960 -3.04015e-11 -2.44450e-15
  16 169.960 -3.04398e-11 3.24064e-14
  17 169.960 -3.01587e-11 -8.59892e-14
  18 169.960 -3.01587e-11 -1.76576e-13
  19 169.960 -3.01523e-11 -1.45601e-13
  20 169.960 -3.02354e-11 -3.00044e-13
  21 169.960 -3.03248e-11 -2.02653e-13
  22 169.960 -3.03121e-11 -1.74032e-13
  23 169.960 -3.02609e-11 -1.94164e-13
  24 169.960 -3.02865e-11 -1.71741e-13
  25 169.960 -3.02865e-11 -1.27066e-13
  26 169.960 -3.02609e-11 1.68886e-14
  27 169.960 -3.01715e-11 0.00000
  28 169.960 -3.00565e-11 -1.20739e-14
  29 169.960 -3.02673e-11 1.29718e-13
  30 169.960 -3.01945e-11 1.72522e-13
  31 169.960 -3.02002e-11 1.39036e-13
  32 169.960 -3.01843e-11 1.28425e-13
  33 169.960 -3.03172e-11 5.59115e-14
  34 169.960 -3.02558e-11 8.05605e-14
  35 169.960 -3.01331e-11 -8.49769e-15
  36 169.960 -3.02098e-11 9.89303e-14
  37 169.960 -3.02609e-11 1.49007e-14
  38 169.960 -3.01970e-11 -6.12773e-14
  39 169.960 -3.01459e-11 2.84318e-14
  40 169.960 -3.03121e-11 -2.94680e-14
  41 169.960 -3.02865e-11 4.70831e-14
  42 169.960 -3.01331e-11 6.35756e-14
  43 169.960 -3.02482e-11 1.64608e-14
  44 169.960 -3.02386e-11 -4.37957e-14
  45 169.960 -3.02482e-11 4.48552e-14
  46 169.960 -3.02098e-11 -9.38715e-14
  47 169.960 -3.01660e-11 1.32714e-14
  48 169.960 -3.02405e-11 -4.52874e-14
  49 169.960 -3.03344e-11 4.68463e-14
  50 169.960 -3.01715e-11 3.83191e-14
  51 169.960 -3.02737e-11 1.98042e-13
  52 169.960 -3.01970e-11 1.45366e-13
  53 169.960 -3.02226e-11 2.16015e-13
  54 169.960 -3.00871e-11 -1.08189e-13
  55 169.960 -3.01076e-11 -1.73314e-14
  56 169.960 -3.02609e-11 5.45321e-14
  57 169.960 -3.02993e-11 6.85299e-15
  58 169.960 -3.02609e-11 -1.67229e-14
  59 169.960 -3.02482e-11 1.13314e-13
  60 169.960 -3.02098e-11 1.09741e-13
  61 169.960 -3.02712e-11 -1.57548e-13
  62 169.960 -3.02865e-11 -9.68457e-14
  63 169.960 -3.01331e-11 -7.47174e-14
  64 169.960 -3.01331e-11 -3.14573e-14
  65 169.960 -3.03172e-11 -2.56589e-13
  66 169.960 -3.02405e-11 -1.38209e-13
</Section>

newXOutput 138

<Section columns = "stress_xx | stress_yy | stress_xy">
  1 153.601 -2.72895e-11 3.87102e-14
  2 153.601 -2.73584e-11 -2.55605e-14
  3 153.601 -2.71172e-11 -1.02046e-14
  4 153.601 -2.73584e-11 -1.60644e-14
  5 153.601 -2.72205e-11 8.86165e-14
  6 153.601 -2.72205e-11 1.27027e-13
  7 153.601 -2.71746e-11 1.50404e-13
  8 153.601 -2.72205e-11 1.71036e-13
  9 153.601 -2.72550e-11 1.39961e-13
  10 153.601 -2.73584e-11 3.50659e-14
  11 153.601 -2.73239e-11 8.46418e-14
  12 153.601 -2.73124e-11 1.21479e-15
  13 153.601 -2.72205e-11 -7.20687e-14
  14 153.601 -2.71746e-11 3.45733e-14
  15 153.601 -2.70827e-11 2.62994e-14
  16 153.601 -2.71516e-11 8.76646e-15
  17 153.601 -2.71287e-11 -1.31324e-14
  18 153.601 -2.70827e-11 -6.26834e-14
  19 153.601 -2.71172e-11 -1.60687e-13
  20 153.601 -2.71287e-11 -2.51405e-13
  21 153.601 -2.71172e-11 -1.59439e-13
  22 153.601 -2.70827e-11 -1.52587e-13
  23 153.601 -2.71287e-11 -1.41029e-13
  24 153.601 -2.72205e-11 -8.72092e-14
  25 153.601 -2.73124e-11 -4.95055e-14
  26 153.601 -2.72665e-11 2.46453e-15
  27 153.601 -2.72205e-11 -2.19162e-15
  28 153.601 -2.73584e-11 -1.33793e-15
  29 153.601 -2.72205e-11 -1.99328e-14
  30 153.601 -2.72757e-11 -2.80726e-14
  31 153.601 -2.72205e-11 2.96579e-15
  32 153.601 -2.71976e-11 7.40161e-14
  33 153.601 -2.71378e-11 5.73015e-15
  34 153.601 -2.72757e-11 4.43846e-14
  35 153.601 -2.72205e-11 -5.55937e-14
  36 153.601 -2.71654e-11 9.71450e-15
  37 153.601 -2.71516e-11 1.22089e-14
  38 153.601 -2.72435e-11 6.19972e-15
  39 153.601 -2.71287e-11 -1.24639e-14
  40 153.601 -2.71746e-11 1.78631e-14
  41 153.601 -2.71287e-11 2.70050e-14
  42 153.601 -2.71746e-11 1.19769e-14
  43 153.601 -2.72722e-11 -2.78445e-14
  44 153.601 -2.72033e-11 -2.81630e-14
  45 153.601 -2.72033e-11 1.85029e-14
  46 153.601 -2.72481e-11 4.52455e-14
  47 153.601 -2.71615e-11 -2.63471e-14
  48 153.601 -2.71103e-11 -3.07232e-14
  49 153.601 -2.71344e-11 2.93066e-14
  50 153.601 -2.72550e-11 -6.58483e-15
  51 153.601 -2.70827e-11 2.38407e-14
  52 153.601 -2.72205e-11 -5.59424e-15
  53 153.601 -2.71746e-11 3.11053e-14
  54 153.601 -2.71378e-11 -1.59211e-13
  55 153.601 -2.72435e-11 1.82726e-14
  56 153.601 -2.71861e-11 -3.52353e-14
  57 153.601 -2.71976e-11 5.15038e-16
  58 153.601 -2.73124e-11 -1.08229e-14
  59 153.601 -2.72665e-11 -1.98011e-14
  60 153.601 -2.71746e-11 -1.73392e-14
  61 153.601 -2.71654e-11 -3.47463e-15
  62 153.601 -2.73032e-11 -4.74042e-14
  63 153.601 -2.71654e-11 7.43048e-14
  64 153.601 -2.71654e-11 -6.81447e-14
  65 153.601 -2.72481e-11 1.11829e-13
  66 153.601 -2.72205e-11 -1.64293e-13
</Section>

newXOutput 139

<Section columns = "stress_xx | stress_yy | stress_xy">
  1 137.302 -2.40461e-11 -2.87022e-14
  2 137.302 -2.38929e-11 1.55485e-14
  3 137.302 -2.40461e-11 -5.07163e-15
  4 137.302 -2.39848e-11 3.46476e-14
  5 137.302 -2.38929e-11 -5.10261e-14
  6 137.302 -2.39951e-11 -4.40501e-14
  7 137.302 -2.39134e-11 -4.90324e-14
  8 137.302 -2.38521e-11 -8.17220e-14
  9 137.302 -2.38776e-11 -9.41787e-14
  10 137.302 -2.38623e-11 -1.10922e-13
  11 137.302 -2.39695e-11 -1.22433e-13
  12 137.302 -2.39746e-11 -9.57742e-14
  13 137.302 -2.38929e-11 -2.00536e-16
  14 137.302 -2.39951e-11 -4.06604e-14
  15 137.302 -2.40461e-11 -9.71780e-15
  16 137.302 -2.40359e-11 -6.15460e-15
  17 137.302 -2.39951e-11 2.56458e-15
  18 137.302 -2.39746e-11 9.58207e-14
  19 137.302 -2.40308e-11 1.72140e-13
  20 137.302 -2.39746e-11 1.67499e-13
  21 137.302 -2.40002e-11 2.10924e-13
  22 137.302 -2.40155e-11 1.88303e-13
  23 137.302 -2.40563e-11 1.34507e-13
  24 137.302 -2.40767e-11 9.76939e-14
  25 137.302 -2.40767e-11 6.41233e-14
  26 137.302 -2.38725e-11 -8.96578e-16
  27 137.302 -2.38317e-11 -5.83068e-15
  28 137.302 -2.39134e-11 -2.89027e-15
  29 137.302 -2.38929e-11 -4.44091e-14
  30 137.302 -2.40890e-11 9.97576e-15
  31 137.302 -2.38776e-11 -5.84687e-14
  32 137.302 -2.39848e-11 1.79201e-13
  33 137.302 -2.40522e-11 -1.59238e-13
  34 137.302 -2.38807e-11 2.56009e-14
  35 137.302 -2.39420e-11 -5.43846e-14
  36 137.302 -2.39665e-11 1.03582e-13
  37 137.302 -2.40359e-11 -1.38155e-13
  38 137.302 -2.38521e-11 -1.13872e-13
  39 137.302 -2.39440e-11 1.00106e-13
  40 137.302 -2.39644e-11 -1.31178e-13
  41 137.302 -2.39848e-11 1.60937e-13
  42 137.302 -2.40053e-11 1.47434e-13
  43 137.302 -2.40538e-11 -1.19387e-13
  44 137.302 -2.39466e-11 -7.70488e-14
  45 137.302 -2.39542e-11 6.19705e-14
  46 137.302 -2.38562e-11 -9.73485e-14
  47 137.302 -2.40417e-11 1.18617e-13
  48 137.302 -2.39665e-11 1.60637e-13
  49 137.302 -2.40078e-11 -2.28252e-14
  50 137.302 -2.38623e-11 -7.84834e-15
  51 137.302 -2.39848e-11 -9.37689e-14
  52 137.302 -2.38725e-11 -6.43760e-14
  53 137.302 -2.40155e-11 -4.09613e-14
  54 137.302 -2.40032e-11 2.24920e-13
  55 137.302 -2.39440e-11 -3.55287e-14
  56 137.302 -2.40359e-11 1.23617e-14
  57 137.302 -2.39644e-11 -6.84911e-14
  58 137.302 -2.39440e-11 2.97626e-14
  59 137.302 -2.38827e-11 -2.64854e-14
  60 137.302 -2.40359e-11 -1.67757e-14
  61 137.302 -2.39787e-11 -1.08501e-13
  62 137.302 -2.39910e-11 6.87525e-14
  63 137.302 -2.39787e-11 -6.38623e-14
  64 137.302 -2.40155e-11 6.03887e-14
  65 137.302 -2.39420e-11 -8.14721e-14
  66 137.302 -2.40155e-11 2.19570e-13
</Section>

newXOutput 140

<Section columns = "stress_xx | stress_yy | stress_xy">
  1 121.063 -2.10337e-11 1.51821e-14
  2 121.063 -2.09531e-11 2.67242e-14
  3 121.063 -2.10337e-11 6.87594e-15
  4 121.063 -2.10337e-11 -2.14065e-14
  5 121.063 -2.10605e-11 3.07313e-14
  6 121.063 -2.10068e-11 7.43777e-14
  7 121.063 -2.10068e-11 1.06689e-13
  8 121.063 -2.09173e-11 1.27139e-13
  9 121.063 -2.09800e-11 1.69996e-13
  10 121.063 -2.09262e-11 1.44301e-13
  11 121.063 -2.09262e-11 8.05320e-14
  12 121.063 -2.09352e-11 2.67242e-14
  13 121.063 -2.09531e-11 4.69670e-14
  14 121.063 -2.10068e-11 -2.68839e-14
  15 121.063 -2.09531e-11 -1.36018e-14
  16 121.063 -2.10068e-11 3.96718e-15
  17 121.063 -2.09352e-11 3.19337e-14
  18 121.063 -2.09889e-11 7.95153e-15
  19 121.063 -2.09800e-11 -4.82559e-14
  20 121.063 -2.09173e-11 -1.40525e-13
  21 121.063 -2.09800e-11 -1.04886e-13
  22 121.063 -2.09352e-11 -1.13021e-13
  23 121.063 -2.09531e-11 -9.48037e-14
  24 121.063 -2.09352e-11 -8.41280e-14
  25 121.063 -2.09531e-11 -4.26727e-14
  26 121.063 -2.10605e-11 -3.40044e-15
  27 121.063 -2.10337e-11 5.10066e-15
  28 121.063 -2.10068e-11 8.48113e-15
  29 121.063 -2.10337e-11 -5.49361e-15
  30 121.063 -2.09961e-11 2.13585e-14
  31 121.063 -2.09934e-11 -2.26902e-14
  32 121.063 -2.09979e-11 -3.52402e-15
  33 121.063 -2.08886e-11 -6.90424e-14
  34 121.063 -2.10820e-11 3.92071e-15
  35 121.063 -2.10820e-11 -1.00335e-14
  36 121.063 -2.09638e-11 -5.45621e-14
  37 121.063 -2.10516e-11 -6.74283e-15
  38 121.063 -2.09889e-11 1.26978e-14
  39 121.063 -2.09979e-11 -1.03836e-14
  40 121.063 -2.10247e-11 3.80549e-14
  41 121.063 -2.09979e-11 -3.01621e-14
  42 121.063 -2.09710e-11 2.16597e-14
  43 121.063 -2.09464e-11 -5.67832e-15
  44 121.063 -2.10538e-11 -6.89249e-15
  45 121.063 -2.09934e-11 4.07542e-15
  46 121.063 -2.09316e-11 6.09986e-14
  47 121.063 -2.09991e-11 -1.61521e-14
  48 121.063 -2.09961e-11 -4.58123e-14
  49 121.063 -2.09934e-11 -1.13566e-14
  50 121.063 -2.10941e-11 1.39641e-15
  51 121.063 -2.10605e-11 -6.03866e-14
  52 121.063 -2.10605e-11 -5.96709e-15
  53 121.063 -2.10158e-11 -2.81011e-14
  54 121.063 -2.09209e-11 -7.11326e-14
  55 121.063 -2.10874e-11 1.62058e-14
  56 121.063 -2.09979e-11 -3.76089e-14
  57 121.063 -2.09620e-11 -1.08517e-14
  58 121.063 -2.10426e-11 -2.20276e-14
  59 121.063 -2.10337e-11 3.58876e-16
  60 121.063 -2.09710e-11 1.71522e-14
  61 121.063 -2.08994e-11 5.05272e-15
  62 121.063 -2.09853e-11 -6.49261e-14
  63 121.063 -2.10498e-11 4.69351e-14
  64 121.063 -2.09638e-11 -9.31045e-14
  65 121.063 -2.09853e-11 1.44812e-13
  66 121.063 -2.09424e-11 -9.48351e-14
</Section>

newXOutput 141

<Section columns = "stress_xx | stress_yy | stress_xy">
  1 104.883 -1.80555e-11 2.23870e-15
  2 104.883 -1.80786e-11 2.92298e-15
  3 104.883 -1.80555e-11 2.37875e-15
  4 104.883 -1.80323e-11 3.29862e-15
  5 104.883 -1.80555e-11 7.79462e-15
  6 104.883 -1.80709e-11 -2.73714e-15
  7 104.883 -1.80864e-11 -2.06073e-14
  8 104.883 -1.81326e-11 -3.83536e-14
  9 104.883 -1.81597e-11 -2.06172e-14
  10 104.883 -1.81712e-11 -5.84596e-15
  11 104.883 -1.81365e-11 -7.30745e-16
  12 104.883 -1.80864e-11 -5.10198e-14
  13 104.883 -1.81326e-11 -3.08068e-14
  14 104.883 -1.81172e-11 1.16919e-14
  15 104.883 -1.81944e-11 5.84596e-15
  16 104.883 -1.81018e-11 -1.75337e-14
  17 104.883 -1.80555e-11 7.69806e-15
  18 104.883 -1.80864e-11 -2.94204e-14
  19 104.883 -1.81481e-11 5.25651e-14
  20 104.883 -1.81326e-11 4.58549e-14
  21 104.883 -1.80208e-11 4.07232e-14
  22 104.883 -1.80555e-11 2.20533e-14
  23 104.883 -1.80555e-11 8.71795e-15
  24 104.883 -1.80555e-11 2.08751e-14
  25 104.883 -1.80709e-11 2.79943e-14
  26 104.883 -1.80709e-11 -2.17675e-15
  27 104.883 -1.80323e-11 5.84596e-15
  28 104.883 -1.80401e-11 3.18205e-15
  29 104.883 -1.80902e-11 4.48834e-15
  30 104.883 -1.80833e-11 -1.07401e-14
  31 104.883 -1.80786e-11 -8.02708e-15
  32 104.883 -1.81018e-11 -9.37579e-15
  33 104.883 -1.81018e-11 3.82252e-14
  34 104.883 -1.80647e-11 -1.09914e-14
  35 104.883 -1.80647e-11 -5.40499e-15
  36 104.883 -1.80647e-11 -4.10442e-14
  37 104.883 -1.81018e-11 1.87217e-14
  38 104.883 -1.80941e-11 6.76674e-15
  39 104.883 -1.80555e-11 -1.99917e-14
  40 104.883 -1.81018e-11 2.08250e-14
  41 104.883 -1.80709e-11 2.53359e-15
  42 104.883 -1.81249e-11 1.08528e-14
  43 104.883 -1.80786e-11 1.62319e-14
  44 104.883 -1.80786e-11 7.15347e-15
  45 104.883 -1.80728e-11 -1.40071e-14
  46 104.883 -1.81203e-11 6.21619e-15
  47 104.883 -1.80819e-11 -6.72438e-15
  48 104.883 -1.80740e-11 1.20457e-14
  49 104.883 -1.81191e-11 -9.68079e-15
  50 104.883 -1.80555e-11 1.85009e-15
  51 104.883 -1.80401e-11 -4.27853e-14
  52 104.883 -1.80555e-11 -1.02272e-14
  53 104.883 -1.80632e-11 -2.29822e-14
  54 104.883 -1.81666e-11 5.96275e-14
  55 104.883 -1.80478e-11 -1.49810e-15
  56 104.883 -1.80555e-11 -2.42918e-14
  57 104.883 -1.81172e-11 2.16281e-14
  58 104.883 -1.80478e-11 4.47815e-17
  59 104.883 -1.80864e-11 3.50998e-15
  60 104.883 -1.80478e-11 -1.34584e-14
  61 104.883 -1.81296e-11 5.13127e-15
  62 104.883 -1.80462e-11 5.89150e-15
  63 104.883 -1.80740e-11 -7.68762e-15
  64 104.883 -1.80370e-11 -2.05723e-14
  65 104.883 -1.81759e-11 1.94328e-14
  66 104.883 -1.81203e-11 4.36379e-14
</Section>

newXOutput 142

<Section columns = "stress_xx | stress_yy | stress_xy">
  1 88.7626 -1.51213e-11 1.27124e-14
  2 88.7626 -1.52772e-11 1.22727e-14
  3 88.7626 -1.51213e-11 8.12287e-15
  4 88.7626 -1.51213e-11 1.00421e-15
  5 88.7626 -1.51213e-11 2.93766e-14
  6 88.7626 -1.51213e-11 4.60334e-14
  7 88.7626 -1.51213e-11 4.24675e-14
  8 88.7626 -1.51213e-11 5.00779e-14
  9 88.7626 -1.51505e-11 4.63344e-14
  10 88.7626 -1.51213e-11 -2.45453e-15
  11 88.7626 -1.51115e-11 3.64007e-14
  12 88.7626 -1.51213e-11 1.70890e-14
  13 88.7626 -1.52642e-11 2.92689e-14
  14 88.7626 -1.52122e-11 1.63636e-15
  15 88.7626 -1.51213e-11 -7.36360e-15
  16 88.7626 -1.51213e-11 6.13634e-16
  17 88.7626 -1.51602e-11 4.01511e-14
  18 88.7626 -1.51213e-11 -1.44297e-14
  19 88.7626 -1.51213e-11 -2.61204e-14
  20 88.7626 -1.51213e-11 -5.47025e-14
  21 88.7626 -1.51213e-11 -4.61012e-15
  22 88.7626 -1.51213e-11 -5.32524e-15
  23 88.7626 -1.51213e-11 1.12130e-15
  24 88.7626 -1.51213e-11 2.23460e-15
  25 88.7626 -1.51213e-11 5.88620e-15
  26 88.7626 -1.51213e-11 -4.45361e-15
  27 88.7626 -1.51992e-11 -2.45453e-15
  28 88.7626 -1.52252e-11 1.62476e-15
  29 88.7626 -1.51213e-11 -2.17181e-14
  30 88.7626 -1.51680e-11 -1.83274e-14
  31 88.7626 -1.51505e-11 -2.00648e-14
  32 88.7626 -1.51213e-11 -6.49906e-15
  33 88.7626 -1.51525e-11 -3.82669e-14
  34 88.7626 -1.51447e-11 1.93872e-15
  35 88.7626 -1.51369e-11 -1.83787e-14
  36 88.7626 -1.50979e-11 9.92695e-15
  37 88.7626 -1.51343e-11 1.03438e-14
  38 88.7626 -1.51473e-11 1.16737e-14
  39 88.7626 -1.51213e-11 -9.54357e-15
  40 88.7626 -1.51538e-11 9.14692e-15
  41 88.7626 -1.51213e-11 2.93274e-15
  42 88.7626 -1.51213e-11 -1.36233e-14
  43 88.7626 -1.51505e-11 -1.33854e-14
  44 88.7626 -1.51213e-11 -2.71115e-15
  45 88.7626 -1.51213e-11 -3.50047e-15
  46 88.7626 -1.51680e-11 2.69537e-14
  47 88.7626 -1.51380e-11 7.04438e-15
  48 88.7626 -1.51213e-11 -4.98188e-16
  49 88.7626 -1.51310e-11 -4.67375e-16
  50 88.7626 -1.51846e-11 -4.21144e-15
  51 88.7626 -1.51213e-11 -2.86632e-14
  52 88.7626 -1.51213e-11 -1.76411e-14
  53 88.7626 -1.51408e-11 -2.74376e-14
  54 88.7626 -1.51213e-11 -3.72730e-14
  55 88.7626 -1.51602e-11 7.79756e-15
  56 88.7626 -1.51213e-11 1.06849e-14
  57 88.7626 -1.52642e-11 8.39792e-15
  58 88.7626 -1.51213e-11 -4.60462e-15
  59 88.7626 -1.51408e-11 -1.50637e-14
  60 88.7626 -1.51602e-11 -3.39492e-15
  61 88.7626 -1.52070e-11 -7.67367e-15
  62 88.7626 -1.51213e-11 -7.78726e-15
  63 88.7626 -1.51213e-11 2.55289e-14
  64 88.7626 -1.51291e-11 1.35082e-14
  65 88.7626 -1.51369e-11 4.17172e-14
  66 88.7626 -1.51213e-11 -2.53916e-14
</Section>

newXOutput 143

<Section columns = "stress_xx | stress_yy | stress_xy">
  1 72.7012 -1.23834e-11 4.73906e-16
  2 72.7012 -1.23199e-11 1.17708e-14
  3 72.7012 -1.23199e-11 2.19158e-14
  4 72.7012 -1.23834e-11 5.27710e-15
  5 72.7012 -1.23834e-11 6.26754e-15
  6 72.7012 -1.23834e-11 -3.60768e-15
  7 72.7012 -1.23411e-11 -6.26754e-15
  8 72.7012 -1.23834e-11 1.32993e-15
  9 72.7012 -1.23199e-11 1.38402e-14
  10 72.7012 -1.22564e-11 4.34907e-14
  11 72.7012 -1.23358e-11 4.49372e-14
  12 72.7012 -1.23623e-11 1.83543e-14
  13 72.7012 -1.23305e-11 5.18736e-15
  14 72.7012 -1.22776e-11 -2.76638e-14
  15 72.7012 -1.23040e-11 -7.97959e-15
  16 72.7012 -1.23199e-11 2.69374e-15
  17 72.7012 -1.22988e-11 -1.45270e-14
  18 72.7012 -1.23199e-11 -5.11074e-14
  19 72.7012 -1.23834e-11 -2.31815e-14
  20 72.7012 -1.23199e-11 -4.52732e-14
  21 72.7012 -1.22961e-11 -5.71745e-15
  22 72.7012 -1.23623e-11 2.68629e-15
  23 72.7012 -1.23834e-11 1.75055e-14
  24 72.7012 -1.23834e-11 1.69028e-14
  25 72.7012 -1.23834e-11 1.14867e-14
  26 72.7012 -1.23411e-11 -1.74514e-16
  27 72.7012 -1.23199e-11 -3.98980e-15
  28 72.7012 -1.22988e-11 -3.15859e-15
  29 72.7012 -1.23279e-11 -8.08784e-15
  30 72.7012 -1.22945e-11 1.07581e-14
  31 72.7012 -1.22921e-11 -1.24561e-15
  32 72.7012 -1.22829e-11 4.66162e-14
  33 72.7012 -1.23009e-11 -2.07677e-14
  34 72.7012 -1.23199e-11 3.73582e-15
  35 72.7012 -1.23072e-11 -1.19473e-14
  36 72.7012 -1.22691e-11 9.07820e-14
  37 72.7012 -1.23305e-11 1.18024e-15
  38 72.7012 -1.23411e-11 -2.88641e-14
  39 72.7012 -1.23146e-11 2.86859e-14
  40 72.7012 -1.23093e-11 1.08286e-14
  41 72.7012 -1.22670e-11 2.62996e-14
  42 72.7012 -1.23199e-11 3.76722e-14
  43 72.7012 -1.23318e-11 1.87316e-16
  44 72.7012 -1.23517e-11 -2.24415e-14
  45 72.7012 -1.23279e-11 1.92379e-14
  46 72.7012 -1.23072e-11 -1.42573e-14
  47 72.7012 -1.23109e-11 1.15567e-14
  48 72.7012 -1.23072e-11 1.87532e-14
  49 72.7012 -1.22763e-11 -6.34662e-15
  50 72.7012 -1.22763e-11 -1.98079e-15
  51 72.7012 -1.23199e-11 -2.31555e-14
  52 72.7012 -1.23199e-11 -8.47966e-15
  53 72.7012 -1.23093e-11 -1.89027e-14
  54 72.7012 -1.23199e-11 1.77190e-14
  55 72.7012 -1.23411e-11 1.45895e-15
  56 72.7012 -1.23093e-11 4.18851e-14
  57 72.7012 -1.22988e-11 -1.05567e-14
  58 72.7012 -1.23411e-11 1.58452e-15
  59 72.7012 -1.23146e-11 -5.65892e-15
  60 72.7012 -1.22723e-11 -1.90754e-15
  61 72.7012 -1.23390e-11 2.30425e-14
  62 72.7012 -1.23834e-11 2.11798e-15
  63 72.7012 -1.23580e-11 6.72309e-15
  64 72.7012 -1.23009e-11 1.55846e-14
  65 72.7012 -1.23072e-11 5.13908e-14
  66 72.7012 -1.22628e-11 2.06275e-14
</Section>

newXOutput 144

<Section columns = "stress_xx | stress_yy | stress_xy">
  1 56.6985 -9.53336e-12 1.47772e-15
  2 56.6985 -9.53336e-12 3.08775e-15
  3 56.6985 -9.50872e-12 3.53697e-14
  4 56.6985 -9.50872e-12 -4.20603e-15
  5 56.6985 -9.53336e-12 1.53064e-14
  6 56.6985 -9.53336e-12 9.17505e-15
  7 56.6985 -9.53336e-12 1.52182e-15
  8 56.6985 -9.53336e-12 2.55107e-15
  9 56.6985 -9.53336e-12 1.46007e-14
  10 56.6985 -9.50872e-12 3.52445e-14
  11 56.6985 -9.52104e-12 4.63163e-15
  12 56.6985 -9.54978e-12 -4.07731e-14
  13 56.6985 -9.53336e-12 -1.52623e-14
  14 56.6985 -9.54978e-12 -4.27957e-29
  15 56.6985 -9.52104e-12 1.54388e-15
  16 56.6985 -9.50872e-12 -2.55953e-14
  17 56.6985 -9.51693e-12 5.95504e-14
  18 56.6985 -9.51693e-12 2.34674e-15
  19 56.6985 -9.52104e-12 -1.73544e-14
  20 56.6985 -9.51693e-12 -2.28655e-15
  21 56.6985 -9.53336e-12 7.92239e-15
  22 56.6985 -9.53336e-12 -6.82301e-15
  23 56.6985 -9.53336e-12 -1.06152e-14
  24 56.6985 -9.53336e-12 -8.56565e-15
  25 56.6985 -9.53336e-12 -6.70975e-15
  26 56.6985 -9.50051e-12 2.41691e-15
  27 56.6985 -9.53336e-12 6.17551e-15
  28 56.6985 -9.50051e-12 -3.57481e-15
  29 56.6985 -9.50872e-12 -8.45901e-16
  30 56.6985 -9.52843e-12 5.67016e-15
  31 56.6985 -9.50564e-12 3.55695e-15
  32 56.6985 -9.52514e-12 -2.47811e-14
  33 56.6985 -9.52350e-12 2.46778e-14
  34 56.6985 -9.53336e-12 3.86590e-15
  35 56.6985 -9.51858e-12 -7.11948e-15
  36 56.6985 -9.52350e-12 -4.52246e-14
  37 56.6985 -9.52925e-12 1.03881e-14
  38 56.6985 -9.53336e-12 -5.07653e-15
  39 56.6985 -9.50051e-12 2.63131e-15
  40 56.6985 -9.51283e-12 2.06987e-15
  41 56.6985 -9.52514e-12 3.17827e-15
  42 56.6985 -9.51693e-12 -2.54584e-14
  43 56.6985 -9.53644e-12 2.28563e-14
  44 56.6985 -9.53336e-12 -2.85043e-15
  45 56.6985 -9.50872e-12 3.06783e-16
  46 56.6985 -9.53336e-12 4.57911e-15
  47 56.6985 -9.53688e-12 -2.51364e-14
  48 56.6985 -9.53336e-12 5.83685e-15
  49 56.6985 -9.52104e-12 -7.78142e-15
  50 56.6985 -9.50564e-12 1.78513e-16
  51 56.6985 -9.51283e-12 -2.27677e-15
  52 56.6985 -9.48409e-12 4.24024e-15
  53 56.6985 -9.51693e-12 -6.52479e-16
  54 56.6985 -9.52350e-12 -2.01371e-14
  55 56.6985 -9.51693e-12 6.40525e-16
  56 56.6985 -9.52104e-12 -1.85657e-14
  57 56.6985 -9.54157e-12 -1.88023e-15
  58 56.6985 -9.51693e-12 -3.43329e-15
  59 56.6985 -9.52104e-12 -1.27037e-15
  60 56.6985 -9.52514e-12 2.78557e-14
  61 56.6985 -9.54321e-12 -2.43029e-14
  62 56.6985 -9.53336e-12 -6.27192e-15
  63 56.6985 -9.53336e-12 5.44437e-15
  64 56.6985 -9.52350e-12 -2.05545e-14
  65 56.6985 -9.51365e-12 1.04719e-14
  66 56.6985 -9.52350e-12 -1.12809e-14
</Section>

newXOutput 145

<Section columns = "stress_xx | stress_yy | stress_xy">
  1 40.7542 -6.80823e-12 -4.36553e-15
  2 40.7542 -6.81704e-12 1.09336e-14
  3 40.7542 -6.78181e-12 1.25312e-15
  4 40.7542 -6.79942e-12 3.99302e-15
  5 40.7542 -6.81704e-12 -6.17461e-15
  6 40.7542 -6.79942e-12 -7.11213e-15
  7 40.7542 -6.81704e-12 -1.26504e-15
  8 40.7542 -6.79355e-12 9.84554e-15
  9 40.7542 -6.80383e-12 1.80326e-14
  10 40.7542 -6.77300e-12 -2.07660e-14
  11 40.7542 -6.78621e-12 -2.41851e-15
  12 40.7542 -6.80529e-12 -3.16732e-14
  13 40.7542 -6.81704e-12 -2.26014e-14
  14 40.7542 -6.80529e-12 -2.14979e-15
  15 40.7542 -6.80823e-12 -3.30383e-15
  16 40.7542 -6.78181e-12 -2.01901e-15
  17 40.7542 -6.79355e-12 -7.72976e-15
  18 40.7542 -6.79355e-12 -5.90328e-15
  19 40.7542 -6.81704e-12 1.20462e-14
  20 40.7542 -6.77006e-12 1.86026e-14
  21 40.7542 -6.79942e-12 1.67593e-15
  22 40.7542 -6.85227e-12 9.21459e-15
  23 40.7542 -6.81117e-12 1.54491e-14
  24 40.7542 -6.80529e-12 1.31786e-14
  25 40.7542 -6.80529e-12 1.20039e-14
  26 40.7542 -6.80529e-12 -2.55646e-15
  27 40.7542 -6.79942e-12 1.10128e-15
  28 40.7542 -6.80529e-12 4.42376e-16
  29 40.7542 -6.80823e-12 -7.89071e-15
  30 40.7542 -6.79238e-12 1.59306e-15
  31 40.7542 -6.80603e-12 -8.92400e-15
  32 40.7542 -6.82291e-12 -8.05887e-16
  33 40.7542 -6.78533e-12 1.26719e-14
  34 40.7542 -6.80999e-12 -7.05327e-15
  35 40.7542 -6.79590e-12 8.82421e-16
  36 40.7542 -6.77476e-12 1.26643e-14
  37 40.7542 -6.80236e-12 -2.31039e-15
  38 40.7542 -6.80236e-12 -4.10004e-15
  39 40.7542 -6.84346e-12 4.19410e-15
  40 40.7542 -6.80236e-12 9.90835e-15
  41 40.7542 -6.79942e-12 -4.47244e-15
  42 40.7542 -6.81704e-12 7.09263e-15
  43 40.7542 -6.77961e-12 -5.67633e-16
  44 40.7542 -6.80823e-12 -6.65387e-15
  45 40.7542 -6.81704e-12 2.66688e-15
  46 40.7542 -6.78885e-12 4.13678e-16
  47 40.7542 -6.79187e-12 8.13884e-15
  48 40.7542 -6.83113e-12 3.86093e-15
  49 40.7542 -6.79722e-12 -7.03011e-15
  50 40.7542 -6.79282e-12 5.54861e-16
  51 40.7542 -6.81117e-12 -6.24057e-15
  52 40.7542 -6.81117e-12 -4.71179e-15
  53 40.7542 -6.82291e-12 -7.50248e-16
  54 40.7542 -6.79590e-12 3.99710e-15
  55 40.7542 -6.80236e-12 -6.76756e-16
  56 40.7542 -6.77887e-12 7.22842e-15
  57 40.7542 -6.80529e-12 1.17662e-14
  58 40.7542 -6.79942e-12 -2.18364e-15
  59 40.7542 -6.82291e-12 -1.42586e-15
  60 40.7542 -6.78768e-12 -2.05486e-15
  61 40.7542 -6.80647e-12 -5.42724e-16
  62 40.7542 -6.80999e-12 -1.17082e-15
  63 40.7542 -6.80999e-12 -4.54795e-15
  64 40.7542 -6.77829e-12 1.21189e-14
  65 40.7542 -6.80295e-12 1.01786e-14
  66 40.7542 -6.78181e-12 -5.32019e-15
</Section>

newXOutput 146

<Section columns = "stress_xx | stress_yy | stress_xy">
  1 24.8681 -4.12773e-12 -1.81242e-16
  2 24.8681 -4.12773e-12 0.00000
  3 24.8681 -4.11169e-12 3.40060e-15
  4 24.8681 -4.11169e-12 -2.56839e-15
  5 24.8681 -4.12773e-12 3.85486e-15
  6 24.8681 -4.12060e-12 5.18869e-15
  7 24.8681 -4.10990e-12 -5.46087e-16
  8 24.8681 -4.12060e-12 -5.09367e-15
  9 24.8681 -4.11703e-12 6.96391e-15
  10 24.8681 -4.11703e-12 6.66916e-16
  11 24.8681 -4.10634e-12 1.65761e-15
  12 24.8681 -4.10990e-12 5.10012e-15
  13 24.8681 -4.12416e-12 7.08796e-15
  14 24.8681 -4.12060e-12 4.42030e-15
  15 24.8681 -4.11703e-12 2.00075e-15
  16 24.8681 -4.11703e-12 -2.19725e-15
  17 24.8681 -4.11347e-12 1.79546e-14
  18 24.8681 -4.10278e-12 1.67041e-15
  19 24.8681 -4.11169e-12 -7.35407e-16
  20 24.8681 -4.09921e-12 1.91838e-16
  21 24.8681 -4.11169e-12 -8.32330e-16
  22 24.8681 -4.12416e-12 -5.06021e-15
  23 24.8681 -4.12060e-12 -4.71461e-15
  24 24.8681 -4.10634e-12 -8.64876e-15
  25 24.8681 -4.10634e-12 -7.29109e-15
  26 24.8681 -4.11703e-12 -4.44610e-16
  27 24.8681 -4.11703e-12 -1.33383e-15
  28 24.8681 -4.12416e-12 -1.06240e-15
  29 24.8681 -4.12505e-12 1.82095e-15
  30 24.8681 -4.12131e-12 -4.84169e-15
  31 24.8681 -4.10901e-12 -2.24990e-16
  32 24.8681 -4.11525e-12 -4.75376e-15
  33 24.8681 -4.11276e-12 -5.27727e-16
  34 24.8681 -4.11276e-12 -2.35570e-15
  35 24.8681 -4.12559e-12 5.11335e-15
  36 24.8681 -4.11062e-12 8.65055e-16
  37 24.8681 -4.10812e-12 1.57326e-15
  38 24.8681 -4.11703e-12 3.35877e-15
  39 24.8681 -4.11703e-12 -6.86322e-15
  40 24.8681 -4.11347e-12 8.02151e-15
  41 24.8681 -4.11169e-12 -2.61897e-15
  42 24.8681 -4.12238e-12 -4.11544e-15
  43 24.8681 -4.10901e-12 -8.11129e-16
  44 24.8681 -4.12104e-12 7.86993e-15
  45 24.8681 -4.11703e-12 -6.24044e-15
  46 24.8681 -4.11703e-12 4.83563e-15
  47 24.8681 -4.11092e-12 -7.28527e-16
  48 24.8681 -4.11062e-12 -5.78933e-15
  49 24.8681 -4.12372e-12 -4.07147e-16
  50 24.8681 -4.12104e-12 -1.12723e-15
  51 24.8681 -4.10456e-12 -2.96812e-15
  52 24.8681 -4.12238e-12 7.79154e-17
  53 24.8681 -4.11169e-12 -4.95250e-15
  54 24.8681 -4.11062e-12 -9.85750e-15
  55 24.8681 -4.12773e-12 1.03579e-15
  56 24.8681 -4.11703e-12 2.24506e-15
  57 24.8681 -4.12238e-12 7.18783e-15
  58 24.8681 -4.11347e-12 -1.22251e-15
  59 24.8681 -4.12060e-12 -2.44054e-16
  60 24.8681 -4.11347e-12 2.92594e-15
  61 24.8681 -4.11276e-12 8.69983e-15
  62 24.8681 -4.10420e-12 -2.65260e-15
  63 24.8681 -4.12559e-12 5.54007e-15
  64 24.8681 -4.10634e-12 5.83246e-15
  65 24.8681 -4.11490e-12 1.04831e-14
  66 24.8681 -4.11276e-12 -7.64402e-15
</Section>

newXOutput 147

<Section columns = "stress_xx | stress_yy | stress_xy">
  1 9.03987 -1.16423e-05 1.49718e-15
  2 9.03987 -1.16423e-05 -1.91426e-15
  3 9.03987 -1.16423e-05 6.06395e-15
  4 9.03987 -1.16423e-05 -9.83663e-18
  5 9.03987 -1.16423e-05 3.51125e-15
  6 9.03987 -1.16423e-05 4.39172e-15
  7 9.03987 -1.16423e-05 4.71253e-15
  8 9.03987 -1.16423e-05 3.51125e-15
  9 9.03987 -1.16423e-05 3.77235e-15
  10 9.03987 -1.16423e-05 2.39548e-15
  11 9.03987 -1.16423e-05 -3.60917e-16
  12 9.03987 -1.16423e-05 -3.19397e-15
  13 9.03987 -1.16423e-05 -6.86563e-15
  14 9.03987 -1.16423e-05 0.00000
  15 9.03987 -1.16423e-05 2.40611e-16
  16 9.03987 -1.16423e-05 -7.94950e-16
  17 9.03987 -1.16423e-05 7.86218e-15
  18 9.03987 -1.16423e-05 8.77422e-16
  19 9.03987 -1.16423e-05 1.83707e-15
  20 9.03987 -1.16423e-05 6.03402e-15
  21 9.03987 -1.16423e-05 4.73090e-15
  22 9.03987 -1.16423e-05 1.46462e-15
  23 9.03987 -1.16423e-05 1.86308e-15
  24 9.03987 -1.16423e-05 4.87495e-16
  25 9.03987 -1.16423e-05 -1.92208e-16
  26 9.03987 -1.16423e-05 1.60408e-16
  27 9.03987 -1.16423e-05 0.00000
  28 9.03987 -1.16423e-05 -7.78443e-16
  29 9.03987 -1.16423e-05 -3.35810e-15
  30 9.03987 -1.16423e-05 -5.69325e-16
  31 9.03987 -1.16423e-05 -1.45005e-15
  32 9.03987 -1.16423e-05 -1.80929e-15
  33 9.03987 -1.16423e-05 5.26155e-16
  34 9.03987 -1.16423e-05 8.87878e-16
  35 9.03987 -1.16423e-05 -2.36315e-15
  36 9.03987 -1.16423e-05 4.04786e-16
  37 9.03987 -1.16423e-05 -2.35627e-15
  38 9.03987 -1.16423e-05 -2.18681e-16
  39 9.03987 -1.16423e-05 4.24833e-16
  40 9.03987 -1.16423e-05 3.62268e-16
  41 9.03987 -1.16423e-05 2.83321e-16
  42 9.03987 -1.16423e-05 3.89664e-16
  43 9.03987 -1.16423e-05 -1.82735e-15
  44 9.03987 -1.16423e-05 -9.39666e-16
  45 9.03987 -1.16423e-05 -1.03259e-16
  46 9.03987 -1.16423e-05 1.79983e-15
  47 9.03987 -1.16423e-05 2.42064e-15
  48 9.03987 -1.16423e-05 1.15830e-15
  49 9.03987 -1.16423e-05 -8.08076e-16
  50 9.03987 -1.16423e-05 -1.11904e-15
  51 9.03987 -1.16423e-05 -3.53761e-15
  52 9.03987 -1.16423e-05 -3.77882e-15
  53 9.03987 -1.16423e-05 -3.01617e-15
  54 9.03987 -1.16423e-05 5.86279e-16
  55 9.03987 -1.16423e-05 -3.60695e-16
  56 9.03987 -1.16423e-05 3.71856e-15
  57 9.03987 -1.16423e-05 -1.17769e-15
  58 9.03987 -1.16423e-05 5.17167e-16
  59 9.03987 -1.16423e-05 -2.15434e-15
  60 9.03987 -1.16423e-05 -4.75324e-16
  61 9.03987 -1.16423e-05 -2.32330e-15
  62 9.03987 -1.16423e-05 9.67383e-16
  63 9.03987 -1.16423e-05 1.82014e-15
  64 9.03987 -1.16423e-05 4.39847e-15
  65 9.03987 -1.16423e-05 1.94045e-15
  66 9.03987 -1.16423e-05 2.71895e-15
</Section>

newXOutput 148

<Section columns = "stress_xx | stress_yy | stress_xy">
  1 0.00000 0.00000 0.00000
  2 0.00000 0.00000 0.00000
  3 0.00000 0.00000 0.00000
  4 0.00000 0.00000 0.00000
  5 0.00000 0.00000 0.00000
  6 0.00000 0.00000 0.00000
  7 0.00000 0.00000 0.00000
  8 0.00000 0.00000 0.00000
  9 0.00000 0.00000 0.00000
  10 0.00000 0.00000 0.00000
  11 0.00000 0.00000 0.00000
  12 0.00000 0.00000 0.00000
  13 0.00000 0.00000 0.00000
  14 0.00000 0.00000 0.00000
  15 0.00000 0.00000 0.00000
  16 0.00000 0.00000 0.00000
  17 0.00000 0.00000 0.00000
  18 0.00000 0.00000 0.00000
  19 0.00000 0.00000 0.00000
  20 0.00000 0.00000 0.00000
  21 0.00000 0.00000 0.00000
  22 0.00000 0.00000 0.00000
  23 0.00000 0.00000 0.00000
  24 0.00000 0.00000 0.00000
  25 0.00000 0.00000 0.00000
  26 0.00000 0.00000 0.00000
  27 0.00000 0.00000 0.00000
  28 0.00000 0.00000 0.00000
  29 0.00000 0.00000 0.00000
  30 0.00000 0.00000 0.00000
  31 0.00000 0.00000 0.00000
  32 0.00000 0.00000 0.00000
  33 0.00000 0.00000 0.00000
  34 0.00000 0.00000 0.00000
  35 0.00000 0.00000 0.00000
  36 0.00000 0.00000 0.00000
  37 0.00000 0.00000 0.00000
  38 0.00000 0.00000 0.00000
  39 0.00000 0.00000 0.00000
  40 0.00000 0.00000 0.00000
  41 0.00000 0.00000 0.00000
  42 0.00000 0.00000 0.00000
  43 0.00000 0.00000 0.00000
  44 0.00000 0.00000 0.00000
  45 0.00000 0.00000 0.00000
  46 0.00000 0.00000 0.00000
  47 0.00000 0.00000 0.00000
  48 0.00000 0.00000 0.00000
  49 0.00000 0.00000 0.00000
  50 0.00000 0.00000 0.00000
  51 0.00000 0.00000 0.00000
  52 0.00000 0.00000 0.00000
  53 0.00000 0.00000 0.00000
  54 0.00000 0.00000 0.00000
  55 0.00000 0.00000 0.00000
  56 0.00000 0.00000 0.00000
  57 0.00000 0.00000 0.00000
  58 0.00000 0.00000 0.00000
  59 0.00000 0.00000 0.00000
  60 0.00000 0.00000 0.00000
  61 0.00000 0.00000 0.00000
  62 0.00000 0.00000 0.00000
  63 0.00000 0.00000 0.00000
  64 0.00000 0.00000 0.00000
  65 0.00000 0.00000 0.00000
  66 0.00000 0.00000 0.00000
</Section>

newXOutput 149

<Section columns = "stress_xx | stress_yy | stress_xy">
  1 0.00000 0.00000 0.00000
  2 0.00000 0.00000 0.00000
  3 0.00000 0.00000 0.00000
  4 0.00000 0.00000 0.00000
  5 0.00000 0.00000 0.00000
  6 0.00000 0.00000 0.00000
  7 0.00000 0.00000 0.00000
  8 0.00000 0.00000 0.00000
  9 0.00000 0.00000 0.00000
  10 0.00000 0.00000 0.00000
  11 0.00000 0.00000 0.00000
  12 0.00000 0.00000 0.00000
  13 0.00000 0.00000 0.00000
  14 0.00000 0.00000 0.00000
  15 0.00000 0.00000 0.00000
  16 0.00000 0.00000 0.00000
  17 0.00000 0.00000 0.00000
  18 0.00000 0.00000 0.00000
  19 0.00000 0.00000 0.00000
  20 0.00000 0.00000 0.00000
  21 0.00000 0.00000 0.00000
  22 0.00000 0.00000 0.00000
  23 0.00000 0.00000 0.00000
  24 0.00000 0.00000 0.00000
  25 0.00000 0.00000 0.00000
  26 0.00000 0.00000 0.00000
  27 0.00000 0.00000 0.00000
  28 0.00000 0.00000 0.00000
  29 0.00000 0.00000 0.00000
  30 0.00000 0.00000 0.00000
  31 0.00000 0.00000 0.00000
  32 0.00000 0.00000 0.00000
  33 0.00000 0.00000 0.00000
  34 0.00000 0.00000 0.00000
  35 0.00000 0.00000 0.00000
  36 0.00000 0.00000 0.00000
  37 0.00000 0.00000 0.00000
  38 0.00000 0.00000 0.00000
  39 0.00000 0.00000 0.00000
  40 0.00000 0.00000 0.00000
  41 0.00000 0.00000 0.00000
  42 0.00000 0.00000 0.00000
  43 0.00000 0.00000 0.00000
  44 0.00000 0.00000 0.00000
  45 0.00000 0.00000 0.00000
  46 0.00000 0.00000 0.00000
  47 0.00000 0.00000 0.00000
  48 0.00000 0.00000 0.00000
  49 0.00000 0.00000 0.00000
  50 0.00000 0.00000 0.00000
  51 0.00000 0.00000 0.00000
  52 0.00000 0.00000 0.00000
  53 0.00000 0.00000 0.00000
  54 0.00000 0.00000 0.00000
  55 0.00000 0.00000 0.00000
  56 0.00000 0.00000 0.00000
  57 0.00000 0.00000 0.00000
  58 0.00000 0.00000 0.00000
  59 0.00000 0.00000 0.00000
  60 0.00000 0.00000 0.00000
  61 0.00000 0.00000 0.00000
  62 0.00000 0.00000 0.00000
  63 0.00000 0.00000 0.00000
  64 0.00000 0.00000 0.00000
  65 0.00000 0.00000 0.00000
  66 0.00000 0.00000 0.00000
</Section>

newXOutput 150

<Section columns = "stress_xx | stress_yy | stress_xy">
  1 0.00000 0.00000 0.00000
  2 0.00000 0.00000 0.00000
  3 0.00000 0.00000 0.00000
  4 0.00000 0.00000 0.00000
  5 0.00000 0.00000 0.00000
  6 0.00000 0.00000 0.00000
  7 0.00000 0.00000 0.00000
  8 0.00000 0.00000 0.00000
  9 0.00000 0.00000 0.00000
  10 0.00000 0.00000 0.00000
  11 0.00000 0.00000 0.00000
  12 0.00000 0.00000 0.00000
  13 0.00000 0.00000 0.00000
  14 0.00000 0.00000 0.00000
  15 0.00000 0.00000 0.00000
  16 0.00000 0.00000 0.00000
  17 0.00000 0.00000 0.00000
  18 0.00000 0.00000 0.00000
  19 0.00000 0.00000 0.00000
  20 0.00000 0.00000 0.00000
  21 0.00000 0.00000 0.00000
  22 0.00000 0.00000 0.00000
  23 0.00000 0.00000 0.00000
  24 0.00000 0.00000 0.00000
  25 0.00000 0.00000 0.00000
  26 0.00000 0.00000 0.00000
  27 0.00000 0.00000 0.00000
  28 0.00000 0.00000 0.00000
  29 0.00000 0.00000 0.00000
  30 0.00000 0.00000 0.00000
  31 0.00000 0.00000 0.00000
  32 0.00000 0.00000 0.00000
  33 0.00000 0.00000 0.00000
  34 0.00000 0.00000 0.00000
  35 0.00000 0.00000 0.00000
  36 0.00000 0.00000 0.00000
  37 0.00000 0.00000 0.00000
  38 0.00000 0.00000 0.00000
  39 0.00000 0.00000 0.00000
  40 0.00000 0.00000 0.00000
  41 0.00000 0.00000 0.00000
  42 0.00000 0.00000 0.00000
  43 0.00000 0.00000 0.00000
  44 0.00000 0.00000 0.00000
  45 0.00000 0.00000 0.00000
  46 0.00000 0.00000 0.00000
  47 0.00000 0.00000 0.00000
  48 0.00000 0.00000 0.00000
  49 0.00000 0.00000 0.00000
  50 0.00000 0.00000 0.00000
  51 0.00000 0.00000 0.00000
  52 0.00000 0.00000 0.00000
  53 0.00000 0.00000 0.00000
  54 0.00000 0.00000 0.00000
  55 0.00000 0.00000 0.00000
  56 0.00000 0.00000 0.00000
  57 0.00000 0.00000 0.00000
  58 0.00000 0.00000 0.00000
  59 0.00000 0.00000 0.00000
  60 0.00000 0.00000 0.00000
  61 0.00000 0.00000 0.00000
  62 0.00000 0.00000 0.00000
  63 0.00000 0.00000 0.00000
  64 0.00000 0.00000 0.00000
  65 0.00000 0.00000 0.00000
  66 0.00000 0.00000 0.00000
</Section>

newXOutput 151

<Section columns = "stress_xx | stress_yy | stress_xy">
  1 0.00000 0.00000 0.00000
  2 0.00000 0.00000 0.00000
  3 0.00000 0.00000 0.00000
  4 0.00000 0.00000 0.00000
  5 0.00000 0.00000 0.00000
  6 0.00000 0.00000 0.00000
  7 0.00000 0.00000 0.00000
  8 0.00000 0.00000 0.00000
  9 0.00000 0.00000 0.00000
  10 0.00000 0.00000 0.00000
  11 0.00000 0.00000 0.00000
  12 0.00000 0.00000 0.00000
  13 0.00000 0.00000 0.00000
  14 0.00000 0.00000 0.00000
  15 0.00000 0.00000 0.00000
  16 0.00000 0.00000 0.00000
  17 0.00000 0.00000 0.00000
  18 0.00000 0.00000 0.00000
  19 0.00000 0.00000 0.00000
  20 0.00000 0.00000 0.00000
  21 0.00000 0.00000 0.00000
  22 0.00000 0.00000 0.00000
  23 0.00000 0.00000 0.00000
  24 0.00000 0.00000 0.00000
  25 0.00000 0.00000 0.00000
  26 0.00000 0.00000 0.00000
  27 0.00000 0.00000 0.00000
  28 0.00000 0.00000 0.00000
  29 0.00000 0.00000 0.00000
  30 0.00000 0.00000 0.00000
  31 0.00000 0.00000 0.00000
  32 0.00000 0.00000 0.00000
  33 0.00000 0.00000 0.00000
  34 0.00000 0.00000 0.00000
  35 0.00000 0.00000 0.00000
  36 0.00000 0.00000 0.00000
  37 0.00000 0.00000 0.00000
  38 0.00000 0.00000 0.00000
  39 0.00000 0.00000 0.00000
  40 0.00000 0.00000 0.00000
  41 0.00000 0.00000 0.00000
  42 0.00000 0.00000 0.00000
  43 0.00000 0.00000 0.00000
  44 0.00000 0.00000 0.00000
  45 0.00000 0.00000 0.00000
  46 0.00000 0.00000 0.00000
  47 0.00000 0.00000 0.00000
  48 0.00000 0.00000 0.00000
  49 0.00000 0.00000 0.00000
  50 0.00000 0.00000 0.00000
  51 0.00000 0.00000 0.00000
  52 0.00000 0.00000 0.00000
  53 0.00000 0.00000 0.00000
  54 0.00000 0.00000 0.00000
  55 0.00000 0.00000 0.00000
  56 0.00000 0.00000 0.00000
  57 0.00000 0.00000 0.00000
  58 0.00000 0.00000 0.00000
  59 0.00000 0.00000 0.00000
  60 0.00000 0.00000 0.00000
  61 0.00000 0.00000 0.00000
  62 0.00000 0.00000 0.00000
  63 0.00000 0.00000 0.00000
  64 0.00000 0.00000 0.00000
  65 0.00000 0.00000 0.00000
  66 0.00000 0.00000 0.00000
</Section>

newXOutput 152

<Section columns = "stress_xx | stress_yy | stress_xy">
  1 0.00000 0.00000 0.00000
  2 0.00000 0.00000 0.00000
  3 0.00000 0.00000 0.00000
  4 0.00000 0.00000 0.00000
  5 0.00000 0.00000 0.00000
  6 0.00000 0.00000 0.00000
  7 0.00000 0.00000 0.00000
  8 0.00000 0.00000 0.00000
  9 0.00000 0.00000 0.00000
  10 0.00000 0.00000 0.00000
  11 0.00000 0.00000 0.00000
  12 0.00000 0.00000 0.00000
  13 0.00000 0.00000 0.00000
  14 0.00000 0.00000 0.00000
  15 0.00000 0.00000 0.00000
  16 0.00000 0.00000 0.00000
  17 0.00000 0.00000 0.00000
  18 0.00000 0.00000 0.00000
  19 0.00000 0.00000 0.00000
  20 0.00000 0.00000 0.00000
  21 0.00000 0.00000 0.00000
  22 0.00000 0.00000 0.00000
  23 0.00000 0.00000 0.00000
  24 0.00000 0.00000 0.00000
  25 0.00000 0.00000 0.00000
  26 0.00000 0.00000 0.00000
  27 0.00000 0.00000 0.00000
  28 0.00000 0.00000 0.00000
  29 0.00000 0.00000 0.00000
  30 0.00000 0.00000 0.00000
  31 0.00000 0.00000 0.00000
  32 0.00000 0.00000 0.00000
  33 0.00000 0.00000 0.00000
  34 0.00000 0.00000 0.00000
  35 0.00000 0.00000 0.00000
  36 0.00000 0.00000 0.00000
  37 0.00000 0.00000 0.00000
  38 0.00000 0.00000 0.00000
  39 0.00000 0.00000 0.00000
  40 0.00000 0.00000 0.00000
  41 0.00000 0.00000 0.00000
  42 0.00000 0.00000 0.00000
  43 0.00000 0.00000 0.00000
  44 0.00000 0.00000 0.00000
  45 0.00000 0.00000 0.00000
  46 0.00000 0.00000 0.00000
  47 0.00000 0.00000 0.00000
  48 0.00000 0.00000 0.00000
  49 0.00000 0.00000 0.00000
  50 0.00000 0.00000 0.00000
  51 0.00000 0.00000 0.00000
  52 0.00000 0.00000 0.00000
  53 0.00000 0.00000 0.00000
  54 0.00000 0.00000 0.00000
  55 0.00000 0.00000 0.00000
  56 0.00000 0.00000 0.00000
  57 0.00000 0.00000 0.00000
  58 0.00000 0.00000 0.00000
  59 0.00000 0.00000 0.00000
  60 0.00000 0.00000 0.00000
  61 0.00000 0.00000 0.00000
  62 0.00000 0.00000 0.00000
  63 0.00000 0.00000 0.00000
  64 0.00000 0.00000 0.00000
  65 0.00000 0.00000 0.00000
  66 0.00000 0.00000 0.00000
</Section>

newXOutput 153

<Section columns = "stress_xx | stress_yy | stress_xy">
  1 0.00000 0.00000 0.00000
  2 0.00000 0.00000 0.00000
  3 0.00000 0.00000 0.00000
  4 0.00000 0.00000 0.00000
  5 0.00000 0.00000 0.00000
  6 0.00000 0.00000 0.00000
  7 0.00000 0.00000 0.00000
  8 0.00000 0.00000 0.00000
  9 0.00000 0.00000 0.00000
  10 0.00000 0.00000 0.00000
  11 0.00000 0.00000 0.00000
  12 0.00000 0.00000 0.00000
  13 0.00000 0.00000 0.00000
  14 0.00000 0.00000 0.00000
  15 0.00000 0.00000 0.00000
  16 0.00000 0.00000 0.00000
  17 0.00000 0.00000 0.00000
  18 0.00000 0.00000 0.00000
  19 0.00000 0.00000 0.00000
  20 0.00000 0.00000 0.00000
  21 0.00000 0.00000 0.00000
  22 0.00000 0.00000 0.00000
  23 0.00000 0.00000 0.00000
  24 0.00000 0.00000 0.00000
  25 0.00000 0.00000 0.00000
  26 0.00000 0.00000 0.00000
  27 0.00000 0.00000 0.00000
  28 0.00000 0.00000 0.00000
  29 0.00000 0.00000 0.00000
  30 0.00000 0.00000 0.00000
  31 0.00000 0.00000 0.00000
  32 0.00000 0.00000 0.00000
  33 0.00000 0.00000 0.00000
  34 0.00000 0.00000 0.00000
  35 0.00000 0.00000 0.00000
  36 0.00000 0.00000 0.00000
  37 0.00000 0.00000 0.00000
  38 0.00000 0.00000 0.00000
  39 0.00000 0.00000 0.00000
  40 0.00000 0.00000 0.00000
  41 0.00000 0.00000 0.00000
  42 0.00000 0.00000 0.00000
  43 0.00000 0.00000 0.00000
  44 0.00000 0.00000 0.00000
  45 0.00000 0.00000 0.00000
  46 0.00000 0.00000 0.00000
  47 0.00000 0.00000 0.00000
  48 0.00000 0.00000 0.00000
  49 0.00000 0.00000 0.00000
  50 0.00000 0.00000 0.00000
  51 0.00000 0.00000 0.00000
  52 0.00000 0.00000 0.00000
  53 0.00000 0.00000 0.00000
  54 0.00000 0.00000 0.00000
  55 0.00000 0.00000 0.00000
  56 0.00000 0.00000 0.00000
  57 0.00000 0.00000 0.00000
  58 0.00000 0.00000 0.00000
  59 0.00000 0.00000 0.00000
  60 0.00000 0.00000 0.00000
  61 0.00000 0.00000 0.00000
  62 0.00000 0.00000 0.00000
  63 0.00000 0.00000 0.00000
  64 0.00000 0.00000 0.00000
  65 0.00000 0.00000 0.00000
  66 0.00000 0.00000 0.00000
</Section>

newXOutput 154

<Section columns = "stress_xx | stress_yy | stress_xy">
  1 0.00000 0.00000 0.00000
  2 0.00000 0.00000 0.00000
  3 0.00000 0.00000 0.00000
  4 0.00000 0.00000 0.00000
  5 0.00000 0.00000 0.00000
  6 0.00000 0.00000 0.00000
  7 0.00000 0.00000 0.00000
  8 0.00000 0.00000 0.00000
  9 0.00000 0.00000 0.00000
  10 0.00000 0.00000 0.00000
  11 0.00000 0.00000 0.00000
  12 0.00000 0.00000 0.00000
  13 0.00000 0.00000 0.00000
  14 0.00000 0.00000 0.00000
  15 0.00000 0.00000 0.00000
  16 0.00000 0.00000 0.00000
  17 0.00000 0.00000 0.00000
  18 0.00000 0.00000 0.00000
  19 0.00000 0.00000 0.00000
  20 0.00000 0.00000 0.00000
  21 0.00000 0.00000 0.00000
  22 0.00000 0.00000 0.00000
  23 0.00000 0.00000 0.00000
  24 0.00000 0.00000 0.00000
  25 0.00000 0.00000 0.00000
  26 0.00000 0.00000 0.00000
  27 0.00000 0.00000 0.00000
  28 0.00000 0.00000 0.00000
  29 0.00000 0.00000 0.00000
  30 0.00000 0.00000 0.00000
  31 0.00000 0.00000 0.00000
  32 0.00000 0.00000 0.00000
  33 0.00000 0.00000 0.00000
  34 0.00000 0.00000 0.00000
  35 0.00000 0.00000 0.00000
  36 0.00000 0.00000 0.00000
  37 0.00000 0.00000 0.00000
  38 0.00000 0.00000 0.00000
  39 0.00000 0.00000 0.00000
  40 0.00000 0.00000 0.00000
  41 0.00000 0.00000 0.00000
  42 0.00000 0.00000 0.00000
  43 0.00000 0.00000 0.00000
  44 0.00000 0.00000 0.00000
  45 0.00000 0.00000 0.00000
  46 0.00000 0.00000 0.00000
  47 0.00000 0.00000 0.00000
  48 0.00000 0.00000 0.00000
  49 0.00000 0.00000 0.00000
  50 0.00000 0.00000 0.00000
  51 0.00000 0.00000 0.00000
  52 0.00000 0.00000 0.00000
  53 0.00000 0.00000 0.00000
  54 0.00000 0.00000 0.00000
  55 0.00000 0.00000 0.00000
  56 0.00000 0.00000 0.00000
  57 0.00000 0.00000 0.00000
  58 0.00000 0.00000 0.00000
  59 0.00000 0.00000 0.00000
  60 0.00000 0.00000 0.00000
  61 0.00000 0.00000 0.00000
  62 0.00000 0.00000 0.00000
  63 0.00000 0.00000 0.00000
  64 0.00000 0.00000 0.00000
  65 0.00000 0.00000 0.00000
  66 0.00000 0.00000 0.00000
</Section>

newXOutput 155

<Section columns = "stress_xx | stress_yy | stress_xy">
  1 0.00000 0.00000 0.00000
  2 0.00000 0.00000 0.00000
  3 0.00000 0.00000 0.00000
  4 0.00000 0.00000 0.00000
  5 0.00000 0.00000 0.00000
  6 0.00000 0.00000 0.00000
  7 0.00000 0.00000 0.00000
  8 0.00000 0.00000 0.00000
  9 0.00000 0.00000 0.00000
  10 0.00000 0.00000 0.00000
  11 0.00000 0.00000 0.00000
  12 0.00000 0.00000 0.00000
  13 0.00000 0.00000 0.00000
  14 0.00000 0.00000 0.00000
  15 0.00000 0.00000 0.00000
  16 0.00000 0.00000 0.00000
  17 0.00000 0.00000 0.00000
  18 0.00000 0.00000 0.00000
  19 0.00000 0.00000 0.00000
  20 0.00000 0.00000 0.00000
  21 0.00000 0.00000 0.00000
  22 0.00000 0.00000 0.00000
  23 0.00000 0.00000 0.00000
  24 0.00000 0.00000 0.00000
  25 0.00000 0.00000 0.00000
  26 0.00000 0.00000 0.00000
  27 0.00000 0.00000 0.00000
  28 0.00000 0.00000 0.00000
  29 0.00000 0.00000 0.00000
  30 0.00000 0.00000 0.00000
  31 0.00000 0.00000 0.00000
  32 0.00000 0.00000 0.00000
  33 0.00000 0.00000 0.00000
  34 0.00000 0.00000 0.00000
  35 0.00000 0.00000 0.00000
  36 0.00000 0.00000 0.00000
  37 0.00000 0.00000 0.00000
  38 0.00000 0.00000 0.00000
  39 0.00000 0.00000 0.00000
  40 0.00000 0.00000 0.00000
  41 0.00000 0.00000 0.00000
  42 0.00000 0.00000 0.00000
  43 0.00000 0.00000 0.00000
  44 0.00000 0.00000 0.00000
  45 0.00000 0.00000 0.00000
  46 0.00000 0.00000 0.00000
  47 0.00000 0.00000 0.00000
  48 0.00000 0.00000 0.00000
  49 0.00000 0.00000 0.00000
  50 0.00000 0.00000 0.00000
  51 0.00000 0.00000 0.00000
  52 0.00000 0.00000 0.00000
  53 0.00000 0.00000 0.00000
  54 0.00000 0.00000 0.00000
  55 0.00000 0.00000 0.00000
  56 0.00000 0.00000 0.00000
  57 0.00000 0.00000 0.00000
  58 0.00000 0.00000 0.00000
  59 0.00000 0.00000 0.00000
  60 0.00000 0.00000 0.00000
  61 0.00000 0.00000 0.00000
  62 0.00000 0.00000 0.00000
  63 0.00000 0.00000 0.00000
  64 0.00000 0.00000 0.00000
  65 0.00000 0.00000 0.00000
  66 0.00000 0.00000 0.00000
</Section>

newXOutput 156

<Section columns = "stress_xx | stress_yy | stress_xy">
  1 0.00000 0.00000 0.00000
  2 0.00000 0.00000 0.00000
  3 0.00000 0.00000 0.00000
  4 0.00000 0.00000 0.00000
  5 0.00000 0.00000 0.00000
  6 0.00000 0.00000 0.00000
  7 0.00000 0.00000 0.00000
  8 0.00000 0.00000 0.00000
  9 0.00000 0.00000 0.00000
  10 0.00000 0.00000 0.00000
  11 0.00000 0.00000 0.00000
  12 0.00000 0.00000 0.00000
  13 0.00000 0.00000 0.00000
  14 0.00000 0.00000 0.00000
  15 0.00000 0.00000 0.00000
  16 0.00000 0.00000 0.00000
  17 0.00000 0.00000 0.00000
  18 0.00000 0.00000 0.00000
  19 0.00000 0.00000 0.00000
  20 0.00000 0.00000 0.00000
  21 0.00000 0.00000 0.00000
  22 0.00000 0.00000 0.00000
  23 0.00000 0.00000 0.00000
  24 0.00000 0.00000 0.00000
  25 0.00000 0.00000 0.00000
  26 0.00000 0.00000 0.00000
  27 0.00000 0.00000 0.00000
  28 0.00000 0.00000 0.00000
  29 0.00000 0.00000 0.00000
  30 0.00000 0.00000 0.00000
  31 0.00000 0.00000 0.00000
  32 0.00000 0.00000 0.00000
  33 0.00000 0.00000 0.00000
  34 0.00000 0.00000 0.00000
  35 0.00000 0.00000 0.00000
  36 0.00000 0.00000 0.00000
  37 0.00000 0.00000 0.00000
  38 0.00000 0.00000 0.00000
  39 0.00000 0.00000 0.00000
  40 0.00000 0.00000 0.00000
  41 0.00000 0.00000 0.00000
  42 0.00000 0.00000 0.00000
  43 0.00000 0.00000 0.00000
  44 0.00000 0.00000 0.00000
  45 0.00000 0.00000 0.00000
  46 0.00000 0.00000 0.00000
  47 0.00000 0.00000 0.00000
  48 0.00000 0.00000 0.00000
  49 0.00000 0.00000 0.00000
  50 0.00000 0.00000 0.00000
  51 0.00000 0.00000 0.00000
  52 0.00000 0.00000 0.00000
  53 0.00000 0.00000 0.00000
  54 0.00000 0.00000 0.00000
  55 0.00000 0.00000 0.00000
  56 0.00000 0.00000 0.00000
  57 0.00000 0.00000 0.00000
  58 0.00000 0.00000 0.00000
  59 0.00000 0.00000 0.00000
  60 0.00000 0.00000 0.00000
  61 0.00000 0.00000 0.00000
  62 0.00000 0.00000 0.00000
  63 0.00000 0.00000 0.00000
  64 0.00000 0.00000 0.00000
  65 0.00000 0.00000 0.00000
  66 0.00000 0.00000 0.00000
</Section>

newXOutput 157

<Section columns = "stress_xx | stress_yy | stress_xy">
  1 0.00000 0.00000 0.00000
  2 0.00000 0.00000 0.00000
  3 0.00000 0.00000 0.00000
  4 0.00000 0.00000 0.00000
  5 0.00000 0.00000 0.00000
  6 0.00000 0.00000 0.00000
  7 0.00000 0.00000 0.00000
  8 0.00000 0.00000 0.00000
  9 0.00000 0.00000 0.00000
  10 0.00000 0.00000 0.00000
  11 0.00000 0.00000 0.00000
  12 0.00000 0.00000 0.00000
  13 0.00000 0.00000 0.00000
  14 0.00000 0.00000 0.00000
  15 0.00000 0.00000 0.00000
  16 0.00000 0.00000 0.00000
  17 0.00000 0.00000 0.00000
  18 0.00000 0.00000 0.00000
  19 0.00000 0.00000 0.00000
  20 0.00000 0.00000 0.00000
  21 0.00000 0.00000 0.00000
  22 0.00000 0.00000 0.00000
  23 0.00000 0.00000 0.00000
  24 0.00000 0.00000 0.00000
  25 0.00000 0.00000 0.00000
  26 0.00000 0.00000 0.00000
  27 0.00000 0.00000 0.00000
  28 0.00000 0.00000 0.00000
  29 0.00000 0.00000 0.00000
  30 0.00000 0.00000 0.00000
  31 0.00000 0.00000 0.00000
  32 0.00000 0.00000 0.00000
  33 0.00000 0.00000 0.00000
  34 0.00000 0.00000 0.00000
  35 0.00000 0.00000 0.00000
  36 0.00000 0.00000 0.00000
  37 0.00000 0.00000 0.00000
  38 0.00000 0.00000 0.00000
  39 0.00000 0.00000 0.00000
  40 0.00000 0.00000 0.00000
  41 0.00000 0.00000 0.00000
  42 0.00000 0.00000 0.00000
  43 0.00000 0.00000 0.00000
  44 0.00000 0.00000 0.00000
  45 0.00000 0.00000 0.00000
  46 0.00000 0.00000 0.00000
  47 0.00000 0.00000 0.00000
  48 0.00000 0.00000 0.00000
  49 0.00000 0.00000 0.00000
  50 0.00000 0.00000 0.00000
  51 0.00000 0.00000 0.00000
  52 0.00000 0.00000 0.00000
  53 0.00000 0.00000 0.00000
  54 0.00000 0.00000 0.00000
  55 0.00000 0.00000 0.00000
  56 0.00000 0.00000 0.00000
  57 0.00000 0.00000 0.00000
  58 0.00000 0.00000 0.00000
  59 0.00000 0.00000 0.00000
  60 0.00000 0.00000 0.00000
  61 0.00000 0.00000 0.00000
  62 0.00000 0.00000 0.00000
  63 0.00000 0.00000 0.00000
  64 0.00000 0.00000 0.00000
  65 0.00000 0.00000 0.00000
  66 0.00000 0.00000 0.00000
</Section>

newXOutput 158

<Section columns = "stress_xx | stress_yy | stress_xy">
  1 0.00000 0.00000 0.00000
  2 0.00000 0.00000 0.00000
  3 0.00000 0.00000 0.00000
  4 0.00000 0.00000 0.00000
  5 0.00000 0.00000 0.00000
  6 0.00000 0.00000 0.00000
  7 0.00000 0.00000 0.00000
  8 0.00000 0.00000 0.00000
  9 0.00000 0.00000 0.00000
  10 0.00000 0.00000 0.00000
  11 0.00000 0.00000 0.00000
  12 0.00000 0.00000 0.00000
  13 0.00000 0.00000 0.00000
  14 0.00000 0.00000 0.00000
  15 0.00000 0.00000 0.00000
  16 0.00000 0.00000 0.00000
  17 0.00000 0.00000 0.00000
  18 0.00000 0.00000 0.00000
  19 0.00000 0.00000 0.00000
  20 0.00000 0.00000 0.00000
  21 0.00000 0.00000 0.00000
  22 0.00000 0.00000 0.00000
  23 0.00000 0.00000 0.00000
  24 0.00000 0.00000 0.00000
  25 0.00000 0.00000 0.00000
  26 0.00000 0.00000 0.00000
  27 0.00000 0.00000 0.00000
  28 0.00000 0.00000 0.00000
  29 0.00000 0.00000 0.00000
  30 0.00000 0.00000 0.00000
  31 0.00000 0.00000 0.00000
  32 0.00000 0.00000 0.00000
  33 0.00000 0.00000 0.00000
  34 0.00000 0.00000 0.00000
  35 0.00000 0.00000 0.00000
  36 0.00000 0.00000 0.00000
  37 0.00000 0.00000 0.00000
  38 0.00000 0.00000 0.00000
  39 0.00000 0.00000 0.00000
  40 0.00000 0.00000 0.00000
  41 0.00000 0.00000 0.00000
  42 0.00000 0.00000 0.00000
  43 0.00000 0.00000 0.00000
  44 0.00000 0.00000 0.00000
  45 0.00000 0.00000 0.00000
  46 0.00000 0.00000 0.00000
  47 0.00000 0.00000 0.00000
  48 0.00000 0.00000 0.00000
  49 0.00000 0.00000 0.00000
  50 0.00000 0.00000 0.00000
  51 0.00000 0.00000 0.00000
  52 0.00000 0.00000 0.00000
  53 0.00000 0.00000 0.00000
  54 0.00000 0.00000 0.00000
  55 0.00000 0.00000 0.00000
  56 0.00000 0.00000 0.00000
  57 0.00000 0.00000 0.00000
  58 0.00000 0.00000 0.00000
  59 0.00000 0.00000 0.00000
  60 0.00000 0.00000 0.00000
  61 0.00000 0.00000 0.00000
  62 0.00000 0.00000 0.00000
  63 0.00000 0.00000 0.00000
  64 0.00000 0.00000 0.00000
  65 0.00000 0.00000 0.00000
  66 0.00000 0.00000 0.00000
</Section>

newXOutput 159

<Section columns = "stress_xx | stress_yy | stress_xy">
  1 0.00000 0.00000 0.00000
  2 0.00000 0.00000 0.00000
  3 0.00000 0.00000 0.00000
  4 0.00000 0.00000 0.00000
  5 0.00000 0.00000 0.00000
  6 0.00000 0.00000 0.00000
  7 0.00000 0.00000 0.00000
  8 0.00000 0.00000 0.00000
  9 0.00000 0.00000 0.00000
  10 0.00000 0.00000 0.00000
  11 0.00000 0.00000 0.00000
  12 0.00000 0.00000 0.00000
  13 0.00000 0.00000 0.00000
  14 0.00000 0.00000 0.00000
  15 0.00000 0.00000 0.00000
  16 0.00000 0.00000 0.00000
  17 0.00000 0.00000 0.00000
  18 0.00000 0.00000 0.00000
  19 0.00000 0.00000 0.00000
  20 0.00000 0.00000 0.00000
  21 0.00000 0.00000 0.00000
  22 0.00000 0.00000 0.00000
  23 0.00000 0.00000 0.00000
  24 0.00000 0.00000 0.00000
  25 0.00000 0.00000 0.00000
  26 0.00000 0.00000 0.00000
  27 0.00000 0.00000 0.00000
  28 0.00000 0.00000 0.00000
  29 0.00000 0.00000 0.00000
  30 0.00000 0.00000 0.00000
  31 0.00000 0.00000 0.00000
  32 0.00000 0.00000 0.00000
  33 0.00000 0.00000 0.00000
  34 0.00000 0.00000 0.00000
  35 0.00000 0.00000 0.00000
  36 0.00000 0.00000 0.00000
  37 0.00000 0.00000 0.00000
  38 0.00000 0.00000 0.00000
  39 0.00000 0.00000 0.00000
  40 0.00000 0.00000 0.00000
  41 0.00000 0.00000 0.00000
  42 0.00000 0.00000 0.00000
  43 0.00000 0.00000 0.00000
  44 0.00000 0.00000 0.00000
  45 0.00000 0.00000 0.00000
  46 0.00000 0.00000 0.00000
  47 0.00000 0.00000 0.00000
  48 0.00000 0.00000 0.00000
  49 0.00000 0.00000 0.00000
  50 0.00000 0.00000 0.00000
  51 0.00000 0.00000 0.00000
  52 0.00000 0.00000 0.00000
  53 0.00000 0.00000 0.00000
  54 0.00000 0.00000 0.00000
  55 0.00000 0.00000 0.00000
  56 0.00000 0.00000 0.00000
  57 0.00000 0.00000 0.00000
  58 0.00000 0.00000 0.00000
  59 0.00000 0.00000 0.00000
  60 0.00000 0.00000 0.00000
  61 0.00000 0.00000 0.00000
  62 0.00000 0.00000 0.00000
  63 0.00000 0.00000 0.00000
  64 0.00000 0.00000 0.00000
  65 0.00000 0.00000 0.00000
  66 0.00000 0.00000 0.00000
</Section>

newXOutput 160

<Section columns = "stress_xx | stress_yy | stress_xy">
  1 0.00000 0.00000 0.00000
  2 0.00000 0.00000 0.00000
  3 0.00000 0.00000 0.00000
  4 0.00000 0.00000 0.00000
  5 0.00000 0.00000 0.00000
  6 0.00000 0.00000 0.00000
  7 0.00000 0.00000 0.00000
  8 0.00000 0.00000 0.00000
  9 0.00000 0.00000 0.00000
  10 0.00000 0.00000 0.00000
  11 0.00000 0.00000 0.00000
  12 0.00000 0.00000 0.00000
  13 0.00000 0.00000 0.00000
  14 0.00000 0.00000 0.00000
  15 0.00000 0.00000 0.00000
  16 0.00000 0.00000 0.00000
  17 0.00000 0.00000 0.00000
  18 0.00000 0.00000 0.00000
  19 0.00000 0.00000 0.00000
  20 0.00000 0.00000 0.00000
  21 0.00000 0.00000 0.00000
  22 0.00000 0.00000 0.00000
  23 0.00000 0.00000 0.00000
  24 0.00000 0.00000 0.00000
  25 0.00000 0.00000 0.00000
  26 0.00000 0.00000 0.00000
  27 0.00000 0.00000 0.00000
  28 0.00000 0.00000 0.00000
  29 0.00000 0.00000 0.00000
  30 0.00000 0.00000 0.00000
  31 0.00000 0.00000 0.00000
  32 0.00000 0.00000 0.00000
  33 0.00000 0.00000 0.00000
  34 0.00000 0.00000 0.00000
  35 0.00000 0.00000 0.00000
  36 0.00000 0.00000 0.00000
  37 0.00000 0.00000 0.00000
  38 0.00000 0.00000 0.00000
  39 0.00000 0.00000 0.00000
  40 0.00000 0.00000 0.00000
  41 0.00000 0.00000 0.00000
  42 0.00000 0.00000 0.00000
  43 0.00000 0.00000 0.00000
  44 0.00000 0.00000 0.00000
  45 0.00000 0.00000 0.00000
  46 0.00000 0.00000 0.00000
  47 0.00000 0.00000 0.00000
  48 0.00000 0.00000 0.00000
  49 0.00000 0.00000 0.00000
  50 0.00000 0.00000 0.00000
  51 0.00000 0.00000 0.00000
  52 0.00000 0.00000 0.00000
  53 0.00000 0.00000 0.00000
  54 0.00000 0.00000 0.00000
  55 0.00000 0.00000 0.00000
  56 0.00000 0.00000 0.00000
  57 0.00000 0.00000 0.00000
  58 0.00000 0.00000 0.00000
  59 0.00000 0.00000 0.00000
  60 0.00000 0.00000 0.00000
  61 0.00000 0.00000 0.00000
  62 0.00000 0.00000 0.00000
  63 0.00000 0.00000 0.00000
  64 0.00000 0.00000 0.00000
  65 0.00000 0.00000 0.00000
  66 0.00000 0.00000 0.00000
</Section>

newXOutput 161

<Section columns = "stress_xx | stress_yy | stress_xy">
  1 0.00000 0.00000 0.00000
  2 0.00000 0.00000 0.00000
  3 0.00000 0.00000 0.00000
  4 0.00000 0.00000 0.00000
  5 0.00000 0.00000 0.00000
  6 0.00000 0.00000 0.00000
  7 0.00000 0.00000 0.00000
  8 0.00000 0.00000 0.00000
  9 0.00000 0.00000 0.00000
  10 0.00000 0.00000 0.00000
  11 0.00000 0.00000 0.00000
  12 0.00000 0.00000 0.00000
  13 0.00000 0.00000 0.00000
  14 0.00000 0.00000 0.00000
  15 0.00000 0.00000 0.00000
  16 0.00000 0.00000 0.00000
  17 0.00000 0.00000 0.00000
  18 0.00000 0.00000 0.00000
  19 0.00000 0.00000 0.00000
  20 0.00000 0.00000 0.00000
  21 0.00000 0.00000 0.00000
  22 0.00000 0.00000 0.00000
  23 0.00000 0.00000 0.00000
  24 0.00000 0.00000 0.00000
  25 0.00000 0.00000 0.00000
  26 0.00000 0.00000 0.00000
  27 0.00000 0.00000 0.00000
  28 0.00000 0.00000 0.00000
  29 0.00000 0.00000 0.00000
  30 0.00000 0.00000 0.00000
  31 0.00000 0.00000 0.00000
  32 0.00000 0.00000 0.00000
  33 0.00000 0.00000 0.00000
  34 0.00000 0.00000 0.00000
  35 0.00000 0.00000 0.00000
  36 0.00000 0.00000 0.00000
  37 0.00000 0.00000 0.00000
  38 0.00000 0.00000 0.00000
  39 0.00000 0.00000 0.00000
  40 0.00000 0.00000 0.00000
  41 0.00000 0.00000 0.00000
  42 0.00000 0.00000 0.00000
  43 0.00000 0.00000 0.00000
  44 0.00000 0.00000 0.00000
  45 0.00000 0.00000 0.00000
  46 0.00000 0.00000 0.00000
  47 0.00000 0.00000 0.00000
  48 0.00000 0.00000 0.00000
  49 0.00000 0.00000 0.00000
  50 0.00000 0.00000 0.00000
  51 0.00000 0.00000 0.00000
  52 0.00000 0.00000 0.00000
  53 0.00000 0.00000 0.00000
  54 0.00000 0.00000 0.00000
  55 0.00000 0.00000 0.00000
  56 0.00000 0.00000 0.00000
  57 0.00000 0.00000 0.00000
  58 0.00000 0.00000 0.00000
  59 0.00000 0.00000 0.00000
  60 0.00000 0.00000 0.00000
  61 0.00000 0.00000 0.00000
  62 0.00000 0.00000 0.00000
  63 0.00000 0.00000 0.00000
  64 0.00000 0.00000 0.00000
  65 0.00000 0.00000 0.00000
  66 0.00000 0.00000 0.00000
</Section>

newXOutput 162

<Section columns = "stress_xx | stress_yy | stress_xy">
  1 0.00000 0.00000 0.00000
  2 0.00000 0.00000 0.00000
  3 0.00000 0.00000 0.00000
  4 0.00000 0.00000 0.00000
  5 0.00000 0.00000 0.00000
  6 0.00000 0.00000 0.00000
  7 0.00000 0.00000 0.00000
  8 0.00000 0.00000 0.00000
  9 0.00000 0.00000 0.00000
  10 0.00000 0.00000 0.00000
  11 0.00000 0.00000 0.00000
  12 0.00000 0.00000 0.00000
  13 0.00000 0.00000 0.00000
  14 0.00000 0.00000 0.00000
  15 0.00000 0.00000 0.00000
  16 0.00000 0.00000 0.00000
  17 0.00000 0.00000 0.00000
  18 0.00000 0.00000 0.00000
  19 0.00000 0.00000 0.00000
  20 0.00000 0.00000 0.00000
  21 0.00000 0.00000 0.00000
  22 0.00000 0.00000 0.00000
  23 0.00000 0.00000 0.00000
  24 0.00000 0.00000 0.00000
  25 0.00000 0.00000 0.00000
  26 0.00000 0.00000 0.00000
  27 0.00000 0.00000 0.00000
  28 0.00000 0.00000 0.00000
  29 0.00000 0.00000 0.00000
  30 0.00000 0.00000 0.00000
  31 0.00000 0.00000 0.00000
  32 0.00000 0.00000 0.00000
  33 0.00000 0.00000 0.00000
  34 0.00000 0.00000 0.00000
  35 0.00000 0.00000 0.00000
  36 0.00000 0.00000 0.00000
  37 0.00000 0.00000 0.00000
  38 0.00000 0.00000 0.00000
  39 0.00000 0.00000 0.00000
  40 0.00000 0.00000 0.00000
  41 0.00000 0.00000 0.00000
  42 0.00000 0.00000 0.00000
  43 0.00000 0.00000 0.00000
  44 0.00000 0.00000 0.00000
  45 0.00000 0.00000 0.00000
  46 0.00000 0.00000 0.00000
  47 0.00000 0.00000 0.00000
  48 0.00000 0.00000 0.00000
  49 0.00000 0.00000 0.00000
  50 0.00000 0.00000 0.00000
  51 0.00000 0.00000 0.00000
  52 0.00000 0.00000 0.00000
  53 0.00000 0.00000 0.00000
  54 0.00000 0.00000 0.00000
  55 0.00000 0.00000 0.00000
  56 0.00000 0.00000 0.00000
  57 0.00000 0.00000 0.00000
  58 0.00000 0.00000 0.00000
  59 0.00000 0.00000 0.00000
  60 0.00000 0.00000 0.00000
  61 0.00000 0.00000 0.00000
  62 0.00000 0.00000 0.00000
  63 0.00000 0.00000 0.00000
  64 0.00000 0.00000 0.00000
  65 0.00000 0.00000 0.00000
  66 0.00000 0.00000 0.00000
</Section>

newXOutput 163

<Section columns = "stress_xx | stress_yy | stress_xy">
  1 0.00000 0.00000 0.00000
  2 0.00000 0.00000 0.00000
  3 0.00000 0.00000 0.00000
  4 0.00000 0.00000 0.00000
  5 0.00000 0.00000 0.00000
  6 0.00000 0.00000 0.00000
  7 0.00000 0.00000 0.00000
  8 0.00000 0.00000 0.00000
  9 0.00000 0.00000 0.00000
  10 0.00000 0.00000 0.00000
  11 0.00000 0.00000 0.00000
  12 0.00000 0.00000 0.00000
  13 0.00000 0.00000 0.00000
  14 0.00000 0.00000 0.00000
  15 0.00000 0.00000 0.00000
  16 0.00000 0.00000 0.00000
  17 0.00000 0.00000 0.00000
  18 0.00000 0.00000 0.00000
  19 0.00000 0.00000 0.00000
  20 0.00000 0.00000 0.00000
  21 0.00000 0.00000 0.00000
  22 0.00000 0.00000 0.00000
  23 0.00000 0.00000 0.00000
  24 0.00000 0.00000 0.00000
  25 0.00000 0.00000 0.00000
  26 0.00000 0.00000 0.00000
  27 0.00000 0.00000 0.00000
  28 0.00000 0.00000 0.00000
  29 0.00000 0.00000 0.00000
  30 0.00000 0.00000 0.00000
  31 0.00000 0.00000 0.00000
  32 0.00000 0.00000 0.00000
  33 0.00000 0.00000 0.00000
  34 0.00000 0.00000 0.00000
  35 0.00000 0.00000 0.00000
  36 0.00000 0.00000 0.00000
  37 0.00000 0.00000 0.00000
  38 0.00000 0.00000 0.00000
  39 0.00000 0.00000 0.00000
  40 0.00000 0.00000 0.00000
  41 0.00000 0.00000 0.00000
  42 0.00000 0.00000 0.00000
  43 0.00000 0.00000 0.00000
  44 0.00000 0.00000 0.00000
  45 0.00000 0.00000 0.00000
  46 0.00000 0.00000 0.00000
  47 0.00000 0.00000 0.00000
  48 0.00000 0.00000 0.00000
  49 0.00000 0.00000 0.00000
  50 0.00000 0.00000 0.00000
  51 0.00000 0.00000 0.00000
  52 0.00000 0.00000 0.00000
  53 0.00000 0.00000 0.00000
  54 0.00000 0.00000 0.00000
  55 0.00000 0.00000 0.00000
  56 0.00000 0.00000 0.00000
  57 0.00000 0.00000 0.00000
  58 0.00000 0.00000 0.00000
  59 0.00000 0.00000 0.00000
  60 0.00000 0.00000 0.00000
  61 0.00000 0.00000 0.00000
  62 0.00000 0.00000 0.00000
  63 0.00000 0.00000 0.00000
  64 0.00000 0.00000 0.00000
  65 0.00000 0.00000 0.00000
  66 0.00000 0.00000 0.00000
</Section>

newXOutput 164

<Section columns = "stress_xx | stress_yy | stress_xy">
  1 0.00000 0.00000 0.00000
  2 0.00000 0.00000 0.00000
  3 0.00000 0.00000 0.00000
  4 0.00000 0.00000 0.00000
  5 0.00000 0.00000 0.00000
  6 0.00000 0.00000 0.00000
  7 0.00000 0.00000 0.00000
  8 0.00000 0.00000 0.00000
  9 0.00000 0.00000 0.00000
  10 0.00000 0.00000 0.00000
  11 0.00000 0.00000 0.00000
  12 0.00000 0.00000 0.00000
  13 0.00000 0.00000 0.00000
  14 0.00000 0.00000 0.00000
  15 0.00000 0.00000 0.00000
  16 0.00000 0.00000 0.00000
  17 0.00000 0.00000 0.00000
  18 0.00000 0.00000 0.00000
  19 0.00000 0.00000 0.00000
  20 0.00000 0.00000 0.00000
  21 0.00000 0.00000 0.00000
  22 0.00000 0.00000 0.00000
  23 0.00000 0.00000 0.00000
  24 0.00000 0.00000 0.00000
  25 0.00000 0.00000 0.00000
  26 0.00000 0.00000 0.00000
  27 0.00000 0.00000 0.00000
  28 0.00000 0.00000 0.00000
  29 0.00000 0.00000 0.00000
  30 0.00000 0.00000 0.00000
  31 0.00000 0.00000 0.00000
  32 0.00000 0.00000 0.00000
  33 0.00000 0.00000 0.00000
  34 0.00000 0.00000 0.00000
  35 0.00000 0.00000 0.00000
  36 0.00000 0.00000 0.00000
  37 0.00000 0.00000 0.00000
  38 0.00000 0.00000 0.00000
  39 0.00000 0.00000 0.00000
  40 0.00000 0.00000 0.00000
  41 0.00000 0.00000 0.00000
  42 0.00000 0.00000 0.00000
  43 0.00000 0.00000 0.00000
  44 0.00000 0.00000 0.00000
  45 0.00000 0.00000 0.00000
  46 0.00000 0.00000 0.00000
  47 0.00000 0.00000 0.00000
  48 0.00000 0.00000 0.00000
  49 0.00000 0.00000 0.00000
  50 0.00000 0.00000 0.00000
  51 0.00000 0.00000 0.00000
  52 0.00000 0.00000 0.00000
  53 0.00000 0.00000 0.00000
  54 0.00000 0.00000 0.00000
  55 0.00000 0.00000 0.00000
  56 0.00000 0.00000 0.00000
  57 0.00000 0.00000 0.00000
  58 0.00000 0.00000 0.00000
  59 0.00000 0.00000 0.00000
  60 0.00000 0.00000 0.00000
  61 0.00000 0.00000 0.00000
  62 0.00000 0.00000 0.00000
  63 0.00000 0.00000 0.00000
  64 0.00000 0.00000 0.00000
  65 0.00000 0.00000 0.00000
  66 0.00000 0.00000 0.00000
</Section>

newXOutput 165

<Section columns = "stress_xx | stress_yy | stress_xy">
  1 0.00000 0.00000 0.00000
  2 0.00000 0.00000 0.00000
  3 0.00000 0.00000 0.00000
  4 0.00000 0.00000 0.00000
  5 0.00000 0.00000 0.00000
  6 0.00000 0.00000 0.00000
  7 0.00000 0.00000 0.00000
  8 0.00000 0.00000 0.00000
  9 0.00000 0.00000 0.00000
  10 0.00000 0.00000 0.00000
  11 0.00000 0.00000 0.00000
  12 0.00000 0.00000 0.00000
  13 0.00000 0.00000 0.00000
  14 0.00000 0.00000 0.00000
  15 0.00000 0.00000 0.00000
  16 0.00000 0.00000 0.00000
  17 0.00000 0.00000 0.00000
  18 0.00000 0.00000 0.00000
  19 0.00000 0.00000 0.00000
  20 0.00000 0.00000 0.00000
  21 0.00000 0.00000 0.00000
  22 0.00000 0.00000 0.00000
  23 0.00000 0.00000 0.00000
  24 0.00000 0.00000 0.00000
  25 0.00000 0.00000 0.00000
  26 0.00000 0.00000 0.00000
  27 0.00000 0.00000 0.00000
  28 0.00000 0.00000 0.00000
  29 0.00000 0.00000 0.00000
  30 0.00000 0.00000 0.00000
  31 0.00000 0.00000 0.00000
  32 0.00000 0.00000 0.00000
  33 0.00000 0.00000 0.00000
  34 0.00000 0.00000 0.00000
  35 0.00000 0.00000 0.00000
  36 0.00000 0.00000 0.00000
  37 0.00000 0.00000 0.00000
  38 0.00000 0.00000 0.00000
  39 0.00000 0.00000 0.00000
  40 0.00000 0.00000 0.00000
  41 0.00000 0.00000 0.00000
  42 0.00000 0.00000 0.00000
  43 0.00000 0.00000 0.00000
  44 0.00000 0.00000 0.00000
  45 0.00000 0.00000 0.00000
  46 0.00000 0.00000 0.00000
  47 0.00000 0.00000 0.00000
  48 0.00000 0.00000 0.00000
  49 0.00000 0.00000 0.00000
  50 0.00000 0.00000 0.00000
  51 0.00000 0.00000 0.00000
  52 0.00000 0.00000 0.00000
  53 0.00000 0.00000 0.00000
  54 0.00000 0.00000 0.00000
  55 0.00000 0.00000 0.00000
  56 0.00000 0.00000 0.00000
  57 0.00000 0.00000 0.00000
  58 0.00000 0.00000 0.00000
  59 0.00000 0.00000 0.00000
  60 0.00000 0.00000 0.00000
  61 0.00000 0.00000 0.00000
  62 0.00000 0.00000 0.00000
  63 0.00000 0.00000 0.00000
  64 0.00000 0.00000 0.00000
  65 0.00000 0.00000 0.00000
  66 0.00000 0.00000 0.00000
</Section>

newXOutput 166

<Section columns = "stress_xx | stress_yy | stress_xy">
  1 0.00000 0.00000 0.00000
  2 0.00000 0.00000 0.00000
  3 0.00000 0.00000 0.00000
  4 0.00000 0.00000 0.00000
  5 0.00000 0.00000 0.00000
  6 0.00000 0.00000 0.00000
  7 0.00000 0.00000 0.00000
  8 0.00000 0.00000 0.00000
  9 0.00000 0.00000 0.00000
  10 0.00000 0.00000 0.00000
  11 0.00000 0.00000 0.00000
  12 0.00000 0.00000 0.00000
  13 0.00000 0.00000 0.00000
  14 0.00000 0.00000 0.00000
  15 0.00000 0.00000 0.00000
  16 0.00000 0.00000 0.00000
  17 0.00000 0.00000 0.00000
  18 0.00000 0.00000 0.00000
  19 0.00000 0.00000 0.00000
  20 0.00000 0.00000 0.00000
  21 0.00000 0.00000 0.00000
  22 0.00000 0.00000 0.00000
  23 0.00000 0.00000 0.00000
  24 0.00000 0.00000 0.00000
  25 0.00000 0.00000 0.00000
  26 0.00000 0.00000 0.00000
  27 0.00000 0.00000 0.00000
  28 0.00000 0.00000 0.00000
  29 0.00000 0.00000 0.00000
  30 0.00000 0.00000 0.00000
  31 0.00000 0.00000 0.00000
  32 0.00000 0.00000 0.00000
  33 0.00000 0.00000 0.00000
  34 0.00000 0.00000 0.00000
  35 0.00000 0.00000 0.00000
  36 0.00000 0.00000 0.00000
  37 0.00000 0.00000 0.00000
  38 0.00000 0.00000 0.00000
  39 0.00000 0.00000 0.00000
  40 0.00000 0.00000 0.00000
  41 0.00000 0.00000 0.00000
  42 0.00000 0.00000 0.00000
  43 0.00000 0.00000 0.00000
  44 0.00000 0.00000 0.00000
  45 0.00000 0.00000 0.00000
  46 0.00000 0.00000 0.00000
  47 0.00000 0.00000 0.00000
  48 0.00000 0.00000 0.00000
  49 0.00000 0.00000 0.00000
  50 0.00000 0.00000 0.00000
  51 0.00000 0.00000 0.00000
  52 0.00000 0.00000 0.00000
  53 0.00000 0.00000 0.00000
  54 0.00000 0.00000 0.00000
  55 0.00000 0.00000 0.00000
  56 0.00000 0.00000 0.00000
  57 0.00000 0.00000 0.00000
  58 0.00000 0.00000 0.00000
  59 0.00000 0.00000 0.00000
  60 0.00000 0.00000 0.00000
  61 0.00000 0.00000 0.00000
  62 0.00000 0.00000 0.00000
  63 0.00000 0.00000 0.00000
  64 0.00000 0.00000 0.00000
  65 0.00000 0.00000 0.00000
  66 0.00000 0.00000 0.00000
</Section>

newXOutput 167

<Section columns = "stress_xx | stress_yy | stress_xy">
  1 0.00000 0.00000 0.00000
  2 0.00000 0.00000 0.00000
  3 0.00000 0.00000 0.00000
  4 0.00000 0.00000 0.00000
  5 0.00000 0.00000 0.00000
  6 0.00000 0.00000 0.00000
  7 0.00000 0.00000 0.00000
  8 0.00000 0.00000 0.00000
  9 0.00000 0.00000 0.00000
  10 0.00000 0.00000 0.00000
  11 0.00000 0.00000 0.00000
  12 0.00000 0.00000 0.00000
  13 0.00000 0.00000 0.00000
  14 0.00000 0.00000 0.00000
  15 0.00000 0.00000 0.00000
  16 0.00000 0.00000 0.00000
  17 0.00000 0.00000 0.00000
  18 0.00000 0.00000 0.00000
  19 0.00000 0.00000 0.00000
  20 0.00000 0.00000 0.00000
  21 0.00000 0.00000 0.00000
  22 0.00000 0.00000 0.00000
  23 0.00000 0.00000 0.00000
  24 0.00000 0.00000 0.00000
  25 0.00000 0.00000 0.00000
  26 0.00000 0.00000 0.00000
  27 0.00000 0.00000 0.00000
  28 0.00000 0.00000 0.00000
  29 0.00000 0.00000 0.00000
  30 0.00000 0.00000 0.00000
  31 0.00000 0.00000 0.00000
  32 0.00000 0.00000 0.00000
  33 0.00000 0.00000 0.00000
  34 0.00000 0.00000 0.00000
  35 0.00000 0.00000 0.00000
  36 0.00000 0.00000 0.00000
  37 0.00000 0.00000 0.00000
  38 0.00000 0.00000 0.00000
  39 0.00000 0.00000 0.00000
  40 0.00000 0.00000 0.00000
  41 0.00000 0.00000 0.00000
  42 0.00000 0.00000 0.00000
  43 0.00000 0.00000 0.00000
  44 0.00000 0.00000 0.00000
  45 0.00000 0.00000 0.00000
  46 0.00000 0.00000 0.00000
  47 0.00000 0.00000 0.00000
  48 0.00000 0.00000 0.00000
  49 0.00000 0.00000 0.00000
  50 0.00000 0.00000 0.00000
  51 0.00000 0.00000 0.00000
  52 0.00000 0.00000 0.00000
  53 0.00000 0.00000 0.00000
  54 0.00000 0.00000 0.00000
  55 0.00000 0.00000 0.00000
  56 0.00000 0.00000 0.00000
  57 0.00000 0.00000 0.00000
  58 0.00000 0.00000 0.00000
  59 0.00000 0.00000 0.00000
  60 0.00000 0.00000 0.00000
  61 0.00000 0.00000 0.00000
  62 0.00000 0.00000 0.00000
  63 0.00000 0.00000 0.00000
  64 0.00000 0.00000 0.00000
  65 0.00000 0.00000 0.00000
  66 0.00000 0.00000 0.00000
</Section>

newXOutput 168

<Section columns = "stress_xx | stress_yy | stress_xy">
  1 0.00000 0.00000 0.00000
  2 0.00000 0.00000 0.00000
  3 0.00000 0.00000 0.00000
  4 0.00000 0.00000 0.00000
  5 0.00000 0.00000 0.00000
  6 0.00000 0.00000 0.00000
  7 0.00000 0.00000 0.00000
  8 0.00000 0.00000 0.00000
  9 0.00000 0.00000 0.00000
  10 0.00000 0.00000 0.00000
  11 0.00000 0.00000 0.00000
  12 0.00000 0.00000 0.00000
  13 0.00000 0.00000 0.00000
  14 0.00000 0.00000 0.00000
  15 0.00000 0.00000 0.00000
  16 0.00000 0.00000 0.00000
  17 0.00000 0.00000 0.00000
  18 0.00000 0.00000 0.00000
  19 0.00000 0.00000 0.00000
  20 0.00000 0.00000 0.00000
  21 0.00000 0.00000 0.00000
  22 0.00000 0.00000 0.00000
  23 0.00000 0.00000 0.00000
  24 0.00000 0.00000 0.00000
  25 0.00000 0.00000 0.00000
  26 0.00000 0.00000 0.00000
  27 0.00000 0.00000 0.00000
  28 0.00000 0.00000 0.00000
  29 0.00000 0.00000 0.00000
  30 0.00000 0.00000 0.00000
  31 0.00000 0.00000 0.00000
  32 0.00000 0.00000 0.00000
  33 0.00000 0.00000 0.00000
  34 0.00000 0.00000 0.00000
  35 0.00000 0.00000 0.00000
  36 0.00000 0.00000 0.00000
  37 0.00000 0.00000 0.00000
  38 0.00000 0.00000 0.00000
  39 0.00000 0.00000 0.00000
  40 0.00000 0.00000 0.00000
  41 0.00000 0.00000 0.00000
  42 0.00000 0.00000 0.00000
  43 0.00000 0.00000 0.00000
  44 0.00000 0.00000 0.00000
  45 0.00000 0.00000 0.00000
  46 0.00000 0.00000 0.00000
  47 0.00000 0.00000 0.00000
  48 0.00000 0.00000 0.00000
  49 0.00000 0.00000 0.00000
  50 0.00000 0.00000 0.00000
  51 0.00000 0.00000 0.00000
  52 0.00000 0.00000 0.00000
  53 0.00000 0.00000 0.00000
  54 0.00000 0.00000 0.00000
  55 0.00000 0.00000 0.00000
  56 0.00000 0.00000 0.00000
  57 0.00000 0.00000 0.00000
  58 0.00000 0.00000 0.00000
  59 0.00000 0.00000 0.00000
  60 0.00000 0.00000 0.00000
  61 0.00000 0.00000 0.00000
  62 0.00000 0.00000 0.00000
  63 0.00000 0.00000 0.00000
  64 0.00000 0.00000 0.00000
  65 0.00000 0.00000 0.00000
  66 0.00000 0.00000 0.00000
</Section>

newXOutput 169

<Section columns = "stress_xx | stress_yy | stress_xy">
  1 0.00000 0.00000 0.00000
  2 0.00000 0.00000 0.00000
  3 0.00000 0.00000 0.00000
  4 0.00000 0.00000 0.00000
  5 0.00000 0.00000 0.00000
  6 0.00000 0.00000 0.00000
  7 0.00000 0.00000 0.00000
  8 0.00000 0.00000 0.00000
  9 0.00000 0.00000 0.00000
  10 0.00000 0.00000 0.00000
  11 0.00000 0.00000 0.00000
  12 0.00000 0.00000 0.00000
  13 0.00000 0.00000 0.00000
  14 0.00000 0.00000 0.00000
  15 0.00000 0.00000 0.00000
  16 0.00000 0.00000 0.00000
  17 0.00000 0.00000 0.00000
  18 0.00000 0.00000 0.00000
  19 0.00000 0.00000 0.00000
  20 0.00000 0.00000 0.00000
  21 0.00000 0.00000 0.00000
  22 0.00000 0.00000 0.00000
  23 0.00000 0.00000 0.00000
  24 0.00000 0.00000 0.00000
  25 0.00000 0.00000 0.00000
  26 0.00000 0.00000 0.00000
  27 0.00000 0.00000 0.00000
  28 0.00000 0.00000 0.00000
  29 0.00000 0.00000 0.00000
  30 0.00000 0.00000 0.00000
  31 0.00000 0.00000 0.00000
  32 0.00000 0.00000 0.00000
  33 0.00000 0.00000 0.00000
  34 0.00000 0.00000 0.00000
  35 0.00000 0.00000 0.00000
  36 0.00000 0.00000 0.00000
  37 0.00000 0.00000 0.00000
  38 0.00000 0.00000 0.00000
  39 0.00000 0.00000 0.00000
  40 0.00000 0.00000 0.00000
  41 0.00000 0.00000 0.00000
  42 0.00000 0.00000 0.00000
  43 0.00000 0.00000 0.00000
  44 0.00000 0.00000 0.00000
  45 0.00000 0.00000 0.00000
  46 0.00000 0.00000 0.00000
  47 0.00000 0.00000 0.00000
  48 0.00000 0.00000 0.00000
  49 0.00000 0.00000 0.00000
  50 0.00000 0.00000 0.00000
  51 0.00000 0.00000 0.00000
  52 0.00000 0.00000 0.00000
  53 0.00000 0.00000 0.00000
  54 0.00000 0.00000 0.00000
  55 0.00000 0.00000 0.00000
  56 0.00000 0.00000 0.00000
  57 0.00000 0.00000 0.00000
  58 0.00000 0.00000 0.00000
  59 0.00000 0.00000 0.00000
  60 0.00000 0.00000 0.00000
  61 0.00000 0.00000 0.00000
  62 0.00000 0.00000 0.00000
  63 0.00000 0.00000 0.00000
  64 0.00000 0.00000 0.00000
  65 0.00000 0.00000 0.00000
  66 0.00000 0.00000 0.00000
</Section>

newXOutput 170

<Section columns = "stress_xx | stress_yy | stress_xy">
  1 0.00000 0.00000 0.00000
  2 0.00000 0.00000 0.00000
  3 0.00000 0.00000 0.00000
  4 0.00000 0.00000 0.00000
  5 0.00000 0.00000 0.00000
  6 0.00000 0.00000 0.00000
  7 0.00000 0.00000 0.00000
  8 0.00000 0.00000 0.00000
  9 0.00000 0.00000 0.00000
  10 0.00000 0.00000 0.00000
  11 0.00000 0.00000 0.00000
  12 0.00000 0.00000 0.00000
  13 0.00000 0.00000 0.00000
  14 0.00000 0.00000 0.00000
  15 0.00000 0.00000 0.00000
  16 0.00000 0.00000 0.00000
  17 0.00000 0.00000 0.00000
  18 0.00000 0.00000 0.00000
  19 0.00000 0.00000 0.00000
  20 0.00000 0.00000 0.00000
  21 0.00000 0.00000 0.00000
  22 0.00000 0.00000 0.00000
  23 0.00000 0.00000 0.00000
  24 0.00000 0.00000 0.00000
  25 0.00000 0.00000 0.00000
  26 0.00000 0.00000 0.00000
  27 0.00000 0.00000 0.00000
  28 0.00000 0.00000 0.00000
  29 0.00000 0.00000 0.00000
  30 0.00000 0.00000 0.00000
  31 0.00000 0.00000 0.00000
  32 0.00000 0.00000 0.00000
  33 0.00000 0.00000 0.00000
  34 0.00000 0.00000 0.00000
  35 0.00000 0.00000 0.00000
  36 0.00000 0.00000 0.00000
  37 0.00000 0.00000 0.00000
  38 0.00000 0.00000 0.00000
  39 0.00000 0.00000 0.00000
  40 0.00000 0.00000 0.00000
  41 0.00000 0.00000 0.00000
  42 0.00000 0.00000 0.00000
  43 0.00000 0.00000 0.00000
  44 0.00000 0.00000 0.00000
  45 0.00000 0.00000 0.00000
  46 0.00000 0.00000 0.00000
  47 0.00000 0.00000 0.00000
  48 0.00000 0.00000 0.00000
  49 0.00000 0.00000 0.00000
  50 0.00000 0.00000 0.00000
  51 0.00000 0.00000 0.00000
  52 0.00000 0.00000 0.00000
  53 0.00000 0.00000 0.00000
  54 0.00000 0.00000 0.00000
  55 0.00000 0.00000 0.00000
  56 0.00000 0.00000 0.00000
  57 0.00000 0.00000 0.00000
  58 0.00000 0.00000 0.00000
  59 0.00000 0.00000 0.00000
  60 0.00000 0.00000 0.00000
  61 0.00000 0.00000 0.00000
  62 0.00000 0.00000 0.00000
  63 0.00000 0.00000 0.00000
  64 0.00000 0.00000 0.00000
  65 0.00000 0.00000 0.00000
  66 0.00000 0.00000 0.00000
</Section>

newXOutput 171

<Section columns = "stress_xx | stress_yy | stress_xy">
  1 0.00000 0.00000 0.00000
  2 0.00000 0.00000 0.00000
  3 0.00000 0.00000 0.00000
  4 0.00000 0.00000 0.00000
  5 0.00000 0.00000 0.00000
  6 0.00000 0.00000 0.00000
  7 0.00000 0.00000 0.00000
  8 0.00000 0.00000 0.00000
  9 0.00000 0.00000 0.00000
  10 0.00000 0.00000 0.00000
  11 0.00000 0.00000 0.00000
  12 0.00000 0.00000 0.00000
  13 0.00000 0.00000 0.00000
  14 0.00000 0.00000 0.00000
  15 0.00000 0.00000 0.00000
  16 0.00000 0.00000 0.00000
  17 0.00000 0.00000 0.00000
  18 0.00000 0.00000 0.00000
  19 0.00000 0.00000 0.00000
  20 0.00000 0.00000 0.00000
  21 0.00000 0.00000 0.00000
  22 0.00000 0.00000 0.00000
  23 0.00000 0.00000 0.00000
  24 0.00000 0.00000 0.00000
  25 0.00000 0.00000 0.00000
  26 0.00000 0.00000 0.00000
  27 0.00000 0.00000 0.00000
  28 0.00000 0.00000 0.00000
  29 0.00000 0.00000 0.00000
  30 0.00000 0.00000 0.00000
  31 0.00000 0.00000 0.00000
  32 0.00000 0.00000 0.00000
  33 0.00000 0.00000 0.00000
  34 0.00000 0.00000 0.00000
  35 0.00000 0.00000 0.00000
  36 0.00000 0.00000 0.00000
  37 0.00000 0.00000 0.00000
  38 0.00000 0.00000 0.00000
  39 0.00000 0.00000 0.00000
  40 0.00000 0.00000 0.00000
  41 0.00000 0.00000 0.00000
  42 0.00000 0.00000 0.00000
  43 0.00000 0.00000 0.00000
  44 0.00000 0.00000 0.00000
  45 0.00000 0.00000 0.00000
  46 0.00000 0.00000 0.00000
  47 0.00000 0.00000 0.00000
  48 0.00000 0.00000 0.00000
  49 0.00000 0.00000 0.00000
  50 0.00000 0.00000 0.00000
  51 0.00000 0.00000 0.00000
  52 0.00000 0.00000 0.00000
  53 0.00000 0.00000 0.00000
  54 0.00000 0.00000 0.00000
  55 0.00000 0.00000 0.00000
  56 0.00000 0.00000 0.00000
  57 0.00000 0.00000 0.00000
  58 0.00000 0.00000 0.00000
  59 0.00000 0.00000 0.00000
  60 0.00000 0.00000 0.00000
  61 0.00000 0.00000 0.00000
  62 0.00000 0.00000 0.00000
  63 0.00000 0.00000 0.00000
  64 0.00000 0.00000 0.00000
  65 0.00000 0.00000 0.00000
  66 0.00000 0.00000 0.00000
</Section>

newXOutput 172

<Section columns = "stress_xx | stress_yy | stress_xy">
  1 0.00000 0.00000 0.00000
  2 0.00000 0.00000 0.00000
  3 0.00000 0.00000 0.00000
  4 0.00000 0.00000 0.00000
  5 0.00000 0.00000 0.00000
  6 0.00000 0.00000 0.00000
  7 0.00000 0.00000 0.00000
  8 0.00000 0.00000 0.00000
  9 0.00000 0.00000 0.00000
  10 0.00000 0.00000 0.00000
  11 0.00000 0.00000 0.00000
  12 0.00000 0.00000 0.00000
  13 0.00000 0.00000 0.00000
  14 0.00000 0.00000 0.00000
  15 0.00000 0.00000 0.00000
  16 0.00000 0.00000 0.00000
  17 0.00000 0.00000 0.00000
  18 0.00000 0.00000 0.00000
  19 0.00000 0.00000 0.00000
  20 0.00000 0.00000 0.00000
  21 0.00000 0.00000 0.00000
  22 0.00000 0.00000 0.00000
  23 0.00000 0.00000 0.00000
  24 0.00000 0.00000 0.00000
  25 0.00000 0.00000 0.00000
  26 0.00000 0.00000 0.00000
  27 0.00000 0.00000 0.00000
  28 0.00000 0.00000 0.00000
  29 0.00000 0.00000 0.00000
  30 0.00000 0.00000 0.00000
  31 0.00000 0.00000 0.00000
  32 0.00000 0.00000 0.00000
  33 0.00000 0.00000 0.00000
  34 0.00000 0.00000 0.00000
  35 0.00000 0.00000 0.00000
  36 0.00000 0.00000 0.00000
  37 0.00000 0.00000 0.00000
  38 0.00000 0.00000 0.00000
  39 0.00000 0.00000 0.00000
  40 0.00000 0.00000 0.00000
  41 0.00000 0.00000 0.00000
  42 0.00000 0.00000 0.00000
  43 0.00000 0.00000 0.00000
  44 0.00000 0.00000 0.00000
  45 0.00000 0.00000 0.00000
  46 0.00000 0.00000 0.00000
  47 0.00000 0.00000 0.00000
  48 0.00000 0.00000 0.00000
  49 0.00000 0.00000 0.00000
  50 0.00000 0.00000 0.00000
  51 0.00000 0.00000 0.00000
  52 0.00000 0.00000 0.00000
  53 0.00000 0.00000 0.00000
  54 0.00000 0.00000 0.00000
  55 0.00000 0.00000 0.00000
  56 0.00000 0.00000 0.00000
  57 0.00000 0.00000 0.00000
  58 0.00000 0.00000 0.00000
  59 0.00000 0.00000 0.00000
  60 0.00000 0.00000 0.00000
  61 0.00000 0.00000 0.00000
  62 0.00000 0.00000 0.00000
  63 0.00000 0.00000 0.00000
  64 0.00000 0.00000 0.00000
  65 0.00000 0.00000 0.00000
  66 0.00000 0.00000 0.00000
</Section>

newXOutput 173

<Section columns = "stress_xx | stress_yy | stress_xy">
  1 0.00000 0.00000 0.00000
  2 0.00000 0.00000 0.00000
  3 0.00000 0.00000 0.00000
  4 0.00000 0.00000 0.00000
  5 0.00000 0.00000 0.00000
  6 0.00000 0.00000 0.00000
  7 0.00000 0.00000 0.00000
  8 0.00000 0.00000 0.00000
  9 0.00000 0.00000 0.00000
  10 0.00000 0.00000 0.00000
  11 0.00000 0.00000 0.00000
  12 0.00000 0.00000 0.00000
  13 0.00000 0.00000 0.00000
  14 0.00000 0.00000 0.00000
  15 0.00000 0.00000 0.00000
  16 0.00000 0.00000 0.00000
  17 0.00000 0.00000 0.00000
  18 0.00000 0.00000 0.00000
  19 0.00000 0.00000 0.00000
  20 0.00000 0.00000 0.00000
  21 0.00000 0.00000 0.00000
  22 0.00000 0.00000 0.00000
  23 0.00000 0.00000 0.00000
  24 0.00000 0.00000 0.00000
  25 0.00000 0.00000 0.00000
  26 0.00000 0.00000 0.00000
  27 0.00000 0.00000 0.00000
  28 0.00000 0.00000 0.00000
  29 0.00000 0.00000 0.00000
  30 0.00000 0.00000 0.00000
  31 0.00000 0.00000 0.00000
  32 0.00000 0.00000 0.00000
  33 0.00000 0.00000 0.00000
  34 0.00000 0.00000 0.00000
  35 0.00000 0.00000 0.00000
  36 0.00000 0.00000 0.00000
  37 0.00000 0.00000 0.00000
  38 0.00000 0.00000 0.00000
  39 0.00000 0.00000 0.00000
  40 0.00000 0.00000 0.00000
  41 0.00000 0.00000 0.00000
  42 0.00000 0.00000 0.00000
  43 0.00000 0.00000 0.00000
  44 0.00000 0.00000 0.00000
  45 0.00000 0.00000 0.00000
  46 0.00000 0.00000 0.00000
  47 0.00000 0.00000 0.00000
  48 0.00000 0.00000 0.00000
  49 0.00000 0.00000 0.00000
  50 0.00000 0.00000 0.00000
  51 0.00000 0.00000 0.00000
  52 0.00000 0.00000 0.00000
  53 0.00000 0.00000 0.00000
  54 0.00000 0.00000 0.00000
  55 0.00000 0.00000 0.00000
  56 0.00000 0.00000 0.00000
  57 0.00000 0.00000 0.00000
  58 0.00000 0.00000 0.00000
  59 0.00000 0.00000 0.00000
  60 0.00000 0.00000 0.00000
  61 0.00000 0.00000 0.00000
  62 0.00000 0.00000 0.00000
  63 0.00000 0.00000 0.00000
  64 0.00000 0.00000 0.00000
  65 0.00000 0.00000 0.00000
  66 0.00000 0.00000 0.00000
</Section>

newXOutput 174

<Section columns = "stress_xx | stress_yy | stress_xy">
  1 0.00000 0.00000 0.00000
  2 0.00000 0.00000 0.00000
  3 0.00000 0.00000 0.00000
  4 0.00000 0.00000 0.00000
  5 0.00000 0.00000 0.00000
  6 0.00000 0.00000 0.00000
  7 0.00000 0.00000 0.00000
  8 0.00000 0.00000 0.00000
  9 0.00000 0.00000 0.00000
  10 0.00000 0.00000 0.00000
  11 0.00000 0.00000 0.00000
  12 0.00000 0.00000 0.00000
  13 0.00000 0.00000 0.00000
  14 0.00000 0.00000 0.00000
  15 0.00000 0.00000 0.00000
  16 0.00000 0.00000 0.00000
  17 0.00000 0.00000 0.00000
  18 0.00000 0.00000 0.00000
  19 0.00000 0.00000 0.00000
  20 0.00000 0.00000 0.00000
  21 0.00000 0.00000 0.00000
  22 0.00000 0.00000 0.00000
  23 0.00000 0.00000 0.00000
  24 0.00000 0.00000 0.00000
  25 0.00000 0.00000 0.00000
  26 0.00000 0.00000 0.00000
  27 0.00000 0.00000 0.00000
  28 0.00000 0.00000 0.00000
  29 0.00000 0.00000 0.00000
  30 0.00000 0.00000 0.00000
  31 0.00000 0.00000 0.00000
  32 0.00000 0.00000 0.00000
  33 0.00000 0.00000 0.00000
  34 0.00000 0.00000 0.00000
  35 0.00000 0.00000 0.00000
  36 0.00000 0.00000 0.00000
  37 0.00000 0.00000 0.00000
  38 0.00000 0.00000 0.00000
  39 0.00000 0.00000 0.00000
  40 0.00000 0.00000 0.00000
  41 0.00000 0.00000 0.00000
  42 0.00000 0.00000 0.00000
  43 0.00000 0.00000 0.00000
  44 0.00000 0.00000 0.00000
  45 0.00000 0.00000 0.00000
  46 0.00000 0.00000 0.00000
  47 0.00000 0.00000 0.00000
  48 0.00000 0.00000 0.00000
  49 0.00000 0.00000 0.00000
  50 0.00000 0.00000 0.00000
  51 0.00000 0.00000 0.00000
  52 0.00000 0.00000 0.00000
  53 0.00000 0.00000 0.00000
  54 0.00000 0.00000 0.00000
  55 0.00000 0.00000 0.00000
  56 0.00000 0.00000 0.00000
  57 0.00000 0.00000 0.00000
  58 0.00000 0.00000 0.00000
  59 0.00000 0.00000 0.00000
  60 0.00000 0.00000 0.00000
  61 0.00000 0.00000 0.00000
  62 0.00000 0.00000 0.00000
  63 0.00000 0.00000 0.00000
  64 0.00000 0.00000 0.00000
  65 0.00000 0.00000 0.00000
  66 0.00000 0.00000 0.00000
</Section>

newXOutput 175

<Section columns = "stress_xx | stress_yy | stress_xy">
  1 0.00000 0.00000 0.00000
  2 0.00000 0.00000 0.00000
  3 0.00000 0.00000 0.00000
  4 0.00000 0.00000 0.00000
  5 0.00000 0.00000 0.00000
  6 0.00000 0.00000 0.00000
  7 0.00000 0.00000 0.00000
  8 0.00000 0.00000 0.00000
  9 0.00000 0.00000 0.00000
  10 0.00000 0.00000 0.00000
  11 0.00000 0.00000 0.00000
  12 0.00000 0.00000 0.00000
  13 0.00000 0.00000 0.00000
  14 0.00000 0.00000 0.00000
  15 0.00000 0.00000 0.00000
  16 0.00000 0.00000 0.00000
  17 0.00000 0.00000 0.00000
  18 0.00000 0.00000 0.00000
  19 0.00000 0.00000 0.00000
  20 0.00000 0.00000 0.00000
  21 0.00000 0.00000 0.00000
  22 0.00000 0.00000 0.00000
  23 0.00000 0.00000 0.00000
  24 0.00000 0.00000 0.00000
  25 0.00000 0.00000 0.00000
  26 0.00000 0.00000 0.00000
  27 0.00000 0.00000 0.00000
  28 0.00000 0.00000 0.00000
  29 0.00000 0.00000 0.00000
  30 0.00000 0.00000 0.00000
  31 0.00000 0.00000 0.00000
  32 0.00000 0.00000 0.00000
  33 0.00000 0.00000 0.00000
  34 0.00000 0.00000 0.00000
  35 0.00000 0.00000 0.00000
  36 0.00000 0.00000 0.00000
  37 0.00000 0.00000 0.00000
  38 0.00000 0.00000 0.00000
  39 0.00000 0.00000 0.00000
  40 0.00000 0.00000 0.00000
  41 0.00000 0.00000 0.00000
  42 0.00000 0.00000 0.00000
  43 0.00000 0.00000 0.00000
  44 0.00000 0.00000 0.00000
  45 0.00000 0.00000 0.00000
  46 0.00000 0.00000 0.00000
  47 0.00000 0.00000 0.00000
  48 0.00000 0.00000 0.00000
  49 0.00000 0.00000 0.00000
  50 0.00000 0.00000 0.00000
  51 0.00000 0.00000 0.00000
  52 0.00000 0.00000 0.00000
  53 0.00000 0.00000 0.00000
  54 0.00000 0.00000 0.00000
  55 0.00000 0.00000 0.00000
  56 0.00000 0.00000 0.00000
  57 0.00000 0.00000 0.00000
  58 0.00000 0.00000 0.00000
  59 0.00000 0.00000 0.00000
  60 0.00000 0.00000 0.00000
  61 0.00000 0.00000 0.00000
  62 0.00000 0.00000 0.00000
  63 0.00000 0.00000 0.00000
  64 0.00000 0.00000 0.00000
  65 0.00000 0.00000 0.00000
  66 0.00000 0.00000 0.00000
</Section>

newXOutput 176

<Section columns = "stress_xx | stress_yy | stress_xy">
  1 0.00000 0.00000 0.00000
  2 0.00000 0.00000 0.00000
  3 0.00000 0.00000 0.00000
  4 0.00000 0.00000 0.00000
  5 0.00000 0.00000 0.00000
  6 0.00000 0.00000 0.00000
  7 0.00000 0.00000 0.00000
  8 0.00000 0.00000 0.00000
  9 0.00000 0.00000 0.00000
  10 0.00000 0.00000 0.00000
  11 0.00000 0.00000 0.00000
  12 0.00000 0.00000 0.00000
  13 0.00000 0.00000 0.00000
  14 0.00000 0.00000 0.00000
  15 0.00000 0.00000 0.00000
  16 0.00000 0.00000 0.00000
  17 0.00000 0.00000 0.00000
  18 0.00000 0.00000 0.00000
  19 0.00000 0.00000 0.00000
  20 0.00000 0.00000 0.00000
  21 0.00000 0.00000 0.00000
  22 0.00000 0.00000 0.00000
  23 0.00000 0.00000 0.00000
  24 0.00000 0.00000 0.00000
  25 0.00000 0.00000 0.00000
  26 0.00000 0.00000 0.00000
  27 0.00000 0.00000 0.00000
  28 0.00000 0.00000 0.00000
  29 0.00000 0.00000 0.00000
  30 0.00000 0.00000 0.00000
  31 0.00000 0.00000 0.00000
  32 0.00000 0.00000 0.00000
  33 0.00000 0.00000 0.00000
  34 0.00000 0.00000 0.00000
  35 0.00000 0.00000 0.00000
  36 0.00000 0.00000 0.00000
  37 0.00000 0.00000 0.00000
  38 0.00000 0.00000 0.00000
  39 0.00000 0.00000 0.00000
  40 0.00000 0.00000 0.00000
  41 0.00000 0.00000 0.00000
  42 0.00000 0.00000 0.00000
  43 0.00000 0.00000 0.00000
  44 0.00000 0.00000 0.00000
  45 0.00000 0.00000 0.00000
  46 0.00000 0.00000 0.00000
  47 0.00000 0.00000 0.00000
  48 0.00000 0.00000 0.00000
  49 0.00000 0.00000 0.00000
  50 0.00000 0.00000 0.00000
  51 0.00000 0.00000 0.00000
  52 0.00000 0.00000 0.00000
  53 0.00000 0.00000 0.00000
  54 0.00000 0.00000 0.00000
  55 0.00000 0.00000 0.00000
  56 0.00000 0.00000 0.00000
  57 0.00000 0.00000 0.00000
  58 0.00000 0.00000 0.00000
  59 0.00000 0.00000 0.00000
  60 0.00000 0.00000 0.00000
  61 0.00000 0.00000 0.00000
  62 0.00000 0.00000 0.00000
  63 0.00000 0.00000 0.00000
  64 0.00000 0.00000 0.00000
  65 0.00000 0.00000 0.00000
  66 0.00000 0.00000 0.00000
</Section>

newXOutput 177

<Section columns = "stress_xx | stress_yy | stress_xy">
  1 0.00000 0.00000 0.00000
  2 0.00000 0.00000 0.00000
  3 0.00000 0.00000 0.00000
  4 0.00000 0.00000 0.00000
  5 0.00000 0.00000 0.00000
  6 0.00000 0.00000 0.00000
  7 0.00000 0.00000 0.00000
  8 0.00000 0.00000 0.00000
  9 0.00000 0.00000 0.00000
  10 0.00000 0.00000 0.00000
  11 0.00000 0.00000 0.00000
  12 0.00000 0.00000 0.00000
  13 0.00000 0.00000 0.00000
  14 0.00000 0.00000 0.00000
  15 0.00000 0.00000 0.00000
  16 0.00000 0.00000 0.00000
  17 0.00000 0.00000 0.00000
  18 0.00000 0.00000 0.00000
  19 0.00000 0.00000 0.00000
  20 0.00000 0.00000 0.00000
  21 0.00000 0.00000 0.00000
  22 0.00000 0.00000 0.00000
  23 0.00000 0.00000 0.00000
  24 0.00000 0.00000 0.00000
  25 0.00000 0.00000 0.00000
  26 0.00000 0.00000 0.00000
  27 0.00000 0.00000 0.00000
  28 0.00000 0.00000 0.00000
  29 0.00000 0.00000 0.00000
  30 0.00000 0.00000 0.00000
  31 0.00000 0.00000 0.00000
  32 0.00000 0.00000 0.00000
  33 0.00000 0.00000 0.00000
  34 0.00000 0.00000 0.00000
  35 0.00000 0.00000 0.00000
  36 0.00000 0.00000 0.00000
  37 0.00000 0.00000 0.00000
  38 0.00000 0.00000 0.00000
  39 0.00000 0.00000 0.00000
  40 0.00000 0.00000 0.00000
  41 0.00000 0.00000 0.00000
  42 0.00000 0.00000 0.00000
  43 0.00000 0.00000 0.00000
  44 0.00000 0.00000 0.00000
  45 0.00000 0.00000 0.00000
  46 0.00000 0.00000 0.00000
  47 0.00000 0.00000 0.00000
  48 0.00000 0.00000 0.00000
  49 0.00000 0.00000 0.00000
  50 0.00000 0.00000 0.00000
  51 0.00000 0.00000 0.00000
  52 0.00000 0.00000 0.00000
  53 0.00000 0.00000 0.00000
  54 0.00000 0.00000 0.00000
  55 0.00000 0.00000 0.00000
  56 0.00000 0.00000 0.00000
  57 0.00000 0.00000 0.00000
  58 0.00000 0.00000 0.00000
  59 0.00000 0.00000 0.00000
  60 0.00000 0.00000 0.00000
  61 0.00000 0.00000 0.00000
  62 0.00000 0.00000 0.00000
  63 0.00000 0.00000 0.00000
  64 0.00000 0.00000 0.00000
  65 0.00000 0.00000 0.00000
  66 0.00000 0.00000 0.00000
</Section>

newXOutput 178

<Section columns = "stress_xx | stress_yy | stress_xy">
  1 0.00000 0.00000 0.00000
  2 0.00000 0.00000 0.00000
  3 0.00000 0.00000 0.00000
  4 0.00000 0.00000 0.00000
  5 0.00000 0.00000 0.00000
  6 0.00000 0.00000 0.00000
  7 0.00000 0.00000 0.00000
  8 0.00000 0.00000 0.00000
  9 0.00000 0.00000 0.00000
  10 0.00000 0.00000 0.00000
  11 0.00000 0.00000 0.00000
  12 0.00000 0.00000 0.00000
  13 0.00000 0.00000 0.00000
  14 0.00000 0.00000 0.00000
  15 0.00000 0.00000 0.00000
  16 0.00000 0.00000 0.00000
  17 0.00000 0.00000 0.00000
  18 0.00000 0.00000 0.00000
  19 0.00000 0.00000 0.00000
  20 0.00000 0.00000 0.00000
  21 0.00000 0.00000 0.00000
  22 0.00000 0.00000 0.00000
  23 0.00000 0.00000 0.00000
  24 0.00000 0.00000 0.00000
  25 0.00000 0.00000 0.00000
  26 0.00000 0.00000 0.00000
  27 0.00000 0.00000 0.00000
  28 0.00000 0.00000 0.00000
  29 0.00000 0.00000 0.00000
  30 0.00000 0.00000 0.00000
  31 0.00000 0.00000 0.00000
  32 0.00000 0.00000 0.00000
  33 0.00000 0.00000 0.00000
  34 0.00000 0.00000 0.00000
  35 0.00000 0.00000 0.00000
  36 0.00000 0.00000 0.00000
  37 0.00000 0.00000 0.00000
  38 0.00000 0.00000 0.00000
  39 0.00000 0.00000 0.00000
  40 0.00000 0.00000 0.00000
  41 0.00000 0.00000 0.00000
  42 0.00000 0.00000 0.00000
  43 0.00000 0.00000 0.00000
  44 0.00000 0.00000 0.00000
  45 0.00000 0.00000 0.00000
  46 0.00000 0.00000 0.00000
  47 0.00000 0.00000 0.00000
  48 0.00000 0.00000 0.00000
  49 0.00000 0.00000 0.00000
  50 0.00000 0.00000 0.00000
  51 0.00000 0.00000 0.00000
  52 0.00000 0.00000 0.00000
  53 0.00000 0.00000 0.00000
  54 0.00000 0.00000 0.00000
  55 0.00000 0.00000 0.00000
  56 0.00000 0.00000 0.00000
  57 0.00000 0.00000 0.00000
  58 0.00000 0.00000 0.00000
  59 0.00000 0.00000 0.00000
  60 0.00000 0.00000 0.00000
  61 0.00000 0.00000 0.00000
  62 0.00000 0.00000 0.00000
  63 0.00000 0.00000 0.00000
  64 0.00000 0.00000 0.00000
  65 0.00000 0.00000 0.00000
  66 0.00000 0.00000 0.00000
</Section>

newXOutput 179

<Section columns = "stress_xx | stress_yy | stress_xy">
  1 0.00000 0.00000 0.00000
  2 0.00000 0.00000 0.00000
  3 0.00000 0.00000 0.00000
  4 0.00000 0.00000 0.00000
  5 0.00000 0.00000 0.00000
  6 0.00000 0.00000 0.00000
  7 0.00000 0.00000 0.00000
  8 0.00000 0.00000 0.00000
  9 0.00000 0.00000 0.00000
  10 0.00000 0.00000 0.00000
  11 0.00000 0.00000 0.00000
  12 0.00000 0.00000 0.00000
  13 0.00000 0.00000 0.00000
  14 0.00000 0.00000 0.00000
  15 0.00000 0.00000 0.00000
  16 0.00000 0.00000 0.00000
  17 0.00000 0.00000 0.00000
  18 0.00000 0.00000 0.00000
  19 0.00000 0.00000 0.00000
  20 0.00000 0.00000 0.00000
  21 0.00000 0.00000 0.00000
  22 0.00000 0.00000 0.00000
  23 0.00000 0.00000 0.00000
  24 0.00000 0.00000 0.00000
  25 0.00000 0.00000 0.00000
  26 0.00000 0.00000 0.00000
  27 0.00000 0.00000 0.00000
  28 0.00000 0.00000 0.00000
  29 0.00000 0.00000 0.00000
  30 0.00000 0.00000 0.00000
  31 0.00000 0.00000 0.00000
  32 0.00000 0.00000 0.00000
  33 0.00000 0.00000 0.00000
  34 0.00000 0.00000 0.00000
  35 0.00000 0.00000 0.00000
  36 0.00000 0.00000 0.00000
  37 0.00000 0.00000 0.00000
  38 0.00000 0.00000 0.00000
  39 0.00000 0.00000 0.00000
  40 0.00000 0.00000 0.00000
  41 0.00000 0.00000 0.00000
  42 0.00000 0.00000 0.00000
  43 0.00000 0.00000 0.00000
  44 0.00000 0.00000 0.00000
  45 0.00000 0.00000 0.00000
  46 0.00000 0.00000 0.00000
  47 0.00000 0.00000 0.00000
  48 0.00000 0.00000 0.00000
  49 0.00000 0.00000 0.00000
  50 0.00000 0.00000 0.00000
  51 0.00000 0.00000 0.00000
  52 0.00000 0.00000 0.00000
  53 0.00000 0.00000 0.00000
  54 0.00000 0.00000 0.00000
  55 0.00000 0.00000 0.00000
  56 0.00000 0.00000 0.00000
  57 0.00000 0.00000 0.00000
  58 0.00000 0.00000 0.00000
  59 0.00000 0.00000 0.00000
  60 0.00000 0.00000 0.00000
  61 0.00000 0.00000 0.00000
  62 0.00000 0.00000 0.00000
  63 0.00000 0.00000 0.00000
  64 0.00000 0.00000 0.00000
  65 0.00000 0.00000 0.00000
  66 0.00000 0.00000 0.00000
</Section>

newXOutput 180

<Section columns = "stress_xx | stress_yy | stress_xy">
  1 0.00000 0.00000 0.00000
  2 0.00000 0.00000 0.00000
  3 0.00000 0.00000 0.00000
  4 0.00000 0.00000 0.00000
  5 0.00000 0.00000 0.00000
  6 0.00000 0.00000 0.00000
  7 0.00000 0.00000 0.00000
  8 0.00000 0.00000 0.00000
  9 0.00000 0.00000 0.00000
  10 0.00000 0.00000 0.00000
  11 0.00000 0.00000 0.00000
  12 0.00000 0.00000 0.00000
  13 0.00000 0.00000 0.00000
  14 0.00000 0.00000 0.00000
  15 0.00000 0.00000 0.00000
  16 0.00000 0.00000 0.00000
  17 0.00000 0.00000 0.00000
  18 0.00000 0.00000 0.00000
  19 0.00000 0.00000 0.00000
  20 0.00000 0.00000 0.00000
  21 0.00000 0.00000 0.00000
  22 0.00000 0.00000 0.00000
  23 0.00000 0.00000 0.00000
  24 0.00000 0.00000 0.00000
  25 0.00000 0.00000 0.00000
  26 0.00000 0.00000 0.00000
  27 0.00000 0.00000 0.00000
  28 0.00000 0.00000 0.00000
  29 0.00000 0.00000 0.00000
  30 0.00000 0.00000 0.00000
  31 0.00000 0.00000 0.00000
  32 0.00000 0.00000 0.00000
  33 0.00000 0.00000 0.00000
  34 0.00000 0.00000 0.00000
  35 0.00000 0.00000 0.00000
  36 0.00000 0.00000 0.00000
  37 0.00000 0.00000 0.00000
  38 0.00000 0.00000 0.00000
  39 0.00000 0.00000 0.00000
  40 0.00000 0.00000 0.00000
  41 0.00000 0.00000 0.00000
  42 0.00000 0.00000 0.00000
  43 0.00000 0.00000 0.00000
  44 0.00000 0.00000 0.00000
  45 0.00000 0.00000 0.00000
  46 0.00000 0.00000 0.00000
  47 0.00000 0.00000 0.00000
  48 0.00000 0.00000 0.00000
  49 0.00000 0.00000 0.00000
  50 0.00000 0.00000 0.00000
  51 0.00000 0.00000 0.00000
  52 0.00000 0.00000 0.00000
  53 0.00000 0.00000 0.00000
  54 0.00000 0.00000 0.00000
  55 0.00000 0.00000 0.00000
  56 0.00000 0.00000 0.00000
  57 0.00000 0.00000 0.00000
  58 0.00000 0.00000 0.00000
  59 0.00000 0.00000 0.00000
  60 0.00000 0.00000 0.00000
  61 0.00000 0.00000 0.00000
  62 0.00000 0.00000 0.00000
  63 0.00000 0.00000 0.00000
  64 0.00000 0.00000 0.00000
  65 0.00000 0.00000 0.00000
  66 0.00000 0.00000 0.00000
</Section>

newXOutput 181

<Section columns = "stress_xx | stress_yy | stress_xy">
  1 0.00000 0.00000 0.00000
  2 0.00000 0.00000 0.00000
  3 0.00000 0.00000 0.00000
  4 0.00000 0.00000 0.00000
  5 0.00000 0.00000 0.00000
  6 0.00000 0.00000 0.00000
  7 0.00000 0.00000 0.00000
  8 0.00000 0.00000 0.00000
  9 0.00000 0.00000 0.00000
  10 0.00000 0.00000 0.00000
  11 0.00000 0.00000 0.00000
  12 0.00000 0.00000 0.00000
  13 0.00000 0.00000 0.00000
  14 0.00000 0.00000 0.00000
  15 0.00000 0.00000 0.00000
  16 0.00000 0.00000 0.00000
  17 0.00000 0.00000 0.00000
  18 0.00000 0.00000 0.00000
  19 0.00000 0.00000 0.00000
  20 0.00000 0.00000 0.00000
  21 0.00000 0.00000 0.00000
  22 0.00000 0.00000 0.00000
  23 0.00000 0.00000 0.00000
  24 0.00000 0.00000 0.00000
  25 0.00000 0.00000 0.00000
  26 0.00000 0.00000 0.00000
  27 0.00000 0.00000 0.00000
  28 0.00000 0.00000 0.00000
  29 0.00000 0.00000 0.00000
  30 0.00000 0.00000 0.00000
  31 0.00000 0.00000 0.00000
  32 0.00000 0.00000 0.00000
  33 0.00000 0.00000 0.00000
  34 0.00000 0.00000 0.00000
  35 0.00000 0.00000 0.00000
  36 0.00000 0.00000 0.00000
  37 0.00000 0.00000 0.00000
  38 0.00000 0.00000 0.00000
  39 0.00000 0.00000 0.00000
  40 0.00000 0.00000 0.00000
  41 0.00000 0.00000 0.00000
  42 0.00000 0.00000 0.00000
  43 0.00000 0.00000 0.00000
  44 0.00000 0.00000 0.00000
  45 0.00000 0.00000 0.00000
  46 0.00000 0.00000 0.00000
  47 0.00000 0.00000 0.00000
  48 0.00000 0.00000 0.00000
  49 0.00000 0.00000 0.00000
  50 0.00000 0.00000 0.00000
  51 0.00000 0.00000 0.00000
  52 0.00000 0.00000 0.00000
  53 0.00000 0.00000 0.00000
  54 0.00000 0.00000 0.00000
  55 0.00000 0.00000 0.00000
  56 0.00000 0.00000 0.00000
  57 0.00000 0.00000 0.00000
  58 0.00000 0.00000 0.00000
  59 0.00000 0.00000 0.00000
  60 0.00000 0.00000 0.00000
  61 0.00000 0.00000 0.00000
  62 0.00000 0.00000 0.00000
  63 0.00000 0.00000 0.00000
  64 0.00000 0.00000 0.00000
  65 0.00000 0.00000 0.00000
  66 0.00000 0.00000 0.00000
</Section>

newXOutput 182

<Section columns = "stress_xx | stress_yy | stress_xy">
  1 0.00000 0.00000 0.00000
  2 0.00000 0.00000 0.00000
  3 0.00000 0.00000 0.00000
  4 0.00000 0.00000 0.00000
  5 0.00000 0.00000 0.00000
  6 0.00000 0.00000 0.00000
  7 0.00000 0.00000 0.00000
  8 0.00000 0.00000 0.00000
  9 0.00000 0.00000 0.00000
  10 0.00000 0.00000 0.00000
  11 0.00000 0.00000 0.00000
  12 0.00000 0.00000 0.00000
  13 0.00000 0.00000 0.00000
  14 0.00000 0.00000 0.00000
  15 0.00000 0.00000 0.00000
  16 0.00000 0.00000 0.00000
  17 0.00000 0.00000 0.00000
  18 0.00000 0.00000 0.00000
  19 0.00000 0.00000 0.00000
  20 0.00000 0.00000 0.00000
  21 0.00000 0.00000 0.00000
  22 0.00000 0.00000 0.00000
  23 0.00000 0.00000 0.00000
  24 0.00000 0.00000 0.00000
  25 0.00000 0.00000 0.00000
  26 0.00000 0.00000 0.00000
  27 0.00000 0.00000 0.00000
  28 0.00000 0.00000 0.00000
  29 0.00000 0.00000 0.00000
  30 0.00000 0.00000 0.00000
  31 0.00000 0.00000 0.00000
  32 0.00000 0.00000 0.00000
  33 0.00000 0.00000 0.00000
  34 0.00000 0.00000 0.00000
  35 0.00000 0.00000 0.00000
  36 0.00000 0.00000 0.00000
  37 0.00000 0.00000 0.00000
  38 0.00000 0.00000 0.00000
  39 0.00000 0.00000 0.00000
  40 0.00000 0.00000 0.00000
  41 0.00000 0.00000 0.00000
  42 0.00000 0.00000 0.00000
  43 0.00000 0.00000 0.00000
  44 0.00000 0.00000 0.00000
  45 0.00000 0.00000 0.00000
  46 0.00000 0.00000 0.00000
  47 0.00000 0.00000 0.00000
  48 0.00000 0.00000 0.00000
  49 0.00000 0.00000 0.00000
  50 0.00000 0.00000 0.00000
  51 0.00000 0.00000 0.00000
  52 0.00000 0.00000 0.00000
  53 0.00000 0.00000 0.00000
  54 0.00000 0.00000 0.00000
  55 0.00000 0.00000 0.00000
  56 0.00000 0.00000 0.00000
  57 0.00000 0.00000 0.00000
  58 0.00000 0.00000 0.00000
  59 0.00000 0.00000 0.00000
  60 0.00000 0.00000 0.00000
  61 0.00000 0.00000 0.00000
  62 0.00000 0.00000 0.00000
  63 0.00000 0.00000 0.00000
  64 0.00000 0.00000 0.00000
  65 0.00000 0.00000 0.00000
  66 0.00000 0.00000 0.00000
</Section>

newXOutput 183

<Section columns = "stress_xx | stress_yy | stress_xy">
  1 0.00000 0.00000 0.00000
  2 0.00000 0.00000 0.00000
  3 0.00000 0.00000 0.00000
  4 0.00000 0.00000 0.00000
  5 0.00000 0.00000 0.00000
  6 0.00000 0.00000 0.00000
  7 0.00000 0.00000 0.00000
  8 0.00000 0.00000 0.00000
  9 0.00000 0.00000 0.00000
  10 0.00000 0.00000 0.00000
  11 0.00000 0.00000 0.00000
  12 0.00000 0.00000 0.00000
  13 0.00000 0.00000 0.00000
  14 0.00000 0.00000 0.00000
  15 0.00000 0.00000 0.00000
  16 0.00000 0.00000 0.00000
  17 0.00000 0.00000 0.00000
  18 0.00000 0.00000 0.00000
  19 0.00000 0.00000 0.00000
  20 0.00000 0.00000 0.00000
  21 0.00000 0.00000 0.00000
  22 0.00000 0.00000 0.00000
  23 0.00000 0.00000 0.00000
  24 0.00000 0.00000 0.00000
  25 0.00000 0.00000 0.00000
  26 0.00000 0.00000 0.00000
  27 0.00000 0.00000 0.00000
  28 0.00000 0.00000 0.00000
  29 0.00000 0.00000 0.00000
  30 0.00000 0.00000 0.00000
  31 0.00000 0.00000 0.00000
  32 0.00000 0.00000 0.00000
  33 0.00000 0.00000 0.00000
  34 0.00000 0.00000 0.00000
  35 0.00000 0.00000 0.00000
  36 0.00000 0.00000 0.00000
  37 0.00000 0.00000 0.00000
  38 0.00000 0.00000 0.00000
  39 0.00000 0.00000 0.00000
  40 0.00000 0.00000 0.00000
  41 0.00000 0.00000 0.00000
  42 0.00000 0.00000 0.00000
  43 0.00000 0.00000 0.00000
  44 0.00000 0.00000 0.00000
  45 0.00000 0.00000 0.00000
  46 0.00000 0.00000 0.00000
  47 0.00000 0.00000 0.00000
  48 0.00000 0.00000 0.00000
  49 0.00000 0.00000 0.00000
  50 0.00000 0.00000 0.00000
  51 0.00000 0.00000 0.00000
  52 0.00000 0.00000 0.00000
  53 0.00000 0.00000 0.00000
  54 0.00000 0.00000 0.00000
  55 0.00000 0.00000 0.00000
  56 0.00000 0.00000 0.00000
  57 0.00000 0.00000 0.00000
  58 0.00000 0.00000 0.00000
  59 0.00000 0.00000 0.00000
  60 0.00000 0.00000 0.00000
  61 0.00000 0.00000 0.00000
  62 0.00000 0.00000 0.00000
  63 0.00000 0.00000 0.00000
  64 0.00000 0.00000 0.00000
  65 0.00000 0.00000 0.00000
  66 0.00000 0.00000 0.00000
</Section>

newXOutput 184

<Section columns = "stress_xx | stress_yy | stress_xy">
  1 0.00000 0.00000 0.00000
  2 0.00000 0.00000 0.00000
  3 0.00000 0.00000 0.00000
  4 0.00000 0.00000 0.00000
  5 0.00000 0.00000 0.00000
  6 0.00000 0.00000 0.00000
  7 0.00000 0.00000 0.00000
  8 0.00000 0.00000 0.00000
  9 0.00000 0.00000 0.00000
  10 0.00000 0.00000 0.00000
  11 0.00000 0.00000 0.00000
  12 0.00000 0.00000 0.00000
  13 0.00000 0.00000 0.00000
  14 0.00000 0.00000 0.00000
  15 0.00000 0.00000 0.00000
  16 0.00000 0.00000 0.00000
  17 0.00000 0.00000 0.00000
  18 0.00000 0.00000 0.00000
  19 0.00000 0.00000 0.00000
  20 0.00000 0.00000 0.00000
  21 0.00000 0.00000 0.00000
  22 0.00000 0.00000 0.00000
  23 0.00000 0.00000 0.00000
  24 0.00000 0.00000 0.00000
  25 0.00000 0.00000 0.00000
  26 0.00000 0.00000 0.00000
  27 0.00000 0.00000 0.00000
  28 0.00000 0.00000 0.00000
  29 0.00000 0.00000 0.00000
  30 0.00000 0.00000 0.00000
  31 0.00000 0.00000 0.00000
  32 0.00000 0.00000 0.00000
  33 0.00000 0.00000 0.00000
  34 0.00000 0.00000 0.00000
  35 0.00000 0.00000 0.00000
  36 0.00000 0.00000 0.00000
  37 0.00000 0.00000 0.00000
  38 0.00000 0.00000 0.00000
  39 0.00000 0.00000 0.00000
  40 0.00000 0.00000 0.00000
  41 0.00000 0.00000 0.00000
  42 0.00000 0.00000 0.00000
  43 0.00000 0.00000 0.00000
  44 0.00000 0.00000 0.00000
  45 0.00000 0.00000 0.00000
  46 0.00000 0.00000 0.00000
  47 0.00000 0.00000 0.00000
  48 0.00000 0.00000 0.00000
  49 0.00000 0.00000 0.00000
  50 0.00000 0.00000 0.00000
  51 0.00000 0.00000 0.00000
  52 0.00000 0.00000 0.00000
  53 0.00000 0.00000 0.00000
  54 0.00000 0.00000 0.00000
  55 0.00000 0.00000 0.00000
  56 0.00000 0.00000 0.00000
  57 0.00000 0.00000 0.00000
  58 0.00000 0.00000 0.00000
  59 0.00000 0.00000 0.00000
  60 0.00000 0.00000 0.00000
  61 0.00000 0.00000 0.00000
  62 0.00000 0.00000 0.00000
  63 0.00000 0.00000 0.00000
  64 0.00000 0.00000 0.00000
  65 0.00000 0.00000 0.00000
  66 0.00000 0.00000 0.00000
</Section>

newXOutput 185

<Section columns = "stress_xx | stress_yy | stress_xy">
  1 0.00000 0.00000 0.00000
  2 0.00000 0.00000 0.00000
  3 0.00000 0.00000 0.00000
  4 0.00000 0.00000 0.00000
  5 0.00000 0.00000 0.00000
  6 0.00000 0.00000 0.00000
  7 0.00000 0.00000 0.00000
  8 0.00000 0.00000 0.00000
  9 0.00000 0.00000 0.00000
  10 0.00000 0.00000 0.00000
  11 0.00000 0.00000 0.00000
  12 0.00000 0.00000 0.00000
  13 0.00000 0.00000 0.00000
  14 0.00000 0.00000 0.00000
  15 0.00000 0.00000 0.00000
  16 0.00000 0.00000 0.00000
  17 0.00000 0.00000 0.00000
  18 0.00000 0.00000 0.00000
  19 0.00000 0.00000 0.00000
  20 0.00000 0.00000 0.00000
  21 0.00000 0.00000 0.00000
  22 0.00000 0.00000 0.00000
  23 0.00000 0.00000 0.00000
  24 0.00000 0.00000 0.00000
  25 0.00000 0.00000 0.00000
  26 0.00000 0.00000 0.00000
  27 0.00000 0.00000 0.00000
  28 0.00000 0.00000 0.00000
  29 0.00000 0.00000 0.00000
  30 0.00000 0.00000 0.00000
  31 0.00000 0.00000 0.00000
  32 0.00000 0.00000 0.00000
  33 0.00000 0.00000 0.00000
  34 0.00000 0.00000 0.00000
  35 0.00000 0.00000 0.00000
  36 0.00000 0.00000 0.00000
  37 0.00000 0.00000 0.00000
  38 0.00000 0.00000 0.00000
  39 0.00000 0.00000 0.00000
  40 0.00000 0.00000 0.00000
  41 0.00000 0.00000 0.00000
  42 0.00000 0.00000 0.00000
  43 0.00000 0.00000 0.00000
  44 0.00000 0.00000 0.00000
  45 0.00000 0.00000 0.00000
  46 0.00000 0.00000 0.00000
  47 0.00000 0.00000 0.00000
  48 0.00000 0.00000 0.00000
  49 0.00000 0.00000 0.00000
  50 0.00000 0.00000 0.00000
  51 0.00000 0.00000 0.00000
  52 0.00000 0.00000 0.00000
  53 0.00000 0.00000 0.00000
  54 0.00000 0.00000 0.00000
  55 0.00000 0.00000 0.00000
  56 0.00000 0.00000 0.00000
  57 0.00000 0.00000 0.00000
  58 0.00000 0.00000 0.00000
  59 0.00000 0.00000 0.00000
  60 0.00000 0.00000 0.00000
  61 0.00000 0.00000 0.00000
  62 0.00000 0.00000 0.00000
  63 0.00000 0.00000 0.00000
  64 0.00000 0.00000 0.00000
  65 0.00000 0.00000 0.00000
  66 0.00000 0.00000 0.00000
</Section>

newXOutput 186

<Section columns = "stress_xx | stress_yy | stress_xy">
  1 0.00000 0.00000 0.00000
  2 0.00000 0.00000 0.00000
  3 0.00000 0.00000 0.00000
  4 0.00000 0.00000 0.00000
  5 0.00000 0.00000 0.00000
  6 0.00000 0.00000 0.00000
  7 0.00000 0.00000 0.00000
  8 0.00000 0.00000 0.00000
  9 0.00000 0.00000 0.00000
  10 0.00000 0.00000 0.00000
  11 0.00000 0.00000 0.00000
  12 0.00000 0.00000 0.00000
  13 0.00000 0.00000 0.00000
  14 0.00000 0.00000 0.00000
  15 0.00000 0.00000 0.00000
  16 0.00000 0.00000 0.00000
  17 0.00000 0.00000 0.00000
  18 0.00000 0.00000 0.00000
  19 0.00000 0.00000 0.00000
  20 0.00000 0.00000 0.00000
  21 0.00000 0.00000 0.00000
  22 0.00000 0.00000 0.00000
  23 0.00000 0.00000 0.00000
  24 0.00000 0.00000 0.00000
  25 0.00000 0.00000 0.00000
  26 0.00000 0.00000 0.00000
  27 0.00000 0.00000 0.00000
  28 0.00000 0.00000 0.00000
  29 0.00000 0.00000 0.00000
  30 0.00000 0.00000 0.00000
  31 0.00000 0.00000 0.00000
  32 0.00000 0.00000 0.00000
  33 0.00000 0.00000 0.00000
  34 0.00000 0.00000 0.00000
  35 0.00000 0.00000 0.00000
  36 0.00000 0.00000 0.00000
  37 0.00000 0.00000 0.00000
  38 0.00000 0.00000 0.00000
  39 0.00000 0.00000 0.00000
  40 0.00000 0.00000 0.00000
  41 0.00000 0.00000 0.00000
  42 0.00000 0.00000 0.00000
  43 0.00000 0.00000 0.00000
  44 0.00000 0.00000 0.00000
  45 0.00000 0.00000 0.00000
  46 0.00000 0.00000 0.00000
  47 0.00000 0.00000 0.00000
  48 0.00000 0.00000 0.00000
  49 0.00000 0.00000 0.00000
  50 0.00000 0.00000 0.00000
  51 0.00000 0.00000 0.00000
  52 0.00000 0.00000 0.00000
  53 0.00000 0.00000 0.00000
  54 0.00000 0.00000 0.00000
  55 0.00000 0.00000 0.00000
  56 0.00000 0.00000 0.00000
  57 0.00000 0.00000 0.00000
  58 0.00000 0.00000 0.00000
  59 0.00000 0.00000 0.00000
  60 0.00000 0.00000 0.00000
  61 0.00000 0.00000 0.00000
  62 0.00000 0.00000 0.00000
  63 0.00000 0.00000 0.00000
  64 0.00000 0.00000 0.00000
  65 0.00000 0.00000 0.00000
  66 0.00000 0.00000 0.00000
</Section>

newXOutput 187

<Section columns = "stress_xx | stress_yy | stress_xy">
  1 0.00000 0.00000 0.00000
  2 0.00000 0.00000 0.00000
  3 0.00000 0.00000 0.00000
  4 0.00000 0.00000 0.00000
  5 0.00000 0.00000 0.00000
  6 0.00000 0.00000 0.00000
  7 0.00000 0.00000 0.00000
  8 0.00000 0.00000 0.00000
  9 0.00000 0.00000 0.00000
  10 0.00000 0.00000 0.00000
  11 0.00000 0.00000 0.00000
  12 0.00000 0.00000 0.00000
  13 0.00000 0.00000 0.00000
  14 0.00000 0.00000 0.00000
  15 0.00000 0.00000 0.00000
  16 0.00000 0.00000 0.00000
  17 0.00000 0.00000 0.00000
  18 0.00000 0.00000 0.00000
  19 0.00000 0.00000 0.00000
  20 0.00000 0.00000 0.00000
  21 0.00000 0.00000 0.00000
  22 0.00000 0.00000 0.00000
  23 0.00000 0.00000 0.00000
  24 0.00000 0.00000 0.00000
  25 0.00000 0.00000 0.00000
  26 0.00000 0.00000 0.00000
  27 0.00000 0.00000 0.00000
  28 0.00000 0.00000 0.00000
  29 0.00000 0.00000 0.00000
  30 0.00000 0.00000 0.00000
  31 0.00000 0.00000 0.00000
  32 0.00000 0.00000 0.00000
  33 0.00000 0.00000 0.00000
  34 0.00000 0.00000 0.00000
  35 0.00000 0.00000 0.00000
  36 0.00000 0.00000 0.00000
  37 0.00000 0.00000 0.00000
  38 0.00000 0.00000 0.00000
  39 0.00000 0.00000 0.00000
  40 0.00000 0.00000 0.00000
  41 0.00000 0.00000 0.00000
  42 0.00000 0.00000 0.00000
  43 0.00000 0.00000 0.00000
  44 0.00000 0.00000 0.00000
  45 0.00000 0.00000 0.00000
  46 0.00000 0.00000 0.00000
  47 0.00000 0.00000 0.00000
  48 0.00000 0.00000 0.00000
  49 0.00000 0.00000 0.00000
  50 0.00000 0.00000 0.00000
  51 0.00000 0.00000 0.00000
  52 0.00000 0.00000 0.00000
  53 0.00000 0.00000 0.00000
  54 0.00000 0.00000 0.00000
  55 0.00000 0.00000 0.00000
  56 0.00000 0.00000 0.00000
  57 0.00000 0.00000 0.00000
  58 0.00000 0.00000 0.00000
  59 0.00000 0.00000 0.00000
  60 0.00000 0.00000 0.00000
  61 0.00000 0.00000 0.00000
  62 0.00000 0.00000 0.00000
  63 0.00000 0.00000 0.00000
  64 0.00000 0.00000 0.00000
  65 0.00000 0.00000 0.00000
  66 0.00000 0.00000 0.00000
</Section>

newXOutput 188

<Section columns = "stress_xx | stress_yy | stress_xy">
  1 0.00000 0.00000 0.00000
  2 0.00000 0.00000 0.00000
  3 0.00000 0.00000 0.00000
  4 0.00000 0.00000 0.00000
  5 0.00000 0.00000 0.00000
  6 0.00000 0.00000 0.00000
  7 0.00000 0.00000 0.00000
  8 0.00000 0.00000 0.00000
  9 0.00000 0.00000 0.00000
  10 0.00000 0.00000 0.00000
  11 0.00000 0.00000 0.00000
  12 0.00000 0.00000 0.00000
  13 0.00000 0.00000 0.00000
  14 0.00000 0.00000 0.00000
  15 0.00000 0.00000 0.00000
  16 0.00000 0.00000 0.00000
  17 0.00000 0.00000 0.00000
  18 0.00000 0.00000 0.00000
  19 0.00000 0.00000 0.00000
  20 0.00000 0.00000 0.00000
  21 0.00000 0.00000 0.00000
  22 0.00000 0.00000 0.00000
  23 0.00000 0.00000 0.00000
  24 0.00000 0.00000 0.00000
  25 0.00000 0.00000 0.00000
  26 0.00000 0.00000 0.00000
  27 0.00000 0.00000 0.00000
  28 0.00000 0.00000 0.00000
  29 0.00000 0.00000 0.00000
  30 0.00000 0.00000 0.00000
  31 0.00000 0.00000 0.00000
  32 0.00000 0.00000 0.00000
  33 0.00000 0.00000 0.00000
  34 0.00000 0.00000 0.00000
  35 0.00000 0.00000 0.00000
  36 0.00000 0.00000 0.00000
  37 0.00000 0.00000 0.00000
  38 0.00000 0.00000 0.00000
  39 0.00000 0.00000 0.00000
  40 0.00000 0.00000 0.00000
  41 0.00000 0.00000 0.00000
  42 0.00000 0.00000 0.00000
  43 0.00000 0.00000 0.00000
  44 0.00000 0.00000 0.00000
  45 0.00000 0.00000 0.00000
  46 0.00000 0.00000 0.00000
  47 0.00000 0.00000 0.00000
  48 0.00000 0.00000 0.00000
  49 0.00000 0.00000 0.00000
  50 0.00000 0.00000 0.00000
  51 0.00000 0.00000 0.00000
  52 0.00000 0.00000 0.00000
  53 0.00000 0.00000 0.00000
  54 0.00000 0.00000 0.00000
  55 0.00000 0.00000 0.00000
  56 0.00000 0.00000 0.00000
  57 0.00000 0.00000 0.00000
  58 0.00000 0.00000 0.00000
  59 0.00000 0.00000 0.00000
  60 0.00000 0.00000 0.00000
  61 0.00000 0.00000 0.00000
  62 0.00000 0.00000 0.00000
  63 0.00000 0.00000 0.00000
  64 0.00000 0.00000 0.00000
  65 0.00000 0.00000 0.00000
  66 0.00000 0.00000 0.00000
</Section>

newXOutput 189

<Section columns = "stress_xx | stress_yy | stress_xy">
  1 0.00000 0.00000 0.00000
  2 0.00000 0.00000 0.00000
  3 0.00000 0.00000 0.00000
  4 0.00000 0.00000 0.00000
  5 0.00000 0.00000 0.00000
  6 0.00000 0.00000 0.00000
  7 0.00000 0.00000 0.00000
  8 0.00000 0.00000 0.00000
  9 0.00000 0.00000 0.00000
  10 0.00000 0.00000 0.00000
  11 0.00000 0.00000 0.00000
  12 0.00000 0.00000 0.00000
  13 0.00000 0.00000 0.00000
  14 0.00000 0.00000 0.00000
  15 0.00000 0.00000 0.00000
  16 0.00000 0.00000 0.00000
  17 0.00000 0.00000 0.00000
  18 0.00000 0.00000 0.00000
  19 0.00000 0.00000 0.00000
  20 0.00000 0.00000 0.00000
  21 0.00000 0.00000 0.00000
  22 0.00000 0.00000 0.00000
  23 0.00000 0.00000 0.00000
  24 0.00000 0.00000 0.00000
  25 0.00000 0.00000 0.00000
  26 0.00000 0.00000 0.00000
  27 0.00000 0.00000 0.00000
  28 0.00000 0.00000 0.00000
  29 0.00000 0.00000 0.00000
  30 0.00000 0.00000 0.00000
  31 0.00000 0.00000 0.00000
  32 0.00000 0.00000 0.00000
  33 0.00000 0.00000 0.00000
  34 0.00000 0.00000 0.00000
  35 0.00000 0.00000 0.00000
  36 0.00000 0.00000 0.00000
  37 0.00000 0.00000 0.00000
  38 0.00000 0.00000 0.00000
  39 0.00000 0.00000 0.00000
  40 0.00000 0.00000 0.00000
  41 0.00000 0.00000 0.00000
  42 0.00000 0.00000 0.00000
  43 0.00000 0.00000 0.00000
  44 0.00000 0.00000 0.00000
  45 0.00000 0.00000 0.00000
  46 0.00000 0.00000 0.00000
  47 0.00000 0.00000 0.00000
  48 0.00000 0.00000 0.00000
  49 0.00000 0.00000 0.00000
  50 0.00000 0.00000 0.00000
  51 0.00000 0.00000 0.00000
  52 0.00000 0.00000 0.00000
  53 0.00000 0.00000 0.00000
  54 0.00000 0.00000 0.00000
  55 0.00000 0.00000 0.00000
  56 0.00000 0.00000 0.00000
  57 0.00000 0.00000 0.00000
  58 0.00000 0.00000 0.00000
  59 0.00000 0.00000 0.00000
  60 0.00000 0.00000 0.00000
  61 0.00000 0.00000 0.00000
  62 0.00000 0.00000 0.00000
  63 0.00000 0.00000 0.00000
  64 0.00000 0.00000 0.00000
  65 0.00000 0.00000 0.00000
  66 0.00000 0.00000 0.00000
</Section>

newXOutput 190

<Section columns = "stress_xx | stress_yy | stress_xy">
  1 0.00000 0.00000 0.00000
  2 0.00000 0.00000 0.00000
  3 0.00000 0.00000 0.00000
  4 0.00000 0.00000 0.00000
  5 0.00000 0.00000 0.00000
  6 0.00000 0.00000 0.00000
  7 0.00000 0.00000 0.00000
  8 0.00000 0.00000 0.00000
  9 0.00000 0.00000 0.00000
  10 0.00000 0.00000 0.00000
  11 0.00000 0.00000 0.00000
  12 0.00000 0.00000 0.00000
  13 0.00000 0.00000 0.00000
  14 0.00000 0.00000 0.00000
  15 0.00000 0.00000 0.00000
  16 0.00000 0.00000 0.00000
  17 0.00000 0.00000 0.00000
  18 0.00000 0.00000 0.00000
  19 0.00000 0.00000 0.00000
  20 0.00000 0.00000 0.00000
  21 0.00000 0.00000 0.00000
  22 0.00000 0.00000 0.00000
  23 0.00000 0.00000 0.00000
  24 0.00000 0.00000 0.00000
  25 0.00000 0.00000 0.00000
  26 0.00000 0.00000 0.00000
  27 0.00000 0.00000 0.00000
  28 0.00000 0.00000 0.00000
  29 0.00000 0.00000 0.00000
  30 0.00000 0.00000 0.00000
  31 0.00000 0.00000 0.00000
  32 0.00000 0.00000 0.00000
  33 0.00000 0.00000 0.00000
  34 0.00000 0.00000 0.00000
  35 0.00000 0.00000 0.00000
  36 0.00000 0.00000 0.00000
  37 0.00000 0.00000 0.00000
  38 0.00000 0.00000 0.00000
  39 0.00000 0.00000 0.00000
  40 0.00000 0.00000 0.00000
  41 0.00000 0.00000 0.00000
  42 0.00000 0.00000 0.00000
  43 0.00000 0.00000 0.00000
  44 0.00000 0.00000 0.00000
  45 0.00000 0.00000 0.00000
  46 0.00000 0.00000 0.00000
  47 0.00000 0.00000 0.00000
  48 0.00000 0.00000 0.00000
  49 0.00000 0.00000 0.00000
  50 0.00000 0.00000 0.00000
  51 0.00000 0.00000 0.00000
  52 0.00000 0.00000 0.00000
  53 0.00000 0.00000 0.00000
  54 0.00000 0.00000 0.00000
  55 0.00000 0.00000 0.00000
  56 0.00000 0.00000 0.00000
  57 0.00000 0.00000 0.00000
  58 0.00000 0.00000 0.00000
  59 0.00000 0.00000 0.00000
  60 0.00000 0.00000 0.00000
  61 0.00000 0.00000 0.00000
  62 0.00000 0.00000 0.00000
  63 0.00000 0.00000 0.00000
  64 0.00000 0.00000 0.00000
  65 0.00000 0.00000 0.00000
  66 0.00000 0.00000 0.00000
</Section>

newXOutput 191

<Section columns = "stress_xx | stress_yy | stress_xy">
  1 0.00000 0.00000 0.00000
  2 0.00000 0.00000 0.00000
  3 0.00000 0.00000 0.00000
  4 0.00000 0.00000 0.00000
  5 0.00000 0.00000 0.00000
  6 0.00000 0.00000 0.00000
  7 0.00000 0.00000 0.00000
  8 0.00000 0.00000 0.00000
  9 0.00000 0.00000 0.00000
  10 0.00000 0.00000 0.00000
  11 0.00000 0.00000 0.00000
  12 0.00000 0.00000 0.00000
  13 0.00000 0.00000 0.00000
  14 0.00000 0.00000 0.00000
  15 0.00000 0.00000 0.00000
  16 0.00000 0.00000 0.00000
  17 0.00000 0.00000 0.00000
  18 0.00000 0.00000 0.00000
  19 0.00000 0.00000 0.00000
  20 0.00000 0.00000 0.00000
  21 0.00000 0.00000 0.00000
  22 0.00000 0.00000 0.00000
  23 0.00000 0.00000 0.00000
  24 0.00000 0.00000 0.00000
  25 0.00000 0.00000 0.00000
  26 0.00000 0.00000 0.00000
  27 0.00000 0.00000 0.00000
  28 0.00000 0.00000 0.00000
  29 0.00000 0.00000 0.00000
  30 0.00000 0.00000 0.00000
  31 0.00000 0.00000 0.00000
  32 0.00000 0.00000 0.00000
  33 0.00000 0.00000 0.00000
  34 0.00000 0.00000 0.00000
  35 0.00000 0.00000 0.00000
  36 0.00000 0.00000 0.00000
  37 0.00000 0.00000 0.00000
  38 0.00000 0.00000 0.00000
  39 0.00000 0.00000 0.00000
  40 0.00000 0.00000 0.00000
  41 0.00000 0.00000 0.00000
  42 0.00000 0.00000 0.00000
  43 0.00000 0.00000 0.00000
  44 0.00000 0.00000 0.00000
  45 0.00000 0.00000 0.00000
  46 0.00000 0.00000 0.00000
  47 0.00000 0.00000 0.00000
  48 0.00000 0.00000 0.00000
  49 0.00000 0.00000 0.00000
  50 0.00000 0.00000 0.00000
  51 0.00000 0.00000 0.00000
  52 0.00000 0.00000 0.00000
  53 0.00000 0.00000 0.00000
  54 0.00000 0.00000 0.00000
  55 0.00000 0.00000 0.00000
  56 0.00000 0.00000 0.00000
  57 0.00000 0.00000 0.00000
  58 0.00000 0.00000 0.00000
  59 0.00000 0.00000 0.00000
  60 0.00000 0.00000 0.00000
  61 0.00000 0.00000 0.00000
  62 0.00000 0.00000 0.00000
  63 0.00000 0.00000 0.00000
  64 0.00000 0.00000 0.00000
  65 0.00000 0.00000 0.00000
  66 0.00000 0.00000 0.00000
</Section>

newXOutput 192

<Section columns = "stress_xx | stress_yy | stress_xy">
  1 0.00000 0.00000 0.00000
  2 0.00000 0.00000 0.00000
  3 0.00000 0.00000 0.00000
  4 0.00000 0.00000 0.00000
  5 0.00000 0.00000 0.00000
  6 0.00000 0.00000 0.00000
  7 0.00000 0.00000 0.00000
  8 0.00000 0.00000 0.00000
  9 0.00000 0.00000 0.00000
  10 0.00000 0.00000 0.00000
  11 0.00000 0.00000 0.00000
  12 0.00000 0.00000 0.00000
  13 0.00000 0.00000 0.00000
  14 0.00000 0.00000 0.00000
  15 0.00000 0.00000 0.00000
  16 0.00000 0.00000 0.00000
  17 0.00000 0.00000 0.00000
  18 0.00000 0.00000 0.00000
  19 0.00000 0.00000 0.00000
  20 0.00000 0.00000 0.00000
  21 0.00000 0.00000 0.00000
  22 0.00000 0.00000 0.00000
  23 0.00000 0.00000 0.00000
  24 0.00000 0.00000 0.00000
  25 0.00000 0.00000 0.00000
  26 0.00000 0.00000 0.00000
  27 0.00000 0.00000 0.00000
  28 0.00000 0.00000 0.00000
  29 0.00000 0.00000 0.00000
  30 0.00000 0.00000 0.00000
  31 0.00000 0.00000 0.00000
  32 0.00000 0.00000 0.00000
  33 0.00000 0.00000 0.00000
  34 0.00000 0.00000 0.00000
  35 0.00000 0.00000 0.00000
  36 0.00000 0.00000 0.00000
  37 0.00000 0.00000 0.00000
  38 0.00000 0.00000 0.00000
  39 0.00000 0.00000 0.00000
  40 0.00000 0.00000 0.00000
  41 0.00000 0.00000 0.00000
  42 0.00000 0.00000 0.00000
  43 0.00000 0.00000 0.00000
  44 0.00000 0.00000 0.00000
  45 0.00000 0.00000 0.00000
  46 0.00000 0.00000 0.00000
  47 0.00000 0.00000 0.00000
  48 0.00000 0.00000 0.00000
  49 0.00000 0.00000 0.00000
  50 0.00000 0.00000 0.00000
  51 0.00000 0.00000 0.00000
  52 0.00000 0.00000 0.00000
  53 0.00000 0.00000 0.00000
  54 0.00000 0.00000 0.00000
  55 0.00000 0.00000 0.00000
  56 0.00000 0.00000 0.00000
  57 0.00000 0.00000 0.00000
  58 0.00000 0.00000 0.00000
  59 0.00000 0.00000 0.00000
  60 0.00000 0.00000 0.00000
  61 0.00000 0.00000 0.00000
  62 0.00000 0.00000 0.00000
  63 0.00000 0.00000 0.00000
  64 0.00000 0.00000 0.00000
  65 0.00000 0.00000 0.00000
  66 0.00000 0.00000 0.00000
</Section>

newXOutput 193

<Section columns = "stress_xx | stress_yy | stress_xy">
  1 0.00000 0.00000 0.00000
  2 0.00000 0.00000 0.00000
  3 0.00000 0.00000 0.00000
  4 0.00000 0.00000 0.00000
  5 0.00000 0.00000 0.00000
  6 0.00000 0.00000 0.00000
  7 0.00000 0.00000 0.00000
  8 0.00000 0.00000 0.00000
  9 0.00000 0.00000 0.00000
  10 0.00000 0.00000 0.00000
  11 0.00000 0.00000 0.00000
  12 0.00000 0.00000 0.00000
  13 0.00000 0.00000 0.00000
  14 0.00000 0.00000 0.00000
  15 0.00000 0.00000 0.00000
  16 0.00000 0.00000 0.00000
  17 0.00000 0.00000 0.00000
  18 0.00000 0.00000 0.00000
  19 0.00000 0.00000 0.00000
  20 0.00000 0.00000 0.00000
  21 0.00000 0.00000 0.00000
  22 0.00000 0.00000 0.00000
  23 0.00000 0.00000 0.00000
  24 0.00000 0.00000 0.00000
  25 0.00000 0.00000 0.00000
  26 0.00000 0.00000 0.00000
  27 0.00000 0.00000 0.00000
  28 0.00000 0.00000 0.00000
  29 0.00000 0.00000 0.00000
  30 0.00000 0.00000 0.00000
  31 0.00000 0.00000 0.00000
  32 0.00000 0.00000 0.00000
  33 0.00000 0.00000 0.00000
  34 0.00000 0.00000 0.00000
  35 0.00000 0.00000 0.00000
  36 0.00000 0.00000 0.00000
  37 0.00000 0.00000 0.00000
  38 0.00000 0.00000 0.00000
  39 0.00000 0.00000 0.00000
  40 0.00000 0.00000 0.00000
  41 0.00000 0.00000 0.00000
  42 0.00000 0.00000 0.00000
  43 0.00000 0.00000 0.00000
  44 0.00000 0.00000 0.00000
  45 0.00000 0.00000 0.00000
  46 0.00000 0.00000 0.00000
  47 0.00000 0.00000 0.00000
  48 0.00000 0.00000 0.00000
  49 0.00000 0.00000 0.00000
  50 0.00000 0.00000 0.00000
  51 0.00000 0.00000 0.00000
  52 0.00000 0.00000 0.00000
  53 0.00000 0.00000 0.00000
  54 0.00000 0.00000 0.00000
  55 0.00000 0.00000 0.00000
  56 0.00000 0.00000 0.00000
  57 0.00000 0.00000 0.00000
  58 0.00000 0.00000 0.00000
  59 0.00000 0.00000 0.00000
  60 0.00000 0.00000 0.00000
  61 0.00000 0.00000 0.00000
  62 0.00000 0.00000 0.00000
  63 0.00000 0.00000 0.00000
  64 0.00000 0.00000 0.00000
  65 0.00000 0.00000 0.00000
  66 0.00000 0.00000 0.00000
</Section>

newXOutput 194

<Section columns = "stress_xx | stress_yy | stress_xy">
  1 0.00000 0.00000 0.00000
  2 0.00000 0.00000 0.00000
  3 0.00000 0.00000 0.00000
  4 0.00000 0.00000 0.00000
  5 0.00000 0.00000 0.00000
  6 0.00000 0.00000 0.00000
  7 0.00000 0.00000 0.00000
  8 0.00000 0.00000 0.00000
  9 0.00000 0.00000 0.00000
  10 0.00000 0.00000 0.00000
  11 0.00000 0.00000 0.00000
  12 0.00000 0.00000 0.00000
  13 0.00000 0.00000 0.00000
  14 0.00000 0.00000 0.00000
  15 0.00000 0.00000 0.00000
  16 0.00000 0.00000 0.00000
  17 0.00000 0.00000 0.00000
  18 0.00000 0.00000 0.00000
  19 0.00000 0.00000 0.00000
  20 0.00000 0.00000 0.00000
  21 0.00000 0.00000 0.00000
  22 0.00000 0.00000 0.00000
  23 0.00000 0.00000 0.00000
  24 0.00000 0.00000 0.00000
  25 0.00000 0.00000 0.00000
  26 0.00000 0.00000 0.00000
  27 0.00000 0.00000 0.00000
  28 0.00000 0.00000 0.00000
  29 0.00000 0.00000 0.00000
  30 0.00000 0.00000 0.00000
  31 0.00000 0.00000 0.00000
  32 0.00000 0.00000 0.00000
  33 0.00000 0.00000 0.00000
  34 0.00000 0.00000 0.00000
  35 0.00000 0.00000 0.00000
  36 0.00000 0.00000 0.00000
  37 0.00000 0.00000 0.00000
  38 0.00000 0.00000 0.00000
  39 0.00000 0.00000 0.00000
  40 0.00000 0.00000 0.00000
  41 0.00000 0.00000 0.00000
  42 0.00000 0.00000 0.00000
  43 0.00000 0.00000 0.00000
  44 0.00000 0.00000 0.00000
  45 0.00000 0.00000 0.00000
  46 0.00000 0.00000 0.00000
  47 0.00000 0.00000 0.00000
  48 0.00000 0.00000 0.00000
  49 0.00000 0.00000 0.00000
  50 0.00000 0.00000 0.00000
  51 0.00000 0.00000 0.00000
  52 0.00000 0.00000 0.00000
  53 0.00000 0.00000 0.00000
  54 0.00000 0.00000 0.00000
  55 0.00000 0.00000 0.00000
  56 0.00000 0.00000 0.00000
  57 0.00000 0.00000 0.00000
  58 0.00000 0.00000 0.00000
  59 0.00000 0.00000 0.00000
  60 0.00000 0.00000 0.00000
  61 0.00000 0.00000 0.00000
  62 0.00000 0.00000 0.00000
  63 0.00000 0.00000 0.00000
  64 0.00000 0.00000 0.00000
  65 0.00000 0.00000 0.00000
  66 0.00000 0.00000 0.00000
</Section>

newXOutput 195

<Section columns = "stress_xx | stress_yy | stress_xy">
  1 0.00000 0.00000 0.00000
  2 0.00000 0.00000 0.00000
  3 0.00000 0.00000 0.00000
  4 0.00000 0.00000 0.00000
  5 0.00000 0.00000 0.00000
  6 0.00000 0.00000 0.00000
  7 0.00000 0.00000 0.00000
  8 0.00000 0.00000 0.00000
  9 0.00000 0.00000 0.00000
  10 0.00000 0.00000 0.00000
  11 0.00000 0.00000 0.00000
  12 0.00000 0.00000 0.00000
  13 0.00000 0.00000 0.00000
  14 0.00000 0.00000 0.00000
  15 0.00000 0.00000 0.00000
  16 0.00000 0.00000 0.00000
  17 0.00000 0.00000 0.00000
  18 0.00000 0.00000 0.00000
  19 0.00000 0.00000 0.00000
  20 0.00000 0.00000 0.00000
  21 0.00000 0.00000 0.00000
  22 0.00000 0.00000 0.00000
  23 0.00000 0.00000 0.00000
  24 0.00000 0.00000 0.00000
  25 0.00000 0.00000 0.00000
  26 0.00000 0.00000 0.00000
  27 0.00000 0.00000 0.00000
  28 0.00000 0.00000 0.00000
  29 0.00000 0.00000 0.00000
  30 0.00000 0.00000 0.00000
  31 0.00000 0.00000 0.00000
  32 0.00000 0.00000 0.00000
  33 0.00000 0.00000 0.00000
  34 0.00000 0.00000 0.00000
  35 0.00000 0.00000 0.00000
  36 0.00000 0.00000 0.00000
  37 0.00000 0.00000 0.00000
  38 0.00000 0.00000 0.00000
  39 0.00000 0.00000 0.00000
  40 0.00000 0.00000 0.00000
  41 0.00000 0.00000 0.00000
  42 0.00000 0.00000 0.00000
  43 0.00000 0.00000 0.00000
  44 0.00000 0.00000 0.00000
  45 0.00000 0.00000 0.00000
  46 0.00000 0.00000 0.00000
  47 0.00000 0.00000 0.00000
  48 0.00000 0.00000 0.00000
  49 0.00000 0.00000 0.00000
  50 0.00000 0.00000 0.00000
  51 0.00000 0.00000 0.00000
  52 0.00000 0.00000 0.00000
  53 0.00000 0.00000 0.00000
  54 0.00000 0.00000 0.00000
  55 0.00000 0.00000 0.00000
  56 0.00000 0.00000 0.00000
  57 0.00000 0.00000 0.00000
  58 0.00000 0.00000 0.00000
  59 0.00000 0.00000 0.00000
  60 0.00000 0.00000 0.00000
  61 0.00000 0.00000 0.00000
  62 0.00000 0.00000 0.00000
  63 0.00000 0.00000 0.00000
  64 0.00000 0.00000 0.00000
  65 0.00000 0.00000 0.00000
  66 0.00000 0.00000 0.00000
</Section>

newXOutput 196

<Section columns = "stress_xx | stress_yy | stress_xy">
  1 0.00000 0.00000 0.00000
  2 0.00000 0.00000 0.00000
  3 0.00000 0.00000 0.00000
  4 0.00000 0.00000 0.00000
  5 0.00000 0.00000 0.00000
  6 0.00000 0.00000 0.00000
  7 0.00000 0.00000 0.00000
  8 0.00000 0.00000 0.00000
  9 0.00000 0.00000 0.00000
  10 0.00000 0.00000 0.00000
  11 0.00000 0.00000 0.00000
  12 0.00000 0.00000 0.00000
  13 0.00000 0.00000 0.00000
  14 0.00000 0.00000 0.00000
  15 0.00000 0.00000 0.00000
  16 0.00000 0.00000 0.00000
  17 0.00000 0.00000 0.00000
  18 0.00000 0.00000 0.00000
  19 0.00000 0.00000 0.00000
  20 0.00000 0.00000 0.00000
  21 0.00000 0.00000 0.00000
  22 0.00000 0.00000 0.00000
  23 0.00000 0.00000 0.00000
  24 0.00000 0.00000 0.00000
  25 0.00000 0.00000 0.00000
  26 0.00000 0.00000 0.00000
  27 0.00000 0.00000 0.00000
  28 0.00000 0.00000 0.00000
  29 0.00000 0.00000 0.00000
  30 0.00000 0.00000 0.00000
  31 0.00000 0.00000 0.00000
  32 0.00000 0.00000 0.00000
  33 0.00000 0.00000 0.00000
  34 0.00000 0.00000 0.00000
  35 0.00000 0.00000 0.00000
  36 0.00000 0.00000 0.00000
  37 0.00000 0.00000 0.00000
  38 0.00000 0.00000 0.00000
  39 0.00000 0.00000 0.00000
  40 0.00000 0.00000 0.00000
  41 0.00000 0.00000 0.00000
  42 0.00000 0.00000 0.00000
  43 0.00000 0.00000 0.00000
  44 0.00000 0.00000 0.00000
  45 0.00000 0.00000 0.00000
  46 0.00000 0.00000 0.00000
  47 0.00000 0.00000 0.00000
  48 0.00000 0.00000 0.00000
  49 0.00000 0.00000 0.00000
  50 0.00000 0.00000 0.00000
  51 0.00000 0.00000 0.00000
  52 0.00000 0.00000 0.00000
  53 0.00000 0.00000 0.00000
  54 0.00000 0.00000 0.00000
  55 0.00000 0.00000 0.00000
  56 0.00000 0.00000 0.00000
  57 0.00000 0.00000 0.00000
  58 0.00000 0.00000 0.00000
  59 0.00000 0.00000 0.00000
  60 0.00000 0.00000 0.00000
  61 0.00000 0.00000 0.00000
  62 0.00000 0.00000 0.00000
  63 0.00000 0.00000 0.00000
  64 0.00000 0.00000 0.00000
  65 0.00000 0.00000 0.00000
  66 0.00000 0.00000 0.00000
</Section>

newXOutput 197

<Section columns = "stress_xx | stress_yy | stress_xy">
  1 0.00000 0.00000 0.00000
  2 0.00000 0.00000 0.00000
  3 0.00000 0.00000 0.00000
  4 0.00000 0.00000 0.00000
  5 0.00000 0.00000 0.00000
  6 0.00000 0.00000 0.00000
  7 0.00000 0.00000 0.00000
  8 0.00000 0.00000 0.00000
  9 0.00000 0.00000 0.00000
  10 0.00000 0.00000 0.00000
  11 0.00000 0.00000 0.00000
  12 0.00000 0.00000 0.00000
  13 0.00000 0.00000 0.00000
  14 0.00000 0.00000 0.00000
  15 0.00000 0.00000 0.00000
  16 0.00000 0.00000 0.00000
  17 0.00000 0.00000 0.00000
  18 0.00000 0.00000 0.00000
  19 0.00000 0.00000 0.00000
  20 0.00000 0.00000 0.00000
  21 0.00000 0.00000 0.00000
  22 0.00000 0.00000 0.00000
  23 0.00000 0.00000 0.00000
  24 0.00000 0.00000 0.00000
  25 0.00000 0.00000 0.00000
  26 0.00000 0.00000 0.00000
  27 0.00000 0.00000 0.00000
  28 0.00000 0.00000 0.00000
  29 0.00000 0.00000 0.00000
  30 0.00000 0.00000 0.00000
  31 0.00000 0.00000 0.00000
  32 0.00000 0.00000 0.00000
  33 0.00000 0.00000 0.00000
  34 0.00000 0.00000 0.00000
  35 0.00000 0.00000 0.00000
  36 0.00000 0.00000 0.00000
  37 0.00000 0.00000 0.00000
  38 0.00000 0.00000 0.00000
  39 0.00000 0.00000 0.00000
  40 0.00000 0.00000 0.00000
  41 0.00000 0.00000 0.00000
  42 0.00000 0.00000 0.00000
  43 0.00000 0.00000 0.00000
  44 0.00000 0.00000 0.00000
  45 0.00000 0.00000 0.00000
  46 0.00000 0.00000 0.00000
  47 0.00000 0.00000 0.00000
  48 0.00000 0.00000 0.00000
  49 0.00000 0.00000 0.00000
  50 0.00000 0.00000 0.00000
  51 0.00000 0.00000 0.00000
  52 0.00000 0.00000 0.00000
  53 0.00000 0.00000 0.00000
  54 0.00000 0.00000 0.00000
  55 0.00000 0.00000 0.00000
  56 0.00000 0.00000 0.00000
  57 0.00000 0.00000 0.00000
  58 0.00000 0.00000 0.00000
  59 0.00000 0.00000 0.00000
  60 0.00000 0.00000 0.00000
  61 0.00000 0.00000 0.00000
  62 0.00000 0.00000 0.00000
  63 0.00000 0.00000 0.00000
  64 0.00000 0.00000 0.00000
  65 0.00000 0.00000 0.00000
  66 0.00000 0.00000 0.00000
</Section>

newXOutput 198

<Section columns = "stress_xx | stress_yy | stress_xy">
  1 0.00000 0.00000 0.00000
  2 0.00000 0.00000 0.00000
  3 0.00000 0.00000 0.00000
  4 0.00000 0.00000 0.00000
  5 0.00000 0.00000 0.00000
  6 0.00000 0.00000 0.00000
  7 0.00000 0.00000 0.00000
  8 0.00000 0.00000 0.00000
  9 0.00000 0.00000 0.00000
  10 0.00000 0.00000 0.00000
  11 0.00000 0.00000 0.00000
  12 0.00000 0.00000 0.00000
  13 0.00000 0.00000 0.00000
  14 0.00000 0.00000 0.00000
  15 0.00000 0.00000 0.00000
  16 0.00000 0.00000 0.00000
  17 0.00000 0.00000 0.00000
  18 0.00000 0.00000 0.00000
  19 0.00000 0.00000 0.00000
  20 0.00000 0.00000 0.00000
  21 0.00000 0.00000 0.00000
  22 0.00000 0.00000 0.00000
  23 0.00000 0.00000 0.00000
  24 0.00000 0.00000 0.00000
  25 0.00000 0.00000 0.00000
  26 0.00000 0.00000 0.00000
  27 0.00000 0.00000 0.00000
  28 0.00000 0.00000 0.00000
  29 0.00000 0.00000 0.00000
  30 0.00000 0.00000 0.00000
  31 0.00000 0.00000 0.00000
  32 0.00000 0.00000 0.00000
  33 0.00000 0.00000 0.00000
  34 0.00000 0.00000 0.00000
  35 0.00000 0.00000 0.00000
  36 0.00000 0.00000 0.00000
  37 0.00000 0.00000 0.00000
  38 0.00000 0.00000 0.00000
  39 0.00000 0.00000 0.00000
  40 0.00000 0.00000 0.00000
  41 0.00000 0.00000 0.00000
  42 0.00000 0.00000 0.00000
  43 0.00000 0.00000 0.00000
  44 0.00000 0.00000 0.00000
  45 0.00000 0.00000 0.00000
  46 0.00000 0.00000 0.00000
  47 0.00000 0.00000 0.00000
  48 0.00000 0.00000 0.00000
  49 0.00000 0.00000 0.00000
  50 0.00000 0.00000 0.00000
  51 0.00000 0.00000 0.00000
  52 0.00000 0.00000 0.00000
  53 0.00000 0.00000 0.00000
  54 0.00000 0.00000 0.00000
  55 0.00000 0.00000 0.00000
  56 0.00000 0.00000 0.00000
  57 0.00000 0.00000 0.00000
  58 0.00000 0.00000 0.00000
  59 0.00000 0.00000 0.00000
  60 0.00000 0.00000 0.00000
  61 0.00000 0.00000 0.00000
  62 0.00000 0.00000 0.00000
  63 0.00000 0.00000 0.00000
  64 0.00000 0.00000 0.00000
  65 0.00000 0.00000 0.00000
  66 0.00000 0.00000 0.00000
</Section>

newXOutput 199

<Section columns = "stress_xx | stress_yy | stress_xy">
  1 0.00000 0.00000 0.00000
  2 0.00000 0.00000 0.00000
  3 0.00000 0.00000 0.00000
  4 0.00000 0.00000 0.00000
  5 0.00000 0.00000 0.00000
  6 0.00000 0.00000 0.00000
  7 0.00000 0.00000 0.00000
  8 0.00000 0.00000 0.00000
  9 0.00000 0.00000 0.00000
  10 0.00000 0.00000 0.00000
  11 0.00000 0.00000 0.00000
  12 0.00000 0.00000 0.00000
  13 0.00000 0.00000 0.00000
  14 0.00000 0.00000 0.00000
  15 0.00000 0.00000 0.00000
  16 0.00000 0.00000 0.00000
  17 0.00000 0.00000 0.00000
  18 0.00000 0.00000 0.00000
  19 0.00000 0.00000 0.00000
  20 0.00000 0.00000 0.00000
  21 0.00000 0.00000 0.00000
  22 0.00000 0.00000 0.00000
  23 0.00000 0.00000 0.00000
  24 0.00000 0.00000 0.00000
  25 0.00000 0.00000 0.00000
  26 0.00000 0.00000 0.00000
  27 0.00000 0.00000 0.00000
  28 0.00000 0.00000 0.00000
  29 0.00000 0.00000 0.00000
  30 0.00000 0.00000 0.00000
  31 0.00000 0.00000 0.00000
  32 0.00000 0.00000 0.00000
  33 0.00000 0.00000 0.00000
  34 0.00000 0.00000 0.00000
  35 0.00000 0.00000 0.00000
  36 0.00000 0.00000 0.00000
  37 0.00000 0.00000 0.00000
  38 0.00000 0.00000 0.00000
  39 0.00000 0.00000 0.00000
  40 0.00000 0.00000 0.00000
  41 0.00000 0.00000 0.00000
  42 0.00000 0.00000 0.00000
  43 0.00000 0.00000 0.00000
  44 0.00000 0.00000 0.00000
  45 0.00000 0.00000 0.00000
  46 0.00000 0.00000 0.00000
  47 0.00000 0.00000 0.00000
  48 0.00000 0.00000 0.00000
  49 0.00000 0.00000 0.00000
  50 0.00000 0.00000 0.00000
  51 0.00000 0.00000 0.00000
  52 0.00000 0.00000 0.00000
  53 0.00000 0.00000 0.00000
  54 0.00000 0.00000 0.00000
  55 0.00000 0.00000 0.00000
  56 0.00000 0.00000 0.00000
  57 0.00000 0.00000 0.00000
  58 0.00000 0.00000 0.00000
  59 0.00000 0.00000 0.00000
  60 0.00000 0.00000 0.00000
  61 0.00000 0.00000 0.00000
  62 0.00000 0.00000 0.00000
  63 0.00000 0.00000 0.00000
  64 0.00000 0.00000 0.00000
  65 0.00000 0.00000 0.00000
  66 0.00000 0.00000 0.00000
</Section>

newXOutput 200

<Section columns = "stress_xx | stress_yy | stress_xy">
  1 0.00000 0.00000 0.00000
  2 0.00000 0.00000 0.00000
  3 0.00000 0.00000 0.00000
  4 0.00000 0.00000 0.00000
  5 0.00000 0.00000 0.00000
  6 0.00000 0.00000 0.00000
  7 0.00000 0.00000 0.00000
  8 0.00000 0.00000 0.00000
  9 0.00000 0.00000 0.00000
  10 0.00000 0.00000 0.00000
  11 0.00000 0.00000 0.00000
  12 0.00000 0.00000 0.00000
  13 0.00000 0.00000 0.00000
  14 0.00000 0.00000 0.00000
  15 0.00000 0.00000 0.00000
  16 0.00000 0.00000 0.00000
  17 0.00000 0.00000 0.00000
  18 0.00000 0.00000 0.00000
  19 0.00000 0.00000 0.00000
  20 0.00000 0.00000 0.00000
  21 0.00000 0.00000 0.00000
  22 0.00000 0.00000 0.00000
  23 0.00000 0.00000 0.00000
  24 0.00000 0.00000 0.00000
  25 0.00000 0.00000 0.00000
  26 0.00000 0.00000 0.00000
  27 0.00000 0.00000 0.00000
  28 0.00000 0.00000 0.00000
  29 0.00000 0.00000 0.00000
  30 0.00000 0.00000 0.00000
  31 0.00000 0.00000 0.00000
  32 0.00000 0.00000 0.00000
  33 0.00000 0.00000 0.00000
  34 0.00000 0.00000 0.00000
  35 0.00000 0.00000 0.00000
  36 0.00000 0.00000 0.00000
  37 0.00000 0.00000 0.00000
  38 0.00000 0.00000 0.00000
  39 0.00000 0.00000 0.00000
  40 0.00000 0.00000 0.00000
  41 0.00000 0.00000 0.00000
  42 0.00000 0.00000 0.00000
  43 0.00000 0.00000 0.00000
  44 0.00000 0.00000 0.00000
  45 0.00000 0.00000 0.00000
  46 0.00000 0.00000 0.00000
  47 0.00000 0.00000 0.00000
  48 0.00000 0.00000 0.00000
  49 0.00000 0.00000 0.00000
  50 0.00000 0.00000 0.00000
  51 0.00000 0.00000 0.00000
  52 0.00000 0.00000 0.00000
  53 0.00000 0.00000 0.00000
  54 0.00000 0.00000 0.00000
  55 0.00000 0.00000 0.00000
  56 0.00000 0.00000 0.00000
  57 0.00000 0.00000 0.00000
  58 0.00000 0.00000 0.00000
  59 0.00000 0.00000 0.00000
  60 0.00000 0.00000 0.00000
  61 0.00000 0.00000 0.00000
  62 0.00000 0.00000 0.00000
  63 0.00000 0.00000 0.00000
  64 0.00000 0.00000 0.00000
  65 0.00000 0.00000 0.00000
  66 0.00000 0.00000 0.00000
</Section>

newXOutput 201

<Section columns = "stress_xx | stress_yy | stress_xy">
  1 0.00000 0.00000 0.00000
  2 0.00000 0.00000 0.00000
  3 0.00000 0.00000 0.00000
  4 0.00000 0.00000 0.00000
  5 0.00000 0.00000 0.00000
  6 0.00000 0.00000 0.00000
  7 0.00000 0.00000 0.00000
  8 0.00000 0.00000 0.00000
  9 0.00000 0.00000 0.00000
  10 0.00000 0.00000 0.00000
  11 0.00000 0.00000 0.00000
  12 0.00000 0.00000 0.00000
  13 0.00000 0.00000 0.00000
  14 0.00000 0.00000 0.00000
  15 0.00000 0.00000 0.00000
  16 0.00000 0.00000 0.00000
  17 0.00000 0.00000 0.00000
  18 0.00000 0.00000 0.00000
  19 0.00000 0.00000 0.00000
  20 0.00000 0.00000 0.00000
  21 0.00000 0.00000 0.00000
  22 0.00000 0.00000 0.00000
  23 0.00000 0.00000 0.00000
  24 0.00000 0.00000 0.00000
  25 0.00000 0.00000 0.00000
  26 0.00000 0.00000 0.00000
  27 0.00000 0.00000 0.00000
  28 0.00000 0.00000 0.00000
  29 0.00000 0.00000 0.00000
  30 0.00000 0.00000 0.00000
  31 0.00000 0.00000 0.00000
  32 0.00000 0.00000 0.00000
  33 0.00000 0.00000 0.00000
  34 0.00000 0.00000 0.00000
  35 0.00000 0.00000 0.00000
  36 0.00000 0.00000 0.00000
  37 0.00000 0.00000 0.00000
  38 0.00000 0.00000 0.00000
  39 0.00000 0.00000 0.00000
  40 0.00000 0.00000 0.00000
  41 0.00000 0.00000 0.00000
  42 0.00000 0.00000 0.00000
  43 0.00000 0.00000 0.00000
  44 0.00000 0.00000 0.00000
  45 0.00000 0.00000 0.00000
  46 0.00000 0.00000 0.00000
  47 0.00000 0.00000 0.00000
  48 0.00000 0.00000 0.00000
  49 0.00000 0.00000 0.00000
  50 0.00000 0.00000 0.00000
  51 0.00000 0.00000 0.00000
  52 0.00000 0.00000 0.00000
  53 0.00000 0.00000 0.00000
  54 0.00000 0.00000 0.00000
  55 0.00000 0.00000 0.00000
  56 0.00000 0.00000 0.00000
  57 0.00000 0.00000 0.00000
  58 0.00000 0.00000 0.00000
  59 0.00000 0.00000 0.00000
  60 0.00000 0.00000 0.00000
  61 0.00000 0.00000 0.00000
  62 0.00000 0.00000 0.00000
  63 0.00000 0.00000 0.00000
  64 0.00000 0.00000 0.00000
  65 0.00000 0.00000 0.00000
  66 0.00000 0.00000 0.00000
</Section>

newXOutput 202

<Section columns = "stress_xx | stress_yy | stress_xy">
  1 0.00000 0.00000 0.00000
  2 0.00000 0.00000 0.00000
  3 0.00000 0.00000 0.00000
  4 0.00000 0.00000 0.00000
  5 0.00000 0.00000 0.00000
  6 0.00000 0.00000 0.00000
  7 0.00000 0.00000 0.00000
  8 0.00000 0.00000 0.00000
  9 0.00000 0.00000 0.00000
  10 0.00000 0.00000 0.00000
  11 0.00000 0.00000 0.00000
  12 0.00000 0.00000 0.00000
  13 0.00000 0.00000 0.00000
  14 0.00000 0.00000 0.00000
  15 0.00000 0.00000 0.00000
  16 0.00000 0.00000 0.00000
  17 0.00000 0.00000 0.00000
  18 0.00000 0.00000 0.00000
  19 0.00000 0.00000 0.00000
  20 0.00000 0.00000 0.00000
  21 0.00000 0.00000 0.00000
  22 0.00000 0.00000 0.00000
  23 0.00000 0.00000 0.00000
  24 0.00000 0.00000 0.00000
  25 0.00000 0.00000 0.00000
  26 0.00000 0.00000 0.00000
  27 0.00000 0.00000 0.00000
  28 0.00000 0.00000 0.00000
  29 0.00000 0.00000 0.00000
  30 0.00000 0.00000 0.00000
  31 0.00000 0.00000 0.00000
  32 0.00000 0.00000 0.00000
  33 0.00000 0.00000 0.00000
  34 0.00000 0.00000 0.00000
  35 0.00000 0.00000 0.00000
  36 0.00000 0.00000 0.00000
  37 0.00000 0.00000 0.00000
  38 0.00000 0.00000 0.00000
  39 0.00000 0.00000 0.00000
  40 0.00000 0.00000 0.00000
  41 0.00000 0.00000 0.00000
  42 0.00000 0.00000 0.00000
  43 0.00000 0.00000 0.00000
  44 0.00000 0.00000 0.00000
  45 0.00000 0.00000 0.00000
  46 0.00000 0.00000 0.00000
  47 0.00000 0.00000 0.00000
  48 0.00000 0.00000 0.00000
  49 0.00000 0.00000 0.00000
  50 0.00000 0.00000 0.00000
  51 0.00000 0.00000 0.00000
  52 0.00000 0.00000 0.00000
  53 0.00000 0.00000 0.00000
  54 0.00000 0.00000 0.00000
  55 0.00000 0.00000 0.00000
  56 0.00000 0.00000 0.00000
  57 0.00000 0.00000 0.00000
  58 0.00000 0.00000 0.00000
  59 0.00000 0.00000 0.00000
  60 0.00000 0.00000 0.00000
  61 0.00000 0.00000 0.00000
  62 0.00000 0.00000 0.00000
  63 0.00000 0.00000 0.00000
  64 0.00000 0.00000 0.00000
  65 0.00000 0.00000 0.00000
  66 0.00000 0.00000 0.00000
</Section>

newXOutput 203

<Section columns = "stress_xx | stress_yy | stress_xy">
  1 0.00000 0.00000 0.00000
  2 0.00000 0.00000 0.00000
  3 0.00000 0.00000 0.00000
  4 0.00000 0.00000 0.00000
  5 0.00000 0.00000 0.00000
  6 0.00000 0.00000 0.00000
  7 0.00000 0.00000 0.00000
  8 0.00000 0.00000 0.00000
  9 0.00000 0.00000 0.00000
  10 0.00000 0.00000 0.00000
  11 0.00000 0.00000 0.00000
  12 0.00000 0.00000 0.00000
  13 0.00000 0.00000 0.00000
  14 0.00000 0.00000 0.00000
  15 0.00000 0.00000 0.00000
  16 0.00000 0.00000 0.00000
  17 0.00000 0.00000 0.00000
  18 0.00000 0.00000 0.00000
  19 0.00000 0.00000 0.00000
  20 0.00000 0.00000 0.00000
  21 0.00000 0.00000 0.00000
  22 0.00000 0.00000 0.00000
  23 0.00000 0.00000 0.00000
  24 0.00000 0.00000 0.00000
  25 0.00000 0.00000 0.00000
  26 0.00000 0.00000 0.00000
  27 0.00000 0.00000 0.00000
  28 0.00000 0.00000 0.00000
  29 0.00000 0.00000 0.00000
  30 0.00000 0.00000 0.00000
  31 0.00000 0.00000 0.00000
  32 0.00000 0.00000 0.00000
  33 0.00000 0.00000 0.00000
  34 0.00000 0.00000 0.00000
  35 0.00000 0.00000 0.00000
  36 0.00000 0.00000 0.00000
  37 0.00000 0.00000 0.00000
  38 0.00000 0.00000 0.00000
  39 0.00000 0.00000 0.00000
  40 0.00000 0.00000 0.00000
  41 0.00000 0.00000 0.00000
  42 0.00000 0.00000 0.00000
  43 0.00000 0.00000 0.00000
  44 0.00000 0.00000 0.00000
  45 0.00000 0.00000 0.00000
  46 0.00000 0.00000 0.00000
  47 0.00000 0.00000 0.00000
  48 0.00000 0.00000 0.00000
  49 0.00000 0.00000 0.00000
  50 0.00000 0.00000 0.00000
  51 0.00000 0.00000 0.00000
  52 0.00000 0.00000 0.00000
  53 0.00000 0.00000 0.00000
  54 0.00000 0.00000 0.00000
  55 0.00000 0.00000 0.00000
  56 0.00000 0.00000 0.00000
  57 0.00000 0.00000 0.00000
  58 0.00000 0.00000 0.00000
  59 0.00000 0.00000 0.00000
  60 0.00000 0.00000 0.00000
  61 0.00000 0.00000 0.00000
  62 0.00000 0.00000 0.00000
  63 0.00000 0.00000 0.00000
  64 0.00000 0.00000 0.00000
  65 0.00000 0.00000 0.00000
  66 0.00000 0.00000 0.00000
</Section>

newXOutput 204

<Section columns = "stress_xx | stress_yy | stress_xy">
  1 0.00000 0.00000 0.00000
  2 0.00000 0.00000 0.00000
  3 0.00000 0.00000 0.00000
  4 0.00000 0.00000 0.00000
  5 0.00000 0.00000 0.00000
  6 0.00000 0.00000 0.00000
  7 0.00000 0.00000 0.00000
  8 0.00000 0.00000 0.00000
  9 0.00000 0.00000 0.00000
  10 0.00000 0.00000 0.00000
  11 0.00000 0.00000 0.00000
  12 0.00000 0.00000 0.00000
  13 0.00000 0.00000 0.00000
  14 0.00000 0.00000 0.00000
  15 0.00000 0.00000 0.00000
  16 0.00000 0.00000 0.00000
  17 0.00000 0.00000 0.00000
  18 0.00000 0.00000 0.00000
  19 0.00000 0.00000 0.00000
  20 0.00000 0.00000 0.00000
  21 0.00000 0.00000 0.00000
  22 0.00000 0.00000 0.00000
  23 0.00000 0.00000 0.00000
  24 0.00000 0.00000 0.00000
  25 0.00000 0.00000 0.00000
  26 0.00000 0.00000 0.00000
  27 0.00000 0.00000 0.00000
  28 0.00000 0.00000 0.00000
  29 0.00000 0.00000 0.00000
  30 0.00000 0.00000 0.00000
  31 0.00000 0.00000 0.00000
  32 0.00000 0.00000 0.00000
  33 0.00000 0.00000 0.00000
  34 0.00000 0.00000 0.00000
  35 0.00000 0.00000 0.00000
  36 0.00000 0.00000 0.00000
  37 0.00000 0.00000 0.00000
  38 0.00000 0.00000 0.00000
  39 0.00000 0.00000 0.00000
  40 0.00000 0.00000 0.00000
  41 0.00000 0.00000 0.00000
  42 0.00000 0.00000 0.00000
  43 0.00000 0.00000 0.00000
  44 0.00000 0.00000 0.00000
  45 0.00000 0.00000 0.00000
  46 0.00000 0.00000 0.00000
  47 0.00000 0.00000 0.00000
  48 0.00000 0.00000 0.00000
  49 0.00000 0.00000 0.00000
  50 0.00000 0.00000 0.00000
  51 0.00000 0.00000 0.00000
  52 0.00000 0.00000 0.00000
  53 0.00000 0.00000 0.00000
  54 0.00000 0.00000 0.00000
  55 0.00000 0.00000 0.00000
  56 0.00000 0.00000 0.00000
  57 0.00000 0.00000 0.00000
  58 0.00000 0.00000 0.00000
  59 0.00000 0.00000 0.00000
  60 0.00000 0.00000 0.00000
  61 0.00000 0.00000 0.00000
  62 0.00000 0.00000 0.00000
  63 0.00000 0.00000 0.00000
  64 0.00000 0.00000 0.00000
  65 0.00000 0.00000 0.00000
  66 0.00000 0.00000 0.00000
</Section>

newXOutput 205

<Section columns = "stress_xx | stress_yy | stress_xy">
  1 0.00000 0.00000 0.00000
  2 0.00000 0.00000 0.00000
  3 0.00000 0.00000 0.00000
  4 0.00000 0.00000 0.00000
  5 0.00000 0.00000 0.00000
  6 0.00000 0.00000 0.00000
  7 0.00000 0.00000 0.00000
  8 0.00000 0.00000 0.00000
  9 0.00000 0.00000 0.00000
  10 0.00000 0.00000 0.00000
  11 0.00000 0.00000 0.00000
  12 0.00000 0.00000 0.00000
  13 0.00000 0.00000 0.00000
  14 0.00000 0.00000 0.00000
  15 0.00000 0.00000 0.00000
  16 0.00000 0.00000 0.00000
  17 0.00000 0.00000 0.00000
  18 0.00000 0.00000 0.00000
  19 0.00000 0.00000 0.00000
  20 0.00000 0.00000 0.00000
  21 0.00000 0.00000 0.00000
  22 0.00000 0.00000 0.00000
  23 0.00000 0.00000 0.00000
  24 0.00000 0.00000 0.00000
  25 0.00000 0.00000 0.00000
  26 0.00000 0.00000 0.00000
  27 0.00000 0.00000 0.00000
  28 0.00000 0.00000 0.00000
  29 0.00000 0.00000 0.00000
  30 0.00000 0.00000 0.00000
  31 0.00000 0.00000 0.00000
  32 0.00000 0.00000 0.00000
  33 0.00000 0.00000 0.00000
  34 0.00000 0.00000 0.00000
  35 0.00000 0.00000 0.00000
  36 0.00000 0.00000 0.00000
  37 0.00000 0.00000 0.00000
  38 0.00000 0.00000 0.00000
  39 0.00000 0.00000 0.00000
  40 0.00000 0.00000 0.00000
  41 0.00000 0.00000 0.00000
  42 0.00000 0.00000 0.00000
  43 0.00000 0.00000 0.00000
  44 0.00000 0.00000 0.00000
  45 0.00000 0.00000 0.00000
  46 0.00000 0.00000 0.00000
  47 0.00000 0.00000 0.00000
  48 0.00000 0.00000 0.00000
  49 0.00000 0.00000 0.00000
  50 0.00000 0.00000 0.00000
  51 0.00000 0.00000 0.00000
  52 0.00000 0.00000 0.00000
  53 0.00000 0.00000 0.00000
  54 0.00000 0.00000 0.00000
  55 0.00000 0.00000 0.00000
  56 0.00000 0.00000 0.00000
  57 0.00000 0.00000 0.00000
  58 0.00000 0.00000 0.00000
  59 0.00000 0.00000 0.00000
  60 0.00000 0.00000 0.00000
  61 0.00000 0.00000 0.00000
  62 0.00000 0.00000 0.00000
  63 0.00000 0.00000 0.00000
  64 0.00000 0.00000 0.00000
  65 0.00000 0.00000 0.00000
  66 0.00000 0.00000 0.00000
</Section>

newXOutput 206

<Section columns = "stress_xx | stress_yy | stress_xy">
  1 0.00000 0.00000 0.00000
  2 0.00000 0.00000 0.00000
  3 0.00000 0.00000 0.00000
  4 0.00000 0.00000 0.00000
  5 0.00000 0.00000 0.00000
  6 0.00000 0.00000 0.00000
  7 0.00000 0.00000 0.00000
  8 0.00000 0.00000 0.00000
  9 0.00000 0.00000 0.00000
  10 0.00000 0.00000 0.00000
  11 0.00000 0.00000 0.00000
  12 0.00000 0.00000 0.00000
  13 0.00000 0.00000 0.00000
  14 0.00000 0.00000 0.00000
  15 0.00000 0.00000 0.00000
  16 0.00000 0.00000 0.00000
  17 0.00000 0.00000 0.00000
  18 0.00000 0.00000 0.00000
  19 0.00000 0.00000 0.00000
  20 0.00000 0.00000 0.00000
  21 0.00000 0.00000 0.00000
  22 0.00000 0.00000 0.00000
  23 0.00000 0.00000 0.00000
  24 0.00000 0.00000 0.00000
  25 0.00000 0.00000 0.00000
  26 0.00000 0.00000 0.00000
  27 0.00000 0.00000 0.00000
  28 0.00000 0.00000 0.00000
  29 0.00000 0.00000 0.00000
  30 0.00000 0.00000 0.00000
  31 0.00000 0.00000 0.00000
  32 0.00000 0.00000 0.00000
  33 0.00000 0.00000 0.00000
  34 0.00000 0.00000 0.00000
  35 0.00000 0.00000 0.00000
  36 0.00000 0.00000 0.00000
  37 0.00000 0.00000 0.00000
  38 0.00000 0.00000 0.00000
  39 0.00000 0.00000 0.00000
  40 0.00000 0.00000 0.00000
  41 0.00000 0.00000 0.00000
  42 0.00000 0.00000 0.00000
  43 0.00000 0.00000 0.00000
  44 0.00000 0.00000 0.00000
  45 0.00000 0.00000 0.00000
  46 0.00000 0.00000 0.00000
  47 0.00000 0.00000 0.00000
  48 0.00000 0.00000 0.00000
  49 0.00000 0.00000 0.00000
  50 0.00000 0.00000 0.00000
  51 0.00000 0.00000 0.00000
  52 0.00000 0.00000 0.00000
  53 0.00000 0.00000 0.00000
  54 0.00000 0.00000 0.00000
  55 0.00000 0.00000 0.00000
  56 0.00000 0.00000 0.00000
  57 0.00000 0.00000 0.00000
  58 0.00000 0.00000 0.00000
  59 0.00000 0.00000 0.00000
  60 0.00000 0.00000 0.00000
  61 0.00000 0.00000 0.00000
  62 0.00000 0.00000 0.00000
  63 0.00000 0.00000 0.00000
  64 0.00000 0.00000 0.00000
  65 0.00000 0.00000 0.00000
  66 0.00000 0.00000 0.00000
</Section>

newXOutput 207

<Section columns = "stress_xx | stress_yy | stress_xy">
  1 0.00000 0.00000 0.00000
  2 0.00000 0.00000 0.00000
  3 0.00000 0.00000 0.00000
  4 0.00000 0.00000 0.00000
  5 0.00000 0.00000 0.00000
  6 0.00000 0.00000 0.00000
  7 0.00000 0.00000 0.00000
  8 0.00000 0.00000 0.00000
  9 0.00000 0.00000 0.00000
  10 0.00000 0.00000 0.00000
  11 0.00000 0.00000 0.00000
  12 0.00000 0.00000 0.00000
  13 0.00000 0.00000 0.00000
  14 0.00000 0.00000 0.00000
  15 0.00000 0.00000 0.00000
  16 0.00000 0.00000 0.00000
  17 0.00000 0.00000 0.00000
  18 0.00000 0.00000 0.00000
  19 0.00000 0.00000 0.00000
  20 0.00000 0.00000 0.00000
  21 0.00000 0.00000 0.00000
  22 0.00000 0.00000 0.00000
  23 0.00000 0.00000 0.00000
  24 0.00000 0.00000 0.00000
  25 0.00000 0.00000 0.00000
  26 0.00000 0.00000 0.00000
  27 0.00000 0.00000 0.00000
  28 0.00000 0.00000 0.00000
  29 0.00000 0.00000 0.00000
  30 0.00000 0.00000 0.00000
  31 0.00000 0.00000 0.00000
  32 0.00000 0.00000 0.00000
  33 0.00000 0.00000 0.00000
  34 0.00000 0.00000 0.00000
  35 0.00000 0.00000 0.00000
  36 0.00000 0.00000 0.00000
  37 0.00000 0.00000 0.00000
  38 0.00000 0.00000 0.00000
  39 0.00000 0.00000 0.00000
  40 0.00000 0.00000 0.00000
  41 0.00000 0.00000 0.00000
  42 0.00000 0.00000 0.00000
  43 0.00000 0.00000 0.00000
  44 0.00000 0.00000 0.00000
  45 0.00000 0.00000 0.00000
  46 0.00000 0.00000 0.00000
  47 0.00000 0.00000 0.00000
  48 0.00000 0.00000 0.00000
  49 0.00000 0.00000 0.00000
  50 0.00000 0.00000 0.00000
  51 0.00000 0.00000 0.00000
  52 0.00000 0.00000 0.00000
  53 0.00000 0.00000 0.00000
  54 0.00000 0.00000 0.00000
  55 0.00000 0.00000 0.00000
  56 0.00000 0.00000 0.00000
  57 0.00000 0.00000 0.00000
  58 0.00000 0.00000 0.00000
  59 0.00000 0.00000 0.00000
  60 0.00000 0.00000 0.00000
  61 0.00000 0.00000 0.00000
  62 0.00000 0.00000 0.00000
  63 0.00000 0.00000 0.00000
  64 0.00000 0.00000 0.00000
  65 0.00000 0.00000 0.00000
  66 0.00000 0.00000 0.00000
</Section>

newXOutput 208

<Section columns = "stress_xx | stress_yy | stress_xy">
  1 0.00000 0.00000 0.00000
  2 0.00000 0.00000 0.00000
  3 0.00000 0.00000 0.00000
  4 0.00000 0.00000 0.00000
  5 0.00000 0.00000 0.00000
  6 0.00000 0.00000 0.00000
  7 0.00000 0.00000 0.00000
  8 0.00000 0.00000 0.00000
  9 0.00000 0.00000 0.00000
  10 0.00000 0.00000 0.00000
  11 0.00000 0.00000 0.00000
  12 0.00000 0.00000 0.00000
  13 0.00000 0.00000 0.00000
  14 0.00000 0.00000 0.00000
  15 0.00000 0.00000 0.00000
  16 0.00000 0.00000 0.00000
  17 0.00000 0.00000 0.00000
  18 0.00000 0.00000 0.00000
  19 0.00000 0.00000 0.00000
  20 0.00000 0.00000 0.00000
  21 0.00000 0.00000 0.00000
  22 0.00000 0.00000 0.00000
  23 0.00000 0.00000 0.00000
  24 0.00000 0.00000 0.00000
  25 0.00000 0.00000 0.00000
  26 0.00000 0.00000 0.00000
  27 0.00000 0.00000 0.00000
  28 0.00000 0.00000 0.00000
  29 0.00000 0.00000 0.00000
  30 0.00000 0.00000 0.00000
  31 0.00000 0.00000 0.00000
  32 0.00000 0.00000 0.00000
  33 0.00000 0.00000 0.00000
  34 0.00000 0.00000 0.00000
  35 0.00000 0.00000 0.00000
  36 0.00000 0.00000 0.00000
  37 0.00000 0.00000 0.00000
  38 0.00000 0.00000 0.00000
  39 0.00000 0.00000 0.00000
  40 0.00000 0.00000 0.00000
  41 0.00000 0.00000 0.00000
  42 0.00000 0.00000 0.00000
  43 0.00000 0.00000 0.00000
  44 0.00000 0.00000 0.00000
  45 0.00000 0.00000 0.00000
  46 0.00000 0.00000 0.00000
  47 0.00000 0.00000 0.00000
  48 0.00000 0.00000 0.00000
  49 0.00000 0.00000 0.00000
  50 0.00000 0.00000 0.00000
  51 0.00000 0.00000 0.00000
  52 0.00000 0.00000 0.00000
  53 0.00000 0.00000 0.00000
  54 0.00000 0.00000 0.00000
  55 0.00000 0.00000 0.00000
  56 0.00000 0.00000 0.00000
  57 0.00000 0.00000 0.00000
  58 0.00000 0.00000 0.00000
  59 0.00000 0.00000 0.00000
  60 0.00000 0.00000 0.00000
  61 0.00000 0.00000 0.00000
  62 0.00000 0.00000 0.00000
  63 0.00000 0.00000 0.00000
  64 0.00000 0.00000 0.00000
  65 0.00000 0.00000 0.00000
  66 0.00000 0.00000 0.00000
</Section>

newXOutput 209

<Section columns = "stress_xx | stress_yy | stress_xy">
  1 0.00000 0.00000 0.00000
  2 0.00000 0.00000 0.00000
  3 0.00000 0.00000 0.00000
  4 0.00000 0.00000 0.00000
  5 0.00000 0.00000 0.00000
  6 0.00000 0.00000 0.00000
  7 0.00000 0.00000 0.00000
  8 0.00000 0.00000 0.00000
  9 0.00000 0.00000 0.00000
  10 0.00000 0.00000 0.00000
  11 0.00000 0.00000 0.00000
  12 0.00000 0.00000 0.00000
  13 0.00000 0.00000 0.00000
  14 0.00000 0.00000 0.00000
  15 0.00000 0.00000 0.00000
  16 0.00000 0.00000 0.00000
  17 0.00000 0.00000 0.00000
  18 0.00000 0.00000 0.00000
  19 0.00000 0.00000 0.00000
  20 0.00000 0.00000 0.00000
  21 0.00000 0.00000 0.00000
  22 0.00000 0.00000 0.00000
  23 0.00000 0.00000 0.00000
  24 0.00000 0.00000 0.00000
  25 0.00000 0.00000 0.00000
  26 0.00000 0.00000 0.00000
  27 0.00000 0.00000 0.00000
  28 0.00000 0.00000 0.00000
  29 0.00000 0.00000 0.00000
  30 0.00000 0.00000 0.00000
  31 0.00000 0.00000 0.00000
  32 0.00000 0.00000 0.00000
  33 0.00000 0.00000 0.00000
  34 0.00000 0.00000 0.00000
  35 0.00000 0.00000 0.00000
  36 0.00000 0.00000 0.00000
  37 0.00000 0.00000 0.00000
  38 0.00000 0.00000 0.00000
  39 0.00000 0.00000 0.00000
  40 0.00000 0.00000 0.00000
  41 0.00000 0.00000 0.00000
  42 0.00000 0.00000 0.00000
  43 0.00000 0.00000 0.00000
  44 0.00000 0.00000 0.00000
  45 0.00000 0.00000 0.00000
  46 0.00000 0.00000 0.00000
  47 0.00000 0.00000 0.00000
  48 0.00000 0.00000 0.00000
  49 0.00000 0.00000 0.00000
  50 0.00000 0.00000 0.00000
  51 0.00000 0.00000 0.00000
  52 0.00000 0.00000 0.00000
  53 0.00000 0.00000 0.00000
  54 0.00000 0.00000 0.00000
  55 0.00000 0.00000 0.00000
  56 0.00000 0.00000 0.00000
  57 0.00000 0.00000 0.00000
  58 0.00000 0.00000 0.00000
  59 0.00000 0.00000 0.00000
  60 0.00000 0.00000 0.00000
  61 0.00000 0.00000 0.00000
  62 0.00000 0.00000 0.00000
  63 0.00000 0.00000 0.00000
  64 0.00000 0.00000 0.00000
  65 0.00000 0.00000 0.00000
  66 0.00000 0.00000 0.00000
</Section>

newXOutput 210

<Section columns = "stress_xx | stress_yy | stress_xy">
  1 0.00000 0.00000 0.00000
  2 0.00000 0.00000 0.00000
  3 0.00000 0.00000 0.00000
  4 0.00000 0.00000 0.00000
  5 0.00000 0.00000 0.00000
  6 0.00000 0.00000 0.00000
  7 0.00000 0.00000 0.00000
  8 0.00000 0.00000 0.00000
  9 0.00000 0.00000 0.00000
  10 0.00000 0.00000 0.00000
  11 0.00000 0.00000 0.00000
  12 0.00000 0.00000 0.00000
  13 0.00000 0.00000 0.00000
  14 0.00000 0.00000 0.00000
  15 0.00000 0.00000 0.00000
  16 0.00000 0.00000 0.00000
  17 0.00000 0.00000 0.00000
  18 0.00000 0.00000 0.00000
  19 0.00000 0.00000 0.00000
  20 0.00000 0.00000 0.00000
  21 0.00000 0.00000 0.00000
  22 0.00000 0.00000 0.00000
  23 0.00000 0.00000 0.00000
  24 0.00000 0.00000 0.00000
  25 0.00000 0.00000 0.00000
  26 0.00000 0.00000 0.00000
  27 0.00000 0.00000 0.00000
  28 0.00000 0.00000 0.00000
  29 0.00000 0.00000 0.00000
  30 0.00000 0.00000 0.00000
  31 0.00000 0.00000 0.00000
  32 0.00000 0.00000 0.00000
  33 0.00000 0.00000 0.00000
  34 0.00000 0.00000 0.00000
  35 0.00000 0.00000 0.00000
  36 0.00000 0.00000 0.00000
  37 0.00000 0.00000 0.00000
  38 0.00000 0.00000 0.00000
  39 0.00000 0.00000 0.00000
  40 0.00000 0.00000 0.00000
  41 0.00000 0.00000 0.00000
  42 0.00000 0.00000 0.00000
  43 0.00000 0.00000 0.00000
  44 0.00000 0.00000 0.00000
  45 0.00000 0.00000 0.00000
  46 0.00000 0.00000 0.00000
  47 0.00000 0.00000 0.00000
  48 0.00000 0.00000 0.00000
  49 0.00000 0.00000 0.00000
  50 0.00000 0.00000 0.00000
  51 0.00000 0.00000 0.00000
  52 0.00000 0.00000 0.00000
  53 0.00000 0.00000 0.00000
  54 0.00000 0.00000 0.00000
  55 0.00000 0.00000 0.00000
  56 0.00000 0.00000 0.00000
  57 0.00000 0.00000 0.00000
  58 0.00000 0.00000 0.00000
  59 0.00000 0.00000 0.00000
  60 0.00000 0.00000 0.00000
  61 0.00000 0.00000 0.00000
  62 0.00000 0.00000 0.00000
  63 0.00000 0.00000 0.00000
  64 0.00000 0.00000 0.00000
  65 0.00000 0.00000 0.00000
  66 0.00000 0.00000 0.00000
</Section>

newXOutput 211

<Section columns = "stress_xx | stress_yy | stress_xy">
  1 0.00000 0.00000 0.00000
  2 0.00000 0.00000 0.00000
  3 0.00000 0.00000 0.00000
  4 0.00000 0.00000 0.00000
  5 0.00000 0.00000 0.00000
  6 0.00000 0.00000 0.00000
  7 0.00000 0.00000 0.00000
  8 0.00000 0.00000 0.00000
  9 0.00000 0.00000 0.00000
  10 0.00000 0.00000 0.00000
  11 0.00000 0.00000 0.00000
  12 0.00000 0.00000 0.00000
  13 0.00000 0.00000 0.00000
  14 0.00000 0.00000 0.00000
  15 0.00000 0.00000 0.00000
  16 0.00000 0.00000 0.00000
  17 0.00000 0.00000 0.00000
  18 0.00000 0.00000 0.00000
  19 0.00000 0.00000 0.00000
  20 0.00000 0.00000 0.00000
  21 0.00000 0.00000 0.00000
  22 0.00000 0.00000 0.00000
  23 0.00000 0.00000 0.00000
  24 0.00000 0.00000 0.00000
  25 0.00000 0.00000 0.00000
  26 0.00000 0.00000 0.00000
  27 0.00000 0.00000 0.00000
  28 0.00000 0.00000 0.00000
  29 0.00000 0.00000 0.00000
  30 0.00000 0.00000 0.00000
  31 0.00000 0.00000 0.00000
  32 0.00000 0.00000 0.00000
  33 0.00000 0.00000 0.00000
  34 0.00000 0.00000 0.00000
  35 0.00000 0.00000 0.00000
  36 0.00000 0.00000 0.00000
  37 0.00000 0.00000 0.00000
  38 0.00000 0.00000 0.00000
  39 0.00000 0.00000 0.00000
  40 0.00000 0.00000 0.00000
  41 0.00000 0.00000 0.00000
  42 0.00000 0.00000 0.00000
  43 0.00000 0.00000 0.00000
  44 0.00000 0.00000 0.00000
  45 0.00000 0.00000 0.00000
  46 0.00000 0.00000 0.00000
  47 0.00000 0.00000 0.00000
  48 0.00000 0.00000 0.00000
  49 0.00000 0.00000 0.00000
  50 0.00000 0.00000 0.00000
  51 0.00000 0.00000 0.00000
  52 0.00000 0.00000 0.00000
  53 0.00000 0.00000 0.00000
  54 0.00000 0.00000 0.00000
  55 0.00000 0.00000 0.00000
  56 0.00000 0.00000 0.00000
  57 0.00000 0.00000 0.00000
  58 0.00000 0.00000 0.00000
  59 0.00000 0.00000 0.00000
  60 0.00000 0.00000 0.00000
  61 0.00000 0.00000 0.00000
  62 0.00000 0.00000 0.00000
  63 0.00000 0.00000 0.00000
  64 0.00000 0.00000 0.00000
  65 0.00000 0.00000 0.00000
  66 0.00000 0.00000 0.00000
</Section>

newXOutput 212

<Section columns = "stress_xx | stress_yy | stress_xy">
  1 0.00000 0.00000 0.00000
  2 0.00000 0.00000 0.00000
  3 0.00000 0.00000 0.00000
  4 0.00000 0.00000 0.00000
  5 0.00000 0.00000 0.00000
  6 0.00000 0.00000 0.00000
  7 0.00000 0.00000 0.00000
  8 0.00000 0.00000 0.00000
  9 0.00000 0.00000 0.00000
  10 0.00000 0.00000 0.00000
  11 0.00000 0.00000 0.00000
  12 0.00000 0.00000 0.00000
  13 0.00000 0.00000 0.00000
  14 0.00000 0.00000 0.00000
  15 0.00000 0.00000 0.00000
  16 0.00000 0.00000 0.00000
  17 0.00000 0.00000 0.00000
  18 0.00000 0.00000 0.00000
  19 0.00000 0.00000 0.00000
  20 0.00000 0.00000 0.00000
  21 0.00000 0.00000 0.00000
  22 0.00000 0.00000 0.00000
  23 0.00000 0.00000 0.00000
  24 0.00000 0.00000 0.00000
  25 0.00000 0.00000 0.00000
  26 0.00000 0.00000 0.00000
  27 0.00000 0.00000 0.00000
  28 0.00000 0.00000 0.00000
  29 0.00000 0.00000 0.00000
  30 0.00000 0.00000 0.00000
  31 0.00000 0.00000 0.00000
  32 0.00000 0.00000 0.00000
  33 0.00000 0.00000 0.00000
  34 0.00000 0.00000 0.00000
  35 0.00000 0.00000 0.00000
  36 0.00000 0.00000 0.00000
  37 0.00000 0.00000 0.00000
  38 0.00000 0.00000 0.00000
  39 0.00000 0.00000 0.00000
  40 0.00000 0.00000 0.00000
  41 0.00000 0.00000 0.00000
  42 0.00000 0.00000 0.00000
  43 0.00000 0.00000 0.00000
  44 0.00000 0.00000 0.00000
  45 0.00000 0.00000 0.00000
  46 0.00000 0.00000 0.00000
  47 0.00000 0.00000 0.00000
  48 0.00000 0.00000 0.00000
  49 0.00000 0.00000 0.00000
  50 0.00000 0.00000 0.00000
  51 0.00000 0.00000 0.00000
  52 0.00000 0.00000 0.00000
  53 0.00000 0.00000 0.00000
  54 0.00000 0.00000 0.00000
  55 0.00000 0.00000 0.00000
  56 0.00000 0.00000 0.00000
  57 0.00000 0.00000 0.00000
  58 0.00000 0.00000 0.00000
  59 0.00000 0.00000 0.00000
  60 0.00000 0.00000 0.00000
  61 0.00000 0.00000 0.00000
  62 0.00000 0.00000 0.00000
  63 0.00000 0.00000 0.00000
  64 0.00000 0.00000 0.00000
  65 0.00000 0.00000 0.00000
  66 0.00000 0.00000 0.00000
</Section>

newXOutput 213

<Section columns = "stress_xx | stress_yy | stress_xy">
  1 0.00000 0.00000 0.00000
  2 0.00000 0.00000 0.00000
  3 0.00000 0.00000 0.00000
  4 0.00000 0.00000 0.00000
  5 0.00000 0.00000 0.00000
  6 0.00000 0.00000 0.00000
  7 0.00000 0.00000 0.00000
  8 0.00000 0.00000 0.00000
  9 0.00000 0.00000 0.00000
  10 0.00000 0.00000 0.00000
  11 0.00000 0.00000 0.00000
  12 0.00000 0.00000 0.00000
  13 0.00000 0.00000 0.00000
  14 0.00000 0.00000 0.00000
  15 0.00000 0.00000 0.00000
  16 0.00000 0.00000 0.00000
  17 0.00000 0.00000 0.00000
  18 0.00000 0.00000 0.00000
  19 0.00000 0.00000 0.00000
  20 0.00000 0.00000 0.00000
  21 0.00000 0.00000 0.00000
  22 0.00000 0.00000 0.00000
  23 0.00000 0.00000 0.00000
  24 0.00000 0.00000 0.00000
  25 0.00000 0.00000 0.00000
  26 0.00000 0.00000 0.00000
  27 0.00000 0.00000 0.00000
  28 0.00000 0.00000 0.00000
  29 0.00000 0.00000 0.00000
  30 0.00000 0.00000 0.00000
  31 0.00000 0.00000 0.00000
  32 0.00000 0.00000 0.00000
  33 0.00000 0.00000 0.00000
  34 0.00000 0.00000 0.00000
  35 0.00000 0.00000 0.00000
  36 0.00000 0.00000 0.00000
  37 0.00000 0.00000 0.00000
  38 0.00000 0.00000 0.00000
  39 0.00000 0.00000 0.00000
  40 0.00000 0.00000 0.00000
  41 0.00000 0.00000 0.00000
  42 0.00000 0.00000 0.00000
  43 0.00000 0.00000 0.00000
  44 0.00000 0.00000 0.00000
  45 0.00000 0.00000 0.00000
  46 0.00000 0.00000 0.00000
  47 0.00000 0.00000 0.00000
  48 0.00000 0.00000 0.00000
  49 0.00000 0.00000 0.00000
  50 0.00000 0.00000 0.00000
  51 0.00000 0.00000 0.00000
  52 0.00000 0.00000 0.00000
  53 0.00000 0.00000 0.00000
  54 0.00000 0.00000 0.00000
  55 0.00000 0.00000 0.00000
  56 0.00000 0.00000 0.00000
  57 0.00000 0.00000 0.00000
  58 0.00000 0.00000 0.00000
  59 0.00000 0.00000 0.00000
  60 0.00000 0.00000 0.00000
  61 0.00000 0.00000 0.00000
  62 0.00000 0.00000 0.00000
  63 0.00000 0.00000 0.00000
  64 0.00000 0.00000 0.00000
  65 0.00000 0.00000 0.00000
  66 0.00000 0.00000 0.00000
</Section>

newXOutput 214

<Section columns = "stress_xx | stress_yy | stress_xy">
  1 0.00000 0.00000 0.00000
  2 0.00000 0.00000 0.00000
  3 0.00000 0.00000 0.00000
  4 0.00000 0.00000 0.00000
  5 0.00000 0.00000 0.00000
  6 0.00000 0.00000 0.00000
  7 0.00000 0.00000 0.00000
  8 0.00000 0.00000 0.00000
  9 0.00000 0.00000 0.00000
  10 0.00000 0.00000 0.00000
  11 0.00000 0.00000 0.00000
  12 0.00000 0.00000 0.00000
  13 0.00000 0.00000 0.00000
  14 0.00000 0.00000 0.00000
  15 0.00000 0.00000 0.00000
  16 0.00000 0.00000 0.00000
  17 0.00000 0.00000 0.00000
  18 0.00000 0.00000 0.00000
  19 0.00000 0.00000 0.00000
  20 0.00000 0.00000 0.00000
  21 0.00000 0.00000 0.00000
  22 0.00000 0.00000 0.00000
  23 0.00000 0.00000 0.00000
  24 0.00000 0.00000 0.00000
  25 0.00000 0.00000 0.00000
  26 0.00000 0.00000 0.00000
  27 0.00000 0.00000 0.00000
  28 0.00000 0.00000 0.00000
  29 0.00000 0.00000 0.00000
  30 0.00000 0.00000 0.00000
  31 0.00000 0.00000 0.00000
  32 0.00000 0.00000 0.00000
  33 0.00000 0.00000 0.00000
  34 0.00000 0.00000 0.00000
  35 0.00000 0.00000 0.00000
  36 0.00000 0.00000 0.00000
  37 0.00000 0.00000 0.00000
  38 0.00000 0.00000 0.00000
  39 0.00000 0.00000 0.00000
  40 0.00000 0.00000 0.00000
  41 0.00000 0.00000 0.00000
  42 0.00000 0.00000 0.00000
  43 0.00000 0.00000 0.00000
  44 0.00000 0.00000 0.00000
  45 0.00000 0.00000 0.00000
  46 0.00000 0.00000 0.00000
  47 0.00000 0.00000 0.00000
  48 0.00000 0.00000 0.00000
  49 0.00000 0.00000 0.00000
  50 0.00000 0.00000 0.00000
  51 0.00000 0.00000 0.00000
  52 0.00000 0.00000 0.00000
  53 0.00000 0.00000 0.00000
  54 0.00000 0.00000 0.00000
  55 0.00000 0.00000 0.00000
  56 0.00000 0.00000 0.00000
  57 0.00000 0.00000 0.00000
  58 0.00000 0.00000 0.00000
  59 0.00000 0.00000 0.00000
  60 0.00000 0.00000 0.00000
  61 0.00000 0.00000 0.00000
  62 0.00000 0.00000 0.00000
  63 0.00000 0.00000 0.00000
  64 0.00000 0.00000 0.00000
  65 0.00000 0.00000 0.00000
  66 0.00000 0.00000 0.00000
</Section>

newXOutput 215

<Section columns = "stress_xx | stress_yy | stress_xy">
  1 0.00000 0.00000 0.00000
  2 0.00000 0.00000 0.00000
  3 0.00000 0.00000 0.00000
  4 0.00000 0.00000 0.00000
  5 0.00000 0.00000 0.00000
  6 0.00000 0.00000 0.00000
  7 0.00000 0.00000 0.00000
  8 0.00000 0.00000 0.00000
  9 0.00000 0.00000 0.00000
  10 0.00000 0.00000 0.00000
  11 0.00000 0.00000 0.00000
  12 0.00000 0.00000 0.00000
  13 0.00000 0.00000 0.00000
  14 0.00000 0.00000 0.00000
  15 0.00000 0.00000 0.00000
  16 0.00000 0.00000 0.00000
  17 0.00000 0.00000 0.00000
  18 0.00000 0.00000 0.00000
  19 0.00000 0.00000 0.00000
  20 0.00000 0.00000 0.00000
  21 0.00000 0.00000 0.00000
  22 0.00000 0.00000 0.00000
  23 0.00000 0.00000 0.00000
  24 0.00000 0.00000 0.00000
  25 0.00000 0.00000 0.00000
  26 0.00000 0.00000 0.00000
  27 0.00000 0.00000 0.00000
  28 0.00000 0.00000 0.00000
  29 0.00000 0.00000 0.00000
  30 0.00000 0.00000 0.00000
  31 0.00000 0.00000 0.00000
  32 0.00000 0.00000 0.00000
  33 0.00000 0.00000 0.00000
  34 0.00000 0.00000 0.00000
  35 0.00000 0.00000 0.00000
  36 0.00000 0.00000 0.00000
  37 0.00000 0.00000 0.00000
  38 0.00000 0.00000 0.00000
  39 0.00000 0.00000 0.00000
  40 0.00000 0.00000 0.00000
  41 0.00000 0.00000 0.00000
  42 0.00000 0.00000 0.00000
  43 0.00000 0.00000 0.00000
  44 0.00000 0.00000 0.00000
  45 0.00000 0.00000 0.00000
  46 0.00000 0.00000 0.00000
  47 0.00000 0.00000 0.00000
  48 0.00000 0.00000 0.00000
  49 0.00000 0.00000 0.00000
  50 0.00000 0.00000 0.00000
  51 0.00000 0.00000 0.00000
  52 0.00000 0.00000 0.00000
  53 0.00000 0.00000 0.00000
  54 0.00000 0.00000 0.00000
  55 0.00000 0.00000 0.00000
  56 0.00000 0.00000 0.00000
  57 0.00000 0.00000 0.00000
  58 0.00000 0.00000 0.00000
  59 0.00000 0.00000 0.00000
  60 0.00000 0.00000 0.00000
  61 0.00000 0.00000 0.00000
  62 0.00000 0.00000 0.00000
  63 0.00000 0.00000 0.00000
  64 0.00000 0.00000 0.00000
  65 0.00000 0.00000 0.00000
  66 0.00000 0.00000 0.00000
</Section>

newXOutput 216

<Section columns = "stress_xx | stress_yy | stress_xy">
  1 0.00000 0.00000 0.00000
  2 0.00000 0.00000 0.00000
  3 0.00000 0.00000 0.00000
  4 0.00000 0.00000 0.00000
  5 0.00000 0.00000 0.00000
  6 0.00000 0.00000 0.00000
  7 0.00000 0.00000 0.00000
  8 0.00000 0.00000 0.00000
  9 0.00000 0.00000 0.00000
  10 0.00000 0.00000 0.00000
  11 0.00000 0.00000 0.00000
  12 0.00000 0.00000 0.00000
  13 0.00000 0.00000 0.00000
  14 0.00000 0.00000 0.00000
  15 0.00000 0.00000 0.00000
  16 0.00000 0.00000 0.00000
  17 0.00000 0.00000 0.00000
  18 0.00000 0.00000 0.00000
  19 0.00000 0.00000 0.00000
  20 0.00000 0.00000 0.00000
  21 0.00000 0.00000 0.00000
  22 0.00000 0.00000 0.00000
  23 0.00000 0.00000 0.00000
  24 0.00000 0.00000 0.00000
  25 0.00000 0.00000 0.00000
  26 0.00000 0.00000 0.00000
  27 0.00000 0.00000 0.00000
  28 0.00000 0.00000 0.00000
  29 0.00000 0.00000 0.00000
  30 0.00000 0.00000 0.00000
  31 0.00000 0.00000 0.00000
  32 0.00000 0.00000 0.00000
  33 0.00000 0.00000 0.00000
  34 0.00000 0.00000 0.00000
  35 0.00000 0.00000 0.00000
  36 0.00000 0.00000 0.00000
  37 0.00000 0.00000 0.00000
  38 0.00000 0.00000 0.00000
  39 0.00000 0.00000 0.00000
  40 0.00000 0.00000 0.00000
  41 0.00000 0.00000 0.00000
  42 0.00000 0.00000 0.00000
  43 0.00000 0.00000 0.00000
  44 0.00000 0.00000 0.00000
  45 0.00000 0.00000 0.00000
  46 0.00000 0.00000 0.00000
  47 0.00000 0.00000 0.00000
  48 0.00000 0.00000 0.00000
  49 0.00000 0.00000 0.00000
  50 0.00000 0.00000 0.00000
  51 0.00000 0.00000 0.00000
  52 0.00000 0.00000 0.00000
  53 0.00000 0.00000 0.00000
  54 0.00000 0.00000 0.00000
  55 0.00000 0.00000 0.00000
  56 0.00000 0.00000 0.00000
  57 0.00000 0.00000 0.00000
  58 0.00000 0.00000 0.00000
  59 0.00000 0.00000 0.00000
  60 0.00000 0.00000 0.00000
  61 0.00000 0.00000 0.00000
  62 0.00000 0.00000 0.00000
  63 0.00000 0.00000 0.00000
  64 0.00000 0.00000 0.00000
  65 0.00000 0.00000 0.00000
  66 0.00000 0.00000 0.00000
</Section>

newXOutput 217

<Section columns = "stress_xx | stress_yy | stress_xy">
  1 0.00000 0.00000 0.00000
  2 0.00000 0.00000 0.00000
  3 0.00000 0.00000 0.00000
  4 0.00000 0.00000 0.00000
  5 0.00000 0.00000 0.00000
  6 0.00000 0.00000 0.00000
  7 0.00000 0.00000 0.00000
  8 0.00000 0.00000 0.00000
  9 0.00000 0.00000 0.00000
  10 0.00000 0.00000 0.00000
  11 0.00000 0.00000 0.00000
  12 0.00000 0.00000 0.00000
  13 0.00000 0.00000 0.00000
  14 0.00000 0.00000 0.00000
  15 0.00000 0.00000 0.00000
  16 0.00000 0.00000 0.00000
  17 0.00000 0.00000 0.00000
  18 0.00000 0.00000 0.00000
  19 0.00000 0.00000 0.00000
  20 0.00000 0.00000 0.00000
  21 0.00000 0.00000 0.00000
  22 0.00000 0.00000 0.00000
  23 0.00000 0.00000 0.00000
  24 0.00000 0.00000 0.00000
  25 0.00000 0.00000 0.00000
  26 0.00000 0.00000 0.00000
  27 0.00000 0.00000 0.00000
  28 0.00000 0.00000 0.00000
  29 0.00000 0.00000 0.00000
  30 0.00000 0.00000 0.00000
  31 0.00000 0.00000 0.00000
  32 0.00000 0.00000 0.00000
  33 0.00000 0.00000 0.00000
  34 0.00000 0.00000 0.00000
  35 0.00000 0.00000 0.00000
  36 0.00000 0.00000 0.00000
  37 0.00000 0.00000 0.00000
  38 0.00000 0.00000 0.00000
  39 0.00000 0.00000 0.00000
  40 0.00000 0.00000 0.00000
  41 0.00000 0.00000 0.00000
  42 0.00000 0.00000 0.00000
  43 0.00000 0.00000 0.00000
  44 0.00000 0.00000 0.00000
  45 0.00000 0.00000 0.00000
  46 0.00000 0.00000 0.00000
  47 0.00000 0.00000 0.00000
  48 0.00000 0.00000 0.00000
  49 0.00000 0.00000 0.00000
  50 0.00000 0.00000 0.00000
  51 0.00000 0.00000 0.00000
  52 0.00000 0.00000 0.00000
  53 0.00000 0.00000 0.00000
  54 0.00000 0.00000 0.00000
  55 0.00000 0.00000 0.00000
  56 0.00000 0.00000 0.00000
  57 0.00000 0.00000 0.00000
  58 0.00000 0.00000 0.00000
  59 0.00000 0.00000 0.00000
  60 0.00000 0.00000 0.00000
  61 0.00000 0.00000 0.00000
  62 0.00000 0.00000 0.00000
  63 0.00000 0.00000 0.00000
  64 0.00000 0.00000 0.00000
  65 0.00000 0.00000 0.00000
  66 0.00000 0.00000 0.00000
</Section>

newXOutput 218

<Section columns = "stress_xx | stress_yy | stress_xy">
  1 0.00000 0.00000 0.00000
  2 0.00000 0.00000 0.00000
  3 0.00000 0.00000 0.00000
  4 0.00000 0.00000 0.00000
  5 0.00000 0.00000 0.00000
  6 0.00000 0.00000 0.00000
  7 0.00000 0.00000 0.00000
  8 0.00000 0.00000 0.00000
  9 0.00000 0.00000 0.00000
  10 0.00000 0.00000 0.00000
  11 0.00000 0.00000 0.00000
  12 0.00000 0.00000 0.00000
  13 0.00000 0.00000 0.00000
  14 0.00000 0.00000 0.00000
  15 0.00000 0.00000 0.00000
  16 0.00000 0.00000 0.00000
  17 0.00000 0.00000 0.00000
  18 0.00000 0.00000 0.00000
  19 0.00000 0.00000 0.00000
  20 0.00000 0.00000 0.00000
  21 0.00000 0.00000 0.00000
  22 0.00000 0.00000 0.00000
  23 0.00000 0.00000 0.00000
  24 0.00000 0.00000 0.00000
  25 0.00000 0.00000 0.00000
  26 0.00000 0.00000 0.00000
  27 0.00000 0.00000 0.00000
  28 0.00000 0.00000 0.00000
  29 0.00000 0.00000 0.00000
  30 0.00000 0.00000 0.00000
  31 0.00000 0.00000 0.00000
  32 0.00000 0.00000 0.00000
  33 0.00000 0.00000 0.00000
  34 0.00000 0.00000 0.00000
  35 0.00000 0.00000 0.00000
  36 0.00000 0.00000 0.00000
  37 0.00000 0.00000 0.00000
  38 0.00000 0.00000 0.00000
  39 0.00000 0.00000 0.00000
  40 0.00000 0.00000 0.00000
  41 0.00000 0.00000 0.00000
  42 0.00000 0.00000 0.00000
  43 0.00000 0.00000 0.00000
  44 0.00000 0.00000 0.00000
  45 0.00000 0.00000 0.00000
  46 0.00000 0.00000 0.00000
  47 0.00000 0.00000 0.00000
  48 0.00000 0.00000 0.00000
  49 0.00000 0.00000 0.00000
  50 0.00000 0.00000 0.00000
  51 0.00000 0.00000 0.00000
  52 0.00000 0.00000 0.00000
  53 0.00000 0.00000 0.00000
  54 0.00000 0.00000 0.00000
  55 0.00000 0.00000 0.00000
  56 0.00000 0.00000 0.00000
  57 0.00000 0.00000 0.00000
  58 0.00000 0.00000 0.00000
  59 0.00000 0.00000 0.00000
  60 0.00000 0.00000 0.00000
  61 0.00000 0.00000 0.00000
  62 0.00000 0.00000 0.00000
  63 0.00000 0.00000 0.00000
  64 0.00000 0.00000 0.00000
  65 0.00000 0.00000 0.00000
  66 0.00000 0.00000 0.00000
</Section>

newXOutput 219

<Section columns = "stress_xx | stress_yy | stress_xy">
  1 0.00000 0.00000 0.00000
  2 0.00000 0.00000 0.00000
  3 0.00000 0.00000 0.00000
  4 0.00000 0.00000 0.00000
  5 0.00000 0.00000 0.00000
  6 0.00000 0.00000 0.00000
  7 0.00000 0.00000 0.00000
  8 0.00000 0.00000 0.00000
  9 0.00000 0.00000 0.00000
  10 0.00000 0.00000 0.00000
  11 0.00000 0.00000 0.00000
  12 0.00000 0.00000 0.00000
  13 0.00000 0.00000 0.00000
  14 0.00000 0.00000 0.00000
  15 0.00000 0.00000 0.00000
  16 0.00000 0.00000 0.00000
  17 0.00000 0.00000 0.00000
  18 0.00000 0.00000 0.00000
  19 0.00000 0.00000 0.00000
  20 0.00000 0.00000 0.00000
  21 0.00000 0.00000 0.00000
  22 0.00000 0.00000 0.00000
  23 0.00000 0.00000 0.00000
  24 0.00000 0.00000 0.00000
  25 0.00000 0.00000 0.00000
  26 0.00000 0.00000 0.00000
  27 0.00000 0.00000 0.00000
  28 0.00000 0.00000 0.00000
  29 0.00000 0.00000 0.00000
  30 0.00000 0.00000 0.00000
  31 0.00000 0.00000 0.00000
  32 0.00000 0.00000 0.00000
  33 0.00000 0.00000 0.00000
  34 0.00000 0.00000 0.00000
  35 0.00000 0.00000 0.00000
  36 0.00000 0.00000 0.00000
  37 0.00000 0.00000 0.00000
  38 0.00000 0.00000 0.00000
  39 0.00000 0.00000 0.00000
  40 0.00000 0.00000 0.00000
  41 0.00000 0.00000 0.00000
  42 0.00000 0.00000 0.00000
  43 0.00000 0.00000 0.00000
  44 0.00000 0.00000 0.00000
  45 0.00000 0.00000 0.00000
  46 0.00000 0.00000 0.00000
  47 0.00000 0.00000 0.00000
  48 0.00000 0.00000 0.00000
  49 0.00000 0.00000 0.00000
  50 0.00000 0.00000 0.00000
  51 0.00000 0.00000 0.00000
  52 0.00000 0.00000 0.00000
  53 0.00000 0.00000 0.00000
  54 0.00000 0.00000 0.00000
  55 0.00000 0.00000 0.00000
  56 0.00000 0.00000 0.00000
  57 0.00000 0.00000 0.00000
  58 0.00000 0.00000 0.00000
  59 0.00000 0.00000 0.00000
  60 0.00000 0.00000 0.00000
  61 0.00000 0.00000 0.00000
  62 0.00000 0.00000 0.00000
  63 0.00000 0.00000 0.00000
  64 0.00000 0.00000 0.00000
  65 0.00000 0.00000 0.00000
  66 0.00000 0.00000 0.00000
</Section>

newXOutput 220

<Section columns = "stress_xx | stress_yy | stress_xy">
  1 0.00000 0.00000 0.00000
  2 0.00000 0.00000 0.00000
  3 0.00000 0.00000 0.00000
  4 0.00000 0.00000 0.00000
  5 0.00000 0.00000 0.00000
  6 0.00000 0.00000 0.00000
  7 0.00000 0.00000 0.00000
  8 0.00000 0.00000 0.00000
  9 0.00000 0.00000 0.00000
  10 0.00000 0.00000 0.00000
  11 0.00000 0.00000 0.00000
  12 0.00000 0.00000 0.00000
  13 0.00000 0.00000 0.00000
  14 0.00000 0.00000 0.00000
  15 0.00000 0.00000 0.00000
  16 0.00000 0.00000 0.00000
  17 0.00000 0.00000 0.00000
  18 0.00000 0.00000 0.00000
  19 0.00000 0.00000 0.00000
  20 0.00000 0.00000 0.00000
  21 0.00000 0.00000 0.00000
  22 0.00000 0.00000 0.00000
  23 0.00000 0.00000 0.00000
  24 0.00000 0.00000 0.00000
  25 0.00000 0.00000 0.00000
  26 0.00000 0.00000 0.00000
  27 0.00000 0.00000 0.00000
  28 0.00000 0.00000 0.00000
  29 0.00000 0.00000 0.00000
  30 0.00000 0.00000 0.00000
  31 0.00000 0.00000 0.00000
  32 0.00000 0.00000 0.00000
  33 0.00000 0.00000 0.00000
  34 0.00000 0.00000 0.00000
  35 0.00000 0.00000 0.00000
  36 0.00000 0.00000 0.00000
  37 0.00000 0.00000 0.00000
  38 0.00000 0.00000 0.00000
  39 0.00000 0.00000 0.00000
  40 0.00000 0.00000 0.00000
  41 0.00000 0.00000 0.00000
  42 0.00000 0.00000 0.00000
  43 0.00000 0.00000 0.00000
  44 0.00000 0.00000 0.00000
  45 0.00000 0.00000 0.00000
  46 0.00000 0.00000 0.00000
  47 0.00000 0.00000 0.00000
  48 0.00000 0.00000 0.00000
  49 0.00000 0.00000 0.00000
  50 0.00000 0.00000 0.00000
  51 0.00000 0.00000 0.00000
  52 0.00000 0.00000 0.00000
  53 0.00000 0.00000 0.00000
  54 0.00000 0.00000 0.00000
  55 0.00000 0.00000 0.00000
  56 0.00000 0.00000 0.00000
  57 0.00000 0.00000 0.00000
  58 0.00000 0.00000 0.00000
  59 0.00000 0.00000 0.00000
  60 0.00000 0.00000 0.00000
  61 0.00000 0.00000 0.00000
  62 0.00000 0.00000 0.00000
  63 0.00000 0.00000 0.00000
  64 0.00000 0.00000 0.00000
  65 0.00000 0.00000 0.00000
  66 0.00000 0.00000 0.00000
</Section>

newXOutput 221

<Section columns = "stress_xx | stress_yy | stress_xy">
  1 0.00000 0.00000 0.00000
  2 0.00000 0.00000 0.00000
  3 0.00000 0.00000 0.00000
  4 0.00000 0.00000 0.00000
  5 0.00000 0.00000 0.00000
  6 0.00000 0.00000 0.00000
  7 0.00000 0.00000 0.00000
  8 0.00000 0.00000 0.00000
  9 0.00000 0.00000 0.00000
  10 0.00000 0.00000 0.00000
  11 0.00000 0.00000 0.00000
  12 0.00000 0.00000 0.00000
  13 0.00000 0.00000 0.00000
  14 0.00000 0.00000 0.00000
  15 0.00000 0.00000 0.00000
  16 0.00000 0.00000 0.00000
  17 0.00000 0.00000 0.00000
  18 0.00000 0.00000 0.00000
  19 0.00000 0.00000 0.00000
  20 0.00000 0.00000 0.00000
  21 0.00000 0.00000 0.00000
  22 0.00000 0.00000 0.00000
  23 0.00000 0.00000 0.00000
  24 0.00000 0.00000 0.00000
  25 0.00000 0.00000 0.00000
  26 0.00000 0.00000 0.00000
  27 0.00000 0.00000 0.00000
  28 0.00000 0.00000 0.00000
  29 0.00000 0.00000 0.00000
  30 0.00000 0.00000 0.00000
  31 0.00000 0.00000 0.00000
  32 0.00000 0.00000 0.00000
  33 0.00000 0.00000 0.00000
  34 0.00000 0.00000 0.00000
  35 0.00000 0.00000 0.00000
  36 0.00000 0.00000 0.00000
  37 0.00000 0.00000 0.00000
  38 0.00000 0.00000 0.00000
  39 0.00000 0.00000 0.00000
  40 0.00000 0.00000 0.00000
  41 0.00000 0.00000 0.00000
  42 0.00000 0.00000 0.00000
  43 0.00000 0.00000 0.00000
  44 0.00000 0.00000 0.00000
  45 0.00000 0.00000 0.00000
  46 0.00000 0.00000 0.00000
  47 0.00000 0.00000 0.00000
  48 0.00000 0.00000 0.00000
  49 0.00000 0.00000 0.00000
  50 0.00000 0.00000 0.00000
  51 0.00000 0.00000 0.00000
  52 0.00000 0.00000 0.00000
  53 0.00000 0.00000 0.00000
  54 0.00000 0.00000 0.00000
  55 0.00000 0.00000 0.00000
  56 0.00000 0.00000 0.00000
  57 0.00000 0.00000 0.00000
  58 0.00000 0.00000 0.00000
  59 0.00000 0.00000 0.00000
  60 0.00000 0.00000 0.00000
  61 0.00000 0.00000 0.00000
  62 0.00000 0.00000 0.00000
  63 0.00000 0.00000 0.00000
  64 0.00000 0.00000 0.00000
  65 0.00000 0.00000 0.00000
  66 0.00000 0.00000 0.00000
</Section>

newXOutput 222

<Section columns = "stress_xx | stress_yy | stress_xy">
  1 0.00000 0.00000 0.00000
  2 0.00000 0.00000 0.00000
  3 0.00000 0.00000 0.00000
  4 0.00000 0.00000 0.00000
  5 0.00000 0.00000 0.00000
  6 0.00000 0.00000 0.00000
  7 0.00000 0.00000 0.00000
  8 0.00000 0.00000 0.00000
  9 0.00000 0.00000 0.00000
  10 0.00000 0.00000 0.00000
  11 0.00000 0.00000 0.00000
  12 0.00000 0.00000 0.00000
  13 0.00000 0.00000 0.00000
  14 0.00000 0.00000 0.00000
  15 0.00000 0.00000 0.00000
  16 0.00000 0.00000 0.00000
  17 0.00000 0.00000 0.00000
  18 0.00000 0.00000 0.00000
  19 0.00000 0.00000 0.00000
  20 0.00000 0.00000 0.00000
  21 0.00000 0.00000 0.00000
  22 0.00000 0.00000 0.00000
  23 0.00000 0.00000 0.00000
  24 0.00000 0.00000 0.00000
  25 0.00000 0.00000 0.00000
  26 0.00000 0.00000 0.00000
  27 0.00000 0.00000 0.00000
  28 0.00000 0.00000 0.00000
  29 0.00000 0.00000 0.00000
  30 0.00000 0.00000 0.00000
  31 0.00000 0.00000 0.00000
  32 0.00000 0.00000 0.00000
  33 0.00000 0.00000 0.00000
  34 0.00000 0.00000 0.00000
  35 0.00000 0.00000 0.00000
  36 0.00000 0.00000 0.00000
  37 0.00000 0.00000 0.00000
  38 0.00000 0.00000 0.00000
  39 0.00000 0.00000 0.00000
  40 0.00000 0.00000 0.00000
  41 0.00000 0.00000 0.00000
  42 0.00000 0.00000 0.00000
  43 0.00000 0.00000 0.00000
  44 0.00000 0.00000 0.00000
  45 0.00000 0.00000 0.00000
  46 0.00000 0.00000 0.00000
  47 0.00000 0.00000 0.00000
  48 0.00000 0.00000 0.00000
  49 0.00000 0.00000 0.00000
  50 0.00000 0.00000 0.00000
  51 0.00000 0.00000 0.00000
  52 0.00000 0.00000 0.00000
  53 0.00000 0.00000 0.00000
  54 0.00000 0.00000 0.00000
  55 0.00000 0.00000 0.00000
  56 0.00000 0.00000 0.00000
  57 0.00000 0.00000 0.00000
  58 0.00000 0.00000 0.00000
  59 0.00000 0.00000 0.00000
  60 0.00000 0.00000 0.00000
  61 0.00000 0.00000 0.00000
  62 0.00000 0.00000 0.00000
  63 0.00000 0.00000 0.00000
  64 0.00000 0.00000 0.00000
  65 0.00000 0.00000 0.00000
  66 0.00000 0.00000 0.00000
</Section>

