newXOutput 1

<Section columns = "stress_xx | stress_yy | stress_xy">
  1 0.00000 0.00000 0.00000
  2 0.00000 0.00000 0.00000
  3 0.00000 0.00000 0.00000
  4 0.00000 0.00000 0.00000
  5 0.00000 0.00000 0.00000
  6 0.00000 0.00000 0.00000
  7 0.00000 0.00000 0.00000
  8 0.00000 0.00000 0.00000
  9 0.00000 0.00000 0.00000
  10 0.00000 0.00000 0.00000
  11 0.00000 0.00000 0.00000
  12 0.00000 0.00000 0.00000
  13 0.00000 0.00000 0.00000
  14 0.00000 0.00000 0.00000
  15 0.00000 0.00000 0.00000
  16 0.00000 0.00000 0.00000
  17 0.00000 0.00000 0.00000
  18 0.00000 0.00000 0.00000
  19 0.00000 0.00000 0.00000
  20 0.00000 0.00000 0.00000
  21 0.00000 0.00000 0.00000
  22 0.00000 0.00000 0.00000
  23 0.00000 0.00000 0.00000
  24 0.00000 0.00000 0.00000
  25 0.00000 0.00000 0.00000
  26 0.00000 0.00000 0.00000
  27 0.00000 0.00000 0.00000
  28 0.00000 0.00000 0.00000
  29 0.00000 0.00000 0.00000
  30 0.00000 0.00000 0.00000
  31 0.00000 0.00000 0.00000
  32 0.00000 0.00000 0.00000
  33 0.00000 0.00000 0.00000
  34 0.00000 0.00000 0.00000
  35 0.00000 0.00000 0.00000
  36 0.00000 0.00000 0.00000
  37 0.00000 0.00000 0.00000
  38 0.00000 0.00000 0.00000
  39 0.00000 0.00000 0.00000
  40 0.00000 0.00000 0.00000
  41 0.00000 0.00000 0.00000
  42 0.00000 0.00000 0.00000
  43 0.00000 0.00000 0.00000
  44 0.00000 0.00000 0.00000
  45 0.00000 0.00000 0.00000
  46 0.00000 0.00000 0.00000
  47 0.00000 0.00000 0.00000
  48 0.00000 0.00000 0.00000
  49 0.00000 0.00000 0.00000
  50 0.00000 0.00000 0.00000
  51 0.00000 0.00000 0.00000
  52 0.00000 0.00000 0.00000
  53 0.00000 0.00000 0.00000
  54 0.00000 0.00000 0.00000
  55 0.00000 0.00000 0.00000
  56 0.00000 0.00000 0.00000
  57 0.00000 0.00000 0.00000
  58 0.00000 0.00000 0.00000
  59 0.00000 0.00000 0.00000
  60 0.00000 0.00000 0.00000
  61 0.00000 0.00000 0.00000
  62 0.00000 0.00000 0.00000
  63 0.00000 0.00000 0.00000
  64 0.00000 0.00000 0.00000
  65 0.00000 0.00000 0.00000
  66 0.00000 0.00000 0.00000
</Section>

newXOutput 2

<Section columns = "stress_xx | stress_yy | stress_xy">
  1 19.4169 0.00000 6.40811e-16
  2 19.4169 0.00000 6.49651e-15
  3 19.4169 0.00000 3.55457e-14
  4 19.4169 0.00000 -2.31392e-15
  5 19.4169 0.00000 3.23317e-15
  6 19.4169 0.00000 2.35701e-15
  7 19.4169 0.00000 -3.73018e-15
  8 19.4169 0.00000 -5.24856e-15
  9 19.4169 0.00000 -4.10399e-15
  10 19.4169 0.00000 -6.53018e-15
  11 19.4169 0.00000 -2.62007e-15
  12 19.4169 0.00000 -4.65091e-16
  13 19.4169 0.00000 1.16791e-14
  14 19.4169 0.00000 3.90239e-15
  15 19.4169 0.00000 1.27010e-14
  16 19.4169 0.00000 1.72548e-14
  17 19.4169 0.00000 2.87493e-14
  18 19.4169 0.00000 -3.00113e-16
  19 19.4169 0.00000 -3.49155e-15
  20 19.4169 0.00000 -1.65982e-14
  21 19.4169 0.00000 -3.34556e-15
  22 19.4169 0.00000 -2.87302e-15
  23 19.4169 0.00000 -2.05780e-15
  24 19.4169 0.00000 8.05434e-17
  25 19.4169 0.00000 -1.48306e-15
  26 19.4169 0.00000 -2.21672e-16
  27 19.4169 0.00000 -3.25667e-16
  28 19.4169 0.00000 1.02812e-15
  29 19.4169 0.00000 -8.10419e-15
  30 19.4169 0.00000 2.16398e-14
  31 19.4169 0.00000 4.51727e-15
  32 19.4169 0.00000 2.37099e-14
  33 19.4169 0.00000 -8.73672e-15
  34 19.4169 0.00000 -2.82637e-15
  35 19.4169 0.00000 -2.46318e-15
  36 19.4169 0.00000 1.50277e-14
  37 19.4169 0.00000 7.86025e-15
  38 19.4169 0.00000 -5.98263e-16
  39 19.4169 0.00000 -5.32555e-15
  40 19.4169 0.00000 5.85495e-15
  41 19.4169 0.00000 7.74345e-15
  42 19.4169 0.00000 1.94969e-14
  43 19.4169 0.00000 5.28403e-15
  44 19.4169 0.00000 -3.11462e-15
  45 19.4169 0.00000 -5.01502e-15
  46 19.4169 0.00000 2.60781e-15
  47 19.4169 0.00000 7.59110e-15
  48 19.4169 0.00000 -7.02771e-16
  49 19.4169 0.00000 1.31706e-14
  50 19.4169 0.00000 -8.45045e-16
  51 19.4169 0.00000 1.35449e-14
  52 19.4169 0.00000 -8.38179e-15
  53 19.4169 0.00000 2.27170e-14
  54 19.4169 0.00000 1.14025e-14
  55 19.4169 0.00000 7.18720e-16
  56 19.4169 0.00000 2.09130e-14
  57 19.4169 0.00000 -1.04496e-15
  58 19.4169 0.00000 -1.47302e-15
  59 19.4169 0.00000 -2.46907e-15
  60 19.4169 0.00000 1.96510e-14
  61 19.4169 0.00000 -7.63871e-15
  62 19.4169 0.00000 -5.72736e-16
  63 19.4169 0.00000 1.04939e-15
  64 19.4169 0.00000 2.98090e-15
  65 19.4169 0.00000 -3.15166e-15
  66 19.4169 0.00000 3.12146e-15
</Section>

newXOutput 3

<Section columns = "stress_xx | stress_yy | stress_xy">
  1 38.8763 0.00000 -7.86358e-15
  2 38.8763 0.00000 -2.99988e-14
  3 38.8763 0.00000 -2.42210e-14
  4 38.8763 0.00000 -7.79203e-15
  5 38.8763 0.00000 2.49937e-15
  6 38.8763 0.00000 3.29048e-15
  7 38.8763 0.00000 5.38589e-15
  8 38.8763 0.00000 3.14765e-15
  9 38.8763 0.00000 -1.30403e-14
  10 38.8763 0.00000 -3.67891e-14
  11 38.8763 0.00000 -2.76633e-14
  12 38.8763 0.00000 -4.31762e-14
  13 38.8763 0.00000 -4.52604e-14
  14 38.8763 0.00000 -2.17607e-14
  15 38.8763 0.00000 -8.47792e-15
  16 38.8763 0.00000 -8.00168e-15
  17 38.8763 0.00000 -7.91856e-15
  18 38.8763 0.00000 4.45724e-16
  19 38.8763 0.00000 -6.39607e-15
  20 38.8763 0.00000 -3.06448e-14
  21 38.8763 0.00000 -1.81546e-14
  22 38.8763 0.00000 -1.02234e-14
  23 38.8763 0.00000 -8.45070e-15
  24 38.8763 0.00000 -4.72165e-15
  25 38.8763 0.00000 -2.65637e-15
  26 38.8763 0.00000 -4.80622e-15
  27 38.8763 0.00000 -5.86933e-15
  28 38.8763 0.00000 -4.15547e-15
  29 38.8763 0.00000 3.75392e-15
  30 38.8763 0.00000 1.58443e-14
  31 38.8763 0.00000 1.29374e-14
  32 38.8763 0.00000 2.18448e-14
  33 38.8763 0.00000 -4.90435e-14
  34 38.8763 0.00000 -7.08592e-15
  35 38.8763 0.00000 -1.41780e-16
  36 38.8763 0.00000 6.07546e-15
  37 38.8763 0.00000 5.37892e-15
  38 38.8763 0.00000 1.55897e-14
  39 38.8763 0.00000 -4.52294e-15
  40 38.8763 0.00000 1.59774e-14
  41 38.8763 0.00000 4.66619e-15
  42 38.8763 0.00000 8.97847e-15
  43 38.8763 0.00000 -1.44974e-14
  44 38.8763 0.00000 6.16251e-15
  45 38.8763 0.00000 -6.82355e-15
  46 38.8763 0.00000 1.19414e-14
  47 38.8763 0.00000 1.27230e-14
  48 38.8763 0.00000 -3.16956e-15
  49 38.8763 0.00000 -9.45149e-15
  50 38.8763 0.00000 -1.37781e-15
  51 38.8763 0.00000 6.80150e-15
  52 38.8763 0.00000 7.63518e-15
  53 38.8763 0.00000 5.35538e-15
  54 38.8763 0.00000 5.87869e-15
  55 38.8763 0.00000 2.88745e-17
  56 38.8763 0.00000 -1.54456e-14
  57 38.8763 0.00000 -5.00983e-14
  58 38.8763 0.00000 -4.53239e-15
  59 38.8763 0.00000 4.10212e-16
  60 38.8763 0.00000 2.35904e-14
  61 38.8763 0.00000 -6.34842e-14
  62 38.8763 0.00000 -4.35294e-15
  63 38.8763 0.00000 2.13570e-15
  64 38.8763 0.00000 -8.02599e-15
  65 38.8763 0.00000 -9.42781e-15
  66 38.8763 0.00000 -3.04594e-15
</Section>

newXOutput 4

<Section columns = "stress_xx | stress_yy | stress_xy">
  1 58.3429 0.00000 -6.59888e-15
  2 58.3429 0.00000 -1.00767e-16
  3 58.3429 0.00000 -6.99816e-14
  4 58.3429 0.00000 -7.06770e-15
  5 58.3429 0.00000 -2.78399e-15
  6 58.3429 0.00000 5.55718e-16
  7 58.3429 0.00000 -8.28898e-15
  8 58.3429 0.00000 -9.26876e-15
  9 58.3429 0.00000 3.32576e-15
  10 58.3429 0.00000 -3.21644e-15
  11 58.3429 0.00000 -5.15013e-15
  12 58.3429 0.00000 -8.20501e-15
  13 58.3429 0.00000 -3.68399e-15
  14 58.3429 0.00000 -2.86967e-14
  15 58.3429 0.00000 -5.22369e-15
  16 58.3429 0.00000 -2.62944e-14
  17 58.3429 0.00000 -2.44013e-14
  18 58.3429 0.00000 1.72933e-14
  19 58.3429 0.00000 2.76933e-15
  20 58.3429 0.00000 -3.44627e-14
  21 58.3429 0.00000 -1.53791e-14
  22 58.3429 0.00000 1.53852e-15
  23 58.3429 0.00000 -5.84433e-15
  24 58.3429 0.00000 4.16647e-17
  25 58.3429 0.00000 -5.01728e-16
  26 58.3429 0.00000 -2.22272e-15
  27 58.3429 0.00000 0.00000
  28 58.3429 0.00000 -2.32735e-15
  29 58.3429 0.00000 -4.23999e-15
  30 58.3429 0.00000 -8.88813e-15
  31 58.3429 0.00000 5.44572e-15
  32 58.3429 0.00000 1.56983e-14
  33 58.3429 0.00000 -2.08275e-14
  34 58.3429 0.00000 1.13998e-15
  35 58.3429 0.00000 -5.26271e-15
  36 58.3429 0.00000 -8.00724e-15
  37 58.3429 0.00000 9.40931e-15
  38 58.3429 0.00000 -8.04998e-15
  39 58.3429 0.00000 6.92715e-15
  40 58.3429 0.00000 1.11462e-14
  41 58.3429 0.00000 -3.31058e-15
  42 58.3429 0.00000 1.07489e-14
  43 58.3429 0.00000 -7.42416e-15
  44 58.3429 0.00000 -1.04343e-15
  45 58.3429 0.00000 8.93855e-16
  46 58.3429 0.00000 -6.25796e-15
  47 58.3429 0.00000 -4.92424e-15
  48 58.3429 0.00000 5.55758e-15
  49 58.3429 0.00000 -1.17568e-14
  50 58.3429 0.00000 -8.29176e-16
  51 58.3429 0.00000 1.83267e-14
  52 58.3429 0.00000 4.35894e-15
  53 58.3429 0.00000 7.93612e-15
  54 58.3429 0.00000 -2.61750e-15
  55 58.3429 0.00000 -3.01827e-15
  56 58.3429 0.00000 -2.21180e-14
  57 58.3429 0.00000 -2.28977e-14
  58 58.3429 0.00000 -1.91771e-16
  59 58.3429 0.00000 9.13534e-16
  60 58.3429 0.00000 -2.85285e-15
  61 58.3429 0.00000 -1.90194e-14
  62 58.3429 0.00000 1.53413e-15
  63 58.3429 0.00000 -1.68402e-15
  64 58.3429 0.00000 -1.17626e-14
  65 58.3429 0.00000 7.70291e-15
  66 58.3429 0.00000 -1.82912e-14
</Section>

newXOutput 5

<Section columns = "stress_xx | stress_yy | stress_xy">
  1 77.8169 0.00000 -7.97962e-15
  2 77.8169 0.00000 2.32672e-14
  3 77.8169 0.00000 1.44108e-14
  4 77.8169 0.00000 -1.18816e-14
  5 77.8169 0.00000 3.10619e-15
  6 77.8169 0.00000 3.67004e-15
  7 77.8169 0.00000 -4.38234e-15
  8 77.8169 0.00000 -4.51667e-15
  9 77.8169 0.00000 2.60984e-14
  10 77.8169 0.00000 2.46733e-14
  11 77.8169 0.00000 -1.81735e-14
  12 77.8169 0.00000 3.89787e-14
  13 77.8169 0.00000 4.81882e-14
  14 77.8169 0.00000 3.39724e-15
  15 77.8169 0.00000 1.56906e-14
  16 77.8169 0.00000 2.90228e-14
  17 77.8169 0.00000 1.78863e-14
  18 77.8169 0.00000 3.42808e-14
  19 77.8169 0.00000 -1.79693e-14
  20 77.8169 0.00000 -3.85616e-14
  21 77.8169 0.00000 -2.64901e-14
  22 77.8169 0.00000 -1.38743e-14
  23 77.8169 0.00000 -1.38424e-14
  24 77.8169 0.00000 -9.04421e-15
  25 77.8169 0.00000 -8.30393e-15
  26 77.8169 0.00000 -4.00660e-15
  27 77.8169 0.00000 -2.61510e-15
  28 77.8169 0.00000 -1.83295e-15
  29 77.8169 0.00000 3.41064e-16
  30 77.8169 0.00000 -6.20589e-15
  31 77.8169 0.00000 7.58582e-15
  32 77.8169 0.00000 -6.64591e-15
  33 77.8169 0.00000 1.55486e-14
  34 77.8169 0.00000 -2.19805e-15
  35 77.8169 0.00000 -3.38791e-15
  36 77.8169 0.00000 6.20819e-15
  37 77.8169 0.00000 -5.34135e-15
  38 77.8169 0.00000 3.53012e-15
  39 77.8169 0.00000 -3.87055e-15
  40 77.8169 0.00000 7.83890e-15
  41 77.8169 0.00000 -9.01081e-15
  42 77.8169 0.00000 -1.22140e-14
  43 77.8169 0.00000 1.59170e-14
  44 77.8169 0.00000 -1.51220e-15
  45 77.8169 0.00000 -4.84974e-15
  46 77.8169 0.00000 9.02514e-15
  47 77.8169 0.00000 -9.58061e-15
  48 77.8169 0.00000 -1.06888e-14
  49 77.8169 0.00000 1.42442e-14
  50 77.8169 0.00000 -7.57946e-16
  51 77.8169 0.00000 4.30182e-15
  52 77.8169 0.00000 3.59209e-15
  53 77.8169 0.00000 7.32067e-15
  54 77.8169 0.00000 -2.32956e-14
  55 77.8169 0.00000 1.44796e-16
  56 77.8169 0.00000 2.17510e-14
  57 77.8169 0.00000 1.97300e-14
  58 77.8169 0.00000 -2.81293e-15
  59 77.8169 0.00000 5.97894e-16
  60 77.8169 0.00000 -7.70831e-15
  61 77.8169 0.00000 4.15250e-14
  62 77.8169 0.00000 -2.53481e-15
  63 77.8169 0.00000 4.03657e-15
  64 77.8169 0.00000 2.51162e-14
  65 77.8169 0.00000 -7.30431e-15
  66 77.8169 0.00000 -1.44650e-14
</Section>

newXOutput 6

<Section columns = "stress_xx | stress_yy | stress_xy">
  1 97.2981 0.00000 5.33744e-14
  2 97.2981 0.00000 9.58714e-14
  3 97.2981 0.00000 -1.04405e-14
  4 97.2981 0.00000 2.12755e-14
  5 97.2981 0.00000 -9.40646e-15
  6 97.2981 0.00000 -3.32672e-14
  7 97.2981 0.00000 1.86975e-14
  8 97.2981 0.00000 -1.53882e-14
  9 97.2981 0.00000 -1.47918e-14
  10 97.2981 0.00000 -2.77776e-13
  11 97.2981 0.00000 -5.86662e-14
  12 97.2981 0.00000 -1.42832e-13
  13 97.2981 0.00000 1.40775e-13
  14 97.2981 0.00000 -4.33033e-14
  15 97.2981 0.00000 -1.83284e-14
  16 97.2981 0.00000 -2.53050e-14
  17 97.2981 0.00000 -8.51150e-15
  18 97.2981 0.00000 -4.57428e-14
  19 97.2981 0.00000 1.18098e-13
  20 97.2981 0.00000 2.06009e-13
  21 97.2981 0.00000 3.41587e-13
  22 97.2981 0.00000 9.29473e-14
  23 97.2981 0.00000 2.96200e-14
  24 97.2981 0.00000 -8.31574e-15
  25 97.2981 0.00000 1.98726e-14
  26 97.2981 0.00000 2.28743e-14
  27 97.2981 0.00000 1.83284e-14
  28 97.2981 0.00000 2.61310e-15
  29 97.2981 0.00000 2.33062e-14
  30 97.2981 0.00000 1.23421e-13
  31 97.2981 0.00000 -8.47923e-14
  32 97.2981 0.00000 5.22334e-14
  33 97.2981 0.00000 -4.24351e-14
  34 97.2981 0.00000 1.79685e-13
  35 97.2981 0.00000 -1.49660e-13
  36 97.2981 0.00000 9.16475e-15
  37 97.2981 0.00000 -5.00679e-14
  38 97.2981 0.00000 -1.69003e-14
  39 97.2981 0.00000 -2.03847e-14
  40 97.2981 0.00000 -3.92786e-14
  41 97.2981 0.00000 2.94785e-14
  42 97.2981 0.00000 1.04962e-13
  43 97.2981 0.00000 6.25080e-16
  44 97.2981 0.00000 -9.54820e-14
  45 97.2981 0.00000 9.92517e-14
  46 97.2981 0.00000 5.77287e-14
  47 97.2981 0.00000 1.95131e-14
  48 97.2981 0.00000 8.10858e-14
  49 97.2981 0.00000 -4.16898e-14
  50 97.2981 0.00000 -1.40103e-14
  51 97.2981 0.00000 -1.60901e-13
  52 97.2981 0.00000 -4.57195e-14
  53 97.2981 0.00000 3.22374e-14
  54 97.2981 0.00000 1.74596e-13
  55 97.2981 0.00000 -4.48215e-14
  56 97.2981 0.00000 -6.30251e-15
  57 97.2981 0.00000 1.47324e-14
  58 97.2981 0.00000 5.66271e-14
  59 97.2981 0.00000 -1.70813e-14
  60 97.2981 0.00000 2.50372e-14
  61 97.2981 0.00000 -4.00382e-14
  62 97.2981 0.00000 4.54388e-14
  63 97.2981 0.00000 -4.46169e-14
  64 97.2981 0.00000 -3.15648e-14
  65 97.2981 0.00000 4.83623e-14
  66 97.2981 0.00000 9.75909e-14
</Section>

newXOutput 7

<Section columns = "stress_xx | stress_yy | stress_xy">
  1 116.787 0.00000 -3.43075e-14
  2 116.787 0.00000 -8.91344e-14
  3 116.787 0.00000 -2.55198e-14
  4 116.787 0.00000 6.85459e-15
  5 116.787 0.00000 -2.50392e-14
  6 116.787 0.00000 -4.31546e-14
  7 116.787 0.00000 -4.55069e-14
  8 116.787 0.00000 -3.73391e-14
  9 116.787 0.00000 -3.58943e-14
  10 116.787 0.00000 -1.00225e-13
  11 116.787 0.00000 -5.44366e-15
  12 116.787 0.00000 -3.60294e-14
  13 116.787 0.00000 -3.54248e-14
  14 116.787 0.00000 -2.98458e-14
  15 116.787 0.00000 5.24320e-15
  16 116.787 0.00000 -1.09233e-15
  17 116.787 0.00000 2.91567e-14
  18 116.787 0.00000 5.60154e-14
  19 116.787 0.00000 -3.18113e-14
  20 116.787 0.00000 -7.58393e-14
  21 116.787 0.00000 -2.06459e-13
  22 116.787 0.00000 -5.90356e-14
  23 116.787 0.00000 -6.63017e-14
  24 116.787 0.00000 -4.21580e-14
  25 116.787 0.00000 -2.61125e-14
  26 116.787 0.00000 -1.30408e-14
  27 116.787 0.00000 -5.24320e-15
  28 116.787 0.00000 7.32747e-15
  29 116.787 0.00000 3.56311e-14
  30 116.787 0.00000 -2.61545e-14
  31 116.787 0.00000 1.46160e-14
  32 116.787 0.00000 -1.09274e-13
  33 116.787 0.00000 1.77550e-15
  34 116.787 0.00000 -1.48597e-13
  35 116.787 0.00000 1.30422e-13
  36 116.787 0.00000 -4.29741e-14
  37 116.787 0.00000 6.80333e-14
  38 116.787 0.00000 1.97693e-14
  39 116.787 0.00000 -2.77844e-14
  40 116.787 0.00000 1.28033e-13
  41 116.787 0.00000 -1.31917e-13
  42 116.787 0.00000 -1.15820e-13
  43 116.787 0.00000 -2.30924e-14
  44 116.787 0.00000 -7.26869e-15
  45 116.787 0.00000 3.15384e-15
  46 116.787 0.00000 -1.56766e-14
  47 116.787 0.00000 -2.05126e-14
  48 116.787 0.00000 -1.69754e-13
  49 116.787 0.00000 2.65127e-14
  50 116.787 0.00000 2.68401e-16
  51 116.787 0.00000 -3.07062e-15
  52 116.787 0.00000 7.41973e-14
  53 116.787 0.00000 -8.43147e-14
  54 116.787 0.00000 -1.66389e-13
  55 116.787 0.00000 2.74100e-14
  56 116.787 0.00000 -1.41447e-14
  57 116.787 0.00000 -4.55922e-14
  58 116.787 0.00000 -4.57210e-14
  59 116.787 0.00000 2.18100e-14
  60 116.787 0.00000 4.25770e-14
  61 116.787 0.00000 -7.09442e-14
  62 116.787 0.00000 -4.68154e-14
  63 116.787 0.00000 -2.29795e-15
  64 116.787 0.00000 -7.32431e-16
  65 116.787 0.00000 7.35885e-14
  66 116.787 0.00000 -1.18920e-13
</Section>

newXOutput 8

<Section columns = "stress_xx | stress_yy | stress_xy">
  1 136.283 0.00000 1.05582e-14
  2 136.283 0.00000 1.48087e-14
  3 136.283 0.00000 -2.14004e-14
  4 136.283 0.00000 -8.94528e-15
  5 136.283 0.00000 3.49589e-14
  6 136.283 0.00000 5.02965e-14
  7 136.283 0.00000 1.94315e-14
  8 136.283 0.00000 4.65287e-14
  9 136.283 0.00000 -2.35262e-14
  10 136.283 0.00000 -1.27404e-13
  11 136.283 0.00000 1.01855e-14
  12 136.283 0.00000 1.50073e-13
  13 136.283 0.00000 1.26750e-13
  14 136.283 0.00000 3.96208e-14
  15 136.283 0.00000 2.36237e-14
  16 136.283 0.00000 6.99961e-15
  17 136.283 0.00000 -8.02672e-14
  18 136.283 0.00000 -5.86200e-15
  19 136.283 0.00000 -8.08179e-15
  20 136.283 0.00000 6.91725e-14
  21 136.283 0.00000 6.70802e-14
  22 136.283 0.00000 -1.42621e-13
  23 136.283 0.00000 2.70394e-14
  24 136.283 0.00000 -1.40864e-14
  25 136.283 0.00000 -1.46233e-15
  26 136.283 0.00000 -6.32058e-15
  27 136.283 0.00000 -1.04994e-14
  28 136.283 0.00000 -9.58528e-15
  29 136.283 0.00000 -3.48774e-14
  30 136.283 0.00000 3.72318e-14
  31 136.283 0.00000 3.96493e-14
  32 136.283 0.00000 -1.29306e-14
  33 136.283 0.00000 -4.04739e-14
  34 136.283 0.00000 4.94782e-14
  35 136.283 0.00000 -5.29318e-14
  36 136.283 0.00000 -8.14895e-15
  37 136.283 0.00000 3.36311e-14
  38 136.283 0.00000 1.22339e-13
  39 136.283 0.00000 -9.67626e-14
  40 136.283 0.00000 8.08281e-14
  41 136.283 0.00000 3.99536e-14
  42 136.283 0.00000 -3.93095e-14
  43 136.283 0.00000 2.16999e-14
  44 136.283 0.00000 6.38789e-14
  45 136.283 0.00000 -7.07952e-14
  46 136.283 0.00000 6.35018e-14
  47 136.283 0.00000 1.02387e-14
  48 136.283 0.00000 3.18057e-14
  49 136.283 0.00000 3.71200e-14
  50 136.283 0.00000 -1.00342e-14
  51 136.283 0.00000 8.84415e-14
  52 136.283 0.00000 -5.07132e-14
  53 136.283 0.00000 1.16281e-13
  54 136.283 0.00000 -1.03980e-13
  55 136.283 0.00000 -2.08942e-15
  56 136.283 0.00000 -4.41621e-14
  57 136.283 0.00000 4.36494e-14
  58 136.283 0.00000 1.88845e-14
  59 136.283 0.00000 -2.82128e-14
  60 136.283 0.00000 3.69324e-14
  61 136.283 0.00000 5.24143e-14
  62 136.283 0.00000 -6.04041e-16
  63 136.283 0.00000 4.14080e-14
  64 136.283 0.00000 -6.49398e-14
  65 136.283 0.00000 -7.36981e-15
  66 136.283 0.00000 -1.91248e-14
</Section>

newXOutput 9

<Section columns = "stress_xx | stress_yy | stress_xy">
  1 155.786 0.00000 -5.12185e-15
  2 155.786 0.00000 -5.36370e-14
  3 155.786 0.00000 6.98079e-14
  4 155.786 0.00000 2.74356e-16
  5 155.786 0.00000 5.36818e-15
  6 155.786 0.00000 4.56202e-15
  7 155.786 0.00000 -2.67235e-14
  8 155.786 0.00000 7.01905e-15
  9 155.786 0.00000 4.08485e-14
  10 155.786 0.00000 2.30564e-14
  11 155.786 0.00000 -1.49839e-14
  12 155.786 0.00000 -1.47258e-15
  13 155.786 0.00000 -3.70120e-14
  14 155.786 0.00000 -4.06559e-14
  15 155.786 0.00000 1.31405e-14
  16 155.786 0.00000 4.87794e-14
  17 155.786 0.00000 1.66430e-14
  18 155.786 0.00000 -2.86554e-14
  19 155.786 0.00000 -9.94761e-14
  20 155.786 0.00000 -2.19885e-13
  21 155.786 0.00000 -1.25713e-13
  22 155.786 0.00000 -1.42477e-14
  23 155.786 0.00000 1.29425e-13
  24 155.786 0.00000 3.61249e-14
  25 155.786 0.00000 1.74901e-14
  26 155.786 0.00000 -2.91922e-15
  27 155.786 0.00000 -7.88432e-15
  28 155.786 0.00000 -1.09952e-14
  29 155.786 0.00000 -5.35198e-14
  30 155.786 0.00000 3.00926e-14
  31 155.786 0.00000 1.88054e-14
  32 155.786 0.00000 3.27725e-14
  33 155.786 0.00000 -4.74876e-14
  34 155.786 0.00000 7.16430e-14
  35 155.786 0.00000 -8.40749e-14
  36 155.786 0.00000 3.44943e-14
  37 155.786 0.00000 6.86031e-14
  38 155.786 0.00000 -1.50083e-14
  39 155.786 0.00000 -9.09571e-15
  40 155.786 0.00000 8.18289e-14
  41 155.786 0.00000 4.01451e-16
  42 155.786 0.00000 -1.77590e-14
  43 155.786 0.00000 3.31377e-14
  44 155.786 0.00000 -3.57426e-14
  45 155.786 0.00000 7.71499e-15
  46 155.786 0.00000 1.08395e-14
  47 155.786 0.00000 -3.58799e-14
  48 155.786 0.00000 3.12048e-14
  49 155.786 0.00000 3.75778e-14
  50 155.786 0.00000 -1.07974e-14
  51 155.786 0.00000 9.58835e-14
  52 155.786 0.00000 -1.10986e-13
  53 155.786 0.00000 1.29284e-13
  54 155.786 0.00000 -1.26120e-13
  55 155.786 0.00000 -1.41236e-14
  56 155.786 0.00000 4.02127e-14
  57 155.786 0.00000 -6.77655e-14
  58 155.786 0.00000 2.20433e-14
  59 155.786 0.00000 -2.36642e-14
  60 155.786 0.00000 7.87345e-14
  61 155.786 0.00000 -6.51437e-14
  62 155.786 0.00000 3.51901e-14
  63 155.786 0.00000 -3.14029e-15
  64 155.786 0.00000 -4.70615e-14
  65 155.786 0.00000 6.43419e-14
  66 155.786 0.00000 -1.70015e-13
</Section>

newXOutput 10

<Section columns = "stress_xx | stress_yy | stress_xy">
  1 175.296 0.00000 -1.54102e-14
  2 175.296 0.00000 1.98415e-14
  3 175.296 0.00000 -4.31877e-14
  4 175.296 0.00000 1.25953e-15
  5 175.296 0.00000 -9.92073e-15
  6 175.296 0.00000 -2.01567e-16
  7 175.296 0.00000 5.00129e-15
  8 175.296 0.00000 7.40115e-15
  9 175.296 0.00000 1.22355e-14
  10 175.296 0.00000 5.42617e-14
  11 175.296 0.00000 -5.88418e-14
  12 175.296 0.00000 1.29125e-15
  13 175.296 0.00000 3.36738e-14
  14 175.296 0.00000 -2.80678e-14
  15 175.296 0.00000 0.00000
  16 175.296 0.00000 -7.59417e-14
  17 175.296 0.00000 6.55839e-14
  18 175.296 0.00000 7.70990e-14
  19 175.296 0.00000 6.23238e-14
  20 175.296 0.00000 -8.28137e-14
  21 175.296 0.00000 -1.25099e-13
  22 175.296 0.00000 -4.30919e-14
  23 175.296 0.00000 6.82891e-14
  24 175.296 0.00000 5.35051e-15
  25 175.296 0.00000 1.01644e-14
  26 175.296 0.00000 -3.65965e-15
  27 175.296 0.00000 -5.26272e-15
  28 175.296 0.00000 -1.01877e-14
  29 175.296 0.00000 -1.89625e-14
  30 175.296 0.00000 -1.86717e-14
  31 175.296 0.00000 4.63905e-15
  32 175.296 0.00000 8.58062e-15
  33 175.296 0.00000 -7.45067e-14
  34 175.296 0.00000 5.83721e-14
  35 175.296 0.00000 -5.73745e-14
  36 175.296 0.00000 -9.59751e-14
  37 175.296 0.00000 3.98928e-14
  38 175.296 0.00000 -1.68551e-14
  39 175.296 0.00000 2.26625e-14
  40 175.296 0.00000 2.11469e-14
  41 175.296 0.00000 -2.61397e-14
  42 175.296 0.00000 8.75514e-16
  43 175.296 0.00000 1.71652e-14
  44 175.296 0.00000 -2.43810e-14
  45 175.296 0.00000 2.24319e-14
  46 175.296 0.00000 -1.89827e-14
  47 175.296 0.00000 1.17378e-15
  48 175.296 0.00000 2.00848e-14
  49 175.296 0.00000 -1.22323e-14
  50 175.296 0.00000 -4.86087e-15
  51 175.296 0.00000 4.84438e-14
  52 175.296 0.00000 -4.80560e-14
  53 175.296 0.00000 1.09541e-13
  54 175.296 0.00000 -2.03824e-14
  55 175.296 0.00000 -1.61310e-14
  56 175.296 0.00000 -9.58196e-14
  57 175.296 0.00000 -1.14679e-14
  58 175.296 0.00000 1.06163e-14
  59 175.296 0.00000 2.79697e-15
  60 175.296 0.00000 6.16649e-14
  61 175.296 0.00000 -7.49725e-14
  62 175.296 0.00000 2.08032e-14
  63 175.296 0.00000 -1.73641e-14
  64 175.296 0.00000 -3.33793e-14
  65 175.296 0.00000 -1.25748e-14
  66 175.296 0.00000 -8.77183e-14
</Section>

newXOutput 11

<Section columns = "stress_xx | stress_yy | stress_xy">
  1 194.814 0.00000 -4.84923e-15
  2 194.814 0.00000 -2.70181e-14
  3 194.814 0.00000 6.43310e-14
  4 194.814 0.00000 -4.78978e-15
  5 194.814 0.00000 -2.01809e-14
  6 194.814 0.00000 -2.23994e-16
  7 194.814 0.00000 -9.04158e-15
  8 194.814 0.00000 -3.35992e-15
  9 194.814 0.00000 2.45288e-14
  10 194.814 0.00000 -6.59186e-14
  11 194.814 0.00000 -1.00337e-13
  12 194.814 0.00000 3.52810e-14
  13 194.814 0.00000 6.12147e-14
  14 194.814 0.00000 2.76545e-14
  15 194.814 0.00000 3.68846e-14
  16 194.814 0.00000 -9.64247e-15
  17 194.814 0.00000 6.42974e-14
  18 194.814 0.00000 4.20574e-15
  19 194.814 0.00000 2.02793e-14
  20 194.814 0.00000 -5.51319e-14
  21 194.814 0.00000 -3.85099e-14
  22 194.814 0.00000 -2.04872e-14
  23 194.814 0.00000 4.34873e-14
  24 194.814 0.00000 -5.86916e-15
  25 194.814 0.00000 1.57003e-15
  26 194.814 0.00000 3.34482e-15
  27 194.814 0.00000 0.00000
  28 194.814 0.00000 9.05314e-15
  29 194.814 0.00000 4.61238e-15
  30 194.814 0.00000 -4.75066e-14
  31 194.814 0.00000 7.87121e-16
  32 194.814 0.00000 3.45015e-14
  33 194.814 0.00000 -6.20302e-14
  34 194.814 0.00000 4.37841e-14
  35 194.814 0.00000 -4.01981e-14
  36 194.814 0.00000 -3.16367e-14
  37 194.814 0.00000 -6.45807e-15
  38 194.814 0.00000 -2.69257e-14
  39 194.814 0.00000 3.92716e-14
  40 194.814 0.00000 3.00323e-14
  41 194.814 0.00000 4.07016e-14
  42 194.814 0.00000 -4.31256e-15
  43 194.814 0.00000 -4.89566e-14
  44 194.814 0.00000 -1.22071e-14
  45 194.814 0.00000 1.76672e-14
  46 194.814 0.00000 -5.53480e-15
  47 194.814 0.00000 -5.80694e-15
  48 194.814 0.00000 4.51137e-14
  49 194.814 0.00000 2.14769e-14
  50 194.814 0.00000 2.99069e-15
  51 194.814 0.00000 3.84883e-14
  52 194.814 0.00000 -2.93486e-14
  53 194.814 0.00000 3.22905e-14
  54 194.814 0.00000 -2.29732e-14
  55 194.814 0.00000 -7.37629e-15
  56 194.814 0.00000 -2.99135e-14
  57 194.814 0.00000 -6.02520e-15
  58 194.814 0.00000 3.58883e-15
  59 194.814 0.00000 8.44125e-15
  60 194.814 0.00000 3.60265e-14
  61 194.814 0.00000 -1.29027e-14
  62 194.814 0.00000 4.54320e-15
  63 194.814 0.00000 -1.05194e-14
  64 194.814 0.00000 -2.17399e-14
  65 194.814 0.00000 -1.40795e-15
  66 194.814 0.00000 -3.37524e-14
</Section>

newXOutput 12

<Section columns = "stress_xx | stress_yy | stress_xy">
  1 214.340 0.00000 5.83020e-15
  2 214.340 0.00000 2.94365e-14
  3 214.340 0.00000 -8.43390e-14
  4 214.340 0.00000 5.63215e-15
  5 214.340 0.00000 -5.74054e-15
  6 214.340 0.00000 -5.15867e-14
  7 214.340 0.00000 -2.90613e-14
  8 214.340 0.00000 -1.93108e-14
  9 214.340 0.00000 -1.58693e-14
  10 214.340 0.00000 2.79579e-14
  11 214.340 0.00000 7.26671e-14
  12 214.340 0.00000 1.05156e-13
  13 214.340 0.00000 5.30708e-14
  14 214.340 0.00000 -3.86887e-14
  15 214.340 0.00000 5.27573e-15
  16 214.340 0.00000 -2.89633e-14
  17 214.340 0.00000 -1.38472e-13
  18 214.340 0.00000 -1.06035e-13
  19 214.340 0.00000 -1.82262e-14
  20 214.340 0.00000 1.17223e-13
  21 214.340 0.00000 1.41368e-13
  22 214.340 0.00000 1.30682e-13
  23 214.340 0.00000 2.24330e-14
  24 214.340 0.00000 -4.43746e-14
  25 214.340 0.00000 -1.65588e-14
  26 214.340 0.00000 -4.27322e-15
  27 214.340 0.00000 0.00000
  28 214.340 0.00000 1.21252e-14
  29 214.340 0.00000 3.17468e-14
  30 214.340 0.00000 -1.14273e-13
  31 214.340 0.00000 -3.78042e-14
  32 214.340 0.00000 -1.70692e-14
  33 214.340 0.00000 -1.07128e-14
  34 214.340 0.00000 3.74396e-14
  35 214.340 0.00000 8.77910e-16
  36 214.340 0.00000 -5.28925e-15
  37 214.340 0.00000 -3.85649e-14
  38 214.340 0.00000 -1.98955e-14
  39 214.340 0.00000 3.16592e-14
  40 214.340 0.00000 -9.80550e-14
  41 214.340 0.00000 5.53706e-14
  42 214.340 0.00000 -8.25047e-14
  43 214.340 0.00000 3.72733e-14
  44 214.340 0.00000 5.66269e-15
  45 214.340 0.00000 4.07572e-15
  46 214.340 0.00000 -3.13558e-14
  47 214.340 0.00000 -8.43367e-14
  48 214.340 0.00000 6.78704e-14
  49 214.340 0.00000 -1.89870e-14
  50 214.340 0.00000 1.20268e-14
  51 214.340 0.00000 2.78046e-14
  52 214.340 0.00000 9.39615e-15
  53 214.340 0.00000 -1.78281e-14
  54 214.340 0.00000 -2.57913e-15
  55 214.340 0.00000 1.88655e-14
  56 214.340 0.00000 -4.26479e-14
  57 214.340 0.00000 1.73053e-15
  58 214.340 0.00000 7.59710e-16
  59 214.340 0.00000 3.21830e-14
  60 214.340 0.00000 1.14065e-14
  61 214.340 0.00000 8.48820e-14
  62 214.340 0.00000 -1.03009e-14
  63 214.340 0.00000 -7.73966e-15
  64 214.340 0.00000 -8.36094e-14
  65 214.340 0.00000 -9.06384e-14
  66 214.340 0.00000 9.68200e-14
</Section>

newXOutput 13

<Section columns = "stress_xx | stress_yy | stress_xy">
  1 233.872 0.00000 -5.28223e-14
  2 233.872 0.00000 8.12892e-14
  3 233.872 0.00000 2.61638e-14
  4 233.872 0.00000 4.10710e-14
  5 233.872 0.00000 -5.95964e-14
  6 233.872 0.00000 -1.18386e-13
  7 233.872 0.00000 -4.38300e-14
  8 233.872 0.00000 -4.48866e-15
  9 233.872 0.00000 1.82666e-14
  10 233.872 0.00000 -2.84669e-14
  11 233.872 0.00000 -7.47775e-14
  12 233.872 0.00000 -7.34135e-14
  13 233.872 0.00000 2.32202e-13
  14 233.872 0.00000 -1.46237e-14
  15 233.872 0.00000 -5.28223e-15
  16 233.872 0.00000 -2.17166e-14
  17 233.872 0.00000 -1.16546e-13
  18 233.872 0.00000 -1.03779e-13
  19 233.872 0.00000 6.05313e-14
  20 233.872 0.00000 -1.19065e-13
  21 233.872 0.00000 -9.45411e-14
  22 233.872 0.00000 -9.47577e-14
  23 233.872 0.00000 9.02947e-14
  24 233.872 0.00000 2.22382e-13
  25 233.872 0.00000 1.04499e-13
  26 233.872 0.00000 -5.42320e-15
  27 233.872 0.00000 0.00000
  28 233.872 0.00000 -1.68700e-15
  29 233.872 0.00000 -4.37852e-14
  30 233.872 0.00000 1.48855e-14
  31 233.872 0.00000 2.82953e-14
  32 233.872 0.00000 -3.99969e-15
  33 233.872 0.00000 -1.50761e-13
  34 233.872 0.00000 -1.47885e-13
  35 233.872 0.00000 1.31414e-13
  36 233.872 0.00000 2.52376e-14
  37 233.872 0.00000 -2.47979e-14
  38 233.872 0.00000 -7.96472e-14
  39 233.872 0.00000 6.16765e-14
  40 233.872 0.00000 -3.94024e-14
  41 233.872 0.00000 4.01626e-14
  42 233.872 0.00000 -1.36539e-14
  43 233.872 0.00000 -3.29684e-14
  44 233.872 0.00000 -1.24238e-13
  45 233.872 0.00000 1.12913e-13
  46 233.872 0.00000 -2.25657e-14
  47 233.872 0.00000 3.73555e-14
  48 233.872 0.00000 -8.98653e-15
  49 233.872 0.00000 -3.42979e-14
  50 233.872 0.00000 -1.31930e-14
  51 233.872 0.00000 6.00111e-14
  52 233.872 0.00000 -2.78292e-14
  53 233.872 0.00000 4.33464e-14
  54 233.872 0.00000 -3.08794e-14
  55 233.872 0.00000 7.35525e-15
  56 233.872 0.00000 -6.12695e-14
  57 233.872 0.00000 -1.89117e-14
  58 233.872 0.00000 -1.17177e-14
  59 233.872 0.00000 -2.58535e-14
  60 233.872 0.00000 5.06770e-14
  61 233.872 0.00000 -2.76250e-14
  62 233.872 0.00000 1.30308e-13
  63 233.872 0.00000 -6.15159e-14
  64 233.872 0.00000 -1.23312e-13
  65 233.872 0.00000 -9.35711e-14
  66 233.872 0.00000 -6.17097e-14
</Section>

newXOutput 14

<Section columns = "stress_xx | stress_yy | stress_xy">
  1 253.413 0.00000 2.15471e-14
  2 253.413 0.00000 -3.88140e-14
  3 253.413 0.00000 6.79922e-14
  4 253.413 0.00000 -1.55087e-14
  5 253.413 0.00000 -1.11241e-13
  6 253.413 0.00000 5.95151e-14
  7 253.413 0.00000 1.48055e-13
  8 253.413 0.00000 1.65497e-14
  9 253.413 0.00000 -5.84618e-14
  10 253.413 0.00000 1.19848e-13
  11 253.413 0.00000 5.79128e-14
  12 253.413 0.00000 -1.62248e-13
  13 253.413 0.00000 -2.38651e-13
  14 253.413 0.00000 1.93771e-14
  15 253.413 0.00000 4.23099e-14
  16 253.413 0.00000 5.46503e-14
  17 253.413 0.00000 8.06033e-14
  18 253.413 0.00000 8.19707e-14
  19 253.413 0.00000 -9.28443e-14
  20 253.413 0.00000 -2.14730e-13
  21 253.413 0.00000 -1.63911e-13
  22 253.413 0.00000 -7.73108e-14
  23 253.413 0.00000 1.03531e-13
  24 253.413 0.00000 1.49544e-13
  25 253.413 0.00000 5.15167e-14
  26 253.413 0.00000 5.45775e-14
  27 253.413 0.00000 3.17324e-14
  28 253.413 0.00000 2.06881e-14
  29 253.413 0.00000 -3.03789e-13
  30 253.413 0.00000 1.47532e-13
  31 253.413 0.00000 4.69071e-14
  32 253.413 0.00000 2.56657e-13
  33 253.413 0.00000 7.79540e-14
  34 253.413 0.00000 1.01124e-13
  35 253.413 0.00000 -1.35648e-13
  36 253.413 0.00000 4.38741e-14
  37 253.413 0.00000 8.09932e-15
  38 253.413 0.00000 3.95634e-14
  39 253.413 0.00000 1.38779e-14
  40 253.413 0.00000 -1.44438e-14
  41 253.413 0.00000 9.43663e-14
  42 253.413 0.00000 3.67364e-14
  43 253.413 0.00000 9.57855e-14
  44 253.413 0.00000 -7.89506e-14
  45 253.413 0.00000 2.04527e-14
  46 253.413 0.00000 -7.10289e-14
  47 253.413 0.00000 -4.62092e-15
  48 253.413 0.00000 -3.59049e-14
  49 253.413 0.00000 6.09157e-14
  50 253.413 0.00000 2.46859e-15
  51 253.413 0.00000 5.05848e-14
  52 253.413 0.00000 -1.55053e-13
  53 253.413 0.00000 7.10562e-14
  54 253.413 0.00000 -1.66589e-14
  55 253.413 0.00000 -6.28112e-14
  56 253.413 0.00000 5.96852e-14
  57 253.413 0.00000 -3.79110e-14
  58 253.413 0.00000 4.07402e-14
  59 253.413 0.00000 -1.28218e-13
  60 253.413 0.00000 3.82378e-14
  61 253.413 0.00000 -2.01511e-13
  62 253.413 0.00000 5.37139e-14
  63 253.413 0.00000 -1.12596e-14
  64 253.413 0.00000 1.39454e-13
  65 253.413 0.00000 1.02929e-13
  66 253.413 0.00000 1.44708e-14
</Section>

newXOutput 15

<Section columns = "stress_xx | stress_yy | stress_xy">
  1 272.960 0.00000 -2.20282e-13
  2 272.960 0.00000 3.67137e-14
  3 272.960 0.00000 1.46615e-13
  4 272.960 0.00000 7.73142e-14
  5 272.960 0.00000 -2.68449e-13
  6 272.960 0.00000 -1.55013e-13
  7 272.960 0.00000 -3.67137e-14
  8 272.960 0.00000 3.84395e-15
  9 272.960 0.00000 1.02198e-13
  10 272.960 0.00000 -5.10697e-14
  11 272.960 0.00000 -4.97753e-14
  12 272.960 0.00000 1.99258e-14
  13 272.960 0.00000 1.62231e-13
  14 272.960 0.00000 -7.64084e-14
  15 272.960 0.00000 -2.11810e-14
  16 272.960 0.00000 1.85334e-14
  17 272.960 0.00000 9.96096e-14
  18 272.960 0.00000 -2.59643e-14
  19 272.960 0.00000 -9.23160e-14
  20 272.960 0.00000 -1.12724e-13
  21 272.960 0.00000 -1.22227e-13
  22 272.960 0.00000 -3.24698e-14
  23 272.960 0.00000 -7.38446e-14
  24 272.960 0.00000 2.32733e-14
  25 272.960 0.00000 -4.54301e-14
  26 272.960 0.00000 3.21637e-14
  27 272.960 0.00000 -3.17715e-14
  28 272.960 0.00000 -4.41269e-15
  29 272.960 0.00000 8.59156e-14
  30 272.960 0.00000 -1.00924e-13
  31 272.960 0.00000 -2.69970e-14
  32 272.960 0.00000 -1.08538e-13
  33 272.960 0.00000 -4.37975e-14
  34 272.960 0.00000 -3.90642e-14
  35 272.960 0.00000 7.24507e-14
  36 272.960 0.00000 -1.32864e-13
  37 272.960 0.00000 4.12980e-14
  38 272.960 0.00000 -1.46478e-13
  39 272.960 0.00000 9.04037e-14
  40 272.960 0.00000 1.52483e-14
  41 272.960 0.00000 -9.87195e-14
  42 272.960 0.00000 -7.14122e-14
  43 272.960 0.00000 -2.95136e-14
  44 272.960 0.00000 -9.50642e-14
  45 272.960 0.00000 6.41552e-14
  46 272.960 0.00000 -1.42619e-14
  47 272.960 0.00000 -1.14178e-13
  48 272.960 0.00000 -1.89108e-14
  49 272.960 0.00000 -9.70721e-14
  50 272.960 0.00000 2.07177e-14
  51 272.960 0.00000 -8.71877e-14
  52 272.960 0.00000 9.39438e-14
  53 272.960 0.00000 -5.37663e-14
  54 272.960 0.00000 -9.71926e-14
  55 272.960 0.00000 -3.13890e-14
  56 272.960 0.00000 -5.33852e-14
  57 272.960 0.00000 3.81258e-14
  58 272.960 0.00000 3.97352e-14
  59 272.960 0.00000 -5.75026e-14
  60 272.960 0.00000 -7.21649e-14
  61 272.960 0.00000 2.46900e-13
  62 272.960 0.00000 7.12820e-14
  63 272.960 0.00000 -1.45349e-13
  64 272.960 0.00000 -2.10161e-13
  65 272.960 0.00000 -1.14143e-15
  66 272.960 0.00000 -8.61897e-14
</Section>

newXOutput 16

<Section columns = "stress_xx | stress_yy | stress_xy">
  1 292.515 0.00000 1.35576e-13
  2 292.515 0.00000 -1.99449e-13
  3 292.515 0.00000 -2.21983e-13
  4 292.515 0.00000 -1.16053e-13
  5 292.515 0.00000 1.86155e-13
  6 292.515 0.00000 1.16160e-14
  7 292.515 0.00000 -7.01818e-14
  8 292.515 0.00000 -6.29410e-14
  9 292.515 0.00000 -1.45041e-14
  10 292.515 0.00000 -1.14105e-13
  11 292.515 0.00000 -1.79749e-13
  12 292.515 0.00000 -2.87811e-13
  13 292.515 0.00000 -3.48742e-13
  14 292.515 0.00000 5.25168e-14
  15 292.515 0.00000 -2.65087e-14
  16 292.515 0.00000 -3.13883e-14
  17 292.515 0.00000 -1.24666e-13
  18 292.515 0.00000 9.82230e-14
  19 292.515 0.00000 6.35275e-14
  20 292.515 0.00000 1.80562e-13
  21 292.515 0.00000 8.78233e-14
  22 292.515 0.00000 1.52838e-15
  23 292.515 0.00000 -6.38576e-14
  24 292.515 0.00000 -1.58309e-13
  25 292.515 0.00000 -1.26388e-13
  26 292.515 0.00000 -2.77697e-14
  27 292.515 0.00000 0.00000
  28 292.515 0.00000 2.20066e-14
  29 292.515 0.00000 1.45271e-13
  30 292.515 0.00000 1.06331e-14
  31 292.515 0.00000 -2.72599e-14
  32 292.515 0.00000 -2.55415e-14
  33 292.515 0.00000 2.76842e-13
  34 292.515 0.00000 -1.03366e-13
  35 292.515 0.00000 1.13084e-13
  36 292.515 0.00000 1.16684e-14
  37 292.515 0.00000 -2.29219e-14
  38 292.515 0.00000 1.25787e-13
  39 292.515 0.00000 -1.43423e-13
  40 292.515 0.00000 3.24464e-14
  41 292.515 0.00000 -1.58768e-14
  42 292.515 0.00000 9.66117e-14
  43 292.515 0.00000 -1.92601e-14
  44 292.515 0.00000 1.67345e-13
  45 292.515 0.00000 -1.12919e-13
  46 292.515 0.00000 3.61772e-14
  47 292.515 0.00000 1.27464e-13
  48 292.515 0.00000 8.90790e-15
  49 292.515 0.00000 6.35327e-14
  50 292.515 0.00000 2.93204e-14
  51 292.515 0.00000 -1.59530e-13
  52 292.515 0.00000 2.77650e-14
  53 292.515 0.00000 -6.36975e-14
  54 292.515 0.00000 1.06155e-13
  55 292.515 0.00000 7.58890e-14
  56 292.515 0.00000 -6.45247e-14
  57 292.515 0.00000 -1.96452e-14
  58 292.515 0.00000 -1.11400e-13
  59 292.515 0.00000 1.96112e-13
  60 292.515 0.00000 6.40053e-14
  61 292.515 0.00000 -1.13530e-13
  62 292.515 0.00000 -2.41088e-13
  63 292.515 0.00000 8.65738e-14
  64 292.515 0.00000 1.61438e-13
  65 292.515 0.00000 -7.33383e-15
  66 292.515 0.00000 1.19583e-13
</Section>

newXOutput 17

<Section columns = "stress_xx | stress_yy | stress_xy">
  1 312.077 0.00000 6.26228e-14
  2 312.077 0.00000 1.69864e-13
  3 312.077 0.00000 8.25325e-14
  4 312.077 0.00000 -4.65196e-14
  5 312.077 0.00000 7.69575e-14
  6 312.077 0.00000 -3.70438e-14
  7 312.077 0.00000 -2.57995e-14
  8 312.077 0.00000 -4.73913e-14
  9 312.077 0.00000 -3.62161e-14
  10 312.077 0.00000 6.58515e-14
  11 312.077 0.00000 2.02661e-14
  12 312.077 0.00000 9.84185e-14
  13 312.077 0.00000 2.22898e-13
  14 312.077 0.00000 5.09787e-14
  15 312.077 0.00000 -1.06165e-14
  16 312.077 0.00000 -6.01602e-14
  17 312.077 0.00000 3.16935e-13
  18 312.077 0.00000 3.20501e-14
  19 312.077 0.00000 -4.45407e-14
  20 312.077 0.00000 9.07630e-14
  21 312.077 0.00000 6.46453e-14
  22 312.077 0.00000 -2.09570e-14
  23 312.077 0.00000 -1.61456e-14
  24 312.077 0.00000 -5.79710e-14
  25 312.077 0.00000 -2.91636e-14
  26 312.077 0.00000 -1.83220e-14
  27 312.077 0.00000 -1.06165e-14
  28 312.077 0.00000 -1.18478e-14
  29 312.077 0.00000 3.50818e-14
  30 312.077 0.00000 8.62883e-14
  31 312.077 0.00000 -2.06200e-15
  32 312.077 0.00000 6.02803e-14
  33 312.077 0.00000 -1.09923e-13
  34 312.077 0.00000 -4.19593e-14
  35 312.077 0.00000 3.72105e-14
  36 312.077 0.00000 -7.89344e-14
  37 312.077 0.00000 -5.49839e-15
  38 312.077 0.00000 3.67306e-14
  39 312.077 0.00000 -6.02070e-14
  40 312.077 0.00000 -3.45174e-14
  41 312.077 0.00000 5.92644e-14
  42 312.077 0.00000 9.66878e-14
  43 312.077 0.00000 -4.18055e-14
  44 312.077 0.00000 2.31266e-14
  45 312.077 0.00000 -3.64067e-14
  46 312.077 0.00000 -3.46205e-14
  47 312.077 0.00000 1.95112e-14
  48 312.077 0.00000 2.46239e-14
  49 312.077 0.00000 -2.83700e-14
  50 312.077 0.00000 9.22989e-15
  51 312.077 0.00000 -1.57771e-14
  52 312.077 0.00000 2.97325e-15
  53 312.077 0.00000 8.25598e-14
  54 312.077 0.00000 -1.76695e-14
  55 312.077 0.00000 2.73363e-14
  56 312.077 0.00000 1.15861e-14
  57 312.077 0.00000 1.56024e-14
  58 312.077 0.00000 -4.31411e-14
  59 312.077 0.00000 6.08872e-14
  60 312.077 0.00000 1.88662e-14
  61 312.077 0.00000 6.07293e-14
  62 312.077 0.00000 -1.02357e-13
  63 312.077 0.00000 1.35800e-14
  64 312.077 0.00000 -3.36611e-14
  65 312.077 0.00000 -1.66367e-15
  66 312.077 0.00000 8.65717e-14
</Section>

newXOutput 18

<Section columns = "stress_xx | stress_yy | stress_xy">
  1 331.647 0.00000 4.16603e-14
  2 331.647 0.00000 2.35464e-14
  3 331.647 0.00000 5.98282e-14
  4 331.647 0.00000 -1.58284e-14
  5 331.647 0.00000 5.57377e-14
  6 331.647 0.00000 -2.70111e-14
  7 331.647 0.00000 -3.33350e-14
  8 331.647 0.00000 -2.75829e-14
  9 331.647 0.00000 2.57160e-14
  10 331.647 0.00000 -1.41951e-13
  11 331.647 0.00000 -8.23451e-14
  12 331.647 0.00000 -1.31411e-14
  13 331.647 0.00000 9.05976e-14
  14 331.647 0.00000 -6.78136e-14
  15 331.647 0.00000 -4.25181e-14
  16 331.647 0.00000 -8.94651e-14
  17 331.647 0.00000 2.64957e-13
  18 331.647 0.00000 1.59718e-14
  19 331.647 0.00000 -1.00632e-13
  20 331.647 0.00000 -1.34366e-13
  21 331.647 0.00000 -2.91537e-14
  22 331.647 0.00000 -1.09658e-14
  23 331.647 0.00000 4.34997e-14
  24 331.647 0.00000 -2.34995e-14
  25 331.647 0.00000 -1.76400e-14
  26 331.647 0.00000 1.19974e-15
  27 331.647 0.00000 1.06295e-14
  28 331.647 0.00000 1.28776e-14
  29 331.647 0.00000 -2.48976e-14
  30 331.647 0.00000 3.02050e-14
  31 331.647 0.00000 1.89445e-14
  32 331.647 0.00000 -5.57881e-14
  33 331.647 0.00000 -2.13889e-13
  34 331.647 0.00000 -3.51388e-14
  35 331.647 0.00000 3.22678e-14
  36 331.647 0.00000 -6.03124e-14
  37 331.647 0.00000 1.65355e-13
  38 331.647 0.00000 3.06042e-14
  39 331.647 0.00000 5.30101e-15
  40 331.647 0.00000 1.45391e-13
  41 331.647 0.00000 -1.53157e-14
  42 331.647 0.00000 -5.04527e-17
  43 331.647 0.00000 2.98156e-14
  44 331.647 0.00000 2.32921e-15
  45 331.647 0.00000 -6.78379e-15
  46 331.647 0.00000 -6.66363e-15
  47 331.647 0.00000 -4.09824e-14
  48 331.647 0.00000 6.67963e-14
  49 331.647 0.00000 -9.15240e-14
  50 331.647 0.00000 -4.88272e-15
  51 331.647 0.00000 -2.46305e-14
  52 331.647 0.00000 -6.21954e-15
  53 331.647 0.00000 1.21359e-13
  54 331.647 0.00000 -1.09907e-13
  55 331.647 0.00000 3.06692e-14
  56 331.647 0.00000 -1.13796e-14
  57 331.647 0.00000 -7.42328e-14
  58 331.647 0.00000 -1.19595e-14
  59 331.647 0.00000 1.05220e-15
  60 331.647 0.00000 -6.76721e-14
  61 331.647 0.00000 -3.65507e-14
  62 331.647 0.00000 -4.47634e-14
  63 331.647 0.00000 3.49942e-14
  64 331.647 0.00000 5.49058e-15
  65 331.647 0.00000 8.62471e-14
  66 331.647 0.00000 -1.01788e-13
</Section>

newXOutput 19

<Section columns = "stress_xx | stress_yy | stress_xy">
  1 351.225 0.00000 9.43136e-15
  2 351.225 0.00000 -4.01478e-14
  3 351.225 0.00000 1.31763e-13
  4 351.225 0.00000 -2.80676e-14
  5 351.225 0.00000 2.71689e-14
  6 351.225 0.00000 -3.50714e-14
  7 351.225 0.00000 -1.00931e-15
  8 351.225 0.00000 3.93403e-14
  9 351.225 0.00000 6.70622e-15
  10 351.225 0.00000 6.14328e-14
  11 351.225 0.00000 -3.89366e-14
  12 351.225 0.00000 5.86928e-14
  13 351.225 0.00000 1.17677e-14
  14 351.225 0.00000 4.09552e-14
  15 351.225 0.00000 -2.12851e-14
  16 351.225 0.00000 -7.55434e-14
  17 351.225 0.00000 4.19902e-14
  18 351.225 0.00000 -1.14047e-13
  19 351.225 0.00000 -4.03130e-14
  20 351.225 0.00000 -7.59323e-14
  21 351.225 0.00000 7.52719e-15
  22 351.225 0.00000 -3.17496e-14
  23 351.225 0.00000 -2.08256e-14
  24 351.225 0.00000 -8.36347e-14
  25 351.225 0.00000 -3.80088e-14
  26 351.225 0.00000 -1.46947e-14
  27 351.225 0.00000 -1.06425e-14
  28 351.225 0.00000 -1.75357e-14
  29 351.225 0.00000 -2.14254e-16
  30 351.225 0.00000 -9.29990e-14
  31 351.225 0.00000 -7.92990e-15
  32 351.225 0.00000 -3.06436e-15
  33 351.225 0.00000 -1.14308e-13
  34 351.225 0.00000 -1.45439e-14
  35 351.225 0.00000 3.18760e-14
  36 351.225 0.00000 -6.59321e-14
  37 351.225 0.00000 3.22089e-14
  38 351.225 0.00000 1.53367e-14
  39 351.225 0.00000 -4.08003e-14
  40 351.225 0.00000 1.93047e-14
  41 351.225 0.00000 4.92707e-15
  42 351.225 0.00000 1.27770e-14
  43 351.225 0.00000 -1.54327e-14
  44 351.225 0.00000 1.87878e-14
  45 351.225 0.00000 -3.93741e-14
  46 351.225 0.00000 -9.62764e-15
  47 351.225 0.00000 -1.01200e-13
  48 351.225 0.00000 8.02959e-14
  49 351.225 0.00000 -1.09751e-14
  50 351.225 0.00000 -1.85081e-14
  51 351.225 0.00000 1.63051e-14
  52 351.225 0.00000 -6.23732e-14
  53 351.225 0.00000 1.77177e-14
  54 351.225 0.00000 -5.43149e-14
  55 351.225 0.00000 1.86029e-14
  56 351.225 0.00000 -4.63352e-14
  57 351.225 0.00000 -2.61232e-14
  58 351.225 0.00000 -1.78985e-14
  59 351.225 0.00000 1.74584e-14
  60 351.225 0.00000 -4.99067e-14
  61 351.225 0.00000 -4.61520e-14
  62 351.225 0.00000 -5.40091e-14
  63 351.225 0.00000 3.78937e-14
  64 351.225 0.00000 -1.96140e-13
  65 351.225 0.00000 1.90630e-16
  66 351.225 0.00000 -7.71204e-14
</Section>

newXOutput 20

<Section columns = "stress_xx | stress_yy | stress_xy">
  1 370.809 0.00000 2.06717e-14
  2 370.809 0.00000 -1.22752e-13
  3 370.809 0.00000 -1.03504e-13
  4 370.809 0.00000 -2.07803e-14
  5 370.809 0.00000 5.53377e-14
  6 370.809 0.00000 1.44205e-14
  7 370.809 0.00000 -2.60705e-14
  8 370.809 0.00000 -1.33549e-14
  9 370.809 0.00000 5.00810e-14
  10 370.809 0.00000 5.32777e-14
  11 370.809 0.00000 -5.41301e-14
  12 370.809 0.00000 -5.44142e-14
  13 370.809 0.00000 -1.27298e-13
  14 370.809 0.00000 2.67099e-14
  15 370.809 0.00000 1.06555e-14
  16 370.809 0.00000 -2.57509e-14
  17 370.809 0.00000 -1.62470e-15
  18 370.809 0.00000 -7.42054e-14
  19 370.809 0.00000 3.37046e-14
  20 370.809 0.00000 2.23164e-13
  21 370.809 0.00000 6.85352e-14
  22 370.809 0.00000 -3.66840e-14
  23 370.809 0.00000 -2.46217e-14
  24 370.809 0.00000 -5.67372e-14
  25 370.809 0.00000 -7.60808e-15
  26 370.809 0.00000 -5.64744e-15
  27 370.809 0.00000 0.00000
  28 370.809 0.00000 7.42336e-15
  29 370.809 0.00000 -3.83034e-14
  30 370.809 0.00000 -9.64991e-14
  31 370.809 0.00000 -2.57972e-14
  32 370.809 0.00000 -1.04602e-13
  33 370.809 0.00000 3.14594e-13
  34 370.809 0.00000 2.13963e-14
  35 370.809 0.00000 3.47264e-14
  36 370.809 0.00000 -9.97784e-14
  37 370.809 0.00000 -4.14145e-14
  38 370.809 0.00000 -1.84562e-14
  39 370.809 0.00000 2.39999e-14
  40 370.809 0.00000 -9.93411e-15
  41 370.809 0.00000 -4.60352e-14
  42 370.809 0.00000 -4.66712e-14
  43 370.809 0.00000 4.23558e-14
  44 370.809 0.00000 -7.87014e-15
  45 370.809 0.00000 1.55956e-14
  46 370.809 0.00000 5.04272e-15
  47 370.809 0.00000 2.35286e-14
  48 370.809 0.00000 5.75726e-15
  49 370.809 0.00000 5.13730e-14
  50 370.809 0.00000 3.59624e-15
  51 370.809 0.00000 -1.19434e-13
  52 370.809 0.00000 1.92278e-14
  53 370.809 0.00000 -1.52196e-13
  54 370.809 0.00000 1.24189e-13
  55 370.809 0.00000 2.78287e-14
  56 370.809 0.00000 -1.20296e-13
  57 370.809 0.00000 1.15009e-13
  58 370.809 0.00000 -3.52143e-15
  59 370.809 0.00000 1.91366e-14
  60 370.809 0.00000 2.14864e-14
  61 370.809 0.00000 2.08849e-13
  62 370.809 0.00000 -1.86506e-14
  63 370.809 0.00000 5.51637e-14
  64 370.809 0.00000 -1.48176e-13
  65 370.809 0.00000 -2.50618e-14
  66 370.809 0.00000 1.51449e-13
</Section>

newXOutput 21

<Section columns = "stress_xx | stress_yy | stress_xy">
  1 390.402 0.00000 -2.13371e-14
  2 390.402 0.00000 2.24040e-13
  3 390.402 0.00000 7.98150e-14
  4 390.402 0.00000 1.36263e-14
  5 390.402 0.00000 -2.13371e-14
  6 390.402 0.00000 -6.10945e-14
  7 390.402 0.00000 -9.77107e-14
  8 390.402 0.00000 4.63316e-14
  9 390.402 0.00000 9.40989e-14
  10 390.402 0.00000 5.60352e-14
  11 390.402 0.00000 1.11397e-13
  12 390.402 0.00000 1.26323e-14
  13 390.402 0.00000 -3.54268e-14
  14 390.402 0.00000 6.22838e-14
  15 390.402 0.00000 8.53484e-14
  16 390.402 0.00000 2.40380e-14
  17 390.402 0.00000 1.53506e-13
  18 390.402 0.00000 7.98234e-14
  19 390.402 0.00000 9.18209e-14
  20 390.402 0.00000 -2.81311e-15
  21 390.402 0.00000 -6.76346e-14
  22 390.402 0.00000 -4.36427e-14
  23 390.402 0.00000 7.58908e-15
  24 390.402 0.00000 5.46974e-14
  25 390.402 0.00000 2.61368e-14
  26 390.402 0.00000 1.55372e-15
  27 390.402 0.00000 1.06685e-14
  28 390.402 0.00000 4.48742e-16
  29 390.402 0.00000 -9.28164e-16
  30 390.402 0.00000 -1.85501e-14
  31 390.402 0.00000 1.03499e-14
  32 390.402 0.00000 4.37278e-14
  33 390.402 0.00000 -8.87402e-14
  34 390.402 0.00000 6.52361e-15
  35 390.402 0.00000 -5.97373e-15
  36 390.402 0.00000 -3.29611e-14
  37 390.402 0.00000 -1.18773e-13
  38 390.402 0.00000 -2.49378e-14
  39 390.402 0.00000 1.05083e-13
  40 390.402 0.00000 -8.86145e-14
  41 390.402 0.00000 -4.33635e-14
  42 390.402 0.00000 -8.12688e-14
  43 390.402 0.00000 4.71048e-14
  44 390.402 0.00000 -7.32802e-14
  45 390.402 0.00000 8.33790e-14
  46 390.402 0.00000 7.49267e-14
  47 390.402 0.00000 -1.02803e-13
  48 390.402 0.00000 -1.07056e-13
  49 390.402 0.00000 5.87751e-14
  50 390.402 0.00000 -1.04792e-14
  51 390.402 0.00000 -4.78956e-14
  52 390.402 0.00000 1.26973e-13
  53 390.402 0.00000 -6.30147e-14
  54 390.402 0.00000 5.41877e-14
  55 390.402 0.00000 -2.11127e-14
  56 390.402 0.00000 -7.77904e-14
  57 390.402 0.00000 -1.62044e-14
  58 390.402 0.00000 1.81387e-14
  59 390.402 0.00000 -1.68080e-15
  60 390.402 0.00000 1.37726e-13
  61 390.402 0.00000 -1.45273e-13
  62 390.402 0.00000 4.43486e-14
  63 390.402 0.00000 -2.52007e-14
  64 390.402 0.00000 -1.28824e-13
  65 390.402 0.00000 -4.31114e-14
  66 390.402 0.00000 2.58371e-14
</Section>

newXOutput 22

<Section columns = "stress_xx | stress_yy | stress_xy">
  1 410.001 0.00000 6.44428e-14
  2 410.001 0.00000 -7.47709e-14
  3 410.001 0.00000 -9.29517e-14
  4 410.001 0.00000 1.87386e-14
  5 410.001 0.00000 7.76245e-14
  6 410.001 0.00000 1.12758e-13
  7 410.001 0.00000 1.54202e-14
  8 410.001 0.00000 5.93767e-14
  9 410.001 0.00000 8.08967e-14
  10 410.001 0.00000 -2.00122e-13
  11 410.001 0.00000 -1.32813e-13
  12 410.001 0.00000 -2.32690e-13
  13 410.001 0.00000 -2.82537e-13
  14 410.001 0.00000 -1.10167e-13
  15 410.001 0.00000 4.27262e-14
  16 410.001 0.00000 6.92205e-14
  17 410.001 0.00000 6.96974e-14
  18 410.001 0.00000 -8.11177e-14
  19 410.001 0.00000 -8.78349e-14
  20 410.001 0.00000 2.85744e-14
  21 410.001 0.00000 5.23880e-14
  22 410.001 0.00000 -2.57271e-13
  23 410.001 0.00000 -2.13989e-13
  24 410.001 0.00000 -2.52824e-13
  25 410.001 0.00000 -8.48776e-14
  26 410.001 0.00000 -9.13693e-15
  27 410.001 0.00000 -3.20447e-14
  28 410.001 0.00000 3.66532e-15
  29 410.001 0.00000 3.25572e-14
  30 410.001 0.00000 2.06676e-13
  31 410.001 0.00000 -1.00278e-13
  32 410.001 0.00000 1.52888e-14
  33 410.001 0.00000 -2.90192e-13
  34 410.001 0.00000 1.92608e-13
  35 410.001 0.00000 -1.33826e-13
  36 410.001 0.00000 3.97729e-14
  37 410.001 0.00000 9.10939e-14
  38 410.001 0.00000 -3.58342e-14
  39 410.001 0.00000 -7.76744e-14
  40 410.001 0.00000 4.63863e-14
  41 410.001 0.00000 1.26859e-13
  42 410.001 0.00000 2.32674e-14
  43 410.001 0.00000 -4.62607e-14
  44 410.001 0.00000 -7.24180e-15
  45 410.001 0.00000 5.59257e-15
  46 410.001 0.00000 3.08052e-16
  47 410.001 0.00000 1.84024e-14
  48 410.001 0.00000 -2.84098e-14
  49 410.001 0.00000 1.76717e-14
  50 410.001 0.00000 -4.40196e-14
  51 410.001 0.00000 -9.26031e-14
  52 410.001 0.00000 5.58347e-14
  53 410.001 0.00000 4.93493e-14
  54 410.001 0.00000 -2.60323e-14
  55 410.001 0.00000 3.59990e-15
  56 410.001 0.00000 -6.40759e-14
  57 410.001 0.00000 -2.62719e-13
  58 410.001 0.00000 6.66064e-14
  59 410.001 0.00000 -8.71546e-14
  60 410.001 0.00000 1.59781e-13
  61 410.001 0.00000 -3.29086e-13
  62 410.001 0.00000 4.62983e-14
  63 410.001 0.00000 5.09456e-14
  64 410.001 0.00000 -1.22411e-13
  65 410.001 0.00000 2.37506e-14
  66 410.001 0.00000 1.03362e-13
</Section>

newXOutput 23

<Section columns = "stress_xx | stress_yy | stress_xy">
  1 429.608 0.00000 1.18056e-14
  2 429.608 0.00000 1.62225e-13
  3 429.608 0.00000 -1.19781e-14
  4 429.608 0.00000 3.17113e-14
  5 429.608 0.00000 3.58955e-14
  6 429.608 0.00000 1.21452e-13
  7 429.608 0.00000 7.35192e-14
  8 429.608 0.00000 -7.44765e-14
  9 429.608 0.00000 -7.00475e-14
  10 429.608 0.00000 -7.96310e-14
  11 429.608 0.00000 1.01436e-13
  12 429.608 0.00000 1.60804e-13
  13 429.608 0.00000 3.03832e-13
  14 429.608 0.00000 -1.94140e-14
  15 429.608 0.00000 2.13891e-14
  16 429.608 0.00000 -3.81295e-14
  17 429.608 0.00000 3.20053e-15
  18 429.608 0.00000 -4.14815e-14
  19 429.608 0.00000 -8.01516e-15
  20 429.608 0.00000 -2.55566e-13
  21 429.608 0.00000 1.00503e-13
  22 429.608 0.00000 2.76452e-13
  23 429.608 0.00000 1.28630e-13
  24 429.608 0.00000 1.97445e-13
  25 429.608 0.00000 1.50625e-13
  26 429.608 0.00000 1.06946e-14
  27 429.608 0.00000 0.00000
  28 429.608 0.00000 1.29708e-14
  29 429.608 0.00000 -1.05392e-13
  30 429.608 0.00000 -1.16834e-13
  31 429.608 0.00000 4.20011e-14
  32 429.608 0.00000 -6.50328e-15
  33 429.608 0.00000 -1.10743e-13
  34 429.608 0.00000 -1.76630e-13
  35 429.608 0.00000 3.12943e-14
  36 429.608 0.00000 3.44539e-14
  37 429.608 0.00000 1.24391e-13
  38 429.608 0.00000 -6.26107e-14
  39 429.608 0.00000 9.55841e-14
  40 429.608 0.00000 1.17061e-13
  41 429.608 0.00000 1.60526e-14
  42 429.608 0.00000 1.14369e-14
  43 429.608 0.00000 1.17967e-14
  44 429.608 0.00000 -2.61617e-15
  45 429.608 0.00000 -1.11369e-14
  46 429.608 0.00000 1.43220e-13
  47 429.608 0.00000 -2.08492e-14
  48 429.608 0.00000 1.27442e-13
  49 429.608 0.00000 5.77363e-14
  50 429.608 0.00000 -8.82254e-15
  51 429.608 0.00000 -2.14055e-14
  52 429.608 0.00000 -1.38653e-13
  53 429.608 0.00000 3.75155e-14
  54 429.608 0.00000 -7.82326e-14
  55 429.608 0.00000 7.34954e-15
  56 429.608 0.00000 -6.09942e-14
  57 429.608 0.00000 4.77552e-14
  58 429.608 0.00000 -4.28545e-14
  59 429.608 0.00000 -3.43238e-14
  60 429.608 0.00000 7.64667e-14
  61 429.608 0.00000 5.65838e-14
  62 429.608 0.00000 -3.63371e-14
  63 429.608 0.00000 6.19544e-14
  64 429.608 0.00000 -1.72560e-13
  65 429.608 0.00000 5.38198e-14
  66 429.608 0.00000 -9.95272e-14
</Section>

newXOutput 24

<Section columns = "stress_xx | stress_yy | stress_xy">
  1 449.223 0.00000 -9.15858e-15
  2 449.223 0.00000 -2.01760e-13
  3 449.223 0.00000 -1.02928e-13
  4 449.223 0.00000 -2.23041e-14
  5 449.223 0.00000 -7.56824e-14
  6 449.223 0.00000 -9.47741e-14
  7 449.223 0.00000 -1.87432e-14
  8 449.223 0.00000 -5.24601e-14
  9 449.223 0.00000 1.46740e-13
  10 449.223 0.00000 6.11475e-14
  11 449.223 0.00000 -3.36717e-14
  12 449.223 0.00000 2.82347e-13
  13 449.223 0.00000 2.04728e-14
  14 449.223 0.00000 1.19287e-13
  15 449.223 0.00000 -5.35379e-14
  16 449.223 0.00000 -1.84987e-13
  17 449.223 0.00000 1.24172e-13
  18 449.223 0.00000 -1.03581e-13
  19 449.223 0.00000 7.03901e-14
  20 449.223 0.00000 2.99999e-13
  21 449.223 0.00000 -4.11178e-14
  22 449.223 0.00000 -6.03074e-14
  23 449.223 0.00000 -3.43293e-14
  24 449.223 0.00000 -1.26645e-14
  25 449.223 0.00000 -4.58712e-14
  26 449.223 0.00000 -8.40665e-15
  27 449.223 0.00000 1.07076e-14
  28 449.223 0.00000 1.15999e-14
  29 449.223 0.00000 -5.98923e-14
  30 449.223 0.00000 -1.44597e-13
  31 449.223 0.00000 -9.44448e-14
  32 449.223 0.00000 -1.46598e-13
  33 449.223 0.00000 -9.49741e-14
  34 449.223 0.00000 2.11658e-14
  35 449.223 0.00000 8.14686e-15
  36 449.223 0.00000 -8.77150e-14
  37 449.223 0.00000 2.98569e-14
  38 449.223 0.00000 -6.59874e-14
  39 449.223 0.00000 3.91780e-14
  40 449.223 0.00000 1.23218e-13
  41 449.223 0.00000 -1.99261e-13
  42 449.223 0.00000 -7.29128e-14
  43 449.223 0.00000 -8.01190e-15
  44 449.223 0.00000 -3.68181e-14
  45 449.223 0.00000 1.12184e-14
  46 449.223 0.00000 -8.88085e-14
  47 449.223 0.00000 -8.51722e-14
  48 449.223 0.00000 -1.16135e-13
  49 449.223 0.00000 -1.95993e-14
  50 449.223 0.00000 5.85107e-16
  51 449.223 0.00000 -1.56655e-13
  52 449.223 0.00000 1.37973e-14
  53 449.223 0.00000 -1.87104e-13
  54 449.223 0.00000 9.04549e-14
  55 449.223 0.00000 -2.14628e-14
  56 449.223 0.00000 -1.09047e-13
  57 449.223 0.00000 1.72323e-15
  58 449.223 0.00000 -6.92398e-17
  59 449.223 0.00000 -1.95286e-14
  60 449.223 0.00000 -6.49022e-14
  61 449.223 0.00000 1.36875e-13
  62 449.223 0.00000 3.83239e-14
  63 449.223 0.00000 -7.97763e-14
  64 449.223 0.00000 -1.18175e-13
  65 449.223 0.00000 1.58081e-13
  66 449.223 0.00000 3.92623e-14
</Section>

newXOutput 25

<Section columns = "stress_xx | stress_yy | stress_xy">
  1 468.845 0.00000 2.22495e-14
  2 468.845 0.00000 2.14412e-13
  3 468.845 0.00000 -1.37341e-13
  4 468.845 0.00000 4.21834e-14
  5 468.845 0.00000 -3.43881e-14
  6 468.845 0.00000 6.87762e-15
  7 468.845 0.00000 3.51964e-14
  8 468.845 0.00000 1.27172e-13
  9 468.845 0.00000 -1.77804e-13
  10 468.845 0.00000 -1.86504e-13
  11 468.845 0.00000 -8.46584e-14
  12 468.845 0.00000 -2.20084e-13
  13 468.845 0.00000 1.42941e-14
  14 468.845 0.00000 -9.98307e-15
  15 468.845 0.00000 -3.21618e-14
  16 468.845 0.00000 -1.77118e-14
  17 468.845 0.00000 6.84192e-14
  18 468.845 0.00000 1.38447e-13
  19 468.845 0.00000 7.54212e-14
  20 468.845 0.00000 2.33454e-13
  21 468.845 0.00000 1.58268e-14
  22 468.845 0.00000 6.42270e-15
  23 468.845 0.00000 -2.62604e-14
  24 468.845 0.00000 1.36412e-13
  25 468.845 0.00000 1.20087e-13
  26 468.845 0.00000 -3.64443e-14
  27 468.845 0.00000 -2.14412e-14
  28 468.845 0.00000 2.41213e-14
  29 468.845 0.00000 -5.99672e-14
  30 468.845 0.00000 1.26113e-13
  31 468.845 0.00000 1.84800e-15
  32 468.845 0.00000 -3.29630e-14
  33 468.845 0.00000 -2.71844e-14
  34 468.845 0.00000 -8.91467e-14
  35 468.845 0.00000 -4.85681e-14
  36 468.845 0.00000 6.19399e-15
  37 468.845 0.00000 3.51646e-14
  38 468.845 0.00000 4.09499e-14
  39 468.845 0.00000 -1.81119e-14
  40 468.845 0.00000 -1.04175e-16
  41 468.845 0.00000 -1.33201e-13
  42 468.845 0.00000 5.15893e-14
  43 468.845 0.00000 8.89552e-14
  44 468.845 0.00000 2.46933e-15
  45 468.845 0.00000 -3.15418e-14
  46 468.845 0.00000 7.78769e-15
  47 468.845 0.00000 1.12696e-14
  48 468.845 0.00000 -8.43769e-14
  49 468.845 0.00000 -4.73304e-16
  50 468.845 0.00000 -5.80963e-15
  51 468.845 0.00000 8.15867e-14
  52 468.845 0.00000 1.94939e-14
  53 468.845 0.00000 2.05889e-13
  54 468.845 0.00000 -4.13860e-14
  55 468.845 0.00000 5.58721e-15
  56 468.845 0.00000 -8.66420e-14
  57 468.845 0.00000 9.22382e-14
  58 468.845 0.00000 -3.01222e-14
  59 468.845 0.00000 -1.20895e-14
  60 468.845 0.00000 5.27333e-15
  61 468.845 0.00000 1.24367e-13
  62 468.845 0.00000 -3.89624e-14
  63 468.845 0.00000 -2.81777e-14
  64 468.845 0.00000 -6.90923e-14
  65 468.845 0.00000 -1.23048e-13
  66 468.845 0.00000 -4.58518e-14
</Section>

newXOutput 26

<Section columns = "stress_xx | stress_yy | stress_xy">
  1 488.475 0.00000 -1.97829e-14
  2 488.475 0.00000 -1.50270e-13
  3 488.475 0.00000 6.30542e-14
  4 488.475 0.00000 2.23039e-14
  5 488.475 0.00000 7.99789e-15
  6 488.475 0.00000 7.67480e-14
  7 488.475 0.00000 7.09959e-14
  8 488.475 0.00000 1.55599e-13
  9 488.475 0.00000 -6.22962e-14
  10 488.475 0.00000 1.43533e-13
  11 488.475 0.00000 7.88177e-14
  12 488.475 0.00000 -7.42216e-14
  13 488.475 0.00000 -1.86049e-13
  14 488.475 0.00000 2.67957e-14
  15 488.475 0.00000 -7.51352e-14
  16 488.475 0.00000 2.41698e-14
  17 488.475 0.00000 -2.65241e-13
  18 488.475 0.00000 -2.19531e-13
  19 488.475 0.00000 -6.34505e-14
  20 488.475 0.00000 1.69389e-13
  21 488.475 0.00000 6.36497e-15
  22 488.475 0.00000 -2.48183e-14
  23 488.475 0.00000 -6.27301e-14
  24 488.475 0.00000 2.80221e-14
  25 488.475 0.00000 3.77481e-14
  26 488.475 0.00000 -2.03443e-14
  27 488.475 0.00000 -2.14672e-14
  28 488.475 0.00000 -1.25225e-14
  29 488.475 0.00000 -1.92763e-14
  30 488.475 0.00000 -7.09874e-14
  31 488.475 0.00000 1.67313e-14
  32 488.475 0.00000 -4.69116e-15
  33 488.475 0.00000 2.57012e-13
  34 488.475 0.00000 -4.83682e-14
  35 488.475 0.00000 -3.04108e-14
  36 488.475 0.00000 -7.85436e-14
  37 488.475 0.00000 6.02671e-14
  38 488.475 0.00000 6.17136e-14
  39 488.475 0.00000 -1.70109e-14
  40 488.475 0.00000 4.34601e-14
  41 488.475 0.00000 -6.27660e-14
  42 488.475 0.00000 1.10500e-13
  43 488.475 0.00000 3.98263e-14
  44 488.475 0.00000 2.20497e-14
  45 488.475 0.00000 -4.67551e-14
  46 488.475 0.00000 2.94630e-14
  47 488.475 0.00000 -3.83026e-14
  48 488.475 0.00000 -6.57164e-14
  49 488.475 0.00000 -1.34170e-15
  50 488.475 0.00000 -1.29299e-14
  51 488.475 0.00000 2.61192e-14
  52 488.475 0.00000 3.83912e-14
  53 488.475 0.00000 -3.36423e-14
  54 488.475 0.00000 4.90604e-14
  55 488.475 0.00000 -1.88884e-14
  56 488.475 0.00000 -3.75599e-14
  57 488.475 0.00000 9.44229e-14
  58 488.475 0.00000 -1.63816e-14
  59 488.475 0.00000 1.77701e-14
  60 488.475 0.00000 -1.64675e-13
  61 488.475 0.00000 7.28169e-14
  62 488.475 0.00000 -4.29338e-14
  63 488.475 0.00000 1.33856e-14
  64 488.475 0.00000 -4.06218e-14
  65 488.475 0.00000 1.43533e-14
  66 488.475 0.00000 4.14280e-14
</Section>

newXOutput 27

<Section columns = "stress_xx | stress_yy | stress_xy">
  1 508.113 0.00000 1.24986e-14
  2 508.113 0.00000 -1.50453e-13
  3 508.113 0.00000 2.63826e-13
  4 508.113 0.00000 2.45090e-14
  5 508.113 0.00000 2.29532e-14
  6 508.113 0.00000 1.31608e-14
  7 508.113 0.00000 -2.03252e-14
  8 508.113 0.00000 7.72129e-14
  9 508.113 0.00000 -7.16050e-14
  10 508.113 0.00000 -1.50453e-13
  11 508.113 0.00000 -1.78312e-13
  12 508.113 0.00000 2.63216e-14
  13 508.113 0.00000 -2.02939e-13
  14 508.113 0.00000 5.51356e-14
  15 508.113 0.00000 1.07466e-14
  16 508.113 0.00000 1.72097e-14
  17 508.113 0.00000 3.07721e-13
  18 508.113 0.00000 1.93288e-13
  19 508.113 0.00000 -3.82675e-14
  20 508.113 0.00000 -1.30303e-14
  21 508.113 0.00000 -1.31906e-13
  22 508.113 0.00000 3.42740e-14
  23 508.113 0.00000 -2.47176e-14
  24 508.113 0.00000 3.63386e-14
  25 508.113 0.00000 3.65050e-14
  26 508.113 0.00000 -9.87061e-15
  27 508.113 0.00000 -1.07466e-14
  28 508.113 0.00000 7.16441e-15
  29 508.113 0.00000 -4.87133e-15
  30 508.113 0.00000 9.43847e-14
  31 508.113 0.00000 -7.43089e-14
  32 508.113 0.00000 -1.25825e-13
  33 508.113 0.00000 2.18158e-13
  34 508.113 0.00000 -1.23398e-14
  35 508.113 0.00000 2.30107e-15
  36 508.113 0.00000 -1.07957e-13
  37 508.113 0.00000 -1.32999e-13
  38 508.113 0.00000 -3.14237e-14
  39 508.113 0.00000 1.95776e-14
  40 508.113 0.00000 -1.00488e-13
  41 508.113 0.00000 -1.17347e-13
  42 508.113 0.00000 7.10659e-14
  43 508.113 0.00000 3.00574e-14
  44 508.113 0.00000 -9.38596e-15
  45 508.113 0.00000 3.04248e-15
  46 508.113 0.00000 -4.16447e-14
  47 508.113 0.00000 4.03748e-14
  48 508.113 0.00000 -1.13562e-14
  49 508.113 0.00000 5.39960e-14
  50 508.113 0.00000 -1.64640e-15
  51 508.113 0.00000 -6.28834e-14
  52 508.113 0.00000 2.05758e-14
  53 508.113 0.00000 -2.68565e-14
  54 508.113 0.00000 -1.87564e-14
  55 508.113 0.00000 2.28072e-14
  56 508.113 0.00000 -3.56059e-15
  57 508.113 0.00000 8.63247e-14
  58 508.113 0.00000 7.13399e-15
  59 508.113 0.00000 8.18142e-15
  60 508.113 0.00000 -2.41360e-15
  61 508.113 0.00000 1.71620e-13
  62 508.113 0.00000 3.75474e-15
  63 508.113 0.00000 7.23637e-15
  64 508.113 0.00000 1.02066e-14
  65 508.113 0.00000 -1.73067e-13
  66 508.113 0.00000 -2.07860e-13
</Section>

newXOutput 28

<Section columns = "stress_xx | stress_yy | stress_xy">
  1 527.757 0.00000 2.33390e-14
  2 527.757 0.00000 3.60771e-14
  3 527.757 0.00000 -2.06920e-13
  4 527.757 0.00000 4.84218e-15
  5 527.757 0.00000 -4.50557e-14
  6 527.757 0.00000 -1.16180e-13
  7 527.757 0.00000 -1.82755e-13
  8 527.757 0.00000 -1.70228e-13
  9 527.757 0.00000 5.05342e-14
  10 527.757 0.00000 6.15312e-29
  11 527.757 0.00000 1.24646e-13
  12 527.757 0.00000 1.55381e-13
  13 527.757 0.00000 -9.53589e-14
  14 527.757 0.00000 -7.63718e-14
  15 527.757 0.00000 3.22789e-14
  16 527.757 0.00000 -7.53174e-14
  17 527.757 0.00000 8.17774e-14
  18 527.757 0.00000 1.38756e-13
  19 527.757 0.00000 -1.09140e-13
  20 527.757 0.00000 -4.47650e-13
  21 527.757 0.00000 -1.43488e-13
  22 527.757 0.00000 1.63103e-13
  23 527.757 0.00000 4.71441e-14
  24 527.757 0.00000 6.35873e-14
  25 527.757 0.00000 -5.73102e-15
  26 527.757 0.00000 4.49641e-15
  27 527.757 0.00000 0.00000
  28 527.757 0.00000 -1.18669e-15
  29 527.757 0.00000 -1.10660e-14
  30 527.757 0.00000 -8.36474e-14
  31 527.757 0.00000 -1.60642e-14
  32 527.757 0.00000 1.68620e-13
  33 527.757 0.00000 -2.58958e-13
  34 527.757 0.00000 -3.58176e-15
  35 527.757 0.00000 1.25213e-15
  36 527.757 0.00000 6.67732e-14
  37 527.757 0.00000 7.85744e-14
  38 527.757 0.00000 -2.87540e-14
  39 527.757 0.00000 9.88439e-14
  40 527.757 0.00000 7.39596e-14
  41 527.757 0.00000 2.97668e-14
  42 527.757 0.00000 -1.18015e-13
  43 527.757 0.00000 -2.78183e-14
  44 527.757 0.00000 -4.66516e-14
  45 527.757 0.00000 1.75875e-14
  46 527.757 0.00000 -6.24682e-14
  47 527.757 0.00000 1.20288e-13
  48 527.757 0.00000 8.87354e-15
  49 527.757 0.00000 -8.72632e-14
  50 527.757 0.00000 -1.70566e-14
  51 527.757 0.00000 1.20769e-13
  52 527.757 0.00000 9.54723e-14
  53 527.757 0.00000 -4.75342e-14
  54 527.757 0.00000 -1.66195e-13
  55 527.757 0.00000 -1.92314e-14
  56 527.757 0.00000 -2.80975e-14
  57 527.757 0.00000 -2.22575e-13
  58 527.757 0.00000 -1.77433e-16
  59 527.757 0.00000 -2.84117e-14
  60 527.757 0.00000 -9.34670e-14
  61 527.757 0.00000 -1.93039e-13
  62 527.757 0.00000 1.08925e-14
  63 527.757 0.00000 -3.14579e-14
  64 527.757 0.00000 1.57341e-13
  65 527.757 0.00000 1.45160e-13
  66 527.757 0.00000 -1.14443e-13
</Section>

newXOutput 29

<Section columns = "stress_xx | stress_yy | stress_xy">
  1 547.410 0.00000 -3.74281e-14
  2 547.410 0.00000 -6.44545e-15
  3 547.410 0.00000 -2.98918e-14
  4 547.410 0.00000 8.27483e-14
  5 547.410 0.00000 -8.79614e-14
  6 547.410 0.00000 -8.35573e-14
  7 547.410 0.00000 -1.58828e-14
  8 547.410 0.00000 -2.49521e-14
  9 547.410 0.00000 1.55455e-13
  10 547.410 0.00000 3.58720e-13
  11 547.410 0.00000 1.12445e-13
  12 547.410 0.00000 8.83295e-14
  13 547.410 0.00000 1.22458e-13
  14 547.410 0.00000 1.93968e-14
  15 547.410 0.00000 1.07726e-13
  16 547.410 0.00000 8.43856e-14
  17 547.410 0.00000 7.51121e-15
  18 547.410 0.00000 -2.68553e-14
  19 547.410 0.00000 3.13695e-14
  20 547.410 0.00000 -1.77077e-13
  21 547.410 0.00000 7.50458e-14
  22 547.410 0.00000 -3.04809e-15
  23 547.410 0.00000 -2.03324e-13
  24 547.410 0.00000 -3.10428e-13
  25 547.410 0.00000 -1.18131e-14
  26 547.410 0.00000 9.43738e-16
  27 547.410 0.00000 0.00000
  28 547.410 0.00000 -2.11386e-14
  29 547.410 0.00000 3.12042e-14
  30 547.410 0.00000 -1.34187e-13
  31 547.410 0.00000 1.72986e-14
  32 547.410 0.00000 1.15629e-13
  33 547.410 0.00000 -2.71876e-13
  34 547.410 0.00000 2.10678e-13
  35 547.410 0.00000 3.35112e-14
  36 547.410 0.00000 -3.17498e-13
  37 547.410 0.00000 -2.71409e-14
  38 547.410 0.00000 8.10725e-14
  39 547.410 0.00000 -8.95790e-14
  40 547.410 0.00000 -5.19807e-14
  41 547.410 0.00000 2.33762e-13
  42 547.410 0.00000 -6.05713e-14
  43 547.410 0.00000 -8.68818e-14
  44 547.410 0.00000 9.10774e-14
  45 547.410 0.00000 -1.67630e-14
  46 547.410 0.00000 9.54196e-14
  47 547.410 0.00000 -1.64620e-13
  48 547.410 0.00000 1.49541e-13
  49 547.410 0.00000 4.26934e-14
  50 547.410 0.00000 -9.30242e-15
  51 547.410 0.00000 1.60832e-13
  52 547.410 0.00000 2.34152e-15
  53 547.410 0.00000 6.11849e-14
  54 547.410 0.00000 -4.97207e-14
  55 547.410 0.00000 -5.32917e-14
  56 547.410 0.00000 -1.17146e-13
  57 547.410 0.00000 -1.49175e-13
  58 547.410 0.00000 9.30636e-14
  59 547.410 0.00000 9.53802e-14
  60 547.410 0.00000 2.96290e-16
  61 547.410 0.00000 -2.13925e-13
  62 547.410 0.00000 7.79561e-14
  63 547.410 0.00000 -6.64810e-14
  64 547.410 0.00000 -2.65273e-13
  65 547.410 0.00000 1.56857e-13
  66 547.410 0.00000 -7.47655e-14
</Section>

newXOutput 30

<Section columns = "stress_xx | stress_yy | stress_xy">
  1 567.070 0.00000 4.41202e-14
  2 567.070 0.00000 1.07856e-13
  3 567.070 0.00000 -2.74228e-13
  4 567.070 0.00000 4.27019e-15
  5 567.070 0.00000 3.69298e-14
  6 567.070 0.00000 9.77119e-14
  7 567.070 0.00000 1.75198e-13
  8 567.070 0.00000 3.62213e-13
  9 567.070 0.00000 2.35361e-13
  10 567.070 0.00000 4.29534e-13
  11 567.070 0.00000 -1.32865e-13
  12 567.070 0.00000 -3.07381e-14
  13 567.070 0.00000 2.87617e-14
  14 567.070 0.00000 -4.31426e-14
  15 567.070 0.00000 -5.39282e-14
  16 567.070 0.00000 -6.83091e-14
  17 567.070 0.00000 -7.28889e-14
  18 567.070 0.00000 1.60742e-13
  19 567.070 0.00000 1.83786e-14
  20 567.070 0.00000 1.82587e-16
  21 567.070 0.00000 -2.37377e-13
  22 567.070 0.00000 7.97353e-14
  23 567.070 0.00000 2.11491e-13
  24 567.070 0.00000 1.15610e-13
  25 567.070 0.00000 1.22729e-14
  26 567.070 0.00000 1.30350e-15
  27 567.070 0.00000 1.07856e-14
  28 567.070 0.00000 2.54924e-14
  29 567.070 0.00000 -1.34993e-14
  30 567.070 0.00000 -4.73495e-14
  31 567.070 0.00000 -1.11404e-13
  32 567.070 0.00000 -4.75684e-14
  33 567.070 0.00000 3.32463e-14
  34 567.070 0.00000 -1.03526e-13
  35 567.070 0.00000 -2.73647e-14
  36 567.070 0.00000 -4.09967e-15
  37 567.070 0.00000 -1.12855e-13
  38 567.070 0.00000 -4.97151e-14
  39 567.070 0.00000 5.58411e-14
  40 567.070 0.00000 -1.64804e-13
  41 567.070 0.00000 -1.12737e-13
  42 567.070 0.00000 -7.14208e-14
  43 567.070 0.00000 8.81380e-14
  44 567.070 0.00000 1.82393e-14
  45 567.070 0.00000 -5.98935e-14
  46 567.070 0.00000 4.76060e-14
  47 567.070 0.00000 -4.81860e-14
  48 567.070 0.00000 5.24141e-14
  49 567.070 0.00000 3.92321e-14
  50 567.070 0.00000 1.64974e-15
  51 567.070 0.00000 -6.83073e-15
  52 567.070 0.00000 -1.88491e-13
  53 567.070 0.00000 2.67276e-14
  54 567.070 0.00000 2.32459e-14
  55 567.070 0.00000 1.40497e-14
  56 567.070 0.00000 -7.06474e-14
  57 567.070 0.00000 -3.77498e-14
  58 567.070 0.00000 -3.85202e-14
  59 567.070 0.00000 -5.14169e-14
  60 567.070 0.00000 -3.76603e-14
  61 567.070 0.00000 -1.24571e-14
  62 567.070 0.00000 -4.19675e-14
  63 567.070 0.00000 -1.49107e-14
  64 567.070 0.00000 1.17754e-13
  65 567.070 0.00000 -1.94142e-14
  66 567.070 0.00000 -1.35137e-13
</Section>

newXOutput 31

<Section columns = "stress_xx | stress_yy | stress_xy">
  1 586.737 0.00000 4.52177e-14
  2 586.737 0.00000 7.28841e-14
  3 586.737 0.00000 -3.14557e-13
  4 586.737 0.00000 2.78628e-14
  5 586.737 0.00000 -1.38423e-14
  6 586.737 0.00000 -4.68032e-14
  7 586.737 0.00000 9.89650e-15
  8 586.737 0.00000 -9.53926e-14
  9 586.737 0.00000 -1.97752e-13
  10 586.737 0.00000 -6.93847e-13
  11 586.737 0.00000 -2.08564e-13
  12 586.737 0.00000 2.33980e-13
  13 586.737 0.00000 6.56850e-14
  14 586.737 0.00000 -1.43982e-14
  15 586.737 0.00000 -5.39933e-14
  16 586.737 0.00000 1.65584e-13
  17 586.737 0.00000 -4.03011e-13
  18 586.737 0.00000 -1.89047e-13
  19 586.737 0.00000 -1.27590e-14
  20 586.737 0.00000 1.69968e-13
  21 586.737 0.00000 2.97727e-13
  22 586.737 0.00000 1.97851e-14
  23 586.737 0.00000 -2.21865e-13
  24 586.737 0.00000 -2.79425e-13
  25 586.737 0.00000 -3.55941e-14
  26 586.737 0.00000 -1.23933e-15
  27 586.737 0.00000 1.07987e-14
  28 586.737 0.00000 3.88068e-14
  29 586.737 0.00000 4.13536e-14
  30 586.737 0.00000 2.53728e-14
  31 586.737 0.00000 -3.23937e-14
  32 586.737 0.00000 1.47363e-13
  33 586.737 0.00000 9.57061e-14
  34 586.737 0.00000 3.86066e-14
  35 586.737 0.00000 1.10176e-13
  36 586.737 0.00000 2.35154e-13
  37 586.737 0.00000 -1.32968e-13
  38 586.737 0.00000 6.72676e-14
  39 586.737 0.00000 -6.30482e-14
  40 586.737 0.00000 -4.31872e-14
  41 586.737 0.00000 1.25987e-13
  42 586.737 0.00000 2.65027e-13
  43 586.737 0.00000 -8.08284e-14
  44 586.737 0.00000 6.75826e-14
  45 586.737 0.00000 -5.80525e-15
  46 586.737 0.00000 -2.53666e-14
  47 586.737 0.00000 1.90232e-13
  48 586.737 0.00000 7.27223e-15
  49 586.737 0.00000 -3.57705e-14
  50 586.737 0.00000 -1.65192e-14
  51 586.737 0.00000 -1.51301e-13
  52 586.737 0.00000 8.54968e-14
  53 586.737 0.00000 -5.62600e-15
  54 586.737 0.00000 1.73515e-13
  55 586.737 0.00000 2.34495e-14
  56 586.737 0.00000 1.34119e-15
  57 586.737 0.00000 1.24298e-13
  58 586.737 0.00000 1.85172e-14
  59 586.737 0.00000 4.79466e-14
  60 586.737 0.00000 -2.09009e-13
  61 586.737 0.00000 2.80907e-13
  62 586.737 0.00000 2.91895e-14
  63 586.737 0.00000 5.59348e-15
  64 586.737 0.00000 2.39847e-13
  65 586.737 0.00000 -2.25164e-13
  66 586.737 0.00000 3.01164e-13
</Section>

newXOutput 32

<Section columns = "stress_xx | stress_yy | stress_xy">
  1 606.413 0.00000 2.09087e-15
  2 606.413 0.00000 5.16102e-14
  3 606.413 0.00000 -8.49415e-14
  4 606.413 0.00000 6.41898e-14
  5 606.413 0.00000 -4.38333e-14
  6 606.413 0.00000 -1.39863e-13
  7 606.413 0.00000 -2.24853e-13
  8 606.413 0.00000 -1.82303e-13
  9 606.413 0.00000 -5.58051e-14
  10 606.413 0.00000 -4.32467e-14
  11 606.413 0.00000 7.16785e-14
  12 606.413 0.00000 -2.88311e-14
  13 606.413 0.00000 -7.53420e-14
  14 606.413 0.00000 -6.48700e-14
  15 606.413 0.00000 -7.56816e-14
  16 606.413 0.00000 4.50486e-14
  17 606.413 0.00000 -1.03033e-13
  18 606.413 0.00000 -5.84987e-14
  19 606.413 0.00000 7.31616e-14
  20 606.413 0.00000 -2.22842e-13
  21 606.413 0.00000 -5.46230e-15
  22 606.413 0.00000 8.85890e-14
  23 606.413 0.00000 2.04554e-13
  24 606.413 0.00000 2.40053e-13
  25 606.413 0.00000 1.21297e-13
  26 606.413 0.00000 -9.53685e-15
  27 606.413 0.00000 0.00000
  28 606.413 0.00000 -5.81386e-15
  29 606.413 0.00000 -1.02132e-13
  30 606.413 0.00000 -3.08260e-14
  31 606.413 0.00000 -2.83804e-15
  32 606.413 0.00000 -4.51170e-14
  33 606.413 0.00000 -4.14721e-14
  34 606.413 0.00000 -1.39633e-13
  35 606.413 0.00000 5.00281e-14
  36 606.413 0.00000 1.62950e-13
  37 606.413 0.00000 1.62779e-13
  38 606.413 0.00000 -1.23122e-13
  39 606.413 0.00000 8.90867e-14
  40 606.413 0.00000 1.78234e-13
  41 606.413 0.00000 -1.87070e-14
  42 606.413 0.00000 2.38333e-14
  43 606.413 0.00000 -1.79833e-14
  44 606.413 0.00000 -1.06251e-13
  45 606.413 0.00000 -9.47130e-15
  46 606.413 0.00000 -5.92878e-14
  47 606.413 0.00000 1.52284e-13
  48 606.413 0.00000 1.32507e-13
  49 606.413 0.00000 -1.26846e-13
  50 606.413 0.00000 -4.00276e-14
  51 606.413 0.00000 -6.43974e-14
  52 606.413 0.00000 -9.86578e-14
  53 606.413 0.00000 -1.93573e-13
  54 606.413 0.00000 -1.57718e-14
  55 606.413 0.00000 2.15042e-14
  56 606.413 0.00000 2.82776e-14
  57 606.413 0.00000 -1.16277e-14
  58 606.413 0.00000 -1.19598e-14
  59 606.413 0.00000 -1.30703e-13
  60 606.413 0.00000 -8.18292e-14
  61 606.413 0.00000 5.73018e-14
  62 606.413 0.00000 1.11438e-13
  63 606.413 0.00000 -6.60087e-14
  64 606.413 0.00000 1.23806e-13
  65 606.413 0.00000 1.67275e-13
  66 606.413 0.00000 5.70674e-14
</Section>

newXOutput 33

<Section columns = "stress_xx | stress_yy | stress_xy">
  1 643.161 0.00000 4.43781e-14
  2 643.161 0.00000 2.94900e-13
  3 643.161 0.00000 -3.76347e-13
  4 643.161 0.00000 8.51604e-14
  5 643.161 0.00000 1.81788e-14
  6 643.161 0.00000 6.46519e-14
  7 643.161 0.00000 1.13284e-13
  8 643.161 0.00000 1.03701e-14
  9 643.161 0.00000 -9.64849e-14
  10 643.161 0.00000 -2.51407e-14
  11 643.161 0.00000 -2.82678e-14
  12 643.161 0.00000 -3.44716e-13
  13 643.161 0.00000 4.34467e-14
  14 643.161 0.00000 9.41099e-14
  15 643.161 0.00000 -3.31322e-29
  16 643.161 0.00000 9.70778e-14
  17 643.161 0.00000 -3.40734e-13
  18 643.161 0.00000 -3.56109e-13
  19 643.161 0.00000 -6.61981e-14
  20 643.161 0.00000 -8.35476e-14
  21 643.161 0.00000 -3.09359e-13
  22 643.161 0.00000 -2.67201e-13
  23 643.161 0.00000 -4.49970e-14
  24 643.161 0.00000 9.22574e-14
  25 643.161 0.00000 1.13884e-13
  26 643.161 0.00000 -1.12689e-14
  27 643.161 0.00000 1.08247e-14
  28 643.161 0.00000 1.98401e-14
  29 643.161 0.00000 -8.99951e-14
  30 643.161 0.00000 -1.93265e-14
  31 643.161 0.00000 3.31864e-14
  32 643.161 0.00000 -8.31263e-14
  33 643.161 0.00000 -6.88586e-14
  34 643.161 0.00000 -1.38624e-13
  35 643.161 0.00000 3.50169e-14
  36 643.161 0.00000 3.13916e-14
  37 643.161 0.00000 1.45704e-13
  38 643.161 0.00000 -1.05397e-13
  39 643.161 0.00000 -9.84635e-15
  40 643.161 0.00000 6.97442e-14
  41 643.161 0.00000 -8.59878e-14
  42 643.161 0.00000 -1.02538e-13
  43 643.161 0.00000 6.26059e-14
  44 643.161 0.00000 -4.81341e-14
  45 643.161 0.00000 -1.69994e-14
  46 643.161 0.00000 3.21251e-14
  47 643.161 0.00000 -2.02353e-13
  48 643.161 0.00000 -1.66529e-13
  49 643.161 0.00000 1.09582e-13
  50 643.161 0.00000 -5.12382e-14
  51 643.161 0.00000 1.66344e-13
  52 643.161 0.00000 -1.26434e-13
  53 643.161 0.00000 7.69036e-14
  54 643.161 0.00000 -1.10544e-13
  55 643.161 0.00000 4.10186e-14
  56 643.161 0.00000 -6.22312e-14
  57 643.161 0.00000 3.83942e-14
  58 643.161 0.00000 -3.55291e-14
  59 643.161 0.00000 -1.21253e-13
  60 643.161 0.00000 1.74790e-13
  61 643.161 0.00000 -1.60147e-13
  62 643.161 0.00000 5.16819e-14
  63 643.161 0.00000 6.95573e-14
  64 643.161 0.00000 -2.90561e-13
  65 643.161 0.00000 -8.30383e-14
  66 643.161 0.00000 -1.44833e-13
</Section>

newXOutput 34

<Section columns = "stress_xx | stress_yy | stress_xy">
  1 686.249 0.00000 2.16754e-14
  2 686.249 0.00000 -4.33507e-14
  3 686.249 0.00000 -2.21452e-13
  4 686.249 0.00000 4.50940e-14
  5 686.249 0.00000 -9.40492e-15
  6 686.249 0.00000 1.30553e-14
  7 686.249 0.00000 1.43996e-13
  8 686.249 0.00000 1.23316e-13
  9 686.249 0.00000 4.10818e-14
  10 686.249 0.00000 1.74291e-13
  11 686.249 0.00000 2.98774e-13
  12 686.249 0.00000 2.36645e-13
  13 686.249 0.00000 1.68057e-13
  14 686.249 0.00000 -1.53015e-13
  15 686.249 0.00000 -1.09265e-13
  16 686.249 0.00000 -8.39771e-14
  17 686.249 0.00000 -3.11849e-13
  18 686.249 0.00000 8.68721e-14
  19 686.249 0.00000 2.08764e-13
  20 686.249 0.00000 -1.68721e-13
  21 686.249 0.00000 -1.38788e-13
  22 686.249 0.00000 9.32590e-14
  23 686.249 0.00000 5.62554e-14
  24 686.249 0.00000 8.04366e-14
  25 686.249 0.00000 2.43696e-14
  26 686.249 0.00000 3.50928e-15
  27 686.249 0.00000 2.16754e-14
  28 686.249 0.00000 -1.38596e-15
  29 686.249 0.00000 -5.52033e-14
  30 686.249 0.00000 -1.99002e-13
  31 686.249 0.00000 5.48516e-15
  32 686.249 0.00000 -4.53615e-14
  33 686.249 0.00000 -2.57554e-13
  34 686.249 0.00000 -1.39438e-13
  35 686.249 0.00000 4.71984e-14
  36 686.249 0.00000 -9.19431e-14
  37 686.249 0.00000 5.12480e-14
  38 686.249 0.00000 -2.86958e-14
  39 686.249 0.00000 8.81930e-14
  40 686.249 0.00000 8.87836e-14
  41 686.249 0.00000 -7.88606e-14
  42 686.249 0.00000 2.02991e-14
  43 686.249 0.00000 -4.35380e-14
  44 686.249 0.00000 -7.31070e-15
  45 686.249 0.00000 -4.14390e-14
  46 686.249 0.00000 4.25540e-14
  47 686.249 0.00000 1.19204e-13
  48 686.249 0.00000 7.74061e-14
  49 686.249 0.00000 -1.31742e-13
  50 686.249 0.00000 -4.64964e-14
  51 686.249 0.00000 -2.44442e-14
  52 686.249 0.00000 -6.97316e-14
  53 686.249 0.00000 -1.93076e-13
  54 686.249 0.00000 -8.78771e-14
  55 686.249 0.00000 1.62799e-14
  56 686.249 0.00000 -2.48249e-13
  57 686.249 0.00000 -1.08997e-13
  58 686.249 0.00000 -5.57976e-14
  59 686.249 0.00000 -9.81478e-14
  60 686.249 0.00000 -7.40263e-14
  61 686.249 0.00000 8.74711e-14
  62 686.249 0.00000 -3.27644e-16
  63 686.249 0.00000 3.60872e-14
  64 686.249 0.00000 -2.92019e-13
  65 686.249 0.00000 1.26752e-13
  66 686.249 0.00000 -1.50900e-13
</Section>

newXOutput 35

<Section columns = "stress_xx | stress_yy | stress_xy">
  1 729.467 0.00000 2.17014e-14
  2 729.467 0.00000 -2.19678e-13
  3 729.467 0.00000 4.95157e-14
  4 729.467 0.00000 4.12345e-14
  5 729.467 0.00000 3.22659e-14
  6 729.467 0.00000 -3.21715e-15
  7 729.467 0.00000 2.25798e-14
  8 729.467 0.00000 -3.51321e-15
  9 729.467 0.00000 4.03053e-14
  10 729.467 0.00000 3.50568e-13
  11 729.467 0.00000 1.13392e-14
  12 729.467 0.00000 2.88661e-14
  13 729.467 0.00000 1.79808e-14
  14 729.467 0.00000 -6.57654e-14
  15 729.467 0.00000 -4.34028e-14
  16 729.467 0.00000 1.00580e-13
  17 729.467 0.00000 -9.57127e-14
  18 729.467 0.00000 -1.34401e-13
  19 729.467 0.00000 -2.76719e-13
  20 729.467 0.00000 -1.91259e-13
  21 729.467 0.00000 -1.09607e-14
  22 729.467 0.00000 -5.56876e-15
  23 729.467 0.00000 2.14245e-14
  24 729.467 0.00000 8.09087e-14
  25 729.467 0.00000 2.45896e-14
  26 729.467 0.00000 -3.72049e-15
  27 729.467 0.00000 0.00000
  28 729.467 0.00000 -2.80667e-14
  29 729.467 0.00000 -8.81671e-14
  30 729.467 0.00000 -2.68528e-13
  31 729.467 0.00000 -8.64747e-14
  32 729.467 0.00000 -5.10128e-14
  33 729.467 0.00000 6.15898e-14
  34 729.467 0.00000 -5.45109e-14
  35 729.467 0.00000 -2.77799e-14
  36 729.467 0.00000 -1.64469e-15
  37 729.467 0.00000 9.57719e-14
  38 729.467 0.00000 -1.21298e-13
  39 729.467 0.00000 8.31266e-15
  40 729.467 0.00000 -1.20982e-13
  41 729.467 0.00000 4.60468e-14
  42 729.467 0.00000 -1.90283e-13
  43 729.467 0.00000 1.01493e-13
  44 729.467 0.00000 -5.13743e-14
  45 729.467 0.00000 -8.48749e-15
  46 729.467 0.00000 -6.03382e-14
  47 729.467 0.00000 -2.04536e-13
  48 729.467 0.00000 7.04754e-14
  49 729.467 0.00000 1.12327e-13
  50 729.467 0.00000 -5.64489e-14
  51 729.467 0.00000 -1.45457e-13
  52 729.467 0.00000 -1.23390e-13
  53 729.467 0.00000 -1.56222e-13
  54 729.467 0.00000 8.97273e-14
  55 729.467 0.00000 -1.08383e-14
  56 729.467 0.00000 1.25905e-13
  57 729.467 0.00000 -1.11204e-13
  58 729.467 0.00000 -1.60214e-14
  59 729.467 0.00000 -7.29067e-14
  60 729.467 0.00000 -1.92982e-14
  61 729.467 0.00000 -6.70138e-14
  62 729.467 0.00000 4.51386e-14
  63 729.467 0.00000 -1.59122e-14
  64 729.467 0.00000 8.18301e-14
  65 729.467 0.00000 -2.36317e-14
  66 729.467 0.00000 1.10371e-13
</Section>

newXOutput 36

<Section columns = "stress_xx | stress_yy | stress_xy">
  1 772.816 0.00000 4.34548e-14
  2 772.816 0.00000 1.01688e-13
  3 772.816 0.00000 -4.97949e-13
  4 772.816 0.00000 6.03518e-14
  5 772.816 0.00000 2.75919e-15
  6 772.816 0.00000 5.33074e-14
  7 772.816 0.00000 1.18041e-13
  8 772.816 0.00000 -6.45499e-14
  9 772.816 0.00000 -1.59554e-13
  10 772.816 0.00000 -2.50968e-13
  11 772.816 0.00000 8.41848e-14
  12 772.816 0.00000 -1.18248e-13
  13 772.816 0.00000 -4.62955e-13
  14 772.816 0.00000 4.46391e-14
  15 772.816 0.00000 -2.20827e-13
  16 772.816 0.00000 2.54918e-14
  17 772.816 0.00000 -3.93117e-13
  18 772.816 0.00000 -1.28869e-13
  19 772.816 0.00000 1.50253e-13
  20 772.816 0.00000 2.94156e-13
  21 772.816 0.00000 -1.51686e-14
  22 772.816 0.00000 -1.58807e-13
  23 772.816 0.00000 -6.54675e-14
  24 772.816 0.00000 5.70264e-14
  25 772.816 0.00000 1.00893e-14
  26 772.816 0.00000 2.55933e-14
  27 772.816 0.00000 2.17274e-14
  28 772.816 0.00000 -1.35394e-14
  29 772.816 0.00000 -2.11880e-14
  30 772.816 0.00000 -2.85539e-13
  31 772.816 0.00000 1.28473e-13
  32 772.816 0.00000 -1.60108e-13
  33 772.816 0.00000 1.45098e-13
  34 772.816 0.00000 -9.15169e-14
  35 772.816 0.00000 -2.27977e-14
  36 772.816 0.00000 6.25328e-13
  37 772.816 0.00000 -1.51060e-13
  38 772.816 0.00000 1.65041e-13
  39 772.816 0.00000 -4.45360e-14
  40 772.816 0.00000 6.78303e-15
  41 772.816 0.00000 -2.28397e-13
  42 772.816 0.00000 1.49054e-13
  43 772.816 0.00000 -9.99289e-14
  44 772.816 0.00000 1.22827e-13
  45 772.816 0.00000 -4.49649e-14
  46 772.816 0.00000 1.13086e-13
  47 772.816 0.00000 2.80426e-13
  48 772.816 0.00000 -1.46107e-13
  49 772.816 0.00000 -5.04085e-14
  50 772.816 0.00000 -5.01921e-14
  51 772.816 0.00000 2.83455e-15
  52 772.816 0.00000 1.14408e-13
  53 772.816 0.00000 -3.13726e-14
  54 772.816 0.00000 2.83468e-14
  55 772.816 0.00000 -4.06196e-14
  56 772.816 0.00000 1.78376e-13
  57 772.816 0.00000 1.90236e-13
  58 772.816 0.00000 -2.08722e-14
  59 772.816 0.00000 -7.47737e-14
  60 772.816 0.00000 -5.46775e-13
  61 772.816 0.00000 2.27137e-13
  62 772.816 0.00000 -1.10825e-14
  63 772.816 0.00000 1.85560e-14
  64 772.816 0.00000 5.50118e-13
  65 772.816 0.00000 -3.40355e-13
  66 772.816 0.00000 8.76285e-14
</Section>

newXOutput 37

<Section columns = "stress_xx | stress_yy | stress_xy">
  1 816.297 0.00000 -1.53279e-13
  2 816.297 0.00000 -6.45006e-13
  3 816.297 0.00000 8.65396e-13
  4 816.297 0.00000 -1.75529e-13
  5 816.297 0.00000 -2.24211e-13
  6 816.297 0.00000 -8.10189e-14
  7 816.297 0.00000 -5.11967e-14
  8 816.297 0.00000 4.89372e-13
  9 816.297 0.00000 3.89829e-13
  10 816.297 0.00000 4.71164e-13
  11 816.297 0.00000 1.19822e-13
  12 816.297 0.00000 1.02286e-13
  13 816.297 0.00000 1.58960e-14
  14 816.297 0.00000 -3.88657e-13
  15 816.297 0.00000 1.57159e-13
  16 816.297 0.00000 4.24662e-13
  17 816.297 0.00000 3.38409e-13
  18 816.297 0.00000 -1.79532e-13
  19 816.297 0.00000 -2.57157e-13
  20 816.297 0.00000 -6.46184e-13
  21 816.297 0.00000 -5.01546e-13
  22 816.297 0.00000 -6.48192e-13
  23 816.297 0.00000 -6.22015e-13
  24 816.297 0.00000 -8.38783e-13
  25 816.297 0.00000 -6.89153e-14
  26 816.297 0.00000 -4.53685e-14
  27 816.297 0.00000 1.10988e-13
  28 816.297 0.00000 2.31685e-14
  29 816.297 0.00000 -1.30802e-13
  30 816.297 0.00000 -2.61941e-13
  31 816.297 0.00000 -5.00710e-13
  32 816.297 0.00000 3.42541e-13
  33 816.297 0.00000 -1.49113e-13
  34 816.297 0.00000 3.80630e-13
  35 816.297 0.00000 -5.89232e-13
  36 816.297 0.00000 -6.66761e-13
  37 816.297 0.00000 7.30099e-14
  38 816.297 0.00000 3.98644e-13
  39 816.297 0.00000 -8.27401e-13
  40 816.297 0.00000 8.48856e-14
  41 816.297 0.00000 -1.24485e-13
  42 816.297 0.00000 2.72585e-14
  43 816.297 0.00000 -1.70819e-13
  44 816.297 0.00000 -2.50879e-14
  45 816.297 0.00000 -2.80174e-13
  46 816.297 0.00000 -4.07001e-14
  47 816.297 0.00000 -5.45257e-13
  48 816.297 0.00000 -5.87360e-13
  49 816.297 0.00000 1.45448e-14
  50 816.297 0.00000 6.54494e-14
  51 816.297 0.00000 -2.29545e-13
  52 816.297 0.00000 -3.03410e-13
  53 816.297 0.00000 -3.08923e-13
  54 816.297 0.00000 3.06073e-15
  55 816.297 0.00000 -3.56683e-13
  56 816.297 0.00000 2.49061e-13
  57 816.297 0.00000 -3.87091e-13
  58 816.297 0.00000 -1.71189e-14
  59 816.297 0.00000 4.99595e-13
  60 816.297 0.00000 4.52131e-14
  61 816.297 0.00000 -1.56528e-13
  62 816.297 0.00000 -4.26383e-13
  63 816.297 0.00000 -3.82561e-13
  64 816.297 0.00000 -4.16839e-13
  65 816.297 0.00000 7.20733e-13
  66 816.297 0.00000 -2.47674e-13
</Section>

newXOutput 38

<Section columns = "stress_xx | stress_yy | stress_xy">
  1 859.910 0.00000 3.57459e-13
  2 859.910 0.00000 5.10834e-13
  3 859.910 0.00000 -7.79842e-13
  4 859.910 0.00000 -1.25835e-13
  5 859.910 0.00000 1.02228e-12
  6 859.910 0.00000 8.80144e-13
  7 859.910 0.00000 6.64596e-13
  8 859.910 0.00000 9.86682e-14
  9 859.910 0.00000 2.16825e-13
  10 859.910 0.00000 -6.71147e-14
  11 859.910 0.00000 2.54943e-13
  12 859.910 0.00000 8.60642e-13
  13 859.910 0.00000 -1.62607e-13
  14 859.910 0.00000 5.24345e-13
  15 859.910 0.00000 -1.81341e-13
  16 859.910 0.00000 -3.39840e-13
  17 859.910 0.00000 -3.17455e-13
  18 859.910 0.00000 7.06798e-13
  19 859.910 0.00000 3.54244e-13
  20 859.910 0.00000 7.63810e-13
  21 859.910 0.00000 7.19148e-13
  22 859.910 0.00000 8.23182e-13
  23 859.910 0.00000 7.90804e-13
  24 859.910 0.00000 9.12519e-13
  25 859.910 0.00000 -6.37288e-13
  26 859.910 0.00000 2.08304e-13
  27 859.910 0.00000 -4.35589e-14
  28 859.910 0.00000 1.24377e-14
  29 859.910 0.00000 1.00087e-14
  30 859.910 0.00000 3.78251e-13
  31 859.910 0.00000 4.34660e-13
  32 859.910 0.00000 -4.51870e-13
  33 859.910 0.00000 -3.35740e-13
  34 859.910 0.00000 -3.66647e-13
  35 859.910 0.00000 7.30950e-13
  36 859.910 0.00000 1.09370e-12
  37 859.910 0.00000 7.36587e-14
  38 859.910 0.00000 2.66779e-13
  39 859.910 0.00000 9.72194e-13
  40 859.910 0.00000 2.29816e-13
  41 859.910 0.00000 1.07089e-13
  42 859.910 0.00000 6.05865e-15
  43 859.910 0.00000 4.54694e-13
  44 859.910 0.00000 6.52054e-13
  45 859.910 0.00000 5.01226e-14
  46 859.910 0.00000 5.37725e-13
  47 859.910 0.00000 9.59110e-13
  48 859.910 0.00000 6.69731e-13
  49 859.910 0.00000 -1.77445e-13
  50 859.910 0.00000 1.89586e-13
  51 859.910 0.00000 -9.71345e-14
  52 859.910 0.00000 4.72516e-13
  53 859.910 0.00000 3.22294e-13
  54 859.910 0.00000 -4.96112e-14
  55 859.910 0.00000 6.03183e-13
  56 859.910 0.00000 8.76434e-14
  57 859.910 0.00000 2.96682e-13
  58 859.910 0.00000 -3.84939e-14
  59 859.910 0.00000 -3.98432e-13
  60 859.910 0.00000 -6.70530e-13
  61 859.910 0.00000 6.96495e-14
  62 859.910 0.00000 3.44470e-13
  63 859.910 0.00000 5.31452e-13
  64 859.910 0.00000 1.47438e-12
  65 859.910 0.00000 -1.44694e-13
  66 859.910 0.00000 2.43693e-13
</Section>

newXOutput 39

<Section columns = "stress_xx | stress_yy | stress_xy">
  1 903.657 0.00000 -5.19874e-13
  2 903.657 0.00000 -3.80469e-13
  3 903.657 0.00000 1.94384e-13
  4 903.657 0.00000 8.40292e-14
  5 903.657 0.00000 -8.23725e-13
  6 903.657 0.00000 -5.16070e-13
  7 903.657 0.00000 -4.58139e-13
  8 903.657 0.00000 -4.64147e-13
  9 903.657 0.00000 -6.33389e-13
  10 903.657 0.00000 3.42272e-14
  11 903.657 0.00000 -8.51744e-14
  12 903.657 0.00000 -1.03074e-12
  13 903.657 0.00000 -7.21713e-13
  14 903.657 0.00000 -1.15806e-14
  15 903.657 0.00000 2.94129e-13
  16 903.657 0.00000 1.35570e-13
  17 903.657 0.00000 -3.35407e-13
  18 903.657 0.00000 -6.85897e-13
  19 903.657 0.00000 -5.42333e-13
  20 903.657 0.00000 -5.12771e-13
  21 903.657 0.00000 -1.07258e-13
  22 903.657 0.00000 -4.34049e-13
  23 903.657 0.00000 -4.31841e-13
  24 903.657 0.00000 -1.25990e-13
  25 903.657 0.00000 3.44668e-13
  26 903.657 0.00000 -5.62360e-14
  27 903.657 0.00000 -1.59744e-13
  28 903.657 0.00000 -1.90440e-13
  29 903.657 0.00000 -4.57740e-13
  30 903.657 0.00000 -6.90132e-13
  31 903.657 0.00000 2.70825e-14
  32 903.657 0.00000 2.41156e-14
  33 903.657 0.00000 9.55680e-13
  34 903.657 0.00000 6.26904e-14
  35 903.657 0.00000 -4.73588e-13
  36 903.657 0.00000 -1.91363e-13
  37 903.657 0.00000 1.67304e-14
  38 903.657 0.00000 -3.32581e-13
  39 903.657 0.00000 -4.38055e-13
  40 903.657 0.00000 1.14998e-13
  41 903.657 0.00000 1.18556e-13
  42 903.657 0.00000 -1.56913e-13
  43 903.657 0.00000 -3.34873e-13
  44 903.657 0.00000 -5.12185e-13
  45 903.657 0.00000 -1.45409e-13
  46 903.657 0.00000 -4.03558e-13
  47 903.657 0.00000 -4.23490e-13
  48 903.657 0.00000 -1.37922e-13
  49 903.657 0.00000 3.25298e-13
  50 903.657 0.00000 -2.03277e-13
  51 903.657 0.00000 -4.73141e-14
  52 903.657 0.00000 -4.92737e-13
  53 903.657 0.00000 -8.74794e-13
  54 903.657 0.00000 -2.42793e-13
  55 903.657 0.00000 -4.20658e-13
  56 903.657 0.00000 -3.52180e-13
  57 903.657 0.00000 4.39666e-14
  58 903.657 0.00000 2.70668e-14
  59 903.657 0.00000 -2.47390e-13
  60 903.657 0.00000 5.83896e-13
  61 903.657 0.00000 5.29934e-13
  62 903.657 0.00000 -4.34369e-14
  63 903.657 0.00000 -2.94705e-13
  64 903.657 0.00000 -1.19522e-12
  65 903.657 0.00000 -3.69959e-14
  66 903.657 0.00000 1.45767e-13
</Section>

newXOutput 40

<Section columns = "stress_xx | stress_yy | stress_xy">
  1 947.538 0.00000 6.80460e-13
  2 947.538 0.00000 5.42096e-13
  3 947.538 0.00000 1.68924e-13
  4 947.538 0.00000 2.40650e-13
  5 947.538 0.00000 5.52929e-13
  6 947.538 0.00000 5.58173e-13
  7 947.538 0.00000 6.66080e-13
  8 947.538 0.00000 5.00190e-13
  9 947.538 0.00000 3.34541e-13
  10 947.538 0.00000 2.67748e-13
  11 947.538 0.00000 3.45935e-13
  12 947.538 0.00000 9.26891e-13
  13 947.538 0.00000 5.88594e-13
  14 947.538 0.00000 2.18353e-13
  15 947.538 0.00000 -2.03589e-13
  16 947.538 0.00000 4.84683e-13
  17 947.538 0.00000 -8.09655e-14
  18 947.538 0.00000 9.50151e-13
  19 947.538 0.00000 1.12741e-12
  20 947.538 0.00000 2.21823e-13
  21 947.538 0.00000 3.53225e-13
  22 947.538 0.00000 6.30590e-13
  23 947.538 0.00000 4.59413e-13
  24 947.538 0.00000 2.16845e-13
  25 947.538 0.00000 -4.55187e-13
  26 947.538 0.00000 1.38824e-13
  27 947.538 0.00000 8.73260e-14
  28 947.538 0.00000 3.45194e-13
  29 947.538 0.00000 4.74660e-13
  30 947.538 0.00000 5.13673e-13
  31 947.538 0.00000 3.83054e-13
  32 947.538 0.00000 6.90049e-13
  33 947.538 0.00000 -8.73978e-13
  34 947.538 0.00000 -2.47254e-13
  35 947.538 0.00000 1.38833e-12
  36 947.538 0.00000 4.46333e-13
  37 947.538 0.00000 2.15002e-13
  38 947.538 0.00000 5.96430e-13
  39 947.538 0.00000 5.51542e-13
  40 947.538 0.00000 3.24128e-13
  41 947.538 0.00000 2.23394e-13
  42 947.538 0.00000 1.07084e-12
  43 947.538 0.00000 -9.50583e-16
  44 947.538 0.00000 8.55381e-13
  45 947.538 0.00000 1.78107e-13
  46 947.538 0.00000 5.26476e-13
  47 947.538 0.00000 9.25379e-13
  48 947.538 0.00000 3.44326e-13
  49 947.538 0.00000 6.92860e-14
  50 947.538 0.00000 1.22446e-13
  51 947.538 0.00000 3.22242e-14
  52 947.538 0.00000 5.68247e-13
  53 947.538 0.00000 6.18962e-13
  54 947.538 0.00000 7.80765e-13
  55 947.538 0.00000 7.82874e-13
  56 947.538 0.00000 3.79057e-13
  57 947.538 0.00000 1.08015e-13
  58 947.538 0.00000 -1.03759e-14
  59 947.538 0.00000 1.03355e-13
  60 947.538 0.00000 -4.79221e-13
  61 947.538 0.00000 -6.81356e-13
  62 947.538 0.00000 9.63104e-14
  63 947.538 0.00000 1.10172e-12
  64 947.538 0.00000 1.06487e-12
  65 947.538 0.00000 1.69114e-13
  66 947.538 0.00000 5.12399e-13
</Section>

newXOutput 41

<Section columns = "stress_xx | stress_yy | stress_xy">
  1 991.554 0.00000 -3.49680e-13
  2 991.554 0.00000 -2.90973e-13
  3 991.554 0.00000 -5.72142e-13
  4 991.554 0.00000 -1.77495e-14
  5 991.554 0.00000 -2.57883e-13
  6 991.554 0.00000 -4.11655e-13
  7 991.554 0.00000 -5.99049e-13
  8 991.554 0.00000 -4.81379e-13
  9 991.554 0.00000 -5.38058e-13
  10 991.554 0.00000 -4.75992e-13
  11 991.554 0.00000 -3.40971e-13
  12 991.554 0.00000 -9.69344e-13
  13 991.554 0.00000 -9.83856e-14
  14 991.554 0.00000 -3.99847e-13
  15 991.554 0.00000 1.41803e-13
  16 991.554 0.00000 -4.19032e-13
  17 991.554 0.00000 2.68034e-14
  18 991.554 0.00000 -1.12738e-12
  19 991.554 0.00000 -1.10762e-12
  20 991.554 0.00000 -8.52387e-13
  21 991.554 0.00000 -5.46530e-13
  22 991.554 0.00000 -4.24908e-13
  23 991.554 0.00000 -5.15573e-13
  24 991.554 0.00000 -5.92162e-13
  25 991.554 0.00000 -2.07581e-14
  26 991.554 0.00000 -1.55727e-13
  27 991.554 0.00000 -3.24657e-13
  28 991.554 0.00000 -2.95292e-13
  29 991.554 0.00000 -5.50182e-13
  30 991.554 0.00000 -5.86872e-13
  31 991.554 0.00000 -2.94311e-13
  32 991.554 0.00000 3.25783e-14
  33 991.554 0.00000 -1.69358e-13
  34 991.554 0.00000 5.80910e-14
  35 991.554 0.00000 -8.04766e-13
  36 991.554 0.00000 -1.44781e-13
  37 991.554 0.00000 -8.45431e-13
  38 991.554 0.00000 -3.12831e-13
  39 991.554 0.00000 -6.78507e-13
  40 991.554 0.00000 -7.77598e-13
  41 991.554 0.00000 -3.22993e-13
  42 991.554 0.00000 -3.34321e-13
  43 991.554 0.00000 -5.61423e-13
  44 991.554 0.00000 -7.14908e-13
  45 991.554 0.00000 -1.37129e-13
  46 991.554 0.00000 -1.96480e-13
  47 991.554 0.00000 -8.54358e-13
  48 991.554 0.00000 -4.73863e-13
  49 991.554 0.00000 -5.57776e-14
  50 991.554 0.00000 -3.92701e-13
  51 991.554 0.00000 -5.34021e-13
  52 991.554 0.00000 -5.30617e-13
  53 991.554 0.00000 -1.06868e-12
  54 991.554 0.00000 -2.38468e-13
  55 991.554 0.00000 -4.49774e-13
  56 991.554 0.00000 -3.62951e-13
  57 991.554 0.00000 -4.86342e-13
  58 991.554 0.00000 7.80814e-15
  59 991.554 0.00000 -5.69921e-13
  60 991.554 0.00000 5.16143e-13
  61 991.554 0.00000 -2.40778e-13
  62 991.554 0.00000 3.50428e-14
  63 991.554 0.00000 -5.12579e-13
  64 991.554 0.00000 -4.94158e-13
  65 991.554 0.00000 -6.02713e-13
  66 991.554 0.00000 -7.23440e-13
</Section>

newXOutput 42

<Section columns = "stress_xx | stress_yy | stress_xy">
  1 1035.70 0.00000 6.14948e-14
  2 1035.70 0.00000 3.71739e-13
  3 1035.70 0.00000 3.01950e-13
  4 1035.70 0.00000 -3.86270e-13
  5 1035.70 0.00000 -1.03829e-13
  6 1035.70 0.00000 -1.07952e-14
  7 1035.70 0.00000 4.76475e-13
  8 1035.70 0.00000 -4.54982e-14
  9 1035.70 0.00000 2.76579e-13
  10 1035.70 0.00000 -2.44798e-13
  11 1035.70 0.00000 2.64687e-14
  12 1035.70 0.00000 5.69447e-13
  13 1035.70 0.00000 6.19565e-13
  14 1035.70 0.00000 -8.02414e-14
  15 1035.70 0.00000 -8.75341e-14
  16 1035.70 0.00000 6.73194e-13
  17 1035.70 0.00000 -2.84698e-13
  18 1035.70 0.00000 1.05067e-12
  19 1035.70 0.00000 1.04778e-12
  20 1035.70 0.00000 6.98285e-13
  21 1035.70 0.00000 1.55302e-13
  22 1035.70 0.00000 1.60856e-13
  23 1035.70 0.00000 -4.38737e-13
  24 1035.70 0.00000 -3.25053e-13
  25 1035.70 0.00000 -1.61968e-13
  26 1035.70 0.00000 3.82737e-14
  27 1035.70 0.00000 2.29494e-13
  28 1035.70 0.00000 9.38574e-14
  29 1035.70 0.00000 -1.06468e-13
  30 1035.70 0.00000 4.72461e-13
  31 1035.70 0.00000 -4.31378e-13
  32 1035.70 0.00000 -7.50953e-14
  33 1035.70 0.00000 -1.01324e-13
  34 1035.70 0.00000 9.52741e-14
  35 1035.70 0.00000 1.47118e-13
  36 1035.70 0.00000 1.04553e-13
  37 1035.70 0.00000 8.66774e-13
  38 1035.70 0.00000 -2.80590e-13
  39 1035.70 0.00000 -1.24594e-13
  40 1035.70 0.00000 8.72306e-13
  41 1035.70 0.00000 -4.00501e-13
  42 1035.70 0.00000 4.64596e-13
  43 1035.70 0.00000 8.14746e-13
  44 1035.70 0.00000 1.79761e-13
  45 1035.70 0.00000 -5.91402e-13
  46 1035.70 0.00000 -2.44298e-13
  47 1035.70 0.00000 3.20770e-13
  48 1035.70 0.00000 -7.27725e-14
  49 1035.70 0.00000 -1.33056e-13
  50 1035.70 0.00000 3.35847e-13
  51 1035.70 0.00000 -8.35594e-14
  52 1035.70 0.00000 -4.04517e-13
  53 1035.70 0.00000 6.72225e-13
  54 1035.70 0.00000 4.64671e-13
  55 1035.70 0.00000 -2.23812e-15
  56 1035.70 0.00000 5.74367e-13
  57 1035.70 0.00000 1.25598e-13
  58 1035.70 0.00000 4.72572e-14
  59 1035.70 0.00000 3.49228e-13
  60 1035.70 0.00000 -8.08647e-13
  61 1035.70 0.00000 3.12936e-13
  62 1035.70 0.00000 -3.32805e-13
  63 1035.70 0.00000 -1.80411e-13
  64 1035.70 0.00000 7.34133e-13
  65 1035.70 0.00000 6.80395e-13
  66 1035.70 0.00000 2.87810e-13
</Section>

newXOutput 43

<Section columns = "stress_xx | stress_yy | stress_xy">
  1 1079.99 0.00000 -5.84815e-14
  2 1079.99 0.00000 -7.06612e-13
  3 1079.99 0.00000 -1.65305e-13
  4 1079.99 0.00000 1.01196e-12
  5 1079.99 0.00000 1.63753e-13
  6 1079.99 0.00000 5.87009e-14
  7 1079.99 0.00000 3.52569e-13
  8 1079.99 0.00000 7.61042e-13
  9 1079.99 0.00000 -1.60077e-13
  10 1079.99 0.00000 -8.11600e-13
  11 1079.99 0.00000 -6.67349e-13
  12 1079.99 0.00000 -8.78892e-13
  13 1079.99 0.00000 -1.12808e-12
  14 1079.99 0.00000 2.20862e-13
  15 1079.99 0.00000 2.29754e-13
  16 1079.99 0.00000 -8.36285e-13
  17 1079.99 0.00000 6.12075e-14
  18 1079.99 0.00000 -1.65279e-12
  19 1079.99 0.00000 -6.70848e-13
  20 1079.99 0.00000 1.13836e-14
  21 1079.99 0.00000 1.13195e-13
  22 1079.99 0.00000 -5.91318e-13
  23 1079.99 0.00000 2.21772e-13
  24 1079.99 0.00000 9.68921e-13
  25 1079.99 0.00000 1.13191e-12
  26 1079.99 0.00000 1.25990e-13
  27 1079.99 0.00000 -1.89487e-13
  28 1079.99 0.00000 -1.54797e-13
  29 1079.99 0.00000 4.87559e-13
  30 1079.99 0.00000 -4.58005e-13
  31 1079.99 0.00000 4.76202e-13
  32 1079.99 0.00000 2.20995e-13
  33 1079.99 0.00000 -2.83878e-13
  34 1079.99 0.00000 -2.71878e-13
  35 1079.99 0.00000 2.56888e-13
  36 1079.99 0.00000 5.27402e-14
  37 1079.99 0.00000 -6.48222e-13
  38 1079.99 0.00000 9.17839e-13
  39 1079.99 0.00000 6.76190e-15
  40 1079.99 0.00000 -6.35129e-13
  41 1079.99 0.00000 6.96801e-13
  42 1079.99 0.00000 -5.39687e-13
  43 1079.99 0.00000 -8.48843e-13
  44 1079.99 0.00000 2.49337e-13
  45 1079.99 0.00000 8.51833e-13
  46 1079.99 0.00000 6.80464e-13
  47 1079.99 0.00000 -2.05810e-13
  48 1079.99 0.00000 -1.36874e-13
  49 1079.99 0.00000 1.09513e-13
  50 1079.99 0.00000 -3.87160e-13
  51 1079.99 0.00000 4.66426e-13
  52 1079.99 0.00000 9.70232e-13
  53 1079.99 0.00000 -3.31174e-13
  54 1079.99 0.00000 -1.13742e-13
  55 1079.99 0.00000 1.73218e-13
  56 1079.99 0.00000 -6.07359e-13
  57 1079.99 0.00000 -3.17484e-13
  58 1079.99 0.00000 1.96924e-13
  59 1079.99 0.00000 -2.86953e-13
  60 1079.99 0.00000 8.37898e-13
  61 1079.99 0.00000 -8.26393e-13
  62 1079.99 0.00000 8.42590e-13
  63 1079.99 0.00000 5.22034e-13
  64 1079.99 0.00000 -8.30488e-13
  65 1079.99 0.00000 -9.77440e-13
  66 1079.99 0.00000 9.24520e-14
</Section>

newXOutput 44

<Section columns = "stress_xx | stress_yy | stress_xy">
  1 1124.42 0.00000 3.33989e-14
  2 1124.42 0.00000 3.97424e-13
  3 1124.42 0.00000 1.32243e-13
  4 1124.42 0.00000 -1.00869e-12
  5 1124.42 0.00000 -6.43372e-13
  6 1124.42 0.00000 -1.86606e-13
  7 1124.42 0.00000 -7.28975e-13
  8 1124.42 0.00000 -1.34934e-12
  9 1124.42 0.00000 -2.21010e-13
  10 1124.42 0.00000 5.19564e-13
  11 1124.42 0.00000 3.78569e-13
  12 1124.42 0.00000 8.94195e-13
  13 1124.42 0.00000 5.96933e-13
  14 1124.42 0.00000 -2.13525e-15
  15 1124.42 0.00000 -1.67760e-13
  16 1124.42 0.00000 4.93878e-13
  17 1124.42 0.00000 7.99493e-13
  18 1124.42 0.00000 1.69353e-12
  19 1124.42 0.00000 3.18255e-13
  20 1124.42 0.00000 -3.25841e-13
  21 1124.42 0.00000 -9.25548e-13
  22 1124.42 0.00000 2.61883e-13
  23 1124.42 0.00000 -3.87988e-13
  24 1124.42 0.00000 -1.22296e-12
  25 1124.42 0.00000 -1.24445e-12
  26 1124.42 0.00000 -6.25544e-14
  27 1124.42 0.00000 1.16783e-13
  28 1124.42 0.00000 2.41186e-13
  29 1124.42 0.00000 -6.69422e-13
  30 1124.42 0.00000 6.65026e-13
  31 1124.42 0.00000 -1.16411e-13
  32 1124.42 0.00000 -4.99129e-13
  33 1124.42 0.00000 1.21802e-13
  34 1124.42 0.00000 4.57803e-13
  35 1124.42 0.00000 -8.71806e-13
  36 1124.42 0.00000 -6.18105e-13
  37 1124.42 0.00000 5.69143e-13
  38 1124.42 0.00000 -1.18096e-12
  39 1124.42 0.00000 9.45547e-14
  40 1124.42 0.00000 9.36421e-13
  41 1124.42 0.00000 -8.78547e-13
  42 1124.42 0.00000 3.23919e-13
  43 1124.42 0.00000 6.52357e-13
  44 1124.42 0.00000 -7.83969e-13
  45 1124.42 0.00000 -7.20365e-13
  46 1124.42 0.00000 -6.93566e-13
  47 1124.42 0.00000 3.24743e-13
  48 1124.42 0.00000 5.58148e-14
  49 1124.42 0.00000 -1.48506e-13
  50 1124.42 0.00000 3.58747e-13
  51 1124.42 0.00000 -2.49598e-13
  52 1124.42 0.00000 -1.02223e-12
  53 1124.42 0.00000 1.21008e-13
  54 1124.42 0.00000 -3.75588e-13
  55 1124.42 0.00000 -2.31623e-13
  56 1124.42 0.00000 3.25054e-13
  57 1124.42 0.00000 4.72789e-13
  58 1124.42 0.00000 -4.03754e-13
  59 1124.42 0.00000 1.56314e-13
  60 1124.42 0.00000 -7.10714e-13
  61 1124.42 0.00000 9.29462e-13
  62 1124.42 0.00000 -1.25362e-12
  63 1124.42 0.00000 -7.54914e-13
  64 1124.42 0.00000 4.38552e-13
  65 1124.42 0.00000 5.89970e-13
  66 1124.42 0.00000 -6.44790e-13
</Section>

newXOutput 45

<Section columns = "stress_xx | stress_yy | stress_xy">
  1 1168.98 0.00000 -1.48244e-13
  2 1168.98 0.00000 1.64986e-13
  3 1168.98 0.00000 -9.61239e-14
  4 1168.98 0.00000 5.64884e-13
  5 1168.98 0.00000 6.83241e-13
  6 1168.98 0.00000 5.44610e-13
  7 1168.98 0.00000 8.67053e-13
  8 1168.98 0.00000 1.15843e-12
  9 1168.98 0.00000 5.94356e-13
  10 1168.98 0.00000 1.46757e-13
  11 1168.98 0.00000 4.22077e-13
  12 1168.98 0.00000 -7.44315e-13
  13 1168.98 0.00000 -1.70128e-13
  14 1168.98 0.00000 1.55885e-13
  15 1168.98 0.00000 1.38875e-13
  16 1168.98 0.00000 -7.40530e-13
  17 1168.98 0.00000 9.25415e-14
  18 1168.98 0.00000 -1.58719e-12
  19 1168.98 0.00000 -6.65513e-13
  20 1168.98 0.00000 -1.42298e-12
  21 1168.98 0.00000 7.89158e-14
  22 1168.98 0.00000 4.00428e-13
  23 1168.98 0.00000 4.85654e-13
  24 1168.98 0.00000 8.24587e-13
  25 1168.98 0.00000 9.00974e-13
  26 1168.98 0.00000 -5.53692e-14
  27 1168.98 0.00000 4.39232e-14
  28 1168.98 0.00000 -1.39413e-13
  29 1168.98 0.00000 4.60101e-13
  30 1168.98 0.00000 -1.31181e-13
  31 1168.98 0.00000 -2.04828e-13
  32 1168.98 0.00000 1.22871e-12
  33 1168.98 0.00000 -6.51756e-14
  34 1168.98 0.00000 -8.82817e-13
  35 1168.98 0.00000 1.14562e-12
  36 1168.98 0.00000 9.86631e-13
  37 1168.98 0.00000 -2.27832e-13
  38 1168.98 0.00000 9.24247e-13
  39 1168.98 0.00000 1.13568e-14
  40 1168.98 0.00000 -7.74079e-13
  41 1168.98 0.00000 1.16860e-12
  42 1168.98 0.00000 -4.30985e-13
  43 1168.98 0.00000 -1.36333e-14
  44 1168.98 0.00000 7.06045e-13
  45 1168.98 0.00000 4.28053e-13
  46 1168.98 0.00000 5.27640e-13
  47 1168.98 0.00000 4.03047e-15
  48 1168.98 0.00000 1.92740e-14
  49 1168.98 0.00000 8.48186e-14
  50 1168.98 0.00000 -4.69898e-14
  51 1168.98 0.00000 -5.68739e-14
  52 1168.98 0.00000 6.17065e-13
  53 1168.98 0.00000 -1.13668e-14
  54 1168.98 0.00000 2.56074e-13
  55 1168.98 0.00000 2.08063e-13
  56 1168.98 0.00000 -1.49129e-13
  57 1168.98 0.00000 -1.33623e-13
  58 1168.98 0.00000 -3.23853e-14
  59 1168.98 0.00000 3.80927e-13
  60 1168.98 0.00000 1.12216e-12
  61 1168.98 0.00000 -9.14756e-13
  62 1168.98 0.00000 2.09343e-13
  63 1168.98 0.00000 8.68492e-13
  64 1168.98 0.00000 4.13163e-13
  65 1168.98 0.00000 2.08689e-13
  66 1168.98 0.00000 4.01270e-13
</Section>

newXOutput 46

<Section columns = "stress_xx | stress_yy | stress_xy">
  1 1213.68 0.00000 1.10901e-13
  2 1213.68 0.00000 1.39031e-13
  3 1213.68 0.00000 4.30540e-14
  4 1213.68 0.00000 -7.52171e-13
  5 1213.68 0.00000 -7.50538e-13
  6 1213.68 0.00000 -4.81645e-13
  7 1213.68 0.00000 -5.93488e-13
  8 1213.68 0.00000 -5.24446e-13
  9 1213.68 0.00000 -1.09824e-13
  10 1213.68 0.00000 -1.72480e-13
  11 1213.68 0.00000 -3.88711e-13
  12 1213.68 0.00000 1.14774e-13
  13 1213.68 0.00000 3.85406e-13
  14 1213.68 0.00000 0.00000
  15 1213.68 0.00000 2.19876e-14
  16 1213.68 0.00000 5.76618e-13
  17 1213.68 0.00000 -7.33810e-13
  18 1213.68 0.00000 4.36202e-13
  19 1213.68 0.00000 3.67273e-13
  20 1213.68 0.00000 1.16654e-12
  21 1213.68 0.00000 -8.28051e-14
  22 1213.68 0.00000 -7.79506e-13
  23 1213.68 0.00000 -1.09022e-12
  24 1213.68 0.00000 -1.48215e-12
  25 1213.68 0.00000 -8.78013e-13
  26 1213.68 0.00000 -1.68454e-13
  27 1213.68 0.00000 2.19876e-14
  28 1213.68 0.00000 2.89201e-13
  29 1213.68 0.00000 2.54875e-13
  30 1213.68 0.00000 4.58846e-13
  31 1213.68 0.00000 1.57532e-13
  32 1213.68 0.00000 -7.86594e-13
  33 1213.68 0.00000 6.71199e-13
  34 1213.68 0.00000 5.39807e-13
  35 1213.68 0.00000 -6.70529e-13
  36 1213.68 0.00000 -9.42276e-13
  37 1213.68 0.00000 6.30754e-13
  38 1213.68 0.00000 -8.97712e-13
  39 1213.68 0.00000 -2.54792e-13
  40 1213.68 0.00000 9.51111e-13
  41 1213.68 0.00000 -7.93222e-13
  42 1213.68 0.00000 4.49156e-13
  43 1213.68 0.00000 7.26851e-14
  44 1213.68 0.00000 -2.94171e-13
  45 1213.68 0.00000 -7.48748e-13
  46 1213.68 0.00000 -3.45442e-13
  47 1213.68 0.00000 -4.91704e-14
  48 1213.68 0.00000 -6.47688e-14
  49 1213.68 0.00000 3.82477e-13
  50 1213.68 0.00000 3.25321e-13
  51 1213.68 0.00000 1.63382e-13
  52 1213.68 0.00000 -3.60134e-13
  53 1213.68 0.00000 2.98356e-13
  54 1213.68 0.00000 -4.65992e-13
  55 1213.68 0.00000 -1.07858e-13
  56 1213.68 0.00000 -1.96416e-13
  57 1213.68 0.00000 3.58404e-13
  58 1213.68 0.00000 -3.00957e-13
  59 1213.68 0.00000 2.64420e-13
  60 1213.68 0.00000 -5.16922e-15
  61 1213.68 0.00000 4.55040e-13
  62 1213.68 0.00000 -1.13371e-12
  63 1213.68 0.00000 -7.42316e-13
  64 1213.68 0.00000 -1.60945e-12
  65 1213.68 0.00000 1.83667e-13
  66 1213.68 0.00000 -3.12651e-13
</Section>

newXOutput 47

<Section columns = "stress_xx | stress_yy | stress_xy">
  1 1258.53 0.00000 -3.07718e-14
  2 1258.53 0.00000 -1.00893e-13
  3 1258.53 0.00000 1.91444e-13
  4 1258.53 0.00000 7.79570e-13
  5 1258.53 0.00000 4.91906e-13
  6 1258.53 0.00000 3.56548e-13
  7 1258.53 0.00000 1.00853e-12
  8 1258.53 0.00000 5.43422e-13
  9 1258.53 0.00000 9.98519e-14
  10 1258.53 0.00000 2.92989e-13
  11 1258.53 0.00000 -4.87471e-14
  12 1258.53 0.00000 -5.71572e-13
  13 1258.53 0.00000 -5.82426e-13
  14 1258.53 0.00000 -2.01394e-14
  15 1258.53 0.00000 4.40273e-14
  16 1258.53 0.00000 -6.19724e-13
  17 1258.53 0.00000 6.60406e-13
  18 1258.53 0.00000 -4.88358e-13
  19 1258.53 0.00000 -3.95571e-13
  20 1258.53 0.00000 3.71155e-14
  21 1258.53 0.00000 8.05536e-13
  22 1258.53 0.00000 1.50494e-12
  23 1258.53 0.00000 1.22221e-12
  24 1258.53 0.00000 1.15013e-12
  25 1258.53 0.00000 6.89782e-13
  26 1258.53 0.00000 2.80475e-13
  27 1258.53 0.00000 0.00000
  28 1258.53 0.00000 -3.82608e-13
  29 1258.53 0.00000 -1.72380e-13
  30 1258.53 0.00000 -6.66022e-13
  31 1258.53 0.00000 3.53916e-13
  32 1258.53 0.00000 4.19391e-13
  33 1258.53 0.00000 -4.10748e-13
  34 1258.53 0.00000 6.15423e-14
  35 1258.53 0.00000 5.91572e-13
  36 1258.53 0.00000 2.62289e-13
  37 1258.53 0.00000 -9.12069e-13
  38 1258.53 0.00000 8.57193e-13
  39 1258.53 0.00000 1.05215e-12
  40 1258.53 0.00000 -1.09910e-12
  41 1258.53 0.00000 6.93663e-13
  42 1258.53 0.00000 -4.43149e-13
  43 1258.53 0.00000 -7.34114e-14
  44 1258.53 0.00000 3.59287e-13
  45 1258.53 0.00000 1.03206e-12
  46 1258.53 0.00000 1.69960e-13
  47 1258.53 0.00000 -5.61535e-13
  48 1258.53 0.00000 8.77290e-13
  49 1258.53 0.00000 -5.22501e-13
  50 1258.53 0.00000 -3.64455e-13
  51 1258.53 0.00000 2.36402e-13
  52 1258.53 0.00000 7.32775e-13
  53 1258.53 0.00000 -6.96521e-14
  54 1258.53 0.00000 2.54972e-13
  55 1258.53 0.00000 1.34341e-13
  56 1258.53 0.00000 2.31027e-13
  57 1258.53 0.00000 -3.83047e-13
  58 1258.53 0.00000 4.55086e-13
  59 1258.53 0.00000 -5.13719e-13
  60 1258.53 0.00000 -3.55656e-13
  61 1258.53 0.00000 -5.47066e-13
  62 1258.53 0.00000 1.04597e-12
  63 1258.53 0.00000 1.04012e-12
  64 1258.53 0.00000 9.75338e-13
  65 1258.53 0.00000 -7.05510e-13
  66 1258.53 0.00000 2.72888e-13
</Section>

newXOutput 48

<Section columns = "stress_xx | stress_yy | stress_xy">
  1 1303.51 0.00000 -5.00313e-15
  2 1303.51 0.00000 2.03860e-13
  3 1303.51 0.00000 -1.15982e-13
  4 1303.51 0.00000 -6.78678e-13
  5 1303.51 0.00000 1.70138e-13
  6 1303.51 0.00000 9.70185e-13
  7 1303.51 0.00000 -7.70013e-13
  8 1303.51 0.00000 -6.69507e-13
  9 1303.51 0.00000 6.64284e-14
  10 1303.51 0.00000 -4.64764e-13
  11 1303.51 0.00000 -5.94158e-13
  12 1303.51 0.00000 9.84104e-14
  13 1303.51 0.00000 8.40356e-13
  14 1303.51 0.00000 -5.78811e-14
  15 1303.51 0.00000 -1.20856e-13
  16 1303.51 0.00000 4.52031e-13
  17 1303.51 0.00000 -5.83047e-13
  18 1303.51 0.00000 9.50544e-13
  19 1303.51 0.00000 7.34541e-13
  20 1303.51 0.00000 -5.22447e-13
  21 1303.51 0.00000 -1.26347e-12
  22 1303.51 0.00000 -1.45621e-12
  23 1303.51 0.00000 -1.39151e-12
  24 1303.51 0.00000 -1.31905e-12
  25 1303.51 0.00000 -5.62263e-13
  26 1303.51 0.00000 -3.62012e-13
  27 1303.51 0.00000 -8.81586e-14
  28 1303.51 0.00000 3.84271e-13
  29 1303.51 0.00000 1.92531e-13
  30 1303.51 0.00000 6.24173e-13
  31 1303.51 0.00000 -7.53072e-13
  32 1303.51 0.00000 -2.05254e-13
  33 1303.51 0.00000 1.13912e-12
  34 1303.51 0.00000 4.07987e-14
  35 1303.51 0.00000 -1.00109e-12
  36 1303.51 0.00000 -1.35567e-12
  37 1303.51 0.00000 5.16213e-13
  38 1303.51 0.00000 -1.05441e-12
  39 1303.51 0.00000 -1.01826e-12
  40 1303.51 0.00000 7.15822e-13
  41 1303.51 0.00000 -9.59306e-13
  42 1303.51 0.00000 5.86217e-13
  43 1303.51 0.00000 4.95126e-13
  44 1303.51 0.00000 -1.92702e-13
  45 1303.51 0.00000 -9.03670e-13
  46 1303.51 0.00000 -1.61985e-13
  47 1303.51 0.00000 5.57088e-14
  48 1303.51 0.00000 -1.29613e-12
  49 1303.51 0.00000 4.32562e-13
  50 1303.51 0.00000 1.89798e-13
  51 1303.51 0.00000 -6.30027e-13
  52 1303.51 0.00000 -4.72478e-13
  53 1303.51 0.00000 5.76606e-14
  54 1303.51 0.00000 3.85962e-13
  55 1303.51 0.00000 -1.06376e-13
  56 1303.51 0.00000 -8.95426e-13
  57 1303.51 0.00000 4.95657e-13
  58 1303.51 0.00000 -4.67270e-13
  59 1303.51 0.00000 6.53946e-14
  60 1303.51 0.00000 7.00633e-13
  61 1303.51 0.00000 5.95632e-13
  62 1303.51 0.00000 -1.02602e-12
  63 1303.51 0.00000 -3.04512e-13
  64 1303.51 0.00000 -1.71617e-12
  65 1303.51 0.00000 5.26336e-13
  66 1303.51 0.00000 -5.74790e-13
</Section>

newXOutput 49

<Section columns = "stress_xx | stress_yy | stress_xy">
  1 1348.63 0.00000 -1.70344e-14
  2 1348.63 0.00000 -1.11000e-12
  3 1348.63 0.00000 -6.98081e-13
  4 1348.63 0.00000 1.03621e-12
  5 1348.63 0.00000 6.09163e-14
  6 1348.63 0.00000 -1.83536e-13
  7 1348.63 0.00000 9.04952e-13
  8 1348.63 0.00000 6.18496e-13
  9 1348.63 0.00000 -7.41480e-13
  10 1348.63 0.00000 1.71365e-13
  11 1348.63 0.00000 8.24710e-13
  12 1348.63 0.00000 -3.95490e-13
  13 1348.63 0.00000 -1.96624e-12
  14 1348.63 0.00000 -3.98220e-13
  15 1348.63 0.00000 8.82627e-14
  16 1348.63 0.00000 -6.94601e-13
  17 1348.63 0.00000 -8.85994e-13
  18 1348.63 0.00000 -1.20385e-12
  19 1348.63 0.00000 -1.52327e-12
  20 1348.63 0.00000 -7.02154e-13
  21 1348.63 0.00000 9.48459e-13
  22 1348.63 0.00000 1.20383e-12
  23 1348.63 0.00000 1.28145e-12
  24 1348.63 0.00000 1.35249e-12
  25 1348.63 0.00000 1.04281e-12
  26 1348.63 0.00000 6.05302e-13
  27 1348.63 0.00000 2.20657e-14
  28 1348.63 0.00000 -3.42886e-13
  29 1348.63 0.00000 -2.65952e-13
  30 1348.63 0.00000 -4.19879e-13
  31 1348.63 0.00000 9.60536e-13
  32 1348.63 0.00000 3.35224e-13
  33 1348.63 0.00000 -1.25557e-12
  34 1348.63 0.00000 1.00898e-12
  35 1348.63 0.00000 8.24538e-13
  36 1348.63 0.00000 8.01456e-13
  37 1348.63 0.00000 -2.05462e-13
  38 1348.63 0.00000 1.13665e-12
  39 1348.63 0.00000 7.92021e-13
  40 1348.63 0.00000 -4.92681e-13
  41 1348.63 0.00000 1.17269e-12
  42 1348.63 0.00000 -5.22928e-13
  43 1348.63 0.00000 -6.17176e-13
  44 1348.63 0.00000 3.73069e-13
  45 1348.63 0.00000 1.00802e-12
  46 1348.63 0.00000 1.40434e-14
  47 1348.63 0.00000 -2.79616e-13
  48 1348.63 0.00000 1.25701e-12
  49 1348.63 0.00000 -2.88347e-13
  50 1348.63 0.00000 1.06296e-13
  51 1348.63 0.00000 7.44944e-13
  52 1348.63 0.00000 3.26990e-13
  53 1348.63 0.00000 5.36117e-14
  54 1348.63 0.00000 -1.02724e-12
  55 1348.63 0.00000 1.22368e-13
  56 1348.63 0.00000 -1.27838e-13
  57 1348.63 0.00000 -1.26166e-12
  58 1348.63 0.00000 9.50553e-13
  59 1348.63 0.00000 2.81046e-13
  60 1348.63 0.00000 -4.58311e-13
  61 1348.63 0.00000 -1.80072e-12
  62 1348.63 0.00000 1.35501e-12
  63 1348.63 0.00000 8.45634e-13
  64 1348.63 0.00000 3.49616e-13
  65 1348.63 0.00000 -6.56792e-13
  66 1348.63 0.00000 3.34937e-13
</Section>

newXOutput 50

<Section columns = "stress_xx | stress_yy | stress_xy">
  1 1393.90 0.00000 5.13955e-13
  2 1393.90 0.00000 7.90561e-13
  3 1393.90 0.00000 1.68570e-13
  4 1393.90 0.00000 -1.47351e-12
  5 1393.90 0.00000 -3.55561e-13
  6 1393.90 0.00000 -4.58145e-13
  7 1393.90 0.00000 -3.98396e-13
  8 1393.90 0.00000 -5.74971e-13
  9 1393.90 0.00000 2.38321e-13
  10 1393.90 0.00000 -1.67021e-13
  11 1393.90 0.00000 -1.12300e-12
  12 1393.90 0.00000 -8.59626e-13
  13 1393.90 0.00000 -5.63601e-14
  14 1393.90 0.00000 6.67844e-13
  15 1393.90 0.00000 8.83668e-14
  16 1393.90 0.00000 6.42310e-13
  17 1393.90 0.00000 -7.13879e-13
  18 1393.90 0.00000 7.35323e-13
  19 1393.90 0.00000 1.36020e-12
  20 1393.90 0.00000 7.36648e-13
  21 1393.90 0.00000 -7.81612e-13
  22 1393.90 0.00000 -7.76520e-13
  23 1393.90 0.00000 -9.87891e-13
  24 1393.90 0.00000 -1.19110e-12
  25 1393.90 0.00000 -1.10600e-12
  26 1393.90 0.00000 -9.03864e-13
  27 1393.90 0.00000 -2.60772e-13
  28 1393.90 0.00000 1.98638e-13
  29 1393.90 0.00000 -5.62932e-13
  30 1393.90 0.00000 2.34362e-13
  31 1393.90 0.00000 -6.71161e-13
  32 1393.90 0.00000 -3.08816e-13
  33 1393.90 0.00000 1.43863e-12
  34 1393.90 0.00000 -9.20591e-13
  35 1393.90 0.00000 -1.25718e-12
  36 1393.90 0.00000 5.40682e-13
  37 1393.90 0.00000 4.74249e-13
  38 1393.90 0.00000 -6.07049e-13
  39 1393.90 0.00000 -5.85314e-13
  40 1393.90 0.00000 8.17364e-13
  41 1393.90 0.00000 -1.07982e-12
  42 1393.90 0.00000 3.88193e-13
  43 1393.90 0.00000 3.57115e-13
  44 1393.90 0.00000 -6.29479e-13
  45 1393.90 0.00000 -8.80321e-13
  46 1393.90 0.00000 -3.55662e-13
  47 1393.90 0.00000 7.84215e-13
  48 1393.90 0.00000 -9.61770e-13
  49 1393.90 0.00000 5.86998e-13
  50 1393.90 0.00000 -6.79515e-13
  51 1393.90 0.00000 -4.83750e-13
  52 1393.90 0.00000 -3.00153e-13
  53 1393.90 0.00000 1.56165e-13
  54 1393.90 0.00000 7.00005e-13
  55 1393.90 0.00000 -1.32815e-13
  56 1393.90 0.00000 1.35008e-13
  57 1393.90 0.00000 1.00004e-12
  58 1393.90 0.00000 -1.05586e-12
  59 1393.90 0.00000 -1.31307e-12
  60 1393.90 0.00000 4.00023e-13
  61 1393.90 0.00000 1.02066e-12
  62 1393.90 0.00000 -7.78124e-13
  63 1393.90 0.00000 -9.16346e-13
  64 1393.90 0.00000 -3.92514e-13
  65 1393.90 0.00000 7.01668e-13
  66 1393.90 0.00000 -2.42457e-13
</Section>

newXOutput 51

<Section columns = "stress_xx | stress_yy | stress_xy">
  1 1439.31 0.00000 -4.42541e-13
  2 1439.31 0.00000 -3.41623e-13
  3 1439.31 0.00000 -2.11928e-13
  4 1439.31 0.00000 1.66841e-12
  5 1439.31 0.00000 4.36806e-13
  6 1439.31 0.00000 4.79805e-13
  7 1439.31 0.00000 5.34942e-13
  8 1439.31 0.00000 3.47094e-13
  9 1439.31 0.00000 -5.88746e-13
  10 1439.31 0.00000 -1.38474e-12
  11 1439.31 0.00000 6.42034e-13
  12 1439.31 0.00000 1.06642e-12
  13 1439.31 0.00000 1.82604e-13
  14 1439.31 0.00000 -6.12177e-14
  15 1439.31 0.00000 -6.63532e-14
  16 1439.31 0.00000 -6.90686e-13
  17 1439.31 0.00000 -1.23918e-13
  18 1439.31 0.00000 -1.31815e-12
  19 1439.31 0.00000 -1.07499e-12
  20 1439.31 0.00000 -1.81723e-13
  21 1439.31 0.00000 3.95128e-13
  22 1439.31 0.00000 9.49339e-13
  23 1439.31 0.00000 9.42256e-13
  24 1439.31 0.00000 1.38865e-12
  25 1439.31 0.00000 1.40030e-12
  26 1439.31 0.00000 1.18292e-12
  27 1439.31 0.00000 7.87315e-13
  28 1439.31 0.00000 -2.39257e-13
  29 1439.31 0.00000 4.19791e-13
  30 1439.31 0.00000 -1.00504e-12
  31 1439.31 0.00000 5.03234e-13
  32 1439.31 0.00000 2.29218e-13
  33 1439.31 0.00000 -9.64574e-13
  34 1439.31 0.00000 1.41662e-12
  35 1439.31 0.00000 6.56600e-13
  36 1439.31 0.00000 -3.95279e-13
  37 1439.31 0.00000 2.76725e-13
  38 1439.31 0.00000 5.17155e-13
  39 1439.31 0.00000 4.61641e-13
  40 1439.31 0.00000 8.29320e-14
  41 1439.31 0.00000 6.79705e-13
  42 1439.31 0.00000 -6.13592e-13
  43 1439.31 0.00000 -4.27930e-13
  44 1439.31 0.00000 4.70286e-13
  45 1439.31 0.00000 9.85550e-13
  46 1439.31 0.00000 5.64788e-13
  47 1439.31 0.00000 -9.56376e-13
  48 1439.31 0.00000 5.47952e-13
  49 1439.31 0.00000 -5.54509e-13
  50 1439.31 0.00000 6.56885e-13
  51 1439.31 0.00000 5.27879e-13
  52 1439.31 0.00000 9.42056e-14
  53 1439.31 0.00000 -3.88415e-13
  54 1439.31 0.00000 -3.55161e-13
  55 1439.31 0.00000 -1.08221e-13
  56 1439.31 0.00000 -3.27271e-13
  57 1439.31 0.00000 -6.02708e-13
  58 1439.31 0.00000 1.48328e-12
  59 1439.31 0.00000 1.01913e-12
  60 1439.31 0.00000 -5.06556e-13
  61 1439.31 0.00000 -7.18372e-13
  62 1439.31 0.00000 1.57847e-12
  63 1439.31 0.00000 6.62929e-13
  64 1439.31 0.00000 6.45338e-14
  65 1439.31 0.00000 -6.13978e-13
  66 1439.31 0.00000 1.12074e-13
</Section>

newXOutput 52

<Section columns = "stress_xx | stress_yy | stress_xy">
  1 1484.87 0.00000 8.25906e-13
  2 1484.87 0.00000 5.35124e-13
  3 1484.87 0.00000 7.24256e-13
  4 1484.87 0.00000 -1.54842e-12
  5 1484.87 0.00000 3.57236e-13
  6 1484.87 0.00000 6.85410e-14
  7 1484.87 0.00000 -1.89908e-13
  8 1484.87 0.00000 -1.63308e-13
  9 1484.87 0.00000 1.99178e-13
  10 1484.87 0.00000 3.47316e-13
  11 1484.87 0.00000 -8.06954e-13
  12 1484.87 0.00000 -1.32320e-12
  13 1484.87 0.00000 -4.28914e-13
  14 1484.87 0.00000 -1.32119e-14
  15 1484.87 0.00000 -1.21377e-13
  16 1484.87 0.00000 2.51000e-13
  17 1484.87 0.00000 1.44836e-12
  18 1484.87 0.00000 1.87585e-12
  19 1484.87 0.00000 1.29863e-12
  20 1484.87 0.00000 3.09633e-13
  21 1484.87 0.00000 -2.14737e-13
  22 1484.87 0.00000 -5.51054e-13
  23 1484.87 0.00000 -4.81716e-13
  24 1484.87 0.00000 -1.52644e-12
  25 1484.87 0.00000 -1.67581e-12
  26 1484.87 0.00000 -1.03075e-12
  27 1484.87 0.00000 -5.07651e-13
  28 1484.87 0.00000 5.11113e-13
  29 1484.87 0.00000 -7.82525e-13
  30 1484.87 0.00000 7.42586e-13
  31 1484.87 0.00000 -6.34107e-13
  32 1484.87 0.00000 -3.25007e-14
  33 1484.87 0.00000 6.48998e-13
  34 1484.87 0.00000 -1.36695e-12
  35 1484.87 0.00000 -4.34715e-13
  36 1484.87 0.00000 1.13494e-13
  37 1484.87 0.00000 5.47851e-13
  38 1484.87 0.00000 -4.64313e-13
  39 1484.87 0.00000 -2.41115e-13
  40 1484.87 0.00000 4.09664e-13
  41 1484.87 0.00000 -5.26591e-13
  42 1484.87 0.00000 5.90382e-13
  43 1484.87 0.00000 4.15824e-13
  44 1484.87 0.00000 -5.48649e-13
  45 1484.87 0.00000 -8.43215e-13
  46 1484.87 0.00000 -4.69311e-13
  47 1484.87 0.00000 5.75395e-13
  48 1484.87 0.00000 -2.86131e-13
  49 1484.87 0.00000 2.08499e-13
  50 1484.87 0.00000 -4.07767e-13
  51 1484.87 0.00000 -4.91869e-13
  52 1484.87 0.00000 -6.09714e-13
  53 1484.87 0.00000 7.70021e-13
  54 1484.87 0.00000 4.49102e-13
  55 1484.87 0.00000 4.95602e-13
  56 1484.87 0.00000 5.74843e-13
  57 1484.87 0.00000 5.89226e-13
  58 1484.87 0.00000 -1.44677e-12
  59 1484.87 0.00000 -9.74573e-13
  60 1484.87 0.00000 1.23126e-13
  61 1484.87 0.00000 5.42253e-13
  62 1484.87 0.00000 -1.70853e-12
  63 1484.87 0.00000 -1.26197e-13
  64 1484.87 0.00000 3.84628e-14
  65 1484.87 0.00000 6.68284e-13
  66 1484.87 0.00000 5.37903e-14
</Section>

newXOutput 53

<Section columns = "stress_xx | stress_yy | stress_xy">
  1 1530.57 0.00000 -9.34622e-13
  2 1530.57 0.00000 -2.98012e-13
  3 1530.57 0.00000 -8.26558e-14
  4 1530.57 0.00000 1.34288e-12
  5 1530.57 0.00000 -9.28177e-13
  6 1530.57 0.00000 -6.18896e-13
  7 1530.57 0.00000 7.55112e-13
  8 1530.57 0.00000 1.52992e-13
  9 1530.57 0.00000 4.09376e-14
  10 1530.57 0.00000 -9.15464e-13
  11 1530.57 0.00000 7.17748e-13
  12 1530.57 0.00000 4.90338e-13
  13 1530.57 0.00000 1.64855e-13
  14 1530.57 0.00000 -7.79457e-14
  15 1530.57 0.00000 -2.21698e-14
  16 1530.57 0.00000 -4.71106e-13
  17 1530.57 0.00000 9.78901e-13
  18 1530.57 0.00000 -1.69774e-13
  19 1530.57 0.00000 -9.59442e-13
  20 1530.57 0.00000 6.03715e-13
  21 1530.57 0.00000 3.75895e-13
  22 1530.57 0.00000 9.82071e-13
  23 1530.57 0.00000 4.08246e-13
  24 1530.57 0.00000 1.88896e-12
  25 1530.57 0.00000 2.12268e-12
  26 1530.57 0.00000 1.05923e-12
  27 1530.57 0.00000 5.41303e-13
  28 1530.57 0.00000 -6.46828e-13
  29 1530.57 0.00000 1.65267e-13
  30 1530.57 0.00000 -1.13141e-12
  31 1530.57 0.00000 4.14371e-13
  32 1530.57 0.00000 -5.53668e-13
  33 1530.57 0.00000 6.20038e-13
  34 1530.57 0.00000 7.26298e-13
  35 1530.57 0.00000 3.35436e-13
  36 1530.57 0.00000 -1.07205e-12
  37 1530.57 0.00000 1.71139e-13
  38 1530.57 0.00000 2.86653e-13
  39 1530.57 0.00000 3.58620e-13
  40 1530.57 0.00000 7.81234e-14
  41 1530.57 0.00000 2.24919e-13
  42 1530.57 0.00000 -1.35846e-12
  43 1530.57 0.00000 4.48257e-13
  44 1530.57 0.00000 5.22798e-13
  45 1530.57 0.00000 2.50669e-13
  46 1530.57 0.00000 7.33325e-13
  47 1530.57 0.00000 -1.08331e-12
  48 1530.57 0.00000 4.71661e-13
  49 1530.57 0.00000 -2.92274e-13
  50 1530.57 0.00000 3.09088e-13
  51 1530.57 0.00000 2.11305e-13
  52 1530.57 0.00000 -4.23463e-14
  53 1530.57 0.00000 -6.68011e-13
  54 1530.57 0.00000 -5.45549e-13
  55 1530.57 0.00000 -7.51530e-13
  56 1530.57 0.00000 -1.87342e-13
  57 1530.57 0.00000 -2.26320e-13
  58 1530.57 0.00000 1.52975e-12
  59 1530.57 0.00000 4.84381e-13
  60 1530.57 0.00000 1.68190e-13
  61 1530.57 0.00000 -2.09711e-13
  62 1530.57 0.00000 1.91535e-12
  63 1530.57 0.00000 -4.66102e-13
  64 1530.57 0.00000 7.72938e-13
  65 1530.57 0.00000 -8.12849e-14
  66 1530.57 0.00000 -3.02511e-13
</Section>

newXOutput 54

<Section columns = "stress_xx | stress_yy | stress_xy">
  1 1576.41 0.00000 1.04258e-12
  2 1576.41 0.00000 9.00370e-13
  3 1576.41 0.00000 -9.48260e-14
  4 1576.41 0.00000 -1.06370e-12
  5 1576.41 0.00000 1.40396e-12
  6 1576.41 0.00000 1.16088e-12
  7 1576.41 0.00000 3.43959e-13
  8 1576.41 0.00000 7.39524e-13
  9 1576.41 0.00000 7.07854e-13
  10 1576.41 0.00000 6.52009e-14
  11 1576.41 0.00000 -4.78942e-13
  12 1576.41 0.00000 -1.22290e-12
  13 1576.41 0.00000 2.60319e-13
  14 1576.41 0.00000 2.97140e-13
  15 1576.41 0.00000 4.43916e-14
  16 1576.41 0.00000 -1.53831e-13
  17 1576.41 0.00000 3.59861e-13
  18 1576.41 0.00000 5.45865e-13
  19 1576.41 0.00000 1.14157e-12
  20 1576.41 0.00000 -1.18469e-12
  21 1576.41 0.00000 -4.11626e-13
  22 1576.41 0.00000 -5.62363e-13
  23 1576.41 0.00000 -7.89888e-14
  24 1576.41 0.00000 -1.02368e-12
  25 1576.41 0.00000 -1.00756e-12
  26 1576.41 0.00000 -1.33831e-12
  27 1576.41 0.00000 -8.69362e-13
  28 1576.41 0.00000 5.10539e-13
  29 1576.41 0.00000 -2.72688e-13
  30 1576.41 0.00000 1.47782e-12
  31 1576.41 0.00000 -2.24910e-13
  32 1576.41 0.00000 1.18417e-13
  33 1576.41 0.00000 -3.22918e-14
  34 1576.41 0.00000 -1.24361e-12
  35 1576.41 0.00000 2.36783e-13
  36 1576.41 0.00000 3.99819e-13
  37 1576.41 0.00000 3.30620e-13
  38 1576.41 0.00000 -1.44487e-13
  39 1576.41 0.00000 2.46187e-14
  40 1576.41 0.00000 3.36828e-13
  41 1576.41 0.00000 -1.26482e-13
  42 1576.41 0.00000 1.07916e-12
  43 1576.41 0.00000 1.92485e-13
  44 1576.41 0.00000 -6.82385e-16
  45 1576.41 0.00000 -3.64052e-13
  46 1576.41 0.00000 4.67190e-14
  47 1576.41 0.00000 1.34909e-12
  48 1576.41 0.00000 -2.36744e-13
  49 1576.41 0.00000 3.29251e-13
  50 1576.41 0.00000 -5.60847e-13
  51 1576.41 0.00000 5.83555e-14
  52 1576.41 0.00000 -3.13552e-13
  53 1576.41 0.00000 5.21331e-13
  54 1576.41 0.00000 -3.06709e-13
  55 1576.41 0.00000 1.08673e-12
  56 1576.41 0.00000 -8.83737e-15
  57 1576.41 0.00000 5.42909e-13
  58 1576.41 0.00000 -1.57836e-12
  59 1576.41 0.00000 -5.72370e-13
  60 1576.41 0.00000 8.01494e-13
  61 1576.41 0.00000 -5.77829e-14
  62 1576.41 0.00000 -1.39229e-12
  63 1576.41 0.00000 1.07380e-12
  64 1576.41 0.00000 -5.80538e-13
  65 1576.41 0.00000 4.59651e-13
  66 1576.41 0.00000 -4.40137e-13
</Section>

newXOutput 55

<Section columns = "stress_xx | stress_yy | stress_xy">
  1 1622.40 0.00000 -9.90228e-13
  2 1622.40 0.00000 -3.53738e-13
  3 1622.40 0.00000 -1.06476e-14
  4 1622.40 0.00000 1.03369e-12
  5 1622.40 0.00000 -1.02620e-12
  6 1622.40 0.00000 -9.77704e-13
  7 1622.40 0.00000 3.09494e-13
  8 1622.40 0.00000 8.97322e-14
  9 1622.40 0.00000 2.07319e-13
  10 1622.40 0.00000 6.12839e-13
  11 1622.40 0.00000 4.56675e-13
  12 1622.40 0.00000 3.07822e-13
  13 1622.40 0.00000 -7.44915e-13
  14 1622.40 0.00000 -1.07835e-13
  15 1622.40 0.00000 4.44436e-14
  16 1622.40 0.00000 1.15242e-13
  17 1622.40 0.00000 -8.66219e-13
  18 1622.40 0.00000 -1.35466e-12
  19 1622.40 0.00000 -1.76692e-12
  20 1622.40 0.00000 -5.75394e-13
  21 1622.40 0.00000 -3.51705e-13
  22 1622.40 0.00000 3.84858e-13
  23 1622.40 0.00000 -4.64817e-14
  24 1622.40 0.00000 5.91823e-13
  25 1622.40 0.00000 2.96676e-13
  26 1622.40 0.00000 1.56006e-12
  27 1622.40 0.00000 9.07194e-13
  28 1622.40 0.00000 -8.80169e-13
  29 1622.40 0.00000 1.64041e-13
  30 1622.40 0.00000 -1.67205e-12
  31 1622.40 0.00000 -2.34039e-13
  32 1622.40 0.00000 -1.19393e-13
  33 1622.40 0.00000 -1.25930e-12
  34 1622.40 0.00000 1.29984e-12
  35 1622.40 0.00000 -6.16012e-13
  36 1622.40 0.00000 6.80444e-14
  37 1622.40 0.00000 -3.96811e-13
  38 1622.40 0.00000 3.83431e-13
  39 1622.40 0.00000 -5.22705e-13
  40 1622.40 0.00000 -1.81222e-13
  41 1622.40 0.00000 -3.20967e-13
  42 1622.40 0.00000 -1.28660e-12
  43 1622.40 0.00000 -9.32342e-13
  44 1622.40 0.00000 -5.71015e-15
  45 1622.40 0.00000 1.73240e-13
  46 1622.40 0.00000 2.26519e-13
  47 1622.40 0.00000 -1.70298e-12
  48 1622.40 0.00000 -2.21706e-13
  49 1622.40 0.00000 -9.65820e-14
  50 1622.40 0.00000 4.52386e-13
  51 1622.40 0.00000 -1.81076e-13
  52 1622.40 0.00000 -1.43318e-13
  53 1622.40 0.00000 -4.36141e-13
  54 1622.40 0.00000 -6.38750e-13
  55 1622.40 0.00000 -1.26235e-12
  56 1622.40 0.00000 8.29904e-14
  57 1622.40 0.00000 -6.74574e-13
  58 1622.40 0.00000 1.41547e-12
  59 1622.40 0.00000 3.26968e-13
  60 1622.40 0.00000 -9.17445e-13
  61 1622.40 0.00000 -1.20073e-12
  62 1622.40 0.00000 8.98519e-13
  63 1622.40 0.00000 -1.03324e-12
  64 1622.40 0.00000 -3.04559e-13
  65 1622.40 0.00000 3.67878e-13
  66 1622.40 0.00000 -7.40454e-13
</Section>

newXOutput 56

<Section columns = "stress_xx | stress_yy | stress_xy">
  1 1668.54 0.00000 1.53037e-12
  2 1668.54 0.00000 -3.54102e-13
  3 1668.54 0.00000 1.33948e-14
  4 1668.54 0.00000 -1.64957e-12
  5 1668.54 0.00000 2.15523e-12
  6 1668.54 0.00000 1.75405e-12
  7 1668.54 0.00000 1.83813e-13
  8 1668.54 0.00000 2.40151e-13
  9 1668.54 0.00000 3.82959e-13
  10 1668.54 0.00000 5.25775e-13
  11 1668.54 0.00000 1.11227e-13
  12 1668.54 0.00000 1.07686e-12
  13 1668.54 0.00000 1.09057e-12
  14 1668.54 0.00000 3.53366e-14
  15 1668.54 0.00000 -1.06755e-13
  16 1668.54 0.00000 -2.55326e-13
  17 1668.54 0.00000 1.56363e-13
  18 1668.54 0.00000 -5.95696e-13
  19 1668.54 0.00000 1.50595e-12
  20 1668.54 0.00000 9.14369e-13
  21 1668.54 0.00000 9.03012e-14
  22 1668.54 0.00000 -8.58416e-13
  23 1668.54 0.00000 -3.28889e-13
  24 1668.54 0.00000 -1.50310e-12
  25 1668.54 0.00000 -1.09227e-12
  26 1668.54 0.00000 -1.46265e-12
  27 1668.54 0.00000 -4.79552e-13
  28 1668.54 0.00000 7.67689e-13
  29 1668.54 0.00000 -2.60042e-13
  30 1668.54 0.00000 5.97680e-13
  31 1668.54 0.00000 2.20470e-13
  32 1668.54 0.00000 -6.35059e-14
  33 1668.54 0.00000 6.80914e-13
  34 1668.54 0.00000 -9.76897e-13
  35 1668.54 0.00000 1.30680e-13
  36 1668.54 0.00000 9.49041e-14
  37 1668.54 0.00000 8.29967e-13
  38 1668.54 0.00000 1.14784e-14
  39 1668.54 0.00000 2.10772e-13
  40 1668.54 0.00000 4.86532e-13
  41 1668.54 0.00000 6.15438e-14
  42 1668.54 0.00000 6.95288e-13
  43 1668.54 0.00000 9.51827e-13
  44 1668.54 0.00000 3.04407e-14
  45 1668.54 0.00000 -3.56261e-13
  46 1668.54 0.00000 2.18712e-13
  47 1668.54 0.00000 1.08767e-12
  48 1668.54 0.00000 1.06572e-13
  49 1668.54 0.00000 -4.31540e-16
  50 1668.54 0.00000 -4.27100e-13
  51 1668.54 0.00000 -1.12264e-13
  52 1668.54 0.00000 -1.61549e-13
  53 1668.54 0.00000 5.84475e-15
  54 1668.54 0.00000 8.92169e-13
  55 1668.54 0.00000 1.19755e-12
  56 1668.54 0.00000 -2.62544e-13
  57 1668.54 0.00000 2.28153e-13
  58 1668.54 0.00000 -1.61119e-12
  59 1668.54 0.00000 -3.90085e-13
  60 1668.54 0.00000 6.36386e-13
  61 1668.54 0.00000 1.62338e-12
  62 1668.54 0.00000 -1.07871e-12
  63 1668.54 0.00000 1.12398e-12
  64 1668.54 0.00000 -4.32161e-13
  65 1668.54 0.00000 5.70443e-13
  66 1668.54 0.00000 6.54131e-13
</Section>

newXOutput 57

<Section columns = "stress_xx | stress_yy | stress_xy">
  1 1714.83 0.00000 -1.42795e-12
  2 1714.83 0.00000 -4.34748e-13
  3 1714.83 0.00000 2.18914e-13
  4 1714.83 0.00000 1.88984e-12
  5 1714.83 0.00000 -1.84440e-12
  6 1714.83 0.00000 -1.07303e-12
  7 1714.83 0.00000 4.05304e-13
  8 1714.83 0.00000 9.01714e-14
  9 1714.83 0.00000 -1.88515e-13
  10 1714.83 0.00000 -2.77737e-13
  11 1714.83 0.00000 3.21487e-13
  12 1714.83 0.00000 -5.09686e-13
  13 1714.83 0.00000 -2.11146e-12
  14 1714.83 0.00000 2.45178e-13
  15 1714.83 0.00000 4.28393e-13
  16 1714.83 0.00000 2.11669e-13
  17 1714.83 0.00000 4.54882e-13
  18 1714.83 0.00000 4.70316e-13
  19 1714.83 0.00000 -1.15859e-12
  20 1714.83 0.00000 -5.36807e-13
  21 1714.83 0.00000 1.35002e-13
  22 1714.83 0.00000 9.32600e-13
  23 1714.83 0.00000 3.76644e-13
  24 1714.83 0.00000 1.26558e-12
  25 1714.83 0.00000 1.29008e-12
  26 1714.83 0.00000 1.07323e-12
  27 1714.83 0.00000 2.95708e-13
  28 1714.83 0.00000 -6.77895e-13
  29 1714.83 0.00000 2.66429e-13
  30 1714.83 0.00000 -2.85845e-13
  31 1714.83 0.00000 -2.78312e-13
  32 1714.83 0.00000 4.24553e-13
  33 1714.83 0.00000 -6.80486e-13
  34 1714.83 0.00000 6.03254e-13
  35 1714.83 0.00000 6.06212e-13
  36 1714.83 0.00000 5.68305e-13
  37 1714.83 0.00000 -6.26596e-13
  38 1714.83 0.00000 2.48909e-13
  39 1714.83 0.00000 -4.95806e-13
  40 1714.83 0.00000 -6.31706e-14
  41 1714.83 0.00000 1.09103e-13
  42 1714.83 0.00000 -1.15751e-13
  43 1714.83 0.00000 -6.22831e-13
  44 1714.83 0.00000 3.69139e-13
  45 1714.83 0.00000 -5.09303e-14
  46 1714.83 0.00000 1.47244e-13
  47 1714.83 0.00000 -5.18569e-13
  48 1714.83 0.00000 -2.09389e-13
  49 1714.83 0.00000 3.94522e-13
  50 1714.83 0.00000 2.95514e-13
  51 1714.83 0.00000 7.13834e-14
  52 1714.83 0.00000 -5.82509e-15
  53 1714.83 0.00000 2.13326e-13
  54 1714.83 0.00000 -6.09147e-13
  55 1714.83 0.00000 -8.01222e-13
  56 1714.83 0.00000 5.21934e-13
  57 1714.83 0.00000 -7.11002e-13
  58 1714.83 0.00000 1.48199e-12
  59 1714.83 0.00000 1.67102e-13
  60 1714.83 0.00000 -1.28256e-13
  61 1714.83 0.00000 -1.64516e-12
  62 1714.83 0.00000 1.24531e-12
  63 1714.83 0.00000 -3.67762e-13
  64 1714.83 0.00000 5.53909e-13
  65 1714.83 0.00000 -3.96146e-13
  66 1714.83 0.00000 -9.29710e-14
</Section>

newXOutput 58

<Section columns = "stress_xx | stress_yy | stress_xy">
  1 1761.27 0.00000 1.13787e-12
  2 1761.27 0.00000 -1.19069e-13
  3 1761.27 0.00000 -8.74308e-13
  4 1761.27 0.00000 -2.77831e-12
  5 1761.27 0.00000 4.80216e-13
  6 1761.27 0.00000 6.08306e-13
  7 1761.27 0.00000 -6.65586e-13
  8 1761.27 0.00000 -6.09826e-14
  9 1761.27 0.00000 1.53133e-13
  10 1761.27 0.00000 4.11950e-13
  11 1761.27 0.00000 -6.24306e-13
  12 1761.27 0.00000 2.20733e-13
  13 1761.27 0.00000 7.02074e-13
  14 1761.27 0.00000 -1.72041e-13
  15 1761.27 0.00000 -2.73720e-13
  16 1761.27 0.00000 -3.15826e-13
  17 1761.27 0.00000 -1.26231e-12
  18 1761.27 0.00000 -1.19543e-12
  19 1761.27 0.00000 9.44089e-13
  20 1761.27 0.00000 2.78578e-13
  21 1761.27 0.00000 1.26472e-13
  22 1761.27 0.00000 -5.56568e-13
  23 1761.27 0.00000 -1.70986e-13
  24 1761.27 0.00000 -2.04979e-12
  25 1761.27 0.00000 -2.93470e-12
  26 1761.27 0.00000 -7.57963e-13
  27 1761.27 0.00000 -1.84521e-13
  28 1761.27 0.00000 1.11446e-12
  29 1761.27 0.00000 2.71007e-13
  30 1761.27 0.00000 8.20513e-13
  31 1761.27 0.00000 -3.71883e-13
  32 1761.27 0.00000 -2.60861e-13
  33 1761.27 0.00000 2.08777e-13
  34 1761.27 0.00000 -2.00845e-13
  35 1761.27 0.00000 -2.37831e-15
  36 1761.27 0.00000 -8.78959e-13
  37 1761.27 0.00000 4.24537e-13
  38 1761.27 0.00000 -4.47669e-13
  39 1761.27 0.00000 2.65151e-13
  40 1761.27 0.00000 -2.20547e-13
  41 1761.27 0.00000 -1.99839e-13
  42 1761.27 0.00000 2.72509e-13
  43 1761.27 0.00000 7.09727e-13
  44 1761.27 0.00000 -1.07675e-13
  45 1761.27 0.00000 -8.20118e-14
  46 1761.27 0.00000 -2.89283e-13
  47 1761.27 0.00000 5.04365e-13
  48 1761.27 0.00000 2.66854e-13
  49 1761.27 0.00000 -4.38612e-13
  50 1761.27 0.00000 2.73017e-13
  51 1761.27 0.00000 -1.96763e-13
  52 1761.27 0.00000 -2.84023e-13
  53 1761.27 0.00000 5.11095e-13
  54 1761.27 0.00000 1.69434e-13
  55 1761.27 0.00000 7.61236e-13
  56 1761.27 0.00000 -1.19957e-12
  57 1761.27 0.00000 -2.70998e-13
  58 1761.27 0.00000 -1.65059e-12
  59 1761.27 0.00000 3.54704e-13
  60 1761.27 0.00000 6.20030e-13
  61 1761.27 0.00000 7.05325e-13
  62 1761.27 0.00000 -1.83284e-12
  63 1761.27 0.00000 -4.87109e-14
  64 1761.27 0.00000 -1.62183e-12
  65 1761.27 0.00000 3.37932e-13
  66 1761.27 0.00000 -2.03138e-13
</Section>

newXOutput 59

<Section columns = "stress_xx | stress_yy | stress_xy">
  1 1807.86 0.00000 -1.85162e-12
  2 1807.86 0.00000 3.29310e-13
  3 1807.86 0.00000 1.08464e-12
  4 1807.86 0.00000 2.37327e-12
  5 1807.86 0.00000 -1.78301e-12
  6 1807.86 0.00000 -1.46096e-12
  7 1807.86 0.00000 6.63134e-13
  8 1807.86 0.00000 1.42919e-13
  9 1807.86 0.00000 -3.88871e-13
  10 1807.86 0.00000 -4.09546e-13
  11 1807.86 0.00000 3.74638e-13
  12 1807.86 0.00000 1.75505e-12
  13 1807.86 0.00000 7.12420e-13
  14 1807.86 0.00000 -7.67798e-14
  15 1807.86 0.00000 3.72959e-13
  16 1807.86 0.00000 4.89895e-13
  17 1807.86 0.00000 9.72192e-13
  18 1807.86 0.00000 -2.61053e-13
  19 1807.86 0.00000 -1.57566e-12
  20 1807.86 0.00000 1.01380e-13
  21 1807.86 0.00000 -1.26014e-13
  22 1807.86 0.00000 4.08327e-13
  23 1807.86 0.00000 2.28993e-14
  24 1807.86 0.00000 1.95399e-12
  25 1807.86 0.00000 2.15321e-12
  26 1807.86 0.00000 9.41206e-13
  27 1807.86 0.00000 6.69777e-14
  28 1807.86 0.00000 -1.16651e-12
  29 1807.86 0.00000 3.50852e-13
  30 1807.86 0.00000 -7.60238e-13
  31 1807.86 0.00000 5.26511e-13
  32 1807.86 0.00000 -2.02386e-13
  33 1807.86 0.00000 -1.34284e-13
  34 1807.86 0.00000 8.58630e-13
  35 1807.86 0.00000 4.08347e-14
  36 1807.86 0.00000 4.47237e-13
  37 1807.86 0.00000 -4.64916e-13
  38 1807.86 0.00000 8.16360e-13
  39 1807.86 0.00000 -3.52594e-13
  40 1807.86 0.00000 3.76193e-13
  41 1807.86 0.00000 -2.67467e-14
  42 1807.86 0.00000 -4.73972e-13
  43 1807.86 0.00000 -2.17334e-13
  44 1807.86 0.00000 5.64552e-14
  45 1807.86 0.00000 4.99932e-13
  46 1807.86 0.00000 3.76597e-13
  47 1807.86 0.00000 -1.04066e-12
  48 1807.86 0.00000 -3.74596e-13
  49 1807.86 0.00000 6.45378e-13
  50 1807.86 0.00000 -2.18303e-13
  51 1807.86 0.00000 1.19995e-13
  52 1807.86 0.00000 7.30062e-13
  53 1807.86 0.00000 -5.30087e-13
  54 1807.86 0.00000 -6.39322e-13
  55 1807.86 0.00000 -1.21719e-12
  56 1807.86 0.00000 1.08855e-12
  57 1807.86 0.00000 1.25311e-13
  58 1807.86 0.00000 1.92751e-12
  59 1807.86 0.00000 -5.19134e-13
  60 1807.86 0.00000 -3.44525e-13
  61 1807.86 0.00000 2.21391e-13
  62 1807.86 0.00000 2.57901e-12
  63 1807.86 0.00000 -7.16992e-13
  64 1807.86 0.00000 6.53942e-13
  65 1807.86 0.00000 -8.32390e-13
  66 1807.86 0.00000 2.82324e-13
</Section>

newXOutput 60

<Section columns = "stress_xx | stress_yy | stress_xy">
  1 1854.60 0.00000 2.06064e-12
  2 1854.60 0.00000 8.88487e-14
  3 1854.60 0.00000 -5.14090e-13
  4 1854.60 0.00000 -1.76829e-12
  5 1854.60 0.00000 2.02663e-12
  6 1854.60 0.00000 9.19706e-13
  7 1854.60 0.00000 -4.34055e-13
  8 1854.60 0.00000 3.20329e-13
  9 1854.60 0.00000 6.95732e-13
  10 1854.60 0.00000 1.85685e-12
  11 1854.60 0.00000 -6.70824e-14
  12 1854.60 0.00000 -7.65848e-13
  13 1854.60 0.00000 -2.05700e-13
  14 1854.60 0.00000 9.84653e-15
  15 1854.60 0.00000 -2.23519e-14
  16 1854.60 0.00000 1.40236e-13
  17 1854.60 0.00000 -8.33932e-13
  18 1854.60 0.00000 1.88944e-13
  19 1854.60 0.00000 1.35318e-12
  20 1854.60 0.00000 -1.04523e-12
  21 1854.60 0.00000 -8.75067e-13
  22 1854.60 0.00000 -5.96038e-13
  23 1854.60 0.00000 -4.87367e-13
  24 1854.60 0.00000 -1.59464e-12
  25 1854.60 0.00000 -1.25508e-12
  26 1854.60 0.00000 -9.01387e-13
  27 1854.60 0.00000 -2.36694e-13
  28 1854.60 0.00000 1.13880e-12
  29 1854.60 0.00000 3.55819e-13
  30 1854.60 0.00000 -1.43739e-13
  31 1854.60 0.00000 -3.48474e-13
  32 1854.60 0.00000 5.61341e-13
  33 1854.60 0.00000 2.51081e-13
  34 1854.60 0.00000 -1.56639e-12
  35 1854.60 0.00000 3.55409e-13
  36 1854.60 0.00000 -8.18899e-14
  37 1854.60 0.00000 4.56354e-13
  38 1854.60 0.00000 -4.43940e-13
  39 1854.60 0.00000 2.08136e-13
  40 1854.60 0.00000 -3.21156e-13
  41 1854.60 0.00000 -2.23608e-13
  42 1854.60 0.00000 6.57687e-13
  43 1854.60 0.00000 2.92527e-13
  44 1854.60 0.00000 2.40942e-13
  45 1854.60 0.00000 -5.20614e-13
  46 1854.60 0.00000 -2.91946e-13
  47 1854.60 0.00000 8.26152e-13
  48 1854.60 0.00000 1.00791e-14
  49 1854.60 0.00000 -1.34830e-13
  50 1854.60 0.00000 -3.31135e-14
  51 1854.60 0.00000 1.14193e-13
  52 1854.60 0.00000 -2.00986e-13
  53 1854.60 0.00000 -8.95586e-15
  54 1854.60 0.00000 4.68854e-13
  55 1854.60 0.00000 1.50174e-12
  56 1854.60 0.00000 -2.11402e-13
  57 1854.60 0.00000 -1.43957e-13
  58 1854.60 0.00000 -1.89745e-12
  59 1854.60 0.00000 4.13641e-13
  60 1854.60 0.00000 3.01565e-13
  61 1854.60 0.00000 -5.13775e-14
  62 1854.60 0.00000 -2.53552e-12
  63 1854.60 0.00000 1.03265e-12
  64 1854.60 0.00000 -2.50710e-13
  65 1854.60 0.00000 1.46714e-12
  66 1854.60 0.00000 -1.00044e-12
</Section>

newXOutput 61

<Section columns = "stress_xx | stress_yy | stress_xy">
  1 1901.50 0.00000 -1.80260e-12
  2 1901.50 0.00000 -6.88522e-13
  3 1901.50 0.00000 5.01806e-14
  4 1901.50 0.00000 2.09462e-12
  5 1901.50 0.00000 -1.98598e-12
  6 1901.50 0.00000 -1.31130e-12
  7 1901.50 0.00000 3.48622e-13
  8 1901.50 0.00000 -3.75552e-14
  9 1901.50 0.00000 -5.32670e-13
  10 1901.50 0.00000 -2.02792e-12
  11 1901.50 0.00000 5.19063e-13
  12 1901.50 0.00000 -2.92106e-13
  13 1901.50 0.00000 -1.91066e-12
  14 1901.50 0.00000 -3.94603e-13
  15 1901.50 0.00000 -4.47559e-14
  16 1901.50 0.00000 -1.38749e-13
  17 1901.50 0.00000 8.58749e-14
  18 1901.50 0.00000 -1.96281e-12
  19 1901.50 0.00000 -1.58113e-12
  20 1901.50 0.00000 2.96400e-13
  21 1901.50 0.00000 -2.38574e-13
  22 1901.50 0.00000 3.29648e-13
  23 1901.50 0.00000 7.13155e-13
  24 1901.50 0.00000 2.41437e-12
  25 1901.50 0.00000 1.93051e-12
  26 1901.50 0.00000 8.93222e-13
  27 1901.50 0.00000 6.71338e-14
  28 1901.50 0.00000 -1.09824e-12
  29 1901.50 0.00000 -7.10265e-13
  30 1901.50 0.00000 1.03583e-13
  31 1901.50 0.00000 2.54283e-13
  32 1901.50 0.00000 -3.20795e-13
  33 1901.50 0.00000 -4.83200e-13
  34 1901.50 0.00000 2.21076e-12
  35 1901.50 0.00000 -1.78631e-12
  36 1901.50 0.00000 8.81930e-13
  37 1901.50 0.00000 -9.77608e-13
  38 1901.50 0.00000 2.64434e-14
  39 1901.50 0.00000 -7.45498e-14
  40 1901.50 0.00000 2.49021e-13
  41 1901.50 0.00000 -1.33658e-13
  42 1901.50 0.00000 1.54845e-13
  43 1901.50 0.00000 -7.12078e-13
  44 1901.50 0.00000 -1.18442e-12
  45 1901.50 0.00000 1.04831e-12
  46 1901.50 0.00000 4.83031e-13
  47 1901.50 0.00000 -5.17139e-13
  48 1901.50 0.00000 -2.59429e-13
  49 1901.50 0.00000 -6.20641e-14
  50 1901.50 0.00000 -1.71679e-13
  51 1901.50 0.00000 -6.20186e-13
  52 1901.50 0.00000 -2.65292e-13
  53 1901.50 0.00000 -4.09813e-13
  54 1901.50 0.00000 -8.48758e-13
  55 1901.50 0.00000 -1.89189e-12
  56 1901.50 0.00000 3.98859e-13
  57 1901.50 0.00000 -5.97342e-13
  58 1901.50 0.00000 2.43482e-12
  59 1901.50 0.00000 -8.74025e-13
  60 1901.50 0.00000 -3.48298e-13
  61 1901.50 0.00000 -1.28373e-12
  62 1901.50 0.00000 3.64974e-12
  63 1901.50 0.00000 -2.22054e-12
  64 1901.50 0.00000 4.14071e-13
  65 1901.50 0.00000 -1.21972e-12
  66 1901.50 0.00000 2.89688e-13
</Section>

newXOutput 62

<Section columns = "stress_xx | stress_yy | stress_xy">
  1 1948.54 0.00000 2.16730e-12
  2 1948.54 0.00000 1.15989e-12
  3 1948.54 0.00000 -2.33744e-13
  4 1948.54 0.00000 -2.79154e-12
  5 1948.54 0.00000 3.09805e-12
  6 1948.54 0.00000 2.70984e-12
  7 1948.54 0.00000 7.66988e-13
  8 1948.54 0.00000 6.92178e-14
  9 1948.54 0.00000 -1.69375e-13
  10 1948.54 0.00000 1.27010e-12
  11 1948.54 0.00000 -7.84697e-13
  12 1948.54 0.00000 7.44083e-13
  13 1948.54 0.00000 2.27437e-12
  14 1948.54 0.00000 6.13845e-13
  15 1948.54 0.00000 -6.62643e-29
  16 1948.54 0.00000 -1.42170e-13
  17 1948.54 0.00000 -3.32629e-13
  18 1948.54 0.00000 9.91757e-13
  19 1948.54 0.00000 9.28803e-13
  20 1948.54 0.00000 -4.22328e-13
  21 1948.54 0.00000 -2.36394e-13
  22 1948.54 0.00000 -1.06691e-12
  23 1948.54 0.00000 -1.66267e-12
  24 1948.54 0.00000 -2.78956e-12
  25 1948.54 0.00000 -2.61107e-12
  26 1948.54 0.00000 -1.12535e-12
  27 1948.54 0.00000 -2.52461e-13
  28 1948.54 0.00000 1.05158e-12
  29 1948.54 0.00000 3.09595e-15
  30 1948.54 0.00000 3.24918e-13
  31 1948.54 0.00000 6.42141e-14
  32 1948.54 0.00000 2.20413e-13
  33 1948.54 0.00000 -2.69324e-13
  34 1948.54 0.00000 -2.85467e-12
  35 1948.54 0.00000 2.02173e-12
  36 1948.54 0.00000 -9.48394e-13
  37 1948.54 0.00000 8.69812e-13
  38 1948.54 0.00000 2.46572e-13
  39 1948.54 0.00000 -2.26562e-13
  40 1948.54 0.00000 1.66812e-13
  41 1948.54 0.00000 -6.91486e-14
  42 1948.54 0.00000 4.96450e-13
  43 1948.54 0.00000 2.01530e-13
  44 1948.54 0.00000 1.45968e-12
  45 1948.54 0.00000 -1.65106e-12
  46 1948.54 0.00000 -6.19437e-13
  47 1948.54 0.00000 9.40368e-13
  48 1948.54 0.00000 -2.20474e-13
  49 1948.54 0.00000 -4.31640e-13
  50 1948.54 0.00000 -6.59826e-14
  51 1948.54 0.00000 9.74866e-13
  52 1948.54 0.00000 1.64493e-13
  53 1948.54 0.00000 6.17312e-13
  54 1948.54 0.00000 5.07607e-13
  55 1948.54 0.00000 2.47861e-12
  56 1948.54 0.00000 -7.83643e-13
  57 1948.54 0.00000 5.94980e-13
  58 1948.54 0.00000 -2.97445e-12
  59 1948.54 0.00000 1.01536e-13
  60 1948.54 0.00000 1.16946e-13
  61 1948.54 0.00000 1.72768e-12
  62 1948.54 0.00000 -4.13226e-12
  63 1948.54 0.00000 3.54208e-12
  64 1948.54 0.00000 -6.47166e-13
  65 1948.54 0.00000 8.03882e-13
  66 1948.54 0.00000 -4.88562e-13
</Section>

newXOutput 63

<Section columns = "stress_xx | stress_yy | stress_xy">
  1 1995.75 0.00000 -3.56503e-12
  2 1995.75 0.00000 2.41837e-13
  3 1995.75 0.00000 -4.08082e-13
  4 1995.75 0.00000 3.95025e-12
  5 1995.75 0.00000 -4.03543e-12
  6 1995.75 0.00000 -2.62866e-12
  7 1995.75 0.00000 -8.43652e-13
  8 1995.75 0.00000 -2.50482e-13
  9 1995.75 0.00000 -2.17270e-14
  10 1995.75 0.00000 -2.93000e-13
  11 1995.75 0.00000 1.49851e-12
  12 1995.75 0.00000 4.00751e-13
  13 1995.75 0.00000 -2.33826e-13
  14 1995.75 0.00000 -2.57308e-13
  15 1995.75 0.00000 2.24300e-14
  16 1995.75 0.00000 -4.03792e-14
  17 1995.75 0.00000 -5.69132e-13
  18 1995.75 0.00000 -1.28455e-12
  19 1995.75 0.00000 -8.29998e-13
  20 1995.75 0.00000 1.96039e-13
  21 1995.75 0.00000 1.42162e-13
  22 1995.75 0.00000 1.24828e-12
  23 1995.75 0.00000 1.50712e-12
  24 1995.75 0.00000 2.32044e-12
  25 1995.75 0.00000 3.68606e-12
  26 1995.75 0.00000 1.51592e-12
  27 1995.75 0.00000 3.51986e-13
  28 1995.75 0.00000 -1.31240e-12
  29 1995.75 0.00000 8.01818e-13
  30 1995.75 0.00000 -4.95994e-13
  31 1995.75 0.00000 4.14487e-13
  32 1995.75 0.00000 -4.22581e-13
  33 1995.75 0.00000 3.81919e-13
  34 1995.75 0.00000 3.06069e-12
  35 1995.75 0.00000 -1.30634e-12
  36 1995.75 0.00000 1.06121e-12
  37 1995.75 0.00000 -6.66768e-13
  38 1995.75 0.00000 -3.99275e-13
  39 1995.75 0.00000 3.49050e-13
  40 1995.75 0.00000 2.86586e-13
  41 1995.75 0.00000 2.83745e-13
  42 1995.75 0.00000 -5.22173e-13
  43 1995.75 0.00000 -3.64088e-13
  44 1995.75 0.00000 -1.12596e-12
  45 1995.75 0.00000 1.80951e-12
  46 1995.75 0.00000 3.41215e-13
  47 1995.75 0.00000 -7.29147e-13
  48 1995.75 0.00000 3.09088e-13
  49 1995.75 0.00000 5.33383e-13
  50 1995.75 0.00000 4.08028e-13
  51 1995.75 0.00000 -4.84402e-13
  52 1995.75 0.00000 2.77295e-13
  53 1995.75 0.00000 -1.46573e-12
  54 1995.75 0.00000 -5.80366e-13
  55 1995.75 0.00000 -2.67524e-12
  56 1995.75 0.00000 3.92269e-13
  57 1995.75 0.00000 3.23272e-13
  58 1995.75 0.00000 3.44151e-12
  59 1995.75 0.00000 7.68434e-13
  60 1995.75 0.00000 6.29082e-15
  61 1995.75 0.00000 -4.03910e-14
  62 1995.75 0.00000 3.94694e-12
  63 1995.75 0.00000 -3.33696e-12
  64 1995.75 0.00000 -1.69951e-13
  65 1995.75 0.00000 -2.89885e-13
  66 1995.75 0.00000 5.15954e-13
</Section>

newXOutput 64

<Section columns = "stress_xx | stress_yy | stress_xy">
  1 2043.10 0.00000 3.66624e-12
  2 2043.10 0.00000 2.70745e-13
  3 2043.10 0.00000 8.96824e-13
  4 2043.10 0.00000 -5.27147e-12
  5 2043.10 0.00000 3.55076e-12
  6 2043.10 0.00000 2.33006e-12
  7 2043.10 0.00000 6.98376e-13
  8 2043.10 0.00000 -8.15325e-14
  9 2043.10 0.00000 -3.07996e-13
  10 2043.10 0.00000 -2.80182e-13
  11 2043.10 0.00000 -7.18411e-13
  12 2043.10 0.00000 -5.99160e-13
  13 2043.10 0.00000 4.59710e-13
  14 2043.10 0.00000 -1.26215e-14
  15 2043.10 0.00000 -2.08070e-13
  16 2043.10 0.00000 9.55552e-14
  17 2043.10 0.00000 1.03123e-12
  18 2043.10 0.00000 9.72480e-13
  19 2043.10 0.00000 7.68711e-13
  20 2043.10 0.00000 -1.22613e-12
  21 2043.10 0.00000 -8.86935e-13
  22 2043.10 0.00000 -1.41951e-12
  23 2043.10 0.00000 -1.31951e-12
  24 2043.10 0.00000 -2.78042e-12
  25 2043.10 0.00000 -5.00704e-12
  26 2043.10 0.00000 -1.70124e-12
  27 2043.10 0.00000 -8.98240e-14
  28 2043.10 0.00000 1.84201e-12
  29 2043.10 0.00000 -1.03157e-12
  30 2043.10 0.00000 5.80275e-13
  31 2043.10 0.00000 -5.15392e-13
  32 2043.10 0.00000 4.96539e-13
  33 2043.10 0.00000 -8.29088e-14
  34 2043.10 0.00000 -2.75598e-12
  35 2043.10 0.00000 1.14625e-12
  36 2043.10 0.00000 -5.29737e-13
  37 2043.10 0.00000 9.75187e-13
  38 2043.10 0.00000 4.61896e-13
  39 2043.10 0.00000 -4.42848e-13
  40 2043.10 0.00000 7.13642e-14
  41 2043.10 0.00000 -7.66100e-13
  42 2043.10 0.00000 8.72968e-13
  43 2043.10 0.00000 3.83255e-13
  44 2043.10 0.00000 1.35058e-12
  45 2043.10 0.00000 -2.13603e-12
  46 2043.10 0.00000 -2.53586e-13
  47 2043.10 0.00000 1.53402e-12
  48 2043.10 0.00000 -7.85801e-13
  49 2043.10 0.00000 -6.56027e-13
  50 2043.10 0.00000 -1.11117e-13
  51 2043.10 0.00000 -3.08652e-13
  52 2043.10 0.00000 -3.42358e-13
  53 2043.10 0.00000 7.41496e-13
  54 2043.10 0.00000 2.70607e-13
  55 2043.10 0.00000 2.76282e-12
  56 2043.10 0.00000 3.60499e-14
  57 2043.10 0.00000 2.78402e-15
  58 2043.10 0.00000 -3.94225e-12
  59 2043.10 0.00000 -5.37769e-13
  60 2043.10 0.00000 -6.07898e-14
  61 2043.10 0.00000 2.41648e-13
  62 2043.10 0.00000 -4.77965e-12
  63 2043.10 0.00000 3.12988e-12
  64 2043.10 0.00000 8.29294e-13
  65 2043.10 0.00000 8.63207e-13
  66 2043.10 0.00000 -9.77274e-13
</Section>

newXOutput 65

<Section columns = "stress_xx | stress_yy | stress_xy">
  1 2090.62 0.00000 -4.04074e-12
  2 2090.62 0.00000 -7.49435e-14
  3 2090.62 0.00000 -8.39588e-13
  4 2090.62 0.00000 5.76822e-12
  5 2090.62 0.00000 -4.03616e-12
  6 2090.62 0.00000 -2.77330e-12
  7 2090.62 0.00000 -1.23742e-12
  8 2090.62 0.00000 -4.16742e-13
  9 2090.62 0.00000 4.76266e-13
  10 2090.62 0.00000 6.84337e-13
  11 2090.62 0.00000 1.07908e-12
  12 2090.62 0.00000 6.69126e-13
  13 2090.62 0.00000 -3.37513e-13
  14 2090.62 0.00000 -2.40472e-13
  15 2090.62 0.00000 3.68039e-13
  16 2090.62 0.00000 1.08997e-13
  17 2090.62 0.00000 -1.03307e-12
  18 2090.62 0.00000 -1.09278e-12
  19 2090.62 0.00000 -1.22338e-12
  20 2090.62 0.00000 2.60161e-13
  21 2090.62 0.00000 5.54969e-13
  22 2090.62 0.00000 1.83070e-12
  23 2090.62 0.00000 1.72120e-12
  24 2090.62 0.00000 3.27874e-12
  25 2090.62 0.00000 5.21501e-12
  26 2090.62 0.00000 2.00592e-12
  27 2090.62 0.00000 2.22489e-13
  28 2090.62 0.00000 -1.95681e-12
  29 2090.62 0.00000 1.22391e-12
  30 2090.62 0.00000 -1.26635e-12
  31 2090.62 0.00000 2.70504e-13
  32 2090.62 0.00000 -2.54361e-14
  33 2090.62 0.00000 1.54757e-13
  34 2090.62 0.00000 3.05291e-12
  35 2090.62 0.00000 -1.36356e-12
  36 2090.62 0.00000 9.12916e-13
  37 2090.62 0.00000 -1.01881e-12
  38 2090.62 0.00000 -1.02342e-12
  39 2090.62 0.00000 6.48551e-13
  40 2090.62 0.00000 -1.97439e-13
  41 2090.62 0.00000 6.68866e-13
  42 2090.62 0.00000 -1.04427e-12
  43 2090.62 0.00000 -3.85730e-13
  44 2090.62 0.00000 -1.71988e-12
  45 2090.62 0.00000 2.46442e-12
  46 2090.62 0.00000 2.12408e-14
  47 2090.62 0.00000 -1.52046e-12
  48 2090.62 0.00000 9.88303e-13
  49 2090.62 0.00000 8.03280e-13
  50 2090.62 0.00000 4.79836e-13
  51 2090.62 0.00000 -4.91864e-15
  52 2090.62 0.00000 1.86956e-13
  53 2090.62 0.00000 -1.14310e-12
  54 2090.62 0.00000 -2.89389e-13
  55 2090.62 0.00000 -3.09310e-12
  56 2090.62 0.00000 -3.10903e-14
  57 2090.62 0.00000 3.33228e-13
  58 2090.62 0.00000 4.13758e-12
  59 2090.62 0.00000 9.08197e-13
  60 2090.62 0.00000 -2.30087e-13
  61 2090.62 0.00000 2.06264e-14
  62 2090.62 0.00000 4.83895e-12
  63 2090.62 0.00000 -3.88535e-12
  64 2090.62 0.00000 -7.48034e-13
  65 2090.62 0.00000 -7.59678e-13
  66 2090.62 0.00000 6.73810e-13
</Section>

newXOutput 66

<Section columns = "stress_xx | stress_yy | stress_xy">
  1 2138.29 0.00000 3.97581e-12
  2 2138.29 0.00000 1.18076e-12
  3 2138.29 0.00000 6.68858e-14
  4 2138.29 0.00000 -6.34013e-12
  5 2138.29 0.00000 4.13002e-12
  6 2138.29 0.00000 3.23376e-12
  7 2138.29 0.00000 1.59508e-12
  8 2138.29 0.00000 1.10461e-12
  9 2138.29 0.00000 1.18722e-13
  10 2138.29 0.00000 -4.89112e-13
  11 2138.29 0.00000 -1.88960e-12
  12 2138.29 0.00000 -1.53075e-12
  13 2138.29 0.00000 1.02511e-12
  14 2138.29 0.00000 1.48465e-13
  15 2138.29 0.00000 -4.31183e-13
  16 2138.29 0.00000 -4.03797e-13
  17 2138.29 0.00000 6.69000e-14
  18 2138.29 0.00000 9.60053e-13
  19 2138.29 0.00000 1.00313e-12
  20 2138.29 0.00000 -9.10266e-13
  21 2138.29 0.00000 -5.23484e-13
  22 2138.29 0.00000 -1.90730e-12
  23 2138.29 0.00000 -1.88370e-12
  24 2138.29 0.00000 -3.90399e-12
  25 2138.29 0.00000 -6.10230e-12
  26 2138.29 0.00000 -2.17543e-12
  27 2138.29 0.00000 0.00000
  28 2138.29 0.00000 2.13191e-12
  29 2138.29 0.00000 -1.00017e-12
  30 2138.29 0.00000 8.02817e-13
  31 2138.29 0.00000 1.44009e-15
  32 2138.29 0.00000 8.15760e-13
  33 2138.29 0.00000 -5.88316e-13
  34 2138.29 0.00000 -3.22306e-12
  35 2138.29 0.00000 2.13677e-12
  36 2138.29 0.00000 -8.56235e-13
  37 2138.29 0.00000 1.71510e-13
  38 2138.29 0.00000 1.20412e-12
  39 2138.29 0.00000 -4.19343e-13
  40 2138.29 0.00000 -2.44904e-14
  41 2138.29 0.00000 -3.14953e-13
  42 2138.29 0.00000 1.18851e-12
  43 2138.29 0.00000 -1.42457e-13
  44 2138.29 0.00000 1.95885e-12
  45 2138.29 0.00000 -2.56515e-12
  46 2138.29 0.00000 4.19391e-13
  47 2138.29 0.00000 1.36626e-12
  48 2138.29 0.00000 -6.94322e-13
  49 2138.29 0.00000 -1.02818e-12
  50 2138.29 0.00000 -3.94676e-14
  51 2138.29 0.00000 4.32749e-13
  52 2138.29 0.00000 -1.95360e-13
  53 2138.29 0.00000 1.27931e-12
  54 2138.29 0.00000 1.54735e-13
  55 2138.29 0.00000 3.45792e-12
  56 2138.29 0.00000 -6.06543e-13
  57 2138.29 0.00000 -8.86215e-14
  58 2138.29 0.00000 -4.86669e-12
  59 2138.29 0.00000 -3.73236e-13
  60 2138.29 0.00000 -6.77345e-13
  61 2138.29 0.00000 -4.37421e-14
  62 2138.29 0.00000 -5.98108e-12
  63 2138.29 0.00000 4.45070e-12
  64 2138.29 0.00000 3.63105e-13
  65 2138.29 0.00000 6.84234e-14
  66 2138.29 0.00000 -6.53095e-13
</Section>

newXOutput 67

<Section columns = "stress_xx | stress_yy | stress_xy">
  1 2186.12 0.00000 -4.43663e-12
  2 2186.12 0.00000 -1.06471e-12
  3 2186.12 0.00000 1.26631e-12
  4 2186.12 0.00000 6.80775e-12
  5 2186.12 0.00000 -4.74761e-12
  6 2186.12 0.00000 -3.59741e-12
  7 2186.12 0.00000 -1.47659e-12
  8 2186.12 0.00000 -7.85827e-13
  9 2186.12 0.00000 -4.78825e-13
  10 2186.12 0.00000 -2.56947e-13
  11 2186.12 0.00000 1.96097e-12
  12 2186.12 0.00000 9.01150e-13
  13 2186.12 0.00000 -1.01218e-12
  14 2186.12 0.00000 -2.35463e-13
  15 2186.12 0.00000 9.57803e-13
  16 2186.12 0.00000 3.92891e-13
  17 2186.12 0.00000 9.68037e-13
  18 2186.12 0.00000 -1.17877e-12
  19 2186.12 0.00000 -1.17240e-12
  20 2186.12 0.00000 3.30423e-12
  21 2186.12 0.00000 1.47443e-12
  22 2186.12 0.00000 2.04581e-12
  23 2186.12 0.00000 2.11091e-12
  24 2186.12 0.00000 4.02026e-12
  25 2186.12 0.00000 6.99960e-12
  26 2186.12 0.00000 2.16810e-12
  27 2186.12 0.00000 0.00000
  28 2186.12 0.00000 -2.26166e-12
  29 2186.12 0.00000 1.24628e-12
  30 2186.12 0.00000 -3.06747e-13
  31 2186.12 0.00000 -6.01815e-13
  32 2186.12 0.00000 -9.65445e-13
  33 2186.12 0.00000 -2.55490e-13
  34 2186.12 0.00000 3.45550e-12
  35 2186.12 0.00000 -2.97028e-12
  36 2186.12 0.00000 1.15894e-12
  37 2186.12 0.00000 -2.87470e-13
  38 2186.12 0.00000 -1.46683e-12
  39 2186.12 0.00000 -5.72879e-14
  40 2186.12 0.00000 7.50273e-14
  41 2186.12 0.00000 2.71126e-13
  42 2186.12 0.00000 -1.19173e-12
  43 2186.12 0.00000 -2.80949e-13
  44 2186.12 0.00000 -2.25928e-12
  45 2186.12 0.00000 2.64647e-12
  46 2186.12 0.00000 -6.28099e-13
  47 2186.12 0.00000 -1.59525e-12
  48 2186.12 0.00000 5.42548e-13
  49 2186.12 0.00000 9.27595e-13
  50 2186.12 0.00000 -1.15377e-13
  51 2186.12 0.00000 -4.31721e-13
  52 2186.12 0.00000 -2.69163e-13
  53 2186.12 0.00000 -6.26393e-14
  54 2186.12 0.00000 -1.06920e-12
  55 2186.12 0.00000 -4.10234e-12
  56 2186.12 0.00000 1.62042e-12
  57 2186.12 0.00000 -4.58510e-13
  58 2186.12 0.00000 5.06892e-12
  59 2186.12 0.00000 6.05279e-13
  60 2186.12 0.00000 2.45077e-13
  61 2186.12 0.00000 -1.16364e-12
  62 2186.12 0.00000 5.94184e-12
  63 2186.12 0.00000 -5.04196e-12
  64 2186.12 0.00000 4.36045e-13
  65 2186.12 0.00000 -5.36582e-14
  66 2186.12 0.00000 7.75570e-13
</Section>

newXOutput 68

<Section columns = "stress_xx | stress_yy | stress_xy">
  1 2234.11 0.00000 4.89630e-12
  2 2234.11 0.00000 1.45644e-12
  3 2234.11 0.00000 -1.34877e-12
  4 2234.11 0.00000 -6.54177e-12
  5 2234.11 0.00000 5.64724e-12
  6 2234.11 0.00000 4.04877e-12
  7 2234.11 0.00000 2.28762e-12
  8 2234.11 0.00000 1.38657e-12
  9 2234.11 0.00000 5.70231e-13
  10 2234.11 0.00000 2.58065e-14
  11 2234.11 0.00000 -1.88383e-12
  12 2234.11 0.00000 -5.22963e-13
  13 2234.11 0.00000 1.40341e-12
  14 2234.11 0.00000 -2.39089e-13
  15 2234.11 0.00000 -8.01147e-13
  16 2234.11 0.00000 -3.84969e-13
  17 2234.11 0.00000 -5.41016e-13
  18 2234.11 0.00000 8.37763e-13
  19 2234.11 0.00000 2.21600e-12
  20 2234.11 0.00000 -2.15365e-12
  21 2234.11 0.00000 -1.49785e-12
  22 2234.11 0.00000 -2.17431e-12
  23 2234.11 0.00000 -2.82476e-12
  24 2234.11 0.00000 -4.20803e-12
  25 2234.11 0.00000 -6.38532e-12
  26 2234.11 0.00000 -2.34923e-12
  27 2234.11 0.00000 0.00000
  28 2234.11 0.00000 2.72373e-12
  29 2234.11 0.00000 -8.78739e-13
  30 2234.11 0.00000 5.20744e-14
  31 2234.11 0.00000 2.38435e-13
  32 2234.11 0.00000 4.55190e-13
  33 2234.11 0.00000 6.96464e-13
  34 2234.11 0.00000 -3.72243e-12
  35 2234.11 0.00000 2.95199e-12
  36 2234.11 0.00000 -1.19093e-12
  37 2234.11 0.00000 -8.92098e-13
  38 2234.11 0.00000 1.57889e-12
  39 2234.11 0.00000 2.24340e-13
  40 2234.11 0.00000 -4.67847e-13
  41 2234.11 0.00000 -9.44481e-13
  42 2234.11 0.00000 1.25152e-12
  43 2234.11 0.00000 4.77430e-13
  44 2234.11 0.00000 3.05175e-12
  45 2234.11 0.00000 -3.06990e-12
  46 2234.11 0.00000 2.73821e-13
  47 2234.11 0.00000 1.78186e-12
  48 2234.11 0.00000 -5.88282e-13
  49 2234.11 0.00000 -9.65375e-13
  50 2234.11 0.00000 2.66789e-14
  51 2234.11 0.00000 -7.01811e-13
  52 2234.11 0.00000 5.80379e-13
  53 2234.11 0.00000 -1.23637e-12
  54 2234.11 0.00000 1.36453e-12
  55 2234.11 0.00000 4.31408e-12
  56 2234.11 0.00000 -1.21289e-12
  57 2234.11 0.00000 7.72488e-14
  58 2234.11 0.00000 -5.09555e-12
  59 2234.11 0.00000 -2.44297e-13
  60 2234.11 0.00000 7.52609e-13
  61 2234.11 0.00000 1.21409e-12
  62 2234.11 0.00000 -5.85956e-12
  63 2234.11 0.00000 5.27657e-12
  64 2234.11 0.00000 -4.98712e-13
  65 2234.11 0.00000 -5.80186e-13
  66 2234.11 0.00000 -6.34478e-13
</Section>

newXOutput 69

<Section columns = "stress_xx | stress_yy | stress_xy">
  1 2282.26 0.00000 -4.66451e-12
  2 2282.26 0.00000 2.20075e-13
  3 2282.26 0.00000 8.76900e-13
  4 2282.26 0.00000 6.22639e-12
  5 2282.26 0.00000 -4.49722e-12
  6 2282.26 0.00000 -4.50929e-12
  7 2282.26 0.00000 -2.70397e-12
  8 2282.26 0.00000 -1.06092e-12
  9 2282.26 0.00000 -2.22407e-13
  10 2282.26 0.00000 1.39149e-12
  11 2282.26 0.00000 2.40415e-12
  12 2282.26 0.00000 5.35498e-13
  13 2282.26 0.00000 3.82621e-13
  14 2282.26 0.00000 -3.51824e-13
  15 2282.26 0.00000 9.06983e-13
  16 2282.26 0.00000 4.80812e-13
  17 2282.26 0.00000 -9.31163e-13
  18 2282.26 0.00000 -2.27524e-12
  19 2282.26 0.00000 -2.41478e-12
  20 2282.26 0.00000 1.13354e-12
  21 2282.26 0.00000 1.13577e-12
  22 2282.26 0.00000 2.31389e-12
  23 2282.26 0.00000 2.49099e-12
  24 2282.26 0.00000 4.60357e-12
  25 2282.26 0.00000 6.10866e-12
  26 2282.26 0.00000 2.61035e-12
  27 2282.26 0.00000 1.56833e-13
  28 2282.26 0.00000 -2.97329e-12
  29 2282.26 0.00000 7.37889e-13
  30 2282.26 0.00000 -2.89967e-13
  31 2282.26 0.00000 -1.37926e-13
  32 2282.26 0.00000 -3.82004e-13
  33 2282.26 0.00000 -1.32596e-12
  34 2282.26 0.00000 3.44966e-12
  35 2282.26 0.00000 -3.56770e-12
  36 2282.26 0.00000 1.66288e-12
  37 2282.26 0.00000 6.82555e-13
  38 2282.26 0.00000 -2.13388e-12
  39 2282.26 0.00000 1.55184e-13
  40 2282.26 0.00000 3.33519e-13
  41 2282.26 0.00000 1.17103e-12
  42 2282.26 0.00000 -1.06165e-12
  43 2282.26 0.00000 -6.77144e-13
  44 2282.26 0.00000 -3.67541e-12
  45 2282.26 0.00000 2.85064e-12
  46 2282.26 0.00000 -5.66295e-13
  47 2282.26 0.00000 -1.68517e-12
  48 2282.26 0.00000 8.99546e-13
  49 2282.26 0.00000 5.25565e-13
  50 2282.26 0.00000 1.06590e-13
  51 2282.26 0.00000 2.34535e-13
  52 2282.26 0.00000 -5.35464e-13
  53 2282.26 0.00000 1.29587e-13
  54 2282.26 0.00000 -1.06929e-12
  55 2282.26 0.00000 -4.39208e-12
  56 2282.26 0.00000 1.01127e-12
  57 2282.26 0.00000 -1.72284e-13
  58 2282.26 0.00000 4.95942e-12
  59 2282.26 0.00000 3.50724e-13
  60 2282.26 0.00000 -7.32689e-13
  61 2282.26 0.00000 -9.45462e-13
  62 2282.26 0.00000 5.54356e-12
  63 2282.26 0.00000 -5.69555e-12
  64 2282.26 0.00000 -6.02373e-14
  65 2282.26 0.00000 1.04712e-12
  66 2282.26 0.00000 7.70762e-13
</Section>

newXOutput 70

<Section columns = "stress_xx | stress_yy | stress_xy">
  1 2330.57 0.00000 5.18086e-12
  2 2330.57 0.00000 -8.58090e-14
  3 2330.57 0.00000 -8.59600e-13
  4 2330.57 0.00000 -6.30924e-12
  5 2330.57 0.00000 6.00556e-12
  6 2330.57 0.00000 6.00186e-12
  7 2330.57 0.00000 3.78076e-12
  8 2330.57 0.00000 1.75885e-12
  9 2330.57 0.00000 -3.88260e-13
  10 2330.57 0.00000 -1.67965e-12
  11 2330.57 0.00000 -1.98374e-12
  12 2330.57 0.00000 -1.67010e-12
  13 2330.57 0.00000 -5.02622e-13
  14 2330.57 0.00000 7.53172e-13
  15 2330.57 0.00000 -6.07601e-13
  16 2330.57 0.00000 -2.33449e-13
  17 2330.57 0.00000 4.19595e-13
  18 2330.57 0.00000 1.27962e-12
  19 2330.57 0.00000 1.90735e-12
  20 2330.57 0.00000 -3.89725e-13
  21 2330.57 0.00000 -1.26846e-12
  22 2330.57 0.00000 -2.92930e-12
  23 2330.57 0.00000 -3.50415e-12
  24 2330.57 0.00000 -6.03445e-12
  25 2330.57 0.00000 -6.82112e-12
  26 2330.57 0.00000 -2.87626e-12
  27 2330.57 0.00000 -3.13978e-13
  28 2330.57 0.00000 3.00398e-12
  29 2330.57 0.00000 -1.16064e-12
  30 2330.57 0.00000 4.24944e-13
  31 2330.57 0.00000 3.37071e-14
  32 2330.57 0.00000 1.61135e-13
  33 2330.57 0.00000 8.96334e-13
  34 2330.57 0.00000 -4.62238e-12
  35 2330.57 0.00000 3.68866e-12
  36 2330.57 0.00000 -2.24907e-12
  37 2330.57 0.00000 -7.51804e-13
  38 2330.57 0.00000 2.36817e-12
  39 2330.57 0.00000 -7.62205e-13
  40 2330.57 0.00000 -6.92118e-13
  41 2330.57 0.00000 -1.37419e-12
  42 2330.57 0.00000 9.18306e-13
  43 2330.57 0.00000 1.45321e-13
  44 2330.57 0.00000 4.02221e-12
  45 2330.57 0.00000 -3.85723e-12
  46 2330.57 0.00000 4.29168e-13
  47 2330.57 0.00000 1.38976e-12
  48 2330.57 0.00000 -1.35248e-12
  49 2330.57 0.00000 -2.19812e-13
  50 2330.57 0.00000 -3.59576e-13
  51 2330.57 0.00000 -3.96884e-13
  52 2330.57 0.00000 4.12374e-14
  53 2330.57 0.00000 -3.24026e-13
  54 2330.57 0.00000 1.09426e-12
  55 2330.57 0.00000 5.10643e-12
  56 2330.57 0.00000 -1.35280e-12
  57 2330.57 0.00000 7.96494e-14
  58 2330.57 0.00000 -5.67465e-12
  59 2330.57 0.00000 -6.52580e-13
  60 2330.57 0.00000 1.15626e-12
  61 2330.57 0.00000 -1.67942e-13
  62 2330.57 0.00000 -7.07775e-12
  63 2330.57 0.00000 6.86840e-12
  64 2330.57 0.00000 -1.31667e-12
  65 2330.57 0.00000 -1.23136e-12
  66 2330.57 0.00000 -5.16840e-13
</Section>

newXOutput 71

<Section columns = "stress_xx | stress_yy | stress_xy">
  1 2379.05 0.00000 -5.69736e-12
  2 2379.05 0.00000 2.37510e-13
  3 2379.05 0.00000 5.54781e-13
  4 2379.05 0.00000 6.86670e-12
  5 2379.05 0.00000 -7.13073e-12
  6 2379.05 0.00000 -7.47018e-12
  7 2379.05 0.00000 -5.09327e-12
  8 2379.05 0.00000 -2.16731e-12
  9 2379.05 0.00000 1.61051e-14
  10 2379.05 0.00000 5.91284e-13
  11 2379.05 0.00000 1.85751e-12
  12 2379.05 0.00000 2.10752e-12
  13 2379.05 0.00000 1.50105e-12
  14 2379.05 0.00000 -8.12502e-13
  15 2379.05 0.00000 2.09527e-13
  16 2379.05 0.00000 -9.41715e-14
  17 2379.05 0.00000 2.90629e-14
  18 2379.05 0.00000 -1.36785e-12
  19 2379.05 0.00000 -3.00266e-12
  20 2379.05 0.00000 -1.40455e-12
  21 2379.05 0.00000 5.88736e-13
  22 2379.05 0.00000 3.25295e-12
  23 2379.05 0.00000 4.65168e-12
  24 2379.05 0.00000 7.11258e-12
  25 2379.05 0.00000 7.42417e-12
  26 2379.05 0.00000 3.14430e-12
  27 2379.05 0.00000 2.23738e-13
  28 2379.05 0.00000 -3.22510e-12
  29 2379.05 0.00000 1.09106e-12
  30 2379.05 0.00000 -7.75589e-13
  31 2379.05 0.00000 -5.98045e-14
  32 2379.05 0.00000 -3.76453e-13
  33 2379.05 0.00000 -1.48102e-12
  34 2379.05 0.00000 5.21658e-12
  35 2379.05 0.00000 -3.98091e-12
  36 2379.05 0.00000 2.56280e-12
  37 2379.05 0.00000 1.47235e-12
  38 2379.05 0.00000 -2.54133e-12
  39 2379.05 0.00000 6.80339e-13
  40 2379.05 0.00000 1.11071e-12
  41 2379.05 0.00000 1.06413e-12
  42 2379.05 0.00000 -1.83774e-12
  43 2379.05 0.00000 -1.17073e-13
  44 2379.05 0.00000 -5.00229e-12
  45 2379.05 0.00000 4.45719e-12
  46 2379.05 0.00000 -2.03973e-13
  47 2379.05 0.00000 -2.11318e-12
  48 2379.05 0.00000 1.05909e-12
  49 2379.05 0.00000 3.04887e-13
  50 2379.05 0.00000 4.32664e-13
  51 2379.05 0.00000 5.47143e-13
  52 2379.05 0.00000 -2.29035e-13
  53 2379.05 0.00000 5.02334e-13
  54 2379.05 0.00000 -2.18875e-12
  55 2379.05 0.00000 -5.50560e-12
  56 2379.05 0.00000 1.75127e-12
  57 2379.05 0.00000 -2.41721e-13
  58 2379.05 0.00000 6.54465e-12
  59 2379.05 0.00000 4.67722e-13
  60 2379.05 0.00000 -1.02114e-12
  61 2379.05 0.00000 -1.32545e-15
  62 2379.05 0.00000 7.90210e-12
  63 2379.05 0.00000 -7.62372e-12
  64 2379.05 0.00000 1.22257e-12
  65 2379.05 0.00000 1.01109e-12
  66 2379.05 0.00000 -2.82794e-13
</Section>

newXOutput 72

<Section columns = "stress_xx | stress_yy | stress_xy">
  1 2427.68 0.00000 6.58221e-12
  2 2427.68 0.00000 3.59968e-13
  3 2427.68 0.00000 -1.07451e-12
  4 2427.68 0.00000 -7.74377e-12
  5 2427.68 0.00000 8.90433e-12
  6 2427.68 0.00000 8.90113e-12
  7 2427.68 0.00000 5.87803e-12
  8 2427.68 0.00000 2.36377e-12
  9 2427.68 0.00000 8.27178e-13
  10 2427.68 0.00000 -9.01907e-13
  11 2427.68 0.00000 -2.38746e-12
  12 2427.68 0.00000 -1.45634e-12
  13 2427.68 0.00000 1.82180e-13
  14 2427.68 0.00000 1.21422e-13
  15 2427.68 0.00000 -1.41995e-28
  16 2427.68 0.00000 3.04513e-13
  17 2427.68 0.00000 -9.95612e-13
  18 2427.68 0.00000 7.65379e-13
  19 2427.68 0.00000 2.87855e-12
  20 2427.68 0.00000 1.22080e-13
  21 2427.68 0.00000 -7.16766e-13
  22 2427.68 0.00000 -2.91842e-12
  23 2427.68 0.00000 -5.02942e-12
  24 2427.68 0.00000 -8.37109e-12
  25 2427.68 0.00000 -8.59691e-12
  26 2427.68 0.00000 -3.35372e-12
  27 2427.68 0.00000 -9.06566e-14
  28 2427.68 0.00000 3.43407e-12
  29 2427.68 0.00000 -2.94873e-13
  30 2427.68 0.00000 8.55093e-13
  31 2427.68 0.00000 3.23980e-13
  32 2427.68 0.00000 5.70591e-13
  33 2427.68 0.00000 6.18773e-13
  34 2427.68 0.00000 -5.66534e-12
  35 2427.68 0.00000 4.10659e-12
  36 2427.68 0.00000 -1.40358e-12
  37 2427.68 0.00000 -1.37750e-12
  38 2427.68 0.00000 3.24327e-12
  39 2427.68 0.00000 -9.73381e-13
  40 2427.68 0.00000 -5.19809e-13
  41 2427.68 0.00000 -8.50525e-13
  42 2427.68 0.00000 2.02925e-12
  43 2427.68 0.00000 2.86127e-14
  44 2427.68 0.00000 5.76146e-12
  45 2427.68 0.00000 -4.72051e-12
  46 2427.68 0.00000 6.22929e-13
  47 2427.68 0.00000 2.65636e-12
  48 2427.68 0.00000 -8.08952e-13
  49 2427.68 0.00000 -1.98902e-13
  50 2427.68 0.00000 -5.24101e-13
  51 2427.68 0.00000 -3.83006e-13
  52 2427.68 0.00000 7.98333e-13
  53 2427.68 0.00000 -7.48815e-13
  54 2427.68 0.00000 1.63360e-12
  55 2427.68 0.00000 6.04679e-12
  56 2427.68 0.00000 -1.55819e-12
  57 2427.68 0.00000 -4.44710e-13
  58 2427.68 0.00000 -7.09205e-12
  59 2427.68 0.00000 -1.79994e-13
  60 2427.68 0.00000 1.90376e-12
  61 2427.68 0.00000 2.89322e-13
  62 2427.68 0.00000 -8.77006e-12
  63 2427.68 0.00000 8.60990e-12
  64 2427.68 0.00000 -2.03234e-12
  65 2427.68 0.00000 -7.74933e-13
  66 2427.68 0.00000 -3.46304e-13
</Section>

newXOutput 73

<Section columns = "stress_xx | stress_yy | stress_xy">
  1 2476.49 0.00000 -7.60143e-12
  2 2476.49 0.00000 -6.35873e-13
  3 2476.49 0.00000 1.31645e-12
  4 2476.49 0.00000 8.19840e-12
  5 2476.49 0.00000 -9.83935e-12
  6 2476.49 0.00000 -9.83515e-12
  7 2476.49 0.00000 -6.38781e-12
  8 2476.49 0.00000 -2.61191e-12
  9 2476.49 0.00000 -1.10677e-13
  10 2476.49 0.00000 1.03649e-12
  11 2476.49 0.00000 3.37529e-12
  12 2476.49 0.00000 1.24039e-12
  13 2476.49 0.00000 -1.31459e-12
  14 2476.49 0.00000 -6.00841e-13
  15 2476.49 0.00000 1.57457e-13
  16 2476.49 0.00000 -1.07900e-13
  17 2476.49 0.00000 1.15916e-12
  18 2476.49 0.00000 -2.05878e-12
  19 2476.49 0.00000 -3.76710e-12
  20 2476.49 0.00000 -1.14274e-12
  21 2476.49 0.00000 9.31098e-14
  22 2476.49 0.00000 3.11758e-12
  23 2476.49 0.00000 6.07575e-12
  24 2476.49 0.00000 9.97458e-12
  25 2476.49 0.00000 9.46417e-12
  26 2476.49 0.00000 4.08748e-12
  27 2476.49 0.00000 2.80193e-13
  28 2476.49 0.00000 -3.87126e-12
  29 2476.49 0.00000 7.77593e-14
  30 2476.49 0.00000 -1.04816e-12
  31 2476.49 0.00000 -3.30756e-13
  32 2476.49 0.00000 -8.41727e-13
  33 2476.49 0.00000 -1.63804e-12
  34 2476.49 0.00000 7.28043e-12
  35 2476.49 0.00000 -5.40622e-12
  36 2476.49 0.00000 2.13160e-12
  37 2476.49 0.00000 1.24198e-12
  38 2476.49 0.00000 -3.19945e-12
  39 2476.49 0.00000 8.72009e-13
  40 2476.49 0.00000 1.04299e-12
  41 2476.49 0.00000 4.83427e-13
  42 2476.49 0.00000 -2.10963e-12
  43 2476.49 0.00000 -1.98430e-13
  44 2476.49 0.00000 -6.64290e-12
  45 2476.49 0.00000 5.61885e-12
  46 2476.49 0.00000 -7.04498e-13
  47 2476.49 0.00000 -2.74096e-12
  48 2476.49 0.00000 7.36364e-13
  49 2476.49 0.00000 1.91294e-13
  50 2476.49 0.00000 7.18783e-13
  51 2476.49 0.00000 -4.85632e-13
  52 2476.49 0.00000 -9.62060e-13
  53 2476.49 0.00000 -3.42510e-13
  54 2476.49 0.00000 -1.93853e-12
  55 2476.49 0.00000 -7.09676e-12
  56 2476.49 0.00000 1.83879e-12
  57 2476.49 0.00000 -6.02923e-13
  58 2476.49 0.00000 8.20317e-12
  59 2476.49 0.00000 3.15237e-13
  60 2476.49 0.00000 -1.90507e-12
  61 2476.49 0.00000 -1.65172e-12
  62 2476.49 0.00000 1.06610e-11
  63 2476.49 0.00000 -1.01884e-11
  64 2476.49 0.00000 1.83623e-12
  65 2476.49 0.00000 1.36762e-12
  66 2476.49 0.00000 1.95813e-13
</Section>

newXOutput 74

<Section columns = "stress_xx | stress_yy | stress_xy">
  1 2525.46 0.00000 8.68335e-12
  2 2525.46 0.00000 1.75052e-12
  3 2525.46 0.00000 -2.11444e-12
  4 2525.46 0.00000 -9.02842e-12
  5 2525.46 0.00000 1.17842e-11
  6 2525.46 0.00000 1.18215e-11
  7 2525.46 0.00000 8.09191e-12
  8 2525.46 0.00000 3.77816e-12
  9 2525.46 0.00000 8.94333e-13
  10 2525.46 0.00000 -2.57003e-13
  11 2525.46 0.00000 -2.90622e-12
  12 2525.46 0.00000 -5.32118e-13
  13 2525.46 0.00000 2.90841e-12
  14 2525.46 0.00000 7.47038e-13
  15 2525.46 0.00000 -4.54324e-14
  16 2525.46 0.00000 -2.07343e-13
  17 2525.46 0.00000 -1.08839e-12
  18 2525.46 0.00000 2.44414e-12
  19 2525.46 0.00000 3.75065e-12
  20 2525.46 0.00000 1.55598e-12
  21 2525.46 0.00000 -1.86794e-13
  22 2525.46 0.00000 -3.16530e-12
  23 2525.46 0.00000 -7.02986e-12
  24 2525.46 0.00000 -1.13074e-11
  25 2525.46 0.00000 -1.04734e-11
  26 2525.46 0.00000 -4.55456e-12
  27 2525.46 0.00000 -3.89081e-13
  28 2525.46 0.00000 4.29738e-12
  29 2525.46 0.00000 -5.26671e-13
  30 2525.46 0.00000 9.43099e-13
  31 2525.46 0.00000 1.33235e-13
  32 2525.46 0.00000 8.19180e-13
  33 2525.46 0.00000 8.64192e-13
  34 2525.46 0.00000 -8.60722e-12
  35 2525.46 0.00000 6.11015e-12
  36 2525.46 0.00000 -2.09339e-12
  37 2525.46 0.00000 -8.86623e-13
  38 2525.46 0.00000 3.73472e-12
  39 2525.46 0.00000 -1.04010e-12
  40 2525.46 0.00000 -1.00211e-12
  41 2525.46 0.00000 -5.53179e-13
  42 2525.46 0.00000 2.30458e-12
  43 2525.46 0.00000 2.47249e-13
  44 2525.46 0.00000 7.97986e-12
  45 2525.46 0.00000 -6.86896e-12
  46 2525.46 0.00000 1.22573e-12
  47 2525.46 0.00000 2.79315e-12
  48 2525.46 0.00000 -6.54997e-13
  49 2525.46 0.00000 -6.73070e-13
  50 2525.46 0.00000 -9.33178e-13
  51 2525.46 0.00000 5.01203e-13
  52 2525.46 0.00000 6.64345e-13
  53 2525.46 0.00000 8.80961e-13
  54 2525.46 0.00000 2.24027e-12
  55 2525.46 0.00000 8.02378e-12
  56 2525.46 0.00000 -2.40625e-12
  57 2525.46 0.00000 8.85239e-13
  58 2525.46 0.00000 -9.36237e-12
  59 2525.46 0.00000 -6.13432e-13
  60 2525.46 0.00000 1.38217e-12
  61 2525.46 0.00000 2.67266e-12
  62 2525.46 0.00000 -1.22936e-11
  63 2525.46 0.00000 1.18934e-11
  64 2525.46 0.00000 -1.59326e-12
  65 2525.46 0.00000 -9.49186e-13
  66 2525.46 0.00000 -2.04467e-14
</Section>

newXOutput 75

<Section columns = "stress_xx | stress_yy | stress_xy">
  1 2574.59 0.00000 -8.85264e-12
  2 2574.59 0.00000 -8.69110e-13
  3 2574.59 0.00000 1.76340e-12
  4 2574.59 0.00000 1.04191e-11
  5 2574.59 0.00000 -1.19857e-11
  6 2574.59 0.00000 -1.24103e-11
  7 2574.59 0.00000 -9.20634e-12
  8 2574.59 0.00000 -4.81046e-12
  9 2574.59 0.00000 -6.82542e-13
  10 2574.59 0.00000 1.06899e-13
  11 2574.59 0.00000 2.77054e-12
  12 2574.59 0.00000 -1.16825e-13
  13 2574.59 0.00000 -2.56401e-12
  14 2574.59 0.00000 -1.37128e-13
  15 2574.59 0.00000 3.92998e-13
  16 2574.59 0.00000 2.55881e-13
  17 2574.59 0.00000 -2.51646e-13
  18 2574.59 0.00000 -3.63539e-12
  19 2574.59 0.00000 -4.56894e-12
  20 2574.59 0.00000 -1.52605e-12
  21 2574.59 0.00000 2.01919e-14
  22 2574.59 0.00000 3.73737e-12
  23 2574.59 0.00000 8.77760e-12
  24 2574.59 0.00000 1.35867e-11
  25 2574.59 0.00000 1.24406e-11
  26 2574.59 0.00000 4.58694e-12
  27 2574.59 0.00000 1.57770e-13
  28 2574.59 0.00000 -4.87361e-12
  29 2574.59 0.00000 -1.76897e-13
  30 2574.59 0.00000 -5.89032e-13
  31 2574.59 0.00000 1.13033e-13
  32 2574.59 0.00000 -9.50427e-13
  33 2574.59 0.00000 -8.69952e-14
  34 2574.59 0.00000 8.81031e-12
  35 2574.59 0.00000 -7.46139e-12
  36 2574.59 0.00000 2.36647e-12
  37 2574.59 0.00000 9.99378e-13
  38 2574.59 0.00000 -4.66780e-12
  39 2574.59 0.00000 1.92266e-12
  40 2574.59 0.00000 9.95929e-13
  41 2574.59 0.00000 6.04010e-13
  42 2574.59 0.00000 -2.34911e-12
  43 2574.59 0.00000 -2.18700e-13
  44 2574.59 0.00000 -9.08518e-12
  45 2574.59 0.00000 7.66076e-12
  46 2574.59 0.00000 -1.43985e-12
  47 2574.59 0.00000 -2.80587e-12
  48 2574.59 0.00000 1.12104e-12
  49 2574.59 0.00000 9.07648e-13
  50 2574.59 0.00000 4.91039e-13
  51 2574.59 0.00000 -4.66765e-13
  52 2574.59 0.00000 -8.57272e-13
  53 2574.59 0.00000 -2.46736e-14
  54 2574.59 0.00000 -2.82691e-12
  55 2574.59 0.00000 -8.71133e-12
  56 2574.59 0.00000 1.81904e-12
  57 2574.59 0.00000 1.21648e-13
  58 2574.59 0.00000 1.01631e-11
  59 2574.59 0.00000 -3.12305e-13
  60 2574.59 0.00000 -1.10820e-12
  61 2574.59 0.00000 -2.12168e-12
  62 2574.59 0.00000 1.39069e-11
  63 2574.59 0.00000 -1.29153e-11
  64 2574.59 0.00000 1.13545e-12
  65 2574.59 0.00000 1.04152e-12
  66 2574.59 0.00000 -1.87094e-13
</Section>

newXOutput 76

<Section columns = "stress_xx | stress_yy | stress_xy">
  1 2623.90 0.00000 9.48431e-12
  2 2623.90 0.00000 1.59008e-13
  3 2623.90 0.00000 -1.19498e-12
  4 2623.90 0.00000 -1.11525e-11
  5 2623.90 0.00000 1.38002e-11
  6 2623.90 0.00000 1.45739e-11
  7 2623.90 0.00000 1.11772e-11
  8 2623.90 0.00000 5.51034e-12
  9 2623.90 0.00000 4.56121e-13
  10 2623.90 0.00000 -1.95164e-12
  11 2623.90 0.00000 -4.54520e-12
  12 2623.90 0.00000 -1.09759e-12
  13 2623.90 0.00000 1.28644e-12
  14 2623.90 0.00000 4.22882e-13
  15 2623.90 0.00000 -6.14588e-13
  16 2623.90 0.00000 -1.90761e-13
  17 2623.90 0.00000 6.14344e-13
  18 2623.90 0.00000 2.68021e-12
  19 2623.90 0.00000 4.56830e-12
  20 2623.90 0.00000 1.41830e-12
  21 2623.90 0.00000 -6.39133e-13
  22 2623.90 0.00000 -5.07919e-12
  23 2623.90 0.00000 -1.06148e-11
  24 2623.90 0.00000 -1.55218e-11
  25 2623.90 0.00000 -1.39437e-11
  26 2623.90 0.00000 -5.00792e-12
  27 2623.90 0.00000 -1.50820e-13
  28 2623.90 0.00000 5.12143e-12
  29 2623.90 0.00000 -1.84058e-13
  30 2623.90 0.00000 8.60635e-13
  31 2623.90 0.00000 -6.41089e-13
  32 2623.90 0.00000 6.51427e-13
  33 2623.90 0.00000 -1.02744e-12
  34 2623.90 0.00000 -9.92946e-12
  35 2623.90 0.00000 8.37827e-12
  36 2623.90 0.00000 -1.38407e-12
  37 2623.90 0.00000 -1.81714e-12
  38 2623.90 0.00000 5.12355e-12
  39 2623.90 0.00000 -2.99942e-12
  40 2623.90 0.00000 -1.07638e-12
  41 2623.90 0.00000 -1.20700e-12
  42 2623.90 0.00000 2.31377e-12
  43 2623.90 0.00000 -3.65058e-13
  44 2623.90 0.00000 1.03678e-11
  45 2623.90 0.00000 -9.16632e-12
  46 2623.90 0.00000 1.58442e-12
  47 2623.90 0.00000 3.23032e-12
  48 2623.90 0.00000 -1.99447e-12
  49 2623.90 0.00000 -6.81109e-13
  50 2623.90 0.00000 -5.67000e-13
  51 2623.90 0.00000 -7.46524e-14
  52 2623.90 0.00000 3.18920e-13
  53 2623.90 0.00000 -2.28138e-13
  54 2623.90 0.00000 3.03753e-12
  55 2623.90 0.00000 9.63572e-12
  56 2623.90 0.00000 -1.33389e-12
  57 2623.90 0.00000 -6.75839e-13
  58 2623.90 0.00000 -1.10538e-11
  59 2623.90 0.00000 5.50948e-14
  60 2623.90 0.00000 1.41823e-12
  61 2623.90 0.00000 1.03990e-12
  62 2623.90 0.00000 -1.50952e-11
  63 2623.90 0.00000 1.43479e-11
  64 2623.90 0.00000 -9.80102e-13
  65 2623.90 0.00000 -2.19143e-12
  66 2623.90 0.00000 2.43566e-14
</Section>

newXOutput 77

<Section columns = "stress_xx | stress_yy | stress_xy">
  1 2673.37 0.00000 -1.10825e-11
  2 2673.37 0.00000 -1.47945e-13
  3 2673.37 0.00000 4.03922e-13
  4 2673.37 0.00000 1.22529e-11
  5 2673.37 0.00000 -1.63925e-11
  6 2673.37 0.00000 -1.77565e-11
  7 2673.37 0.00000 -1.22512e-11
  8 2673.37 0.00000 -5.36903e-12
  9 2673.37 0.00000 -4.46598e-13
  10 2673.37 0.00000 1.43854e-12
  11 2673.37 0.00000 4.43475e-12
  12 2673.37 0.00000 1.79414e-12
  13 2673.37 0.00000 -8.39383e-13
  14 2673.37 0.00000 -2.84900e-13
  15 2673.37 0.00000 6.89171e-13
  16 2673.37 0.00000 3.01459e-13
  17 2673.37 0.00000 -7.12433e-13
  18 2673.37 0.00000 -2.55768e-12
  19 2673.37 0.00000 -3.90583e-12
  20 2673.37 0.00000 -7.48003e-13
  21 2673.37 0.00000 1.28057e-12
  22 2673.37 0.00000 5.99420e-12
  23 2673.37 0.00000 1.21519e-11
  24 2673.37 0.00000 1.75814e-11
  25 2673.37 0.00000 1.53983e-11
  26 2673.37 0.00000 5.57596e-12
  27 2673.37 0.00000 3.90174e-13
  28 2673.37 0.00000 -5.33134e-12
  29 2673.37 0.00000 3.14898e-13
  30 2673.37 0.00000 -9.06304e-13
  31 2673.37 0.00000 5.64409e-13
  32 2673.37 0.00000 -8.61908e-14
  33 2673.37 0.00000 -2.91583e-14
  34 2673.37 0.00000 1.06016e-11
  35 2673.37 0.00000 -8.60449e-12
  36 2673.37 0.00000 1.95039e-12
  37 2673.37 0.00000 1.22573e-12
  38 2673.37 0.00000 -5.44382e-12
  39 2673.37 0.00000 3.21497e-12
  40 2673.37 0.00000 8.81179e-13
  41 2673.37 0.00000 2.27904e-12
  42 2673.37 0.00000 -2.19298e-12
  43 2673.37 0.00000 3.97339e-13
  44 2673.37 0.00000 -1.15556e-11
  45 2673.37 0.00000 1.02426e-11
  46 2673.37 0.00000 -1.89579e-12
  47 2673.37 0.00000 -3.22540e-12
  48 2673.37 0.00000 3.07969e-12
  49 2673.37 0.00000 1.41733e-12
  50 2673.37 0.00000 8.79470e-13
  51 2673.37 0.00000 2.67640e-13
  52 2673.37 0.00000 -9.22972e-13
  53 2673.37 0.00000 4.74779e-13
  54 2673.37 0.00000 -2.84103e-12
  55 2673.37 0.00000 -1.08367e-11
  56 2673.37 0.00000 1.09747e-12
  57 2673.37 0.00000 5.61767e-13
  58 2673.37 0.00000 1.19936e-11
  59 2673.37 0.00000 5.29747e-13
  60 2673.37 0.00000 -6.57420e-13
  61 2673.37 0.00000 -1.34946e-12
  62 2673.37 0.00000 1.66504e-11
  63 2673.37 0.00000 -1.67683e-11
  64 2673.37 0.00000 5.85254e-14
  65 2673.37 0.00000 1.95059e-12
  66 2673.37 0.00000 1.67195e-13
</Section>

newXOutput 78

<Section columns = "stress_xx | stress_yy | stress_xy">
  1 2723.02 0.00000 1.21799e-11
  2 2723.02 0.00000 -7.63085e-13
  3 2723.02 0.00000 -1.08277e-12
  4 2723.02 0.00000 -1.38454e-11
  5 2723.02 0.00000 1.76683e-11
  6 2723.02 0.00000 1.99857e-11
  7 2723.02 0.00000 1.45581e-11
  8 2723.02 0.00000 6.44483e-12
  9 2723.02 0.00000 4.03790e-13
  10 2723.02 0.00000 -2.09363e-12
  11 2723.02 0.00000 -4.93406e-12
  12 2723.02 0.00000 -2.40874e-12
  13 2723.02 0.00000 -3.85526e-13
  14 2723.02 0.00000 4.97474e-13
  15 2723.02 0.00000 -9.07885e-13
  16 2723.02 0.00000 -2.60864e-13
  17 2723.02 0.00000 4.47067e-13
  18 2723.02 0.00000 2.63947e-12
  19 2723.02 0.00000 5.36436e-12
  20 2723.02 0.00000 4.13876e-13
  21 2723.02 0.00000 -2.14168e-12
  22 2723.02 0.00000 -6.97469e-12
  23 2723.02 0.00000 -1.42607e-11
  24 2723.02 0.00000 -2.01986e-11
  25 2723.02 0.00000 -1.76371e-11
  26 2723.02 0.00000 -6.36931e-12
  27 2723.02 0.00000 -3.30687e-13
  28 2723.02 0.00000 6.29331e-12
  29 2723.02 0.00000 -4.30377e-13
  30 2723.02 0.00000 4.67198e-13
  31 2723.02 0.00000 -8.77431e-13
  32 2723.02 0.00000 2.99801e-13
  33 2723.02 0.00000 5.83750e-13
  34 2723.02 0.00000 -1.18876e-11
  35 2723.02 0.00000 1.04677e-11
  36 2723.02 0.00000 -2.72661e-12
  37 2723.02 0.00000 -1.66965e-12
  38 2723.02 0.00000 6.10406e-12
  39 2723.02 0.00000 -3.78618e-12
  40 2723.02 0.00000 -1.23955e-12
  41 2723.02 0.00000 -2.52440e-12
  42 2723.02 0.00000 2.55504e-12
  43 2723.02 0.00000 -2.88978e-13
  44 2723.02 0.00000 1.36036e-11
  45 2723.02 0.00000 -1.20049e-11
  46 2723.02 0.00000 1.86722e-12
  47 2723.02 0.00000 3.74429e-12
  48 2723.02 0.00000 -3.36992e-12
  49 2723.02 0.00000 -1.18700e-12
  50 2723.02 0.00000 -6.97581e-13
  51 2723.02 0.00000 -8.32890e-13
  52 2723.02 0.00000 5.87242e-13
  53 2723.02 0.00000 -1.34261e-12
  54 2723.02 0.00000 3.31112e-12
  55 2723.02 0.00000 1.22370e-11
  56 2723.02 0.00000 -1.72966e-12
  57 2723.02 0.00000 -3.56120e-13
  58 2723.02 0.00000 -1.35325e-11
  59 2723.02 0.00000 -3.55380e-13
  60 2723.02 0.00000 8.54202e-13
  61 2723.02 0.00000 1.17362e-12
  62 2723.02 0.00000 -1.90877e-11
  63 2723.02 0.00000 1.92324e-11
  64 2723.02 0.00000 -8.94969e-13
  65 2723.02 0.00000 -2.09116e-12
  66 2723.02 0.00000 -6.93317e-13
</Section>

newXOutput 79

<Section columns = "stress_xx | stress_yy | stress_xy">
  1 2772.84 0.00000 -1.33243e-11
  2 2772.84 0.00000 -8.56532e-14
  3 2772.84 0.00000 9.98812e-13
  4 2772.84 0.00000 1.56727e-11
  5 2772.84 0.00000 -1.95156e-11
  6 2772.84 0.00000 -2.31562e-11
  7 2772.84 0.00000 -1.65723e-11
  8 2772.84 0.00000 -7.95613e-12
  9 2772.84 0.00000 -4.89082e-13
  10 2772.84 0.00000 3.39536e-12
  11 2772.84 0.00000 5.73883e-12
  12 2772.84 0.00000 3.59592e-12
  13 2772.84 0.00000 9.33461e-14
  14 2772.84 0.00000 -8.66046e-13
  15 2772.84 0.00000 6.30516e-13
  16 2772.84 0.00000 4.98706e-14
  17 2772.84 0.00000 -6.12301e-13
  18 2772.84 0.00000 -3.56182e-12
  19 2772.84 0.00000 -5.46586e-12
  20 2772.84 0.00000 -6.12194e-13
  21 2772.84 0.00000 2.45853e-12
  22 2772.84 0.00000 9.03832e-12
  23 2772.84 0.00000 1.75844e-11
  24 2772.84 0.00000 2.42555e-11
  25 2772.84 0.00000 2.03176e-11
  26 2772.84 0.00000 7.24530e-12
  27 2772.84 0.00000 9.13852e-14
  28 2772.84 0.00000 -6.94393e-12
  29 2772.84 0.00000 5.87179e-14
  30 2772.84 0.00000 -1.06527e-12
  31 2772.84 0.00000 8.01370e-13
  32 2772.84 0.00000 -1.20207e-12
  33 2772.84 0.00000 -3.06302e-13
  34 2772.84 0.00000 1.37141e-11
  35 2772.84 0.00000 -1.24192e-11
  36 2772.84 0.00000 2.39306e-12
  37 2772.84 0.00000 1.60311e-12
  38 2772.84 0.00000 -7.14910e-12
  39 2772.84 0.00000 5.31203e-12
  40 2772.84 0.00000 1.52200e-12
  41 2772.84 0.00000 1.74222e-12
  42 2772.84 0.00000 -2.86248e-12
  43 2772.84 0.00000 7.58102e-13
  44 2772.84 0.00000 -1.59888e-11
  45 2772.84 0.00000 1.43954e-11
  46 2772.84 0.00000 -1.97229e-12
  47 2772.84 0.00000 -4.30562e-12
  48 2772.84 0.00000 4.03030e-12
  49 2772.84 0.00000 1.00242e-12
  50 2772.84 0.00000 7.61410e-13
  51 2772.84 0.00000 2.70323e-13
  52 2772.84 0.00000 -9.87960e-13
  53 2772.84 0.00000 7.88315e-13
  54 2772.84 0.00000 -3.99639e-12
  55 2772.84 0.00000 -1.38242e-11
  56 2772.84 0.00000 1.90431e-12
  57 2772.84 0.00000 -9.25134e-14
  58 2772.84 0.00000 1.57379e-11
  59 2772.84 0.00000 -2.07790e-13
  60 2772.84 0.00000 -1.15420e-12
  61 2772.84 0.00000 -7.20401e-13
  62 2772.84 0.00000 2.29030e-11
  63 2772.84 0.00000 -2.22712e-11
  64 2772.84 0.00000 5.43851e-13
  65 2772.84 0.00000 2.25517e-12
  66 2772.84 0.00000 1.86777e-13
</Section>

newXOutput 80

<Section columns = "stress_xx | stress_yy | stress_xy">
  1 2822.83 0.00000 1.55041e-11
  2 2822.83 0.00000 1.21947e-12
  3 2822.83 0.00000 -1.46593e-12
  4 2822.83 0.00000 -1.76505e-11
  5 2822.83 0.00000 2.38920e-11
  6 2822.83 0.00000 2.79302e-11
  7 2822.83 0.00000 2.06585e-11
  8 2822.83 0.00000 1.01446e-11
  9 2822.83 0.00000 2.11540e-12
  10 2822.83 0.00000 -1.95556e-12
  11 2822.83 0.00000 -6.21848e-12
  12 2822.83 0.00000 -3.08020e-12
  13 2822.83 0.00000 2.86477e-12
  14 2822.83 0.00000 8.29043e-13
  15 2822.83 0.00000 -9.97459e-13
  16 2822.83 0.00000 -5.11344e-13
  17 2822.83 0.00000 2.11646e-12
  18 2822.83 0.00000 4.36793e-12
  19 2822.83 0.00000 7.01662e-12
  20 2822.83 0.00000 1.82212e-12
  21 2822.83 0.00000 -2.66969e-12
  22 2822.83 0.00000 -1.03186e-11
  23 2822.83 0.00000 -2.05065e-11
  24 2822.83 0.00000 -2.92747e-11
  25 2822.83 0.00000 -2.43825e-11
  26 2822.83 0.00000 -8.13451e-12
  27 2822.83 0.00000 -4.57447e-14
  28 2822.83 0.00000 7.68152e-12
  29 2822.83 0.00000 -2.95775e-13
  30 2822.83 0.00000 1.51066e-12
  31 2822.83 0.00000 -6.59846e-13
  32 2822.83 0.00000 1.41614e-12
  33 2822.83 0.00000 -2.55096e-13
  34 2822.83 0.00000 -1.56586e-11
  35 2822.83 0.00000 1.34305e-11
  36 2822.83 0.00000 -3.79011e-12
  37 2822.83 0.00000 -2.05543e-12
  38 2822.83 0.00000 8.78311e-12
  39 2822.83 0.00000 -6.46177e-12
  40 2822.83 0.00000 -1.35060e-12
  41 2822.83 0.00000 -1.63523e-12
  42 2822.83 0.00000 3.63196e-12
  43 2822.83 0.00000 -6.84585e-13
  44 2822.83 0.00000 1.86718e-11
  45 2822.83 0.00000 -1.69933e-11
  46 2822.83 0.00000 3.51946e-12
  47 2822.83 0.00000 4.87397e-12
  48 2822.83 0.00000 -4.40514e-12
  49 2822.83 0.00000 -1.31749e-12
  50 2822.83 0.00000 -1.23441e-12
  51 2822.83 0.00000 1.65472e-13
  52 2822.83 0.00000 5.02036e-13
  53 2822.83 0.00000 1.00580e-13
  54 2822.83 0.00000 4.36350e-12
  55 2822.83 0.00000 1.56416e-11
  56 2822.83 0.00000 -2.29665e-12
  57 2822.83 0.00000 1.51798e-13
  58 2822.83 0.00000 -1.79605e-11
  59 2822.83 0.00000 -5.89329e-14
  60 2822.83 0.00000 1.48661e-12
  61 2822.83 0.00000 8.90371e-13
  62 2822.83 0.00000 -2.64885e-11
  63 2822.83 0.00000 2.56639e-11
  64 2822.83 0.00000 -6.90029e-13
  65 2822.83 0.00000 -2.33261e-12
  66 2822.83 0.00000 1.54937e-13
</Section>

newXOutput 81

<Section columns = "stress_xx | stress_yy | stress_xy">
  1 2872.99 0.00000 -1.67284e-11
  2 2872.99 0.00000 -6.60083e-13
  3 2872.99 0.00000 1.85177e-12
  4 2872.99 0.00000 2.01140e-11
  5 2872.99 0.00000 -2.71596e-11
  6 2872.99 0.00000 -3.32954e-11
  7 2872.99 0.00000 -2.50426e-11
  8 2872.99 0.00000 -1.23626e-11
  9 2872.99 0.00000 -2.31444e-12
  10 2872.99 0.00000 1.61454e-12
  11 2872.99 0.00000 7.69671e-12
  12 2872.99 0.00000 4.07008e-12
  13 2872.99 0.00000 -2.59820e-12
  14 2872.99 0.00000 -5.33438e-13
  15 2872.99 0.00000 8.78797e-13
  16 2872.99 0.00000 7.02206e-13
  17 2872.99 0.00000 -2.63215e-13
  18 2872.99 0.00000 -4.27124e-12
  19 2872.99 0.00000 -8.72454e-12
  20 2872.99 0.00000 -2.63511e-12
  21 2872.99 0.00000 2.64022e-12
  22 2872.99 0.00000 1.11196e-11
  23 2872.99 0.00000 2.44040e-11
  24 2872.99 0.00000 3.45177e-11
  25 2872.99 0.00000 2.85836e-11
  26 2872.99 0.00000 8.94263e-12
  27 2872.99 0.00000 9.15934e-14
  28 2872.99 0.00000 -8.49223e-12
  29 2872.99 0.00000 -3.16065e-13
  30 2872.99 0.00000 -3.07874e-12
  31 2872.99 0.00000 1.61414e-12
  32 2872.99 0.00000 -1.97402e-12
  33 2872.99 0.00000 2.60536e-13
  34 2872.99 0.00000 1.79009e-11
  35 2872.99 0.00000 -1.57681e-11
  36 2872.99 0.00000 3.35613e-12
  37 2872.99 0.00000 2.34977e-12
  38 2872.99 0.00000 -1.05937e-11
  39 2872.99 0.00000 7.98251e-12
  40 2872.99 0.00000 2.02297e-12
  41 2872.99 0.00000 2.46657e-12
  42 2872.99 0.00000 -4.88484e-12
  43 2872.99 0.00000 5.45069e-13
  44 2872.99 0.00000 -2.19346e-11
  45 2872.99 0.00000 1.99676e-11
  46 2872.99 0.00000 -3.89491e-12
  47 2872.99 0.00000 -6.53087e-12
  48 2872.99 0.00000 5.56726e-12
  49 2872.99 0.00000 1.73590e-12
  50 2872.99 0.00000 1.05198e-12
  51 2872.99 0.00000 -3.44168e-13
  52 2872.99 0.00000 -8.71740e-13
  53 2872.99 0.00000 -6.71721e-13
  54 2872.99 0.00000 -5.97774e-12
  55 2872.99 0.00000 -1.77429e-11
  56 2872.99 0.00000 2.95810e-12
  57 2872.99 0.00000 4.05005e-13
  58 2872.99 0.00000 2.04865e-11
  59 2872.99 0.00000 -1.54395e-13
  60 2872.99 0.00000 -2.42792e-12
  61 2872.99 0.00000 -4.32083e-13
  62 2872.99 0.00000 3.09587e-11
  63 2872.99 0.00000 -2.97449e-11
  64 2872.99 0.00000 6.49976e-13
  65 2872.99 0.00000 3.41263e-12
  66 2872.99 0.00000 -1.00709e-12
</Section>

newXOutput 82

<Section columns = "stress_xx | stress_yy | stress_xy">
  1 2923.33 0.00000 1.87328e-11
  2 2923.33 0.00000 -4.49887e-13
  3 2923.33 0.00000 -1.42289e-12
  4 2923.33 0.00000 -2.22378e-11
  5 2923.33 0.00000 3.09999e-11
  6 2923.33 0.00000 3.85217e-11
  7 2923.33 0.00000 3.00824e-11
  8 2923.33 0.00000 1.43343e-11
  9 2923.33 0.00000 1.92398e-12
  10 2923.33 0.00000 -3.09558e-12
  11 2923.33 0.00000 -8.52314e-12
  12 2923.33 0.00000 -5.03947e-12
  13 2923.33 0.00000 1.06118e-12
  14 2923.33 0.00000 4.76348e-13
  15 2923.33 0.00000 -8.12413e-13
  16 2923.33 0.00000 -1.45354e-13
  17 2923.33 0.00000 1.61460e-12
  18 2923.33 0.00000 5.93546e-12
  19 2923.33 0.00000 9.60972e-12
  20 2923.33 0.00000 2.60317e-12
  21 2923.33 0.00000 -4.23277e-12
  22 2923.33 0.00000 -1.35276e-11
  23 2923.33 0.00000 -2.92544e-11
  24 2923.33 0.00000 -4.00818e-11
  25 2923.33 0.00000 -3.26820e-11
  26 2923.33 0.00000 -9.74065e-12
  27 2923.33 0.00000 -3.31936e-13
  28 2923.33 0.00000 9.20710e-12
  29 2923.33 0.00000 -3.99082e-14
  30 2923.33 0.00000 2.84434e-12
  31 2923.33 0.00000 -1.63220e-12
  32 2923.33 0.00000 1.61721e-12
  33 2923.33 0.00000 -7.39425e-13
  34 2923.33 0.00000 -2.05025e-11
  35 2923.33 0.00000 1.77606e-11
  36 2923.33 0.00000 -3.45865e-12
  37 2923.33 0.00000 -1.47502e-12
  38 2923.33 0.00000 1.24206e-11
  39 2923.33 0.00000 -9.52544e-12
  40 2923.33 0.00000 -9.33519e-13
  41 2923.33 0.00000 -3.44958e-12
  42 2923.33 0.00000 5.24633e-12
  43 2923.33 0.00000 -1.05018e-12
  44 2923.33 0.00000 2.52450e-11
  45 2923.33 0.00000 -2.34777e-11
  46 2923.33 0.00000 4.47962e-12
  47 2923.33 0.00000 7.17777e-12
  48 2923.33 0.00000 -7.34230e-12
  49 2923.33 0.00000 -1.55424e-12
  50 2923.33 0.00000 -1.31193e-12
  51 2923.33 0.00000 1.60018e-13
  52 2923.33 0.00000 1.08556e-12
  53 2923.33 0.00000 -5.91831e-14
  54 2923.33 0.00000 6.17288e-12
  55 2923.33 0.00000 1.99296e-11
  56 2923.33 0.00000 -2.31261e-12
  57 2923.33 0.00000 -9.89740e-13
  58 2923.33 0.00000 -2.26647e-11
  59 2923.33 0.00000 -6.51717e-13
  60 2923.33 0.00000 2.03369e-12
  61 2923.33 0.00000 -3.31859e-13
  62 2923.33 0.00000 -3.51126e-11
  63 2923.33 0.00000 3.40589e-11
  64 2923.33 0.00000 1.72966e-13
  65 2923.33 0.00000 -3.21410e-12
  66 2923.33 0.00000 4.58223e-13
</Section>

newXOutput 83

<Section columns = "stress_xx | stress_yy | stress_xy">
  1 2973.84 0.00000 -2.22697e-11
  2 2973.84 0.00000 1.82124e-13
  3 2973.84 0.00000 7.54816e-13
  4 2973.84 0.00000 2.54754e-11
  5 2973.84 0.00000 -3.62474e-11
  6 2973.84 0.00000 -4.47128e-11
  7 2973.84 0.00000 -3.52029e-11
  8 2973.84 0.00000 -1.64573e-11
  9 2973.84 0.00000 -2.98581e-12
  10 2973.84 0.00000 1.65470e-12
  11 2973.84 0.00000 9.26875e-12
  12 2973.84 0.00000 6.88007e-12
  13 2973.84 0.00000 3.39081e-14
  14 2973.84 0.00000 -7.00780e-13
  15 2973.84 0.00000 7.39957e-13
  16 2973.84 0.00000 -3.88569e-13
  17 2973.84 0.00000 -2.28606e-12
  18 2973.84 0.00000 -6.79472e-12
  19 2973.84 0.00000 -1.06922e-11
  20 2973.84 0.00000 -2.55437e-12
  21 2973.84 0.00000 6.20390e-12
  22 2973.84 0.00000 1.77269e-11
  23 2973.84 0.00000 3.49123e-11
  24 2973.84 0.00000 4.66201e-11
  25 2973.84 0.00000 3.74406e-11
  26 2973.84 0.00000 1.12683e-11
  27 2973.84 0.00000 2.40447e-13
  28 2973.84 0.00000 -1.04048e-11
  29 2973.84 0.00000 -2.33043e-13
  30 2973.84 0.00000 -2.82800e-12
  31 2973.84 0.00000 1.38459e-12
  32 2973.84 0.00000 -2.14673e-12
  33 2973.84 0.00000 4.86219e-13
  34 2973.84 0.00000 2.23349e-11
  35 2973.84 0.00000 -1.90079e-11
  36 2973.84 0.00000 3.20878e-12
  37 2973.84 0.00000 2.31597e-12
  38 2973.84 0.00000 -1.48835e-11
  39 2973.84 0.00000 1.19065e-11
  40 2973.84 0.00000 1.20003e-12
  41 2973.84 0.00000 3.57345e-12
  42 2973.84 0.00000 -5.84782e-12
  43 2973.84 0.00000 2.05752e-12
  44 2973.84 0.00000 -2.91880e-11
  45 2973.84 0.00000 2.71595e-11
  46 2973.84 0.00000 -5.57489e-12
  47 2973.84 0.00000 -8.17632e-12
  48 2973.84 0.00000 9.04833e-12
  49 2973.84 0.00000 1.53759e-12
  50 2973.84 0.00000 1.48512e-12
  51 2973.84 0.00000 6.45361e-14
  52 2973.84 0.00000 -1.28285e-12
  53 2973.84 0.00000 5.06198e-13
  54 2973.84 0.00000 -6.89924e-12
  55 2973.84 0.00000 -2.22522e-11
  56 2973.84 0.00000 1.75528e-12
  57 2973.84 0.00000 1.02459e-12
  58 2973.84 0.00000 2.55600e-11
  59 2973.84 0.00000 1.38473e-13
  60 2973.84 0.00000 -1.80774e-12
  61 2973.84 0.00000 3.30717e-13
  62 2973.84 0.00000 4.02900e-11
  63 2973.84 0.00000 -3.84122e-11
  64 2973.84 0.00000 -6.29010e-13
  65 2973.84 0.00000 2.37034e-12
  66 2973.84 0.00000 -3.29728e-14
</Section>

newXOutput 84

<Section columns = "stress_xx | stress_yy | stress_xy">
  1 3024.53 0.00000 2.52671e-11
  2 3024.53 0.00000 -5.52870e-13
  3 3024.53 0.00000 -5.57490e-13
  4 3024.53 0.00000 -2.90959e-11
  5 3024.53 0.00000 4.13206e-11
  6 3024.53 0.00000 5.24280e-11
  7 3024.53 0.00000 4.18771e-11
  8 3024.53 0.00000 1.93387e-11
  9 3024.53 0.00000 3.79781e-12
  10 3024.53 0.00000 -3.77162e-12
  11 3024.53 0.00000 -1.18030e-11
  12 3024.53 0.00000 -7.79163e-12
  13 3024.53 0.00000 4.78617e-13
  14 3024.53 0.00000 3.90315e-13
  15 3024.53 0.00000 -9.85330e-13
  16 3024.53 0.00000 -2.94431e-13
  17 3024.53 0.00000 2.15042e-12
  18 3024.53 0.00000 7.71325e-12
  19 3024.53 0.00000 1.28348e-11
  20 3024.53 0.00000 3.07557e-12
  21 3024.53 0.00000 -8.34348e-12
  22 3024.53 0.00000 -2.04264e-11
  23 3024.53 0.00000 -4.18980e-11
  24 3024.53 0.00000 -5.41426e-11
  25 3024.53 0.00000 -4.23180e-11
  26 3024.53 0.00000 -1.33420e-11
  27 3024.53 0.00000 -5.27262e-13
  28 3024.53 0.00000 1.19508e-11
  29 3024.53 0.00000 1.95608e-13
  30 3024.53 0.00000 3.17542e-12
  31 3024.53 0.00000 -1.52824e-12
  32 3024.53 0.00000 2.12525e-12
  33 3024.53 0.00000 -1.82005e-12
  34 3024.53 0.00000 -2.58829e-11
  35 3024.53 0.00000 2.30438e-11
  36 3024.53 0.00000 -2.41423e-12
  37 3024.53 0.00000 -2.62667e-12
  38 3024.53 0.00000 1.77650e-11
  39 3024.53 0.00000 -1.45997e-11
  40 3024.53 0.00000 -7.81744e-13
  41 3024.53 0.00000 -4.76357e-12
  42 3024.53 0.00000 7.24885e-12
  43 3024.53 0.00000 -2.96128e-12
  44 3024.53 0.00000 3.47097e-11
  45 3024.53 0.00000 -3.20308e-11
  46 3024.53 0.00000 6.97360e-12
  47 3024.53 0.00000 1.01337e-11
  48 3024.53 0.00000 -1.06713e-11
  49 3024.53 0.00000 -2.42301e-12
  50 3024.53 0.00000 -1.84511e-12
  51 3024.53 0.00000 -1.68784e-13
  52 3024.53 0.00000 1.20175e-12
  53 3024.53 0.00000 -2.01248e-13
  54 3024.53 0.00000 7.90344e-12
  55 3024.53 0.00000 2.57842e-11
  56 3024.53 0.00000 -1.66271e-12
  57 3024.53 0.00000 -1.50566e-12
  58 3024.53 0.00000 -2.94512e-11
  59 3024.53 0.00000 -1.43067e-13
  60 3024.53 0.00000 1.24953e-12
  61 3024.53 0.00000 -6.19474e-13
  62 3024.53 0.00000 -4.59385e-11
  63 3024.53 0.00000 4.51589e-11
  64 3024.53 0.00000 1.76390e-12
  65 3024.53 0.00000 -3.45899e-12
  66 3024.53 0.00000 -8.21166e-13
</Section>

newXOutput 85

<Section columns = "stress_xx | stress_yy | stress_xy">
  1 3075.41 0.00000 -2.93450e-11
  2 3075.41 0.00000 9.21541e-13
  3 3075.41 0.00000 1.39056e-12
  4 3075.41 0.00000 3.35278e-11
  5 3075.41 0.00000 -4.86224e-11
  6 3075.41 0.00000 -6.29598e-11
  7 3075.41 0.00000 -4.96444e-11
  8 3075.41 0.00000 -2.22860e-11
  9 3075.41 0.00000 -3.92033e-12
  10 3075.41 0.00000 4.16587e-12
  11 3075.41 0.00000 1.34712e-11
  12 3075.41 0.00000 9.47548e-12
  13 3075.41 0.00000 5.00962e-13
  14 3075.41 0.00000 2.65031e-13
  15 3075.41 0.00000 1.73686e-12
  16 3075.41 0.00000 7.45440e-13
  17 3075.41 0.00000 -3.11338e-12
  18 3075.41 0.00000 -9.25406e-12
  19 3075.41 0.00000 -1.42465e-11
  20 3075.41 0.00000 -4.10036e-12
  21 3075.41 0.00000 9.24882e-12
  22 3075.41 0.00000 2.50520e-11
  23 3075.41 0.00000 5.03211e-11
  24 3075.41 0.00000 6.37700e-11
  25 3075.41 0.00000 5.02317e-11
  26 3075.41 0.00000 1.49786e-11
  27 3075.41 0.00000 5.27731e-13
  28 3075.41 0.00000 -1.37752e-11
  29 3075.41 0.00000 -7.18772e-14
  30 3075.41 0.00000 -3.78703e-12
  31 3075.41 0.00000 1.31354e-12
  32 3075.41 0.00000 -2.07600e-12
  33 3075.41 0.00000 2.85763e-12
  34 3075.41 0.00000 3.00608e-11
  35 3075.41 0.00000 -2.64940e-11
  36 3075.41 0.00000 3.03892e-12
  37 3075.41 0.00000 3.77779e-12
  38 3075.41 0.00000 -2.07354e-11
  39 3075.41 0.00000 1.80139e-11
  40 3075.41 0.00000 1.43481e-12
  41 3075.41 0.00000 5.06287e-12
  42 3075.41 0.00000 -7.59338e-12
  43 3075.41 0.00000 4.02036e-12
  44 3075.41 0.00000 -4.08614e-11
  45 3075.41 0.00000 3.82202e-11
  46 3075.41 0.00000 -7.94437e-12
  47 3075.41 0.00000 -1.14907e-11
  48 3075.41 0.00000 1.24306e-11
  49 3075.41 0.00000 3.72509e-12
  50 3075.41 0.00000 1.87618e-12
  51 3075.41 0.00000 3.11114e-13
  52 3075.41 0.00000 -1.63921e-12
  53 3075.41 0.00000 4.55569e-13
  54 3075.41 0.00000 -8.60669e-12
  55 3075.41 0.00000 -3.01625e-11
  56 3075.41 0.00000 1.98381e-12
  57 3075.41 0.00000 2.36195e-12
  58 3075.41 0.00000 3.38898e-11
  59 3075.41 0.00000 7.39289e-13
  60 3075.41 0.00000 -1.03977e-12
  61 3075.41 0.00000 1.63788e-12
  62 3075.41 0.00000 5.36973e-11
  63 3075.41 0.00000 -5.28246e-11
  64 3075.41 0.00000 -2.83139e-12
  65 3075.41 0.00000 4.40707e-12
  66 3075.41 0.00000 7.24510e-13
</Section>

newXOutput 86

<Section columns = "stress_xx | stress_yy | stress_xy">
  1 3126.46 0.00000 3.47270e-11
  2 3126.46 0.00000 -9.83804e-13
  3 3126.46 0.00000 -1.22386e-12
  4 3126.46 0.00000 -3.89811e-11
  5 3126.46 0.00000 5.78008e-11
  6 3126.46 0.00000 7.42583e-11
  7 3126.46 0.00000 5.94632e-11
  8 3126.46 0.00000 2.78534e-11
  9 3126.46 0.00000 6.09911e-12
  10 3126.46 0.00000 -2.52862e-12
  11 3126.46 0.00000 -1.46994e-11
  12 3126.46 0.00000 -1.08321e-11
  13 3126.46 0.00000 -5.69406e-13
  14 3126.46 0.00000 -8.36733e-13
  15 3126.46 0.00000 -1.91881e-12
  16 3126.46 0.00000 -9.81371e-13
  17 3126.46 0.00000 3.67029e-12
  18 3126.46 0.00000 1.07770e-11
  19 3126.46 0.00000 1.65428e-11
  20 3126.46 0.00000 4.69444e-12
  21 3126.46 0.00000 -1.11077e-11
  22 3126.46 0.00000 -2.96091e-11
  23 3126.46 0.00000 -5.97428e-11
  24 3126.46 0.00000 -7.57108e-11
  25 3126.46 0.00000 -5.94688e-11
  26 3126.46 0.00000 -1.73978e-11
  27 3126.46 0.00000 -5.49515e-13
  28 3126.46 0.00000 1.58856e-11
  29 3126.46 0.00000 4.68595e-14
  30 3126.46 0.00000 3.31296e-12
  31 3126.46 0.00000 -1.39069e-12
  32 3126.46 0.00000 1.32464e-12
  33 3126.46 0.00000 -3.54070e-12
  34 3126.46 0.00000 -3.47545e-11
  35 3126.46 0.00000 3.00751e-11
  36 3126.46 0.00000 -3.70173e-12
  37 3126.46 0.00000 -4.32461e-12
  38 3126.46 0.00000 2.50079e-11
  39 3126.46 0.00000 -2.17902e-11
  40 3126.46 0.00000 -1.23921e-12
  41 3126.46 0.00000 -5.84891e-12
  42 3126.46 0.00000 8.39883e-12
  43 3126.46 0.00000 -4.46313e-12
  44 3126.46 0.00000 4.80946e-11
  45 3126.46 0.00000 -4.55935e-11
  46 3126.46 0.00000 1.03945e-11
  47 3126.46 0.00000 1.23750e-11
  48 3126.46 0.00000 -1.48030e-11
  49 3126.46 0.00000 -4.50062e-12
  50 3126.46 0.00000 -2.20120e-12
  51 3126.46 0.00000 -3.27414e-14
  52 3126.46 0.00000 1.90271e-12
  53 3126.46 0.00000 -5.06244e-13
  54 3126.46 0.00000 9.12463e-12
  55 3126.46 0.00000 3.49420e-11
  56 3126.46 0.00000 -2.89126e-12
  57 3126.46 0.00000 -2.66768e-12
  58 3126.46 0.00000 -3.93845e-11
  59 3126.46 0.00000 -1.13500e-12
  60 3126.46 0.00000 1.99205e-13
  61 3126.46 0.00000 -1.31638e-12
  62 3126.46 0.00000 -6.32264e-11
  63 3126.46 0.00000 6.15418e-11
  64 3126.46 0.00000 2.56488e-12
  65 3126.46 0.00000 -4.51448e-12
  66 3126.46 0.00000 -1.75772e-12
</Section>

newXOutput 87

<Section columns = "stress_xx | stress_yy | stress_xy">
  1 3177.69 0.00000 -3.95367e-11
  2 3177.69 0.00000 2.56861e-12
  3 3177.69 0.00000 1.55233e-12
  4 3177.69 0.00000 4.39846e-11
  5 3177.69 0.00000 -6.64408e-11
  6 3177.69 0.00000 -8.74602e-11
  7 3177.69 0.00000 -7.12074e-11
  8 3177.69 0.00000 -3.57999e-11
  9 3177.69 0.00000 -9.39371e-12
  10 3177.69 0.00000 3.62340e-13
  11 3177.69 0.00000 1.68581e-11
  12 3177.69 0.00000 1.25134e-11
  13 3177.69 0.00000 1.17667e-12
  14 3177.69 0.00000 1.27813e-12
  15 3177.69 0.00000 1.62863e-12
  16 3177.69 0.00000 4.29575e-13
  17 3177.69 0.00000 -3.81405e-12
  18 3177.69 0.00000 -1.23920e-11
  19 3177.69 0.00000 -1.81307e-11
  20 3177.69 0.00000 -4.60326e-12
  21 3177.69 0.00000 1.39143e-11
  22 3177.69 0.00000 3.56804e-11
  23 3177.69 0.00000 7.01281e-11
  24 3177.69 0.00000 8.80348e-11
  25 3177.69 0.00000 6.74186e-11
  26 3177.69 0.00000 2.00424e-11
  27 3177.69 0.00000 1.08274e-12
  28 3177.69 0.00000 -1.85589e-11
  29 3177.69 0.00000 -2.50304e-13
  30 3177.69 0.00000 -4.88283e-12
  31 3177.69 0.00000 9.28718e-13
  32 3177.69 0.00000 -2.62215e-12
  33 3177.69 0.00000 4.45674e-12
  34 3177.69 0.00000 4.09879e-11
  35 3177.69 0.00000 -3.55075e-11
  36 3177.69 0.00000 3.76264e-12
  37 3177.69 0.00000 4.58220e-12
  38 3177.69 0.00000 -3.05286e-11
  39 3177.69 0.00000 2.53693e-11
  40 3177.69 0.00000 4.48271e-13
  41 3177.69 0.00000 6.89806e-12
  42 3177.69 0.00000 -1.01275e-11
  43 3177.69 0.00000 5.20032e-12
  44 3177.69 0.00000 -5.69394e-11
  45 3177.69 0.00000 5.35506e-11
  46 3177.69 0.00000 -1.42015e-11
  47 3177.69 0.00000 -1.37542e-11
  48 3177.69 0.00000 1.79247e-11
  49 3177.69 0.00000 4.39519e-12
  50 3177.69 0.00000 2.70452e-12
  51 3177.69 0.00000 -1.43291e-12
  52 3177.69 0.00000 -2.74916e-12
  53 3177.69 0.00000 -1.17590e-12
  54 3177.69 0.00000 -1.06350e-11
  55 3177.69 0.00000 -4.04772e-11
  56 3177.69 0.00000 2.89956e-12
  57 3177.69 0.00000 3.51948e-12
  58 3177.69 0.00000 4.46331e-11
  59 3177.69 0.00000 1.88032e-12
  60 3177.69 0.00000 -3.84309e-13
  61 3177.69 0.00000 1.77631e-12
  62 3177.69 0.00000 7.27235e-11
  63 3177.69 0.00000 -7.17907e-11
  64 3177.69 0.00000 -2.80084e-12
  65 3177.69 0.00000 4.89503e-12
  66 3177.69 0.00000 1.54221e-12
</Section>

newXOutput 88

<Section columns = "stress_xx | stress_yy | stress_xy">
  1 3229.11 0.00000 4.53422e-11
  2 3229.11 0.00000 -2.79628e-12
  3 3229.11 0.00000 -2.60229e-12
  4 3229.11 0.00000 -4.96605e-11
  5 3229.11 0.00000 7.73231e-11
  6 3229.11 0.00000 1.03166e-10
  7 3229.11 0.00000 8.65867e-11
  8 3229.11 0.00000 4.41065e-11
  9 3229.11 0.00000 1.13656e-11
  10 3229.11 0.00000 -2.86952e-12
  11 3229.11 0.00000 -1.97973e-11
  12 3229.11 0.00000 -1.52113e-11
  13 3229.11 0.00000 -2.09844e-12
  14 3229.11 0.00000 -1.26595e-12
  15 3229.11 0.00000 -1.47735e-12
  16 3229.11 0.00000 -3.09121e-13
  17 3229.11 0.00000 4.74726e-12
  18 3229.11 0.00000 1.50053e-11
  19 3229.11 0.00000 2.15127e-11
  20 3229.11 0.00000 5.39298e-12
  21 3229.11 0.00000 -1.57592e-11
  22 3229.11 0.00000 -4.27549e-11
  23 3229.11 0.00000 -8.37535e-11
  24 3229.11 0.00000 -1.04248e-10
  25 3229.11 0.00000 -7.87775e-11
  26 3229.11 0.00000 -2.25088e-11
  27 3229.11 0.00000 -8.45206e-13
  28 3229.11 0.00000 2.16150e-11
  29 3229.11 0.00000 4.14258e-13
  30 3229.11 0.00000 5.74561e-12
  31 3229.11 0.00000 -1.53112e-12
  32 3229.11 0.00000 4.01848e-12
  33 3229.11 0.00000 -6.75426e-12
  34 3229.11 0.00000 -4.71897e-11
  35 3229.11 0.00000 4.22963e-11
  36 3229.11 0.00000 -2.27785e-12
  37 3229.11 0.00000 -5.13709e-12
  38 3229.11 0.00000 3.72518e-11
  39 3229.11 0.00000 -3.10978e-11
  40 3229.11 0.00000 2.65759e-13
  41 3229.11 0.00000 -7.38856e-12
  42 3229.11 0.00000 1.23932e-11
  43 3229.11 0.00000 -6.84902e-12
  44 3229.11 0.00000 6.79324e-11
  45 3229.11 0.00000 -6.38003e-11
  46 3229.11 0.00000 1.73287e-11
  47 3229.11 0.00000 1.66695e-11
  48 3229.11 0.00000 -2.14152e-11
  49 3229.11 0.00000 -3.96527e-12
  50 3229.11 0.00000 -2.55538e-12
  51 3229.11 0.00000 1.02819e-12
  52 3229.11 0.00000 2.95621e-12
  53 3229.11 0.00000 7.39780e-13
  54 3229.11 0.00000 1.30313e-11
  55 3229.11 0.00000 4.72220e-11
  56 3229.11 0.00000 -2.74410e-12
  57 3229.11 0.00000 -4.74941e-12
  58 3229.11 0.00000 -5.10654e-11
  59 3229.11 0.00000 -1.90857e-12
  60 3229.11 0.00000 1.15693e-12
  61 3229.11 0.00000 -4.59095e-12
  62 3229.11 0.00000 -8.47775e-11
  63 3229.11 0.00000 8.40055e-11
  64 3229.11 0.00000 3.99500e-12
  65 3229.11 0.00000 -5.51096e-12
  66 3229.11 0.00000 -6.26502e-13
</Section>

newXOutput 89

<Section columns = "stress_xx | stress_yy | stress_xy">
  1 3280.70 0.00000 -5.17378e-11
  2 3280.70 0.00000 2.59096e-12
  3 3280.70 0.00000 1.77042e-12
  4 3280.70 0.00000 5.70831e-11
  5 3280.70 0.00000 -9.01178e-11
  6 3280.70 0.00000 -1.22344e-10
  7 3280.70 0.00000 -1.03703e-10
  8 3280.70 0.00000 -5.34760e-11
  9 3280.70 0.00000 -1.49989e-11
  10 3280.70 0.00000 3.55416e-12
  11 3280.70 0.00000 2.23123e-11
  12 3280.70 0.00000 1.94196e-11
  13 3280.70 0.00000 4.33539e-12
  14 3280.70 0.00000 1.07440e-12
  15 3280.70 0.00000 2.34568e-12
  16 3280.70 0.00000 1.46262e-12
  17 3280.70 0.00000 -7.01193e-12
  18 3280.70 0.00000 -1.84504e-11
  19 3280.70 0.00000 -2.56459e-11
  20 3280.70 0.00000 -6.23046e-12
  21 3280.70 0.00000 1.96065e-11
  22 3280.70 0.00000 5.15710e-11
  23 3280.70 0.00000 1.00646e-10
  24 3280.70 0.00000 1.23537e-10
  25 3280.70 0.00000 9.19055e-11
  26 3280.70 0.00000 2.55459e-11
  27 3280.70 0.00000 5.11813e-13
  28 3280.70 0.00000 -2.47899e-11
  29 3280.70 0.00000 -9.38594e-13
  30 3280.70 0.00000 -7.48773e-12
  31 3280.70 0.00000 2.46787e-12
  32 3280.70 0.00000 -4.49658e-12
  33 3280.70 0.00000 5.92797e-12
  34 3280.70 0.00000 5.51090e-11
  35 3280.70 0.00000 -4.94498e-11
  36 3280.70 0.00000 2.79040e-12
  37 3280.70 0.00000 5.36568e-12
  38 3280.70 0.00000 -4.41496e-11
  39 3280.70 0.00000 3.80940e-11
  40 3280.70 0.00000 -1.59624e-12
  41 3280.70 0.00000 9.40341e-12
  42 3280.70 0.00000 -1.44845e-11
  43 3280.70 0.00000 7.62504e-12
  44 3280.70 0.00000 -8.05498e-11
  45 3280.70 0.00000 7.58748e-11
  46 3280.70 0.00000 -2.13068e-11
  47 3280.70 0.00000 -1.97719e-11
  48 3280.70 0.00000 2.66922e-11
  49 3280.70 0.00000 5.22177e-12
  50 3280.70 0.00000 2.56229e-12
  51 3280.70 0.00000 -9.59876e-14
  52 3280.70 0.00000 -3.09850e-12
  53 3280.70 0.00000 -4.62590e-13
  54 3280.70 0.00000 -1.54531e-11
  55 3280.70 0.00000 -5.45292e-11
  56 3280.70 0.00000 2.46314e-12
  57 3280.70 0.00000 4.96694e-12
  58 3280.70 0.00000 5.87678e-11
  59 3280.70 0.00000 1.92429e-12
  60 3280.70 0.00000 -1.06916e-12
  61 3280.70 0.00000 6.15147e-12
  62 3280.70 0.00000 9.90699e-11
  63 3280.70 0.00000 -9.78882e-11
  64 3280.70 0.00000 -6.84929e-12
  65 3280.70 0.00000 5.01627e-12
  66 3280.70 0.00000 4.82644e-13
</Section>

newXOutput 90

<Section columns = "stress_xx | stress_yy | stress_xy">
  1 3332.49 0.00000 5.97038e-11
  2 3332.49 0.00000 -4.01786e-12
  3 3332.49 0.00000 -1.56630e-12
  4 3332.49 0.00000 -6.57388e-11
  5 3332.49 0.00000 1.05489e-10
  6 3332.49 0.00000 1.44781e-10
  7 3332.49 0.00000 1.24315e-10
  8 3332.49 0.00000 6.52332e-11
  9 3332.49 0.00000 1.82930e-11
  10 3332.49 0.00000 -3.98532e-12
  11 3332.49 0.00000 -2.60601e-11
  12 3332.49 0.00000 -2.27240e-11
  13 3332.49 0.00000 -6.35245e-12
  14 3332.49 0.00000 -1.33688e-12
  15 3332.49 0.00000 -2.85957e-12
  16 3332.49 0.00000 -3.97034e-13
  17 3332.49 0.00000 9.13170e-12
  18 3332.49 0.00000 2.34953e-11
  19 3332.49 0.00000 2.95910e-11
  20 3332.49 0.00000 7.17902e-12
  21 3332.49 0.00000 -2.47001e-11
  22 3332.49 0.00000 -6.33732e-11
  23 3332.49 0.00000 -1.20852e-10
  24 3332.49 0.00000 -1.46057e-10
  25 3332.49 0.00000 -1.07894e-10
  26 3332.49 0.00000 -2.90729e-11
  27 3332.49 0.00000 -3.34434e-13
  28 3332.49 0.00000 2.81516e-11
  29 3332.49 0.00000 1.20084e-12
  30 3332.49 0.00000 8.06659e-12
  31 3332.49 0.00000 -2.66558e-12
  32 3332.49 0.00000 4.85864e-12
  33 3332.49 0.00000 -7.10641e-12
  34 3332.49 0.00000 -6.44847e-11
  35 3332.49 0.00000 5.74334e-11
  36 3332.49 0.00000 -2.39266e-12
  37 3332.49 0.00000 -5.70049e-12
  38 3332.49 0.00000 5.35081e-11
  39 3332.49 0.00000 -4.68276e-11
  40 3332.49 0.00000 2.93902e-12
  41 3332.49 0.00000 -1.20520e-11
  42 3332.49 0.00000 1.71252e-11
  43 3332.49 0.00000 -9.17442e-12
  44 3332.49 0.00000 9.46803e-11
  45 3332.49 0.00000 -8.97734e-11
  46 3332.49 0.00000 2.73295e-11
  47 3332.49 0.00000 2.24336e-11
  48 3332.49 0.00000 -3.33193e-11
  49 3332.49 0.00000 -5.22298e-12
  50 3332.49 0.00000 -2.96854e-12
  51 3332.49 0.00000 1.69416e-13
  52 3332.49 0.00000 3.20118e-12
  53 3332.49 0.00000 7.86720e-13
  54 3332.49 0.00000 1.78432e-11
  55 3332.49 0.00000 6.28385e-11
  56 3332.49 0.00000 -1.25059e-12
  57 3332.49 0.00000 -6.26122e-12
  58 3332.49 0.00000 -6.81336e-11
  59 3332.49 0.00000 -2.25612e-12
  60 3332.49 0.00000 4.47105e-13
  61 3332.49 0.00000 -7.60605e-12
  62 3332.49 0.00000 -1.16245e-10
  63 3332.49 0.00000 1.14289e-10
  64 3332.49 0.00000 9.13489e-12
  65 3332.49 0.00000 -5.92361e-12
  66 3332.49 0.00000 -1.03710e-12
</Section>

newXOutput 91

<Section columns = "stress_xx | stress_yy | stress_xy">
  1 3384.46 0.00000 -6.95969e-11
  2 3384.46 0.00000 5.16679e-12
  3 3384.46 0.00000 8.45395e-13
  4 3384.46 0.00000 7.63400e-11
  5 3384.46 0.00000 -1.24889e-10
  6 3384.46 0.00000 -1.72875e-10
  7 3384.46 0.00000 -1.49546e-10
  8 3384.46 0.00000 -7.95035e-11
  9 3384.46 0.00000 -2.27461e-11
  10 3384.46 0.00000 3.82185e-12
  11 3384.46 0.00000 3.02630e-11
  12 3384.46 0.00000 2.76905e-11
  13 3384.46 0.00000 8.96486e-12
  14 3384.46 0.00000 1.85273e-12
  15 3384.46 0.00000 2.64797e-12
  16 3384.46 0.00000 1.94158e-14
  17 3384.46 0.00000 -1.18727e-11
  18 3384.46 0.00000 -2.78439e-11
  19 3384.46 0.00000 -3.33961e-11
  20 3384.46 0.00000 -7.96621e-12
  21 3384.46 0.00000 3.08444e-11
  22 3384.46 0.00000 7.83860e-11
  23 3384.46 0.00000 1.46683e-10
  24 3384.46 0.00000 1.74300e-10
  25 3384.46 0.00000 1.27104e-10
  26 3384.46 0.00000 3.39623e-11
  27 3384.46 0.00000 3.63168e-13
  28 3384.46 0.00000 -3.27490e-11
  29 3384.46 0.00000 -1.67272e-12
  30 3384.46 0.00000 -9.72849e-12
  31 3384.46 0.00000 3.17110e-12
  32 3384.46 0.00000 -6.02085e-12
  33 3384.46 0.00000 9.22628e-12
  34 3384.46 0.00000 7.58697e-11
  35 3384.46 0.00000 -6.75537e-11
  36 3384.46 0.00000 1.20658e-12
  37 3384.46 0.00000 7.15306e-12
  38 3384.46 0.00000 -6.45368e-11
  39 3384.46 0.00000 5.82141e-11
  40 3384.46 0.00000 -3.94058e-12
  41 3384.46 0.00000 1.46233e-11
  42 3384.46 0.00000 -2.02750e-11
  43 3384.46 0.00000 1.23091e-11
  44 3384.46 0.00000 -1.12594e-10
  45 3384.46 0.00000 1.07257e-10
  46 3384.46 0.00000 -3.35020e-11
  47 3384.46 0.00000 -2.68247e-11
  48 3384.46 0.00000 4.11618e-11
  49 3384.46 0.00000 5.73242e-12
  50 3384.46 0.00000 3.44096e-12
  51 3384.46 0.00000 -1.81599e-13
  52 3384.46 0.00000 -3.59046e-12
  53 3384.46 0.00000 -1.28182e-12
  54 3384.46 0.00000 -2.01996e-11
  55 3384.46 0.00000 -7.36670e-11
  56 3384.46 0.00000 5.50702e-13
  57 3384.46 0.00000 7.81732e-12
  58 3384.46 0.00000 7.99019e-11
  59 3384.46 0.00000 2.33879e-12
  60 3384.46 0.00000 -4.85078e-13
  61 3384.46 0.00000 1.01508e-11
  62 3384.46 0.00000 1.37656e-10
  63 3384.46 0.00000 -1.35107e-10
  64 3384.46 0.00000 -1.17516e-11
  65 3384.46 0.00000 7.06109e-12
  66 3384.46 0.00000 1.27646e-12
</Section>

newXOutput 92

<Section columns = "stress_xx | stress_yy | stress_xy">
  1 3436.62 0.00000 8.13466e-11
  2 3436.62 0.00000 -6.76614e-12
  3 3436.62 0.00000 -3.30376e-13
  4 3436.62 0.00000 -8.84743e-11
  5 3436.62 0.00000 1.46751e-10
  6 3436.62 0.00000 2.05620e-10
  7 3436.62 0.00000 1.79804e-10
  8 3436.62 0.00000 9.59486e-11
  9 3436.62 0.00000 2.77301e-11
  10 3436.62 0.00000 -5.53766e-12
  11 3436.62 0.00000 -3.58565e-11
  12 3436.62 0.00000 -3.30470e-11
  13 3436.62 0.00000 -9.88180e-12
  14 3436.62 0.00000 -2.80285e-12
  15 3436.62 0.00000 -2.64984e-12
  16 3436.62 0.00000 -3.48136e-13
  17 3436.62 0.00000 1.36296e-11
  18 3436.62 0.00000 3.29248e-11
  19 3436.62 0.00000 3.94328e-11
  20 3436.62 0.00000 1.07215e-11
  21 3436.62 0.00000 -3.61799e-11
  22 3436.62 0.00000 -9.55847e-11
  23 3436.62 0.00000 -1.77299e-10
  24 3436.62 0.00000 -2.08149e-10
  25 3436.62 0.00000 -1.49075e-10
  26 3436.62 0.00000 -3.97370e-11
  27 3436.62 0.00000 -4.84640e-13
  28 3436.62 0.00000 3.82024e-11
  29 3436.62 0.00000 1.82811e-12
  30 3436.62 0.00000 1.07940e-11
  31 3436.62 0.00000 -4.20770e-12
  32 3436.62 0.00000 6.11262e-12
  33 3436.62 0.00000 -1.23489e-11
  34 3436.62 0.00000 -9.00407e-11
  35 3436.62 0.00000 8.04002e-11
  36 3436.62 0.00000 -2.84003e-13
  37 3436.62 0.00000 -9.51907e-12
  38 3436.62 0.00000 7.78590e-11
  39 3436.62 0.00000 -7.15066e-11
  40 3436.62 0.00000 4.59587e-12
  41 3436.62 0.00000 -1.74022e-11
  42 3436.62 0.00000 2.31749e-11
  43 3436.62 0.00000 -1.52400e-11
  44 3436.62 0.00000 1.33724e-10
  45 3436.62 0.00000 -1.27917e-10
  46 3436.62 0.00000 4.10976e-11
  47 3436.62 0.00000 3.12254e-11
  48 3436.62 0.00000 -5.03961e-11
  49 3436.62 0.00000 -6.92758e-12
  50 3436.62 0.00000 -4.18281e-12
  51 3436.62 0.00000 -6.01398e-13
  52 3436.62 0.00000 3.62515e-12
  53 3436.62 0.00000 1.14082e-12
  54 3436.62 0.00000 2.28278e-11
  55 3436.62 0.00000 8.65731e-11
  56 3436.62 0.00000 -2.77418e-13
  57 3436.62 0.00000 -9.86514e-12
  58 3436.62 0.00000 -9.39136e-11
  59 3436.62 0.00000 -2.49094e-12
  60 3436.62 0.00000 3.87360e-13
  61 3436.62 0.00000 -1.33174e-11
  62 3436.62 0.00000 -1.62924e-10
  63 3436.62 0.00000 1.59769e-10
  64 3436.62 0.00000 1.44850e-11
  65 3436.62 0.00000 -8.82904e-12
  66 3436.62 0.00000 -1.40589e-12
</Section>

newXOutput 93

<Section columns = "stress_xx | stress_yy | stress_xy">
  1 3488.96 0.00000 -9.61587e-11
  2 3488.96 0.00000 8.76190e-12
  3 3488.96 0.00000 -4.41966e-13
  4 3488.96 0.00000 1.03213e-10
  5 3488.96 0.00000 -1.74254e-10
  6 3488.96 0.00000 -2.45892e-10
  7 3488.96 0.00000 -2.16152e-10
  8 3488.96 0.00000 -1.16876e-10
  9 3488.96 0.00000 -3.47809e-11
  10 3488.96 0.00000 5.82579e-12
  11 3488.96 0.00000 4.02275e-11
  12 3488.96 0.00000 3.84325e-11
  13 3488.96 0.00000 1.30760e-11
  14 3488.96 0.00000 3.11411e-12
  15 3488.96 0.00000 2.36797e-12
  16 3488.96 0.00000 1.43269e-13
  17 3488.96 0.00000 -1.66181e-11
  18 3488.96 0.00000 -3.84453e-11
  19 3488.96 0.00000 -4.55665e-11
  20 3488.96 0.00000 -1.22492e-11
  21 3488.96 0.00000 4.44488e-11
  22 3488.96 0.00000 1.16308e-10
  23 3488.96 0.00000 2.13415e-10
  24 3488.96 0.00000 2.48434e-10
  25 3488.96 0.00000 1.76626e-10
  26 3488.96 0.00000 4.67104e-11
  27 3488.96 0.00000 5.06373e-13
  28 3488.96 0.00000 -4.45804e-11
  29 3488.96 0.00000 -1.88359e-12
  30 3488.96 0.00000 -1.29183e-11
  31 3488.96 0.00000 4.74688e-12
  32 3488.96 0.00000 -6.71956e-12
  33 3488.96 0.00000 1.45251e-11
  34 3488.96 0.00000 1.05713e-10
  35 3488.96 0.00000 -9.47697e-11
  36 3488.96 0.00000 -3.58077e-13
  37 3488.96 0.00000 1.07427e-11
  38 3488.96 0.00000 -9.45600e-11
  39 3488.96 0.00000 8.69388e-11
  40 3488.96 0.00000 -6.25064e-12
  41 3488.96 0.00000 2.13746e-11
  42 3488.96 0.00000 -2.71955e-11
  43 3488.96 0.00000 1.86213e-11
  44 3488.96 0.00000 -1.59334e-10
  45 3488.96 0.00000 1.52436e-10
  46 3488.96 0.00000 -5.10155e-11
  47 3488.96 0.00000 -3.69247e-11
  48 3488.96 0.00000 6.14874e-11
  49 3488.96 0.00000 7.77021e-12
  50 3488.96 0.00000 5.25215e-12
  51 3488.96 0.00000 9.57309e-13
  52 3488.96 0.00000 -4.15792e-12
  53 3488.96 0.00000 -9.11372e-13
  54 3488.96 0.00000 -2.62563e-11
  55 3488.96 0.00000 -1.01806e-10
  56 3488.96 0.00000 -1.71011e-13
  57 3488.96 0.00000 1.17989e-11
  58 3488.96 0.00000 1.10153e-10
  59 3488.96 0.00000 3.31168e-12
  60 3488.96 0.00000 -5.76766e-13
  61 3488.96 0.00000 1.67820e-11
  62 3488.96 0.00000 1.92495e-10
  63 3488.96 0.00000 -1.89999e-10
  64 3488.96 0.00000 -1.81208e-11
  65 3488.96 0.00000 9.22343e-12
  66 3488.96 0.00000 1.90757e-12
</Section>

newXOutput 94

<Section columns = "stress_xx | stress_yy | stress_xy">
  1 3541.50 0.00000 1.12492e-10
  2 3541.50 0.00000 -9.35103e-12
  3 3541.50 0.00000 1.70714e-12
  4 3541.50 0.00000 -1.20751e-10
  5 3541.50 0.00000 2.07210e-10
  6 3541.50 0.00000 2.93702e-10
  7 3541.50 0.00000 2.60609e-10
  8 3541.50 0.00000 1.41765e-10
  9 3541.50 0.00000 4.35921e-11
  10 3541.50 0.00000 -5.35660e-12
  11 3541.50 0.00000 -4.69193e-11
  12 3541.50 0.00000 -4.52696e-11
  13 3541.50 0.00000 -1.51775e-11
  14 3541.50 0.00000 -4.40411e-12
  15 3541.50 0.00000 -2.87827e-12
  16 3541.50 0.00000 6.13024e-13
  17 3541.50 0.00000 2.08295e-11
  18 3541.50 0.00000 4.46615e-11
  19 3541.50 0.00000 5.27985e-11
  20 3541.50 0.00000 1.26372e-11
  21 3541.50 0.00000 -5.53370e-11
  22 3541.50 0.00000 -1.43149e-10
  23 3541.50 0.00000 -2.58702e-10
  24 3541.50 0.00000 -2.97450e-10
  25 3541.50 0.00000 -2.09103e-10
  26 3541.50 0.00000 -5.50811e-11
  27 3541.50 0.00000 -9.85156e-13
  28 3541.50 0.00000 5.18448e-11
  29 3541.50 0.00000 3.00066e-12
  30 3541.50 0.00000 1.37267e-11
  31 3541.50 0.00000 -5.33688e-12
  32 3541.50 0.00000 6.80317e-12
  33 3541.50 0.00000 -1.73771e-11
  34 3541.50 0.00000 -1.25584e-10
  35 3541.50 0.00000 1.13580e-10
  36 3541.50 0.00000 3.25456e-12
  37 3541.50 0.00000 -1.09041e-11
  38 3541.50 0.00000 1.14195e-10
  39 3541.50 0.00000 -1.06238e-10
  40 3541.50 0.00000 9.11715e-12
  41 3541.50 0.00000 -2.56185e-11
  42 3541.50 0.00000 3.07445e-11
  43 3541.50 0.00000 -2.24526e-11
  44 3541.50 0.00000 1.90831e-10
  45 3541.50 0.00000 -1.83064e-10
  46 3541.50 0.00000 6.21420e-11
  47 3541.50 0.00000 4.33906e-11
  48 3541.50 0.00000 -7.56606e-11
  49 3541.50 0.00000 -8.38968e-12
  50 3541.50 0.00000 -5.85287e-12
  51 3541.50 0.00000 4.05135e-13
  52 3541.50 0.00000 5.33787e-12
  53 3541.50 0.00000 1.77527e-12
  54 3541.50 0.00000 2.93847e-11
  55 3541.50 0.00000 1.20527e-10
  56 3541.50 0.00000 2.57931e-12
  57 3541.50 0.00000 -1.39454e-11
  58 3541.50 0.00000 -1.29683e-10
  59 3541.50 0.00000 -3.34309e-12
  60 3541.50 0.00000 5.03877e-13
  61 3541.50 0.00000 -2.04427e-11
  62 3541.50 0.00000 -2.28659e-10
  63 3541.50 0.00000 2.25737e-10
  64 3541.50 0.00000 2.31068e-11
  65 3541.50 0.00000 -9.41435e-12
  66 3541.50 0.00000 -3.69305e-12
</Section>

newXOutput 95

<Section columns = "stress_xx | stress_yy | stress_xy">
  1 3594.23 0.00000 -1.32755e-10
  2 3594.23 0.00000 1.27098e-11
  3 3594.23 0.00000 -1.86907e-12
  4 3594.23 0.00000 1.42337e-10
  5 3594.23 0.00000 -2.46488e-10
  6 3594.23 0.00000 -3.51763e-10
  7 3594.23 0.00000 -3.14986e-10
  8 3594.23 0.00000 -1.73931e-10
  9 3594.23 0.00000 -5.39488e-11
  10 3594.23 0.00000 3.99070e-12
  11 3594.23 0.00000 5.40874e-11
  12 3594.23 0.00000 5.60536e-11
  13 3594.23 0.00000 2.21431e-11
  14 3594.23 0.00000 5.37555e-12
  15 3594.23 0.00000 2.89908e-12
  16 3594.23 0.00000 -1.02688e-12
  17 3594.23 0.00000 -2.48843e-11
  18 3594.23 0.00000 -5.42202e-11
  19 3594.23 0.00000 -6.16408e-11
  20 3594.23 0.00000 -1.45568e-11
  21 3594.23 0.00000 6.88911e-11
  22 3594.23 0.00000 1.76656e-10
  23 3594.23 0.00000 3.13044e-10
  24 3594.23 0.00000 3.55764e-10
  25 3594.23 0.00000 2.48323e-10
  26 3594.23 0.00000 6.46933e-11
  27 3594.23 0.00000 1.54800e-12
  28 3594.23 0.00000 -6.06815e-11
  29 3594.23 0.00000 -3.02929e-12
  30 3594.23 0.00000 -1.65083e-11
  31 3594.23 0.00000 6.10781e-12
  32 3594.23 0.00000 -6.76666e-12
  33 3594.23 0.00000 2.14463e-11
  34 3594.23 0.00000 1.49342e-10
  35 3594.23 0.00000 -1.35791e-10
  36 3594.23 0.00000 -4.42902e-12
  37 3594.23 0.00000 1.25513e-11
  38 3594.23 0.00000 -1.39570e-10
  39 3594.23 0.00000 1.30486e-10
  40 3594.23 0.00000 -1.28103e-11
  41 3594.23 0.00000 3.30811e-11
  42 3594.23 0.00000 -3.60130e-11
  43 3594.23 0.00000 2.74747e-11
  44 3594.23 0.00000 -2.27950e-10
  45 3594.23 0.00000 2.19601e-10
  46 3594.23 0.00000 -7.71038e-11
  47 3594.23 0.00000 -5.05808e-11
  48 3594.23 0.00000 9.41711e-11
  49 3594.23 0.00000 9.32653e-12
  50 3594.23 0.00000 6.58476e-12
  51 3594.23 0.00000 -2.62943e-14
  52 3594.23 0.00000 -5.88197e-12
  53 3594.23 0.00000 -1.85856e-12
  54 3594.23 0.00000 -3.40305e-11
  55 3594.23 0.00000 -1.42994e-10
  56 3594.23 0.00000 -3.56726e-12
  57 3594.23 0.00000 1.77870e-11
  58 3594.23 0.00000 1.53073e-10
  59 3594.23 0.00000 3.96829e-12
  60 3594.23 0.00000 -4.12400e-13
  61 3594.23 0.00000 2.70044e-11
  62 3594.23 0.00000 2.71931e-10
  63 3594.23 0.00000 -2.68473e-10
  64 3594.23 0.00000 -2.79339e-11
  65 3594.23 0.00000 8.91870e-12
  66 3594.23 0.00000 5.19660e-12
</Section>

newXOutput 96

<Section columns = "stress_xx | stress_yy | stress_xy">
  1 3647.15 0.00000 1.57428e-10
  2 3647.15 0.00000 -1.63027e-11
  3 3647.15 0.00000 3.49728e-12
  4 3647.15 0.00000 -1.67296e-10
  5 3647.15 0.00000 2.94666e-10
  6 3647.15 0.00000 4.23198e-10
  7 3647.15 0.00000 3.81277e-10
  8 3647.15 0.00000 2.13819e-10
  9 3647.15 0.00000 6.79013e-11
  10 3647.15 0.00000 -5.04794e-12
  11 3647.15 0.00000 -6.35790e-11
  12 3647.15 0.00000 -6.69271e-11
  13 3647.15 0.00000 -2.69896e-11
  14 3647.15 0.00000 -6.60170e-12
  15 3647.15 0.00000 -3.15390e-12
  16 3647.15 0.00000 1.40641e-12
  17 3647.15 0.00000 3.06322e-11
  18 3647.15 0.00000 6.50903e-11
  19 3647.15 0.00000 7.08772e-11
  20 3647.15 0.00000 1.37617e-11
  21 3647.15 0.00000 -8.59569e-11
  22 3647.15 0.00000 -2.16829e-10
  23 3647.15 0.00000 -3.79408e-10
  24 3647.15 0.00000 -4.27261e-10
  25 3647.15 0.00000 -2.96177e-10
  26 3647.15 0.00000 -7.60608e-11
  27 3647.15 0.00000 -1.67997e-12
  28 3647.15 0.00000 7.16391e-11
  29 3647.15 0.00000 3.97963e-12
  30 3647.15 0.00000 1.90198e-11
  31 3647.15 0.00000 -7.88041e-12
  32 3647.15 0.00000 8.23546e-12
  33 3647.15 0.00000 -2.63206e-11
  34 3647.15 0.00000 -1.77320e-10
  35 3647.15 0.00000 1.61888e-10
  36 3647.15 0.00000 6.98705e-12
  37 3647.15 0.00000 -1.39512e-11
  38 3647.15 0.00000 1.69520e-10
  39 3647.15 0.00000 -1.59859e-10
  40 3647.15 0.00000 1.66467e-11
  41 3647.15 0.00000 -4.04247e-11
  42 3647.15 0.00000 4.17617e-11
  43 3647.15 0.00000 -3.25525e-11
  44 3647.15 0.00000 2.73062e-10
  45 3647.15 0.00000 -2.63680e-10
  46 3647.15 0.00000 9.54340e-11
  47 3647.15 0.00000 5.89921e-11
  48 3647.15 0.00000 -1.15544e-10
  49 3647.15 0.00000 -1.04855e-11
  50 3647.15 0.00000 -7.57592e-12
  51 3647.15 0.00000 -5.17729e-13
  52 3647.15 0.00000 6.27881e-12
  53 3647.15 0.00000 2.77929e-12
  54 3647.15 0.00000 3.83171e-11
  55 3647.15 0.00000 1.69997e-10
  56 3647.15 0.00000 5.15518e-12
  57 3647.15 0.00000 -2.15295e-11
  58 3647.15 0.00000 -1.81013e-10
  59 3647.15 0.00000 -4.50028e-12
  60 3647.15 0.00000 3.18367e-13
  61 3647.15 0.00000 -3.31892e-11
  62 3647.15 0.00000 -3.24196e-10
  63 3647.15 0.00000 3.21062e-10
  64 3647.15 0.00000 3.44616e-11
  65 3647.15 0.00000 -9.59837e-12
  66 3647.15 0.00000 -8.11684e-12
</Section>

newXOutput 97

<Section columns = "stress_xx | stress_yy | stress_xy">
  1 3700.27 0.00000 -1.85521e-10
  2 3700.27 0.00000 1.97672e-11
  3 3700.27 0.00000 -5.79055e-12
  4 3700.27 0.00000 1.96855e-10
  5 3700.27 0.00000 -3.50788e-10
  6 3700.27 0.00000 -5.08585e-10
  7 3700.27 0.00000 -4.61895e-10
  8 3700.27 0.00000 -2.62445e-10
  9 3700.27 0.00000 -8.59095e-11
  10 3700.27 0.00000 5.79703e-13
  11 3700.27 0.00000 7.32043e-11
  12 3700.27 0.00000 7.98101e-11
  13 3700.27 0.00000 3.37700e-11
  14 3700.27 0.00000 8.49064e-12
  15 3700.27 0.00000 3.48166e-12
  16 3700.27 0.00000 -2.97047e-12
  17 3700.27 0.00000 -3.77155e-11
  18 3700.27 0.00000 -7.79992e-11
  19 3700.27 0.00000 -8.28893e-11
  20 3700.27 0.00000 -1.44715e-11
  21 3700.27 0.00000 1.06821e-10
  22 3700.27 0.00000 2.65402e-10
  23 3700.27 0.00000 4.59912e-10
  24 3700.27 0.00000 5.13943e-10
  25 3700.27 0.00000 3.53456e-10
  26 3700.27 0.00000 8.92629e-11
  27 3700.27 0.00000 1.16618e-12
  28 3700.27 0.00000 -8.51426e-11
  29 3700.27 0.00000 -5.30541e-12
  30 3700.27 0.00000 -2.24334e-11
  31 3700.27 0.00000 9.24603e-12
  32 3700.27 0.00000 -9.62574e-12
  33 3700.27 0.00000 3.16402e-11
  34 3700.27 0.00000 2.12025e-10
  35 3700.27 0.00000 -1.96253e-10
  36 3700.27 0.00000 -1.02057e-11
  37 3700.27 0.00000 1.58148e-11
  38 3700.27 0.00000 -2.07270e-10
  39 3700.27 0.00000 1.95607e-10
  40 3700.27 0.00000 -2.18913e-11
  41 3700.27 0.00000 5.00780e-11
  42 3700.27 0.00000 -4.92210e-11
  43 3700.27 0.00000 3.96474e-11
  44 3700.27 0.00000 -3.28948e-10
  45 3700.27 0.00000 3.17707e-10
  46 3700.27 0.00000 -1.18794e-10
  47 3700.27 0.00000 -6.94026e-11
  48 3700.27 0.00000 1.41915e-10
  49 3700.27 0.00000 1.15796e-11
  50 3700.27 0.00000 7.81477e-12
  51 3700.27 0.00000 -1.18666e-13
  52 3700.27 0.00000 -7.42043e-12
  53 3700.27 0.00000 -3.92061e-12
  54 3700.27 0.00000 -4.48742e-11
  55 3700.27 0.00000 -2.02447e-10
  56 3700.27 0.00000 -8.01445e-12
  57 3700.27 0.00000 2.64435e-11
  58 3700.27 0.00000 2.14810e-10
  59 3700.27 0.00000 3.92904e-12
  60 3700.27 0.00000 -1.07330e-12
  61 3700.27 0.00000 4.16429e-11
  62 3700.27 0.00000 3.87849e-10
  63 3700.27 0.00000 -3.84114e-10
  64 3700.27 0.00000 -4.23748e-11
  65 3700.27 0.00000 8.42012e-12
  66 3700.27 0.00000 1.13368e-11
</Section>

newXOutput 98

<Section columns = "stress_xx | stress_yy | stress_xy">
  1 3753.58 0.00000 2.19731e-10
  2 3753.58 0.00000 -2.28047e-11
  3 3753.58 0.00000 7.56050e-12
  4 3753.58 0.00000 -2.32182e-10
  5 3753.58 0.00000 4.19564e-10
  6 3753.58 0.00000 6.13203e-10
  7 3753.58 0.00000 5.61351e-10
  8 3753.58 0.00000 3.23153e-10
  9 3753.58 0.00000 1.09902e-10
  10 3753.58 0.00000 3.76330e-12
  11 3753.58 0.00000 -8.47646e-11
  12 3753.58 0.00000 -9.50539e-11
  13 3753.58 0.00000 -4.09834e-11
  14 3753.58 0.00000 -1.05196e-11
  15 3753.58 0.00000 -3.47300e-12
  16 3753.58 0.00000 4.00101e-12
  17 3753.58 0.00000 4.79781e-11
  18 3753.58 0.00000 9.39585e-11
  19 3753.58 0.00000 9.76908e-11
  20 3753.58 0.00000 1.35999e-11
  21 3753.58 0.00000 -1.33616e-10
  22 3753.58 0.00000 -3.25086e-10
  23 3753.58 0.00000 -5.58156e-10
  24 3753.58 0.00000 -6.18357e-10
  25 3753.58 0.00000 -4.22490e-10
  26 3753.58 0.00000 -1.05655e-10
  27 3753.58 0.00000 -1.91922e-12
  28 3753.58 0.00000 1.00633e-10
  29 3753.58 0.00000 6.15064e-12
  30 3753.58 0.00000 2.55798e-11
  31 3753.58 0.00000 -1.11979e-11
  32 3753.58 0.00000 9.05204e-12
  33 3753.58 0.00000 -3.95986e-11
  34 3753.58 0.00000 -2.53116e-10
  35 3753.58 0.00000 2.35715e-10
  36 3753.58 0.00000 1.36539e-11
  37 3753.58 0.00000 -1.79257e-11
  38 3753.58 0.00000 2.53068e-10
  39 3753.58 0.00000 -2.39541e-10
  40 3753.58 0.00000 2.91685e-11
  41 3753.58 0.00000 -6.32759e-11
  42 3753.58 0.00000 5.73038e-11
  43 3753.58 0.00000 -4.73597e-11
  44 3753.58 0.00000 3.95666e-10
  45 3753.58 0.00000 -3.82575e-10
  46 3753.58 0.00000 1.48016e-10
  47 3753.58 0.00000 8.18422e-11
  48 3753.58 0.00000 -1.75048e-10
  49 3753.58 0.00000 -1.37314e-11
  50 3753.58 0.00000 -8.87745e-12
  51 3753.58 0.00000 -9.55780e-13
  52 3753.58 0.00000 8.03498e-12
  53 3753.58 0.00000 3.31301e-12
  54 3753.58 0.00000 5.10600e-11
  55 3753.58 0.00000 2.41719e-10
  56 3753.58 0.00000 1.16578e-11
  57 3753.58 0.00000 -3.20563e-11
  58 3753.58 0.00000 -2.55595e-10
  59 3753.58 0.00000 -4.27396e-12
  60 3753.58 0.00000 1.74844e-13
  61 3753.58 0.00000 -5.03402e-11
  62 3753.58 0.00000 -4.64819e-10
  63 3753.58 0.00000 4.60781e-10
  64 3753.58 0.00000 5.27264e-11
  65 3753.58 0.00000 -5.85013e-12
  66 3753.58 0.00000 -1.80836e-11
</Section>

newXOutput 99

<Section columns = "stress_xx | stress_yy | stress_xy">
  1 3807.09 0.00000 -2.61338e-10
  2 3807.09 0.00000 2.96991e-11
  3 3807.09 0.00000 -1.04820e-11
  4 3807.09 0.00000 2.76061e-10
  5 3807.09 0.00000 -5.03018e-10
  6 3807.09 0.00000 -7.40003e-10
  7 3807.09 0.00000 -6.82026e-10
  8 3807.09 0.00000 -3.97158e-10
  9 3807.09 0.00000 -1.37201e-10
  10 3807.09 0.00000 -3.79762e-12
  11 3807.09 0.00000 9.89976e-11
  12 3807.09 0.00000 1.13910e-10
  13 3807.09 0.00000 5.33491e-11
  14 3807.09 0.00000 1.27802e-11
  15 3807.09 0.00000 2.99009e-12
  16 3807.09 0.00000 -5.48936e-12
  17 3807.09 0.00000 -5.82269e-11
  18 3807.09 0.00000 -1.12754e-10
  19 3807.09 0.00000 -1.13717e-10
  20 3807.09 0.00000 -1.10055e-11
  21 3807.09 0.00000 1.66891e-10
  22 3807.09 0.00000 4.00466e-10
  23 3807.09 0.00000 6.80053e-10
  24 3807.09 0.00000 7.47319e-10
  25 3807.09 0.00000 5.07472e-10
  26 3807.09 0.00000 1.25357e-10
  27 3807.09 0.00000 2.33281e-12
  28 3807.09 0.00000 -1.19423e-10
  29 3807.09 0.00000 -7.78191e-12
  30 3807.09 0.00000 -2.95484e-11
  31 3807.09 0.00000 1.31452e-11
  32 3807.09 0.00000 -8.69798e-12
  33 3807.09 0.00000 4.77761e-11
  34 3807.09 0.00000 3.02954e-10
  35 3807.09 0.00000 -2.84853e-10
  36 3807.09 0.00000 -1.87910e-11
  37 3807.09 0.00000 1.83423e-11
  38 3807.09 0.00000 -3.10252e-10
  39 3807.09 0.00000 2.94894e-10
  40 3807.09 0.00000 -3.95193e-11
  41 3807.09 0.00000 7.94825e-11
  42 3807.09 0.00000 -6.74756e-11
  43 3807.09 0.00000 5.75014e-11
  44 3807.09 0.00000 -4.78021e-10
  45 3807.09 0.00000 4.62824e-10
  46 3807.09 0.00000 -1.83578e-10
  47 3807.09 0.00000 -9.69005e-11
  48 3807.09 0.00000 2.17017e-10
  49 3807.09 0.00000 1.48978e-11
  50 3807.09 0.00000 9.59231e-12
  51 3807.09 0.00000 2.06642e-13
  52 3807.09 0.00000 -9.68213e-12
  53 3807.09 0.00000 -4.61659e-12
  54 3807.09 0.00000 -5.66830e-11
  55 3807.09 0.00000 -2.89140e-10
  56 3807.09 0.00000 -1.57204e-11
  57 3807.09 0.00000 4.04741e-11
  58 3807.09 0.00000 3.04677e-10
  59 3807.09 0.00000 3.97385e-12
  60 3807.09 0.00000 -3.48546e-13
  61 3807.09 0.00000 6.36934e-11
  62 3807.09 0.00000 5.58221e-10
  63 3807.09 0.00000 -5.53479e-10
  64 3807.09 0.00000 -6.50482e-11
  65 3807.09 0.00000 3.02761e-12
  66 3807.09 0.00000 2.68008e-11
</Section>

newXOutput 100

<Section columns = "stress_xx | stress_yy | stress_xy">
  1 3860.80 0.00000 3.12697e-10
  2 3860.80 0.00000 -3.70592e-11
  3 3860.80 0.00000 1.47999e-11
  4 3860.80 0.00000 -3.29902e-10
  5 3860.80 0.00000 6.06384e-10
  6 3860.80 0.00000 8.97325e-10
  7 3860.80 0.00000 8.33218e-10
  8 3860.80 0.00000 4.90216e-10
  9 3860.80 0.00000 1.73070e-10
  10 3860.80 0.00000 1.03815e-11
  11 3860.80 0.00000 -1.16698e-10
  12 3860.80 0.00000 -1.38443e-10
  13 3860.80 0.00000 -6.60137e-11
  14 3860.80 0.00000 -1.56971e-11
  15 3860.80 0.00000 -2.77916e-12
  16 3860.80 0.00000 7.21920e-12
  17 3860.80 0.00000 7.24755e-11
  18 3860.80 0.00000 1.35022e-10
  19 3860.80 0.00000 1.33863e-10
  20 3860.80 0.00000 7.89448e-12
  21 3860.80 0.00000 -2.08808e-10
  22 3860.80 0.00000 -4.95336e-10
  23 3860.80 0.00000 -8.30659e-10
  24 3860.80 0.00000 -9.04011e-10
  25 3860.80 0.00000 -6.10858e-10
  26 3860.80 0.00000 -1.49125e-10
  27 3860.80 0.00000 -2.26277e-12
  28 3860.80 0.00000 1.42167e-10
  29 3860.80 0.00000 8.51155e-12
  30 3860.80 0.00000 3.45512e-11
  31 3860.80 0.00000 -1.61944e-11
  32 3860.80 0.00000 8.91122e-12
  33 3860.80 0.00000 -5.68253e-11
  34 3860.80 0.00000 -3.64945e-10
  35 3860.80 0.00000 3.43678e-10
  36 3860.80 0.00000 2.59481e-11
  37 3860.80 0.00000 -1.93089e-11
  38 3860.80 0.00000 3.80722e-10
  39 3860.80 0.00000 -3.63780e-10
  40 3860.80 0.00000 5.21526e-11
  41 3860.80 0.00000 -9.95178e-11
  42 3860.80 0.00000 8.00547e-11
  43 3860.80 0.00000 -6.93456e-11
  44 3860.80 0.00000 5.78289e-10
  45 3860.80 0.00000 -5.61306e-10
  46 3860.80 0.00000 2.28620e-10
  47 3860.80 0.00000 1.15502e-10
  48 3860.80 0.00000 -2.68827e-10
  49 3860.80 0.00000 -1.70724e-11
  50 3860.80 0.00000 -1.09314e-11
  51 3860.80 0.00000 -4.18111e-13
  52 3860.80 0.00000 1.01153e-11
  53 3860.80 0.00000 6.06937e-12
  54 3860.80 0.00000 6.56169e-11
  55 3860.80 0.00000 3.47078e-10
  56 3860.80 0.00000 2.16532e-11
  57 3860.80 0.00000 -4.85520e-11
  58 3860.80 0.00000 -3.64956e-10
  59 3860.80 0.00000 -4.80060e-12
  60 3860.80 0.00000 3.65271e-13
  61 3860.80 0.00000 -7.79598e-11
  62 3860.80 0.00000 -6.73224e-10
  63 3860.80 0.00000 6.68112e-10
  64 3860.80 0.00000 8.15651e-11
  65 3860.80 0.00000 1.30993e-12
  66 3860.80 0.00000 -3.64017e-11
</Section>

newXOutput 101

<Section columns = "stress_xx | stress_yy | stress_xy">
  1 3914.71 0.00000 -3.74607e-10
  2 3914.71 0.00000 4.61459e-11
  3 3914.71 0.00000 -2.09685e-11
  4 3914.71 0.00000 3.93826e-10
  5 3914.71 0.00000 -7.31318e-10
  6 3914.71 0.00000 -1.08919e-09
  7 3914.71 0.00000 -1.01802e-09
  8 3914.71 0.00000 -6.07038e-10
  9 3914.71 0.00000 -2.19326e-10
  10 3914.71 0.00000 -2.12110e-11
  11 3914.71 0.00000 1.35511e-10
  12 3914.71 0.00000 1.66754e-10
  13 3914.71 0.00000 8.31434e-11
  14 3914.71 0.00000 1.87561e-11
  15 3914.71 0.00000 3.00326e-12
  16 3914.71 0.00000 -9.96856e-12
  17 3914.71 0.00000 -8.99596e-11
  18 3914.71 0.00000 -1.64528e-10
  19 3914.71 0.00000 -1.58530e-10
  20 3914.71 0.00000 -3.44101e-12
  21 3914.71 0.00000 2.62283e-10
  22 3914.71 0.00000 6.12149e-10
  23 3914.71 0.00000 1.01479e-09
  24 3914.71 0.00000 1.09644e-09
  25 3914.71 0.00000 7.37046e-10
  26 3914.71 0.00000 1.78236e-10
  27 3914.71 0.00000 2.90248e-12
  28 3914.71 0.00000 -1.70433e-10
  29 3914.71 0.00000 -9.41575e-12
  30 3914.71 0.00000 -4.00840e-11
  31 3914.71 0.00000 2.01552e-11
  32 3914.71 0.00000 -6.82947e-12
  33 3914.71 0.00000 6.93081e-11
  34 3914.71 0.00000 4.41097e-10
  35 3914.71 0.00000 -4.16270e-10
  36 3914.71 0.00000 -3.36940e-11
  37 3914.71 0.00000 1.99096e-11
  38 3914.71 0.00000 -4.67136e-10
  39 3914.71 0.00000 4.47864e-10
  40 3914.71 0.00000 -6.71824e-11
  41 3914.71 0.00000 1.25628e-10
  42 3914.71 0.00000 -9.33534e-11
  43 3914.71 0.00000 8.44637e-11
  44 3914.71 0.00000 -7.00791e-10
  45 3914.71 0.00000 6.82015e-10
  46 3914.71 0.00000 -2.84402e-10
  47 3914.71 0.00000 -1.38229e-10
  48 3914.71 0.00000 3.33699e-10
  49 3914.71 0.00000 1.88409e-11
  50 3914.71 0.00000 1.25158e-11
  51 3914.71 0.00000 -2.25813e-13
  52 3914.71 0.00000 -1.07985e-11
  53 3914.71 0.00000 -7.13727e-12
  54 3914.71 0.00000 -7.42176e-11
  55 3914.71 0.00000 -4.18083e-10
  56 3914.71 0.00000 -2.81500e-11
  57 3914.71 0.00000 5.93538e-11
  58 3914.71 0.00000 4.38192e-10
  59 3914.71 0.00000 6.27243e-12
  60 3914.71 0.00000 -3.69445e-13
  61 3914.71 0.00000 9.78734e-11
  62 3914.71 0.00000 8.13416e-10
  63 3914.71 0.00000 -8.07032e-10
  64 3914.71 0.00000 -1.01295e-10
  65 3914.71 0.00000 -8.25564e-12
  66 3914.71 0.00000 5.05021e-11
</Section>

newXOutput 102

<Section columns = "stress_xx | stress_yy | stress_xy">
  1 3968.82 0.00000 4.51365e-10
  2 3968.82 0.00000 -5.71462e-11
  3 3968.82 0.00000 2.90090e-11
  4 3968.82 0.00000 -4.71930e-10
  5 3968.82 0.00000 8.85639e-10
  6 3968.82 0.00000 1.32496e-09
  7 3968.82 0.00000 1.24637e-09
  8 3968.82 0.00000 7.51046e-10
  9 3968.82 0.00000 2.76539e-10
  10 3968.82 0.00000 3.56376e-11
  11 3968.82 0.00000 -1.57113e-10
  12 3968.82 0.00000 -2.00679e-10
  13 3968.82 0.00000 -1.01244e-10
  14 3968.82 0.00000 -2.39431e-11
  15 3968.82 0.00000 -3.46858e-12
  16 3968.82 0.00000 1.31673e-11
  17 3968.82 0.00000 1.13431e-10
  18 3968.82 0.00000 1.99200e-10
  19 3968.82 0.00000 1.85085e-10
  20 3968.82 0.00000 -5.31349e-12
  21 3968.82 0.00000 -3.30216e-10
  22 3968.82 0.00000 -7.57947e-10
  23 3968.82 0.00000 -1.24261e-09
  24 3968.82 0.00000 -1.33296e-09
  25 3968.82 0.00000 -8.91627e-10
  26 3968.82 0.00000 -2.13477e-10
  27 3968.82 0.00000 -3.61920e-12
  28 3968.82 0.00000 2.04353e-10
  29 3968.82 0.00000 1.02782e-11
  30 3968.82 0.00000 4.64773e-11
  31 3968.82 0.00000 -2.31336e-11
  32 3968.82 0.00000 3.82020e-12
  33 3968.82 0.00000 -8.42113e-11
  34 3968.82 0.00000 -5.32832e-10
  35 3968.82 0.00000 5.05183e-10
  36 3968.82 0.00000 4.23751e-11
  37 3968.82 0.00000 -1.90026e-11
  38 3968.82 0.00000 5.76515e-10
  39 3968.82 0.00000 -5.52580e-10
  40 3968.82 0.00000 8.82321e-11
  41 3968.82 0.00000 -1.57831e-10
  42 3968.82 0.00000 1.09510e-10
  43 3968.82 0.00000 -1.01809e-10
  44 3968.82 0.00000 8.51112e-10
  45 3968.82 0.00000 -8.29682e-10
  46 3968.82 0.00000 3.55701e-10
  47 3968.82 0.00000 1.63935e-10
  48 3968.82 0.00000 -4.14653e-10
  49 3968.82 0.00000 -2.20349e-11
  50 3968.82 0.00000 -1.43127e-11
  51 3968.82 0.00000 8.40655e-13
  52 3968.82 0.00000 1.24982e-11
  53 3968.82 0.00000 9.44188e-12
  54 3968.82 0.00000 8.21818e-11
  55 3968.82 0.00000 5.05080e-10
  56 3968.82 0.00000 3.75323e-11
  57 3968.82 0.00000 -7.23833e-11
  58 3968.82 0.00000 -5.27372e-10
  59 3968.82 0.00000 -7.60817e-12
  60 3968.82 0.00000 -6.84580e-13
  61 3968.82 0.00000 -1.19649e-10
  62 3968.82 0.00000 -9.84448e-10
  63 3968.82 0.00000 9.78118e-10
  64 3968.82 0.00000 1.25898e-10
  65 3968.82 0.00000 1.94935e-11
  66 3968.82 0.00000 -7.02528e-11
</Section>

newXOutput 103

<Section columns = "stress_xx | stress_yy | stress_xy">
  1 4023.13 0.00000 -5.44197e-10
  2 4023.13 0.00000 7.07994e-11
  3 4023.13 0.00000 -3.82656e-11
  4 4023.13 0.00000 5.67756e-10
  5 4023.13 0.00000 -1.07360e-09
  6 4023.13 0.00000 -1.61422e-09
  7 4023.13 0.00000 -1.52880e-09
  8 4023.13 0.00000 -9.33384e-10
  9 4023.13 0.00000 -3.51609e-10
  10 4023.13 0.00000 -5.59405e-11
  11 4023.13 0.00000 1.82243e-10
  12 4023.13 0.00000 2.42920e-10
  13 4023.13 0.00000 1.27903e-10
  14 4023.13 0.00000 3.01218e-11
  15 4023.13 0.00000 3.67859e-12
  16 4023.13 0.00000 -1.67742e-11
  17 4023.13 0.00000 -1.40444e-10
  18 4023.13 0.00000 -2.40492e-10
  19 4023.13 0.00000 -2.16542e-10
  20 4023.13 0.00000 1.89239e-11
  21 4023.13 0.00000 4.16477e-10
  22 4023.13 0.00000 9.40674e-10
  23 4023.13 0.00000 1.52507e-09
  24 4023.13 0.00000 1.62306e-09
  25 4023.13 0.00000 1.08023e-09
  26 4023.13 0.00000 2.56407e-10
  27 4023.13 0.00000 3.71132e-12
  28 4023.13 0.00000 -2.46532e-10
  29 4023.13 0.00000 -1.24706e-11
  30 4023.13 0.00000 -5.33085e-11
  31 4023.13 0.00000 2.86435e-11
  32 4023.13 0.00000 1.71387e-12
  33 4023.13 0.00000 1.02032e-10
  34 4023.13 0.00000 6.46184e-10
  35 4023.13 0.00000 -6.14564e-10
  36 4023.13 0.00000 -5.50799e-11
  37 4023.13 0.00000 1.88544e-11
  38 4023.13 0.00000 -7.11088e-10
  39 4023.13 0.00000 6.83827e-10
  40 4023.13 0.00000 -1.15750e-10
  41 4023.13 0.00000 2.01017e-10
  42 4023.13 0.00000 -1.27445e-10
  43 4023.13 0.00000 1.23916e-10
  44 4023.13 0.00000 -1.03532e-09
  45 4023.13 0.00000 1.01091e-09
  46 4023.13 0.00000 -4.46309e-10
  47 4023.13 0.00000 -1.95293e-10
  48 4023.13 0.00000 5.18199e-10
  49 4023.13 0.00000 2.51787e-11
  50 4023.13 0.00000 1.59965e-11
  51 4023.13 0.00000 -1.15806e-12
  52 4023.13 0.00000 -1.42240e-11
  53 4023.13 0.00000 -1.06856e-11
  54 4023.13 0.00000 -8.97032e-11
  55 4023.13 0.00000 -6.11486e-10
  56 4023.13 0.00000 -4.88986e-11
  57 4023.13 0.00000 8.94580e-11
  58 4023.13 0.00000 6.36531e-10
  59 4023.13 0.00000 8.35310e-12
  60 4023.13 0.00000 1.07622e-12
  61 4023.13 0.00000 1.48858e-10
  62 4023.13 0.00000 1.19410e-09
  63 4023.13 0.00000 -1.18680e-09
  64 4023.13 0.00000 -1.56011e-10
  65 4023.13 0.00000 -3.41054e-11
  66 4023.13 0.00000 9.65894e-11
</Section>

newXOutput 104

<Section columns = "stress_xx | stress_yy | stress_xy">
  1 4077.65 0.00000 6.57418e-10
  2 4077.65 0.00000 -8.67832e-11
  3 4077.65 0.00000 4.85678e-11
  4 4077.65 0.00000 -6.83207e-10
  5 4077.65 0.00000 1.30346e-09
  6 4077.65 0.00000 1.96946e-09
  7 4077.65 0.00000 1.87886e-09
  8 4077.65 0.00000 1.16217e-09
  9 4077.65 0.00000 4.47319e-10
  10 4077.65 0.00000 8.33950e-11
  11 4077.65 0.00000 -2.12086e-10
  12 4077.65 0.00000 -2.94056e-10
  13 4077.65 0.00000 -1.57759e-10
  14 4077.65 0.00000 -3.71235e-11
  15 4077.65 0.00000 -3.70569e-12
  16 4077.65 0.00000 2.19428e-11
  17 4077.65 0.00000 1.72745e-10
  18 4077.65 0.00000 2.91455e-10
  19 4077.65 0.00000 2.54257e-10
  20 4077.65 0.00000 -3.85029e-11
  21 4077.65 0.00000 -5.28204e-10
  22 4077.65 0.00000 -1.16960e-09
  23 4077.65 0.00000 -1.87478e-09
  24 4077.65 0.00000 -1.98118e-09
  25 4077.65 0.00000 -1.31214e-09
  26 4077.65 0.00000 -3.08357e-10
  27 4077.65 0.00000 -4.17788e-12
  28 4077.65 0.00000 2.97472e-10
  29 4077.65 0.00000 1.45015e-11
  30 4077.65 0.00000 6.19248e-11
  31 4077.65 0.00000 -3.51276e-11
  32 4077.65 0.00000 -1.00723e-11
  33 4077.65 0.00000 -1.24702e-10
  34 4077.65 0.00000 -7.84670e-10
  35 4077.65 0.00000 7.50675e-10
  36 4077.65 0.00000 7.15547e-11
  37 4077.65 0.00000 -1.56760e-11
  38 4077.65 0.00000 8.79203e-10
  39 4077.65 0.00000 -8.47083e-10
  40 4077.65 0.00000 1.51978e-10
  41 4077.65 0.00000 -2.55832e-10
  42 4077.65 0.00000 1.49467e-10
  43 4077.65 0.00000 -1.50403e-10
  44 4077.65 0.00000 1.26312e-09
  45 4077.65 0.00000 -1.23479e-09
  46 4077.65 0.00000 5.60945e-10
  47 4077.65 0.00000 2.34973e-10
  48 4077.65 0.00000 -6.49142e-10
  49 4077.65 0.00000 -2.87451e-11
  50 4077.65 0.00000 -1.80006e-11
  51 4077.65 0.00000 1.30665e-12
  52 4077.65 0.00000 1.61334e-11
  53 4077.65 0.00000 1.18683e-11
  54 4077.65 0.00000 9.75843e-11
  55 4077.65 0.00000 7.42092e-10
  56 4077.65 0.00000 6.29636e-11
  57 4077.65 0.00000 -1.09276e-10
  58 4077.65 0.00000 -7.69718e-10
  59 4077.65 0.00000 -9.22578e-12
  60 4077.65 0.00000 -1.87191e-12
  61 4077.65 0.00000 -1.84200e-10
  62 4077.65 0.00000 -1.45167e-09
  63 4077.65 0.00000 1.44388e-09
  64 4077.65 0.00000 1.93996e-10
  65 4077.65 0.00000 5.53921e-11
  66 4077.65 0.00000 -1.32115e-10
</Section>

newXOutput 105

<Section columns = "stress_xx | stress_yy | stress_xy">
  1 4132.37 0.00000 -7.97706e-10
  2 4132.37 0.00000 1.08286e-10
  3 4132.37 0.00000 -6.37681e-11
  4 4132.37 0.00000 8.25969e-10
  5 4132.37 0.00000 -1.59057e-09
  6 4132.37 0.00000 -2.41148e-09
  7 4132.37 0.00000 -2.31434e-09
  8 4132.37 0.00000 -1.44788e-09
  9 4132.37 0.00000 -5.68056e-10
  10 4132.37 0.00000 -1.20462e-10
  11 4132.37 0.00000 2.45844e-10
  12 4132.37 0.00000 3.58165e-10
  13 4132.37 0.00000 1.97279e-10
  14 4132.37 0.00000 4.59444e-11
  15 4132.37 0.00000 3.25737e-12
  16 4132.37 0.00000 -2.87886e-11
  17 4132.37 0.00000 -2.14072e-10
  18 4132.37 0.00000 -3.55037e-10
  19 4132.37 0.00000 -2.98766e-10
  20 4132.37 0.00000 6.56614e-11
  21 4132.37 0.00000 6.66461e-10
  22 4132.37 0.00000 1.45603e-09
  23 4132.37 0.00000 2.30897e-09
  24 4132.37 0.00000 2.42378e-09
  25 4132.37 0.00000 1.59848e-09
  26 4132.37 0.00000 3.72071e-10
  27 4132.37 0.00000 4.46140e-12
  28 4132.37 0.00000 -3.60280e-10
  29 4132.37 0.00000 -1.72921e-11
  30 4132.37 0.00000 -7.31646e-11
  31 4132.37 0.00000 4.24049e-11
  32 4132.37 0.00000 2.14005e-11
  33 4132.37 0.00000 1.50576e-10
  34 4132.37 0.00000 9.55384e-10
  35 4132.37 0.00000 -9.16967e-10
  36 4132.37 0.00000 -9.10173e-11
  37 4132.37 0.00000 9.71768e-12
  38 4132.37 0.00000 -1.08934e-09
  39 4132.37 0.00000 1.05082e-09
  40 4132.37 0.00000 -1.99644e-10
  41 4132.37 0.00000 3.24704e-10
  42 4132.37 0.00000 -1.75226e-10
  43 4132.37 0.00000 1.82190e-10
  44 4132.37 0.00000 -1.54424e-09
  45 4132.37 0.00000 1.51085e-09
  46 4132.37 0.00000 -7.04916e-10
  47 4132.37 0.00000 -2.81868e-10
  48 4132.37 0.00000 8.12354e-10
  49 4132.37 0.00000 3.27290e-11
  50 4132.37 0.00000 2.01422e-11
  51 4132.37 0.00000 -2.14201e-12
  52 4132.37 0.00000 -1.85293e-11
  53 4132.37 0.00000 -1.47572e-11
  54 4132.37 0.00000 -1.05208e-10
  55 4132.37 0.00000 -9.03040e-10
  56 4132.37 0.00000 -8.06525e-11
  57 4132.37 0.00000 1.33774e-10
  58 4132.37 0.00000 9.33978e-10
  59 4132.37 0.00000 9.49062e-12
  60 4132.37 0.00000 2.26150e-12
  61 4132.37 0.00000 2.26923e-10
  62 4132.37 0.00000 1.76996e-09
  63 4132.37 0.00000 -1.76165e-09
  64 4132.37 0.00000 -2.39550e-10
  65 4132.37 0.00000 -8.53197e-11
  66 4132.37 0.00000 1.77339e-10
</Section>

newXOutput 106

<Section columns = "stress_xx | stress_yy | stress_xy">
  1 4187.30 0.00000 9.69973e-10
  2 4187.30 0.00000 -1.34246e-10
  3 4187.30 0.00000 8.17440e-11
  4 4187.30 0.00000 -1.00180e-09
  5 4187.30 0.00000 1.94413e-09
  6 4187.30 0.00000 2.96072e-09
  7 4187.30 0.00000 2.85929e-09
  8 4187.30 0.00000 1.81125e-09
  9 4187.30 0.00000 7.26431e-10
  10 4187.30 0.00000 1.71045e-10
  11 4187.30 0.00000 -2.84687e-10
  12 4187.30 0.00000 -4.33376e-10
  13 4187.30 0.00000 -2.44179e-10
  14 4187.30 0.00000 -5.73116e-11
  15 4187.30 0.00000 -3.75730e-12
  16 4187.30 0.00000 3.74044e-11
  17 4187.30 0.00000 2.64461e-10
  18 4187.30 0.00000 4.30239e-10
  19 4187.30 0.00000 3.51950e-10
  20 4187.30 0.00000 -1.03510e-10
  21 4187.30 0.00000 -8.46449e-10
  22 4187.30 0.00000 -1.81599e-09
  23 4187.30 0.00000 -2.85174e-09
  24 4187.30 0.00000 -2.97394e-09
  25 4187.30 0.00000 -1.95211e-09
  26 4187.30 0.00000 -4.51150e-10
  27 4187.30 0.00000 -4.70535e-12
  28 4187.30 0.00000 4.37396e-10
  29 4187.30 0.00000 2.00702e-11
  30 4187.30 0.00000 8.53948e-11
  31 4187.30 0.00000 -5.25650e-11
  32 4187.30 0.00000 -3.67595e-11
  33 4187.30 0.00000 -1.83490e-10
  34 4187.30 0.00000 -1.16766e-09
  35 4187.30 0.00000 1.12433e-09
  36 4187.30 0.00000 1.16408e-10
  37 4187.30 0.00000 2.78082e-13
  38 4187.30 0.00000 1.35416e-09
  39 4187.30 0.00000 -1.30690e-09
  40 4187.30 0.00000 2.61952e-10
  41 4187.30 0.00000 -4.14280e-10
  42 4187.30 0.00000 2.06154e-10
  43 4187.30 0.00000 -2.19992e-10
  44 4187.30 0.00000 1.89360e-09
  45 4187.30 0.00000 -1.85502e-09
  46 4187.30 0.00000 8.89649e-10
  47 4187.30 0.00000 3.38229e-10
  48 4187.30 0.00000 -1.01974e-09
  49 4187.30 0.00000 -3.66219e-11
  50 4187.30 0.00000 -2.30517e-11
  51 4187.30 0.00000 3.51131e-12
  52 4187.30 0.00000 2.04495e-11
  53 4187.30 0.00000 1.87073e-11
  54 4187.30 0.00000 1.12160e-10
  55 4187.30 0.00000 1.10233e-09
  56 4187.30 0.00000 1.03567e-10
  57 4187.30 0.00000 -1.64980e-10
  58 4187.30 0.00000 -1.13720e-09
  59 4187.30 0.00000 -1.06416e-11
  60 4187.30 0.00000 -2.20564e-12
  61 4187.30 0.00000 -2.79959e-10
  62 4187.30 0.00000 -2.16385e-09
  63 4187.30 0.00000 2.15561e-09
  64 4187.30 0.00000 2.94671e-10
  65 4187.30 0.00000 1.28217e-10
  66 4187.30 0.00000 -2.39047e-10
</Section>

newXOutput 107

<Section columns = "stress_xx | stress_yy | stress_xy">
  1 4242.44 0.00000 -1.18294e-09
  2 4242.44 0.00000 1.65841e-10
  3 4242.44 0.00000 -1.06018e-10
  4 4242.44 0.00000 1.21831e-09
  5 4242.44 0.00000 -2.38173e-09
  6 4242.44 0.00000 -3.64046e-09
  7 4242.44 0.00000 -3.53690e-09
  8 4242.44 0.00000 -2.26487e-09
  9 4242.44 0.00000 -9.26227e-10
  10 4242.44 0.00000 -2.41052e-10
  11 4242.44 0.00000 3.29138e-10
  12 4242.44 0.00000 5.28459e-10
  13 4242.44 0.00000 3.04322e-10
  14 4242.44 0.00000 7.10597e-11
  15 4242.44 0.00000 3.16106e-12
  16 4242.44 0.00000 -4.75899e-11
  17 4242.44 0.00000 -3.25852e-10
  18 4242.44 0.00000 -5.20632e-10
  19 4242.44 0.00000 -4.13260e-10
  20 4242.44 0.00000 1.57238e-10
  21 4242.44 0.00000 1.07595e-09
  22 4242.44 0.00000 2.27151e-09
  23 4242.44 0.00000 3.52956e-09
  24 4242.44 0.00000 3.65724e-09
  25 4242.44 0.00000 2.39150e-09
  26 4242.44 0.00000 5.47936e-10
  27 4242.44 0.00000 5.16018e-12
  28 4242.44 0.00000 -5.32473e-10
  29 4242.44 0.00000 -2.39366e-11
  30 4242.44 0.00000 -1.01479e-10
  31 4242.44 0.00000 6.41653e-11
  32 4242.44 0.00000 5.94326e-11
  33 4242.44 0.00000 2.23277e-10
  34 4242.44 0.00000 1.43011e-09
  35 4242.44 0.00000 -1.38128e-09
  36 4242.44 0.00000 -1.47566e-10
  37 4242.44 0.00000 -1.55272e-11
  38 4242.44 0.00000 -1.68518e-09
  39 4242.44 0.00000 1.62845e-09
  40 4242.44 0.00000 -3.42274e-10
  41 4242.44 0.00000 5.28467e-10
  42 4242.44 0.00000 -2.41419e-10
  43 4242.44 0.00000 2.66423e-10
  44 4242.44 0.00000 -2.32690e-09
  45 4242.44 0.00000 2.28201e-09
  46 4242.44 0.00000 -1.12213e-09
  47 4242.44 0.00000 -4.07205e-10
  48 4242.44 0.00000 1.28281e-09
  49 4242.44 0.00000 4.21527e-11
  50 4242.44 0.00000 2.61481e-11
  51 4242.44 0.00000 -6.21344e-12
  52 4242.44 0.00000 -2.39498e-11
  53 4242.44 0.00000 -2.40126e-11
  54 4242.44 0.00000 -1.14234e-10
  55 4242.44 0.00000 -1.34832e-09
  56 4242.44 0.00000 -1.32037e-10
  57 4242.44 0.00000 2.02999e-10
  58 4242.44 0.00000 1.38802e-09
  59 4242.44 0.00000 1.14252e-11
  60 4242.44 0.00000 1.66362e-12
  61 4242.44 0.00000 3.47302e-10
  62 4242.44 0.00000 2.65225e-09
  63 4242.44 0.00000 -2.64236e-09
  64 4242.44 0.00000 -3.62910e-10
  65 4242.44 0.00000 -1.85068e-10
  66 4242.44 0.00000 3.21178e-10
</Section>

newXOutput 108

<Section columns = "stress_xx | stress_yy | stress_xy">
  1 4297.79 0.00000 1.44608e-09
  2 4297.79 0.00000 -2.03744e-10
  3 4297.79 0.00000 1.34508e-10
  4 4297.79 0.00000 -1.48603e-09
  5 4297.79 0.00000 2.92595e-09
  6 4297.79 0.00000 4.48871e-09
  7 4297.79 0.00000 4.38581e-09
  8 4297.79 0.00000 2.84014e-09
  9 4297.79 0.00000 1.18483e-09
  10 4297.79 0.00000 3.35810e-10
  11 4297.79 0.00000 -3.77179e-10
  12 4297.79 0.00000 -6.42451e-10
  13 4297.79 0.00000 -3.76035e-10
  14 4297.79 0.00000 -8.87027e-11
  15 4297.79 0.00000 -3.37007e-12
  16 4297.79 0.00000 6.14364e-11
  17 4297.79 0.00000 4.03075e-10
  18 4297.79 0.00000 6.33463e-10
  19 4297.79 0.00000 4.84286e-10
  20 4297.79 0.00000 -2.32280e-10
  21 4297.79 0.00000 -1.36983e-09
  22 4297.79 0.00000 -2.84664e-09
  23 4297.79 0.00000 -4.37759e-09
  24 4297.79 0.00000 -4.50747e-09
  25 4297.79 0.00000 -2.93697e-09
  26 4297.79 0.00000 -6.67536e-10
  27 4297.79 0.00000 -5.72100e-12
  28 4297.79 0.00000 6.50166e-10
  29 4297.79 0.00000 2.71755e-11
  30 4297.79 0.00000 1.19489e-10
  31 4297.79 0.00000 -7.93047e-11
  32 4297.79 0.00000 -9.25471e-11
  33 4297.79 0.00000 -2.74296e-10
  34 4297.79 0.00000 -1.75645e-09
  35 4297.79 0.00000 1.70192e-09
  36 4297.79 0.00000 1.87720e-10
  37 4297.79 0.00000 3.83538e-11
  38 4297.79 0.00000 2.10151e-09
  39 4297.79 0.00000 -2.03348e-09
  40 4297.79 0.00000 4.48205e-10
  41 4297.79 0.00000 -6.75996e-10
  42 4297.79 0.00000 2.82159e-10
  43 4297.79 0.00000 -3.22978e-10
  44 4297.79 0.00000 2.86580e-09
  45 4297.79 0.00000 -2.81422e-09
  46 4297.79 0.00000 1.41941e-09
  47 4297.79 0.00000 4.90910e-10
  48 4297.79 0.00000 -1.61647e-09
  49 4297.79 0.00000 -4.92317e-11
  50 4297.79 0.00000 -2.95311e-11
  51 4297.79 0.00000 7.67229e-12
  52 4297.79 0.00000 2.63441e-11
  53 4297.79 0.00000 2.95961e-11
  54 4297.79 0.00000 1.10788e-10
  55 4297.79 0.00000 1.65475e-09
  56 4297.79 0.00000 1.68051e-10
  57 4297.79 0.00000 -2.49686e-10
  58 4297.79 0.00000 -1.69929e-09
  59 4297.79 0.00000 -1.31966e-11
  60 4297.79 0.00000 -3.04433e-12
  61 4297.79 0.00000 -4.28151e-10
  62 4297.79 0.00000 -3.25923e-09
  63 4297.79 0.00000 3.24959e-09
  64 4297.79 0.00000 4.48945e-10
  65 4297.79 0.00000 2.65086e-10
  66 4297.79 0.00000 -4.31023e-10
</Section>

newXOutput 109

<Section columns = "stress_xx | stress_yy | stress_xy">
  1 4353.35 0.00000 -1.77229e-09
  2 4353.35 0.00000 2.50952e-10
  3 4353.35 0.00000 -1.70587e-10
  4 4353.35 0.00000 1.81753e-09
  5 4353.35 0.00000 -3.60162e-09
  6 4353.35 0.00000 -5.54676e-09
  7 4353.35 0.00000 -5.45025e-09
  8 4353.35 0.00000 -3.56847e-09
  9 4353.35 0.00000 -1.51740e-09
  10 4353.35 0.00000 -4.62933e-10
  11 4353.35 0.00000 4.33075e-10
  12 4353.35 0.00000 7.82119e-10
  13 4353.35 0.00000 4.66248e-10
  14 4353.35 0.00000 1.09376e-10
  15 4353.35 0.00000 3.65623e-12
  16 4353.35 0.00000 -7.68961e-11
  17 4353.35 0.00000 -4.98853e-10
  18 4353.35 0.00000 -7.71748e-10
  19 4353.35 0.00000 -5.67986e-10
  20 4353.35 0.00000 3.36126e-10
  21 4353.35 0.00000 1.74929e-09
  22 4353.35 0.00000 3.57465e-09
  23 4353.35 0.00000 5.44113e-09
  24 4353.35 0.00000 5.56781e-09
  25 4353.35 0.00000 3.61456e-09
  26 4353.35 0.00000 8.16015e-10
  27 4353.35 0.00000 6.56922e-12
  28 4353.35 0.00000 -7.96315e-10
  29 4353.35 0.00000 -3.18097e-11
  30 4353.35 0.00000 -1.40339e-10
  31 4353.35 0.00000 9.77314e-11
  32 4353.35 0.00000 1.38442e-10
  33 4353.35 0.00000 3.35163e-10
  34 4353.35 0.00000 2.16303e-09
  35 4353.35 0.00000 -2.10118e-09
  36 4353.35 0.00000 -2.36846e-10
  37 4353.35 0.00000 -7.15255e-11
  38 4353.35 0.00000 -2.62637e-09
  39 4353.35 0.00000 2.54447e-09
  40 4353.35 0.00000 -5.87242e-10
  41 4353.35 0.00000 8.67755e-10
  42 4353.35 0.00000 -3.30062e-10
  43 4353.35 0.00000 3.92506e-10
  44 4353.35 0.00000 -3.53771e-09
  45 4353.35 0.00000 3.47801e-09
  46 4353.35 0.00000 -1.79794e-09
  47 4353.35 0.00000 -5.92268e-10
  48 4353.35 0.00000 2.04174e-09
  49 4353.35 0.00000 5.61955e-11
  50 4353.35 0.00000 3.34505e-11
  51 4353.35 0.00000 -1.09783e-11
  52 4353.35 0.00000 -2.93520e-11
  53 4353.35 0.00000 -3.64197e-11
  54 4353.35 0.00000 -1.00181e-10
  55 4353.35 0.00000 -2.03502e-09
  56 4353.35 0.00000 -2.11960e-10
  57 4353.35 0.00000 3.06702e-10
  58 4353.35 0.00000 2.08572e-09
  59 4353.35 0.00000 1.43342e-11
  60 4353.35 0.00000 3.26701e-12
  61 4353.35 0.00000 5.29808e-10
  62 4353.35 0.00000 4.01482e-09
  63 4353.35 0.00000 -4.00417e-09
  64 4353.35 0.00000 -5.54763e-10
  65 4353.35 0.00000 -3.72229e-10
  66 4353.35 0.00000 5.77991e-10
</Section>

newXOutput 110

<Section columns = "stress_xx | stress_yy | stress_xy">
  1 4409.13 0.00000 2.17958e-09
  2 4409.13 0.00000 -3.11845e-10
  3 4409.13 0.00000 2.16193e-10
  4 4409.13 0.00000 -2.23006e-09
  5 4409.13 0.00000 4.44835e-09
  6 4409.13 0.00000 6.87040e-09
  7 4409.13 0.00000 6.78899e-09
  8 4409.13 0.00000 4.49395e-09
  9 4409.13 0.00000 1.94658e-09
  10 4409.13 0.00000 6.34658e-10
  11 4409.13 0.00000 -4.93227e-10
  12 4409.13 0.00000 -9.52837e-10
  13 4409.13 0.00000 -5.80657e-10
  14 4409.13 0.00000 -1.35606e-10
  15 4409.13 0.00000 -3.44570e-12
  16 4409.13 0.00000 9.64076e-11
  17 4409.13 0.00000 6.19328e-10
  18 4409.13 0.00000 9.40819e-10
  19 4409.13 0.00000 6.63652e-10
  20 4409.13 0.00000 -4.79717e-10
  21 4409.13 0.00000 -2.23792e-09
  22 4409.13 0.00000 -4.49715e-09
  23 4409.13 0.00000 -6.77895e-09
  24 4409.13 0.00000 -6.89609e-09
  25 4409.13 0.00000 -4.46222e-09
  26 4409.13 0.00000 -1.00047e-09
  27 4409.13 0.00000 -7.76218e-12
  28 4409.13 0.00000 9.77619e-10
  29 4409.13 0.00000 3.70452e-11
  30 4409.13 0.00000 1.63676e-10
  31 4409.13 0.00000 -1.21248e-10
  32 4409.13 0.00000 -2.00922e-10
  33 4409.13 0.00000 -4.13031e-10
  34 4409.13 0.00000 -2.67035e-09
  35 4409.13 0.00000 2.59969e-09
  36 4409.13 0.00000 2.98219e-10
  37 4409.13 0.00000 1.18131e-10
  38 4409.13 0.00000 3.28925e-09
  39 4409.13 0.00000 -3.18938e-09
  40 4409.13 0.00000 7.67900e-10
  41 4409.13 0.00000 -1.11340e-09
  42 4409.13 0.00000 3.83982e-10
  43 4409.13 0.00000 -4.77012e-10
  44 4409.13 0.00000 4.37807e-09
  45 4409.13 0.00000 -4.30890e-09
  46 4409.13 0.00000 2.28185e-09
  47 4409.13 0.00000 7.14222e-10
  48 4409.13 0.00000 -2.58340e-09
  49 4409.13 0.00000 -6.56334e-11
  50 4409.13 0.00000 -3.86072e-11
  51 4409.13 0.00000 1.52082e-11
  52 4409.13 0.00000 3.26820e-11
  53 4409.13 0.00000 4.39391e-11
  54 4409.13 0.00000 7.65562e-11
  55 4409.13 0.00000 2.50993e-09
  56 4409.13 0.00000 2.67998e-10
  57 4409.13 0.00000 -3.80054e-10
  58 4409.13 0.00000 -2.56745e-09
  59 4409.13 0.00000 -1.63308e-11
  60 4409.13 0.00000 -5.56684e-12
  61 4409.13 0.00000 -6.56907e-10
  62 4409.13 0.00000 -4.95851e-09
  63 4409.13 0.00000 4.94724e-09
  64 4409.13 0.00000 6.87047e-10
  65 4409.13 0.00000 5.18730e-10
  66 4409.13 0.00000 -7.74176e-10
</Section>

newXOutput 111

<Section columns = "stress_xx | stress_yy | stress_xy">
  1 4465.12 0.00000 -2.68763e-09
  2 4465.12 0.00000 3.85715e-10
  3 4465.12 0.00000 -2.73409e-10
  4 4465.12 0.00000 2.74434e-09
  5 4465.12 0.00000 -5.50715e-09
  6 4465.12 0.00000 -8.53201e-09
  7 4465.12 0.00000 -8.47502e-09
  8 4465.12 0.00000 -5.66971e-09
  9 4465.12 0.00000 -2.50109e-09
  10 4465.12 0.00000 -8.69455e-10
  11 4465.12 0.00000 5.56952e-10
  12 4465.12 0.00000 1.16084e-09
  13 4465.12 0.00000 7.18992e-10
  14 4465.12 0.00000 1.68710e-10
  15 4465.12 0.00000 2.86300e-12
  16 4465.12 0.00000 -1.21478e-10
  17 4465.12 0.00000 -7.65245e-10
  18 4465.12 0.00000 -1.14590e-09
  19 4465.12 0.00000 -7.73178e-10
  20 4465.12 0.00000 6.77148e-10
  21 4465.12 0.00000 2.86753e-09
  22 4465.12 0.00000 5.67022e-09
  23 4465.12 0.00000 8.46483e-09
  24 4465.12 0.00000 8.56331e-09
  25 4465.12 0.00000 5.52273e-09
  26 4465.12 0.00000 1.23045e-09
  27 4465.12 0.00000 9.10777e-12
  28 4465.12 0.00000 -1.20410e-09
  29 4465.12 0.00000 -4.33680e-11
  30 4465.12 0.00000 -1.92892e-10
  31 4465.12 0.00000 1.51051e-10
  32 4465.12 0.00000 2.85783e-10
  33 4465.12 0.00000 5.07207e-10
  34 4465.12 0.00000 3.30651e-09
  35 4465.12 0.00000 -3.22706e-09
  36 4465.12 0.00000 -3.72510e-10
  37 4465.12 0.00000 -1.84199e-10
  38 4465.12 0.00000 -4.12850e-09
  39 4465.12 0.00000 4.00689e-09
  40 4465.12 0.00000 -1.00457e-09
  41 4465.12 0.00000 1.43178e-09
  42 4465.12 0.00000 -4.46958e-10
  43 4465.12 0.00000 5.79028e-10
  44 4465.12 0.00000 -5.43264e-09
  45 4465.12 0.00000 5.35206e-09
  46 4465.12 0.00000 -2.90055e-09
  47 4465.12 0.00000 -8.61331e-10
  48 4465.12 0.00000 3.27536e-09
  49 4465.12 0.00000 7.71761e-11
  50 4465.12 0.00000 4.42100e-11
  51 4465.12 0.00000 -2.07379e-11
  52 4465.12 0.00000 -3.64408e-11
  53 4465.12 0.00000 -5.42991e-11
  54 4465.12 0.00000 -3.44660e-11
  55 4465.12 0.00000 -3.10412e-09
  56 4465.12 0.00000 -3.37155e-10
  57 4465.12 0.00000 4.69402e-10
  58 4465.12 0.00000 3.16975e-09
  59 4465.12 0.00000 1.79562e-11
  60 4465.12 0.00000 8.07446e-12
  61 4465.12 0.00000 8.12667e-10
  62 4465.12 0.00000 6.14116e-09
  63 4465.12 0.00000 -6.12930e-09
  64 4465.12 0.00000 -8.47453e-10
  65 4465.12 0.00000 -7.18096e-10
  66 4465.12 0.00000 1.03451e-09
</Section>

newXOutput 112

<Section columns = "stress_xx | stress_yy | stress_xy">
  1 4521.32 0.00000 3.32283e-09
  2 4521.32 0.00000 -4.78786e-10
  3 4521.32 0.00000 3.45608e-10
  4 4521.32 0.00000 -3.38634e-09
  5 4521.32 0.00000 6.83618e-09
  6 4521.32 0.00000 1.06214e-08
  7 4521.32 0.00000 1.06059e-08
  8 4521.32 0.00000 7.17051e-09
  9 4521.32 0.00000 3.22051e-09
  10 4521.32 0.00000 1.18219e-09
  11 4521.32 0.00000 -6.23467e-10
  12 4521.32 0.00000 -1.41468e-09
  13 4521.32 0.00000 -8.91853e-10
  14 4521.32 0.00000 -2.09085e-10
  15 4521.32 0.00000 -2.70140e-12
  16 4521.32 0.00000 1.52946e-10
  17 4521.32 0.00000 9.48370e-10
  18 4521.32 0.00000 1.39876e-09
  19 4521.32 0.00000 8.98762e-10
  20 4521.32 0.00000 -9.44327e-10
  21 4521.32 0.00000 -3.68252e-09
  22 4521.32 0.00000 -7.16650e-09
  23 4521.32 0.00000 -1.05951e-08
  24 4521.32 0.00000 -1.06585e-08
  25 4521.32 0.00000 -6.85278e-09
  26 4521.32 0.00000 -1.51729e-09
  27 4521.32 0.00000 -1.04909e-11
  28 4521.32 0.00000 1.48657e-09
  29 4521.32 0.00000 5.03712e-11
  30 4521.32 0.00000 2.26767e-10
  31 4521.32 0.00000 -1.88117e-10
  32 4521.32 0.00000 -4.03620e-10
  33 4521.32 0.00000 -6.23185e-10
  34 4521.32 0.00000 -4.10447e-09
  35 4521.32 0.00000 4.01393e-09
  36 4521.32 0.00000 4.63835e-10
  37 4521.32 0.00000 2.79191e-10
  38 4521.32 0.00000 5.19518e-09
  39 4521.32 0.00000 -5.04565e-09
  40 4521.32 0.00000 1.31640e-09
  41 4521.32 0.00000 -1.84509e-09
  42 4521.32 0.00000 5.17155e-10
  43 4521.32 0.00000 -7.02128e-10
  44 4521.32 0.00000 6.75725e-09
  45 4521.32 0.00000 -6.66315e-09
  46 4521.32 0.00000 3.69628e-09
  47 4521.32 0.00000 1.04044e-09
  48 4521.32 0.00000 -4.16247e-09
  49 4521.32 0.00000 -9.03169e-11
  50 4521.32 0.00000 -5.09194e-11
  51 4521.32 0.00000 2.87325e-11
  52 4521.32 0.00000 4.08981e-11
  53 4521.32 0.00000 6.76634e-11
  54 4521.32 0.00000 -3.43827e-11
  55 4521.32 0.00000 3.84935e-09
  56 4521.32 0.00000 4.22989e-10
  57 4521.32 0.00000 -5.80255e-10
  58 4521.32 0.00000 -3.92404e-09
  59 4521.32 0.00000 -2.03888e-11
  60 4521.32 0.00000 -1.04205e-11
  61 4521.32 0.00000 -1.00580e-09
  62 4521.32 0.00000 -7.62506e-09
  63 4521.32 0.00000 7.61325e-09
  64 4521.32 0.00000 1.04654e-09
  65 4521.32 0.00000 9.87663e-10
  66 4521.32 0.00000 -1.38178e-09
</Section>

newXOutput 113

<Section columns = "stress_xx | stress_yy | stress_xy">
  1 4577.75 0.00000 -4.11951e-09
  2 4577.75 0.00000 5.93990e-10
  3 4577.75 0.00000 -4.35723e-10
  4 4577.75 0.00000 4.19204e-09
  5 4577.75 0.00000 -8.50769e-09
  6 4577.75 0.00000 -1.32552e-08
  7 4577.75 0.00000 -1.33052e-08
  8 4577.75 0.00000 -9.09021e-09
  9 4577.75 0.00000 -4.15538e-09
  10 4577.75 0.00000 -1.61023e-09
  11 4577.75 0.00000 6.87071e-10
  12 4577.75 0.00000 1.72981e-09
  13 4577.75 0.00000 1.11009e-09
  14 4577.75 0.00000 2.60000e-10
  15 4577.75 0.00000 1.80189e-12
  16 4577.75 0.00000 -1.93228e-10
  17 4577.75 0.00000 -1.17297e-09
  18 4577.75 0.00000 -1.70658e-09
  19 4577.75 0.00000 -1.04035e-09
  20 4577.75 0.00000 1.30677e-09
  21 4577.75 0.00000 4.73903e-09
  22 4577.75 0.00000 9.07759e-09
  23 4577.75 0.00000 1.32919e-08
  24 4577.75 0.00000 1.33011e-08
  25 4577.75 0.00000 8.52803e-09
  26 4577.75 0.00000 1.87592e-09
  27 4577.75 0.00000 1.18947e-11
  28 4577.75 0.00000 -1.84150e-09
  29 4577.75 0.00000 -5.87606e-11
  30 4577.75 0.00000 -2.67090e-10
  31 4577.75 0.00000 2.35122e-10
  32 4577.75 0.00000 5.64706e-10
  33 4577.75 0.00000 7.64357e-10
  34 4577.75 0.00000 5.10908e-09
  35 4577.75 0.00000 -5.00609e-09
  36 4577.75 0.00000 -5.81566e-10
  37 4577.75 0.00000 -4.10666e-10
  38 4577.75 0.00000 -6.55261e-09
  39 4577.75 0.00000 6.36753e-09
  40 4577.75 0.00000 -1.72525e-09
  41 4577.75 0.00000 2.38261e-09
  42 4577.75 0.00000 -5.95382e-10
  43 4577.75 0.00000 8.51613e-10
  44 4577.75 0.00000 -8.42590e-09
  45 4577.75 0.00000 8.31627e-09
  46 4577.75 0.00000 -4.71938e-09
  47 4577.75 0.00000 -1.25789e-09
  48 4577.75 0.00000 5.30128e-09
  49 4577.75 0.00000 1.05359e-10
  50 4577.75 0.00000 5.79832e-11
  51 4577.75 0.00000 -3.84951e-11
  52 4577.75 0.00000 -4.44173e-11
  53 4577.75 0.00000 -8.38121e-11
  54 4577.75 0.00000 1.40497e-10
  55 4577.75 0.00000 -4.78620e-09
  56 4577.75 0.00000 -5.31986e-10
  57 4577.75 0.00000 7.17669e-10
  58 4577.75 0.00000 4.87186e-09
  59 4577.75 0.00000 2.18626e-11
  60 4577.75 0.00000 1.30243e-11
  61 4577.75 0.00000 1.24614e-09
  62 4577.75 0.00000 9.49375e-09
  63 4577.75 0.00000 -9.47978e-09
  64 4577.75 0.00000 -1.29375e-09
  65 4577.75 0.00000 -1.35465e-09
  66 4577.75 0.00000 1.84416e-09
</Section>

newXOutput 114

<Section columns = "stress_xx | stress_yy | stress_xy">
  1 4634.39 0.00000 5.12201e-09
  2 4634.39 0.00000 -7.38458e-10
  3 4634.39 0.00000 5.50722e-10
  4 4634.39 0.00000 -5.20356e-09
  5 4634.39 0.00000 1.06155e-08
  6 4634.39 0.00000 1.65834e-08
  7 4634.39 0.00000 1.67312e-08
  8 4634.39 0.00000 1.15485e-08
  9 4634.39 0.00000 5.36997e-09
  10 4634.39 0.00000 2.18263e-09
  11 4634.39 0.00000 -7.43603e-10
  12 4634.39 0.00000 -2.11360e-09
  13 4634.39 0.00000 -1.38141e-09
  14 4634.39 0.00000 -3.22676e-10
  15 4634.39 0.00000 2.46900e-13
  16 4634.39 0.00000 2.43928e-10
  17 4634.39 0.00000 1.45423e-09
  18 4634.39 0.00000 2.08302e-09
  19 4634.39 0.00000 1.19729e-09
  20 4634.39 0.00000 -1.80086e-09
  21 4634.39 0.00000 -6.10969e-09
  22 4634.39 0.00000 -1.15240e-08
  23 4634.39 0.00000 -1.67164e-08
  24 4634.39 0.00000 -1.66412e-08
  25 4634.39 0.00000 -1.06400e-08
  26 4634.39 0.00000 -2.32686e-09
  27 4634.39 0.00000 -1.32977e-11
  28 4634.39 0.00000 2.28794e-09
  29 4634.39 0.00000 6.85567e-11
  30 4634.39 0.00000 3.15758e-10
  31 4634.39 0.00000 -2.94399e-10
  32 4634.39 0.00000 -7.83000e-10
  33 4634.39 0.00000 -9.39162e-10
  34 4634.39 0.00000 -6.37641e-09
  35 4634.39 0.00000 6.25948e-09
  36 4634.39 0.00000 7.28814e-10
  37 4634.39 0.00000 5.94643e-10
  38 4634.39 0.00000 8.28422e-09
  39 4634.39 0.00000 -8.05474e-09
  40 4634.39 0.00000 2.26384e-09
  41 4634.39 0.00000 -3.08142e-09
  42 4634.39 0.00000 6.83227e-10
  43 4634.39 0.00000 -1.03184e-09
  44 4634.39 0.00000 1.05333e-08
  45 4634.39 0.00000 -1.04055e-08
  46 4634.39 0.00000 6.03872e-09
  47 4634.39 0.00000 1.52205e-09
  48 4634.39 0.00000 -6.76592e-09
  49 4634.39 0.00000 -1.22213e-10
  50 4634.39 0.00000 -6.64853e-11
  51 4634.39 0.00000 5.23305e-11
  52 4634.39 0.00000 4.76177e-11
  53 4634.39 0.00000 1.05952e-10
  54 4634.39 0.00000 -3.00719e-10
  55 4634.39 0.00000 5.96764e-09
  56 4634.39 0.00000 6.69354e-10
  57 4634.39 0.00000 -8.89271e-10
  58 4634.39 0.00000 -6.06552e-09
  59 4634.39 0.00000 -2.37877e-11
  60 4634.39 0.00000 -1.50343e-11
  61 4634.39 0.00000 -1.54516e-09
  62 4634.39 0.00000 -1.18506e-08
  63 4634.39 0.00000 1.18351e-08
  64 4634.39 0.00000 1.60080e-09
  65 4634.39 0.00000 1.84951e-09
  66 4634.39 0.00000 -2.46055e-09
</Section>

newXOutput 115

<Section columns = "stress_xx | stress_yy | stress_xy">
  1 4691.26 0.00000 -6.38542e-09
  2 4691.26 0.00000 9.17851e-10
  3 4691.26 0.00000 -6.93946e-10
  4 4691.26 0.00000 6.47852e-09
  5 4691.26 0.00000 -1.32805e-08
  6 4691.26 0.00000 -2.07995e-08
  7 4691.26 0.00000 -2.10889e-08
  8 4691.26 0.00000 -1.47053e-08
  9 4691.26 0.00000 -6.95468e-09
  10 4691.26 0.00000 -2.95578e-09
  11 4691.26 0.00000 7.81091e-10
  12 4691.26 0.00000 2.57988e-09
  13 4691.26 0.00000 1.71701e-09
  14 4691.26 0.00000 4.00851e-10
  15 4691.26 0.00000 -3.28603e-12
  16 4691.26 0.00000 -3.07497e-10
  17 4691.26 0.00000 -1.80214e-09
  18 4691.26 0.00000 -2.54474e-09
  19 4691.26 0.00000 -1.36794e-09
  20 4691.26 0.00000 2.47023e-09
  21 4691.26 0.00000 7.89285e-09
  22 4691.26 0.00000 1.46634e-08
  23 4691.26 0.00000 2.10753e-08
  24 4691.26 0.00000 2.08726e-08
  25 4691.26 0.00000 1.33099e-08
  26 4691.26 0.00000 2.89509e-09
  27 4691.26 0.00000 1.50636e-11
  28 4691.26 0.00000 -2.85051e-09
  29 4691.26 0.00000 -8.08745e-11
  30 4691.26 0.00000 -3.70903e-10
  31 4691.26 0.00000 3.71137e-10
  32 4691.26 0.00000 1.08216e-09
  33 4691.26 0.00000 1.15408e-09
  34 4691.26 0.00000 7.98061e-09
  35 4691.26 0.00000 -7.84767e-09
  36 4691.26 0.00000 -9.08642e-10
  37 4691.26 0.00000 -8.51326e-10
  38 4691.26 0.00000 -1.04972e-08
  39 4691.26 0.00000 1.02128e-08
  40 4691.26 0.00000 -2.97429e-09
  41 4691.26 0.00000 3.99538e-09
  42 4691.26 0.00000 -7.76390e-10
  43 4691.26 0.00000 1.24797e-09
  44 4691.26 0.00000 -1.32021e-08
  45 4691.26 0.00000 1.30529e-08
  46 4691.26 0.00000 -7.74305e-09
  47 4691.26 0.00000 -1.84032e-09
  48 4691.26 0.00000 8.65607e-09
  49 4691.26 0.00000 1.43015e-10
  50 4691.26 0.00000 7.66918e-11
  51 4691.26 0.00000 -7.01967e-11
  52 4691.26 0.00000 -5.14243e-11
  53 4691.26 0.00000 -1.32632e-10
  54 4691.26 0.00000 5.37074e-10
  55 4691.26 0.00000 -7.46028e-09
  56 4691.26 0.00000 -8.40149e-10
  57 4691.26 0.00000 1.10098e-09
  58 4691.26 0.00000 7.57349e-09
  59 4691.26 0.00000 2.51322e-11
  60 4691.26 0.00000 2.02414e-11
  61 4691.26 0.00000 1.91312e-09
  62 4691.26 0.00000 1.48314e-08
  63 4691.26 0.00000 -1.48143e-08
  64 4691.26 0.00000 -1.97904e-09
  65 4691.26 0.00000 -2.51954e-09
  66 4691.26 0.00000 3.28243e-09
</Section>

newXOutput 116

<Section columns = "stress_xx | stress_yy | stress_xy">
  1 4748.35 0.00000 7.98396e-09
  2 4748.35 0.00000 -1.14228e-09
  3 4748.35 0.00000 8.71996e-10
  4 4748.35 0.00000 -8.08953e-09
  5 4748.35 0.00000 1.66613e-08
  6 4748.35 0.00000 2.61570e-08
  7 4748.35 0.00000 2.66511e-08
  8 4748.35 0.00000 1.87695e-08
  9 4748.35 0.00000 9.02506e-09
  10 4748.35 0.00000 3.99926e-09
  11 4748.35 0.00000 -7.90159e-10
  12 4748.35 0.00000 -3.15119e-09
  13 4748.35 0.00000 -2.13619e-09
  14 4748.35 0.00000 -4.99442e-10
  15 4748.35 0.00000 6.58630e-12
  16 4748.35 0.00000 3.86954e-10
  17 4748.35 0.00000 2.23347e-09
  18 4748.35 0.00000 3.10894e-09
  19 4748.35 0.00000 1.54585e-09
  20 4748.35 0.00000 -3.38187e-09
  21 4748.35 0.00000 -1.02183e-08
  22 4748.35 0.00000 -1.87004e-08
  23 4748.35 0.00000 -2.66343e-08
  24 4748.35 0.00000 -2.62466e-08
  25 4748.35 0.00000 -1.66956e-08
  26 4748.35 0.00000 -3.61259e-09
  27 4748.35 0.00000 -1.67657e-11
  28 4748.35 0.00000 3.56128e-09
  29 4748.35 0.00000 9.46323e-11
  30 4748.35 0.00000 4.37534e-10
  31 4748.35 0.00000 -4.69735e-10
  32 4748.35 0.00000 -1.48717e-09
  33 4748.35 0.00000 -1.42038e-09
  34 4748.35 0.00000 -1.00150e-08
  35 4748.35 0.00000 9.86347e-09
  36 4748.35 0.00000 1.13590e-09
  37 4748.35 0.00000 1.20458e-09
  38 4748.35 0.00000 1.33329e-08
  39 4748.35 0.00000 -1.29786e-08
  40 4748.35 0.00000 3.91120e-09
  41 4748.35 0.00000 -5.18887e-09
  42 4748.35 0.00000 8.73183e-10
  43 4748.35 0.00000 -1.50838e-09
  44 4748.35 0.00000 1.65906e-08
  45 4748.35 0.00000 -1.64156e-08
  46 4748.35 0.00000 9.94984e-09
  47 4748.35 0.00000 2.22614e-09
  48 4748.35 0.00000 -1.10975e-08
  49 4748.35 0.00000 -1.67262e-10
  50 4748.35 0.00000 -8.81374e-11
  51 4748.35 0.00000 9.50315e-11
  52 4748.35 0.00000 5.23049e-11
  53 4748.35 0.00000 1.69226e-10
  54 4748.35 0.00000 -8.82470e-10
  55 4748.35 0.00000 9.35219e-09
  56 4748.35 0.00000 1.05424e-09
  57 4748.35 0.00000 -1.36630e-09
  58 4748.35 0.00000 -9.48320e-09
  59 4748.35 0.00000 -2.57691e-11
  60 4748.35 0.00000 -2.53006e-11
  61 4748.35 0.00000 -2.36998e-09
  62 4748.35 0.00000 -1.86129e-08
  63 4748.35 0.00000 1.85936e-08
  64 4748.35 0.00000 2.44834e-09
  65 4748.35 0.00000 3.42375e-09
  66 4748.35 0.00000 -4.38099e-09
</Section>

newXOutput 117

<Section columns = "stress_xx | stress_yy | stress_xy">
  1 4805.66 0.00000 -1.00103e-08
  2 4805.66 0.00000 1.42170e-09
  3 4805.66 0.00000 -1.09633e-09
  4 4805.66 0.00000 1.01303e-08
  5 4805.66 0.00000 -2.09590e-08
  6 4805.66 0.00000 -3.29796e-08
  7 4805.66 0.00000 -3.37633e-08
  8 4805.66 0.00000 -2.40129e-08
  9 4805.66 0.00000 -1.17331e-08
  10 4805.66 0.00000 -5.40213e-09
  11 4805.66 0.00000 7.46094e-10
  12 4805.66 0.00000 3.84837e-09
  13 4805.66 0.00000 2.65526e-09
  14 4805.66 0.00000 6.22103e-10
  15 4805.66 0.00000 -1.01670e-11
  16 4805.66 0.00000 -4.86050e-10
  17 4805.66 0.00000 -2.76802e-09
  18 4805.66 0.00000 -3.79520e-09
  19 4805.66 0.00000 -1.72428e-09
  20 4805.66 0.00000 4.61544e-09
  21 4805.66 0.00000 1.32567e-08
  22 4805.66 0.00000 2.39069e-08
  23 4805.66 0.00000 3.37452e-08
  24 4805.66 0.00000 3.30925e-08
  25 4805.66 0.00000 2.10006e-08
  26 4805.66 0.00000 4.52022e-09
  27 4805.66 0.00000 1.90688e-11
  28 4805.66 0.00000 -4.46123e-09
  29 4805.66 0.00000 -1.10795e-10
  30 4805.66 0.00000 -5.15157e-10
  31 4805.66 0.00000 5.95223e-10
  32 4805.66 0.00000 2.03739e-09
  33 4805.66 0.00000 1.74839e-09
  34 4805.66 0.00000 1.26008e-08
  35 4805.66 0.00000 -1.24298e-08
  36 4805.66 0.00000 -1.41667e-09
  37 4805.66 0.00000 -1.69295e-09
  38 4805.66 0.00000 -1.69753e-08
  39 4805.66 0.00000 1.65332e-08
  40 4805.66 0.00000 -5.14993e-09
  41 4805.66 0.00000 6.75282e-09
  42 4805.66 0.00000 -9.69873e-10
  43 4805.66 0.00000 1.82127e-09
  44 4805.66 0.00000 -2.09029e-08
  45 4805.66 0.00000 2.06980e-08
  46 4805.66 0.00000 -1.28129e-08
  47 4805.66 0.00000 -2.69107e-09
  48 4805.66 0.00000 1.42606e-08
  49 4805.66 0.00000 1.96746e-10
  50 4805.66 0.00000 1.01074e-10
  51 4805.66 0.00000 -1.29817e-10
  52 4805.66 0.00000 -5.14676e-11
  53 4805.66 0.00000 -2.15976e-10
  54 4805.66 0.00000 1.37785e-09
  55 4805.66 0.00000 -1.17560e-08
  56 4805.66 0.00000 -1.32257e-09
  57 4805.66 0.00000 1.69515e-09
  58 4805.66 0.00000 1.19070e-08
  59 4805.66 0.00000 2.61214e-11
  60 4805.66 0.00000 3.11326e-11
  61 4805.66 0.00000 2.93811e-09
  62 4805.66 0.00000 2.34212e-08
  63 4805.66 0.00000 -2.34000e-08
  64 4805.66 0.00000 -3.02932e-09
  65 4805.66 0.00000 -4.64539e-09
  66 4805.66 0.00000 5.84843e-09
</Section>

newXOutput 118

<Section columns = "stress_xx | stress_yy | stress_xy">
  1 4863.21 0.00000 1.25861e-08
  2 4863.21 0.00000 -1.77168e-09
  3 4863.21 0.00000 1.37620e-09
  4 4863.21 0.00000 -1.27228e-08
  5 4863.21 0.00000 2.64356e-08
  6 4863.21 0.00000 4.16908e-08
  7 4863.21 0.00000 4.28812e-08
  8 4863.21 0.00000 3.07932e-08
  9 4863.21 0.00000 1.52869e-08
  10 4863.21 0.00000 7.29701e-09
  11 4863.21 0.00000 -6.19054e-10
  12 4863.21 0.00000 -4.69698e-09
  13 4863.21 0.00000 -3.30445e-09
  14 4863.21 0.00000 -7.75306e-10
  15 4863.21 0.00000 1.59546e-11
  16 4863.21 0.00000 6.10340e-10
  17 4863.21 0.00000 3.42949e-09
  18 4863.21 0.00000 4.63125e-09
  19 4863.21 0.00000 1.88933e-09
  20 4863.21 0.00000 -6.28854e-09
  21 4863.21 0.00000 -1.72358e-08
  22 4863.21 0.00000 -3.06361e-08
  23 4863.21 0.00000 -4.28636e-08
  24 4863.21 0.00000 -4.18356e-08
  25 4863.21 0.00000 -2.64878e-08
  26 4863.21 0.00000 -5.67234e-09
  27 4863.21 0.00000 -2.14461e-11
  28 4863.21 0.00000 5.60542e-09
  29 4863.21 0.00000 1.31426e-10
  30 4863.21 0.00000 6.03090e-10
  31 4863.21 0.00000 -7.56921e-10
  32 4863.21 0.00000 -2.78641e-09
  33 4863.21 0.00000 -2.15271e-09
  34 4863.21 0.00000 -1.58987e-08
  35 4863.21 0.00000 1.57060e-08
  36 4863.21 0.00000 1.76571e-09
  37 4863.21 0.00000 2.36468e-09
  38 4863.21 0.00000 2.16669e-08
  39 4863.21 0.00000 -2.11118e-08
  40 4863.21 0.00000 6.78955e-09
  41 4863.21 0.00000 -8.80709e-09
  42 4863.21 0.00000 1.05512e-09
  43 4863.21 0.00000 -2.19333e-09
  44 4863.21 0.00000 2.64070e-08
  45 4863.21 0.00000 -2.61664e-08
  46 4863.21 0.00000 1.65377e-08
  47 4863.21 0.00000 3.24987e-09
  48 4863.21 0.00000 -1.83689e-08
  49 4863.21 0.00000 -2.32216e-10
  50 4863.21 0.00000 -1.15516e-10
  51 4863.21 0.00000 1.75339e-10
  52 4863.21 0.00000 4.93600e-11
  53 4863.21 0.00000 2.76315e-10
  54 4863.21 0.00000 -2.08617e-09
  55 4863.21 0.00000 1.48186e-08
  56 4863.21 0.00000 1.65765e-09
  57 4863.21 0.00000 -2.10499e-09
  58 4863.21 0.00000 -1.49929e-08
  59 4863.21 0.00000 -2.46002e-11
  60 4863.21 0.00000 -4.24063e-11
  61 4863.21 0.00000 -3.64053e-09
  62 4863.21 0.00000 -2.95519e-08
  63 4863.21 0.00000 2.95271e-08
  64 4863.21 0.00000 3.74790e-09
  65 4863.21 0.00000 6.29719e-09
  66 4863.21 0.00000 -7.81419e-09
</Section>

newXOutput 119

<Section columns = "stress_xx | stress_yy | stress_xy">
  1 4920.98 0.00000 -1.58704e-08
  2 4920.98 0.00000 2.20899e-09
  3 4920.98 0.00000 -1.72813e-09
  4 4920.98 0.00000 1.60252e-08
  5 4920.98 0.00000 -3.34364e-08
  6 4920.98 0.00000 -5.28439e-08
  7 4920.98 0.00000 -5.46017e-08
  8 4920.98 0.00000 -3.95844e-08
  9 4920.98 0.00000 -1.99593e-08
  10 4920.98 0.00000 -9.85548e-09
  11 4920.98 0.00000 3.62727e-10
  12 4920.98 0.00000 5.72652e-09
  13 4920.98 0.00000 4.10969e-09
  14 4920.98 0.00000 9.67202e-10
  15 4920.98 0.00000 -2.27505e-11
  16 4920.98 0.00000 -7.65769e-10
  17 4920.98 0.00000 -4.25095e-09
  18 4920.98 0.00000 -5.64949e-09
  19 4920.98 0.00000 -2.01413e-09
  20 4920.98 0.00000 8.56217e-09
  21 4920.98 0.00000 2.24601e-08
  22 4920.98 0.00000 3.93544e-08
  23 4920.98 0.00000 5.45827e-08
  24 4920.98 0.00000 5.30268e-08
  25 4920.98 0.00000 3.34999e-08
  26 4920.98 0.00000 7.13943e-09
  27 4920.98 0.00000 2.40214e-11
  28 4920.98 0.00000 -7.06335e-09
  29 4920.98 0.00000 -1.54986e-10
  30 4920.98 0.00000 -7.03348e-10
  31 4920.98 0.00000 9.65029e-10
  32 4920.98 0.00000 3.80299e-09
  33 4920.98 0.00000 2.65010e-09
  34 4920.98 0.00000 2.01142e-08
  35 4920.98 0.00000 -1.98967e-08
  36 4920.98 0.00000 -2.19553e-09
  37 4920.98 0.00000 -3.28941e-09
  38 4920.98 0.00000 -2.77248e-08
  39 4920.98 0.00000 2.70242e-08
  40 4920.98 0.00000 -8.96542e-09
  41 4920.98 0.00000 1.15101e-08
  42 4920.98 0.00000 -1.11417e-09
  43 4920.98 0.00000 2.63369e-09
  44 4920.98 0.00000 -3.34495e-08
  45 4920.98 0.00000 3.31662e-08
  46 4920.98 0.00000 -2.13944e-08
  47 4920.98 0.00000 -3.91800e-09
  48 4920.98 0.00000 2.37170e-08
  49 4920.98 0.00000 2.74365e-10
  50 4920.98 0.00000 1.32323e-10
  51 4920.98 0.00000 -2.36739e-10
  52 4920.98 0.00000 -4.31751e-11
  53 4920.98 0.00000 -3.55109e-10
  54 4920.98 0.00000 3.09107e-09
  55 4920.98 0.00000 -1.87304e-08
  56 4920.98 0.00000 -2.07486e-09
  57 4920.98 0.00000 2.61425e-09
  58 4920.98 0.00000 1.89319e-08
  59 4920.98 0.00000 2.18351e-11
  60 4920.98 0.00000 5.58685e-11
  61 4920.98 0.00000 4.51053e-09
  62 4920.98 0.00000 3.73882e-08
  63 4920.98 0.00000 -3.73602e-08
  64 4920.98 0.00000 -4.63422e-09
  65 4920.98 0.00000 -8.53230e-09
  66 4920.98 0.00000 1.04470e-08
</Section>

newXOutput 120

<Section columns = "stress_xx | stress_yy | stress_xy">
  1 4978.98 0.00000 2.00664e-08
  2 4978.98 0.00000 -2.75758e-09
  3 4978.98 0.00000 2.16838e-09
  4 4978.98 0.00000 -2.02437e-08
  5 4978.98 0.00000 4.24048e-08
  6 4978.98 0.00000 6.71585e-08
  7 4978.98 0.00000 6.97072e-08
  8 4978.98 0.00000 5.10108e-08
  9 4978.98 0.00000 2.61135e-08
  10 4978.98 0.00000 1.33112e-08
  11 4978.98 0.00000 9.08104e-11
  12 4978.98 0.00000 -6.97305e-09
  13 4978.98 0.00000 -5.11292e-09
  14 4978.98 0.00000 -1.20644e-09
  15 4978.98 0.00000 3.17252e-11
  16 4978.98 0.00000 9.61332e-10
  17 4978.98 0.00000 5.26666e-09
  18 4978.98 0.00000 6.88214e-09
  19 4978.98 0.00000 2.06211e-09
  20 4978.98 0.00000 -1.16465e-08
  21 4978.98 0.00000 -2.93319e-08
  22 4978.98 0.00000 -5.06764e-08
  23 4978.98 0.00000 -6.96867e-08
  24 4978.98 0.00000 -6.73939e-08
  25 4978.98 0.00000 -4.24859e-08
  26 4978.98 0.00000 -9.01270e-09
  27 4978.98 0.00000 -2.70858e-11
  28 4978.98 0.00000 8.92587e-09
  29 4978.98 0.00000 1.82646e-10
  30 4978.98 0.00000 8.16107e-10
  31 4978.98 0.00000 -1.23472e-09
  32 4978.98 0.00000 -5.18292e-09
  33 4978.98 0.00000 -3.26246e-09
  34 4978.98 0.00000 -2.55190e-08
  35 4978.98 0.00000 2.52747e-08
  36 4978.98 0.00000 2.72663e-09
  37 4978.98 0.00000 4.55939e-09
  38 4978.98 0.00000 3.55652e-08
  39 4978.98 0.00000 -3.46769e-08
  40 4978.98 0.00000 1.18561e-08
  41 4978.98 0.00000 -1.50743e-08
  42 4978.98 0.00000 1.12549e-09
  43 4978.98 0.00000 -3.15210e-09
  44 4978.98 0.00000 4.24841e-08
  45 4978.98 0.00000 -4.21506e-08
  46 4978.98 0.00000 2.77402e-08
  47 4978.98 0.00000 4.71505e-09
  48 4978.98 0.00000 -3.06941e-08
  49 4978.98 0.00000 -3.24280e-10
  50 4978.98 0.00000 -1.51647e-10
  51 4978.98 0.00000 3.20644e-10
  52 4978.98 0.00000 3.17900e-11
  53 4978.98 0.00000 4.58319e-10
  54 4978.98 0.00000 -4.50867e-09
  55 4978.98 0.00000 2.37406e-08
  56 4978.98 0.00000 2.59576e-09
  57 4978.98 0.00000 -3.24977e-09
  58 4978.98 0.00000 -2.39741e-08
  59 4978.98 0.00000 -1.78491e-11
  60 4978.98 0.00000 -7.36695e-11
  61 4978.98 0.00000 -5.58765e-09
  62 4978.98 0.00000 -4.74326e-08
  63 4978.98 0.00000 4.74004e-08
  64 4978.98 0.00000 5.72656e-09
  65 4978.98 0.00000 1.15561e-08
  66 4978.98 0.00000 -1.39791e-08
</Section>

newXOutput 121

<Section columns = "stress_xx | stress_yy | stress_xy">
  1 5037.21 0.00000 -2.54461e-08
  2 5037.21 0.00000 3.44397e-09
  3 5037.21 0.00000 -2.71856e-09
  4 5037.21 0.00000 2.56491e-08
  5 5037.21 0.00000 -5.39310e-08
  6 5037.21 0.00000 -8.55814e-08
  7 5037.21 0.00000 -8.92228e-08
  8 5037.21 0.00000 -6.58944e-08
  9 5037.21 0.00000 -3.42379e-08
  10 5037.21 0.00000 -1.79852e-08
  11 5037.21 0.00000 -8.34175e-10
  12 5037.21 0.00000 8.48106e-09
  13 5037.21 0.00000 6.36126e-09
  14 5037.21 0.00000 1.50617e-09
  15 5037.21 0.00000 -4.39224e-11
  16 5037.21 0.00000 -1.20679e-09
  17 5037.21 0.00000 -6.52141e-09
  18 5037.21 0.00000 -8.37090e-09
  19 5037.21 0.00000 -1.97733e-09
  20 5037.21 0.00000 1.58340e-08
  21 5037.21 0.00000 3.83911e-08
  22 5037.21 0.00000 6.54186e-08
  23 5037.21 0.00000 8.92015e-08
  24 5037.21 0.00000 8.58857e-08
  25 5037.21 0.00000 5.40341e-08
  26 5037.21 0.00000 1.14121e-08
  27 5037.21 0.00000 3.07877e-11
  28 5037.21 0.00000 -1.13120e-08
  29 5037.21 0.00000 -2.14830e-10
  30 5037.21 0.00000 -9.43828e-10
  31 5037.21 0.00000 1.58379e-09
  32 5037.21 0.00000 7.06051e-09
  33 5037.21 0.00000 4.01501e-09
  34 5037.21 0.00000 3.24669e-08
  35 5037.21 0.00000 -3.21931e-08
  36 5037.21 0.00000 -3.38099e-09
  37 5037.21 0.00000 -6.30283e-09
  38 5037.21 0.00000 -4.57385e-08
  39 5037.21 0.00000 4.46094e-08
  40 5037.21 0.00000 -1.57040e-08
  41 5037.21 0.00000 1.97847e-08
  42 5037.21 0.00000 -1.05587e-09
  43 5037.21 0.00000 3.75508e-09
  44 5037.21 0.00000 -5.41060e-08
  45 5037.21 0.00000 5.37130e-08
  46 5037.21 0.00000 -3.60511e-08
  47 5037.21 0.00000 -5.65803e-09
  48 5037.21 0.00000 3.98202e-08
  49 5037.21 0.00000 3.84425e-10
  50 5037.21 0.00000 1.74174e-10
  51 5037.21 0.00000 -4.33042e-10
  52 5037.21 0.00000 -1.09597e-11
  53 5037.21 0.00000 -5.95023e-10
  54 5037.21 0.00000 6.50019e-09
  55 5037.21 0.00000 -3.01757e-08
  56 5037.21 0.00000 -3.24552e-09
  57 5037.21 0.00000 4.04154e-09
  58 5037.21 0.00000 3.04477e-08
  59 5037.21 0.00000 1.06740e-11
  60 5037.21 0.00000 9.74628e-11
  61 5037.21 0.00000 6.92181e-09
  62 5037.21 0.00000 6.03427e-08
  63 5037.21 0.00000 -6.03049e-08
  64 5037.21 0.00000 -7.07127e-09
  65 5037.21 0.00000 -1.56506e-08
  66 5037.21 0.00000 1.87233e-08
</Section>

newXOutput 122

<Section columns = "stress_xx | stress_yy | stress_xy">
  1 5095.67 0.00000 3.23624e-08
  2 5095.67 0.00000 -4.30142e-09
  3 5095.67 0.00000 3.40772e-09
  4 5095.67 0.00000 -3.25941e-08
  5 5095.67 0.00000 6.87823e-08
  6 5095.67 0.00000 1.09356e-07
  7 5095.67 0.00000 1.14507e-07
  8 5095.67 0.00000 8.53361e-08
  9 5095.67 0.00000 4.49900e-08
  10 5095.67 0.00000 2.43131e-08
  11 5095.67 0.00000 2.00551e-09
  12 5095.67 0.00000 -1.02960e-08
  13 5095.67 0.00000 -7.91094e-09
  14 5095.67 0.00000 -1.88118e-09
  15 5095.67 0.00000 5.96978e-11
  16 5095.67 0.00000 1.51365e-09
  17 5095.67 0.00000 8.07208e-09
  18 5095.67 0.00000 1.01555e-08
  19 5095.67 0.00000 1.67065e-09
  20 5095.67 0.00000 -2.15286e-08
  21 5095.67 0.00000 -5.03613e-08
  22 5095.67 0.00000 -8.46623e-08
  23 5095.67 0.00000 -1.14487e-07
  24 5095.67 0.00000 -1.09752e-07
  25 5095.67 0.00000 -6.89153e-08
  26 5095.67 0.00000 -1.44926e-08
  27 5095.67 0.00000 -3.44763e-11
  28 5095.67 0.00000 1.43783e-08
  29 5095.67 0.00000 2.54006e-10
  30 5095.67 0.00000 1.08250e-09
  31 5095.67 0.00000 -2.03851e-09
  32 5095.67 0.00000 -9.61509e-09
  33 5095.67 0.00000 -4.94245e-09
  34 5095.67 0.00000 -4.14223e-08
  35 5095.67 0.00000 4.11178e-08
  36 5095.67 0.00000 4.18707e-09
  37 5095.67 0.00000 8.69663e-09
  38 5095.67 0.00000 5.89745e-08
  39 5095.67 0.00000 -5.75337e-08
  40 5095.67 0.00000 2.08356e-08
  41 5095.67 0.00000 -2.60242e-08
  42 5095.67 0.00000 8.54697e-10
  43 5095.67 0.00000 -4.44965e-09
  44 5095.67 0.00000 6.90978e-08
  45 5095.67 0.00000 -6.86343e-08
  46 5095.67 0.00000 4.69636e-08
  47 5095.67 0.00000 6.76677e-09
  48 5095.67 0.00000 -5.17844e-08
  49 5095.67 0.00000 -4.57132e-10
  50 5095.67 0.00000 -1.99697e-10
  51 5095.67 0.00000 5.83608e-10
  52 5095.67 0.00000 -2.16163e-11
  53 5095.67 0.00000 7.75039e-10
  54 5095.67 0.00000 -9.29352e-09
  55 5095.67 0.00000 3.84638e-08
  56 5095.67 0.00000 4.05629e-09
  57 5095.67 0.00000 -5.02725e-09
  58 5095.67 0.00000 -3.87810e-08
  59 5095.67 0.00000 1.59587e-12
  60 5095.67 0.00000 -1.30624e-10
  61 5095.67 0.00000 -8.57106e-09
  62 5095.67 0.00000 -7.69807e-08
  63 5095.67 0.00000 7.69359e-08
  64 5095.67 0.00000 8.72488e-09
  65 5095.67 0.00000 2.12005e-08
  66 5095.67 0.00000 -2.51083e-08
</Section>

newXOutput 123

<Section columns = "stress_xx | stress_yy | stress_xy">
  1 5154.37 0.00000 -4.12775e-08
  2 5154.37 0.00000 5.37311e-09
  3 5154.37 0.00000 -4.26421e-09
  4 5154.37 0.00000 4.15412e-08
  5 5154.37 0.00000 -8.79713e-08
  6 5154.37 0.00000 -1.40121e-07
  7 5154.37 0.00000 -1.47349e-07
  8 5154.37 0.00000 -1.10793e-07
  9 5154.37 0.00000 -5.92497e-08
  10 5154.37 0.00000 -3.28868e-08
  11 5154.37 0.00000 -3.80349e-09
  12 5154.37 0.00000 1.24615e-08
  13 5154.37 0.00000 9.83277e-09
  14 5154.37 0.00000 2.34889e-09
  15 5154.37 0.00000 -8.13499e-11
  16 5154.37 0.00000 -1.89762e-09
  17 5154.37 0.00000 -9.98211e-09
  18 5154.37 0.00000 -1.22926e-08
  19 5154.37 0.00000 -1.01531e-09
  20 5154.37 0.00000 2.92744e-08
  21 5154.37 0.00000 6.62169e-08
  22 5154.37 0.00000 1.09845e-07
  23 5154.37 0.00000 1.47328e-07
  24 5154.37 0.00000 1.40636e-07
  25 5154.37 0.00000 8.81430e-08
  26 5154.37 0.00000 1.84596e-08
  27 5154.37 0.00000 3.86351e-11
  28 5154.37 0.00000 -1.83295e-08
  29 5154.37 0.00000 -3.00179e-10
  30 5154.37 0.00000 -1.22862e-09
  31 5154.37 0.00000 2.63154e-09
  32 5154.37 0.00000 1.30902e-08
  33 5154.37 0.00000 6.07933e-09
  34 5154.37 0.00000 5.29976e-08
  35 5154.37 0.00000 -5.26603e-08
  36 5154.37 0.00000 -5.17401e-09
  37 5154.37 0.00000 -1.19827e-08
  38 5154.37 0.00000 -7.62374e-08
  39 5154.37 0.00000 7.43911e-08
  40 5154.37 0.00000 -2.76933e-08
  41 5154.37 0.00000 3.43076e-08
  42 5154.37 0.00000 -4.48569e-10
  43 5154.37 0.00000 5.23476e-09
  44 5154.37 0.00000 -8.84874e-08
  45 5154.37 0.00000 8.79401e-08
  46 5154.37 0.00000 -6.13259e-08
  47 5154.37 0.00000 -8.05735e-09
  48 5154.37 0.00000 6.75098e-08
  49 5154.37 0.00000 5.44157e-10
  50 5154.37 0.00000 2.28018e-10
  51 5154.37 0.00000 -7.86144e-10
  52 5154.37 0.00000 7.15276e-11
  53 5154.37 0.00000 -1.01341e-09
  54 5154.37 0.00000 1.31972e-08
  55 5154.37 0.00000 -4.91673e-08
  56 5154.37 0.00000 -5.06199e-09
  57 5154.37 0.00000 6.25447e-09
  58 5154.37 0.00000 4.95380e-08
  59 5154.37 0.00000 -2.01761e-11
  60 5154.37 0.00000 1.75398e-10
  61 5154.37 0.00000 1.06051e-08
  62 5154.37 0.00000 9.84828e-08
  63 5154.37 0.00000 -9.84278e-08
  64 5154.37 0.00000 -1.07521e-08
  65 5154.37 0.00000 -2.87315e-08
  66 5154.37 0.00000 3.37105e-08
</Section>

newXOutput 124

<Section columns = "stress_xx | stress_yy | stress_xy">
  1 5213.31 0.00000 5.27998e-08
  2 5213.31 0.00000 -6.71130e-09
  3 5213.31 0.00000 5.33120e-09
  4 5213.31 0.00000 -5.31002e-08
  5 5213.31 0.00000 1.12831e-07
  6 5213.31 0.00000 1.80038e-07
  7 5213.31 0.00000 1.90124e-07
  8 5213.31 0.00000 1.44213e-07
  9 5213.31 0.00000 7.82082e-08
  10 5213.31 0.00000 4.45270e-08
  11 5213.31 0.00000 6.51135e-09
  12 5213.31 0.00000 -1.50283e-08
  13 5213.31 0.00000 -1.22114e-08
  14 5213.31 0.00000 -2.93280e-09
  15 5213.31 0.00000 1.08314e-10
  16 5213.31 0.00000 2.37489e-09
  17 5213.31 0.00000 1.23256e-08
  18 5213.31 0.00000 1.48214e-08
  19 5213.31 0.00000 -1.77665e-10
  20 5213.31 0.00000 -3.98245e-08
  21 5213.31 0.00000 -8.72700e-08
  22 5213.31 0.00000 -1.42885e-07
  23 5213.31 0.00000 -1.90101e-07
  24 5213.31 0.00000 -1.80711e-07
  25 5213.31 0.00000 -1.13055e-07
  26 5213.31 0.00000 -2.35823e-08
  27 5213.31 0.00000 -4.31974e-11
  28 5213.31 0.00000 2.34345e-08
  29 5213.31 0.00000 3.54855e-10
  30 5213.31 0.00000 1.37264e-09
  31 5213.31 0.00000 -3.40655e-09
  32 5213.31 0.00000 -1.78270e-08
  33 5213.31 0.00000 -7.46801e-09
  34 5213.31 0.00000 -6.79992e-08
  35 5213.31 0.00000 6.76318e-08
  36 5213.31 0.00000 6.38080e-09
  37 5213.31 0.00000 1.64966e-08
  38 5213.31 0.00000 9.88132e-08
  39 5213.31 0.00000 -9.64384e-08
  40 5213.31 0.00000 3.68753e-08
  41 5213.31 0.00000 -4.53303e-08
  42 5213.31 0.00000 -2.74164e-10
  43 5213.31 0.00000 -6.09952e-09
  44 5213.31 0.00000 1.13634e-07
  45 5213.31 0.00000 -1.12987e-07
  46 5213.31 0.00000 8.02771e-08
  47 5213.31 0.00000 9.53894e-09
  48 5213.31 0.00000 -8.82321e-08
  49 5213.31 0.00000 -6.49384e-10
  50 5213.31 0.00000 -2.59560e-10
  51 5213.31 0.00000 1.06097e-09
  52 5213.31 0.00000 -1.46794e-10
  53 5213.31 0.00000 1.33060e-09
  54 5213.31 0.00000 -1.86477e-08
  55 5213.31 0.00000 6.30294e-08
  56 5213.31 0.00000 6.30867e-09
  57 5213.31 0.00000 -7.77682e-09
  58 5213.31 0.00000 -6.34619e-08
  59 5213.31 0.00000 4.77428e-11
  60 5213.31 0.00000 -2.38354e-10
  61 5213.31 0.00000 -1.31050e-08
  62 5213.31 0.00000 -1.26345e-07
  63 5213.31 0.00000 1.26278e-07
  64 5213.31 0.00000 1.32281e-08
  65 5213.31 0.00000 3.89639e-08
  66 5213.31 0.00000 -4.53244e-08
</Section>

newXOutput 125

<Section columns = "stress_xx | stress_yy | stress_xy">
  1 5272.49 0.00000 -6.77368e-08
  2 5272.49 0.00000 8.38002e-09
  3 5272.49 0.00000 -6.65547e-09
  4 5272.49 0.00000 6.80773e-08
  5 5272.49 0.00000 -1.45130e-07
  6 5272.49 0.00000 -2.31974e-07
  7 5272.49 0.00000 -2.45986e-07
  8 5272.49 0.00000 -1.88200e-07
  9 5272.49 0.00000 -1.03470e-07
  10 5272.49 0.00000 -6.03519e-08
  11 5272.49 0.00000 -1.05320e-08
  12 5272.49 0.00000 1.80415e-08
  13 5272.49 0.00000 1.51482e-08
  14 5272.49 0.00000 3.66104e-09
  15 5272.49 0.00000 -1.42961e-10
  16 5272.49 0.00000 -2.96987e-09
  17 5272.49 0.00000 -1.51936e-08
  18 5272.49 0.00000 -1.77907e-08
  19 5272.49 0.00000 2.18605e-09
  20 5272.49 0.00000 5.42126e-08
  21 5272.49 0.00000 1.15290e-07
  22 5272.49 0.00000 1.86346e-07
  23 5272.49 0.00000 2.45959e-07
  24 5272.49 0.00000 2.32855e-07
  25 5272.49 0.00000 1.45422e-07
  26 5272.49 0.00000 3.02170e-08
  27 5272.49 0.00000 4.75055e-11
  28 5272.49 0.00000 -3.00500e-08
  29 5272.49 0.00000 -4.18438e-10
  30 5272.49 0.00000 -1.50093e-09
  31 5272.49 0.00000 4.42271e-09
  32 5272.49 0.00000 2.42874e-08
  33 5272.49 0.00000 9.15683e-09
  34 5272.49 0.00000 8.74984e-08
  35 5272.49 0.00000 -8.71041e-08
  36 5272.49 0.00000 -7.84715e-09
  37 5272.49 0.00000 -2.26988e-08
  38 5272.49 0.00000 -1.28415e-07
  39 5272.49 0.00000 1.25349e-07
  40 5272.49 0.00000 -4.91949e-08
  41 5272.49 0.00000 6.00302e-08
  42 5272.49 0.00000 1.47184e-09
  43 5272.49 0.00000 7.01901e-09
  44 5272.49 0.00000 -1.46339e-07
  45 5272.49 0.00000 1.45574e-07
  46 5272.49 0.00000 -1.05344e-07
  47 5272.49 0.00000 -1.12080e-08
  48 5272.49 0.00000 1.15606e-07
  49 5272.49 0.00000 7.75827e-10
  50 5272.49 0.00000 2.94258e-10
  51 5272.49 0.00000 -1.43140e-09
  52 5272.49 0.00000 2.57160e-10
  53 5272.49 0.00000 -1.75200e-09
  54 5272.49 0.00000 2.62468e-08
  55 5272.49 0.00000 -8.10315e-08
  56 5272.49 0.00000 -7.85083e-09
  57 5272.49 0.00000 9.66404e-09
  58 5272.49 0.00000 8.15375e-08
  59 5272.49 0.00000 -8.92629e-11
  60 5272.49 0.00000 3.26105e-10
  61 5272.49 0.00000 1.61694e-08
  62 5272.49 0.00000 1.62551e-07
  63 5272.49 0.00000 -1.62469e-07
  64 5272.49 0.00000 -1.62440e-08
  65 5272.49 0.00000 -5.28856e-08
  66 5272.49 0.00000 6.10277e-08
</Section>

newXOutput 126

<Section columns = "stress_xx | stress_yy | stress_xy">
  1 5331.90 0.00000 8.71544e-08
  2 5331.90 0.00000 -1.04617e-08
  3 5331.90 0.00000 8.29758e-09
  4 5331.90 0.00000 -8.75390e-08
  5 5331.90 0.00000 1.87213e-07
  6 5331.90 0.00000 2.99736e-07
  7 5331.90 0.00000 3.19137e-07
  8 5331.90 0.00000 2.46246e-07
  9 5331.90 0.00000 1.37216e-07
  10 5331.90 0.00000 8.18969e-08
  11 5331.90 0.00000 1.64411e-08
  12 5331.90 0.00000 -2.15276e-08
  13 5331.90 0.00000 -1.87627e-08
  14 5331.90 0.00000 -4.56858e-09
  15 5331.90 0.00000 1.87981e-10
  16 5331.90 0.00000 3.70886e-09
  17 5331.90 0.00000 1.86939e-08
  18 5331.90 0.00000 2.12250e-08
  19 5331.90 0.00000 -5.42145e-09
  20 5331.90 0.00000 -7.38603e-08
  21 5331.90 0.00000 -1.52669e-07
  22 5331.90 0.00000 -2.43667e-07
  23 5331.90 0.00000 -3.19106e-07
  24 5331.90 0.00000 -3.00894e-07
  25 5331.90 0.00000 -1.87594e-07
  26 5331.90 0.00000 -3.88346e-08
  27 5331.90 0.00000 -5.22102e-11
  28 5331.90 0.00000 3.86475e-08
  29 5331.90 0.00000 4.93713e-10
  30 5331.90 0.00000 1.59191e-09
  31 5331.90 0.00000 -5.76085e-09
  32 5331.90 0.00000 -3.31111e-08
  33 5331.90 0.00000 -1.12053e-08
  34 5331.90 0.00000 -1.12914e-07
  35 5331.90 0.00000 1.12498e-07
  36 5331.90 0.00000 9.61395e-09
  37 5331.90 0.00000 3.12306e-08
  38 5331.90 0.00000 1.67332e-07
  39 5331.90 0.00000 -1.63360e-07
  40 5331.90 0.00000 6.57606e-08
  41 5331.90 0.00000 -7.96826e-08
  42 5331.90 0.00000 -3.38008e-09
  43 5331.90 0.00000 -7.94074e-09
  44 5331.90 0.00000 1.88992e-07
  45 5331.90 0.00000 -1.88087e-07
  46 5331.90 0.00000 1.38584e-07
  47 5331.90 0.00000 1.30366e-08
  48 5331.90 0.00000 -1.51860e-07
  49 5331.90 0.00000 -9.28835e-10
  50 5331.90 0.00000 -3.31894e-10
  51 5331.90 0.00000 1.93244e-09
  52 5331.90 0.00000 -4.17679e-10
  53 5331.90 0.00000 2.31544e-09
  54 5331.90 0.00000 -3.68387e-08
  55 5331.90 0.00000 1.04477e-07
  56 5331.90 0.00000 9.75153e-09
  57 5331.90 0.00000 -1.20004e-08
  58 5331.90 0.00000 -1.05070e-07
  59 5331.90 0.00000 1.48029e-10
  60 5331.90 0.00000 -4.46321e-10
  61 5331.90 0.00000 -1.99109e-08
  62 5331.90 0.00000 -2.09733e-07
  63 5331.90 0.00000 2.09631e-07
  64 5331.90 0.00000 1.98916e-08
  65 5331.90 0.00000 7.18550e-08
  66 5331.90 0.00000 -8.22979e-08
</Section>

newXOutput 127

<Section columns = "stress_xx | stress_yy | stress_xy">
  1 5391.56 0.00000 -1.12470e-07
  2 5391.56 0.00000 1.30537e-08
  3 5391.56 0.00000 -1.03243e-08
  4 5391.56 0.00000 1.12903e-07
  5 5391.56 0.00000 -2.42197e-07
  6 5391.56 0.00000 -3.88393e-07
  7 5391.56 0.00000 -4.15191e-07
  8 5391.56 0.00000 -3.23046e-07
  9 5391.56 0.00000 -1.82400e-07
  10 5391.56 0.00000 -1.11278e-07
  11 5391.56 0.00000 -2.50562e-08
  12 5391.56 0.00000 2.54895e-08
  13 5391.56 0.00000 2.31983e-08
  14 5391.56 0.00000 5.69670e-09
  15 5391.56 0.00000 -2.47229e-10
  16 5391.56 0.00000 -4.62465e-09
  17 5391.56 0.00000 -2.29355e-08
  18 5391.56 0.00000 -2.51235e-08
  19 5391.56 0.00000 1.04756e-08
  20 5391.56 0.00000 1.00730e-07
  21 5391.56 0.00000 2.02663e-07
  22 5391.56 0.00000 3.19468e-07
  23 5391.56 0.00000 4.15151e-07
  24 5391.56 0.00000 3.89921e-07
  25 5391.56 0.00000 2.42701e-07
  26 5391.56 0.00000 5.00611e-08
  27 5391.56 0.00000 5.62194e-11
  28 5391.56 0.00000 -4.98521e-08
  29 5391.56 0.00000 -5.82787e-10
  30 5391.56 0.00000 -1.60928e-09
  31 5391.56 0.00000 7.52514e-09
  32 5391.56 0.00000 4.51800e-08
  33 5391.56 0.00000 1.36702e-08
  34 5391.56 0.00000 1.46134e-07
  35 5391.56 0.00000 -1.45711e-07
  36 5391.56 0.00000 -1.17284e-08
  37 5391.56 0.00000 -4.29734e-08
  38 5391.56 0.00000 -2.18633e-07
  39 5391.56 0.00000 2.13469e-07
  40 5391.56 0.00000 -8.80787e-08
  41 5391.56 0.00000 1.06018e-07
  42 5391.56 0.00000 6.33802e-09
  43 5391.56 0.00000 8.77099e-09
  44 5391.56 0.00000 -2.44777e-07
  45 5391.56 0.00000 2.43705e-07
  46 5391.56 0.00000 -1.82773e-07
  47 5391.56 0.00000 -1.49600e-08
  48 5391.56 0.00000 2.00000e-07
  49 5391.56 0.00000 1.11346e-09
  50 5391.56 0.00000 3.71590e-10
  51 5391.56 0.00000 -2.61225e-09
  52 5391.56 0.00000 6.46245e-10
  53 5391.56 0.00000 -3.07296e-09
  54 5391.56 0.00000 5.15972e-08
  55 5391.56 0.00000 -1.35099e-07
  56 5391.56 0.00000 -1.20848e-08
  57 5391.56 0.00000 1.48843e-08
  58 5391.56 0.00000 1.35794e-07
  59 5391.56 0.00000 -2.33255e-10
  60 5391.56 0.00000 6.14182e-10
  61 5391.56 0.00000 2.44555e-08
  62 5391.56 0.00000 2.71392e-07
  63 5391.56 0.00000 -2.71261e-07
  64 5391.56 0.00000 -2.42764e-08
  65 5391.56 0.00000 -9.77371e-08
  66 5391.56 0.00000 1.11164e-07
</Section>

newXOutput 128

<Section columns = "stress_xx | stress_yy | stress_xy">
  1 5451.47 0.00000 1.45568e-07
  2 5451.47 0.00000 -1.62738e-08
  3 5451.47 0.00000 1.28164e-08
  4 5451.47 0.00000 -1.46054e-07
  5 5451.47 0.00000 3.14244e-07
  6 5451.47 0.00000 5.04719e-07
  7 5451.47 0.00000 5.41672e-07
  8 5451.47 0.00000 4.24936e-07
  9 5451.47 0.00000 2.43047e-07
  10 5451.47 0.00000 1.51413e-07
  11 5451.47 0.00000 3.75425e-08
  12 5451.47 0.00000 -2.98772e-08
  13 5451.47 0.00000 -2.86114e-08
  14 5451.47 0.00000 -7.09860e-09
  15 5451.47 0.00000 3.22698e-10
  16 5451.47 0.00000 5.75619e-09
  17 5451.47 0.00000 2.80408e-08
  18 5451.47 0.00000 2.94348e-08
  19 5451.47 0.00000 -1.82060e-08
  20 5451.47 0.00000 -1.37530e-07
  21 5451.47 0.00000 -2.69691e-07
  22 5451.47 0.00000 -4.19973e-07
  23 5451.47 0.00000 -5.41616e-07
  24 5451.47 0.00000 -5.06736e-07
  25 5451.47 0.00000 -3.14913e-07
  26 5451.47 0.00000 -6.47295e-08
  27 5451.47 0.00000 -5.96404e-11
  28 5451.47 0.00000 6.44976e-08
  29 5451.47 0.00000 6.87598e-10
  30 5451.47 0.00000 1.49547e-09
  31 5451.47 0.00000 -9.85973e-09
  32 5451.47 0.00000 -6.17085e-08
  33 5451.47 0.00000 -1.66114e-08
  34 5451.47 0.00000 -1.89681e-07
  35 5451.47 0.00000 1.89271e-07
  36 5451.47 0.00000 1.42319e-08
  37 5451.47 0.00000 5.91559e-08
  38 5451.47 0.00000 2.86443e-07
  39 5451.47 0.00000 -2.79706e-07
  40 5451.47 0.00000 1.18219e-07
  41 5451.47 0.00000 -1.41394e-07
  42 5451.47 0.00000 -1.08336e-08
  43 5451.47 0.00000 -9.35407e-09
  44 5451.47 0.00000 3.17943e-07
  45 5451.47 0.00000 -3.16674e-07
  46 5451.47 0.00000 2.41672e-07
  47 5451.47 0.00000 1.68532e-08
  48 5451.47 0.00000 -2.64090e-07
  49 5451.47 0.00000 -1.33574e-09
  50 5451.47 0.00000 -4.11576e-10
  51 5451.47 0.00000 3.53587e-09
  52 5451.47 0.00000 -9.72886e-10
  53 5451.47 0.00000 4.09257e-09
  54 5451.47 0.00000 -7.21599e-08
  55 5451.47 0.00000 1.75206e-07
  56 5451.47 0.00000 1.49339e-08
  57 5451.47 0.00000 -1.84326e-08
  58 5451.47 0.00000 -1.76024e-07
  59 5451.47 0.00000 3.53777e-10
  60 5451.47 0.00000 -8.47311e-10
  61 5451.47 0.00000 -2.99388e-08
  62 5451.47 0.00000 -3.52199e-07
  63 5451.47 0.00000 3.52030e-07
  64 5451.47 0.00000 2.95006e-08
  65 5451.47 0.00000 1.33113e-07
  66 5451.47 0.00000 -1.50413e-07
</Section>

newXOutput 129

<Section columns = "stress_xx | stress_yy | stress_xy">
  1 5511.62 0.00000 -1.88970e-07
  2 5511.62 0.00000 2.02602e-08
  3 5511.62 0.00000 -1.58599e-08
  4 5511.62 0.00000 1.89509e-07
  5 5511.62 0.00000 -4.08922e-07
  6 5511.62 0.00000 -6.57779e-07
  7 5511.62 0.00000 -7.08684e-07
  8 5511.62 0.00000 -5.60471e-07
  9 5511.62 0.00000 -3.24655e-07
  10 5511.62 0.00000 -2.06336e-07
  11 5511.62 0.00000 -5.55628e-08
  12 5511.62 0.00000 3.45399e-08
  13 5511.62 0.00000 3.51715e-08
  14 5511.62 0.00000 8.83237e-09
  15 5511.62 0.00000 -4.19659e-10
  16 5511.62 0.00000 -7.14411e-09
  17 5511.62 0.00000 -3.41237e-08
  18 5511.62 0.00000 -3.40112e-08
  19 5511.62 0.00000 2.98544e-08
  20 5511.62 0.00000 1.88012e-07
  21 5511.62 0.00000 3.59779e-07
  22 5511.62 0.00000 5.53596e-07
  23 5511.62 0.00000 7.08600e-07
  24 5511.62 0.00000 6.60452e-07
  25 5511.62 0.00000 4.09807e-07
  26 5511.62 0.00000 8.39508e-08
  27 5511.62 0.00000 6.20819e-11
  28 5511.62 0.00000 -8.36969e-08
  29 5511.62 0.00000 -8.09992e-10
  30 5511.62 0.00000 -1.16392e-09
  31 5511.62 0.00000 1.29559e-08
  32 5511.62 0.00000 8.43853e-08
  33 5511.62 0.00000 2.00861e-08
  34 5511.62 0.00000 2.46926e-07
  35 5511.62 0.00000 -2.46564e-07
  36 5511.62 0.00000 -1.71515e-08
  37 5511.62 0.00000 -8.14853e-08
  38 5511.62 0.00000 -3.76325e-07
  39 5511.62 0.00000 3.67501e-07
  40 5511.62 0.00000 -1.59010e-07
  41 5511.62 0.00000 1.89031e-07
  42 5511.62 0.00000 1.75772e-08
  43 5511.62 0.00000 9.43283e-09
  44 5511.62 0.00000 -4.14178e-07
  45 5511.62 0.00000 4.12676e-07
  46 5511.62 0.00000 -3.20381e-07
  47 5511.62 0.00000 -1.84910e-08
  48 5511.62 0.00000 3.49637e-07
  49 5511.62 0.00000 1.60405e-09
  50 5511.62 0.00000 4.50285e-10
  51 5511.62 0.00000 -4.79375e-09
  52 5511.62 0.00000 1.43319e-09
  53 5511.62 0.00000 -5.46887e-09
  54 5511.62 0.00000 1.00819e-07
  55 5511.62 0.00000 -2.27892e-07
  56 5511.62 0.00000 -1.83847e-08
  57 5511.62 0.00000 2.27746e-08
  58 5511.62 0.00000 2.28852e-07
  59 5511.62 0.00000 -5.22438e-10
  60 5511.62 0.00000 1.17304e-09
  61 5511.62 0.00000 3.64935e-08
  62 5511.62 0.00000 4.58401e-07
  63 5511.62 0.00000 -4.58184e-07
  64 5511.62 0.00000 -3.56460e-08
  65 5511.62 0.00000 -1.81547e-07
  66 5511.62 0.00000 2.03884e-07
</Section>

newXOutput 130

<Section columns = "stress_xx | stress_yy | stress_xy">
  1 5572.02 0.00000 2.46047e-07
  2 5572.02 0.00000 -2.51727e-08
  3 5572.02 0.00000 1.95484e-08
  4 5572.02 0.00000 -2.46640e-07
  5 5572.02 0.00000 5.33695e-07
  6 5572.02 0.00000 8.59753e-07
  7 5572.02 0.00000 9.29838e-07
  8 5572.02 0.00000 7.41257e-07
  9 5572.02 0.00000 4.34743e-07
  10 5572.02 0.00000 2.81640e-07
  11 5572.02 0.00000 8.14775e-08
  12 5572.02 0.00000 -3.91844e-08
  13 5572.02 0.00000 -4.30533e-08
  14 5572.02 0.00000 -1.09671e-08
  15 5572.02 0.00000 5.46123e-10
  16 5572.02 0.00000 8.83814e-09
  17 5572.02 0.00000 4.12855e-08
  18 5572.02 0.00000 3.85586e-08
  19 5572.02 0.00000 -4.72191e-08
  20 5572.02 0.00000 -2.57387e-07
  21 5572.02 0.00000 -4.81175e-07
  22 5572.02 0.00000 -7.31737e-07
  23 5572.02 0.00000 -9.29707e-07
  24 5572.02 0.00000 -8.63306e-07
  25 5572.02 0.00000 -5.34877e-07
  26 5572.02 0.00000 -1.09213e-07
  27 5572.02 0.00000 -6.20413e-11
  28 5572.02 0.00000 1.08940e-07
  29 5572.02 0.00000 9.52848e-10
  30 5572.02 0.00000 4.84019e-10
  31 5572.02 0.00000 -1.70767e-08
  32 5572.02 0.00000 -1.15545e-07
  33 5572.02 0.00000 -2.41301e-08
  34 5572.02 0.00000 -3.22402e-07
  35 5572.02 0.00000 3.22136e-07
  36 5572.02 0.00000 2.04894e-08
  37 5572.02 0.00000 1.12337e-07
  38 5572.02 0.00000 4.95789e-07
  39 5572.02 0.00000 -4.84192e-07
  40 5572.02 0.00000 2.14345e-07
  41 5572.02 0.00000 -2.53338e-07
  42 5572.02 0.00000 -2.75857e-08
  43 5572.02 0.00000 -8.60404e-09
  44 5572.02 0.00000 5.41123e-07
  45 5572.02 0.00000 -5.39348e-07
  46 5572.02 0.00000 4.25842e-07
  47 5572.02 0.00000 1.94966e-08
  48 5572.02 0.00000 -4.64134e-07
  49 5572.02 0.00000 -1.92541e-09
  50 5572.02 0.00000 -4.83820e-10
  51 5572.02 0.00000 6.50710e-09
  52 5572.02 0.00000 -2.08160e-09
  53 5572.02 0.00000 7.33390e-09
  54 5572.02 0.00000 -1.40785e-07
  55 5572.02 0.00000 2.97300e-07
  56 5572.02 0.00000 2.25281e-08
  57 5572.02 0.00000 -2.80565e-08
  58 5572.02 0.00000 -2.98428e-07
  59 5572.02 0.00000 7.57435e-10
  60 5572.02 0.00000 -1.62665e-09
  61 5572.02 0.00000 -4.42385e-08
  62 5572.02 0.00000 -5.98387e-07
  63 5572.02 0.00000 5.98103e-07
  64 5572.02 0.00000 4.27606e-08
  65 5572.02 0.00000 2.47980e-07
  66 5572.02 0.00000 -2.76880e-07
</Section>

newXOutput 131

<Section columns = "stress_xx | stress_yy | stress_xy">
  1 5632.67 0.00000 -3.21330e-07
  2 5632.67 0.00000 3.12035e-08
  3 5632.67 0.00000 -2.39806e-08
  4 5632.67 0.00000 3.21976e-07
  5 5632.67 0.00000 -6.98612e-07
  6 5632.67 0.00000 -1.12704e-06
  7 5632.67 0.00000 -1.22352e-06
  8 5632.67 0.00000 -9.83059e-07
  9 5632.67 0.00000 -5.83624e-07
  10 5632.67 0.00000 -3.85086e-07
  11 5632.67 0.00000 -1.18654e-07
  12 5632.67 0.00000 4.32738e-08
  13 5632.67 0.00000 5.24195e-08
  14 5632.67 0.00000 1.35822e-08
  15 5632.67 0.00000 -7.09261e-10
  16 5632.67 0.00000 -1.08906e-08
  17 5632.67 0.00000 -4.95678e-08
  18 5632.67 0.00000 -4.25401e-08
  19 5632.67 0.00000 7.28924e-08
  20 5632.67 0.00000 3.52896e-07
  21 5632.67 0.00000 6.45178e-07
  22 5632.67 0.00000 9.69880e-07
  23 5632.67 0.00000 1.22331e-06
  24 5632.67 0.00000 1.13178e-06
  25 5632.67 0.00000 7.00198e-07
  26 5632.67 0.00000 1.42515e-07
  27 5632.67 0.00000 5.82135e-11
  28 5632.67 0.00000 -1.42228e-07
  29 5632.67 0.00000 -1.11745e-09
  30 5632.67 0.00000 7.43308e-10
  31 5632.67 0.00000 2.25745e-08
  32 5632.67 0.00000 1.58439e-07
  33 5632.67 0.00000 2.87450e-08
  34 5632.67 0.00000 4.22200e-07
  35 5632.67 0.00000 -4.22106e-07
  36 5632.67 0.00000 -2.42005e-08
  37 5632.67 0.00000 -1.55024e-07
  38 5632.67 0.00000 -6.55015e-07
  39 5632.67 0.00000 6.39722e-07
  40 5632.67 0.00000 -2.89581e-07
  41 5632.67 0.00000 3.40368e-07
  42 5632.67 0.00000 4.23314e-08
  43 5632.67 0.00000 6.24073e-09
  44 5632.67 0.00000 -7.09062e-07
  45 5632.67 0.00000 7.06966e-07
  46 5632.67 0.00000 -5.67522e-07
  47 5632.67 0.00000 -1.92605e-08
  48 5632.67 0.00000 6.17790e-07
  49 5632.67 0.00000 2.31043e-09
  50 5632.67 0.00000 5.05308e-10
  51 5632.67 0.00000 -8.84945e-09
  52 5632.67 0.00000 2.99326e-09
  53 5632.67 0.00000 -9.86744e-09
  54 5632.67 0.00000 1.96562e-07
  55 5632.67 0.00000 -3.89005e-07
  56 5632.67 0.00000 -2.74461e-08
  57 5632.67 0.00000 3.44331e-08
  58 5632.67 0.00000 3.90332e-07
  59 5632.67 0.00000 -1.08591e-09
  60 5632.67 0.00000 2.26448e-09
  61 5632.67 0.00000 5.32484e-08
  62 5632.67 0.00000 7.83441e-07
  63 5632.67 0.00000 -7.83061e-07
  64 5632.67 0.00000 -5.08149e-08
  65 5632.67 0.00000 -3.39269e-07
  66 5632.67 0.00000 3.76739e-07
</Section>

newXOutput 132

<Section columns = "stress_xx | stress_yy | stress_xy">
  1 5693.57 0.00000 4.20920e-07
  2 5693.57 0.00000 -3.85581e-08
  3 5693.57 0.00000 2.92401e-08
  4 5693.57 0.00000 -4.21611e-07
  5 5693.57 0.00000 9.17228e-07
  6 5693.57 0.00000 1.48180e-06
  7 5693.57 0.00000 1.61463e-06
  8 5693.57 0.00000 1.30737e-06
  9 5693.57 0.00000 7.85490e-07
  10 5693.57 0.00000 5.27475e-07
  11 5693.57 0.00000 1.71888e-07
  12 5693.57 0.00000 -4.58932e-08
  13 5693.57 0.00000 -6.33867e-08
  14 5693.57 0.00000 -1.67670e-08
  15 5693.57 0.00000 9.20074e-10
  16 5693.57 0.00000 1.33513e-08
  17 5693.57 0.00000 5.89264e-08
  18 5693.57 0.00000 4.50449e-08
  19 5693.57 0.00000 -1.10614e-07
  20 5693.57 0.00000 -4.84635e-07
  21 5693.57 0.00000 -8.67319e-07
  22 5693.57 0.00000 -1.28912e-06
  23 5693.57 0.00000 -1.61429e-06
  24 5693.57 0.00000 -1.48812e-06
  25 5693.57 0.00000 -9.19361e-07
  26 5693.57 0.00000 -1.86543e-07
  27 5693.57 0.00000 -4.76711e-11
  28 5693.57 0.00000 1.86253e-07
  29 5693.57 0.00000 1.30540e-09
  30 5693.57 0.00000 -2.81427e-09
  31 5693.57 0.00000 -2.99319e-08
  32 5693.57 0.00000 -2.17595e-07
  33 5693.57 0.00000 -3.38600e-08
  34 5693.57 0.00000 -5.54547e-07
  35 5693.57 0.00000 5.54736e-07
  36 5693.57 0.00000 2.81474e-08
  37 5693.57 0.00000 2.14183e-07
  38 5693.57 0.00000 8.67835e-07
  39 5693.57 0.00000 -8.47601e-07
  40 5693.57 0.00000 3.92120e-07
  41 5693.57 0.00000 -4.58447e-07
  42 5693.57 0.00000 -6.39302e-08
  43 5693.57 0.00000 -1.37643e-09
  44 5693.57 0.00000 9.31883e-07
  45 5693.57 0.00000 -9.29417e-07
  46 5693.57 0.00000 7.58374e-07
  47 5693.57 0.00000 1.68145e-08
  48 5693.57 0.00000 -8.24557e-07
  49 5693.57 0.00000 -2.77101e-09
  50 5693.57 0.00000 -5.05991e-10
  51 5693.57 0.00000 1.20555e-08
  52 5693.57 0.00000 -4.27287e-09
  53 5693.57 0.00000 1.33181e-08
  54 5693.57 0.00000 -2.74482e-07
  55 5693.57 0.00000 5.10525e-07
  56 5693.57 0.00000 3.31877e-08
  57 5693.57 0.00000 -4.20529e-08
  58 5693.57 0.00000 -5.12088e-07
  59 5693.57 0.00000 1.54343e-09
  60 5693.57 0.00000 -3.15962e-09
  61 5693.57 0.00000 -6.35007e-08
  62 5693.57 0.00000 -1.02879e-06
  63 5693.57 0.00000 1.02827e-06
  64 5693.57 0.00000 5.96319e-08
  65 5693.57 0.00000 4.64959e-07
  66 5693.57 0.00000 -5.13644e-07
</Section>

newXOutput 133

<Section columns = "stress_xx | stress_yy | stress_xy">
  1 5754.72 0.00000 -5.53058e-07
  2 5754.72 0.00000 4.74520e-08
  3 5754.72 0.00000 -3.53770e-08
  4 5754.72 0.00000 5.53777e-07
  5 5754.72 0.00000 -1.20788e-06
  6 5754.72 0.00000 -1.95402e-06
  7 5754.72 0.00000 -2.13699e-06
  8 5754.72 0.00000 -1.74356e-06
  9 5754.72 0.00000 -1.05991e-06
  10 5754.72 0.00000 -7.23876e-07
  11 5754.72 0.00000 -2.48024e-07
  12 5754.72 0.00000 4.55319e-08
  13 5754.72 0.00000 7.59616e-08
  14 5754.72 0.00000 2.06095e-08
  15 5754.72 0.00000 -1.19251e-09
  16 5754.72 0.00000 -1.62614e-08
  17 5754.72 0.00000 -6.91314e-08
  18 5754.72 0.00000 -4.45708e-08
  19 5754.72 0.00000 1.65779e-07
  20 5754.72 0.00000 6.66699e-07
  21 5754.72 0.00000 1.16900e-06
  22 5754.72 0.00000 1.71828e-06
  23 5754.72 0.00000 2.13646e-06
  24 5754.72 0.00000 1.96250e-06
  25 5754.72 0.00000 1.21077e-06
  26 5754.72 0.00000 2.44933e-07
  27 5754.72 0.00000 2.74197e-11
  28 5754.72 0.00000 -2.44656e-07
  29 5754.72 0.00000 -1.51774e-09
  30 5754.72 0.00000 6.16476e-09
  31 5754.72 0.00000 3.98065e-08
  32 5754.72 0.00000 2.99334e-07
  33 5754.72 0.00000 3.92785e-08
  34 5754.72 0.00000 7.30578e-07
  35 5754.72 0.00000 -7.31212e-07
  36 5754.72 0.00000 -3.20498e-08
  37 5754.72 0.00000 -2.96303e-07
  38 5754.72 0.00000 -1.15310e-06
  39 5754.72 0.00000 1.12623e-06
  40 5754.72 0.00000 -5.32208e-07
  41 5754.72 0.00000 6.19067e-07
  42 5754.72 0.00000 9.54270e-08
  43 5754.72 0.00000 -7.45719e-09
  44 5754.72 0.00000 -1.22839e-06
  45 5754.72 0.00000 1.22550e-06
  46 5754.72 0.00000 -1.01616e-06
  47 5754.72 0.00000 -1.06518e-08
  48 5754.72 0.00000 1.10356e-06
  49 5754.72 0.00000 3.31770e-09
  50 5754.72 0.00000 4.72396e-10
  51 5754.72 0.00000 -1.64536e-08
  52 5754.72 0.00000 6.06566e-09
  53 5754.72 0.00000 -1.80334e-08
  54 5754.72 0.00000 3.83452e-07
  55 5754.72 0.00000 -6.72032e-07
  56 5754.72 0.00000 -3.97418e-08
  57 5754.72 0.00000 5.10311e-08
  58 5754.72 0.00000 6.73872e-07
  59 5754.72 0.00000 -2.17980e-09
  60 5754.72 0.00000 4.41958e-09
  61 5754.72 0.00000 7.47980e-08
  62 5754.72 0.00000 1.35503e-06
  63 5754.72 0.00000 -1.35433e-06
  64 5754.72 0.00000 -6.87943e-08
  65 5754.72 0.00000 -6.38365e-07
  66 5754.72 0.00000 7.01746e-07
</Section>

newXOutput 134

<Section columns = "stress_xx | stress_yy | stress_xy">
  1 5816.13 0.00000 7.28907e-07
  2 5816.13 0.00000 -5.80839e-08
  3 5816.13 0.00000 4.23684e-08
  4 5816.13 0.00000 -7.29629e-07
  5 5816.13 0.00000 1.59547e-06
  6 5816.13 0.00000 2.58447e-06
  7 5816.13 0.00000 2.83671e-06
  8 5816.13 0.00000 2.33188e-06
  9 5816.13 0.00000 1.43395e-06
  10 5816.13 0.00000 9.95349e-07
  11 5816.13 0.00000 3.56831e-07
  12 5816.13 0.00000 -3.97681e-08
  13 5816.13 0.00000 -8.99422e-08
  14 5816.13 0.00000 -2.51915e-08
  15 5816.13 0.00000 1.54349e-09
  16 5816.13 0.00000 1.96411e-08
  17 5816.13 0.00000 7.96391e-08
  18 5816.13 0.00000 3.87082e-08
  19 5816.13 0.00000 -2.46164e-07
  20 5816.13 0.00000 -9.18824e-07
  21 5816.13 0.00000 -1.57978e-06
  22 5816.13 0.00000 -2.29684e-06
  23 5816.13 0.00000 -2.83587e-06
  24 5816.13 0.00000 -2.59585e-06
  25 5816.13 0.00000 -1.59938e-06
  26 5816.13 0.00000 -3.22602e-07
  27 5816.13 0.00000 7.34474e-12
  28 5816.13 0.00000 3.22366e-07
  29 5816.13 0.00000 1.75432e-09
  30 5816.13 0.00000 -1.14464e-08
  31 5816.13 0.00000 -5.30947e-08
  32 5816.13 0.00000 -4.12501e-07
  33 5816.13 0.00000 -4.46112e-08
  34 5816.13 0.00000 -9.65409e-07
  35 5816.13 0.00000 9.66725e-07
  36 5816.13 0.00000 3.54028e-08
  37 5816.13 0.00000 4.10505e-07
  38 5816.13 0.00000 1.53656e-06
  39 5816.13 0.00000 -1.50077e-06
  40 5816.13 0.00000 7.24065e-07
  41 5816.13 0.00000 -8.38119e-07
  42 5816.13 0.00000 -1.41207e-07
  43 5816.13 0.00000 2.24749e-08
  44 5816.13 0.00000 1.62413e-06
  45 5816.13 0.00000 -1.62075e-06
  46 5816.13 0.00000 1.36533e-06
  47 5816.13 0.00000 -1.54056e-09
  48 5816.13 0.00000 -1.48108e-06
  49 5816.13 0.00000 -3.96253e-09
  50 5816.13 0.00000 -3.83200e-10
  51 5816.13 0.00000 2.25025e-08
  52 5816.13 0.00000 -8.57375e-09
  53 5816.13 0.00000 2.44956e-08
  54 5816.13 0.00000 -5.36040e-07
  55 5816.13 0.00000 8.87325e-07
  56 5816.13 0.00000 4.69827e-08
  57 5816.13 0.00000 -6.14099e-08
  58 5816.13 0.00000 -8.89490e-07
  59 5816.13 0.00000 3.06301e-09
  60 5816.13 0.00000 -6.19609e-09
  61 5816.13 0.00000 -8.66388e-08
  62 5816.13 0.00000 -1.79013e-06
  63 5816.13 0.00000 1.78918e-06
  64 5816.13 0.00000 7.74841e-08
  65 5816.13 0.00000 8.78096e-07
  66 5816.13 0.00000 -9.60775e-07
</Section>

newXOutput 135

<Section columns = "stress_xx | stress_yy | stress_xy">
  1 5877.80 0.00000 -9.63636e-07
  2 5877.80 0.00000 7.06087e-08
  3 5877.80 0.00000 -5.00669e-08
  4 5877.80 0.00000 9.64318e-07
  5 5877.80 0.00000 -2.11387e-06
  6 5877.80 0.00000 -3.42866e-06
  7 5877.80 0.00000 -3.77673e-06
  8 5877.80 0.00000 -3.12765e-06
  9 5877.80 0.00000 -1.94513e-06
  10 5877.80 0.00000 -1.37141e-06
  11 5877.80 0.00000 -5.12276e-07
  12 5877.80 0.00000 2.47989e-08
  13 5877.80 0.00000 1.04785e-07
  14 5877.80 0.00000 3.05698e-08
  15 5877.80 0.00000 -1.99601e-09
  16 5877.80 0.00000 -2.34615e-08
  17 5877.80 0.00000 -8.94217e-08
  18 5877.80 0.00000 -2.36822e-08
  19 5877.80 0.00000 3.62992e-07
  20 5877.80 0.00000 1.26869e-06
  21 5877.80 0.00000 2.14062e-06
  22 5877.80 0.00000 3.07903e-06
  23 5877.80 0.00000 3.77541e-06
  24 5877.80 0.00000 3.44400e-06
  25 5877.80 0.00000 2.11918e-06
  26 5877.80 0.00000 4.26231e-07
  27 5877.80 0.00000 -6.37116e-11
  28 5877.80 0.00000 -4.26078e-07
  29 5877.80 0.00000 -2.00983e-09
  30 5877.80 0.00000 1.96136e-08
  31 5877.80 0.00000 7.10297e-08
  32 5877.80 0.00000 5.69503e-07
  33 5877.80 0.00000 4.91238e-08
  34 5877.80 0.00000 1.27962e-06
  35 5877.80 0.00000 -1.28196e-06
  36 5877.80 0.00000 -3.73106e-08
  37 5877.80 0.00000 -5.69608e-07
  38 5877.80 0.00000 -2.05352e-06
  39 5877.80 0.00000 2.00568e-06
  40 5877.80 0.00000 -9.87472e-07
  41 5877.80 0.00000 1.13765e-06
  42 5877.80 0.00000 2.07589e-07
  43 5877.80 0.00000 -4.70027e-08
  44 5877.80 0.00000 -2.15389e-06
  45 5877.80 0.00000 2.14996e-06
  46 5877.80 0.00000 -1.83957e-06
  47 5877.80 0.00000 2.32972e-08
  48 5877.80 0.00000 1.99332e-06
  49 5877.80 0.00000 4.71599e-09
  50 5877.80 0.00000 2.08879e-10
  51 5877.80 0.00000 -3.08405e-08
  52 5877.80 0.00000 1.20822e-08
  53 5877.80 0.00000 -3.33786e-08
  54 5877.80 0.00000 7.50005e-07
  55 5877.80 0.00000 -1.17518e-06
  56 5877.80 0.00000 -5.45813e-08
  57 5877.80 0.00000 7.30850e-08
  58 5877.80 0.00000 1.17772e-06
  59 5877.80 0.00000 -4.28984e-09
  60 5877.80 0.00000 8.70436e-09
  61 5877.80 0.00000 9.80189e-08
  62 5877.80 0.00000 2.37215e-06
  63 5877.80 0.00000 -2.37084e-06
  64 5877.80 0.00000 -8.42337e-08
  65 5877.80 0.00000 -1.21023e-06
  66 5877.80 0.00000 1.31829e-06
</Section>

newXOutput 136

<Section columns = "stress_xx | stress_yy | stress_xy">
  1 5939.73 0.00000 1.27791e-06
  2 5939.73 0.00000 -8.50581e-08
  3 5939.73 0.00000 5.80839e-08
  4 5939.73 0.00000 -1.27848e-06
  5 5939.73 0.00000 2.80931e-06
  6 5939.73 0.00000 4.56246e-06
  7 5939.73 0.00000 5.04334e-06
  8 5939.73 0.00000 4.20711e-06
  9 5939.73 0.00000 2.64559e-06
  10 5939.73 0.00000 1.89351e-06
  11 5939.73 0.00000 7.34351e-07
  12 5939.73 0.00000 5.29965e-09
  13 5939.73 0.00000 -1.19340e-07
  14 5939.73 0.00000 -3.67419e-08
  15 5939.73 0.00000 2.58012e-09
  16 5939.73 0.00000 2.76143e-08
  17 5939.73 0.00000 9.66141e-08
  18 5939.73 0.00000 -6.39567e-09
  19 5939.73 0.00000 -5.32465e-07
  20 5939.73 0.00000 -1.75525e-06
  21 5939.73 0.00000 -2.90842e-06
  22 5939.73 0.00000 -4.13957e-06
  23 5939.73 0.00000 -5.04127e-06
  24 5939.73 0.00000 -4.58316e-06
  25 5939.73 0.00000 -2.81655e-06
  26 5939.73 0.00000 -5.64925e-07
  27 5939.73 0.00000 1.52281e-10
  28 5939.73 0.00000 5.64916e-07
  29 5939.73 0.00000 2.27665e-09
  30 5939.73 0.00000 -3.20780e-08
  31 5939.73 0.00000 -9.53089e-08
  32 5939.73 0.00000 -7.87781e-07
  33 5939.73 0.00000 -5.15648e-08
  34 5939.73 0.00000 -1.70132e-06
  35 5939.73 0.00000 1.70516e-06
  36 5939.73 0.00000 3.63070e-08
  37 5939.73 0.00000 7.91695e-07
  38 5939.73 0.00000 2.75247e-06
  39 5939.73 0.00000 -2.68832e-06
  40 5939.73 0.00000 1.35003e-06
  41 5939.73 0.00000 -1.54831e-06
  42 5939.73 0.00000 -3.03678e-07
  43 5939.73 0.00000 8.60145e-08
  44 5939.73 0.00000 2.86517e-06
  45 5939.73 0.00000 -2.86065e-06
  46 5939.73 0.00000 2.48548e-06
  47 5939.73 0.00000 -5.99665e-08
  48 5939.73 0.00000 -2.69034e-06
  49 5939.73 0.00000 -5.58159e-09
  50 5939.73 0.00000 9.49491e-11
  51 5939.73 0.00000 4.23604e-08
  52 5939.73 0.00000 -1.69917e-08
  53 5939.73 0.00000 4.56223e-08
  54 5939.73 0.00000 -1.05049e-06
  55 5939.73 0.00000 1.56121e-06
  56 5939.73 0.00000 6.18695e-08
  57 5939.73 0.00000 -8.56858e-08
  58 5939.73 0.00000 -1.56420e-06
  59 5939.73 0.00000 5.99138e-09
  60 5939.73 0.00000 -1.22514e-08
  61 5939.73 0.00000 -1.07106e-07
  62 5939.73 0.00000 -3.15306e-06
  63 5939.73 0.00000 3.15123e-06
  64 5939.73 0.00000 8.65430e-08
  65 5939.73 0.00000 1.67139e-06
  66 5939.73 0.00000 -1.81290e-06
</Section>

newXOutput 137

<Section columns = "stress_xx | stress_yy | stress_xy">
  1 6001.93 0.00000 -1.69997e-06
  2 6001.93 0.00000 1.01236e-07
  3 6001.93 0.00000 -6.56619e-08
  4 6001.93 0.00000 1.70034e-06
  5 6001.93 0.00000 -3.74510e-06
  6 6001.93 0.00000 -6.08981e-06
  7 6001.93 0.00000 -6.75507e-06
  8 6001.93 0.00000 -5.67564e-06
  9 6001.93 0.00000 -3.60805e-06
  10 6001.93 0.00000 -2.62003e-06
  11 6001.93 0.00000 -1.05171e-06
  12 6001.93 0.00000 -5.96402e-08
  13 6001.93 0.00000 1.31478e-07
  14 6001.93 0.00000 4.36005e-08
  15 6001.93 0.00000 -3.33229e-09
  16 6001.93 0.00000 -3.18464e-08
  17 6001.93 0.00000 -9.80690e-08
  18 6001.93 0.00000 6.05716e-08
  19 6001.93 0.00000 7.77991e-07
  20 6001.93 0.00000 2.43339e-06
  21 6001.93 0.00000 3.96243e-06
  22 6001.93 0.00000 5.58170e-06
  23 6001.93 0.00000 6.75188e-06
  24 6001.93 0.00000 6.11783e-06
  25 6001.93 0.00000 3.75501e-06
  26 6001.93 0.00000 7.51120e-07
  27 6001.93 0.00000 -2.88085e-10
  28 6001.93 0.00000 -7.51350e-07
  29 6001.93 0.00000 -2.53639e-09
  30 6001.93 0.00000 5.09140e-08
  31 6001.93 0.00000 1.28270e-07
  32 6001.93 0.00000 1.09191e-06
  33 6001.93 0.00000 4.98451e-08
  34 6001.93 0.00000 2.26899e-06
  35 6001.93 0.00000 -2.27504e-06
  36 6001.93 0.00000 -3.00036e-08
  37 6001.93 0.00000 -1.10232e-06
  38 6001.93 0.00000 -3.70028e-06
  39 6001.93 0.00000 3.61395e-06
  40 6001.93 0.00000 -1.85033e-06
  41 6001.93 0.00000 2.11285e-06
  42 6001.93 0.00000 4.42613e-07
  43 6001.93 0.00000 -1.46926e-07
  44 6001.93 0.00000 -3.82309e-06
  45 6001.93 0.00000 3.81795e-06
  46 6001.93 0.00000 -3.36772e-06
  47 6001.93 0.00000 1.19606e-07
  48 6001.93 0.00000 3.64148e-06
  49 6001.93 0.00000 6.56046e-09
  50 6001.93 0.00000 -5.93213e-10
  51 6001.93 0.00000 -5.83150e-08
  52 6001.93 0.00000 2.38656e-08
  53 6001.93 0.00000 -6.25487e-08
  54 6001.93 0.00000 1.47317e-06
  55 6001.93 0.00000 -2.08048e-06
  56 6001.93 0.00000 -6.76311e-08
  57 6001.93 0.00000 9.83920e-08
  58 6001.93 0.00000 2.08399e-06
  59 6001.93 0.00000 -8.35467e-09
  60 6001.93 0.00000 1.72817e-08
  61 6001.93 0.00000 1.10760e-07
  62 6001.93 0.00000 4.20399e-06
  63 6001.93 0.00000 -4.20142e-06
  64 6001.93 0.00000 -8.03084e-08
  65 6001.93 0.00000 -2.31314e-06
  66 6001.93 0.00000 2.49881e-06
</Section>

newXOutput 138

<Section columns = "stress_xx | stress_yy | stress_xy">
  1 6064.38 0.00000 2.26854e-06
  2 6064.38 0.00000 -1.18522e-07
  3 6064.38 0.00000 7.14056e-08
  4 6064.38 0.00000 -2.26856e-06
  5 6064.38 0.00000 5.00815e-06
  6 6064.38 0.00000 8.15356e-06
  7 6064.38 0.00000 9.07533e-06
  8 6064.38 0.00000 7.67930e-06
  9 6064.38 0.00000 4.93414e-06
  10 6064.38 0.00000 3.63336e-06
  11 6064.38 0.00000 1.50550e-06
  12 6064.38 0.00000 1.52145e-07
  13 6064.38 0.00000 -1.37479e-07
  14 6064.38 0.00000 -5.08454e-08
  15 6064.38 0.00000 4.29891e-09
  16 6064.38 0.00000 3.56694e-08
  17 6064.38 0.00000 8.86042e-08
  18 6064.38 0.00000 -1.52667e-07
  19 6064.38 0.00000 -1.13342e-06
  20 6064.38 0.00000 -3.38067e-06
  21 6064.38 0.00000 -5.41332e-06
  22 6064.38 0.00000 -7.54846e-06
  23 6064.38 0.00000 -9.07041e-06
  24 6064.38 0.00000 -8.19160e-06
  25 6064.38 0.00000 -5.02176e-06
  26 6064.38 0.00000 -1.00186e-06
  27 6064.38 0.00000 4.93068e-10
  28 6064.38 0.00000 1.00247e-06
  29 6064.38 0.00000 2.76071e-09
  30 6064.38 0.00000 -7.91692e-08
  31 6064.38 0.00000 -1.73150e-07
  32 6064.38 0.00000 -1.51660e-06
  33 6064.38 0.00000 -4.05873e-08
  34 6064.38 0.00000 -3.03550e-06
  35 6064.38 0.00000 3.04474e-06
  36 6064.38 0.00000 1.46058e-08
  37 6064.38 0.00000 1.53769e-06
  38 6064.38 0.00000 4.98932e-06
  39 6064.38 0.00000 -4.87278e-06
  40 6064.38 0.00000 2.54251e-06
  41 6064.38 0.00000 -2.89103e-06
  42 6064.38 0.00000 -6.43369e-07
  43 6064.38 0.00000 2.40758e-07
  44 6064.38 0.00000 5.11710e-06
  45 6064.38 0.00000 -5.11134e-06
  46 6064.38 0.00000 4.57617e-06
  47 6064.38 0.00000 -2.14310e-07
  48 6064.38 0.00000 -4.94312e-06
  49 6064.38 0.00000 -7.63461e-09
  50 6064.38 0.00000 1.37854e-09
  51 6064.38 0.00000 8.04650e-08
  52 6064.38 0.00000 -3.34963e-08
  53 6064.38 0.00000 8.60159e-08
  54 6064.38 0.00000 -2.06878e-06
  55 6064.38 0.00000 2.78111e-06
  56 6064.38 0.00000 6.97617e-08
  57 6064.38 0.00000 -1.09623e-07
  58 6064.38 0.00000 -2.78523e-06
  59 6064.38 0.00000 1.16361e-08
  60 6064.38 0.00000 -2.44268e-08
  61 6064.38 0.00000 -1.03766e-07
  62 6064.38 0.00000 -5.62263e-06
  63 6064.38 0.00000 5.61902e-06
  64 6064.38 0.00000 5.89208e-08
  65 6064.38 0.00000 3.20825e-06
  66 6064.38 0.00000 -3.45230e-06
</Section>

newXOutput 139

<Section columns = "stress_xx | stress_yy | stress_xy">
  1 6127.11 0.00000 -3.03684e-06
  2 6127.11 0.00000 1.35586e-07
  3 6127.11 0.00000 -7.29100e-08
  4 6127.11 0.00000 3.03629e-06
  5 6127.11 0.00000 -6.71817e-06
  6 6127.11 0.00000 -1.09507e-05
  7 6127.11 0.00000 -1.22300e-05
  8 6127.11 0.00000 -1.04211e-05
  9 6127.11 0.00000 -6.76629e-06
  10 6127.11 0.00000 -5.05008e-06
  11 6127.11 0.00000 -2.15487e-06
  12 6127.11 0.00000 -3.03965e-07
  13 6127.11 0.00000 1.31113e-07
  14 6127.11 0.00000 5.78444e-08
  15 6127.11 0.00000 -5.54240e-09
  16 6127.11 0.00000 -3.81998e-08
  17 6127.11 0.00000 -5.98654e-08
  18 6127.11 0.00000 3.03677e-07
  19 6127.11 0.00000 1.64776e-06
  20 6127.11 0.00000 4.70697e-06
  21 6127.11 0.00000 7.41613e-06
  22 6127.11 0.00000 1.02386e-05
  23 6127.11 0.00000 1.22225e-05
  24 6127.11 0.00000 1.10024e-05
  25 6127.11 0.00000 6.73693e-06
  26 6127.11 0.00000 1.34059e-06
  27 6127.11 0.00000 -7.99838e-10
  28 6127.11 0.00000 -1.34177e-06
  29 6127.11 0.00000 -2.89938e-09
  30 6127.11 0.00000 1.21320e-07
  31 6127.11 0.00000 2.34438e-07
  32 6127.11 0.00000 2.11102e-06
  33 6127.11 0.00000 1.84076e-08
  34 6127.11 0.00000 4.07368e-06
  35 6127.11 0.00000 -4.08753e-06
  36 6127.11 0.00000 1.58399e-08
  37 6127.11 0.00000 -2.14919e-06
  38 6127.11 0.00000 -6.74771e-06
  39 6127.11 0.00000 6.58986e-06
  40 6127.11 0.00000 -3.50266e-06
  41 6127.11 0.00000 3.96667e-06
  42 6127.11 0.00000 9.33380e-07
  43 6127.11 0.00000 -3.83867e-07
  44 6127.11 0.00000 -6.87048e-06
  45 6127.11 0.00000 6.86418e-06
  46 6127.11 0.00000 -6.23622e-06
  47 6127.11 0.00000 3.62164e-07
  48 6127.11 0.00000 6.72959e-06
  49 6127.11 0.00000 8.76105e-09
  50 6127.11 0.00000 -2.58676e-09
  51 6127.11 0.00000 -1.11296e-07
  52 6127.11 0.00000 4.70024e-08
  53 6127.11 0.00000 -1.18642e-07
  54 6127.11 0.00000 2.90959e-06
  55 6127.11 0.00000 -3.72938e-06
  56 6127.11 0.00000 -6.47459e-08
  57 6127.11 0.00000 1.16573e-07
  58 6127.11 0.00000 3.73419e-06
  59 6127.11 0.00000 -1.61959e-08
  60 6127.11 0.00000 3.45924e-08
  61 6127.11 0.00000 7.76858e-08
  62 6127.11 0.00000 7.54353e-06
  63 6127.11 0.00000 -7.53844e-06
  64 6127.11 0.00000 -1.19181e-08
  65 6127.11 0.00000 -4.45968e-06
  66 6127.11 0.00000 4.78106e-06
</Section>

newXOutput 140

<Section columns = "stress_xx | stress_yy | stress_xy">
  1 6190.10 0.00000 4.07827e-06
  2 6190.10 0.00000 -1.49903e-07
  3 6190.10 0.00000 6.61743e-08
  4 6190.10 0.00000 -4.07686e-06
  5 6190.10 0.00000 9.04052e-06
  6 6190.10 0.00000 1.47534e-05
  7 6190.10 0.00000 1.65321e-05
  8 6190.10 0.00000 1.41843e-05
  9 6190.10 0.00000 9.30473e-06
  10 6190.10 0.00000 7.03560e-06
  11 6190.10 0.00000 3.08504e-06
  12 6190.10 0.00000 5.47113e-07
  13 6190.10 0.00000 -1.02205e-07
  14 6190.10 0.00000 -6.34255e-08
  15 6190.10 0.00000 7.13849e-09
  16 6190.10 0.00000 3.79334e-08
  17 6190.10 0.00000 -1.38518e-09
  18 6190.10 0.00000 -5.45374e-07
  19 6190.10 0.00000 -2.39207e-06
  20 6190.10 0.00000 -6.56833e-06
  21 6190.10 0.00000 -1.01886e-05
  22 6190.10 0.00000 -1.39292e-05
  23 6190.10 0.00000 -1.65207e-05
  24 6190.10 0.00000 -1.48240e-05
  25 6190.10 0.00000 -9.06645e-06
  26 6190.10 0.00000 -1.79961e-06
  27 6190.10 0.00000 1.25265e-09
  28 6190.10 0.00000 1.80166e-06
  29 6190.10 0.00000 2.87515e-09
  30 6190.10 0.00000 -1.83941e-07
  31 6190.10 0.00000 -3.18379e-07
  32 6190.10 0.00000 -2.94494e-06
  33 6190.10 0.00000 2.51399e-08
  34 6190.10 0.00000 -5.48419e-06
  35 6190.10 0.00000 5.50466e-06
  36 6190.10 0.00000 -7.05819e-08
  37 6190.10 0.00000 3.00997e-06
  38 6190.10 0.00000 9.15354e-06
  39 6190.10 0.00000 -8.93903e-06
  40 6190.10 0.00000 4.83808e-06
  41 6190.10 0.00000 -5.45756e-06
  42 6190.10 0.00000 -1.35237e-06
  43 6190.10 0.00000 6.00513e-07
  44 6190.10 0.00000 9.25368e-06
  45 6190.10 0.00000 -9.24702e-06
  46 6190.10 0.00000 8.52328e-06
  47 6190.10 0.00000 -5.90174e-07
  48 6190.10 0.00000 -9.18864e-06
  49 6190.10 0.00000 -9.85568e-09
  50 6190.10 0.00000 4.41243e-09
  51 6190.10 0.00000 1.54318e-07
  52 6190.10 0.00000 -6.59694e-08
  53 6190.10 0.00000 1.64135e-07
  54 6190.10 0.00000 -4.09884e-06
  55 6190.10 0.00000 5.01679e-06
  56 6190.10 0.00000 4.68769e-08
  57 6190.10 0.00000 -1.14482e-07
  58 6190.10 0.00000 -5.02238e-06
  59 6190.10 0.00000 2.25397e-08
  60 6190.10 0.00000 -4.90866e-08
  61 6190.10 0.00000 -1.90792e-08
  62 6190.10 0.00000 -1.01526e-05
  63 6190.10 0.00000 1.01454e-05
  64 6190.10 0.00000 -7.70690e-08
  65 6190.10 0.00000 6.21346e-06
  66 6190.10 0.00000 -6.63741e-06
</Section>

newXOutput 141

<Section columns = "stress_xx | stress_yy | stress_xy">
  1 6253.36 0.00000 -5.49439e-06
  2 6253.36 0.00000 1.57016e-07
  3 6253.36 0.00000 -4.46833e-08
  4 6253.36 0.00000 5.49166e-06
  5 6253.36 0.00000 -1.22043e-05
  6 6253.36 0.00000 -1.99394e-05
  7 6253.36 0.00000 -2.24173e-05
  8 6253.36 0.00000 -1.93645e-05
  9 6253.36 0.00000 -1.28317e-05
  10 6253.36 0.00000 -9.82514e-06
  11 6253.36 0.00000 -4.41899e-06
  12 6253.36 0.00000 -9.29867e-07
  13 6253.36 0.00000 3.44360e-08
  14 6253.36 0.00000 6.55363e-08
  15 6253.36 0.00000 -9.18191e-09
  16 6253.36 0.00000 -3.23785e-08
  17 6253.36 0.00000 1.15897e-07
  18 6253.36 0.00000 9.25663e-07
  19 6253.36 0.00000 3.46948e-06
  20 6253.36 0.00000 9.18688e-06
  21 6253.36 0.00000 1.40374e-05
  22 6253.36 0.00000 1.90075e-05
  23 6253.36 0.00000 2.23999e-05
  24 6253.36 0.00000 2.00360e-05
  25 6253.36 0.00000 1.22402e-05
  26 6253.36 0.00000 2.42361e-06
  27 6253.36 0.00000 -1.91860e-09
  28 6253.36 0.00000 -2.42696e-06
  29 6253.36 0.00000 -2.56633e-09
  30 6253.36 0.00000 2.76694e-07
  31 6253.36 0.00000 4.33690e-07
  32 6253.36 0.00000 4.11765e-06
  33 6253.36 0.00000 -1.03207e-07
  34 6253.36 0.00000 7.40654e-06
  35 6253.36 0.00000 -7.43648e-06
  36 6253.36 0.00000 1.63899e-07
  37 6253.36 0.00000 -4.22437e-06
  38 6253.36 0.00000 -1.24552e-05
  39 6253.36 0.00000 1.21627e-05
  40 6253.36 0.00000 -6.70045e-06
  41 6253.36 0.00000 7.52982e-06
  42 6253.36 0.00000 1.95795e-06
  43 6253.36 0.00000 -9.26641e-07
  44 6253.36 0.00000 -1.25030e-05
  45 6253.36 0.00000 1.24964e-05
  46 6253.36 0.00000 -1.16834e-05
  47 6253.36 0.00000 9.38596e-07
  48 6253.36 0.00000 1.25835e-05
  49 6253.36 0.00000 1.07683e-08
  50 6253.36 0.00000 -7.13796e-09
  51 6253.36 0.00000 -2.14510e-07
  52 6253.36 0.00000 9.26412e-08
  53 6253.36 0.00000 -2.27748e-07
  54 6253.36 0.00000 5.78427e-06
  55 6253.36 0.00000 -6.77009e-06
  56 6253.36 0.00000 -7.01987e-09
  57 6253.36 0.00000 9.54927e-08
  58 6253.36 0.00000 6.77658e-06
  59 6253.36 0.00000 -3.13776e-08
  60 6253.36 0.00000 6.97944e-08
  61 6253.36 0.00000 -9.31852e-08
  62 6253.36 0.00000 1.37074e-05
  63 6253.36 0.00000 -1.36971e-05
  64 6253.36 0.00000 2.33423e-07
  65 6253.36 0.00000 -8.67726e-06
  66 6253.36 0.00000 9.23746e-06
</Section>

newXOutput 142

<Section columns = "stress_xx | stress_yy | stress_xy">
  1 6316.90 0.00000 7.42606e-06
  2 6316.90 0.00000 -1.49370e-07
  3 6316.90 0.00000 -1.97857e-09
  4 6316.90 0.00000 -7.42140e-06
  5 6316.90 0.00000 1.65279e-05
  6 6316.90 0.00000 2.70338e-05
  7 6316.90 0.00000 3.04927e-05
  8 6316.90 0.00000 2.65171e-05
  9 6316.90 0.00000 1.77460e-05
  10 6316.90 0.00000 1.37541e-05
  11 6316.90 0.00000 6.33450e-06
  12 6316.90 0.00000 1.52488e-06
  13 6316.90 0.00000 9.80192e-08
  14 6316.90 0.00000 -6.07186e-08
  15 6316.90 0.00000 1.17933e-08
  16 6316.90 0.00000 1.74947e-08
  17 6316.90 0.00000 -3.15908e-07
  18 6316.90 0.00000 -1.51663e-06
  19 6316.90 0.00000 -5.02996e-06
  20 6316.90 0.00000 -1.28797e-05
  21 6316.90 0.00000 -1.93957e-05
  22 6316.90 0.00000 -2.60163e-05
  23 6316.90 0.00000 -3.04665e-05
  24 6316.90 0.00000 -2.71665e-05
  25 6316.90 0.00000 -1.65779e-05
  26 6316.90 0.00000 -3.27461e-06
  27 6316.90 0.00000 2.89290e-09
  28 6316.90 0.00000 3.27986e-06
  29 6316.90 0.00000 1.78219e-09
  30 6316.90 0.00000 -4.13776e-07
  31 6316.90 0.00000 -5.92566e-07
  32 6316.90 0.00000 -5.77082e-06
  33 6316.90 0.00000 2.36101e-07
  34 6316.90 0.00000 -1.00347e-05
  35 6316.90 0.00000 1.00782e-05
  36 6316.90 0.00000 -3.17676e-07
  37 6316.90 0.00000 5.94164e-06
  38 6316.90 0.00000 1.70000e-05
  39 6316.90 0.00000 -1.66000e-05
  40 6316.90 0.00000 9.30476e-06
  41 6316.90 0.00000 -1.04183e-05
  42 6316.90 0.00000 -2.83377e-06
  43 6316.90 0.00000 1.41549e-06
  44 6316.90 0.00000 1.69471e-05
  45 6316.90 0.00000 -1.69412e-05
  46 6316.90 0.00000 1.60627e-05
  47 6316.90 0.00000 -1.46738e-06
  48 6316.90 0.00000 -1.72841e-05
  49 6316.90 0.00000 -1.12379e-08
  50 6316.90 0.00000 1.11709e-08
  51 6316.90 0.00000 2.98941e-07
  52 6316.90 0.00000 -1.30209e-07
  53 6316.90 0.00000 3.16949e-07
  54 6316.90 0.00000 -8.17786e-06
  55 6316.90 0.00000 9.16541e-06
  56 6316.90 0.00000 -6.92436e-08
  57 6316.90 0.00000 -4.69049e-08
  58 6316.90 0.00000 -9.17288e-06
  59 6316.90 0.00000 4.37058e-08
  60 6316.90 0.00000 -9.94351e-08
  61 6316.90 0.00000 2.92044e-07
  62 6316.90 0.00000 -1.85660e-05
  63 6316.90 0.00000 1.85512e-05
  64 6316.90 0.00000 -4.96255e-07
  65 6316.90 0.00000 1.21471e-05
  66 6316.90 0.00000 -1.28886e-05
</Section>

newXOutput 143

<Section columns = "stress_xx | stress_yy | stress_xy">
  1 6380.71 0.00000 -1.00694e-05
  2 6380.71 0.00000 1.14486e-07
  3 6380.71 0.00000 9.02878e-08
  4 6380.71 0.00000 1.00619e-05
  5 6380.71 0.00000 -2.24553e-05
  6 6380.71 0.00000 -3.67698e-05
  7 6380.71 0.00000 -4.16082e-05
  8 6380.71 0.00000 -3.64230e-05
  9 6380.71 0.00000 -2.46132e-05
  10 6380.71 0.00000 -1.93021e-05
  11 6380.71 0.00000 -9.08918e-06
  12 6380.71 0.00000 -2.44132e-06
  13 6380.71 0.00000 -3.35647e-07
  14 6380.71 0.00000 4.32894e-08
  15 6380.71 0.00000 -1.51201e-08
  16 6380.71 0.00000 1.31739e-08
  17 6380.71 0.00000 6.51204e-07
  18 6380.71 0.00000 2.42656e-06
  19 6380.71 0.00000 7.29194e-06
  20 6380.71 0.00000 1.81005e-05
  21 6380.71 0.00000 2.68772e-05
  22 6380.71 0.00000 3.57192e-05
  23 6380.71 0.00000 4.15689e-05
  24 6380.71 0.00000 3.69523e-05
  25 6380.71 0.00000 2.25251e-05
  26 6380.71 0.00000 4.43890e-06
  27 6380.71 0.00000 -4.31456e-09
  28 6380.71 0.00000 -4.44693e-06
  29 6380.71 0.00000 -2.32726e-10
  30 6380.71 0.00000 6.16070e-07
  31 6380.71 0.00000 8.12126e-07
  32 6380.71 0.00000 8.10710e-06
  33 6380.71 0.00000 -4.55027e-07
  34 6380.71 0.00000 1.36392e-05
  35 6380.71 0.00000 -1.37020e-05
  36 6380.71 0.00000 5.65346e-07
  37 6380.71 0.00000 -8.37574e-06
  38 6380.71 0.00000 -2.32754e-05
  39 6380.71 0.00000 2.27264e-05
  40 6380.71 0.00000 -1.29567e-05
  41 6380.71 0.00000 1.44559e-05
  42 6380.71 0.00000 4.10155e-06
  43 6380.71 0.00000 -2.14595e-06
  44 6380.71 0.00000 -2.30446e-05
  45 6380.71 0.00000 2.30405e-05
  46 6380.71 0.00000 -2.21497e-05
  47 6380.71 0.00000 2.26574e-06
  48 6380.71 0.00000 2.38122e-05
  49 6380.71 0.00000 1.08356e-08
  50 6380.71 0.00000 -1.70980e-08
  51 6380.71 0.00000 -4.17696e-07
  52 6380.71 0.00000 1.83215e-07
  53 6380.71 0.00000 -4.42397e-07
  54 6380.71 0.00000 1.15845e-05
  55 6380.71 0.00000 -1.24482e-05
  56 6380.71 0.00000 2.04477e-07
  57 6380.71 0.00000 -5.15257e-08
  58 6380.71 0.00000 1.24567e-05
  59 6380.71 0.00000 -6.09305e-08
  60 6380.71 0.00000 1.41952e-07
  61 6380.71 0.00000 -6.28474e-07
  62 6380.71 0.00000 2.52275e-05
  63 6380.71 0.00000 -2.52064e-05
  64 6380.71 0.00000 9.25508e-07
  65 6380.71 0.00000 -1.70462e-05
  66 6380.71 0.00000 1.80291e-05
</Section>

newXOutput 144

<Section columns = "stress_xx | stress_yy | stress_xy">
  1 6444.79 0.00000 1.36981e-05
  2 6444.79 0.00000 -3.21614e-08
  3 6444.79 0.00000 -2.46058e-07
  4 6444.79 0.00000 -1.36866e-05
  5 6444.79 0.00000 3.06072e-05
  6 6444.79 0.00000 5.01730e-05
  7 6444.79 0.00000 5.69563e-05
  8 6444.79 0.00000 5.01840e-05
  9 6444.79 0.00000 3.42373e-05
  10 6444.79 0.00000 2.71565e-05
  11 6444.79 0.00000 1.30570e-05
  12 6444.79 0.00000 3.84300e-06
  13 6444.79 0.00000 7.41446e-07
  14 6444.79 0.00000 -4.07738e-09
  15 6444.79 0.00000 1.93400e-08
  16 6444.79 0.00000 -6.98231e-08
  17 6444.79 0.00000 -1.19829e-06
  18 6444.79 0.00000 -3.81798e-06
  19 6444.79 0.00000 -1.05741e-05
  20 6444.79 0.00000 -2.55002e-05
  21 6444.79 0.00000 -3.73536e-05
  22 6444.79 0.00000 -4.91928e-05
  23 6444.79 0.00000 -5.68972e-05
  24 6444.79 0.00000 -5.04249e-05
  25 6444.79 0.00000 -3.07048e-05
  26 6444.79 0.00000 -6.03693e-06
  27 6444.79 0.00000 6.38502e-09
  28 6444.79 0.00000 6.04901e-06
  29 6444.79 0.00000 -2.52632e-09
  30 6444.79 0.00000 -9.14323e-07
  31 6444.79 0.00000 -1.11646e-06
  32 6444.79 0.00000 -1.14171e-05
  33 6444.79 0.00000 8.07724e-07
  34 6444.79 0.00000 -1.85984e-05
  35 6444.79 0.00000 1.86887e-05
  36 6444.79 0.00000 -9.57805e-07
  37 6444.79 0.00000 1.18342e-05
  38 6444.79 0.00000 3.19671e-05
  39 6444.79 0.00000 -3.12112e-05
  40 6444.79 0.00000 1.80918e-05
  41 6444.79 0.00000 -2.01162e-05
  42 6444.79 0.00000 -5.93866e-06
  43 6444.79 0.00000 3.23492e-06
  44 6444.79 0.00000 3.14372e-05
  45 6444.79 0.00000 -3.14366e-05
  46 6444.79 0.00000 3.06358e-05
  47 6444.79 0.00000 -3.46647e-06
  48 6444.79 0.00000 -3.29059e-05
  49 6444.79 0.00000 -8.86713e-09
  50 6444.79 0.00000 2.57679e-08
  51 6444.79 0.00000 5.85175e-07
  52 6444.79 0.00000 -2.58150e-07
  53 6444.79 0.00000 6.19325e-07
  54 6444.79 0.00000 -1.64436e-05
  55 6444.79 0.00000 1.69616e-05
  56 6444.79 0.00000 -4.33737e-07
  57 6444.79 0.00000 2.31710e-07
  58 6444.79 0.00000 -1.69713e-05
  59 6444.79 0.00000 8.50374e-08
  60 6444.79 0.00000 -2.03060e-07
  61 6444.79 0.00000 1.18096e-06
  62 6444.79 0.00000 -3.43900e-05
  63 6444.79 0.00000 3.43597e-05
  64 6444.79 0.00000 -1.61274e-06
  65 6444.79 0.00000 2.39811e-05
  66 6444.79 0.00000 -2.52859e-05
</Section>

newXOutput 145

<Section columns = "stress_xx | stress_yy | stress_xy">
  1 6509.16 0.00000 -1.86956e-05
  2 6509.16 0.00000 -1.29873e-07
  3 6509.16 0.00000 5.09458e-07
  4 6509.16 0.00000 1.86783e-05
  5 6509.16 0.00000 -4.18545e-05
  6 6509.16 0.00000 -6.86838e-05
  7 6509.16 0.00000 -7.82157e-05
  8 6509.16 0.00000 -6.93594e-05
  9 6509.16 0.00000 -4.77645e-05
  10 6509.16 0.00000 -3.83054e-05
  11 6509.16 0.00000 -1.87819e-05
  12 6509.16 0.00000 -5.97565e-06
  13 6509.16 0.00000 -1.41289e-06
  14 6509.16 0.00000 -7.15321e-08
  15 6509.16 0.00000 -2.46647e-08
  16 6509.16 0.00000 1.68426e-07
  17 6509.16 0.00000 2.07432e-06
  18 6509.16 0.00000 5.93461e-06
  19 6509.16 0.00000 1.53422e-05
  20 6509.16 0.00000 3.60153e-05
  21 6509.16 0.00000 5.20671e-05
  22 6509.16 0.00000 6.79603e-05
  23 6509.16 0.00000 7.81271e-05
  24 6509.16 0.00000 6.90323e-05
  25 6509.16 0.00000 4.19914e-05
  26 6509.16 0.00000 8.23744e-06
  27 6509.16 0.00000 -9.39757e-09
  28 6509.16 0.00000 -8.25537e-06
  29 6509.16 0.00000 7.16543e-09
  30 6509.16 0.00000 1.35386e-06
  31 6509.16 0.00000 1.53960e-06
  32 6509.16 0.00000 1.61187e-05
  33 6509.16 0.00000 -1.36702e-06
  34 6509.16 0.00000 2.54435e-05
  35 6509.16 0.00000 -2.55730e-05
  36 6509.16 0.00000 1.57237e-06
  37 6509.16 0.00000 -1.67603e-05
  38 6509.16 0.00000 -4.40432e-05
  39 6509.16 0.00000 4.29990e-05
  40 6509.16 0.00000 -2.53330e-05
  41 6509.16 0.00000 2.80742e-05
  42 6509.16 0.00000 8.60415e-06
  43 6509.16 0.00000 -4.85578e-06
  44 6509.16 0.00000 -4.30256e-05
  45 6509.16 0.00000 4.30315e-05
  46 6509.16 0.00000 -4.25022e-05
  47 6509.16 0.00000 5.26723e-06
  48 6509.16 0.00000 4.56117e-05
  49 6509.16 0.00000 4.23034e-09
  50 6509.16 0.00000 -3.84065e-08
  51 6509.16 0.00000 -8.22023e-07
  52 6509.16 0.00000 3.64299e-07
  53 6509.16 0.00000 -8.69579e-07
  54 6509.16 0.00000 2.33903e-05
  55 6509.16 0.00000 -2.31869e-05
  56 6509.16 0.00000 8.11207e-07
  57 6509.16 0.00000 -5.43566e-07
  58 6509.16 0.00000 2.31977e-05
  59 6509.16 0.00000 -1.18839e-07
  60 6509.16 0.00000 2.91081e-07
  61 6509.16 0.00000 -2.06988e-06
  62 6509.16 0.00000 4.70330e-05
  63 6509.16 0.00000 -4.69893e-05
  64 6509.16 0.00000 2.69739e-06
  65 6509.16 0.00000 -3.38232e-05
  66 6509.16 0.00000 3.55577e-05
</Section>

newXOutput 146

<Section columns = "stress_xx | stress_yy | stress_xy">
  1 6573.81 0.00000 2.56005e-05
  2 6573.81 0.00000 4.22655e-07
  3 6573.81 0.00000 -9.42680e-07
  4 6573.81 0.00000 -2.55750e-05
  5 6573.81 0.00000 5.74224e-05
  6 6573.81 0.00000 9.43306e-05
  7 6573.81 0.00000 0.000107757
  8 6573.81 0.00000 9.61625e-05
  9 6573.81 0.00000 6.68339e-05
  10 6573.81 0.00000 5.41730e-05
  11 6573.81 0.00000 2.70572e-05
  12 6573.81 0.00000 9.20778e-06
  13 6573.81 0.00000 2.50022e-06
  14 6573.81 0.00000 2.06606e-07
  15 6573.81 0.00000 3.13399e-08
  16 6573.81 0.00000 -3.33853e-07
  17 6573.81 0.00000 -3.45813e-06
  18 6573.81 0.00000 -9.14196e-06
  19 6573.81 0.00000 -2.22783e-05
  20 6573.81 0.00000 -5.09965e-05
  21 6573.81 0.00000 -7.27928e-05
  22 6573.81 0.00000 -9.41835e-05
  23 6573.81 0.00000 -0.000107624
  24 6573.81 0.00000 -9.48143e-05
  25 6573.81 0.00000 -5.76151e-05
  26 6573.81 0.00000 -1.12774e-05
  27 6573.81 0.00000 1.37792e-08
  28 6573.81 0.00000 1.13038e-05
  29 6573.81 0.00000 -1.46963e-08
  30 6573.81 0.00000 -2.00158e-06
  31 6573.81 0.00000 -2.12970e-06
  32 6573.81 0.00000 -2.28144e-05
  33 6573.81 0.00000 2.24374e-06
  34 6573.81 0.00000 -3.49219e-05
  35 6573.81 0.00000 3.51073e-05
  36 6573.81 0.00000 -2.52627e-06
  37 6573.81 0.00000 2.37943e-05
  38 6573.81 0.00000 6.08740e-05
  39 6573.81 0.00000 -5.94271e-05
  40 6573.81 0.00000 3.55731e-05
  41 6573.81 0.00000 -3.92957e-05
  42 6573.81 0.00000 -1.24770e-05
  43 6573.81 0.00000 7.26583e-06
  44 6573.81 0.00000 5.90784e-05
  45 6573.81 0.00000 -5.90952e-05
  46 6573.81 0.00000 5.91462e-05
  47 6573.81 0.00000 -7.96237e-06
  48 6573.81 0.00000 -6.34189e-05
  49 6573.81 0.00000 4.80208e-09
  50 6573.81 0.00000 5.67863e-08
  51 6573.81 0.00000 1.15790e-06
  52 6573.81 0.00000 -5.14985e-07
  53 6573.81 0.00000 1.22457e-06
  54 6573.81 0.00000 -3.33447e-05
  55 6573.81 0.00000 3.18010e-05
  56 6573.81 0.00000 -1.42030e-06
  57 6573.81 0.00000 1.06471e-06
  58 6573.81 0.00000 -3.18129e-05
  59 6573.81 0.00000 1.66328e-07
  60 6573.81 0.00000 -4.18140e-07
  61 6573.81 0.00000 3.47931e-06
  62 6573.81 0.00000 -6.45348e-05
  63 6573.81 0.00000 6.44715e-05
  64 6573.81 0.00000 -4.39137e-06
  65 6573.81 0.00000 4.78284e-05
  66 6573.81 0.00000 -5.01370e-05
</Section>

newXOutput 147

<Section columns = "stress_xx | stress_yy | stress_xy">
  1 6638.75 0.00000 -3.51719e-05
  2 6638.74 0.00000 -9.26280e-07
  3 6638.74 0.00000 1.64164e-06
  4 6638.75 0.00000 3.51349e-05
  5 6638.75 0.00000 -7.90408e-05
  6 6638.74 0.00000 -0.000129980
  7 6638.74 0.00000 -0.000148937
  8 6638.74 0.00000 -0.000133745
  9 6638.74 0.00000 -9.37963e-05
  10 6638.74 0.00000 -7.68171e-05
  11 6638.74 0.00000 -3.90420e-05
  12 6638.74 0.00000 -1.40921e-05
  13 6638.74 0.00000 -4.23419e-06
  14 6638.74 0.00000 -4.37292e-07
  15 6638.74 0.00000 -3.96343e-08
  16 6638.74 0.00000 6.04635e-07
  17 6638.74 0.00000 5.62234e-06
  18 6638.74 0.00000 1.39881e-05
  19 6638.74 0.00000 3.23836e-05
  20 6638.74 0.00000 7.23975e-05
  21 6638.74 0.00000 0.000102075
  22 6638.74 0.00000 0.000130939
  23 6638.74 0.00000 0.000148739
  24 6638.74 0.00000 0.000130653
  25 6638.75 0.00000 7.93130e-05
  26 6638.75 0.00000 1.54910e-05
  27 6638.75 0.00000 -2.01529e-08
  28 6638.75 0.00000 -1.55295e-05
  29 6638.74 0.00000 2.66392e-08
  30 6638.74 0.00000 2.95634e-06
  31 6638.74 0.00000 2.95518e-06
  32 6638.74 0.00000 3.23752e-05
  33 6638.74 0.00000 -3.60631e-06
  34 6638.75 0.00000 4.80894e-05
  35 6638.75 0.00000 -4.83545e-05
  36 6638.74 0.00000 3.99713e-06
  37 6638.74 0.00000 -3.38640e-05
  38 6638.74 0.00000 -8.44062e-05
  39 6638.74 0.00000 8.23943e-05
  40 6638.74 0.00000 -5.00956e-05
  41 6638.74 0.00000 5.51656e-05
  42 6638.74 0.00000 1.81127e-05
  43 6638.74 0.00000 -1.08474e-05
  44 6638.74 0.00000 -8.13876e-05
  45 6638.74 0.00000 8.14223e-05
  46 6638.74 0.00000 -8.25631e-05
  47 6638.74 0.00000 1.19905e-05
  48 6638.74 0.00000 8.84529e-05
  49 6638.74 0.00000 -2.09219e-08
  50 6638.75 0.00000 -8.34743e-08
  51 6638.74 0.00000 -1.63554e-06
  52 6638.74 0.00000 7.29376e-07
  53 6638.74 0.00000 -1.72961e-06
  54 6638.74 0.00000 4.76431e-05
  55 6638.75 0.00000 -4.37595e-05
  56 6638.74 0.00000 2.38906e-06
  57 6638.74 0.00000 -1.91526e-06
  58 6638.75 0.00000 4.37723e-05
  59 6638.74 0.00000 -2.33186e-07
  60 6638.74 0.00000 6.01953e-07
  61 6638.74 0.00000 -5.69016e-06
  62 6638.74 0.00000 8.88412e-05
  63 6638.74 0.00000 -8.87495e-05
  64 6638.74 0.00000 7.01632e-06
  65 6638.74 0.00000 -6.78110e-05
  66 6638.74 0.00000 7.08874e-05
</Section>

newXOutput 148

<Section columns = "stress_xx | stress_yy | stress_xy">
  1 0.00000 0.00000 0.00000
  2 0.00000 0.00000 0.00000
  3 0.00000 0.00000 0.00000
  4 0.00000 0.00000 0.00000
  5 0.00000 0.00000 0.00000
  6 0.00000 0.00000 0.00000
  7 0.00000 0.00000 0.00000
  8 0.00000 0.00000 0.00000
  9 0.00000 0.00000 0.00000
  10 0.00000 0.00000 0.00000
  11 0.00000 0.00000 0.00000
  12 0.00000 0.00000 0.00000
  13 0.00000 0.00000 0.00000
  14 0.00000 0.00000 0.00000
  15 0.00000 0.00000 0.00000
  16 0.00000 0.00000 0.00000
  17 0.00000 0.00000 0.00000
  18 0.00000 0.00000 0.00000
  19 0.00000 0.00000 0.00000
  20 0.00000 0.00000 0.00000
  21 0.00000 0.00000 0.00000
  22 0.00000 0.00000 0.00000
  23 0.00000 0.00000 0.00000
  24 0.00000 0.00000 0.00000
  25 0.00000 0.00000 0.00000
  26 0.00000 0.00000 0.00000
  27 0.00000 0.00000 0.00000
  28 0.00000 0.00000 0.00000
  29 0.00000 0.00000 0.00000
  30 0.00000 0.00000 0.00000
  31 0.00000 0.00000 0.00000
  32 0.00000 0.00000 0.00000
  33 0.00000 0.00000 0.00000
  34 0.00000 0.00000 0.00000
  35 0.00000 0.00000 0.00000
  36 0.00000 0.00000 0.00000
  37 0.00000 0.00000 0.00000
  38 0.00000 0.00000 0.00000
  39 0.00000 0.00000 0.00000
  40 0.00000 0.00000 0.00000
  41 0.00000 0.00000 0.00000
  42 0.00000 0.00000 0.00000
  43 0.00000 0.00000 0.00000
  44 0.00000 0.00000 0.00000
  45 0.00000 0.00000 0.00000
  46 0.00000 0.00000 0.00000
  47 0.00000 0.00000 0.00000
  48 0.00000 0.00000 0.00000
  49 0.00000 0.00000 0.00000
  50 0.00000 0.00000 0.00000
  51 0.00000 0.00000 0.00000
  52 0.00000 0.00000 0.00000
  53 0.00000 0.00000 0.00000
  54 0.00000 0.00000 0.00000
  55 0.00000 0.00000 0.00000
  56 0.00000 0.00000 0.00000
  57 0.00000 0.00000 0.00000
  58 0.00000 0.00000 0.00000
  59 0.00000 0.00000 0.00000
  60 0.00000 0.00000 0.00000
  61 0.00000 0.00000 0.00000
  62 0.00000 0.00000 0.00000
  63 0.00000 0.00000 0.00000
  64 0.00000 0.00000 0.00000
  65 0.00000 0.00000 0.00000
  66 0.00000 0.00000 0.00000
</Section>

newXOutput 149

<Section columns = "stress_xx | stress_yy | stress_xy">
  1 0.00000 0.00000 0.00000
  2 0.00000 0.00000 0.00000
  3 0.00000 0.00000 0.00000
  4 0.00000 0.00000 0.00000
  5 0.00000 0.00000 0.00000
  6 0.00000 0.00000 0.00000
  7 0.00000 0.00000 0.00000
  8 0.00000 0.00000 0.00000
  9 0.00000 0.00000 0.00000
  10 0.00000 0.00000 0.00000
  11 0.00000 0.00000 0.00000
  12 0.00000 0.00000 0.00000
  13 0.00000 0.00000 0.00000
  14 0.00000 0.00000 0.00000
  15 0.00000 0.00000 0.00000
  16 0.00000 0.00000 0.00000
  17 0.00000 0.00000 0.00000
  18 0.00000 0.00000 0.00000
  19 0.00000 0.00000 0.00000
  20 0.00000 0.00000 0.00000
  21 0.00000 0.00000 0.00000
  22 0.00000 0.00000 0.00000
  23 0.00000 0.00000 0.00000
  24 0.00000 0.00000 0.00000
  25 0.00000 0.00000 0.00000
  26 0.00000 0.00000 0.00000
  27 0.00000 0.00000 0.00000
  28 0.00000 0.00000 0.00000
  29 0.00000 0.00000 0.00000
  30 0.00000 0.00000 0.00000
  31 0.00000 0.00000 0.00000
  32 0.00000 0.00000 0.00000
  33 0.00000 0.00000 0.00000
  34 0.00000 0.00000 0.00000
  35 0.00000 0.00000 0.00000
  36 0.00000 0.00000 0.00000
  37 0.00000 0.00000 0.00000
  38 0.00000 0.00000 0.00000
  39 0.00000 0.00000 0.00000
  40 0.00000 0.00000 0.00000
  41 0.00000 0.00000 0.00000
  42 0.00000 0.00000 0.00000
  43 0.00000 0.00000 0.00000
  44 0.00000 0.00000 0.00000
  45 0.00000 0.00000 0.00000
  46 0.00000 0.00000 0.00000
  47 0.00000 0.00000 0.00000
  48 0.00000 0.00000 0.00000
  49 0.00000 0.00000 0.00000
  50 0.00000 0.00000 0.00000
  51 0.00000 0.00000 0.00000
  52 0.00000 0.00000 0.00000
  53 0.00000 0.00000 0.00000
  54 0.00000 0.00000 0.00000
  55 0.00000 0.00000 0.00000
  56 0.00000 0.00000 0.00000
  57 0.00000 0.00000 0.00000
  58 0.00000 0.00000 0.00000
  59 0.00000 0.00000 0.00000
  60 0.00000 0.00000 0.00000
  61 0.00000 0.00000 0.00000
  62 0.00000 0.00000 0.00000
  63 0.00000 0.00000 0.00000
  64 0.00000 0.00000 0.00000
  65 0.00000 0.00000 0.00000
  66 0.00000 0.00000 0.00000
</Section>

newXOutput 150

<Section columns = "stress_xx | stress_yy | stress_xy">
  1 0.00000 0.00000 0.00000
  2 0.00000 0.00000 0.00000
  3 0.00000 0.00000 0.00000
  4 0.00000 0.00000 0.00000
  5 0.00000 0.00000 0.00000
  6 0.00000 0.00000 0.00000
  7 0.00000 0.00000 0.00000
  8 0.00000 0.00000 0.00000
  9 0.00000 0.00000 0.00000
  10 0.00000 0.00000 0.00000
  11 0.00000 0.00000 0.00000
  12 0.00000 0.00000 0.00000
  13 0.00000 0.00000 0.00000
  14 0.00000 0.00000 0.00000
  15 0.00000 0.00000 0.00000
  16 0.00000 0.00000 0.00000
  17 0.00000 0.00000 0.00000
  18 0.00000 0.00000 0.00000
  19 0.00000 0.00000 0.00000
  20 0.00000 0.00000 0.00000
  21 0.00000 0.00000 0.00000
  22 0.00000 0.00000 0.00000
  23 0.00000 0.00000 0.00000
  24 0.00000 0.00000 0.00000
  25 0.00000 0.00000 0.00000
  26 0.00000 0.00000 0.00000
  27 0.00000 0.00000 0.00000
  28 0.00000 0.00000 0.00000
  29 0.00000 0.00000 0.00000
  30 0.00000 0.00000 0.00000
  31 0.00000 0.00000 0.00000
  32 0.00000 0.00000 0.00000
  33 0.00000 0.00000 0.00000
  34 0.00000 0.00000 0.00000
  35 0.00000 0.00000 0.00000
  36 0.00000 0.00000 0.00000
  37 0.00000 0.00000 0.00000
  38 0.00000 0.00000 0.00000
  39 0.00000 0.00000 0.00000
  40 0.00000 0.00000 0.00000
  41 0.00000 0.00000 0.00000
  42 0.00000 0.00000 0.00000
  43 0.00000 0.00000 0.00000
  44 0.00000 0.00000 0.00000
  45 0.00000 0.00000 0.00000
  46 0.00000 0.00000 0.00000
  47 0.00000 0.00000 0.00000
  48 0.00000 0.00000 0.00000
  49 0.00000 0.00000 0.00000
  50 0.00000 0.00000 0.00000
  51 0.00000 0.00000 0.00000
  52 0.00000 0.00000 0.00000
  53 0.00000 0.00000 0.00000
  54 0.00000 0.00000 0.00000
  55 0.00000 0.00000 0.00000
  56 0.00000 0.00000 0.00000
  57 0.00000 0.00000 0.00000
  58 0.00000 0.00000 0.00000
  59 0.00000 0.00000 0.00000
  60 0.00000 0.00000 0.00000
  61 0.00000 0.00000 0.00000
  62 0.00000 0.00000 0.00000
  63 0.00000 0.00000 0.00000
  64 0.00000 0.00000 0.00000
  65 0.00000 0.00000 0.00000
  66 0.00000 0.00000 0.00000
</Section>

newXOutput 151

<Section columns = "stress_xx | stress_yy | stress_xy">
  1 0.00000 0.00000 0.00000
  2 0.00000 0.00000 0.00000
  3 0.00000 0.00000 0.00000
  4 0.00000 0.00000 0.00000
  5 0.00000 0.00000 0.00000
  6 0.00000 0.00000 0.00000
  7 0.00000 0.00000 0.00000
  8 0.00000 0.00000 0.00000
  9 0.00000 0.00000 0.00000
  10 0.00000 0.00000 0.00000
  11 0.00000 0.00000 0.00000
  12 0.00000 0.00000 0.00000
  13 0.00000 0.00000 0.00000
  14 0.00000 0.00000 0.00000
  15 0.00000 0.00000 0.00000
  16 0.00000 0.00000 0.00000
  17 0.00000 0.00000 0.00000
  18 0.00000 0.00000 0.00000
  19 0.00000 0.00000 0.00000
  20 0.00000 0.00000 0.00000
  21 0.00000 0.00000 0.00000
  22 0.00000 0.00000 0.00000
  23 0.00000 0.00000 0.00000
  24 0.00000 0.00000 0.00000
  25 0.00000 0.00000 0.00000
  26 0.00000 0.00000 0.00000
  27 0.00000 0.00000 0.00000
  28 0.00000 0.00000 0.00000
  29 0.00000 0.00000 0.00000
  30 0.00000 0.00000 0.00000
  31 0.00000 0.00000 0.00000
  32 0.00000 0.00000 0.00000
  33 0.00000 0.00000 0.00000
  34 0.00000 0.00000 0.00000
  35 0.00000 0.00000 0.00000
  36 0.00000 0.00000 0.00000
  37 0.00000 0.00000 0.00000
  38 0.00000 0.00000 0.00000
  39 0.00000 0.00000 0.00000
  40 0.00000 0.00000 0.00000
  41 0.00000 0.00000 0.00000
  42 0.00000 0.00000 0.00000
  43 0.00000 0.00000 0.00000
  44 0.00000 0.00000 0.00000
  45 0.00000 0.00000 0.00000
  46 0.00000 0.00000 0.00000
  47 0.00000 0.00000 0.00000
  48 0.00000 0.00000 0.00000
  49 0.00000 0.00000 0.00000
  50 0.00000 0.00000 0.00000
  51 0.00000 0.00000 0.00000
  52 0.00000 0.00000 0.00000
  53 0.00000 0.00000 0.00000
  54 0.00000 0.00000 0.00000
  55 0.00000 0.00000 0.00000
  56 0.00000 0.00000 0.00000
  57 0.00000 0.00000 0.00000
  58 0.00000 0.00000 0.00000
  59 0.00000 0.00000 0.00000
  60 0.00000 0.00000 0.00000
  61 0.00000 0.00000 0.00000
  62 0.00000 0.00000 0.00000
  63 0.00000 0.00000 0.00000
  64 0.00000 0.00000 0.00000
  65 0.00000 0.00000 0.00000
  66 0.00000 0.00000 0.00000
</Section>

newXOutput 152

<Section columns = "stress_xx | stress_yy | stress_xy">
  1 0.00000 0.00000 0.00000
  2 0.00000 0.00000 0.00000
  3 0.00000 0.00000 0.00000
  4 0.00000 0.00000 0.00000
  5 0.00000 0.00000 0.00000
  6 0.00000 0.00000 0.00000
  7 0.00000 0.00000 0.00000
  8 0.00000 0.00000 0.00000
  9 0.00000 0.00000 0.00000
  10 0.00000 0.00000 0.00000
  11 0.00000 0.00000 0.00000
  12 0.00000 0.00000 0.00000
  13 0.00000 0.00000 0.00000
  14 0.00000 0.00000 0.00000
  15 0.00000 0.00000 0.00000
  16 0.00000 0.00000 0.00000
  17 0.00000 0.00000 0.00000
  18 0.00000 0.00000 0.00000
  19 0.00000 0.00000 0.00000
  20 0.00000 0.00000 0.00000
  21 0.00000 0.00000 0.00000
  22 0.00000 0.00000 0.00000
  23 0.00000 0.00000 0.00000
  24 0.00000 0.00000 0.00000
  25 0.00000 0.00000 0.00000
  26 0.00000 0.00000 0.00000
  27 0.00000 0.00000 0.00000
  28 0.00000 0.00000 0.00000
  29 0.00000 0.00000 0.00000
  30 0.00000 0.00000 0.00000
  31 0.00000 0.00000 0.00000
  32 0.00000 0.00000 0.00000
  33 0.00000 0.00000 0.00000
  34 0.00000 0.00000 0.00000
  35 0.00000 0.00000 0.00000
  36 0.00000 0.00000 0.00000
  37 0.00000 0.00000 0.00000
  38 0.00000 0.00000 0.00000
  39 0.00000 0.00000 0.00000
  40 0.00000 0.00000 0.00000
  41 0.00000 0.00000 0.00000
  42 0.00000 0.00000 0.00000
  43 0.00000 0.00000 0.00000
  44 0.00000 0.00000 0.00000
  45 0.00000 0.00000 0.00000
  46 0.00000 0.00000 0.00000
  47 0.00000 0.00000 0.00000
  48 0.00000 0.00000 0.00000
  49 0.00000 0.00000 0.00000
  50 0.00000 0.00000 0.00000
  51 0.00000 0.00000 0.00000
  52 0.00000 0.00000 0.00000
  53 0.00000 0.00000 0.00000
  54 0.00000 0.00000 0.00000
  55 0.00000 0.00000 0.00000
  56 0.00000 0.00000 0.00000
  57 0.00000 0.00000 0.00000
  58 0.00000 0.00000 0.00000
  59 0.00000 0.00000 0.00000
  60 0.00000 0.00000 0.00000
  61 0.00000 0.00000 0.00000
  62 0.00000 0.00000 0.00000
  63 0.00000 0.00000 0.00000
  64 0.00000 0.00000 0.00000
  65 0.00000 0.00000 0.00000
  66 0.00000 0.00000 0.00000
</Section>

newXOutput 153

<Section columns = "stress_xx | stress_yy | stress_xy">
  1 0.00000 0.00000 0.00000
  2 0.00000 0.00000 0.00000
  3 0.00000 0.00000 0.00000
  4 0.00000 0.00000 0.00000
  5 0.00000 0.00000 0.00000
  6 0.00000 0.00000 0.00000
  7 0.00000 0.00000 0.00000
  8 0.00000 0.00000 0.00000
  9 0.00000 0.00000 0.00000
  10 0.00000 0.00000 0.00000
  11 0.00000 0.00000 0.00000
  12 0.00000 0.00000 0.00000
  13 0.00000 0.00000 0.00000
  14 0.00000 0.00000 0.00000
  15 0.00000 0.00000 0.00000
  16 0.00000 0.00000 0.00000
  17 0.00000 0.00000 0.00000
  18 0.00000 0.00000 0.00000
  19 0.00000 0.00000 0.00000
  20 0.00000 0.00000 0.00000
  21 0.00000 0.00000 0.00000
  22 0.00000 0.00000 0.00000
  23 0.00000 0.00000 0.00000
  24 0.00000 0.00000 0.00000
  25 0.00000 0.00000 0.00000
  26 0.00000 0.00000 0.00000
  27 0.00000 0.00000 0.00000
  28 0.00000 0.00000 0.00000
  29 0.00000 0.00000 0.00000
  30 0.00000 0.00000 0.00000
  31 0.00000 0.00000 0.00000
  32 0.00000 0.00000 0.00000
  33 0.00000 0.00000 0.00000
  34 0.00000 0.00000 0.00000
  35 0.00000 0.00000 0.00000
  36 0.00000 0.00000 0.00000
  37 0.00000 0.00000 0.00000
  38 0.00000 0.00000 0.00000
  39 0.00000 0.00000 0.00000
  40 0.00000 0.00000 0.00000
  41 0.00000 0.00000 0.00000
  42 0.00000 0.00000 0.00000
  43 0.00000 0.00000 0.00000
  44 0.00000 0.00000 0.00000
  45 0.00000 0.00000 0.00000
  46 0.00000 0.00000 0.00000
  47 0.00000 0.00000 0.00000
  48 0.00000 0.00000 0.00000
  49 0.00000 0.00000 0.00000
  50 0.00000 0.00000 0.00000
  51 0.00000 0.00000 0.00000
  52 0.00000 0.00000 0.00000
  53 0.00000 0.00000 0.00000
  54 0.00000 0.00000 0.00000
  55 0.00000 0.00000 0.00000
  56 0.00000 0.00000 0.00000
  57 0.00000 0.00000 0.00000
  58 0.00000 0.00000 0.00000
  59 0.00000 0.00000 0.00000
  60 0.00000 0.00000 0.00000
  61 0.00000 0.00000 0.00000
  62 0.00000 0.00000 0.00000
  63 0.00000 0.00000 0.00000
  64 0.00000 0.00000 0.00000
  65 0.00000 0.00000 0.00000
  66 0.00000 0.00000 0.00000
</Section>

newXOutput 154

<Section columns = "stress_xx | stress_yy | stress_xy">
  1 0.00000 0.00000 0.00000
  2 0.00000 0.00000 0.00000
  3 0.00000 0.00000 0.00000
  4 0.00000 0.00000 0.00000
  5 0.00000 0.00000 0.00000
  6 0.00000 0.00000 0.00000
  7 0.00000 0.00000 0.00000
  8 0.00000 0.00000 0.00000
  9 0.00000 0.00000 0.00000
  10 0.00000 0.00000 0.00000
  11 0.00000 0.00000 0.00000
  12 0.00000 0.00000 0.00000
  13 0.00000 0.00000 0.00000
  14 0.00000 0.00000 0.00000
  15 0.00000 0.00000 0.00000
  16 0.00000 0.00000 0.00000
  17 0.00000 0.00000 0.00000
  18 0.00000 0.00000 0.00000
  19 0.00000 0.00000 0.00000
  20 0.00000 0.00000 0.00000
  21 0.00000 0.00000 0.00000
  22 0.00000 0.00000 0.00000
  23 0.00000 0.00000 0.00000
  24 0.00000 0.00000 0.00000
  25 0.00000 0.00000 0.00000
  26 0.00000 0.00000 0.00000
  27 0.00000 0.00000 0.00000
  28 0.00000 0.00000 0.00000
  29 0.00000 0.00000 0.00000
  30 0.00000 0.00000 0.00000
  31 0.00000 0.00000 0.00000
  32 0.00000 0.00000 0.00000
  33 0.00000 0.00000 0.00000
  34 0.00000 0.00000 0.00000
  35 0.00000 0.00000 0.00000
  36 0.00000 0.00000 0.00000
  37 0.00000 0.00000 0.00000
  38 0.00000 0.00000 0.00000
  39 0.00000 0.00000 0.00000
  40 0.00000 0.00000 0.00000
  41 0.00000 0.00000 0.00000
  42 0.00000 0.00000 0.00000
  43 0.00000 0.00000 0.00000
  44 0.00000 0.00000 0.00000
  45 0.00000 0.00000 0.00000
  46 0.00000 0.00000 0.00000
  47 0.00000 0.00000 0.00000
  48 0.00000 0.00000 0.00000
  49 0.00000 0.00000 0.00000
  50 0.00000 0.00000 0.00000
  51 0.00000 0.00000 0.00000
  52 0.00000 0.00000 0.00000
  53 0.00000 0.00000 0.00000
  54 0.00000 0.00000 0.00000
  55 0.00000 0.00000 0.00000
  56 0.00000 0.00000 0.00000
  57 0.00000 0.00000 0.00000
  58 0.00000 0.00000 0.00000
  59 0.00000 0.00000 0.00000
  60 0.00000 0.00000 0.00000
  61 0.00000 0.00000 0.00000
  62 0.00000 0.00000 0.00000
  63 0.00000 0.00000 0.00000
  64 0.00000 0.00000 0.00000
  65 0.00000 0.00000 0.00000
  66 0.00000 0.00000 0.00000
</Section>

newXOutput 155

<Section columns = "stress_xx | stress_yy | stress_xy">
  1 0.00000 0.00000 0.00000
  2 0.00000 0.00000 0.00000
  3 0.00000 0.00000 0.00000
  4 0.00000 0.00000 0.00000
  5 0.00000 0.00000 0.00000
  6 0.00000 0.00000 0.00000
  7 0.00000 0.00000 0.00000
  8 0.00000 0.00000 0.00000
  9 0.00000 0.00000 0.00000
  10 0.00000 0.00000 0.00000
  11 0.00000 0.00000 0.00000
  12 0.00000 0.00000 0.00000
  13 0.00000 0.00000 0.00000
  14 0.00000 0.00000 0.00000
  15 0.00000 0.00000 0.00000
  16 0.00000 0.00000 0.00000
  17 0.00000 0.00000 0.00000
  18 0.00000 0.00000 0.00000
  19 0.00000 0.00000 0.00000
  20 0.00000 0.00000 0.00000
  21 0.00000 0.00000 0.00000
  22 0.00000 0.00000 0.00000
  23 0.00000 0.00000 0.00000
  24 0.00000 0.00000 0.00000
  25 0.00000 0.00000 0.00000
  26 0.00000 0.00000 0.00000
  27 0.00000 0.00000 0.00000
  28 0.00000 0.00000 0.00000
  29 0.00000 0.00000 0.00000
  30 0.00000 0.00000 0.00000
  31 0.00000 0.00000 0.00000
  32 0.00000 0.00000 0.00000
  33 0.00000 0.00000 0.00000
  34 0.00000 0.00000 0.00000
  35 0.00000 0.00000 0.00000
  36 0.00000 0.00000 0.00000
  37 0.00000 0.00000 0.00000
  38 0.00000 0.00000 0.00000
  39 0.00000 0.00000 0.00000
  40 0.00000 0.00000 0.00000
  41 0.00000 0.00000 0.00000
  42 0.00000 0.00000 0.00000
  43 0.00000 0.00000 0.00000
  44 0.00000 0.00000 0.00000
  45 0.00000 0.00000 0.00000
  46 0.00000 0.00000 0.00000
  47 0.00000 0.00000 0.00000
  48 0.00000 0.00000 0.00000
  49 0.00000 0.00000 0.00000
  50 0.00000 0.00000 0.00000
  51 0.00000 0.00000 0.00000
  52 0.00000 0.00000 0.00000
  53 0.00000 0.00000 0.00000
  54 0.00000 0.00000 0.00000
  55 0.00000 0.00000 0.00000
  56 0.00000 0.00000 0.00000
  57 0.00000 0.00000 0.00000
  58 0.00000 0.00000 0.00000
  59 0.00000 0.00000 0.00000
  60 0.00000 0.00000 0.00000
  61 0.00000 0.00000 0.00000
  62 0.00000 0.00000 0.00000
  63 0.00000 0.00000 0.00000
  64 0.00000 0.00000 0.00000
  65 0.00000 0.00000 0.00000
  66 0.00000 0.00000 0.00000
</Section>

newXOutput 156

<Section columns = "stress_xx | stress_yy | stress_xy">
  1 0.00000 0.00000 0.00000
  2 0.00000 0.00000 0.00000
  3 0.00000 0.00000 0.00000
  4 0.00000 0.00000 0.00000
  5 0.00000 0.00000 0.00000
  6 0.00000 0.00000 0.00000
  7 0.00000 0.00000 0.00000
  8 0.00000 0.00000 0.00000
  9 0.00000 0.00000 0.00000
  10 0.00000 0.00000 0.00000
  11 0.00000 0.00000 0.00000
  12 0.00000 0.00000 0.00000
  13 0.00000 0.00000 0.00000
  14 0.00000 0.00000 0.00000
  15 0.00000 0.00000 0.00000
  16 0.00000 0.00000 0.00000
  17 0.00000 0.00000 0.00000
  18 0.00000 0.00000 0.00000
  19 0.00000 0.00000 0.00000
  20 0.00000 0.00000 0.00000
  21 0.00000 0.00000 0.00000
  22 0.00000 0.00000 0.00000
  23 0.00000 0.00000 0.00000
  24 0.00000 0.00000 0.00000
  25 0.00000 0.00000 0.00000
  26 0.00000 0.00000 0.00000
  27 0.00000 0.00000 0.00000
  28 0.00000 0.00000 0.00000
  29 0.00000 0.00000 0.00000
  30 0.00000 0.00000 0.00000
  31 0.00000 0.00000 0.00000
  32 0.00000 0.00000 0.00000
  33 0.00000 0.00000 0.00000
  34 0.00000 0.00000 0.00000
  35 0.00000 0.00000 0.00000
  36 0.00000 0.00000 0.00000
  37 0.00000 0.00000 0.00000
  38 0.00000 0.00000 0.00000
  39 0.00000 0.00000 0.00000
  40 0.00000 0.00000 0.00000
  41 0.00000 0.00000 0.00000
  42 0.00000 0.00000 0.00000
  43 0.00000 0.00000 0.00000
  44 0.00000 0.00000 0.00000
  45 0.00000 0.00000 0.00000
  46 0.00000 0.00000 0.00000
  47 0.00000 0.00000 0.00000
  48 0.00000 0.00000 0.00000
  49 0.00000 0.00000 0.00000
  50 0.00000 0.00000 0.00000
  51 0.00000 0.00000 0.00000
  52 0.00000 0.00000 0.00000
  53 0.00000 0.00000 0.00000
  54 0.00000 0.00000 0.00000
  55 0.00000 0.00000 0.00000
  56 0.00000 0.00000 0.00000
  57 0.00000 0.00000 0.00000
  58 0.00000 0.00000 0.00000
  59 0.00000 0.00000 0.00000
  60 0.00000 0.00000 0.00000
  61 0.00000 0.00000 0.00000
  62 0.00000 0.00000 0.00000
  63 0.00000 0.00000 0.00000
  64 0.00000 0.00000 0.00000
  65 0.00000 0.00000 0.00000
  66 0.00000 0.00000 0.00000
</Section>

newXOutput 157

<Section columns = "stress_xx | stress_yy | stress_xy">
  1 0.00000 0.00000 0.00000
  2 0.00000 0.00000 0.00000
  3 0.00000 0.00000 0.00000
  4 0.00000 0.00000 0.00000
  5 0.00000 0.00000 0.00000
  6 0.00000 0.00000 0.00000
  7 0.00000 0.00000 0.00000
  8 0.00000 0.00000 0.00000
  9 0.00000 0.00000 0.00000
  10 0.00000 0.00000 0.00000
  11 0.00000 0.00000 0.00000
  12 0.00000 0.00000 0.00000
  13 0.00000 0.00000 0.00000
  14 0.00000 0.00000 0.00000
  15 0.00000 0.00000 0.00000
  16 0.00000 0.00000 0.00000
  17 0.00000 0.00000 0.00000
  18 0.00000 0.00000 0.00000
  19 0.00000 0.00000 0.00000
  20 0.00000 0.00000 0.00000
  21 0.00000 0.00000 0.00000
  22 0.00000 0.00000 0.00000
  23 0.00000 0.00000 0.00000
  24 0.00000 0.00000 0.00000
  25 0.00000 0.00000 0.00000
  26 0.00000 0.00000 0.00000
  27 0.00000 0.00000 0.00000
  28 0.00000 0.00000 0.00000
  29 0.00000 0.00000 0.00000
  30 0.00000 0.00000 0.00000
  31 0.00000 0.00000 0.00000
  32 0.00000 0.00000 0.00000
  33 0.00000 0.00000 0.00000
  34 0.00000 0.00000 0.00000
  35 0.00000 0.00000 0.00000
  36 0.00000 0.00000 0.00000
  37 0.00000 0.00000 0.00000
  38 0.00000 0.00000 0.00000
  39 0.00000 0.00000 0.00000
  40 0.00000 0.00000 0.00000
  41 0.00000 0.00000 0.00000
  42 0.00000 0.00000 0.00000
  43 0.00000 0.00000 0.00000
  44 0.00000 0.00000 0.00000
  45 0.00000 0.00000 0.00000
  46 0.00000 0.00000 0.00000
  47 0.00000 0.00000 0.00000
  48 0.00000 0.00000 0.00000
  49 0.00000 0.00000 0.00000
  50 0.00000 0.00000 0.00000
  51 0.00000 0.00000 0.00000
  52 0.00000 0.00000 0.00000
  53 0.00000 0.00000 0.00000
  54 0.00000 0.00000 0.00000
  55 0.00000 0.00000 0.00000
  56 0.00000 0.00000 0.00000
  57 0.00000 0.00000 0.00000
  58 0.00000 0.00000 0.00000
  59 0.00000 0.00000 0.00000
  60 0.00000 0.00000 0.00000
  61 0.00000 0.00000 0.00000
  62 0.00000 0.00000 0.00000
  63 0.00000 0.00000 0.00000
  64 0.00000 0.00000 0.00000
  65 0.00000 0.00000 0.00000
  66 0.00000 0.00000 0.00000
</Section>

newXOutput 158

<Section columns = "stress_xx | stress_yy | stress_xy">
  1 0.00000 0.00000 0.00000
  2 0.00000 0.00000 0.00000
  3 0.00000 0.00000 0.00000
  4 0.00000 0.00000 0.00000
  5 0.00000 0.00000 0.00000
  6 0.00000 0.00000 0.00000
  7 0.00000 0.00000 0.00000
  8 0.00000 0.00000 0.00000
  9 0.00000 0.00000 0.00000
  10 0.00000 0.00000 0.00000
  11 0.00000 0.00000 0.00000
  12 0.00000 0.00000 0.00000
  13 0.00000 0.00000 0.00000
  14 0.00000 0.00000 0.00000
  15 0.00000 0.00000 0.00000
  16 0.00000 0.00000 0.00000
  17 0.00000 0.00000 0.00000
  18 0.00000 0.00000 0.00000
  19 0.00000 0.00000 0.00000
  20 0.00000 0.00000 0.00000
  21 0.00000 0.00000 0.00000
  22 0.00000 0.00000 0.00000
  23 0.00000 0.00000 0.00000
  24 0.00000 0.00000 0.00000
  25 0.00000 0.00000 0.00000
  26 0.00000 0.00000 0.00000
  27 0.00000 0.00000 0.00000
  28 0.00000 0.00000 0.00000
  29 0.00000 0.00000 0.00000
  30 0.00000 0.00000 0.00000
  31 0.00000 0.00000 0.00000
  32 0.00000 0.00000 0.00000
  33 0.00000 0.00000 0.00000
  34 0.00000 0.00000 0.00000
  35 0.00000 0.00000 0.00000
  36 0.00000 0.00000 0.00000
  37 0.00000 0.00000 0.00000
  38 0.00000 0.00000 0.00000
  39 0.00000 0.00000 0.00000
  40 0.00000 0.00000 0.00000
  41 0.00000 0.00000 0.00000
  42 0.00000 0.00000 0.00000
  43 0.00000 0.00000 0.00000
  44 0.00000 0.00000 0.00000
  45 0.00000 0.00000 0.00000
  46 0.00000 0.00000 0.00000
  47 0.00000 0.00000 0.00000
  48 0.00000 0.00000 0.00000
  49 0.00000 0.00000 0.00000
  50 0.00000 0.00000 0.00000
  51 0.00000 0.00000 0.00000
  52 0.00000 0.00000 0.00000
  53 0.00000 0.00000 0.00000
  54 0.00000 0.00000 0.00000
  55 0.00000 0.00000 0.00000
  56 0.00000 0.00000 0.00000
  57 0.00000 0.00000 0.00000
  58 0.00000 0.00000 0.00000
  59 0.00000 0.00000 0.00000
  60 0.00000 0.00000 0.00000
  61 0.00000 0.00000 0.00000
  62 0.00000 0.00000 0.00000
  63 0.00000 0.00000 0.00000
  64 0.00000 0.00000 0.00000
  65 0.00000 0.00000 0.00000
  66 0.00000 0.00000 0.00000
</Section>

newXOutput 159

<Section columns = "stress_xx | stress_yy | stress_xy">
  1 0.00000 0.00000 0.00000
  2 0.00000 0.00000 0.00000
  3 0.00000 0.00000 0.00000
  4 0.00000 0.00000 0.00000
  5 0.00000 0.00000 0.00000
  6 0.00000 0.00000 0.00000
  7 0.00000 0.00000 0.00000
  8 0.00000 0.00000 0.00000
  9 0.00000 0.00000 0.00000
  10 0.00000 0.00000 0.00000
  11 0.00000 0.00000 0.00000
  12 0.00000 0.00000 0.00000
  13 0.00000 0.00000 0.00000
  14 0.00000 0.00000 0.00000
  15 0.00000 0.00000 0.00000
  16 0.00000 0.00000 0.00000
  17 0.00000 0.00000 0.00000
  18 0.00000 0.00000 0.00000
  19 0.00000 0.00000 0.00000
  20 0.00000 0.00000 0.00000
  21 0.00000 0.00000 0.00000
  22 0.00000 0.00000 0.00000
  23 0.00000 0.00000 0.00000
  24 0.00000 0.00000 0.00000
  25 0.00000 0.00000 0.00000
  26 0.00000 0.00000 0.00000
  27 0.00000 0.00000 0.00000
  28 0.00000 0.00000 0.00000
  29 0.00000 0.00000 0.00000
  30 0.00000 0.00000 0.00000
  31 0.00000 0.00000 0.00000
  32 0.00000 0.00000 0.00000
  33 0.00000 0.00000 0.00000
  34 0.00000 0.00000 0.00000
  35 0.00000 0.00000 0.00000
  36 0.00000 0.00000 0.00000
  37 0.00000 0.00000 0.00000
  38 0.00000 0.00000 0.00000
  39 0.00000 0.00000 0.00000
  40 0.00000 0.00000 0.00000
  41 0.00000 0.00000 0.00000
  42 0.00000 0.00000 0.00000
  43 0.00000 0.00000 0.00000
  44 0.00000 0.00000 0.00000
  45 0.00000 0.00000 0.00000
  46 0.00000 0.00000 0.00000
  47 0.00000 0.00000 0.00000
  48 0.00000 0.00000 0.00000
  49 0.00000 0.00000 0.00000
  50 0.00000 0.00000 0.00000
  51 0.00000 0.00000 0.00000
  52 0.00000 0.00000 0.00000
  53 0.00000 0.00000 0.00000
  54 0.00000 0.00000 0.00000
  55 0.00000 0.00000 0.00000
  56 0.00000 0.00000 0.00000
  57 0.00000 0.00000 0.00000
  58 0.00000 0.00000 0.00000
  59 0.00000 0.00000 0.00000
  60 0.00000 0.00000 0.00000
  61 0.00000 0.00000 0.00000
  62 0.00000 0.00000 0.00000
  63 0.00000 0.00000 0.00000
  64 0.00000 0.00000 0.00000
  65 0.00000 0.00000 0.00000
  66 0.00000 0.00000 0.00000
</Section>

newXOutput 160

<Section columns = "stress_xx | stress_yy | stress_xy">
  1 0.00000 0.00000 0.00000
  2 0.00000 0.00000 0.00000
  3 0.00000 0.00000 0.00000
  4 0.00000 0.00000 0.00000
  5 0.00000 0.00000 0.00000
  6 0.00000 0.00000 0.00000
  7 0.00000 0.00000 0.00000
  8 0.00000 0.00000 0.00000
  9 0.00000 0.00000 0.00000
  10 0.00000 0.00000 0.00000
  11 0.00000 0.00000 0.00000
  12 0.00000 0.00000 0.00000
  13 0.00000 0.00000 0.00000
  14 0.00000 0.00000 0.00000
  15 0.00000 0.00000 0.00000
  16 0.00000 0.00000 0.00000
  17 0.00000 0.00000 0.00000
  18 0.00000 0.00000 0.00000
  19 0.00000 0.00000 0.00000
  20 0.00000 0.00000 0.00000
  21 0.00000 0.00000 0.00000
  22 0.00000 0.00000 0.00000
  23 0.00000 0.00000 0.00000
  24 0.00000 0.00000 0.00000
  25 0.00000 0.00000 0.00000
  26 0.00000 0.00000 0.00000
  27 0.00000 0.00000 0.00000
  28 0.00000 0.00000 0.00000
  29 0.00000 0.00000 0.00000
  30 0.00000 0.00000 0.00000
  31 0.00000 0.00000 0.00000
  32 0.00000 0.00000 0.00000
  33 0.00000 0.00000 0.00000
  34 0.00000 0.00000 0.00000
  35 0.00000 0.00000 0.00000
  36 0.00000 0.00000 0.00000
  37 0.00000 0.00000 0.00000
  38 0.00000 0.00000 0.00000
  39 0.00000 0.00000 0.00000
  40 0.00000 0.00000 0.00000
  41 0.00000 0.00000 0.00000
  42 0.00000 0.00000 0.00000
  43 0.00000 0.00000 0.00000
  44 0.00000 0.00000 0.00000
  45 0.00000 0.00000 0.00000
  46 0.00000 0.00000 0.00000
  47 0.00000 0.00000 0.00000
  48 0.00000 0.00000 0.00000
  49 0.00000 0.00000 0.00000
  50 0.00000 0.00000 0.00000
  51 0.00000 0.00000 0.00000
  52 0.00000 0.00000 0.00000
  53 0.00000 0.00000 0.00000
  54 0.00000 0.00000 0.00000
  55 0.00000 0.00000 0.00000
  56 0.00000 0.00000 0.00000
  57 0.00000 0.00000 0.00000
  58 0.00000 0.00000 0.00000
  59 0.00000 0.00000 0.00000
  60 0.00000 0.00000 0.00000
  61 0.00000 0.00000 0.00000
  62 0.00000 0.00000 0.00000
  63 0.00000 0.00000 0.00000
  64 0.00000 0.00000 0.00000
  65 0.00000 0.00000 0.00000
  66 0.00000 0.00000 0.00000
</Section>

newXOutput 161

<Section columns = "stress_xx | stress_yy | stress_xy">
  1 0.00000 0.00000 0.00000
  2 0.00000 0.00000 0.00000
  3 0.00000 0.00000 0.00000
  4 0.00000 0.00000 0.00000
  5 0.00000 0.00000 0.00000
  6 0.00000 0.00000 0.00000
  7 0.00000 0.00000 0.00000
  8 0.00000 0.00000 0.00000
  9 0.00000 0.00000 0.00000
  10 0.00000 0.00000 0.00000
  11 0.00000 0.00000 0.00000
  12 0.00000 0.00000 0.00000
  13 0.00000 0.00000 0.00000
  14 0.00000 0.00000 0.00000
  15 0.00000 0.00000 0.00000
  16 0.00000 0.00000 0.00000
  17 0.00000 0.00000 0.00000
  18 0.00000 0.00000 0.00000
  19 0.00000 0.00000 0.00000
  20 0.00000 0.00000 0.00000
  21 0.00000 0.00000 0.00000
  22 0.00000 0.00000 0.00000
  23 0.00000 0.00000 0.00000
  24 0.00000 0.00000 0.00000
  25 0.00000 0.00000 0.00000
  26 0.00000 0.00000 0.00000
  27 0.00000 0.00000 0.00000
  28 0.00000 0.00000 0.00000
  29 0.00000 0.00000 0.00000
  30 0.00000 0.00000 0.00000
  31 0.00000 0.00000 0.00000
  32 0.00000 0.00000 0.00000
  33 0.00000 0.00000 0.00000
  34 0.00000 0.00000 0.00000
  35 0.00000 0.00000 0.00000
  36 0.00000 0.00000 0.00000
  37 0.00000 0.00000 0.00000
  38 0.00000 0.00000 0.00000
  39 0.00000 0.00000 0.00000
  40 0.00000 0.00000 0.00000
  41 0.00000 0.00000 0.00000
  42 0.00000 0.00000 0.00000
  43 0.00000 0.00000 0.00000
  44 0.00000 0.00000 0.00000
  45 0.00000 0.00000 0.00000
  46 0.00000 0.00000 0.00000
  47 0.00000 0.00000 0.00000
  48 0.00000 0.00000 0.00000
  49 0.00000 0.00000 0.00000
  50 0.00000 0.00000 0.00000
  51 0.00000 0.00000 0.00000
  52 0.00000 0.00000 0.00000
  53 0.00000 0.00000 0.00000
  54 0.00000 0.00000 0.00000
  55 0.00000 0.00000 0.00000
  56 0.00000 0.00000 0.00000
  57 0.00000 0.00000 0.00000
  58 0.00000 0.00000 0.00000
  59 0.00000 0.00000 0.00000
  60 0.00000 0.00000 0.00000
  61 0.00000 0.00000 0.00000
  62 0.00000 0.00000 0.00000
  63 0.00000 0.00000 0.00000
  64 0.00000 0.00000 0.00000
  65 0.00000 0.00000 0.00000
  66 0.00000 0.00000 0.00000
</Section>

newXOutput 162

<Section columns = "stress_xx | stress_yy | stress_xy">
  1 0.00000 0.00000 0.00000
  2 0.00000 0.00000 0.00000
  3 0.00000 0.00000 0.00000
  4 0.00000 0.00000 0.00000
  5 0.00000 0.00000 0.00000
  6 0.00000 0.00000 0.00000
  7 0.00000 0.00000 0.00000
  8 0.00000 0.00000 0.00000
  9 0.00000 0.00000 0.00000
  10 0.00000 0.00000 0.00000
  11 0.00000 0.00000 0.00000
  12 0.00000 0.00000 0.00000
  13 0.00000 0.00000 0.00000
  14 0.00000 0.00000 0.00000
  15 0.00000 0.00000 0.00000
  16 0.00000 0.00000 0.00000
  17 0.00000 0.00000 0.00000
  18 0.00000 0.00000 0.00000
  19 0.00000 0.00000 0.00000
  20 0.00000 0.00000 0.00000
  21 0.00000 0.00000 0.00000
  22 0.00000 0.00000 0.00000
  23 0.00000 0.00000 0.00000
  24 0.00000 0.00000 0.00000
  25 0.00000 0.00000 0.00000
  26 0.00000 0.00000 0.00000
  27 0.00000 0.00000 0.00000
  28 0.00000 0.00000 0.00000
  29 0.00000 0.00000 0.00000
  30 0.00000 0.00000 0.00000
  31 0.00000 0.00000 0.00000
  32 0.00000 0.00000 0.00000
  33 0.00000 0.00000 0.00000
  34 0.00000 0.00000 0.00000
  35 0.00000 0.00000 0.00000
  36 0.00000 0.00000 0.00000
  37 0.00000 0.00000 0.00000
  38 0.00000 0.00000 0.00000
  39 0.00000 0.00000 0.00000
  40 0.00000 0.00000 0.00000
  41 0.00000 0.00000 0.00000
  42 0.00000 0.00000 0.00000
  43 0.00000 0.00000 0.00000
  44 0.00000 0.00000 0.00000
  45 0.00000 0.00000 0.00000
  46 0.00000 0.00000 0.00000
  47 0.00000 0.00000 0.00000
  48 0.00000 0.00000 0.00000
  49 0.00000 0.00000 0.00000
  50 0.00000 0.00000 0.00000
  51 0.00000 0.00000 0.00000
  52 0.00000 0.00000 0.00000
  53 0.00000 0.00000 0.00000
  54 0.00000 0.00000 0.00000
  55 0.00000 0.00000 0.00000
  56 0.00000 0.00000 0.00000
  57 0.00000 0.00000 0.00000
  58 0.00000 0.00000 0.00000
  59 0.00000 0.00000 0.00000
  60 0.00000 0.00000 0.00000
  61 0.00000 0.00000 0.00000
  62 0.00000 0.00000 0.00000
  63 0.00000 0.00000 0.00000
  64 0.00000 0.00000 0.00000
  65 0.00000 0.00000 0.00000
  66 0.00000 0.00000 0.00000
</Section>

newXOutput 163

<Section columns = "stress_xx | stress_yy | stress_xy">
  1 0.00000 0.00000 0.00000
  2 0.00000 0.00000 0.00000
  3 0.00000 0.00000 0.00000
  4 0.00000 0.00000 0.00000
  5 0.00000 0.00000 0.00000
  6 0.00000 0.00000 0.00000
  7 0.00000 0.00000 0.00000
  8 0.00000 0.00000 0.00000
  9 0.00000 0.00000 0.00000
  10 0.00000 0.00000 0.00000
  11 0.00000 0.00000 0.00000
  12 0.00000 0.00000 0.00000
  13 0.00000 0.00000 0.00000
  14 0.00000 0.00000 0.00000
  15 0.00000 0.00000 0.00000
  16 0.00000 0.00000 0.00000
  17 0.00000 0.00000 0.00000
  18 0.00000 0.00000 0.00000
  19 0.00000 0.00000 0.00000
  20 0.00000 0.00000 0.00000
  21 0.00000 0.00000 0.00000
  22 0.00000 0.00000 0.00000
  23 0.00000 0.00000 0.00000
  24 0.00000 0.00000 0.00000
  25 0.00000 0.00000 0.00000
  26 0.00000 0.00000 0.00000
  27 0.00000 0.00000 0.00000
  28 0.00000 0.00000 0.00000
  29 0.00000 0.00000 0.00000
  30 0.00000 0.00000 0.00000
  31 0.00000 0.00000 0.00000
  32 0.00000 0.00000 0.00000
  33 0.00000 0.00000 0.00000
  34 0.00000 0.00000 0.00000
  35 0.00000 0.00000 0.00000
  36 0.00000 0.00000 0.00000
  37 0.00000 0.00000 0.00000
  38 0.00000 0.00000 0.00000
  39 0.00000 0.00000 0.00000
  40 0.00000 0.00000 0.00000
  41 0.00000 0.00000 0.00000
  42 0.00000 0.00000 0.00000
  43 0.00000 0.00000 0.00000
  44 0.00000 0.00000 0.00000
  45 0.00000 0.00000 0.00000
  46 0.00000 0.00000 0.00000
  47 0.00000 0.00000 0.00000
  48 0.00000 0.00000 0.00000
  49 0.00000 0.00000 0.00000
  50 0.00000 0.00000 0.00000
  51 0.00000 0.00000 0.00000
  52 0.00000 0.00000 0.00000
  53 0.00000 0.00000 0.00000
  54 0.00000 0.00000 0.00000
  55 0.00000 0.00000 0.00000
  56 0.00000 0.00000 0.00000
  57 0.00000 0.00000 0.00000
  58 0.00000 0.00000 0.00000
  59 0.00000 0.00000 0.00000
  60 0.00000 0.00000 0.00000
  61 0.00000 0.00000 0.00000
  62 0.00000 0.00000 0.00000
  63 0.00000 0.00000 0.00000
  64 0.00000 0.00000 0.00000
  65 0.00000 0.00000 0.00000
  66 0.00000 0.00000 0.00000
</Section>

newXOutput 164

<Section columns = "stress_xx | stress_yy | stress_xy">
  1 0.00000 0.00000 0.00000
  2 0.00000 0.00000 0.00000
  3 0.00000 0.00000 0.00000
  4 0.00000 0.00000 0.00000
  5 0.00000 0.00000 0.00000
  6 0.00000 0.00000 0.00000
  7 0.00000 0.00000 0.00000
  8 0.00000 0.00000 0.00000
  9 0.00000 0.00000 0.00000
  10 0.00000 0.00000 0.00000
  11 0.00000 0.00000 0.00000
  12 0.00000 0.00000 0.00000
  13 0.00000 0.00000 0.00000
  14 0.00000 0.00000 0.00000
  15 0.00000 0.00000 0.00000
  16 0.00000 0.00000 0.00000
  17 0.00000 0.00000 0.00000
  18 0.00000 0.00000 0.00000
  19 0.00000 0.00000 0.00000
  20 0.00000 0.00000 0.00000
  21 0.00000 0.00000 0.00000
  22 0.00000 0.00000 0.00000
  23 0.00000 0.00000 0.00000
  24 0.00000 0.00000 0.00000
  25 0.00000 0.00000 0.00000
  26 0.00000 0.00000 0.00000
  27 0.00000 0.00000 0.00000
  28 0.00000 0.00000 0.00000
  29 0.00000 0.00000 0.00000
  30 0.00000 0.00000 0.00000
  31 0.00000 0.00000 0.00000
  32 0.00000 0.00000 0.00000
  33 0.00000 0.00000 0.00000
  34 0.00000 0.00000 0.00000
  35 0.00000 0.00000 0.00000
  36 0.00000 0.00000 0.00000
  37 0.00000 0.00000 0.00000
  38 0.00000 0.00000 0.00000
  39 0.00000 0.00000 0.00000
  40 0.00000 0.00000 0.00000
  41 0.00000 0.00000 0.00000
  42 0.00000 0.00000 0.00000
  43 0.00000 0.00000 0.00000
  44 0.00000 0.00000 0.00000
  45 0.00000 0.00000 0.00000
  46 0.00000 0.00000 0.00000
  47 0.00000 0.00000 0.00000
  48 0.00000 0.00000 0.00000
  49 0.00000 0.00000 0.00000
  50 0.00000 0.00000 0.00000
  51 0.00000 0.00000 0.00000
  52 0.00000 0.00000 0.00000
  53 0.00000 0.00000 0.00000
  54 0.00000 0.00000 0.00000
  55 0.00000 0.00000 0.00000
  56 0.00000 0.00000 0.00000
  57 0.00000 0.00000 0.00000
  58 0.00000 0.00000 0.00000
  59 0.00000 0.00000 0.00000
  60 0.00000 0.00000 0.00000
  61 0.00000 0.00000 0.00000
  62 0.00000 0.00000 0.00000
  63 0.00000 0.00000 0.00000
  64 0.00000 0.00000 0.00000
  65 0.00000 0.00000 0.00000
  66 0.00000 0.00000 0.00000
</Section>

newXOutput 165

<Section columns = "stress_xx | stress_yy | stress_xy">
  1 0.00000 0.00000 0.00000
  2 0.00000 0.00000 0.00000
  3 0.00000 0.00000 0.00000
  4 0.00000 0.00000 0.00000
  5 0.00000 0.00000 0.00000
  6 0.00000 0.00000 0.00000
  7 0.00000 0.00000 0.00000
  8 0.00000 0.00000 0.00000
  9 0.00000 0.00000 0.00000
  10 0.00000 0.00000 0.00000
  11 0.00000 0.00000 0.00000
  12 0.00000 0.00000 0.00000
  13 0.00000 0.00000 0.00000
  14 0.00000 0.00000 0.00000
  15 0.00000 0.00000 0.00000
  16 0.00000 0.00000 0.00000
  17 0.00000 0.00000 0.00000
  18 0.00000 0.00000 0.00000
  19 0.00000 0.00000 0.00000
  20 0.00000 0.00000 0.00000
  21 0.00000 0.00000 0.00000
  22 0.00000 0.00000 0.00000
  23 0.00000 0.00000 0.00000
  24 0.00000 0.00000 0.00000
  25 0.00000 0.00000 0.00000
  26 0.00000 0.00000 0.00000
  27 0.00000 0.00000 0.00000
  28 0.00000 0.00000 0.00000
  29 0.00000 0.00000 0.00000
  30 0.00000 0.00000 0.00000
  31 0.00000 0.00000 0.00000
  32 0.00000 0.00000 0.00000
  33 0.00000 0.00000 0.00000
  34 0.00000 0.00000 0.00000
  35 0.00000 0.00000 0.00000
  36 0.00000 0.00000 0.00000
  37 0.00000 0.00000 0.00000
  38 0.00000 0.00000 0.00000
  39 0.00000 0.00000 0.00000
  40 0.00000 0.00000 0.00000
  41 0.00000 0.00000 0.00000
  42 0.00000 0.00000 0.00000
  43 0.00000 0.00000 0.00000
  44 0.00000 0.00000 0.00000
  45 0.00000 0.00000 0.00000
  46 0.00000 0.00000 0.00000
  47 0.00000 0.00000 0.00000
  48 0.00000 0.00000 0.00000
  49 0.00000 0.00000 0.00000
  50 0.00000 0.00000 0.00000
  51 0.00000 0.00000 0.00000
  52 0.00000 0.00000 0.00000
  53 0.00000 0.00000 0.00000
  54 0.00000 0.00000 0.00000
  55 0.00000 0.00000 0.00000
  56 0.00000 0.00000 0.00000
  57 0.00000 0.00000 0.00000
  58 0.00000 0.00000 0.00000
  59 0.00000 0.00000 0.00000
  60 0.00000 0.00000 0.00000
  61 0.00000 0.00000 0.00000
  62 0.00000 0.00000 0.00000
  63 0.00000 0.00000 0.00000
  64 0.00000 0.00000 0.00000
  65 0.00000 0.00000 0.00000
  66 0.00000 0.00000 0.00000
</Section>

newXOutput 166

<Section columns = "stress_xx | stress_yy | stress_xy">
  1 0.00000 0.00000 0.00000
  2 0.00000 0.00000 0.00000
  3 0.00000 0.00000 0.00000
  4 0.00000 0.00000 0.00000
  5 0.00000 0.00000 0.00000
  6 0.00000 0.00000 0.00000
  7 0.00000 0.00000 0.00000
  8 0.00000 0.00000 0.00000
  9 0.00000 0.00000 0.00000
  10 0.00000 0.00000 0.00000
  11 0.00000 0.00000 0.00000
  12 0.00000 0.00000 0.00000
  13 0.00000 0.00000 0.00000
  14 0.00000 0.00000 0.00000
  15 0.00000 0.00000 0.00000
  16 0.00000 0.00000 0.00000
  17 0.00000 0.00000 0.00000
  18 0.00000 0.00000 0.00000
  19 0.00000 0.00000 0.00000
  20 0.00000 0.00000 0.00000
  21 0.00000 0.00000 0.00000
  22 0.00000 0.00000 0.00000
  23 0.00000 0.00000 0.00000
  24 0.00000 0.00000 0.00000
  25 0.00000 0.00000 0.00000
  26 0.00000 0.00000 0.00000
  27 0.00000 0.00000 0.00000
  28 0.00000 0.00000 0.00000
  29 0.00000 0.00000 0.00000
  30 0.00000 0.00000 0.00000
  31 0.00000 0.00000 0.00000
  32 0.00000 0.00000 0.00000
  33 0.00000 0.00000 0.00000
  34 0.00000 0.00000 0.00000
  35 0.00000 0.00000 0.00000
  36 0.00000 0.00000 0.00000
  37 0.00000 0.00000 0.00000
  38 0.00000 0.00000 0.00000
  39 0.00000 0.00000 0.00000
  40 0.00000 0.00000 0.00000
  41 0.00000 0.00000 0.00000
  42 0.00000 0.00000 0.00000
  43 0.00000 0.00000 0.00000
  44 0.00000 0.00000 0.00000
  45 0.00000 0.00000 0.00000
  46 0.00000 0.00000 0.00000
  47 0.00000 0.00000 0.00000
  48 0.00000 0.00000 0.00000
  49 0.00000 0.00000 0.00000
  50 0.00000 0.00000 0.00000
  51 0.00000 0.00000 0.00000
  52 0.00000 0.00000 0.00000
  53 0.00000 0.00000 0.00000
  54 0.00000 0.00000 0.00000
  55 0.00000 0.00000 0.00000
  56 0.00000 0.00000 0.00000
  57 0.00000 0.00000 0.00000
  58 0.00000 0.00000 0.00000
  59 0.00000 0.00000 0.00000
  60 0.00000 0.00000 0.00000
  61 0.00000 0.00000 0.00000
  62 0.00000 0.00000 0.00000
  63 0.00000 0.00000 0.00000
  64 0.00000 0.00000 0.00000
  65 0.00000 0.00000 0.00000
  66 0.00000 0.00000 0.00000
</Section>

newXOutput 167

<Section columns = "stress_xx | stress_yy | stress_xy">
  1 0.00000 0.00000 0.00000
  2 0.00000 0.00000 0.00000
  3 0.00000 0.00000 0.00000
  4 0.00000 0.00000 0.00000
  5 0.00000 0.00000 0.00000
  6 0.00000 0.00000 0.00000
  7 0.00000 0.00000 0.00000
  8 0.00000 0.00000 0.00000
  9 0.00000 0.00000 0.00000
  10 0.00000 0.00000 0.00000
  11 0.00000 0.00000 0.00000
  12 0.00000 0.00000 0.00000
  13 0.00000 0.00000 0.00000
  14 0.00000 0.00000 0.00000
  15 0.00000 0.00000 0.00000
  16 0.00000 0.00000 0.00000
  17 0.00000 0.00000 0.00000
  18 0.00000 0.00000 0.00000
  19 0.00000 0.00000 0.00000
  20 0.00000 0.00000 0.00000
  21 0.00000 0.00000 0.00000
  22 0.00000 0.00000 0.00000
  23 0.00000 0.00000 0.00000
  24 0.00000 0.00000 0.00000
  25 0.00000 0.00000 0.00000
  26 0.00000 0.00000 0.00000
  27 0.00000 0.00000 0.00000
  28 0.00000 0.00000 0.00000
  29 0.00000 0.00000 0.00000
  30 0.00000 0.00000 0.00000
  31 0.00000 0.00000 0.00000
  32 0.00000 0.00000 0.00000
  33 0.00000 0.00000 0.00000
  34 0.00000 0.00000 0.00000
  35 0.00000 0.00000 0.00000
  36 0.00000 0.00000 0.00000
  37 0.00000 0.00000 0.00000
  38 0.00000 0.00000 0.00000
  39 0.00000 0.00000 0.00000
  40 0.00000 0.00000 0.00000
  41 0.00000 0.00000 0.00000
  42 0.00000 0.00000 0.00000
  43 0.00000 0.00000 0.00000
  44 0.00000 0.00000 0.00000
  45 0.00000 0.00000 0.00000
  46 0.00000 0.00000 0.00000
  47 0.00000 0.00000 0.00000
  48 0.00000 0.00000 0.00000
  49 0.00000 0.00000 0.00000
  50 0.00000 0.00000 0.00000
  51 0.00000 0.00000 0.00000
  52 0.00000 0.00000 0.00000
  53 0.00000 0.00000 0.00000
  54 0.00000 0.00000 0.00000
  55 0.00000 0.00000 0.00000
  56 0.00000 0.00000 0.00000
  57 0.00000 0.00000 0.00000
  58 0.00000 0.00000 0.00000
  59 0.00000 0.00000 0.00000
  60 0.00000 0.00000 0.00000
  61 0.00000 0.00000 0.00000
  62 0.00000 0.00000 0.00000
  63 0.00000 0.00000 0.00000
  64 0.00000 0.00000 0.00000
  65 0.00000 0.00000 0.00000
  66 0.00000 0.00000 0.00000
</Section>

newXOutput 168

<Section columns = "stress_xx | stress_yy | stress_xy">
  1 0.00000 0.00000 0.00000
  2 0.00000 0.00000 0.00000
  3 0.00000 0.00000 0.00000
  4 0.00000 0.00000 0.00000
  5 0.00000 0.00000 0.00000
  6 0.00000 0.00000 0.00000
  7 0.00000 0.00000 0.00000
  8 0.00000 0.00000 0.00000
  9 0.00000 0.00000 0.00000
  10 0.00000 0.00000 0.00000
  11 0.00000 0.00000 0.00000
  12 0.00000 0.00000 0.00000
  13 0.00000 0.00000 0.00000
  14 0.00000 0.00000 0.00000
  15 0.00000 0.00000 0.00000
  16 0.00000 0.00000 0.00000
  17 0.00000 0.00000 0.00000
  18 0.00000 0.00000 0.00000
  19 0.00000 0.00000 0.00000
  20 0.00000 0.00000 0.00000
  21 0.00000 0.00000 0.00000
  22 0.00000 0.00000 0.00000
  23 0.00000 0.00000 0.00000
  24 0.00000 0.00000 0.00000
  25 0.00000 0.00000 0.00000
  26 0.00000 0.00000 0.00000
  27 0.00000 0.00000 0.00000
  28 0.00000 0.00000 0.00000
  29 0.00000 0.00000 0.00000
  30 0.00000 0.00000 0.00000
  31 0.00000 0.00000 0.00000
  32 0.00000 0.00000 0.00000
  33 0.00000 0.00000 0.00000
  34 0.00000 0.00000 0.00000
  35 0.00000 0.00000 0.00000
  36 0.00000 0.00000 0.00000
  37 0.00000 0.00000 0.00000
  38 0.00000 0.00000 0.00000
  39 0.00000 0.00000 0.00000
  40 0.00000 0.00000 0.00000
  41 0.00000 0.00000 0.00000
  42 0.00000 0.00000 0.00000
  43 0.00000 0.00000 0.00000
  44 0.00000 0.00000 0.00000
  45 0.00000 0.00000 0.00000
  46 0.00000 0.00000 0.00000
  47 0.00000 0.00000 0.00000
  48 0.00000 0.00000 0.00000
  49 0.00000 0.00000 0.00000
  50 0.00000 0.00000 0.00000
  51 0.00000 0.00000 0.00000
  52 0.00000 0.00000 0.00000
  53 0.00000 0.00000 0.00000
  54 0.00000 0.00000 0.00000
  55 0.00000 0.00000 0.00000
  56 0.00000 0.00000 0.00000
  57 0.00000 0.00000 0.00000
  58 0.00000 0.00000 0.00000
  59 0.00000 0.00000 0.00000
  60 0.00000 0.00000 0.00000
  61 0.00000 0.00000 0.00000
  62 0.00000 0.00000 0.00000
  63 0.00000 0.00000 0.00000
  64 0.00000 0.00000 0.00000
  65 0.00000 0.00000 0.00000
  66 0.00000 0.00000 0.00000
</Section>

newXOutput 169

<Section columns = "stress_xx | stress_yy | stress_xy">
  1 0.00000 0.00000 0.00000
  2 0.00000 0.00000 0.00000
  3 0.00000 0.00000 0.00000
  4 0.00000 0.00000 0.00000
  5 0.00000 0.00000 0.00000
  6 0.00000 0.00000 0.00000
  7 0.00000 0.00000 0.00000
  8 0.00000 0.00000 0.00000
  9 0.00000 0.00000 0.00000
  10 0.00000 0.00000 0.00000
  11 0.00000 0.00000 0.00000
  12 0.00000 0.00000 0.00000
  13 0.00000 0.00000 0.00000
  14 0.00000 0.00000 0.00000
  15 0.00000 0.00000 0.00000
  16 0.00000 0.00000 0.00000
  17 0.00000 0.00000 0.00000
  18 0.00000 0.00000 0.00000
  19 0.00000 0.00000 0.00000
  20 0.00000 0.00000 0.00000
  21 0.00000 0.00000 0.00000
  22 0.00000 0.00000 0.00000
  23 0.00000 0.00000 0.00000
  24 0.00000 0.00000 0.00000
  25 0.00000 0.00000 0.00000
  26 0.00000 0.00000 0.00000
  27 0.00000 0.00000 0.00000
  28 0.00000 0.00000 0.00000
  29 0.00000 0.00000 0.00000
  30 0.00000 0.00000 0.00000
  31 0.00000 0.00000 0.00000
  32 0.00000 0.00000 0.00000
  33 0.00000 0.00000 0.00000
  34 0.00000 0.00000 0.00000
  35 0.00000 0.00000 0.00000
  36 0.00000 0.00000 0.00000
  37 0.00000 0.00000 0.00000
  38 0.00000 0.00000 0.00000
  39 0.00000 0.00000 0.00000
  40 0.00000 0.00000 0.00000
  41 0.00000 0.00000 0.00000
  42 0.00000 0.00000 0.00000
  43 0.00000 0.00000 0.00000
  44 0.00000 0.00000 0.00000
  45 0.00000 0.00000 0.00000
  46 0.00000 0.00000 0.00000
  47 0.00000 0.00000 0.00000
  48 0.00000 0.00000 0.00000
  49 0.00000 0.00000 0.00000
  50 0.00000 0.00000 0.00000
  51 0.00000 0.00000 0.00000
  52 0.00000 0.00000 0.00000
  53 0.00000 0.00000 0.00000
  54 0.00000 0.00000 0.00000
  55 0.00000 0.00000 0.00000
  56 0.00000 0.00000 0.00000
  57 0.00000 0.00000 0.00000
  58 0.00000 0.00000 0.00000
  59 0.00000 0.00000 0.00000
  60 0.00000 0.00000 0.00000
  61 0.00000 0.00000 0.00000
  62 0.00000 0.00000 0.00000
  63 0.00000 0.00000 0.00000
  64 0.00000 0.00000 0.00000
  65 0.00000 0.00000 0.00000
  66 0.00000 0.00000 0.00000
</Section>

newXOutput 170

<Section columns = "stress_xx | stress_yy | stress_xy">
  1 0.00000 0.00000 0.00000
  2 0.00000 0.00000 0.00000
  3 0.00000 0.00000 0.00000
  4 0.00000 0.00000 0.00000
  5 0.00000 0.00000 0.00000
  6 0.00000 0.00000 0.00000
  7 0.00000 0.00000 0.00000
  8 0.00000 0.00000 0.00000
  9 0.00000 0.00000 0.00000
  10 0.00000 0.00000 0.00000
  11 0.00000 0.00000 0.00000
  12 0.00000 0.00000 0.00000
  13 0.00000 0.00000 0.00000
  14 0.00000 0.00000 0.00000
  15 0.00000 0.00000 0.00000
  16 0.00000 0.00000 0.00000
  17 0.00000 0.00000 0.00000
  18 0.00000 0.00000 0.00000
  19 0.00000 0.00000 0.00000
  20 0.00000 0.00000 0.00000
  21 0.00000 0.00000 0.00000
  22 0.00000 0.00000 0.00000
  23 0.00000 0.00000 0.00000
  24 0.00000 0.00000 0.00000
  25 0.00000 0.00000 0.00000
  26 0.00000 0.00000 0.00000
  27 0.00000 0.00000 0.00000
  28 0.00000 0.00000 0.00000
  29 0.00000 0.00000 0.00000
  30 0.00000 0.00000 0.00000
  31 0.00000 0.00000 0.00000
  32 0.00000 0.00000 0.00000
  33 0.00000 0.00000 0.00000
  34 0.00000 0.00000 0.00000
  35 0.00000 0.00000 0.00000
  36 0.00000 0.00000 0.00000
  37 0.00000 0.00000 0.00000
  38 0.00000 0.00000 0.00000
  39 0.00000 0.00000 0.00000
  40 0.00000 0.00000 0.00000
  41 0.00000 0.00000 0.00000
  42 0.00000 0.00000 0.00000
  43 0.00000 0.00000 0.00000
  44 0.00000 0.00000 0.00000
  45 0.00000 0.00000 0.00000
  46 0.00000 0.00000 0.00000
  47 0.00000 0.00000 0.00000
  48 0.00000 0.00000 0.00000
  49 0.00000 0.00000 0.00000
  50 0.00000 0.00000 0.00000
  51 0.00000 0.00000 0.00000
  52 0.00000 0.00000 0.00000
  53 0.00000 0.00000 0.00000
  54 0.00000 0.00000 0.00000
  55 0.00000 0.00000 0.00000
  56 0.00000 0.00000 0.00000
  57 0.00000 0.00000 0.00000
  58 0.00000 0.00000 0.00000
  59 0.00000 0.00000 0.00000
  60 0.00000 0.00000 0.00000
  61 0.00000 0.00000 0.00000
  62 0.00000 0.00000 0.00000
  63 0.00000 0.00000 0.00000
  64 0.00000 0.00000 0.00000
  65 0.00000 0.00000 0.00000
  66 0.00000 0.00000 0.00000
</Section>

newXOutput 171

<Section columns = "stress_xx | stress_yy | stress_xy">
  1 0.00000 0.00000 0.00000
  2 0.00000 0.00000 0.00000
  3 0.00000 0.00000 0.00000
  4 0.00000 0.00000 0.00000
  5 0.00000 0.00000 0.00000
  6 0.00000 0.00000 0.00000
  7 0.00000 0.00000 0.00000
  8 0.00000 0.00000 0.00000
  9 0.00000 0.00000 0.00000
  10 0.00000 0.00000 0.00000
  11 0.00000 0.00000 0.00000
  12 0.00000 0.00000 0.00000
  13 0.00000 0.00000 0.00000
  14 0.00000 0.00000 0.00000
  15 0.00000 0.00000 0.00000
  16 0.00000 0.00000 0.00000
  17 0.00000 0.00000 0.00000
  18 0.00000 0.00000 0.00000
  19 0.00000 0.00000 0.00000
  20 0.00000 0.00000 0.00000
  21 0.00000 0.00000 0.00000
  22 0.00000 0.00000 0.00000
  23 0.00000 0.00000 0.00000
  24 0.00000 0.00000 0.00000
  25 0.00000 0.00000 0.00000
  26 0.00000 0.00000 0.00000
  27 0.00000 0.00000 0.00000
  28 0.00000 0.00000 0.00000
  29 0.00000 0.00000 0.00000
  30 0.00000 0.00000 0.00000
  31 0.00000 0.00000 0.00000
  32 0.00000 0.00000 0.00000
  33 0.00000 0.00000 0.00000
  34 0.00000 0.00000 0.00000
  35 0.00000 0.00000 0.00000
  36 0.00000 0.00000 0.00000
  37 0.00000 0.00000 0.00000
  38 0.00000 0.00000 0.00000
  39 0.00000 0.00000 0.00000
  40 0.00000 0.00000 0.00000
  41 0.00000 0.00000 0.00000
  42 0.00000 0.00000 0.00000
  43 0.00000 0.00000 0.00000
  44 0.00000 0.00000 0.00000
  45 0.00000 0.00000 0.00000
  46 0.00000 0.00000 0.00000
  47 0.00000 0.00000 0.00000
  48 0.00000 0.00000 0.00000
  49 0.00000 0.00000 0.00000
  50 0.00000 0.00000 0.00000
  51 0.00000 0.00000 0.00000
  52 0.00000 0.00000 0.00000
  53 0.00000 0.00000 0.00000
  54 0.00000 0.00000 0.00000
  55 0.00000 0.00000 0.00000
  56 0.00000 0.00000 0.00000
  57 0.00000 0.00000 0.00000
  58 0.00000 0.00000 0.00000
  59 0.00000 0.00000 0.00000
  60 0.00000 0.00000 0.00000
  61 0.00000 0.00000 0.00000
  62 0.00000 0.00000 0.00000
  63 0.00000 0.00000 0.00000
  64 0.00000 0.00000 0.00000
  65 0.00000 0.00000 0.00000
  66 0.00000 0.00000 0.00000
</Section>

newXOutput 172

<Section columns = "stress_xx | stress_yy | stress_xy">
  1 0.00000 0.00000 0.00000
  2 0.00000 0.00000 0.00000
  3 0.00000 0.00000 0.00000
  4 0.00000 0.00000 0.00000
  5 0.00000 0.00000 0.00000
  6 0.00000 0.00000 0.00000
  7 0.00000 0.00000 0.00000
  8 0.00000 0.00000 0.00000
  9 0.00000 0.00000 0.00000
  10 0.00000 0.00000 0.00000
  11 0.00000 0.00000 0.00000
  12 0.00000 0.00000 0.00000
  13 0.00000 0.00000 0.00000
  14 0.00000 0.00000 0.00000
  15 0.00000 0.00000 0.00000
  16 0.00000 0.00000 0.00000
  17 0.00000 0.00000 0.00000
  18 0.00000 0.00000 0.00000
  19 0.00000 0.00000 0.00000
  20 0.00000 0.00000 0.00000
  21 0.00000 0.00000 0.00000
  22 0.00000 0.00000 0.00000
  23 0.00000 0.00000 0.00000
  24 0.00000 0.00000 0.00000
  25 0.00000 0.00000 0.00000
  26 0.00000 0.00000 0.00000
  27 0.00000 0.00000 0.00000
  28 0.00000 0.00000 0.00000
  29 0.00000 0.00000 0.00000
  30 0.00000 0.00000 0.00000
  31 0.00000 0.00000 0.00000
  32 0.00000 0.00000 0.00000
  33 0.00000 0.00000 0.00000
  34 0.00000 0.00000 0.00000
  35 0.00000 0.00000 0.00000
  36 0.00000 0.00000 0.00000
  37 0.00000 0.00000 0.00000
  38 0.00000 0.00000 0.00000
  39 0.00000 0.00000 0.00000
  40 0.00000 0.00000 0.00000
  41 0.00000 0.00000 0.00000
  42 0.00000 0.00000 0.00000
  43 0.00000 0.00000 0.00000
  44 0.00000 0.00000 0.00000
  45 0.00000 0.00000 0.00000
  46 0.00000 0.00000 0.00000
  47 0.00000 0.00000 0.00000
  48 0.00000 0.00000 0.00000
  49 0.00000 0.00000 0.00000
  50 0.00000 0.00000 0.00000
  51 0.00000 0.00000 0.00000
  52 0.00000 0.00000 0.00000
  53 0.00000 0.00000 0.00000
  54 0.00000 0.00000 0.00000
  55 0.00000 0.00000 0.00000
  56 0.00000 0.00000 0.00000
  57 0.00000 0.00000 0.00000
  58 0.00000 0.00000 0.00000
  59 0.00000 0.00000 0.00000
  60 0.00000 0.00000 0.00000
  61 0.00000 0.00000 0.00000
  62 0.00000 0.00000 0.00000
  63 0.00000 0.00000 0.00000
  64 0.00000 0.00000 0.00000
  65 0.00000 0.00000 0.00000
  66 0.00000 0.00000 0.00000
</Section>

newXOutput 173

<Section columns = "stress_xx | stress_yy | stress_xy">
  1 0.00000 0.00000 0.00000
  2 0.00000 0.00000 0.00000
  3 0.00000 0.00000 0.00000
  4 0.00000 0.00000 0.00000
  5 0.00000 0.00000 0.00000
  6 0.00000 0.00000 0.00000
  7 0.00000 0.00000 0.00000
  8 0.00000 0.00000 0.00000
  9 0.00000 0.00000 0.00000
  10 0.00000 0.00000 0.00000
  11 0.00000 0.00000 0.00000
  12 0.00000 0.00000 0.00000
  13 0.00000 0.00000 0.00000
  14 0.00000 0.00000 0.00000
  15 0.00000 0.00000 0.00000
  16 0.00000 0.00000 0.00000
  17 0.00000 0.00000 0.00000
  18 0.00000 0.00000 0.00000
  19 0.00000 0.00000 0.00000
  20 0.00000 0.00000 0.00000
  21 0.00000 0.00000 0.00000
  22 0.00000 0.00000 0.00000
  23 0.00000 0.00000 0.00000
  24 0.00000 0.00000 0.00000
  25 0.00000 0.00000 0.00000
  26 0.00000 0.00000 0.00000
  27 0.00000 0.00000 0.00000
  28 0.00000 0.00000 0.00000
  29 0.00000 0.00000 0.00000
  30 0.00000 0.00000 0.00000
  31 0.00000 0.00000 0.00000
  32 0.00000 0.00000 0.00000
  33 0.00000 0.00000 0.00000
  34 0.00000 0.00000 0.00000
  35 0.00000 0.00000 0.00000
  36 0.00000 0.00000 0.00000
  37 0.00000 0.00000 0.00000
  38 0.00000 0.00000 0.00000
  39 0.00000 0.00000 0.00000
  40 0.00000 0.00000 0.00000
  41 0.00000 0.00000 0.00000
  42 0.00000 0.00000 0.00000
  43 0.00000 0.00000 0.00000
  44 0.00000 0.00000 0.00000
  45 0.00000 0.00000 0.00000
  46 0.00000 0.00000 0.00000
  47 0.00000 0.00000 0.00000
  48 0.00000 0.00000 0.00000
  49 0.00000 0.00000 0.00000
  50 0.00000 0.00000 0.00000
  51 0.00000 0.00000 0.00000
  52 0.00000 0.00000 0.00000
  53 0.00000 0.00000 0.00000
  54 0.00000 0.00000 0.00000
  55 0.00000 0.00000 0.00000
  56 0.00000 0.00000 0.00000
  57 0.00000 0.00000 0.00000
  58 0.00000 0.00000 0.00000
  59 0.00000 0.00000 0.00000
  60 0.00000 0.00000 0.00000
  61 0.00000 0.00000 0.00000
  62 0.00000 0.00000 0.00000
  63 0.00000 0.00000 0.00000
  64 0.00000 0.00000 0.00000
  65 0.00000 0.00000 0.00000
  66 0.00000 0.00000 0.00000
</Section>

newXOutput 174

<Section columns = "stress_xx | stress_yy | stress_xy">
  1 0.00000 0.00000 0.00000
  2 0.00000 0.00000 0.00000
  3 0.00000 0.00000 0.00000
  4 0.00000 0.00000 0.00000
  5 0.00000 0.00000 0.00000
  6 0.00000 0.00000 0.00000
  7 0.00000 0.00000 0.00000
  8 0.00000 0.00000 0.00000
  9 0.00000 0.00000 0.00000
  10 0.00000 0.00000 0.00000
  11 0.00000 0.00000 0.00000
  12 0.00000 0.00000 0.00000
  13 0.00000 0.00000 0.00000
  14 0.00000 0.00000 0.00000
  15 0.00000 0.00000 0.00000
  16 0.00000 0.00000 0.00000
  17 0.00000 0.00000 0.00000
  18 0.00000 0.00000 0.00000
  19 0.00000 0.00000 0.00000
  20 0.00000 0.00000 0.00000
  21 0.00000 0.00000 0.00000
  22 0.00000 0.00000 0.00000
  23 0.00000 0.00000 0.00000
  24 0.00000 0.00000 0.00000
  25 0.00000 0.00000 0.00000
  26 0.00000 0.00000 0.00000
  27 0.00000 0.00000 0.00000
  28 0.00000 0.00000 0.00000
  29 0.00000 0.00000 0.00000
  30 0.00000 0.00000 0.00000
  31 0.00000 0.00000 0.00000
  32 0.00000 0.00000 0.00000
  33 0.00000 0.00000 0.00000
  34 0.00000 0.00000 0.00000
  35 0.00000 0.00000 0.00000
  36 0.00000 0.00000 0.00000
  37 0.00000 0.00000 0.00000
  38 0.00000 0.00000 0.00000
  39 0.00000 0.00000 0.00000
  40 0.00000 0.00000 0.00000
  41 0.00000 0.00000 0.00000
  42 0.00000 0.00000 0.00000
  43 0.00000 0.00000 0.00000
  44 0.00000 0.00000 0.00000
  45 0.00000 0.00000 0.00000
  46 0.00000 0.00000 0.00000
  47 0.00000 0.00000 0.00000
  48 0.00000 0.00000 0.00000
  49 0.00000 0.00000 0.00000
  50 0.00000 0.00000 0.00000
  51 0.00000 0.00000 0.00000
  52 0.00000 0.00000 0.00000
  53 0.00000 0.00000 0.00000
  54 0.00000 0.00000 0.00000
  55 0.00000 0.00000 0.00000
  56 0.00000 0.00000 0.00000
  57 0.00000 0.00000 0.00000
  58 0.00000 0.00000 0.00000
  59 0.00000 0.00000 0.00000
  60 0.00000 0.00000 0.00000
  61 0.00000 0.00000 0.00000
  62 0.00000 0.00000 0.00000
  63 0.00000 0.00000 0.00000
  64 0.00000 0.00000 0.00000
  65 0.00000 0.00000 0.00000
  66 0.00000 0.00000 0.00000
</Section>

newXOutput 175

<Section columns = "stress_xx | stress_yy | stress_xy">
  1 0.00000 0.00000 0.00000
  2 0.00000 0.00000 0.00000
  3 0.00000 0.00000 0.00000
  4 0.00000 0.00000 0.00000
  5 0.00000 0.00000 0.00000
  6 0.00000 0.00000 0.00000
  7 0.00000 0.00000 0.00000
  8 0.00000 0.00000 0.00000
  9 0.00000 0.00000 0.00000
  10 0.00000 0.00000 0.00000
  11 0.00000 0.00000 0.00000
  12 0.00000 0.00000 0.00000
  13 0.00000 0.00000 0.00000
  14 0.00000 0.00000 0.00000
  15 0.00000 0.00000 0.00000
  16 0.00000 0.00000 0.00000
  17 0.00000 0.00000 0.00000
  18 0.00000 0.00000 0.00000
  19 0.00000 0.00000 0.00000
  20 0.00000 0.00000 0.00000
  21 0.00000 0.00000 0.00000
  22 0.00000 0.00000 0.00000
  23 0.00000 0.00000 0.00000
  24 0.00000 0.00000 0.00000
  25 0.00000 0.00000 0.00000
  26 0.00000 0.00000 0.00000
  27 0.00000 0.00000 0.00000
  28 0.00000 0.00000 0.00000
  29 0.00000 0.00000 0.00000
  30 0.00000 0.00000 0.00000
  31 0.00000 0.00000 0.00000
  32 0.00000 0.00000 0.00000
  33 0.00000 0.00000 0.00000
  34 0.00000 0.00000 0.00000
  35 0.00000 0.00000 0.00000
  36 0.00000 0.00000 0.00000
  37 0.00000 0.00000 0.00000
  38 0.00000 0.00000 0.00000
  39 0.00000 0.00000 0.00000
  40 0.00000 0.00000 0.00000
  41 0.00000 0.00000 0.00000
  42 0.00000 0.00000 0.00000
  43 0.00000 0.00000 0.00000
  44 0.00000 0.00000 0.00000
  45 0.00000 0.00000 0.00000
  46 0.00000 0.00000 0.00000
  47 0.00000 0.00000 0.00000
  48 0.00000 0.00000 0.00000
  49 0.00000 0.00000 0.00000
  50 0.00000 0.00000 0.00000
  51 0.00000 0.00000 0.00000
  52 0.00000 0.00000 0.00000
  53 0.00000 0.00000 0.00000
  54 0.00000 0.00000 0.00000
  55 0.00000 0.00000 0.00000
  56 0.00000 0.00000 0.00000
  57 0.00000 0.00000 0.00000
  58 0.00000 0.00000 0.00000
  59 0.00000 0.00000 0.00000
  60 0.00000 0.00000 0.00000
  61 0.00000 0.00000 0.00000
  62 0.00000 0.00000 0.00000
  63 0.00000 0.00000 0.00000
  64 0.00000 0.00000 0.00000
  65 0.00000 0.00000 0.00000
  66 0.00000 0.00000 0.00000
</Section>

newXOutput 176

<Section columns = "stress_xx | stress_yy | stress_xy">
  1 0.00000 0.00000 0.00000
  2 0.00000 0.00000 0.00000
  3 0.00000 0.00000 0.00000
  4 0.00000 0.00000 0.00000
  5 0.00000 0.00000 0.00000
  6 0.00000 0.00000 0.00000
  7 0.00000 0.00000 0.00000
  8 0.00000 0.00000 0.00000
  9 0.00000 0.00000 0.00000
  10 0.00000 0.00000 0.00000
  11 0.00000 0.00000 0.00000
  12 0.00000 0.00000 0.00000
  13 0.00000 0.00000 0.00000
  14 0.00000 0.00000 0.00000
  15 0.00000 0.00000 0.00000
  16 0.00000 0.00000 0.00000
  17 0.00000 0.00000 0.00000
  18 0.00000 0.00000 0.00000
  19 0.00000 0.00000 0.00000
  20 0.00000 0.00000 0.00000
  21 0.00000 0.00000 0.00000
  22 0.00000 0.00000 0.00000
  23 0.00000 0.00000 0.00000
  24 0.00000 0.00000 0.00000
  25 0.00000 0.00000 0.00000
  26 0.00000 0.00000 0.00000
  27 0.00000 0.00000 0.00000
  28 0.00000 0.00000 0.00000
  29 0.00000 0.00000 0.00000
  30 0.00000 0.00000 0.00000
  31 0.00000 0.00000 0.00000
  32 0.00000 0.00000 0.00000
  33 0.00000 0.00000 0.00000
  34 0.00000 0.00000 0.00000
  35 0.00000 0.00000 0.00000
  36 0.00000 0.00000 0.00000
  37 0.00000 0.00000 0.00000
  38 0.00000 0.00000 0.00000
  39 0.00000 0.00000 0.00000
  40 0.00000 0.00000 0.00000
  41 0.00000 0.00000 0.00000
  42 0.00000 0.00000 0.00000
  43 0.00000 0.00000 0.00000
  44 0.00000 0.00000 0.00000
  45 0.00000 0.00000 0.00000
  46 0.00000 0.00000 0.00000
  47 0.00000 0.00000 0.00000
  48 0.00000 0.00000 0.00000
  49 0.00000 0.00000 0.00000
  50 0.00000 0.00000 0.00000
  51 0.00000 0.00000 0.00000
  52 0.00000 0.00000 0.00000
  53 0.00000 0.00000 0.00000
  54 0.00000 0.00000 0.00000
  55 0.00000 0.00000 0.00000
  56 0.00000 0.00000 0.00000
  57 0.00000 0.00000 0.00000
  58 0.00000 0.00000 0.00000
  59 0.00000 0.00000 0.00000
  60 0.00000 0.00000 0.00000
  61 0.00000 0.00000 0.00000
  62 0.00000 0.00000 0.00000
  63 0.00000 0.00000 0.00000
  64 0.00000 0.00000 0.00000
  65 0.00000 0.00000 0.00000
  66 0.00000 0.00000 0.00000
</Section>

newXOutput 177

<Section columns = "stress_xx | stress_yy | stress_xy">
  1 0.00000 0.00000 0.00000
  2 0.00000 0.00000 0.00000
  3 0.00000 0.00000 0.00000
  4 0.00000 0.00000 0.00000
  5 0.00000 0.00000 0.00000
  6 0.00000 0.00000 0.00000
  7 0.00000 0.00000 0.00000
  8 0.00000 0.00000 0.00000
  9 0.00000 0.00000 0.00000
  10 0.00000 0.00000 0.00000
  11 0.00000 0.00000 0.00000
  12 0.00000 0.00000 0.00000
  13 0.00000 0.00000 0.00000
  14 0.00000 0.00000 0.00000
  15 0.00000 0.00000 0.00000
  16 0.00000 0.00000 0.00000
  17 0.00000 0.00000 0.00000
  18 0.00000 0.00000 0.00000
  19 0.00000 0.00000 0.00000
  20 0.00000 0.00000 0.00000
  21 0.00000 0.00000 0.00000
  22 0.00000 0.00000 0.00000
  23 0.00000 0.00000 0.00000
  24 0.00000 0.00000 0.00000
  25 0.00000 0.00000 0.00000
  26 0.00000 0.00000 0.00000
  27 0.00000 0.00000 0.00000
  28 0.00000 0.00000 0.00000
  29 0.00000 0.00000 0.00000
  30 0.00000 0.00000 0.00000
  31 0.00000 0.00000 0.00000
  32 0.00000 0.00000 0.00000
  33 0.00000 0.00000 0.00000
  34 0.00000 0.00000 0.00000
  35 0.00000 0.00000 0.00000
  36 0.00000 0.00000 0.00000
  37 0.00000 0.00000 0.00000
  38 0.00000 0.00000 0.00000
  39 0.00000 0.00000 0.00000
  40 0.00000 0.00000 0.00000
  41 0.00000 0.00000 0.00000
  42 0.00000 0.00000 0.00000
  43 0.00000 0.00000 0.00000
  44 0.00000 0.00000 0.00000
  45 0.00000 0.00000 0.00000
  46 0.00000 0.00000 0.00000
  47 0.00000 0.00000 0.00000
  48 0.00000 0.00000 0.00000
  49 0.00000 0.00000 0.00000
  50 0.00000 0.00000 0.00000
  51 0.00000 0.00000 0.00000
  52 0.00000 0.00000 0.00000
  53 0.00000 0.00000 0.00000
  54 0.00000 0.00000 0.00000
  55 0.00000 0.00000 0.00000
  56 0.00000 0.00000 0.00000
  57 0.00000 0.00000 0.00000
  58 0.00000 0.00000 0.00000
  59 0.00000 0.00000 0.00000
  60 0.00000 0.00000 0.00000
  61 0.00000 0.00000 0.00000
  62 0.00000 0.00000 0.00000
  63 0.00000 0.00000 0.00000
  64 0.00000 0.00000 0.00000
  65 0.00000 0.00000 0.00000
  66 0.00000 0.00000 0.00000
</Section>

newXOutput 178

<Section columns = "stress_xx | stress_yy | stress_xy">
  1 0.00000 0.00000 0.00000
  2 0.00000 0.00000 0.00000
  3 0.00000 0.00000 0.00000
  4 0.00000 0.00000 0.00000
  5 0.00000 0.00000 0.00000
  6 0.00000 0.00000 0.00000
  7 0.00000 0.00000 0.00000
  8 0.00000 0.00000 0.00000
  9 0.00000 0.00000 0.00000
  10 0.00000 0.00000 0.00000
  11 0.00000 0.00000 0.00000
  12 0.00000 0.00000 0.00000
  13 0.00000 0.00000 0.00000
  14 0.00000 0.00000 0.00000
  15 0.00000 0.00000 0.00000
  16 0.00000 0.00000 0.00000
  17 0.00000 0.00000 0.00000
  18 0.00000 0.00000 0.00000
  19 0.00000 0.00000 0.00000
  20 0.00000 0.00000 0.00000
  21 0.00000 0.00000 0.00000
  22 0.00000 0.00000 0.00000
  23 0.00000 0.00000 0.00000
  24 0.00000 0.00000 0.00000
  25 0.00000 0.00000 0.00000
  26 0.00000 0.00000 0.00000
  27 0.00000 0.00000 0.00000
  28 0.00000 0.00000 0.00000
  29 0.00000 0.00000 0.00000
  30 0.00000 0.00000 0.00000
  31 0.00000 0.00000 0.00000
  32 0.00000 0.00000 0.00000
  33 0.00000 0.00000 0.00000
  34 0.00000 0.00000 0.00000
  35 0.00000 0.00000 0.00000
  36 0.00000 0.00000 0.00000
  37 0.00000 0.00000 0.00000
  38 0.00000 0.00000 0.00000
  39 0.00000 0.00000 0.00000
  40 0.00000 0.00000 0.00000
  41 0.00000 0.00000 0.00000
  42 0.00000 0.00000 0.00000
  43 0.00000 0.00000 0.00000
  44 0.00000 0.00000 0.00000
  45 0.00000 0.00000 0.00000
  46 0.00000 0.00000 0.00000
  47 0.00000 0.00000 0.00000
  48 0.00000 0.00000 0.00000
  49 0.00000 0.00000 0.00000
  50 0.00000 0.00000 0.00000
  51 0.00000 0.00000 0.00000
  52 0.00000 0.00000 0.00000
  53 0.00000 0.00000 0.00000
  54 0.00000 0.00000 0.00000
  55 0.00000 0.00000 0.00000
  56 0.00000 0.00000 0.00000
  57 0.00000 0.00000 0.00000
  58 0.00000 0.00000 0.00000
  59 0.00000 0.00000 0.00000
  60 0.00000 0.00000 0.00000
  61 0.00000 0.00000 0.00000
  62 0.00000 0.00000 0.00000
  63 0.00000 0.00000 0.00000
  64 0.00000 0.00000 0.00000
  65 0.00000 0.00000 0.00000
  66 0.00000 0.00000 0.00000
</Section>

newXOutput 179

<Section columns = "stress_xx | stress_yy | stress_xy">
  1 0.00000 0.00000 0.00000
  2 0.00000 0.00000 0.00000
  3 0.00000 0.00000 0.00000
  4 0.00000 0.00000 0.00000
  5 0.00000 0.00000 0.00000
  6 0.00000 0.00000 0.00000
  7 0.00000 0.00000 0.00000
  8 0.00000 0.00000 0.00000
  9 0.00000 0.00000 0.00000
  10 0.00000 0.00000 0.00000
  11 0.00000 0.00000 0.00000
  12 0.00000 0.00000 0.00000
  13 0.00000 0.00000 0.00000
  14 0.00000 0.00000 0.00000
  15 0.00000 0.00000 0.00000
  16 0.00000 0.00000 0.00000
  17 0.00000 0.00000 0.00000
  18 0.00000 0.00000 0.00000
  19 0.00000 0.00000 0.00000
  20 0.00000 0.00000 0.00000
  21 0.00000 0.00000 0.00000
  22 0.00000 0.00000 0.00000
  23 0.00000 0.00000 0.00000
  24 0.00000 0.00000 0.00000
  25 0.00000 0.00000 0.00000
  26 0.00000 0.00000 0.00000
  27 0.00000 0.00000 0.00000
  28 0.00000 0.00000 0.00000
  29 0.00000 0.00000 0.00000
  30 0.00000 0.00000 0.00000
  31 0.00000 0.00000 0.00000
  32 0.00000 0.00000 0.00000
  33 0.00000 0.00000 0.00000
  34 0.00000 0.00000 0.00000
  35 0.00000 0.00000 0.00000
  36 0.00000 0.00000 0.00000
  37 0.00000 0.00000 0.00000
  38 0.00000 0.00000 0.00000
  39 0.00000 0.00000 0.00000
  40 0.00000 0.00000 0.00000
  41 0.00000 0.00000 0.00000
  42 0.00000 0.00000 0.00000
  43 0.00000 0.00000 0.00000
  44 0.00000 0.00000 0.00000
  45 0.00000 0.00000 0.00000
  46 0.00000 0.00000 0.00000
  47 0.00000 0.00000 0.00000
  48 0.00000 0.00000 0.00000
  49 0.00000 0.00000 0.00000
  50 0.00000 0.00000 0.00000
  51 0.00000 0.00000 0.00000
  52 0.00000 0.00000 0.00000
  53 0.00000 0.00000 0.00000
  54 0.00000 0.00000 0.00000
  55 0.00000 0.00000 0.00000
  56 0.00000 0.00000 0.00000
  57 0.00000 0.00000 0.00000
  58 0.00000 0.00000 0.00000
  59 0.00000 0.00000 0.00000
  60 0.00000 0.00000 0.00000
  61 0.00000 0.00000 0.00000
  62 0.00000 0.00000 0.00000
  63 0.00000 0.00000 0.00000
  64 0.00000 0.00000 0.00000
  65 0.00000 0.00000 0.00000
  66 0.00000 0.00000 0.00000
</Section>

newXOutput 180

<Section columns = "stress_xx | stress_yy | stress_xy">
  1 0.00000 0.00000 0.00000
  2 0.00000 0.00000 0.00000
  3 0.00000 0.00000 0.00000
  4 0.00000 0.00000 0.00000
  5 0.00000 0.00000 0.00000
  6 0.00000 0.00000 0.00000
  7 0.00000 0.00000 0.00000
  8 0.00000 0.00000 0.00000
  9 0.00000 0.00000 0.00000
  10 0.00000 0.00000 0.00000
  11 0.00000 0.00000 0.00000
  12 0.00000 0.00000 0.00000
  13 0.00000 0.00000 0.00000
  14 0.00000 0.00000 0.00000
  15 0.00000 0.00000 0.00000
  16 0.00000 0.00000 0.00000
  17 0.00000 0.00000 0.00000
  18 0.00000 0.00000 0.00000
  19 0.00000 0.00000 0.00000
  20 0.00000 0.00000 0.00000
  21 0.00000 0.00000 0.00000
  22 0.00000 0.00000 0.00000
  23 0.00000 0.00000 0.00000
  24 0.00000 0.00000 0.00000
  25 0.00000 0.00000 0.00000
  26 0.00000 0.00000 0.00000
  27 0.00000 0.00000 0.00000
  28 0.00000 0.00000 0.00000
  29 0.00000 0.00000 0.00000
  30 0.00000 0.00000 0.00000
  31 0.00000 0.00000 0.00000
  32 0.00000 0.00000 0.00000
  33 0.00000 0.00000 0.00000
  34 0.00000 0.00000 0.00000
  35 0.00000 0.00000 0.00000
  36 0.00000 0.00000 0.00000
  37 0.00000 0.00000 0.00000
  38 0.00000 0.00000 0.00000
  39 0.00000 0.00000 0.00000
  40 0.00000 0.00000 0.00000
  41 0.00000 0.00000 0.00000
  42 0.00000 0.00000 0.00000
  43 0.00000 0.00000 0.00000
  44 0.00000 0.00000 0.00000
  45 0.00000 0.00000 0.00000
  46 0.00000 0.00000 0.00000
  47 0.00000 0.00000 0.00000
  48 0.00000 0.00000 0.00000
  49 0.00000 0.00000 0.00000
  50 0.00000 0.00000 0.00000
  51 0.00000 0.00000 0.00000
  52 0.00000 0.00000 0.00000
  53 0.00000 0.00000 0.00000
  54 0.00000 0.00000 0.00000
  55 0.00000 0.00000 0.00000
  56 0.00000 0.00000 0.00000
  57 0.00000 0.00000 0.00000
  58 0.00000 0.00000 0.00000
  59 0.00000 0.00000 0.00000
  60 0.00000 0.00000 0.00000
  61 0.00000 0.00000 0.00000
  62 0.00000 0.00000 0.00000
  63 0.00000 0.00000 0.00000
  64 0.00000 0.00000 0.00000
  65 0.00000 0.00000 0.00000
  66 0.00000 0.00000 0.00000
</Section>

newXOutput 181

<Section columns = "stress_xx | stress_yy | stress_xy">
  1 0.00000 0.00000 0.00000
  2 0.00000 0.00000 0.00000
  3 0.00000 0.00000 0.00000
  4 0.00000 0.00000 0.00000
  5 0.00000 0.00000 0.00000
  6 0.00000 0.00000 0.00000
  7 0.00000 0.00000 0.00000
  8 0.00000 0.00000 0.00000
  9 0.00000 0.00000 0.00000
  10 0.00000 0.00000 0.00000
  11 0.00000 0.00000 0.00000
  12 0.00000 0.00000 0.00000
  13 0.00000 0.00000 0.00000
  14 0.00000 0.00000 0.00000
  15 0.00000 0.00000 0.00000
  16 0.00000 0.00000 0.00000
  17 0.00000 0.00000 0.00000
  18 0.00000 0.00000 0.00000
  19 0.00000 0.00000 0.00000
  20 0.00000 0.00000 0.00000
  21 0.00000 0.00000 0.00000
  22 0.00000 0.00000 0.00000
  23 0.00000 0.00000 0.00000
  24 0.00000 0.00000 0.00000
  25 0.00000 0.00000 0.00000
  26 0.00000 0.00000 0.00000
  27 0.00000 0.00000 0.00000
  28 0.00000 0.00000 0.00000
  29 0.00000 0.00000 0.00000
  30 0.00000 0.00000 0.00000
  31 0.00000 0.00000 0.00000
  32 0.00000 0.00000 0.00000
  33 0.00000 0.00000 0.00000
  34 0.00000 0.00000 0.00000
  35 0.00000 0.00000 0.00000
  36 0.00000 0.00000 0.00000
  37 0.00000 0.00000 0.00000
  38 0.00000 0.00000 0.00000
  39 0.00000 0.00000 0.00000
  40 0.00000 0.00000 0.00000
  41 0.00000 0.00000 0.00000
  42 0.00000 0.00000 0.00000
  43 0.00000 0.00000 0.00000
  44 0.00000 0.00000 0.00000
  45 0.00000 0.00000 0.00000
  46 0.00000 0.00000 0.00000
  47 0.00000 0.00000 0.00000
  48 0.00000 0.00000 0.00000
  49 0.00000 0.00000 0.00000
  50 0.00000 0.00000 0.00000
  51 0.00000 0.00000 0.00000
  52 0.00000 0.00000 0.00000
  53 0.00000 0.00000 0.00000
  54 0.00000 0.00000 0.00000
  55 0.00000 0.00000 0.00000
  56 0.00000 0.00000 0.00000
  57 0.00000 0.00000 0.00000
  58 0.00000 0.00000 0.00000
  59 0.00000 0.00000 0.00000
  60 0.00000 0.00000 0.00000
  61 0.00000 0.00000 0.00000
  62 0.00000 0.00000 0.00000
  63 0.00000 0.00000 0.00000
  64 0.00000 0.00000 0.00000
  65 0.00000 0.00000 0.00000
  66 0.00000 0.00000 0.00000
</Section>

newXOutput 182

<Section columns = "stress_xx | stress_yy | stress_xy">
  1 0.00000 0.00000 0.00000
  2 0.00000 0.00000 0.00000
  3 0.00000 0.00000 0.00000
  4 0.00000 0.00000 0.00000
  5 0.00000 0.00000 0.00000
  6 0.00000 0.00000 0.00000
  7 0.00000 0.00000 0.00000
  8 0.00000 0.00000 0.00000
  9 0.00000 0.00000 0.00000
  10 0.00000 0.00000 0.00000
  11 0.00000 0.00000 0.00000
  12 0.00000 0.00000 0.00000
  13 0.00000 0.00000 0.00000
  14 0.00000 0.00000 0.00000
  15 0.00000 0.00000 0.00000
  16 0.00000 0.00000 0.00000
  17 0.00000 0.00000 0.00000
  18 0.00000 0.00000 0.00000
  19 0.00000 0.00000 0.00000
  20 0.00000 0.00000 0.00000
  21 0.00000 0.00000 0.00000
  22 0.00000 0.00000 0.00000
  23 0.00000 0.00000 0.00000
  24 0.00000 0.00000 0.00000
  25 0.00000 0.00000 0.00000
  26 0.00000 0.00000 0.00000
  27 0.00000 0.00000 0.00000
  28 0.00000 0.00000 0.00000
  29 0.00000 0.00000 0.00000
  30 0.00000 0.00000 0.00000
  31 0.00000 0.00000 0.00000
  32 0.00000 0.00000 0.00000
  33 0.00000 0.00000 0.00000
  34 0.00000 0.00000 0.00000
  35 0.00000 0.00000 0.00000
  36 0.00000 0.00000 0.00000
  37 0.00000 0.00000 0.00000
  38 0.00000 0.00000 0.00000
  39 0.00000 0.00000 0.00000
  40 0.00000 0.00000 0.00000
  41 0.00000 0.00000 0.00000
  42 0.00000 0.00000 0.00000
  43 0.00000 0.00000 0.00000
  44 0.00000 0.00000 0.00000
  45 0.00000 0.00000 0.00000
  46 0.00000 0.00000 0.00000
  47 0.00000 0.00000 0.00000
  48 0.00000 0.00000 0.00000
  49 0.00000 0.00000 0.00000
  50 0.00000 0.00000 0.00000
  51 0.00000 0.00000 0.00000
  52 0.00000 0.00000 0.00000
  53 0.00000 0.00000 0.00000
  54 0.00000 0.00000 0.00000
  55 0.00000 0.00000 0.00000
  56 0.00000 0.00000 0.00000
  57 0.00000 0.00000 0.00000
  58 0.00000 0.00000 0.00000
  59 0.00000 0.00000 0.00000
  60 0.00000 0.00000 0.00000
  61 0.00000 0.00000 0.00000
  62 0.00000 0.00000 0.00000
  63 0.00000 0.00000 0.00000
  64 0.00000 0.00000 0.00000
  65 0.00000 0.00000 0.00000
  66 0.00000 0.00000 0.00000
</Section>

newXOutput 183

<Section columns = "stress_xx | stress_yy | stress_xy">
  1 0.00000 0.00000 0.00000
  2 0.00000 0.00000 0.00000
  3 0.00000 0.00000 0.00000
  4 0.00000 0.00000 0.00000
  5 0.00000 0.00000 0.00000
  6 0.00000 0.00000 0.00000
  7 0.00000 0.00000 0.00000
  8 0.00000 0.00000 0.00000
  9 0.00000 0.00000 0.00000
  10 0.00000 0.00000 0.00000
  11 0.00000 0.00000 0.00000
  12 0.00000 0.00000 0.00000
  13 0.00000 0.00000 0.00000
  14 0.00000 0.00000 0.00000
  15 0.00000 0.00000 0.00000
  16 0.00000 0.00000 0.00000
  17 0.00000 0.00000 0.00000
  18 0.00000 0.00000 0.00000
  19 0.00000 0.00000 0.00000
  20 0.00000 0.00000 0.00000
  21 0.00000 0.00000 0.00000
  22 0.00000 0.00000 0.00000
  23 0.00000 0.00000 0.00000
  24 0.00000 0.00000 0.00000
  25 0.00000 0.00000 0.00000
  26 0.00000 0.00000 0.00000
  27 0.00000 0.00000 0.00000
  28 0.00000 0.00000 0.00000
  29 0.00000 0.00000 0.00000
  30 0.00000 0.00000 0.00000
  31 0.00000 0.00000 0.00000
  32 0.00000 0.00000 0.00000
  33 0.00000 0.00000 0.00000
  34 0.00000 0.00000 0.00000
  35 0.00000 0.00000 0.00000
  36 0.00000 0.00000 0.00000
  37 0.00000 0.00000 0.00000
  38 0.00000 0.00000 0.00000
  39 0.00000 0.00000 0.00000
  40 0.00000 0.00000 0.00000
  41 0.00000 0.00000 0.00000
  42 0.00000 0.00000 0.00000
  43 0.00000 0.00000 0.00000
  44 0.00000 0.00000 0.00000
  45 0.00000 0.00000 0.00000
  46 0.00000 0.00000 0.00000
  47 0.00000 0.00000 0.00000
  48 0.00000 0.00000 0.00000
  49 0.00000 0.00000 0.00000
  50 0.00000 0.00000 0.00000
  51 0.00000 0.00000 0.00000
  52 0.00000 0.00000 0.00000
  53 0.00000 0.00000 0.00000
  54 0.00000 0.00000 0.00000
  55 0.00000 0.00000 0.00000
  56 0.00000 0.00000 0.00000
  57 0.00000 0.00000 0.00000
  58 0.00000 0.00000 0.00000
  59 0.00000 0.00000 0.00000
  60 0.00000 0.00000 0.00000
  61 0.00000 0.00000 0.00000
  62 0.00000 0.00000 0.00000
  63 0.00000 0.00000 0.00000
  64 0.00000 0.00000 0.00000
  65 0.00000 0.00000 0.00000
  66 0.00000 0.00000 0.00000
</Section>

newXOutput 184

<Section columns = "stress_xx | stress_yy | stress_xy">
  1 0.00000 0.00000 0.00000
  2 0.00000 0.00000 0.00000
  3 0.00000 0.00000 0.00000
  4 0.00000 0.00000 0.00000
  5 0.00000 0.00000 0.00000
  6 0.00000 0.00000 0.00000
  7 0.00000 0.00000 0.00000
  8 0.00000 0.00000 0.00000
  9 0.00000 0.00000 0.00000
  10 0.00000 0.00000 0.00000
  11 0.00000 0.00000 0.00000
  12 0.00000 0.00000 0.00000
  13 0.00000 0.00000 0.00000
  14 0.00000 0.00000 0.00000
  15 0.00000 0.00000 0.00000
  16 0.00000 0.00000 0.00000
  17 0.00000 0.00000 0.00000
  18 0.00000 0.00000 0.00000
  19 0.00000 0.00000 0.00000
  20 0.00000 0.00000 0.00000
  21 0.00000 0.00000 0.00000
  22 0.00000 0.00000 0.00000
  23 0.00000 0.00000 0.00000
  24 0.00000 0.00000 0.00000
  25 0.00000 0.00000 0.00000
  26 0.00000 0.00000 0.00000
  27 0.00000 0.00000 0.00000
  28 0.00000 0.00000 0.00000
  29 0.00000 0.00000 0.00000
  30 0.00000 0.00000 0.00000
  31 0.00000 0.00000 0.00000
  32 0.00000 0.00000 0.00000
  33 0.00000 0.00000 0.00000
  34 0.00000 0.00000 0.00000
  35 0.00000 0.00000 0.00000
  36 0.00000 0.00000 0.00000
  37 0.00000 0.00000 0.00000
  38 0.00000 0.00000 0.00000
  39 0.00000 0.00000 0.00000
  40 0.00000 0.00000 0.00000
  41 0.00000 0.00000 0.00000
  42 0.00000 0.00000 0.00000
  43 0.00000 0.00000 0.00000
  44 0.00000 0.00000 0.00000
  45 0.00000 0.00000 0.00000
  46 0.00000 0.00000 0.00000
  47 0.00000 0.00000 0.00000
  48 0.00000 0.00000 0.00000
  49 0.00000 0.00000 0.00000
  50 0.00000 0.00000 0.00000
  51 0.00000 0.00000 0.00000
  52 0.00000 0.00000 0.00000
  53 0.00000 0.00000 0.00000
  54 0.00000 0.00000 0.00000
  55 0.00000 0.00000 0.00000
  56 0.00000 0.00000 0.00000
  57 0.00000 0.00000 0.00000
  58 0.00000 0.00000 0.00000
  59 0.00000 0.00000 0.00000
  60 0.00000 0.00000 0.00000
  61 0.00000 0.00000 0.00000
  62 0.00000 0.00000 0.00000
  63 0.00000 0.00000 0.00000
  64 0.00000 0.00000 0.00000
  65 0.00000 0.00000 0.00000
  66 0.00000 0.00000 0.00000
</Section>

newXOutput 185

<Section columns = "stress_xx | stress_yy | stress_xy">
  1 0.00000 0.00000 0.00000
  2 0.00000 0.00000 0.00000
  3 0.00000 0.00000 0.00000
  4 0.00000 0.00000 0.00000
  5 0.00000 0.00000 0.00000
  6 0.00000 0.00000 0.00000
  7 0.00000 0.00000 0.00000
  8 0.00000 0.00000 0.00000
  9 0.00000 0.00000 0.00000
  10 0.00000 0.00000 0.00000
  11 0.00000 0.00000 0.00000
  12 0.00000 0.00000 0.00000
  13 0.00000 0.00000 0.00000
  14 0.00000 0.00000 0.00000
  15 0.00000 0.00000 0.00000
  16 0.00000 0.00000 0.00000
  17 0.00000 0.00000 0.00000
  18 0.00000 0.00000 0.00000
  19 0.00000 0.00000 0.00000
  20 0.00000 0.00000 0.00000
  21 0.00000 0.00000 0.00000
  22 0.00000 0.00000 0.00000
  23 0.00000 0.00000 0.00000
  24 0.00000 0.00000 0.00000
  25 0.00000 0.00000 0.00000
  26 0.00000 0.00000 0.00000
  27 0.00000 0.00000 0.00000
  28 0.00000 0.00000 0.00000
  29 0.00000 0.00000 0.00000
  30 0.00000 0.00000 0.00000
  31 0.00000 0.00000 0.00000
  32 0.00000 0.00000 0.00000
  33 0.00000 0.00000 0.00000
  34 0.00000 0.00000 0.00000
  35 0.00000 0.00000 0.00000
  36 0.00000 0.00000 0.00000
  37 0.00000 0.00000 0.00000
  38 0.00000 0.00000 0.00000
  39 0.00000 0.00000 0.00000
  40 0.00000 0.00000 0.00000
  41 0.00000 0.00000 0.00000
  42 0.00000 0.00000 0.00000
  43 0.00000 0.00000 0.00000
  44 0.00000 0.00000 0.00000
  45 0.00000 0.00000 0.00000
  46 0.00000 0.00000 0.00000
  47 0.00000 0.00000 0.00000
  48 0.00000 0.00000 0.00000
  49 0.00000 0.00000 0.00000
  50 0.00000 0.00000 0.00000
  51 0.00000 0.00000 0.00000
  52 0.00000 0.00000 0.00000
  53 0.00000 0.00000 0.00000
  54 0.00000 0.00000 0.00000
  55 0.00000 0.00000 0.00000
  56 0.00000 0.00000 0.00000
  57 0.00000 0.00000 0.00000
  58 0.00000 0.00000 0.00000
  59 0.00000 0.00000 0.00000
  60 0.00000 0.00000 0.00000
  61 0.00000 0.00000 0.00000
  62 0.00000 0.00000 0.00000
  63 0.00000 0.00000 0.00000
  64 0.00000 0.00000 0.00000
  65 0.00000 0.00000 0.00000
  66 0.00000 0.00000 0.00000
</Section>

newXOutput 186

<Section columns = "stress_xx | stress_yy | stress_xy">
  1 0.00000 0.00000 0.00000
  2 0.00000 0.00000 0.00000
  3 0.00000 0.00000 0.00000
  4 0.00000 0.00000 0.00000
  5 0.00000 0.00000 0.00000
  6 0.00000 0.00000 0.00000
  7 0.00000 0.00000 0.00000
  8 0.00000 0.00000 0.00000
  9 0.00000 0.00000 0.00000
  10 0.00000 0.00000 0.00000
  11 0.00000 0.00000 0.00000
  12 0.00000 0.00000 0.00000
  13 0.00000 0.00000 0.00000
  14 0.00000 0.00000 0.00000
  15 0.00000 0.00000 0.00000
  16 0.00000 0.00000 0.00000
  17 0.00000 0.00000 0.00000
  18 0.00000 0.00000 0.00000
  19 0.00000 0.00000 0.00000
  20 0.00000 0.00000 0.00000
  21 0.00000 0.00000 0.00000
  22 0.00000 0.00000 0.00000
  23 0.00000 0.00000 0.00000
  24 0.00000 0.00000 0.00000
  25 0.00000 0.00000 0.00000
  26 0.00000 0.00000 0.00000
  27 0.00000 0.00000 0.00000
  28 0.00000 0.00000 0.00000
  29 0.00000 0.00000 0.00000
  30 0.00000 0.00000 0.00000
  31 0.00000 0.00000 0.00000
  32 0.00000 0.00000 0.00000
  33 0.00000 0.00000 0.00000
  34 0.00000 0.00000 0.00000
  35 0.00000 0.00000 0.00000
  36 0.00000 0.00000 0.00000
  37 0.00000 0.00000 0.00000
  38 0.00000 0.00000 0.00000
  39 0.00000 0.00000 0.00000
  40 0.00000 0.00000 0.00000
  41 0.00000 0.00000 0.00000
  42 0.00000 0.00000 0.00000
  43 0.00000 0.00000 0.00000
  44 0.00000 0.00000 0.00000
  45 0.00000 0.00000 0.00000
  46 0.00000 0.00000 0.00000
  47 0.00000 0.00000 0.00000
  48 0.00000 0.00000 0.00000
  49 0.00000 0.00000 0.00000
  50 0.00000 0.00000 0.00000
  51 0.00000 0.00000 0.00000
  52 0.00000 0.00000 0.00000
  53 0.00000 0.00000 0.00000
  54 0.00000 0.00000 0.00000
  55 0.00000 0.00000 0.00000
  56 0.00000 0.00000 0.00000
  57 0.00000 0.00000 0.00000
  58 0.00000 0.00000 0.00000
  59 0.00000 0.00000 0.00000
  60 0.00000 0.00000 0.00000
  61 0.00000 0.00000 0.00000
  62 0.00000 0.00000 0.00000
  63 0.00000 0.00000 0.00000
  64 0.00000 0.00000 0.00000
  65 0.00000 0.00000 0.00000
  66 0.00000 0.00000 0.00000
</Section>

newXOutput 187

<Section columns = "stress_xx | stress_yy | stress_xy">
  1 0.00000 0.00000 0.00000
  2 0.00000 0.00000 0.00000
  3 0.00000 0.00000 0.00000
  4 0.00000 0.00000 0.00000
  5 0.00000 0.00000 0.00000
  6 0.00000 0.00000 0.00000
  7 0.00000 0.00000 0.00000
  8 0.00000 0.00000 0.00000
  9 0.00000 0.00000 0.00000
  10 0.00000 0.00000 0.00000
  11 0.00000 0.00000 0.00000
  12 0.00000 0.00000 0.00000
  13 0.00000 0.00000 0.00000
  14 0.00000 0.00000 0.00000
  15 0.00000 0.00000 0.00000
  16 0.00000 0.00000 0.00000
  17 0.00000 0.00000 0.00000
  18 0.00000 0.00000 0.00000
  19 0.00000 0.00000 0.00000
  20 0.00000 0.00000 0.00000
  21 0.00000 0.00000 0.00000
  22 0.00000 0.00000 0.00000
  23 0.00000 0.00000 0.00000
  24 0.00000 0.00000 0.00000
  25 0.00000 0.00000 0.00000
  26 0.00000 0.00000 0.00000
  27 0.00000 0.00000 0.00000
  28 0.00000 0.00000 0.00000
  29 0.00000 0.00000 0.00000
  30 0.00000 0.00000 0.00000
  31 0.00000 0.00000 0.00000
  32 0.00000 0.00000 0.00000
  33 0.00000 0.00000 0.00000
  34 0.00000 0.00000 0.00000
  35 0.00000 0.00000 0.00000
  36 0.00000 0.00000 0.00000
  37 0.00000 0.00000 0.00000
  38 0.00000 0.00000 0.00000
  39 0.00000 0.00000 0.00000
  40 0.00000 0.00000 0.00000
  41 0.00000 0.00000 0.00000
  42 0.00000 0.00000 0.00000
  43 0.00000 0.00000 0.00000
  44 0.00000 0.00000 0.00000
  45 0.00000 0.00000 0.00000
  46 0.00000 0.00000 0.00000
  47 0.00000 0.00000 0.00000
  48 0.00000 0.00000 0.00000
  49 0.00000 0.00000 0.00000
  50 0.00000 0.00000 0.00000
  51 0.00000 0.00000 0.00000
  52 0.00000 0.00000 0.00000
  53 0.00000 0.00000 0.00000
  54 0.00000 0.00000 0.00000
  55 0.00000 0.00000 0.00000
  56 0.00000 0.00000 0.00000
  57 0.00000 0.00000 0.00000
  58 0.00000 0.00000 0.00000
  59 0.00000 0.00000 0.00000
  60 0.00000 0.00000 0.00000
  61 0.00000 0.00000 0.00000
  62 0.00000 0.00000 0.00000
  63 0.00000 0.00000 0.00000
  64 0.00000 0.00000 0.00000
  65 0.00000 0.00000 0.00000
  66 0.00000 0.00000 0.00000
</Section>

newXOutput 188

<Section columns = "stress_xx | stress_yy | stress_xy">
  1 0.00000 0.00000 0.00000
  2 0.00000 0.00000 0.00000
  3 0.00000 0.00000 0.00000
  4 0.00000 0.00000 0.00000
  5 0.00000 0.00000 0.00000
  6 0.00000 0.00000 0.00000
  7 0.00000 0.00000 0.00000
  8 0.00000 0.00000 0.00000
  9 0.00000 0.00000 0.00000
  10 0.00000 0.00000 0.00000
  11 0.00000 0.00000 0.00000
  12 0.00000 0.00000 0.00000
  13 0.00000 0.00000 0.00000
  14 0.00000 0.00000 0.00000
  15 0.00000 0.00000 0.00000
  16 0.00000 0.00000 0.00000
  17 0.00000 0.00000 0.00000
  18 0.00000 0.00000 0.00000
  19 0.00000 0.00000 0.00000
  20 0.00000 0.00000 0.00000
  21 0.00000 0.00000 0.00000
  22 0.00000 0.00000 0.00000
  23 0.00000 0.00000 0.00000
  24 0.00000 0.00000 0.00000
  25 0.00000 0.00000 0.00000
  26 0.00000 0.00000 0.00000
  27 0.00000 0.00000 0.00000
  28 0.00000 0.00000 0.00000
  29 0.00000 0.00000 0.00000
  30 0.00000 0.00000 0.00000
  31 0.00000 0.00000 0.00000
  32 0.00000 0.00000 0.00000
  33 0.00000 0.00000 0.00000
  34 0.00000 0.00000 0.00000
  35 0.00000 0.00000 0.00000
  36 0.00000 0.00000 0.00000
  37 0.00000 0.00000 0.00000
  38 0.00000 0.00000 0.00000
  39 0.00000 0.00000 0.00000
  40 0.00000 0.00000 0.00000
  41 0.00000 0.00000 0.00000
  42 0.00000 0.00000 0.00000
  43 0.00000 0.00000 0.00000
  44 0.00000 0.00000 0.00000
  45 0.00000 0.00000 0.00000
  46 0.00000 0.00000 0.00000
  47 0.00000 0.00000 0.00000
  48 0.00000 0.00000 0.00000
  49 0.00000 0.00000 0.00000
  50 0.00000 0.00000 0.00000
  51 0.00000 0.00000 0.00000
  52 0.00000 0.00000 0.00000
  53 0.00000 0.00000 0.00000
  54 0.00000 0.00000 0.00000
  55 0.00000 0.00000 0.00000
  56 0.00000 0.00000 0.00000
  57 0.00000 0.00000 0.00000
  58 0.00000 0.00000 0.00000
  59 0.00000 0.00000 0.00000
  60 0.00000 0.00000 0.00000
  61 0.00000 0.00000 0.00000
  62 0.00000 0.00000 0.00000
  63 0.00000 0.00000 0.00000
  64 0.00000 0.00000 0.00000
  65 0.00000 0.00000 0.00000
  66 0.00000 0.00000 0.00000
</Section>

newXOutput 189

<Section columns = "stress_xx | stress_yy | stress_xy">
  1 0.00000 0.00000 0.00000
  2 0.00000 0.00000 0.00000
  3 0.00000 0.00000 0.00000
  4 0.00000 0.00000 0.00000
  5 0.00000 0.00000 0.00000
  6 0.00000 0.00000 0.00000
  7 0.00000 0.00000 0.00000
  8 0.00000 0.00000 0.00000
  9 0.00000 0.00000 0.00000
  10 0.00000 0.00000 0.00000
  11 0.00000 0.00000 0.00000
  12 0.00000 0.00000 0.00000
  13 0.00000 0.00000 0.00000
  14 0.00000 0.00000 0.00000
  15 0.00000 0.00000 0.00000
  16 0.00000 0.00000 0.00000
  17 0.00000 0.00000 0.00000
  18 0.00000 0.00000 0.00000
  19 0.00000 0.00000 0.00000
  20 0.00000 0.00000 0.00000
  21 0.00000 0.00000 0.00000
  22 0.00000 0.00000 0.00000
  23 0.00000 0.00000 0.00000
  24 0.00000 0.00000 0.00000
  25 0.00000 0.00000 0.00000
  26 0.00000 0.00000 0.00000
  27 0.00000 0.00000 0.00000
  28 0.00000 0.00000 0.00000
  29 0.00000 0.00000 0.00000
  30 0.00000 0.00000 0.00000
  31 0.00000 0.00000 0.00000
  32 0.00000 0.00000 0.00000
  33 0.00000 0.00000 0.00000
  34 0.00000 0.00000 0.00000
  35 0.00000 0.00000 0.00000
  36 0.00000 0.00000 0.00000
  37 0.00000 0.00000 0.00000
  38 0.00000 0.00000 0.00000
  39 0.00000 0.00000 0.00000
  40 0.00000 0.00000 0.00000
  41 0.00000 0.00000 0.00000
  42 0.00000 0.00000 0.00000
  43 0.00000 0.00000 0.00000
  44 0.00000 0.00000 0.00000
  45 0.00000 0.00000 0.00000
  46 0.00000 0.00000 0.00000
  47 0.00000 0.00000 0.00000
  48 0.00000 0.00000 0.00000
  49 0.00000 0.00000 0.00000
  50 0.00000 0.00000 0.00000
  51 0.00000 0.00000 0.00000
  52 0.00000 0.00000 0.00000
  53 0.00000 0.00000 0.00000
  54 0.00000 0.00000 0.00000
  55 0.00000 0.00000 0.00000
  56 0.00000 0.00000 0.00000
  57 0.00000 0.00000 0.00000
  58 0.00000 0.00000 0.00000
  59 0.00000 0.00000 0.00000
  60 0.00000 0.00000 0.00000
  61 0.00000 0.00000 0.00000
  62 0.00000 0.00000 0.00000
  63 0.00000 0.00000 0.00000
  64 0.00000 0.00000 0.00000
  65 0.00000 0.00000 0.00000
  66 0.00000 0.00000 0.00000
</Section>

newXOutput 190

<Section columns = "stress_xx | stress_yy | stress_xy">
  1 0.00000 0.00000 0.00000
  2 0.00000 0.00000 0.00000
  3 0.00000 0.00000 0.00000
  4 0.00000 0.00000 0.00000
  5 0.00000 0.00000 0.00000
  6 0.00000 0.00000 0.00000
  7 0.00000 0.00000 0.00000
  8 0.00000 0.00000 0.00000
  9 0.00000 0.00000 0.00000
  10 0.00000 0.00000 0.00000
  11 0.00000 0.00000 0.00000
  12 0.00000 0.00000 0.00000
  13 0.00000 0.00000 0.00000
  14 0.00000 0.00000 0.00000
  15 0.00000 0.00000 0.00000
  16 0.00000 0.00000 0.00000
  17 0.00000 0.00000 0.00000
  18 0.00000 0.00000 0.00000
  19 0.00000 0.00000 0.00000
  20 0.00000 0.00000 0.00000
  21 0.00000 0.00000 0.00000
  22 0.00000 0.00000 0.00000
  23 0.00000 0.00000 0.00000
  24 0.00000 0.00000 0.00000
  25 0.00000 0.00000 0.00000
  26 0.00000 0.00000 0.00000
  27 0.00000 0.00000 0.00000
  28 0.00000 0.00000 0.00000
  29 0.00000 0.00000 0.00000
  30 0.00000 0.00000 0.00000
  31 0.00000 0.00000 0.00000
  32 0.00000 0.00000 0.00000
  33 0.00000 0.00000 0.00000
  34 0.00000 0.00000 0.00000
  35 0.00000 0.00000 0.00000
  36 0.00000 0.00000 0.00000
  37 0.00000 0.00000 0.00000
  38 0.00000 0.00000 0.00000
  39 0.00000 0.00000 0.00000
  40 0.00000 0.00000 0.00000
  41 0.00000 0.00000 0.00000
  42 0.00000 0.00000 0.00000
  43 0.00000 0.00000 0.00000
  44 0.00000 0.00000 0.00000
  45 0.00000 0.00000 0.00000
  46 0.00000 0.00000 0.00000
  47 0.00000 0.00000 0.00000
  48 0.00000 0.00000 0.00000
  49 0.00000 0.00000 0.00000
  50 0.00000 0.00000 0.00000
  51 0.00000 0.00000 0.00000
  52 0.00000 0.00000 0.00000
  53 0.00000 0.00000 0.00000
  54 0.00000 0.00000 0.00000
  55 0.00000 0.00000 0.00000
  56 0.00000 0.00000 0.00000
  57 0.00000 0.00000 0.00000
  58 0.00000 0.00000 0.00000
  59 0.00000 0.00000 0.00000
  60 0.00000 0.00000 0.00000
  61 0.00000 0.00000 0.00000
  62 0.00000 0.00000 0.00000
  63 0.00000 0.00000 0.00000
  64 0.00000 0.00000 0.00000
  65 0.00000 0.00000 0.00000
  66 0.00000 0.00000 0.00000
</Section>

newXOutput 191

<Section columns = "stress_xx | stress_yy | stress_xy">
  1 0.00000 0.00000 0.00000
  2 0.00000 0.00000 0.00000
  3 0.00000 0.00000 0.00000
  4 0.00000 0.00000 0.00000
  5 0.00000 0.00000 0.00000
  6 0.00000 0.00000 0.00000
  7 0.00000 0.00000 0.00000
  8 0.00000 0.00000 0.00000
  9 0.00000 0.00000 0.00000
  10 0.00000 0.00000 0.00000
  11 0.00000 0.00000 0.00000
  12 0.00000 0.00000 0.00000
  13 0.00000 0.00000 0.00000
  14 0.00000 0.00000 0.00000
  15 0.00000 0.00000 0.00000
  16 0.00000 0.00000 0.00000
  17 0.00000 0.00000 0.00000
  18 0.00000 0.00000 0.00000
  19 0.00000 0.00000 0.00000
  20 0.00000 0.00000 0.00000
  21 0.00000 0.00000 0.00000
  22 0.00000 0.00000 0.00000
  23 0.00000 0.00000 0.00000
  24 0.00000 0.00000 0.00000
  25 0.00000 0.00000 0.00000
  26 0.00000 0.00000 0.00000
  27 0.00000 0.00000 0.00000
  28 0.00000 0.00000 0.00000
  29 0.00000 0.00000 0.00000
  30 0.00000 0.00000 0.00000
  31 0.00000 0.00000 0.00000
  32 0.00000 0.00000 0.00000
  33 0.00000 0.00000 0.00000
  34 0.00000 0.00000 0.00000
  35 0.00000 0.00000 0.00000
  36 0.00000 0.00000 0.00000
  37 0.00000 0.00000 0.00000
  38 0.00000 0.00000 0.00000
  39 0.00000 0.00000 0.00000
  40 0.00000 0.00000 0.00000
  41 0.00000 0.00000 0.00000
  42 0.00000 0.00000 0.00000
  43 0.00000 0.00000 0.00000
  44 0.00000 0.00000 0.00000
  45 0.00000 0.00000 0.00000
  46 0.00000 0.00000 0.00000
  47 0.00000 0.00000 0.00000
  48 0.00000 0.00000 0.00000
  49 0.00000 0.00000 0.00000
  50 0.00000 0.00000 0.00000
  51 0.00000 0.00000 0.00000
  52 0.00000 0.00000 0.00000
  53 0.00000 0.00000 0.00000
  54 0.00000 0.00000 0.00000
  55 0.00000 0.00000 0.00000
  56 0.00000 0.00000 0.00000
  57 0.00000 0.00000 0.00000
  58 0.00000 0.00000 0.00000
  59 0.00000 0.00000 0.00000
  60 0.00000 0.00000 0.00000
  61 0.00000 0.00000 0.00000
  62 0.00000 0.00000 0.00000
  63 0.00000 0.00000 0.00000
  64 0.00000 0.00000 0.00000
  65 0.00000 0.00000 0.00000
  66 0.00000 0.00000 0.00000
</Section>

newXOutput 192

<Section columns = "stress_xx | stress_yy | stress_xy">
  1 0.00000 0.00000 0.00000
  2 0.00000 0.00000 0.00000
  3 0.00000 0.00000 0.00000
  4 0.00000 0.00000 0.00000
  5 0.00000 0.00000 0.00000
  6 0.00000 0.00000 0.00000
  7 0.00000 0.00000 0.00000
  8 0.00000 0.00000 0.00000
  9 0.00000 0.00000 0.00000
  10 0.00000 0.00000 0.00000
  11 0.00000 0.00000 0.00000
  12 0.00000 0.00000 0.00000
  13 0.00000 0.00000 0.00000
  14 0.00000 0.00000 0.00000
  15 0.00000 0.00000 0.00000
  16 0.00000 0.00000 0.00000
  17 0.00000 0.00000 0.00000
  18 0.00000 0.00000 0.00000
  19 0.00000 0.00000 0.00000
  20 0.00000 0.00000 0.00000
  21 0.00000 0.00000 0.00000
  22 0.00000 0.00000 0.00000
  23 0.00000 0.00000 0.00000
  24 0.00000 0.00000 0.00000
  25 0.00000 0.00000 0.00000
  26 0.00000 0.00000 0.00000
  27 0.00000 0.00000 0.00000
  28 0.00000 0.00000 0.00000
  29 0.00000 0.00000 0.00000
  30 0.00000 0.00000 0.00000
  31 0.00000 0.00000 0.00000
  32 0.00000 0.00000 0.00000
  33 0.00000 0.00000 0.00000
  34 0.00000 0.00000 0.00000
  35 0.00000 0.00000 0.00000
  36 0.00000 0.00000 0.00000
  37 0.00000 0.00000 0.00000
  38 0.00000 0.00000 0.00000
  39 0.00000 0.00000 0.00000
  40 0.00000 0.00000 0.00000
  41 0.00000 0.00000 0.00000
  42 0.00000 0.00000 0.00000
  43 0.00000 0.00000 0.00000
  44 0.00000 0.00000 0.00000
  45 0.00000 0.00000 0.00000
  46 0.00000 0.00000 0.00000
  47 0.00000 0.00000 0.00000
  48 0.00000 0.00000 0.00000
  49 0.00000 0.00000 0.00000
  50 0.00000 0.00000 0.00000
  51 0.00000 0.00000 0.00000
  52 0.00000 0.00000 0.00000
  53 0.00000 0.00000 0.00000
  54 0.00000 0.00000 0.00000
  55 0.00000 0.00000 0.00000
  56 0.00000 0.00000 0.00000
  57 0.00000 0.00000 0.00000
  58 0.00000 0.00000 0.00000
  59 0.00000 0.00000 0.00000
  60 0.00000 0.00000 0.00000
  61 0.00000 0.00000 0.00000
  62 0.00000 0.00000 0.00000
  63 0.00000 0.00000 0.00000
  64 0.00000 0.00000 0.00000
  65 0.00000 0.00000 0.00000
  66 0.00000 0.00000 0.00000
</Section>

newXOutput 193

<Section columns = "stress_xx | stress_yy | stress_xy">
  1 0.00000 0.00000 0.00000
  2 0.00000 0.00000 0.00000
  3 0.00000 0.00000 0.00000
  4 0.00000 0.00000 0.00000
  5 0.00000 0.00000 0.00000
  6 0.00000 0.00000 0.00000
  7 0.00000 0.00000 0.00000
  8 0.00000 0.00000 0.00000
  9 0.00000 0.00000 0.00000
  10 0.00000 0.00000 0.00000
  11 0.00000 0.00000 0.00000
  12 0.00000 0.00000 0.00000
  13 0.00000 0.00000 0.00000
  14 0.00000 0.00000 0.00000
  15 0.00000 0.00000 0.00000
  16 0.00000 0.00000 0.00000
  17 0.00000 0.00000 0.00000
  18 0.00000 0.00000 0.00000
  19 0.00000 0.00000 0.00000
  20 0.00000 0.00000 0.00000
  21 0.00000 0.00000 0.00000
  22 0.00000 0.00000 0.00000
  23 0.00000 0.00000 0.00000
  24 0.00000 0.00000 0.00000
  25 0.00000 0.00000 0.00000
  26 0.00000 0.00000 0.00000
  27 0.00000 0.00000 0.00000
  28 0.00000 0.00000 0.00000
  29 0.00000 0.00000 0.00000
  30 0.00000 0.00000 0.00000
  31 0.00000 0.00000 0.00000
  32 0.00000 0.00000 0.00000
  33 0.00000 0.00000 0.00000
  34 0.00000 0.00000 0.00000
  35 0.00000 0.00000 0.00000
  36 0.00000 0.00000 0.00000
  37 0.00000 0.00000 0.00000
  38 0.00000 0.00000 0.00000
  39 0.00000 0.00000 0.00000
  40 0.00000 0.00000 0.00000
  41 0.00000 0.00000 0.00000
  42 0.00000 0.00000 0.00000
  43 0.00000 0.00000 0.00000
  44 0.00000 0.00000 0.00000
  45 0.00000 0.00000 0.00000
  46 0.00000 0.00000 0.00000
  47 0.00000 0.00000 0.00000
  48 0.00000 0.00000 0.00000
  49 0.00000 0.00000 0.00000
  50 0.00000 0.00000 0.00000
  51 0.00000 0.00000 0.00000
  52 0.00000 0.00000 0.00000
  53 0.00000 0.00000 0.00000
  54 0.00000 0.00000 0.00000
  55 0.00000 0.00000 0.00000
  56 0.00000 0.00000 0.00000
  57 0.00000 0.00000 0.00000
  58 0.00000 0.00000 0.00000
  59 0.00000 0.00000 0.00000
  60 0.00000 0.00000 0.00000
  61 0.00000 0.00000 0.00000
  62 0.00000 0.00000 0.00000
  63 0.00000 0.00000 0.00000
  64 0.00000 0.00000 0.00000
  65 0.00000 0.00000 0.00000
  66 0.00000 0.00000 0.00000
</Section>

newXOutput 194

<Section columns = "stress_xx | stress_yy | stress_xy">
  1 0.00000 0.00000 0.00000
  2 0.00000 0.00000 0.00000
  3 0.00000 0.00000 0.00000
  4 0.00000 0.00000 0.00000
  5 0.00000 0.00000 0.00000
  6 0.00000 0.00000 0.00000
  7 0.00000 0.00000 0.00000
  8 0.00000 0.00000 0.00000
  9 0.00000 0.00000 0.00000
  10 0.00000 0.00000 0.00000
  11 0.00000 0.00000 0.00000
  12 0.00000 0.00000 0.00000
  13 0.00000 0.00000 0.00000
  14 0.00000 0.00000 0.00000
  15 0.00000 0.00000 0.00000
  16 0.00000 0.00000 0.00000
  17 0.00000 0.00000 0.00000
  18 0.00000 0.00000 0.00000
  19 0.00000 0.00000 0.00000
  20 0.00000 0.00000 0.00000
  21 0.00000 0.00000 0.00000
  22 0.00000 0.00000 0.00000
  23 0.00000 0.00000 0.00000
  24 0.00000 0.00000 0.00000
  25 0.00000 0.00000 0.00000
  26 0.00000 0.00000 0.00000
  27 0.00000 0.00000 0.00000
  28 0.00000 0.00000 0.00000
  29 0.00000 0.00000 0.00000
  30 0.00000 0.00000 0.00000
  31 0.00000 0.00000 0.00000
  32 0.00000 0.00000 0.00000
  33 0.00000 0.00000 0.00000
  34 0.00000 0.00000 0.00000
  35 0.00000 0.00000 0.00000
  36 0.00000 0.00000 0.00000
  37 0.00000 0.00000 0.00000
  38 0.00000 0.00000 0.00000
  39 0.00000 0.00000 0.00000
  40 0.00000 0.00000 0.00000
  41 0.00000 0.00000 0.00000
  42 0.00000 0.00000 0.00000
  43 0.00000 0.00000 0.00000
  44 0.00000 0.00000 0.00000
  45 0.00000 0.00000 0.00000
  46 0.00000 0.00000 0.00000
  47 0.00000 0.00000 0.00000
  48 0.00000 0.00000 0.00000
  49 0.00000 0.00000 0.00000
  50 0.00000 0.00000 0.00000
  51 0.00000 0.00000 0.00000
  52 0.00000 0.00000 0.00000
  53 0.00000 0.00000 0.00000
  54 0.00000 0.00000 0.00000
  55 0.00000 0.00000 0.00000
  56 0.00000 0.00000 0.00000
  57 0.00000 0.00000 0.00000
  58 0.00000 0.00000 0.00000
  59 0.00000 0.00000 0.00000
  60 0.00000 0.00000 0.00000
  61 0.00000 0.00000 0.00000
  62 0.00000 0.00000 0.00000
  63 0.00000 0.00000 0.00000
  64 0.00000 0.00000 0.00000
  65 0.00000 0.00000 0.00000
  66 0.00000 0.00000 0.00000
</Section>

newXOutput 195

<Section columns = "stress_xx | stress_yy | stress_xy">
  1 0.00000 0.00000 0.00000
  2 0.00000 0.00000 0.00000
  3 0.00000 0.00000 0.00000
  4 0.00000 0.00000 0.00000
  5 0.00000 0.00000 0.00000
  6 0.00000 0.00000 0.00000
  7 0.00000 0.00000 0.00000
  8 0.00000 0.00000 0.00000
  9 0.00000 0.00000 0.00000
  10 0.00000 0.00000 0.00000
  11 0.00000 0.00000 0.00000
  12 0.00000 0.00000 0.00000
  13 0.00000 0.00000 0.00000
  14 0.00000 0.00000 0.00000
  15 0.00000 0.00000 0.00000
  16 0.00000 0.00000 0.00000
  17 0.00000 0.00000 0.00000
  18 0.00000 0.00000 0.00000
  19 0.00000 0.00000 0.00000
  20 0.00000 0.00000 0.00000
  21 0.00000 0.00000 0.00000
  22 0.00000 0.00000 0.00000
  23 0.00000 0.00000 0.00000
  24 0.00000 0.00000 0.00000
  25 0.00000 0.00000 0.00000
  26 0.00000 0.00000 0.00000
  27 0.00000 0.00000 0.00000
  28 0.00000 0.00000 0.00000
  29 0.00000 0.00000 0.00000
  30 0.00000 0.00000 0.00000
  31 0.00000 0.00000 0.00000
  32 0.00000 0.00000 0.00000
  33 0.00000 0.00000 0.00000
  34 0.00000 0.00000 0.00000
  35 0.00000 0.00000 0.00000
  36 0.00000 0.00000 0.00000
  37 0.00000 0.00000 0.00000
  38 0.00000 0.00000 0.00000
  39 0.00000 0.00000 0.00000
  40 0.00000 0.00000 0.00000
  41 0.00000 0.00000 0.00000
  42 0.00000 0.00000 0.00000
  43 0.00000 0.00000 0.00000
  44 0.00000 0.00000 0.00000
  45 0.00000 0.00000 0.00000
  46 0.00000 0.00000 0.00000
  47 0.00000 0.00000 0.00000
  48 0.00000 0.00000 0.00000
  49 0.00000 0.00000 0.00000
  50 0.00000 0.00000 0.00000
  51 0.00000 0.00000 0.00000
  52 0.00000 0.00000 0.00000
  53 0.00000 0.00000 0.00000
  54 0.00000 0.00000 0.00000
  55 0.00000 0.00000 0.00000
  56 0.00000 0.00000 0.00000
  57 0.00000 0.00000 0.00000
  58 0.00000 0.00000 0.00000
  59 0.00000 0.00000 0.00000
  60 0.00000 0.00000 0.00000
  61 0.00000 0.00000 0.00000
  62 0.00000 0.00000 0.00000
  63 0.00000 0.00000 0.00000
  64 0.00000 0.00000 0.00000
  65 0.00000 0.00000 0.00000
  66 0.00000 0.00000 0.00000
</Section>

newXOutput 196

<Section columns = "stress_xx | stress_yy | stress_xy">
  1 0.00000 0.00000 0.00000
  2 0.00000 0.00000 0.00000
  3 0.00000 0.00000 0.00000
  4 0.00000 0.00000 0.00000
  5 0.00000 0.00000 0.00000
  6 0.00000 0.00000 0.00000
  7 0.00000 0.00000 0.00000
  8 0.00000 0.00000 0.00000
  9 0.00000 0.00000 0.00000
  10 0.00000 0.00000 0.00000
  11 0.00000 0.00000 0.00000
  12 0.00000 0.00000 0.00000
  13 0.00000 0.00000 0.00000
  14 0.00000 0.00000 0.00000
  15 0.00000 0.00000 0.00000
  16 0.00000 0.00000 0.00000
  17 0.00000 0.00000 0.00000
  18 0.00000 0.00000 0.00000
  19 0.00000 0.00000 0.00000
  20 0.00000 0.00000 0.00000
  21 0.00000 0.00000 0.00000
  22 0.00000 0.00000 0.00000
  23 0.00000 0.00000 0.00000
  24 0.00000 0.00000 0.00000
  25 0.00000 0.00000 0.00000
  26 0.00000 0.00000 0.00000
  27 0.00000 0.00000 0.00000
  28 0.00000 0.00000 0.00000
  29 0.00000 0.00000 0.00000
  30 0.00000 0.00000 0.00000
  31 0.00000 0.00000 0.00000
  32 0.00000 0.00000 0.00000
  33 0.00000 0.00000 0.00000
  34 0.00000 0.00000 0.00000
  35 0.00000 0.00000 0.00000
  36 0.00000 0.00000 0.00000
  37 0.00000 0.00000 0.00000
  38 0.00000 0.00000 0.00000
  39 0.00000 0.00000 0.00000
  40 0.00000 0.00000 0.00000
  41 0.00000 0.00000 0.00000
  42 0.00000 0.00000 0.00000
  43 0.00000 0.00000 0.00000
  44 0.00000 0.00000 0.00000
  45 0.00000 0.00000 0.00000
  46 0.00000 0.00000 0.00000
  47 0.00000 0.00000 0.00000
  48 0.00000 0.00000 0.00000
  49 0.00000 0.00000 0.00000
  50 0.00000 0.00000 0.00000
  51 0.00000 0.00000 0.00000
  52 0.00000 0.00000 0.00000
  53 0.00000 0.00000 0.00000
  54 0.00000 0.00000 0.00000
  55 0.00000 0.00000 0.00000
  56 0.00000 0.00000 0.00000
  57 0.00000 0.00000 0.00000
  58 0.00000 0.00000 0.00000
  59 0.00000 0.00000 0.00000
  60 0.00000 0.00000 0.00000
  61 0.00000 0.00000 0.00000
  62 0.00000 0.00000 0.00000
  63 0.00000 0.00000 0.00000
  64 0.00000 0.00000 0.00000
  65 0.00000 0.00000 0.00000
  66 0.00000 0.00000 0.00000
</Section>

newXOutput 197

<Section columns = "stress_xx | stress_yy | stress_xy">
  1 0.00000 0.00000 0.00000
  2 0.00000 0.00000 0.00000
  3 0.00000 0.00000 0.00000
  4 0.00000 0.00000 0.00000
  5 0.00000 0.00000 0.00000
  6 0.00000 0.00000 0.00000
  7 0.00000 0.00000 0.00000
  8 0.00000 0.00000 0.00000
  9 0.00000 0.00000 0.00000
  10 0.00000 0.00000 0.00000
  11 0.00000 0.00000 0.00000
  12 0.00000 0.00000 0.00000
  13 0.00000 0.00000 0.00000
  14 0.00000 0.00000 0.00000
  15 0.00000 0.00000 0.00000
  16 0.00000 0.00000 0.00000
  17 0.00000 0.00000 0.00000
  18 0.00000 0.00000 0.00000
  19 0.00000 0.00000 0.00000
  20 0.00000 0.00000 0.00000
  21 0.00000 0.00000 0.00000
  22 0.00000 0.00000 0.00000
  23 0.00000 0.00000 0.00000
  24 0.00000 0.00000 0.00000
  25 0.00000 0.00000 0.00000
  26 0.00000 0.00000 0.00000
  27 0.00000 0.00000 0.00000
  28 0.00000 0.00000 0.00000
  29 0.00000 0.00000 0.00000
  30 0.00000 0.00000 0.00000
  31 0.00000 0.00000 0.00000
  32 0.00000 0.00000 0.00000
  33 0.00000 0.00000 0.00000
  34 0.00000 0.00000 0.00000
  35 0.00000 0.00000 0.00000
  36 0.00000 0.00000 0.00000
  37 0.00000 0.00000 0.00000
  38 0.00000 0.00000 0.00000
  39 0.00000 0.00000 0.00000
  40 0.00000 0.00000 0.00000
  41 0.00000 0.00000 0.00000
  42 0.00000 0.00000 0.00000
  43 0.00000 0.00000 0.00000
  44 0.00000 0.00000 0.00000
  45 0.00000 0.00000 0.00000
  46 0.00000 0.00000 0.00000
  47 0.00000 0.00000 0.00000
  48 0.00000 0.00000 0.00000
  49 0.00000 0.00000 0.00000
  50 0.00000 0.00000 0.00000
  51 0.00000 0.00000 0.00000
  52 0.00000 0.00000 0.00000
  53 0.00000 0.00000 0.00000
  54 0.00000 0.00000 0.00000
  55 0.00000 0.00000 0.00000
  56 0.00000 0.00000 0.00000
  57 0.00000 0.00000 0.00000
  58 0.00000 0.00000 0.00000
  59 0.00000 0.00000 0.00000
  60 0.00000 0.00000 0.00000
  61 0.00000 0.00000 0.00000
  62 0.00000 0.00000 0.00000
  63 0.00000 0.00000 0.00000
  64 0.00000 0.00000 0.00000
  65 0.00000 0.00000 0.00000
  66 0.00000 0.00000 0.00000
</Section>

newXOutput 198

<Section columns = "stress_xx | stress_yy | stress_xy">
  1 0.00000 0.00000 0.00000
  2 0.00000 0.00000 0.00000
  3 0.00000 0.00000 0.00000
  4 0.00000 0.00000 0.00000
  5 0.00000 0.00000 0.00000
  6 0.00000 0.00000 0.00000
  7 0.00000 0.00000 0.00000
  8 0.00000 0.00000 0.00000
  9 0.00000 0.00000 0.00000
  10 0.00000 0.00000 0.00000
  11 0.00000 0.00000 0.00000
  12 0.00000 0.00000 0.00000
  13 0.00000 0.00000 0.00000
  14 0.00000 0.00000 0.00000
  15 0.00000 0.00000 0.00000
  16 0.00000 0.00000 0.00000
  17 0.00000 0.00000 0.00000
  18 0.00000 0.00000 0.00000
  19 0.00000 0.00000 0.00000
  20 0.00000 0.00000 0.00000
  21 0.00000 0.00000 0.00000
  22 0.00000 0.00000 0.00000
  23 0.00000 0.00000 0.00000
  24 0.00000 0.00000 0.00000
  25 0.00000 0.00000 0.00000
  26 0.00000 0.00000 0.00000
  27 0.00000 0.00000 0.00000
  28 0.00000 0.00000 0.00000
  29 0.00000 0.00000 0.00000
  30 0.00000 0.00000 0.00000
  31 0.00000 0.00000 0.00000
  32 0.00000 0.00000 0.00000
  33 0.00000 0.00000 0.00000
  34 0.00000 0.00000 0.00000
  35 0.00000 0.00000 0.00000
  36 0.00000 0.00000 0.00000
  37 0.00000 0.00000 0.00000
  38 0.00000 0.00000 0.00000
  39 0.00000 0.00000 0.00000
  40 0.00000 0.00000 0.00000
  41 0.00000 0.00000 0.00000
  42 0.00000 0.00000 0.00000
  43 0.00000 0.00000 0.00000
  44 0.00000 0.00000 0.00000
  45 0.00000 0.00000 0.00000
  46 0.00000 0.00000 0.00000
  47 0.00000 0.00000 0.00000
  48 0.00000 0.00000 0.00000
  49 0.00000 0.00000 0.00000
  50 0.00000 0.00000 0.00000
  51 0.00000 0.00000 0.00000
  52 0.00000 0.00000 0.00000
  53 0.00000 0.00000 0.00000
  54 0.00000 0.00000 0.00000
  55 0.00000 0.00000 0.00000
  56 0.00000 0.00000 0.00000
  57 0.00000 0.00000 0.00000
  58 0.00000 0.00000 0.00000
  59 0.00000 0.00000 0.00000
  60 0.00000 0.00000 0.00000
  61 0.00000 0.00000 0.00000
  62 0.00000 0.00000 0.00000
  63 0.00000 0.00000 0.00000
  64 0.00000 0.00000 0.00000
  65 0.00000 0.00000 0.00000
  66 0.00000 0.00000 0.00000
</Section>

newXOutput 199

<Section columns = "stress_xx | stress_yy | stress_xy">
  1 0.00000 0.00000 0.00000
  2 0.00000 0.00000 0.00000
  3 0.00000 0.00000 0.00000
  4 0.00000 0.00000 0.00000
  5 0.00000 0.00000 0.00000
  6 0.00000 0.00000 0.00000
  7 0.00000 0.00000 0.00000
  8 0.00000 0.00000 0.00000
  9 0.00000 0.00000 0.00000
  10 0.00000 0.00000 0.00000
  11 0.00000 0.00000 0.00000
  12 0.00000 0.00000 0.00000
  13 0.00000 0.00000 0.00000
  14 0.00000 0.00000 0.00000
  15 0.00000 0.00000 0.00000
  16 0.00000 0.00000 0.00000
  17 0.00000 0.00000 0.00000
  18 0.00000 0.00000 0.00000
  19 0.00000 0.00000 0.00000
  20 0.00000 0.00000 0.00000
  21 0.00000 0.00000 0.00000
  22 0.00000 0.00000 0.00000
  23 0.00000 0.00000 0.00000
  24 0.00000 0.00000 0.00000
  25 0.00000 0.00000 0.00000
  26 0.00000 0.00000 0.00000
  27 0.00000 0.00000 0.00000
  28 0.00000 0.00000 0.00000
  29 0.00000 0.00000 0.00000
  30 0.00000 0.00000 0.00000
  31 0.00000 0.00000 0.00000
  32 0.00000 0.00000 0.00000
  33 0.00000 0.00000 0.00000
  34 0.00000 0.00000 0.00000
  35 0.00000 0.00000 0.00000
  36 0.00000 0.00000 0.00000
  37 0.00000 0.00000 0.00000
  38 0.00000 0.00000 0.00000
  39 0.00000 0.00000 0.00000
  40 0.00000 0.00000 0.00000
  41 0.00000 0.00000 0.00000
  42 0.00000 0.00000 0.00000
  43 0.00000 0.00000 0.00000
  44 0.00000 0.00000 0.00000
  45 0.00000 0.00000 0.00000
  46 0.00000 0.00000 0.00000
  47 0.00000 0.00000 0.00000
  48 0.00000 0.00000 0.00000
  49 0.00000 0.00000 0.00000
  50 0.00000 0.00000 0.00000
  51 0.00000 0.00000 0.00000
  52 0.00000 0.00000 0.00000
  53 0.00000 0.00000 0.00000
  54 0.00000 0.00000 0.00000
  55 0.00000 0.00000 0.00000
  56 0.00000 0.00000 0.00000
  57 0.00000 0.00000 0.00000
  58 0.00000 0.00000 0.00000
  59 0.00000 0.00000 0.00000
  60 0.00000 0.00000 0.00000
  61 0.00000 0.00000 0.00000
  62 0.00000 0.00000 0.00000
  63 0.00000 0.00000 0.00000
  64 0.00000 0.00000 0.00000
  65 0.00000 0.00000 0.00000
  66 0.00000 0.00000 0.00000
</Section>

newXOutput 200

<Section columns = "stress_xx | stress_yy | stress_xy">
  1 0.00000 0.00000 0.00000
  2 0.00000 0.00000 0.00000
  3 0.00000 0.00000 0.00000
  4 0.00000 0.00000 0.00000
  5 0.00000 0.00000 0.00000
  6 0.00000 0.00000 0.00000
  7 0.00000 0.00000 0.00000
  8 0.00000 0.00000 0.00000
  9 0.00000 0.00000 0.00000
  10 0.00000 0.00000 0.00000
  11 0.00000 0.00000 0.00000
  12 0.00000 0.00000 0.00000
  13 0.00000 0.00000 0.00000
  14 0.00000 0.00000 0.00000
  15 0.00000 0.00000 0.00000
  16 0.00000 0.00000 0.00000
  17 0.00000 0.00000 0.00000
  18 0.00000 0.00000 0.00000
  19 0.00000 0.00000 0.00000
  20 0.00000 0.00000 0.00000
  21 0.00000 0.00000 0.00000
  22 0.00000 0.00000 0.00000
  23 0.00000 0.00000 0.00000
  24 0.00000 0.00000 0.00000
  25 0.00000 0.00000 0.00000
  26 0.00000 0.00000 0.00000
  27 0.00000 0.00000 0.00000
  28 0.00000 0.00000 0.00000
  29 0.00000 0.00000 0.00000
  30 0.00000 0.00000 0.00000
  31 0.00000 0.00000 0.00000
  32 0.00000 0.00000 0.00000
  33 0.00000 0.00000 0.00000
  34 0.00000 0.00000 0.00000
  35 0.00000 0.00000 0.00000
  36 0.00000 0.00000 0.00000
  37 0.00000 0.00000 0.00000
  38 0.00000 0.00000 0.00000
  39 0.00000 0.00000 0.00000
  40 0.00000 0.00000 0.00000
  41 0.00000 0.00000 0.00000
  42 0.00000 0.00000 0.00000
  43 0.00000 0.00000 0.00000
  44 0.00000 0.00000 0.00000
  45 0.00000 0.00000 0.00000
  46 0.00000 0.00000 0.00000
  47 0.00000 0.00000 0.00000
  48 0.00000 0.00000 0.00000
  49 0.00000 0.00000 0.00000
  50 0.00000 0.00000 0.00000
  51 0.00000 0.00000 0.00000
  52 0.00000 0.00000 0.00000
  53 0.00000 0.00000 0.00000
  54 0.00000 0.00000 0.00000
  55 0.00000 0.00000 0.00000
  56 0.00000 0.00000 0.00000
  57 0.00000 0.00000 0.00000
  58 0.00000 0.00000 0.00000
  59 0.00000 0.00000 0.00000
  60 0.00000 0.00000 0.00000
  61 0.00000 0.00000 0.00000
  62 0.00000 0.00000 0.00000
  63 0.00000 0.00000 0.00000
  64 0.00000 0.00000 0.00000
  65 0.00000 0.00000 0.00000
  66 0.00000 0.00000 0.00000
</Section>

newXOutput 201

<Section columns = "stress_xx | stress_yy | stress_xy">
  1 0.00000 0.00000 0.00000
  2 0.00000 0.00000 0.00000
  3 0.00000 0.00000 0.00000
  4 0.00000 0.00000 0.00000
  5 0.00000 0.00000 0.00000
  6 0.00000 0.00000 0.00000
  7 0.00000 0.00000 0.00000
  8 0.00000 0.00000 0.00000
  9 0.00000 0.00000 0.00000
  10 0.00000 0.00000 0.00000
  11 0.00000 0.00000 0.00000
  12 0.00000 0.00000 0.00000
  13 0.00000 0.00000 0.00000
  14 0.00000 0.00000 0.00000
  15 0.00000 0.00000 0.00000
  16 0.00000 0.00000 0.00000
  17 0.00000 0.00000 0.00000
  18 0.00000 0.00000 0.00000
  19 0.00000 0.00000 0.00000
  20 0.00000 0.00000 0.00000
  21 0.00000 0.00000 0.00000
  22 0.00000 0.00000 0.00000
  23 0.00000 0.00000 0.00000
  24 0.00000 0.00000 0.00000
  25 0.00000 0.00000 0.00000
  26 0.00000 0.00000 0.00000
  27 0.00000 0.00000 0.00000
  28 0.00000 0.00000 0.00000
  29 0.00000 0.00000 0.00000
  30 0.00000 0.00000 0.00000
  31 0.00000 0.00000 0.00000
  32 0.00000 0.00000 0.00000
  33 0.00000 0.00000 0.00000
  34 0.00000 0.00000 0.00000
  35 0.00000 0.00000 0.00000
  36 0.00000 0.00000 0.00000
  37 0.00000 0.00000 0.00000
  38 0.00000 0.00000 0.00000
  39 0.00000 0.00000 0.00000
  40 0.00000 0.00000 0.00000
  41 0.00000 0.00000 0.00000
  42 0.00000 0.00000 0.00000
  43 0.00000 0.00000 0.00000
  44 0.00000 0.00000 0.00000
  45 0.00000 0.00000 0.00000
  46 0.00000 0.00000 0.00000
  47 0.00000 0.00000 0.00000
  48 0.00000 0.00000 0.00000
  49 0.00000 0.00000 0.00000
  50 0.00000 0.00000 0.00000
  51 0.00000 0.00000 0.00000
  52 0.00000 0.00000 0.00000
  53 0.00000 0.00000 0.00000
  54 0.00000 0.00000 0.00000
  55 0.00000 0.00000 0.00000
  56 0.00000 0.00000 0.00000
  57 0.00000 0.00000 0.00000
  58 0.00000 0.00000 0.00000
  59 0.00000 0.00000 0.00000
  60 0.00000 0.00000 0.00000
  61 0.00000 0.00000 0.00000
  62 0.00000 0.00000 0.00000
  63 0.00000 0.00000 0.00000
  64 0.00000 0.00000 0.00000
  65 0.00000 0.00000 0.00000
  66 0.00000 0.00000 0.00000
</Section>

newXOutput 202

<Section columns = "stress_xx | stress_yy | stress_xy">
  1 0.00000 0.00000 0.00000
  2 0.00000 0.00000 0.00000
  3 0.00000 0.00000 0.00000
  4 0.00000 0.00000 0.00000
  5 0.00000 0.00000 0.00000
  6 0.00000 0.00000 0.00000
  7 0.00000 0.00000 0.00000
  8 0.00000 0.00000 0.00000
  9 0.00000 0.00000 0.00000
  10 0.00000 0.00000 0.00000
  11 0.00000 0.00000 0.00000
  12 0.00000 0.00000 0.00000
  13 0.00000 0.00000 0.00000
  14 0.00000 0.00000 0.00000
  15 0.00000 0.00000 0.00000
  16 0.00000 0.00000 0.00000
  17 0.00000 0.00000 0.00000
  18 0.00000 0.00000 0.00000
  19 0.00000 0.00000 0.00000
  20 0.00000 0.00000 0.00000
  21 0.00000 0.00000 0.00000
  22 0.00000 0.00000 0.00000
  23 0.00000 0.00000 0.00000
  24 0.00000 0.00000 0.00000
  25 0.00000 0.00000 0.00000
  26 0.00000 0.00000 0.00000
  27 0.00000 0.00000 0.00000
  28 0.00000 0.00000 0.00000
  29 0.00000 0.00000 0.00000
  30 0.00000 0.00000 0.00000
  31 0.00000 0.00000 0.00000
  32 0.00000 0.00000 0.00000
  33 0.00000 0.00000 0.00000
  34 0.00000 0.00000 0.00000
  35 0.00000 0.00000 0.00000
  36 0.00000 0.00000 0.00000
  37 0.00000 0.00000 0.00000
  38 0.00000 0.00000 0.00000
  39 0.00000 0.00000 0.00000
  40 0.00000 0.00000 0.00000
  41 0.00000 0.00000 0.00000
  42 0.00000 0.00000 0.00000
  43 0.00000 0.00000 0.00000
  44 0.00000 0.00000 0.00000
  45 0.00000 0.00000 0.00000
  46 0.00000 0.00000 0.00000
  47 0.00000 0.00000 0.00000
  48 0.00000 0.00000 0.00000
  49 0.00000 0.00000 0.00000
  50 0.00000 0.00000 0.00000
  51 0.00000 0.00000 0.00000
  52 0.00000 0.00000 0.00000
  53 0.00000 0.00000 0.00000
  54 0.00000 0.00000 0.00000
  55 0.00000 0.00000 0.00000
  56 0.00000 0.00000 0.00000
  57 0.00000 0.00000 0.00000
  58 0.00000 0.00000 0.00000
  59 0.00000 0.00000 0.00000
  60 0.00000 0.00000 0.00000
  61 0.00000 0.00000 0.00000
  62 0.00000 0.00000 0.00000
  63 0.00000 0.00000 0.00000
  64 0.00000 0.00000 0.00000
  65 0.00000 0.00000 0.00000
  66 0.00000 0.00000 0.00000
</Section>

