newXOutput 1

<Section columns = "stress_xx | stress_yy | stress_xy">
  1 0.00000 0.00000 0.00000
  2 0.00000 0.00000 0.00000
  3 0.00000 0.00000 0.00000
  4 0.00000 0.00000 0.00000
  5 0.00000 0.00000 0.00000
  6 0.00000 0.00000 0.00000
  7 0.00000 0.00000 0.00000
  8 0.00000 0.00000 0.00000
  9 0.00000 0.00000 0.00000
  10 0.00000 0.00000 0.00000
  11 0.00000 0.00000 0.00000
  12 0.00000 0.00000 0.00000
  13 0.00000 0.00000 0.00000
  14 0.00000 0.00000 0.00000
  15 0.00000 0.00000 0.00000
  16 0.00000 0.00000 0.00000
  17 0.00000 0.00000 0.00000
  18 0.00000 0.00000 0.00000
  19 0.00000 0.00000 0.00000
  20 0.00000 0.00000 0.00000
  21 0.00000 0.00000 0.00000
  22 0.00000 0.00000 0.00000
  23 0.00000 0.00000 0.00000
  24 0.00000 0.00000 0.00000
  25 0.00000 0.00000 0.00000
  26 0.00000 0.00000 0.00000
  27 0.00000 0.00000 0.00000
  28 0.00000 0.00000 0.00000
  29 0.00000 0.00000 0.00000
  30 0.00000 0.00000 0.00000
  31 0.00000 0.00000 0.00000
  32 0.00000 0.00000 0.00000
  33 0.00000 0.00000 0.00000
  34 0.00000 0.00000 0.00000
  35 0.00000 0.00000 0.00000
  36 0.00000 0.00000 0.00000
  37 0.00000 0.00000 0.00000
  38 0.00000 0.00000 0.00000
  39 0.00000 0.00000 0.00000
  40 0.00000 0.00000 0.00000
  41 0.00000 0.00000 0.00000
  42 0.00000 0.00000 0.00000
  43 0.00000 0.00000 0.00000
  44 0.00000 0.00000 0.00000
  45 0.00000 0.00000 0.00000
  46 0.00000 0.00000 0.00000
  47 0.00000 0.00000 0.00000
  48 0.00000 0.00000 0.00000
  49 0.00000 0.00000 0.00000
  50 0.00000 0.00000 0.00000
  51 0.00000 0.00000 0.00000
  52 0.00000 0.00000 0.00000
  53 0.00000 0.00000 0.00000
  54 0.00000 0.00000 0.00000
  55 0.00000 0.00000 0.00000
  56 0.00000 0.00000 0.00000
  57 0.00000 0.00000 0.00000
  58 0.00000 0.00000 0.00000
  59 0.00000 0.00000 0.00000
  60 0.00000 0.00000 0.00000
  61 0.00000 0.00000 0.00000
  62 0.00000 0.00000 0.00000
  63 0.00000 0.00000 0.00000
  64 0.00000 0.00000 0.00000
  65 0.00000 0.00000 0.00000
  66 0.00000 0.00000 0.00000
  67 0.00000 0.00000 0.00000
  68 0.00000 0.00000 0.00000
  69 0.00000 0.00000 0.00000
  70 0.00000 0.00000 0.00000
  71 0.00000 0.00000 0.00000
  72 0.00000 0.00000 0.00000
  73 0.00000 0.00000 0.00000
  74 0.00000 0.00000 0.00000
  75 0.00000 0.00000 0.00000
  76 0.00000 0.00000 0.00000
  77 0.00000 0.00000 0.00000
  78 0.00000 0.00000 0.00000
  79 0.00000 0.00000 0.00000
  80 0.00000 0.00000 0.00000
  81 0.00000 0.00000 0.00000
  82 0.00000 0.00000 0.00000
  83 0.00000 0.00000 0.00000
  84 0.00000 0.00000 0.00000
  85 0.00000 0.00000 0.00000
  86 0.00000 0.00000 0.00000
  87 0.00000 0.00000 0.00000
  88 0.00000 0.00000 0.00000
  89 0.00000 0.00000 0.00000
  90 0.00000 0.00000 0.00000
  91 0.00000 0.00000 0.00000
  92 0.00000 0.00000 0.00000
  93 0.00000 0.00000 0.00000
  94 0.00000 0.00000 0.00000
  95 0.00000 0.00000 0.00000
  96 0.00000 0.00000 0.00000
  97 0.00000 0.00000 0.00000
  98 0.00000 0.00000 0.00000
  99 0.00000 0.00000 0.00000
  100 0.00000 0.00000 0.00000
  101 0.00000 0.00000 0.00000
  102 0.00000 0.00000 0.00000
  103 0.00000 0.00000 0.00000
  104 0.00000 0.00000 0.00000
  105 0.00000 0.00000 0.00000
  106 0.00000 0.00000 0.00000
  107 0.00000 0.00000 0.00000
  108 0.00000 0.00000 0.00000
  109 0.00000 0.00000 0.00000
  110 0.00000 0.00000 0.00000
  111 0.00000 0.00000 0.00000
  112 0.00000 0.00000 0.00000
  113 0.00000 0.00000 0.00000
  114 0.00000 0.00000 0.00000
  115 0.00000 0.00000 0.00000
  116 0.00000 0.00000 0.00000
  117 0.00000 0.00000 0.00000
  118 0.00000 0.00000 0.00000
  119 0.00000 0.00000 0.00000
  120 0.00000 0.00000 0.00000
  121 0.00000 0.00000 0.00000
  122 0.00000 0.00000 0.00000
  123 0.00000 0.00000 0.00000
  124 0.00000 0.00000 0.00000
  125 0.00000 0.00000 0.00000
  126 0.00000 0.00000 0.00000
  127 0.00000 0.00000 0.00000
  128 0.00000 0.00000 0.00000
  129 0.00000 0.00000 0.00000
  130 0.00000 0.00000 0.00000
  131 0.00000 0.00000 0.00000
  132 0.00000 0.00000 0.00000
  133 0.00000 0.00000 0.00000
  134 0.00000 0.00000 0.00000
  135 0.00000 0.00000 0.00000
  136 0.00000 0.00000 0.00000
  137 0.00000 0.00000 0.00000
  138 0.00000 0.00000 0.00000
  139 0.00000 0.00000 0.00000
  140 0.00000 0.00000 0.00000
  141 0.00000 0.00000 0.00000
  142 0.00000 0.00000 0.00000
  143 0.00000 0.00000 0.00000
  144 0.00000 0.00000 0.00000
  145 0.00000 0.00000 0.00000
  146 0.00000 0.00000 0.00000
  147 0.00000 0.00000 0.00000
  148 0.00000 0.00000 0.00000
  149 0.00000 0.00000 0.00000
  150 0.00000 0.00000 0.00000
  151 0.00000 0.00000 0.00000
  152 0.00000 0.00000 0.00000
  153 0.00000 0.00000 0.00000
  154 0.00000 0.00000 0.00000
  155 0.00000 0.00000 0.00000
  156 0.00000 0.00000 0.00000
  157 0.00000 0.00000 0.00000
  158 0.00000 0.00000 0.00000
  159 0.00000 0.00000 0.00000
  160 0.00000 0.00000 0.00000
  161 0.00000 0.00000 0.00000
  162 0.00000 0.00000 0.00000
  163 0.00000 0.00000 0.00000
  164 0.00000 0.00000 0.00000
  165 0.00000 0.00000 0.00000
  166 0.00000 0.00000 0.00000
  167 0.00000 0.00000 0.00000
  168 0.00000 0.00000 0.00000
  169 0.00000 0.00000 0.00000
  170 0.00000 0.00000 0.00000
  171 0.00000 0.00000 0.00000
  172 0.00000 0.00000 0.00000
  173 0.00000 0.00000 0.00000
  174 0.00000 0.00000 0.00000
  175 0.00000 0.00000 0.00000
  176 0.00000 0.00000 0.00000
  177 0.00000 0.00000 0.00000
  178 0.00000 0.00000 0.00000
  179 0.00000 0.00000 0.00000
  180 0.00000 0.00000 0.00000
  181 0.00000 0.00000 0.00000
  182 0.00000 0.00000 0.00000
  183 0.00000 0.00000 0.00000
  184 0.00000 0.00000 0.00000
  185 0.00000 0.00000 0.00000
  186 0.00000 0.00000 0.00000
  187 0.00000 0.00000 0.00000
  188 0.00000 0.00000 0.00000
  189 0.00000 0.00000 0.00000
  190 0.00000 0.00000 0.00000
  191 0.00000 0.00000 0.00000
  192 0.00000 0.00000 0.00000
  193 0.00000 0.00000 0.00000
  194 0.00000 0.00000 0.00000
  195 0.00000 0.00000 0.00000
  196 0.00000 0.00000 0.00000
  197 0.00000 0.00000 0.00000
  198 0.00000 0.00000 0.00000
  199 0.00000 0.00000 0.00000
  200 0.00000 0.00000 0.00000
  201 0.00000 0.00000 0.00000
  202 0.00000 0.00000 0.00000
  203 0.00000 0.00000 0.00000
  204 0.00000 0.00000 0.00000
  205 0.00000 0.00000 0.00000
  206 0.00000 0.00000 0.00000
  207 0.00000 0.00000 0.00000
  208 0.00000 0.00000 0.00000
  209 0.00000 0.00000 0.00000
  210 0.00000 0.00000 0.00000
  211 0.00000 0.00000 0.00000
  212 0.00000 0.00000 0.00000
  213 0.00000 0.00000 0.00000
  214 0.00000 0.00000 0.00000
  215 0.00000 0.00000 0.00000
  216 0.00000 0.00000 0.00000
  217 0.00000 0.00000 0.00000
  218 0.00000 0.00000 0.00000
  219 0.00000 0.00000 0.00000
  220 0.00000 0.00000 0.00000
  221 0.00000 0.00000 0.00000
  222 0.00000 0.00000 0.00000
  223 0.00000 0.00000 0.00000
  224 0.00000 0.00000 0.00000
  225 0.00000 0.00000 0.00000
  226 0.00000 0.00000 0.00000
  227 0.00000 0.00000 0.00000
  228 0.00000 0.00000 0.00000
  229 0.00000 0.00000 0.00000
  230 0.00000 0.00000 0.00000
  231 0.00000 0.00000 0.00000
  232 0.00000 0.00000 0.00000
  233 0.00000 0.00000 0.00000
  234 0.00000 0.00000 0.00000
  235 0.00000 0.00000 0.00000
  236 0.00000 0.00000 0.00000
  237 0.00000 0.00000 0.00000
  238 0.00000 0.00000 0.00000
  239 0.00000 0.00000 0.00000
  240 0.00000 0.00000 0.00000
  241 0.00000 0.00000 0.00000
  242 0.00000 0.00000 0.00000
  243 0.00000 0.00000 0.00000
  244 0.00000 0.00000 0.00000
  245 0.00000 0.00000 0.00000
  246 0.00000 0.00000 0.00000
  247 0.00000 0.00000 0.00000
  248 0.00000 0.00000 0.00000
  249 0.00000 0.00000 0.00000
  250 0.00000 0.00000 0.00000
  251 0.00000 0.00000 0.00000
  252 0.00000 0.00000 0.00000
  253 0.00000 0.00000 0.00000
  254 0.00000 0.00000 0.00000
  255 0.00000 0.00000 0.00000
  256 0.00000 0.00000 0.00000
  257 0.00000 0.00000 0.00000
  258 0.00000 0.00000 0.00000
  259 0.00000 0.00000 0.00000
  260 0.00000 0.00000 0.00000
  261 0.00000 0.00000 0.00000
  262 0.00000 0.00000 0.00000
  263 0.00000 0.00000 0.00000
  264 0.00000 0.00000 0.00000
  265 0.00000 0.00000 0.00000
  266 0.00000 0.00000 0.00000
  267 0.00000 0.00000 0.00000
  268 0.00000 0.00000 0.00000
  269 0.00000 0.00000 0.00000
  270 0.00000 0.00000 0.00000
  271 0.00000 0.00000 0.00000
  272 0.00000 0.00000 0.00000
  273 0.00000 0.00000 0.00000
  274 0.00000 0.00000 0.00000
  275 0.00000 0.00000 0.00000
  276 0.00000 0.00000 0.00000
  277 0.00000 0.00000 0.00000
  278 0.00000 0.00000 0.00000
  279 0.00000 0.00000 0.00000
  280 0.00000 0.00000 0.00000
  281 0.00000 0.00000 0.00000
  282 0.00000 0.00000 0.00000
  283 0.00000 0.00000 0.00000
  284 0.00000 0.00000 0.00000
  285 0.00000 0.00000 0.00000
  286 0.00000 0.00000 0.00000
  287 0.00000 0.00000 0.00000
  288 0.00000 0.00000 0.00000
  289 0.00000 0.00000 0.00000
  290 0.00000 0.00000 0.00000
  291 0.00000 0.00000 0.00000
  292 0.00000 0.00000 0.00000
  293 0.00000 0.00000 0.00000
  294 0.00000 0.00000 0.00000
  295 0.00000 0.00000 0.00000
  296 0.00000 0.00000 0.00000
  297 0.00000 0.00000 0.00000
  298 0.00000 0.00000 0.00000
  299 0.00000 0.00000 0.00000
  300 0.00000 0.00000 0.00000
  301 0.00000 0.00000 0.00000
  302 0.00000 0.00000 0.00000
  303 0.00000 0.00000 0.00000
  304 0.00000 0.00000 0.00000
  305 0.00000 0.00000 0.00000
  306 0.00000 0.00000 0.00000
  307 0.00000 0.00000 0.00000
  308 0.00000 0.00000 0.00000
  309 0.00000 0.00000 0.00000
  310 0.00000 0.00000 0.00000
  311 0.00000 0.00000 0.00000
  312 0.00000 0.00000 0.00000
  313 0.00000 0.00000 0.00000
  314 0.00000 0.00000 0.00000
  315 0.00000 0.00000 0.00000
  316 0.00000 0.00000 0.00000
  317 0.00000 0.00000 0.00000
  318 0.00000 0.00000 0.00000
  319 0.00000 0.00000 0.00000
  320 0.00000 0.00000 0.00000
  321 0.00000 0.00000 0.00000
  322 0.00000 0.00000 0.00000
  323 0.00000 0.00000 0.00000
  324 0.00000 0.00000 0.00000
  325 0.00000 0.00000 0.00000
  326 0.00000 0.00000 0.00000
  327 0.00000 0.00000 0.00000
  328 0.00000 0.00000 0.00000
  329 0.00000 0.00000 0.00000
  330 0.00000 0.00000 0.00000
  331 0.00000 0.00000 0.00000
  332 0.00000 0.00000 0.00000
  333 0.00000 0.00000 0.00000
  334 0.00000 0.00000 0.00000
  335 0.00000 0.00000 0.00000
  336 0.00000 0.00000 0.00000
  337 0.00000 0.00000 0.00000
  338 0.00000 0.00000 0.00000
  339 0.00000 0.00000 0.00000
  340 0.00000 0.00000 0.00000
  341 0.00000 0.00000 0.00000
  342 0.00000 0.00000 0.00000
  343 0.00000 0.00000 0.00000
  344 0.00000 0.00000 0.00000
  345 0.00000 0.00000 0.00000
  346 0.00000 0.00000 0.00000
  347 0.00000 0.00000 0.00000
  348 0.00000 0.00000 0.00000
  349 0.00000 0.00000 0.00000
  350 0.00000 0.00000 0.00000
  351 0.00000 0.00000 0.00000
  352 0.00000 0.00000 0.00000
  353 0.00000 0.00000 0.00000
  354 0.00000 0.00000 0.00000
  355 0.00000 0.00000 0.00000
  356 0.00000 0.00000 0.00000
  357 0.00000 0.00000 0.00000
  358 0.00000 0.00000 0.00000
  359 0.00000 0.00000 0.00000
  360 0.00000 0.00000 0.00000
  361 0.00000 0.00000 0.00000
  362 0.00000 0.00000 0.00000
  363 0.00000 0.00000 0.00000
  364 0.00000 0.00000 0.00000
  365 0.00000 0.00000 0.00000
  366 0.00000 0.00000 0.00000
  367 0.00000 0.00000 0.00000
  368 0.00000 0.00000 0.00000
  369 0.00000 0.00000 0.00000
  370 0.00000 0.00000 0.00000
  371 0.00000 0.00000 0.00000
  372 0.00000 0.00000 0.00000
  373 0.00000 0.00000 0.00000
  374 0.00000 0.00000 0.00000
  375 0.00000 0.00000 0.00000
  376 0.00000 0.00000 0.00000
  377 0.00000 0.00000 0.00000
  378 0.00000 0.00000 0.00000
  379 0.00000 0.00000 0.00000
  380 0.00000 0.00000 0.00000
  381 0.00000 0.00000 0.00000
  382 0.00000 0.00000 0.00000
  383 0.00000 0.00000 0.00000
  384 0.00000 0.00000 0.00000
  385 0.00000 0.00000 0.00000
  386 0.00000 0.00000 0.00000
  387 0.00000 0.00000 0.00000
  388 0.00000 0.00000 0.00000
  389 0.00000 0.00000 0.00000
  390 0.00000 0.00000 0.00000
  391 0.00000 0.00000 0.00000
  392 0.00000 0.00000 0.00000
  393 0.00000 0.00000 0.00000
  394 0.00000 0.00000 0.00000
  395 0.00000 0.00000 0.00000
  396 0.00000 0.00000 0.00000
  397 0.00000 0.00000 0.00000
  398 0.00000 0.00000 0.00000
  399 0.00000 0.00000 0.00000
  400 0.00000 0.00000 0.00000
  401 0.00000 0.00000 0.00000
  402 0.00000 0.00000 0.00000
  403 0.00000 0.00000 0.00000
  404 0.00000 0.00000 0.00000
  405 0.00000 0.00000 0.00000
  406 0.00000 0.00000 0.00000
  407 0.00000 0.00000 0.00000
  408 0.00000 0.00000 0.00000
  409 0.00000 0.00000 0.00000
  410 0.00000 0.00000 0.00000
  411 0.00000 0.00000 0.00000
  412 0.00000 0.00000 0.00000
  413 0.00000 0.00000 0.00000
  414 0.00000 0.00000 0.00000
  415 0.00000 0.00000 0.00000
  416 0.00000 0.00000 0.00000
  417 0.00000 0.00000 0.00000
  418 0.00000 0.00000 0.00000
  419 0.00000 0.00000 0.00000
  420 0.00000 0.00000 0.00000
  421 0.00000 0.00000 0.00000
  422 0.00000 0.00000 0.00000
  423 0.00000 0.00000 0.00000
  424 0.00000 0.00000 0.00000
  425 0.00000 0.00000 0.00000
  426 0.00000 0.00000 0.00000
  427 0.00000 0.00000 0.00000
  428 0.00000 0.00000 0.00000
  429 0.00000 0.00000 0.00000
  430 0.00000 0.00000 0.00000
  431 0.00000 0.00000 0.00000
  432 0.00000 0.00000 0.00000
  433 0.00000 0.00000 0.00000
  434 0.00000 0.00000 0.00000
  435 0.00000 0.00000 0.00000
  436 0.00000 0.00000 0.00000
  437 0.00000 0.00000 0.00000
  438 0.00000 0.00000 0.00000
  439 0.00000 0.00000 0.00000
  440 0.00000 0.00000 0.00000
  441 0.00000 0.00000 0.00000
  442 0.00000 0.00000 0.00000
  443 0.00000 0.00000 0.00000
  444 0.00000 0.00000 0.00000
  445 0.00000 0.00000 0.00000
  446 0.00000 0.00000 0.00000
  447 0.00000 0.00000 0.00000
  448 0.00000 0.00000 0.00000
  449 0.00000 0.00000 0.00000
  450 0.00000 0.00000 0.00000
  451 0.00000 0.00000 0.00000
  452 0.00000 0.00000 0.00000
  453 0.00000 0.00000 0.00000
  454 0.00000 0.00000 0.00000
  455 0.00000 0.00000 0.00000
  456 0.00000 0.00000 0.00000
  457 0.00000 0.00000 0.00000
  458 0.00000 0.00000 0.00000
  459 0.00000 0.00000 0.00000
  460 0.00000 0.00000 0.00000
  461 0.00000 0.00000 0.00000
  462 0.00000 0.00000 0.00000
  463 0.00000 0.00000 0.00000
  464 0.00000 0.00000 0.00000
  465 0.00000 0.00000 0.00000
  466 0.00000 0.00000 0.00000
  467 0.00000 0.00000 0.00000
  468 0.00000 0.00000 0.00000
  469 0.00000 0.00000 0.00000
  470 0.00000 0.00000 0.00000
  471 0.00000 0.00000 0.00000
  472 0.00000 0.00000 0.00000
  473 0.00000 0.00000 0.00000
  474 0.00000 0.00000 0.00000
  475 0.00000 0.00000 0.00000
  476 0.00000 0.00000 0.00000
  477 0.00000 0.00000 0.00000
  478 0.00000 0.00000 0.00000
  479 0.00000 0.00000 0.00000
  480 0.00000 0.00000 0.00000
  481 0.00000 0.00000 0.00000
  482 0.00000 0.00000 0.00000
  483 0.00000 0.00000 0.00000
  484 0.00000 0.00000 0.00000
  485 0.00000 0.00000 0.00000
  486 0.00000 0.00000 0.00000
  487 0.00000 0.00000 0.00000
  488 0.00000 0.00000 0.00000
  489 0.00000 0.00000 0.00000
  490 0.00000 0.00000 0.00000
  491 0.00000 0.00000 0.00000
  492 0.00000 0.00000 0.00000
  493 0.00000 0.00000 0.00000
  494 0.00000 0.00000 0.00000
  495 0.00000 0.00000 0.00000
  496 0.00000 0.00000 0.00000
  497 0.00000 0.00000 0.00000
  498 0.00000 0.00000 0.00000
  499 0.00000 0.00000 0.00000
  500 0.00000 0.00000 0.00000
  501 0.00000 0.00000 0.00000
  502 0.00000 0.00000 0.00000
  503 0.00000 0.00000 0.00000
  504 0.00000 0.00000 0.00000
  505 0.00000 0.00000 0.00000
  506 0.00000 0.00000 0.00000
  507 0.00000 0.00000 0.00000
  508 0.00000 0.00000 0.00000
  509 0.00000 0.00000 0.00000
  510 0.00000 0.00000 0.00000
  511 0.00000 0.00000 0.00000
  512 0.00000 0.00000 0.00000
  513 0.00000 0.00000 0.00000
  514 0.00000 0.00000 0.00000
  515 0.00000 0.00000 0.00000
  516 0.00000 0.00000 0.00000
  517 0.00000 0.00000 0.00000
  518 0.00000 0.00000 0.00000
  519 0.00000 0.00000 0.00000
  520 0.00000 0.00000 0.00000
  521 0.00000 0.00000 0.00000
  522 0.00000 0.00000 0.00000
  523 0.00000 0.00000 0.00000
  524 0.00000 0.00000 0.00000
  525 0.00000 0.00000 0.00000
  526 0.00000 0.00000 0.00000
  527 0.00000 0.00000 0.00000
  528 0.00000 0.00000 0.00000
  529 0.00000 0.00000 0.00000
  530 0.00000 0.00000 0.00000
  531 0.00000 0.00000 0.00000
  532 0.00000 0.00000 0.00000
  533 0.00000 0.00000 0.00000
  534 0.00000 0.00000 0.00000
  535 0.00000 0.00000 0.00000
  536 0.00000 0.00000 0.00000
  537 0.00000 0.00000 0.00000
  538 0.00000 0.00000 0.00000
  539 0.00000 0.00000 0.00000
  540 0.00000 0.00000 0.00000
  541 0.00000 0.00000 0.00000
  542 0.00000 0.00000 0.00000
  543 0.00000 0.00000 0.00000
  544 0.00000 0.00000 0.00000
  545 0.00000 0.00000 0.00000
  546 0.00000 0.00000 0.00000
  547 0.00000 0.00000 0.00000
  548 0.00000 0.00000 0.00000
  549 0.00000 0.00000 0.00000
  550 0.00000 0.00000 0.00000
  551 0.00000 0.00000 0.00000
  552 0.00000 0.00000 0.00000
  553 0.00000 0.00000 0.00000
  554 0.00000 0.00000 0.00000
  555 0.00000 0.00000 0.00000
  556 0.00000 0.00000 0.00000
  557 0.00000 0.00000 0.00000
  558 0.00000 0.00000 0.00000
  559 0.00000 0.00000 0.00000
  560 0.00000 0.00000 0.00000
  561 0.00000 0.00000 0.00000
  562 0.00000 0.00000 0.00000
  563 0.00000 0.00000 0.00000
  564 0.00000 0.00000 0.00000
  565 0.00000 0.00000 0.00000
  566 0.00000 0.00000 0.00000
  567 0.00000 0.00000 0.00000
  568 0.00000 0.00000 0.00000
  569 0.00000 0.00000 0.00000
  570 0.00000 0.00000 0.00000
  571 0.00000 0.00000 0.00000
  572 0.00000 0.00000 0.00000
  573 0.00000 0.00000 0.00000
  574 0.00000 0.00000 0.00000
  575 0.00000 0.00000 0.00000
  576 0.00000 0.00000 0.00000
  577 0.00000 0.00000 0.00000
  578 0.00000 0.00000 0.00000
  579 0.00000 0.00000 0.00000
  580 0.00000 0.00000 0.00000
  581 0.00000 0.00000 0.00000
  582 0.00000 0.00000 0.00000
  583 0.00000 0.00000 0.00000
  584 0.00000 0.00000 0.00000
  585 0.00000 0.00000 0.00000
  586 0.00000 0.00000 0.00000
  587 0.00000 0.00000 0.00000
  588 0.00000 0.00000 0.00000
  589 0.00000 0.00000 0.00000
  590 0.00000 0.00000 0.00000
  591 0.00000 0.00000 0.00000
  592 0.00000 0.00000 0.00000
  593 0.00000 0.00000 0.00000
  594 0.00000 0.00000 0.00000
  595 0.00000 0.00000 0.00000
  596 0.00000 0.00000 0.00000
  597 0.00000 0.00000 0.00000
  598 0.00000 0.00000 0.00000
  599 0.00000 0.00000 0.00000
  600 0.00000 0.00000 0.00000
  601 0.00000 0.00000 0.00000
  602 0.00000 0.00000 0.00000
  603 0.00000 0.00000 0.00000
  604 0.00000 0.00000 0.00000
  605 0.00000 0.00000 0.00000
  606 0.00000 0.00000 0.00000
  607 0.00000 0.00000 0.00000
  608 0.00000 0.00000 0.00000
  609 0.00000 0.00000 0.00000
  610 0.00000 0.00000 0.00000
  611 0.00000 0.00000 0.00000
  612 0.00000 0.00000 0.00000
  613 0.00000 0.00000 0.00000
  614 0.00000 0.00000 0.00000
  615 0.00000 0.00000 0.00000
  616 0.00000 0.00000 0.00000
  617 0.00000 0.00000 0.00000
  618 0.00000 0.00000 0.00000
  619 0.00000 0.00000 0.00000
  620 0.00000 0.00000 0.00000
  621 0.00000 0.00000 0.00000
  622 0.00000 0.00000 0.00000
  623 0.00000 0.00000 0.00000
  624 0.00000 0.00000 0.00000
  625 0.00000 0.00000 0.00000
  626 0.00000 0.00000 0.00000
  627 0.00000 0.00000 0.00000
  628 0.00000 0.00000 0.00000
  629 0.00000 0.00000 0.00000
  630 0.00000 0.00000 0.00000
  631 0.00000 0.00000 0.00000
  632 0.00000 0.00000 0.00000
  633 0.00000 0.00000 0.00000
  634 0.00000 0.00000 0.00000
  635 0.00000 0.00000 0.00000
  636 0.00000 0.00000 0.00000
  637 0.00000 0.00000 0.00000
  638 0.00000 0.00000 0.00000
  639 0.00000 0.00000 0.00000
  640 0.00000 0.00000 0.00000
  641 0.00000 0.00000 0.00000
  642 0.00000 0.00000 0.00000
  643 0.00000 0.00000 0.00000
  644 0.00000 0.00000 0.00000
  645 0.00000 0.00000 0.00000
  646 0.00000 0.00000 0.00000
  647 0.00000 0.00000 0.00000
  648 0.00000 0.00000 0.00000
  649 0.00000 0.00000 0.00000
  650 0.00000 0.00000 0.00000
  651 0.00000 0.00000 0.00000
  652 0.00000 0.00000 0.00000
  653 0.00000 0.00000 0.00000
  654 0.00000 0.00000 0.00000
  655 0.00000 0.00000 0.00000
  656 0.00000 0.00000 0.00000
  657 0.00000 0.00000 0.00000
  658 0.00000 0.00000 0.00000
  659 0.00000 0.00000 0.00000
  660 0.00000 0.00000 0.00000
  661 0.00000 0.00000 0.00000
  662 0.00000 0.00000 0.00000
  663 0.00000 0.00000 0.00000
  664 0.00000 0.00000 0.00000
  665 0.00000 0.00000 0.00000
  666 0.00000 0.00000 0.00000
  667 0.00000 0.00000 0.00000
  668 0.00000 0.00000 0.00000
  669 0.00000 0.00000 0.00000
  670 0.00000 0.00000 0.00000
  671 0.00000 0.00000 0.00000
  672 0.00000 0.00000 0.00000
  673 0.00000 0.00000 0.00000
  674 0.00000 0.00000 0.00000
  675 0.00000 0.00000 0.00000
  676 0.00000 0.00000 0.00000
  677 0.00000 0.00000 0.00000
  678 0.00000 0.00000 0.00000
  679 0.00000 0.00000 0.00000
  680 0.00000 0.00000 0.00000
  681 0.00000 0.00000 0.00000
  682 0.00000 0.00000 0.00000
  683 0.00000 0.00000 0.00000
  684 0.00000 0.00000 0.00000
  685 0.00000 0.00000 0.00000
  686 0.00000 0.00000 0.00000
  687 0.00000 0.00000 0.00000
  688 0.00000 0.00000 0.00000
  689 0.00000 0.00000 0.00000
  690 0.00000 0.00000 0.00000
  691 0.00000 0.00000 0.00000
  692 0.00000 0.00000 0.00000
  693 0.00000 0.00000 0.00000
  694 0.00000 0.00000 0.00000
  695 0.00000 0.00000 0.00000
  696 0.00000 0.00000 0.00000
  697 0.00000 0.00000 0.00000
  698 0.00000 0.00000 0.00000
  699 0.00000 0.00000 0.00000
  700 0.00000 0.00000 0.00000
  701 0.00000 0.00000 0.00000
  702 0.00000 0.00000 0.00000
  703 0.00000 0.00000 0.00000
  704 0.00000 0.00000 0.00000
  705 0.00000 0.00000 0.00000
  706 0.00000 0.00000 0.00000
  707 0.00000 0.00000 0.00000
  708 0.00000 0.00000 0.00000
  709 0.00000 0.00000 0.00000
  710 0.00000 0.00000 0.00000
  711 0.00000 0.00000 0.00000
  712 0.00000 0.00000 0.00000
  713 0.00000 0.00000 0.00000
  714 0.00000 0.00000 0.00000
  715 0.00000 0.00000 0.00000
  716 0.00000 0.00000 0.00000
  717 0.00000 0.00000 0.00000
  718 0.00000 0.00000 0.00000
  719 0.00000 0.00000 0.00000
  720 0.00000 0.00000 0.00000
  721 0.00000 0.00000 0.00000
  722 0.00000 0.00000 0.00000
  723 0.00000 0.00000 0.00000
  724 0.00000 0.00000 0.00000
  725 0.00000 0.00000 0.00000
  726 0.00000 0.00000 0.00000
  727 0.00000 0.00000 0.00000
  728 0.00000 0.00000 0.00000
  729 0.00000 0.00000 0.00000
  730 0.00000 0.00000 0.00000
  731 0.00000 0.00000 0.00000
  732 0.00000 0.00000 0.00000
  733 0.00000 0.00000 0.00000
  734 0.00000 0.00000 0.00000
  735 0.00000 0.00000 0.00000
  736 0.00000 0.00000 0.00000
  737 0.00000 0.00000 0.00000
  738 0.00000 0.00000 0.00000
  739 0.00000 0.00000 0.00000
  740 0.00000 0.00000 0.00000
  741 0.00000 0.00000 0.00000
  742 0.00000 0.00000 0.00000
  743 0.00000 0.00000 0.00000
  744 0.00000 0.00000 0.00000
  745 0.00000 0.00000 0.00000
  746 0.00000 0.00000 0.00000
  747 0.00000 0.00000 0.00000
  748 0.00000 0.00000 0.00000
  749 0.00000 0.00000 0.00000
  750 0.00000 0.00000 0.00000
  751 0.00000 0.00000 0.00000
  752 0.00000 0.00000 0.00000
  753 0.00000 0.00000 0.00000
  754 0.00000 0.00000 0.00000
  755 0.00000 0.00000 0.00000
  756 0.00000 0.00000 0.00000
  757 0.00000 0.00000 0.00000
  758 0.00000 0.00000 0.00000
  759 0.00000 0.00000 0.00000
  760 0.00000 0.00000 0.00000
  761 0.00000 0.00000 0.00000
  762 0.00000 0.00000 0.00000
  763 0.00000 0.00000 0.00000
  764 0.00000 0.00000 0.00000
  765 0.00000 0.00000 0.00000
  766 0.00000 0.00000 0.00000
  767 0.00000 0.00000 0.00000
  768 0.00000 0.00000 0.00000
  769 0.00000 0.00000 0.00000
  770 0.00000 0.00000 0.00000
  771 0.00000 0.00000 0.00000
  772 0.00000 0.00000 0.00000
  773 0.00000 0.00000 0.00000
  774 0.00000 0.00000 0.00000
  775 0.00000 0.00000 0.00000
  776 0.00000 0.00000 0.00000
  777 0.00000 0.00000 0.00000
  778 0.00000 0.00000 0.00000
  779 0.00000 0.00000 0.00000
  780 0.00000 0.00000 0.00000
  781 0.00000 0.00000 0.00000
  782 0.00000 0.00000 0.00000
  783 0.00000 0.00000 0.00000
  784 0.00000 0.00000 0.00000
  785 0.00000 0.00000 0.00000
  786 0.00000 0.00000 0.00000
  787 0.00000 0.00000 0.00000
  788 0.00000 0.00000 0.00000
  789 0.00000 0.00000 0.00000
  790 0.00000 0.00000 0.00000
  791 0.00000 0.00000 0.00000
  792 0.00000 0.00000 0.00000
  793 0.00000 0.00000 0.00000
  794 0.00000 0.00000 0.00000
  795 0.00000 0.00000 0.00000
  796 0.00000 0.00000 0.00000
  797 0.00000 0.00000 0.00000
  798 0.00000 0.00000 0.00000
  799 0.00000 0.00000 0.00000
  800 0.00000 0.00000 0.00000
  801 0.00000 0.00000 0.00000
  802 0.00000 0.00000 0.00000
  803 0.00000 0.00000 0.00000
  804 0.00000 0.00000 0.00000
  805 0.00000 0.00000 0.00000
  806 0.00000 0.00000 0.00000
  807 0.00000 0.00000 0.00000
  808 0.00000 0.00000 0.00000
  809 0.00000 0.00000 0.00000
  810 0.00000 0.00000 0.00000
  811 0.00000 0.00000 0.00000
  812 0.00000 0.00000 0.00000
  813 0.00000 0.00000 0.00000
  814 0.00000 0.00000 0.00000
  815 0.00000 0.00000 0.00000
  816 0.00000 0.00000 0.00000
  817 0.00000 0.00000 0.00000
  818 0.00000 0.00000 0.00000
  819 0.00000 0.00000 0.00000
  820 0.00000 0.00000 0.00000
  821 0.00000 0.00000 0.00000
  822 0.00000 0.00000 0.00000
  823 0.00000 0.00000 0.00000
  824 0.00000 0.00000 0.00000
  825 0.00000 0.00000 0.00000
  826 0.00000 0.00000 0.00000
  827 0.00000 0.00000 0.00000
  828 0.00000 0.00000 0.00000
  829 0.00000 0.00000 0.00000
  830 0.00000 0.00000 0.00000
  831 0.00000 0.00000 0.00000
  832 0.00000 0.00000 0.00000
  833 0.00000 0.00000 0.00000
  834 0.00000 0.00000 0.00000
  835 0.00000 0.00000 0.00000
  836 0.00000 0.00000 0.00000
  837 0.00000 0.00000 0.00000
  838 0.00000 0.00000 0.00000
  839 0.00000 0.00000 0.00000
  840 0.00000 0.00000 0.00000
  841 0.00000 0.00000 0.00000
  842 0.00000 0.00000 0.00000
  843 0.00000 0.00000 0.00000
  844 0.00000 0.00000 0.00000
  845 0.00000 0.00000 0.00000
  846 0.00000 0.00000 0.00000
  847 0.00000 0.00000 0.00000
  848 0.00000 0.00000 0.00000
  849 0.00000 0.00000 0.00000
  850 0.00000 0.00000 0.00000
  851 0.00000 0.00000 0.00000
  852 0.00000 0.00000 0.00000
  853 0.00000 0.00000 0.00000
  854 0.00000 0.00000 0.00000
  855 0.00000 0.00000 0.00000
  856 0.00000 0.00000 0.00000
  857 0.00000 0.00000 0.00000
  858 0.00000 0.00000 0.00000
  859 0.00000 0.00000 0.00000
  860 0.00000 0.00000 0.00000
  861 0.00000 0.00000 0.00000
  862 0.00000 0.00000 0.00000
  863 0.00000 0.00000 0.00000
  864 0.00000 0.00000 0.00000
  865 0.00000 0.00000 0.00000
  866 0.00000 0.00000 0.00000
  867 0.00000 0.00000 0.00000
  868 0.00000 0.00000 0.00000
  869 0.00000 0.00000 0.00000
  870 0.00000 0.00000 0.00000
  871 0.00000 0.00000 0.00000
  872 0.00000 0.00000 0.00000
  873 0.00000 0.00000 0.00000
  874 0.00000 0.00000 0.00000
  875 0.00000 0.00000 0.00000
  876 0.00000 0.00000 0.00000
  877 0.00000 0.00000 0.00000
  878 0.00000 0.00000 0.00000
  879 0.00000 0.00000 0.00000
  880 0.00000 0.00000 0.00000
  881 0.00000 0.00000 0.00000
  882 0.00000 0.00000 0.00000
  883 0.00000 0.00000 0.00000
  884 0.00000 0.00000 0.00000
  885 0.00000 0.00000 0.00000
  886 0.00000 0.00000 0.00000
  887 0.00000 0.00000 0.00000
  888 0.00000 0.00000 0.00000
  889 0.00000 0.00000 0.00000
  890 0.00000 0.00000 0.00000
  891 0.00000 0.00000 0.00000
  892 0.00000 0.00000 0.00000
  893 0.00000 0.00000 0.00000
  894 0.00000 0.00000 0.00000
  895 0.00000 0.00000 0.00000
  896 0.00000 0.00000 0.00000
  897 0.00000 0.00000 0.00000
  898 0.00000 0.00000 0.00000
  899 0.00000 0.00000 0.00000
  900 0.00000 0.00000 0.00000
  901 0.00000 0.00000 0.00000
  902 0.00000 0.00000 0.00000
  903 0.00000 0.00000 0.00000
</Section>

newXOutput 2

<Section columns = "stress_xx | stress_yy | stress_xy">
  1 98.2102 -1.04897e-07 6.85771e-14
  2 98.2102 -1.04898e-07 3.15870e-13
  3 98.2102 -1.04897e-07 5.62552e-14
  4 98.2102 -1.04899e-07 2.07131e-14
  5 98.2102 -1.04897e-07 2.83161e-13
  6 98.2102 -1.04899e-07 2.80940e-13
  7 98.2102 -1.04899e-07 1.16384e-13
  8 98.2102 -1.04899e-07 3.86038e-14
  9 98.2102 -1.04899e-07 -2.21491e-14
  10 98.2102 -1.04900e-07 -3.16378e-14
  11 98.2102 -1.04900e-07 -1.08583e-13
  12 98.2102 -1.04900e-07 -3.65371e-14
  13 98.2102 -1.04900e-07 -7.45869e-14
  14 98.2102 -1.04900e-07 -3.93273e-14
  15 98.2102 -1.04900e-07 1.63972e-14
  16 98.2102 -1.04900e-07 -6.04592e-14
  17 98.2102 -1.04900e-07 -2.14045e-14
  18 98.2102 -1.04900e-07 1.55299e-14
  19 98.2102 -1.04900e-07 6.56558e-14
  20 98.2102 -1.04898e-07 -6.85078e-14
  21 98.2102 -1.04898e-07 -7.74304e-14
  22 98.2102 -1.04897e-07 7.77378e-14
  23 98.2102 -1.04897e-07 -1.21849e-13
  24 98.2102 -1.04898e-07 -5.23063e-13
  25 98.2102 -1.04899e-07 -1.98132e-13
  26 98.2102 -1.04898e-07 2.07086e-13
  27 98.2102 -1.04898e-07 2.60012e-13
  28 98.2102 -1.04898e-07 2.14582e-13
  29 98.2102 -1.04897e-07 -8.00516e-14
  30 98.2102 -1.04897e-07 -2.96030e-14
  31 98.2102 -1.04897e-07 -5.73109e-14
  32 98.2102 -1.04899e-07 -1.25650e-13
  33 98.2102 -1.04900e-07 -1.69208e-13
  34 98.2102 -1.04897e-07 -5.21816e-14
  35 98.2102 -1.04897e-07 3.68581e-14
  36 98.2102 -1.04897e-07 8.15216e-14
  37 98.2102 -1.04897e-07 -6.02153e-14
  38 98.2102 -1.04897e-07 -7.66271e-14
  39 98.2102 -1.04897e-07 8.59471e-14
  40 98.2102 -1.04898e-07 1.94112e-13
  41 98.2102 -1.04899e-07 -1.28300e-14
  42 98.2102 -1.04898e-07 -1.84201e-13
  43 98.2102 -1.04900e-07 3.43991e-13
  44 98.2102 -1.04898e-07 1.35068e-13
  45 98.2102 -1.04899e-07 -7.75310e-14
  46 98.2102 -1.04897e-07 -2.37300e-14
  47 98.2102 -1.04898e-07 -1.94419e-14
  48 98.2102 -1.04898e-07 -7.09861e-15
  49 98.2102 -1.04897e-07 -2.99715e-14
  50 98.2102 -1.04897e-07 -2.84984e-13
  51 98.2102 -1.04897e-07 1.04704e-14
  52 98.2102 -1.04899e-07 8.24225e-15
  53 98.2102 -1.04898e-07 2.84984e-13
  54 98.2102 -1.04897e-07 -1.10697e-13
  55 98.2102 -1.04897e-07 6.17568e-14
  56 98.2102 -1.04897e-07 -1.35462e-14
  57 98.2102 -1.04897e-07 -1.87517e-14
  58 98.2102 -1.04898e-07 1.92052e-14
  59 98.2102 -1.04897e-07 2.96400e-13
  60 98.2102 -1.04897e-07 1.19846e-13
  61 98.2102 -1.04897e-07 6.18205e-14
  62 98.2102 -1.04897e-07 -3.70500e-14
  63 98.2102 -1.04897e-07 3.26089e-14
  64 98.2102 -1.04897e-07 -3.75302e-13
  65 98.2102 -1.04898e-07 4.72678e-14
  66 98.2102 -1.04897e-07 -1.20073e-13
  67 98.2102 -1.04897e-07 -2.92506e-13
  68 98.2102 -1.04898e-07 -1.32416e-13
  69 98.2102 -1.04897e-07 2.74474e-14
  70 98.2102 -1.04899e-07 1.93379e-13
  71 98.2102 -1.04900e-07 -2.34064e-13
  72 98.2102 -1.04900e-07 -1.96213e-13
  73 98.2102 -1.04900e-07 -1.33436e-13
  74 98.2102 -1.04899e-07 -3.13792e-13
  75 98.2102 -1.04898e-07 8.92242e-15
  76 98.2102 -1.04898e-07 2.00601e-13
  77 98.2102 -1.04899e-07 -6.15100e-14
  78 98.2102 -1.04900e-07 -1.29222e-13
  79 98.2102 -1.04898e-07 -3.41239e-13
  80 98.2102 -1.04899e-07 -6.27501e-15
  81 98.2102 -1.04898e-07 3.76249e-13
  82 98.2102 -1.04898e-07 4.34785e-14
  83 98.2102 -1.04898e-07 2.36518e-13
  84 98.2102 -1.04897e-07 -4.04481e-14
  85 98.2102 -1.04897e-07 -6.73315e-14
  86 98.2102 -1.04897e-07 -1.64444e-14
  87 98.2102 -1.04897e-07 7.01324e-14
  88 98.2102 -1.04898e-07 6.82522e-15
  89 98.2102 -1.04898e-07 2.13425e-14
  90 98.2102 -1.04899e-07 -2.01688e-14
  91 98.2102 -1.04899e-07 1.72780e-14
  92 98.2102 -1.04900e-07 3.00282e-14
  93 98.2102 -1.04900e-07 8.35561e-15
  94 98.2102 -1.04900e-07 1.75048e-14
  95 98.2102 -1.04899e-07 -3.96768e-16
  96 98.2102 -1.04899e-07 -6.90437e-15
  97 98.2102 -1.04900e-07 3.62223e-15
  98 98.2102 -1.04899e-07 6.84769e-15
  99 98.2102 -1.04900e-07 -2.28020e-14
  100 98.2102 -1.04900e-07 -6.97877e-15
  101 98.2102 -1.04900e-07 -1.13362e-16
  102 98.2102 -1.04900e-07 -1.60535e-14
  103 98.2102 -1.04900e-07 -1.38087e-14
  104 98.2102 -1.04900e-07 -1.83975e-14
  105 98.2102 -1.04900e-07 -7.81812e-14
  106 98.2102 -1.04899e-07 -1.41925e-13
  107 98.2102 -1.04898e-07 -9.59810e-14
  108 98.2102 -1.04897e-07 9.82967e-14
  109 98.2102 -1.04897e-07 9.70963e-14
  110 98.2102 -1.04897e-07 1.16965e-13
  111 98.2102 -1.04897e-07 1.02730e-13
  112 98.2102 -1.04897e-07 4.25440e-14
  113 98.2102 -1.04900e-07 4.51556e-14
  114 98.2102 -1.04897e-07 -7.02940e-15
  115 98.2102 -1.04898e-07 -4.29926e-15
  116 98.2102 -1.04897e-07 8.00555e-14
  117 98.2102 -1.04900e-07 -3.49064e-14
  118 98.2102 -1.04900e-07 4.45334e-14
  119 98.2102 -1.04898e-07 2.68092e-14
  120 98.2102 -1.04897e-07 -2.80777e-13
  121 98.2102 -1.04897e-07 -1.88885e-13
  122 98.2102 -1.04900e-07 7.77812e-15
  123 98.2102 -1.04900e-07 3.23928e-14
  124 98.2102 -1.04898e-07 -1.29875e-13
  125 98.2102 -1.04897e-07 -9.37453e-14
  126 98.2102 -1.04900e-07 4.97830e-14
  127 98.2102 -1.04900e-07 -1.17894e-15
  128 98.2102 -1.04900e-07 -1.53716e-14
  129 98.2102 -1.04897e-07 -1.73191e-13
  130 98.2102 -1.04897e-07 -1.75804e-13
  131 98.2102 -1.04897e-07 1.68419e-13
  132 98.2102 -1.04897e-07 -4.47428e-14
  133 98.2102 -1.04898e-07 2.47191e-13
  134 98.2102 -1.04897e-07 -9.91306e-14
  135 98.2102 -1.04900e-07 -1.02853e-13
  136 98.2102 -1.04899e-07 1.50078e-13
  137 98.2102 -1.04897e-07 -8.71386e-14
  138 98.2102 -1.04897e-07 3.04086e-13
  139 98.2102 -1.04900e-07 -4.29734e-14
  140 98.2102 -1.04900e-07 4.54509e-14
  141 98.2102 -1.04897e-07 -3.27109e-13
  142 98.2102 -1.04897e-07 -4.31458e-14
  143 98.2102 -1.04900e-07 -1.63369e-14
  144 98.2102 -1.04898e-07 -2.65834e-13
  145 98.2102 -1.04897e-07 1.44005e-13
  146 98.2102 -1.04897e-07 -5.39382e-14
  147 98.2102 -1.04900e-07 7.69174e-15
  148 98.2102 -1.04898e-07 2.69426e-14
  149 98.2102 -1.04900e-07 -2.85482e-14
  150 98.2102 -1.04900e-07 1.83048e-14
  151 98.2102 -1.04897e-07 -5.79128e-14
  152 98.2102 -1.04899e-07 -1.28323e-13
  153 98.2102 -1.04897e-07 -1.89255e-14
  154 98.2102 -1.04898e-07 9.79483e-14
  155 98.2102 -1.04898e-07 -1.30299e-13
  156 98.2102 -1.04898e-07 1.83081e-13
  157 98.2102 -1.04900e-07 -1.31035e-14
  158 98.2102 -1.04898e-07 4.80066e-14
  159 98.2102 -1.04898e-07 -3.41345e-13
  160 98.2102 -1.04900e-07 -3.27791e-14
  161 98.2102 -1.04897e-07 9.79381e-14
  162 98.2102 -1.04897e-07 -7.76168e-14
  163 98.2102 -1.04899e-07 -2.13847e-13
  164 98.2102 -1.04897e-07 9.15917e-15
  165 98.2102 -1.04898e-07 1.04399e-13
  166 98.2102 -1.04900e-07 -4.64454e-14
  167 98.2102 -1.04897e-07 2.89561e-13
  168 98.2102 -1.04900e-07 -2.97990e-13
  169 98.2102 -1.04897e-07 3.36186e-13
  170 98.2102 -1.04897e-07 1.11737e-13
  171 98.2102 -1.04898e-07 3.06723e-13
  172 98.2102 -1.04897e-07 -6.07164e-14
  173 98.2102 -1.04900e-07 -3.43409e-14
  174 98.2102 -1.04897e-07 -2.76640e-13
  175 98.2102 -1.04897e-07 3.11457e-13
  176 98.2102 -1.04900e-07 -5.40006e-14
  177 98.2102 -1.04900e-07 -1.53502e-14
  178 98.2102 -1.04900e-07 -8.30025e-17
  179 98.2102 -1.04898e-07 -4.67943e-14
  180 98.2102 -1.04899e-07 -3.32747e-14
  181 98.2102 -1.04897e-07 -1.70715e-13
  182 98.2102 -1.04897e-07 2.23429e-14
  183 98.2102 -1.04897e-07 -1.65397e-13
  184 98.2102 -1.04899e-07 3.26917e-14
  185 98.2102 -1.04899e-07 4.11422e-14
  186 98.2102 -1.04900e-07 3.37417e-14
  187 98.2102 -1.04900e-07 1.32938e-14
  188 98.2102 -1.04900e-07 6.74362e-15
  189 98.2102 -1.04897e-07 -1.07134e-13
  190 98.2102 -1.04897e-07 -8.10397e-15
  191 98.2102 -1.04899e-07 -1.16763e-13
  192 98.2102 -1.04897e-07 1.60180e-13
  193 98.2102 -1.04898e-07 4.46541e-13
  194 98.2102 -1.04898e-07 -6.32805e-14
  195 98.2102 -1.04900e-07 5.38455e-14
  196 98.2102 -1.04899e-07 8.59858e-14
  197 98.2102 -1.04899e-07 -6.36952e-14
  198 98.2102 -1.04897e-07 -1.87493e-13
  199 98.2102 -1.04899e-07 3.68119e-14
  200 98.2102 -1.04899e-07 4.92016e-14
  201 98.2102 -1.04897e-07 2.88792e-15
  202 98.2102 -1.04897e-07 -6.32730e-14
  203 98.2102 -1.04900e-07 -1.13935e-13
  204 98.2102 -1.04897e-07 -8.51202e-14
  205 98.2102 -1.04900e-07 -1.03028e-13
  206 98.2102 -1.04900e-07 -4.29634e-14
  207 98.2102 -1.04899e-07 -4.00817e-16
  208 98.2102 -1.04898e-07 -9.00296e-14
  209 98.2102 -1.04897e-07 4.83588e-14
  210 98.2102 -1.04899e-07 -1.55715e-13
  211 98.2102 -1.04898e-07 1.06196e-13
  212 98.2102 -1.04897e-07 -5.64343e-14
  213 98.2102 -1.04898e-07 -2.13274e-13
  214 98.2102 -1.04899e-07 2.69275e-13
  215 98.2102 -1.04898e-07 2.14302e-13
  216 98.2102 -1.04898e-07 1.04349e-13
  217 98.2102 -1.04900e-07 -6.21832e-14
  218 98.2102 -1.04897e-07 -2.91614e-14
  219 98.2102 -1.04900e-07 -9.75212e-14
  220 98.2102 -1.04899e-07 4.38482e-14
  221 98.2102 -1.04898e-07 4.93359e-14
  222 98.2102 -1.04898e-07 -5.58372e-14
  223 98.2102 -1.04897e-07 1.15225e-13
  224 98.2102 -1.04897e-07 1.69186e-15
  225 98.2102 -1.04900e-07 -8.24319e-15
  226 98.2102 -1.04897e-07 -5.66895e-14
  227 98.2102 -1.04898e-07 -6.86508e-14
  228 98.2102 -1.04898e-07 3.54013e-14
  229 98.2102 -1.04897e-07 -4.52796e-13
  230 98.2102 -1.04899e-07 1.00547e-13
  231 98.2102 -1.04897e-07 -6.47217e-14
  232 98.2102 -1.04898e-07 -9.10604e-14
  233 98.2102 -1.04898e-07 1.32462e-13
  234 98.2102 -1.04900e-07 -1.05045e-14
  235 98.2102 -1.04897e-07 -1.94874e-13
  236 98.2102 -1.04898e-07 2.59392e-13
  237 98.2102 -1.04900e-07 6.49943e-14
  238 98.2102 -1.04897e-07 -6.52960e-14
  239 98.2102 -1.04900e-07 -2.36515e-14
  240 98.2102 -1.04899e-07 1.68540e-13
  241 98.2102 -1.04900e-07 1.49461e-15
  242 98.2102 -1.04900e-07 -1.75993e-14
  243 98.2102 -1.04897e-07 -1.02887e-13
  244 98.2102 -1.04897e-07 -6.47673e-14
  245 98.2102 -1.04899e-07 -7.74199e-14
  246 98.2102 -1.04900e-07 -3.06446e-14
  247 98.2102 -1.04898e-07 -5.70326e-14
  248 98.2102 -1.04898e-07 1.23058e-13
  249 98.2102 -1.04900e-07 -2.47551e-14
  250 98.2102 -1.04898e-07 -2.49034e-14
  251 98.2102 -1.04898e-07 6.06090e-14
  252 98.2102 -1.04897e-07 -4.99593e-15
  253 98.2102 -1.04900e-07 -2.05400e-13
  254 98.2102 -1.04897e-07 2.58241e-13
  255 98.2102 -1.04900e-07 -3.18175e-14
  256 98.2102 -1.04900e-07 -6.76177e-14
  257 98.2102 -1.04897e-07 4.91717e-14
  258 98.2102 -1.04897e-07 -8.90841e-14
  259 98.2102 -1.04897e-07 1.02016e-13
  260 98.2102 -1.04900e-07 -5.67654e-14
  261 98.2102 -1.04898e-07 -1.14293e-13
  262 98.2102 -1.04900e-07 1.00939e-13
  263 98.2102 -1.04898e-07 6.65089e-14
  264 98.2102 -1.04898e-07 2.55754e-13
  265 98.2102 -1.04897e-07 -2.89440e-13
  266 98.2102 -1.04898e-07 6.89069e-14
  267 98.2102 -1.04897e-07 -3.97033e-14
  268 98.2102 -1.04898e-07 2.39622e-13
  269 98.2102 -1.04897e-07 -5.90292e-14
  270 98.2102 -1.04900e-07 2.82727e-14
  271 98.2102 -1.04900e-07 -3.00231e-14
  272 98.2102 -1.04900e-07 -1.15091e-14
  273 98.2102 -1.04897e-07 5.71545e-14
  274 98.2102 -1.04897e-07 2.51380e-13
  275 98.2102 -1.04900e-07 2.99371e-14
  276 98.2102 -1.04900e-07 2.10583e-13
  277 98.2102 -1.04897e-07 -2.48806e-13
  278 98.2102 -1.04897e-07 2.12463e-13
  279 98.2102 -1.04900e-07 5.39171e-14
  280 98.2102 -1.04899e-07 2.01154e-13
  281 98.2102 -1.04897e-07 -2.79743e-13
  282 98.2102 -1.04897e-07 -7.84195e-14
  283 98.2102 -1.04897e-07 -1.57559e-14
  284 98.2102 -1.04900e-07 3.26630e-14
  285 98.2102 -1.04900e-07 1.82304e-14
  286 98.2102 -1.04898e-07 -2.88825e-13
  287 98.2102 -1.04899e-07 -9.13197e-14
  288 98.2102 -1.04897e-07 2.57436e-13
  289 98.2102 -1.04897e-07 1.44210e-13
  290 98.2102 -1.04900e-07 3.92723e-14
  291 98.2102 -1.04898e-07 3.26518e-15
  292 98.2102 -1.04898e-07 2.49334e-14
  293 98.2102 -1.04900e-07 1.80153e-14
  294 98.2102 -1.04900e-07 -1.17857e-14
  295 98.2102 -1.04897e-07 1.74702e-14
  296 98.2102 -1.04899e-07 2.19409e-14
  297 98.2102 -1.04897e-07 -8.95395e-14
  298 98.2102 -1.04900e-07 1.02956e-13
  299 98.2102 -1.04898e-07 -1.26396e-13
  300 98.2102 -1.04899e-07 -6.32417e-13
  301 98.2102 -1.04899e-07 2.78926e-13
  302 98.2102 -1.04897e-07 1.35267e-13
  303 98.2102 -1.04897e-07 -1.21403e-13
  304 98.2102 -1.04897e-07 -2.17061e-13
  305 98.2102 -1.04897e-07 2.61747e-13
  306 98.2102 -1.04898e-07 -1.95000e-15
  307 98.2102 -1.04899e-07 -2.00373e-13
  308 98.2102 -1.04900e-07 2.21370e-14
  309 98.2102 -1.04897e-07 8.00467e-14
  310 98.2102 -1.04897e-07 2.92664e-13
  311 98.2102 -1.04897e-07 2.24461e-14
  312 98.2102 -1.04900e-07 1.33428e-14
  313 98.2102 -1.04899e-07 1.94803e-14
  314 98.2102 -1.04898e-07 -3.89547e-14
  315 98.2102 -1.04898e-07 -1.11395e-13
  316 98.2102 -1.04900e-07 4.11865e-14
  317 98.2102 -1.04898e-07 1.96478e-13
  318 98.2102 -1.04897e-07 4.99469e-14
  319 98.2102 -1.04900e-07 -1.27309e-14
  320 98.2102 -1.04898e-07 9.08206e-14
  321 98.2102 -1.04898e-07 1.11582e-13
  322 98.2102 -1.04900e-07 -4.36027e-14
  323 98.2102 -1.04899e-07 2.48918e-14
  324 98.2102 -1.04897e-07 -7.04691e-14
  325 98.2102 -1.04899e-07 1.57217e-13
  326 98.2102 -1.04900e-07 2.62404e-14
  327 98.2102 -1.04898e-07 -2.77246e-13
  328 98.2102 -1.04900e-07 -5.70204e-15
  329 98.2102 -1.04897e-07 1.26948e-13
  330 98.2102 -1.04897e-07 -6.69031e-14
  331 98.2102 -1.04897e-07 9.56792e-14
  332 98.2102 -1.04898e-07 2.18842e-13
  333 98.2102 -1.04900e-07 -3.38722e-14
  334 98.2102 -1.04900e-07 2.02132e-14
  335 98.2102 -1.04897e-07 3.45666e-13
  336 98.2102 -1.04900e-07 -2.40144e-14
  337 98.2102 -1.04897e-07 1.32281e-13
  338 98.2102 -1.04898e-07 -1.03844e-13
  339 98.2102 -1.04897e-07 -1.68466e-14
  340 98.2102 -1.04899e-07 2.85919e-14
  341 98.2102 -1.04899e-07 -3.35911e-14
  342 98.2102 -1.04900e-07 4.31634e-14
  343 98.2102 -1.04897e-07 1.51281e-13
  344 98.2102 -1.04898e-07 2.80025e-13
  345 98.2102 -1.04900e-07 -6.73405e-14
  346 98.2102 -1.04900e-07 -9.18018e-14
  347 98.2102 -1.04899e-07 3.93175e-13
  348 98.2102 -1.04897e-07 1.77315e-13
  349 98.2102 -1.04897e-07 -2.76732e-14
  350 98.2102 -1.04900e-07 -1.64210e-13
  351 98.2102 -1.04898e-07 2.75593e-14
  352 98.2102 -1.04900e-07 -1.00313e-13
  353 98.2102 -1.04898e-07 -2.00503e-13
  354 98.2102 -1.04897e-07 3.57557e-14
  355 98.2102 -1.04897e-07 4.67637e-14
  356 98.2102 -1.04897e-07 1.28402e-14
  357 98.2102 -1.04897e-07 2.13545e-13
  358 98.2102 -1.04897e-07 -2.81801e-13
  359 98.2102 -1.04899e-07 -1.55202e-13
  360 98.2102 -1.04900e-07 -1.76757e-14
  361 98.2102 -1.04900e-07 2.16917e-14
  362 98.2102 -1.04898e-07 4.22533e-15
  363 98.2102 -1.04900e-07 9.24920e-15
  364 98.2102 -1.04897e-07 2.41552e-14
  365 98.2102 -1.04898e-07 -9.28955e-14
  366 98.2102 -1.04897e-07 3.96052e-14
  367 98.2102 -1.04898e-07 -7.19385e-14
  368 98.2102 -1.04900e-07 -4.81697e-14
  369 98.2102 -1.04898e-07 -6.75495e-14
  370 98.2102 -1.04897e-07 -1.04544e-13
  371 98.2102 -1.04899e-07 1.85243e-14
  372 98.2102 -1.04897e-07 -1.40947e-13
  373 98.2102 -1.04897e-07 -2.06005e-13
  374 98.2102 -1.04897e-07 4.67019e-14
  375 98.2102 -1.04897e-07 -1.66039e-13
  376 98.2102 -1.04900e-07 -1.14897e-13
  377 98.2102 -1.04900e-07 -5.03687e-14
  378 98.2102 -1.04900e-07 8.27066e-15
  379 98.2102 -1.04898e-07 2.76119e-13
  380 98.2102 -1.04898e-07 5.11527e-14
  381 98.2102 -1.04900e-07 1.30584e-13
  382 98.2102 -1.04900e-07 -6.20283e-14
  383 98.2102 -1.04899e-07 1.70725e-14
  384 98.2102 -1.04897e-07 -7.13079e-14
  385 98.2102 -1.04898e-07 -7.01577e-14
  386 98.2102 -1.04897e-07 2.16449e-15
  387 98.2102 -1.04900e-07 -5.39083e-15
  388 98.2102 -1.04900e-07 -3.97983e-14
  389 98.2102 -1.04898e-07 3.01144e-13
  390 98.2102 -1.04897e-07 4.41735e-13
  391 98.2102 -1.04897e-07 -1.34984e-13
  392 98.2102 -1.04897e-07 -2.61987e-13
  393 98.2102 -1.04897e-07 8.92646e-14
  394 98.2102 -1.04900e-07 -1.68024e-13
  395 98.2102 -1.04899e-07 2.91976e-13
  396 98.2102 -1.04897e-07 -4.62787e-14
  397 98.2102 -1.04897e-07 -2.07016e-13
  398 98.2102 -1.04897e-07 1.24515e-13
  399 98.2102 -1.04900e-07 5.33992e-14
  400 98.2102 -1.04899e-07 -1.38662e-13
  401 98.2102 -1.04900e-07 -1.97207e-14
  402 98.2102 -1.04900e-07 -7.93507e-15
  403 98.2102 -1.04897e-07 4.93048e-14
  404 98.2102 -1.04899e-07 -2.60312e-13
  405 98.2102 -1.04899e-07 2.89375e-14
  406 98.2102 -1.04899e-07 4.25669e-14
  407 98.2102 -1.04900e-07 -2.09789e-14
  408 98.2102 -1.04900e-07 4.16577e-14
  409 98.2102 -1.04899e-07 3.55880e-13
  410 98.2102 -1.04897e-07 -1.04520e-13
  411 98.2102 -1.04900e-07 -3.68304e-14
  412 98.2102 -1.04898e-07 6.35758e-14
  413 98.2102 -1.04898e-07 -7.26347e-14
  414 98.2102 -1.04900e-07 9.01747e-15
  415 98.2102 -1.04900e-07 9.70328e-14
  416 98.2102 -1.04897e-07 5.80733e-14
  417 98.2102 -1.04900e-07 3.18274e-14
  418 98.2102 -1.04899e-07 -1.28435e-13
  419 98.2102 -1.04898e-07 -4.30543e-14
  420 98.2102 -1.04897e-07 9.68231e-14
  421 98.2102 -1.04897e-07 -1.66702e-13
  422 98.2102 -1.04899e-07 2.20894e-14
  423 98.2102 -1.04899e-07 3.27535e-14
  424 98.2102 -1.04900e-07 1.44848e-14
  425 98.2102 -1.04897e-07 -1.71162e-13
  426 98.2102 -1.04897e-07 -7.56712e-14
  427 98.2102 -1.04897e-07 1.41644e-13
  428 98.2102 -1.04900e-07 4.30456e-16
  429 98.2102 -1.04900e-07 3.97622e-14
  430 98.2102 -1.04897e-07 -3.26029e-13
  431 98.2102 -1.04900e-07 -1.80736e-14
  432 98.2102 -1.04899e-07 1.45522e-14
  433 98.2102 -1.04899e-07 3.49759e-13
  434 98.2102 -1.04898e-07 1.38572e-13
  435 98.2102 -1.04900e-07 4.37815e-14
  436 98.2102 -1.04897e-07 4.20432e-13
  437 98.2102 -1.04897e-07 -2.34040e-13
  438 98.2102 -1.04900e-07 -6.71291e-14
  439 98.2102 -1.04899e-07 -4.45606e-14
  440 98.2102 -1.04899e-07 9.61743e-14
  441 98.2102 -1.04897e-07 -2.07431e-14
  442 98.2102 -1.04900e-07 -1.35795e-13
  443 98.2102 -1.04897e-07 -5.68140e-14
  444 98.2102 -1.04900e-07 -1.43529e-14
  445 98.2102 -1.04900e-07 2.05176e-14
  446 98.2102 -1.04897e-07 -2.19886e-13
  447 98.2102 -1.04897e-07 6.91181e-15
  448 98.2102 -1.04898e-07 -4.81216e-14
  449 98.2102 -1.04897e-07 5.55437e-14
  450 98.2102 -1.04899e-07 8.53269e-14
  451 98.2102 -1.04897e-07 -1.71531e-13
  452 98.2102 -1.04899e-07 -1.98269e-13
  453 98.2102 -1.04898e-07 -4.46287e-14
  454 98.2102 -1.04897e-07 2.19008e-13
  455 98.2102 -1.04900e-07 8.30656e-15
  456 98.2102 -1.04900e-07 5.98487e-15
  457 98.2102 -1.04897e-07 -1.41271e-13
  458 98.2102 -1.04899e-07 -6.28287e-14
  459 98.2102 -1.04900e-07 3.85408e-14
  460 98.2102 -1.04897e-07 1.99571e-14
  461 98.2102 -1.04897e-07 -7.99033e-14
  462 98.2102 -1.04898e-07 -5.75627e-14
  463 98.2102 -1.04897e-07 -1.33060e-13
  464 98.2102 -1.04898e-07 -2.49018e-14
  465 98.2102 -1.04900e-07 6.61329e-14
  466 98.2102 -1.04899e-07 -6.59800e-14
  467 98.2102 -1.04900e-07 -6.40894e-14
  468 98.2102 -1.04897e-07 2.90452e-15
  469 98.2102 -1.04897e-07 2.32211e-13
  470 98.2102 -1.04898e-07 1.65337e-13
  471 98.2102 -1.04900e-07 1.11202e-14
  472 98.2102 -1.04900e-07 -3.88398e-14
  473 98.2102 -1.04897e-07 -1.71807e-13
  474 98.2102 -1.04900e-07 -6.55215e-15
  475 98.2102 -1.04899e-07 3.55461e-14
  476 98.2102 -1.04898e-07 5.37098e-14
  477 98.2102 -1.04897e-07 2.19914e-13
  478 98.2102 -1.04897e-07 4.51097e-14
  479 98.2102 -1.04897e-07 5.72877e-14
  480 98.2102 -1.04898e-07 -1.74313e-13
  481 98.2102 -1.04898e-07 2.99346e-13
  482 98.2102 -1.04898e-07 9.88590e-14
  483 98.2102 -1.04899e-07 -1.18861e-13
  484 98.2102 -1.04900e-07 -4.05176e-14
  485 98.2102 -1.04900e-07 8.67791e-14
  486 98.2102 -1.04899e-07 -1.69611e-13
  487 98.2102 -1.04897e-07 1.39834e-13
  488 98.2102 -1.04897e-07 -2.04622e-14
  489 98.2102 -1.04897e-07 1.58049e-13
  490 98.2102 -1.04897e-07 4.61232e-14
  491 98.2102 -1.04899e-07 1.05495e-13
  492 98.2102 -1.04900e-07 7.30511e-15
  493 98.2102 -1.04900e-07 -1.31370e-14
  494 98.2102 -1.04900e-07 -2.46509e-14
  495 98.2102 -1.04897e-07 -3.21287e-14
  496 98.2102 -1.04899e-07 -4.87142e-14
  497 98.2102 -1.04897e-07 -7.31838e-14
  498 98.2102 -1.04900e-07 -2.47444e-14
  499 98.2102 -1.04897e-07 7.49925e-14
  500 98.2102 -1.04897e-07 6.57312e-14
  501 98.2102 -1.04897e-07 -5.13292e-13
  502 98.2102 -1.04898e-07 1.31627e-13
  503 98.2102 -1.04899e-07 -2.12231e-13
  504 98.2102 -1.04900e-07 -4.25357e-14
  505 98.2102 -1.04900e-07 6.08250e-15
  506 98.2102 -1.04897e-07 -2.45595e-14
  507 98.2102 -1.04899e-07 9.43515e-15
  508 98.2102 -1.04897e-07 -3.72768e-14
  509 98.2102 -1.04897e-07 -2.56841e-13
  510 98.2102 -1.04897e-07 -4.79629e-15
  511 98.2102 -1.04897e-07 1.88656e-13
  512 98.2102 -1.04898e-07 -7.26599e-14
  513 98.2102 -1.04897e-07 9.14790e-14
  514 98.2102 -1.04897e-07 -2.42994e-13
  515 98.2102 -1.04899e-07 4.04606e-14
  516 98.2102 -1.04897e-07 7.73060e-14
  517 98.2102 -1.04898e-07 3.07427e-13
  518 98.2102 -1.04900e-07 -2.18810e-15
  519 98.2102 -1.04898e-07 2.86057e-14
  520 98.2102 -1.04897e-07 1.01841e-13
  521 98.2102 -1.04898e-07 -1.46532e-13
  522 98.2102 -1.04897e-07 1.39785e-13
  523 98.2102 -1.04897e-07 2.55131e-13
  524 98.2102 -1.04900e-07 -1.11161e-14
  525 98.2102 -1.04897e-07 -1.83250e-14
  526 98.2102 -1.04898e-07 1.31929e-13
  527 98.2102 -1.04898e-07 2.04677e-14
  528 98.2102 -1.04897e-07 -2.28228e-15
  529 98.2102 -1.04900e-07 -1.24457e-13
  530 98.2102 -1.04898e-07 -6.59427e-15
  531 98.2102 -1.04897e-07 7.43762e-14
  532 98.2102 -1.04900e-07 2.15521e-14
  533 98.2102 -1.04898e-07 3.71426e-13
  534 98.2102 -1.04898e-07 1.66688e-13
  535 98.2102 -1.04898e-07 2.53711e-13
  536 98.2102 -1.04897e-07 -1.02903e-13
  537 98.2102 -1.04897e-07 1.75339e-13
  538 98.2102 -1.04900e-07 -2.81946e-14
  539 98.2102 -1.04897e-07 -1.64259e-13
  540 98.2102 -1.04900e-07 -1.63364e-14
  541 98.2102 -1.04899e-07 -2.69975e-13
  542 98.2102 -1.04897e-07 1.08471e-13
  543 98.2102 -1.04898e-07 -8.43918e-14
  544 98.2102 -1.04897e-07 -1.46381e-13
  545 98.2102 -1.04899e-07 -1.44322e-13
  546 98.2102 -1.04900e-07 2.28829e-14
  547 98.2102 -1.04899e-07 -1.49008e-13
  548 98.2102 -1.04898e-07 8.60421e-14
  549 98.2102 -1.04898e-07 -2.00854e-14
  550 98.2102 -1.04897e-07 -2.98271e-13
  551 98.2102 -1.04897e-07 -2.56794e-13
  552 98.2102 -1.04899e-07 1.80790e-13
  553 98.2102 -1.04899e-07 -3.90631e-14
  554 98.2102 -1.04898e-07 1.88001e-14
  555 98.2102 -1.04900e-07 4.75679e-14
  556 98.2102 -1.04898e-07 -1.12658e-13
  557 98.2102 -1.04898e-07 -1.38517e-13
  558 98.2102 -1.04897e-07 -1.99918e-13
  559 98.2102 -1.04900e-07 -1.89347e-14
  560 98.2102 -1.04897e-07 7.35080e-14
  561 98.2102 -1.04899e-07 9.18839e-14
  562 98.2102 -1.04897e-07 -1.60166e-13
  563 98.2102 -1.04898e-07 -1.18556e-13
  564 98.2102 -1.04900e-07 -6.66689e-14
  565 98.2102 -1.04897e-07 3.73690e-13
  566 98.2102 -1.04897e-07 1.05362e-13
  567 98.2102 -1.04900e-07 -1.27105e-14
  568 98.2102 -1.04900e-07 8.38621e-15
  569 98.2102 -1.04897e-07 7.83474e-14
  570 98.2102 -1.04898e-07 3.00295e-13
  571 98.2102 -1.04900e-07 -3.42521e-14
  572 98.2102 -1.04900e-07 2.42984e-14
  573 98.2102 -1.04897e-07 -1.20898e-14
  574 98.2102 -1.04897e-07 3.34578e-13
  575 98.2102 -1.04900e-07 2.79828e-15
  576 98.2102 -1.04897e-07 2.79379e-13
  577 98.2102 -1.04898e-07 -1.87429e-13
  578 98.2102 -1.04897e-07 -2.93515e-13
  579 98.2102 -1.04897e-07 -2.57786e-14
  580 98.2102 -1.04897e-07 2.26971e-13
  581 98.2102 -1.04897e-07 -2.10757e-13
  582 98.2102 -1.04899e-07 -2.01478e-13
  583 98.2102 -1.04897e-07 -5.91477e-14
  584 98.2102 -1.04897e-07 -3.65298e-13
  585 98.2102 -1.04899e-07 2.64372e-14
  586 98.2102 -1.04897e-07 -1.14926e-13
  587 98.2102 -1.04900e-07 6.40348e-14
  588 98.2102 -1.04897e-07 2.23326e-13
  589 98.2102 -1.04899e-07 -6.60286e-14
  590 98.2102 -1.04898e-07 3.77940e-13
  591 98.2102 -1.04900e-07 4.11182e-14
  592 98.2102 -1.04897e-07 -1.81214e-13
  593 98.2102 -1.04899e-07 1.29347e-13
  594 98.2102 -1.04899e-07 5.86588e-14
  595 98.2102 -1.04900e-07 -3.63586e-14
  596 98.2102 -1.04900e-07 8.14306e-15
  597 98.2102 -1.04898e-07 1.91206e-14
  598 98.2102 -1.04900e-07 -3.49892e-14
  599 98.2102 -1.04899e-07 -4.14107e-14
  600 98.2102 -1.04900e-07 -4.26846e-14
  601 98.2102 -1.04899e-07 6.30238e-14
  602 98.2102 -1.04898e-07 6.85838e-14
  603 98.2102 -1.04897e-07 -1.65253e-13
  604 98.2102 -1.04897e-07 -3.12421e-13
  605 98.2102 -1.04898e-07 -2.34740e-13
  606 98.2102 -1.04900e-07 -7.10526e-15
  607 98.2102 -1.04897e-07 -1.33456e-13
  608 98.2102 -1.04897e-07 5.51018e-14
  609 98.2102 -1.04897e-07 -5.16099e-14
  610 98.2102 -1.04897e-07 1.00083e-13
  611 98.2102 -1.04897e-07 8.44029e-14
  612 98.2102 -1.04897e-07 1.14560e-13
  613 98.2102 -1.04900e-07 -6.98167e-14
  614 98.2102 -1.04900e-07 3.87963e-14
  615 98.2102 -1.04897e-07 1.26258e-13
  616 98.2102 -1.04898e-07 2.44910e-13
  617 98.2102 -1.04897e-07 -3.30786e-13
  618 98.2102 -1.04897e-07 -4.50739e-14
  619 98.2102 -1.04900e-07 7.22546e-14
  620 98.2102 -1.04897e-07 3.18029e-13
  621 98.2102 -1.04898e-07 9.94456e-14
  622 98.2102 -1.04899e-07 3.09229e-14
  623 98.2102 -1.04897e-07 -2.20600e-13
  624 98.2102 -1.04898e-07 3.42715e-13
  625 98.2102 -1.04897e-07 -1.24141e-13
  626 98.2102 -1.04900e-07 4.23557e-14
  627 98.2102 -1.04897e-07 1.25197e-13
  628 98.2102 -1.04898e-07 7.75390e-14
  629 98.2102 -1.04897e-07 3.33450e-14
  630 98.2102 -1.04900e-07 -6.75625e-15
  631 98.2102 -1.04898e-07 1.07824e-13
  632 98.2102 -1.04898e-07 2.07854e-13
  633 98.2102 -1.04897e-07 3.84133e-13
  634 98.2102 -1.04900e-07 -2.41987e-13
  635 98.2102 -1.04899e-07 7.40132e-15
  636 98.2102 -1.04898e-07 -1.06714e-14
  637 98.2102 -1.04899e-07 1.02181e-14
  638 98.2102 -1.04897e-07 -9.48236e-14
  639 98.2102 -1.04900e-07 3.24571e-14
  640 98.2102 -1.04900e-07 3.83361e-14
  641 98.2102 -1.04897e-07 -1.58606e-13
  642 98.2102 -1.04899e-07 3.35847e-13
  643 98.2102 -1.04897e-07 -1.35877e-14
  644 98.2102 -1.04900e-07 4.34093e-14
  645 98.2102 -1.04897e-07 8.55367e-14
  646 98.2102 -1.04898e-07 3.52979e-14
  647 98.2102 -1.04897e-07 -3.48661e-13
  648 98.2102 -1.04900e-07 -1.91152e-14
  649 98.2102 -1.04900e-07 -6.38700e-14
  650 98.2102 -1.04897e-07 -2.99993e-14
  651 98.2102 -1.04899e-07 -1.76320e-13
  652 98.2102 -1.04899e-07 5.99066e-14
  653 98.2102 -1.04900e-07 3.37935e-14
  654 98.2102 -1.04897e-07 -2.20280e-14
  655 98.2102 -1.04899e-07 -4.82264e-13
  656 98.2102 -1.04900e-07 -4.39302e-14
  657 98.2102 -1.04900e-07 -1.67120e-14
  658 98.2102 -1.04900e-07 7.48267e-15
  659 98.2102 -1.04900e-07 -4.76407e-15
  660 98.2102 -1.04898e-07 1.03221e-13
  661 98.2102 -1.04897e-07 -1.88717e-13
  662 98.2102 -1.04898e-07 -1.38107e-13
  663 98.2102 -1.04898e-07 3.17990e-13
  664 98.2102 -1.04897e-07 -1.20783e-13
  665 98.2102 -1.04898e-07 3.25877e-13
  666 98.2102 -1.04898e-07 4.51979e-15
  667 98.2102 -1.04897e-07 9.37492e-14
  668 98.2102 -1.04899e-07 -2.02335e-14
  669 98.2102 -1.04897e-07 5.54421e-14
  670 98.2102 -1.04900e-07 9.48260e-15
  671 98.2102 -1.04900e-07 5.42711e-14
  672 98.2102 -1.04900e-07 -8.99343e-14
  673 98.2102 -1.04899e-07 -8.21603e-14
  674 98.2102 -1.04898e-07 -6.72182e-14
  675 98.2102 -1.04900e-07 2.37948e-14
  676 98.2102 -1.04899e-07 6.62195e-15
  677 98.2102 -1.04899e-07 1.84650e-14
  678 98.2102 -1.04900e-07 1.31002e-14
  679 98.2102 -1.04899e-07 -3.11547e-13
  680 98.2102 -1.04898e-07 9.70884e-14
  681 98.2102 -1.04897e-07 -1.86667e-14
  682 98.2102 -1.04897e-07 4.29577e-14
  683 98.2102 -1.04897e-07 -6.71224e-14
  684 98.2102 -1.04897e-07 5.62753e-14
  685 98.2102 -1.04897e-07 -4.14420e-14
  686 98.2102 -1.04898e-07 1.06339e-13
  687 98.2102 -1.04900e-07 -1.37218e-14
  688 98.2102 -1.04897e-07 -1.72209e-13
  689 98.2102 -1.04897e-07 -2.69408e-15
  690 98.2102 -1.04897e-07 1.10030e-15
  691 98.2102 -1.04897e-07 -1.41425e-13
  692 98.2102 -1.04900e-07 4.03875e-14
  693 98.2102 -1.04898e-07 9.75595e-14
  694 98.2102 -1.04898e-07 -4.17229e-14
  695 98.2102 -1.04898e-07 2.34549e-14
  696 98.2102 -1.04899e-07 2.39679e-14
  697 98.2102 -1.04900e-07 9.04996e-15
  698 98.2102 -1.04897e-07 2.17400e-13
  699 98.2102 -1.04897e-07 -6.82743e-14
  700 98.2102 -1.04897e-07 -1.28812e-13
  701 98.2102 -1.04897e-07 -8.76157e-14
  702 98.2102 -1.04899e-07 1.48794e-13
  703 98.2102 -1.04900e-07 -5.10626e-14
  704 98.2102 -1.04900e-07 -9.64559e-15
  705 98.2102 -1.04900e-07 3.49710e-14
  706 98.2102 -1.04898e-07 -6.14561e-15
  707 98.2102 -1.04899e-07 1.13523e-13
  708 98.2102 -1.04900e-07 2.80810e-14
  709 98.2102 -1.04899e-07 1.89505e-14
  710 98.2102 -1.04900e-07 3.86975e-15
  711 98.2102 -1.04900e-07 -6.01623e-14
  712 98.2102 -1.04897e-07 8.46796e-14
  713 98.2102 -1.04898e-07 -8.50013e-14
  714 98.2102 -1.04899e-07 -4.64223e-14
  715 98.2102 -1.04897e-07 -1.42700e-13
  716 98.2102 -1.04900e-07 -6.56058e-14
  717 98.2102 -1.04897e-07 -3.34764e-13
  718 98.2102 -1.04899e-07 -1.07291e-13
  719 98.2102 -1.04900e-07 -3.76542e-14
  720 98.2102 -1.04898e-07 1.12831e-13
  721 98.2102 -1.04898e-07 1.16718e-13
  722 98.2102 -1.04900e-07 1.12968e-14
  723 98.2102 -1.04897e-07 -9.65662e-14
  724 98.2102 -1.04899e-07 1.68337e-13
  725 98.2102 -1.04898e-07 -2.79396e-13
  726 98.2102 -1.04898e-07 -2.65416e-13
  727 98.2102 -1.04900e-07 9.45925e-15
  728 98.2102 -1.04900e-07 5.75606e-14
  729 98.2102 -1.04897e-07 1.44850e-13
  730 98.2102 -1.04897e-07 2.43980e-13
  731 98.2102 -1.04900e-07 -1.11043e-13
  732 98.2102 -1.04900e-07 -4.81817e-14
  733 98.2102 -1.04897e-07 2.78943e-13
  734 98.2102 -1.04899e-07 -1.21449e-13
  735 98.2102 -1.04899e-07 -6.66802e-15
  736 98.2102 -1.04897e-07 -8.38627e-14
  737 98.2102 -1.04897e-07 -5.56402e-14
  738 98.2102 -1.04900e-07 -3.35751e-14
  739 98.2102 -1.04899e-07 -2.70333e-13
  740 98.2102 -1.04897e-07 -4.97555e-13
  741 98.2102 -1.04897e-07 -2.20081e-13
  742 98.2102 -1.04897e-07 1.46416e-15
  743 98.2102 -1.04900e-07 7.37133e-14
  744 98.2102 -1.04898e-07 8.70209e-14
  745 98.2102 -1.04898e-07 2.67471e-13
  746 98.2102 -1.04897e-07 -2.15533e-13
  747 98.2102 -1.04898e-07 -4.38703e-13
  748 98.2102 -1.04899e-07 -5.08488e-14
  749 98.2102 -1.04900e-07 -1.12255e-14
  750 98.2102 -1.04900e-07 -1.56962e-14
  751 98.2102 -1.04898e-07 4.13132e-14
  752 98.2102 -1.04899e-07 -1.49856e-13
  753 98.2102 -1.04898e-07 2.11922e-13
  754 98.2102 -1.04897e-07 9.15965e-14
  755 98.2102 -1.04900e-07 -1.01865e-14
  756 98.2102 -1.04899e-07 3.82056e-13
  757 98.2102 -1.04897e-07 -1.28867e-13
  758 98.2102 -1.04900e-07 -3.31087e-15
  759 98.2102 -1.04900e-07 -2.67851e-14
  760 98.2102 -1.04899e-07 -1.10070e-15
  761 98.2102 -1.04898e-07 1.40738e-14
  762 98.2102 -1.04900e-07 2.81941e-14
  763 98.2102 -1.04898e-07 -6.00510e-14
  764 98.2102 -1.04900e-07 4.38251e-13
  765 98.2102 -1.04897e-07 -6.16597e-14
  766 98.2102 -1.04898e-07 -2.00705e-13
  767 98.2102 -1.04897e-07 3.54908e-13
  768 98.2102 -1.04900e-07 -1.24215e-14
  769 98.2102 -1.04899e-07 1.35951e-13
  770 98.2102 -1.04900e-07 -1.11666e-13
  771 98.2102 -1.04900e-07 -6.77751e-15
  772 98.2102 -1.04897e-07 9.57887e-14
  773 98.2102 -1.04900e-07 9.16549e-14
  774 98.2102 -1.04898e-07 -2.21811e-13
  775 98.2102 -1.04900e-07 -1.01751e-13
  776 98.2102 -1.04897e-07 1.62688e-13
  777 98.2102 -1.04898e-07 1.52381e-14
  778 98.2102 -1.04899e-07 -1.60203e-13
  779 98.2102 -1.04897e-07 -2.49450e-13
  780 98.2102 -1.04897e-07 1.82071e-13
  781 98.2102 -1.04897e-07 4.94465e-14
  782 98.2102 -1.04900e-07 7.99448e-14
  783 98.2102 -1.04897e-07 -2.12864e-13
  784 98.2102 -1.04899e-07 -1.09639e-13
  785 98.2102 -1.04897e-07 -5.03924e-14
  786 98.2102 -1.04897e-07 -2.49306e-13
  787 98.2102 -1.04898e-07 7.08007e-14
  788 98.2102 -1.04900e-07 -1.11719e-13
  789 98.2102 -1.04897e-07 -1.14244e-13
  790 98.2102 -1.04897e-07 4.95215e-13
  791 98.2102 -1.04897e-07 1.96070e-13
  792 98.2102 -1.04899e-07 -4.21742e-13
  793 98.2102 -1.04900e-07 1.84175e-14
  794 98.2102 -1.04900e-07 1.28694e-14
  795 98.2102 -1.04900e-07 -1.44272e-14
  796 98.2102 -1.04900e-07 -1.56355e-13
  797 98.2102 -1.04897e-07 -5.65968e-14
  798 98.2102 -1.04900e-07 1.07468e-13
  799 98.2102 -1.04899e-07 6.28656e-14
  800 98.2102 -1.04900e-07 -2.62271e-15
  801 98.2102 -1.04897e-07 -2.31032e-13
  802 98.2102 -1.04899e-07 -1.02256e-13
  803 98.2102 -1.04900e-07 -3.52891e-14
  804 98.2102 -1.04899e-07 -8.57432e-14
  805 98.2102 -1.04899e-07 -7.45286e-14
  806 98.2102 -1.04897e-07 -3.18369e-14
  807 98.2102 -1.04898e-07 1.16445e-13
  808 98.2102 -1.04899e-07 1.26768e-13
  809 98.2102 -1.04899e-07 1.47607e-14
  810 98.2102 -1.04897e-07 5.28047e-14
  811 98.2102 -1.04897e-07 -2.77027e-13
  812 98.2102 -1.04899e-07 -8.67383e-14
  813 98.2102 -1.04900e-07 -7.60624e-14
  814 98.2102 -1.04898e-07 -9.02245e-14
  815 98.2102 -1.04900e-07 -2.30122e-14
  816 98.2102 -1.04900e-07 -8.05342e-15
  817 98.2102 -1.04899e-07 -7.56467e-14
  818 98.2102 -1.04900e-07 5.25903e-14
  819 98.2102 -1.04900e-07 -8.81154e-14
  820 98.2102 -1.04899e-07 2.24911e-13
  821 98.2102 -1.04900e-07 -2.19188e-14
  822 98.2102 -1.04898e-07 2.76192e-13
  823 98.2102 -1.04899e-07 -1.63297e-13
  824 98.2102 -1.04897e-07 -1.12670e-13
  825 98.2102 -1.04897e-07 -1.13264e-14
  826 98.2102 -1.04897e-07 2.50548e-14
  827 98.2102 -1.04897e-07 4.57810e-13
  828 98.2102 -1.04897e-07 -7.15644e-14
  829 98.2102 -1.04897e-07 1.92346e-13
  830 98.2102 -1.04900e-07 -7.65982e-14
  831 98.2102 -1.04897e-07 -8.58604e-14
  832 98.2102 -1.04899e-07 -5.67654e-14
  833 98.2102 -1.04900e-07 -4.76328e-15
  834 98.2102 -1.04899e-07 2.49272e-13
  835 98.2102 -1.04897e-07 -8.39407e-14
  836 98.2102 -1.04897e-07 2.63339e-13
  837 98.2102 -1.04899e-07 7.23855e-14
  838 98.2102 -1.04900e-07 3.50968e-14
  839 98.2102 -1.04897e-07 -4.78692e-13
  840 98.2102 -1.04900e-07 -4.79114e-14
  841 98.2102 -1.04899e-07 1.03685e-13
  842 98.2102 -1.04897e-07 2.28484e-13
  843 98.2102 -1.04899e-07 7.56965e-14
  844 98.2102 -1.04898e-07 -2.41752e-13
  845 98.2102 -1.04900e-07 -2.48947e-14
  846 98.2102 -1.04900e-07 4.74860e-14
  847 98.2102 -1.04897e-07 2.22300e-14
  848 98.2102 -1.04900e-07 -6.38773e-14
  849 98.2102 -1.04897e-07 -4.17479e-13
  850 98.2102 -1.04899e-07 -4.13461e-13
  851 98.2102 -1.04899e-07 -1.56664e-13
  852 98.2102 -1.04898e-07 4.94454e-14
  853 98.2102 -1.04897e-07 5.16816e-13
  854 98.2102 -1.04897e-07 5.48299e-14
  855 98.2102 -1.04897e-07 -3.37026e-13
  856 98.2102 -1.04899e-07 4.61388e-14
  857 98.2102 -1.04897e-07 6.11666e-14
  858 98.2102 -1.04897e-07 6.00560e-14
  859 98.2102 -1.04899e-07 -2.05282e-13
  860 98.2102 -1.04899e-07 2.18763e-13
  861 98.2102 -1.04900e-07 -3.68089e-14
  862 98.2102 -1.04899e-07 6.47978e-15
  863 98.2102 -1.04899e-07 1.83630e-14
  864 98.2102 -1.04900e-07 1.45834e-14
  865 98.2102 -1.04898e-07 7.79874e-14
  866 98.2102 -1.04900e-07 5.07296e-14
  867 98.2102 -1.04899e-07 1.83981e-13
  868 98.2102 -1.04897e-07 3.05721e-13
  869 98.2102 -1.04900e-07 5.37663e-14
  870 98.2102 -1.04897e-07 -3.58571e-13
  871 98.2102 -1.04900e-07 1.43707e-15
  872 98.2102 -1.04898e-07 2.46195e-13
  873 98.2102 -1.04897e-07 1.03722e-13
  874 98.2102 -1.04897e-07 -2.10539e-13
  875 98.2102 -1.04898e-07 -1.26959e-13
  876 98.2102 -1.04897e-07 -1.21650e-13
  877 98.2102 -1.04898e-07 7.84407e-14
  878 98.2102 -1.04900e-07 -5.06700e-14
  879 98.2102 -1.04900e-07 -5.34205e-14
  880 98.2102 -1.04900e-07 5.61731e-14
  881 98.2102 -1.04900e-07 -1.59048e-14
  882 98.2102 -1.04897e-07 8.55776e-15
  883 98.2102 -1.04899e-07 3.90497e-13
  884 98.2102 -1.04897e-07 -2.68051e-13
  885 98.2102 -1.04897e-07 -4.49278e-14
  886 98.2102 -1.04899e-07 8.35567e-14
  887 98.2102 -1.04898e-07 2.06006e-14
  888 98.2102 -1.04897e-07 -1.84288e-13
  889 98.2102 -1.04900e-07 4.76394e-14
  890 98.2102 -1.04897e-07 -3.93021e-14
  891 98.2102 -1.04900e-07 6.62762e-14
  892 98.2102 -1.04897e-07 2.14022e-13
  893 98.2102 -1.04900e-07 -5.69379e-14
  894 98.2102 -1.04898e-07 5.40077e-14
  895 98.2102 -1.04898e-07 1.23513e-13
  896 98.2102 -1.04899e-07 1.15853e-13
  897 98.2102 -1.04897e-07 -1.33628e-14
  898 98.2102 -1.04899e-07 -8.36799e-14
  899 98.2102 -1.04900e-07 -1.46807e-14
  900 98.2102 -1.04897e-07 5.22108e-14
  901 98.2102 -1.04899e-07 7.75450e-14
  902 98.2102 -1.04897e-07 -8.71381e-14
  903 98.2102 -1.04897e-07 1.97194e-13
</Section>

