newXOutput 1

<Section columns = "stress_xx | stress_yy | stress_zz | stress_xy | stress_yz | stress_xz">
  1 0.00000 0.00000 0.00000 0.00000 0.00000 0.00000
  2 0.00000 0.00000 0.00000 0.00000 0.00000 0.00000
  3 0.00000 0.00000 0.00000 0.00000 0.00000 0.00000
  4 0.00000 0.00000 0.00000 0.00000 0.00000 0.00000
  5 0.00000 0.00000 0.00000 0.00000 0.00000 0.00000
  6 0.00000 0.00000 0.00000 0.00000 0.00000 0.00000
  7 0.00000 0.00000 0.00000 0.00000 0.00000 0.00000
  8 0.00000 0.00000 0.00000 0.00000 0.00000 0.00000
</Section>

newXOutput 2

<Section columns = "stress_xx | stress_yy | stress_zz | stress_xy | stress_yz | stress_xz">
  1 98.2102 -1.04897e-07 18.9948 5.83051e-16 -6.53462e-16 4.52698e-16
  2 98.2102 -1.04897e-07 18.9948 5.60936e-16 -7.63524e-16 1.68949e-15
  3 98.2102 -1.04897e-07 18.9948 1.01259e-15 -1.04004e-15 -2.98896e-16
  4 98.2102 -1.04897e-07 18.9948 9.30050e-16 -1.26677e-15 -1.11549e-15
  5 98.2102 -1.04897e-07 18.9948 5.17374e-16 -6.10285e-16 5.41496e-16
  6 98.2102 -1.04897e-07 18.9948 4.34838e-16 -6.02383e-16 2.02089e-15
  7 98.2102 -1.04897e-07 18.9948 1.19027e-15 -9.51090e-16 3.25023e-17
  8 98.2102 -1.04897e-07 18.9948 8.82242e-16 -9.34812e-16 1.21300e-16
</Section>

newXOutput 3

<Section columns = "stress_xx | stress_yy | stress_zz | stress_xy | stress_yz | stress_xz">
  1 194.770 -1.03318e-07 37.8846 -4.24468e-16 -6.34835e-16 8.98782e-16
  2 194.770 -1.03318e-07 37.8846 -4.24468e-16 -1.18721e-15 3.35430e-15
  3 194.770 -1.03318e-07 37.8846 -8.65928e-16 -6.87622e-16 -5.93424e-16
  4 194.770 -1.03318e-07 37.8846 -8.65928e-16 -1.38421e-15 -2.21469e-15
  5 194.770 -1.03318e-07 37.8846 -8.65928e-16 -6.34835e-16 1.07508e-15
  6 194.770 -1.03318e-07 37.8846 -8.65928e-16 -1.18721e-15 4.01225e-15
  7 194.770 -1.03318e-07 37.8846 -1.34273e-15 -6.87622e-16 6.45296e-17
  8 194.770 -1.03318e-07 37.8846 -1.34273e-15 -1.38421e-15 2.40828e-16
</Section>

newXOutput 4

<Section columns = "stress_xx | stress_yy | stress_zz | stress_xy | stress_yz | stress_xz">
  1 289.714 -1.01765e-07 56.6705 3.16691e-17 1.97465e-16 -6.93781e-16
  2 289.714 -1.01765e-07 56.6705 1.18191e-16 -2.27613e-16 -2.58922e-15
  3 289.714 -1.01765e-07 56.6705 1.18191e-16 6.64926e-16 -6.29720e-16
  4 289.714 -1.01765e-07 56.6705 4.41094e-16 4.94516e-16 -2.35015e-15
  5 289.714 -1.01765e-07 56.6705 1.18191e-16 3.69768e-16 -1.04381e-15
  6 289.714 -1.01765e-07 56.6705 4.41094e-16 4.15429e-16 -3.89556e-15
  7 289.714 -1.01765e-07 56.6705 4.41094e-16 1.01987e-15 -1.93606e-15
  8 289.714 -1.01765e-07 56.6705 1.64619e-15 1.81920e-15 -7.22546e-15
</Section>

newXOutput 5

<Section columns = "stress_xx | stress_yy | stress_zz | stress_xy | stress_yz | stress_xz">
  1 383.077 -1.00246e-07 75.3535 4.51534e-34 -5.68855e-16 1.77156e-15
  2 383.077 -1.00246e-07 75.3535 1.68515e-33 -2.29528e-16 6.61157e-15
  3 383.077 -1.00246e-07 75.3535 8.37503e-34 -2.29528e-16 -1.16968e-15
  4 383.077 -1.00246e-07 75.3535 3.12560e-33 1.37728e-15 -4.36531e-15
  5 383.077 -1.00246e-07 75.3535 3.00117e-34 -6.57887e-16 2.11906e-15
  6 383.077 -1.00246e-07 75.3535 1.12005e-33 -5.61800e-16 7.90844e-15
  7 383.077 -1.00246e-07 75.3535 2.72406e-34 -5.61800e-16 1.27193e-16
  8 383.077 -1.00246e-07 75.3535 1.01663e-33 1.37222e-16 4.74689e-16
</Section>

newXOutput 6

<Section columns = "stress_xx | stress_yy | stress_zz | stress_xy | stress_yz | stress_xz">
  1 474.893 -9.87584e-08 93.9348 -9.48986e-16 -1.36444e-15 1.88506e-15
  2 474.893 -9.87584e-08 93.9348 -9.48986e-16 -3.10086e-15 7.03516e-15
  3 474.893 -9.87584e-08 93.9348 -1.70980e-15 -3.31127e-15 -6.89981e-16
  4 474.893 -9.87584e-08 93.9348 -1.70980e-15 -4.92621e-15 -2.57505e-15
  5 474.893 -9.87584e-08 93.9348 -1.70980e-15 -1.10957e-15 2.57505e-15
  6 474.893 -9.87584e-08 93.9348 -1.70980e-15 -2.14968e-15 9.61020e-15
  7 474.893 -9.87584e-08 93.9348 -2.60741e-15 -2.93492e-15 1.88506e-15
  8 474.893 -9.87584e-08 93.9348 -2.60741e-15 -3.52167e-15 7.03516e-15
</Section>

newXOutput 7

<Section columns = "stress_xx | stress_yy | stress_zz | stress_xy | stress_yz | stress_xz">
  1 565.195 -9.72996e-08 112.415 -1.03643e-33 -3.94361e-15 -1.18650e-15
  2 565.195 -9.72996e-08 112.415 -3.86802e-33 -3.11705e-15 -4.42808e-15
  3 565.195 -9.72996e-08 112.415 -3.86802e-33 -9.08394e-15 -4.42808e-15
  4 565.195 -9.72996e-08 112.415 -1.44357e-32 -6.67843e-15 -1.65258e-14
  5 565.195 -9.72996e-08 112.415 -1.03643e-33 -3.94361e-15 -1.18650e-15
  6 565.195 -9.72996e-08 112.415 -3.86802e-33 -3.11705e-15 -4.42808e-15
  7 565.195 -9.72996e-08 112.415 -3.86802e-33 -9.08394e-15 -4.42808e-15
  8 565.195 -9.72996e-08 112.415 -1.44357e-32 -6.67843e-15 -1.65258e-14
</Section>

newXOutput 8

<Section columns = "stress_xx | stress_yy | stress_zz | stress_xy | stress_yz | stress_xz">
  1 654.014 -9.58735e-08 130.796 -4.91145e-34 2.64567e-16 -1.42168e-15
  2 654.014 -9.58735e-08 130.796 -1.44464e-33 1.27137e-16 -8.85813e-15
  3 654.014 -9.58735e-08 130.796 -1.31602e-34 -8.27768e-17 -1.24331e-15
  4 654.014 -9.58735e-08 130.796 -3.87091e-34 2.90154e-15 -5.59193e-15
  5 654.014 -9.58735e-08 130.796 -2.13667e-34 2.52681e-16 -2.10181e-15
  6 654.014 -9.58735e-08 130.796 -4.09080e-34 8.27768e-17 -1.13964e-14
  7 654.014 -9.58735e-08 130.796 -5.72519e-35 -7.00632e-16 -3.78158e-15
  8 654.014 -9.58735e-08 130.796 -1.09613e-34 5.95675e-16 -1.50649e-14
</Section>

newXOutput 9

<Section columns = "stress_xx | stress_yy | stress_zz | stress_xy | stress_yz | stress_xz">
  1 741.381 -9.44747e-08 149.077 -3.31154e-15 -2.33265e-15 3.44266e-15
  2 741.381 -9.44747e-08 149.077 -3.14768e-15 -8.34702e-16 1.28482e-14
  3 741.381 -9.44747e-08 149.077 -8.01807e-15 -7.57020e-15 -2.27303e-15
  4 741.381 -9.44747e-08 149.077 -7.40653e-15 -2.08461e-15 -8.48307e-15
  5 741.381 -9.44747e-08 149.077 -1.59687e-15 -2.49801e-15 4.11795e-15
  6 741.381 -9.44747e-08 149.077 -9.85328e-16 -1.45184e-15 1.53684e-14
  7 741.381 -9.44747e-08 149.077 -1.61882e-15 -7.61451e-15 2.47172e-16
  8 741.381 -9.44747e-08 149.077 6.63485e-16 -2.24997e-15 9.22459e-16
</Section>

newXOutput 10

<Section columns = "stress_xx | stress_yy | stress_zz | stress_xy | stress_yz | stress_xz">
  1 827.326 -9.31013e-08 167.261 5.93364e-17 -5.36621e-15 -5.19314e-16
  2 827.326 -9.31013e-08 167.261 2.21447e-16 -3.64437e-15 -2.73132e-15
  3 827.326 -9.31013e-08 167.261 2.21447e-16 -1.15725e-14 -5.69161e-15
  4 827.326 -9.31013e-08 167.261 8.26450e-16 -4.46964e-15 -2.42017e-14
  5 827.326 -9.31013e-08 167.261 2.21447e-16 -5.54324e-15 1.44727e-15
  6 827.326 -9.31013e-08 167.261 8.26450e-16 -4.30505e-15 2.44098e-15
  7 827.326 -9.31013e-08 167.261 8.26450e-16 -1.22332e-14 1.64777e-15
  8 827.326 -9.31013e-08 167.261 3.08435e-15 -6.93532e-15 -4.89840e-15
</Section>

newXOutput 11

<Section columns = "stress_xx | stress_yy | stress_zz | stress_xy | stress_yz | stress_xz">
  1 911.880 -9.17571e-08 185.348 -1.73948e-15 -2.48928e-15 -3.06124e-15
  2 911.880 -9.17571e-08 185.348 -1.57909e-15 -3.48348e-15 -1.14247e-14
  3 911.880 -9.17571e-08 185.348 -3.02073e-15 -5.46323e-15 -3.97069e-15
  4 911.880 -9.17571e-08 185.348 -2.42216e-15 -5.11709e-15 -1.48188e-14
  5 911.880 -9.17571e-08 185.348 -3.02073e-15 -2.31245e-15 -2.39547e-15
  6 911.880 -9.17571e-08 185.348 -2.42216e-15 -2.82357e-15 -8.94003e-15
  7 911.880 -9.17571e-08 185.348 -4.12298e-15 -4.80332e-15 -1.48602e-15
  8 911.880 -9.17571e-08 185.348 -1.88912e-15 -2.65425e-15 -5.54591e-15
</Section>

newXOutput 12

<Section columns = "stress_xx | stress_yy | stress_zz | stress_xy | stress_yz | stress_xz">
  1 995.071 -9.04420e-08 203.339 -1.62044e-15 -1.05338e-15 -2.76374e-15
  2 995.071 -9.04420e-08 203.339 -1.93781e-15 -3.93127e-15 -1.72202e-14
  3 995.071 -9.04420e-08 203.339 -2.61326e-15 -1.95380e-15 -2.41698e-15
  4 995.071 -9.04420e-08 203.339 -3.79770e-15 -7.29169e-15 -1.08707e-14
  5 995.071 -9.04420e-08 203.339 -2.61326e-15 -7.00140e-16 -4.08590e-15
  6 995.071 -9.04420e-08 203.339 -3.79770e-15 -2.61296e-15 -2.21546e-14
  7 995.071 -9.04420e-08 203.339 -2.67808e-15 -6.35493e-16 -7.35139e-15
  8 995.071 -9.04420e-08 203.339 -7.09847e-15 -2.37169e-15 -2.92861e-14
</Section>

newXOutput 13

<Section columns = "stress_xx | stress_yy | stress_zz | stress_xy | stress_yz | stress_xz">
  1 1076.93 -8.91450e-08 221.235 -4.75914e-16 3.54532e-17 -2.90850e-15
  2 1076.93 -8.91450e-08 221.235 -4.75914e-16 -4.08270e-15 -9.79382e-15
  3 1076.93 -8.91450e-08 221.235 3.26210e-15 5.79327e-15 3.35255e-15
  4 1076.93 -8.91450e-08 221.235 3.26210e-15 -6.87773e-15 -7.28382e-15
  5 1076.93 -8.91450e-08 221.235 -3.76957e-15 3.54532e-17 -5.44637e-15
  6 1076.93 -8.91450e-08 221.235 -3.76957e-15 -4.08270e-15 -1.50219e-14
  7 1076.93 -8.91450e-08 221.235 -6.62862e-15 5.79327e-15 -6.11893e-15
  8 1076.93 -8.91450e-08 221.235 -6.62862e-15 -6.87773e-15 -2.67953e-14
</Section>

newXOutput 14

<Section columns = "stress_xx | stress_yy | stress_zz | stress_xy | stress_yz | stress_xz">
  1 1157.47 -8.78808e-08 239.036 -1.00669e-15 -1.14771e-15 -1.73103e-16
  2 1157.47 -8.78808e-08 239.036 -1.00669e-15 -2.31040e-15 -8.99802e-15
  3 1157.47 -8.78808e-08 239.036 -2.13408e-15 -2.72733e-15 -1.57119e-16
  4 1157.47 -8.78808e-08 239.036 -2.13408e-15 -2.81543e-15 -8.16718e-15
  5 1157.47 -8.78808e-08 239.036 -2.13408e-15 -1.17132e-15 -2.60438e-16
  6 1157.47 -8.78808e-08 239.036 -2.13408e-15 -2.39850e-15 -1.35378e-14
  7 1157.47 -8.78808e-08 239.036 -7.52965e-15 -3.95451e-15 -4.83059e-16
  8 1157.47 -8.78808e-08 239.036 -7.52965e-15 -7.39534e-15 -2.51098e-14
</Section>

newXOutput 15

<Section columns = "stress_xx | stress_yy | stress_zz | stress_xy | stress_yz | stress_xz">
  1 1236.74 -8.66376e-08 256.745 -3.33847e-33 -1.04686e-14 -2.10234e-15
  2 1236.74 -8.66376e-08 256.745 -5.00703e-33 -1.08293e-14 -1.08369e-15
  3 1236.74 -8.66376e-08 256.745 -1.45919e-32 -1.47706e-14 -8.33155e-15
  4 1236.74 -8.66376e-08 256.745 -5.24607e-32 -1.34246e-14 -2.92818e-14
  5 1236.74 -8.66376e-08 256.745 -3.33847e-33 -1.04686e-14 -2.10234e-15
  6 1236.74 -8.66376e-08 256.745 -5.00703e-33 -1.08293e-14 -1.08369e-15
  7 1236.74 -8.66376e-08 256.745 -1.45919e-32 -1.47706e-14 -8.33155e-15
  8 1236.74 -8.66376e-08 256.745 -5.24607e-32 -1.34246e-14 -2.92818e-14
</Section>

newXOutput 16

<Section columns = "stress_xx | stress_yy | stress_zz | stress_xy | stress_yz | stress_xz">
  1 1314.75 -8.54216e-08 274.361 8.55540e-34 4.04203e-16 2.78373e-16
  2 1314.75 -8.54216e-08 274.361 2.29241e-34 1.77223e-15 1.44701e-14
  3 1314.75 -8.54216e-08 274.361 2.29241e-34 -2.16465e-15 7.45899e-17
  4 1314.75 -8.54216e-08 274.361 6.14250e-35 5.62982e-15 3.87724e-15
  5 1314.75 -8.54216e-08 274.361 8.55540e-34 5.25750e-17 2.78373e-16
  6 1314.75 -8.54216e-08 274.361 2.29241e-34 4.59933e-16 1.44701e-14
  7 1314.75 -8.54216e-08 274.361 2.29241e-34 -3.47694e-15 7.45899e-17
  8 1314.75 -8.54216e-08 274.361 6.14250e-35 7.32276e-16 3.87724e-15
</Section>

newXOutput 17

<Section columns = "stress_xx | stress_yy | stress_zz | stress_xy | stress_yz | stress_xz">
  1 1391.53 -8.42247e-08 291.885 3.64674e-33 -9.30587e-16 6.50971e-15
  2 1391.53 -8.42247e-08 291.885 1.36098e-32 -1.77021e-15 2.42946e-14
  3 1391.53 -8.42247e-08 291.885 9.77141e-34 2.16219e-15 -4.29806e-15
  4 1391.53 -8.42247e-08 291.885 3.64674e-33 1.71455e-15 -1.60406e-14
  5 1391.53 -8.42247e-08 291.885 3.64674e-33 -5.79358e-16 7.78660e-15
  6 1391.53 -8.42247e-08 291.885 1.36098e-32 -4.59412e-16 2.90600e-14
  7 1391.53 -8.42247e-08 291.885 9.77141e-34 3.47300e-15 4.67376e-16
  8 1391.53 -8.42247e-08 291.885 3.64674e-33 6.60653e-15 1.74427e-15
</Section>

newXOutput 18

<Section columns = "stress_xx | stress_yy | stress_zz | stress_xy | stress_yz | stress_xz">
  1 1467.11 -8.30523e-08 309.319 -1.92872e-15 6.10806e-16 -1.02566e-14
  2 1467.11 -8.30523e-08 309.319 -1.92872e-15 -3.34926e-15 -3.16544e-14
  3 1467.11 -8.30523e-08 309.319 -3.97320e-15 2.12764e-15 -1.03571e-14
  4 1467.11 -8.30523e-08 309.319 -3.97320e-15 -3.71184e-16 -3.68783e-14
  5 1467.11 -8.30523e-08 309.319 -3.97320e-15 9.38136e-16 -1.02566e-14
  6 1467.11 -8.30523e-08 309.319 -3.97320e-15 -2.12764e-15 -3.16544e-14
  7 1467.11 -8.30523e-08 309.319 -8.18489e-15 2.21535e-15 -1.03571e-14
  8 1467.11 -8.30523e-08 309.319 -8.18489e-15 -4.38539e-17 -3.68783e-14
</Section>

newXOutput 19

<Section columns = "stress_xx | stress_yy | stress_zz | stress_xy | stress_yz | stress_xz">
  1 1541.51 -8.19036e-08 326.663 -2.35363e-15 -2.64188e-15 -1.00501e-14
  2 1541.51 -8.19036e-08 326.663 -2.35363e-15 -4.63142e-15 -2.43510e-14
  3 1541.51 -8.19036e-08 326.663 -4.05156e-15 3.21564e-15 -1.02498e-14
  4 1541.51 -8.19036e-08 326.663 -4.05156e-15 -1.89679e-16 -3.47273e-14
  5 1541.51 -8.19036e-08 326.663 -4.05156e-15 -2.64188e-15 -1.00501e-14
  6 1541.51 -8.19036e-08 326.663 -4.05156e-15 -4.63142e-15 -2.43510e-14
  7 1541.51 -8.19036e-08 326.663 -8.13275e-15 3.21564e-15 -1.02498e-14
  8 1541.51 -8.19036e-08 326.663 -8.13275e-15 -1.89679e-16 -3.47273e-14
</Section>

newXOutput 20

<Section columns = "stress_xx | stress_yy | stress_zz | stress_xy | stress_yz | stress_xz">
  1 1614.74 -8.07759e-08 343.919 7.15805e-18 1.59193e-15 -1.11683e-14
  2 1614.74 -8.07759e-08 343.919 2.67142e-17 2.41584e-15 -4.16807e-14
  3 1614.74 -8.07759e-08 343.919 3.72081e-16 -1.08917e-15 -1.36701e-14
  4 1614.74 -8.07759e-08 343.919 1.38862e-15 1.77867e-15 -5.10175e-14
  5 1614.74 -8.07759e-08 343.919 2.67142e-17 1.61538e-15 -1.36701e-14
  6 1614.74 -8.07759e-08 343.919 9.96987e-17 2.50335e-15 -5.10175e-14
  7 1614.74 -8.07759e-08 343.919 1.38862e-15 1.29695e-16 -2.30070e-14
  8 1614.74 -8.07759e-08 343.919 5.18242e-15 6.32753e-15 -8.58632e-14
</Section>

newXOutput 21

<Section columns = "stress_xx | stress_yy | stress_zz | stress_xy | stress_yz | stress_xz">
  1 1686.85 -7.96690e-08 361.086 -1.43446e-15 -6.32001e-15 -3.29919e-16
  2 1686.85 -7.96690e-08 361.086 -1.43446e-15 -6.49483e-15 -1.71494e-14
  3 1686.85 -7.96690e-08 361.086 -3.73581e-15 -1.23669e-14 -2.99456e-16
  4 1686.85 -7.96690e-08 361.086 -3.73581e-15 -7.67176e-15 -1.55659e-14
  5 1686.85 -7.96690e-08 361.086 -3.73581e-15 -7.01930e-15 -4.96372e-16
  6 1686.85 -7.96690e-08 361.086 -3.73581e-15 -9.10464e-15 -2.58018e-14
  7 1686.85 -7.96690e-08 361.086 -7.90506e-15 -1.49767e-14 -9.20668e-16
  8 1686.85 -7.96690e-08 361.086 -7.90506e-15 -1.74117e-14 -4.78570e-14
</Section>

newXOutput 22

<Section columns = "stress_xx | stress_yy | stress_zz | stress_xy | stress_yz | stress_xz">
  1 1757.84 -7.85840e-08 378.166 -3.53736e-14 -5.73662e-14 1.29514e-14
  2 1757.84 -7.85840e-08 378.166 -3.53736e-14 -2.90357e-14 8.73714e-15
  3 1757.84 -7.85840e-08 378.166 -7.20422e-14 -1.15063e-13 8.73714e-15
  4 1757.84 -7.85840e-08 378.166 -7.20422e-14 -5.47360e-14 -2.58645e-14
  5 1757.84 -7.85840e-08 378.166 -1.43971e-14 -5.70170e-14 1.78876e-14
  6 1757.84 -7.85840e-08 378.166 -1.43971e-14 -2.77323e-14 2.71591e-14
  7 1757.84 -7.85840e-08 378.166 -2.65668e-14 -1.13760e-13 2.71591e-14
  8 1757.84 -7.85840e-08 378.166 -2.65668e-14 -4.98714e-14 4.28871e-14
</Section>

newXOutput 23

<Section columns = "stress_xx | stress_yy | stress_zz | stress_xy | stress_yz | stress_xz">
  1 1827.74 -7.75171e-08 395.159 -5.28803e-15 -6.52707e-15 -4.59357e-15
  2 1827.74 -7.75171e-08 395.159 -4.72173e-15 -8.73545e-15 -4.33919e-15
  3 1827.74 -7.75171e-08 395.159 -1.36072e-14 -1.73728e-14 -4.33919e-15
  4 1827.74 -7.75171e-08 395.159 -1.14938e-14 -6.52707e-15 -1.27632e-14
  5 1827.74 -7.75171e-08 395.159 -7.26685e-15 -5.87607e-15 -7.04505e-15
  6 1827.74 -7.75171e-08 395.159 -5.15340e-15 -6.30590e-15 -1.34882e-14
  7 1827.74 -7.75171e-08 395.159 -1.44965e-14 -1.71984e-14 -1.34882e-14
  8 1827.74 -7.75171e-08 395.159 -6.60894e-15 -5.87607e-15 -4.69079e-14
</Section>

newXOutput 24

<Section columns = "stress_xx | stress_yy | stress_zz | stress_xy | stress_yz | stress_xz">
  1 1896.57 -7.64685e-08 412.066 -2.01710e-15 -1.46853e-15 -3.23308e-16
  2 1896.57 -7.64685e-08 412.066 -2.57771e-15 -4.95791e-15 -1.68058e-14
  3 1896.57 -7.64685e-08 412.066 -4.38962e-15 -5.78242e-15 -2.93456e-16
  4 1896.57 -7.64685e-08 412.066 -6.48183e-15 5.59109e-15 -1.52540e-14
  5 1896.57 -7.64685e-08 412.066 -4.38962e-15 -2.21218e-15 -4.86426e-16
  6 1896.57 -7.64685e-08 412.066 -6.48183e-15 -7.73323e-15 -2.52848e-14
  7 1896.57 -7.64685e-08 412.066 -4.66992e-15 -1.08104e-14 -9.02220e-16
  8 1896.57 -7.64685e-08 412.066 -1.24782e-14 -1.31734e-14 -4.68981e-14
</Section>

newXOutput 25

<Section columns = "stress_xx | stress_yy | stress_zz | stress_xy | stress_yz | stress_xz">
  1 1964.36 -7.54490e-08 428.889 -2.83372e-15 -3.55462e-15 -3.60651e-15
  2 1964.36 -7.54490e-08 428.889 -3.38872e-15 -5.73249e-15 1.12839e-15
  3 1964.36 -7.54490e-08 428.889 -4.56991e-15 -5.73249e-15 -1.73310e-15
  4 1964.36 -7.54490e-08 428.889 -6.64118e-15 -5.87469e-15 -3.95530e-14
  5 1964.36 -7.54490e-08 428.889 -4.56991e-15 -4.25081e-15 -3.44448e-15
  6 1964.36 -7.54490e-08 428.889 -6.64118e-15 -8.33070e-15 9.55082e-15
  7 1964.36 -7.54490e-08 428.889 -4.68326e-15 -8.33070e-15 -1.12839e-15
  8 1964.36 -7.54490e-08 428.889 -1.24134e-14 -1.55713e-14 -8.12008e-15
</Section>

newXOutput 26

<Section columns = "stress_xx | stress_yy | stress_zz | stress_xy | stress_yz | stress_xz">
  1 2031.11 -7.44385e-08 445.628 -1.57905e-15 -3.45836e-15 -8.94558e-15
  2 2031.11 -7.44385e-08 445.628 -1.02959e-15 -1.74935e-15 -1.88942e-14
  3 2031.11 -7.44385e-08 445.628 -3.02320e-15 -4.81966e-15 5.16473e-15
  4 2031.11 -7.44385e-08 445.628 -9.72570e-16 -1.51186e-15 -1.35901e-14
  5 2031.11 -7.44385e-08 445.628 -3.02320e-15 -4.10719e-15 -1.35901e-14
  6 2031.11 -7.44385e-08 445.628 -9.72570e-16 -4.17083e-15 -2.84621e-14
  7 2031.11 -7.44385e-08 445.628 -1.05138e-14 -4.99351e-15 -1.21689e-14
  8 2031.11 -7.44385e-08 445.628 -2.86070e-15 -2.16069e-15 -4.92977e-14
</Section>

newXOutput 27

<Section columns = "stress_xx | stress_yy | stress_zz | stress_xy | stress_yz | stress_xz">
  1 2096.86 -7.34481e-08 462.283 6.89328e-33 -3.39098e-15 7.71437e-15
  2 2096.86 -7.34481e-08 462.283 2.57261e-32 -1.51019e-15 2.87904e-14
  3 2096.86 -7.34481e-08 462.283 1.84705e-33 -1.51019e-15 2.06706e-15
  4 2096.86 -7.34481e-08 462.283 6.89328e-33 1.08211e-14 7.71437e-15
  5 2096.86 -7.34481e-08 462.283 6.89328e-33 -4.08563e-15 7.71437e-15
  6 2096.86 -7.34481e-08 462.283 2.57261e-32 -4.10266e-15 2.87904e-14
  7 2096.86 -7.34481e-08 462.283 1.84705e-33 -4.10266e-15 2.06706e-15
  8 2096.86 -7.34481e-08 462.283 6.89328e-33 1.14584e-15 7.71437e-15
</Section>

newXOutput 28

<Section columns = "stress_xx | stress_yy | stress_zz | stress_xy | stress_yz | stress_xz">
  1 2161.62 -7.24776e-08 478.855 1.73672e-15 3.11003e-15 1.73861e-15
  2 2161.62 -7.24776e-08 478.855 1.73672e-15 -4.64815e-17 -8.70085e-15
  3 2161.62 -7.24776e-08 478.855 9.29485e-15 1.16068e-14 -1.91694e-14
  4 2161.62 -7.24776e-08 478.855 9.29485e-15 -1.73471e-16 -8.53280e-14
  5 2161.62 -7.24776e-08 478.855 -2.76647e-15 2.41614e-15 8.69306e-15
  6 2161.62 -7.24776e-08 478.855 -2.76647e-15 -2.63610e-15 9.59001e-15
  7 2161.62 -7.24776e-08 478.855 -9.57077e-15 9.01717e-15 6.78498e-15
  8 2161.62 -7.24776e-08 478.855 -9.57077e-15 -9.83805e-15 -1.70656e-14
</Section>

newXOutput 29

<Section columns = "stress_xx | stress_yy | stress_zz | stress_xy | stress_yz | stress_xz">
  1 2225.41 -7.15254e-08 495.346 -1.10966e-32 2.65559e-15 7.10317e-15
  2 2225.41 -7.15254e-08 495.346 -1.22866e-32 -1.46978e-15 -1.12831e-14
  3 2225.41 -7.15254e-08 495.346 -2.65909e-32 9.35073e-15 1.50897e-14
  4 2225.41 -7.15254e-08 495.346 -9.62050e-33 4.96545e-15 5.09985e-16
  5 2225.41 -7.15254e-08 495.346 -9.12847e-33 3.99541e-15 7.10317e-15
  6 2225.41 -7.15254e-08 495.346 -4.94146e-33 3.53049e-15 -1.12831e-14
  7 2225.41 -7.15254e-08 495.346 -2.60635e-32 1.21108e-14 1.50897e-14
  8 2225.41 -7.15254e-08 495.346 -7.65237e-33 1.52661e-14 5.09985e-16
</Section>

newXOutput 30

<Section columns = "stress_xx | stress_yy | stress_zz | stress_xy | stress_yz | stress_xz">
  1 2288.25 -7.05868e-08 511.755 6.93396e-33 2.41624e-15 -1.60014e-14
  2 2288.25 -7.05868e-08 511.755 2.31385e-32 1.52531e-15 -4.74955e-14
  3 2288.25 -7.05868e-08 511.755 2.31385e-32 5.40123e-15 -2.12953e-14
  4 2288.25 -7.05868e-08 511.755 8.56200e-32 4.72357e-15 -7.62002e-14
  5 2288.25 -7.05868e-08 511.755 2.37174e-32 3.10860e-15 -1.83415e-14
  6 2288.25 -7.05868e-08 511.755 8.57751e-32 4.10926e-15 -5.62289e-14
  7 2288.25 -7.05868e-08 511.755 8.57751e-32 7.98518e-15 -3.00287e-14
  8 2288.25 -7.05868e-08 511.755 3.19383e-31 1.43670e-14 -1.08794e-13
</Section>

newXOutput 31

<Section columns = "stress_xx | stress_yy | stress_zz | stress_xy | stress_yz | stress_xz">
  1 2350.16 -6.96709e-08 528.084 -1.70621e-33 -2.21625e-14 -7.76571e-15
  2 2350.16 -6.96709e-08 528.084 -1.65903e-32 -1.87084e-14 -6.74354e-17
  3 2350.16 -6.96709e-08 528.084 2.74862e-32 -4.96819e-14 -5.56809e-15
  4 2350.16 -6.96709e-08 528.084 -1.33770e-31 -3.41466e-14 -3.90621e-14
  5 2350.16 -6.96709e-08 528.084 -3.22952e-32 -2.28541e-14 -9.77908e-15
  6 2350.16 -6.96709e-08 528.084 4.12516e-33 -2.12895e-14 7.44660e-15
  7 2350.16 -6.96709e-08 528.084 -8.66736e-32 -5.22631e-14 -1.30821e-14
  8 2350.16 -6.96709e-08 528.084 -5.64588e-32 -4.37795e-14 -1.10194e-14
</Section>

newXOutput 32

<Section columns = "stress_xx | stress_yy | stress_zz | stress_xy | stress_yz | stress_xz">
  1 2411.15 -6.87642e-08 544.334 -2.16087e-33 1.03009e-15 -1.44870e-14
  2 2411.15 -6.87642e-08 544.334 -9.74130e-33 4.95004e-16 -1.97406e-14
  3 2411.15 -6.87642e-08 544.334 -9.74130e-33 -3.22290e-16 -1.70081e-14
  4 2411.15 -6.87642e-08 544.334 -5.06520e-33 1.12971e-14 -1.89518e-14
  5 2411.15 -6.87642e-08 544.334 1.71157e-33 9.83809e-16 -1.46418e-14
  6 2411.15 -6.87642e-08 544.334 -1.99642e-33 3.22290e-16 -2.77833e-14
  7 2411.15 -6.87642e-08 544.334 -1.99642e-33 -2.72789e-15 -1.75856e-14
  8 2411.15 -6.87642e-08 544.334 -1.19276e-33 2.31925e-15 -4.89675e-14
</Section>

newXOutput 33

<Section columns = "stress_xx | stress_yy | stress_zz | stress_xy | stress_yz | stress_xz">
  1 2471.24 -6.78774e-08 560.504 -1.15716e-13 -1.57863e-13 2.69695e-15
  2 2471.24 -6.78774e-08 560.504 -1.16229e-13 -7.49127e-14 -3.87392e-14
  3 2471.24 -6.78774e-08 560.504 -2.24635e-13 -3.06710e-13 -1.99692e-16
  4 2471.24 -6.78774e-08 560.504 -2.26549e-13 -1.36983e-13 -5.83240e-14
  5 2471.24 -6.78774e-08 560.504 -5.52431e-14 -1.58553e-13 2.69695e-15
  6 2471.24 -6.78774e-08 560.504 -5.71571e-14 -7.74883e-14 -3.87392e-14
  7 2471.24 -6.78774e-08 560.504 -1.00917e-13 -3.09285e-13 -1.99692e-16
  8 2471.24 -6.78774e-08 560.504 -1.08060e-13 -1.46595e-13 -5.83240e-14
</Section>

newXOutput 34

<Section columns = "stress_xx | stress_yy | stress_zz | stress_xy | stress_yz | stress_xz">
  1 2530.45 -6.70098e-08 576.596 -1.99024e-14 -2.49563e-14 4.46320e-15
  2 2530.45 -6.70098e-08 576.596 -1.93945e-14 -2.24005e-14 1.39596e-14
  3 2530.45 -6.70098e-08 576.596 -3.92176e-14 -4.55551e-14 3.89320e-15
  4 2530.45 -6.70098e-08 576.596 -3.73220e-14 -3.07450e-14 4.46320e-15
  5 2530.45 -6.70098e-08 576.596 -1.93140e-14 -2.49563e-14 6.59049e-15
  6 2530.45 -6.70098e-08 576.596 -1.74184e-14 -2.24005e-14 1.45296e-14
  7 2530.45 -6.70098e-08 576.596 -3.31375e-14 -4.55551e-14 1.18323e-14
  8 2530.45 -6.70098e-08 576.596 -2.60631e-14 -3.07450e-14 6.59049e-15
</Section>

newXOutput 35

<Section columns = "stress_xx | stress_yy | stress_zz | stress_xy | stress_yz | stress_xz">
  1 2588.80 -6.61521e-08 592.610 9.58280e-15 1.78328e-14 3.36013e-15
  2 2588.80 -6.61521e-08 592.610 9.07976e-15 2.56979e-14 3.80351e-14
  3 2588.80 -6.61521e-08 592.610 1.94329e-14 3.64481e-14 -2.69013e-15
  4 2588.80 -6.61520e-08 592.610 1.75555e-14 5.83096e-14 -3.78555e-14
  5 2588.80 -6.61521e-08 592.610 1.94329e-14 1.84753e-14 1.24650e-15
  6 2588.80 -6.61520e-08 592.610 1.75555e-14 2.80957e-14 3.74687e-14
  7 2588.80 -6.61520e-08 592.610 3.88833e-14 3.66202e-14 -1.05783e-14
  8 2588.80 -6.61517e-08 592.610 3.18768e-14 5.89521e-14 -3.99692e-14
</Section>

newXOutput 36

<Section columns = "stress_xx | stress_yy | stress_zz | stress_xy | stress_yz | stress_xz">
  1 2646.30 -6.53117e-08 608.548 -3.22452e-15 -5.63794e-15 -5.66219e-15
  2 2646.30 -6.53117e-08 608.548 -3.22452e-15 -9.48873e-15 2.38146e-15
  3 2646.30 -6.53117e-08 608.548 -6.64258e-15 -1.71903e-14 -2.28198e-14
  4 2646.30 -6.53117e-08 608.548 -6.64258e-15 -2.10411e-14 -7.88642e-14
  5 2646.30 -6.53117e-08 608.548 -6.64258e-15 -5.63794e-15 -1.16043e-15
  6 2646.30 -6.53117e-08 608.548 -6.64258e-15 -9.48873e-15 1.91823e-14
  7 2646.30 -6.53117e-08 608.548 -1.36839e-14 -1.71903e-14 -6.01894e-15
  8 2646.30 -6.53117e-08 608.548 -1.36839e-14 -2.10411e-14 -1.61627e-14
</Section>

newXOutput 37

<Section columns = "stress_xx | stress_yy | stress_zz | stress_xy | stress_yz | stress_xz">
  1 2702.97 -6.44832e-08 624.409 3.05073e-14 4.38119e-14 -2.69373e-14
  2 2702.97 -6.44832e-08 624.409 3.05073e-14 1.03250e-13 -6.10337e-14
  3 2702.97 -6.44832e-08 624.409 6.28457e-14 9.94037e-14 -1.62443e-14
  4 2702.97 -6.44832e-08 624.409 6.28457e-14 2.08256e-13 -7.50816e-14
  5 2702.97 -6.44832e-08 624.409 7.11336e-14 4.38119e-14 -3.33473e-14
  6 2702.97 -6.44832e-08 624.409 7.11336e-14 1.03250e-13 -7.04989e-14
  7 2702.97 -6.44832e-08 624.409 1.46537e-13 9.94037e-14 -4.01666e-14
  8 2702.97 -6.44832e-08 624.409 1.46537e-13 2.08256e-13 -1.10406e-13
</Section>

newXOutput 38

<Section columns = "stress_xx | stress_yy | stress_zz | stress_xy | stress_yz | stress_xz">
  1 2758.81 -6.36728e-08 640.194 9.93907e-15 -7.54179e-15 -1.15130e-14
  2 2758.81 -6.36728e-08 640.194 9.45026e-15 -2.02082e-15 -6.61820e-14
  3 2758.81 -6.36728e-08 640.194 2.15912e-14 -1.73910e-14 -1.64189e-14
  4 2758.81 -6.36728e-08 640.194 1.97669e-14 -4.65989e-15 -6.74965e-14
  5 2758.81 -6.36728e-08 640.194 1.06455e-14 -7.54179e-15 -1.15130e-14
  6 2758.81 -6.36728e-08 640.194 8.82126e-15 -2.02082e-15 -6.61820e-14
  7 2758.81 -6.36728e-08 640.194 2.60967e-14 -1.73910e-14 -1.64189e-14
  8 2758.81 -6.36728e-08 640.194 1.92885e-14 -4.65989e-15 -6.74965e-14
</Section>

newXOutput 39

<Section columns = "stress_xx | stress_yy | stress_zz | stress_xy | stress_yz | stress_xz">
  1 2813.86 -6.28725e-08 655.904 6.61424e-16 -5.48904e-15 -8.01949e-15
  2 2813.86 -6.28725e-08 655.904 1.77228e-16 -2.06459e-15 -5.82219e-14
  3 2813.86 -6.28725e-08 655.904 2.46847e-15 -5.90302e-15 -2.82729e-14
  4 2813.86 -6.28725e-08 655.904 6.61424e-16 9.49889e-15 -1.31196e-13
  5 2813.86 -6.28725e-08 655.904 2.46847e-15 -6.17471e-15 2.72601e-15
  6 2813.86 -6.28725e-08 655.904 6.61424e-16 -4.62355e-15 -3.23936e-14
  7 2813.86 -6.28725e-08 655.904 9.21245e-15 -8.46198e-15 1.18298e-14
  8 2813.86 -6.28725e-08 655.904 2.46847e-15 -5.12603e-17 -3.48040e-14
</Section>

newXOutput 40

<Section columns = "stress_xx | stress_yy | stress_zz | stress_xy | stress_yz | stress_xz">
  1 2868.12 -6.20930e-08 671.540 6.55202e-16 1.08926e-15 2.96132e-14
  2 2868.12 -6.20930e-08 671.540 1.75561e-16 7.64267e-15 4.01045e-14
  3 2868.12 -6.20930e-08 671.540 2.44525e-15 7.64267e-15 4.01045e-14
  4 2868.12 -6.20930e-08 671.540 6.55202e-16 2.94814e-14 4.56980e-14
  5 2868.12 -6.20930e-08 671.540 2.44525e-15 4.04322e-16 2.52245e-14
  6 2868.12 -6.20930e-08 671.540 6.55202e-16 5.08644e-15 2.37257e-14
  7 2868.12 -6.20930e-08 671.540 9.12578e-15 5.08644e-15 2.37257e-14
  8 2868.12 -6.20930e-08 671.540 2.44525e-15 1.99414e-14 -1.54287e-14
</Section>

newXOutput 41

<Section columns = "stress_xx | stress_yy | stress_zz | stress_xy | stress_yz | stress_xz">
  1 2921.60 -6.13200e-08 687.103 1.85491e-32 1.09956e-15 -1.99067e-14
  2 2921.60 -6.13200e-08 687.103 8.98907e-32 3.59047e-15 -2.87359e-14
  3 2921.60 -6.13200e-08 687.103 8.98907e-32 1.20604e-14 -2.87359e-14
  4 2921.60 -6.13200e-08 687.103 3.41014e-31 1.83358e-14 -9.50370e-14
  5 2921.60 -6.13200e-08 687.103 1.06363e-32 4.61185e-16 -1.77262e-14
  6 2921.60 -6.13200e-08 687.103 6.03597e-32 1.20801e-15 -2.05979e-14
  7 2921.60 -6.13200e-08 687.103 6.03597e-32 1.18894e-14 -2.05979e-14
  8 2921.60 -6.13200e-08 687.103 2.30803e-31 1.76974e-14 -6.46656e-14
</Section>

newXOutput 42

<Section columns = "stress_xx | stress_yy | stress_zz | stress_xy | stress_yz | stress_xz">
  1 2974.32 -6.05614e-08 702.592 6.43006e-16 3.71788e-15 7.25780e-17
  2 2974.32 -6.05614e-08 702.592 1.72293e-16 7.24814e-15 3.77266e-15
  3 2974.32 -6.05614e-08 702.592 2.39973e-15 -3.42192e-15 -1.35432e-15
  4 2974.32 -6.05614e-08 702.592 6.43006e-16 1.19622e-14 -7.03988e-14
  5 2974.32 -6.05614e-08 702.592 2.39973e-15 2.39669e-15 3.62890e-16
  6 2974.32 -6.05614e-08 702.592 6.43006e-16 2.31739e-15 1.88633e-14
  7 2974.32 -6.05614e-08 702.592 8.95591e-15 -6.14360e-15 -2.70865e-16
  8 2974.32 -6.05614e-08 702.592 2.39973e-15 1.80478e-15 -1.40798e-14
</Section>

newXOutput 43

<Section columns = "stress_xx | stress_yy | stress_zz | stress_xy | stress_yz | stress_xz">
  1 3026.30 -5.98220e-08 718.009 -3.18514e-15 -4.26564e-15 -8.53631e-15
  2 3026.30 -5.98220e-08 718.009 -3.65148e-15 -8.78731e-15 -3.18580e-14
  3 3026.30 -5.98220e-08 718.009 -6.66593e-15 -1.14297e-15 -7.74811e-15
  4 3026.30 -5.98220e-08 718.009 -8.40633e-15 -2.35455e-15 -2.89164e-14
  5 3026.30 -5.98220e-08 718.009 -6.66593e-15 -4.26564e-15 -1.28431e-14
  6 3026.30 -5.98220e-08 718.009 -8.40633e-15 -8.78731e-15 -4.79312e-14
  7 3026.30 -5.98220e-08 718.009 -5.39187e-15 -1.14297e-15 -2.38213e-14
  8 3026.30 -5.98220e-08 718.009 -1.18871e-14 -2.35455e-15 -8.89025e-14
</Section>

newXOutput 44

<Section columns = "stress_xx | stress_yy | stress_zz | stress_xy | stress_yz | stress_xz">
  1 3077.55 -5.90881e-08 733.354 6.31130e-16 8.63158e-16 4.28005e-15
  2 3077.55 -5.90881e-08 733.354 1.69111e-16 2.70982e-15 1.59734e-14
  3 3077.55 -5.90881e-08 733.354 2.35541e-15 1.19598e-14 1.59734e-14
  4 3077.55 -5.90881e-08 733.354 6.31130e-16 1.80448e-14 5.96134e-14
  5 3077.55 -5.90881e-08 733.354 2.35541e-15 -4.09555e-16 -4.28005e-15
  6 3077.55 -5.90881e-08 733.354 6.31130e-16 -2.04001e-15 -1.59734e-14
  7 3077.55 -5.90881e-08 733.354 8.79051e-15 1.16188e-14 -1.59734e-14
  8 3077.55 -5.90881e-08 733.354 2.35541e-15 1.67721e-14 -5.96134e-14
</Section>

newXOutput 45

<Section columns = "stress_xx | stress_yy | stress_zz | stress_xy | stress_yz | stress_xz">
  1 3128.08 -5.83677e-08 748.627 -5.13225e-15 1.64015e-14 8.92938e-15
  2 3128.08 -5.83677e-08 748.627 -5.13225e-15 9.34663e-15 6.07630e-15
  3 3128.08 -5.83677e-08 748.627 -9.24686e-15 3.98596e-14 -1.27034e-14
  4 3128.08 -5.83677e-08 748.627 -9.24686e-15 2.91609e-14 -7.21423e-14
  5 3128.08 -5.83677e-08 748.627 -9.24686e-15 1.70829e-14 1.71515e-14
  6 3128.08 -5.83677e-08 748.627 -9.24686e-15 1.18894e-14 2.30141e-14
  7 3128.08 -5.83677e-08 748.627 -1.41012e-14 4.24024e-14 1.79821e-14
  8 3128.08 -5.83677e-08 748.627 -1.41012e-14 3.86506e-14 -8.92938e-15
</Section>

newXOutput 46

<Section columns = "stress_xx | stress_yy | stress_zz | stress_xy | stress_yz | stress_xz">
  1 3177.90 -5.76574e-08 763.830 4.10313e-15 2.68744e-15 -1.71822e-14
  2 3177.90 -5.76574e-08 763.830 4.10313e-15 -3.67945e-15 -3.36287e-14
  3 3177.90 -5.76574e-08 763.830 6.17748e-15 -3.67945e-15 3.69889e-15
  4 3177.90 -5.76574e-08 763.830 6.17748e-15 8.99205e-15 -2.53537e-14
  5 3177.90 -5.76574e-08 763.830 -3.97862e-15 2.00683e-15 -2.92978e-14
  6 3177.90 -5.76574e-08 763.830 -3.97862e-15 -6.21954e-15 -5.15189e-14
  7 3177.90 -5.76574e-08 763.830 2.94591e-16 -6.21954e-15 -4.15170e-14
  8 3177.90 -5.76574e-08 763.830 2.94591e-16 -4.87663e-16 -9.21207e-14
</Section>

newXOutput 47

<Section columns = "stress_xx | stress_yy | stress_zz | stress_xy | stress_yz | stress_xz">
  1 3227.02 -5.69671e-08 778.963 -4.49402e-16 1.96975e-15 1.41040e-14
  2 3227.02 -5.69671e-08 778.963 4.49402e-16 6.33136e-15 3.77916e-15
  3 3227.02 -5.69671e-08 778.963 -1.67719e-15 2.15559e-14 8.74937e-15
  4 3227.02 -5.69671e-08 778.963 1.67719e-15 2.74351e-14 2.34439e-15
  5 3227.02 -5.69671e-08 778.963 -1.67719e-15 3.32955e-15 1.80239e-14
  6 3227.02 -5.69671e-08 778.963 1.67719e-15 1.14062e-14 4.82949e-15
  7 3227.02 -5.69671e-08 778.963 -6.25937e-15 2.66308e-14 2.33786e-14
  8 3227.02 -5.69671e-08 778.963 6.25937e-15 4.63747e-14 6.26427e-15
</Section>

newXOutput 48

<Section columns = "stress_xx | stress_yy | stress_zz | stress_xy | stress_yz | stress_xz">
  1 3275.47 -5.62823e-08 794.027 6.08299e-15 -6.44252e-16 -5.25192e-15
  2 3275.47 -5.62823e-08 794.027 6.97360e-15 -1.89499e-15 2.20891e-15
  3 3275.47 -5.62823e-08 794.027 2.27020e-14 -9.49932e-15 -2.11663e-14
  4 3275.47 -5.62823e-08 794.027 2.60258e-14 -8.97327e-15 -7.31499e-14
  5 3275.47 -5.62823e-08 794.027 2.75918e-15 -2.00263e-15 -1.07635e-15
  6 3275.47 -5.62823e-08 794.027 6.08299e-15 -6.96454e-15 1.77924e-14
  7 3275.47 -5.62823e-08 794.027 1.02974e-14 -1.45689e-14 -5.58283e-15
  8 3275.47 -5.62823e-08 794.027 2.27020e-14 -2.78931e-14 -1.49916e-14
</Section>

newXOutput 49

<Section columns = "stress_xx | stress_yy | stress_zz | stress_xy | stress_yz | stress_xz">
  1 3323.24 -5.56083e-08 809.021 -3.17539e-15 -2.04600e-15 -8.81394e-15
  2 3323.24 -5.56083e-08 809.021 -4.05791e-15 -8.14464e-15 -1.12179e-14
  3 3323.24 -5.56083e-08 809.021 -6.91027e-15 7.04819e-15 1.20146e-14
  4 3323.24 -5.56083e-08 809.021 -1.02039e-14 -1.46896e-16 5.06473e-14
  5 3323.24 -5.56083e-08 809.021 -6.91027e-15 -2.04600e-15 -1.71141e-14
  6 3323.24 -5.56083e-08 809.021 -1.02039e-14 -8.14464e-15 -4.21945e-14
  7 3323.24 -5.56083e-08 809.021 -7.35154e-15 7.04819e-15 -1.89620e-14
  8 3323.24 -5.56083e-08 809.021 -1.96435e-14 -1.46896e-16 -6.49592e-14
</Section>

newXOutput 50

<Section columns = "stress_xx | stress_yy | stress_zz | stress_xy | stress_yz | stress_xz">
  1 3370.36 -5.49480e-08 823.947 3.32241e-15 5.14982e-15 -7.14443e-15
  2 3370.36 -5.49480e-08 823.947 1.57333e-15 -1.51284e-15 -2.66634e-14
  3 3370.36 -5.49480e-08 823.947 -9.76009e-16 -1.51284e-15 -2.66634e-14
  4 3370.36 -5.49480e-08 823.947 -7.50367e-15 1.50862e-14 -9.95091e-14
  5 3370.36 -5.49480e-08 823.947 -9.76009e-16 2.43870e-15 -7.14443e-15
  6 3370.36 -5.49480e-08 823.947 -7.50367e-15 -1.16309e-14 -2.66634e-14
  7 3370.36 -5.49480e-08 823.947 9.73291e-15 -1.16309e-14 -2.66634e-14
  8 3370.36 -5.49480e-08 823.947 -1.46286e-14 -2.26748e-14 -9.95091e-14
</Section>

newXOutput 51

<Section columns = "stress_xx | stress_yy | stress_zz | stress_xy | stress_yz | stress_xz">
  1 3416.84 -5.43005e-08 838.806 5.32218e-32 -6.61040e-15 1.02496e-15
  2 3416.84 -5.43005e-08 838.806 1.98627e-31 -2.94399e-15 3.82520e-15
  3 3416.84 -5.43005e-08 838.806 1.56545e-31 -2.94399e-15 -1.91260e-14
  4 3416.84 -5.43005e-08 838.806 5.84236e-31 2.10947e-14 -7.13791e-14
  5 3416.84 -5.43005e-08 838.806 2.31535e-32 -7.96456e-15 5.12479e-15
  6 3416.84 -5.43005e-08 838.806 8.64102e-32 -7.99776e-15 1.91260e-14
  7 3416.84 -5.43005e-08 838.806 4.43290e-32 -7.99776e-15 -3.82520e-15
  8 3416.84 -5.43005e-08 838.806 1.65438e-31 2.23371e-15 -1.42758e-14
</Section>

newXOutput 52

<Section columns = "stress_xx | stress_yy | stress_zz | stress_xy | stress_yz | stress_xz">
  1 3462.67 -5.36579e-08 853.597 1.26677e-13 -1.04452e-13 7.60418e-15
  2 3462.67 -5.36567e-08 853.597 1.26677e-13 -2.00027e-13 2.83792e-14
  3 3462.67 -5.36579e-08 853.597 2.60958e-13 -2.00027e-13 -1.72459e-14
  4 3462.67 -5.36567e-08 853.597 2.60958e-13 -3.80860e-13 -6.43625e-14
  5 3462.67 -5.36582e-08 853.597 6.38271e-14 -1.04452e-13 1.16792e-14
  6 3462.67 -5.36579e-08 853.597 6.38271e-14 -2.00027e-13 4.35875e-14
  7 3462.67 -5.36582e-08 853.597 1.31485e-13 -2.00027e-13 -2.03753e-15
  8 3462.67 -5.36579e-08 853.597 1.31485e-13 -3.80860e-13 -7.60418e-15
</Section>

newXOutput 53

<Section columns = "stress_xx | stress_yy | stress_zz | stress_xy | stress_yz | stress_xz">
  1 3507.89 -5.30317e-08 868.321 -2.26539e-14 6.29206e-15 -5.37798e-16
  2 3507.89 -5.30317e-08 868.321 -2.26539e-14 9.36576e-15 -2.79552e-14
  3 3507.89 -5.30317e-08 868.321 -3.50026e-14 3.39941e-15 -4.88141e-16
  4 3507.89 -5.30317e-08 868.321 -3.50026e-14 8.90426e-15 -2.53739e-14
  5 3507.89 -5.30317e-08 868.321 -2.07074e-14 6.38259e-15 -8.09132e-16
  6 3507.89 -5.30317e-08 868.321 -2.07074e-14 9.70360e-15 -4.20593e-14
  7 3507.89 -5.30317e-08 868.321 -3.09928e-14 8.10492e-15 -1.50077e-15
  8 3507.89 -5.30317e-08 868.321 -3.09928e-14 2.64655e-14 -7.80113e-14
</Section>

newXOutput 54

<Section columns = "stress_xx | stress_yy | stress_zz | stress_xy | stress_yz | stress_xz">
  1 3552.49 -5.24078e-08 882.980 -2.39333e-32 4.85730e-15 1.96543e-14
  2 3552.49 -5.24078e-08 882.980 -6.41291e-33 3.01321e-15 8.75318e-15
  3 3552.49 -5.24078e-08 882.980 -8.93203e-32 1.81277e-14 8.75318e-15
  4 3552.49 -5.24078e-08 882.980 -2.39333e-32 1.12454e-14 -6.27195e-14
  5 3552.49 -5.24078e-08 882.980 -2.39333e-32 6.20728e-15 2.36805e-14
  6 3552.49 -5.24078e-08 882.980 -6.41291e-33 8.05137e-15 2.37793e-14
  7 3552.49 -5.24078e-08 882.980 -8.93203e-32 2.31659e-14 2.37793e-14
  8 3552.49 -5.24078e-08 882.980 -2.39333e-32 3.00481e-14 -6.64134e-15
</Section>

newXOutput 55

<Section columns = "stress_xx | stress_yy | stress_zz | stress_xy | stress_yz | stress_xz">
  1 3596.49 -5.18016e-08 897.572 -1.67396e-31 -1.16828e-13 -4.60055e-15
  2 3596.49 -5.18016e-08 897.572 -1.82154e-31 -1.23013e-13 2.46376e-14
  3 3596.49 -5.18020e-08 897.572 -7.42195e-31 -2.22752e-13 -2.01711e-14
  4 3596.49 -5.18020e-08 897.572 -2.65132e-30 -2.24409e-13 -6.40774e-14
  5 3596.49 -5.18004e-08 897.572 -3.37804e-32 -1.15570e-13 -5.98398e-16
  6 3596.49 -5.18004e-08 897.572 3.16508e-31 -1.18317e-13 3.95739e-14
  7 3596.49 -5.18016e-08 897.572 -1.95903e-31 -2.22415e-13 -5.23487e-15
  8 3596.49 -5.18016e-08 897.572 -6.12533e-31 -2.23151e-13 -8.33462e-15
</Section>

newXOutput 56

<Section columns = "stress_xx | stress_yy | stress_zz | stress_xy | stress_yz | stress_xz">
  1 3639.89 -5.12018e-08 912.100 2.81231e-31 1.55043e-13 -1.42476e-14
  2 3639.89 -5.12018e-08 912.100 1.62679e-30 1.56867e-13 -4.99583e-14
  3 3639.89 -5.12018e-08 912.100 4.33102e-31 3.01754e-13 -1.01230e-14
  4 3639.89 -5.12018e-08 912.100 4.79868e-30 3.07764e-13 -9.77634e-14
  5 3639.89 -5.11991e-08 912.100 4.59090e-31 1.53786e-13 -1.79594e-14
  6 3639.89 -5.11991e-08 912.100 1.65075e-30 1.52176e-13 -5.09529e-14
  7 3639.89 -5.11991e-08 912.100 1.12058e-30 3.01417e-13 -2.39757e-14
  8 3639.89 -5.11991e-08 912.100 4.97653e-30 3.06507e-13 -1.01475e-13
</Section>

newXOutput 57

<Section columns = "stress_xx | stress_yy | stress_zz | stress_xy | stress_yz | stress_xz">
  1 3682.72 -5.06107e-08 926.563 7.58071e-32 -1.38372e-13 6.02898e-15
  2 3682.72 -5.06107e-08 926.563 -5.22367e-31 -1.38265e-13 5.04031e-15
  3 3682.72 -5.06107e-08 926.563 -2.98028e-33 -2.73878e-13 3.61878e-16
  4 3682.72 -5.06107e-08 926.563 -3.01648e-30 -2.68335e-13 -6.38117e-14
  5 3682.72 -5.06107e-08 926.563 8.07294e-32 -1.38372e-13 6.29390e-15
  6 3682.72 -5.06107e-08 926.563 8.55114e-32 -1.38265e-13 1.88107e-14
  7 3682.72 -5.06107e-08 926.563 1.53901e-32 -2.73878e-13 1.35055e-15
  8 3682.72 -5.06107e-08 926.563 -7.47846e-31 -2.68335e-13 -1.24198e-14
</Section>

newXOutput 58

<Section columns = "stress_xx | stress_yy | stress_zz | stress_xy | stress_yz | stress_xz">
  1 3724.97 -5.00313e-08 940.962 -5.26000e-32 -2.30142e-14 -1.41450e-14
  2 3724.97 -5.00313e-08 940.962 -1.96306e-31 -2.76957e-14 -5.27899e-14
  3 3724.97 -5.00313e-08 940.962 -5.09153e-32 -4.43390e-14 -8.77480e-15
  4 3724.97 -5.00313e-08 940.962 -1.90018e-31 -4.55934e-14 -3.27480e-14
  5 3724.97 -5.00313e-08 940.962 -6.80926e-32 -2.17598e-14 -1.80763e-14
  6 3724.97 -5.00313e-08 940.962 -2.54125e-31 -2.30142e-14 -6.74616e-14
  7 3724.97 -5.00313e-08 940.962 -1.55664e-31 -4.40029e-14 -2.34465e-14
  8 3724.97 -5.00313e-08 940.962 -5.80945e-31 -4.43390e-14 -8.75036e-14
</Section>

newXOutput 59

<Section columns = "stress_xx | stress_yy | stress_zz | stress_xy | stress_yz | stress_xz">
  1 3766.66 -4.94587e-08 955.297 -5.22345e-15 2.06750e-14 -5.18885e-16
  2 3766.66 -4.94587e-08 955.297 -5.22345e-15 1.95283e-14 -2.69720e-14
  3 3766.66 -4.94591e-08 955.297 -1.07604e-14 3.61547e-14 -4.70974e-16
  4 3766.66 -4.94591e-08 955.297 -1.07604e-14 4.13515e-14 -2.44816e-14
  5 3766.66 -4.94591e-08 955.297 -1.07604e-14 1.94218e-14 -7.80677e-16
  6 3766.66 -4.94591e-08 955.297 -1.07604e-14 1.48515e-14 -4.05802e-14
  7 3766.66 -4.94592e-08 955.297 -2.21667e-14 3.58189e-14 -1.44799e-15
  8 3766.66 -4.94592e-08 955.297 -2.21667e-14 4.00984e-14 -7.52679e-14
</Section>

newXOutput 60

<Section columns = "stress_xx | stress_yy | stress_zz | stress_xy | stress_yz | stress_xz">
  1 3807.80 -4.88953e-08 969.569 -5.99018e-32 3.80331e-14 1.34631e-14
  2 3807.80 -4.88953e-08 969.569 -9.65433e-32 4.13140e-14 2.53565e-14
  3 3807.80 -4.88953e-08 969.569 -5.85759e-32 6.38474e-14 8.20355e-15
  4 3807.80 -4.88953e-08 969.569 -3.72633e-32 8.12222e-14 8.02580e-15
  5 3807.80 -4.88953e-08 969.569 -9.34404e-32 3.80331e-14 1.70879e-14
  6 3807.80 -4.88953e-08 969.569 -1.05530e-31 4.13140e-14 2.63278e-14
  7 3807.80 -4.88953e-08 969.569 -1.83744e-31 6.38474e-14 2.17317e-14
  8 3807.80 -4.88953e-08 969.569 -7.08019e-32 8.12222e-14 1.16506e-14
</Section>

newXOutput 61

<Section columns = "stress_xx | stress_yy | stress_zz | stress_xy | stress_yz | stress_xz">
  1 3848.39 -4.83442e-08 983.779 1.02802e-32 -6.35316e-15 2.01733e-14
  2 3848.39 -4.83442e-08 983.779 2.75456e-33 -1.70232e-15 3.03720e-14
  3 3848.39 -4.83442e-08 983.779 1.96821e-32 -1.67094e-14 -8.30218e-15
  4 3848.39 -4.83442e-08 983.779 5.27380e-33 -4.47727e-15 -5.88475e-14
  5 3848.39 -4.83442e-08 983.779 2.36305e-32 -6.35316e-15 2.76393e-14
  6 3848.39 -4.83442e-08 983.779 6.33177e-33 -1.70232e-15 4.57520e-14
  7 3848.39 -4.83442e-08 983.779 6.95062e-32 -1.67094e-14 1.95611e-14
  8 3848.39 -4.83442e-08 983.779 1.86241e-32 -4.47727e-15 -1.44838e-15
</Section>

newXOutput 62

<Section columns = "stress_xx | stress_yy | stress_zz | stress_xy | stress_yz | stress_xz">
  1 3888.45 -4.78012e-08 997.927 -5.11523e-33 1.77786e-16 -1.72400e-14
  2 3888.45 -4.78003e-08 997.927 -9.79346e-33 1.61370e-16 -4.42849e-14
  3 3888.45 -4.78012e-08 997.927 -1.37062e-33 9.24143e-15 -2.27895e-14
  4 3888.45 -4.78003e-08 997.927 -2.62415e-33 8.38812e-15 -7.96777e-14
  5 3888.45 -4.78003e-08 997.927 -1.17581e-32 2.67483e-16 -1.34002e-14
  6 3888.45 -4.78012e-08 997.927 -3.45850e-32 4.96126e-16 -2.99546e-14
  7 3888.45 -4.78003e-08 997.927 -3.15058e-33 1.39040e-14 -8.45922e-15
  8 3888.45 -4.78012e-08 997.927 -9.26703e-33 2.57890e-14 -2.61964e-14
</Section>

newXOutput 63

<Section columns = "stress_xx | stress_yy | stress_zz | stress_xy | stress_yz | stress_xz">
  1 3927.98 -4.72625e-08 1012.01 -1.85636e-14 4.79579e-14 -4.80146e-15
  2 3927.98 -4.72623e-08 1012.01 -1.85636e-14 4.27208e-14 2.01945e-15
  3 3927.98 -4.72634e-08 1012.01 -3.58328e-14 8.76514e-14 -1.93508e-14
  4 3927.98 -4.72633e-08 1012.01 -3.58328e-14 1.09024e-13 -6.68758e-14
  5 3927.98 -4.72632e-08 1012.01 -2.27419e-14 4.66202e-14 -9.84029e-16
  6 3927.98 -4.72625e-08 1012.01 -2.27419e-14 3.77285e-14 1.62663e-14
  7 3927.98 -4.72636e-08 1012.01 -3.05636e-14 8.26591e-14 -5.10398e-15
  8 3927.98 -4.72634e-08 1012.01 -3.05636e-14 9.03923e-14 -1.37058e-14
</Section>

newXOutput 64

<Section columns = "stress_xx | stress_yy | stress_zz | stress_xy | stress_yz | stress_xz">
  1 3967.00 -4.67362e-08 1026.04 9.10065e-15 -8.59481e-14 3.61051e-14
  2 3967.00 -4.67362e-08 1026.04 9.10065e-15 -4.60096e-14 3.42075e-14
  3 3967.00 -4.67362e-08 1026.04 2.09856e-14 -1.73185e-13 1.29611e-14
  4 3967.00 -4.67362e-08 1026.04 2.09856e-14 -8.03374e-14 -5.21669e-14
  5 3967.00 -4.67362e-08 1026.04 3.39641e-14 -8.59481e-14 3.99004e-14
  6 3967.00 -4.67362e-08 1026.04 3.39641e-14 -4.60096e-14 4.83717e-14
  7 3967.00 -4.67362e-08 1026.04 7.83193e-14 -1.73185e-13 2.71254e-14
  8 3967.00 -4.67362e-08 1026.04 7.83193e-14 -8.03374e-14 6.94586e-16
</Section>

newXOutput 65

<Section columns = "stress_xx | stress_yy | stress_zz | stress_xy | stress_yz | stress_xz">
  1 4005.51 -4.62123e-08 1040.00 4.89541e-15 2.20210e-15 2.87626e-14
  2 4005.51 -4.62123e-08 1040.00 5.66159e-15 -1.32006e-14 2.92252e-15
  3 4005.51 -4.62123e-08 1040.00 1.05536e-14 1.74619e-15 2.85099e-14
  4 4005.51 -4.62123e-08 1040.00 1.34130e-14 -2.51110e-14 -1.02164e-14
  5 4005.51 -4.62123e-08 1040.00 -6.60305e-15 3.53710e-15 2.85099e-14
  6 4005.51 -4.62123e-08 1040.00 -3.74361e-15 -8.21836e-15 -1.02164e-14
  7 4005.51 -4.62123e-08 1040.00 -1.18524e-14 6.72847e-15 2.75665e-14
  8 4005.51 -4.62123e-08 1040.00 -1.18089e-15 -6.51688e-15 -5.92517e-14
</Section>

newXOutput 66

<Section columns = "stress_xx | stress_yy | stress_zz | stress_xy | stress_yz | stress_xz">
  1 4043.52 -4.57048e-08 1053.91 -6.33980e-15 -1.14637e-14 2.75087e-15
  2 4043.52 -4.57048e-08 1053.91 -7.09945e-15 -1.39197e-14 -1.37667e-14
  3 4043.52 -4.57048e-08 1053.91 -1.14724e-14 -2.13856e-14 -3.03302e-14
  4 4043.52 -4.57048e-08 1053.91 -1.43075e-14 -2.03527e-14 -1.35008e-13
  5 4043.52 -4.57048e-08 1053.91 -1.14724e-14 -1.41311e-14 1.37543e-14
  6 4043.52 -4.57048e-08 1053.91 -1.43075e-14 -2.38743e-14 1.51735e-14
  7 4043.52 -4.57048e-08 1053.91 -2.48186e-14 -3.13402e-14 1.07353e-14
  8 4043.52 -4.57048e-08 1053.91 -3.53991e-14 -5.75037e-14 -2.70015e-14
</Section>

newXOutput 67

<Section columns = "stress_xx | stress_yy | stress_zz | stress_xy | stress_yz | stress_xz">
  1 4081.04 -4.51985e-08 1067.75 -2.18391e-15 2.69916e-13 -2.46691e-14
  2 4081.04 -4.51986e-08 1067.75 -2.18391e-15 2.86969e-13 -5.31016e-14
  3 4081.04 -4.51984e-08 1067.75 -4.49891e-15 5.48017e-13 -1.13396e-14
  4 4081.04 -4.51985e-08 1067.75 -4.49891e-15 5.86191e-13 -3.18793e-14
  5 4081.04 -4.51965e-08 1067.75 8.15048e-15 2.68583e-13 -2.83991e-14
  6 4081.04 -4.51972e-08 1067.75 8.15048e-15 2.81997e-13 -6.70223e-14
  7 4081.04 -4.51964e-08 1067.75 1.67902e-14 5.43045e-13 -2.52602e-14
  8 4081.04 -4.51965e-08 1067.75 1.67902e-14 5.67634e-13 -8.38320e-14
</Section>

newXOutput 68

<Section columns = "stress_xx | stress_yy | stress_zz | stress_xy | stress_yz | stress_xz">
  1 4118.08 -4.47053e-08 1081.54 6.83391e-17 1.43577e-13 -4.15806e-14
  2 4118.08 -4.47053e-08 1081.54 1.83114e-17 1.46953e-13 -1.16439e-13
  3 4118.08 -4.47053e-08 1081.54 3.55232e-15 3.01851e-13 -3.33936e-14
  4 4118.08 -4.47053e-08 1081.54 9.51841e-16 3.25418e-13 -1.14246e-13
  5 4118.08 -4.47053e-08 1081.54 2.55045e-16 1.43487e-13 -4.15806e-14
  6 4118.08 -4.47053e-08 1081.54 6.83391e-17 1.46620e-13 -1.16439e-13
  7 4118.08 -4.47053e-08 1081.54 1.32574e-14 2.97217e-13 -3.33936e-14
  8 4118.08 -4.47053e-08 1081.54 3.55232e-15 3.08121e-13 -1.14246e-13
</Section>

newXOutput 69

<Section columns = "stress_xx | stress_yy | stress_zz | stress_xy | stress_yz | stress_xz">
  1 4154.64 -4.42178e-08 1095.26 -1.47967e-31 3.53885e-14 2.85980e-14
  2 4154.64 -4.42178e-08 1095.26 -1.16739e-31 3.23478e-14 2.83058e-14
  3 4154.64 -4.42178e-08 1095.26 -2.32375e-31 5.46789e-14 2.83058e-14
  4 4154.64 -4.42178e-08 1095.26 -8.29212e-32 4.84150e-14 1.31158e-14
  5 4154.64 -4.42178e-08 1095.26 -1.47967e-31 3.53885e-14 2.85980e-14
  6 4154.64 -4.42178e-08 1095.26 -1.16739e-31 3.23478e-14 2.83058e-14
  7 4154.64 -4.42178e-08 1095.26 -2.32375e-31 5.46789e-14 2.83058e-14
  8 4154.64 -4.42178e-08 1095.26 -8.29212e-32 4.84150e-14 1.31158e-14
</Section>

newXOutput 70

<Section columns = "stress_xx | stress_yy | stress_zz | stress_xy | stress_yz | stress_xz">
  1 4190.73 -4.37376e-08 1108.93 0.00000 1.52699e-15 -1.45345e-14
  2 4190.73 -4.37376e-08 1108.93 0.00000 6.69507e-15 -5.42435e-14
  3 4190.73 -4.37376e-08 1108.93 0.00000 -8.17756e-15 -1.31924e-14
  4 4190.73 -4.37376e-08 1108.93 0.00000 2.12682e-14 -4.92349e-14
  5 4190.73 -4.37376e-08 1108.93 0.00000 1.98617e-16 -2.18675e-14
  6 4190.73 -4.37376e-08 1108.93 0.00000 1.73752e-15 -8.16108e-14
  7 4190.73 -4.37376e-08 1108.93 0.00000 -1.31351e-14 -4.05598e-14
  8 4190.73 -4.37376e-08 1108.93 0.00000 2.76637e-15 -1.51371e-13
</Section>

newXOutput 71

<Section columns = "stress_xx | stress_yy | stress_zz | stress_xy | stress_yz | stress_xz">
  1 4226.36 -4.32601e-08 1122.54 -7.99398e-15 -1.63937e-14 -9.96033e-15
  2 4226.36 -4.32601e-08 1122.54 -7.31460e-15 -3.29593e-14 -3.71725e-14
  3 4226.36 -4.32601e-08 1122.54 -1.46634e-14 -1.81014e-14 -3.71725e-14
  4 4226.36 -4.32601e-08 1122.54 -1.44814e-14 -3.42582e-14 -1.38730e-13
  5 4226.36 -4.32601e-08 1122.54 -1.78782e-14 -1.50667e-14 -2.66886e-15
  6 4226.36 -4.32601e-08 1122.54 -1.53428e-14 -2.80067e-14 -9.96033e-15
  7 4226.36 -4.32601e-08 1122.54 -2.32799e-14 -1.31487e-14 -9.96033e-15
  8 4226.36 -4.32601e-08 1122.54 -2.26006e-14 -1.57747e-14 -3.71725e-14
</Section>

newXOutput 72

<Section columns = "stress_xx | stress_yy | stress_zz | stress_xy | stress_yz | stress_xz">
  1 4261.54 -4.27963e-08 1136.09 3.54600e-32 -8.73550e-15 3.86796e-15
  2 4261.54 -4.27963e-08 1136.09 -1.45933e-32 -3.90905e-15 -8.15955e-14
  3 4261.54 -4.27963e-08 1136.09 8.55133e-32 -1.71840e-14 -4.20606e-16
  4 4261.54 -4.27963e-08 1136.09 1.64570e-32 -5.02467e-15 -9.76006e-14
  5 4261.54 -4.27963e-08 1136.09 1.64570e-32 -9.97244e-15 3.86796e-15
  6 4261.54 -4.27963e-08 1136.09 -8.55133e-32 -8.52537e-15 -8.15955e-14
  7 4261.54 -4.27963e-08 1136.09 8.04215e-32 -1.75154e-14 -4.20606e-16
  8 4261.54 -4.27963e-08 1136.09 -2.54591e-33 -6.26162e-15 -9.76006e-14
</Section>

newXOutput 73

<Section columns = "stress_xx | stress_yy | stress_zz | stress_xy | stress_yz | stress_xz">
  1 4296.28 -4.23399e-08 1149.59 -9.12646e-16 4.42405e-15 1.75966e-14
  2 4296.28 -4.23391e-08 1149.59 -2.44543e-16 3.17209e-15 2.80161e-14
  3 4296.28 -4.23399e-08 1149.59 -2.44543e-16 3.84173e-17 -1.23426e-14
  4 4296.28 -4.23391e-08 1149.59 -6.55251e-17 2.22533e-14 -5.61529e-14
  5 4296.28 -4.23391e-08 1149.59 -3.40604e-15 5.57105e-15 2.12013e-14
  6 4296.28 -4.23389e-08 1149.59 -9.12646e-16 7.45276e-15 4.14690e-14
  7 4296.28 -4.23391e-08 1149.59 -9.12646e-16 -4.24226e-15 1.11029e-15
  8 4296.28 -4.23389e-08 1149.59 -2.44543e-16 6.27764e-15 -5.94601e-15
</Section>

newXOutput 74

<Section columns = "stress_xx | stress_yy | stress_zz | stress_xy | stress_yz | stress_xz">
  1 4330.57 -4.18804e-08 1163.03 7.75904e-14 -2.18785e-14 1.07212e-14
  2 4330.57 -4.18804e-08 1163.03 7.68803e-14 -1.16645e-15 -1.67217e-15
  3 4330.57 -4.18804e-08 1163.03 1.61598e-13 -6.62648e-14 2.56828e-15
  4 4330.57 -4.18804e-08 1163.03 1.58947e-13 5.19207e-15 -1.62736e-14
  5 4330.57 -4.18804e-08 1163.03 8.60651e-14 -2.44362e-14 1.04811e-14
  6 4330.57 -4.18804e-08 1163.03 8.34148e-14 -1.07118e-14 -1.41534e-14
  7 4330.57 -4.18804e-08 1163.03 1.90511e-13 -7.15336e-14 1.67217e-15
  8 4330.57 -4.18804e-08 1163.03 1.80620e-13 -1.44715e-14 -6.28541e-14
</Section>

newXOutput 75

<Section columns = "stress_xx | stress_yy | stress_zz | stress_xy | stress_yz | stress_xz">
  1 4364.44 -4.14357e-08 1176.41 1.43146e-14 3.25481e-14 -4.00500e-14
  2 4364.44 -4.14357e-08 1176.41 1.36103e-14 2.13436e-14 -9.64979e-14
  3 4364.44 -4.14358e-08 1176.41 3.87088e-14 7.47061e-14 -5.23740e-14
  4 4364.44 -4.14358e-08 1176.41 3.60804e-14 7.25419e-14 -1.26755e-13
  5 4364.44 -4.14358e-08 1176.41 7.16823e-15 2.99930e-14 -4.02888e-14
  6 4364.44 -4.14358e-08 1176.41 4.53985e-15 1.18077e-14 -1.08909e-13
  7 4364.44 -4.14362e-08 1176.41 2.28096e-14 6.94424e-14 -5.32651e-14
  8 4364.44 -4.14362e-08 1176.41 1.30004e-14 5.28976e-14 -1.73074e-13
</Section>

newXOutput 76

<Section columns = "stress_xx | stress_yy | stress_zz | stress_xy | stress_yz | stress_xz">
  1 4397.88 -4.09991e-08 1189.74 -6.34562e-16 3.88182e-14 -2.75162e-14
  2 4397.88 -4.09991e-08 1189.74 7.15603e-16 3.10469e-14 -5.15516e-14
  3 4397.88 -4.09991e-08 1189.74 7.15603e-16 7.96705e-14 1.10447e-14
  4 4397.88 -4.09991e-08 1189.74 3.49698e-15 8.75745e-14 -2.44466e-14
  5 4397.88 -4.09991e-08 1189.74 -2.36822e-15 4.26029e-14 -4.42889e-14
  6 4397.88 -4.09991e-08 1189.74 2.67067e-15 4.51718e-14 -6.83243e-14
  7 4397.88 -4.09991e-08 1189.74 2.67067e-15 8.52592e-14 -5.15516e-14
  8 4397.88 -4.09991e-08 1189.74 1.30509e-14 1.08432e-13 -8.70430e-14
</Section>

newXOutput 77

<Section columns = "stress_xx | stress_yy | stress_zz | stress_xy | stress_yz | stress_xz">
  1 4430.90 -4.05653e-08 1203.01 9.54517e-15 8.12155e-15 -5.01475e-14
  2 4430.90 -4.05653e-08 1203.01 9.54517e-15 -1.30128e-14 -1.13513e-13
  3 4430.90 -4.05653e-08 1203.01 2.16695e-14 2.54748e-14 -3.45855e-14
  4 4430.90 -4.05653e-08 1203.01 2.16695e-14 -1.88698e-14 -1.09343e-13
  5 4430.90 -4.05653e-08 1203.01 -9.35500e-15 8.20992e-15 -5.01475e-14
  6 4430.90 -4.05653e-08 1203.01 -9.35500e-15 -1.26830e-14 -1.13513e-13
  7 4430.90 -4.05653e-08 1203.01 -1.17842e-14 3.00686e-14 -3.45855e-14
  8 4430.90 -4.05653e-08 1203.01 -1.17842e-14 -1.72562e-15 -1.09343e-13
</Section>

newXOutput 78

<Section columns = "stress_xx | stress_yy | stress_zz | stress_xy | stress_yz | stress_xz">
  1 4463.52 -4.01360e-08 1216.23 -6.98037e-14 -1.31781e-13 -1.04527e-14
  2 4463.52 -4.01360e-08 1216.23 -6.98037e-14 -2.57724e-13 3.27039e-15
  3 4463.52 -4.01360e-08 1216.23 -1.37961e-13 -2.41408e-13 -5.02299e-15
  4 4463.52 -4.01360e-08 1216.23 -1.37961e-13 -4.80401e-13 -1.14636e-13
  5 4463.52 -4.01360e-08 1216.23 -1.37961e-13 -1.33011e-13 -9.98306e-15
  6 4463.52 -4.01360e-08 1216.23 -1.37961e-13 -2.62313e-13 2.76809e-14
  7 4463.52 -4.01360e-08 1216.23 -2.68853e-13 -2.41738e-13 -3.27039e-15
  8 4463.52 -4.01360e-08 1216.23 -2.68853e-13 -4.81631e-13 -2.35342e-14
</Section>

newXOutput 79

<Section columns = "stress_xx | stress_yy | stress_zz | stress_xy | stress_yz | stress_xz">
  1 4495.73 -3.97204e-08 1229.39 -2.60731e-14 -4.27977e-14 -1.54443e-14
  2 4495.73 -3.97203e-08 1229.39 -2.60731e-14 -4.57366e-14 -5.20056e-14
  3 4495.73 -3.97203e-08 1229.39 -5.71296e-14 -7.83361e-14 1.78022e-14
  4 4495.73 -3.97202e-08 1229.39 -5.71296e-14 -5.75397e-14 -3.86774e-14
  5 4495.73 -3.97203e-08 1229.39 -3.04243e-14 -4.03407e-14 -2.89205e-14
  6 4495.73 -3.97202e-08 1229.39 -3.04243e-14 -3.65669e-14 -7.97669e-14
  7 4495.73 -3.97202e-08 1229.39 -4.99171e-14 -7.76778e-14 -3.24918e-14
  8 4495.73 -3.97199e-08 1229.39 -4.99171e-14 -5.50827e-14 -1.42284e-13
</Section>

newXOutput 80

<Section columns = "stress_xx | stress_yy | stress_zz | stress_xy | stress_yz | stress_xz">
  1 4527.54 -3.93065e-08 1242.50 -1.19534e-14 -1.67316e-14 2.55267e-14
  2 4527.54 -3.93065e-08 1242.50 -1.19534e-14 -3.44675e-14 1.00869e-13
  3 4527.54 -3.93065e-08 1242.50 -2.26666e-14 -1.97397e-14 5.38544e-14
  4 4527.54 -3.93065e-08 1242.50 -2.26666e-14 -4.06643e-14 9.64507e-14
  5 4527.54 -3.93065e-08 1242.50 -2.26666e-14 -1.67316e-14 1.55913e-14
  6 4527.54 -3.93065e-08 1242.50 -2.26666e-14 -3.44675e-14 8.61981e-14
  7 4527.54 -3.93065e-08 1242.50 -3.93879e-14 -1.97397e-14 1.67752e-14
  8 4527.54 -3.93065e-08 1242.50 -3.93879e-14 -4.06643e-14 4.16985e-14
</Section>

newXOutput 81

<Section columns = "stress_xx | stress_yy | stress_zz | stress_xy | stress_yz | stress_xz">
  1 4558.96 -3.88982e-08 1255.56 -4.56831e-15 2.99388e-14 -1.87222e-14
  2 4558.96 -3.88982e-08 1255.56 -5.19389e-15 1.75733e-14 -6.43010e-14
  3 4558.96 -3.88982e-08 1255.56 -9.00048e-15 9.11411e-14 4.74036e-15
  4 4558.96 -3.88982e-08 1255.56 -9.16810e-15 6.00670e-14 -8.62707e-14
  5 4558.96 -3.88982e-08 1255.56 -9.79368e-15 3.12529e-14 -2.51554e-14
  6 4558.96 -3.88982e-08 1255.56 -1.21284e-14 2.24779e-14 -6.60248e-14
  7 4558.96 -3.88982e-08 1255.56 -1.86438e-14 9.60456e-14 -1.92686e-14
  8 4558.96 -3.88982e-08 1255.56 -1.92694e-14 7.83709e-14 -9.27039e-14
</Section>

newXOutput 82

<Section columns = "stress_xx | stress_yy | stress_zz | stress_xy | stress_yz | stress_xz">
  1 4589.99 -3.84971e-08 1268.56 2.43438e-16 1.58128e-14 -2.39307e-14
  2 4589.99 -3.84971e-08 1268.56 9.08523e-16 9.53574e-15 -5.34946e-14
  3 4589.99 -3.84971e-08 1268.56 9.08523e-16 3.58281e-14 -1.51069e-14
  4 4589.99 -3.84971e-08 1268.56 3.39065e-15 4.40745e-14 -4.67829e-14
  5 4589.99 -3.84971e-08 1268.56 9.08523e-16 1.95756e-14 -3.07880e-14
  6 4589.99 -3.84971e-08 1268.56 3.39065e-15 2.35787e-14 -7.90863e-14
  7 4589.99 -3.84971e-08 1268.56 3.39065e-15 4.13844e-14 -4.06987e-14
  8 4589.99 -3.84971e-08 1268.56 1.26541e-14 6.48107e-14 -1.42293e-13
</Section>

newXOutput 83

<Section columns = "stress_xx | stress_yy | stress_zz | stress_xy | stress_yz | stress_xz">
  1 4620.65 -3.80981e-08 1281.51 -1.24416e-31 -9.81776e-14 -1.52222e-14
  2 4620.65 -3.80979e-08 1281.51 -4.64328e-31 -9.57461e-14 -5.68101e-14
  3 4620.65 -3.80979e-08 1281.51 3.72355e-31 -2.07437e-13 1.95458e-14
  4 4620.65 -3.80981e-08 1281.51 1.38965e-30 -1.67496e-13 7.29460e-14
  5 4620.65 -3.81012e-08 1281.51 -5.13434e-31 -9.95771e-14 -2.88619e-14
  6 4620.65 -3.81005e-08 1281.51 -1.91616e-30 -1.00969e-13 -1.07714e-13
  7 4620.65 -3.81005e-08 1281.51 -1.16293e-30 -2.16899e-13 -3.13581e-14
  8 4620.65 -3.81012e-08 1281.51 -4.34011e-30 -2.02810e-13 -1.17030e-13
</Section>

newXOutput 84

<Section columns = "stress_xx | stress_yy | stress_zz | stress_xy | stress_yz | stress_xz">
  1 4650.93 -3.77110e-08 1294.40 8.41712e-15 1.23679e-13 1.69567e-15
  2 4650.93 -3.77110e-08 1294.40 9.07158e-15 1.14417e-13 6.32834e-15
  3 4650.93 -3.77110e-08 1294.40 1.77400e-14 2.58028e-13 -3.16417e-14
  4 4650.93 -3.77110e-08 1294.40 2.01825e-14 2.60086e-13 -1.18088e-13
  5 4650.93 -3.77079e-08 1294.40 3.08518e-15 1.27434e-13 8.47836e-15
  6 4650.93 -3.77079e-08 1294.40 5.52765e-15 1.28433e-13 3.16417e-14
  7 4650.93 -3.77079e-08 1294.40 7.85035e-15 2.63574e-13 -6.32834e-15
  8 4650.93 -3.77079e-08 1294.40 1.69658e-14 2.80782e-13 -2.36177e-14
</Section>

newXOutput 85

<Section columns = "stress_xx | stress_yy | stress_zz | stress_xy | stress_yz | stress_xz">
  1 4680.84 -3.73248e-08 1307.24 -5.41325e-15 1.94049e-13 -1.33706e-14
  2 4680.84 -3.73248e-08 1307.24 -6.06249e-15 1.93705e-13 -4.98999e-14
  3 4680.84 -3.73248e-08 1307.24 -9.54260e-15 3.98904e-13 -1.21361e-14
  4 4680.84 -3.73248e-08 1307.24 -1.19656e-14 4.32661e-13 -4.52924e-14
  5 4680.84 -3.73248e-08 1307.24 -9.54260e-15 1.91430e-13 -2.01165e-14
  6 4680.84 -3.73248e-08 1307.24 -1.19656e-14 1.83934e-13 -7.50758e-14
  7 4680.84 -3.73248e-08 1307.24 -7.57685e-15 3.89133e-13 -3.73120e-14
  8 4680.84 -3.73248e-08 1307.24 -1.66195e-14 3.96194e-13 -1.39250e-13
</Section>

newXOutput 86

<Section columns = "stress_xx | stress_yy | stress_zz | stress_xy | stress_yz | stress_xz">
  1 4710.39 -3.69446e-08 1320.04 -5.13945e-15 2.66148e-14 -1.40246e-14
  2 4710.39 -3.69446e-08 1320.04 -5.13945e-15 2.07529e-14 -8.73838e-14
  3 4710.39 -3.69446e-08 1320.04 -8.84709e-15 6.62293e-14 -1.22650e-14
  4 4710.39 -3.69446e-08 1320.04 -8.84709e-15 4.85794e-14 -5.51634e-14
  5 4710.39 -3.69446e-08 1320.04 -8.84709e-15 2.53946e-14 -2.07339e-14
  6 4710.39 -3.69446e-08 1320.04 -8.84709e-15 1.61989e-14 -1.12423e-13
  7 4710.39 -3.69446e-08 1320.04 -1.77589e-14 6.59023e-14 -3.73046e-14
  8 4710.39 -3.69446e-08 1320.04 -1.77589e-14 4.73592e-14 -1.48612e-13
</Section>

newXOutput 87

<Section columns = "stress_xx | stress_yy | stress_zz | stress_xy | stress_yz | stress_xz">
  1 4739.58 -3.65690e-08 1332.78 -7.16387e-15 -1.13900e-13 1.15662e-14
  2 4739.58 -3.65690e-08 1332.78 -7.16387e-15 -1.28648e-13 4.17071e-16
  3 4739.58 -3.65690e-08 1332.78 -1.29073e-14 -2.22192e-13 -2.90452e-14
  4 4739.58 -3.65690e-08 1332.78 -1.29073e-14 -2.43036e-13 -1.47200e-13
  5 4739.58 -3.65690e-08 1332.78 -1.29073e-14 -1.13812e-13 1.77923e-14
  6 4739.58 -3.65690e-08 1332.78 -1.29073e-14 -1.28322e-13 2.08535e-15
  7 4739.58 -3.65690e-08 1332.78 -1.96833e-14 -2.17642e-13 -5.80905e-15
  8 4739.58 -3.65690e-08 1332.78 -1.96833e-14 -2.26056e-13 -1.40974e-13
</Section>

newXOutput 88

<Section columns = "stress_xx | stress_yy | stress_zz | stress_xy | stress_yz | stress_xz">
  1 4768.43 -3.62033e-08 1345.47 -2.16486e-16 -2.81201e-14 -9.94786e-15
  2 4768.43 -3.62033e-08 1345.47 -8.07936e-16 -2.94575e-14 -7.96446e-14
  3 4768.43 -3.62033e-08 1345.47 -5.80072e-17 -1.48423e-14 -3.46369e-14
  4 4768.43 -3.62033e-08 1345.47 -2.16486e-16 -9.85117e-15 -1.67860e-13
  5 4768.43 -3.62033e-08 1345.47 -8.07936e-16 -2.81201e-14 -3.75524e-15
  6 4768.43 -3.62033e-08 1345.47 -3.01526e-15 -2.94575e-14 -7.79853e-14
  7 4768.43 -3.62033e-08 1345.47 -2.16486e-16 -1.48423e-14 -1.15258e-14
  8 4768.43 -3.62033e-08 1345.47 -8.07936e-16 -9.85117e-15 -1.61667e-13
</Section>

newXOutput 89

<Section columns = "stress_xx | stress_yy | stress_zz | stress_xy | stress_yz | stress_xz">
  1 4796.93 -3.58414e-08 1358.10 8.59124e-16 -1.92936e-14 4.12442e-14
  2 4796.93 -3.58414e-08 1358.10 2.30201e-16 -3.01572e-14 8.49641e-14
  3 4796.93 -3.58414e-08 1358.10 3.20629e-15 -2.59422e-14 1.10514e-14
  4 4796.93 -3.58414e-08 1358.10 8.59124e-16 -3.50243e-14 2.27661e-14
  5 4796.93 -3.58414e-08 1358.10 3.20629e-15 -1.55560e-14 4.12442e-14
  6 4796.93 -3.58414e-08 1358.10 8.59124e-16 -1.62080e-14 8.49641e-14
  7 4796.93 -3.58414e-08 1358.10 1.19660e-14 -2.04231e-14 1.10514e-14
  8 4796.93 -3.58414e-08 1358.10 3.20629e-15 -1.44265e-14 2.27661e-14
</Section>

newXOutput 90

<Section columns = "stress_xx | stress_yy | stress_zz | stress_xy | stress_yz | stress_xz">
  1 4825.08 -3.54794e-08 1370.69 2.28394e-16 -3.21905e-14 2.96504e-14
  2 4825.08 -3.54794e-08 1370.69 8.52379e-16 -3.55436e-14 5.30566e-15
  3 4825.08 -3.54794e-08 1370.69 8.52379e-16 -6.47184e-14 5.30566e-15
  4 4825.08 -3.54794e-08 1370.69 3.18112e-15 -6.72689e-14 -1.35764e-13
  5 4825.08 -3.54794e-08 1370.69 8.52379e-16 -2.95847e-14 2.96504e-14
  6 4825.08 -3.54794e-08 1370.69 3.18112e-15 -2.58186e-14 5.30566e-15
  7 4825.08 -3.54794e-08 1370.69 3.18112e-15 -5.49935e-14 5.30566e-15
  8 4825.08 -3.54794e-08 1370.69 1.18721e-14 -3.09749e-14 -1.35764e-13
</Section>

newXOutput 91

<Section columns = "stress_xx | stress_yy | stress_zz | stress_xy | stress_yz | stress_xz">
  1 4852.90 -3.51274e-08 1383.23 8.45710e-16 5.54062e-15 -2.43165e-14
  2 4852.90 -3.51275e-08 1383.23 2.26607e-16 8.05675e-15 -5.13596e-14
  3 4852.90 -3.51275e-08 1383.23 3.15623e-15 -7.69942e-16 1.40391e-14
  4 4852.90 -3.51278e-08 1383.23 8.45710e-16 4.42292e-14 -3.69415e-14
  5 4852.90 -3.51275e-08 1383.23 3.15623e-15 4.15176e-15 -3.69415e-14
  6 4852.90 -3.51278e-08 1383.23 8.45710e-16 2.87346e-15 -7.73675e-14
  7 4852.90 -3.51278e-08 1383.23 1.17792e-14 -1.01603e-14 -3.30782e-14
  8 4852.90 -3.51288e-08 1383.23 3.15623e-15 9.18403e-15 -1.34004e-13
</Section>

newXOutput 92

<Section columns = "stress_xx | stress_yy | stress_zz | stress_xy | stress_yz | stress_xz">
  1 4880.40 -3.47799e-08 1395.72 7.72618e-15 1.16069e-13 -3.31704e-14
  2 4880.40 -3.47799e-08 1395.72 7.11190e-15 1.39122e-13 -8.98617e-14
  3 4880.40 -3.47798e-08 1395.72 1.55402e-14 2.13460e-13 -1.71253e-14
  4 4880.40 -3.47798e-08 1395.72 1.32477e-14 2.63920e-13 -5.48204e-14
  5 4880.40 -3.47798e-08 1395.72 1.55402e-14 1.12255e-13 -3.96670e-14
  6 4880.40 -3.47798e-08 1395.72 1.32477e-14 1.24887e-13 -1.14107e-13
  7 4880.40 -3.47794e-08 1395.72 3.06101e-14 2.03428e-13 -4.13708e-14
  8 4880.40 -3.47794e-08 1395.72 2.20543e-14 2.26481e-13 -1.45306e-13
</Section>

newXOutput 93

<Section columns = "stress_xx | stress_yy | stress_zz | stress_xy | stress_yz | stress_xz">
  1 4907.56 -3.44353e-08 1408.16 1.21244e-14 2.78133e-14 -1.66575e-15
  2 4907.56 -3.44353e-08 1408.16 1.15149e-14 2.13957e-14 2.75354e-14
  3 4907.56 -3.44353e-08 1408.16 1.97810e-14 3.59419e-14 -8.63997e-15
  4 4907.56 -3.44353e-08 1408.16 1.75063e-14 6.16673e-14 -2.32010e-14
  5 4907.56 -3.44353e-08 1408.16 6.13289e-15 2.65141e-14 -8.12787e-15
  6 4907.56 -3.44353e-08 1408.16 3.85821e-15 1.65470e-14 3.41850e-15
  7 4907.56 -3.44353e-08 1408.16 1.60642e-14 3.10932e-14 -3.27569e-14
  8 4907.56 -3.44353e-08 1408.16 7.57499e-15 4.35716e-14 -1.13207e-13
</Section>

newXOutput 94

<Section columns = "stress_xx | stress_yy | stress_zz | stress_xy | stress_yz | stress_xz">
  1 4934.41 -3.40951e-08 1420.55 8.26141e-16 -8.11242e-16 -1.18871e-14
  2 4934.41 -3.40951e-08 1420.55 2.21364e-16 1.05314e-14 -3.91693e-14
  3 4934.41 -3.40951e-08 1420.55 3.08320e-15 1.20669e-14 2.51947e-14
  4 4934.41 -3.40951e-08 1420.55 8.26141e-16 4.86675e-14 -2.89103e-15
  5 4934.41 -3.40951e-08 1420.55 3.08320e-15 -4.61826e-15 -1.78844e-14
  6 4934.41 -3.40951e-08 1420.55 8.26141e-16 -3.67659e-15 -4.07763e-14
  7 4934.41 -3.40951e-08 1420.55 1.15067e-14 2.05411e-15 2.81223e-15
  8 4934.41 -3.40951e-08 1420.55 3.08320e-15 1.12991e-14 -8.88840e-15
</Section>

newXOutput 95

<Section columns = "stress_xx | stress_yy | stress_zz | stress_xy | stress_yz | stress_xz">
  1 4960.94 -3.37632e-08 1432.89 2.19654e-16 -2.96117e-15 -4.13816e-14
  2 4960.94 -3.37632e-08 1432.89 8.19761e-16 2.49503e-15 -1.21042e-13
  3 4960.94 -3.37632e-08 1432.89 8.19761e-16 2.49503e-15 -4.94526e-14
  4 4960.94 -3.37632e-08 1432.89 3.05939e-15 1.29413e-14 -1.75611e-13
  5 4960.94 -3.37632e-08 1432.89 8.19761e-16 -3.67626e-16 -4.13816e-14
  6 4960.94 -3.37632e-08 1432.89 3.05939e-15 1.21743e-14 -1.21042e-13
  7 4960.94 -3.37632e-08 1432.89 3.05939e-15 1.21743e-14 -4.94526e-14
  8 4960.94 -3.37632e-08 1432.89 1.14178e-14 4.90647e-14 -1.75611e-13
</Section>

newXOutput 96

<Section columns = "stress_xx | stress_yy | stress_zz | stress_xy | stress_yz | stress_xz">
  1 4987.16 -3.34326e-08 1445.19 -5.95487e-16 4.74206e-16 1.59012e-15
  2 4987.16 -3.34309e-08 1445.19 5.95487e-16 1.76976e-15 5.93440e-15
  3 4987.16 -3.34326e-08 1445.19 -2.22239e-15 1.76976e-15 -2.96720e-14
  4 4987.16 -3.34309e-08 1445.19 2.22239e-15 6.60484e-15 -1.10737e-13
  5 4987.16 -3.34309e-08 1445.19 -2.22239e-15 1.76976e-15 7.95059e-15
  6 4987.16 -3.34305e-08 1445.19 2.22239e-15 6.60484e-15 2.96720e-14
  7 4987.16 -3.34309e-08 1445.19 -8.29406e-15 6.60484e-15 -5.93440e-15
  8 4987.16 -3.34305e-08 1445.19 8.29406e-15 2.46496e-14 -2.21475e-14
</Section>

newXOutput 97

<Section columns = "stress_xx | stress_yy | stress_zz | stress_xy | stress_yz | stress_xz">
  1 5013.07 -3.31065e-08 1457.43 -3.32751e-14 -8.26335e-14 -1.25407e-14
  2 5013.07 -3.31065e-08 1457.43 -3.26841e-14 -4.27582e-14 -4.68026e-14
  3 5013.07 -3.31065e-08 1457.43 -6.81858e-14 -1.58692e-13 -1.13828e-14
  4 5013.07 -3.31065e-08 1457.43 -6.59804e-14 -6.92628e-14 -4.24811e-14
  5 5013.07 -3.31065e-08 1457.43 -2.18738e-14 -8.13392e-14 -1.88679e-14
  6 5013.07 -3.31065e-08 1457.43 -1.96684e-14 -3.79276e-14 -7.04158e-14
  7 5013.07 -3.31065e-08 1457.43 -4.37108e-14 -1.53861e-13 -3.49960e-14
  8 5013.07 -3.31065e-08 1457.43 -3.54804e-14 -5.12349e-14 -1.30607e-13
</Section>

newXOutput 98

<Section columns = "stress_xx | stress_yy | stress_zz | stress_xy | stress_yz | stress_xz">
  1 5038.68 -3.27855e-08 1469.63 -7.16090e-15 -2.95287e-15 1.17449e-14
  2 5038.68 -3.27855e-08 1469.63 -5.98811e-15 -1.19901e-14 4.38326e-14
  3 5038.68 -3.27855e-08 1469.63 -1.40339e-14 1.69662e-14 -2.66369e-14
  4 5038.68 -3.27855e-08 1469.63 -9.65694e-15 1.29051e-14 -9.94101e-14
  5 5038.68 -3.27855e-08 1469.63 -1.40339e-14 -3.66596e-16 1.80390e-14
  6 5038.68 -3.27855e-08 1469.63 -9.65694e-15 -2.33801e-15 6.73224e-14
  7 5038.68 -3.27855e-08 1469.63 -2.62314e-14 2.66183e-14 -3.14704e-15
  8 5038.68 -3.27855e-08 1469.63 -9.89648e-15 4.89272e-14 -1.17449e-14
</Section>

newXOutput 99

<Section columns = "stress_xx | stress_yy | stress_zz | stress_xy | stress_yz | stress_xz">
  1 5064.00 -3.24700e-08 1481.78 -4.09728e-14 -8.97383e-14 1.31442e-14
  2 5064.00 -3.24713e-08 1481.78 -4.09728e-14 5.36314e-14 8.94441e-15
  3 5064.00 -3.24700e-08 1481.78 -7.51964e-14 -1.48874e-13 -1.86996e-14
  4 5064.00 -3.24713e-08 1481.78 -7.51964e-14 9.96812e-14 -1.06195e-13
  5 5064.00 -3.24708e-08 1481.78 2.25336e-14 -8.71544e-14 2.52473e-14
  6 5064.00 -3.24700e-08 1481.78 2.25336e-14 6.32745e-14 3.38772e-14
  7 5064.00 -3.24708e-08 1481.78 3.72112e-14 -1.39231e-13 2.64700e-14
  8 5064.00 -3.24700e-08 1481.78 3.72112e-14 1.35670e-13 -1.31442e-14
</Section>

newXOutput 100

<Section columns = "stress_xx | stress_yy | stress_zz | stress_xy | stress_yz | stress_xz">
  1 5089.02 -3.21552e-08 1493.88 1.69382e-15 3.22683e-15 -8.27006e-16
  2 5089.02 -3.21552e-08 1493.88 2.27133e-15 -2.74388e-14 -4.29884e-14
  3 5089.02 -3.21552e-08 1493.88 7.21879e-16 -2.74388e-14 -7.50644e-16
  4 5089.02 -3.21552e-08 1493.88 2.87715e-15 -6.29216e-14 -3.90191e-14
  5 5089.02 -3.21552e-08 1493.88 -1.22097e-14 4.51757e-15 -1.24425e-15
  6 5089.02 -3.21552e-08 1493.88 -1.00545e-14 -2.26218e-14 -6.46773e-14
  7 5089.02 -3.21552e-08 1493.88 -2.46696e-14 -2.26218e-14 -2.30783e-15
  8 5089.02 -3.21552e-08 1493.88 -1.66260e-14 -4.49440e-14 -1.19963e-13
</Section>

newXOutput 101

<Section columns = "stress_xx | stress_yy | stress_zz | stress_xy | stress_yz | stress_xz">
  1 5113.75 -3.18532e-08 1505.94 -5.64283e-15 -1.09348e-14 -2.14171e-14
  2 5113.75 -3.18532e-08 1505.94 -6.21595e-15 -1.29007e-14 -1.12294e-13
  3 5113.75 -3.18532e-08 1505.94 -8.65551e-15 -1.29007e-14 -4.29176e-14
  4 5113.75 -3.18532e-08 1505.94 -1.07945e-14 9.34604e-15 -1.68843e-13
  5 5113.75 -3.18532e-08 1505.94 -8.65551e-15 -1.35139e-14 -2.14171e-14
  6 5113.75 -3.18532e-08 1505.94 -1.07945e-14 -2.25260e-14 -1.12294e-13
  7 5113.75 -3.18532e-08 1505.94 -6.75069e-15 -2.25260e-14 -4.29176e-14
  8 5113.75 -3.18532e-08 1505.94 -1.47333e-14 -2.65758e-14 -1.68843e-13
</Section>

newXOutput 102

<Section columns = "stress_xx | stress_yy | stress_zz | stress_xy | stress_yz | stress_xz">
  1 5138.20 -3.15449e-08 1517.95 7.76994e-16 -5.40919e-15 -9.19140e-15
  2 5138.20 -3.15449e-08 1517.95 2.08195e-16 7.69538e-15 2.87577e-15
  3 5138.20 -3.15449e-08 1517.95 2.89978e-15 -3.68087e-15 -4.41689e-15
  4 5138.20 -3.15449e-08 1517.95 7.76994e-16 4.37019e-14 -1.00803e-13
  5 5138.20 -3.15449e-08 1517.95 2.89978e-15 -1.03900e-14 -8.77846e-15
  6 5138.20 -3.15449e-08 1517.95 7.76994e-16 -1.08931e-14 2.43408e-14
  7 5138.20 -3.15449e-08 1517.95 1.08221e-14 -1.39414e-14 -2.87577e-15
  8 5138.20 -3.15449e-08 1517.95 2.89978e-15 5.40919e-15 -2.06945e-14
</Section>

newXOutput 103

<Section columns = "stress_xx | stress_yy | stress_zz | stress_xy | stress_yz | stress_xz">
  1 5162.37 -3.12454e-08 1529.92 8.57888e-14 2.38031e-14 1.62488e-14
  2 5162.37 -3.12439e-08 1529.92 8.57888e-14 7.19404e-15 -3.77536e-14
  3 5162.37 -3.12466e-08 1529.92 1.76946e-13 3.29710e-14 3.09093e-14
  4 5162.37 -3.12450e-08 1529.92 1.76946e-13 5.12521e-14 -2.99373e-14
  5 5162.37 -3.12464e-08 1529.92 8.21397e-14 2.36306e-14 1.01161e-14
  6 5162.37 -3.12442e-08 1529.92 8.21397e-14 6.55046e-15 -6.06413e-14
  7 5162.37 -3.12457e-08 1529.92 1.80595e-13 2.40071e-14 8.02169e-15
  8 5162.37 -3.12447e-08 1529.92 1.80595e-13 1.77984e-14 -1.15355e-13
</Section>

newXOutput 104

<Section columns = "stress_xx | stress_yy | stress_zz | stress_xy | stress_yz | stress_xz">
  1 5186.26 -3.09508e-08 1541.84 -1.02110e-14 -6.53288e-15 -1.47055e-15
  2 5186.26 -3.09508e-08 1541.84 -8.04495e-15 -2.24521e-14 -7.64404e-14
  3 5186.26 -3.09516e-08 1541.84 -2.10349e-14 -3.38074e-14 -9.12250e-16
  4 5186.26 -3.09516e-08 1541.84 -1.65728e-14 -2.59024e-14 -4.74194e-14
  5 5186.26 -3.09516e-08 1541.84 -2.59823e-14 -1.15045e-14 -1.87926e-15
  6 5186.26 -3.09516e-08 1541.84 -1.78984e-14 -4.10063e-14 -9.76851e-14
  7 5186.26 -3.09518e-08 1541.84 -5.35241e-14 -4.40490e-14 -2.43756e-15
  8 5186.26 -3.09518e-08 1541.84 -3.68712e-14 -6.41245e-14 -1.26706e-13
</Section>

newXOutput 105

<Section columns = "stress_xx | stress_yy | stress_zz | stress_xy | stress_yz | stress_xz">
  1 5209.88 -3.06582e-08 1553.71 -1.46838e-14 2.36302e-14 1.01653e-16
  2 5209.88 -3.06582e-08 1553.71 -1.68336e-14 4.50350e-14 5.28399e-15
  3 5209.88 -3.06582e-08 1553.71 -3.02489e-14 7.38043e-14 -1.89687e-15
  4 5209.88 -3.06582e-08 1553.71 -3.46776e-14 1.14389e-13 -9.86006e-14
  5 5209.88 -3.06582e-08 1553.71 -6.66040e-15 1.84910e-14 5.08264e-16
  6 5209.88 -3.06582e-08 1553.71 -1.46838e-14 2.58555e-14 2.64200e-14
  7 5209.88 -3.06582e-08 1553.71 -1.37206e-14 5.46248e-14 -3.79374e-16
  8 5209.88 -3.06582e-08 1553.71 -3.02489e-14 4.28097e-14 -1.97201e-14
</Section>

newXOutput 106

<Section columns = "stress_xx | stress_yy | stress_zz | stress_xy | stress_yz | stress_xz">
  1 5233.23 -3.03726e-08 1565.54 7.76148e-15 -1.31938e-14 -2.10750e-14
  2 5233.23 -3.03726e-08 1565.54 5.55372e-15 -9.01363e-15 -4.71108e-14
  3 5233.23 -3.03726e-08 1565.54 5.90364e-15 5.35782e-15 -1.33041e-14
  4 5233.23 -3.03726e-08 1565.54 -2.33584e-15 3.07743e-14 -4.12000e-14
  5 5233.23 -3.03726e-08 1565.54 5.90364e-15 -1.83282e-14 -2.71139e-14
  6 5233.23 -3.03726e-08 1565.54 -2.33584e-15 -2.81756e-14 -6.96485e-14
  7 5233.23 -3.03726e-08 1565.54 1.58531e-14 -1.38041e-14 -3.58419e-14
  8 5233.23 -3.03726e-08 1565.54 -1.48971e-14 -4.07391e-14 -1.25312e-13
</Section>

newXOutput 107

<Section columns = "stress_xx | stress_yy | stress_zz | stress_xy | stress_yz | stress_xz">
  1 5256.32 -3.00858e-08 1577.32 4.01044e-16 -2.64064e-14 1.03598e-14
  2 5256.32 -3.00858e-08 1577.32 1.49672e-15 -1.33619e-14 7.00448e-14
  3 5256.32 -3.00858e-08 1577.32 1.49672e-15 -8.21191e-14 2.77591e-15
  4 5256.32 -3.00858e-08 1577.32 5.58583e-15 -3.49538e-14 1.87684e-14
  5 5256.32 -3.00873e-08 1577.32 1.49672e-15 -3.13643e-14 1.03598e-14
  6 5256.32 -3.00873e-08 1577.32 5.58583e-15 -3.18651e-14 7.00448e-14
  7 5256.32 -3.00873e-08 1577.32 5.58583e-15 -9.23325e-14 2.77591e-15
  8 5256.32 -3.00873e-08 1577.32 2.08466e-14 -7.30708e-14 1.87684e-14
</Section>

newXOutput 108

<Section columns = "stress_xx | stress_yy | stress_zz | stress_xy | stress_yz | stress_xz">
  1 5279.15 -2.98060e-08 1589.06 -9.08480e-15 8.50839e-14 -7.51858e-15
  2 5279.15 -2.98060e-08 1589.06 -1.01724e-14 3.73610e-14 3.16224e-15
  3 5279.15 -2.98060e-08 1589.06 -4.68745e-15 2.12534e-13 -3.03014e-14
  4 5279.15 -2.98060e-08 1589.06 -8.74625e-15 7.21059e-14 -1.04720e-13
  5 5279.15 -2.98060e-08 1589.06 -2.90402e-14 8.52556e-14 -1.54088e-15
  6 5279.15 -2.98060e-08 1589.06 -3.30990e-14 3.80016e-14 2.54713e-14
  7 5279.15 -2.98060e-08 1589.06 -5.83706e-14 2.21457e-13 -7.99230e-15
  8 5279.15 -2.98060e-08 1589.06 -7.35182e-14 1.05406e-13 -2.14618e-14
</Section>

newXOutput 109

<Section columns = "stress_xx | stress_yy | stress_zz | stress_xy | stress_yz | stress_xz">
  1 5301.72 -2.95260e-08 1600.76 -5.11671e-15 -1.62721e-14 -1.17881e-14
  2 5301.72 -2.95272e-08 1600.76 -5.11671e-15 -1.86922e-14 -4.39938e-14
  3 5301.72 -2.95260e-08 1600.76 -7.41423e-15 -3.30242e-14 -1.06996e-14
  4 5301.72 -2.95272e-08 1600.76 -7.41423e-15 -1.26891e-14 -3.99316e-14
  5 5301.72 -2.95272e-08 1600.76 -7.41423e-15 -1.62721e-14 -1.77355e-14
  6 5301.72 -2.95275e-08 1600.76 -7.41423e-15 -1.86922e-14 -6.61898e-14
  7 5301.72 -2.95272e-08 1600.76 -3.60591e-15 -3.30242e-14 -3.28957e-14
  8 5301.72 -2.95275e-08 1600.76 -3.60591e-15 -1.26891e-14 -1.22768e-13
</Section>

newXOutput 110

<Section columns = "stress_xx | stress_yy | stress_zz | stress_xy | stress_yz | stress_xz">
  1 5324.04 -2.92590e-08 1612.41 2.91071e-14 2.95941e-14 -2.12912e-14
  2 5324.04 -2.92579e-08 1612.41 2.91071e-14 1.11729e-14 -7.94598e-14
  3 5324.04 -2.92590e-08 1612.41 7.46461e-14 9.70870e-14 -1.32079e-14
  4 5324.04 -2.92579e-08 1612.41 7.46461e-14 3.81183e-14 -4.92925e-14
  5 5324.04 -2.92590e-08 1612.41 2.66567e-14 3.21520e-14 -2.72086e-14
  6 5324.04 -2.92579e-08 1612.41 2.66567e-14 2.07190e-14 -1.01544e-13
  7 5324.04 -2.92590e-08 1612.41 6.95982e-14 1.06633e-13 -3.52919e-14
  8 5324.04 -2.92579e-08 1612.41 6.95982e-14 7.37444e-14 -1.31711e-13
</Section>

newXOutput 111

<Section columns = "stress_xx | stress_yy | stress_zz | stress_xy | stress_yz | stress_xz">
  1 5346.10 -2.89881e-08 1624.02 2.84244e-14 4.49202e-15 1.47189e-15
  2 5346.10 -2.89880e-08 1624.02 2.84244e-14 -2.51952e-14 5.49318e-15
  3 5346.10 -2.89889e-08 1624.02 6.16355e-14 1.77228e-14 -2.74659e-14
  4 5346.10 -2.89887e-08 1624.02 6.16355e-14 -4.42156e-14 -1.02504e-13
  5 5346.10 -2.89889e-08 1624.02 1.39985e-14 7.04754e-15 7.35947e-15
  6 5346.10 -2.89887e-08 1624.02 1.39985e-14 -1.56579e-14 2.74659e-14
  7 5346.10 -2.89889e-08 1624.02 4.03337e-14 2.72601e-14 -5.49318e-15
  8 5346.10 -2.89883e-08 1624.02 4.03337e-14 -8.62181e-15 -2.05008e-14
</Section>

newXOutput 112

<Section columns = "stress_xx | stress_yy | stress_zz | stress_xy | stress_yz | stress_xz">
  1 5367.93 -2.87237e-08 1635.58 6.74653e-15 2.45654e-14 -7.77779e-16
  2 5367.93 -2.87237e-08 1635.58 7.80244e-15 -1.97926e-14 -4.04296e-14
  3 5367.93 -2.87237e-08 1635.58 1.45442e-14 6.59655e-14 -7.05963e-16
  4 5367.93 -2.87237e-08 1635.58 1.84849e-14 -3.12446e-14 -3.66965e-14
  5 5367.93 -2.87237e-08 1635.58 -9.09989e-15 2.71186e-14 -1.17019e-15
  6 5367.93 -2.87237e-08 1635.58 -5.15921e-15 -1.02640e-14 -6.08274e-14
  7 5367.93 -2.87237e-08 1635.58 -1.63343e-14 7.54942e-14 -2.17046e-15
  8 5367.93 -2.87237e-08 1635.58 -1.62743e-15 4.31692e-15 -1.12822e-13
</Section>

newXOutput 113

<Section columns = "stress_xx | stress_yy | stress_zz | stress_xy | stress_yz | stress_xz">
  1 5389.51 -2.84599e-08 1647.10 -5.32245e-16 8.71145e-16 2.54933e-14
  2 5389.51 -2.84599e-08 1647.10 -2.62864e-15 -1.10289e-14 6.46990e-14
  3 5389.51 -2.84599e-08 1647.10 3.48844e-15 1.45135e-14 -5.59513e-16
  4 5389.51 -2.84599e-08 1647.10 -4.33540e-15 8.71145e-16 -1.02454e-14
  5 5389.51 -2.84599e-08 1647.10 3.48844e-15 3.25116e-15 1.96647e-14
  6 5389.51 -2.84599e-08 1647.10 -4.33540e-15 -2.14659e-15 4.29461e-14
  7 5389.51 -2.84599e-08 1647.10 1.44860e-14 1.51512e-14 -2.23123e-14
  8 5389.51 -2.84599e-08 1647.10 -1.47130e-14 3.25116e-15 -9.14281e-14
</Section>

newXOutput 114

<Section columns = "stress_xx | stress_yy | stress_zz | stress_xy | stress_yz | stress_xz">
  1 5410.85 -2.81989e-08 1658.58 -2.99038e-15 2.16446e-15 1.21748e-14
  2 5410.85 -2.81989e-08 1658.58 -1.94981e-15 -1.95008e-14 8.28478e-15
  3 5410.85 -2.81989e-08 1658.58 -5.72529e-15 6.01858e-15 -1.73205e-14
  4 5410.85 -2.81989e-08 1658.58 -1.84184e-15 -3.43510e-14 -9.83629e-14
  5 5410.85 -2.81989e-08 1658.58 -5.72529e-15 9.63949e-15 2.33854e-14
  6 5410.85 -2.81989e-08 1658.58 -1.84184e-15 8.39644e-15 3.13788e-14
  7 5410.85 -2.81989e-08 1658.58 -1.99108e-14 2.56786e-14 2.45179e-14
  8 5410.85 -2.81989e-08 1658.58 -5.41754e-15 3.90213e-14 -1.21748e-14
</Section>

newXOutput 115

<Section columns = "stress_xx | stress_yy | stress_zz | stress_xy | stress_yz | stress_xz">
  1 5431.95 -2.79459e-08 1670.02 2.59008e-14 -9.24763e-14 -1.93723e-14
  2 5431.95 -2.79460e-08 1670.02 2.48677e-14 -8.38430e-14 -3.74953e-14
  3 5431.95 -2.79457e-08 1670.02 5.27240e-14 -1.83623e-13 2.02869e-14
  4 5431.95 -2.79459e-08 1670.02 4.88687e-14 -1.70875e-13 -3.22009e-15
  5 5431.95 -2.79457e-08 1670.02 2.95923e-14 -9.24763e-14 -2.47564e-14
  6 5431.95 -2.79459e-08 1670.02 2.57370e-14 -8.38430e-14 -3.89379e-14
  7 5431.95 -2.79447e-08 1670.02 5.86014e-14 -1.83623e-13 1.93280e-16
  8 5431.95 -2.79457e-08 1670.02 4.42133e-14 -1.70875e-13 -8.60416e-15
</Section>

newXOutput 116

<Section columns = "stress_xx | stress_yy | stress_zz | stress_xy | stress_yz | stress_xz">
  1 5452.82 -2.76952e-08 1681.41 1.79820e-14 -6.35951e-14 -6.60049e-15
  2 5452.82 -2.76931e-08 1681.41 1.69564e-14 -4.65457e-14 3.53480e-14
  3 5452.82 -2.76952e-08 1681.41 5.02709e-14 -1.03512e-13 -2.89399e-14
  4 5452.82 -2.76931e-08 1681.41 4.64435e-14 -8.85177e-14 -9.19330e-14
  5 5452.82 -2.76957e-08 1681.41 2.73066e-14 -6.35951e-14 -8.58533e-16
  6 5452.82 -2.76952e-08 1681.41 2.34792e-14 -4.65457e-14 5.67773e-14
  7 5452.82 -2.76957e-08 1681.41 5.76224e-14 -1.03512e-13 -7.51056e-15
  8 5452.82 -2.76952e-08 1681.41 4.33384e-14 -8.85177e-14 -1.19578e-14
</Section>

newXOutput 117

<Section columns = "stress_xx | stress_yy | stress_zz | stress_xy | stress_yz | stress_xz">
  1 5473.47 -2.74404e-08 1692.76 3.36608e-32 9.46297e-15 -7.14188e-16
  2 5473.47 -2.74404e-08 1692.76 1.07585e-31 -5.46345e-15 3.17933e-14
  3 5473.47 -2.74404e-08 1692.76 -8.95462e-32 1.99870e-14 2.50341e-14
  4 5473.47 -2.74404e-08 1692.76 2.41674e-33 1.43761e-14 1.52781e-14
  5 5473.47 -2.74404e-08 1692.76 3.36608e-32 1.43761e-14 -6.04496e-15
  6 5473.47 -2.74404e-08 1692.76 3.54300e-32 1.28727e-14 3.03649e-14
  7 5473.47 -2.74404e-08 1692.76 -1.73912e-32 3.01082e-14 5.13941e-15
  8 5473.47 -2.74404e-08 1692.76 2.41674e-33 5.21490e-14 9.94736e-15
</Section>

newXOutput 118

<Section columns = "stress_xx | stress_yy | stress_zz | stress_xy | stress_yz | stress_xz">
  1 5493.88 -2.71975e-08 1704.07 2.83382e-32 -6.34857e-16 -1.05136e-14
  2 5493.88 -2.71975e-08 1704.07 7.59321e-33 1.18466e-14 -3.46437e-14
  3 5493.88 -2.71975e-08 1704.07 1.05760e-31 -2.36932e-15 2.22837e-14
  4 5493.88 -2.71975e-08 1704.07 2.83382e-32 4.42121e-14 -2.55700e-15
  5 5493.88 -2.71975e-08 1704.07 7.59321e-33 -3.17428e-15 -1.58181e-14
  6 5493.88 -2.71975e-08 1704.07 2.03459e-33 2.36932e-15 -3.60650e-14
  7 5493.88 -2.71975e-08 1704.07 2.83382e-32 -1.18466e-14 2.48731e-15
  8 5493.88 -2.71975e-08 1704.07 7.59321e-33 8.84241e-15 -7.86143e-15
</Section>

newXOutput 119

<Section columns = "stress_xx | stress_yy | stress_zz | stress_xy | stress_yz | stress_xz">
  1 5514.08 -2.69556e-08 1715.34 -1.92741e-32 3.36863e-16 -2.94027e-14
  2 5514.08 -2.69556e-08 1715.34 5.47540e-32 3.05759e-16 -1.05161e-13
  3 5514.08 -2.69556e-08 1715.34 9.37866e-33 1.75104e-14 -1.68448e-14
  4 5514.08 -2.69556e-08 1715.34 4.07633e-31 1.58936e-14 -1.48164e-13
  5 5514.08 -2.69556e-08 1715.34 4.86433e-32 5.06820e-16 -3.46810e-14
  6 5514.08 -2.69556e-08 1715.34 2.36653e-31 9.40047e-16 -1.06576e-13
  7 5514.08 -2.69556e-08 1715.34 4.05996e-31 2.63449e-14 -3.65436e-14
  8 5514.08 -2.69556e-08 1715.34 1.62072e-30 4.88644e-14 -1.53442e-13
</Section>

newXOutput 120

<Section columns = "stress_xx | stress_yy | stress_zz | stress_xy | stress_yz | stress_xz">
  1 5534.05 -2.67149e-08 1726.57 6.36639e-15 4.18134e-15 3.59684e-14
  2 5534.05 -2.67150e-08 1726.57 7.36279e-15 -2.50653e-14 1.45129e-14
  3 5534.05 -2.67140e-08 1726.57 1.37247e-14 3.31566e-15 1.45129e-14
  4 5534.05 -2.67140e-08 1726.57 1.74434e-14 -4.76806e-14 -8.70844e-14
  5 5534.05 -2.67142e-08 1726.57 -8.58715e-15 6.71623e-15 4.15978e-14
  6 5534.05 -2.67149e-08 1726.57 -4.86850e-15 -1.56050e-14 3.55223e-14
  7 5534.05 -2.67138e-08 1726.57 -1.54139e-14 1.27760e-14 3.55223e-14
  8 5534.05 -2.67140e-08 1726.57 -1.53573e-15 -1.23742e-14 -8.67646e-15
</Section>

newXOutput 121

<Section columns = "stress_xx | stress_yy | stress_zz | stress_xy | stress_yz | stress_xz">
  1 5553.81 -2.64799e-08 1737.76 -7.69008e-32 -4.71094e-14 -1.74990e-14
  2 5553.81 -2.64799e-08 1737.76 -1.43579e-31 -3.87853e-14 -3.60484e-14
  3 5553.81 -2.64799e-08 1737.76 -2.06055e-32 -9.54965e-14 -4.68885e-15
  4 5553.81 -2.64799e-08 1737.76 -3.84717e-32 -7.41139e-14 -9.65913e-15
  5 5553.81 -2.64799e-08 1737.76 -7.69008e-32 -4.45768e-14 -1.74990e-14
  6 5553.81 -2.64799e-08 1737.76 -1.43579e-31 -2.93334e-14 -3.60484e-14
  7 5553.81 -2.64799e-08 1737.76 -2.06055e-32 -8.60447e-14 -4.68885e-15
  8 5553.81 -2.64799e-08 1737.76 -3.84717e-32 -3.88390e-14 -9.65913e-15
</Section>

newXOutput 122

<Section columns = "stress_xx | stress_yy | stress_zz | stress_xy | stress_yz | stress_xz">
  1 5573.36 -2.62453e-08 1748.91 6.34954e-15 -1.10870e-14 8.36167e-15
  2 5573.36 -2.62453e-08 1748.91 6.34954e-15 -2.91098e-14 3.12062e-14
  3 5573.36 -2.62453e-08 1748.91 2.36968e-14 -7.79386e-16 -3.12062e-14
  4 5573.36 -2.62453e-08 1748.91 2.36968e-14 -4.86913e-14 -1.16463e-13
  5 5573.36 -2.62453e-08 1748.91 1.70135e-15 -8.55662e-15 8.36167e-15
  6 5573.36 -2.62453e-08 1748.91 1.70135e-15 -1.96663e-14 3.12062e-14
  7 5573.36 -2.62453e-08 1748.91 6.34954e-15 8.66408e-15 -3.12062e-14
  8 5573.36 -2.62453e-08 1748.91 6.34954e-15 -1.34479e-14 -1.16463e-13
</Section>

newXOutput 123

<Section columns = "stress_xx | stress_yy | stress_zz | stress_xy | stress_yz | stress_xz">
  1 5592.69 -2.60143e-08 1760.01 6.31213e-15 -2.75038e-14 6.93408e-15
  2 5592.69 -2.60144e-08 1760.01 6.31213e-15 -7.36963e-15 2.58783e-14
  3 5592.69 -2.60144e-08 1760.01 1.30031e-14 -4.98275e-14 -5.17567e-15
  4 5592.69 -2.60146e-08 1760.01 1.30031e-14 -1.33512e-14 -1.93158e-14
  5 5592.69 -2.60144e-08 1760.01 1.30031e-14 -2.75038e-14 1.38682e-15
  6 5592.69 -2.60146e-08 1760.01 1.30031e-14 -7.36963e-15 5.17567e-15
  7 5592.69 -2.60146e-08 1760.01 2.67868e-14 -4.98275e-14 -2.58783e-14
  8 5592.69 -2.60156e-08 1760.01 2.67868e-14 -1.33512e-14 -9.65792e-14
</Section>

newXOutput 124

<Section columns = "stress_xx | stress_yy | stress_zz | stress_xy | stress_yz | stress_xz">
  1 5611.82 -2.57869e-08 1771.08 -3.45274e-14 -9.06867e-14 2.37319e-14
  2 5611.82 -2.57869e-08 1771.08 -3.45274e-14 1.79321e-15 -5.76657e-14
  3 5611.82 -2.57869e-08 1771.08 -6.34649e-14 -1.67887e-13 4.14021e-15
  4 5611.82 -2.57869e-08 1771.08 -6.34649e-14 3.41115e-15 -1.30783e-13
  5 5611.82 -2.57869e-08 1771.08 -3.83025e-15 -9.32125e-14 2.37319e-14
  6 5611.82 -2.57869e-08 1771.08 -3.83025e-15 -7.63349e-15 -5.76657e-14
  7 5611.82 -2.57869e-08 1771.08 -1.55527e-14 -1.77314e-13 4.14021e-15
  8 5611.82 -2.57869e-08 1771.08 -1.55527e-14 -3.17698e-14 -1.30783e-13
</Section>

newXOutput 125

<Section columns = "stress_xx | stress_yy | stress_zz | stress_xy | stress_yz | stress_xz">
  1 5630.74 -2.55610e-08 1782.11 -6.32749e-15 -1.21925e-14 -1.51005e-14
  2 5630.74 -2.55613e-08 1782.11 -6.32749e-15 -3.23220e-14 5.46885e-15
  3 5630.74 -2.55610e-08 1782.11 -1.28482e-14 -1.52090e-14 -3.17831e-14
  4 5630.74 -2.55613e-08 1782.11 -1.28482e-14 -5.32288e-14 -1.86069e-13
  5 5630.74 -2.55602e-08 1782.11 -1.82314e-14 -1.20235e-14 -9.23903e-15
  6 5630.74 -2.55610e-08 1782.11 -1.82314e-14 -3.16911e-14 4.50995e-14
  7 5630.74 -2.55602e-08 1782.11 -2.78601e-14 -6.42153e-15 -9.90767e-15
  8 5630.74 -2.55610e-08 1782.11 -2.78601e-14 -2.04336e-14 -3.81653e-14
</Section>

newXOutput 126

<Section columns = "stress_xx | stress_yy | stress_zz | stress_xy | stress_yz | stress_xz">
  1 5649.46 -2.53360e-08 1793.09 5.09212e-14 1.06445e-13 -1.07932e-14
  2 5649.46 -2.53352e-08 1793.09 5.09212e-14 4.06674e-14 2.77122e-14
  3 5649.46 -2.53360e-08 1793.09 1.04899e-13 2.55376e-13 1.47773e-14
  4 5649.46 -2.53352e-08 1793.09 1.04899e-13 1.24089e-13 1.21600e-14
  5 5649.46 -2.53352e-08 1793.09 2.47188e-14 1.04092e-13 -2.09946e-14
  6 5649.46 -2.53350e-08 1793.09 2.47188e-14 3.18877e-14 2.49787e-14
  7 5649.46 -2.53352e-08 1793.09 5.09212e-14 2.54746e-13 -2.32949e-14
  8 5649.46 -2.53350e-08 1793.09 5.09212e-14 1.21736e-13 1.95854e-15
</Section>

newXOutput 127

<Section columns = "stress_xx | stress_yy | stress_zz | stress_xy | stress_yz | stress_xz">
  1 5667.97 -2.51193e-08 1804.04 -1.18475e-14 -3.61786e-14 -3.35347e-14
  2 5667.97 -2.51193e-08 1804.04 -1.18475e-14 2.22690e-15 -1.58839e-14
  3 5667.97 -2.51192e-08 1804.04 -2.44062e-14 -8.23887e-14 -3.99042e-14
  4 5667.97 -2.51193e-08 1804.04 -2.44062e-14 2.24135e-14 -3.64372e-14
  5 5667.97 -2.51192e-08 1804.04 -3.17454e-15 -3.86977e-14 -3.38992e-14
  6 5667.97 -2.51193e-08 1804.04 -3.17454e-15 -7.17483e-15 -3.48282e-14
  7 5667.97 -2.51189e-08 1804.04 -6.53962e-15 -9.17904e-14 -4.12644e-14
  8 5667.97 -2.51192e-08 1804.04 -6.53962e-15 -1.26742e-14 -1.07138e-13
</Section>

newXOutput 128

<Section columns = "stress_xx | stress_yy | stress_zz | stress_xy | stress_yz | stress_xz">
  1 5686.30 -2.49016e-08 1814.95 1.03452e-14 3.14078e-14 -1.30500e-15
  2 5686.30 -2.49018e-08 1814.95 1.03452e-14 9.21355e-15 -6.78347e-14
  3 5686.30 -2.49016e-08 1814.95 2.38554e-14 6.25966e-14 -8.09549e-16
  4 5686.30 -2.49016e-08 1814.95 2.38554e-14 5.82454e-14 -4.20810e-14
  5 5686.30 -2.49008e-08 1814.95 2.77198e-15 3.12392e-14 -1.66769e-15
  6 5686.30 -2.49014e-08 1814.95 2.77198e-15 8.58431e-15 -8.66877e-14
  7 5686.30 -2.49006e-08 1814.95 6.39203e-15 5.38324e-14 -2.16314e-15
  8 5686.30 -2.49008e-08 1814.95 6.39203e-15 2.55369e-14 -1.12441e-13
</Section>

newXOutput 129

<Section columns = "stress_xx | stress_yy | stress_zz | stress_xy | stress_yz | stress_xz">
  1 5704.42 -2.46846e-08 1825.82 -1.79510e-14 9.04753e-14 -1.04995e-14
  2 5704.42 -2.46846e-08 1825.82 -1.79510e-14 2.42428e-14 -1.25637e-13
  3 5704.42 -2.46846e-08 1825.82 -2.16398e-14 1.93176e-13 -4.97905e-15
  4 5704.42 -2.46846e-08 1825.82 -2.16398e-14 5.17614e-14 -1.46239e-13
  5 5704.42 -2.46846e-08 1825.82 -4.25764e-14 9.04753e-14 -1.04995e-14
  6 5704.42 -2.46846e-08 1825.82 -4.25764e-14 2.42428e-14 -1.25637e-13
  7 5704.42 -2.46846e-08 1825.82 -7.42182e-14 1.93176e-13 -4.97905e-15
  8 5704.42 -2.46846e-08 1825.82 -7.42182e-14 5.17614e-14 -1.46239e-13
</Section>

newXOutput 130

<Section columns = "stress_xx | stress_yy | stress_zz | stress_xy | stress_yz | stress_xz">
  1 5722.36 -2.44763e-08 1836.65 -4.60917e-15 4.41814e-14 -2.59499e-14
  2 5722.36 -2.44763e-08 1836.65 -4.60917e-15 1.58206e-14 -1.59209e-13
  3 5722.36 -2.44763e-08 1836.65 -1.20039e-14 9.72408e-14 -3.27846e-14
  4 5722.36 -2.44763e-08 1836.65 -1.20039e-14 7.93449e-14 -1.61040e-13
  5 5722.36 -2.44763e-08 1836.65 -1.20039e-14 4.65256e-14 -2.09466e-14
  6 5722.36 -2.44763e-08 1836.65 -1.20039e-14 2.45694e-14 -1.57868e-13
  7 5722.36 -2.44763e-08 1836.65 -2.54005e-14 9.78689e-14 -1.41119e-14
  8 5722.36 -2.44763e-08 1836.65 -2.54005e-14 8.16892e-14 -1.56037e-13
</Section>

newXOutput 131

<Section columns = "stress_xx | stress_yy | stress_zz | stress_xy | stress_yz | stress_xz">
  1 5740.11 -2.42640e-08 1847.44 -5.77548e-31 -1.46041e-13 -7.33188e-15
  2 5740.11 -2.42645e-08 1847.44 -1.74189e-30 -1.51614e-13 5.12313e-16
  3 5740.11 -2.42641e-08 1847.44 -2.87391e-30 -2.81061e-13 -5.92409e-14
  4 5740.11 -2.42644e-08 1847.44 -1.06148e-29 -2.61979e-13 -2.13621e-13
  5 5740.11 -2.42647e-08 1847.44 -3.63579e-31 -1.43699e-13 -1.99494e-15
  6 5740.11 -2.42653e-08 1847.44 -9.43347e-31 -1.42872e-13 2.04301e-14
  7 5740.11 -2.42652e-08 1847.44 -1.93888e-30 -2.80434e-13 -3.93232e-14
  8 5740.11 -2.42648e-08 1847.44 -7.12520e-30 -2.59637e-13 -1.39287e-13
</Section>

newXOutput 132

<Section columns = "stress_xx | stress_yy | stress_zz | stress_xy | stress_yz | stress_xz">
  1 5757.67 -2.40592e-08 1858.20 -4.54568e-15 -1.62744e-14 -1.36916e-15
  2 5757.67 -2.40592e-08 1858.20 -4.54568e-15 -3.26554e-14 2.26327e-14
  3 5757.67 -2.40596e-08 1858.20 -1.18385e-14 -3.56226e-14 -7.10160e-15
  4 5757.67 -2.40596e-08 1858.20 -1.18385e-14 -2.81431e-14 -1.90700e-14
  5 5757.67 -2.40575e-08 1858.20 -1.18385e-14 -1.64425e-14 -6.68068e-15
  6 5757.67 -2.40575e-08 1858.20 -1.18385e-14 -3.32824e-14 2.80983e-15
  7 5757.67 -2.40592e-08 1858.20 -2.50505e-14 -4.43561e-14 -2.69245e-14
  8 5757.67 -2.40592e-08 1858.20 -2.50505e-14 -6.07370e-14 -9.30499e-14
</Section>

newXOutput 133

<Section columns = "stress_xx | stress_yy | stress_zz | stress_xy | stress_yz | stress_xz">
  1 5775.04 -2.38515e-08 1868.91 -1.24522e-31 -6.61096e-14 -1.18403e-14
  2 5775.04 -2.38515e-08 1868.91 -2.45875e-31 -7.18709e-14 -1.65781e-14
  3 5775.04 -2.38515e-08 1868.91 -2.45875e-31 -1.02893e-13 -1.65781e-14
  4 5775.04 -2.38515e-08 1868.91 -8.58979e-31 -9.41667e-14 -5.44720e-14
  5 5775.04 -2.38515e-08 1868.91 -2.92123e-31 -6.37715e-14 -2.24129e-14
  6 5775.04 -2.38515e-08 1868.91 -8.71371e-31 -6.31450e-14 -5.60354e-14
  7 5775.04 -2.38515e-08 1868.91 -8.71371e-31 -1.02266e-13 -5.60354e-14
  8 5775.04 -2.38515e-08 1868.91 -3.19336e-30 -9.18286e-14 -2.01729e-13
</Section>

newXOutput 134

<Section columns = "stress_xx | stress_yy | stress_zz | stress_xy | stress_yz | stress_xz">
  1 5792.24 -2.36532e-08 1879.59 -7.20694e-15 3.58929e-14 4.21180e-14
  2 5792.24 -2.36532e-08 1879.59 -7.20694e-15 2.46401e-14 4.52946e-14
  3 5792.24 -2.36532e-08 1879.59 -1.24061e-14 9.47219e-14 1.58418e-14
  4 5792.24 -2.36532e-08 1879.59 -1.24061e-14 8.14460e-14 -7.28861e-14
  5 5792.24 -2.36532e-08 1879.59 -1.24061e-14 3.58929e-14 4.73793e-14
  6 5792.24 -2.36532e-08 1879.59 -1.24061e-14 2.46401e-14 6.49297e-14
  7 5792.24 -2.36532e-08 1879.59 -2.49029e-14 9.47219e-14 3.54770e-14
  8 5792.24 -2.36532e-08 1879.59 -2.49029e-14 8.14460e-14 3.93327e-16
</Section>

newXOutput 135

<Section columns = "stress_xx | stress_yy | stress_zz | stress_xy | stress_yz | stress_xz">
  1 5809.26 -2.34532e-08 1890.24 -2.45731e-14 -8.50153e-14 3.41991e-14
  2 5809.26 -2.34532e-08 1890.24 -2.45731e-14 -1.41794e-13 -1.10803e-14
  3 5809.26 -2.34532e-08 1890.24 -4.81975e-14 -1.66843e-13 -1.10803e-14
  4 5809.26 -2.34534e-08 1890.24 -4.81975e-14 -2.84575e-13 -1.80065e-13
  5 5809.26 -2.34532e-08 1890.24 -4.81975e-14 -8.73494e-14 4.46718e-14
  6 5809.26 -2.34534e-08 1890.24 -4.81975e-14 -1.50505e-13 2.80044e-14
  7 5809.26 -2.34534e-08 1890.24 -9.86386e-14 -1.67469e-13 2.80044e-14
  8 5809.26 -2.34540e-08 1890.24 -9.86386e-14 -2.86909e-13 -3.41991e-14
</Section>

newXOutput 136

<Section columns = "stress_xx | stress_yy | stress_zz | stress_xy | stress_yz | stress_xz">
  1 5826.10 -2.32594e-08 1900.84 -1.25712e-14 -2.65474e-14 -4.08080e-14
  2 5826.10 -2.32594e-08 1900.84 -1.25712e-14 -1.79362e-14 -6.02581e-14
  3 5826.10 -2.32594e-08 1900.84 -2.33169e-14 -4.59202e-14 -4.34138e-14
  4 5826.10 -2.32594e-08 1900.84 -2.33169e-14 -4.22600e-15 -1.95711e-13
  5 5826.10 -2.32594e-08 1900.84 -8.35556e-15 -2.40480e-14 -4.01097e-14
  6 5826.10 -2.32594e-08 1900.84 -8.35556e-15 -8.60821e-15 -2.39636e-14
  7 5826.10 -2.32594e-08 1900.84 -7.58405e-15 -3.65922e-14 -4.08080e-14
  8 5826.10 -2.32594e-08 1900.84 -7.58405e-15 3.05866e-14 -6.02581e-14
</Section>

newXOutput 137

<Section columns = "stress_xx | stress_yy | stress_zz | stress_xy | stress_yz | stress_xz">
  1 5842.76 -2.30621e-08 1911.41 1.12718e-31 -6.24316e-16 -2.57495e-14
  2 5842.76 -2.30621e-08 1911.41 4.20670e-31 1.16499e-14 -9.60985e-14
  3 5842.76 -2.30621e-08 1911.41 4.20670e-31 -2.32998e-15 -3.80224e-14
  4 5842.76 -2.30621e-08 1911.41 1.56996e-30 4.34780e-14 -1.41902e-13
  5 5842.76 -2.30621e-08 1911.41 3.02027e-32 -3.12158e-15 -2.57495e-14
  6 5842.76 -2.30621e-08 1911.41 1.12718e-31 2.32998e-15 -9.60985e-14
  7 5842.76 -2.30621e-08 1911.41 1.12718e-31 -1.16499e-14 -3.80224e-14
  8 5842.76 -2.30621e-08 1911.41 4.20670e-31 8.69560e-15 -1.41902e-13
</Section>

newXOutput 138

<Section columns = "stress_xx | stress_yy | stress_zz | stress_xy | stress_yz | stress_xz">
  1 5859.25 -2.28711e-08 1921.94 7.95015e-15 3.03665e-14 -2.44245e-14
  2 5859.25 -2.28711e-08 1921.94 7.95015e-15 -1.97989e-14 -1.24227e-13
  3 5859.25 -2.28711e-08 1921.94 1.19694e-14 5.00400e-14 -3.14137e-14
  4 5859.25 -2.28711e-08 1921.94 1.19694e-14 5.92287e-15 -1.47257e-13
  5 5859.25 -2.28711e-08 1921.94 -7.70891e-15 3.03665e-14 -1.96075e-14
  6 5859.25 -2.28711e-08 1921.94 -7.70891e-15 -1.97989e-14 -1.22936e-13
  7 5859.25 -2.28711e-08 1921.94 5.70795e-16 5.00400e-14 -1.34365e-14
  8 5859.25 -2.28711e-08 1921.94 5.70795e-16 5.92287e-15 -1.42440e-13
</Section>

newXOutput 139

<Section columns = "stress_xx | stress_yy | stress_zz | stress_xy | stress_yz | stress_xz">
  1 5875.58 -2.26825e-08 1932.43 9.21241e-15 3.03402e-14 -3.62501e-14
  2 5875.58 -2.26827e-08 1932.43 9.21241e-15 -1.97818e-14 -1.62127e-13
  3 5875.58 -2.26827e-08 1932.43 1.22410e-14 4.99968e-14 -4.70606e-14
  4 5875.58 -2.26825e-08 1932.43 1.22410e-14 5.91775e-15 -1.82824e-13
  5 5875.58 -2.26818e-08 1932.43 -7.30410e-15 3.03402e-14 -4.13887e-14
  6 5875.58 -2.26823e-08 1932.43 -7.30410e-15 -1.97818e-14 -1.81304e-13
  7 5875.58 -2.26823e-08 1932.43 6.61422e-16 4.99968e-14 -6.62383e-14
  8 5875.58 -2.26818e-08 1932.43 6.61422e-16 5.91775e-15 -2.54396e-13
</Section>

newXOutput 140

<Section columns = "stress_xx | stress_yy | stress_zz | stress_xy | stress_yz | stress_xz">
  1 5891.73 -2.24971e-08 1942.89 2.93615e-14 1.77960e-14 5.02900e-15
  2 5891.73 -2.24971e-08 1942.89 2.93615e-14 1.06379e-13 7.63297e-14
  3 5891.73 -2.24972e-08 1942.89 5.81427e-14 5.06039e-14 4.16467e-14
  4 5891.73 -2.24972e-08 1942.89 5.81427e-14 2.47867e-13 9.26265e-14
  5 5891.73 -2.24967e-08 1942.89 5.81427e-14 1.77960e-14 -9.97235e-15
  6 5891.73 -2.24967e-08 1942.89 5.81427e-14 1.06379e-13 3.68747e-14
  7 5891.73 -2.24971e-08 1942.89 1.19148e-13 5.06039e-14 -1.43391e-14
  8 5891.73 -2.24971e-08 1942.89 1.19148e-13 2.47867e-13 -5.46215e-14
</Section>

newXOutput 141

<Section columns = "stress_xx | stress_yy | stress_zz | stress_xy | stress_yz | stress_xz">
  1 5907.72 -2.23093e-08 1953.31 1.74450e-14 5.15353e-14 -1.72150e-14
  2 5907.72 -2.23064e-08 1953.31 1.74450e-14 3.16849e-14 1.74312e-14
  3 5907.72 -2.23093e-08 1953.31 2.91237e-14 9.83991e-14 -3.95666e-14
  4 5907.72 -2.23064e-08 1953.31 2.91237e-14 8.28815e-14 -2.70557e-14
  5 5907.72 -2.23064e-08 1953.31 9.84112e-15 5.38572e-14 -2.23059e-14
  6 5907.72 -2.23056e-08 1953.31 9.84112e-15 4.03505e-14 -1.56804e-15
  7 5907.72 -2.23064e-08 1953.31 2.70863e-14 9.90213e-14 -5.85658e-14
  8 5907.72 -2.23056e-08 1953.31 2.70863e-14 8.52035e-14 -9.79619e-14
</Section>

newXOutput 142

<Section columns = "stress_xx | stress_yy | stress_zz | stress_xy | stress_yz | stress_xz">
  1 5923.55 -2.21235e-08 1963.70 -3.52467e-14 -1.09320e-13 -4.21860e-15
  2 5923.55 -2.21238e-08 1963.70 -3.61020e-14 -8.69699e-14 -7.55531e-15
  3 5923.55 -2.21236e-08 1963.70 -6.38877e-14 -1.98328e-13 3.71886e-14
  4 5923.55 -2.21239e-08 1963.70 -6.70799e-14 -1.71959e-13 -1.40135e-14
  5 5923.55 -2.21238e-08 1963.70 -3.03696e-14 -1.09320e-13 -1.87413e-14
  6 5923.55 -2.21247e-08 1963.70 -3.35618e-14 -8.69699e-14 -2.89999e-14
  7 5923.55 -2.21239e-08 1963.70 -6.20386e-14 -1.98328e-13 -1.70108e-14
  8 5923.55 -2.21250e-08 1963.70 -7.39521e-14 -1.71959e-13 -9.40459e-14
</Section>

newXOutput 143

<Section columns = "stress_xx | stress_yy | stress_zz | stress_xy | stress_yz | stress_xz">
  1 5939.21 -2.19445e-08 1974.05 -2.96410e-32 9.24955e-15 -9.95163e-15
  2 5939.21 -2.19444e-08 1974.05 1.85404e-32 -5.34023e-15 -9.57941e-14
  3 5939.21 -2.19444e-08 1974.05 1.72725e-31 1.95362e-14 -3.33572e-14
  4 5939.21 -2.19445e-08 1974.05 7.61853e-31 1.40519e-14 -1.60877e-13
  5 5939.21 -2.19452e-08 1974.05 1.50470e-31 1.40519e-14 -1.02895e-14
  6 5939.21 -2.19448e-08 1974.05 7.55890e-31 1.25824e-14 -1.13357e-13
  7 5939.21 -2.19448e-08 1974.05 7.14577e-31 2.94292e-14 -3.46181e-14
  8 5939.21 -2.19452e-08 1974.05 3.02728e-30 5.09728e-14 -2.26421e-13
</Section>

newXOutput 144

<Section columns = "stress_xx | stress_yy | stress_zz | stress_xy | stress_yz | stress_xz">
  1 5954.72 -2.17651e-08 1984.37 1.16982e-14 -2.00154e-14 1.76494e-14
  2 5954.72 -2.17651e-08 1984.37 1.08543e-14 -3.39417e-14 -1.46798e-14
  3 5954.72 -2.17651e-08 1984.37 2.60262e-14 -4.49010e-14 -1.46798e-14
  4 5954.72 -2.17651e-08 1984.37 2.28765e-14 -6.03787e-14 -1.73726e-13
  5 5954.72 -2.17651e-08 1984.37 7.12816e-15 -1.98491e-14 2.76902e-14
  6 5954.72 -2.17651e-08 1984.37 3.97848e-15 -3.33211e-14 2.27929e-14
  7 5954.72 -2.17651e-08 1984.37 2.18781e-14 -3.62576e-14 2.27929e-14
  8 5954.72 -2.17651e-08 1984.37 1.01234e-14 -2.81213e-14 -3.38756e-14
</Section>

newXOutput 145

<Section columns = "stress_xx | stress_yy | stress_zz | stress_xy | stress_yz | stress_xz">
  1 5970.07 -2.15908e-08 1994.65 3.06852e-16 9.47995e-15 3.12328e-15
  2 5970.07 -2.15912e-08 1994.65 1.14519e-15 2.05656e-14 -4.64576e-14
  3 5970.07 -2.15908e-08 1994.65 1.14519e-15 4.83336e-14 -4.05458e-14
  4 5970.07 -2.15912e-08 1994.65 4.27390e-15 8.02230e-14 -1.87370e-13
  5 5970.07 -2.15891e-08 1994.65 1.14519e-15 1.19601e-14 1.77803e-14
  6 5970.07 -2.15908e-08 1994.65 4.27390e-15 2.98216e-14 -7.90830e-15
  7 5970.07 -2.15891e-08 1994.65 4.27390e-15 5.75896e-14 1.41549e-14
  8 5970.07 -2.15908e-08 1994.65 1.59504e-14 1.14767e-13 -4.35017e-14
</Section>

newXOutput 146

<Section columns = "stress_xx | stress_yy | stress_zz | stress_xy | stress_yz | stress_xz">
  1 5985.26 -2.14122e-08 2004.89 2.88989e-14 -5.88068e-14 -1.78978e-14
  2 5985.26 -2.14122e-08 2004.89 2.88989e-14 -7.24522e-14 -6.67954e-14
  3 5985.26 -2.14122e-08 2004.89 5.96940e-14 -1.03128e-13 -1.11028e-14
  4 5985.26 -2.14122e-08 2004.89 5.96940e-14 -1.05213e-13 -4.14362e-14
  5 5985.26 -2.14122e-08 2004.89 2.23986e-14 -5.89728e-14 -2.28720e-14
  6 5985.26 -2.14122e-08 2004.89 2.23986e-14 -7.30717e-14 -8.53596e-14
  7 5985.26 -2.14122e-08 2004.89 5.45395e-14 -1.11757e-13 -2.96670e-14
  8 5985.26 -2.14122e-08 2004.89 5.45395e-14 -1.37416e-13 -1.10719e-13
</Section>

newXOutput 147

<Section columns = "stress_xx | stress_yy | stress_zz | stress_xy | stress_yz | stress_xz">
  1 6000.30 -2.12394e-08 2015.10 1.64561e-14 5.32526e-14 -3.25811e-14
  2 6000.30 -2.12394e-08 2015.10 1.56288e-14 2.59851e-14 -1.21594e-13
  3 6000.30 -2.12394e-08 2015.10 2.68483e-14 9.52867e-14 -3.84387e-14
  4 6000.30 -2.12394e-08 2015.10 2.37609e-14 6.92571e-14 -1.43455e-13
  5 6000.30 -2.12394e-08 2015.10 8.32404e-15 5.07767e-14 -3.25811e-14
  6 6000.30 -2.12394e-08 2015.10 5.23666e-15 1.67449e-14 -1.21594e-13
  7 6000.30 -2.12394e-08 2015.10 2.18036e-14 8.60465e-14 -3.84387e-14
  8 6000.30 -2.12394e-08 2015.10 1.02814e-14 3.47722e-14 -1.43455e-13
</Section>

newXOutput 148

<Section columns = "stress_xx | stress_yy | stress_zz | stress_xy | stress_yz | stress_xz">
  1 6015.19 -2.10683e-08 2025.28 7.98106e-15 -5.89775e-14 -4.03970e-14
  2 6015.19 -2.10684e-08 2025.28 7.98106e-15 -1.79454e-14 -1.50764e-13
  3 6015.19 -2.10681e-08 2025.28 1.66006e-14 -1.28734e-13 -4.03970e-14
  4 6015.19 -2.10683e-08 2025.28 1.66006e-14 5.48319e-15 -1.50764e-13
  5 6015.19 -2.10681e-08 2025.28 1.66006e-14 -6.14513e-14 -4.03970e-14
  6 6015.19 -2.10683e-08 2025.28 1.66006e-14 -2.71777e-14 -1.50764e-13
  7 6015.19 -2.10671e-08 2025.28 4.24848e-14 -1.37966e-13 -4.03970e-14
  8 6015.19 -2.10681e-08 2025.28 4.24848e-14 -2.89724e-14 -1.50764e-13
</Section>

newXOutput 149

<Section columns = "stress_xx | stress_yy | stress_zz | stress_xy | stress_yz | stress_xz">
  1 6029.93 -2.09011e-08 2035.42 -1.44367e-14 1.24420e-13 5.32558e-14
  2 6029.93 -2.09012e-08 2035.42 -1.44367e-14 7.97595e-14 6.29803e-14
  3 6029.93 -2.09012e-08 2035.42 -2.73756e-14 2.15203e-13 4.13188e-14
  4 6029.93 -2.09015e-08 2035.42 -2.73756e-14 1.72849e-13 2.57343e-15
  5 6029.93 -2.09012e-08 2035.42 -2.73756e-14 1.26726e-13 5.29272e-14
  6 6029.93 -2.09015e-08 2035.42 -2.73756e-14 8.83660e-14 4.58964e-14
  7 6029.93 -2.09015e-08 2035.42 -4.75707e-14 2.15821e-13 4.00922e-14
  8 6029.93 -2.09024e-08 2035.42 -4.75707e-14 1.75155e-13 -6.11845e-14
</Section>

newXOutput 150

<Section columns = "stress_xx | stress_yy | stress_zz | stress_xy | stress_yz | stress_xz">
  1 6044.52 -2.07328e-08 2045.53 1.10789e-15 -6.20029e-14 -1.87937e-14
  2 6044.52 -2.07328e-08 2045.53 2.96857e-16 -5.90813e-14 1.61122e-14
  3 6044.52 -2.07328e-08 2045.53 4.13469e-15 -1.00556e-13 4.55676e-15
  4 6044.52 -2.07328e-08 2045.53 1.10789e-15 -8.96530e-14 -1.45641e-14
  5 6044.52 -2.07328e-08 2045.53 4.13469e-15 -6.20029e-14 -3.27912e-14
  6 6044.52 -2.07328e-08 2045.53 1.10789e-15 -5.90813e-14 -4.55676e-15
  7 6044.52 -2.07328e-08 2045.53 1.54309e-14 -1.00556e-13 -4.76824e-14
  8 6044.52 -2.07328e-08 2045.53 4.13469e-15 -8.96530e-14 -9.17019e-14
</Section>

newXOutput 151

<Section columns = "stress_xx | stress_yy | stress_zz | stress_xy | stress_yz | stress_xz">
  1 6058.97 -2.05700e-08 2055.60 3.65387e-14 1.77549e-13 2.90831e-14
  2 6058.97 -2.05700e-08 2055.60 3.65387e-14 1.01892e-13 -4.53606e-15
  3 6058.97 -2.05700e-08 2055.60 7.74477e-14 3.67264e-13 6.96692e-15
  4 6058.97 -2.05700e-08 2055.60 7.74477e-14 2.15535e-13 -4.41451e-14
  5 6058.97 -2.05700e-08 2055.60 9.79052e-15 1.75246e-13 2.84318e-14
  6 6058.97 -2.05700e-08 2055.60 9.79052e-15 9.32997e-14 -3.83936e-14
  7 6058.97 -2.05700e-08 2055.60 2.07520e-14 3.66647e-13 4.53606e-15
  8 6058.97 -2.05700e-08 2055.60 2.07520e-14 2.13233e-13 -1.70503e-13
</Section>

newXOutput 152

<Section columns = "stress_xx | stress_yy | stress_zz | stress_xy | stress_yz | stress_xz">
  1 6073.28 -2.04036e-08 2065.64 8.15537e-15 3.28203e-14 -1.91850e-14
  2 6073.28 -2.04036e-08 2065.64 7.35491e-15 -2.19352e-14 -7.15995e-14
  3 6073.28 -2.04036e-08 2065.64 1.01323e-14 4.70731e-14 -1.74136e-14
  4 6073.28 -2.04037e-08 2065.64 7.14498e-15 -6.44963e-15 -6.49884e-14
  5 6073.28 -2.04036e-08 2065.64 -7.79177e-15 3.03548e-14 -2.88644e-14
  6 6073.28 -2.04037e-08 2065.64 -1.07791e-14 -3.11363e-14 -1.07723e-13
  7 6073.28 -2.04037e-08 2065.64 -3.47423e-15 3.78720e-14 -5.35375e-14
  8 6073.28 -2.04041e-08 2065.64 -1.46232e-14 -4.07886e-14 -1.99805e-13
</Section>

newXOutput 153

<Section columns = "stress_xx | stress_yy | stress_zz | stress_xy | stress_yz | stress_xz">
  1 6087.44 -2.02454e-08 2075.64 -2.70411e-14 -8.80101e-14 -2.13458e-14
  2 6087.44 -2.02454e-08 2075.64 -2.62459e-14 -4.90290e-14 -7.18779e-14
  3 6087.44 -2.02454e-08 2075.64 -4.66235e-14 -1.73139e-13 2.46048e-14
  4 6087.44 -2.02454e-08 2075.64 -4.36556e-14 -9.35910e-14 -5.34568e-14
  5 6087.44 -2.02454e-08 2075.64 -1.54606e-14 -8.55468e-14 -3.99716e-14
  6 6087.44 -2.02454e-08 2075.64 -1.24927e-14 -3.98356e-14 -1.10247e-13
  7 6087.44 -2.02454e-08 2075.64 -2.77298e-14 -1.63946e-13 -4.49075e-14
  8 6087.44 -2.02454e-08 2075.64 -1.66535e-14 -5.92809e-14 -1.96654e-13
</Section>

newXOutput 154

<Section columns = "stress_xx | stress_yy | stress_zz | stress_xy | stress_yz | stress_xz">
  1 6101.46 -2.00889e-08 2085.62 2.91791e-32 -6.52120e-15 1.44628e-14
  2 6101.46 -2.00889e-08 2085.62 7.81851e-33 -1.24050e-14 3.87529e-15
  3 6101.46 -2.00889e-08 2085.62 7.81851e-33 1.51518e-14 3.87529e-15
  4 6101.46 -2.00889e-08 2085.62 2.09496e-33 1.20149e-14 1.03838e-15
  5 6101.46 -2.00889e-08 2085.62 2.91791e-32 -4.05992e-15 1.44628e-14
  6 6101.46 -2.00889e-08 2085.62 7.81851e-33 -3.21938e-15 3.87529e-15
  7 6101.46 -2.00889e-08 2085.62 7.81851e-33 2.43375e-14 3.87529e-15
  8 6101.46 -2.00889e-08 2085.62 2.09496e-33 4.62961e-14 1.03838e-15
</Section>

newXOutput 155

<Section columns = "stress_xx | stress_yy | stress_zz | stress_xy | stress_yz | stress_xz">
  1 6115.34 -1.99316e-08 2095.56 0.00000 -7.94829e-15 -3.63511e-14
  2 6115.34 -1.99316e-08 2095.56 0.00000 -2.12974e-15 -8.57892e-14
  3 6115.34 -1.99316e-08 2095.56 0.00000 -2.96634e-14 -3.23334e-14
  4 6115.34 -1.99316e-08 2095.56 0.00000 -7.94829e-15 -1.07306e-13
  5 6115.34 -1.99316e-08 2095.56 0.00000 -7.94829e-15 -3.15766e-14
  6 6115.34 -1.99316e-08 2095.56 0.00000 -2.12974e-15 -6.79706e-14
  7 6115.34 -1.99316e-08 2095.56 0.00000 -2.96634e-14 -1.45147e-14
  8 6115.34 -1.99316e-08 2095.56 0.00000 -7.94829e-15 -4.08058e-14
</Section>

newXOutput 156

<Section columns = "stress_xx | stress_yy | stress_zz | stress_xy | stress_yz | stress_xz">
  1 6129.09 -1.97732e-08 2105.46 -1.15369e-14 2.09690e-13 -6.01519e-15
  2 6129.09 -1.97730e-08 2105.46 -1.22646e-14 1.82015e-13 -8.33459e-14
  3 6129.09 -1.97733e-08 2105.46 -2.11818e-14 4.73783e-13 -1.88842e-14
  4 6129.09 -1.97732e-08 2105.46 -2.13768e-14 4.16019e-13 -1.25751e-13
  5 6129.09 -1.97730e-08 2105.46 -2.21044e-14 2.07398e-13 2.85411e-15
  6 6129.09 -1.97720e-08 2105.46 -2.48200e-14 1.73459e-13 -8.09694e-14
  7 6129.09 -1.97732e-08 2105.46 -4.31896e-14 4.73168e-13 1.42165e-14
  8 6129.09 -1.97730e-08 2105.46 -4.39173e-14 4.13727e-13 -1.16882e-13
</Section>

newXOutput 157

<Section columns = "stress_xx | stress_yy | stress_zz | stress_xy | stress_yz | stress_xz">
  1 6142.70 -1.96178e-08 2115.34 1.05849e-15 -6.54886e-16 -5.47830e-14
  2 6142.70 -1.96178e-08 2115.34 2.83621e-16 1.22203e-14 -1.55024e-13
  3 6142.70 -1.96178e-08 2115.34 3.95033e-15 -4.42781e-15 -4.90692e-14
  4 6142.70 -1.96178e-08 2115.34 1.05849e-15 8.26240e-14 -1.69884e-13
  5 6142.70 -1.96178e-08 2115.34 3.95033e-15 -3.27443e-15 -5.95147e-14
  6 6142.70 -1.96178e-08 2115.34 1.05849e-15 2.44407e-15 -1.72683e-13
  7 6142.70 -1.96178e-08 2115.34 1.47428e-14 -2.21390e-14 -6.67284e-14
  8 6142.70 -1.96178e-08 2115.34 3.95033e-15 1.65248e-14 -2.35789e-13
</Section>

newXOutput 158

<Section columns = "stress_xx | stress_yy | stress_zz | stress_xy | stress_yz | stress_xz">
  1 6156.18 -1.94647e-08 2125.18 -3.73344e-14 -1.15870e-13 2.44884e-14
  2 6156.18 -1.94662e-08 2125.18 -3.65645e-14 1.25923e-13 3.10387e-14
  3 6156.18 -1.94647e-08 2125.18 -7.64385e-14 -2.44848e-13 -1.05566e-14
  4 6156.18 -1.94662e-08 2125.18 -7.35652e-14 2.82365e-13 -9.41783e-14
  5 6156.18 -1.94662e-08 2125.18 3.56185e-14 -1.15870e-13 3.32785e-14
  6 6156.18 -1.94647e-08 2125.18 3.84917e-14 1.25923e-13 3.33940e-14
  7 6156.18 -1.94662e-08 2125.18 7.51333e-14 -2.44848e-13 2.22486e-14
  8 6156.18 -1.94647e-08 2125.18 8.58565e-14 2.82365e-13 -8.53881e-14
</Section>

newXOutput 159

<Section columns = "stress_xx | stress_yy | stress_zz | stress_xy | stress_yz | stress_xz">
  1 6169.53 -1.93158e-08 2134.99 1.02600e-14 4.05306e-14 1.98467e-14
  2 6169.53 -1.93158e-08 2134.99 9.49509e-15 -3.43951e-14 7.40688e-14
  3 6169.53 -1.93158e-08 2134.99 2.28831e-14 8.90920e-14 2.15632e-14
  4 6169.53 -1.93158e-08 2134.99 2.00283e-14 -4.99621e-14 8.04749e-14
  5 6169.53 -1.93158e-08 2134.99 -1.13750e-14 3.80796e-14 1.04674e-14
  6 6169.53 -1.93158e-08 2134.99 -1.42298e-14 -4.35423e-14 3.90651e-14
  7 6169.53 -1.93158e-08 2134.99 -1.69122e-14 7.99449e-14 -1.34405e-14
  8 6169.53 -1.93158e-08 2134.99 -2.75666e-14 -8.40999e-14 -5.01608e-14
</Section>

newXOutput 160

<Section columns = "stress_xx | stress_yy | stress_zz | stress_xy | stress_yz | stress_xz">
  1 6182.75 -1.91668e-08 2144.76 5.95729e-15 1.86233e-14 2.64488e-14
  2 6182.75 -1.91662e-08 2144.76 5.19723e-15 4.20845e-14 1.16719e-15
  3 6182.75 -1.91681e-08 2144.76 1.40082e-14 5.86909e-14 1.16719e-15
  4 6182.75 -1.91678e-08 2144.76 1.11716e-14 1.16710e-13 -2.17800e-14
  5 6182.75 -1.91674e-08 2144.76 1.40082e-14 1.38895e-14 2.17800e-14
  6 6182.75 -1.91653e-08 2144.76 1.11716e-14 2.44176e-14 -1.62568e-14
  7 6182.75 -1.91666e-08 2144.76 3.53360e-14 4.89391e-14 -1.62568e-14
  8 6182.75 -1.91654e-08 2144.76 2.47497e-14 8.03154e-14 -8.68074e-14
</Section>

newXOutput 161

<Section columns = "stress_xx | stress_yy | stress_zz | stress_xy | stress_yz | stress_xz">
  1 6195.84 -1.90148e-08 2154.51 -8.29110e-15 -1.83239e-14 -2.30733e-14
  2 6195.84 -1.90148e-08 2154.51 -7.58647e-15 -5.46878e-14 -8.61108e-14
  3 6195.84 -1.90148e-08 2154.51 -1.52084e-14 -3.01867e-14 -3.40707e-14
  4 6195.84 -1.90148e-08 2154.51 -1.50196e-14 -6.15368e-14 -1.27154e-13
  5 6195.84 -1.90148e-08 2154.51 -1.85427e-14 -1.35940e-14 -2.30733e-14
  6 6195.84 -1.90148e-08 2154.51 -1.59130e-14 -3.70356e-14 -8.61108e-14
  7 6195.84 -1.90148e-08 2154.51 -2.41452e-14 -2.04430e-14 -3.40707e-14
  8 6195.84 -1.90148e-08 2154.51 -2.34406e-14 -2.51729e-14 -1.27154e-13
</Section>

newXOutput 162

<Section columns = "stress_xx | stress_yy | stress_zz | stress_xy | stress_yz | stress_xz">
  1 6208.80 -1.88666e-08 2164.22 -5.98804e-15 -2.46416e-14 4.51785e-14
  2 6208.80 -1.88666e-08 2164.22 -5.98804e-15 -2.62815e-14 2.01205e-14
  3 6208.80 -1.88666e-08 2164.22 -1.03078e-14 -3.70758e-14 2.01205e-14
  4 6208.80 -1.88666e-08 2164.22 -1.03078e-14 -2.59460e-14 -1.44171e-13
  5 6208.80 -1.88666e-08 2164.22 -1.03078e-14 -2.93676e-14 5.44334e-14
  6 6208.80 -1.88666e-08 2164.22 -1.03078e-14 -4.39191e-14 5.46604e-14
  7 6208.80 -1.88666e-08 2164.22 -2.06911e-14 -4.68114e-14 5.46604e-14
  8 6208.80 -1.88666e-08 2164.22 -2.06911e-14 -6.22797e-14 -1.52662e-14
</Section>

newXOutput 163

<Section columns = "stress_xx | stress_yy | stress_zz | stress_xy | stress_yz | stress_xz">
  1 6221.64 -1.87256e-08 2173.90 2.72928e-16 -1.06845e-14 -3.37257e-15
  2 6221.64 -1.87256e-08 2173.90 1.01858e-15 2.34497e-16 -1.25866e-14
  3 6221.64 -1.87255e-08 2173.90 1.01858e-15 -2.71159e-14 -1.25866e-14
  4 6221.64 -1.87256e-08 2173.90 3.80140e-15 4.29395e-15 -4.69739e-14
  5 6221.64 -1.87255e-08 2173.90 1.01858e-15 -8.24164e-15 -1.25866e-14
  6 6221.64 -1.87256e-08 2173.90 3.80140e-15 9.35129e-15 -4.69739e-14
  7 6221.64 -1.87251e-08 2173.90 3.80140e-15 -1.79991e-14 -4.69739e-14
  8 6221.64 -1.87255e-08 2173.90 1.41870e-14 3.83183e-14 -1.75309e-13
</Section>

newXOutput 164

<Section columns = "stress_xx | stress_yy | stress_zz | stress_xy | stress_yz | stress_xz">
  1 6234.35 -1.85865e-08 2183.55 6.92456e-15 2.25861e-13 -5.75369e-14
  2 6234.35 -1.85861e-08 2183.55 6.18362e-15 2.22690e-13 -7.84020e-14
  3 6234.35 -1.85865e-08 2183.55 1.39550e-14 4.65752e-13 -6.75497e-14
  4 6234.35 -1.85861e-08 2183.55 1.11898e-14 4.83361e-13 -7.52692e-14
  5 6234.35 -1.85866e-08 2183.55 1.39550e-14 2.30579e-13 -5.81514e-14
  6 6234.35 -1.85850e-08 2183.55 1.11898e-14 2.40299e-13 -1.10344e-13
  7 6234.35 -1.85867e-08 2183.55 3.45271e-14 4.75472e-13 -6.98431e-14
  8 6234.35 -1.85853e-08 2183.55 2.42072e-14 5.19634e-13 -1.94480e-13
</Section>

newXOutput 165

<Section columns = "stress_xx | stress_yy | stress_zz | stress_xy | stress_yz | stress_xz">
  1 6246.94 -1.84464e-08 2193.17 -9.26051e-15 6.18989e-14 -1.81023e-14
  2 6246.94 -1.84464e-08 2193.17 -8.52424e-15 3.35377e-14 -6.75587e-14
  3 6246.94 -1.84464e-08 2193.17 -1.86263e-14 1.18338e-13 -1.64308e-14
  4 6246.94 -1.84464e-08 2193.17 -1.58785e-14 5.76748e-14 -6.13206e-14
  5 6246.94 -1.84464e-08 2193.17 -1.86263e-14 6.45011e-14 -2.72354e-14
  6 6246.94 -1.84464e-08 2193.17 -1.58785e-14 4.32491e-14 -1.01644e-13
  7 6246.94 -1.84464e-08 2193.17 -3.66889e-14 1.35932e-13 -5.05161e-14
  8 6246.94 -1.84464e-08 2193.17 -2.64341e-14 1.23335e-13 -1.88528e-13
</Section>

newXOutput 166

<Section columns = "stress_xx | stress_yy | stress_zz | stress_xy | stress_yz | stress_xz">
  1 6259.41 -1.83018e-08 2202.75 -1.39695e-32 -1.15499e-14 -4.64277e-14
  2 6259.41 -1.83018e-08 2202.75 -3.74311e-33 -3.09479e-15 -1.25777e-13
  3 6259.41 -1.83018e-08 2202.75 -3.74311e-33 -3.03774e-14 -2.39698e-14
  4 6259.41 -1.83018e-08 2202.75 -1.00296e-33 -8.13959e-15 -7.67306e-14
  5 6259.41 -1.83018e-08 2202.75 -1.39695e-32 -1.15499e-14 -5.55208e-14
  6 6259.41 -1.83018e-08 2202.75 -3.74311e-33 -3.09479e-15 -1.59713e-13
  7 6259.41 -1.83018e-08 2202.75 -3.74311e-33 -3.03774e-14 -5.79055e-14
  8 6259.41 -1.83018e-08 2202.75 -1.00296e-33 -8.13959e-15 -2.03381e-13
</Section>

newXOutput 167

<Section columns = "stress_xx | stress_yy | stress_zz | stress_xy | stress_yz | stress_xz">
  1 6271.76 -1.81654e-08 2212.31 -6.60508e-16 6.27617e-16 1.90053e-14
  2 6271.76 -1.81655e-08 2212.31 7.44863e-16 3.25534e-15 1.29328e-14
  3 6271.76 -1.81655e-08 2212.31 7.44863e-16 -1.03747e-14 -2.70379e-14
  4 6271.76 -1.81654e-08 2212.31 3.63996e-15 8.74157e-15 -1.53548e-13
  5 6271.76 -1.81656e-08 2212.31 -2.46505e-15 3.06239e-15 3.65054e-14
  6 6271.76 -1.81658e-08 2212.31 2.77987e-15 1.23420e-14 4.89834e-14
  7 6271.76 -1.81658e-08 2212.31 2.77987e-15 -1.28801e-15 3.82732e-14
  8 6271.76 -1.81656e-08 2212.31 1.35845e-14 4.26536e-14 -1.90053e-14
</Section>

newXOutput 168

<Section columns = "stress_xx | stress_yy | stress_zz | stress_xy | stress_yz | stress_xz">
  1 6284.00 -1.80304e-08 2221.83 -5.76517e-15 1.25721e-13 -1.46365e-14
  2 6284.00 -1.80303e-08 2221.83 -5.76517e-15 1.26967e-13 -7.54467e-15
  3 6284.00 -1.80303e-08 2221.83 -9.92421e-15 2.66033e-13 -5.80042e-14
  4 6284.00 -1.80300e-08 2221.83 -9.92421e-15 2.87849e-13 -2.03860e-13
  5 6284.00 -1.80319e-08 2221.83 -9.92421e-15 1.21018e-13 -1.46365e-14
  6 6284.00 -1.80316e-08 2221.83 -9.92421e-15 1.09417e-13 -7.54467e-15
  7 6284.00 -1.80316e-08 2221.83 -1.99210e-14 2.56346e-13 -5.80042e-14
  8 6284.00 -1.80306e-08 2221.83 -1.99210e-14 2.51695e-13 -2.03860e-13
</Section>

newXOutput 169

<Section columns = "stress_xx | stress_yy | stress_zz | stress_xy | stress_yz | stress_xz">
  1 6296.12 -1.78952e-08 2231.33 3.24762e-15 8.88886e-14 1.27210e-15
  2 6296.12 -1.78952e-08 2231.33 3.24762e-15 5.50920e-14 -4.21268e-14
  3 6296.12 -1.78952e-08 2231.33 8.90873e-15 1.91168e-13 -4.21268e-14
  4 6296.12 -1.78952e-08 2231.33 8.90873e-15 1.20803e-13 -1.69779e-13
  5 6296.12 -1.78952e-08 2231.33 -7.16834e-15 9.13194e-14 1.02466e-14
  6 6296.12 -1.78952e-08 2231.33 -7.16834e-15 6.41637e-14 -8.63361e-15
  7 6296.12 -1.78952e-08 2231.33 2.33169e-16 2.00240e-13 -8.63361e-15
  8 6296.12 -1.78952e-08 2231.33 2.33169e-16 1.54659e-13 -4.47810e-14
</Section>

newXOutput 170

<Section columns = "stress_xx | stress_yy | stress_zz | stress_xy | stress_yz | stress_xz">
  1 6308.12 -1.77643e-08 2240.79 1.37408e-14 4.62076e-14 -3.20008e-14
  2 6308.12 -1.77643e-08 2240.79 1.51678e-14 1.56671e-14 -1.12209e-13
  3 6308.12 -1.77643e-08 2240.79 2.14681e-14 8.65227e-14 -2.27367e-14
  4 6308.12 -1.77643e-08 2240.79 2.67938e-14 4.54000e-14 -2.19581e-13
  5 6308.12 -1.77643e-08 2240.79 5.49121e-15 4.87991e-14 -4.03377e-14
  6 6308.12 -1.77643e-08 2240.79 1.08169e-14 2.53387e-14 -1.14443e-13
  7 6308.12 -1.77643e-08 2240.79 1.25050e-14 1.04044e-13 -5.38505e-14
  8 6308.12 -1.77643e-08 2240.79 3.23806e-14 1.10791e-13 -2.27918e-13
</Section>

newXOutput 171

<Section columns = "stress_xx | stress_yy | stress_zz | stress_xy | stress_yz | stress_xz">
  1 6320.01 -1.76275e-08 2250.23 1.56402e-14 4.64542e-14 -1.18124e-15
  2 6320.01 -1.76271e-08 2250.23 1.49311e-14 2.75712e-14 -6.14016e-14
  3 6320.01 -1.76275e-08 2250.23 4.35558e-14 1.30512e-13 -1.07217e-15
  4 6320.01 -1.76271e-08 2250.23 4.09096e-14 1.18584e-13 -5.57321e-14
  5 6320.01 -1.76271e-08 2250.23 1.18005e-14 4.61291e-14 -1.77720e-15
  6 6320.01 -1.76270e-08 2250.23 9.15425e-15 2.63578e-14 -9.23804e-14
  7 6320.01 -1.76271e-08 2250.23 4.00707e-14 1.13612e-13 -3.29635e-15
  8 6320.01 -1.76270e-08 2250.23 3.01947e-14 5.55111e-14 -1.71347e-13
</Section>

newXOutput 172

<Section columns = "stress_xx | stress_yy | stress_zz | stress_xy | stress_yz | stress_xz">
  1 6331.78 -1.75022e-08 2259.63 1.33129e-14 -3.64981e-14 2.86302e-14
  2 6331.78 -1.75023e-08 2259.63 1.40176e-14 -5.93139e-14 1.06850e-13
  3 6331.78 -1.75018e-08 2259.63 2.02399e-14 -3.79026e-14 7.67145e-15
  4 6331.78 -1.75022e-08 2259.63 2.28698e-14 -7.38272e-14 2.86302e-14
  5 6331.78 -1.75018e-08 2259.63 4.46067e-15 -3.19733e-14 2.86302e-14
  6 6331.78 -1.75022e-08 2259.63 7.09055e-15 -4.24274e-14 1.06850e-13
  7 6331.78 -1.75005e-08 2259.63 8.75783e-15 -3.66902e-14 7.67145e-15
  8 6331.78 -1.75018e-08 2259.63 1.85727e-14 -6.93024e-14 2.86302e-14
</Section>

newXOutput 173

<Section columns = "stress_xx | stress_yy | stress_zz | stress_xy | stress_yz | stress_xz">
  1 6343.45 -1.73704e-08 2269.00 1.19414e-31 -4.17761e-15 -1.31508e-14
  2 6343.45 -1.73704e-08 2269.00 3.19970e-32 -1.11939e-15 4.11458e-15
  3 6343.45 -1.73704e-08 2269.00 3.51243e-31 -2.82456e-14 -6.31958e-15
  4 6343.45 -1.73704e-08 2269.00 9.41152e-32 -7.56840e-15 -1.44227e-13
  5 6343.45 -1.73704e-08 2269.00 5.19499e-32 -4.17761e-15 -1.25600e-14
  6 6343.45 -1.73704e-08 2269.00 1.39199e-32 -1.11939e-15 3.48262e-14
  7 6343.45 -1.73704e-08 2269.00 9.94616e-32 -2.82456e-14 -4.11458e-15
  8 6343.45 -1.73704e-08 2269.00 2.66506e-32 -7.56840e-15 -2.96092e-14
</Section>

newXOutput 174

<Section columns = "stress_xx | stress_yy | stress_zz | stress_xy | stress_yz | stress_xz">
  1 6355.01 -1.72431e-08 2278.35 9.50753e-16 -1.18175e-14 -1.01894e-15
  2 6355.01 -1.72431e-08 2278.35 2.54753e-16 -5.26300e-15 -3.80272e-15
  3 6355.01 -1.72431e-08 2278.35 3.54826e-15 -5.26300e-15 -5.29650e-14
  4 6355.01 -1.72431e-08 2278.35 9.50753e-16 3.77112e-14 -1.97668e-13
  5 6355.01 -1.72431e-08 2278.35 3.54826e-15 -1.42384e-14 -1.01894e-15
  6 6355.01 -1.72431e-08 2278.35 9.50753e-16 -1.42977e-14 -3.80272e-15
  7 6355.01 -1.72431e-08 2278.35 1.32423e-14 -1.42977e-14 -5.29650e-14
  8 6355.01 -1.72431e-08 2278.35 3.54826e-15 3.99323e-15 -1.97668e-13
</Section>

newXOutput 175

<Section columns = "stress_xx | stress_yy | stress_zz | stress_xy | stress_yz | stress_xz">
  1 6366.46 -1.71185e-08 2287.66 -9.10857e-15 -3.73940e-14 -2.63687e-14
  2 6366.46 -1.71184e-08 2287.66 -9.10857e-15 -1.12474e-13 -7.06548e-15
  3 6366.46 -1.71184e-08 2287.66 -1.48916e-14 -7.75744e-14 -7.06548e-15
  4 6366.46 -1.71182e-08 2287.66 -1.48916e-14 -1.88440e-13 -1.89319e-15
  5 6366.46 -1.71184e-08 2287.66 -3.03808e-14 -3.04615e-14 -2.63687e-14
  6 6366.46 -1.71182e-08 2287.66 -3.03808e-14 -8.66018e-14 -7.06548e-15
  7 6366.46 -1.71182e-08 2287.66 -5.46080e-14 -6.73377e-14 -7.06548e-15
  8 6366.46 -1.71172e-08 2287.66 -5.46080e-14 -1.50236e-13 -1.89319e-15
</Section>

newXOutput 176

<Section columns = "stress_xx | stress_yy | stress_zz | stress_xy | stress_yz | stress_xz">
  1 6377.80 -1.69910e-08 2296.94 1.77970e-14 5.80576e-14 -5.36359e-15
  2 6377.80 -1.69878e-08 2296.94 1.77970e-14 1.39119e-13 -2.00172e-14
  3 6377.80 -1.69910e-08 2296.94 3.66623e-14 1.12059e-13 2.87240e-14
  4 6377.80 -1.69880e-08 2296.94 3.66623e-14 3.03691e-13 1.07199e-13
  5 6377.80 -1.69910e-08 2296.94 3.66623e-14 5.56407e-14 -2.27771e-14
  6 6377.80 -1.69880e-08 2296.94 3.66623e-14 1.30099e-13 -8.50054e-14
  7 6377.80 -1.69912e-08 2296.94 7.55251e-14 1.03039e-13 -3.62643e-14
  8 6377.80 -1.69887e-08 2296.94 7.55251e-14 2.70028e-13 -1.35340e-13
</Section>

newXOutput 177

<Section columns = "stress_xx | stress_yy | stress_zz | stress_xy | stress_yz | stress_xz">
  1 6389.03 -1.68666e-08 2306.20 -2.83037e-14 1.20689e-14 -2.04345e-14
  2 6389.03 -1.68666e-08 2306.20 -2.89869e-14 -7.22316e-15 -2.39759e-14
  3 6389.03 -1.68666e-08 2306.20 -5.48994e-14 3.33340e-14 6.28332e-14
  4 6389.03 -1.68666e-08 2306.20 -5.74494e-14 1.67370e-14 1.15913e-13
  5 6389.03 -1.68666e-08 2306.20 -2.81245e-14 1.44839e-14 -4.58623e-14
  6 6389.03 -1.68666e-08 2306.20 -3.06745e-14 1.78953e-15 -9.08535e-14
  7 6389.03 -1.68666e-08 2306.20 -5.16181e-14 4.23466e-14 -3.20647e-14
  8 6389.03 -1.68666e-08 2306.20 -6.11348e-14 5.03728e-14 -1.33677e-13
</Section>

newXOutput 178

<Section columns = "stress_xx | stress_yy | stress_zz | stress_xy | stress_yz | stress_xz">
  1 6400.16 -1.67439e-08 2315.43 -1.93916e-14 -9.67070e-15 -3.10605e-14
  2 6400.16 -1.67439e-08 2315.43 -1.93916e-14 -9.98025e-15 -1.15919e-13
  3 6400.16 -1.67441e-08 2315.43 -4.34853e-14 -9.98025e-15 -1.92682e-14
  4 6400.16 -1.67441e-08 2315.43 -4.34853e-14 1.65431e-14 -7.19100e-14
  5 6400.16 -1.67441e-08 2315.43 -1.68738e-14 -4.84473e-15 -3.96930e-14
  6 6400.16 -1.67441e-08 2315.43 -1.68738e-14 8.03052e-15 -1.48136e-13
  7 6400.16 -1.67449e-08 2315.43 -2.88957e-14 8.03052e-15 -5.14852e-14
  8 6400.16 -1.67449e-08 2315.43 -2.88957e-14 8.37602e-14 -1.92145e-13
</Section>

newXOutput 179

<Section columns = "stress_xx | stress_yy | stress_zz | stress_xy | stress_yz | stress_xz">
  1 6411.19 -1.66220e-08 2324.62 -7.56747e-15 -7.79258e-15 3.29021e-15
  2 6411.19 -1.66233e-08 2324.62 -7.56747e-15 -2.90823e-14 1.92247e-14
  3 6411.19 -1.66220e-08 2324.62 -1.36345e-14 -2.08802e-15 9.05584e-15
  4 6411.19 -1.66233e-08 2324.62 -1.36345e-14 -7.79258e-15 -9.58075e-14
  5 6411.19 -1.66233e-08 2324.62 -1.36345e-14 -7.79258e-15 1.24618e-14
  6 6411.19 -1.66236e-08 2324.62 -1.36345e-14 -2.90823e-14 8.12353e-14
  7 6411.19 -1.66233e-08 2324.62 -2.07922e-14 -2.08802e-15 4.32845e-14
  8 6411.19 -1.66236e-08 2324.62 -2.07922e-14 -7.79258e-15 1.35619e-13
</Section>

newXOutput 180

<Section columns = "stress_xx | stress_yy | stress_zz | stress_xy | stress_yz | stress_xz">
  1 6422.12 -1.65037e-08 2333.79 1.33450e-14 5.49852e-14 2.11011e-14
  2 6422.12 -1.65037e-08 2333.79 1.26741e-14 3.98240e-14 2.39192e-14
  3 6422.12 -1.65037e-08 2333.79 2.17725e-14 5.61602e-14 -1.38703e-14
  4 6422.12 -1.65037e-08 2333.79 1.92688e-14 7.18430e-14 -1.01533e-13
  5 6422.12 -1.65037e-08 2333.79 6.75034e-15 5.27375e-14 4.62054e-14
  6 6422.12 -1.65037e-08 2333.79 4.24665e-15 3.14355e-14 8.99459e-14
  7 6422.12 -1.65037e-08 2333.79 1.76815e-14 5.55580e-14 7.98202e-14
  8 6422.12 -1.65037e-08 2333.79 8.33762e-15 6.95953e-14 1.44882e-13
</Section>

newXOutput 181

<Section columns = "stress_xx | stress_yy | stress_zz | stress_xy | stress_yz | stress_xz">
  1 6432.94 -1.63864e-08 2342.93 3.92182e-15 1.14094e-14 -5.10761e-15
  2 6432.94 -1.63864e-08 2342.93 3.25502e-15 3.05715e-15 -1.21752e-14
  3 6432.94 -1.63864e-08 2342.93 1.14037e-14 3.00079e-14 2.54540e-14
  4 6432.94 -1.63864e-08 2342.93 8.91522e-15 8.04058e-15 -3.35105e-14
  5 6432.94 -1.63864e-08 2342.93 -3.52740e-15 1.14094e-14 -2.15825e-14
  6 6432.94 -1.63864e-08 2342.93 -6.01593e-15 3.05715e-15 -4.61139e-14
  7 6432.94 -1.63864e-08 2342.93 -1.09990e-15 3.00079e-14 -3.60312e-14
  8 6432.94 -1.63864e-08 2342.93 -1.03872e-14 8.04058e-15 -1.60172e-13
</Section>

newXOutput 182

<Section columns = "stress_xx | stress_yy | stress_zz | stress_xy | stress_yz | stress_xz">
  1 6443.67 -1.62654e-08 2352.04 1.31840e-14 -2.29803e-14 -1.12682e-15
  2 6443.67 -1.62654e-08 2352.04 1.25212e-14 -4.44681e-14 -5.85730e-14
  3 6443.67 -1.62654e-08 2352.04 2.15098e-14 -7.13971e-14 -1.02278e-15
  4 6443.67 -1.62654e-08 2352.04 1.90363e-14 -6.88229e-14 -5.31646e-14
  5 6443.67 -1.62654e-08 2352.04 6.66889e-15 -2.05751e-14 -1.69533e-15
  6 6443.67 -1.62654e-08 2352.04 4.19541e-15 -3.54918e-14 -8.81247e-14
  7 6443.67 -1.62654e-08 2352.04 1.74682e-14 -6.24208e-14 -3.14449e-15
  8 6443.67 -1.62654e-08 2352.04 8.23702e-15 -3.53227e-14 -1.63453e-13
</Section>

newXOutput 183

<Section columns = "stress_xx | stress_yy | stress_zz | stress_xy | stress_yz | stress_xz">
  1 6454.30 -1.61535e-08 2361.12 2.00287e-14 8.37361e-14 -1.87216e-14
  2 6454.30 -1.61534e-08 2361.12 2.00287e-14 1.06261e-13 -6.30415e-14
  3 6454.30 -1.61535e-08 2361.12 4.30396e-14 1.49465e-13 2.15799e-14
  4 6454.30 -1.61533e-08 2361.12 4.30396e-14 2.22918e-13 -4.68850e-14
  5 6454.30 -1.61534e-08 2361.12 2.82881e-14 8.38971e-14 -3.50576e-14
  6 6454.30 -1.61529e-08 2361.12 2.82881e-14 1.06862e-13 -9.66939e-14
  7 6454.30 -1.61533e-08 2361.12 5.87512e-14 1.57833e-13 -3.93867e-14
  8 6454.30 -1.61525e-08 2361.12 5.87512e-14 2.54149e-13 -1.72478e-13
</Section>

newXOutput 184

<Section columns = "stress_xx | stress_yy | stress_zz | stress_xy | stress_yz | stress_xz">
  1 6464.83 -1.60335e-08 2370.18 -4.23785e-15 -3.14040e-14 -2.90865e-14
  2 6464.83 -1.60335e-08 2370.18 -4.23785e-15 -2.49023e-14 -1.52507e-13
  3 6464.83 -1.60335e-08 2370.18 -8.73007e-15 -7.86738e-14 -5.82863e-14
  4 6464.83 -1.60335e-08 2370.18 -8.73007e-15 -3.60458e-14 -2.29305e-13
  5 6464.83 -1.60335e-08 2370.18 -8.73007e-15 -3.38054e-14 -2.90865e-14
  6 6464.83 -1.60335e-08 2370.18 -8.73007e-15 -3.38642e-14 -1.52507e-13
  7 6464.83 -1.60335e-08 2370.18 -1.79841e-14 -8.76357e-14 -5.82863e-14
  8 6464.83 -1.60335e-08 2370.18 -1.79841e-14 -6.94921e-14 -2.29305e-13
</Section>

newXOutput 185

<Section columns = "stress_xx | stress_yy | stress_zz | stress_xy | stress_yz | stress_xz">
  1 6475.26 -0.0213443 2379.20 -4.21243e-15 8.63328e-15 2.09502e-15
  2 6475.26 -0.0213443 2379.20 -4.21243e-15 -8.07649e-15 7.81871e-15
  3 6475.26 -0.0213443 2379.20 -8.67771e-15 4.56519e-14 -3.90936e-14
  4 6475.26 -0.0213443 2379.20 -8.67771e-15 1.99874e-14 -1.45899e-13
  5 6475.26 -0.0213443 2379.20 -8.67771e-15 1.10327e-14 1.04751e-14
  6 6475.26 -0.0213443 2379.20 -8.67771e-15 8.78247e-16 3.90936e-14
  7 6475.26 -0.0213443 2379.20 -1.78763e-14 5.46067e-14 -7.81871e-15
  8 6475.26 -0.0213443 2379.20 -1.78763e-14 5.34070e-14 -2.91798e-14
</Section>

newXOutput 186

<Section columns = "stress_xx | stress_yy | stress_zz | stress_xy | stress_yz | stress_xz">
  1 6485.60 -0.0212588 2388.20 3.96627e-15 3.49070e-14 -1.24425e-14
  2 6485.60 -0.0212588 2388.20 3.36262e-15 5.15446e-14 3.89296e-15
  3 6485.60 -0.0212588 2388.20 8.56657e-15 9.18086e-14 -5.97919e-15
  4 6485.60 -0.0212588 2388.20 8.40483e-15 1.35567e-13 -1.36458e-13
  5 6485.60 -0.0212588 2388.20 7.80118e-15 3.49070e-14 -1.18835e-14
  6 6485.60 -0.0212588 2388.20 5.54833e-15 5.15446e-14 3.29504e-14
  7 6485.60 -0.0212588 2388.20 1.75483e-14 9.18086e-14 -3.89296e-15
  8 6485.60 -0.0212588 2388.20 1.69447e-14 1.35567e-13 -2.80143e-14
</Section>

newXOutput 187

<Section columns = "stress_xx | stress_yy | stress_zz | stress_xy | stress_yz | stress_xz">
  1 6495.84 -0.0211844 2397.17 1.93606e-14 1.46270e-14 -1.43933e-14
  2 6495.84 -0.0211844 2397.17 2.00038e-14 1.52553e-14 -5.37167e-14
  3 6495.84 -0.0211844 2397.17 3.14635e-14 4.20765e-14 -5.37167e-14
  4 6495.84 -0.0211844 2397.17 3.38636e-14 5.35809e-14 -2.00473e-13
  5 6495.84 -0.0211844 2397.17 1.70624e-14 1.22315e-14 -1.43933e-14
  6 6495.84 -0.0211844 2397.17 1.94626e-14 6.31488e-15 -5.37167e-14
  7 6495.84 -0.0211844 2397.17 2.78043e-14 3.31361e-14 -5.37167e-14
  8 6495.84 -0.0211844 2397.17 3.67619e-14 2.02148e-14 -2.00473e-13
</Section>

newXOutput 188

<Section columns = "stress_xx | stress_yy | stress_zz | stress_xy | stress_yz | stress_xz">
  1 6506.00 -0.0211105 2406.11 2.33998e-16 6.89751e-15 2.19256e-14
  2 6506.00 -0.0211105 2406.11 8.73293e-16 2.75371e-14 -5.09435e-14
  3 6506.00 -0.0211105 2406.11 8.73293e-16 7.37279e-16 4.17080e-14
  4 6506.00 -0.0211105 2406.11 3.25917e-15 9.60699e-14 -4.03964e-14
  5 6506.00 -0.0211105 2406.11 8.73293e-16 4.50385e-15 1.36503e-14
  6 6506.00 -0.0211105 2406.11 3.25917e-15 1.86038e-14 -8.18273e-14
  7 6506.00 -0.0211105 2406.11 3.25917e-15 -8.19600e-15 1.08242e-14
  8 6506.00 -0.0211105 2406.11 1.21634e-14 6.27305e-14 -1.55656e-13
</Section>

newXOutput 189

<Section columns = "stress_xx | stress_yy | stress_zz | stress_xy | stress_yz | stress_xz">
  1 6516.06 -0.0210371 2415.03 7.94065e-15 5.17416e-14 -1.63337e-14
  2 6516.06 -0.0210371 2415.03 7.94065e-15 1.10347e-14 -6.09582e-14
  3 6516.06 -0.0210371 2415.03 1.63579e-14 1.20978e-13 -1.48255e-14
  4 6516.06 -0.0210371 2415.03 1.63579e-14 3.16578e-14 -5.53297e-14
  5 6516.06 -0.0210371 2415.03 2.12769e-15 4.95101e-14 -2.45745e-14
  6 6516.06 -0.0210371 2415.03 2.12769e-15 2.70644e-15 -9.17134e-14
  7 6516.06 -0.0210371 2415.03 4.38309e-15 1.20380e-13 -4.55807e-14
  8 6516.06 -0.0210371 2415.03 4.38309e-15 2.94263e-14 -1.70109e-13
</Section>

newXOutput 190

<Section columns = "stress_xx | stress_yy | stress_zz | stress_xy | stress_yz | stress_xz">
  1 6526.03 -0.0209642 2423.92 1.80651e-14 1.66945e-15 4.28634e-14
  2 6526.03 -0.0209642 2423.92 1.86968e-14 4.43808e-15 6.45332e-14
  3 6526.03 -0.0209642 2423.92 3.06508e-14 4.45738e-14 -1.76401e-14
  4 6526.03 -0.0209642 2423.92 3.30084e-14 7.31819e-14 -1.25037e-13
  5 6526.03 -0.0209642 2423.92 1.65049e-14 4.05930e-15 5.87268e-14
  6 6526.03 -0.0209642 2423.92 1.88625e-14 1.33571e-14 9.72121e-14
  7 6526.03 -0.0209642 2423.92 2.72433e-14 5.34928e-14 4.15627e-14
  8 6526.03 -0.0209642 2423.92 3.60422e-14 1.06468e-13 -3.07746e-15
</Section>

newXOutput 191

<Section columns = "stress_xx | stress_yy | stress_zz | stress_xy | stress_yz | stress_xz">
  1 6535.90 -0.0208918 2432.78 -4.86470e-15 -3.43125e-14 2.04312e-15
  2 6535.90 -0.0208918 2432.78 -4.27877e-15 -3.89577e-14 7.62504e-15
  3 6535.90 -0.0208918 2432.78 -8.58703e-15 -3.89577e-14 -3.81252e-14
  4 6535.90 -0.0208918 2432.78 -8.43003e-15 -2.89024e-14 -1.42285e-13
  5 6535.90 -0.0208918 2432.78 -1.13597e-14 -3.67004e-14 1.02156e-14
  6 6535.90 -0.0208918 2432.78 -9.17296e-15 -4.78696e-14 3.81252e-14
  7 6535.90 -0.0208918 2432.78 -1.80481e-14 -4.78696e-14 -7.62504e-15
  8 6535.90 -0.0208918 2432.78 -1.74621e-14 -6.21623e-14 -2.84571e-14
</Section>

newXOutput 192

<Section columns = "stress_xx | stress_yy | stress_zz | stress_xy | stress_yz | stress_xz">
  1 6545.70 -0.0208199 2441.61 -6.05808e-15 -4.82177e-14 1.36297e-16
  2 6545.70 -0.0208199 2441.61 -6.05808e-15 -8.91338e-14 7.08481e-15
  3 6545.70 -0.0208199 2441.61 -1.23587e-14 -9.19565e-14 -2.54333e-15
  4 6545.70 -0.0208199 2441.61 -1.23587e-14 -1.33767e-13 -1.32204e-13
  5 6545.70 -0.0208199 2441.61 -1.23587e-14 -4.36054e-14 6.81484e-16
  6 6545.70 -0.0208199 2441.61 -1.23587e-14 -7.19205e-14 3.54240e-14
  7 6545.70 -0.0208199 2441.61 -1.91637e-14 -8.24551e-14 -5.08666e-16
  8 6545.70 -0.0208199 2441.61 -1.91637e-14 -9.83076e-14 -2.64409e-14
</Section>

newXOutput 193

<Section columns = "stress_xx | stress_yy | stress_zz | stress_xy | stress_yz | stress_xz">
  1 6555.40 -0.0207484 2450.42 2.68186e-14 -1.93836e-13 9.25390e-15
  2 6555.40 -0.0207484 2450.42 2.61980e-14 -1.04219e-13 -7.79720e-15
  3 6555.40 -0.0207484 2450.42 5.33107e-14 -3.97847e-13 -7.79720e-15
  4 6555.40 -0.0207484 2450.42 5.09945e-14 -2.09247e-13 -4.04427e-14
  5 6555.40 -0.0207484 2450.42 5.33107e-14 -1.91452e-13 1.14886e-15
  6 6555.40 -0.0207484 2450.42 5.09945e-14 -9.53208e-14 -3.80456e-14
  7 6555.40 -0.0207484 2450.42 1.14213e-13 -3.88949e-13 -3.80456e-14
  8 6555.40 -0.0207484 2450.42 1.05569e-13 -1.76040e-13 -1.53331e-13
</Section>

newXOutput 194

<Section columns = "stress_xx | stress_yy | stress_zz | stress_xy | stress_yz | stress_xz">
  1 6565.01 -0.0206774 2459.20 1.10037e-15 6.74118e-14 -2.81685e-14
  2 6565.01 -0.0206774 2459.20 2.33432e-15 -3.52570e-15 -6.29677e-14
  3 6565.01 -0.0206774 2459.20 8.02324e-15 1.03164e-13 -1.77821e-14
  4 6565.01 -0.0206774 2459.20 1.26284e-14 -6.72937e-15 -5.50675e-14
  5 6565.01 -0.0206774 2459.20 -1.96077e-14 7.21764e-14 -3.62402e-14
  6 6565.01 -0.0206774 2459.20 -1.50026e-14 1.42559e-14 -9.30914e-14
  7 6565.01 -0.0206774 2459.20 -3.62339e-14 1.20945e-13 -4.79058e-14
  8 6565.01 -0.0206774 2459.20 -1.90472e-14 5.96324e-14 -1.67491e-13
</Section>

newXOutput 195

<Section columns = "stress_xx | stress_yy | stress_zz | stress_xy | stress_yz | stress_xz">
  1 6574.55 -0.0206069 2467.95 3.69447e-15 3.37497e-14 -1.06728e-15
  2 6574.55 -0.0206069 2467.95 3.69447e-15 -3.73005e-15 -5.54779e-14
  3 6574.55 -0.0206069 2467.95 7.61070e-15 9.72430e-14 -9.68731e-16
  4 6574.55 -0.0206069 2467.95 7.61070e-15 5.11984e-14 -5.03554e-14
  5 6574.55 -0.0206069 2467.95 -6.12389e-15 3.34308e-14 -1.60575e-15
  6 6574.55 -0.0206069 2467.95 -6.12389e-15 -4.92025e-15 -8.34681e-14
  7 6574.55 -0.0206069 2467.95 -1.26154e-14 8.06657e-14 -2.97834e-15
  8 6574.55 -0.0206069 2467.95 -1.26154e-14 -1.06691e-14 -1.54816e-13
</Section>

newXOutput 196

<Section columns = "stress_xx | stress_yy | stress_zz | stress_xy | stress_yz | stress_xz">
  1 6583.99 -0.0205369 2476.68 -3.16858e-14 2.27168e-13 -5.18100e-14
  2 6583.99 -0.0205369 2476.68 -3.22956e-14 2.68244e-13 -1.51545e-13
  3 6583.99 -0.0205369 2476.68 -6.38808e-14 4.81286e-13 -6.19150e-14
  4 6583.99 -0.0205369 2476.68 -6.61565e-14 5.80019e-13 -2.19866e-13
  5 6583.99 -0.0205369 2476.68 -1.26769e-14 2.27168e-13 -5.18100e-14
  6 6583.99 -0.0205369 2476.68 -1.49527e-14 2.68244e-13 -1.51545e-13
  7 6583.99 -0.0205369 2476.68 -2.09170e-14 4.81286e-13 -6.19150e-14
  8 6583.99 -0.0205369 2476.68 -2.94101e-14 5.80019e-13 -2.19866e-13
</Section>

newXOutput 197

<Section columns = "stress_xx | stress_yy | stress_zz | stress_xy | stress_yz | stress_xz">
  1 6593.35 -0.0204673 2485.38 -1.12162e-14 -5.43855e-14 1.67368e-14
  2 6593.35 -0.0204673 2485.38 -1.11756e-14 -2.56171e-14 1.13891e-14
  3 6593.35 -0.0204673 2485.38 -1.58115e-14 -7.60240e-14 -2.38105e-14
  4 6593.35 -0.0204673 2485.38 -1.37006e-14 -5.18497e-14 -1.35220e-13
  5 6593.35 -0.0204673 2485.38 -2.95389e-15 -5.18497e-14 3.21479e-14
  6 6593.35 -0.0204673 2485.38 -2.80233e-15 -1.61532e-14 4.31365e-14
  7 6593.35 -0.0204673 2485.38 -1.56015e-15 -5.88787e-14 3.37048e-14
  8 6593.35 -0.0204673 2485.38 6.31785e-15 1.21376e-14 -1.67368e-14
</Section>

newXOutput 198

<Section columns = "stress_xx | stress_yy | stress_zz | stress_xy | stress_yz | stress_xz">
  1 6602.63 -0.0203982 2494.06 4.51808e-15 -1.40622e-16 1.28313e-14
  2 6602.63 -0.0203982 2494.06 3.35305e-15 3.66861e-14 4.78870e-14
  3 6602.63 -0.0203982 2494.06 1.10528e-14 3.66861e-14 3.43813e-15
  4 6602.63 -0.0203982 2494.06 8.65280e-15 1.46885e-13 1.28313e-14
  5 6602.63 -0.0203982 2494.06 1.03398e-14 -4.89017e-15 1.28313e-14
  6 6602.63 -0.0203982 2494.06 5.99184e-15 1.89605e-14 4.78870e-14
  7 6602.63 -0.0203982 2494.06 2.78143e-14 1.89605e-14 3.43813e-15
  8 6602.63 -0.0203982 2494.06 1.88574e-14 8.07322e-14 1.28313e-14
</Section>

newXOutput 199

<Section columns = "stress_xx | stress_yy | stress_zz | stress_xy | stress_yz | stress_xz">
  1 6611.83 -0.0203295 2502.70 2.19324e-16 -1.28310e-14 2.65463e-14
  2 6611.83 -0.0203295 2502.70 8.18528e-16 -1.07043e-14 7.11307e-15
  3 6611.83 -0.0203295 2502.70 8.18528e-16 2.57940e-15 1.64679e-14
  4 6611.83 -0.0203295 2502.70 3.05479e-15 1.95892e-14 4.41256e-15
  5 6611.83 -0.0203295 2502.70 8.18528e-16 -8.08519e-15 3.39243e-14
  6 6611.83 -0.0203295 2502.70 3.05479e-15 7.00730e-15 9.08998e-15
  7 6611.83 -0.0203295 2502.70 3.05479e-15 2.02910e-14 4.40027e-14
  8 6611.83 -0.0203295 2502.70 1.14006e-14 8.56899e-14 1.17905e-14
</Section>

newXOutput 200

<Section columns = "stress_xx | stress_yy | stress_zz | stress_xy | stress_yz | stress_xz">
  1 6620.94 -0.0202613 2511.33 8.25763e-15 -1.83883e-14 -1.56095e-14
  2 6620.94 -0.0202613 2511.33 7.66190e-15 -1.82004e-14 -5.82556e-14
  3 6620.94 -0.0202613 2511.33 1.83716e-14 -1.82004e-14 -1.41682e-14
  4 6620.94 -0.0202613 2511.33 1.61483e-14 -8.43336e-15 -5.28766e-14
  5 6620.94 -0.0202613 2511.33 5.03168e-15 -1.83883e-14 -2.34850e-14
  6 6620.94 -0.0202613 2511.33 2.80836e-15 -1.82004e-14 -8.76472e-14
  7 6620.94 -0.0202613 2511.33 1.54435e-14 -1.82004e-14 -4.35598e-14
  8 6620.94 -0.0202613 2511.33 7.14597e-15 -8.43336e-15 -1.62567e-13
</Section>

newXOutput 201

<Section columns = "stress_xx | stress_yy | stress_zz | stress_xy | stress_yz | stress_xz">
  1 6629.98 -0.0201935 2519.92 -1.84108e-14 2.46219e-13 -2.71096e-14
  2 6629.98 -0.0201935 2519.92 -1.84108e-14 7.19823e-14 -1.42141e-13
  3 6629.98 -0.0201935 2519.92 -2.98096e-14 5.22921e-13 -5.43247e-14
  4 6629.98 -0.0201935 2519.92 -2.98096e-14 1.62538e-13 -2.13720e-13
  5 6629.98 -0.0201935 2519.92 -5.63354e-14 2.50958e-13 -2.71096e-14
  6 6629.98 -0.0201935 2519.92 -5.63354e-14 8.96662e-14 -1.42141e-13
  7 6629.98 -0.0201935 2519.92 -1.07935e-13 5.40605e-13 -5.43247e-14
  8 6629.98 -0.0201935 2519.92 -1.07935e-13 2.28536e-13 -2.13720e-13
</Section>

newXOutput 202

<Section columns = "stress_xx | stress_yy | stress_zz | stress_xy | stress_yz | stress_xz">
  1 6638.94 -0.0201262 2528.49 -1.08560e-14 -5.87274e-14 -9.82529e-15
  2 6638.94 -0.0201262 2528.49 -1.08954e-14 -1.77861e-14 4.13242e-15
  3 6638.94 -0.0201262 2528.49 -1.33087e-14 -5.75437e-14 -3.95978e-14
  4 6638.94 -0.0201262 2528.49 -1.53593e-14 2.28380e-14 -1.36849e-13
  5 6638.94 -0.0201262 2528.49 -2.72218e-15 -6.10947e-14 -2.01363e-15
  6 6638.94 -0.0201262 2528.49 -2.86940e-15 -2.66211e-14 3.32859e-14
  7 6638.94 -0.0201262 2528.49 6.13715e-15 -6.63787e-14 -1.04443e-14
  8 6638.94 -0.0201262 2528.49 -1.51553e-15 -1.01348e-14 -2.80462e-14
</Section>

newXOutput 203

<Section columns = "stress_xx | stress_yy | stress_zz | stress_xy | stress_yz | stress_xz">
  1 6647.82 -0.0200593 2537.04 -1.53638e-14 -4.70550e-14 -1.54205e-14
  2 6647.82 -0.0200593 2537.04 -1.47783e-14 -2.38019e-14 -5.75500e-14
  3 6647.82 -0.0200593 2537.04 -2.95958e-14 -7.67706e-14 -1.39966e-14
  4 6647.82 -0.0200593 2537.04 -2.74107e-14 -6.23457e-14 -5.22361e-14
  5 6647.82 -0.0200593 2537.04 -6.65201e-15 -4.46895e-14 -2.32005e-14
  6 6647.82 -0.0200593 2537.04 -4.46689e-15 -1.49738e-14 -8.65855e-14
  7 6647.82 -0.0200593 2537.04 -6.03780e-15 -6.79425e-14 -4.30322e-14
  8 6647.82 -0.0200593 2537.04 2.11719e-15 -2.93987e-14 -1.60598e-13
</Section>

newXOutput 204

<Section columns = "stress_xx | stress_yy | stress_zz | stress_xy | stress_yz | stress_xz">
  1 6656.62 -0.0199929 2545.56 -4.64531e-15 -3.41398e-14 1.67763e-15
  2 6656.62 -0.0199929 2545.56 -4.64531e-15 -3.65614e-14 8.72046e-14
  3 6656.62 -0.0199929 2545.56 -7.99647e-15 -8.94888e-14 4.49520e-16
  4 6656.62 -0.0199929 2545.56 -7.99647e-15 -8.04513e-14 2.33664e-14
  5 6656.62 -0.0199929 2545.56 -7.99647e-15 -3.41398e-14 1.67763e-15
  6 6656.62 -0.0199929 2545.56 -7.99647e-15 -3.65614e-14 8.72046e-14
  7 6656.62 -0.0199929 2545.56 -1.60514e-14 -8.94888e-14 4.49520e-16
  8 6656.62 -0.0199929 2545.56 -1.60514e-14 -8.04513e-14 2.33664e-14
</Section>

newXOutput 205

<Section columns = "stress_xx | stress_yy | stress_zz | stress_xy | stress_yz | stress_xz">
  1 6665.34 -0.0199269 2554.06 -3.94369e-15 3.08870e-14 -9.70677e-15
  2 6665.34 -0.0199269 2554.06 -4.48373e-15 1.12708e-14 4.08257e-15
  3 6665.34 -0.0199269 2554.06 -7.76986e-15 9.06000e-14 -3.91202e-14
  4 6665.34 -0.0199269 2554.06 -7.91456e-15 3.54523e-14 -1.35198e-13
  5 6665.34 -0.0199269 2554.06 -8.45460e-15 3.32488e-14 -1.98934e-15
  6 6665.34 -0.0199269 2554.06 -1.04701e-14 2.00851e-14 3.28844e-14
  7 6665.34 -0.0199269 2554.06 -1.60946e-14 9.94143e-14 -1.03183e-14
  8 6665.34 -0.0199269 2554.06 -1.66347e-14 6.83480e-14 -2.77079e-14
</Section>

newXOutput 206

<Section columns = "stress_xx | stress_yy | stress_zz | stress_xy | stress_yz | stress_xz">
  1 6673.99 -0.0198613 2562.53 1.48986e-14 -1.17658e-13 -1.26099e-14
  2 6673.99 -0.0198613 2562.53 1.48986e-14 -5.51569e-14 -5.61538e-14
  3 6673.99 -0.0198613 2562.53 3.06914e-14 -2.42906e-13 -4.03166e-15
  4 6673.99 -0.0198613 2562.53 3.06914e-14 -7.14183e-14 -4.89823e-14
  5 6673.99 -0.0198613 2562.53 3.06914e-14 -1.15456e-13 -1.31248e-14
  6 6673.99 -0.0198613 2562.53 3.06914e-14 -4.69394e-14 -8.29183e-14
  7 6673.99 -0.0198613 2562.53 6.32250e-14 -2.42316e-13 -5.95326e-15
  8 6673.99 -0.0198613 2562.53 6.32250e-14 -6.92165e-14 -1.48869e-13
</Section>

newXOutput 207

<Section columns = "stress_xx | stress_yy | stress_zz | stress_xy | stress_yz | stress_xz">
  1 6682.56 -0.0197961 2570.97 -4.46268e-14 8.85424e-14 -6.10887e-14
  2 6682.56 -0.0197961 2570.97 -4.46268e-14 1.88771e-13 -1.48015e-13
  3 6682.56 -0.0197961 2570.97 -8.56364e-14 2.15173e-13 -6.23020e-14
  4 6682.56 -0.0197961 2570.97 -8.56364e-14 4.44969e-13 -2.11086e-13
  5 6682.56 -0.0197961 2570.97 -1.51611e-14 8.85424e-14 -6.10887e-14
  6 6682.56 -0.0197961 2570.97 -1.51611e-14 1.88771e-13 -1.48015e-13
  7 6682.56 -0.0197961 2570.97 -2.38046e-14 2.15173e-13 -6.23020e-14
  8 6682.56 -0.0197961 2570.97 -2.38046e-14 4.44969e-13 -2.11086e-13
</Section>

newXOutput 208

<Section columns = "stress_xx | stress_yy | stress_zz | stress_xy | stress_yz | stress_xz">
  1 6691.06 -0.0197313 2579.39 -1.15128e-14 2.74962e-14 -9.59040e-15
  2 6691.06 -0.0197313 2579.39 -1.14746e-14 4.80870e-14 4.03362e-15
  3 6691.06 -0.0197313 2579.39 -1.85182e-14 1.03637e-13 -3.86512e-14
  4 6691.06 -0.0197313 2579.39 -1.65370e-14 9.80047e-14 -1.33577e-13
  5 6691.06 -0.0197313 2579.39 -6.45042e-15 2.76540e-14 -1.96549e-15
  6 6691.06 -0.0197313 2579.39 -6.30818e-15 4.86761e-14 3.24902e-14
  7 6691.06 -0.0197313 2579.39 -1.51907e-14 1.11842e-13 -1.01946e-14
  8 6691.06 -0.0197313 2579.39 -7.79666e-15 1.28625e-13 -2.73757e-14
</Section>

newXOutput 209

<Section columns = "stress_xx | stress_yy | stress_zz | stress_xy | stress_yz | stress_xz">
  1 6699.49 -0.0196670 2587.79 -1.08679e-14 -6.04390e-15 -1.00833e-15
  2 6699.49 -0.0196670 2587.79 -1.14336e-14 3.98148e-14 -5.24138e-14
  3 6699.49 -0.0196670 2587.79 -2.55722e-14 1.34537e-14 -9.15226e-16
  4 6699.49 -0.0196670 2587.79 -2.76837e-14 1.12581e-13 -4.75742e-14
  5 6699.49 -0.0196670 2587.79 -3.40200e-15 -6.04390e-15 -1.51706e-15
  6 6699.49 -0.0196670 2587.79 -5.51346e-15 3.98148e-14 -7.88580e-14
  7 6699.49 -0.0196670 2587.79 2.29079e-15 1.34537e-14 -2.81384e-15
  8 6699.49 -0.0196670 2587.79 -5.58925e-15 1.12581e-13 -1.46265e-13
</Section>

newXOutput 210

<Section columns = "stress_xx | stress_yy | stress_zz | stress_xy | stress_yz | stress_xz">
  1 6707.84 -0.0196031 2596.16 -6.30729e-15 4.55234e-14 1.63769e-15
  2 6707.84 -0.0196031 2596.16 -6.30729e-15 1.53808e-14 8.51282e-14
  3 6707.84 -0.0196031 2596.16 -1.13640e-14 1.23527e-13 4.38817e-16
  4 6707.84 -0.0196031 2596.16 -1.13640e-14 5.46189e-14 2.28100e-14
  5 6707.84 -0.0196031 2596.16 -1.13640e-14 4.80337e-14 1.63769e-15
  6 6707.84 -0.0196031 2596.16 -1.13640e-14 2.47492e-14 8.51282e-14
  7 6707.84 -0.0196031 2596.16 -1.73297e-14 1.40499e-13 4.38817e-16
  8 6707.84 -0.0196031 2596.16 -1.73297e-14 1.17960e-13 2.28100e-14
</Section>

newXOutput 211

<Section columns = "stress_xx | stress_yy | stress_zz | stress_xy | stress_yz | stress_xz">
  1 6716.12 -0.0195396 2604.50 -5.50757e-15 2.76897e-14 1.88351e-15
  2 6716.12 -0.0195396 2604.50 -6.06696e-15 2.96680e-14 7.02936e-15
  3 6716.12 -0.0195396 2604.50 -8.44804e-15 2.96680e-14 -3.51468e-14
  4 6716.12 -0.0195396 2604.50 -1.05357e-14 9.09822e-14 -1.31170e-13
  5 6716.12 -0.0195396 2604.50 -8.44804e-15 2.29881e-14 9.41756e-15
  6 6716.12 -0.0195396 2604.50 -1.05357e-14 1.21211e-14 3.51468e-14
  7 6716.12 -0.0195396 2604.50 -6.58887e-15 1.21211e-14 -7.02936e-15
  8 6716.12 -0.0195396 2604.50 -1.43802e-14 2.54964e-14 -2.62339e-14
</Section>

newXOutput 212

<Section columns = "stress_xx | stress_yy | stress_zz | stress_xy | stress_yz | stress_xz">
  1 6724.33 -0.0194765 2612.82 -4.55904e-15 4.56681e-14 -9.96340e-16
  2 6724.33 -0.0194765 2612.82 -4.55904e-15 1.61593e-14 -5.17905e-14
  3 6724.33 -0.0194765 2612.82 -1.07868e-14 1.34509e-13 -9.04343e-16
  4 6724.33 -0.0194765 2612.82 -1.07868e-14 9.62338e-14 -4.70084e-14
  5 6724.33 -0.0194765 2612.82 -1.07868e-14 4.80172e-14 -1.49902e-15
  6 6724.33 -0.0194765 2612.82 -1.07868e-14 2.49260e-14 -7.79203e-14
  7 6724.33 -0.0194765 2612.82 -1.70146e-14 1.43276e-13 -2.78037e-15
  8 6724.33 -0.0194765 2612.82 -1.70146e-14 1.28951e-13 -1.44526e-13
</Section>

newXOutput 213

<Section columns = "stress_xx | stress_yy | stress_zz | stress_xy | stress_yz | stress_xz">
  1 6732.47 -0.0194138 2621.12 -4.41369e-15 -3.15553e-14 -3.88470e-14
  2 6732.47 -0.0194138 2621.12 -4.41369e-15 -2.75474e-14 -1.38940e-13
  3 6732.47 -0.0194138 2621.12 -7.59775e-15 -8.01069e-14 -2.22555e-14
  4 6732.47 -0.0194138 2621.12 -7.59775e-15 -4.71996e-14 -1.95755e-13
  5 6732.47 -0.0194138 2621.12 -7.59775e-15 -3.62497e-14 -4.58207e-14
  6 6732.47 -0.0194138 2621.12 -7.59775e-15 -4.50672e-14 -1.40808e-13
  7 6732.47 -0.0194138 2621.12 -1.52511e-14 -9.76267e-14 -4.82816e-14
  8 6732.47 -0.0194138 2621.12 -1.52511e-14 -1.12585e-13 -2.02729e-13
</Section>

newXOutput 214

<Section columns = "stress_xx | stress_yy | stress_zz | stress_xy | stress_yz | stress_xz">
  1 6740.54 -0.0193514 2629.39 1.15083e-14 6.93913e-14 1.86120e-15
  2 6740.54 -0.0193514 2629.39 1.15083e-14 9.35621e-14 6.94611e-15
  3 6740.54 -0.0193514 2629.39 2.22211e-14 1.66791e-13 -3.47305e-14
  4 6740.54 -0.0193514 2629.39 2.22211e-14 2.59773e-13 -1.29616e-13
  5 6740.54 -0.0193514 2629.39 2.22211e-14 7.37679e-14 9.30602e-15
  6 6740.54 -0.0193514 2629.39 2.22211e-14 1.09896e-13 3.47305e-14
  7 6740.54 -0.0193514 2629.39 4.53778e-14 1.67964e-13 -6.94611e-15
  8 6740.54 -0.0193514 2629.39 4.53778e-14 2.64149e-13 -2.59232e-14
</Section>

newXOutput 215

<Section columns = "stress_xx | stress_yy | stress_zz | stress_xy | stress_yz | stress_xz">
  1 6748.55 -0.0192895 2637.64 2.00196e-16 -3.06700e-14 1.72967e-15
  2 6748.55 -0.0192895 2637.64 7.47141e-16 -1.30201e-14 -4.10487e-14
  3 6748.55 -0.0192895 2637.64 7.47141e-16 -4.96067e-14 9.23601e-15
  4 6748.55 -0.0192895 2637.64 2.78837e-15 2.38383e-14 -8.64836e-15
  5 6748.55 -0.0192895 2637.64 7.47141e-16 -3.52003e-14 8.64836e-15
  6 6748.55 -0.0192895 2637.64 2.78837e-15 -2.99271e-14 -3.91948e-14
  7 6748.55 -0.0192895 2637.64 2.78837e-15 -5.89390e-14 3.50569e-14
  8 6748.55 -0.0192895 2637.64 1.04063e-14 -1.09905e-14 -1.72967e-15
</Section>

newXOutput 216

<Section columns = "stress_xx | stress_yy | stress_zz | stress_xy | stress_yz | stress_xz">
  1 6756.48 -0.0192280 2645.87 1.99079e-16 -1.19387e-14 1.27359e-14
  2 6756.48 -0.0192280 2645.87 7.42974e-16 7.88258e-15 8.61097e-14
  3 6756.48 -0.0192280 2645.87 7.42974e-16 -4.45559e-14 3.41257e-15
  4 6756.48 -0.0192280 2645.87 2.77282e-15 2.94182e-14 2.30730e-14
  5 6756.48 -0.0192280 2645.87 7.42974e-16 -1.42805e-14 1.27359e-14
  6 6756.48 -0.0192280 2645.87 2.77282e-15 -8.57160e-16 8.61097e-14
  7 6756.48 -0.0192280 2645.87 2.77282e-15 -5.32956e-14 3.41257e-15
  8 6756.48 -0.0192280 2645.87 1.03483e-14 -3.19897e-15 2.30730e-14
</Section>

newXOutput 217

<Section columns = "stress_xx | stress_yy | stress_zz | stress_xy | stress_yz | stress_xz">
  1 6764.35 -0.0191669 2654.07 7.38840e-16 -1.98425e-14 1.83929e-15
  2 6764.35 -0.0191669 2654.07 1.97971e-16 2.78926e-15 6.86433e-15
  3 6764.35 -0.0191669 2654.07 2.75739e-15 -4.96090e-14 -3.43217e-14
  4 6764.35 -0.0191669 2654.07 7.38840e-16 1.69595e-14 -1.28090e-13
  5 6764.35 -0.0191669 2654.07 2.75739e-15 -2.45225e-14 9.19646e-15
  6 6764.35 -0.0191669 2654.07 7.38840e-16 -1.46768e-14 3.43217e-14
  7 6764.35 -0.0191669 2654.07 1.02907e-14 -6.70751e-14 -6.86433e-15
  8 6764.35 -0.0191669 2654.07 2.75739e-15 -4.82249e-14 -2.56180e-14
</Section>

newXOutput 218

<Section columns = "stress_xx | stress_yy | stress_zz | stress_xy | stress_yz | stress_xz">
  1 6772.15 -0.0191061 2662.25 -4.88647e-16 8.99765e-15 -2.72838e-14
  2 6772.15 -0.0191061 2662.25 5.51053e-16 -2.18159e-15 -5.76270e-14
  3 6772.15 -0.0191061 2662.25 5.51053e-16 -7.71388e-15 1.57523e-14
  4 6772.15 -0.0191061 2662.25 2.69286e-15 6.97269e-15 -4.14495e-14
  5 6772.15 -0.0191061 2662.25 -1.82366e-15 1.56991e-14 -4.14495e-14
  6 6772.15 -0.0191061 2662.25 2.05656e-15 2.28284e-14 -8.68086e-14
  7 6772.15 -0.0191061 2662.25 2.05656e-15 2.18159e-15 -3.71148e-14
  8 6772.15 -0.0191061 2662.25 1.00499e-14 4.39031e-14 -1.50357e-13
</Section>

newXOutput 219

<Section columns = "stress_xx | stress_yy | stress_zz | stress_xy | stress_yz | stress_xz">
  1 6779.88 -0.0190457 2670.40 -1.33721e-16 1.80961e-15 -4.72421e-14
  2 6779.88 -0.0190457 2670.40 -6.68607e-16 1.98331e-14 -1.38184e-13
  3 6779.88 -0.0190457 2670.40 2.49528e-15 9.51760e-15 -5.64561e-14
  4 6779.88 -0.0190457 2670.40 4.99055e-16 8.43337e-14 -2.00481e-13
  5 6779.88 -0.0190457 2670.40 -4.99055e-16 -5.04318e-15 -4.72421e-14
  6 6779.88 -0.0190457 2670.40 -2.49528e-15 -5.74186e-15 -1.38184e-13
  7 6779.88 -0.0190457 2670.40 9.31250e-15 -8.50589e-15 -5.64561e-14
  8 6779.88 -0.0190457 2670.40 1.86250e-15 1.70691e-14 -2.00481e-13
</Section>

newXOutput 220

<Section columns = "stress_xx | stress_yy | stress_zz | stress_xy | stress_yz | stress_xz">
  1 6787.55 -0.0189857 2678.53 -6.64912e-16 8.98392e-15 1.52640e-14
  2 6787.55 -0.0189857 2678.53 -1.32982e-16 -2.17826e-15 1.03869e-14
  3 6787.55 -0.0189857 2678.53 4.96297e-16 -7.70210e-15 -2.17153e-14
  4 6787.55 -0.0189857 2678.53 2.48148e-15 6.96205e-15 -1.23321e-13
  5 6787.55 -0.0189857 2678.53 -2.48148e-15 1.56751e-14 2.93191e-14
  6 6787.55 -0.0189857 2678.53 -4.96297e-16 2.27935e-14 3.93407e-14
  7 6787.55 -0.0189857 2678.53 1.85221e-15 2.17826e-15 3.07389e-14
  8 6787.55 -0.0189857 2678.53 9.26103e-15 4.38361e-14 -1.52640e-14
</Section>

newXOutput 221

<Section columns = "stress_xx | stress_yy | stress_zz | stress_xy | stress_yz | stress_xz">
  1 6795.16 -0.0189261 2686.64 -2.43236e-15 -1.07267e-14 -2.43141e-14
  2 6795.16 -0.0189261 2686.64 -1.90337e-15 -2.69731e-14 -4.70602e-14
  3 6795.16 -0.0189261 2686.64 -6.11635e-15 -2.69731e-14 2.54621e-14
  4 6795.16 -0.0189261 2686.64 -4.14211e-15 -5.19258e-14 -4.04152e-15
  5 6795.16 -0.0189261 2686.64 -6.11635e-15 -8.39385e-15 -3.10717e-14
  6 6795.16 -0.0189261 2686.64 -4.14211e-15 -1.82667e-14 -4.88708e-14
  7 6795.16 -0.0189261 2686.64 -1.17746e-14 -1.82667e-14 2.42585e-16
  8 6795.16 -0.0189261 2686.64 -4.40660e-15 -1.94331e-14 -1.07991e-14
</Section>

newXOutput 222

<Section columns = "stress_xx | stress_yy | stress_zz | stress_xy | stress_yz | stress_xz">
  1 6802.70 -0.0188669 2694.72 -2.56340e-15 -1.97669e-14 2.33177e-14
  2 6802.70 -0.0188669 2694.72 -2.59864e-15 -2.33207e-14 8.70227e-14
  3 6802.70 -0.0188669 2694.72 -4.29898e-15 -2.33207e-14 6.24795e-15
  4 6802.70 -0.0188669 2694.72 -6.13083e-15 1.68948e-14 2.33177e-14
  5 6802.70 -0.0188669 2694.72 -6.62168e-15 -2.44291e-14 2.33177e-14
  6 6802.70 -0.0188669 2694.72 -6.75320e-15 -4.07202e-14 8.70227e-14
  7 6802.70 -0.0188669 2694.72 -5.05286e-15 -4.07202e-14 6.24795e-15
  8 6802.70 -0.0188669 2694.72 -1.18894e-14 -4.80411e-14 2.33177e-14
</Section>

newXOutput 223

<Section columns = "stress_xx | stress_yy | stress_zz | stress_xy | stress_yz | stress_xz">
  1 6810.18 -0.0188080 2702.78 -5.15123e-15 -1.45527e-14 1.50864e-14
  2 6810.18 -0.0188080 2702.78 -5.67442e-15 -2.99789e-14 1.02661e-14
  3 6810.18 -0.0188080 2702.78 -7.90145e-15 -3.89938e-15 -2.14627e-14
  4 6810.18 -0.0188080 2702.78 -9.85405e-15 -8.03281e-15 -1.21886e-13
  5 6810.18 -0.0188080 2702.78 -7.90145e-15 -1.45527e-14 2.89780e-14
  6 6810.18 -0.0188080 2702.78 -9.85405e-15 -2.99789e-14 3.88830e-14
  7 6810.18 -0.0188080 2702.78 -6.16257e-15 -3.89938e-15 3.03813e-14
  8 6810.18 -0.0188080 2702.78 -1.34498e-14 -8.03281e-15 -1.50864e-14
</Section>

newXOutput 224

<Section columns = "stress_xx | stress_yy | stress_zz | stress_xy | stress_yz | stress_xz">
  1 6817.59 -0.0187494 2710.82 -5.83379e-15 -2.34203e-14 -2.66520e-14
  2 6817.59 -0.0187494 2710.82 -5.83379e-15 -3.52864e-14 -5.62926e-14
  3 6817.59 -0.0187494 2710.82 -1.05109e-14 -6.13461e-14 1.53876e-14
  4 6817.59 -0.0187494 2710.82 -1.05109e-14 -3.44344e-14 -4.04897e-14
  5 6817.59 -0.0187494 2710.82 -1.05109e-14 -2.57479e-14 -4.04897e-14
  6 6817.59 -0.0187494 2710.82 -1.05109e-14 -4.39729e-14 -8.47985e-14
  7 6817.59 -0.0187494 2710.82 -1.60288e-14 -7.00326e-14 -3.62554e-14
  8 6817.59 -0.0187494 2710.82 -1.60288e-14 -6.68531e-14 -1.46875e-13
</Section>

newXOutput 225

<Section columns = "stress_xx | stress_yy | stress_zz | stress_xy | stress_yz | stress_xz">
  1 6824.95 -0.0186913 2718.84 8.88270e-16 4.33999e-15 -3.80086e-14
  2 6824.95 -0.0186913 2718.84 8.88270e-16 -9.84288e-15 -1.41850e-13
  3 6824.95 -0.0186913 2718.84 8.72081e-15 1.61971e-14 -6.20114e-14
  4 6824.95 -0.0186913 2718.84 8.72081e-15 -3.67341e-14 -2.31430e-13
  5 6824.95 -0.0186913 2718.84 -2.86691e-15 6.66578e-15 -4.51395e-14
  6 6824.95 -0.0186913 2718.84 -2.86691e-15 -1.16290e-15 -1.68463e-13
  7 6824.95 -0.0186913 2718.84 -9.25099e-15 2.48770e-14 -8.86243e-14
  8 6824.95 -0.0186913 2718.84 -9.25099e-15 -4.33999e-15 -3.30750e-13
</Section>

newXOutput 226

<Section columns = "stress_xx | stress_yy | stress_zz | stress_xy | stress_yz | stress_xz">
  1 6832.24 -0.0186335 2726.83 1.88380e-16 2.20448e-15 1.49119e-14
  2 6832.24 -0.0186335 2726.83 7.03045e-16 6.48420e-15 1.01473e-14
  3 6832.24 -0.0186335 2726.83 7.03045e-16 3.25044e-14 -2.12145e-14
  4 6832.24 -0.0186335 2726.83 2.62380e-15 3.07044e-14 -1.20476e-13
  5 6832.24 -0.0186335 2726.83 7.03045e-16 6.85254e-15 2.86428e-14
  6 6832.24 -0.0186335 2726.83 2.62380e-15 2.38310e-14 3.84333e-14
  7 6832.24 -0.0186335 2726.83 2.62380e-15 4.98512e-14 3.00299e-14
  8 6832.24 -0.0186335 2726.83 9.79215e-15 9.54436e-14 -1.49119e-14
</Section>

newXOutput 227

<Section columns = "stress_xx | stress_yy | stress_zz | stress_xy | stress_yz | stress_xz">
  1 6839.47 -0.0185760 2734.80 6.99219e-16 -9.98549e-14 -2.21039e-14
  2 6839.47 -0.0185760 2734.80 1.87355e-16 -9.71076e-14 -4.55346e-14
  3 6839.47 -0.0185760 2734.80 2.60952e-15 -1.95615e-13 -5.92272e-15
  4 6839.47 -0.0185760 2734.80 6.99219e-16 -2.05868e-13 -1.22009e-14
  5 6839.47 -0.0185760 2734.80 2.60952e-15 -1.01866e-13 -2.21039e-14
  6 6839.47 -0.0185760 2734.80 6.99219e-16 -1.04613e-13 -4.55346e-14
  7 6839.47 -0.0185760 2734.80 9.73887e-15 -1.88110e-13 -5.92272e-15
  8 6839.47 -0.0185760 2734.80 2.60952e-15 -1.77857e-13 -1.22009e-14
</Section>

newXOutput 228

<Section columns = "stress_xx | stress_yy | stress_zz | stress_xy | stress_yz | stress_xz">
  1 6846.64 -0.0185189 2742.75 -5.09085e-16 1.93191e-15 2.02019e-14
  2 6846.64 -0.0185189 2742.75 5.09085e-16 -1.70306e-14 7.53945e-14
  3 6846.64 -0.0185189 2742.75 -1.89993e-15 3.45996e-15 -3.52437e-15
  4 6846.64 -0.0185189 2742.75 1.89993e-15 6.41751e-15 -1.31531e-14
  5 6846.64 -0.0185189 2742.75 -1.89993e-15 8.58259e-15 1.31531e-14
  6 6846.64 -0.0185189 2742.75 1.89993e-15 7.79011e-15 4.90882e-14
  7 6846.64 -0.0185189 2742.75 -7.09064e-15 1.32805e-14 -2.98307e-14
  8 6846.64 -0.0185189 2742.75 7.09064e-15 4.30684e-14 -1.11330e-13
</Section>

newXOutput 229

<Section columns = "stress_xx | stress_yy | stress_zz | stress_xy | stress_yz | stress_xz">
  1 6853.76 -0.0184622 2750.67 6.91655e-16 5.33095e-15 3.42768e-14
  2 6853.76 -0.0184622 2750.67 1.85328e-16 -2.58781e-15 1.52654e-14
  3 6853.76 -0.0184622 2750.67 2.58129e-15 -1.35604e-14 1.52654e-14
  4 6853.76 -0.0184622 2750.67 6.91655e-16 3.33004e-14 -1.09382e-13
  5 6853.76 -0.0184622 2750.67 2.58129e-15 1.16660e-14 4.12985e-14
  6 6853.76 -0.0184622 2750.67 6.91655e-16 2.10548e-14 4.14707e-14
  7 6853.76 -0.0184622 2750.67 9.63351e-15 -1.98954e-14 4.14707e-14
  8 6853.76 -0.0184622 2750.67 2.58129e-15 9.65784e-15 -1.15824e-14
</Section>

newXOutput 230

<Section columns = "stress_xx | stress_yy | stress_zz | stress_xy | stress_yz | stress_xz">
  1 6860.81 -0.0184058 2758.57 1.84326e-16 2.93230e-15 -2.44105e-14
  2 6860.81 -0.0184058 2758.57 6.87916e-16 9.20572e-15 -5.45670e-14
  3 6860.81 -0.0184058 2758.57 6.87916e-16 4.06297e-14 -1.54098e-14
  4 6860.81 -0.0184058 2758.57 2.56734e-15 6.13013e-14 -4.77208e-14
  5 6860.81 -0.0184058 2758.57 6.87916e-16 -1.39133e-15 -3.14053e-14
  6 6860.81 -0.0184058 2758.57 2.56734e-15 -6.93029e-15 -8.06718e-14
  7 6860.81 -0.0184058 2758.57 2.56734e-15 3.94711e-14 -4.15146e-14
  8 6860.81 -0.0184058 2758.57 9.58143e-15 5.69777e-14 -1.45145e-13
</Section>

newXOutput 231

<Section columns = "stress_xx | stress_yy | stress_zz | stress_xy | stress_yz | stress_xz">
  1 6867.81 -0.0183497 2766.45 -5.43230e-15 -2.30282e-14 -3.71404e-14
  2 6867.81 -0.0183497 2766.45 -4.93143e-15 -3.75707e-14 -1.38610e-13
  3 6867.81 -0.0183497 2766.45 -9.43358e-15 -6.17038e-15 -6.05948e-14
  4 6867.81 -0.0183497 2766.45 -7.56430e-15 -1.00670e-14 -2.26143e-13
  5 6867.81 -0.0183497 2766.45 -9.43358e-15 -2.73486e-14 -4.41084e-14
  6 6867.81 -0.0183497 2766.45 -7.56430e-15 -5.36946e-14 -1.64615e-13
  7 6867.81 -0.0183497 2766.45 -1.28759e-14 -7.32802e-15 -8.65998e-14
  8 6867.81 -0.0183497 2766.45 -5.89962e-15 -1.43874e-14 -3.23195e-13
</Section>

newXOutput 232

<Section columns = "stress_xx | stress_yy | stress_zz | stress_xy | stress_yz | stress_xz">
  1 6874.75 -0.0182940 2774.31 7.30340e-15 -2.00415e-14 4.33671e-14
  2 6874.75 -0.0182940 2774.31 7.30340e-15 -2.47253e-14 5.04787e-14
  3 6874.75 -0.0182940 2774.31 2.72567e-14 -4.51542e-14 5.04787e-14
  4 6874.75 -0.0182940 2774.31 2.72567e-14 -6.53714e-14 2.39378e-14
  5 6874.75 -0.0182940 2774.31 4.94600e-15 -2.43586e-14 4.33671e-14
  6 6874.75 -0.0182940 2774.31 4.94600e-15 -4.08370e-14 5.04787e-14
  7 6874.75 -0.0182940 2774.31 1.84587e-14 -4.63110e-14 5.04787e-14
  8 6874.75 -0.0182940 2774.31 1.84587e-14 -6.96885e-14 2.39378e-14
</Section>

newXOutput 233

<Section columns = "stress_xx | stress_yy | stress_zz | stress_xy | stress_yz | stress_xz">
  1 6881.63 -0.0182387 2782.15 9.85666e-15 -2.55737e-14 -2.16009e-14
  2 6881.63 -0.0182387 2782.15 9.36116e-15 -4.36754e-14 -4.44983e-14
  3 6881.63 -0.0182387 2782.15 1.60812e-14 -6.95588e-14 -5.78794e-15
  4 6881.63 -0.0182387 2782.15 1.42320e-14 -6.64008e-14 -1.19233e-14
  5 6881.63 -0.0182387 2782.15 4.98582e-15 -2.32618e-14 -2.16009e-14
  6 6881.63 -0.0182387 2782.15 3.13659e-15 -3.50476e-14 -4.44983e-14
  7 6881.63 -0.0182387 2782.15 1.30596e-14 -6.09310e-14 -5.78794e-15
  8 6881.63 -0.0182387 2782.15 6.15819e-15 -3.42015e-14 -1.19233e-14
</Section>

newXOutput 234

<Section columns = "stress_xx | stress_yy | stress_zz | stress_xy | stress_yz | stress_xz">
  1 6888.46 -0.0181836 2789.96 3.78535e-15 1.11221e-14 3.01295e-14
  2 6888.46 -0.0181836 2789.96 4.27820e-15 -3.08862e-14 7.64651e-14
  3 6888.46 -0.0181836 2789.96 4.20009e-15 -5.02220e-15 -6.61266e-16
  4 6888.46 -0.0181836 2789.96 6.03941e-15 -3.81411e-14 -1.21087e-14
  5 6888.46 -0.0181836 2789.96 -6.83586e-15 1.57422e-14 2.32409e-14
  6 6888.46 -0.0181836 2789.96 -4.99654e-15 -1.36435e-14 5.07563e-14
  7 6888.46 -0.0181836 2789.96 -9.05691e-15 1.22205e-14 -2.63700e-14
  8 6888.46 -0.0181836 2789.96 -2.19245e-15 2.62094e-14 -1.08055e-13
</Section>

newXOutput 235

<Section columns = "stress_xx | stress_yy | stress_zz | stress_xy | stress_yz | stress_xz">
  1 6895.23 -0.0181289 2797.75 1.69052e-15 -1.84613e-14 3.34997e-14
  2 6895.23 -0.0181289 2797.75 1.69052e-15 -2.24028e-14 1.49193e-14
  3 6895.23 -0.0181289 2797.75 1.14299e-14 2.38248e-14 1.49193e-14
  4 6895.23 -0.0181289 2797.75 1.14299e-14 1.18455e-14 -1.06902e-13
  5 6895.23 -0.0181289 2797.75 4.52973e-16 -1.18455e-14 4.03622e-14
  6 6895.23 -0.0181289 2797.75 4.52973e-16 2.28763e-15 4.05305e-14
  7 6895.23 -0.0181289 2797.75 3.06263e-15 3.35939e-14 4.05305e-14
  8 6895.23 -0.0181289 2797.75 3.06263e-15 4.83041e-14 -1.13198e-14
</Section>

newXOutput 236

<Section columns = "stress_xx | stress_yy | stress_zz | stress_xy | stress_yz | stress_xz">
  1 6901.95 -0.0180745 2805.52 1.61891e-14 7.55087e-14 -1.35503e-14
  2 6901.95 -0.0180745 2805.52 1.61891e-14 8.21196e-14 -5.05703e-14
  3 6901.95 -0.0180745 2805.52 2.94921e-14 1.65053e-13 -1.22991e-14
  4 6901.95 -0.0180745 2805.52 2.94921e-14 2.04635e-13 -4.59009e-14
  5 6901.95 -0.0180745 2805.52 1.85737e-14 7.12045e-14 -2.03868e-14
  6 6901.95 -0.0180745 2805.52 1.85737e-14 6.60560e-14 -7.60845e-14
  7 6901.95 -0.0180745 2805.52 4.21203e-14 1.63900e-13 -3.78132e-14
  8 6901.95 -0.0180745 2805.52 4.21203e-14 2.00331e-13 -1.41121e-13
</Section>

newXOutput 237

<Section columns = "stress_xx | stress_yy | stress_zz | stress_xy | stress_yz | stress_xz">
  1 6908.61 -0.0180205 2813.27 -2.10330e-14 -1.11975e-13 -2.60327e-14
  2 6908.61 -0.0180205 2813.27 -2.05480e-14 -2.05580e-14 -1.32728e-13
  3 6908.61 -0.0180205 2813.27 -4.30316e-14 -2.21553e-13 -5.64748e-14
  4 6908.61 -0.0180205 2813.27 -4.12216e-14 -9.46167e-14 -2.20298e-13
  5 6908.61 -0.0180205 2813.27 -5.02082e-15 -1.13971e-13 -3.28433e-14
  6 6908.61 -0.0180205 2813.27 -3.21078e-15 -2.80075e-14 -1.58145e-13
  7 6908.61 -0.0180205 2813.27 -9.23525e-15 -2.14103e-13 -8.18924e-14
  8 6908.61 -0.0180205 2813.27 -2.48010e-15 -6.68145e-14 -3.15158e-13
</Section>

newXOutput 238

<Section columns = "stress_xx | stress_yy | stress_zz | stress_xy | stress_yz | stress_xz">
  1 6915.22 -0.0179667 2821.00 -8.60797e-15 -5.34140e-14 5.26196e-14
  2 6915.22 -0.0179667 2821.00 -9.99060e-15 -2.92003e-14 5.20819e-14
  3 6915.22 -0.0179667 2821.00 -1.08262e-14 -2.92003e-14 5.20819e-14
  4 6915.22 -0.0179667 2821.00 -1.28678e-14 2.59411e-14 2.41327e-14
  5 6915.22 -0.0179667 2821.00 -1.16508e-15 -5.57172e-14 5.26196e-14
  6 6915.22 -0.0179667 2821.00 -6.32513e-15 -3.77959e-14 5.20819e-14
  7 6915.22 -0.0179667 2821.00 5.31297e-15 -3.77959e-14 5.20819e-14
  8 6915.22 -0.0179667 2821.00 -2.30650e-15 -6.13814e-15 2.41327e-14
</Section>

newXOutput 239

<Section columns = "stress_xx | stress_yy | stress_zz | stress_xy | stress_yz | stress_xz">
  1 6921.77 -0.0179133 2828.71 -8.05894e-15 -4.55917e-14 -1.09233e-14
  2 6921.77 -0.0179133 2828.71 -8.05894e-15 1.59259e-15 -4.07663e-14
  3 6921.77 -0.0179133 2828.71 -1.00255e-14 -4.99427e-14 -2.92689e-15
  4 6921.77 -0.0179133 2828.71 -1.00255e-14 3.81532e-14 -1.09233e-14
  5 6921.77 -0.0179133 2828.71 7.19795e-16 -4.55917e-14 -1.09233e-14
  6 6921.77 -0.0179133 2828.71 7.19795e-16 1.59259e-15 -4.07663e-14
  7 6921.77 -0.0179133 2828.71 8.05894e-15 -4.99427e-14 -2.92689e-15
  8 6921.77 -0.0179133 2828.71 8.05894e-15 3.81532e-14 -1.09233e-14
</Section>

newXOutput 240

<Section columns = "stress_xx | stress_yy | stress_zz | stress_xy | stress_yz | stress_xz">
  1 6928.27 -0.0178602 2836.39 9.51735e-15 5.75792e-14 3.17526e-14
  2 6928.27 -0.0178602 2836.39 9.04002e-15 1.61667e-13 7.53641e-14
  3 6928.27 -0.0178602 2836.39 2.44728e-14 1.61667e-13 7.93613e-15
  4 6928.27 -0.0178602 2836.39 2.26914e-14 3.21501e-13 -9.53706e-15
  5 6928.27 -0.0178602 2836.39 3.51612e-14 5.75792e-14 3.13015e-14
  6 6928.27 -0.0178602 2836.39 3.33798e-14 1.61667e-13 5.19161e-14
  7 6928.27 -0.0178602 2836.39 7.27251e-14 1.61667e-13 6.25264e-15
  8 6928.27 -0.0178602 2836.39 6.60768e-14 3.21501e-13 -9.70460e-14
</Section>

newXOutput 241

<Section columns = "stress_xx | stress_yy | stress_zz | stress_xy | stress_yz | stress_xz">
  1 6934.72 -0.0178074 2844.05 6.14575e-15 3.90861e-14 4.28640e-14
  2 6934.72 -0.0178074 2844.05 6.14575e-15 4.64008e-14 1.72953e-14
  3 6934.72 -0.0178074 2844.05 1.26604e-14 9.24223e-14 1.72953e-14
  4 6934.72 -0.0178074 2844.05 1.26604e-14 1.40013e-13 -1.03780e-13
  5 6934.72 -0.0178074 2844.05 1.26604e-14 4.56724e-14 4.95727e-14
  6 6934.72 -0.0178074 2844.05 1.26604e-14 7.09812e-14 4.23324e-14
  7 6934.72 -0.0178074 2844.05 2.60807e-14 1.02148e-13 4.23324e-14
  8 6934.72 -0.0178074 2844.05 2.60807e-14 1.76309e-13 -1.03398e-14
</Section>

newXOutput 242

<Section columns = "stress_xx | stress_yy | stress_zz | stress_xy | stress_yz | stress_xz">
  1 6941.12 -0.0177550 2851.70 6.45179e-16 -4.78222e-15 -1.32471e-14
  2 6941.12 -0.0177550 2851.70 1.72875e-16 9.58506e-15 -4.94389e-14
  3 6941.12 -0.0177550 2851.70 2.40784e-15 -4.18355e-14 -1.20239e-14
  4 6941.12 -0.0177550 2851.70 6.45179e-16 2.93444e-14 -4.48739e-14
  5 6941.12 -0.0177550 2851.70 2.40784e-15 -7.07858e-15 -1.99306e-14
  6 6941.12 -0.0177550 2851.70 6.45179e-16 1.01496e-15 -7.43822e-14
  7 6941.12 -0.0177550 2851.70 8.98618e-15 -5.04056e-14 -3.69672e-14
  8 6941.12 -0.0177550 2851.70 2.40784e-15 -2.63970e-15 -1.37964e-13
</Section>

newXOutput 243

<Section columns = "stress_xx | stress_yy | stress_zz | stress_xy | stress_yz | stress_xz">
  1 6947.47 -0.0177028 2859.32 -5.09552e-15 5.58126e-14 -1.31378e-14
  2 6947.47 -0.0177028 2859.32 -4.62570e-15 6.27528e-14 -1.26464e-13
  3 6947.47 -0.0177028 2859.32 -8.84874e-15 6.81820e-14 -4.40371e-14
  4 6947.47 -0.0177028 2859.32 -7.09535e-15 1.26464e-13 -2.12384e-13
  5 6947.47 -0.0177028 2859.32 -8.84874e-15 5.15307e-14 -1.35839e-14
  6 6947.47 -0.0177028 2859.32 -7.09535e-15 4.67726e-14 -1.49650e-13
  7 6947.47 -0.0177028 2859.32 -1.20776e-14 6.70347e-14 -4.57017e-14
  8 6947.47 -0.0177028 2859.32 -5.53387e-15 1.22182e-13 -2.98913e-13
</Section>

newXOutput 244

<Section columns = "stress_xx | stress_yy | stress_zz | stress_xy | stress_yz | stress_xz">
  1 6953.76 -0.0176510 2866.92 6.61062e-15 2.17364e-14 5.14467e-14
  2 6953.76 -0.0176510 2866.92 7.07797e-15 -1.98480e-14 5.09210e-14
  3 6953.76 -0.0176510 2866.92 1.52575e-14 8.28410e-14 5.09210e-14
  4 6953.76 -0.0176510 2866.92 1.70017e-14 1.53183e-14 2.35948e-14
  5 6953.76 -0.0176510 2866.92 -5.67283e-15 2.17364e-14 5.14467e-14
  6 6953.76 -0.0176510 2866.92 -3.92864e-15 -1.98480e-14 5.09210e-14
  7 6953.76 -0.0176510 2866.92 -5.56745e-15 8.28410e-14 5.09210e-14
  8 6953.76 -0.0176510 2866.92 9.41977e-16 1.53183e-14 2.35948e-14
</Section>

newXOutput 245

<Section columns = "stress_xx | stress_yy | stress_zz | stress_xy | stress_yz | stress_xz">
  1 6960.01 -0.0175994 2874.50 -2.30903e-14 -1.00133e-13 1.54156e-15
  2 6960.01 -0.0175994 2874.50 -2.35552e-14 7.25926e-14 -3.65845e-14
  3 6960.01 -0.0175994 2874.50 -4.76707e-14 -1.83940e-13 8.23156e-15
  4 6960.01 -0.0175994 2874.50 -4.94057e-14 2.32900e-13 -7.70782e-15
  5 6960.01 -0.0175994 2874.50 9.58653e-15 -1.07007e-13 7.70782e-15
  6 6960.01 -0.0175994 2874.50 7.85146e-15 4.69393e-14 -3.49323e-14
  7 6960.01 -0.0175994 2874.50 2.80630e-14 -2.09594e-13 3.12444e-14
  8 6960.01 -0.0175994 2874.50 2.15877e-14 1.37160e-13 -1.54156e-15
</Section>

newXOutput 246

<Section columns = "stress_xx | stress_yy | stress_zz | stress_xy | stress_yz | stress_xz">
  1 6966.20 -0.0175482 2882.06 7.62152e-15 3.22374e-14 -1.05815e-14
  2 6966.20 -0.0175482 2882.06 8.08401e-15 -1.25729e-13 -1.16062e-13
  3 6966.20 -0.0175482 2882.06 1.46442e-14 4.82945e-14 -3.45523e-14
  4 6966.20 -0.0175482 2882.06 1.63702e-14 -2.40889e-13 -1.76451e-13
  5 6966.20 -0.0175482 2882.06 -2.16019e-14 4.10890e-14 -4.43814e-15
  6 6966.20 -0.0175482 2882.06 -1.98759e-14 -9.26946e-14 -1.14416e-13
  7 6966.20 -0.0175482 2882.06 -4.84426e-14 6.65289e-14 -1.16251e-14
  8 6966.20 -0.0175482 2882.06 -4.20011e-14 -1.72838e-13 -1.70308e-13
</Section>

newXOutput 247

<Section columns = "stress_xx | stress_yy | stress_zz | stress_xy | stress_yz | stress_xz">
  1 6972.35 -0.0174973 2889.60 2.43727e-14 9.95145e-14 4.19138e-14
  2 6972.35 -0.0174973 2889.60 2.48327e-14 1.75049e-13 1.69119e-14
  3 6972.35 -0.0174973 2889.60 4.66712e-14 1.75049e-13 1.69119e-14
  4 6972.35 -0.0174973 2889.60 4.83882e-14 3.34476e-13 -1.01479e-13
  5 6972.35 -0.0174973 2889.60 3.63691e-14 1.01802e-13 4.84738e-14
  6 6972.35 -0.0174973 2889.60 3.80861e-14 1.83587e-13 4.13940e-14
  7 6972.35 -0.0174973 2889.60 7.03334e-14 1.83587e-13 4.13940e-14
  8 6972.35 -0.0174973 2889.60 7.67413e-14 3.66343e-13 -1.01106e-14
</Section>

newXOutput 248

<Section columns = "stress_xx | stress_yy | stress_zz | stress_xy | stress_yz | stress_xz">
  1 6978.45 -0.0174466 2897.11 2.95847e-15 8.72200e-14 -8.67754e-16
  2 6978.45 -0.0174466 2897.11 2.95847e-15 5.08049e-14 -4.51065e-14
  3 6978.45 -0.0174466 2897.11 1.61654e-14 2.29981e-13 -7.87630e-16
  4 6978.45 -0.0174466 2897.11 1.61654e-14 1.64010e-13 -4.09416e-14
  5 6978.45 -0.0174466 2897.11 -4.33150e-15 8.72200e-14 -1.30556e-15
  6 6978.45 -0.0174466 2897.11 -4.33150e-15 5.08049e-14 -6.78640e-14
  7 6978.45 -0.0174466 2897.11 2.95847e-15 2.29981e-13 -2.42154e-15
  8 6978.45 -0.0174466 2897.11 2.95847e-15 1.64010e-13 -1.25874e-13
</Section>

newXOutput 249

<Section columns = "stress_xx | stress_yy | stress_zz | stress_xy | stress_yz | stress_xz">
  1 6984.50 -0.0173963 2904.61 -6.20150e-32 1.59451e-14 2.51151e-14
  2 6984.50 -0.0173963 2904.61 -1.66169e-32 1.00658e-14 1.80078e-14
  3 6984.50 -0.0173963 2904.61 -8.35925e-32 3.56436e-14 -4.71926e-14
  4 6984.50 -0.0173963 2904.61 -2.23985e-32 3.11716e-14 -2.23100e-13
  5 6984.50 -0.0173963 2904.61 -1.14837e-31 2.05142e-14 4.42134e-14
  6 6984.50 -0.0173963 2904.61 -3.07705e-32 2.71177e-14 6.82381e-14
  7 6984.50 -0.0173963 2904.61 -2.80727e-31 5.26955e-14 2.40831e-14
  8 6984.50 -0.0173963 2904.61 -7.52205e-32 9.48101e-14 -3.56379e-14
</Section>

newXOutput 250

<Section columns = "stress_xx | stress_yy | stress_zz | stress_xy | stress_yz | stress_xz">
  1 6990.50 -0.0173462 2912.09 9.05886e-16 -1.35774e-13 -2.25896e-14
  2 6990.50 -0.0173462 2912.09 -9.05886e-16 -1.40452e-13 3.02644e-14
  3 6990.50 -0.0173462 2912.09 3.38081e-15 -1.91570e-13 1.49149e-14
  4 6990.50 -0.0173462 2912.09 -3.38081e-15 -1.74113e-13 1.37276e-14
  5 6990.50 -0.0173462 2912.09 3.38081e-15 -1.35774e-13 -3.46954e-14
  6 6990.50 -0.0173462 2912.09 -3.38081e-15 -1.40452e-13 2.70206e-14
  7 6990.50 -0.0173462 2912.09 1.26174e-14 -1.91570e-13 -3.02644e-14
  8 6990.50 -0.0173462 2912.09 -1.26174e-14 -1.74113e-13 1.62186e-15
</Section>

newXOutput 251

<Section columns = "stress_xx | stress_yy | stress_zz | stress_xy | stress_yz | stress_xz">
  1 6996.45 -0.0172965 2919.54 1.00296e-14 -1.08006e-13 1.50764e-15
  2 6996.45 -0.0172965 2919.54 1.09308e-14 -1.28984e-13 -3.57795e-14
  3 6996.45 -0.0172965 2919.54 1.86029e-14 -2.56686e-13 8.05043e-15
  4 6996.45 -0.0172965 2919.54 2.19662e-14 -2.65199e-13 -7.53822e-15
  5 6996.45 -0.0172965 2919.54 -1.57711e-15 -1.03444e-13 7.53822e-15
  6 6996.45 -0.0172965 2919.54 1.78623e-15 -1.11957e-13 -3.41636e-14
  7 6996.45 -0.0172965 2919.54 -1.09308e-14 -2.39659e-13 3.05568e-14
  8 6996.45 -0.0172965 2919.54 1.62130e-15 -2.01654e-13 -1.50764e-15
</Section>

newXOutput 252

<Section columns = "stress_xx | stress_yy | stress_zz | stress_xy | stress_yz | stress_xz">
  1 7002.36 -0.0172470 2926.98 -3.28162e-16 1.47349e-14 7.56829e-15
  2 7002.36 -0.0172470 2926.98 -1.22472e-15 3.94821e-15 -1.08711e-13
  3 7002.36 -0.0172470 2926.98 -1.22472e-15 5.49915e-14 -5.60383e-16
  4 7002.36 -0.0172470 2926.98 -4.57070e-15 1.47349e-14 -1.63671e-13
  5 7002.36 -0.0172470 2926.98 -1.22472e-15 1.47349e-14 7.56829e-15
  6 7002.36 -0.0172470 2926.98 -4.57070e-15 3.94821e-15 -1.08711e-13
  7 7002.36 -0.0172470 2926.98 -4.57070e-15 5.49915e-14 -5.60383e-16
  8 7002.36 -0.0172470 2926.98 -1.70581e-14 1.47349e-14 -1.63671e-13
</Section>

newXOutput 253

<Section columns = "stress_xx | stress_yy | stress_zz | stress_xy | stress_yz | stress_xz">
  1 7008.22 -0.0171978 2934.40 -4.31725e-15 -1.40839e-14 -3.11059e-14
  2 7008.22 -0.0171978 2934.40 -4.31725e-15 2.39472e-14 -2.77827e-15
  3 7008.22 -0.0171978 2934.40 -1.57777e-14 -4.71723e-14 -1.79590e-14
  4 7008.22 -0.0171978 2934.40 -1.57777e-14 1.09486e-13 -1.08498e-13
  5 7008.22 -0.0171978 2934.40 -7.98313e-16 -1.37787e-14 -3.66624e-14
  6 7008.22 -0.0171978 2934.40 -7.98313e-16 2.50861e-14 1.79590e-14
  7 7008.22 -0.0171978 2934.40 1.44070e-14 -3.13092e-14 -3.86963e-14
  8 7008.22 -0.0171978 2934.40 1.44070e-14 1.68687e-13 -3.11059e-14
</Section>

newXOutput 254

<Section columns = "stress_xx | stress_yy | stress_zz | stress_xy | stress_yz | stress_xz">
  1 7014.04 -0.0171489 2941.79 2.01512e-14 9.53784e-14 -2.16171e-14
  2 7014.04 -0.0171489 2941.79 2.01512e-14 -8.39826e-14 -1.38978e-14
  3 7014.04 -0.0171489 2941.79 3.44911e-14 1.70861e-13 -1.38978e-14
  4 7014.04 -0.0171489 2941.79 3.44911e-14 -9.81828e-14 -3.39741e-14
  5 7014.04 -0.0171489 2941.79 -2.01512e-14 9.08261e-14 -2.80097e-14
  6 7014.04 -0.0171489 2941.79 -2.01512e-14 -1.00972e-13 -3.77554e-14
  7 7014.04 -0.0171489 2941.79 -3.44911e-14 1.53871e-13 -3.77554e-14
  8 7014.04 -0.0171489 2941.79 -3.44911e-14 -1.61589e-13 -1.23012e-13
</Section>

newXOutput 255

<Section columns = "stress_xx | stress_yy | stress_zz | stress_xy | stress_yz | stress_xz">
  1 7019.81 -0.0171003 2949.17 6.84649e-15 3.52793e-14 4.22876e-14
  2 7019.81 -0.0171003 2949.17 6.84649e-15 -1.60127e-14 2.23628e-14
  3 7019.81 -0.0171003 2949.17 1.66606e-14 8.58503e-14 -1.32927e-14
  4 7019.81 -0.0171003 2949.17 1.66606e-14 1.61800e-14 -2.09419e-13
  5 7019.81 -0.0171003 2949.17 -3.10751e-15 3.52793e-14 5.50260e-14
  6 7019.81 -0.0171003 2949.17 -3.10751e-15 -1.60127e-14 6.99034e-14
  7 7019.81 -0.0171003 2949.17 3.13998e-15 8.58503e-14 3.42479e-14
  8 7019.81 -0.0171003 2949.17 3.13998e-15 1.61800e-14 -3.19947e-14
</Section>

newXOutput 256

<Section columns = "stress_xx | stress_yy | stress_zz | stress_xy | stress_yz | stress_xz">
  1 7025.53 -0.0170520 2956.53 2.77302e-15 2.80599e-14 -2.44198e-14
  2 7025.53 -0.0170520 2956.53 3.65131e-15 -9.03335e-14 2.09356e-14
  3 7025.53 -0.0170520 2956.53 6.42039e-15 6.23497e-14 5.92088e-15
  4 7025.53 -0.0170520 2956.53 9.69821e-15 -8.40274e-14 -1.89240e-14
  5 7025.53 -0.0170520 2956.53 -1.32466e-14 3.26056e-14 -4.26076e-14
  6 7025.53 -0.0170520 2956.53 -9.96874e-15 -7.33687e-14 -5.92088e-15
  7 7025.53 -0.0170520 2956.53 -1.64254e-14 7.93145e-14 -6.19567e-14
  8 7025.53 -0.0170520 2956.53 -4.19236e-15 -2.07139e-14 -1.19154e-13
</Section>

newXOutput 257

<Section columns = "stress_xx | stress_yy | stress_zz | stress_xy | stress_yz | stress_xz">
  1 7031.21 -0.0170039 2963.87 -4.33766e-15 -1.42248e-14 -7.32043e-14
  2 7031.21 -0.0170039 2963.87 -4.33766e-15 -4.96810e-14 -2.07153e-13
  3 7031.21 -0.0170039 2963.87 -1.12967e-14 -6.04284e-14 -6.55692e-14
  4 7031.21 -0.0170039 2963.87 -1.12967e-14 -4.84340e-14 -2.27010e-13
  5 7031.21 -0.0170039 2963.87 -1.12967e-14 -1.02910e-14 -7.95271e-14
  6 7031.21 -0.0170039 2963.87 -1.12967e-14 -3.49997e-14 -2.30750e-13
  7 7031.21 -0.0170039 2963.87 -2.39042e-14 -7.51097e-14 -8.91664e-14
  8 7031.21 -0.0170039 2963.87 -2.39042e-14 -1.03225e-13 -3.15076e-13
</Section>

newXOutput 258

<Section columns = "stress_xx | stress_yy | stress_zz | stress_xy | stress_yz | stress_xz">
  1 7036.85 -0.0169561 2971.18 1.01759e-30 -9.52882e-15 -9.80768e-15
  2 7036.85 -0.0169561 2971.18 3.27307e-30 1.35562e-14 -1.70584e-13
  3 7036.85 -0.0169561 2971.18 3.71218e-30 -6.48421e-15 -6.47825e-14
  4 7036.85 -0.0169561 2971.18 1.26443e-29 7.69853e-14 -3.99840e-13
  5 7036.85 -0.0169561 2971.18 2.53080e-31 -1.83029e-14 2.79203e-15
  6 7036.85 -0.0169561 2971.18 4.19869e-31 -1.91893e-14 -1.23561e-13
  7 7036.85 -0.0169561 2971.18 1.21538e-30 -2.45591e-14 -1.77597e-14
  8 7036.85 -0.0169561 2971.18 3.32607e-30 9.52882e-15 -2.24349e-13
</Section>

newXOutput 259

<Section columns = "stress_xx | stress_yy | stress_zz | stress_xy | stress_yz | stress_xz">
  1 7042.44 -0.0169086 2978.48 1.18152e-15 5.70500e-15 -6.61371e-14
  2 7042.44 -0.0169086 2978.48 3.16588e-16 2.29923e-14 -1.68759e-13
  3 7042.44 -0.0169086 2978.48 4.40950e-15 -2.39947e-15 -4.30546e-14
  4 7042.44 -0.0169086 2978.48 1.18152e-15 7.94604e-14 -2.10042e-13
  5 7042.44 -0.0169086 2978.48 4.40950e-15 1.16920e-15 -8.41270e-14
  6 7042.44 -0.0169086 2978.48 1.18152e-15 6.06445e-15 -1.95324e-13
  7 7042.44 -0.0169086 2978.48 1.64565e-14 -1.93273e-14 -1.10194e-13
  8 7042.44 -0.0169086 2978.48 4.40950e-15 1.62849e-14 -3.09182e-13
</Section>

newXOutput 260

<Section columns = "stress_xx | stress_yy | stress_zz | stress_xy | stress_yz | stress_xz">
  1 7047.99 -0.0168614 2985.76 6.35886e-15 2.66583e-14 -2.11491e-14
  2 7047.99 -0.0168614 2985.76 5.49831e-15 -2.39773e-14 -1.35969e-14
  3 7047.99 -0.0168614 2985.76 1.50649e-14 7.75161e-14 -1.35969e-14
  4 7047.99 -0.0168614 2985.76 1.18533e-14 -7.47646e-15 -3.32386e-14
  5 7047.99 -0.0168614 2985.76 -4.20467e-15 2.21258e-14 -2.74033e-14
  6 7047.99 -0.0168614 2985.76 -7.41627e-15 -4.08928e-14 -3.69380e-14
  7 7047.99 -0.0168614 2985.76 -1.32633e-15 6.06005e-14 -3.69380e-14
  8 7047.99 -0.0168614 2985.76 -1.33122e-14 -7.06062e-14 -1.20349e-13
</Section>

newXOutput 261

<Section columns = "stress_xx | stress_yy | stress_zz | stress_xy | stress_yz | stress_xz">
  1 7053.50 -0.0168144 2993.02 -1.17044e-14 -7.14598e-14 -2.86533e-14
  2 7053.50 -0.0168144 2993.02 -1.17044e-14 2.22818e-14 3.11580e-15
  3 7053.50 -0.0168144 2993.02 -1.23781e-14 -7.37800e-14 -4.65132e-14
  4 7053.50 -0.0168144 2993.02 -1.23781e-14 6.55762e-14 -2.13871e-13
  5 7053.50 -0.0168144 2993.02 2.00092e-15 -8.02149e-14 -2.78185e-14
  6 7053.50 -0.0168144 2993.02 2.00092e-15 -1.03925e-14 4.65132e-14
  7 7053.50 -0.0168144 2993.02 1.58553e-14 -9.18156e-14 -4.33974e-14
  8 7053.50 -0.0168144 2993.02 1.58553e-14 -1.73366e-15 -5.19099e-14
</Section>

newXOutput 262

<Section columns = "stress_xx | stress_yy | stress_zz | stress_xy | stress_yz | stress_xz">
  1 7058.97 -0.0167677 3000.26 -1.31208e-14 -7.03524e-14 -3.03583e-14
  2 7058.97 -0.0167677 3000.26 -1.31208e-14 2.79028e-14 1.87516e-14
  3 7058.97 -0.0167677 3000.26 -1.78220e-14 -9.87804e-14 -5.07662e-14
  4 7058.97 -0.0167677 3000.26 -1.78220e-14 6.02503e-14 -3.36708e-14
  5 7058.97 -0.0167677 3000.26 -3.51570e-15 -7.48784e-14 -3.65674e-14
  6 7058.97 -0.0167677 3000.26 -3.51570e-15 1.10117e-14 -4.42098e-15
  7 7058.97 -0.0167677 3000.26 -4.77540e-15 -1.15671e-13 -7.39388e-14
  8 7058.97 -0.0167677 3000.26 -4.77540e-15 -2.78810e-15 -1.20152e-13
</Section>

newXOutput 263

<Section columns = "stress_xx | stress_yy | stress_zz | stress_xy | stress_yz | stress_xz">
  1 7064.39 -0.0167213 3007.48 1.15779e-15 1.51423e-14 2.22121e-14
  2 7064.39 -0.0167213 3007.48 3.10230e-16 3.11935e-14 1.15210e-13
  3 7064.39 -0.0167213 3007.48 4.32094e-15 5.65118e-14 -2.33240e-14
  4 7064.39 -0.0167213 3007.48 1.15779e-15 1.16416e-13 -7.83881e-14
  5 7064.39 -0.0167213 3007.48 4.32094e-15 1.51423e-14 2.83988e-14
  6 7064.39 -0.0167213 3007.48 1.15779e-15 3.11935e-14 1.38299e-13
  7 7064.39 -0.0167213 3007.48 1.61260e-14 5.65118e-14 -2.34976e-16
  8 7064.39 -0.0167213 3007.48 4.32094e-15 1.16416e-13 7.78145e-15
</Section>

newXOutput 264

<Section columns = "stress_xx | stress_yy | stress_zz | stress_xy | stress_yz | stress_xz">
  1 7069.77 -0.0166751 3014.68 -9.62832e-16 3.83825e-15 -6.20276e-14
  2 7069.77 -0.0166751 3014.68 -1.19535e-16 -3.45808e-14 -1.22625e-13
  3 7069.77 -0.0166751 3014.68 8.11268e-16 1.06728e-14 -3.36831e-14
  4 7069.77 -0.0166751 3014.68 3.95850e-15 -6.09147e-14 -1.65554e-13
  5 7069.77 -0.0166751 3014.68 8.11268e-16 1.70938e-14 -7.35305e-14
  6 7069.77 -0.0166751 3014.68 3.95850e-15 1.48895e-14 -1.25707e-13
  7 7069.77 -0.0166751 3014.68 4.20790e-15 4.55360e-14 -7.66127e-14
  8 7069.77 -0.0166751 3014.68 1.59535e-14 6.91967e-14 -1.77057e-13
</Section>

newXOutput 265

<Section columns = "stress_xx | stress_yy | stress_zz | stress_xy | stress_yz | stress_xz">
  1 7075.11 -0.0166292 3021.87 -5.73742e-15 -1.52617e-13 -7.82771e-14
  2 7075.11 -0.0166292 3021.87 -6.57648e-15 -1.82002e-13 -1.68771e-13
  3 7075.11 -0.0166292 3021.87 -1.23327e-14 -2.52505e-13 -9.27346e-14
  4 7075.11 -0.0166292 3021.87 -1.54641e-14 -3.13038e-13 -2.19094e-13
  5 7075.11 -0.0166292 3021.87 -1.23327e-14 -1.61347e-13 -7.86886e-14
  6 7075.11 -0.0166292 3021.87 -1.54641e-14 -2.14582e-13 -1.90159e-13
  7 7075.11 -0.0166292 3021.87 -2.73221e-14 -2.70488e-13 -9.42702e-14
  8 7075.11 -0.0166292 3021.87 -3.90087e-14 -3.80154e-13 -2.98914e-13
</Section>

newXOutput 266

<Section columns = "stress_xx | stress_yy | stress_zz | stress_xy | stress_yz | stress_xz">
  1 7080.41 -0.0165835 3029.03 1.16410e-14 -2.82704e-14 -1.14681e-14
  2 7080.41 -0.0165835 3029.03 9.97130e-15 1.91191e-14 -1.08330e-14
  3 7080.41 -0.0165835 3029.03 2.53766e-14 -8.72742e-14 -1.08330e-14
  4 7080.41 -0.0165835 3029.03 1.91452e-14 5.77447e-14 -3.18640e-14
  5 7080.41 -0.0165835 3029.03 2.53766e-14 -2.85727e-14 -1.75884e-14
  6 7080.41 -0.0165835 3029.03 1.91452e-14 1.79909e-14 -3.36741e-14
  7 7080.41 -0.0165835 3029.03 5.74860e-14 -1.02988e-13 -3.36741e-14
  8 7080.41 -0.0165835 3029.03 3.42300e-14 -9.01497e-16 -1.17108e-13
</Section>

newXOutput 267

<Section columns = "stress_xx | stress_yy | stress_zz | stress_xy | stress_yz | stress_xz">
  1 7085.67 -0.0165381 3036.17 3.93727e-15 -1.76961e-14 -2.59580e-14
  2 7085.67 -0.0165381 3036.17 3.93727e-15 -1.89341e-14 3.60721e-15
  3 7085.67 -0.0165381 3036.17 5.70519e-15 9.76372e-16 -3.77462e-14
  4 7085.67 -0.0165381 3036.17 5.70519e-15 1.62666e-14 -2.07215e-13
  5 7085.67 -0.0165381 3036.17 5.70519e-15 -8.97886e-15 -1.94511e-14
  6 7085.67 -0.0165381 3036.17 5.70519e-15 1.35991e-14 4.76012e-14
  7 7085.67 -0.0165381 3036.17 2.77472e-15 1.89341e-14 -1.34623e-14
  8 7085.67 -0.0165381 3036.17 2.77472e-15 8.32857e-14 -4.30275e-14
</Section>

newXOutput 268

<Section columns = "stress_xx | stress_yy | stress_zz | stress_xy | stress_yz | stress_xz">
  1 7090.89 -0.0164929 3043.30 4.10298e-15 -3.65635e-14 -1.84731e-14
  2 7090.89 -0.0164929 3043.30 4.10298e-15 1.15275e-14 2.13624e-14
  3 7090.89 -0.0164929 3043.30 1.06856e-14 -8.93818e-14 -3.94829e-14
  4 7090.89 -0.0164929 3043.30 1.06856e-14 5.56349e-14 -3.02191e-14
  5 7090.89 -0.0164929 3043.30 1.06856e-14 -4.10699e-14 -1.88801e-14
  6 7090.89 -0.0164929 3043.30 1.06856e-14 -5.29072e-15 2.03526e-16
  7 7090.89 -0.0164929 3043.30 2.26109e-14 -1.06200e-13 -4.10020e-14
  8 7090.89 -0.0164929 3043.30 2.26109e-14 -7.13157e-15 -1.09185e-13
</Section>

newXOutput 269

<Section columns = "stress_xx | stress_yy | stress_zz | stress_xy | stress_yz | stress_xz">
  1 7096.06 -0.0164480 3050.41 1.13996e-14 -1.45546e-14 -6.09722e-14
  2 7096.06 -0.0164480 3050.41 1.05772e-14 -2.91091e-14 -1.95926e-13
  3 7096.06 -0.0164480 3050.41 2.53619e-14 -2.91091e-14 -6.03439e-14
  4 7096.06 -0.0164480 3050.41 2.22926e-14 -1.45546e-14 -2.16733e-13
  5 7096.06 -0.0164480 3050.41 6.94621e-15 -1.45546e-14 -6.70270e-14
  6 7096.06 -0.0164480 3050.41 3.87693e-15 -2.91091e-14 -2.18523e-13
  7 7096.06 -0.0164480 3050.41 2.13197e-14 -2.91091e-14 -8.29409e-14
  8 7096.06 -0.0164480 3050.41 9.86498e-15 -1.45546e-14 -3.01066e-13
</Section>

newXOutput 270

<Section columns = "stress_xx | stress_yy | stress_zz | stress_xy | stress_yz | stress_xz">
  1 7101.20 -0.0164034 3057.50 -2.58348e-14 4.32152e-14 -6.60342e-14
  2 7101.20 -0.0164034 3057.50 -2.58348e-14 9.07703e-14 -1.78543e-13
  3 7101.20 -0.0164034 3057.50 -5.30616e-14 6.55791e-14 -8.43560e-14
  4 7101.20 -0.0164034 3057.50 -5.30616e-14 2.25851e-13 -3.88902e-13
  5 7101.20 -0.0164034 3057.50 -2.09944e-14 4.32152e-14 -5.95967e-14
  6 7101.20 -0.0164034 3057.50 -2.09944e-14 9.07703e-14 -1.35018e-13
  7 7101.20 -0.0164034 3057.50 -3.49969e-14 6.55791e-14 -6.03310e-14
  8 7101.20 -0.0164034 3057.50 -3.49969e-14 2.25851e-13 -2.26465e-13
</Section>

newXOutput 271

<Section columns = "stress_xx | stress_yy | stress_zz | stress_xy | stress_yz | stress_xz">
  1 7106.30 -0.0163590 3064.57 2.27914e-15 1.87293e-14 -6.75504e-14
  2 7106.30 -0.0163590 3064.57 2.27914e-15 1.12419e-15 -1.62758e-13
  3 7106.30 -0.0163590 3064.57 -3.94759e-15 1.12419e-15 -8.83366e-14
  4 7106.30 -0.0163590 3064.57 -3.94759e-15 7.29699e-14 -2.13791e-13
  5 7106.30 -0.0163590 3064.57 -3.94759e-15 1.42325e-14 -6.79532e-14
  6 7106.30 -0.0163590 3064.57 -3.94759e-15 -1.56579e-14 -1.83692e-13
  7 7106.30 -0.0163590 3064.57 -2.27914e-15 -1.56579e-14 -8.98396e-14
  8 7106.30 -0.0163590 3064.57 -2.27914e-15 1.03382e-14 -2.91916e-13
</Section>

newXOutput 272

<Section columns = "stress_xx | stress_yy | stress_zz | stress_xy | stress_yz | stress_xz">
  1 7111.37 -0.0163148 3071.62 5.17682e-15 4.21107e-14 -1.12250e-14
  2 7111.37 -0.0163148 3071.62 5.98704e-15 -1.38716e-14 -1.06034e-14
  3 7111.37 -0.0163148 3071.62 1.11602e-14 1.11904e-13 -1.06034e-14
  4 7111.37 -0.0163148 3071.62 1.41840e-14 2.32443e-14 -3.11886e-14
  5 7111.37 -0.0163148 3071.62 -6.98262e-15 4.21107e-14 -1.72155e-14
  6 7111.37 -0.0163148 3071.62 -3.95881e-15 -1.38716e-14 -3.29603e-14
  7 7111.37 -0.0163148 3071.62 -1.25338e-14 1.11904e-13 -3.29603e-14
  8 7111.37 -0.0163148 3071.62 -1.24877e-15 2.32443e-14 -1.14626e-13
</Section>

newXOutput 273

<Section columns = "stress_xx | stress_yy | stress_zz | stress_xy | stress_yz | stress_xz">
  1 7116.39 -0.0162709 3078.65 -2.14506e-14 -1.18985e-13 -3.16243e-14
  2 7116.39 -0.0162709 3078.65 -2.14506e-14 -5.70193e-14 1.86540e-15
  3 7116.39 -0.0162709 3078.65 -4.18540e-14 -2.07842e-13 -9.13225e-14
  4 7116.39 -0.0162709 3078.65 -4.18540e-14 -6.24267e-14 -2.17400e-13
  5 7116.39 -0.0162709 3078.65 -1.02610e-14 -1.18985e-13 -1.41163e-14
  6 7116.39 -0.0162709 3078.65 -1.02610e-14 -5.70193e-14 4.79131e-14
  7 7116.39 -0.0162709 3078.65 -1.24241e-14 -2.07842e-13 -2.59817e-14
  8 7116.39 -0.0162709 3078.65 -1.24241e-14 -6.24267e-14 -4.55479e-14
</Section>

newXOutput 274

<Section columns = "stress_xx | stress_yy | stress_zz | stress_xy | stress_yz | stress_xz">
  1 7121.38 -0.0162273 3085.67 -1.09588e-15 -1.96607e-14 -1.80828e-14
  2 7121.38 -0.0162273 3085.67 -2.93641e-16 -5.16207e-14 2.09111e-14
  3 7121.38 -0.0162273 3085.67 -4.08990e-15 -1.38209e-15 -3.86489e-14
  4 7121.38 -0.0162273 3085.67 -1.09588e-15 -8.63448e-14 -2.95807e-14
  5 7121.38 -0.0162273 3085.67 -4.08990e-15 -1.51735e-14 -1.84813e-14
  6 7121.38 -0.0162273 3085.67 -1.09588e-15 -3.48745e-14 1.99226e-16
  7 7121.38 -0.0162273 3085.67 -1.52637e-14 1.53641e-14 -4.01359e-14
  8 7121.38 -0.0162273 3085.67 -4.08990e-15 -2.38472e-14 -1.06878e-13
</Section>

newXOutput 275

<Section columns = "stress_xx | stress_yy | stress_zz | stress_xy | stress_yz | stress_xz">
  1 7126.33 -0.0161839 3092.67 7.98293e-16 -2.35299e-14 3.02172e-14
  2 7126.33 -0.0161839 3092.67 -7.98293e-16 -1.58734e-14 1.12772e-13
  3 7126.33 -0.0161839 3092.67 2.97927e-15 -1.58734e-14 -1.99510e-14
  4 7126.33 -0.0161839 3092.67 -2.97927e-15 4.69900e-14 -7.44583e-14
  5 7126.33 -0.0161839 3092.67 2.97927e-15 -3.24977e-14 3.61444e-14
  6 7126.33 -0.0161839 3092.67 -2.97927e-15 -4.93419e-14 1.34893e-13
  7 7126.33 -0.0161839 3092.67 1.11188e-14 -4.93419e-14 2.16950e-15
  8 7126.33 -0.0161839 3092.67 -1.11188e-14 -7.79162e-14 8.09668e-15
</Section>

newXOutput 276

<Section columns = "stress_xx | stress_yy | stress_zz | stress_xy | stress_yz | stress_xz">
  1 7131.24 -0.0161407 3099.65 1.08513e-15 -1.12019e-15 -6.35631e-14
  2 7131.24 -0.0161407 3099.65 2.90760e-16 2.09029e-14 -1.18597e-13
  3 7131.24 -0.0161407 3099.65 4.04976e-15 -4.18059e-15 -7.85460e-14
  4 7131.24 -0.0161407 3099.65 1.08513e-15 7.80109e-14 -1.71021e-13
  5 7131.24 -0.0161407 3099.65 4.04976e-15 -5.60093e-15 -5.80525e-14
  6 7131.24 -0.0161407 3099.65 1.08513e-15 4.18059e-15 -1.17121e-13
  7 7131.24 -0.0161407 3099.65 1.51139e-14 -2.09029e-14 -5.79800e-14
  8 7131.24 -0.0161407 3099.65 4.04976e-15 1.56022e-14 -1.65510e-13
</Section>

newXOutput 277

<Section columns = "stress_xx | stress_yy | stress_zz | stress_xy | stress_yz | stress_xz">
  1 7136.11 -0.0160977 3106.61 7.03293e-15 3.30862e-14 -4.97556e-14
  2 7136.11 -0.0160977 3106.61 6.24246e-15 -2.18776e-14 -1.54950e-13
  3 7136.11 -0.0160977 3106.61 1.41576e-14 7.83852e-14 -5.61075e-14
  4 7136.11 -0.0160977 3106.61 1.12075e-14 -6.90111e-15 -2.01159e-13
  5 7136.11 -0.0160977 3106.61 -3.54294e-15 2.86087e-14 -5.56411e-14
  6 7136.11 -0.0160977 3106.61 -6.49303e-15 -3.85881e-14 -1.76915e-13
  7 7136.11 -0.0160977 3106.61 -1.13276e-15 6.16748e-14 -7.80726e-14
  8 7136.11 -0.0160977 3106.61 -1.21426e-14 -6.92655e-14 -2.83134e-13
</Section>

newXOutput 278

<Section columns = "stress_xx | stress_yy | stress_zz | stress_xy | stress_yz | stress_xz">
  1 7140.95 -0.0160550 3113.55 -1.07452e-15 -1.44614e-14 -2.14668e-15
  2 7140.95 -0.0160550 3113.55 -2.87917e-16 -3.87493e-15 -8.01151e-15
  3 7140.95 -0.0160550 3113.55 -4.01017e-15 -5.39708e-14 -8.01151e-15
  4 7140.95 -0.0160550 3113.55 -1.07452e-15 -1.44614e-14 -2.98994e-14
  5 7140.95 -0.0160550 3113.55 -4.01017e-15 -1.44614e-14 -8.01151e-15
  6 7140.95 -0.0160550 3113.55 -1.07452e-15 -3.87493e-15 -2.98994e-14
  7 7140.95 -0.0160550 3113.55 -1.49661e-14 -5.39708e-14 -2.98994e-14
  8 7140.95 -0.0160550 3113.55 -4.01017e-15 -1.44614e-14 -1.11586e-13
</Section>

newXOutput 279

<Section columns = "stress_xx | stress_yy | stress_zz | stress_xy | stress_yz | stress_xz">
  1 7145.76 -0.0160125 3120.48 3.91456e-32 1.56037e-14 -1.47015e-14
  2 7145.76 -0.0160125 3120.48 1.04890e-32 9.85027e-15 6.18331e-15
  3 7145.76 -0.0160125 3120.48 1.04890e-32 3.48804e-14 -5.92500e-14
  4 7145.76 -0.0160125 3120.48 2.81053e-33 3.05042e-14 -2.04766e-13
  5 7145.76 -0.0160125 3120.48 3.91456e-32 2.00749e-14 -3.01298e-15
  6 7145.76 -0.0160125 3120.48 1.04890e-32 2.65370e-14 4.98055e-14
  7 7145.76 -0.0160125 3120.48 1.04890e-32 5.15672e-14 -1.56278e-14
  8 7145.76 -0.0160125 3120.48 2.81053e-33 9.27801e-14 -4.19654e-14
</Section>

newXOutput 280

<Section columns = "stress_xx | stress_yy | stress_zz | stress_xy | stress_yz | stress_xz">
  1 7150.52 -0.0159703 3127.38 5.60535e-33 -4.86086e-14 -1.50122e-15
  2 7150.52 -0.0159703 3127.38 2.91370e-31 -3.80371e-14 2.48156e-14
  3 7150.52 -0.0159703 3127.38 1.50195e-33 -6.30495e-14 -7.78655e-15
  4 7150.52 -0.0159703 3127.38 7.80724e-32 -2.35961e-14 -2.09093e-14
  5 7150.52 -0.0159703 3127.38 5.60535e-33 -4.86086e-14 -7.32503e-15
  6 7150.52 -0.0159703 3127.38 2.91370e-31 -3.80371e-14 3.08083e-15
  7 7150.52 -0.0159703 3127.38 1.50195e-33 -6.30495e-14 -2.95213e-14
  8 7150.52 -0.0159703 3127.38 7.80724e-32 -2.35961e-14 -1.02025e-13
</Section>

newXOutput 281

<Section columns = "stress_xx | stress_yy | stress_zz | stress_xy | stress_yz | stress_xz">
  1 7155.26 -0.0159283 3134.27 2.91410e-14 1.18236e-13 -4.96903e-14
  2 7155.26 -0.0159283 3134.27 2.91410e-14 2.63993e-14 -1.85447e-13
  3 7155.26 -0.0159283 3134.27 5.98807e-14 3.06624e-13 -5.54937e-14
  4 7155.26 -0.0159283 3134.27 5.98807e-14 8.07442e-14 -2.07105e-13
  5 7155.26 -0.0159283 3134.27 1.21477e-14 1.14071e-13 -5.54937e-14
  6 7155.26 -0.0159283 3134.27 1.21477e-14 1.08524e-14 -2.07105e-13
  7 7155.26 -0.0159283 3134.27 1.72077e-14 3.05507e-13 -7.71526e-14
  8 7155.26 -0.0159283 3134.27 1.72077e-14 7.65784e-14 -2.87937e-13
</Section>

newXOutput 282

<Section columns = "stress_xx | stress_yy | stress_zz | stress_xy | stress_yz | stress_xz">
  1 7159.95 -0.0158865 3141.15 8.58491e-15 -7.69326e-15 -4.61480e-14
  2 7159.95 -0.0158865 3141.15 9.35629e-15 -2.70385e-14 -1.11814e-13
  3 7159.95 -0.0158865 3141.15 1.59232e-14 -2.70385e-14 -4.70646e-14
  4 7159.95 -0.0158865 3141.15 1.88021e-14 -1.39375e-14 -1.59460e-13
  5 7159.95 -0.0158865 3141.15 -1.34993e-15 -7.69326e-15 -4.61480e-14
  6 7159.95 -0.0158865 3141.15 1.52893e-15 -2.70385e-14 -1.11814e-13
  7 7159.95 -0.0158865 3141.15 -9.35629e-15 -2.70385e-14 -4.70646e-14
  8 7159.95 -0.0158865 3141.15 1.38776e-15 -1.39375e-14 -1.59460e-13
</Section>

newXOutput 283

<Section columns = "stress_xx | stress_yy | stress_zz | stress_xy | stress_yz | stress_xz">
  1 7164.62 -0.0158449 3148.00 1.36836e-14 2.59726e-15 -4.00312e-14
  2 7164.62 -0.0158449 3148.00 1.44512e-14 6.34919e-15 -1.49399e-13
  3 7164.62 -0.0158449 3148.00 3.07325e-14 5.62681e-14 -5.26121e-14
  4 7164.62 -0.0158449 3148.00 3.35974e-14 3.61752e-14 -1.96351e-13
  5 7164.62 -0.0158449 3148.00 1.35431e-14 7.05584e-15 -4.57943e-14
  6 7164.62 -0.0158449 3148.00 1.64080e-14 2.29888e-14 -1.70907e-13
  7 7164.62 -0.0158449 3148.00 3.02082e-14 7.29078e-14 -7.41202e-14
  8 7164.62 -0.0158449 3148.00 4.09002e-14 9.82752e-14 -2.76620e-13
</Section>

newXOutput 284

<Section columns = "stress_xx | stress_yy | stress_zz | stress_xy | stress_yz | stress_xz">
  1 7169.24 -0.0158036 3154.84 -2.99400e-14 -2.92081e-14 -2.10210e-15
  2 7169.24 -0.0158036 3154.84 -2.91761e-14 -5.91224e-14 -7.84514e-15
  3 7169.24 -0.0158036 3154.84 -5.07405e-14 -7.87934e-14 -7.84514e-15
  4 7169.24 -0.0158036 3154.84 -4.78895e-14 -1.07892e-13 -2.92785e-14
  5 7169.24 -0.0158036 3154.84 -3.79109e-14 -2.89096e-14 -7.84514e-15
  6 7169.24 -0.0158036 3154.84 -3.50598e-14 -5.80085e-14 -2.92785e-14
  7 7169.24 -0.0158036 3154.84 -6.58833e-14 -6.32793e-14 -2.92785e-14
  8 7169.24 -0.0158036 3154.84 -5.52430e-14 -4.99930e-14 -1.09269e-13
</Section>

newXOutput 285

<Section columns = "stress_xx | stress_yy | stress_zz | stress_xy | stress_yz | stress_xz">
  1 7173.84 -0.0157625 3161.66 -1.44196e-14 1.44247e-14 -1.43967e-14
  2 7173.84 -0.0157625 3161.66 -1.44196e-14 5.65456e-15 6.05512e-15
  3 7173.84 -0.0157625 3161.66 -2.97048e-14 5.55032e-14 -5.80217e-14
  4 7173.84 -0.0157625 3161.66 -2.97048e-14 1.07891e-13 -2.00521e-13
  5 7173.84 -0.0157625 3161.66 -1.26811e-14 1.44247e-14 -2.95052e-15
  6 7173.84 -0.0157625 3161.66 -1.26811e-14 5.65456e-15 4.87730e-14
  7 7173.84 -0.0157625 3161.66 -2.61234e-14 5.55032e-14 -1.53038e-14
  8 7173.84 -0.0157625 3161.66 -2.61234e-14 1.07891e-13 -4.10954e-14
</Section>

newXOutput 286

<Section columns = "stress_xx | stress_yy | stress_zz | stress_xy | stress_yz | stress_xz">
  1 7178.40 -0.0157216 3168.46 -1.91588e-14 -3.60989e-14 9.07680e-15
  2 7178.40 -0.0157216 3168.46 -1.91588e-14 -1.35258e-14 2.71280e-14
  3 7178.40 -0.0157216 3168.46 -3.50855e-14 -6.33393e-14 1.94771e-15
  4 7178.40 -0.0157216 3168.46 -3.50855e-14 5.49280e-14 -1.79114e-14
  5 7178.40 -0.0157216 3168.46 -2.23793e-14 -4.05480e-14 8.69476e-15
  6 7178.40 -0.0157216 3168.46 -2.23793e-14 -3.01303e-14 7.26894e-15
  7 7178.40 -0.0157216 3168.46 -2.97473e-14 -7.99439e-14 5.21886e-16
  8 7178.40 -0.0157216 3168.46 -2.97473e-14 -7.04095e-15 -9.20266e-14
</Section>

newXOutput 287

<Section columns = "stress_xx | stress_yy | stress_zz | stress_xy | stress_yz | stress_xz">
  1 7182.92 -0.0156809 3175.25 1.52475e-14 9.20345e-14 4.40338e-14
  2 7182.92 -0.0156809 3175.25 1.52475e-14 5.03101e-15 1.04965e-13
  3 7182.92 -0.0156809 3175.25 3.35907e-14 2.23775e-13 -2.23025e-14
  4 7182.92 -0.0156809 3175.25 3.35907e-14 5.47006e-14 -9.91424e-14
  5 7182.92 -0.0156809 3175.25 -1.29472e-16 9.61827e-14 4.40338e-14
  6 7182.92 -0.0156809 3175.25 -1.29472e-16 2.05124e-14 1.04965e-13
  7 7182.92 -0.0156809 3175.25 7.87119e-15 2.24886e-13 -2.23025e-14
  8 7182.92 -0.0156809 3175.25 7.87119e-15 5.88488e-14 -9.91424e-14
</Section>

newXOutput 288

<Section columns = "stress_xx | stress_yy | stress_zz | stress_xy | stress_yz | stress_xz">
  1 7187.42 -0.0156405 3182.01 5.59887e-15 4.26328e-14 -4.51961e-14
  2 7187.42 -0.0156405 3182.01 4.10022e-15 6.29528e-14 -1.09508e-13
  3 7187.42 -0.0156405 3182.01 1.27867e-14 8.78246e-14 -4.60938e-14
  4 7187.42 -0.0156405 3182.01 7.19365e-15 1.29684e-13 -1.56171e-13
  5 7187.42 -0.0156405 3182.01 1.27867e-14 4.26328e-14 -4.51961e-14
  6 7187.42 -0.0156405 3182.01 7.19365e-15 6.29528e-14 -1.09508e-13
  7 7187.42 -0.0156405 3182.01 3.10168e-14 8.78246e-14 -4.60938e-14
  8 7187.42 -0.0156405 3182.01 1.01432e-14 1.29684e-13 -1.56171e-13
</Section>

newXOutput 289

<Section columns = "stress_xx | stress_yy | stress_zz | stress_xy | stress_yz | stress_xz">
  1 7191.88 -0.0156002 3188.77 4.72060e-15 2.09297e-14 -3.72792e-14
  2 7191.88 -0.0156002 3188.77 3.97487e-15 7.81108e-14 -1.45805e-13
  3 7191.88 -0.0156002 3188.77 1.34428e-14 5.32564e-14 -4.43347e-14
  4 7191.88 -0.0156002 3188.77 1.06597e-14 1.98756e-13 -1.90380e-13
  5 7191.88 -0.0156002 3188.77 1.34428e-14 1.64899e-14 -3.76573e-14
  6 7191.88 -0.0156002 3188.77 1.06597e-14 6.15412e-14 -1.65459e-13
  7 7191.88 -0.0156002 3188.77 3.45892e-14 3.66868e-14 -4.57458e-14
  8 7191.88 -0.0156002 3188.77 2.42025e-14 1.36917e-13 -2.63730e-13
</Section>

newXOutput 290

<Section columns = "stress_xx | stress_yy | stress_zz | stress_xy | stress_yz | stress_xz">
  1 7196.31 -0.0155602 3195.50 1.11720e-14 6.87820e-14 1.49035e-14
  2 7196.31 -0.0155602 3195.50 1.04796e-14 -3.30271e-14 -3.13880e-15
  3 7196.31 -0.0155602 3195.50 2.34688e-14 1.65669e-13 -3.13880e-15
  4 7196.31 -0.0155602 3195.50 2.32833e-14 -6.16122e-14 -2.74587e-14
  5 7196.31 -0.0155602 3195.50 -6.49219e-15 6.87820e-14 9.27849e-15
  6 7196.31 -0.0155602 3195.50 -9.07646e-15 -3.30271e-14 -2.41315e-14
  7 7196.31 -0.0155602 3195.50 -1.16789e-14 1.65669e-13 -2.41315e-14
  8 7196.31 -0.0155602 3195.50 -1.23714e-14 -6.16122e-14 -1.05804e-13
</Section>

newXOutput 291

<Section columns = "stress_xx | stress_yy | stress_zz | stress_xy | stress_yz | stress_xz">
  1 7200.70 -0.0155204 3202.22 -1.24731e-14 -7.43900e-14 -1.41012e-14
  2 7200.70 -0.0155204 3202.22 -1.24731e-14 8.46917e-14 5.93084e-15
  3 7200.70 -0.0155204 3202.22 -3.13957e-14 -1.63505e-13 -5.68308e-14
  4 7200.70 -0.0155204 3202.22 -3.13957e-14 2.60675e-13 -1.96405e-13
  5 7200.70 -0.0155204 3202.22 1.40880e-14 -7.43900e-14 -2.88996e-15
  6 7200.70 -0.0155204 3202.22 1.40880e-14 8.46917e-14 4.77719e-14
  7 7200.70 -0.0155204 3202.22 4.23141e-14 -1.63505e-13 -1.49897e-14
  8 7200.70 -0.0155204 3202.22 4.23141e-14 2.60675e-13 -4.02519e-14
</Section>

newXOutput 292

<Section columns = "stress_xx | stress_yy | stress_zz | stress_xy | stress_yz | stress_xz">
  1 7205.07 -0.0154808 3208.92 5.43195e-15 -4.08522e-14 8.89081e-15
  2 7205.07 -0.0154808 3208.92 4.69685e-15 -1.27660e-13 2.65722e-14
  3 7205.07 -0.0154808 3208.92 1.28690e-14 -8.32970e-14 1.90780e-15
  4 7205.07 -0.0154808 3208.92 1.01255e-14 -2.18305e-13 -1.75444e-14
  5 7205.07 -0.0154808 3208.92 -3.59177e-15 -3.22880e-14 8.51659e-15
  6 7205.07 -0.0154808 3208.92 -6.33522e-15 -9.56982e-14 7.11999e-15
  7 7205.07 -0.0154808 3208.92 -1.13299e-15 -6.56545e-14 5.11192e-16
  8 7205.07 -0.0154808 3208.92 -1.13717e-14 -1.52463e-13 -9.01409e-14
</Section>

newXOutput 293

<Section columns = "stress_xx | stress_yy | stress_zz | stress_xy | stress_yz | stress_xz">
  1 7209.40 -0.0154414 3215.60 -9.14161e-15 3.74290e-14 -2.89784e-14
  2 7209.40 -0.0154414 3215.60 -9.14161e-15 6.69923e-14 -1.72892e-13
  3 7209.40 -0.0154414 3215.60 -1.88319e-14 9.17773e-14 -4.16413e-14
  4 7209.40 -0.0154414 3215.60 -1.88319e-14 1.51323e-13 -1.95570e-13
  5 7209.40 -0.0154414 3215.60 -2.44949e-15 4.18564e-14 -2.93513e-14
  6 7209.40 -0.0154414 3215.60 -2.44949e-15 8.35156e-14 -1.92277e-13
  7 7209.40 -0.0154414 3215.60 -5.04600e-15 1.08301e-13 -4.30331e-14
  8 7209.40 -0.0154414 3215.60 -5.04600e-15 2.12989e-13 -2.67918e-13
</Section>

newXOutput 294

<Section columns = "stress_xx | stress_yy | stress_zz | stress_xy | stress_yz | stress_xz">
  1 7213.70 -0.0154022 3222.27 9.36473e-15 -1.59191e-14 -2.75421e-14
  2 7213.70 -0.0154022 3222.27 1.00929e-14 -3.46430e-14 -1.02788e-13
  3 7213.70 -0.0154022 3222.27 1.97372e-14 -3.46430e-14 -4.06694e-14
  4 7213.70 -0.0154022 3222.27 2.24546e-14 -3.68552e-14 -1.51780e-13
  5 7213.70 -0.0154022 3222.27 3.43251e-15 -2.03434e-14 -2.75421e-14
  6 7213.70 -0.0154022 3222.27 6.14996e-15 -5.11549e-14 -1.02788e-13
  7 7213.70 -0.0154022 3222.27 8.73415e-15 -5.11549e-14 -4.06694e-14
  8 7213.70 -0.0154022 3222.27 1.88758e-14 -9.84781e-14 -1.51780e-13
</Section>

newXOutput 295

<Section columns = "stress_xx | stress_yy | stress_zz | stress_xy | stress_yz | stress_xz">
  1 7217.97 -0.0153633 3228.92 7.76119e-32 5.87019e-16 -3.65191e-14
  2 7217.97 -0.0153633 3228.92 3.48426e-31 5.32816e-16 -1.42833e-13
  3 7217.97 -0.0153633 3228.92 4.65975e-31 3.05137e-14 -4.34308e-14
  4 7217.97 -0.0153633 3228.92 1.95839e-30 2.76962e-14 -1.86498e-13
  5 7217.97 -0.0153633 3228.92 2.89652e-31 8.83186e-16 -3.68895e-14
  6 7217.97 -0.0153633 3228.92 1.30034e-30 1.63813e-15 -1.62086e-13
  7 7217.97 -0.0153633 3228.92 1.73904e-30 4.59087e-14 -4.48131e-14
  8 7217.97 -0.0153633 3228.92 7.30881e-30 8.51511e-14 -2.58353e-13
</Section>

newXOutput 296

<Section columns = "stress_xx | stress_yy | stress_zz | stress_xy | stress_yz | stress_xz">
  1 7222.21 -0.0153245 3235.55 1.13406e-31 1.06489e-15 1.64819e-14
  2 7222.21 -0.0153245 3235.55 2.81680e-31 6.60601e-16 -2.57067e-15
  3 7222.21 -0.0153245 3235.55 1.64450e-31 5.53539e-14 3.94829e-15
  4 7222.21 -0.0153245 3235.55 9.81901e-31 3.43385e-14 -2.50179e-14
  5 7222.21 -0.0153245 3235.55 2.19138e-31 1.36085e-15 1.61128e-14
  6 7222.21 -0.0153245 3235.55 9.96554e-31 1.76514e-15 -2.17584e-14
  7 7222.21 -0.0153245 3235.55 5.59048e-31 7.07382e-14 2.57067e-15
  8 7222.21 -0.0153245 3235.55 3.64985e-30 9.17535e-14 -9.66275e-14
</Section>

newXOutput 297

<Section columns = "stress_xx | stress_yy | stress_zz | stress_xy | stress_yz | stress_xz">
  1 7226.42 -0.0152860 3242.17 2.62754e-16 -1.12685e-13 2.74586e-15
  2 7226.42 -0.0152860 3242.17 9.80610e-16 -1.07516e-13 1.02477e-14
  3 7226.42 -0.0152860 3242.17 9.80610e-16 -2.75306e-13 -5.12385e-14
  4 7226.42 -0.0152860 3242.17 3.65969e-15 -2.58626e-13 -1.91225e-13
  5 7226.42 -0.0152860 3242.17 9.80610e-16 -1.12389e-13 1.37293e-14
  6 7226.42 -0.0152860 3242.17 3.65969e-15 -1.06412e-13 5.12385e-14
  7 7226.42 -0.0152860 3242.17 3.65969e-15 -2.59932e-13 -1.02477e-14
  8 7226.42 -0.0152860 3242.17 1.36581e-14 -2.01251e-13 -3.82449e-14
</Section>

newXOutput 298

<Section columns = "stress_xx | stress_yy | stress_zz | stress_xy | stress_yz | stress_xz">
  1 7230.60 -0.0152476 3248.77 1.92931e-31 -7.50863e-14 8.71042e-15
  2 7230.60 -0.0152476 3248.77 6.03433e-31 -6.95172e-14 2.60330e-14
  3 7230.60 -0.0152476 3248.77 1.68291e-31 -6.95172e-14 1.86909e-15
  4 7230.60 -0.0152476 3248.77 1.92931e-31 -3.18632e-14 -1.71884e-14
  5 7230.60 -0.0152476 3248.77 2.84887e-31 -7.50863e-14 8.34380e-15
  6 7230.60 -0.0152476 3248.77 6.28072e-31 -6.95172e-14 6.97553e-15
  7 7230.60 -0.0152476 3248.77 5.11477e-31 -6.95172e-14 5.00820e-16
  8 7230.60 -0.0152476 3248.77 2.84887e-31 -3.18632e-14 -8.83120e-14
</Section>

newXOutput 299

<Section columns = "stress_xx | stress_yy | stress_zz | stress_xy | stress_yz | stress_xz">
  1 7234.75 -0.0152095 3255.35 4.65888e-31 -3.37160e-14 4.61186e-14
  2 7234.75 -0.0152095 3255.35 1.22533e-30 -3.37160e-14 1.08685e-13
  3 7234.75 -0.0152095 3255.35 1.24834e-31 -9.03417e-15 -7.00083e-15
  4 7234.75 -0.0152095 3255.35 3.28326e-31 -9.03417e-15 -6.54768e-14
  5 7234.75 -0.0152095 3255.35 4.65888e-31 -3.37160e-14 5.66622e-14
  6 7234.75 -0.0152095 3255.35 1.22533e-30 -3.37160e-14 1.30406e-13
  7 7234.75 -0.0152095 3255.35 1.24834e-31 -9.03417e-15 3.23486e-14
  8 7234.75 -0.0152095 3255.35 3.28326e-31 -9.03417e-15 1.55838e-14
</Section>

newXOutput 300

<Section columns = "stress_xx | stress_yy | stress_zz | stress_xy | stress_yz | stress_xz">
  1 7238.87 -0.0151715 3261.92 5.80655e-15 -4.08523e-14 -2.69851e-14
  2 7238.87 -0.0151715 3261.92 5.80655e-15 1.68859e-14 -1.00710e-13
  3 7238.87 -0.0151715 3261.92 1.40114e-14 -8.69853e-14 -3.98469e-14
  4 7238.87 -0.0151715 3261.92 1.40114e-14 1.47949e-13 -1.48711e-13
  5 7238.87 -0.0151715 3261.92 1.40114e-14 -4.11474e-14 -2.69851e-14
  6 7238.87 -0.0151715 3261.92 1.40114e-14 1.57844e-14 -1.00710e-13
  7 7238.87 -0.0151715 3261.92 3.65135e-14 -1.02327e-13 -3.98469e-14
  8 7238.87 -0.0151715 3261.92 3.65135e-14 9.06929e-14 -1.48711e-13
</Section>

newXOutput 301

<Section columns = "stress_xx | stress_yy | stress_zz | stress_xy | stress_yz | stress_xz">
  1 7242.95 -0.0151337 3268.47 9.06023e-15 -2.28833e-14 -1.25396e-14
  2 7242.95 -0.0151337 3268.47 9.76469e-15 -6.24052e-14 -1.33721e-13
  3 7242.95 -0.0151337 3268.47 1.90954e-14 -3.25489e-14 -1.24068e-14
  4 7242.95 -0.0151337 3268.47 2.17245e-14 -1.15312e-13 -1.74655e-13
  5 7242.95 -0.0151337 3268.47 3.32090e-15 -2.69913e-14 -1.79573e-14
  6 7242.95 -0.0151337 3268.47 5.94999e-15 -7.77363e-14 -1.53940e-13
  7 7242.95 -0.0151337 3268.47 8.45015e-15 -3.36496e-14 -3.26258e-14
  8 7242.95 -0.0151337 3268.47 1.82620e-14 -1.19420e-13 -2.50113e-13
</Section>

newXOutput 302

<Section columns = "stress_xx | stress_yy | stress_zz | stress_xy | stress_yz | stress_xz">
  1 7247.02 -0.0150962 3275.00 -4.16212e-14 1.31677e-13 1.23295e-14
  2 7247.02 -0.0150962 3275.00 -4.16212e-14 2.79647e-13 -1.03886e-14
  3 7247.02 -0.0150962 3275.00 -7.81624e-14 2.35591e-13 -1.03886e-14
  4 7247.02 -0.0150962 3275.00 -7.81624e-14 5.66523e-13 -5.38840e-14
  5 7247.02 -0.0150962 3275.00 -1.92846e-14 1.23172e-13 1.53069e-15
  6 7247.02 -0.0150962 3275.00 -1.92846e-14 2.47906e-13 -5.06902e-14
  7 7247.02 -0.0150962 3275.00 -3.76960e-14 2.18071e-13 -5.06902e-14
  8 7247.02 -0.0150962 3275.00 -3.76960e-14 5.01136e-13 -2.04292e-13
</Section>

newXOutput 303

<Section columns = "stress_xx | stress_yy | stress_zz | stress_xy | stress_yz | stress_xz">
  1 7251.05 -0.0150588 3281.52 -2.18764e-14 8.59163e-14 4.66026e-15
  2 7251.05 -0.0150588 3281.52 -2.18764e-14 1.31979e-13 1.73923e-14
  3 7251.05 -0.0150588 3281.52 -4.10236e-14 1.76005e-13 -4.28564e-14
  4 7251.05 -0.0150588 3281.52 -4.10236e-14 3.50513e-13 -1.59942e-13
  5 7251.05 -0.0150588 3281.52 -1.36755e-14 9.00186e-14 2.08039e-14
  6 7251.05 -0.0150588 3281.52 -1.36755e-14 1.47289e-13 7.76410e-14
  7 7251.05 -0.0150588 3281.52 -1.30859e-14 1.77104e-13 1.73923e-14
  8 7251.05 -0.0150588 3281.52 -1.30859e-14 3.54615e-13 6.49090e-14
</Section>

newXOutput 304

<Section columns = "stress_xx | stress_yy | stress_zz | stress_xy | stress_yz | stress_xz">
  1 7255.05 -0.0150217 3288.02 3.29249e-15 -2.38661e-14 2.01950e-14
  2 7255.05 -0.0150217 3288.02 3.29249e-15 -2.02226e-14 8.40356e-14
  3 7255.05 -0.0150217 3288.02 4.77088e-15 -8.23833e-16 7.13464e-14
  4 7255.05 -0.0150217 3288.02 4.77088e-15 1.53729e-14 1.04542e-13
  5 7255.05 -0.0150217 3288.02 4.77088e-15 -1.53729e-14 -5.38889e-16
  6 7255.05 -0.0150217 3288.02 4.77088e-15 1.14745e-14 4.13234e-14
  7 7255.05 -0.0150217 3288.02 2.32032e-15 1.66724e-14 -6.03349e-15
  8 7255.05 -0.0150217 3288.02 2.32032e-15 8.06698e-14 -5.48626e-14
</Section>

newXOutput 305

<Section columns = "stress_xx | stress_yy | stress_zz | stress_xy | stress_yz | stress_xz">
  1 7259.02 -0.0149847 3294.51 6.78690e-32 -4.98895e-14 -3.16037e-14
  2 7259.02 -0.0149847 3294.51 -3.78182e-31 -2.23647e-14 -1.73782e-13
  3 7259.02 -0.0149847 3294.51 9.33558e-31 -4.17501e-14 -5.40933e-14
  4 7259.02 -0.0149847 3294.51 3.31488e-30 5.83769e-14 -2.16840e-13
  5 7259.02 -0.0149847 3294.51 -3.06055e-31 -5.83769e-14 -4.22939e-14
  6 7259.02 -0.0149847 3294.51 -1.77368e-30 -5.40400e-14 -2.13679e-13
  7 7259.02 -0.0149847 3294.51 1.63266e-31 -5.92343e-14 -9.39896e-14
  8 7259.02 -0.0149847 3294.51 4.40115e-31 -6.87497e-15 -3.65735e-13
</Section>

newXOutput 306

<Section columns = "stress_xx | stress_yy | stress_zz | stress_xy | stress_yz | stress_xz">
  1 7262.97 -0.0149479 3300.98 9.53934e-15 -3.49049e-14 -3.90488e-14
  2 7262.97 -0.0149479 3300.98 8.85114e-15 -3.53064e-14 -1.45732e-13
  3 7262.97 -0.0149479 3300.98 2.12231e-14 -7.92414e-14 -8.60884e-14
  4 7262.97 -0.0149479 3300.98 1.86547e-14 -1.00112e-13 -3.21286e-13
  5 7262.97 -0.0149479 3300.98 5.81267e-15 -3.46110e-14 -2.30673e-14
  6 7262.97 -0.0149479 3300.98 3.24426e-15 -3.42095e-14 -8.60884e-14
  7 7262.97 -0.0149479 3300.98 1.78406e-14 -6.39631e-14 -2.64446e-14
  8 7262.97 -0.0149479 3300.98 8.25514e-15 -4.30926e-14 -9.86927e-14
</Section>

newXOutput 307

<Section columns = "stress_xx | stress_yy | stress_zz | stress_xy | stress_yz | stress_xz">
  1 7266.89 -0.0149113 3307.44 2.85313e-15 -7.52639e-15 7.43052e-15
  2 7266.89 -0.0149113 3307.44 2.16812e-15 -2.54369e-16 3.63111e-14
  3 7266.89 -0.0149113 3307.44 1.71254e-16 -4.93463e-14 2.37491e-14
  4 7266.89 -0.0149113 3307.44 -2.38526e-15 7.83845e-14 -7.14727e-14
  5 7266.89 -0.0149113 3307.44 1.71254e-16 -7.52639e-15 2.83250e-15
  6 7266.89 -0.0149113 3307.44 -2.38526e-15 -2.54369e-16 5.34712e-14
  7 7266.89 -0.0149113 3307.44 1.11159e-14 -4.93463e-14 6.58903e-15
  8 7266.89 -0.0149113 3307.44 1.57488e-15 7.83845e-14 -7.43052e-15
</Section>

newXOutput 308

<Section columns = "stress_xx | stress_yy | stress_zz | stress_xy | stress_yz | stress_xz">
  1 7270.78 -0.0148749 3313.87 1.03439e-14 7.51571e-14 2.80404e-14
  2 7270.78 -0.0148749 3313.87 1.03439e-14 -1.00474e-13 -5.90556e-15
  3 7270.78 -0.0148749 3313.87 2.51257e-14 1.93876e-13 -5.90556e-15
  4 7270.78 -0.0148749 3313.87 2.51257e-14 -1.43267e-13 -5.16626e-14
  5 7270.78 -0.0148749 3313.87 -1.68616e-14 7.95388e-14 1.74572e-14
  6 7270.78 -0.0148749 3313.87 -1.68616e-14 -8.41210e-14 -4.54026e-14
  7 7270.78 -0.0148749 3313.87 -2.68722e-14 2.10228e-13 -4.54026e-14
  8 7270.78 -0.0148749 3313.87 -2.68722e-14 -8.22381e-14 -1.99067e-13
</Section>

newXOutput 309

<Section columns = "stress_xx | stress_yy | stress_zz | stress_xy | stress_yz | stress_xz">
  1 7274.64 -0.0148387 3320.30 8.72363e-15 -2.23910e-14 4.56737e-15
  2 7274.64 -0.0148387 3320.30 9.40233e-15 -8.68484e-14 1.70456e-14
  3 7274.64 -0.0148387 3320.30 2.57217e-14 1.12008e-14 -4.20022e-14
  4 7274.64 -0.0148387 3320.30 2.82547e-14 -1.28904e-13 -1.56754e-13
  5 7274.64 -0.0148387 3320.30 -4.67357e-15 -2.67697e-14 2.03892e-14
  6 7274.64 -0.0148387 3320.30 -2.14062e-15 -1.03190e-13 7.60935e-14
  7 7274.64 -0.0148387 3320.30 -6.11194e-15 -5.14076e-15 1.70456e-14
  8 7274.64 -0.0148387 3320.30 3.34113e-15 -1.89892e-13 6.36152e-14
</Section>

newXOutput 310

<Section columns = "stress_xx | stress_yy | stress_zz | stress_xy | stress_yz | stress_xz">
  1 7278.48 -0.0148027 3326.71 -1.39054e-14 8.19918e-15 -2.13650e-14
  2 7278.48 -0.0148027 3326.71 -1.39054e-14 7.74513e-15 -7.12407e-14
  3 7278.48 -0.0148027 3326.71 -2.66889e-14 7.74513e-15 3.40249e-14
  4 7278.48 -0.0148027 3326.71 -2.66889e-14 2.27813e-14 -3.15256e-14
  5 7278.48 -0.0148027 3326.71 -1.53432e-14 1.25749e-14 -3.64299e-14
  6 7278.48 -0.0148027 3326.71 -1.53432e-14 2.40755e-14 -9.34859e-14
  7 7278.48 -0.0148027 3326.71 -2.43056e-14 2.40755e-14 -2.21981e-14
  8 7278.48 -0.0148027 3326.71 -2.43056e-14 8.37270e-14 -1.14546e-13
</Section>

newXOutput 311

<Section columns = "stress_xx | stress_yy | stress_zz | stress_xy | stress_yz | stress_xz">
  1 7282.29 -0.0147668 3333.10 -2.17867e-15 -1.42400e-14 7.42781e-14
  2 7282.29 -0.0147668 3333.10 -2.17867e-15 -2.86658e-14 1.55362e-13
  3 7282.29 -0.0147668 3333.10 -4.61857e-15 -3.38387e-14 5.04461e-14
  4 7282.29 -0.0147668 3333.10 -4.61857e-15 -3.49319e-14 1.12680e-13
  5 7282.29 -0.0147668 3333.10 -4.61857e-15 -1.45329e-14 7.35762e-14
  6 7282.29 -0.0147668 3333.10 -4.61857e-15 -2.97589e-14 1.18877e-13
  7 7282.29 -0.0147668 3333.10 -1.62956e-14 -4.90647e-14 4.78267e-14
  8 7282.29 -0.0147668 3333.10 -1.62956e-14 -9.17561e-14 -2.34810e-14
</Section>

newXOutput 312

<Section columns = "stress_xx | stress_yy | stress_zz | stress_xy | stress_yz | stress_xz">
  1 7286.07 -0.0147312 3339.47 1.29964e-14 7.82523e-14 -8.26318e-15
  2 7286.07 -0.0147312 3339.47 1.29964e-14 1.73009e-13 -8.53831e-14
  3 7286.07 -0.0147312 3339.47 2.67729e-14 1.73009e-13 -2.69225e-14
  4 7286.07 -0.0147312 3339.47 2.67729e-14 3.59566e-13 -1.15091e-13
  5 7286.07 -0.0147312 3339.47 2.67729e-14 7.82523e-14 -3.04169e-15
  6 7286.07 -0.0147312 3339.47 2.67729e-14 1.73009e-13 -6.58963e-14
  7 7286.07 -0.0147312 3339.47 5.51528e-14 1.73009e-13 -7.43561e-15
  8 7286.07 -0.0147312 3339.47 5.51528e-14 3.59566e-13 -4.23652e-14
</Section>

newXOutput 313

<Section columns = "stress_xx | stress_yy | stress_zz | stress_xy | stress_yz | stress_xz">
  1 7289.83 -0.0146957 3345.83 -8.49902e-32 1.52391e-14 7.28336e-15
  2 7289.83 -0.0146957 3345.83 -2.27730e-32 9.62012e-15 3.55919e-14
  3 7289.83 -0.0146957 3345.83 -4.40829e-31 3.40654e-14 2.32787e-14
  4 7289.83 -0.0146957 3345.83 -1.18120e-31 2.97914e-14 -7.00572e-14
  5 7289.83 -0.0146957 3345.83 3.35545e-33 1.96059e-14 2.77640e-15
  6 7289.83 -0.0146957 3345.83 8.99090e-34 2.59170e-14 5.24121e-14
  7 7289.83 -0.0146957 3345.83 -1.11119e-31 5.03623e-14 6.45852e-15
  8 7289.83 -0.0146957 3345.83 -2.97742e-32 9.06122e-14 -7.28336e-15
</Section>

newXOutput 314

<Section columns = "stress_xx | stress_yy | stress_zz | stress_xy | stress_yz | stress_xz">
  1 7293.56 -0.0146604 3352.18 4.28740e-15 3.36964e-14 3.10286e-14
  2 7293.56 -0.0146604 3352.18 4.28740e-15 2.96785e-14 -4.83950e-15
  3 7293.56 -0.0146604 3352.18 1.60008e-14 1.02964e-13 7.43298e-15
  4 7293.56 -0.0146604 3352.18 1.60008e-14 1.04654e-13 -4.70982e-14
  5 7293.56 -0.0146604 3352.18 1.14881e-15 2.93326e-14 3.03337e-14
  6 7293.56 -0.0146604 3352.18 1.14881e-15 1.33927e-14 -4.09620e-14
  7 7293.56 -0.0146604 3352.18 4.28740e-15 8.66787e-14 4.83950e-15
  8 7293.56 -0.0146604 3352.18 4.28740e-15 4.38750e-14 -1.81909e-13
</Section>

newXOutput 315

<Section columns = "stress_xx | stress_yy | stress_zz | stress_xy | stress_yz | stress_xz">
  1 7297.27 -0.0146253 3358.51 4.45719e-31 2.16474e-14 2.00670e-14
  2 7297.27 -0.0146253 3358.51 1.66345e-30 3.19651e-14 2.08864e-14
  3 7297.27 -0.0146253 3358.51 1.66345e-30 8.07892e-14 -3.69957e-14
  4 7297.27 -0.0146253 3358.51 6.20807e-30 1.19295e-13 -1.52540e-13
  5 7297.27 -0.0146253 3358.51 -1.19430e-31 2.16474e-14 3.55765e-14
  6 7297.27 -0.0146253 3358.51 -4.45719e-31 3.19651e-14 7.87684e-14
  7 7297.27 -0.0146253 3358.51 -4.45719e-31 8.07892e-14 2.08864e-14
  8 7297.27 -0.0146253 3358.51 -1.66345e-30 1.19295e-13 6.34785e-14
</Section>

newXOutput 316

<Section columns = "stress_xx | stress_yy | stress_zz | stress_xy | stress_yz | stress_xz">
  1 7300.94 -0.0145903 3364.82 1.27778e-33 5.78597e-16 -3.40784e-14
  2 7300.94 -0.0145903 3364.82 1.27439e-31 5.25173e-16 -7.33558e-14
  3 7300.94 -0.0145903 3364.82 2.38577e-31 3.00759e-14 -1.56647e-14
  4 7300.94 -0.0145903 3364.82 9.23249e-31 2.72989e-14 -4.40387e-14
  5 7300.94 -0.0145903 3364.82 1.01516e-31 8.70516e-16 -3.92311e-14
  6 7300.94 -0.0145903 3364.82 5.01531e-31 1.61463e-15 -9.25861e-14
  7 7300.94 -0.0145903 3364.82 9.16303e-31 4.52501e-14 -3.48951e-14
  8 7300.94 -0.0145903 3364.82 3.45256e-30 8.39296e-14 -1.15807e-13
</Section>

newXOutput 317

<Section columns = "stress_xx | stress_yy | stress_zz | stress_xy | stress_yz | stress_xz">
  1 7304.60 -0.0145556 3371.12 8.41427e-15 -3.07600e-14 -1.13711e-14
  2 7304.60 -0.0145556 3371.12 9.06851e-15 -4.32945e-14 -1.61887e-13
  3 7304.60 -0.0145556 3371.12 1.77340e-14 -6.25215e-14 -3.47340e-14
  4 7304.60 -0.0145556 3371.12 2.01756e-14 -4.52727e-14 -2.03729e-13
  5 7304.60 -0.0145556 3371.12 3.08414e-15 -3.91780e-14 -1.20592e-14
  6 7304.60 -0.0145556 3371.12 5.52578e-15 -7.47109e-14 -1.97654e-13
  7 7304.60 -0.0145556 3371.12 7.84769e-15 -7.98628e-14 -3.73019e-14
  8 7304.60 -0.0145556 3371.12 1.69600e-14 -1.09991e-13 -3.37210e-13
</Section>

newXOutput 318

<Section columns = "stress_xx | stress_yy | stress_zz | stress_xy | stress_yz | stress_xz">
  1 7308.23 -0.0145210 3377.41 -2.86035e-32 5.77812e-16 -1.85896e-14
  2 7308.23 -0.0145210 3377.41 -1.18222e-31 5.24459e-16 -1.34961e-13
  3 7308.23 -0.0145210 3377.41 -1.18222e-31 3.00351e-14 -6.55382e-14
  4 7308.23 -0.0145210 3377.41 -6.13012e-32 2.72618e-14 -3.04120e-13
  5 7308.23 -0.0145210 3377.41 -2.02991e-31 8.69334e-16 6.31904e-15
  6 7308.23 -0.0145210 3377.41 -4.66997e-31 1.61243e-15 -7.50902e-14
  7 7308.23 -0.0145210 3377.41 -4.66997e-31 4.51886e-14 2.74222e-14
  8 7308.23 -0.0145210 3377.41 -2.35689e-31 8.38156e-14 -8.06775e-14
</Section>

newXOutput 319

<Section columns = "stress_xx | stress_yy | stress_zz | stress_xy | stress_yz | stress_xz">
  1 7311.83 -0.0144866 3383.68 1.47733e-32 -7.44444e-14 9.52061e-15
  2 7311.83 -0.0144866 3383.68 5.51346e-32 -8.95876e-14 3.55314e-14
  3 7311.83 -0.0144866 3383.68 -8.78195e-31 -1.43424e-13 -2.15923e-14
  4 7311.83 -0.0144866 3383.68 -3.27747e-30 -1.47482e-13 -8.05834e-14
  5 7311.83 -0.0144866 3383.68 1.14228e-31 -7.03867e-14 1.46227e-14
  6 7311.83 -0.0144866 3383.68 4.26303e-31 -7.44444e-14 5.45726e-14
  7 7311.83 -0.0144866 3383.68 -2.05765e-31 -1.42337e-13 -2.55104e-15
  8 7311.83 -0.0144866 3383.68 -7.67926e-31 -1.43424e-13 -9.52061e-15
</Section>

newXOutput 320

<Section columns = "stress_xx | stress_yy | stress_zz | stress_xy | stress_yz | stress_xz">
  1 7315.41 -0.0144523 3389.93 -2.05204e-31 8.29351e-14 3.04208e-14
  2 7315.41 -0.0144523 3389.93 8.88044e-31 9.87037e-14 -4.74470e-15
  3 7315.41 -0.0144523 3389.93 4.48115e-31 1.71691e-13 7.28737e-15
  4 7315.41 -0.0144523 3389.93 3.63950e-30 2.47158e-13 -4.61756e-14
  5 7315.41 -0.0144523 3389.93 1.91579e-31 8.29351e-14 2.97395e-14
  6 7315.41 -0.0144523 3389.93 3.57076e-30 9.87037e-14 -4.01596e-14
  7 7315.41 -0.0144523 3389.93 1.92893e-30 1.71691e-13 4.74470e-15
  8 7315.41 -0.0144523 3389.93 1.36515e-29 2.47158e-13 -1.78346e-13
</Section>

newXOutput 321

<Section columns = "stress_xx | stress_yy | stress_zz | stress_xy | stress_yz | stress_xz">
  1 7318.96 -0.0144183 3396.17 1.66097e-32 1.61695e-14 2.12812e-14
  2 7318.96 -0.0144183 3396.17 4.13843e-31 -9.33549e-15 1.44815e-14
  3 7318.96 -0.0144183 3396.17 -1.05246e-31 3.41522e-14 -3.02757e-14
  4 7318.96 -0.0144183 3396.17 8.14958e-32 2.45647e-14 -1.71935e-13
  5 7318.96 -0.0144183 3396.17 -1.56420e-31 2.45647e-14 4.08770e-14
  6 7318.96 -0.0144183 3396.17 6.77838e-32 2.19958e-14 5.48492e-14
  7 7318.96 -0.0144183 3396.17 -4.51305e-31 5.14465e-14 4.28565e-14
  8 7318.96 -0.0144183 3396.17 -9.15337e-32 8.91079e-14 -2.12812e-14
</Section>

newXOutput 322

<Section columns = "stress_xx | stress_yy | stress_zz | stress_xy | stress_yz | stress_xz">
  1 7322.49 -0.0143844 3402.39 -3.17488e-15 5.47342e-14 -1.81780e-14
  2 7322.49 -0.0143844 3402.39 -3.17488e-15 4.07067e-14 -6.78411e-14
  3 7322.49 -0.0143844 3402.39 -8.26846e-15 1.13596e-13 -1.12766e-14
  4 7322.49 -0.0143844 3402.39 -8.26846e-15 1.27623e-13 -4.20849e-14
  5 7322.49 -0.0143844 3402.39 -8.26846e-15 5.47342e-14 -2.32301e-14
  6 7322.49 -0.0143844 3402.39 -8.26846e-15 4.07067e-14 -8.66959e-14
  7 7322.49 -0.0143844 3402.39 -1.74963e-14 1.13596e-13 -3.01314e-14
  8 7322.49 -0.0143844 3402.39 -1.74963e-14 1.27623e-13 -1.12452e-13
</Section>

newXOutput 323

<Section columns = "stress_xx | stress_yy | stress_zz | stress_xy | stress_yz | stress_xz">
  1 7325.99 -0.0143506 3408.60 6.95431e-32 -6.53950e-15 3.38098e-14
  2 7325.99 -0.0143506 3408.60 1.86340e-32 -1.75225e-15 9.05932e-15
  3 7325.99 -0.0143506 3408.60 1.86340e-32 -1.75225e-15 2.09738e-14
  4 7325.99 -0.0143506 3408.60 4.99297e-33 -4.69515e-16 5.61991e-15
  5 7325.99 -0.0143506 3408.60 6.95431e-32 -6.53950e-15 4.32065e-14
  6 7325.99 -0.0143506 3408.60 1.86340e-32 -1.75225e-15 1.15771e-14
  7 7325.99 -0.0143506 3408.60 1.86340e-32 -1.75225e-15 5.60425e-14
  8 7325.99 -0.0143506 3408.60 4.99297e-33 -4.69515e-16 1.50165e-14
</Section>

newXOutput 324

<Section columns = "stress_xx | stress_yy | stress_zz | stress_xy | stress_yz | stress_xz">
  1 7329.47 -0.0143171 3414.80 -3.26045e-33 5.45152e-15 3.47864e-14
  2 7329.47 -0.0143171 3414.80 -8.73635e-34 2.19707e-14 6.55171e-14
  3 7329.47 -0.0143171 3414.80 1.07973e-31 -2.29285e-15 2.11966e-14
  4 7329.47 -0.0143171 3414.80 2.89312e-32 7.59298e-14 2.07373e-14
  5 7329.47 -0.0143171 3414.80 8.25839e-32 1.11725e-15 4.41524e-14
  6 7329.47 -0.0143171 3414.80 2.21283e-32 5.79499e-15 6.80267e-14
  7 7329.47 -0.0143171 3414.80 4.28348e-31 -1.84686e-14 5.61511e-14
  8 7329.47 -0.0143171 3414.80 1.14775e-31 1.55613e-14 3.01033e-14
</Section>

newXOutput 325

<Section columns = "stress_xx | stress_yy | stress_zz | stress_xy | stress_yz | stress_xz">
  1 7332.93 -0.0142837 3420.98 4.03159e-15 3.15369e-14 -1.98320e-14
  2 7332.93 -0.0142837 3420.98 4.66257e-15 -2.12888e-14 -7.40141e-14
  3 7332.93 -0.0142837 3420.98 8.69133e-15 5.14527e-14 -1.80008e-14
  4 7332.93 -0.0142837 3420.98 1.10462e-14 -1.32064e-14 -6.71800e-14
  5 7332.93 -0.0142837 3420.98 -5.43791e-15 2.72056e-14 -2.98378e-14
  6 7332.93 -0.0142837 3420.98 -3.08304e-15 -3.74536e-14 -1.11356e-13
  7 7332.93 -0.0142837 3420.98 -9.76102e-15 3.52879e-14 -5.53430e-14
  8 7332.93 -0.0142837 3420.98 -9.72518e-16 -7.35343e-14 -2.06543e-13
</Section>

newXOutput 326

<Section columns = "stress_xx | stress_yy | stress_zz | stress_xy | stress_yz | stress_xz">
  1 7336.37 -0.0142505 3427.14 -1.71498e-32 5.74695e-16 -1.96006e-14
  2 7336.37 -0.0142505 3427.14 4.59645e-31 5.21630e-16 -6.50918e-14
  3 7336.37 -0.0142505 3427.14 5.55179e-32 2.98731e-14 -2.10590e-14
  4 7336.37 -0.0142505 3427.14 1.74744e-30 2.71147e-14 -2.28968e-13
  5 7336.37 -0.0142505 3427.14 4.34387e-31 8.64644e-16 -2.89058e-14
  6 7336.37 -0.0142505 3427.14 1.84896e-30 1.60374e-15 -6.75851e-14
  7 7336.37 -0.0142505 3427.14 1.74068e-30 4.49449e-14 -5.57866e-14
  8 7336.37 -0.0142505 3427.14 6.93245e-30 8.33635e-14 -2.38273e-13
</Section>

newXOutput 327

<Section columns = "stress_xx | stress_yy | stress_zz | stress_xy | stress_yz | stress_xz">
  1 7339.78 -0.0142174 3433.29 -7.86554e-15 -4.58317e-14 2.08688e-14
  2 7339.78 -0.0142174 3433.29 -7.24018e-15 -1.01647e-13 1.42009e-14
  3 7339.78 -0.0142174 3433.29 -1.58205e-14 -7.74322e-14 -2.96891e-14
  4 7339.78 -0.0142174 3433.29 -1.34866e-14 -1.86504e-13 -1.68604e-13
  5 7339.78 -0.0142174 3433.29 -1.58205e-14 -3.71807e-14 4.00848e-14
  6 7339.78 -0.0142174 3433.29 -1.34866e-14 -6.93607e-14 5.37863e-14
  7 7339.78 -0.0142174 3433.29 -3.11622e-14 -4.51462e-14 4.20260e-14
  8 7339.78 -0.0142174 3433.29 -2.24521e-14 -6.60105e-14 -2.08688e-14
</Section>

newXOutput 328

<Section columns = "stress_xx | stress_yy | stress_zz | stress_xy | stress_yz | stress_xz">
  1 7343.16 -0.0141845 3439.43 -4.96785e-15 -3.51056e-14 -1.96397e-14
  2 7343.16 -0.0141845 3439.43 -4.96785e-15 -3.90857e-14 -7.32963e-14
  3 7343.16 -0.0141845 3439.43 -8.55169e-15 -3.90857e-14 -1.78262e-14
  4 7343.16 -0.0141845 3439.43 -8.55169e-15 -3.74117e-14 -6.65285e-14
  5 7343.16 -0.0141845 3439.43 -8.55169e-15 -3.94282e-14 -2.95484e-14
  6 7343.16 -0.0141845 3439.43 -8.55169e-15 -5.52178e-14 -1.10276e-13
  7 7343.16 -0.0141845 3439.43 -1.71659e-14 -5.52178e-14 -5.48063e-14
  8 7343.16 -0.0141845 3439.43 -1.71659e-14 -9.76178e-14 -2.04540e-13
</Section>

newXOutput 329

<Section columns = "stress_xx | stress_yy | stress_zz | stress_xy | stress_yz | stress_xz">
  1 7346.53 -0.0141518 3445.55 -3.07671e-15 -5.90083e-15 -1.21805e-14
  2 7346.53 -0.0141518 3445.55 -3.07671e-15 -4.62042e-14 -3.74777e-14
  3 7346.53 -0.0141518 3445.55 -8.01280e-15 2.15985e-15 6.12863e-15
  4 7346.53 -0.0141518 3445.55 -8.01280e-15 -8.21879e-14 -1.26046e-13
  5 7346.53 -0.0141518 3445.55 -8.01280e-15 -1.58112e-15 -1.64216e-15
  6 7346.53 -0.0141518 3445.55 -8.01280e-15 -3.00829e-14 3.37740e-14
  7 7346.53 -0.0141518 3445.55 -1.69553e-14 1.82812e-14 4.54582e-14
  8 7346.53 -0.0141518 3445.55 -1.69553e-14 -2.20222e-14 1.39869e-13
</Section>

newXOutput 330

<Section columns = "stress_xx | stress_yy | stress_zz | stress_xy | stress_yz | stress_xz">
  1 7349.87 -0.0141192 3451.66 3.33388e-31 -2.34481e-14 3.41153e-14
  2 7349.87 -0.0141192 3451.66 9.96499e-31 -4.40342e-14 6.42533e-14
  3 7349.87 -0.0141192 3451.66 -1.78473e-32 2.33564e-14 2.07877e-14
  4 7349.87 -0.0141192 3451.66 2.38293e-31 1.51036e-14 2.03373e-14
  5 7349.87 -0.0141192 3451.66 1.64330e-31 -1.51036e-14 4.33007e-14
  6 7349.87 -0.0141192 3451.66 6.58384e-31 -1.28923e-14 6.67145e-14
  7 7349.87 -0.0141192 3451.66 -3.55963e-31 4.05462e-14 5.50680e-14
  8 7349.87 -0.0141192 3451.66 6.92350e-32 7.92567e-14 2.95227e-14
</Section>

newXOutput 331

<Section columns = "stress_xx | stress_yy | stress_zz | stress_xy | stress_yz | stress_xz">
  1 7353.19 -0.0140868 3457.75 -1.15173e-31 -6.57665e-15 -1.94501e-14
  2 7353.19 -0.0140868 3457.75 -4.29833e-31 -3.94751e-16 -7.25886e-14
  3 7353.19 -0.0140868 3457.75 -3.08606e-32 -5.49817e-15 -1.76541e-14
  4 7353.19 -0.0140868 3457.75 -1.15173e-31 6.96082e-14 -6.58861e-14
  5 7353.19 -0.0140868 3457.75 -3.08606e-32 -6.86563e-15 -2.92632e-14
  6 7353.19 -0.0140868 3457.75 -1.15173e-31 -1.47323e-15 -1.09212e-13
  7 7353.19 -0.0140868 3457.75 -8.26908e-33 -2.05194e-14 -5.42771e-14
  8 7353.19 -0.0140868 3457.75 -3.08606e-32 1.35480e-14 -2.02565e-13
</Section>

newXOutput 332

<Section columns = "stress_xx | stress_yy | stress_zz | stress_xy | stress_yz | stress_xz">
  1 7356.48 -0.0140546 3463.83 -5.50005e-32 -4.64337e-14 -5.86185e-15
  2 7356.48 -0.0140546 3463.83 -1.47373e-32 -3.65754e-14 -1.39731e-14
  3 7356.48 -0.0140546 3463.83 3.83217e-31 -3.65754e-14 2.92129e-14
  4 7356.48 -0.0140546 3463.83 1.02683e-31 -1.62669e-14 -3.84591e-14
  5 7356.48 -0.0140546 3463.83 -1.39098e-31 -4.64337e-14 -2.47696e-14
  6 7356.48 -0.0140546 3463.83 -3.72713e-32 -3.65754e-14 -5.29236e-14
  7 7356.48 -0.0140546 3463.83 6.93604e-32 -3.65754e-14 -4.13520e-14
  8 7356.48 -0.0140546 3463.83 1.85851e-32 -1.62669e-14 -1.83824e-13
</Section>

newXOutput 333

<Section columns = "stress_xx | stress_yy | stress_zz | stress_xy | stress_yz | stress_xz">
  1 7359.76 -0.0140225 3469.89 4.37377e-31 -3.88686e-14 4.75957e-14
  2 7359.76 -0.0140225 3469.89 7.26856e-31 -3.41662e-14 2.11970e-14
  3 7359.76 -0.0140225 3469.89 -3.86106e-31 1.91650e-14 2.11970e-14
  4 7359.76 -0.0140225 3469.89 5.99014e-32 1.76938e-14 -1.51884e-13
  5 7359.76 -0.0140225 3469.89 5.21261e-31 -3.85800e-14 5.73458e-14
  6 7359.76 -0.0140225 3469.89 1.03991e-30 -3.30892e-14 5.75848e-14
  7 7359.76 -0.0140225 3469.89 -3.63630e-31 3.41662e-14 5.75848e-14
  8 7359.76 -0.0140225 3469.89 1.43785e-31 7.36790e-14 -1.60829e-14
</Section>

newXOutput 334

<Section columns = "stress_xx | stress_yy | stress_zz | stress_xy | stress_yz | stress_xz">
  1 7363.01 -0.0139906 3475.94 -1.75547e-31 -7.45954e-14 -1.92631e-14
  2 7363.01 -0.0139906 3475.94 -6.55149e-31 -6.95550e-14 -7.18910e-14
  3 7363.01 -0.0139906 3475.94 -4.70376e-32 -1.36765e-13 -1.74845e-14
  4 7363.01 -0.0139906 3475.94 -1.75547e-31 -1.20501e-13 -6.52529e-14
  5 7363.01 -0.0139906 3475.94 -2.59217e-31 -7.43070e-14 -2.89819e-14
  6 7363.01 -0.0139906 3475.94 -9.67410e-31 -6.84786e-14 -1.08162e-13
  7 7363.01 -0.0139906 3475.94 -6.94569e-32 -1.21774e-13 -5.37555e-14
  8 7363.01 -0.0139906 3475.94 -2.59217e-31 -6.45532e-14 -2.00618e-13
</Section>

newXOutput 335

<Section columns = "stress_xx | stress_yy | stress_zz | stress_xy | stress_yz | stress_xz">
  1 7366.24 -0.0139588 3481.97 9.72462e-32 -4.91225e-15 -5.80560e-15
  2 7366.24 -0.0139588 3481.97 4.79728e-31 4.13899e-15 -1.38391e-14
  3 7366.24 -0.0139588 3481.97 4.79728e-31 4.13899e-15 2.89325e-14
  4 7366.24 -0.0139588 3481.97 1.82167e-30 2.14682e-14 -3.80900e-14
  5 7366.24 -0.0139588 3481.97 4.55046e-31 -6.09851e-16 -2.45319e-14
  6 7366.24 -0.0139588 3481.97 1.81505e-30 2.01958e-14 -5.24158e-14
  7 7366.24 -0.0139588 3481.97 1.81505e-30 2.01958e-14 -4.09552e-14
  8 7366.24 -0.0139588 3481.97 6.80517e-30 8.13929e-14 -1.82060e-13
</Section>

newXOutput 336

<Section columns = "stress_xx | stress_yy | stress_zz | stress_xy | stress_yz | stress_xz">
  1 7369.45 -0.0139272 3487.99 -2.74819e-31 8.52189e-15 5.06742e-14
  2 7369.45 -0.0139272 3487.99 -5.26159e-31 7.73502e-15 3.41852e-14
  3 7369.45 -0.0139272 3487.99 -1.02564e-30 3.18041e-14 3.41852e-14
  4 7369.45 -0.0139272 3487.99 -1.96365e-30 2.88675e-14 -1.01198e-13
  5 7369.45 -0.0139272 3487.99 -6.31711e-31 1.28214e-14 6.99875e-14
  6 7369.45 -0.0139272 3487.99 -1.85810e-30 2.37811e-14 1.06263e-13
  7 7369.45 -0.0139272 3487.99 -2.35758e-30 4.78502e-14 1.06263e-13
  8 7369.45 -0.0139272 3487.99 -6.93452e-30 8.87522e-14 1.67801e-13
</Section>

newXOutput 337

<Section columns = "stress_xx | stress_yy | stress_zz | stress_xy | stress_yz | stress_xz">
  1 7372.63 -0.0138957 3494.00 9.99080e-32 5.70478e-16 -1.90788e-14
  2 7372.63 -0.0138957 3494.00 3.72862e-31 5.17803e-16 -7.12032e-14
  3 7372.63 -0.0138957 3494.00 4.78147e-31 2.96539e-14 -1.73172e-14
  4 7372.63 -0.0138957 3494.00 1.78447e-30 2.69158e-14 -6.46286e-14
  5 7372.63 -0.0138957 3494.00 3.72862e-31 8.58300e-16 -2.87046e-14
  6 7372.63 -0.0138957 3494.00 1.39154e-30 1.59197e-15 -1.07127e-13
  7 7372.63 -0.0138957 3494.00 1.78447e-30 4.46151e-14 -5.32412e-14
  8 7372.63 -0.0138957 3494.00 6.65973e-30 8.27518e-14 -1.98699e-13
</Section>

newXOutput 338

<Section columns = "stress_xx | stress_yy | stress_zz | stress_xy | stress_yz | stress_xz">
  1 7375.80 -0.0138644 3499.99 1.59360e-31 -2.82923e-14 -1.53452e-14
  2 7375.80 -0.0138644 3499.99 4.27004e-32 -1.26605e-14 -4.95163e-14
  3 7375.80 -0.0138644 3499.99 8.26573e-31 -5.56551e-14 -7.15327e-15
  4 7375.80 -0.0138644 3499.99 2.21480e-31 -1.62738e-14 -1.71369e-13
  5 7375.80 -0.0138644 3499.99 -6.29161e-33 -3.22985e-14 -1.47025e-14
  6 7375.80 -0.0138644 3499.99 -1.68583e-33 -2.76118e-14 -1.61056e-14
  7 7375.80 -0.0138644 3499.99 2.08352e-31 -5.67285e-14 -4.75450e-15
  8 7375.80 -0.0138644 3499.99 5.58278e-32 -2.02800e-14 -4.66785e-14
</Section>

newXOutput 339

<Section columns = "stress_xx | stress_yy | stress_zz | stress_xy | stress_yz | stress_xz">
  1 7378.94 -0.0138332 3505.97 -9.69955e-32 9.50577e-15 4.66900e-14
  2 7378.94 -0.0138332 3505.97 3.64958e-31 -1.09571e-14 2.07937e-14
  3 7378.94 -0.0138332 3505.97 -5.21692e-31 3.20089e-14 2.07937e-14
  4 7378.94 -0.0138332 3505.97 -3.50328e-32 2.38055e-14 -1.48994e-13
  5 7378.94 -0.0138332 3505.97 -1.79613e-31 1.78002e-14 5.62545e-14
  6 7378.94 -0.0138332 3505.97 5.66272e-32 1.99983e-14 5.64891e-14
  7 7378.94 -0.0138332 3505.97 -5.43829e-31 4.90957e-14 5.64891e-14
  8 7378.94 -0.0138332 3505.97 -1.17650e-31 8.75743e-14 -1.57769e-14
</Section>

newXOutput 340

<Section columns = "stress_xx | stress_yy | stress_zz | stress_xy | stress_yz | stress_xz">
  1 7382.07 -0.0138022 3511.94 -1.15703e-31 -7.18122e-17 -1.26587e-15
  2 7382.07 -0.0138022 3511.94 -4.20966e-31 1.34003e-15 -6.58008e-14
  3 7382.07 -0.0138022 3511.94 7.34880e-32 -3.73285e-15 -1.14898e-15
  4 7382.07 -0.0138022 3511.94 -8.47994e-32 6.96560e-14 -5.97250e-14
  5 7382.07 -0.0138022 3511.94 4.91152e-32 -3.59061e-16 -1.90453e-15
  6 7382.07 -0.0138022 3511.94 -9.13300e-32 2.68007e-16 -9.89991e-14
  7 7382.07 -0.0138022 3511.94 4.03124e-31 -1.86643e-14 -3.53252e-15
  8 7382.07 -0.0138022 3511.94 8.00186e-32 1.39312e-14 -1.83623e-13
</Section>

newXOutput 341

<Section columns = "stress_xx | stress_yy | stress_zz | stress_xy | stress_yz | stress_xz">
  1 7385.17 -0.0137714 3517.89 6.64201e-32 2.83411e-14 -2.73122e-14
  2 7385.17 -0.0137714 3517.89 1.77972e-32 1.30275e-14 -5.22910e-14
  3 7385.17 -0.0137714 3517.89 1.77972e-32 6.10059e-14 -5.22910e-14
  4 7385.17 -0.0137714 3517.89 4.76875e-33 3.66246e-14 -1.81852e-13
  5 7385.17 -0.0137714 3517.89 6.64201e-32 3.26264e-14 -1.78083e-14
  6 7385.17 -0.0137714 3517.89 1.77972e-32 2.90203e-14 -1.68221e-14
  7 7385.17 -0.0137714 3517.89 1.77972e-32 7.69988e-14 -1.68221e-14
  8 7385.17 -0.0137714 3517.89 4.76875e-33 9.63106e-14 -4.94802e-14
</Section>

newXOutput 342

<Section columns = "stress_xx | stress_yy | stress_zz | stress_xy | stress_yz | stress_xz">
  1 7388.25 -0.0137407 3523.82 -1.17887e-14 -1.06092e-13 4.97143e-14
  2 7388.25 -0.0137407 3523.82 -1.17887e-14 -5.24007e-14 3.35376e-14
  3 7388.25 -0.0137407 3523.82 -1.62643e-14 -1.48294e-13 3.35376e-14
  4 7388.25 -0.0137407 3523.82 -1.62643e-14 -4.61589e-14 -9.92813e-14
  5 7388.25 -0.0137407 3523.82 -6.43514e-15 -1.06092e-13 6.86617e-14
  6 7388.25 -0.0137407 3523.82 -6.43514e-15 -5.24007e-14 1.04250e-13
  7 7388.25 -0.0137407 3523.82 -5.23590e-15 -1.48294e-13 1.04250e-13
  8 7388.25 -0.0137407 3523.82 -5.23590e-15 -4.61589e-14 1.64623e-13
</Section>

newXOutput 343

<Section columns = "stress_xx | stress_yy | stress_zz | stress_xy | stress_yz | stress_xz">
  1 7391.31 -0.0137101 3529.75 -1.55042e-14 -2.88969e-13 1.16465e-14
  2 7391.31 -0.0137101 3529.75 -1.55042e-14 -2.20908e-13 -1.70320e-14
  3 7391.31 -0.0137101 3529.75 -3.02515e-14 -6.04227e-13 4.70068e-14
  4 7391.31 -0.0137101 3529.75 -3.02515e-14 -4.48399e-13 1.20520e-13
  5 7391.31 -0.0137101 3529.75 -7.41648e-15 -2.84689e-13 1.57017e-15
  6 7391.31 -0.0137101 3529.75 -7.41648e-15 -2.04936e-13 -8.51600e-14
  7 7391.31 -0.0137101 3529.75 -8.97994e-15 -5.88256e-13 9.40135e-15
  8 7391.31 -0.0137101 3529.75 -8.97994e-15 -3.88792e-13 -1.33737e-13
</Section>

newXOutput 344

<Section columns = "stress_xx | stress_yy | stress_zz | stress_xy | stress_yz | stress_xz">
  1 7394.36 -0.0136797 3535.66 2.43061e-14 9.85111e-14 -3.44572e-15
  2 7394.36 -0.0136797 3535.66 2.43061e-14 -9.67501e-14 -1.28596e-14
  3 7394.36 -0.0136797 3535.66 4.85034e-14 2.38433e-13 -1.28596e-14
  4 7394.36 -0.0136797 3535.66 4.85034e-14 -1.46891e-13 -4.79927e-14
  5 7394.36 -0.0136797 3535.66 -2.16365e-16 9.85111e-14 -1.28596e-14
  6 7394.36 -0.0136797 3535.66 -2.16365e-16 -9.67501e-14 -4.79927e-14
  7 7394.36 -0.0136797 3535.66 -8.65786e-16 2.38433e-13 -4.79927e-14
  8 7394.36 -0.0136797 3535.66 -8.65786e-16 -1.46891e-13 -1.79111e-13
</Section>

newXOutput 345

<Section columns = "stress_xx | stress_yy | stress_zz | stress_xy | stress_yz | stress_xz">
  1 7397.38 -0.0136494 3541.55 7.13107e-31 -8.97218e-15 4.58094e-14
  2 7397.38 -0.0136494 3541.55 1.94527e-30 1.27643e-14 2.04015e-14
  3 7397.38 -0.0136494 3541.55 2.33037e-30 -6.10543e-15 2.04015e-14
  4 7397.38 -0.0136494 3541.55 6.81371e-30 7.24881e-14 -1.46184e-13
  5 7397.38 -0.0136494 3541.55 4.45590e-31 -1.72338e-14 5.51936e-14
  6 7397.38 -0.0136494 3541.55 9.46884e-31 -1.80683e-14 5.54237e-14
  7 7397.38 -0.0136494 3541.55 1.05007e-30 -2.31245e-14 5.54237e-14
  8 7397.38 -0.0136494 3541.55 2.03556e-30 8.97218e-15 -1.54794e-14
</Section>

newXOutput 346

<Section columns = "stress_xx | stress_yy | stress_zz | stress_xy | stress_yz | stress_xz">
  1 7400.38 -0.0136193 3547.43 9.76738e-32 8.46557e-15 -1.24203e-15
  2 7400.38 -0.0136193 3547.43 4.67454e-31 7.68390e-15 -6.45616e-14
  3 7400.38 -0.0136193 3547.43 3.64524e-31 3.15939e-14 -1.12735e-15
  4 7400.38 -0.0136193 3547.43 1.74456e-30 2.86767e-14 -5.86003e-14
  5 7400.38 -0.0136193 3547.43 3.64524e-31 1.27367e-14 -1.86867e-15
  6 7400.38 -0.0136193 3547.43 1.74456e-30 2.36239e-14 -9.71348e-14
  7 7400.38 -0.0136193 3547.43 1.36042e-30 4.75339e-14 -3.46599e-15
  8 7400.38 -0.0136193 3547.43 6.51080e-30 8.81657e-14 -1.80165e-13
</Section>

newXOutput 347

<Section columns = "stress_xx | stress_yy | stress_zz | stress_xy | stress_yz | stress_xz">
  1 7403.36 -0.0135893 3553.30 1.27070e-31 5.66712e-16 -3.41324e-15
  2 7403.36 -0.0135893 3553.30 4.74232e-31 5.14384e-16 -1.27384e-14
  3 7403.36 -0.0135893 3553.30 4.74232e-31 2.94581e-14 -1.27384e-14
  4 7403.36 -0.0135893 3553.30 1.76986e-30 2.67381e-14 -4.75403e-14
  5 7403.36 -0.0135893 3553.30 4.74232e-31 8.52634e-16 -1.27384e-14
  6 7403.36 -0.0135893 3553.30 1.76986e-30 1.58146e-15 -4.75403e-14
  7 7403.36 -0.0135893 3553.30 1.76986e-30 4.43205e-14 -4.75403e-14
  8 7403.36 -0.0135893 3553.30 6.60521e-30 8.22055e-14 -1.77423e-13
</Section>

newXOutput 348

<Section columns = "stress_xx | stress_yy | stress_zz | stress_xy | stress_yz | stress_xz">
  1 7406.32 -0.0135595 3559.16 1.36974e-30 -1.14446e-13 4.87808e-14
  2 7406.32 -0.0135595 3559.16 1.36709e-31 -1.04016e-13 3.29079e-14
  3 7406.32 -0.0135595 3559.16 2.55997e-30 -2.23408e-13 3.29079e-14
  4 7406.32 -0.0135595 3559.16 -3.53136e-30 -1.68173e-13 -9.74171e-14
  5 7406.32 -0.0135595 3559.16 2.06234e-30 -1.14446e-13 6.73725e-14
  6 7406.32 -0.0135595 3559.16 2.72152e-30 -1.04016e-13 1.02293e-13
  7 7406.32 -0.0135595 3559.16 5.14479e-30 -2.23408e-13 1.02293e-13
  8 7406.32 -0.0135595 3559.16 6.11529e-30 -1.68173e-13 1.61532e-13
</Section>

newXOutput 349

<Section columns = "stress_xx | stress_yy | stress_zz | stress_xy | stress_yz | stress_xz">
  1 7409.27 -0.0135298 3565.00 9.40675e-31 -1.49841e-13 1.14282e-14
  2 7409.27 -0.0135298 3565.00 1.57627e-30 -1.44070e-13 -1.67127e-14
  3 7409.27 -0.0135298 3565.00 3.56482e-30 -3.06067e-13 4.61255e-14
  4 7409.27 -0.0135298 3565.00 9.60057e-30 -2.87052e-13 1.18261e-13
  5 7409.27 -0.0135298 3565.00 2.03515e-31 -1.53818e-13 1.54073e-15
  6 7409.27 -0.0135298 3565.00 -3.68693e-30 -1.58913e-13 -8.35634e-14
  7 7409.27 -0.0135298 3565.00 1.09282e-30 -3.07133e-13 9.22509e-15
  8 7409.27 -0.0135298 3565.00 -9.00026e-30 -2.91029e-13 -1.31230e-13
</Section>

newXOutput 350

<Section columns = "stress_xx | stress_yy | stress_zz | stress_xy | stress_yz | stress_xz">
  1 7412.19 -0.0135003 3570.83 0.00000 -1.37682e-14 -1.26188e-14
  2 7412.19 -0.0135003 3570.83 0.00000 -3.68916e-15 -4.70942e-14
  3 7412.19 -0.0135003 3570.83 0.00000 -5.13834e-14 -4.70942e-14
  4 7412.19 -0.0135003 3570.83 0.00000 -1.37682e-14 -1.75758e-13
  5 7412.19 -0.0135003 3570.83 0.00000 -1.37682e-14 -3.38121e-15
  6 7412.19 -0.0135003 3570.83 0.00000 -3.68916e-15 -1.26188e-14
  7 7412.19 -0.0135003 3570.83 0.00000 -5.13834e-14 -1.26188e-14
  8 7412.19 -0.0135003 3570.83 0.00000 -1.37682e-14 -4.70942e-14
</Section>

newXOutput 351

<Section columns = "stress_xx | stress_yy | stress_zz | stress_xy | stress_yz | stress_xz">
  1 7415.09 -0.0134708 3576.64 5.76024e-31 -8.93680e-15 1.54217e-16
  2 7415.09 -0.0134708 3576.64 1.88256e-30 1.27139e-14 8.01632e-15
  3 7415.09 -0.0134708 3576.64 2.16030e-30 -6.08135e-15 -2.87773e-15
  4 7415.09 -0.0134708 3576.64 6.67648e-30 7.22022e-14 -1.49587e-13
  5 7415.09 -0.0134708 3576.64 2.32293e-31 -1.71658e-14 7.71085e-16
  6 7415.09 -0.0134708 3576.64 8.77476e-31 -1.79971e-14 4.00816e-14
  7 7415.09 -0.0134708 3576.64 5.99737e-31 -2.30333e-14 -5.75546e-16
  8 7415.09 -0.0134708 3576.64 1.88891e-30 8.93680e-15 -2.99173e-14
</Section>

newXOutput 352

<Section columns = "stress_xx | stress_yy | stress_zz | stress_xy | stress_yz | stress_xz">
  1 7417.98 -0.0134416 3582.45 -7.46090e-32 1.62996e-14 -1.21884e-15
  2 7417.98 -0.0134416 3582.45 3.63042e-32 -9.02128e-15 -6.33565e-14
  3 7417.98 -0.0134416 3582.45 2.11949e-31 5.73934e-14 -1.10630e-15
  4 7417.98 -0.0134416 3582.45 1.57792e-30 3.04771e-14 -5.75065e-14
  5 7417.98 -0.0134416 3582.45 1.88295e-31 2.45232e-14 -1.83379e-15
  6 7417.98 -0.0134416 3582.45 1.57158e-30 2.16696e-14 -9.53216e-14
  7 7417.98 -0.0134416 3582.45 9.16068e-31 7.43342e-14 -3.40129e-15
  8 7417.98 -0.0134416 3582.45 6.27369e-30 9.37011e-14 -1.76802e-13
</Section>

newXOutput 353

<Section columns = "stress_xx | stress_yy | stress_zz | stress_xy | stress_yz | stress_xz">
  1 7420.85 -0.0134125 3588.23 0.00000 9.41837e-15 -1.25010e-14
  2 7420.85 -0.0134125 3588.23 0.00000 -1.08563e-14 -4.66542e-14
  3 7420.85 -0.0134125 3588.23 0.00000 3.17146e-14 -4.66542e-14
  4 7420.85 -0.0134125 3588.23 0.00000 2.35866e-14 -1.74116e-13
  5 7420.85 -0.0134125 3588.23 0.00000 1.76366e-14 -3.34962e-15
  6 7420.85 -0.0134125 3588.23 0.00000 1.98145e-14 -1.25010e-14
  7 7420.85 -0.0134125 3588.23 0.00000 4.86443e-14 -1.25010e-14
  8 7420.85 -0.0134125 3588.23 0.00000 8.67691e-14 -4.66542e-14
</Section>

newXOutput 354

<Section columns = "stress_xx | stress_yy | stress_zz | stress_xy | stress_yz | stress_xz">
  1 7423.69 -0.0133835 3594.01 -7.08295e-16 -1.12571e-14 3.49196e-15
  2 7423.69 -0.0133835 3594.01 -1.89787e-16 -2.14138e-14 2.04035e-14
  3 7423.69 -0.0133835 3594.01 -1.89787e-16 2.61555e-14 9.61113e-15
  4 7423.69 -0.0133835 3594.01 -5.08533e-17 2.07404e-14 -1.01682e-13
  5 7423.69 -0.0133835 3594.01 -2.64339e-15 -7.00834e-15 1.32259e-14
  6 7423.69 -0.0133835 3594.01 -7.08295e-16 -5.55738e-15 8.62165e-14
  7 7423.69 -0.0133835 3594.01 -7.08295e-16 4.20119e-14 4.59387e-14
  8 7423.69 -0.0133835 3594.01 -1.89787e-16 7.99174e-14 1.43935e-13
</Section>

newXOutput 355

<Section columns = "stress_xx | stress_yy | stress_zz | stress_xy | stress_yz | stress_xz">
  1 7426.52 -0.0133546 3599.77 8.95548e-15 -1.47277e-13 1.12158e-14
  2 7426.52 -0.0133546 3599.77 8.95548e-15 -6.32318e-14 -1.64021e-14
  3 7426.52 -0.0133546 3599.77 1.85558e-14 -3.48461e-13 4.52682e-14
  4 7426.52 -0.0133546 3599.77 1.85558e-14 -9.97387e-14 1.16063e-13
  5 7426.52 -0.0133546 3599.77 1.85558e-14 -1.47277e-13 1.51210e-15
  6 7426.52 -0.0133546 3599.77 1.85558e-14 -6.32318e-14 -8.20103e-14
  7 7426.52 -0.0133546 3599.77 4.38057e-14 -3.48461e-13 9.05364e-15
  8 7426.52 -0.0133546 3599.77 4.38057e-14 -9.97387e-14 -1.28791e-13
</Section>

newXOutput 356

<Section columns = "stress_xx | stress_yy | stress_zz | stress_xy | stress_yz | stress_xz">
  1 7429.33 -0.0133259 3605.52 -6.09972e-15 1.19889e-13 -3.31846e-15
  2 7429.33 -0.0133259 3605.52 -5.54870e-15 8.16972e-14 -1.23847e-14
  3 7429.33 -0.0133259 3605.52 -1.37172e-14 2.29238e-13 -1.23847e-14
  4 7429.33 -0.0133259 3605.52 -1.16608e-14 1.81537e-13 -4.62202e-14
  5 7429.33 -0.0133259 3605.52 -1.37172e-14 1.20174e-13 -1.23847e-14
  6 7429.33 -0.0133259 3605.52 -1.16608e-14 8.27580e-14 -4.62202e-14
  7 7429.33 -0.0133259 3605.52 -2.73981e-14 2.44013e-13 -4.62202e-14
  8 7429.33 -0.0133259 3605.52 -1.97235e-14 2.36678e-13 -1.72496e-13
</Section>

newXOutput 357

<Section columns = "stress_xx | stress_yy | stress_zz | stress_xy | stress_yz | stress_xz">
  1 7432.13 -0.0132973 3611.25 -5.32432e-15 -4.05855e-14 1.51359e-16
  2 7432.13 -0.0132973 3611.25 -5.32432e-15 -8.34332e-14 7.86777e-15
  3 7432.13 -0.0132973 3611.25 -1.08618e-14 -5.46787e-14 -2.82440e-15
  4 7432.13 -0.0132973 3611.25 -1.08618e-14 -1.03603e-13 -1.46815e-13
  5 7432.13 -0.0132973 3611.25 -1.08618e-14 -4.03014e-14 7.56796e-16
  6 7432.13 -0.0132973 3611.25 -1.08618e-14 -8.23731e-14 3.93388e-14
  7 7432.13 -0.0132973 3611.25 -1.68426e-14 -3.99134e-14 -5.64880e-16
  8 7432.13 -0.0132973 3611.25 -1.68426e-14 -4.84982e-14 -2.93629e-14
</Section>

newXOutput 358

<Section columns = "stress_xx | stress_yy | stress_zz | stress_xy | stress_yz | stress_xz">
  1 7434.90 -0.0132689 3616.98 2.07591e-14 1.74249e-13 -3.35453e-14
  2 7434.90 -0.0132689 3616.98 2.07591e-14 -1.48200e-13 -7.08520e-14
  3 7434.90 -0.0132689 3616.98 3.85473e-14 3.26251e-13 1.93674e-14
  4 7434.90 -0.0132689 3616.98 3.85473e-14 -2.29034e-13 -5.09619e-14
  5 7434.90 -0.0132689 3616.98 -1.95646e-14 1.74249e-13 -5.09619e-14
  6 7434.90 -0.0132689 3616.98 -1.95646e-14 -1.48200e-13 -1.06731e-13
  7 7434.90 -0.0132689 3616.98 -3.04712e-14 3.26251e-13 -4.56324e-14
  8 7434.90 -0.0132689 3616.98 -3.04712e-14 -2.29034e-13 -1.84863e-13
</Section>

newXOutput 359

<Section columns = "stress_xx | stress_yy | stress_zz | stress_xy | stress_yz | stress_xz">
  1 7437.66 -0.0132405 3622.69 -5.91025e-15 -2.50875e-14 -3.28772e-15
  2 7437.66 -0.0132405 3622.69 -5.91025e-15 6.91458e-14 -1.22700e-14
  3 7437.66 -0.0132405 3622.69 -1.63742e-14 -5.43997e-14 -1.22700e-14
  4 7437.66 -0.0132405 3622.69 -1.63742e-14 2.51212e-13 -4.57921e-14
  5 7437.66 -0.0132405 3622.69 4.94484e-15 -2.53712e-14 -1.22700e-14
  6 7437.66 -0.0132405 3622.69 4.94484e-15 6.80870e-14 -4.57921e-14
  7 7437.66 -0.0132405 3622.69 1.99772e-14 -6.91458e-14 -4.57921e-14
  8 7437.66 -0.0132405 3622.69 1.99772e-14 1.96179e-13 -1.70898e-13
</Section>

newXOutput 360

<Section columns = "stress_xx | stress_yy | stress_zz | stress_xy | stress_yz | stress_xz">
  1 7440.40 -0.0132124 3628.38 -5.25704e-15 -4.05062e-14 3.42753e-15
  2 7440.40 -0.0132124 3628.38 -5.25704e-15 -8.32702e-14 2.00271e-14
  3 7440.40 -0.0132124 3628.38 -1.07245e-14 -5.45719e-14 9.43379e-15
  4 7440.40 -0.0132124 3628.38 -1.07245e-14 -1.03401e-13 -9.98060e-14
  5 7440.40 -0.0132124 3628.38 -1.07245e-14 -4.02227e-14 1.29819e-14
  6 7440.40 -0.0132124 3628.38 -1.07245e-14 -8.22122e-14 8.46257e-14
  7 7440.40 -0.0132124 3628.38 -1.66297e-14 -3.98354e-14 4.50910e-14
  8 7440.40 -0.0132124 3628.38 -1.66297e-14 -4.84034e-14 1.41279e-13
</Section>

newXOutput 361

<Section columns = "stress_xx | stress_yy | stress_zz | stress_xy | stress_yz | stress_xz">
  1 7443.12 -0.0131843 3634.07 -6.87551e-16 6.30608e-15 -2.10411e-14
  2 7443.12 -0.0131843 3634.07 -1.84229e-16 3.03036e-15 -2.46877e-14
  3 7443.12 -0.0131843 3634.07 -1.84229e-16 -1.97302e-15 6.46984e-14
  4 7443.12 -0.0131843 3634.07 -4.93639e-17 6.91595e-14 1.19354e-13
  5 7443.12 -0.0131843 3634.07 -2.56598e-15 6.02277e-15 -4.72238e-14
  6 7443.12 -0.0131843 3634.07 -6.87551e-16 1.97302e-15 -9.35505e-14
  7 7443.12 -0.0131843 3634.07 -6.87551e-16 -1.66999e-14 -3.30166e-14
  8 7443.12 -0.0131843 3634.07 -1.84229e-16 1.41982e-14 -1.37646e-13
</Section>

newXOutput 362

<Section columns = "stress_xx | stress_yy | stress_zz | stress_xy | stress_yz | stress_xz">
  1 7445.83 -0.0131564 3639.74 1.79007e-14 1.51121e-13 -1.21568e-14
  2 7445.83 -0.0131564 3639.74 1.73635e-14 -1.25230e-13 -4.53698e-14
  3 7445.83 -0.0131564 3639.74 3.95543e-14 3.66649e-13 -4.53698e-14
  4 7445.83 -0.0131564 3639.74 3.75495e-14 -2.09707e-13 -1.69322e-13
  5 7445.83 -0.0131564 3639.74 -1.75829e-14 1.55065e-13 -3.25740e-15
  6 7445.83 -0.0131564 3639.74 -1.95877e-14 -1.10512e-13 -1.21568e-14
  7 7445.83 -0.0131564 3639.74 -3.12533e-14 3.67706e-13 -1.21568e-14
  8 7445.83 -0.0131564 3639.74 -3.87353e-14 -2.05764e-13 -4.53698e-14
</Section>

newXOutput 363

<Section columns = "stress_xx | stress_yy | stress_zz | stress_xy | stress_yz | stress_xz">
  1 7448.51 -0.0131286 3645.40 -1.82682e-16 -1.11912e-14 1.48578e-16
  2 7448.51 -0.0131286 3645.40 -6.81780e-16 -2.12886e-14 7.72321e-15
  3 7448.51 -0.0131286 3645.40 -4.89496e-17 2.60025e-14 -2.77251e-15
  4 7448.51 -0.0131286 3645.40 -1.82682e-16 2.06191e-14 -1.44117e-13
  5 7448.51 -0.0131286 3645.40 -6.81780e-16 -6.96735e-15 7.42892e-16
  6 7448.51 -0.0131286 3645.40 -2.54444e-15 -5.52487e-15 3.86161e-14
  7 7448.51 -0.0131286 3645.40 -1.82682e-16 4.17662e-14 -5.54502e-16
  8 7448.51 -0.0131286 3645.40 -6.81780e-16 7.94500e-14 -2.88234e-14
</Section>

newXOutput 364

<Section columns = "stress_xx | stress_yy | stress_zz | stress_xy | stress_yz | stress_xz">
  1 7451.18 -0.0131010 3651.04 1.68844e-31 -6.89214e-15 -3.29298e-14
  2 7451.18 -0.0131010 3651.04 -3.22267e-31 -5.08700e-16 -6.95521e-14
  3 7451.18 -0.0131010 3651.04 7.80259e-31 -2.91326e-14 1.90120e-14
  4 7451.18 -0.0131010 3651.04 1.10596e-31 6.17465e-14 -5.00269e-14
  5 7451.18 -0.0131010 3651.04 9.11801e-32 -7.17491e-15 -5.00269e-14
  6 7451.18 -0.0131010 3651.04 -7.40420e-32 -1.56398e-15 -1.04772e-13
  7 7451.18 -0.0131010 3651.04 2.21379e-31 -4.38307e-14 -4.47952e-14
  8 7451.18 -0.0131010 3651.04 3.29324e-32 6.89214e-15 -1.81471e-13
</Section>

newXOutput 365

<Section columns = "stress_xx | stress_yy | stress_zz | stress_xy | stress_yz | stress_xz">
  1 7453.83 -0.0130734 3656.68 1.94160e-16 1.03618e-14 1.24988e-15
  2 7453.83 -0.0130734 3656.68 7.24616e-16 1.34738e-14 -4.13908e-14
  3 7453.83 -0.0130734 3656.68 7.24616e-16 6.07036e-14 -4.13908e-14
  4 7453.83 -0.0130734 3656.68 2.70430e-15 5.61888e-14 -1.66813e-13
  5 7453.83 -0.0130734 3656.68 7.24616e-16 1.87986e-14 1.00675e-14
  6 7453.83 -0.0130734 3656.68 2.70430e-15 4.49604e-14 -8.48277e-15
  7 7453.83 -0.0130734 3656.68 2.70430e-15 9.21902e-14 -8.48277e-15
  8 7453.83 -0.0130734 3656.68 1.00926e-14 1.73698e-13 -4.39986e-14
</Section>

newXOutput 366

<Section columns = "stress_xx | stress_yy | stress_zz | stress_xy | stress_yz | stress_xz">
  1 7456.47 -0.0130460 3662.30 -9.34112e-15 -8.24145e-14 3.36483e-15
  2 7456.47 -0.0130460 3662.30 -9.34112e-15 -1.23521e-13 1.96607e-14
  3 7456.47 -0.0130460 3662.30 -1.77131e-14 -1.70720e-13 9.26120e-15
  4 7456.47 -0.0130460 3662.30 -1.77131e-14 -1.79062e-13 -9.79801e-14
  5 7456.47 -0.0130460 3662.30 -1.77131e-14 -8.66302e-14 1.27444e-14
  6 7456.47 -0.0130460 3662.30 -1.77131e-14 -1.39254e-13 8.30775e-14
  7 7456.47 -0.0130460 3662.30 -3.07802e-14 -1.86453e-13 4.42661e-14
  8 7456.47 -0.0130460 3662.30 -3.07802e-14 -2.37779e-13 1.38695e-13
</Section>

newXOutput 367

<Section columns = "stress_xx | stress_yy | stress_zz | stress_xy | stress_yz | stress_xz">
  1 7459.09 -0.0130187 3667.90 -3.59696e-15 -2.20372e-14 -2.06567e-14
  2 7459.09 -0.0130187 3667.90 -4.12299e-15 -3.98150e-14 -2.42367e-14
  3 7459.09 -0.0130187 3667.90 -7.73174e-15 1.23377e-14 6.35165e-14
  4 7459.09 -0.0130187 3667.90 -9.69492e-15 -2.42848e-14 1.17174e-13
  5 7459.09 -0.0130187 3667.90 -7.73174e-15 -3.01809e-14 -4.63611e-14
  6 7459.09 -0.0130187 3667.90 -9.69492e-15 -7.02075e-14 -9.18415e-14
  7 7459.09 -0.0130187 3667.90 -1.71290e-14 -4.43844e-15 -3.24134e-14
  8 7459.09 -0.0130187 3667.90 -2.44557e-14 -8.68942e-14 -1.35131e-13
</Section>

newXOutput 368

<Section columns = "stress_xx | stress_yy | stress_zz | stress_xy | stress_yz | stress_xz">
  1 7461.69 -0.0129916 3673.50 -1.19527e-14 -7.31323e-14 9.97549e-15
  2 7461.69 -0.0129916 3673.50 -1.19527e-14 8.83842e-14 -8.40520e-15
  3 7461.69 -0.0129916 3673.50 -2.03766e-14 -1.05149e-13 -8.40520e-15
  4 7461.69 -0.0129916 3673.50 -2.03766e-14 1.94266e-13 -4.35963e-14
  5 7461.69 -0.0129916 3673.50 8.94834e-15 -6.49939e-14 1.23845e-15
  6 7461.69 -0.0129916 3673.50 8.94834e-15 1.18757e-13 -4.10123e-14
  7 7461.69 -0.0129916 3673.50 1.95716e-14 -8.83842e-14 -4.10123e-14
  8 7461.69 -0.0129916 3673.50 1.95716e-14 2.56835e-13 -1.65288e-13
</Section>

newXOutput 369

<Section columns = "stress_xx | stress_yy | stress_zz | stress_xy | stress_yz | stress_xz">
  1 7464.28 -0.0129646 3679.08 -4.39607e-16 -1.09636e-13 2.17760e-15
  2 7464.28 -0.0129646 3679.08 -4.39607e-16 1.94219e-14 8.12692e-15
  3 7464.28 -0.0129646 3679.08 3.22183e-15 -1.69009e-13 -4.06346e-14
  4 7464.28 -0.0129646 3679.08 3.22183e-15 5.52410e-14 -1.51650e-13
  5 7464.28 -0.0129646 3679.08 1.49030e-14 -1.09636e-13 1.08880e-14
  6 7464.28 -0.0129646 3679.08 1.49030e-14 1.94219e-14 4.06346e-14
  7 7464.28 -0.0129646 3679.08 2.65731e-14 -1.69009e-13 -8.12692e-15
  8 7464.28 -0.0129646 3679.08 2.65731e-14 5.52410e-14 -3.03301e-14
</Section>

newXOutput 370

<Section columns = "stress_xx | stress_yy | stress_zz | stress_xy | stress_yz | stress_xz">
  1 7466.85 -0.0129377 3684.65 2.09131e-31 -1.35901e-14 -3.23308e-14
  2 7466.85 -0.0129377 3684.65 5.60365e-32 -3.64145e-15 -6.82868e-14
  3 7466.85 -0.0129377 3684.65 7.80487e-31 -5.07189e-14 1.86662e-14
  4 7466.85 -0.0129377 3684.65 2.09131e-31 -1.35901e-14 -4.91169e-14
  5 7466.85 -0.0129377 3684.65 5.60365e-32 -1.35901e-14 -4.91169e-14
  6 7466.85 -0.0129377 3684.65 1.50149e-32 -3.64145e-15 -1.02867e-13
  7 7466.85 -0.0129377 3684.65 2.09131e-31 -5.07189e-14 -4.39803e-14
  8 7466.85 -0.0129377 3684.65 5.60365e-32 -1.35901e-14 -1.78170e-13
</Section>

newXOutput 371

<Section columns = "stress_xx | stress_yy | stress_zz | stress_xy | stress_yz | stress_xz">
  1 7469.40 -0.0129109 3690.21 7.47632e-15 7.48330e-14 9.88466e-15
  2 7469.40 -0.0129109 3690.21 7.47632e-15 9.89711e-14 -8.32867e-15
  3 7469.40 -0.0129109 3690.21 1.40035e-14 1.41047e-13 -8.32867e-15
  4 7469.40 -0.0129109 3690.21 1.40035e-14 2.33617e-13 -4.31993e-14
  5 7469.40 -0.0129109 3690.21 1.40035e-14 7.87536e-14 1.22717e-15
  6 7469.40 -0.0129109 3690.21 1.40035e-14 1.13603e-13 -4.06389e-14
  7 7469.40 -0.0129109 3690.21 2.84730e-14 1.42098e-13 -4.06389e-14
  8 7469.40 -0.0129109 3690.21 2.84730e-14 2.37538e-13 -1.63783e-13
</Section>

newXOutput 372

<Section columns = "stress_xx | stress_yy | stress_zz | stress_xy | stress_yz | stress_xz">
  1 7471.94 -0.0128842 3695.76 4.82348e-15 2.02509e-14 2.15780e-15
  2 7471.94 -0.0128842 3695.76 4.34280e-15 7.40025e-14 8.05303e-15
  3 7471.94 -0.0128842 3695.76 1.01518e-14 7.40025e-14 -4.02651e-14
  4 7471.94 -0.0128842 3695.76 1.00230e-14 1.94324e-13 -1.50272e-13
  5 7471.94 -0.0128842 3695.76 9.54235e-15 1.60515e-14 1.07890e-14
  6 7471.94 -0.0128842 3695.76 7.74841e-15 5.83302e-14 4.02651e-14
  7 7471.94 -0.0128842 3695.76 1.56389e-14 5.83302e-14 -8.05303e-15
  8 7471.94 -0.0128842 3695.76 1.51582e-14 1.35834e-13 -3.00543e-14
</Section>

newXOutput 373

<Section columns = "stress_xx | stress_yy | stress_zz | stress_xy | stress_yz | stress_xz">
  1 7474.46 -0.0128577 3701.29 4.20915e-15 -9.46659e-14 -2.02825e-14
  2 7474.46 -0.0128577 3701.29 4.20915e-15 -3.06868e-14 -2.37976e-14
  3 7474.46 -0.0128577 3701.29 1.01568e-14 -2.65620e-13 6.23659e-14
  4 7474.46 -0.0128577 3701.29 1.01568e-14 -9.10315e-14 1.15051e-13
  5 7474.46 -0.0128577 3701.29 1.01568e-14 -9.88626e-14 -4.55212e-14
  6 7474.46 -0.0128577 3701.29 1.01568e-14 -4.63490e-14 -9.01778e-14
  7 7474.46 -0.0128577 3701.29 2.64686e-14 -2.81282e-13 -3.18262e-14
  8 7474.46 -0.0128577 3701.29 2.64686e-14 -1.49484e-13 -1.32683e-13
</Section>

newXOutput 374

<Section columns = "stress_xx | stress_yy | stress_zz | stress_xy | stress_yz | stress_xz">
  1 7476.96 -0.0128313 3706.81 4.13387e-31 -1.50251e-15 1.21605e-15
  2 7476.96 -0.0128313 3706.81 1.64889e-30 1.94435e-14 -4.02704e-14
  3 7476.96 -0.0128313 3706.81 1.64889e-30 -2.75129e-14 -4.02704e-14
  4 7476.96 -0.0128313 3706.81 6.18217e-30 6.66947e-14 -1.62298e-13
  5 7476.96 -0.0128313 3706.81 8.83435e-32 -5.69649e-15 9.79504e-15
  6 7476.96 -0.0128313 3706.81 4.35811e-31 3.79138e-15 -8.25316e-15
  7 7476.96 -0.0128313 3706.81 4.35811e-31 -4.31650e-14 -8.25316e-15
  8 7476.96 -0.0128313 3706.81 1.65490e-30 8.28008e-15 -4.28077e-14
</Section>

newXOutput 375

<Section columns = "stress_xx | stress_yy | stress_zz | stress_xy | stress_yz | stress_xz">
  1 7479.45 -0.0128050 3712.32 1.12390e-15 1.14448e-13 2.13826e-15
  2 7479.45 -0.0128050 3712.32 6.15056e-16 2.20781e-14 7.98011e-15
  3 7479.45 -0.0128050 3712.32 -5.48555e-16 2.14742e-13 -3.99006e-14
  4 7479.45 -0.0128050 3712.32 -2.44758e-15 1.23944e-13 -1.48911e-13
  5 7479.45 -0.0128050 3712.32 -1.19427e-14 1.06346e-13 1.06913e-14
  6 7479.45 -0.0128050 3712.32 -1.38417e-14 -8.15823e-15 3.99006e-14
  7 7479.45 -0.0128050 3712.32 -1.62388e-14 1.98052e-13 -7.98011e-15
  8 7479.45 -0.0128050 3712.32 -2.33261e-14 6.16559e-14 -2.97822e-14
</Section>

newXOutput 376

<Section columns = "stress_xx | stress_yy | stress_zz | stress_xy | stress_yz | stress_xz">
  1 7481.93 -0.0127788 3717.81 3.23779e-15 1.68897e-14 -2.97586e-14
  2 7481.93 -0.0127788 3717.81 3.74454e-15 -5.74053e-15 -6.65220e-14
  3 7481.93 -0.0127788 3717.81 6.98007e-15 4.61108e-14 -1.87859e-14
  4 7481.93 -0.0127788 3717.81 8.87128e-15 -8.79304e-15 -5.81759e-14
  5 7481.93 -0.0127788 3717.81 -4.36722e-15 8.79304e-15 -3.82858e-14
  6 7481.93 -0.0127788 3717.81 -2.47601e-15 -3.59575e-14 -9.83461e-14
  7 7481.93 -0.0127788 3717.81 -7.83914e-15 2.94316e-14 -5.06100e-14
  8 7481.93 -0.0127788 3717.81 -7.81035e-16 -7.10407e-14 -1.76945e-13
</Section>

newXOutput 377

<Section columns = "stress_xx | stress_yy | stress_zz | stress_xy | stress_yz | stress_xz">
  1 7484.39 -0.0127528 3723.30 6.99139e-15 4.34839e-14 1.20507e-15
  2 7484.39 -0.0127528 3723.30 6.48672e-15 -2.20411e-14 -3.99068e-14
  3 7484.39 -0.0127528 3723.30 2.10096e-14 1.46942e-13 -3.99068e-14
  4 7484.39 -0.0127528 3723.30 1.91262e-14 1.19594e-14 -1.60832e-13
  5 7484.39 -0.0127528 3723.30 -1.59173e-15 3.53925e-14 9.70660e-15
  6 7484.39 -0.0127528 3723.30 -3.47517e-15 -5.22388e-14 -8.17864e-15
  7 7484.39 -0.0127528 3723.30 2.48440e-15 1.30274e-13 -8.17864e-15
  8 7484.39 -0.0127528 3723.30 -4.54472e-15 -5.02484e-14 -4.24211e-14
</Section>

newXOutput 378

<Section columns = "stress_xx | stress_yy | stress_zz | stress_xy | stress_yz | stress_xz">
  1 7486.83 -0.0127269 3728.77 4.39811e-31 2.07660e-14 2.11898e-15
  2 7486.83 -0.0127269 3728.77 1.64140e-30 3.06637e-14 7.90816e-15
  3 7486.83 -0.0127269 3728.77 1.64140e-30 7.74998e-14 -3.95408e-14
  4 7486.83 -0.0127269 3728.77 6.12577e-30 1.14438e-13 -1.47568e-13
  5 7486.83 -0.0127269 3728.77 1.17847e-31 2.07660e-14 1.05949e-14
  6 7486.83 -0.0127269 3728.77 4.39811e-31 3.06637e-14 3.95408e-14
  7 7486.83 -0.0127269 3728.77 4.39811e-31 7.74998e-14 -7.90816e-15
  8 7486.83 -0.0127269 3728.77 1.64140e-30 1.14438e-13 -2.95137e-14
</Section>

newXOutput 379

<Section columns = "stress_xx | stress_yy | stress_zz | stress_xy | stress_yz | stress_xz">
  1 7489.26 -0.0127010 3734.23 6.83751e-16 -1.61246e-14 -1.79471e-14
  2 7489.26 -0.0127010 3734.23 1.83211e-16 3.02990e-14 -2.28420e-14
  3 7489.26 -0.0127010 3734.23 2.55179e-15 -1.15615e-14 2.44643e-14
  4 7489.26 -0.0127010 3734.23 6.83751e-16 1.43237e-13 1.03129e-13
  5 7489.26 -0.0127010 3734.23 2.55179e-15 -2.83863e-14 -3.48480e-14
  6 7489.26 -0.0127010 3734.23 6.83751e-16 -1.54621e-14 -8.59171e-14
  7 7489.26 -0.0127010 3734.23 9.52342e-15 -4.38108e-14 -3.86107e-14
  8 7489.26 -0.0127010 3734.23 2.55179e-15 2.28805e-14 -1.32271e-13
</Section>

newXOutput 380

<Section columns = "stress_xx | stress_yy | stress_zz | stress_xy | stress_yz | stress_xz">
  1 7491.67 -0.0126754 3739.68 -3.97781e-15 -2.71088e-14 9.61932e-15
  2 7491.67 -0.0126754 3739.68 -3.97781e-15 -5.43950e-14 -8.10510e-15
  3 7491.67 -0.0126754 3739.68 -6.84743e-15 -5.93375e-14 -8.10510e-15
  4 7491.67 -0.0126754 3739.68 -6.84743e-15 -4.68788e-14 -4.20397e-14
  5 7491.67 -0.0126754 3739.68 -6.84743e-15 -2.73886e-14 1.19423e-15
  6 7491.67 -0.0126754 3739.68 -6.84743e-15 -5.54394e-14 -3.95480e-14
  7 7491.67 -0.0126754 3739.68 -1.37449e-14 -7.38851e-14 -3.95480e-14
  8 7491.67 -0.0126754 3739.68 -1.37449e-14 -1.01171e-13 -1.59386e-13
</Section>

newXOutput 381

<Section columns = "stress_xx | stress_yy | stress_zz | stress_xy | stress_yz | stress_xz">
  1 7494.07 -0.0126498 3745.12 -3.39474e-15 -3.73147e-14 2.09996e-15
  2 7494.07 -0.0126498 3745.12 -3.89120e-15 -4.88990e-14 7.83715e-15
  3 7494.07 -0.0126498 3745.12 -7.29708e-15 -6.73329e-14 -3.91858e-14
  4 7494.07 -0.0126498 3745.12 -9.14990e-15 -6.51429e-14 -1.46243e-13
  5 7494.07 -0.0126498 3745.12 -7.29708e-15 -4.95607e-14 1.04998e-14
  6 7494.07 -0.0126498 3745.12 -9.14990e-15 -9.46017e-14 3.91858e-14
  7 7494.07 -0.0126498 3745.12 -1.61661e-14 -9.95410e-14 -7.83715e-15
  8 7494.07 -0.0126498 3745.12 -2.30809e-14 -1.85345e-13 -2.92486e-14
</Section>

newXOutput 382

<Section columns = "stress_xx | stress_yy | stress_zz | stress_xy | stress_yz | stress_xz">
  1 7496.45 -0.0126243 3750.54 4.51707e-32 9.24350e-15 -2.92262e-14
  2 7496.45 -0.0126243 3750.54 6.44666e-32 -1.06547e-14 -6.53319e-14
  3 7496.45 -0.0126243 3750.54 4.16492e-31 3.11257e-14 -1.84498e-14
  4 7496.45 -0.0126243 3750.54 1.52647e-30 2.31487e-14 -5.71351e-14
  5 7496.45 -0.0126243 3750.54 4.38494e-31 1.73091e-14 -3.76009e-14
  6 7496.45 -0.0126243 3750.54 1.53237e-30 1.94466e-14 -9.65867e-14
  7 7496.45 -0.0126243 3750.54 1.62669e-30 4.77411e-14 -4.97046e-14
  8 7496.45 -0.0126243 3750.54 6.04300e-30 8.51581e-14 -1.73779e-13
</Section>

newXOutput 383

<Section columns = "stress_xx | stress_yy | stress_zz | stress_xy | stress_yz | stress_xz">
  1 7498.82 -0.0125990 3755.95 -1.19936e-31 -1.25745e-14 -2.82349e-14
  2 7498.82 -0.0125990 3755.95 -3.21367e-32 -2.67128e-14 -1.81525e-14
  3 7498.82 -0.0125990 3755.95 -3.21367e-32 1.99741e-14 -1.81525e-14
  4 7498.82 -0.0125990 3755.95 -8.61101e-33 -9.02811e-16 -4.43749e-14
  5 7498.82 -0.0125990 3755.95 -1.19936e-31 -1.25745e-14 -3.65846e-14
  6 7498.82 -0.0125990 3755.95 -3.21367e-32 -2.67128e-14 -4.93138e-14
  7 7498.82 -0.0125990 3755.95 -3.21367e-32 1.99741e-14 -4.93138e-14
  8 7498.82 -0.0125990 3755.95 -8.61101e-33 -9.02811e-16 -1.60670e-13
</Section>

newXOutput 384

<Section columns = "stress_xx | stress_yy | stress_zz | stress_xy | stress_yz | stress_xz">
  1 7501.17 -0.0125737 3761.35 2.71013e-32 5.53295e-16 2.08118e-15
  2 7501.17 -0.0125737 3761.35 1.01143e-31 5.02207e-16 7.76707e-15
  3 7501.17 -0.0125737 3761.35 7.26177e-33 2.87607e-14 -3.88353e-14
  4 7501.17 -0.0125737 3761.35 2.71013e-32 2.61051e-14 -1.44935e-13
  5 7501.17 -0.0125737 3761.35 1.01143e-31 8.32448e-16 1.04059e-14
  6 7501.17 -0.0125737 3761.35 3.77473e-31 1.54402e-15 3.88353e-14
  7 7501.17 -0.0125737 3761.35 2.71013e-32 4.32713e-14 -7.76707e-15
  8 7501.17 -0.0125737 3761.35 1.01143e-31 8.02593e-14 -2.89871e-14
</Section>

newXOutput 385

<Section columns = "stress_xx | stress_yy | stress_zz | stress_xy | stress_yz | stress_xz">
  1 7503.51 -0.0125486 3766.74 -9.04891e-15 -2.16297e-13 -1.76273e-14
  2 7503.51 -0.0125486 3766.74 -9.04891e-15 -1.54559e-13 -2.24350e-14
  3 7503.51 -0.0125486 3766.74 -1.33619e-14 -4.34325e-13 2.40285e-14
  4 7503.51 -0.0125486 3766.74 -1.33619e-14 -3.15381e-13 1.01291e-13
  5 7503.51 -0.0125486 3766.74 -2.42465e-15 -2.16297e-13 -3.42271e-14
  6 7503.51 -0.0125486 3766.74 -2.42465e-15 -1.54559e-13 -8.43863e-14
  7 7503.51 -0.0125486 3766.74 -3.58030e-15 -4.34325e-13 -3.79228e-14
  8 7503.51 -0.0125486 3766.74 -3.58030e-15 -3.15381e-13 -1.29914e-13
</Section>

newXOutput 386

<Section columns = "stress_xx | stress_yy | stress_zz | stress_xy | stress_yz | stress_xz">
  1 7505.84 -0.0125236 3772.12 1.83069e-30 1.22138e-13 -3.62583e-14
  2 7505.84 -0.0125236 3772.12 4.97574e-30 1.43686e-13 -4.88740e-14
  3 7505.84 -0.0125236 3772.12 4.97574e-30 2.13582e-13 -4.88740e-14
  4 7505.84 -0.0125236 3772.12 1.80723e-29 3.09913e-13 -1.59238e-13
  5 7505.84 -0.0125236 3772.12 8.82852e-31 1.13814e-13 -2.79831e-14
  6 7505.84 -0.0125236 3772.12 1.43837e-30 1.12620e-13 -1.79906e-14
  7 7505.84 -0.0125236 3772.12 1.43837e-30 1.82517e-13 -1.79906e-14
  8 7505.84 -0.0125236 3772.12 4.87062e-30 1.93976e-13 -4.39792e-14
</Section>

newXOutput 387

<Section columns = "stress_xx | stress_yy | stress_zz | stress_xy | stress_yz | stress_xz">
  1 7508.15 -0.0124987 3777.48 1.58688e-14 4.23767e-14 2.06265e-15
  2 7508.15 -0.0124987 3777.48 1.58688e-14 -1.72032e-14 7.69790e-15
  3 7508.15 -0.0124987 3777.48 2.88568e-14 2.93652e-14 -3.84895e-14
  4 7508.15 -0.0124987 3777.48 2.88568e-14 -1.80527e-14 -1.43645e-13
  5 7508.15 -0.0124987 3777.48 7.15899e-15 3.82174e-14 1.03132e-14
  6 7508.15 -0.0124987 3777.48 7.15899e-15 -3.27259e-14 3.84895e-14
  7 7508.15 -0.0124987 3777.48 1.85810e-14 1.38424e-14 -7.69790e-15
  8 7508.15 -0.0124987 3777.48 1.85810e-14 -7.59845e-14 -2.87289e-14
</Section>

newXOutput 388

<Section columns = "stress_xx | stress_yy | stress_zz | stress_xy | stress_yz | stress_xz">
  1 7510.44 -0.0124739 3782.84 9.59876e-15 8.79837e-14 -2.87076e-14
  2 7510.44 -0.0124739 3782.84 9.11623e-15 3.83274e-14 -6.41727e-14
  3 7510.44 -0.0124739 3782.84 1.56605e-14 1.59592e-13 -1.81224e-14
  4 7510.44 -0.0124739 3782.84 1.38596e-14 1.14853e-13 -5.61213e-14
  5 7510.44 -0.0124739 3782.84 4.85537e-15 7.99488e-14 -3.69337e-14
  6 7510.44 -0.0124739 3782.84 3.05452e-15 8.34066e-15 -9.48728e-14
  7 7510.44 -0.0124739 3782.84 1.27179e-14 1.43040e-13 -4.88226e-14
  8 7510.44 -0.0124739 3782.84 5.99706e-15 5.30796e-14 -1.70696e-13
</Section>

newXOutput 389

<Section columns = "stress_xx | stress_yy | stress_zz | stress_xy | stress_yz | stress_xz">
  1 7512.72 -0.0124492 3788.18 -5.91303e-32 5.51542e-16 -3.59363e-14
  2 7512.72 -0.0124492 3788.18 -1.58439e-32 5.00615e-16 -4.84399e-14
  3 7512.72 -0.0124492 3788.18 -1.58439e-32 2.86696e-14 -4.84399e-14
  4 7512.72 -0.0124492 3788.18 -4.24536e-33 2.60224e-14 -1.57823e-13
  5 7512.72 -0.0124492 3788.18 -5.91303e-32 8.29810e-16 -2.77346e-14
  6 7512.72 -0.0124492 3788.18 -1.58439e-32 1.53913e-15 -1.78308e-14
  7 7512.72 -0.0124492 3788.18 -1.58439e-32 4.31342e-14 -1.78308e-14
  8 7512.72 -0.0124492 3788.18 -4.24536e-33 8.00050e-14 -4.35886e-14
</Section>

newXOutput 390

<Section columns = "stress_xx | stress_yy | stress_zz | stress_xy | stress_yz | stress_xz">
  1 7514.99 -0.0124247 3793.51 4.03622e-31 1.43487e-14 1.71667e-14
  2 7514.99 -0.0124247 3793.51 1.58931e-30 2.87532e-14 1.16816e-14
  3 7514.99 -0.0124247 3793.51 1.40416e-30 7.52331e-14 -2.44221e-14
  4 7514.99 -0.0124247 3793.51 5.90399e-30 1.13118e-13 -1.38693e-13
  5 7514.99 -0.0124247 3793.51 -5.54013e-32 1.43487e-14 3.29737e-14
  6 7514.99 -0.0124247 3793.51 3.82030e-31 2.87532e-14 4.42445e-14
  7 7514.99 -0.0124247 3793.51 -3.08939e-31 7.52331e-14 3.45705e-14
  8 7514.99 -0.0124247 3793.51 1.39838e-30 1.13118e-13 -1.71667e-14
</Section>

newXOutput 391

<Section columns = "stress_xx | stress_yy | stress_zz | stress_xy | stress_yz | stress_xz">
  1 7517.25 -0.0124002 3798.83 9.68980e-15 -4.80335e-14 -1.73158e-14
  2 7517.25 -0.0124002 3798.83 9.21306e-15 -8.94742e-14 -2.20385e-14
  3 7517.25 -0.0124002 3798.83 2.62027e-14 -8.94742e-14 2.36038e-14
  4 7517.25 -0.0124002 3798.83 2.44235e-14 -1.48954e-13 9.95013e-14
  5 7517.25 -0.0124002 3798.83 4.85231e-15 -5.21823e-14 -3.36222e-14
  6 7517.25 -0.0124002 3798.83 3.07311e-15 -1.04958e-13 -8.28950e-14
  7 7517.25 -0.0124002 3798.83 1.54403e-14 -1.04958e-13 -3.72526e-14
  8 7517.25 -0.0124002 3798.83 8.80020e-15 -2.06739e-13 -1.27618e-13
</Section>

newXOutput 392

<Section columns = "stress_xx | stress_yy | stress_zz | stress_xy | stress_yz | stress_xz">
  1 7519.49 -0.0123758 3804.13 1.72754e-31 2.68335e-14 -2.74893e-14
  2 7519.49 -0.0123758 3804.13 4.41321e-31 3.20670e-14 -1.76731e-14
  3 7519.49 -0.0123758 3804.13 4.41321e-31 7.84881e-14 -1.76731e-14
  4 7519.49 -0.0123758 3804.13 1.59253e-30 1.13873e-13 -4.32030e-14
  5 7519.49 -0.0123758 3804.13 4.84306e-31 2.68335e-14 -3.56184e-14
  6 7519.49 -0.0123758 3804.13 1.60405e-30 3.20670e-14 -4.80115e-14
  7 7519.49 -0.0123758 3804.13 1.60405e-30 7.84881e-14 -4.80115e-14
  8 7519.49 -0.0123758 3804.13 5.93188e-30 1.13873e-13 -1.56427e-13
</Section>

newXOutput 393

<Section columns = "stress_xx | stress_yy | stress_zz | stress_xy | stress_yz | stress_xz">
  1 7521.71 -0.0123516 3809.43 6.55527e-15 -4.35245e-14 1.70150e-14
  2 7521.71 -0.0123516 3809.43 6.08235e-15 -7.27598e-14 1.15784e-14
  3 7521.71 -0.0123516 3809.43 1.45842e-14 -7.76617e-14 -2.42064e-14
  4 7521.71 -0.0123516 3809.43 1.28192e-14 -1.05103e-13 -1.37468e-13
  5 7521.71 -0.0123516 3809.43 3.99437e-15 -3.55150e-14 3.26824e-14
  6 7521.71 -0.0123516 3809.43 2.22940e-15 -4.28678e-14 4.38536e-14
  7 7521.71 -0.0123516 3809.43 1.22597e-14 -6.11619e-14 3.42651e-14
  8 7521.71 -0.0123516 3809.43 5.67279e-15 -4.35245e-14 -1.70150e-14
</Section>

newXOutput 394

<Section columns = "stress_xx | stress_yy | stress_zz | stress_xy | stress_yz | stress_xz">
  1 7523.92 -0.0123275 3814.71 1.13508e-31 2.05560e-14 -1.60175e-14
  2 7523.92 -0.0123275 3814.71 4.23617e-31 3.03536e-14 -5.97783e-14
  3 7523.92 -0.0123275 3814.71 4.23617e-31 7.67162e-14 -1.45386e-14
  4 7523.92 -0.0123275 3814.71 1.58096e-30 1.13281e-13 -5.42587e-14
  5 7523.92 -0.0123275 3814.71 4.23617e-31 2.05560e-14 -2.40988e-14
  6 7523.92 -0.0123275 3814.71 1.58096e-30 3.03536e-14 -8.99381e-14
  7 7523.92 -0.0123275 3814.71 1.58096e-30 7.67162e-14 -4.46984e-14
  8 7523.92 -0.0123275 3814.71 5.90022e-30 1.13281e-13 -1.66817e-13
</Section>

newXOutput 395

<Section columns = "stress_xx | stress_yy | stress_zz | stress_xy | stress_yz | stress_xz">
  1 7526.12 -0.0123034 3819.99 5.49337e-32 5.49455e-16 -2.72471e-14
  2 7526.12 -0.0123034 3819.99 4.07012e-31 4.98721e-16 -1.75174e-14
  3 7526.12 -0.0123034 3819.99 4.07012e-31 2.85611e-14 -1.75174e-14
  4 7526.12 -0.0123034 3819.99 1.57312e-30 2.59239e-14 -4.28224e-14
  5 7526.12 -0.0123034 3819.99 3.64325e-31 8.26670e-16 -3.53046e-14
  6 7526.12 -0.0123034 3819.99 1.56168e-30 1.53330e-15 -4.75885e-14
  7 7526.12 -0.0123034 3819.99 1.56168e-30 4.29710e-14 -4.75885e-14
  8 7526.12 -0.0123034 3819.99 5.88239e-30 7.97023e-14 -1.55049e-13
</Section>

newXOutput 396

<Section columns = "stress_xx | stress_yy | stress_zz | stress_xy | stress_yz | stress_xz">
  1 7528.31 -0.0122795 3825.25 -1.42042e-14 -1.28264e-13 1.68653e-14
  2 7528.31 -0.0122795 3825.25 -1.32697e-14 1.35982e-14 1.14766e-14
  3 7528.31 -0.0122795 3825.25 -2.87797e-14 -2.64227e-13 -2.39934e-14
  4 7528.31 -0.0122795 3825.25 -2.52919e-14 2.80126e-14 -1.36258e-13
  5 7528.31 -0.0122795 3825.25 -5.16679e-18 -1.28264e-13 3.23949e-14
  6 7528.31 -0.0122795 3825.25 3.48266e-15 1.35982e-14 4.34678e-14
  7 7528.31 -0.0122795 3825.25 -2.58820e-15 -2.64227e-13 3.39637e-14
  8 7528.31 -0.0122795 3825.25 1.04285e-14 2.80126e-14 -1.68653e-14
</Section>

newXOutput 397

<Section columns = "stress_xx | stress_yy | stress_zz | stress_xy | stress_yz | stress_xz">
  1 7530.48 -0.0122557 3830.50 1.31893e-14 1.04215e-13 -1.29448e-14
  2 7530.48 -0.0122557 3830.50 1.31893e-14 7.58606e-14 -4.83108e-14
  3 7530.48 -0.0122557 3830.50 2.71703e-14 2.14686e-13 -3.46856e-15
  4 7530.48 -0.0122557 3830.50 2.71703e-14 1.56275e-13 -1.29448e-14
  5 7530.48 -0.0122557 3830.50 8.93205e-15 1.04215e-13 -1.29448e-14
  6 7530.48 -0.0122557 3830.50 8.93205e-15 7.58606e-14 -4.83108e-14
  7 7530.48 -0.0122557 3830.50 1.84002e-14 2.14686e-13 -3.46856e-15
  8 7530.48 -0.0122557 3830.50 1.84002e-14 1.56275e-13 -1.29448e-14
</Section>

newXOutput 398

<Section columns = "stress_xx | stress_yy | stress_zz | stress_xy | stress_yz | stress_xz">
  1 7532.64 -0.0122320 3835.74 9.22150e-15 9.02513e-14 -3.49949e-14
  2 7532.64 -0.0122320 3835.74 8.75793e-15 4.86151e-14 -4.71709e-14
  3 7532.64 -0.0122320 3835.74 1.50450e-14 1.59344e-13 -4.71709e-14
  4 7532.64 -0.0122320 3835.74 1.33149e-14 1.16951e-13 -1.53689e-13
  5 7532.64 -0.0122320 3835.74 4.66454e-15 8.99746e-14 -2.70080e-14
  6 7532.64 -0.0122320 3835.74 2.93446e-15 4.75824e-14 -1.73637e-14
  7 7532.64 -0.0122320 3835.74 1.22181e-14 1.44961e-13 -1.73637e-14
  8 7532.64 -0.0122320 3835.74 5.76136e-15 6.32745e-14 -4.24467e-14
</Section>

newXOutput 399

<Section columns = "stress_xx | stress_yy | stress_zz | stress_xy | stress_yz | stress_xz">
  1 7534.79 -0.0122084 3840.97 6.40017e-15 8.45187e-14 1.67175e-14
  2 7534.79 -0.0122084 3840.97 5.93844e-15 4.74143e-14 1.13760e-14
  3 7534.79 -0.0122084 3840.97 1.42391e-14 1.86065e-13 -2.37832e-14
  4 7534.79 -0.0122084 3840.97 1.25159e-14 1.42290e-13 -1.35064e-13
  5 7534.79 -0.0122084 3840.97 3.89986e-15 8.45187e-14 3.21110e-14
  6 7534.79 -0.0122084 3840.97 2.17665e-15 4.74143e-14 4.30869e-14
  7 7534.79 -0.0122084 3840.97 1.19697e-14 1.86065e-13 3.36661e-14
  8 7534.79 -0.0122084 3840.97 5.53856e-15 1.42290e-13 -1.67175e-14
</Section>

newXOutput 400

<Section columns = "stress_xx | stress_yy | stress_zz | stress_xy | stress_yz | stress_xz">
  1 7536.92 -0.0121849 3846.18 2.04233e-15 -1.05045e-13 -1.57379e-14
  2 7536.92 -0.0121849 3846.18 2.50223e-15 -1.93471e-13 -5.87346e-14
  3 7536.92 -0.0121849 3846.18 7.60682e-16 -1.52164e-13 -1.42847e-14
  4 7536.92 -0.0121849 3846.18 2.47706e-15 -2.74678e-13 -5.33113e-14
  5 7536.92 -0.0121849 3846.18 -9.53760e-15 -1.05322e-13 -2.36781e-14
  6 7536.92 -0.0121849 3846.18 -7.82122e-15 -1.94503e-13 -8.83678e-14
  7 7536.92 -0.0121849 3846.18 -1.95962e-14 -1.66528e-13 -4.39179e-14
  8 7536.92 -0.0121849 3846.18 -1.31906e-14 -3.28287e-13 -1.63904e-13
</Section>

newXOutput 401

<Section columns = "stress_xx | stress_yy | stress_zz | stress_xy | stress_yz | stress_xz">
  1 7539.04 -0.0121615 3851.39 1.11096e-15 -7.76442e-14 -2.27519e-14
  2 7539.04 -0.0121615 3851.39 6.52880e-16 -1.59025e-13 -4.35602e-14
  3 7539.04 -0.0121615 3851.39 2.09713e-15 -1.12866e-13 -4.35602e-14
  4 7539.04 -0.0121615 3851.39 3.87536e-16 -3.06240e-13 -1.51489e-13
  5 7539.04 -0.0121615 3851.39 -8.16043e-15 -7.35215e-14 -1.48349e-14
  6 7539.04 -0.0121615 3851.39 -9.87002e-15 -1.43639e-13 -1.40134e-14
  7 7539.04 -0.0121615 3851.39 -1.32376e-14 -9.74800e-14 -1.40134e-14
  8 7539.04 -0.0121615 3851.39 -1.96178e-14 -2.48817e-13 -4.12187e-14
</Section>

newXOutput 402

<Section columns = "stress_xx | stress_yy | stress_zz | stress_xy | stress_yz | stress_xz">
  1 7541.15 -0.0121382 3856.58 1.35040e-14 -5.38924e-15 -1.90265e-15
  2 7541.15 -0.0121382 3856.58 1.30477e-14 -1.38000e-16 -9.89010e-14
  3 7541.15 -0.0121382 3856.58 2.38407e-14 4.11179e-14 -1.18030e-15
  4 7541.15 -0.0121382 3856.58 2.21379e-14 7.89066e-14 -6.13528e-14
  5 7541.15 -0.0121382 3856.58 1.36237e-14 -5.66524e-15 -2.43144e-15
  6 7541.15 -0.0121382 3856.58 1.19208e-14 -1.16804e-15 -1.26388e-13
  7 7541.15 -0.0121382 3856.58 2.60319e-14 2.67712e-14 -3.15379e-15
  8 7541.15 -0.0121382 3856.58 1.96768e-14 2.53642e-14 -1.63936e-13
</Section>

newXOutput 403

<Section columns = "stress_xx | stress_yy | stress_zz | stress_xy | stress_yz | stress_xz">
  1 7543.25 -0.0121150 3861.77 -6.41320e-15 4.99380e-14 -1.04505e-15
  2 7543.25 -0.0121150 3861.77 -6.41320e-15 7.57505e-14 -5.43224e-14
  3 7543.25 -0.0121150 3861.77 -1.18952e-14 1.03672e-13 -9.48554e-16
  4 7543.25 -0.0121150 3861.77 -1.18952e-14 1.97570e-13 -4.93066e-14
  5 7543.25 -0.0121150 3861.77 -4.26260e-15 4.19787e-14 -1.57231e-15
  6 7543.25 -0.0121150 3861.77 -4.26260e-15 4.60458e-14 -8.17296e-14
  7 7543.25 -0.0121150 3861.77 -3.86902e-15 8.72759e-14 -2.91630e-15
  8 7543.25 -0.0121150 3861.77 -3.86902e-15 1.36378e-13 -1.51592e-13
</Section>

newXOutput 404

<Section columns = "stress_xx | stress_yy | stress_zz | stress_xy | stress_yz | stress_xz">
  1 7545.33 -0.0120919 3866.94 -1.18898e-14 -1.94186e-13 1.31431e-16
  2 7545.33 -0.0120919 3866.94 -1.14674e-14 -1.22794e-13 6.83188e-15
  3 7545.33 -0.0120919 3866.94 -2.34592e-14 -3.99229e-13 -2.45254e-15
  4 7545.33 -0.0120919 3866.94 -2.33461e-14 -2.11463e-13 -1.27485e-13
  5 7545.33 -0.0120919 3866.94 -5.18449e-15 -1.94186e-13 6.57155e-16
  6 7545.33 -0.0120919 3866.94 -3.60821e-15 -1.22794e-13 3.41594e-14
  7 7545.33 -0.0120919 3866.94 -6.82142e-15 -3.99229e-13 -4.90507e-16
  8 7545.33 -0.0120919 3866.94 -6.39906e-15 -2.11463e-13 -2.54969e-14
</Section>

newXOutput 405

<Section columns = "stress_xx | stress_yy | stress_zz | stress_xy | stress_yz | stress_xz">
  1 7547.40 -0.0120689 3872.10 -4.37557e-15 -3.32611e-14 -1.88611e-15
  2 7547.40 -0.0120689 3872.10 -4.37557e-15 -7.96306e-14 -9.80412e-14
  3 7547.40 -0.0120689 3872.10 -8.92629e-15 -5.66088e-14 -1.17004e-15
  4 7547.40 -0.0120689 3872.10 -8.92629e-15 -1.19593e-13 -6.08194e-14
  5 7547.40 -0.0120689 3872.10 -8.92629e-15 -3.32611e-14 -2.41030e-15
  6 7547.40 -0.0120689 3872.10 -8.92629e-15 -7.96306e-14 -1.25289e-13
  7 7547.40 -0.0120689 3872.10 -1.38414e-14 -5.66088e-14 -3.12637e-15
  8 7547.40 -0.0120689 3872.10 -1.38414e-14 -1.19593e-13 -1.62511e-13
</Section>

newXOutput 406

<Section columns = "stress_xx | stress_yy | stress_zz | stress_xy | stress_yz | stress_xz">
  1 7549.46 -0.0120460 3877.25 -5.03559e-15 -5.69680e-14 -1.03598e-15
  2 7549.46 -0.0120460 3877.25 -5.03559e-15 -1.03735e-13 -5.38508e-14
  3 7549.46 -0.0120460 3877.25 -9.07271e-15 -5.77202e-14 -9.40319e-16
  4 7549.46 -0.0120460 3877.25 -9.07271e-15 -1.06542e-13 -4.88785e-14
  5 7549.46 -0.0120460 3877.25 -9.07271e-15 -5.28581e-14 -1.55865e-15
  6 7549.46 -0.0120460 3877.25 -9.07271e-15 -8.83968e-14 -8.10201e-14
  7 7549.46 -0.0120460 3877.25 -1.38357e-14 -4.23819e-14 -2.89098e-15
  8 7549.46 -0.0120460 3877.25 -1.38357e-14 -4.92989e-14 -1.50276e-13
</Section>

newXOutput 407

<Section columns = "stress_xx | stress_yy | stress_zz | stress_xy | stress_yz | stress_xz">
  1 7551.50 -0.0120232 3882.39 1.63751e-16 1.01337e-13 1.94502e-15
  2 7551.50 -0.0120232 3882.39 6.11128e-16 9.00649e-14 7.25890e-15
  3 7551.50 -0.0120232 3882.39 6.11128e-16 2.00171e-13 -3.62945e-14
  4 7551.50 -0.0120232 3882.39 2.28076e-15 1.91943e-13 -1.35453e-13
  5 7551.50 -0.0120232 3882.39 6.11128e-16 1.13383e-13 9.72509e-15
  6 7551.50 -0.0120232 3882.39 2.28076e-15 1.35024e-13 3.62945e-14
  7 7551.50 -0.0120232 3882.39 2.28076e-15 2.31856e-13 -7.25890e-15
  8 7551.50 -0.0120232 3882.39 8.51192e-15 3.10191e-13 -2.70906e-14
</Section>

newXOutput 408

<Section columns = "stress_xx | stress_yy | stress_zz | stress_xy | stress_yz | stress_xz">
  1 7553.54 -0.0120005 3887.52 1.33518e-31 -1.42243e-14 4.05184e-14
  2 7553.54 -0.0120005 3887.52 2.13411e-31 -8.66737e-15 6.10027e-14
  3 7553.54 -0.0120005 3887.52 1.24594e-31 -2.67902e-14 -1.66751e-14
  4 7553.54 -0.0120005 3887.52 8.09820e-32 -8.47956e-15 -1.18196e-13
  5 7553.54 -0.0120005 3887.52 3.43663e-31 -1.80541e-14 5.55139e-14
  6 7553.54 -0.0120005 3887.52 7.55028e-31 -2.29604e-14 9.18937e-14
  7 7553.54 -0.0120005 3887.52 4.23556e-31 -2.78164e-14 3.92889e-14
  8 7553.54 -0.0120005 3887.52 2.91127e-31 -1.23094e-14 -2.90909e-15
</Section>

newXOutput 409

<Section columns = "stress_xx | stress_yy | stress_zz | stress_xy | stress_yz | stress_xz">
  1 7555.56 -0.0119779 3892.63 1.62473e-16 1.05892e-14 -1.02702e-15
  2 7555.56 -0.0119779 3892.63 6.06358e-16 -4.87137e-15 -5.33851e-14
  3 7555.56 -0.0119779 3892.63 6.06358e-16 3.62046e-14 -9.32188e-16
  4 7555.56 -0.0119779 3892.63 2.26296e-15 4.36718e-14 -4.84558e-14
  5 7555.56 -0.0119779 3892.63 6.06358e-16 2.26210e-14 -1.54518e-15
  6 7555.56 -0.0119779 3892.63 2.26296e-15 4.00320e-14 -8.03194e-14
  7 7555.56 -0.0119779 3892.63 2.26296e-15 6.78495e-14 -2.86598e-15
  8 7555.56 -0.0119779 3892.63 8.44548e-15 1.61772e-13 -1.48976e-13
</Section>

newXOutput 410

<Section columns = "stress_xx | stress_yy | stress_zz | stress_xy | stress_yz | stress_xz">
  1 7557.57 -0.0119554 3897.74 1.20778e-31 -1.23627e-14 1.92822e-15
  2 7557.57 -0.0119554 3897.74 4.50751e-31 -2.62628e-14 7.19621e-15
  3 7557.57 -0.0119554 3897.74 3.23624e-32 1.96376e-14 -3.59811e-14
  4 7557.57 -0.0119554 3897.74 1.20778e-31 -8.87602e-16 -1.34283e-13
  5 7557.57 -0.0119554 3897.74 1.20778e-31 -1.23627e-14 9.64110e-15
  6 7557.57 -0.0119554 3897.74 4.50751e-31 -2.62628e-14 3.59811e-14
  7 7557.57 -0.0119554 3897.74 3.23624e-32 1.96376e-14 -7.19621e-15
  8 7557.57 -0.0119554 3897.74 1.20778e-31 -8.87602e-16 -2.68566e-14
</Section>

newXOutput 411

<Section columns = "stress_xx | stress_yy | stress_zz | stress_xy | stress_yz | stress_xz">
  1 7559.56 -0.0119330 3902.84 5.40066e-31 -8.60098e-15 4.01690e-14
  2 7559.56 -0.0119330 3902.84 1.73260e-30 1.22362e-14 6.04765e-14
  3 7559.56 -0.0119330 3902.84 1.64438e-30 -5.85283e-15 -1.65312e-14
  4 7559.56 -0.0119330 3902.84 5.75551e-30 6.94890e-14 -1.17177e-13
  5 7559.56 -0.0119330 3902.84 4.50512e-31 -1.65207e-14 5.50351e-14
  6 7559.56 -0.0119330 3902.84 1.15737e-30 -1.73208e-14 9.11012e-14
  7 7559.56 -0.0119330 3902.84 8.28140e-31 -2.21677e-14 3.89500e-14
  8 7559.56 -0.0119330 3902.84 1.80979e-30 8.60098e-15 -2.88400e-15
</Section>

newXOutput 412

<Section columns = "stress_xx | stress_yy | stress_zz | stress_xy | stress_yz | stress_xz">
  1 7561.55 -0.0119107 3907.92 1.60582e-16 -9.34992e-15 -1.01817e-15
  2 7561.55 -0.0119107 3907.92 5.99300e-16 -1.50436e-14 -5.29253e-14
  3 7561.55 -0.0119107 3907.92 5.99300e-16 3.07998e-14 -9.24158e-16
  4 7561.55 -0.0119107 3907.92 2.23662e-15 4.08623e-14 -4.80384e-14
  5 7561.55 -0.0119107 3907.92 5.99300e-16 -1.16078e-15 -1.53187e-15
  6 7561.55 -0.0119107 3907.92 2.23662e-15 1.55187e-14 -7.96276e-14
  7 7561.55 -0.0119107 3907.92 2.23662e-15 6.13621e-14 -2.84130e-15
  8 7561.55 -0.0119107 3907.92 8.34717e-15 1.54922e-13 -1.47693e-13
</Section>

newXOutput 413

<Section columns = "stress_xx | stress_yy | stress_zz | stress_xy | stress_yz | stress_xz">
  1 7563.52 -0.0118885 3913.00 -5.90883e-15 -3.69555e-14 1.91163e-15
  2 7563.52 -0.0118885 3913.00 -5.47182e-15 6.21096e-14 7.13431e-15
  3 7563.52 -0.0118885 3913.00 -1.30857e-14 -7.53353e-14 -3.56715e-14
  4 7563.52 -0.0118885 3913.00 -1.14547e-14 1.69212e-13 -1.33128e-13
  5 7563.52 -0.0118885 3913.00 4.03937e-15 -3.69555e-14 9.55816e-15
  6 7563.52 -0.0118885 3913.00 5.67033e-15 6.21096e-14 3.56715e-14
  7 7563.52 -0.0118885 3913.00 9.00295e-15 -7.53353e-14 -7.13431e-15
  8 7563.52 -0.0118885 3913.00 1.50898e-14 1.69212e-13 -2.66256e-14
</Section>

newXOutput 414

<Section columns = "stress_xx | stress_yy | stress_zz | stress_xy | stress_yz | stress_xz">
  1 7565.48 -0.0118664 3918.06 8.81547e-15 -8.34282e-15 -2.92123e-14
  2 7565.48 -0.0118664 3918.06 8.81547e-15 -9.67486e-14 -1.02861e-13
  3 7565.48 -0.0118664 3918.06 1.94208e-14 -2.32308e-14 1.61681e-14
  4 7565.48 -0.0118664 3918.06 1.94208e-14 -1.83584e-13 -5.46215e-14
  5 7565.48 -0.0118664 3918.06 -7.48557e-17 -8.06888e-15 -4.39508e-14
  6 7565.48 -0.0118664 3918.06 -7.48557e-17 -9.57262e-14 -1.33223e-13
  7 7565.48 -0.0118664 3918.06 4.55080e-15 -8.99098e-15 -3.88366e-14
  8 7565.48 -0.0118664 3918.06 4.55080e-15 -1.30440e-13 -1.67932e-13
</Section>

newXOutput 415

<Section columns = "stress_xx | stress_yy | stress_zz | stress_xy | stress_yz | stress_xz">
  1 7567.43 -0.0118443 3923.11 1.95810e-15 1.23919e-13 -1.00943e-15
  2 7567.43 -0.0118443 3923.11 1.95810e-15 6.29077e-14 -5.24712e-14
  3 7567.43 -0.0118443 3923.11 5.20542e-15 2.91699e-13 -9.16229e-16
  4 7567.43 -0.0118443 3923.11 5.20542e-15 1.89017e-13 -4.76263e-14
  5 7567.43 -0.0118443 3923.11 -4.50465e-15 1.28006e-13 -1.51872e-15
  6 7567.43 -0.0118443 3923.11 -4.50465e-15 7.81605e-14 -7.89444e-14
  7 7567.43 -0.0118443 3923.11 -8.96574e-15 3.06952e-13 -2.81692e-15
  8 7567.43 -0.0118443 3923.11 -8.96574e-15 2.45941e-13 -1.46426e-13
</Section>

newXOutput 416

<Section columns = "stress_xx | stress_yy | stress_zz | stress_xy | stress_yz | stress_xz">
  1 7569.37 -0.0118224 3928.16 5.90065e-16 -1.99384e-14 1.89525e-15
  2 7569.37 -0.0118224 3928.16 1.58108e-16 -8.87971e-15 7.07317e-15
  3 7569.37 -0.0118224 3928.16 2.20215e-15 -8.87971e-15 -3.53659e-14
  4 7569.37 -0.0118224 3928.16 5.90065e-16 6.36261e-14 -1.31987e-13
  5 7569.37 -0.0118224 3928.16 2.20215e-15 -2.40229e-14 9.47626e-15
  6 7569.37 -0.0118224 3928.16 5.90065e-16 -2.41230e-14 3.53659e-14
  7 7569.37 -0.0118224 3928.16 8.21855e-15 -2.41230e-14 -7.07317e-15
  8 7569.37 -0.0118224 3928.16 2.20215e-15 6.73735e-15 -2.63974e-14
</Section>

newXOutput 417

<Section columns = "stress_xx | stress_yy | stress_zz | stress_xy | stress_yz | stress_xz">
  1 7571.30 -0.0118006 3933.19 9.37646e-32 -6.59647e-15 -2.89623e-14
  2 7571.30 -0.0118006 3933.19 2.51242e-32 -1.76752e-15 -1.01981e-13
  3 7571.30 -0.0118006 3933.19 3.49934e-31 -2.46183e-14 1.60297e-14
  4 7571.30 -0.0118006 3933.19 9.37646e-32 -6.59647e-15 -5.41541e-14
  5 7571.30 -0.0118006 3933.19 2.51242e-32 -6.59647e-15 -4.35746e-14
  6 7571.30 -0.0118006 3933.19 6.73200e-33 -1.76752e-15 -1.32083e-13
  7 7571.30 -0.0118006 3933.19 9.37646e-32 -2.46183e-14 -3.85042e-14
  8 7571.30 -0.0118006 3933.19 2.51242e-32 -6.59647e-15 -1.66495e-13
</Section>

newXOutput 418

<Section columns = "stress_xx | stress_yy | stress_zz | stress_xy | stress_yz | stress_xz">
  1 7573.22 -0.0117788 3938.21 2.76691e-32 -1.41363e-14 -1.00081e-15
  2 7573.22 -0.0117788 3938.21 -7.94240e-32 -8.61378e-15 -5.20227e-14
  3 7573.22 -0.0117788 3938.21 9.42518e-32 -2.66245e-14 -9.08397e-16
  4 7573.22 -0.0117788 3938.21 1.98655e-33 -8.42714e-15 -4.72192e-14
  5 7573.22 -0.0117788 3938.21 2.76691e-32 -1.79424e-14 -1.50574e-15
  6 7573.22 -0.0117788 3938.21 -3.16670e-31 -2.28184e-14 -7.82696e-14
  7 7573.22 -0.0117788 3938.21 3.31497e-31 -2.76444e-14 -2.79284e-15
  8 7573.22 -0.0117788 3938.21 1.98655e-33 -1.22333e-14 -1.45174e-13
</Section>

newXOutput 419

<Section columns = "stress_xx | stress_yy | stress_zz | stress_xy | stress_yz | stress_xz">
  1 7575.12 -0.0117572 3943.22 4.26113e-15 3.95665e-14 1.87907e-15
  2 7575.12 -0.0117572 3943.22 5.11510e-15 -3.18590e-14 7.01280e-15
  3 7575.12 -0.0117572 3943.22 1.38327e-14 1.23076e-13 -3.50640e-14
  4 7575.12 -0.0117572 3943.22 1.70198e-14 -6.31353e-14 -1.30861e-13
  5 7575.12 -0.0117572 3943.22 -5.28952e-15 4.33703e-14 9.39537e-15
  6 7575.12 -0.0117572 3943.22 -2.10248e-15 -1.76632e-14 3.50640e-14
  7 7575.12 -0.0117572 3943.22 -1.20152e-14 1.24096e-13 -7.01280e-15
  8 7575.12 -0.0117572 3943.22 -1.21047e-16 -5.93315e-14 -2.61721e-14
</Section>

newXOutput 420

<Section columns = "stress_xx | stress_yy | stress_zz | stress_xy | stress_yz | stress_xz">
  1 7577.02 -0.0117356 3948.22 8.10258e-15 -5.29764e-15 1.22375e-14
  2 7577.02 -0.0117356 3948.22 7.67724e-15 6.99353e-14 5.17268e-14
  3 7577.02 -0.0117356 3948.22 1.64312e-14 -2.61190e-14 9.03231e-16
  4 7577.02 -0.0117356 3948.22 1.48438e-14 1.63593e-13 -1.09635e-13
  5 7577.02 -0.0117356 3948.22 1.64312e-14 -5.57057e-15 1.27395e-14
  6 7577.02 -0.0117356 3948.22 1.48438e-14 6.89167e-14 7.78244e-14
  7 7577.02 -0.0117356 3948.22 3.28771e-14 -4.03061e-14 2.77696e-15
  8 7577.02 -0.0117356 3948.22 2.69529e-14 1.10646e-13 -1.22375e-14
</Section>

newXOutput 421

<Section columns = "stress_xx | stress_yy | stress_zz | stress_xy | stress_yz | stress_xz">
  1 7578.90 -0.0117142 3953.21 -5.40026e-16 -1.42760e-13 1.98014e-14
  2 7578.90 -0.0117142 3953.21 -1.44699e-16 -1.36230e-13 -4.60081e-14
  3 7578.90 -0.0117142 3953.21 -1.44699e-16 -2.72997e-13 3.76674e-14
  4 7578.90 -0.0117142 3953.21 -3.87721e-17 -2.01919e-13 -3.64829e-14
  5 7578.90 -0.0117142 3953.21 -2.01540e-15 -1.46832e-13 1.23278e-14
  6 7578.90 -0.0117142 3953.21 -5.40026e-16 -1.51426e-13 -7.39000e-14
  7 7578.90 -0.0117142 3953.21 -5.40026e-16 -2.88193e-13 9.77556e-15
  8 7578.90 -0.0117142 3953.21 -1.44699e-16 -2.58632e-13 -1.40577e-13
</Section>

newXOutput 422

<Section columns = "stress_xx | stress_yy | stress_zz | stress_xy | stress_yz | stress_xz">
  1 7580.77 -0.0116928 3958.19 5.85062e-15 -4.88807e-14 1.86309e-15
  2 7580.77 -0.0116928 3958.19 5.42854e-15 -7.31007e-14 6.95316e-15
  3 7580.77 -0.0116928 3958.19 1.30165e-14 -7.79148e-14 -3.47658e-14
  4 7580.77 -0.0116928 3958.19 1.14412e-14 -1.03661e-13 -1.29748e-13
  5 7580.77 -0.0116928 3958.19 3.56500e-15 -4.10146e-14 9.31547e-15
  6 7580.77 -0.0116928 3958.19 1.98976e-15 -4.37441e-14 3.47658e-14
  7 7580.77 -0.0116928 3958.19 1.09419e-14 -6.17105e-14 -6.95316e-15
  8 7580.77 -0.0116928 3958.19 5.06300e-15 -4.31855e-14 -2.59496e-14
</Section>

newXOutput 423

<Section columns = "stress_xx | stress_yy | stress_zz | stress_xy | stress_yz | stress_xz">
  1 7582.63 -0.0116715 3963.16 5.40777e-15 -1.87677e-14 1.21335e-14
  2 7582.63 -0.0116715 3963.16 5.82824e-15 -4.57506e-14 5.12875e-14
  3 7582.63 -0.0116715 3963.16 1.13975e-14 -5.05617e-14 8.95560e-16
  4 7582.63 -0.0116715 3963.16 1.29667e-14 -2.44594e-14 -1.08704e-13
  5 7582.63 -0.0116715 3963.16 1.98214e-15 -1.49733e-14 1.26313e-14
  6 7582.63 -0.0116715 3963.16 3.55136e-15 -3.15897e-14 7.71635e-14
  7 7582.63 -0.0116715 3963.16 5.04363e-15 -4.95450e-14 2.75337e-15
  8 7582.63 -0.0116715 3963.16 1.09000e-14 -2.06649e-14 -1.21335e-14
</Section>

newXOutput 424

<Section columns = "stress_xx | stress_yy | stress_zz | stress_xy | stress_yz | stress_xz">
  1 7584.48 -0.0116503 3968.12 1.53315e-16 -1.22246e-14 1.69212e-14
  2 7584.48 -0.0116503 3968.12 5.72180e-16 2.11105e-14 -5.57404e-14
  3 7584.48 -0.0116503 3968.12 5.72180e-16 -2.43945e-14 2.72254e-14
  4 7584.48 -0.0116503 3968.12 2.13540e-15 8.44734e-14 -7.39512e-14
  5 7584.48 -0.0116503 3968.12 5.72180e-16 -1.22246e-14 2.10075e-15
  6 7584.48 -0.0116503 3968.12 2.13540e-15 2.11105e-14 -1.11051e-13
  7 7584.48 -0.0116503 3968.12 2.13540e-15 -2.43945e-14 -2.80852e-14
  8 7584.48 -0.0116503 3968.12 7.96944e-15 8.44734e-14 -2.80373e-13
</Section>

newXOutput 425

<Section columns = "stress_xx | stress_yy | stress_zz | stress_xy | stress_yz | stress_xz">
  1 7586.32 -0.0116292 3973.07 -2.05521e-14 1.91844e-14 1.55121e-14
  2 7586.32 -0.0116292 3973.07 -2.05521e-14 6.42800e-15 1.05557e-14
  3 7586.32 -0.0116292 3973.07 -4.57202e-14 4.70998e-14 -2.20683e-14
  4 7586.32 -0.0116292 3973.07 -4.57202e-14 7.95483e-14 -1.25325e-13
  5 7586.32 -0.0116292 3973.07 -2.00254e-14 1.89123e-14 2.97956e-14
  6 7586.32 -0.0116292 3973.07 -2.00254e-14 5.41254e-15 3.99801e-14
  7 7586.32 -0.0116292 3973.07 -4.21591e-14 3.29563e-14 3.12385e-14
  8 7586.32 -0.0116292 3973.07 -4.21591e-14 2.67639e-14 -1.55121e-14
</Section>

newXOutput 426

<Section columns = "stress_xx | stress_yy | stress_zz | stress_xy | stress_yz | stress_xz">
  1 7588.15 -0.0116082 3978.01 -9.18268e-15 -3.24846e-15 -2.82307e-14
  2 7588.15 -0.0116082 3978.01 -9.18268e-15 -1.36457e-14 -9.94046e-14
  3 7588.15 -0.0116082 3978.01 -1.65895e-14 2.70012e-14 1.56247e-14
  4 7588.15 -0.0116082 3978.01 -1.65895e-14 2.16417e-14 -5.27861e-14
  5 7588.15 -0.0116082 3978.01 -9.60855e-15 4.59832e-15 -4.24739e-14
  6 7588.15 -0.0116082 3978.01 -9.60855e-15 1.56389e-14 -1.28746e-13
  7 7588.15 -0.0116082 3978.01 -1.50002e-14 4.31657e-14 -3.75315e-14
  8 7588.15 -0.0116082 3978.01 -1.50002e-14 8.19687e-14 -1.62289e-13
</Section>

newXOutput 427

<Section columns = "stress_xx | stress_yy | stress_zz | stress_xy | stress_yz | stress_xz">
  1 7589.97 -0.0115872 3982.94 -8.52339e-15 -2.83883e-15 1.94676e-14
  2 7589.97 -0.0115872 3982.94 -8.52339e-15 1.36373e-14 -4.52325e-14
  3 7589.97 -0.0115872 3982.94 -1.63591e-14 -2.69846e-14 3.70323e-14
  4 7589.97 -0.0115872 3982.94 -1.63591e-14 6.31288e-14 -3.58678e-14
  5 7589.97 -0.0115872 3982.94 -9.40471e-15 -1.06808e-14 1.21200e-14
  6 7589.97 -0.0115872 3982.94 -9.40471e-15 -1.56293e-14 -7.26540e-14
  7 7589.97 -0.0115872 3982.94 -1.48983e-14 -4.31393e-14 9.61075e-15
  8 7589.97 -0.0115872 3982.94 -1.48983e-14 2.83883e-15 -1.38207e-13
</Section>

newXOutput 428

<Section columns = "stress_xx | stress_yy | stress_zz | stress_xy | stress_yz | stress_xz">
  1 7591.77 -0.0115664 3987.85 5.63518e-16 -1.56380e-14 1.53812e-14
  2 7591.77 -0.0115664 3987.85 1.50994e-16 2.93845e-14 1.04667e-14
  3 7591.77 -0.0115664 3987.85 2.10308e-15 -1.12126e-14 -2.18821e-14
  4 7591.77 -0.0115664 3987.85 5.63518e-16 1.38913e-13 -1.24268e-13
  5 7591.77 -0.0115664 3987.85 2.10308e-15 -2.75295e-14 2.95442e-14
  6 7591.77 -0.0115664 3987.85 5.63518e-16 -1.49954e-14 3.96427e-14
  7 7591.77 -0.0115664 3987.85 7.84880e-15 -4.24885e-14 3.09749e-14
  8 7591.77 -0.0115664 3987.85 2.10308e-15 2.21899e-14 -1.53812e-14
</Section>

newXOutput 429

<Section columns = "stress_xx | stress_yy | stress_zz | stress_xy | stress_yz | stress_xz">
  1 7593.57 -0.0115456 3992.76 4.36177e-15 3.58830e-14 -2.79928e-14
  2 7593.57 -0.0115456 3992.76 3.95081e-15 -2.33432e-14 -9.85668e-14
  3 7593.57 -0.0115456 3992.76 1.42860e-14 1.35437e-13 1.54931e-14
  4 7593.57 -0.0115456 3992.76 1.27523e-14 -8.13529e-15 -5.23412e-14
  5 7593.57 -0.0115456 3992.76 -4.11869e-15 2.77792e-14 -4.21159e-14
  6 7593.57 -0.0115456 3992.76 -5.65241e-15 -5.35870e-14 -1.27661e-13
  7 7593.57 -0.0115456 3992.76 -7.93554e-15 1.05193e-13 -3.72152e-14
  8 7593.57 -0.0115456 3992.76 -1.36595e-14 -1.21007e-13 -1.60921e-13
</Section>

newXOutput 430

<Section columns = "stress_xx | stress_yy | stress_zz | stress_xy | stress_yz | stress_xz">
  1 7595.36 -0.0115250 3997.66 4.19442e-16 1.21749e-14 1.93037e-14
  2 7595.36 -0.0115250 3997.66 -3.71941e-16 2.27683e-14 -4.48517e-14
  3 7595.36 -0.0115250 3997.66 2.04971e-15 5.02278e-14 3.67206e-14
  4 7595.36 -0.0115250 3997.66 4.19442e-16 1.02851e-13 -3.55659e-14
  5 7595.36 -0.0115250 3997.66 1.56538e-15 8.39671e-15 1.20180e-14
  6 7595.36 -0.0115250 3997.66 -1.38810e-15 8.66797e-15 -7.20425e-14
  7 7595.36 -0.0115250 3997.66 7.64962e-15 4.92154e-14 9.52985e-15
  8 7595.36 -0.0115250 3997.66 1.56538e-15 9.90726e-14 -1.37043e-13
</Section>

newXOutput 431

<Section columns = "stress_xx | stress_yy | stress_zz | stress_xy | stress_yz | stress_xz">
  1 7597.13 -0.0115044 4002.55 2.43555e-32 -6.53997e-15 1.52519e-14
  2 7597.13 -0.0115044 4002.55 6.52602e-33 -1.75238e-15 1.03787e-14
  3 7597.13 -0.0115044 4002.55 9.08958e-32 -2.44075e-14 -2.16981e-14
  4 7597.13 -0.0115044 4002.55 2.43555e-32 -6.53997e-15 -1.23223e-13
  5 7597.13 -0.0115044 4002.55 9.08958e-32 -6.53997e-15 2.92958e-14
  6 7597.13 -0.0115044 4002.55 2.43555e-32 -1.75238e-15 3.93095e-14
  7 7597.13 -0.0115044 4002.55 3.39228e-31 -2.44075e-14 3.07145e-14
  8 7597.13 -0.0115044 4002.55 9.08958e-32 -6.53997e-15 -1.52519e-14
</Section>

newXOutput 432

<Section columns = "stress_xx | stress_yy | stress_zz | stress_xy | stress_yz | stress_xz">
  1 7598.90 -0.0114839 4007.43 5.55038e-16 2.00772e-14 2.27530e-14
  2 7598.90 -0.0114839 4007.43 1.48722e-16 2.96465e-14 5.29286e-14
  3 7598.90 -0.0114839 4007.43 2.07143e-15 7.49292e-14 3.80011e-15
  4 7598.90 -0.0114839 4007.43 5.55038e-16 1.10642e-13 -1.05194e-13
  5 7598.90 -0.0114839 4007.43 2.07143e-15 2.00772e-14 2.32384e-14
  6 7598.90 -0.0114839 4007.43 5.55038e-16 2.96465e-14 7.81559e-14
  7 7598.90 -0.0114839 4007.43 7.73068e-15 7.49292e-14 5.61134e-15
  8 7598.90 -0.0114839 4007.43 2.07143e-15 1.10642e-13 -1.10450e-14
</Section>

newXOutput 433

<Section columns = "stress_xx | stress_yy | stress_zz | stress_xy | stress_yz | stress_xz">
  1 7600.65 -0.0114635 4012.29 -2.61971e-15 -3.46447e-14 2.17863e-14
  2 7600.65 -0.0114635 4012.29 -2.61971e-15 -4.18173e-14 -3.46065e-14
  3 7600.65 -0.0114635 4012.29 -5.39667e-15 -5.96631e-14 4.62818e-14
  4 7600.65 -0.0114635 4012.29 -5.39667e-15 -4.24580e-14 1.56418e-15
  5 7600.65 -0.0114635 4012.29 -5.39667e-15 -4.24580e-14 2.17863e-14
  6 7600.65 -0.0114635 4012.29 -5.39667e-15 -7.09768e-14 -3.46065e-14
  7 7600.65 -0.0114635 4012.29 -1.11173e-14 -7.57586e-14 4.62818e-14
  8 7600.65 -0.0114635 4012.29 -1.11173e-14 -1.02527e-13 1.56418e-15
</Section>

newXOutput 434

<Section columns = "stress_xx | stress_yy | stress_zz | stress_xy | stress_yz | stress_xz">
  1 7602.40 -0.0114432 4017.15 -4.65895e-15 -4.01417e-14 1.51242e-14
  2 7602.40 -0.0114432 4017.15 -5.03520e-15 -8.49995e-14 1.02917e-14
  3 7602.40 -0.0114432 4017.15 -8.18289e-15 -5.76070e-14 -2.15164e-14
  4 7602.40 -0.0114432 4017.15 -8.28370e-15 -1.19290e-13 -1.22191e-13
  5 7602.40 -0.0114432 4017.15 -8.65995e-15 -4.39107e-14 2.90504e-14
  6 7602.40 -0.0114432 4017.15 -1.00641e-14 -9.90654e-14 3.89802e-14
  7 7602.40 -0.0114432 4017.15 -1.25601e-14 -5.86168e-14 3.04573e-14
  8 7602.40 -0.0114432 4017.15 -1.29364e-14 -1.23059e-13 -1.51242e-14
</Section>

newXOutput 435

<Section columns = "stress_xx | stress_yy | stress_zz | stress_xy | stress_yz | stress_xz">
  1 7604.14 -0.0114229 4022.00 2.86190e-14 7.45218e-14 1.34061e-14
  2 7604.14 -0.0114229 4022.00 2.86190e-14 5.81755e-14 5.00324e-14
  3 7604.14 -0.0114229 4022.00 6.00412e-14 1.93775e-13 -3.04045e-14
  4 7604.14 -0.0114229 4022.00 6.00412e-14 1.94514e-13 -1.13471e-13
  5 7604.14 -0.0114229 4022.00 2.63063e-14 6.64477e-14 2.05905e-14
  6 7604.14 -0.0114229 4022.00 2.63063e-14 2.80423e-14 7.68447e-14
  7 7604.14 -0.0114229 4022.00 5.44824e-14 1.63642e-13 -3.59217e-15
  8 7604.14 -0.0114229 4022.00 5.44824e-14 8.20552e-14 -1.34061e-14
</Section>

newXOutput 436

<Section columns = "stress_xx | stress_yy | stress_zz | stress_xy | stress_yz | stress_xz">
  1 7605.86 -0.0114028 4026.84 -8.84157e-15 7.79415e-15 1.63596e-14
  2 7605.86 -0.0114028 4026.84 -8.84157e-15 2.75752e-14 -5.38906e-14
  3 7605.86 -0.0114028 4026.84 -1.59733e-14 6.79745e-14 2.63219e-14
  4 7605.86 -0.0114028 4026.84 -1.59733e-14 1.75038e-13 -7.14971e-14
  5 7605.86 -0.0114028 4026.84 -9.25162e-15 7.52388e-15 2.03103e-15
  6 7605.86 -0.0114028 4026.84 -9.25162e-15 2.65665e-14 -1.07366e-13
  7 7605.86 -0.0114028 4026.84 -1.44430e-14 5.39257e-14 -2.71531e-14
  8 7605.86 -0.0114028 4026.84 -1.44430e-14 1.22607e-13 -2.71069e-13
</Section>

newXOutput 437

<Section columns = "stress_xx | stress_yy | stress_zz | stress_xy | stress_yz | stress_xz">
  1 7607.58 -0.0113827 4031.67 -3.18178e-15 -1.82388e-14 1.49980e-14
  2 7607.58 -0.0113827 4031.67 -3.18178e-15 -2.74596e-14 1.02059e-14
  3 7607.58 -0.0113827 4031.67 -5.47713e-15 1.76854e-14 -2.13368e-14
  4 7607.58 -0.0113827 4031.67 -5.47713e-15 -1.30949e-15 -1.21172e-13
  5 7607.58 -0.0113827 4031.67 -5.47713e-15 -1.82388e-14 2.88081e-14
  6 7607.58 -0.0113827 4031.67 -5.47713e-15 -2.74596e-14 3.86550e-14
  7 7607.58 -0.0113827 4031.67 -1.09943e-14 1.76854e-14 3.02031e-14
  8 7607.58 -0.0113827 4031.67 -1.09943e-14 -1.30949e-15 -1.49980e-14
</Section>

newXOutput 438

<Section columns = "stress_xx | stress_yy | stress_zz | stress_xy | stress_yz | stress_xz">
  1 7609.28 -0.0113627 4036.48 -3.16987e-15 -3.31633e-14 -2.56344e-14
  2 7609.28 -0.0113627 4036.48 -3.16987e-15 -3.65543e-14 -9.56687e-14
  3 7609.28 -0.0113627 4036.48 -5.45663e-15 -5.91131e-14 -1.59022e-14
  4 7609.28 -0.0113627 4036.48 -5.45663e-15 -4.09528e-14 -5.93477e-14
  5 7609.28 -0.0113627 4036.48 -5.45663e-15 -3.71930e-14 -3.27588e-14
  6 7609.28 -0.0113627 4036.48 -5.45663e-15 -5.15935e-14 -1.22258e-13
  7 7609.28 -0.0113627 4036.48 -1.09532e-14 -7.41523e-14 -4.24910e-14
  8 7609.28 -0.0113627 4036.48 -1.09532e-14 -9.70798e-14 -1.58579e-13
</Section>

newXOutput 439

<Section columns = "stress_xx | stress_yy | stress_zz | stress_xy | stress_yz | stress_xz">
  1 7610.98 -0.0113428 4041.29 -7.14330e-15 1.19161e-13 -1.57390e-14
  2 7610.98 -0.0113428 4041.29 -7.53906e-15 5.09865e-14 -5.29981e-14
  3 7610.98 -0.0113428 4041.29 -1.38114e-14 2.76437e-13 1.81419e-14
  4 7610.98 -0.0113428 4041.29 -1.52884e-14 1.45194e-13 -3.94155e-14
  5 7610.98 -0.0113428 4041.29 -1.38114e-14 1.15134e-13 -2.94724e-14
  6 7610.98 -0.0113428 4041.29 -1.52884e-14 3.59565e-14 -8.12892e-14
  7 7610.98 -0.0113428 4041.29 -2.50784e-14 2.61407e-13 -3.31118e-14
  8 7610.98 -0.0113428 4041.29 -3.05906e-14 8.91012e-14 -1.44999e-13
</Section>

newXOutput 440

<Section columns = "stress_xx | stress_yy | stress_zz | stress_xy | stress_yz | stress_xz">
  1 7612.67 -0.0113230 4046.09 1.65629e-14 8.75740e-14 1.48733e-14
  2 7612.67 -0.0113230 4046.09 1.61950e-14 2.34654e-14 1.01210e-14
  3 7612.67 -0.0113230 4046.09 2.90344e-14 1.58654e-13 -2.11595e-14
  4 7612.67 -0.0113230 4046.09 2.89359e-14 4.25112e-14 -1.20164e-13
  5 7612.67 -0.0113230 4046.09 1.31174e-14 8.75740e-14 2.85686e-14
  6 7612.67 -0.0113230 4046.09 1.17445e-14 2.34654e-14 3.83337e-14
  7 7612.67 -0.0113230 4046.09 2.64954e-14 1.58654e-13 2.99521e-14
  8 7612.67 -0.0113230 4046.09 2.61275e-14 4.25112e-14 -1.48733e-14
</Section>

newXOutput 441

<Section columns = "stress_xx | stress_yy | stress_zz | stress_xy | stress_yz | stress_xz">
  1 7614.34 -0.0113032 4050.88 8.57938e-15 1.54112e-14 -2.54215e-14
  2 7614.34 -0.0113032 4050.88 8.18657e-15 -8.52957e-15 -9.48744e-14
  3 7614.34 -0.0113032 4050.88 1.75095e-14 5.42651e-14 -1.57701e-14
  4 7614.34 -0.0113032 4050.88 1.60435e-14 2.88160e-14 -5.88549e-14
  5 7614.34 -0.0113032 4050.88 8.71353e-15 2.31865e-14 -3.24868e-14
  6 7614.34 -0.0113032 4050.88 7.24753e-15 2.04885e-14 -1.21243e-13
  7 7614.34 -0.0113032 4050.88 2.10141e-14 7.02826e-14 -4.21382e-14
  8 7614.34 -0.0113032 4050.88 1.55429e-14 8.85939e-14 -1.57262e-13
</Section>

newXOutput 442

<Section columns = "stress_xx | stress_yy | stress_zz | stress_xy | stress_yz | stress_xz">
  1 7616.01 -0.0112836 4055.66 6.10419e-31 1.62410e-14 -2.52332e-14
  2 7616.01 -0.0112836 4055.66 1.78887e-30 4.11229e-14 -8.84784e-14
  3 7616.01 -0.0112836 4055.66 1.78887e-30 8.70350e-16 -1.79283e-14
  4 7616.01 -0.0112836 4055.66 5.48020e-30 7.59827e-14 -1.73143e-13
  5 7616.01 -0.0112836 4055.66 2.01987e-31 8.47029e-15 -3.18069e-14
  6 7616.01 -0.0112836 4055.66 4.89624e-31 1.21224e-14 -9.02398e-14
  7 7616.01 -0.0112836 4055.66 4.89624e-31 -1.51374e-14 -4.24619e-14
  8 7616.01 -0.0112836 4055.66 1.47117e-30 1.62410e-14 -1.79717e-13
</Section>

newXOutput 443

<Section columns = "stress_xx | stress_yy | stress_zz | stress_xy | stress_yz | stress_xz">
  1 7617.67 -0.0112640 4060.43 1.72173e-31 -1.11107e-14 1.47501e-14
  2 7617.67 -0.0112640 4060.43 6.59617e-31 -3.84525e-14 1.00372e-14
  3 7617.67 -0.0112640 4060.43 2.10516e-31 -4.79581e-14 -2.09842e-14
  4 7617.67 -0.0112640 4060.43 2.20790e-31 -2.23560e-14 -1.19169e-13
  5 7617.67 -0.0112640 4060.43 1.72173e-31 -3.61386e-15 2.83320e-14
  6 7617.67 -0.0112640 4060.43 2.10516e-31 -1.04739e-14 3.80162e-14
  7 7617.67 -0.0112640 4060.43 6.59617e-31 -4.59494e-14 2.97040e-14
  8 7617.67 -0.0112640 4060.43 2.20790e-31 -1.48591e-14 -1.47501e-14
</Section>

newXOutput 444

<Section columns = "stress_xx | stress_yy | stress_zz | stress_xy | stress_yz | stress_xz">
  1 7619.32 -0.0112445 4065.19 4.44232e-15 3.94282e-14 1.30750e-14
  2 7619.32 -0.0112445 4065.19 4.44232e-15 1.03700e-13 4.87965e-14
  3 7619.32 -0.0112445 4065.19 1.02009e-14 8.12231e-14 -2.96534e-14
  4 7619.32 -0.0112445 4065.19 1.02009e-14 2.13624e-13 -1.10668e-13
  5 7619.32 -0.0112445 4065.19 1.02009e-14 3.94282e-14 2.00819e-14
  6 7619.32 -0.0112445 4065.19 1.02009e-14 1.03700e-13 7.49465e-14
  7 7619.32 -0.0112445 4065.19 2.12953e-14 8.12231e-14 -3.50343e-15
  8 7619.32 -0.0112445 4065.19 2.12953e-14 2.13624e-13 -1.30750e-14
</Section>

newXOutput 445

<Section columns = "stress_xx | stress_yy | stress_zz | stress_xy | stress_yz | stress_xz">
  1 7620.96 -0.0112251 4069.94 -1.27727e-14 -1.00780e-13 -1.29219e-14
  2 7620.96 -0.0112251 4069.94 -1.31598e-14 -3.17511e-14 -4.25792e-14
  3 7620.96 -0.0112251 4069.94 -2.12453e-14 -1.61784e-13 2.73880e-14
  4 7620.96 -0.0112251 4069.94 -2.26897e-14 -4.46219e-14 -3.14271e-15
  5 7620.96 -0.0112251 4069.94 -6.07968e-15 -1.04524e-13 -1.94414e-14
  6 7620.96 -0.0112251 4069.94 -7.52403e-15 -4.57235e-14 -4.43261e-14
  7 7620.96 -0.0112251 4069.94 -8.10454e-15 -1.62787e-13 3.05705e-15
  8 7620.96 -0.0112251 4069.94 -1.34949e-14 -4.83658e-14 -9.66218e-15
</Section>

newXOutput 446

<Section columns = "stress_xx | stress_yy | stress_zz | stress_xy | stress_yz | stress_xz">
  1 7622.59 -0.0112057 4074.68 -1.01178e-14 -9.82491e-14 -1.03899e-14
  2 7622.59 -0.0112057 4074.68 -9.73218e-15 -3.89465e-14 3.25075e-15
  3 7622.59 -0.0112057 4074.68 -1.94902e-14 -2.23289e-13 -4.99283e-15
  4 7622.59 -0.0112057 4074.68 -1.80512e-14 -4.55975e-14 -1.13947e-13
  5 7622.59 -0.0112057 4074.68 -4.38066e-15 -9.04972e-14 -9.92311e-15
  6 7622.59 -0.0112057 4074.68 -2.94165e-15 -1.00160e-14 2.75147e-14
  7 7622.59 -0.0112057 4074.68 -3.97617e-15 -2.07320e-13 -3.25075e-15
  8 7622.59 -0.0112057 4074.68 1.39427e-15 1.40000e-14 -2.33929e-14
</Section>

newXOutput 447

<Section columns = "stress_xx | stress_yy | stress_zz | stress_xy | stress_yz | stress_xz">
  1 7624.21 -0.0111864 4079.41 2.80994e-15 4.12674e-14 1.29672e-14
  2 7624.21 -0.0111864 4079.41 2.80994e-15 -3.88967e-14 4.83944e-14
  3 7624.21 -0.0111864 4079.41 2.74905e-15 7.32846e-14 -2.94090e-14
  4 7624.21 -0.0111864 4079.41 2.74905e-15 -1.13524e-14 -1.09756e-13
  5 7624.21 -0.0111864 4079.41 -5.85307e-15 3.72595e-14 1.99164e-14
  6 7624.21 -0.0111864 4079.41 -5.85307e-15 -5.38542e-14 7.43288e-14
  7 7624.21 -0.0111864 4079.41 -9.01798e-15 5.83271e-14 -3.47456e-15
  8 7624.21 -0.0111864 4079.41 -9.01798e-15 -6.71746e-14 -1.29672e-14
</Section>

newXOutput 448

<Section columns = "stress_xx | stress_yy | stress_zz | stress_xy | stress_yz | stress_xz">
  1 7625.82 -0.0111673 4084.13 3.65680e-31 4.31063e-14 -2.22821e-14
  2 7625.82 -0.0111673 4084.13 1.70240e-30 5.32672e-14 -7.75585e-14
  3 7625.82 -0.0111673 4084.13 7.92040e-31 8.04284e-14 -8.16721e-15
  4 7625.82 -0.0111673 4084.13 5.14880e-30 1.15980e-13 -1.34969e-13
  5 7625.82 -0.0111673 4084.13 1.54881e-31 3.93692e-14 -2.18179e-14
  6 7625.82 -0.0111673 4084.13 4.71403e-31 3.93201e-14 -5.34278e-14
  7 7625.82 -0.0111673 4084.13 2.27472e-31 7.94271e-14 -6.43470e-15
  8 7625.82 -0.0111673 4084.13 1.38370e-30 1.12243e-13 -4.49124e-14
</Section>

newXOutput 449

<Section columns = "stress_xx | stress_yy | stress_zz | stress_xy | stress_yz | stress_xz">
  1 7627.42 -0.0111482 4088.84 4.76477e-15 -3.32428e-14 -1.03045e-14
  2 7627.42 -0.0111482 4088.84 4.76477e-15 -7.77441e-14 3.22403e-15
  3 7627.42 -0.0111482 4088.84 9.81553e-15 -1.00153e-13 -4.95178e-15
  4 7627.42 -0.0111482 4088.84 9.81553e-15 -1.28482e-13 -1.13010e-13
  5 7627.42 -0.0111482 4088.84 1.27672e-15 -3.32428e-14 -9.84153e-15
  6 7627.42 -0.0111482 4088.84 1.27672e-15 -7.77441e-14 2.72885e-14
  7 7627.42 -0.0111482 4088.84 2.63006e-15 -1.00153e-13 -3.22403e-15
  8 7627.42 -0.0111482 4088.84 2.63006e-15 -1.28482e-13 -2.32006e-14
</Section>

newXOutput 450

<Section columns = "stress_xx | stress_yy | stress_zz | stress_xy | stress_yz | stress_xz">
  1 7629.02 -0.0111291 4093.55 5.18987e-16 3.05573e-14 -1.44065e-14
  2 7629.02 -0.0111291 4093.55 1.39062e-16 4.98545e-14 -8.97635e-14
  3 7629.02 -0.0111291 4093.55 1.93689e-15 5.45873e-14 -1.25990e-14
  4 7629.02 -0.0111291 4093.55 5.18987e-16 1.08943e-13 -5.66656e-14
  5 7629.02 -0.0111291 4093.55 1.93689e-15 2.68247e-14 -2.12986e-14
  6 7629.02 -0.0111291 4093.55 5.18987e-16 3.59242e-14 -1.15485e-13
  7 7629.02 -0.0111291 4093.55 7.22856e-15 5.35872e-14 -3.83205e-14
  8 7629.02 -0.0111291 4093.55 1.93689e-15 1.05210e-13 -1.52660e-13
</Section>

newXOutput 451

<Section columns = "stress_xx | stress_yy | stress_zz | stress_xy | stress_yz | stress_xz">
  1 7630.60 -0.0111102 4098.24 -1.29270e-16 -3.10077e-14 -1.52262e-14
  2 7630.60 -0.0111102 4098.24 -4.82443e-16 -3.06908e-14 -5.12713e-14
  3 7630.60 -0.0111102 4098.24 -3.46379e-17 -3.06908e-14 1.75509e-14
  4 7630.60 -0.0111102 4098.24 -1.29270e-16 -1.42209e-14 -3.81313e-14
  5 7630.60 -0.0111102 4098.24 -4.82443e-16 -3.10077e-14 -2.85122e-14
  6 7630.60 -0.0111102 4098.24 -1.80050e-15 -3.06908e-14 -7.86407e-14
  7 7630.60 -0.0111102 4098.24 -1.29270e-16 -3.06908e-14 -3.20330e-14
  8 7630.60 -0.0111102 4098.24 -4.82443e-16 -1.42209e-14 -1.40275e-13
</Section>

newXOutput 452

<Section columns = "stress_xx | stress_yy | stress_zz | stress_xy | stress_yz | stress_xz">
  1 7632.18 -0.0110913 4102.92 3.86388e-16 2.48973e-14 -8.56799e-16
  2 7632.18 -0.0110913 4102.92 -3.42630e-16 7.93784e-15 3.81418e-14
  3 7632.18 -0.0110913 4102.92 1.88818e-15 4.79485e-14 3.00330e-14
  4 7632.18 -0.0110913 4102.92 3.86388e-16 7.86878e-14 1.83289e-14
  5 7632.18 -0.0110913 4102.92 1.44202e-15 2.46297e-14 -7.25203e-15
  6 7632.18 -0.0110913 4102.92 -1.27871e-15 6.93889e-15 3.64282e-14
  7 7632.18 -0.0110913 4102.92 7.04679e-15 3.40349e-14 6.16566e-15
  8 7632.18 -0.0110913 4102.92 1.44202e-15 2.67614e-14 1.19337e-14
</Section>

newXOutput 453

<Section columns = "stress_xx | stress_yy | stress_zz | stress_xy | stress_yz | stress_xz">
  1 7633.75 -0.0110725 4107.60 -3.64634e-15 -4.93325e-14 -1.42886e-14
  2 7633.75 -0.0110725 4107.60 -3.64634e-15 -9.91821e-14 -8.90291e-14
  3 7633.75 -0.0110725 4107.60 -7.43865e-15 -5.44711e-14 -1.24959e-14
  4 7633.75 -0.0110725 4107.60 -7.43865e-15 -1.03091e-13 -5.62020e-14
  5 7633.75 -0.0110725 4107.60 -7.43865e-15 -4.53391e-14 -2.11243e-14
  6 7633.75 -0.0110725 4107.60 -7.43865e-15 -8.42784e-14 -1.14540e-13
  7 7633.75 -0.0110725 4107.60 -1.15346e-14 -3.95675e-14 -3.80070e-14
  8 7633.75 -0.0110725 4107.60 -1.15346e-14 -4.74695e-14 -1.51411e-13
</Section>

newXOutput 454

<Section columns = "stress_xx | stress_yy | stress_zz | stress_xy | stress_yz | stress_xz">
  1 7635.30 -0.0110538 4112.26 -2.42297e-15 1.49664e-15 -2.44140e-14
  2 7635.30 -0.0110538 4112.26 -2.42297e-15 -5.84474e-14 -8.56061e-14
  3 7635.30 -0.0110538 4112.26 -4.99138e-15 3.85735e-15 -1.73463e-14
  4 7635.30 -0.0110538 4112.26 -4.99138e-15 -8.01570e-14 -1.67522e-13
  5 7635.30 -0.0110538 4112.26 -4.99138e-15 9.21134e-15 -3.07744e-14
  6 7635.30 -0.0110538 4112.26 -4.99138e-15 -2.96558e-14 -8.73103e-14
  7 7635.30 -0.0110538 4112.26 -1.02824e-14 1.97498e-14 -4.10835e-14
  8 7635.30 -0.0110538 4112.26 -1.02824e-14 -2.08454e-14 -1.73883e-13
</Section>

newXOutput 455

<Section columns = "stress_xx | stress_yy | stress_zz | stress_xy | stress_yz | stress_xz">
  1 7636.85 -0.0110351 4116.92 -1.27388e-16 2.50172e-14 -1.26251e-14
  2 7636.85 -0.0110351 4116.92 -4.75418e-16 2.93708e-14 -6.11533e-15
  3 7636.85 -0.0110351 4116.92 -3.41335e-17 3.40894e-14 -1.41580e-14
  4 7636.85 -0.0110351 4116.92 -1.27388e-16 3.27273e-14 -1.45829e-13
  5 7636.85 -0.0110351 4116.92 -4.75418e-16 2.52844e-14 -1.89681e-14
  6 7636.85 -0.0110351 4116.92 -1.77428e-15 3.03680e-14 -7.81495e-15
  7 7636.85 -0.0110351 4116.92 -1.27388e-16 4.79781e-14 -3.78305e-14
  8 7636.85 -0.0110351 4116.92 -4.75418e-16 8.45604e-14 -1.52172e-13
</Section>

newXOutput 456

<Section columns = "stress_xx | stress_yy | stress_zz | stress_xy | stress_yz | stress_xz">
  1 7638.40 -0.0110165 4121.56 1.36036e-16 1.38755e-14 2.28742e-14
  2 7638.40 -0.0110165 4121.56 5.07692e-16 2.79740e-14 4.99554e-14
  3 7638.40 -0.0110165 4121.56 5.07692e-16 7.73205e-14 -2.59539e-14
  4 7638.40 -0.0110165 4121.56 1.89473e-15 1.27579e-13 -1.06350e-13
  5 7638.40 -0.0110165 4121.56 5.07692e-16 1.41426e-14 2.96541e-14
  6 7638.40 -0.0110165 4121.56 1.89473e-15 2.89706e-14 7.52585e-14
  7 7638.40 -0.0110165 4121.56 1.89473e-15 9.12008e-14 -6.50832e-16
  8 7638.40 -0.0110165 4121.56 7.07124e-15 1.79381e-13 -1.19176e-14
</Section>

newXOutput 457

<Section columns = "stress_xx | stress_yy | stress_zz | stress_xy | stress_yz | stress_xz">
  1 7639.93 -0.0109980 4126.20 2.53209e-15 -5.55548e-14 -2.30910e-15
  2 7639.93 -0.0109980 4126.20 2.90240e-15 -3.33993e-14 -3.84702e-14
  3 7639.93 -0.0109980 4126.20 5.44280e-15 -1.40196e-13 2.92338e-14
  4 7639.93 -0.0109980 4126.20 6.82479e-15 -9.03326e-14 -2.30910e-15
  5 7639.93 -0.0109980 4126.20 5.44280e-15 -5.13041e-14 -8.61768e-15
  6 7639.93 -0.0109980 4126.20 6.82479e-15 -1.75354e-14 -4.01606e-14
  7 7639.93 -0.0109980 4126.20 1.20581e-14 -1.11456e-13 5.68986e-15
  8 7639.93 -0.0109980 4126.20 1.72157e-14 1.69266e-14 -8.61768e-15
</Section>

newXOutput 458

<Section columns = "stress_xx | stress_yy | stress_zz | stress_xy | stress_yz | stress_xz">
  1 7641.45 -0.0109796 4130.83 5.04101e-31 5.00780e-15 -1.00542e-14
  2 7641.45 -0.0109796 4130.83 1.40857e-30 2.01824e-14 3.14573e-15
  3 7641.45 -0.0109796 4130.83 1.70562e-30 -2.10623e-15 -4.83152e-15
  4 7641.45 -0.0109796 4130.83 5.20979e-30 6.97497e-14 -1.10266e-13
  5 7641.45 -0.0109796 4130.83 1.72204e-31 1.02632e-15 -9.60252e-15
  6 7641.45 -0.0109796 4130.83 3.87376e-31 5.32332e-15 2.66258e-14
  7 7641.45 -0.0109796 4130.83 4.66969e-31 -1.69653e-14 -3.14573e-15
  8 7641.45 -0.0109796 4130.83 1.39863e-30 1.42947e-14 -2.26371e-14
</Section>

newXOutput 459

<Section columns = "stress_xx | stress_yy | stress_zz | stress_xy | stress_yz | stress_xz">
  1 7642.97 -0.0109613 4135.45 -7.40463e-15 -7.41488e-14 2.26884e-14
  2 7642.97 -0.0109613 4135.45 -7.40463e-15 -1.98681e-14 4.95496e-14
  3 7642.97 -0.0109613 4135.45 -1.02158e-14 -1.31245e-13 -2.57431e-14
  4 7642.97 -0.0109613 4135.45 -1.02158e-14 -3.51670e-14 -1.05486e-13
  5 7642.97 -0.0109613 4135.45 -4.04200e-15 -7.41488e-14 2.94132e-14
  6 7642.97 -0.0109613 4135.45 -4.04200e-15 -1.98681e-14 7.46472e-14
  7 7642.97 -0.0109613 4135.45 -3.28875e-15 -1.31245e-13 -6.45545e-16
  8 7642.97 -0.0109613 4135.45 -3.28875e-15 -3.51670e-14 -1.18208e-14
</Section>

newXOutput 460

<Section columns = "stress_xx | stress_yy | stress_zz | stress_xy | stress_yz | stress_xz">
  1 7644.47 -0.0109430 4140.06 1.19942e-14 1.30518e-13 -1.99996e-14
  2 7644.47 -0.0109430 4140.06 1.19942e-14 3.15284e-14 -7.46396e-14
  3 7644.47 -0.0109430 4140.06 2.57691e-14 3.43197e-13 -3.70951e-14
  4 7644.47 -0.0109430 4140.06 2.57691e-14 1.56224e-13 -1.38441e-13
  5 7644.47 -0.0109430 4140.06 1.16336e-15 1.26542e-13 -1.32929e-14
  6 7644.47 -0.0109430 4140.06 1.16336e-15 1.66870e-14 -4.96099e-14
  7 7644.47 -0.0109430 4140.06 6.35538e-15 3.28356e-13 -1.20655e-14
  8 7644.47 -0.0109430 4140.06 6.35538e-15 1.00836e-13 -4.50292e-14
</Section>

newXOutput 461

<Section columns = "stress_xx | stress_yy | stress_zz | stress_xy | stress_yz | stress_xz">
  1 7645.97 -0.0109248 4144.66 2.69678e-15 1.74805e-14 -3.28423e-15
  2 7645.97 -0.0109248 4144.66 2.33182e-15 -1.78342e-17 2.80821e-14
  3 7645.97 -0.0109248 4144.66 6.38900e-15 4.91815e-14 2.01695e-14
  4 7645.97 -0.0109248 4144.66 5.02697e-15 1.19183e-14 -1.62132e-14
  5 7645.97 -0.0109248 4144.66 -1.78319e-15 1.37724e-14 -1.62132e-14
  6 7645.97 -0.0109248 4144.66 -3.14523e-15 -1.38568e-14 1.44811e-15
  7 7645.97 -0.0109248 4144.66 -5.62493e-16 4.81879e-14 -2.80821e-14
  8 7645.97 -0.0109248 4144.66 -5.64567e-15 8.21018e-15 -1.15613e-13
</Section>

newXOutput 462

<Section columns = "stress_xx | stress_yy | stress_zz | stress_xy | stress_yz | stress_xz">
  1 7647.46 -0.0109066 4149.25 2.68703e-15 3.16643e-14 -1.39433e-14
  2 7647.46 -0.0109066 4149.25 2.32339e-15 -1.37511e-14 -8.68772e-14
  3 7647.46 -0.0109066 4149.25 6.36589e-15 1.19662e-13 -1.21939e-14
  4 7647.46 -0.0109066 4149.25 5.00878e-15 2.61054e-14 -5.48436e-14
  5 7647.46 -0.0109066 4149.25 -1.77674e-15 3.16643e-14 -2.06137e-14
  6 7647.46 -0.0109066 4149.25 -3.13385e-15 -1.37511e-14 -1.11772e-13
  7 7647.46 -0.0109066 4149.25 -5.60459e-16 1.19662e-13 -3.70883e-14
  8 7647.46 -0.0109066 4149.25 -5.62524e-15 2.61054e-14 -1.47751e-13
</Section>

newXOutput 463

<Section columns = "stress_xx | stress_yy | stress_zz | stress_xy | stress_yz | stress_xz">
  1 7648.95 -0.0108886 4153.83 -2.24218e-15 1.84246e-13 -1.31855e-14
  2 7648.95 -0.0108886 4153.83 -1.51754e-15 1.05475e-13 -4.92089e-14
  3 7648.95 -0.0108886 4153.83 -4.17547e-15 4.16588e-13 -1.19680e-14
  4 7648.95 -0.0108886 4153.83 -1.47106e-15 2.44037e-13 -4.46652e-14
  5 7648.95 -0.0108886 4153.83 -1.22887e-14 1.92185e-13 -1.98379e-14
  6 7648.95 -0.0108886 4153.83 -9.58428e-15 1.35105e-13 -7.40362e-14
  7 7648.95 -0.0108886 4153.83 -2.36599e-14 4.46217e-13 -3.67953e-14
  8 7648.95 -0.0108886 4153.83 -1.35669e-14 3.54617e-13 -1.37322e-13
</Section>

newXOutput 464

<Section columns = "stress_xx | stress_yy | stress_zz | stress_xy | stress_yz | stress_xz">
  1 7650.42 -0.0108706 4158.40 2.12333e-15 2.85539e-14 9.17402e-15
  2 7650.42 -0.0108706 4158.40 1.76232e-15 -1.92514e-14 3.95987e-14
  3 7650.42 -0.0108706 4158.40 6.17416e-15 2.98601e-14 3.17500e-14
  4 7650.42 -0.0108706 4158.40 4.82684e-15 7.92501e-16 1.84592e-14
  5 7650.42 -0.0108706 4158.40 -1.90979e-15 2.48524e-14 2.98394e-15
  6 7650.42 -0.0108706 4158.40 -3.25712e-15 -3.30657e-14 3.79401e-14
  7 7650.42 -0.0108706 4158.40 -5.95501e-16 2.88683e-14 8.64826e-15
  8 7650.42 -0.0108706 4158.40 -5.62379e-15 -2.90902e-15 1.22691e-14
</Section>

newXOutput 465

<Section columns = "stress_xx | stress_yy | stress_zz | stress_xy | stress_yz | stress_xz">
  1 7651.89 -0.0108527 4162.97 2.76282e-15 1.52265e-14 -1.38308e-14
  2 7651.89 -0.0108527 4162.97 3.12254e-15 -7.18889e-14 -8.61766e-14
  3 7651.89 -0.0108527 4162.97 3.06553e-15 5.19054e-14 -1.20955e-14
  4 7651.89 -0.0108527 4162.97 4.40800e-15 -7.14419e-14 -5.44013e-14
  5 7651.89 -0.0108527 4162.97 -4.98931e-15 2.65900e-14 -2.04475e-14
  6 7651.89 -0.0108527 4162.97 -3.64683e-15 -2.94795e-14 -1.10870e-13
  7 7651.89 -0.0108527 4162.97 -6.61038e-15 6.86852e-14 -3.67892e-14
  8 7651.89 -0.0108527 4162.97 -1.60021e-15 -8.81908e-15 -1.46559e-13
</Section>

newXOutput 466

<Section columns = "stress_xx | stress_yy | stress_zz | stress_xy | stress_yz | stress_xz">
  1 7653.35 -0.0108348 4167.52 -3.60049e-15 6.05688e-14 -2.20935e-14
  2 7653.35 -0.0108348 4167.52 -3.93490e-15 3.53170e-14 -8.24540e-14
  3 7653.35 -0.0108348 4167.52 -7.12820e-15 1.06553e-13 -4.55131e-14
  4 7653.35 -0.0108348 4167.52 -7.21780e-15 1.16026e-13 -1.69857e-13
  5 7653.35 -0.0108348 4167.52 -7.55222e-15 5.68716e-14 -2.20935e-14
  6 7653.35 -0.0108348 4167.52 -8.80025e-15 2.15191e-14 -8.24540e-14
  7 7653.35 -0.0108348 4167.52 -1.11247e-14 1.05562e-13 -4.55131e-14
  8 7653.35 -0.0108348 4167.52 -1.14591e-14 1.12328e-13 -1.69857e-13
</Section>

newXOutput 467

<Section columns = "stress_xx | stress_yy | stress_zz | stress_xy | stress_yz | stress_xz">
  1 7654.80 -0.0108171 4172.07 -3.30497e-15 9.02201e-14 -1.06864e-14
  2 7654.80 -0.0108171 4172.07 -2.97176e-15 5.29570e-14 -5.50854e-15
  3 7654.80 -0.0108171 4172.07 -5.02762e-15 2.74653e-13 -4.23502e-14
  4 7654.80 -0.0108171 4172.07 -4.93833e-15 1.81011e-13 -1.48843e-13
  5 7654.80 -0.0108171 4172.07 -6.60438e-15 9.41803e-14 -1.06864e-14
  6 7654.80 -0.0108171 4172.07 -5.36083e-15 6.77367e-14 -5.50854e-15
  7 7654.80 -0.0108171 4172.07 -1.03024e-14 2.89432e-13 -4.23502e-14
  8 7654.80 -0.0108171 4172.07 -9.96916e-15 2.36170e-13 -1.48843e-13
</Section>

newXOutput 468

<Section columns = "stress_xx | stress_yy | stress_zz | stress_xy | stress_yz | stress_xz">
  1 7656.24 -0.0107994 4176.60 -7.49139e-15 -9.90458e-14 2.43853e-14
  2 7656.24 -0.0107994 4176.60 -7.13554e-15 7.93145e-14 4.89610e-14
  3 7656.24 -0.0107994 4176.60 -1.52147e-14 -1.81880e-13 -1.67600e-14
  4 7656.24 -0.0107994 4176.60 -1.38866e-14 2.09033e-13 -1.00713e-13
  5 7656.24 -0.0107994 4176.60 6.69828e-15 -1.06696e-13 3.70726e-14
  6 7656.24 -0.0107994 4176.60 8.02634e-15 5.07621e-14 7.50972e-14
  7 7656.24 -0.0107994 4176.60 1.46114e-14 -1.97641e-13 3.05896e-14
  8 7656.24 -0.0107994 4176.60 1.95678e-14 1.50214e-13 -3.17182e-15
</Section>

newXOutput 469

<Section columns = "stress_xx | stress_yy | stress_zz | stress_xy | stress_yz | stress_xz">
  1 7657.67 -0.0107817 4181.13 1.29784e-16 8.36522e-15 -1.05783e-14
  2 7657.67 -0.0107817 4181.13 4.84361e-16 7.59282e-15 -3.94789e-14
  3 7657.67 -0.0107817 4181.13 4.84361e-16 5.65588e-14 -2.83446e-15
  4 7657.67 -0.0107817 4181.13 1.80766e-15 5.13365e-14 -1.05783e-14
  5 7657.67 -0.0107817 4181.13 4.84361e-16 1.25857e-14 -1.05783e-14
  6 7657.67 -0.0107817 4181.13 1.80766e-15 2.33439e-14 -3.94789e-14
  7 7657.67 -0.0107817 4181.13 1.80766e-15 8.50943e-14 -2.83446e-15
  8 7657.67 -0.0107817 4181.13 6.74628e-15 1.57832e-13 -1.05783e-14
</Section>

newXOutput 470

<Section columns = "stress_xx | stress_yy | stress_zz | stress_xy | stress_yz | stress_xz">
  1 7659.10 -0.0107642 4185.65 -2.32479e-33 5.24872e-16 -8.21121e-15
  2 7659.10 -0.0107642 4185.65 7.69875e-32 4.76408e-16 3.45355e-15
  3 7659.10 -0.0107642 4185.65 -6.22926e-34 2.72833e-14 -3.30928e-14
  4 7659.10 -0.0107642 4185.65 2.06287e-32 2.47641e-14 -1.14367e-13
  5 7659.10 -0.0107642 4185.65 5.88846e-32 7.89685e-16 -1.68283e-15
  6 7659.10 -0.0107642 4185.65 3.05424e-31 1.46470e-15 2.78178e-14
  7 7659.10 -0.0107642 4185.65 1.57781e-32 4.10484e-14 -8.72856e-15
  8 7659.10 -0.0107642 4185.65 8.18381e-32 7.61363e-14 -2.34389e-14
</Section>

newXOutput 471

<Section columns = "stress_xx | stress_yy | stress_zz | stress_xy | stress_yz | stress_xz">
  1 7660.52 -0.0107467 4190.16 -2.80920e-15 -2.65570e-14 -7.48443e-15
  2 7660.52 -0.0107467 4190.16 -2.80920e-15 -3.42425e-14 4.00818e-14
  3 7660.52 -0.0107467 4190.16 -4.83578e-15 -5.63596e-14 -3.28155e-14
  4 7660.52 -0.0107467 4190.16 -4.83578e-15 -3.97233e-14 -1.04245e-13
  5 7660.52 -0.0107467 4190.16 -4.83578e-15 -3.05079e-14 -9.73507e-16
  6 7660.52 -0.0107467 4190.16 -4.83578e-15 -4.89872e-14 6.43809e-14
  7 7660.52 -0.0107467 4190.16 -9.70694e-15 -7.11043e-14 -8.51637e-15
  8 7660.52 -0.0107467 4190.16 -9.70694e-15 -9.47514e-14 -1.35592e-14
</Section>

newXOutput 472

<Section columns = "stress_xx | stress_yy | stress_zz | stress_xy | stress_yz | stress_xz">
  1 7661.93 -0.0107292 4194.66 -2.27027e-15 -1.18053e-14 -1.71465e-14
  2 7661.93 -0.0107292 4194.66 -2.27027e-15 -6.17201e-14 -7.16735e-14
  3 7661.93 -0.0107292 4194.66 -4.67681e-15 -7.10623e-14 -2.76402e-14
  4 7661.93 -0.0107292 4194.66 -4.67681e-15 -1.16799e-13 -1.31824e-13
  5 7661.93 -0.0107292 4194.66 -4.67681e-15 -4.43732e-15 -4.59438e-15
  6 7661.93 -0.0107292 4194.66 -4.67681e-15 -3.42223e-14 -4.58159e-14
  7 7661.93 -0.0107292 4194.66 -9.63434e-15 -6.90881e-14 1.92048e-14
  8 7661.93 -0.0107292 4194.66 -9.63434e-15 -1.09431e-13 -3.53221e-14
</Section>

newXOutput 473

<Section columns = "stress_xx | stress_yy | stress_zz | stress_xy | stress_yz | stress_xz">
  1 7663.33 -0.0107119 4199.16 -2.90858e-15 -2.09368e-14 -1.66939e-15
  2 7663.33 -0.0107119 4199.16 -3.23471e-15 -3.39554e-14 2.75955e-14
  3 7663.33 -0.0107119 4199.16 -4.83335e-15 -7.34690e-14 -8.65883e-15
  4 7663.33 -0.0107119 4199.16 -4.92073e-15 -1.09301e-13 -2.32516e-14
  5 7663.33 -0.0107119 4199.16 -5.24686e-15 -2.46187e-14 -8.14561e-15
  6 7663.33 -0.0107119 4199.16 -6.46398e-15 -4.76962e-14 3.42596e-15
  7 7663.33 -0.0107119 4199.16 -9.75722e-15 -7.44555e-14 -3.28284e-14
  8 7663.33 -0.0107119 4199.16 -1.00833e-14 -1.12983e-13 -1.13454e-13
</Section>

newXOutput 474

<Section columns = "stress_xx | stress_yy | stress_zz | stress_xy | stress_yz | stress_xz">
  1 7664.73 -0.0106946 4203.64 -9.13944e-15 -9.75416e-14 -4.27172e-14
  2 7664.73 -0.0106946 4203.64 -8.79115e-15 -2.11356e-14 -9.19513e-14
  3 7664.73 -0.0106946 4203.64 -1.76056e-14 -2.19837e-13 -1.96357e-14
  4 7664.73 -0.0106946 4203.64 -1.63058e-14 -4.02427e-14 -5.52024e-14
  5 7664.73 -0.0106946 4203.64 -3.95708e-15 -9.35977e-14 -4.91761e-14
  6 7664.73 -0.0106946 4203.64 -2.65721e-15 -6.41696e-15 -1.16056e-13
  7 7664.73 -0.0106946 4203.64 -3.59170e-15 -2.05118e-13 -4.37409e-14
  8 7664.73 -0.0106946 4203.64 1.25945e-15 1.46880e-14 -1.45164e-13
</Section>

newXOutput 475

<Section columns = "stress_xx | stress_yy | stress_zz | stress_xy | stress_yz | stress_xz">
  1 7666.12 -0.0106774 4208.11 4.18360e-15 1.30313e-13 -3.58959e-14
  2 7666.12 -0.0106774 4208.11 4.18360e-15 8.18806e-14 -5.38477e-14
  3 7666.12 -0.0106774 4208.11 4.86723e-15 2.75802e-13 3.03404e-15
  4 7666.12 -0.0106774 4208.11 4.86723e-15 2.33018e-13 -3.93325e-14
  5 7666.12 -0.0106774 4208.11 -2.90423e-15 1.30049e-13 -5.43582e-14
  6 7666.12 -0.0106774 4208.11 -2.90423e-15 8.08953e-14 -8.11097e-14
  7 7666.12 -0.0106774 4208.11 -6.98788e-15 2.62078e-13 -6.58683e-14
  8 7666.12 -0.0106774 4208.11 -6.98788e-15 1.81798e-13 -1.41076e-13
</Section>

newXOutput 476

<Section columns = "stress_xx | stress_yy | stress_zz | stress_xy | stress_yz | stress_xz">
  1 7667.50 -0.0106602 4212.58 -1.18102e-16 1.11169e-13 6.95490e-16
  2 7667.50 -0.0106602 4212.58 -4.40764e-16 1.16502e-13 3.61521e-14
  3 7667.50 -0.0106602 4212.58 -3.16455e-17 2.31422e-13 1.86356e-16
  4 7667.50 -0.0106602 4212.58 -1.18102e-16 2.48994e-13 9.68693e-15
  5 7667.50 -0.0106602 4212.58 -4.40764e-16 1.07494e-13 6.95490e-16
  6 7667.50 -0.0106602 4212.58 -1.64496e-15 1.02785e-13 3.61521e-14
  7 7667.50 -0.0106602 4212.58 -1.18102e-16 2.30437e-13 1.86356e-16
  8 7667.50 -0.0106602 4212.58 -4.40764e-16 2.45318e-13 9.68693e-15
</Section>

newXOutput 477

<Section columns = "stress_xx | stress_yy | stress_zz | stress_xy | stress_yz | stress_xz">
  1 7668.87 -0.0106431 4217.04 -4.39203e-16 9.42141e-14 -4.23775e-14
  2 7668.87 -0.0106431 4217.04 -1.17684e-16 9.45261e-14 -9.12201e-14
  3 7668.87 -0.0106431 4217.04 -1.17684e-16 2.26760e-13 -1.94795e-14
  4 7668.87 -0.0106431 4217.04 -3.15333e-17 2.42977e-13 -5.47635e-14
  5 7668.87 -0.0106431 4217.04 -1.63913e-15 9.42141e-14 -4.87851e-14
  6 7668.87 -0.0106431 4217.04 -4.39203e-16 9.45261e-14 -1.15134e-13
  7 7668.87 -0.0106431 4217.04 -4.39203e-16 2.26760e-13 -4.33931e-14
  8 7668.87 -0.0106431 4217.04 -1.17684e-16 2.42977e-13 -1.44010e-13
</Section>

newXOutput 478

<Section columns = "stress_xx | stress_yy | stress_zz | stress_xy | stress_yz | stress_xz">
  1 7670.24 -0.0106261 4221.49 -4.37649e-16 -1.74328e-13 -4.43405e-14
  2 7670.24 -0.0106261 4221.49 -1.17268e-16 -1.64658e-13 -8.59999e-14
  3 7670.24 -0.0106261 4221.49 -1.17268e-16 -2.92160e-13 -2.95699e-14
  4 7670.24 -0.0106261 4221.49 -3.14218e-17 -2.73445e-13 -1.60610e-13
  5 7670.24 -0.0106261 4221.49 -1.63333e-15 -1.77999e-13 -5.62656e-14
  6 7670.24 -0.0106261 4221.49 -4.37649e-16 -1.78359e-13 -8.91952e-14
  7 7670.24 -0.0106261 4221.49 -4.37649e-16 -2.93143e-13 -7.40748e-14
  8 7670.24 -0.0106261 4221.49 -1.17268e-16 -2.77116e-13 -1.72535e-13
</Section>

newXOutput 479

<Section columns = "stress_xx | stress_yy | stress_zz | stress_xy | stress_yz | stress_xz">
  1 7671.59 -0.0106091 4225.93 3.50560e-16 -1.71048e-13 -1.03496e-14
  2 7671.59 -0.0106091 4225.93 -3.10859e-16 -1.93781e-13 -5.33490e-15
  3 7671.59 -0.0106091 4225.93 1.71310e-15 -2.91136e-13 -4.10153e-14
  4 7671.59 -0.0106091 4225.93 3.50560e-16 -2.81113e-13 -1.44151e-13
  5 7671.59 -0.0106091 4225.93 1.30831e-15 -1.63710e-13 -1.03496e-14
  6 7671.59 -0.0106091 4225.93 -1.16014e-15 -1.66396e-13 -5.33490e-15
  7 7671.59 -0.0106091 4225.93 6.39337e-15 -2.89170e-13 -4.10153e-14
  8 7671.59 -0.0106091 4225.93 1.30831e-15 -2.73775e-13 -1.44151e-13
</Section>

newXOutput 480

<Section columns = "stress_xx | stress_yy | stress_zz | stress_xy | stress_yz | stress_xz">
  1 7672.95 -0.0105922 4230.36 1.24801e-16 -1.41290e-13 -7.30730e-15
  2 7672.95 -0.0105922 4230.36 4.65763e-16 -1.40140e-13 3.91332e-14
  3 7672.95 -0.0105922 4230.36 4.65763e-16 -3.25439e-13 -3.20388e-14
  4 7672.95 -0.0105922 4230.36 1.73825e-15 -1.96290e-13 -1.01778e-13
  5 7672.95 -0.0105922 4230.36 4.65763e-16 -1.33956e-13 -9.50468e-16
  6 7672.95 -0.0105922 4230.36 1.73825e-15 -1.12772e-13 6.28573e-14
  7 7672.95 -0.0105922 4230.36 1.73825e-15 -3.23474e-13 -8.31482e-15
  8 7672.95 -0.0105922 4230.36 6.48725e-15 -1.88956e-13 -1.32383e-14
</Section>

newXOutput 481

<Section columns = "stress_xx | stress_yy | stress_zz | stress_xy | stress_yz | stress_xz">
  1 7674.29 -0.0105754 4234.78 3.58333e-15 -1.07603e-13 -4.91693e-14
  2 7674.29 -0.0105754 4234.78 3.58333e-15 -1.68559e-13 -4.86669e-14
  3 7674.29 -0.0105754 4234.78 4.62761e-15 -1.85900e-13 -4.86669e-14
  4 7674.29 -0.0105754 4234.78 4.62761e-15 -2.50520e-13 -2.25503e-14
  5 7674.29 -0.0105754 4234.78 -2.98042e-15 -1.11268e-13 -4.91693e-14
  6 7674.29 -0.0105754 4234.78 -2.98042e-15 -1.82235e-13 -4.86669e-14
  7 7674.29 -0.0105754 4234.78 -6.87770e-15 -1.86882e-13 -4.86669e-14
  8 7674.29 -0.0105754 4234.78 -6.87770e-15 -2.54185e-13 -2.25503e-14
</Section>

newXOutput 482

<Section columns = "stress_xx | stress_yy | stress_zz | stress_xy | stress_yz | stress_xz">
  1 7675.63 -0.0105587 4239.20 4.35436e-15 -2.58292e-14 1.58083e-15
  2 7675.63 -0.0105587 4239.20 4.69292e-15 -7.44215e-14 5.89972e-15
  3 7675.63 -0.0105587 4239.20 9.17728e-15 -5.24472e-14 -2.94986e-14
  4 7675.63 -0.0105587 4239.20 1.04408e-14 -1.13726e-13 -1.10090e-13
  5 7675.63 -0.0105587 4239.20 1.59603e-15 -2.58292e-14 7.90413e-15
  6 7675.63 -0.0105587 4239.20 2.85957e-15 -7.44215e-14 2.94986e-14
  7 7675.63 -0.0105587 4239.20 4.06115e-15 -5.24472e-14 -5.89972e-15
  8 7675.63 -0.0105587 4239.20 8.77675e-15 -1.13726e-13 -2.20181e-14
</Section>

newXOutput 483

<Section columns = "stress_xx | stress_yy | stress_zz | stress_xy | stress_yz | stress_xz">
  1 7676.96 -0.0105420 4243.60 4.79992e-15 -4.90495e-14 -7.24960e-15
  2 7676.96 -0.0105420 4243.60 4.79992e-15 -5.86424e-14 3.88242e-14
  3 7676.96 -0.0105420 4243.60 1.08650e-14 -5.86424e-14 -3.17858e-14
  4 7676.96 -0.0105420 4243.60 1.08650e-14 -1.09443e-13 -1.00974e-13
  5 7676.96 -0.0105420 4243.60 3.31038e-15 -4.90495e-14 -9.42962e-16
  6 7676.96 -0.0105420 4243.60 3.31038e-15 -5.86424e-14 6.23609e-14
  7 7676.96 -0.0105420 4243.60 1.04659e-14 -5.86424e-14 -8.24916e-15
  8 7676.96 -0.0105420 4243.60 1.04659e-14 -1.09443e-13 -1.31338e-14
</Section>

newXOutput 484

<Section columns = "stress_xx | stress_yy | stress_zz | stress_xy | stress_yz | stress_xz">
  1 7678.28 -0.0105253 4248.00 6.95624e-15 -2.47883e-14 -4.13403e-14
  2 7678.28 -0.0105253 4248.00 6.95624e-15 -6.90922e-14 -7.60539e-14
  3 7678.28 -0.0105253 4248.00 1.89372e-14 -6.90922e-14 -2.05121e-14
  4 7678.28 -0.0105253 4248.00 1.89372e-14 -9.95166e-14 -1.26015e-13
  5 7678.28 -0.0105253 4248.00 3.88106e-15 -2.08675e-14 -4.67876e-14
  6 7678.28 -0.0105253 4248.00 3.88106e-15 -5.44599e-14 -5.57242e-14
  7 7678.28 -0.0105253 4248.00 1.26023e-14 -5.44599e-14 -4.08418e-14
  8 7678.28 -0.0105253 4248.00 1.26023e-14 -4.49078e-14 -5.01433e-14
</Section>

newXOutput 485

<Section columns = "stress_xx | stress_yy | stress_zz | stress_xy | stress_yz | stress_xz">
  1 7679.59 -0.0105088 4252.39 -1.55777e-14 8.82842e-14 7.84186e-15
  2 7679.59 -0.0105088 4252.39 -1.52426e-14 2.22741e-13 2.92662e-14
  3 7679.59 -0.0105088 4252.39 -2.82644e-14 1.83505e-13 -5.85324e-15
  4 7679.59 -0.0105088 4252.39 -2.70141e-14 4.28288e-13 -2.18446e-14
  5 7679.59 -0.0105088 4252.39 -7.63474e-15 8.46282e-14 1.56837e-15
  6 7679.59 -0.0105088 4252.39 -6.38446e-15 2.09097e-13 5.85324e-15
  7 7679.59 -0.0105088 4252.39 -1.39924e-14 1.82526e-13 -2.92662e-14
  8 7679.59 -0.0105088 4252.39 -9.32623e-15 4.24632e-13 -1.09223e-13
</Section>

newXOutput 486

<Section columns = "stress_xx | stress_yy | stress_zz | stress_xy | stress_yz | stress_xz">
  1 7680.90 -0.0104923 4256.77 -4.71089e-15 1.80372e-14 -4.36717e-14
  2 7680.90 -0.0104923 4256.77 -4.71089e-15 4.68614e-14 -9.76233e-14
  3 7680.90 -0.0104923 4256.77 -8.73772e-15 4.68614e-14 -2.75689e-14
  4 7680.90 -0.0104923 4256.77 -8.73772e-15 1.69408e-13 -8.53750e-14
  5 7680.90 -0.0104923 4256.77 -3.13114e-15 1.41210e-14 -5.61857e-14
  6 7680.90 -0.0104923 4256.77 -3.13114e-15 3.22461e-14 -1.44326e-13
  7 7680.90 -0.0104923 4256.77 -2.84202e-15 3.22461e-14 -7.42719e-14
  8 7680.90 -0.0104923 4256.77 -2.84202e-15 1.14863e-13 -2.59673e-13
</Section>

newXOutput 487

<Section columns = "stress_xx | stress_yy | stress_zz | stress_xy | stress_yz | stress_xz">
  1 7682.20 -0.0104758 4261.14 1.21767e-16 -2.70646e-14 -5.06823e-14
  2 7682.20 -0.0104758 4261.14 4.54439e-16 -1.92369e-14 -5.64283e-14
  3 7682.20 -0.0104758 4261.14 4.54439e-16 2.67322e-15 -5.64283e-14
  4 7682.20 -0.0104758 4261.14 1.69599e-15 3.18867e-14 -5.40116e-14
  5 7682.20 -0.0104758 4261.14 4.54439e-16 -1.92369e-14 -5.69228e-14
  6 7682.20 -0.0104758 4261.14 1.69599e-15 9.97658e-15 -7.97185e-14
  7 7682.20 -0.0104758 4261.14 1.69599e-15 3.18867e-14 -7.97185e-14
  8 7682.20 -0.0104758 4261.14 6.32952e-15 1.40913e-13 -1.40932e-13
</Section>

newXOutput 488

<Section columns = "stress_xx | stress_yy | stress_zz | stress_xy | stress_yz | stress_xz">
  1 7683.50 -0.0104595 4265.51 0.00000 1.32273e-14 1.00585e-14
  2 7683.50 -0.0104595 4265.51 0.00000 8.50392e-15 3.75389e-14
  3 7683.50 -0.0104595 4265.51 0.00000 8.50392e-15 2.69517e-15
  4 7683.50 -0.0104595 4265.51 0.00000 2.07884e-14 1.00585e-14
  5 7683.50 -0.0104595 4265.51 0.00000 1.71388e-14 1.00585e-14
  6 7683.50 -0.0104595 4265.51 0.00000 2.31021e-14 3.75389e-14
  7 7683.50 -0.0104595 4265.51 0.00000 2.31021e-14 2.69517e-15
  8 7683.50 -0.0104595 4265.51 0.00000 7.52696e-14 1.00585e-14
</Section>

newXOutput 489

<Section columns = "stress_xx | stress_yy | stress_zz | stress_xy | stress_yz | stress_xz">
  1 7684.78 -0.0104431 4269.86 2.33599e-15 1.90788e-14 -3.16968e-14
  2 7684.78 -0.0104431 4269.86 2.97458e-15 5.07845e-14 -8.58695e-14
  3 7684.78 -0.0104431 4269.86 4.87629e-15 3.35247e-14 -1.63645e-14
  4 7684.78 -0.0104431 4269.86 6.19178e-15 1.19645e-13 -5.23849e-14
  5 7684.78 -0.0104431 4269.86 3.41775e-15 1.93407e-14 -3.79047e-14
  6 7684.78 -0.0104431 4269.86 5.80097e-15 5.17618e-14 -1.09038e-13
  7 7684.78 -0.0104431 4269.86 1.03720e-14 4.71371e-14 -3.95328e-14
  8 7684.78 -0.0104431 4269.86 1.52815e-14 1.70447e-13 -1.38850e-13
</Section>

newXOutput 490

<Section columns = "stress_xx | stress_yy | stress_zz | stress_xy | stress_yz | stress_xz">
  1 7686.06 -0.0104269 4274.21 4.49703e-16 -1.33123e-14 -4.08459e-14
  2 7686.06 -0.0104269 4274.21 1.20498e-16 1.15376e-14 -8.27564e-14
  3 7686.06 -0.0104269 4274.21 1.67831e-15 3.34094e-14 -2.07581e-14
  4 7686.06 -0.0104269 4274.21 4.49703e-16 1.41089e-13 -1.53496e-13
  5 7686.06 -0.0104269 4274.21 1.67831e-15 -2.11264e-14 -4.66228e-14
  6 7686.06 -0.0104269 4274.21 4.49703e-16 -1.76248e-14 -8.43044e-14
  7 7686.06 -0.0104269 4274.21 6.26355e-15 4.24700e-15 -4.23179e-14
  8 7686.06 -0.0104269 4274.21 1.67831e-15 3.22539e-14 -1.59273e-13
</Section>

newXOutput 491

<Section columns = "stress_xx | stress_yy | stress_zz | stress_xy | stress_yz | stress_xz">
  1 7687.34 -0.0104107 4278.55 8.04374e-18 1.00653e-15 -7.16518e-16
  2 7687.34 -0.0104107 4278.55 3.00196e-17 5.22071e-15 -2.67408e-15
  3 7687.34 -0.0104107 4278.55 4.18119e-16 -1.66383e-14 -3.72452e-14
  4 7687.34 -0.0104107 4278.55 1.56044e-15 1.40192e-14 -1.39001e-13
  5 7687.34 -0.0104107 4278.55 3.00196e-17 4.91128e-15 -7.16518e-16
  6 7687.34 -0.0104107 4278.55 1.12035e-16 1.97934e-14 -2.67408e-15
  7 7687.34 -0.0104107 4278.55 1.56044e-15 -2.06563e-15 -3.72452e-14
  8 7687.34 -0.0104107 4278.55 5.82365e-15 6.84052e-14 -1.39001e-13
</Section>

newXOutput 492

<Section columns = "stress_xx | stress_yy | stress_zz | stress_xy | stress_yz | stress_xz">
  1 7688.61 -0.0103946 4282.88 -8.95610e-15 9.70364e-14 -4.78724e-17
  2 7688.61 -0.0103946 4282.88 -8.95610e-15 -4.62170e-16 3.19924e-14
  3 7688.61 -0.0103946 4282.88 -1.75664e-14 2.66310e-13 -3.69693e-14
  4 7688.61 -0.0103946 4282.88 -1.75664e-14 6.42669e-14 -1.29351e-13
  5 7688.61 -0.0103946 4282.88 -1.75664e-14 9.33953e-14 -4.78724e-17
  6 7688.61 -0.0103946 4282.88 -1.75664e-14 -1.40508e-14 3.19924e-14
  7 7688.61 -0.0103946 4282.88 -3.59505e-14 2.65335e-13 -3.69693e-14
  8 7688.61 -0.0103946 4282.88 -3.59505e-14 6.06258e-14 -1.29351e-13
</Section>

newXOutput 493

<Section columns = "stress_xx | stress_yy | stress_zz | stress_xy | stress_yz | stress_xz">
  1 7689.87 -0.0103785 4287.20 -4.59726e-15 -1.53409e-13 -4.55460e-14
  2 7689.87 -0.0103785 4287.20 -4.59726e-15 -1.53409e-13 -4.65950e-14
  3 7689.87 -0.0103785 4287.20 -8.52697e-15 -2.62577e-13 -3.93274e-14
  4 7689.87 -0.0103785 4287.20 -8.52697e-15 -2.62577e-13 -1.97528e-14
  5 7689.87 -0.0103785 4287.20 -3.05562e-15 -1.53409e-13 -3.98142e-14
  6 7689.87 -0.0103785 4287.20 -3.05562e-15 -1.53409e-13 -4.50592e-14
  7 7689.87 -0.0103785 4287.20 -2.77348e-15 -2.62577e-13 -1.79359e-14
  8 7689.87 -0.0103785 4287.20 -2.77348e-15 -2.62577e-13 -1.40209e-14
</Section>

newXOutput 494

<Section columns = "stress_xx | stress_yy | stress_zz | stress_xy | stress_yz | stress_xz">
  1 7691.12 -0.0103625 4291.51 -8.63802e-15 -1.47865e-13 1.53184e-15
  2 7691.12 -0.0103625 4291.51 -8.63802e-15 -1.51858e-13 5.71691e-15
  3 7691.12 -0.0103625 4291.51 -1.68543e-14 -2.82784e-13 -2.85846e-14
  4 7691.12 -0.0103625 4291.51 -1.68543e-14 -2.67880e-13 -1.06679e-13
  5 7691.12 -0.0103625 4291.51 -4.13202e-15 -1.47865e-13 7.65921e-15
  6 7691.12 -0.0103625 4291.51 -4.13202e-15 -1.51858e-13 2.85846e-14
  7 7691.12 -0.0103625 4291.51 -5.00308e-15 -2.82784e-13 -5.71691e-15
  8 7691.12 -0.0103625 4291.51 -5.00308e-15 -2.67880e-13 -2.13358e-14
</Section>

newXOutput 495

<Section columns = "stress_xx | stress_yy | stress_zz | stress_xy | stress_yz | stress_xz">
  1 7692.37 -0.0103466 4295.82 1.05347e-30 3.39330e-13 2.18944e-15
  2 7692.37 -0.0103466 4295.82 2.14131e-30 3.38974e-13 4.00916e-14
  3 7692.37 -0.0103466 4295.82 6.18038e-30 6.92514e-13 -2.83330e-14
  4 7692.37 -0.0103466 4295.82 2.25858e-29 6.73984e-13 -9.71870e-14
  5 7692.37 -0.0103466 4295.82 -7.66553e-32 3.39591e-13 8.30088e-15
  6 7692.37 -0.0103466 4295.82 -2.07637e-30 3.39948e-13 6.28998e-14
  7 7692.37 -0.0103466 4295.82 1.55985e-30 7.06079e-13 -5.52478e-15
  8 7692.37 -0.0103466 4295.82 5.34174e-30 7.24609e-13 -1.20657e-14
</Section>

newXOutput 496

<Section columns = "stress_xx | stress_yy | stress_zz | stress_xy | stress_yz | stress_xz">
  1 7693.61 -0.0103307 4300.12 -1.11562e-30 -3.20262e-13 -2.87898e-14
  2 7693.61 -0.0103307 4300.12 -5.91968e-30 -2.91606e-13 -7.06822e-14
  3 7693.61 -0.0103307 4300.12 1.66125e-30 -5.96744e-13 -9.64642e-15
  4 7693.61 -0.0103307 4300.12 -1.32952e-29 -4.74909e-13 -1.19377e-13
  5 7693.61 -0.0103307 4300.12 -1.52985e-30 -3.24156e-13 -2.83815e-14
  6 7693.61 -0.0103307 4300.12 -3.44528e-30 -3.06136e-13 -4.94571e-14
  7 7693.61 -0.0103307 4300.12 1.15305e-31 -6.11274e-13 -8.12253e-15
  8 7693.61 -0.0103307 4300.12 -4.06058e-30 -5.29137e-13 -4.01643e-14
</Section>

newXOutput 497

<Section columns = "stress_xx | stress_yy | stress_zz | stress_xy | stress_yz | stress_xz">
  1 7694.84 -0.0103149 4304.41 4.25000e-15 -1.27219e-13 9.67596e-15
  2 7694.84 -0.0103149 4304.41 4.89261e-15 -1.61174e-13 2.89188e-14
  3 7694.84 -0.0103149 4304.41 9.14838e-15 -2.48306e-13 2.07627e-15
  4 7694.84 -0.0103149 4304.41 1.15466e-14 -3.89908e-13 -1.90937e-14
  5 7694.84 -0.0103149 4304.41 1.95359e-15 -1.19436e-13 9.26869e-15
  6 7694.84 -0.0103149 4304.41 4.35185e-15 -1.32130e-13 7.74876e-15
  7 7694.84 -0.0103149 4304.41 5.49218e-15 -2.19262e-13 5.56336e-16
  8 7694.84 -0.0103149 4304.41 1.44426e-14 -2.81514e-13 -9.81012e-14
</Section>

newXOutput 498

<Section columns = "stress_xx | stress_yy | stress_zz | stress_xy | stress_yz | stress_xz">
  1 7696.07 -0.0102991 4308.69 6.80691e-15 -2.42009e-14 -3.31814e-14
  2 7696.07 -0.0102991 4308.69 6.16651e-15 -4.96950e-14 -9.21620e-14
  3 7696.07 -0.0102991 4308.69 1.20243e-14 -1.55369e-15 -2.42686e-14
  4 7696.07 -0.0102991 4308.69 9.63431e-15 5.08673e-15 -8.20850e-14
  5 7696.07 -0.0102991 4308.69 4.85431e-15 -2.39404e-14 -4.53094e-14
  6 7696.07 -0.0102991 4308.69 2.46431e-15 -4.87228e-14 -1.37424e-13
  7 7696.07 -0.0102991 4308.69 1.45315e-14 1.19876e-14 -6.95309e-14
  8 7696.07 -0.0102991 4308.69 5.61191e-15 5.56237e-14 -2.51006e-13
</Section>

newXOutput 499

<Section columns = "stress_xx | stress_yy | stress_zz | stress_xy | stress_yz | stress_xz">
  1 7697.29 -0.0102834 4312.96 4.35896e-16 1.79013e-14 -3.79356e-14
  2 7697.29 -0.0102834 4312.96 1.16798e-16 4.65083e-14 -5.16926e-14
  3 7697.29 -0.0102834 4312.96 1.62679e-15 4.65083e-14 -4.45374e-14
  4 7697.29 -0.0102834 4312.96 4.35896e-16 1.68132e-13 -4.96270e-14
  5 7697.29 -0.0102834 4312.96 1.62679e-15 1.40147e-14 -3.83408e-14
  6 7697.29 -0.0102834 4312.96 4.35896e-16 3.20032e-14 -7.27531e-14
  7 7697.29 -0.0102834 4312.96 6.07125e-15 3.20032e-14 -4.60494e-14
  8 7697.29 -0.0102834 4312.96 1.62679e-15 1.13998e-13 -1.28226e-13
</Section>

newXOutput 500

<Section columns = "stress_xx | stress_yy | stress_zz | stress_xy | stress_yz | stress_xz">
  1 7698.50 -0.0102678 4317.23 2.20474e-31 -3.49456e-14 1.18091e-14
  2 7698.50 -0.0102678 4317.23 6.76846e-31 -6.66398e-14 3.69355e-14
  3 7698.50 -0.0102678 4317.23 2.05050e-31 -7.12351e-14 1.03010e-14
  4 7698.50 -0.0102678 4317.23 2.20474e-31 -9.81087e-14 1.18091e-14
  5 7698.50 -0.0102678 4317.23 2.78037e-31 -2.74370e-14 1.74377e-14
  6 7698.50 -0.0102678 4317.23 4.92866e-31 -3.86174e-14 3.84437e-14
  7 7698.50 -0.0102678 4317.23 6.19283e-31 -5.57672e-14 3.13070e-14
  8 7698.50 -0.0102678 4317.23 2.78037e-31 -4.03819e-14 1.74377e-14
</Section>

newXOutput 501

<Section columns = "stress_xx | stress_yy | stress_zz | stress_xy | stress_yz | stress_xz">
  1 7699.71 -0.0102522 4321.48 -7.62304e-31 -1.04226e-13 -3.07223e-14
  2 7699.71 -0.0102522 4321.48 -2.04097e-30 -9.92779e-14 -8.32295e-14
  3 7699.71 -0.0102522 4321.48 -5.16540e-31 -1.38150e-13 -1.58614e-14
  4 7699.71 -0.0102522 4321.48 -1.71233e-30 -1.36825e-13 -5.07744e-14
  5 7699.71 -0.0102522 4321.48 -1.12349e-30 -1.07848e-13 -3.67394e-14
  6 7699.71 -0.0102522 4321.48 -3.38892e-30 -1.12796e-13 -1.05686e-13
  7 7699.71 -0.0102522 4321.48 -1.46649e-30 -1.39121e-13 -3.83174e-14
  8 7699.71 -0.0102522 4321.48 -5.25758e-30 -1.40447e-13 -1.34581e-13
</Section>

newXOutput 502

<Section columns = "stress_xx | stress_yy | stress_zz | stress_xy | stress_yz | stress_xz">
  1 7700.91 -0.0102367 4325.73 -1.26651e-14 -1.44505e-13 9.75253e-15
  2 7700.91 -0.0102367 4325.73 -1.20334e-14 -6.01106e-14 -3.33961e-14
  3 7700.91 -0.0102367 4325.73 -2.57037e-14 -2.29281e-13 -2.62962e-14
  4 7700.91 -0.0102367 4325.73 -2.33464e-14 -5.01254e-14 -1.41435e-13
  5 7700.91 -0.0102367 4325.73 -6.25565e-15 -1.44246e-13 1.53521e-14
  6 7700.91 -0.0102367 4325.73 -3.89830e-15 -5.91406e-14 -3.18958e-14
  7 7700.91 -0.0102367 4325.73 -1.14441e-14 -2.15771e-13 -5.39851e-15
  8 7700.91 -0.0102367 4325.73 -2.64634e-15 2.94725e-16 -1.35835e-13
</Section>

newXOutput 503

<Section columns = "stress_xx | stress_yy | stress_zz | stress_xy | stress_yz | stress_xz">
  1 7702.11 -0.0102212 4329.97 -2.03698e-15 -5.21304e-14 4.38932e-15
  2 7702.11 -0.0102212 4329.97 -2.03698e-15 -4.55092e-14 -2.19663e-14
  3 7702.11 -0.0102212 4329.97 -4.19622e-15 -1.32339e-13 -4.83952e-14
  4 7702.11 -0.0102212 4329.97 -4.19622e-15 -7.79753e-14 -2.15420e-13
  5 7702.11 -0.0102212 4329.97 -4.19622e-15 -5.98857e-14 2.19466e-14
  6 7702.11 -0.0102212 4329.97 -4.19622e-15 -7.44525e-14 2.42110e-14
  7 7702.11 -0.0102212 4329.97 -8.64432e-15 -1.61282e-13 1.71294e-14
  8 7702.11 -0.0102212 4329.97 -8.64432e-15 -1.85993e-13 -4.30840e-14
</Section>

newXOutput 504

<Section columns = "stress_xx | stress_yy | stress_zz | stress_xy | stress_yz | stress_xz">
  1 7703.30 -0.0102058 4334.20 6.91913e-31 3.90555e-15 -4.64055e-17
  2 7703.30 -0.0102058 4334.20 2.50234e-30 3.77240e-14 3.10121e-14
  3 7703.30 -0.0102058 4334.20 2.50234e-30 -5.66596e-15 -3.58365e-14
  4 7703.30 -0.0102058 4334.20 9.31743e-30 1.35364e-13 -1.25388e-13
  5 7703.30 -0.0102058 4334.20 2.02286e-31 -3.84531e-15 -4.64055e-17
  6 7703.30 -0.0102058 4334.20 6.75024e-31 8.79736e-15 3.10121e-14
  7 7703.30 -0.0102058 4334.20 6.75024e-31 -3.45926e-14 -3.58365e-14
  8 7703.30 -0.0102058 4334.20 2.49781e-30 2.74084e-14 -1.25388e-13
</Section>

newXOutput 505

<Section columns = "stress_xx | stress_yy | stress_zz | stress_xy | stress_yz | stress_xz">
  1 7704.48 -0.0101904 4338.43 7.66458e-18 -1.11148e-13 1.99923e-14
  2 7704.48 -0.0101904 4338.43 2.86046e-17 -7.80580e-14 5.35693e-15
  3 7704.48 -0.0101904 4338.43 3.98411e-16 -2.29835e-13 1.24022e-14
  4 7704.48 -0.0101904 4338.43 1.48689e-15 -9.15319e-14 3.32315e-15
  5 7704.48 -0.0101904 4338.43 2.86046e-17 -1.15021e-13 2.55487e-14
  6 7704.48 -0.0101904 4338.43 1.06754e-16 -9.25130e-14 6.84576e-15
  7 7704.48 -0.0101904 4338.43 1.48689e-15 -2.44290e-13 3.31389e-14
  8 7704.48 -0.0101904 4338.43 5.54914e-15 -1.45479e-13 8.87954e-15
</Section>

newXOutput 506

<Section columns = "stress_xx | stress_yy | stress_zz | stress_xy | stress_yz | stress_xz">
  1 7705.66 -0.0101752 4342.65 4.15103e-31 7.54280e-15 1.24698e-14
  2 7705.66 -0.0101752 4342.65 1.60633e-30 3.57692e-15 8.48549e-15
  3 7705.66 -0.0101752 4342.65 1.04873e-30 9.02568e-14 -1.77401e-14
  4 7705.66 -0.0101752 4342.65 4.67868e-30 1.05058e-13 -1.00746e-13
  5 7705.66 -0.0101752 4342.65 6.37390e-34 7.54280e-15 2.39519e-14
  6 7705.66 -0.0101752 4342.65 6.50600e-31 3.57692e-15 3.21390e-14
  7 7705.66 -0.0101752 4342.65 -4.98074e-31 9.02568e-14 2.51119e-14
  8 7705.66 -0.0101752 4342.65 1.11183e-30 1.05058e-13 -1.24698e-14
</Section>

newXOutput 507

<Section columns = "stress_xx | stress_yy | stress_zz | stress_xy | stress_yz | stress_xz">
  1 7706.83 -0.0101599 4346.85 -2.15916e-31 1.33062e-13 1.10558e-14
  2 7706.83 -0.0101599 4346.85 -8.05811e-31 1.24167e-13 4.12609e-14
  3 7706.83 -0.0101599 4346.85 1.09370e-30 1.93717e-13 -2.50740e-14
  4 7706.83 -0.0101599 4346.85 4.08174e-30 1.73026e-13 -9.35775e-14
  5 7706.83 -0.0101599 4346.85 -3.45743e-31 1.33321e-13 1.69806e-14
  6 7706.83 -0.0101599 4346.85 -1.29033e-30 1.25135e-13 6.33725e-14
  7 7706.83 -0.0101599 4346.85 2.15916e-31 2.07188e-13 -2.96240e-15
  8 7706.83 -0.0101599 4346.85 8.05811e-31 2.23301e-13 -1.10558e-14
</Section>

newXOutput 508

<Section columns = "stress_xx | stress_yy | stress_zz | stress_xy | stress_yz | stress_xz">
  1 7708.00 -0.0101448 4351.05 -3.46906e-15 1.13338e-13 1.17662e-14
  2 7708.00 -0.0101448 4351.05 -3.46906e-15 2.76772e-14 -2.48118e-14
  3 7708.00 -0.0101448 4351.05 -6.25027e-15 2.13334e-13 -1.78207e-14
  4 7708.00 -0.0101448 4351.05 -6.25027e-15 9.04074e-14 -1.09140e-13
  5 7708.00 -0.0101448 4351.05 -6.25027e-15 1.28286e-13 2.31895e-14
  6 7708.00 -0.0101448 4351.05 -6.25027e-15 8.34641e-14 -1.27947e-15
  7 7708.00 -0.0101448 4351.05 -9.53151e-15 2.44128e-13 2.48118e-14
  8 7708.00 -0.0101448 4351.05 -9.53151e-15 2.05330e-13 -2.13163e-14
</Section>

newXOutput 509

<Section columns = "stress_xx | stress_yy | stress_zz | stress_xy | stress_yz | stress_xz">
  1 7709.16 -0.0101296 4355.25 -2.46064e-15 5.41116e-14 -2.78859e-14
  2 7709.16 -0.0101296 4355.25 -2.46064e-15 3.61318e-14 -1.41832e-13
  3 7709.16 -0.0101296 4355.25 -4.23575e-15 7.93970e-14 -3.58656e-14
  4 7709.16 -0.0101296 4355.25 -4.23575e-15 2.70708e-14 -1.68126e-13
  5 7709.16 -0.0101296 4355.25 -4.23575e-15 5.41116e-14 -2.23863e-14
  6 7709.16 -0.0101296 4355.25 -4.23575e-15 3.61318e-14 -1.40359e-13
  7 7709.16 -0.0101296 4355.25 -8.50249e-15 7.93970e-14 -1.53408e-14
  8 7709.16 -0.0101296 4355.25 -8.50249e-15 2.70708e-14 -1.62627e-13
</Section>

newXOutput 510

<Section columns = "stress_xx | stress_yy | stress_zz | stress_xy | stress_yz | stress_xz">
  1 7710.31 -0.0101146 4359.43 7.96397e-15 1.01379e-14 -2.33066e-14
  2 7710.31 -0.0101146 4359.43 8.55802e-15 -5.15420e-14 -8.69813e-14
  3 7710.31 -0.0101146 4359.43 2.14479e-14 1.04368e-13 -2.11546e-14
  4 7710.31 -0.0101146 4359.43 2.26717e-14 -8.38082e-14 -7.89499e-14
  5 7710.31 -0.0101146 4359.43 1.16677e-15 2.67251e-15 -3.50654e-14
  6 7710.31 -0.0101146 4359.43 3.38380e-15 -7.94034e-14 -1.30866e-13
  7 7710.31 -0.0101146 4359.43 6.83763e-15 8.89892e-14 -6.50391e-14
  8 7710.31 -0.0101146 4359.43 1.14048e-14 -1.41203e-13 -2.42729e-13
</Section>

newXOutput 511

<Section columns = "stress_xx | stress_yy | stress_zz | stress_xy | stress_yz | stress_xz">
  1 7711.45 -0.0100996 4363.61 -7.62596e-15 5.98000e-14 -2.83784e-14
  2 7711.45 -0.0100996 4363.61 -7.64647e-15 5.32091e-14 -1.74108e-13
  3 7711.45 -0.0100996 4363.61 -1.43106e-14 1.73723e-13 -3.58527e-14
  4 7711.45 -0.0100996 4363.61 -1.53770e-14 1.53692e-13 -1.76110e-13
  5 7711.45 -0.0100996 4363.61 -1.94628e-15 7.08624e-14 -2.29068e-14
  6 7711.45 -0.0100996 4363.61 -2.02285e-15 9.44948e-14 -1.72641e-13
  7 7711.45 -0.0100996 4363.61 1.21210e-15 1.90058e-13 -1.54326e-14
  8 7711.45 -0.0100996 4363.61 -2.76803e-15 2.14656e-13 -1.70639e-13
</Section>

newXOutput 512

<Section columns = "stress_xx | stress_yy | stress_zz | stress_xy | stress_yz | stress_xz">
  1 7712.60 -0.0100846 4367.78 -5.64750e-15 1.53221e-14 2.02700e-14
  2 7712.60 -0.0100846 4367.78 -5.62705e-15 8.02248e-14 3.81769e-14
  3 7712.60 -0.0100846 4367.78 -7.96126e-15 -6.15678e-15 1.23513e-14
  4 7712.60 -0.0100846 4367.78 -6.89840e-15 1.32814e-13 1.20837e-14
  5 7712.60 -0.0100846 4367.78 -1.48732e-15 2.30374e-14 2.57276e-14
  6 7712.60 -0.0100846 4367.78 -1.41101e-15 1.09019e-13 3.96392e-14
  7 7712.60 -0.0100846 4367.78 -7.85555e-16 2.26371e-14 3.27193e-14
  8 7712.60 -0.0100846 4367.78 3.18111e-15 2.40274e-13 1.75413e-14
</Section>

newXOutput 513

<Section columns = "stress_xx | stress_yy | stress_zz | stress_xy | stress_yz | stress_xz">
  1 7713.73 -0.0100697 4371.94 -8.80187e-32 -2.10665e-14 -2.09931e-14
  2 7713.73 -0.0100697 4371.94 -3.28490e-31 7.71087e-15 -7.83471e-14
  3 7713.73 -0.0100697 4371.94 -3.28490e-31 -7.86212e-14 -1.30229e-14
  4 7713.73 -0.0100697 4371.94 -1.22594e-30 2.87774e-14 -4.86023e-14
  5 7713.73 -0.0100697 4371.94 -3.28490e-31 -2.87774e-14 -2.68276e-14
  6 7713.73 -0.0100697 4371.94 -1.22594e-30 -2.10665e-14 -1.00122e-13
  7 7713.73 -0.0100697 4371.94 -1.22594e-30 -1.07399e-13 -3.47977e-14
  8 7713.73 -0.0100697 4371.94 -4.57528e-30 -7.86212e-14 -1.29867e-13
</Section>

newXOutput 514

<Section columns = "stress_xx | stress_yy | stress_zz | stress_xy | stress_yz | stress_xz">
  1 7714.86 -0.0100549 4376.09 -2.41930e-15 1.35960e-13 6.75282e-14
  2 7714.86 -0.0100549 4376.09 -2.41930e-15 1.09125e-13 1.28250e-13
  3 7714.86 -0.0100549 4376.09 -4.16459e-15 3.24832e-13 3.05131e-14
  4 7714.86 -0.0100549 4376.09 -4.16459e-15 2.83617e-13 -3.21439e-14
  5 7714.86 -0.0100549 4376.09 -4.16459e-15 1.39813e-13 7.91675e-14
  6 7714.86 -0.0100549 4376.09 -4.16459e-15 1.23506e-13 1.71689e-13
  7 7714.86 -0.0100549 4376.09 -8.35965e-15 3.39212e-13 7.39517e-14
  8 7714.86 -0.0100549 4376.09 -8.35965e-15 3.37286e-13 1.29971e-13
</Section>

newXOutput 515

<Section columns = "stress_xx | stress_yy | stress_zz | stress_xy | stress_yz | stress_xz">
  1 7715.98 -0.0100401 4380.24 -2.93216e-15 1.08169e-13 4.25644e-15
  2 7715.98 -0.0100401 4380.24 -2.93216e-15 7.60898e-14 -2.13013e-14
  3 7715.98 -0.0100401 4380.24 -5.98169e-15 1.74770e-13 -4.69301e-14
  4 7715.98 -0.0100401 4380.24 -5.98169e-15 2.65748e-13 -2.08898e-13
  5 7715.98 -0.0100401 4380.24 -5.98169e-15 1.07653e-13 2.12822e-14
  6 7715.98 -0.0100401 4380.24 -5.98169e-15 7.41642e-14 2.34781e-14
  7 7715.98 -0.0100401 4380.24 -9.27537e-15 1.47951e-13 1.66109e-14
  8 7715.98 -0.0100401 4380.24 -9.27537e-15 1.65658e-13 -4.17797e-14
</Section>

newXOutput 516

<Section columns = "stress_xx | stress_yy | stress_zz | stress_xy | stress_yz | stress_xz">
  1 7717.10 -0.0100254 4384.38 4.11372e-16 1.76972e-14 2.45041e-14
  2 7717.10 -0.0100254 4384.38 1.10227e-16 2.87280e-14 9.14505e-14
  3 7717.10 -0.0100254 4384.38 1.53526e-15 -1.92441e-15 2.66234e-14
  4 7717.10 -0.0100254 4384.38 4.11372e-16 1.32093e-13 9.93600e-14
  5 7717.10 -0.0100254 4384.38 1.53526e-15 1.71815e-14 1.29238e-14
  6 7717.10 -0.0100254 4384.38 4.11372e-16 2.68036e-14 4.82325e-14
  7 7717.10 -0.0100254 4384.38 5.72967e-15 -2.87280e-14 -1.65946e-14
  8 7717.10 -0.0100254 4384.38 1.53526e-15 3.20612e-14 -6.19320e-14
</Section>

newXOutput 517

<Section columns = "stress_xx | stress_yy | stress_zz | stress_xy | stress_yz | stress_xz">
  1 7718.21 -0.0100107 4388.51 4.09989e-16 -3.07936e-14 3.54573e-14
  2 7718.21 -0.0100107 4388.51 1.09856e-16 -1.15824e-14 9.50077e-15
  3 7718.21 -0.0100107 4388.51 1.53010e-15 -3.31161e-14 4.18321e-14
  4 7718.21 -0.0100107 4388.51 4.09989e-16 5.32889e-14 1.12089e-14
  5 7718.21 -0.0100107 4388.51 1.53010e-15 -3.46402e-14 3.54573e-14
  6 7718.21 -0.0100107 4388.51 4.09989e-16 -2.59382e-14 9.50077e-15
  7 7718.21 -0.0100107 4388.51 5.71041e-15 -4.74719e-14 4.18321e-14
  8 7718.21 -0.0100107 4388.51 1.53010e-15 -2.87572e-16 1.12089e-14
</Section>

newXOutput 518

<Section columns = "stress_xx | stress_yy | stress_zz | stress_xy | stress_yz | stress_xz">
  1 7719.32 -0.00999607 4392.63 1.09487e-16 -2.93045e-14 -2.72534e-14
  2 7719.32 -0.00999607 4392.63 4.08613e-16 -2.90470e-14 -1.38615e-13
  3 7719.32 -0.00999607 4392.63 4.08613e-16 -2.97758e-15 -3.50522e-14
  4 7719.32 -0.00999607 4392.63 1.52496e-15 1.04089e-14 -1.64313e-13
  5 7719.32 -0.00999607 4392.63 4.08613e-16 -2.90470e-14 -2.18785e-14
  6 7719.32 -0.00999607 4392.63 1.52496e-15 -2.80859e-14 -1.37175e-13
  7 7719.32 -0.00999607 4392.63 1.52496e-15 1.04089e-14 -1.49928e-14
  8 7719.32 -0.00999607 4392.63 5.69124e-15 6.03679e-14 -1.58938e-13
</Section>

newXOutput 519

<Section columns = "stress_xx | stress_yy | stress_zz | stress_xy | stress_yz | stress_xz">
  1 7720.42 -0.00998150 4396.75 -3.34246e-15 -1.82115e-14 1.07226e-14
  2 7720.42 -0.00998150 4396.75 -3.34246e-15 -4.78980e-14 4.00172e-14
  3 7720.42 -0.00998150 4396.75 -6.02217e-15 -4.87976e-15 -2.43182e-14
  4 7720.42 -0.00998150 4396.75 -6.02217e-15 -1.28342e-14 -9.07569e-14
  5 7720.42 -0.00998150 4396.75 -6.02217e-15 -1.82115e-14 1.64688e-14
  6 7720.42 -0.00998150 4396.75 -6.02217e-15 -4.78980e-14 6.14623e-14
  7 7720.42 -0.00998150 4396.75 -9.18365e-15 -4.87976e-15 -2.87310e-15
  8 7720.42 -0.00998150 4396.75 -9.18365e-15 -1.28342e-14 -1.07226e-14
</Section>

newXOutput 520

<Section columns = "stress_xx | stress_yy | stress_zz | stress_xy | stress_yz | stress_xz">
  1 7721.52 -0.00996699 4400.85 2.62133e-15 7.91685e-14 1.95295e-14
  2 7721.52 -0.00996699 4400.85 2.62133e-15 -1.11515e-14 -4.90122e-14
  3 7721.52 -0.00996699 4400.85 2.24629e-15 1.30241e-13 -1.69259e-14
  4 7721.52 -0.00996699 4400.85 2.24629e-15 1.06040e-13 -2.06981e-13
  5 7721.52 -0.00996699 4400.85 -4.40701e-15 8.63341e-14 3.09928e-14
  6 7721.52 -0.00996699 4400.85 -4.40701e-15 1.55909e-14 -6.23044e-15
  7 7721.52 -0.00996699 4400.85 -6.94278e-15 1.32161e-13 2.58559e-14
  8 7721.52 -0.00996699 4400.85 -6.94278e-15 1.13205e-13 -4.73171e-14
</Section>

newXOutput 521

<Section columns = "stress_xx | stress_yy | stress_zz | stress_xy | stress_yz | stress_xz">
  1 7722.60 -0.00995253 4404.95 4.50925e-15 -2.55703e-15 -1.11403e-14
  2 7722.60 -0.00995253 4404.95 3.91699e-15 -2.67100e-14 -1.33304e-13
  3 7722.60 -0.00995253 4404.95 1.06419e-14 -4.36543e-14 -5.28290e-15
  4 7722.60 -0.00995253 4404.95 8.43156e-15 -1.86705e-14 -1.55164e-13
  5 7722.60 -0.00995253 4404.95 4.01086e-15 -6.13780e-15 -1.11403e-14
  6 7722.60 -0.00995253 4404.95 1.80051e-15 -4.00736e-14 -1.33304e-13
  7 7722.60 -0.00995253 4404.95 1.33110e-14 -4.46138e-14 -5.28290e-15
  8 7722.60 -0.00995253 4404.95 5.06184e-15 -2.22512e-14 -1.55164e-13
</Section>

newXOutput 522

<Section columns = "stress_xx | stress_yy | stress_zz | stress_xy | stress_yz | stress_xz">
  1 7723.69 -0.00993812 4409.05 5.46788e-15 -7.76400e-14 -2.26063e-14
  2 7723.69 -0.00993812 4409.05 5.46788e-15 -1.03697e-13 -8.43680e-14
  3 7723.69 -0.00993812 4409.05 8.07401e-15 -1.29707e-13 -2.05190e-14
  4 7723.69 -0.00993812 4409.05 8.07401e-15 -1.36689e-13 -7.65779e-14
  5 7723.69 -0.00993812 4409.05 1.46511e-15 -7.40613e-14 -3.40119e-14
  6 7723.69 -0.00993812 4409.05 1.46511e-15 -9.03410e-14 -1.26934e-13
  7 7723.69 -0.00993812 4409.05 2.16343e-15 -1.28748e-13 -6.30850e-14
  8 7723.69 -0.00993812 4409.05 2.16343e-15 -1.33110e-13 -2.35436e-13
</Section>

newXOutput 523

<Section columns = "stress_xx | stress_yy | stress_zz | stress_xy | stress_yz | stress_xz">
  1 7724.77 -0.00992377 4413.13 2.74910e-15 5.08990e-14 6.39228e-14
  2 7724.77 -0.00992377 4413.13 2.45494e-15 1.11305e-13 1.17586e-13
  3 7724.77 -0.00992377 4413.13 5.54024e-15 5.14596e-14 2.20543e-14
  4 7724.77 -0.00992377 4413.13 4.44243e-15 2.45315e-13 -6.04186e-14
  5 7724.77 -0.00992377 4413.13 5.54024e-15 3.96554e-14 6.96112e-14
  6 7724.77 -0.00992377 4413.13 4.44243e-15 6.93431e-14 1.38816e-13
  7 7724.77 -0.00992377 4413.13 1.37075e-14 2.18877e-14 4.32837e-14
  8 7724.77 -0.00992377 4413.13 9.61041e-15 1.34951e-13 1.88104e-14
</Section>

newXOutput 524

<Section columns = "stress_xx | stress_yy | stress_zz | stress_xy | stress_yz | stress_xz">
  1 7725.84 -0.00990946 4417.21 -1.00122e-16 1.81253e-14 3.54492e-14
  2 7725.84 -0.00990946 4417.21 -3.73660e-16 2.33120e-14 4.12624e-14
  3 7725.84 -0.00990946 4417.21 -2.68276e-17 9.21883e-14 4.12624e-14
  4 7725.84 -0.00990946 4417.21 -1.00122e-16 1.09279e-13 1.95673e-14
  5 7725.84 -0.00990946 4417.21 -3.73660e-16 1.45507e-14 3.54492e-14
  6 7725.84 -0.00990946 4417.21 -1.39452e-15 9.97122e-15 4.12624e-14
  7 7725.84 -0.00990946 4417.21 -1.00122e-16 9.12305e-14 4.12624e-14
  8 7725.84 -0.00990946 4417.21 -3.73660e-16 1.05704e-13 1.95673e-14
</Section>

newXOutput 525

<Section columns = "stress_xx | stress_yy | stress_zz | stress_xy | stress_yz | stress_xz">
  1 7726.91 -0.00989522 4421.28 -2.65464e-16 1.95166e-14 -2.03644e-14
  2 7726.91 -0.00989522 4421.28 2.99366e-16 2.85295e-14 -7.60008e-14
  3 7726.91 -0.00989522 4421.28 2.99366e-16 9.73667e-14 -1.26329e-14
  4 7726.91 -0.00989522 4421.28 1.46293e-15 1.28738e-13 -4.71468e-14
  5 7726.91 -0.00989522 4421.28 -9.90723e-16 1.97731e-14 -2.60241e-14
  6 7726.91 -0.00989522 4421.28 1.11725e-15 2.94867e-14 -9.71234e-14
  7 7726.91 -0.00989522 4421.28 1.11725e-15 1.10700e-13 -3.37556e-14
  8 7726.91 -0.00989522 4421.28 5.45972e-15 1.78498e-13 -1.25977e-13
</Section>

newXOutput 526

<Section columns = "stress_xx | stress_yy | stress_zz | stress_xy | stress_yz | stress_xz">
  1 7727.97 -0.00988102 4425.34 -2.64581e-16 1.95055e-14 -1.16119e-14
  2 7727.97 -0.00988102 4425.34 2.98372e-16 2.85133e-14 -1.63402e-13
  3 7727.97 -0.00988102 4425.34 2.98372e-16 9.73114e-14 -5.38048e-15
  4 7727.97 -0.00988102 4425.34 1.45807e-15 1.28665e-13 -1.61732e-13
  5 7727.97 -0.00988102 4425.34 -9.87431e-16 1.97619e-14 -1.16119e-14
  6 7727.97 -0.00988102 4425.34 1.11354e-15 2.94700e-14 -1.63402e-13
  7 7727.97 -0.00988102 4425.34 1.11354e-15 1.10637e-13 -5.38048e-15
  8 7727.97 -0.00988102 4425.34 5.44158e-15 1.78397e-13 -1.61732e-13
</Section>

newXOutput 527

<Section columns = "stress_xx | stress_yy | stress_zz | stress_xy | stress_yz | stress_xz">
  1 7729.03 -0.00986688 4429.39 3.96509e-16 -1.01665e-13 1.97974e-14
  2 7729.03 -0.00986688 4429.39 1.06244e-16 -1.11112e-13 -1.64664e-14
  3 7729.03 -0.00986688 4429.39 1.47979e-15 -1.96758e-13 -1.64664e-14
  4 7729.03 -0.00986688 4429.39 3.96509e-16 -2.17388e-13 -1.94869e-13
  5 7729.03 -0.00986688 4429.39 1.47979e-15 -9.78406e-14 3.10602e-14
  6 7729.03 -0.00986688 4429.39 3.96509e-16 -9.68375e-14 2.55669e-14
  7 7729.03 -0.00986688 4429.39 5.52265e-15 -1.82483e-13 2.55669e-14
  8 7729.03 -0.00986688 4429.39 1.47979e-15 -1.64115e-13 -3.79984e-14
</Section>

newXOutput 528

<Section columns = "stress_xx | stress_yy | stress_zz | stress_xy | stress_yz | stress_xz">
  1 7730.08 -0.00985278 4433.44 1.05892e-16 5.71554e-16 1.68955e-14
  2 7730.08 -0.00985278 4433.44 3.95194e-16 5.00003e-15 3.37154e-14
  3 7730.08 -0.00985278 4433.44 3.95194e-16 -3.77986e-14 -2.91765e-14
  4 7730.08 -0.00985278 4433.44 1.47489e-15 7.96072e-15 -1.16750e-13
  5 7730.08 -0.00985278 4433.44 3.95194e-16 4.39417e-15 1.68955e-14
  6 7730.08 -0.00985278 4433.44 1.47489e-15 1.92662e-14 3.37154e-14
  7 7730.08 -0.00985278 4433.44 1.47489e-15 -2.35324e-14 -2.91765e-14
  8 7730.08 -0.00985278 4433.44 5.50435e-15 6.12029e-14 -1.16750e-13
</Section>

newXOutput 529

<Section columns = "stress_xx | stress_yy | stress_zz | stress_xy | stress_yz | stress_xz">
  1 7731.12 -0.00983874 4437.48 3.93886e-16 2.99146e-14 3.23491e-14
  2 7731.12 -0.00983874 4437.48 1.05541e-16 3.18248e-14 1.56333e-15
  3 7731.12 -0.00983874 4437.48 1.47000e-15 4.41727e-14 3.29305e-14
  4 7731.12 -0.00983874 4437.48 3.93886e-16 1.43468e-13 -1.76910e-14
  5 7731.12 -0.00983874 4437.48 1.47000e-15 2.94028e-14 2.67459e-14
  6 7731.12 -0.00983874 4437.48 3.93886e-16 2.99146e-14 -1.93481e-14
  7 7731.12 -0.00983874 4437.48 5.48613e-15 1.75667e-14 1.20191e-14
  8 7731.12 -0.00983874 4437.48 1.47000e-15 4.41727e-14 -9.57335e-14
</Section>

newXOutput 530

<Section columns = "stress_xx | stress_yy | stress_zz | stress_xy | stress_yz | stress_xz">
  1 7732.16 -0.00982475 4441.51 3.92584e-16 3.13592e-14 -1.08908e-14
  2 7732.16 -0.00982475 4441.51 1.05193e-16 1.44544e-14 -1.30319e-13
  3 7732.16 -0.00982475 4441.51 1.46514e-15 7.40625e-14 -5.16462e-15
  4 7732.16 -0.00982475 4441.51 3.92584e-16 1.00828e-13 -1.51690e-13
  5 7732.16 -0.00982475 4441.51 1.46514e-15 3.49217e-14 -1.08908e-14
  6 7732.16 -0.00982475 4441.51 3.92584e-16 2.77499e-14 -1.30319e-13
  7 7732.16 -0.00982475 4441.51 5.46799e-15 7.50171e-14 -5.16462e-15
  8 7732.16 -0.00982475 4441.51 1.46514e-15 1.04391e-13 -1.51690e-13
</Section>

newXOutput 531

<Section columns = "stress_xx | stress_yy | stress_zz | stress_xy | stress_yz | stress_xz">
  1 7733.20 -0.00981081 4445.54 1.85382e-15 1.12432e-13 3.40414e-14
  2 7733.20 -0.00981081 4445.54 1.85382e-15 1.76125e-13 9.79246e-14
  3 7733.20 -0.00981081 4445.54 3.81891e-15 1.76125e-13 3.55036e-14
  4 7733.20 -0.00981081 4445.54 3.81891e-15 3.70056e-13 1.24699e-13
  5 7733.20 -0.00981081 4445.54 3.81891e-15 1.04799e-13 2.84662e-14
  6 7733.20 -0.00981081 4445.54 3.81891e-15 1.47641e-13 7.71176e-14
  7 7733.20 -0.00981081 4445.54 7.86704e-15 1.47641e-13 1.46966e-14
  8 7733.20 -0.00981081 4445.54 7.86704e-15 2.63753e-13 4.70458e-14
</Section>

newXOutput 532

<Section columns = "stress_xx | stress_yy | stress_zz | stress_xy | stress_yz | stress_xz">
  1 7734.23 -0.00979692 4449.56 2.21414e-15 5.88085e-14 -4.35457e-14
  2 7734.23 -0.00979692 4449.56 2.21414e-15 -2.81531e-14 -6.43007e-14
  3 7734.23 -0.00979692 4449.56 5.38799e-15 1.25815e-13 -4.63263e-14
  4 7734.23 -0.00979692 4449.56 5.38799e-15 -4.05736e-14 -2.08841e-13
  5 7734.23 -0.00979692 4449.56 -1.00496e-15 5.90640e-14 -4.28006e-14
  6 7734.23 -0.00979692 4449.56 -1.00496e-15 -2.71996e-14 -2.55713e-14
  7 7734.23 -0.00979692 4449.56 1.01546e-15 1.39096e-13 -4.35457e-14
  8 7734.23 -0.00979692 4449.56 1.01546e-15 8.98972e-15 -6.43007e-14
</Section>

newXOutput 533

<Section columns = "stress_xx | stress_yy | stress_zz | stress_xy | stress_yz | stress_xz">
  1 7735.25 -0.00978308 4453.57 -4.11961e-15 -7.14783e-14 -1.08095e-14
  2 7735.25 -0.00978308 4453.57 -4.40416e-15 -7.91073e-16 -1.29346e-13
  3 7735.25 -0.00978308 4453.57 -7.83655e-15 -1.02976e-13 -5.12603e-15
  4 7735.25 -0.00978308 4453.57 -8.89853e-15 5.65548e-14 -1.50557e-13
  5 7735.25 -0.00978308 4453.57 -3.05762e-15 -7.50348e-14 -1.08095e-14
  6 7735.25 -0.00978308 4453.57 -4.11961e-15 -1.40640e-14 -1.29346e-13
  7 7735.25 -0.00978308 4453.57 -3.87317e-15 -1.03929e-13 -5.12603e-15
  8 7735.25 -0.00978308 4453.57 -7.83655e-15 5.29983e-14 -1.50557e-13
</Section>

newXOutput 534

<Section columns = "stress_xx | stress_yy | stress_zz | stress_xy | stress_yz | stress_xz">
  1 7736.27 -0.00976930 4457.57 4.77187e-32 -4.47727e-15 -1.35924e-14
  2 7736.27 -0.00976930 4457.57 -4.79489e-32 3.31513e-16 -7.96298e-14
  3 7736.27 -0.00976930 4457.57 5.98095e-31 6.43119e-14 -1.76747e-14
  4 7736.27 -0.00976930 4457.57 2.17155e-30 9.68250e-14 -7.37074e-14
  5 7736.27 -0.00976930 4457.57 5.09337e-31 -4.47727e-15 -2.46596e-14
  6 7736.27 -0.00976930 4457.57 1.67483e-30 3.31513e-16 -1.20933e-13
  7 7736.27 -0.00976930 4457.57 2.32088e-30 6.43119e-14 -5.89781e-14
  8 7736.27 -0.00976930 4457.57 8.60107e-30 9.68250e-14 -2.27854e-13
</Section>

newXOutput 535

<Section columns = "stress_xx | stress_yy | stress_zz | stress_xy | stress_yz | stress_xz">
  1 7737.29 -0.00975556 4461.56 3.97213e-31 -3.75217e-14 -5.05100e-15
  2 7737.29 -0.00975556 4461.56 -3.65593e-31 -1.78557e-14 -1.65073e-13
  3 7737.29 -0.00975556 4461.56 1.84133e-30 -3.46661e-14 -1.05708e-14
  4 7737.29 -0.00975556 4461.56 4.14311e-30 5.10347e-14 -1.85673e-13
  5 7737.29 -0.00975556 4461.56 -4.80850e-32 -4.48817e-14 -1.05708e-14
  6 7737.29 -0.00975556 4461.56 -2.02747e-30 -4.53235e-14 -1.85673e-13
  7 7737.29 -0.00975556 4461.56 9.24006e-31 -4.98278e-14 -3.11711e-14
  8 7737.29 -0.00975556 4461.56 7.19613e-31 -5.54958e-15 -2.62555e-13
</Section>

newXOutput 536

<Section columns = "stress_xx | stress_yy | stress_zz | stress_xy | stress_yz | stress_xz">
  1 7738.30 -0.00974187 4465.55 1.03132e-16 4.58327e-14 3.44000e-14
  2 7738.30 -0.00974187 4465.55 3.84894e-16 2.76389e-14 4.00411e-14
  3 7738.30 -0.00974187 4465.55 3.84894e-16 1.03846e-13 4.00411e-14
  4 7738.30 -0.00974187 4465.55 1.43644e-15 1.27748e-13 1.89881e-14
  5 7738.30 -0.00974187 4465.55 3.84894e-16 5.67390e-14 3.44000e-14
  6 7738.30 -0.00974187 4465.55 1.43644e-15 6.83418e-14 4.00411e-14
  7 7738.30 -0.00974187 4465.55 1.43644e-15 1.19951e-13 4.00411e-14
  8 7738.30 -0.00974187 4465.55 5.36088e-15 1.87851e-13 1.89881e-14
</Section>

newXOutput 537

<Section columns = "stress_xx | stress_yy | stress_zz | stress_xy | stress_yz | stress_xz">
  1 7739.30 -0.00972823 4469.53 -2.17548e-15 -2.29376e-14 -1.14809e-14
  2 7739.30 -0.00972823 4469.53 -1.91346e-15 -4.87276e-14 -7.15346e-14
  3 7739.30 -0.00972823 4469.53 -3.84010e-15 3.64354e-14 -1.00404e-14
  4 7739.30 -0.00972823 4469.53 -3.76990e-15 -1.64685e-15 -4.51581e-14
  5 7739.30 -0.00972823 4469.53 -5.08002e-15 -2.29376e-14 -1.69733e-14
  6 7739.30 -0.00972823 4469.53 -4.10213e-15 -4.87276e-14 -9.20327e-14
  7 7739.30 -0.00972823 4469.53 -8.07107e-15 3.64354e-14 -3.05385e-14
  8 7739.30 -0.00972823 4469.53 -7.80904e-15 -1.64685e-15 -1.21658e-13
</Section>

newXOutput 538

<Section columns = "stress_xx | stress_yy | stress_zz | stress_xy | stress_yz | stress_xz">
  1 7740.30 -0.00971464 4473.51 6.86335e-18 -1.29657e-13 2.00538e-15
  2 7740.30 -0.00971464 4473.51 2.56144e-17 -8.81431e-14 1.04241e-13
  3 7740.30 -0.00971464 4473.51 3.56762e-16 -3.38992e-13 -7.34022e-16
  4 7740.30 -0.00971464 4473.51 1.33146e-15 -2.00841e-13 -3.81550e-14
  5 7740.30 -0.00971464 4473.51 2.56144e-17 -1.37005e-13 2.73941e-15
  6 7740.30 -0.00971464 4473.51 9.55942e-17 -1.15565e-13 1.42396e-13
  7 7740.30 -0.00971464 4473.51 1.33146e-15 -3.54128e-13 2.00538e-15
  8 7740.30 -0.00971464 4473.51 4.96906e-15 -2.57330e-13 1.04241e-13
</Section>

newXOutput 539

<Section columns = "stress_xx | stress_yy | stress_zz | stress_xy | stress_yz | stress_xz">
  1 7741.30 -0.00970110 4477.47 3.81127e-16 1.38759e-13 2.74536e-14
  2 7741.30 -0.00970110 4477.47 1.02123e-16 1.43601e-13 -1.37726e-14
  3 7741.30 -0.00970110 4477.47 1.42238e-15 3.60763e-13 -1.37726e-14
  4 7741.30 -0.00970110 4477.47 3.81127e-16 3.62060e-13 -1.88527e-13
  5 7741.30 -0.00970110 4477.47 1.42238e-15 1.35214e-13 3.83841e-14
  6 7741.30 -0.00970110 4477.47 3.81127e-16 1.30373e-13 2.70205e-14
  7 7741.30 -0.00970110 4477.47 5.30841e-15 3.59813e-13 2.70205e-14
  8 7741.30 -0.00970110 4477.47 1.42238e-15 3.58516e-13 -3.62856e-14
</Section>

newXOutput 540

<Section columns = "stress_xx | stress_yy | stress_zz | stress_xy | stress_yz | stress_xz">
  1 7742.29 -0.00968761 4481.43 2.04021e-30 -1.96657e-13 3.31536e-14
  2 7742.29 -0.00968761 4481.43 5.76165e-30 -2.01242e-13 8.88069e-14
  3 7742.29 -0.00968761 4481.43 4.01687e-30 -3.71281e-13 3.42182e-14
  4 7742.29 -0.00968761 4481.43 1.16897e-29 -3.59357e-13 9.60046e-14
  5 7742.29 -0.00968761 4481.43 1.53803e-30 -1.92860e-13 2.73367e-14
  6 7742.29 -0.00968761 4481.43 1.67520e-30 -1.87072e-13 4.94777e-14
  7 7742.29 -0.00968761 4481.43 2.14271e-30 -3.57111e-13 1.25092e-14
  8 7742.29 -0.00968761 4481.43 -3.56117e-30 -3.06474e-13 -5.07738e-14
</Section>

newXOutput 541

<Section columns = "stress_xx | stress_yy | stress_zz | stress_xy | stress_yz | stress_xz">
  1 7743.27 -0.00967416 4485.38 3.78643e-16 1.61078e-13 3.95962e-14
  2 7743.27 -0.00967416 4485.38 1.01457e-16 1.70705e-13 3.71438e-15
  3 7743.27 -0.00967416 4485.38 1.41312e-15 3.23894e-13 3.41580e-14
  4 7743.27 -0.00967416 4485.38 3.78643e-16 3.57575e-13 -1.65814e-14
  5 7743.27 -0.00967416 4485.38 1.41312e-15 1.57538e-13 3.41580e-14
  6 7743.27 -0.00967416 4485.38 3.78643e-16 1.57491e-13 -1.65814e-14
  7 7743.27 -0.00967416 4485.38 5.27382e-15 3.22945e-13 1.38622e-14
  8 7743.27 -0.00967416 4485.38 1.41312e-15 3.54035e-13 -9.23260e-14
</Section>

newXOutput 542

<Section columns = "stress_xx | stress_yy | stress_zz | stress_xy | stress_yz | stress_xz">
  1 7744.25 -0.00966077 4489.33 1.01127e-16 -2.75209e-14 -2.39117e-15
  2 7744.25 -0.00966077 4489.33 3.77410e-16 -2.34743e-14 -1.24295e-13
  3 7744.25 -0.00966077 4489.33 3.77410e-16 2.24332e-15 -2.82106e-15
  4 7744.25 -0.00966077 4489.33 1.40851e-15 2.96032e-14 -1.46641e-13
  5 7744.25 -0.00966077 4489.33 3.77410e-16 -2.34743e-14 -2.39117e-15
  6 7744.25 -0.00966077 4489.33 1.40851e-15 -8.37217e-15 -1.24295e-13
  7 7744.25 -0.00966077 4489.33 1.40851e-15 2.96032e-14 -2.82106e-15
  8 7744.25 -0.00966077 4489.33 5.25664e-15 1.31711e-13 -1.46641e-13
</Section>

newXOutput 543

<Section columns = "stress_xx | stress_yy | stress_zz | stress_xy | stress_yz | stress_xz">
  1 7745.23 -0.00964742 4493.27 -2.19747e-15 6.27980e-14 2.01050e-14
  2 7745.23 -0.00964742 4493.27 -2.19747e-15 2.64388e-14 4.03670e-14
  3 7745.23 -0.00964742 4493.27 -3.78274e-15 1.74972e-13 -1.38182e-14
  4 7745.23 -0.00964742 4493.27 -3.78274e-15 8.27566e-14 -8.30351e-14
  5 7745.23 -0.00964742 4493.27 -3.78274e-15 7.03788e-14 3.05653e-14
  6 7745.23 -0.00964742 4493.27 -3.78274e-15 5.47309e-14 6.19154e-14
  7 7745.23 -0.00964742 4493.27 -7.59316e-15 2.03264e-13 2.52202e-14
  8 7745.23 -0.00964742 4493.27 -7.59316e-15 1.88344e-13 -2.61508e-15
</Section>

newXOutput 544

<Section columns = "stress_xx | stress_yy | stress_zz | stress_xy | stress_yz | stress_xz">
  1 7746.20 -0.00963412 4497.20 3.03859e-15 -1.08902e-13 -4.04240e-14
  2 7746.20 -0.00963412 4497.20 2.76410e-15 -4.17459e-14 -6.19194e-14
  3 7746.20 -0.00963412 4497.20 6.83326e-15 -1.43300e-13 -3.80866e-14
  4 7746.20 -0.00963412 4497.20 5.80885e-15 3.69541e-15 -2.00868e-13
  5 7746.20 -0.00963412 4497.20 6.83326e-15 -1.20013e-13 -3.46644e-14
  6 7746.20 -0.00963412 4497.20 5.80885e-15 -8.32132e-14 -2.29772e-14
  7 7746.20 -0.00963412 4497.20 1.36485e-14 -1.72524e-13 -1.65913e-14
  8 7746.20 -0.00963412 4497.20 9.82531e-15 -1.05367e-13 -5.55334e-14
</Section>

newXOutput 545

<Section columns = "stress_xx | stress_yy | stress_zz | stress_xy | stress_yz | stress_xz">
  1 7747.16 -0.00962087 4501.12 1.00144e-16 4.95440e-14 -2.37352e-15
  2 7747.16 -0.00962087 4501.12 3.73743e-16 6.19883e-14 -1.23378e-13
  3 7747.16 -0.00962087 4501.12 3.73743e-16 1.04379e-13 -2.80025e-15
  4 7747.16 -0.00962087 4501.12 1.39483e-15 1.36345e-13 -1.45559e-13
  5 7747.16 -0.00962087 4501.12 3.73743e-16 5.33301e-14 -2.37352e-15
  6 7747.16 -0.00962087 4501.12 1.39483e-15 7.61185e-14 -1.23378e-13
  7 7747.16 -0.00962087 4501.12 1.39483e-15 1.18509e-13 -2.80025e-15
  8 7747.16 -0.00962087 4501.12 5.20557e-15 1.89080e-13 -1.45559e-13
</Section>

newXOutput 546

<Section columns = "stress_xx | stress_yy | stress_zz | stress_xy | stress_yz | stress_xz">
  1 7748.12 -0.00960766 4505.04 -5.17011e-15 -1.61920e-13 -3.26079e-15
  2 7748.12 -0.00960766 4505.04 -4.91566e-15 -2.17416e-13 -7.46357e-14
  3 7748.12 -0.00960766 4505.04 -9.23787e-15 -2.80967e-13 -8.14078e-15
  4 7748.12 -0.00960766 4505.04 -9.16969e-15 -3.57866e-13 -6.91325e-14
  5 7748.12 -0.00960766 4505.04 -1.04419e-14 -1.61920e-13 -8.99213e-15
  6 7748.12 -0.00960766 4505.04 -9.49231e-15 -2.17416e-13 -1.13386e-13
  7 7748.12 -0.00960766 4505.04 -1.62384e-14 -2.80967e-13 -2.95304e-14
  8 7748.12 -0.00960766 4505.04 -1.59840e-14 -3.57866e-13 -2.13752e-13
</Section>

newXOutput 547

<Section columns = "stress_xx | stress_yy | stress_zz | stress_xy | stress_yz | stress_xz">
  1 7749.08 -0.00959450 4508.94 1.14632e-30 -3.02758e-14 7.01227e-14
  2 7749.08 -0.00959450 4508.94 2.63284e-30 -1.13876e-14 1.13419e-13
  3 7749.08 -0.00959450 4508.94 2.13585e-30 -3.25592e-14 2.97687e-14
  4 7749.08 -0.00959450 4508.94 4.88597e-30 5.23929e-14 -5.45029e-14
  5 7749.08 -0.00959450 4508.94 1.02621e-30 -3.40577e-14 8.04804e-14
  6 7749.08 -0.00959450 4508.94 1.82076e-30 -2.55020e-14 1.34756e-13
  7 7749.08 -0.00959450 4508.94 1.68759e-30 -4.66736e-14 6.84242e-14
  8 7749.08 -0.00959450 4508.94 1.85525e-30 -2.82736e-16 2.51283e-14
</Section>

newXOutput 548

<Section columns = "stress_xx | stress_yy | stress_zz | stress_xy | stress_yz | stress_xz">
  1 7750.03 -0.00958139 4512.85 9.91749e-17 1.36634e-14 4.14537e-14
  2 7750.03 -0.00958139 4512.85 3.70126e-16 -8.23444e-15 4.10301e-14
  3 7750.03 -0.00958139 4512.85 3.70126e-16 8.45372e-15 4.10301e-14
  4 7750.03 -0.00958139 4512.85 1.38133e-15 1.56799e-14 1.90117e-14
  5 7750.03 -0.00958139 4512.85 3.70126e-16 2.09698e-14 4.14537e-14
  6 7750.03 -0.00958139 4512.85 1.38133e-15 1.90336e-14 4.10301e-14
  7 7750.03 -0.00958139 4512.85 1.38133e-15 2.35052e-14 4.10301e-14
  8 7750.03 -0.00958139 4512.85 5.15518e-15 7.18527e-14 1.90117e-14
</Section>

newXOutput 549

<Section columns = "stress_xx | stress_yy | stress_zz | stress_xy | stress_yz | stress_xz">
  1 7750.98 -0.00956833 4516.74 -5.48275e-15 -7.42708e-14 -1.28516e-15
  2 7750.98 -0.00956833 4516.74 -5.19459e-15 7.55543e-15 -6.68037e-14
  3 7750.98 -0.00956833 4516.74 -1.44999e-14 -1.19332e-13 -7.97244e-16
  4 7750.98 -0.00956833 4516.74 -1.25516e-14 7.04931e-14 -4.14414e-14
  5 7750.98 -0.00956833 4516.74 -2.72417e-15 -7.04931e-14 -1.64234e-15
  6 7750.98 -0.00956833 4516.74 -1.64872e-15 2.16540e-14 -8.53702e-14
  7 7750.98 -0.00956833 4516.74 -7.46244e-15 -1.05233e-13 -2.13026e-15
  8 7750.98 -0.00956833 4516.74 -1.91087e-16 1.23110e-13 -1.10732e-13
</Section>

newXOutput 550

<Section columns = "stress_xx | stress_yy | stress_zz | stress_xy | stress_yz | stress_xz">
  1 7751.92 -0.00955531 4520.63 5.04565e-15 4.63594e-14 -6.88955e-14
  2 7751.92 -0.00955531 4520.63 5.04565e-15 -8.71414e-15 -1.69479e-13
  3 7751.92 -0.00955531 4520.63 1.19012e-14 7.58303e-14 -2.68908e-14
  4 7751.92 -0.00955531 4520.63 1.19012e-14 1.46553e-14 -1.58224e-13
  5 7751.92 -0.00955531 4520.63 -1.55052e-16 4.63594e-14 -7.38582e-14
  6 7751.92 -0.00955531 4520.63 -1.55052e-16 -8.71414e-15 -1.70809e-13
  7 7751.92 -0.00955531 4520.63 2.78510e-15 7.58303e-14 -4.54118e-14
  8 7751.92 -0.00955531 4520.63 2.78510e-15 1.46553e-14 -1.63187e-13
</Section>

newXOutput 551

<Section columns = "stress_xx | stress_yy | stress_zz | stress_xy | stress_yz | stress_xz">
  1 7752.85 -0.00954234 4524.51 3.44410e-16 1.67191e-13 2.66536e-14
  2 7752.85 -0.00954234 4524.51 3.44410e-16 8.88846e-14 -1.33712e-14
  3 7752.85 -0.00954234 4524.51 1.48661e-15 4.10214e-13 -1.33712e-14
  4 7752.85 -0.00954234 4524.51 1.48661e-15 2.16734e-13 -1.83034e-13
  5 7752.85 -0.00954234 4524.51 -4.52209e-15 1.67444e-13 3.72656e-14
  6 7752.85 -0.00954234 4524.51 -4.52209e-15 8.98280e-14 2.62331e-14
  7 7752.85 -0.00954234 4524.51 -6.41537e-15 4.23353e-13 2.62331e-14
  8 7752.85 -0.00954234 4524.51 -6.41537e-15 2.65771e-13 -3.52282e-14
</Section>

newXOutput 552

<Section columns = "stress_xx | stress_yy | stress_zz | stress_xy | stress_yz | stress_xz">
  1 7753.79 -0.00952941 4528.38 2.74032e-16 -1.32585e-14 4.01692e-14
  2 7753.79 -0.00952941 4528.38 -2.42999e-16 1.10277e-14 8.83601e-14
  3 7753.79 -0.00952941 4528.38 1.33913e-15 1.10277e-14 3.53605e-14
  4 7753.79 -0.00952941 4528.38 2.74032e-16 1.30505e-13 9.37829e-14
  5 7753.79 -0.00952941 4528.38 1.02270e-15 -2.08013e-14 3.45216e-14
  6 7753.79 -0.00952941 4528.38 -9.06883e-16 -1.71224e-14 5.01758e-14
  7 7753.79 -0.00952941 4528.38 4.99770e-15 -1.71224e-14 1.42835e-14
  8 7753.79 -0.00952941 4528.38 1.02270e-15 2.54478e-14 -4.87228e-14
</Section>

newXOutput 553

<Section columns = "stress_xx | stress_yy | stress_zz | stress_xy | stress_yz | stress_xz">
  1 7754.71 -0.00951653 4532.25 9.75878e-17 -2.60649e-14 -1.90866e-14
  2 7754.71 -0.00951653 4532.25 3.64203e-16 -1.85263e-14 -1.18091e-14
  3 7754.71 -0.00951653 4532.25 3.64203e-16 2.57447e-15 1.15028e-14
  4 7754.71 -0.00951653 4532.25 1.35922e-15 3.07089e-14 -2.19034e-14
  5 7754.71 -0.00951653 4532.25 3.64203e-16 -1.85263e-14 -2.92930e-14
  6 7754.71 -0.00951653 4532.25 1.35922e-15 9.60807e-15 -3.28346e-14
  7 7754.71 -0.00951653 4532.25 1.35922e-15 3.07089e-14 -2.65882e-14
  8 7754.71 -0.00951653 4532.25 5.07269e-15 1.35708e-13 -1.00372e-13
</Section>

newXOutput 554

<Section columns = "stress_xx | stress_yy | stress_zz | stress_xy | stress_yz | stress_xz">
  1 7755.64 -0.00950370 4536.11 6.87984e-15 -1.50066e-13 -4.24963e-15
  2 7755.64 -0.00950370 4536.11 6.87984e-15 -9.01349e-15 -1.27879e-13
  3 7755.64 -0.00950370 4536.11 1.41726e-14 -2.99803e-13 -9.93424e-15
  4 7755.64 -0.00950370 4536.11 1.41726e-14 5.15330e-14 -1.69234e-13
  5 7755.64 -0.00950370 4536.11 1.41726e-14 -1.61115e-13 -9.51683e-15
  6 7755.64 -0.00950370 4536.11 1.41726e-14 -5.02498e-14 -1.47536e-13
  7 7755.64 -0.00950370 4536.11 2.91959e-14 -3.28864e-13 -2.95917e-14
  8 7755.64 -0.00950370 4536.11 2.91959e-14 -5.69224e-14 -2.42596e-13
</Section>

newXOutput 555

<Section columns = "stress_xx | stress_yy | stress_zz | stress_xy | stress_yz | stress_xz">
  1 7756.56 -0.00949091 4539.96 4.90774e-15 -1.37556e-13 4.17991e-14
  2 7756.56 -0.00949091 4539.96 4.90774e-15 -1.66349e-13 9.48926e-14
  3 7756.56 -0.00949091 4539.96 7.24691e-15 -2.71735e-13 4.22799e-14
  4 7756.56 -0.00949091 4539.96 7.24691e-15 -2.64020e-13 1.19885e-13
  5 7756.56 -0.00949091 4539.96 1.31503e-15 -1.37556e-13 4.14471e-14
  6 7756.56 -0.00949091 4539.96 1.31503e-15 -1.66349e-13 7.65966e-14
  7 7756.56 -0.00949091 4539.96 1.94180e-15 -2.71735e-13 4.09663e-14
  8 7756.56 -0.00949091 4539.96 1.94180e-15 -2.64020e-13 5.16039e-14
</Section>

newXOutput 556

<Section columns = "stress_xx | stress_yy | stress_zz | stress_xy | stress_yz | stress_xz">
  1 7757.47 -0.00947817 4543.81 3.66018e-15 -1.34784e-13 -3.13490e-14
  2 7757.47 -0.00947817 4543.81 3.39612e-15 -1.74437e-13 -5.80067e-14
  3 7757.47 -0.00947817 4543.81 8.14317e-15 -3.09734e-13 -3.48648e-14
  4 7757.47 -0.00947817 4543.81 7.15769e-15 -3.38166e-13 -1.94477e-13
  5 7757.47 -0.00947817 4543.81 2.23028e-15 -1.23999e-13 -2.57563e-14
  6 7757.47 -0.00947817 4543.81 1.24480e-15 -1.34187e-13 -2.01935e-14
  7 7757.47 -0.00947817 4543.81 6.84530e-15 -2.93809e-13 -1.39926e-14
  8 7757.47 -0.00947817 4543.81 3.16744e-15 -2.78732e-13 -5.33561e-14
</Section>

newXOutput 557

<Section columns = "stress_xx | stress_yy | stress_zz | stress_xy | stress_yz | stress_xz">
  1 7758.38 -0.00946547 4547.65 1.94498e-15 2.34967e-14 5.57909e-15
  2 7758.38 -0.00946547 4547.65 1.68177e-15 6.29591e-15 -1.17692e-13
  3 7758.38 -0.00946547 4547.65 4.60790e-15 4.84037e-14 -6.06676e-16
  4 7758.38 -0.00946547 4547.65 3.62557e-15 1.29697e-14 -1.40778e-13
  5 7758.38 -0.00946547 4547.65 -1.28608e-15 2.34967e-14 5.57909e-15
  6 7758.38 -0.00946547 4547.65 -2.26841e-15 6.29591e-15 -1.17692e-13
  7 7758.38 -0.00946547 4547.65 -4.05684e-16 4.84037e-14 -6.06676e-16
  8 7758.38 -0.00946547 4547.65 -4.07179e-15 1.29697e-14 -1.40778e-13
</Section>

newXOutput 558

<Section columns = "stress_xx | stress_yy | stress_zz | stress_xy | stress_yz | stress_xz">
  1 7759.29 -0.00945281 4551.48 1.54317e-15 1.95697e-14 -3.16645e-15
  2 7759.29 -0.00945281 4551.48 1.28080e-15 -2.79472e-14 -7.24764e-14
  3 7759.29 -0.00945281 4551.48 4.48718e-15 4.73281e-14 -7.90526e-15
  4 7759.29 -0.00945281 4551.48 3.50799e-15 3.78804e-15 -6.71324e-14
  5 7759.29 -0.00945281 4551.48 -1.38797e-15 2.65838e-14 -8.73198e-15
  6 7759.29 -0.00945281 4551.48 -2.36717e-15 -1.77038e-15 -1.10106e-13
  7 7759.29 -0.00945281 4551.48 -4.32791e-16 4.92075e-14 -2.86761e-14
  8 7759.29 -0.00945281 4551.48 -4.08719e-15 1.08021e-14 -2.07568e-13
</Section>

newXOutput 559

<Section columns = "stress_xx | stress_yy | stress_zz | stress_xy | stress_yz | stress_xz">
  1 7760.19 -0.00944020 4555.31 3.36368e-15 3.07908e-14 -6.14579e-14
  2 7760.19 -0.00944020 4555.31 3.62522e-15 3.07908e-14 -1.70803e-13
  3 7760.19 -0.00944020 4555.31 7.08932e-15 1.14913e-13 -3.13125e-14
  4 7760.19 -0.00944020 4555.31 8.06539e-15 1.14913e-13 -1.80751e-13
  5 7760.19 -0.00944020 4555.31 1.23291e-15 3.07908e-14 -7.15162e-14
  6 7760.19 -0.00944020 4555.31 2.20898e-15 3.07908e-14 -1.91524e-13
  7 7760.19 -0.00944020 4555.31 3.13718e-15 1.14913e-13 -6.88507e-14
  8 7760.19 -0.00944020 4555.31 6.77992e-15 1.14913e-13 -2.58081e-13
</Section>

newXOutput 560

<Section columns = "stress_xx | stress_yy | stress_zz | stress_xy | stress_yz | stress_xz">
  1 7761.08 -0.00942764 4559.13 -8.90319e-17 -1.30110e-14 -1.99747e-14
  2 7761.08 -0.00942764 4559.13 -3.32272e-16 -7.92810e-15 1.71248e-14
  3 7761.08 -0.00942764 4559.13 -2.38560e-17 -2.45052e-14 4.84312e-15
  4 7761.08 -0.00942764 4559.13 -8.90319e-17 -7.75632e-15 -1.54793e-14
  5 7761.08 -0.00942764 4559.13 -3.32272e-16 -1.65142e-14 -3.48518e-14
  6 7761.08 -0.00942764 4559.13 -1.24005e-15 -2.10020e-14 -4.84312e-15
  7 7761.08 -0.00942764 4559.13 -8.90319e-17 -2.54438e-14 -5.06789e-14
  8 7761.08 -0.00942764 4559.13 -3.32272e-16 -1.12595e-14 -9.74646e-14
</Section>

newXOutput 561

<Section columns = "stress_xx | stress_yy | stress_zz | stress_xy | stress_yz | stress_xz">
  1 7761.98 -0.00941511 4562.94 1.87208e-32 -6.06426e-15 -1.24809e-15
  2 7761.98 -0.00941511 4562.94 5.01623e-33 -1.62491e-15 -6.48769e-14
  3 7761.98 -0.00941511 4562.94 6.98671e-32 -2.26321e-14 -7.74249e-16
  4 7761.98 -0.00941511 4562.94 1.87208e-32 -6.06426e-15 -4.02461e-14
  5 7761.98 -0.00941511 4562.94 6.98671e-32 -6.06426e-15 -1.59497e-15
  6 7761.98 -0.00941511 4562.94 1.87208e-32 -1.62491e-15 -8.29078e-14
  7 7761.98 -0.00941511 4562.94 2.60747e-31 -2.26321e-14 -2.06882e-15
  8 7761.98 -0.00941511 4562.94 6.98671e-32 -6.06426e-15 -1.07539e-13
</Section>

newXOutput 562

<Section columns = "stress_xx | stress_yy | stress_zz | stress_xy | stress_yz | stress_xz">
  1 7762.86 -0.00940264 4566.75 3.53866e-16 -2.34406e-15 1.26486e-14
  2 7762.86 -0.00940264 4566.75 9.48180e-17 3.04301e-14 1.01167e-13
  3 7762.86 -0.00940264 4566.75 1.32064e-15 3.48670e-14 -1.45055e-14
  4 7762.86 -0.00940264 4566.75 3.53866e-16 1.40623e-13 -3.96760e-14
  5 7762.86 -0.00940264 4566.75 1.32064e-15 -1.33443e-14 2.29801e-14
  6 7762.86 -0.00940264 4566.75 3.53866e-16 -1.06234e-14 1.39725e-13
  7 7762.86 -0.00940264 4566.75 4.92871e-15 5.93528e-15 2.40521e-14
  8 7762.86 -0.00940264 4566.75 1.32064e-15 3.26486e-14 1.04223e-13
</Section>

newXOutput 563

<Section columns = "stress_xx | stress_yy | stress_zz | stress_xy | stress_yz | stress_xz">
  1 7763.75 -0.00939020 4570.54 3.52742e-16 -3.30654e-14 3.36563e-14
  2 7763.75 -0.00939020 4570.54 9.45170e-17 -3.09364e-16 -1.09044e-14
  3 7763.75 -0.00939020 4570.54 1.31645e-15 -7.98108e-14 -1.09044e-14
  4 7763.75 -0.00939020 4570.54 3.52742e-16 2.58869e-14 -1.77207e-13
  5 7763.75 -0.00939020 4570.54 1.31645e-15 -4.40596e-14 4.39628e-14
  6 7763.75 -0.00939020 4570.54 3.52742e-16 -4.13402e-14 2.75600e-14
  7 7763.75 -0.00939020 4570.54 4.91307e-15 -1.08727e-13 2.75600e-14
  8 7763.75 -0.00939020 4570.54 1.31645e-15 -8.20280e-14 -3.36563e-14
</Section>

newXOutput 564

<Section columns = "stress_xx | stress_yy | stress_zz | stress_xy | stress_yz | stress_xz">
  1 7764.63 -0.00937781 4574.34 -8.21921e-32 1.12973e-14 -1.23906e-15
  2 7764.63 -0.00937781 4574.34 -2.20233e-32 3.02710e-15 -6.44075e-14
  3 7764.63 -0.00937781 4574.34 -2.20233e-32 3.02710e-15 -7.68648e-16
  4 7764.63 -0.00937781 4574.34 -5.90113e-33 8.11109e-16 -3.99549e-14
  5 7764.63 -0.00937781 4574.34 -8.21921e-32 1.12973e-14 -1.58343e-15
  6 7764.63 -0.00937781 4574.34 -2.20233e-32 3.02710e-15 -8.23081e-14
  7 7764.63 -0.00937781 4574.34 -2.20233e-32 3.02710e-15 -2.05385e-15
  8 7764.63 -0.00937781 4574.34 -5.90113e-33 8.11109e-16 -1.06761e-13
</Section>

newXOutput 565

<Section columns = "stress_xx | stress_yy | stress_zz | stress_xy | stress_yz | stress_xz">
  1 7765.50 -0.00936546 4578.12 2.34797e-17 9.82424e-15 -4.26956e-15
  2 7765.50 -0.00936546 4578.12 6.29137e-18 3.80687e-14 -7.64658e-15
  3 7765.50 -0.00936546 4578.12 1.22049e-15 1.71079e-14 3.76379e-14
  4 7765.50 -0.00936546 4578.12 3.27030e-16 1.36834e-13 -1.41828e-14
  5 7765.50 -0.00936546 4578.12 8.76275e-17 2.33567e-15 -1.89677e-14
  6 7765.50 -0.00936546 4578.12 2.34797e-17 1.01210e-14 -2.93502e-14
  7 7765.50 -0.00936546 4578.12 4.55494e-15 -1.08398e-14 -1.72163e-14
  8 7765.50 -0.00936546 4578.12 1.22049e-15 3.25317e-14 -9.51820e-14
</Section>

newXOutput 566

<Section columns = "stress_xx | stress_yy | stress_zz | stress_xy | stress_yz | stress_xz">
  1 7766.37 -0.00935316 4581.90 -1.61728e-31 9.01968e-16 -6.16188e-14
  2 7766.37 -0.00935316 4581.90 3.14813e-31 5.59532e-16 -1.39614e-13
  3 7766.37 -0.00935316 4581.90 1.56497e-31 4.68850e-14 -3.71585e-14
  4 7766.37 -0.00935316 4581.90 2.04626e-30 2.90849e-14 -1.71748e-13
  5 7766.37 -0.00935316 4581.90 3.23421e-31 1.15265e-15 -7.62815e-14
  6 7766.37 -0.00935316 4581.90 1.42329e-30 1.49509e-15 -1.61265e-13
  7 7766.37 -0.00935316 4581.90 2.49369e-30 5.99156e-14 -9.18805e-14
  8 7766.37 -0.00935316 4581.90 8.14842e-30 7.77157e-14 -2.52552e-13
</Section>

newXOutput 567

<Section columns = "stress_xx | stress_yy | stress_zz | stress_xy | stress_yz | stress_xz">
  1 7767.24 -0.00934090 4585.67 4.08673e-32 -5.63929e-15 4.06008e-14
  2 7767.24 -0.00934090 4585.67 1.09504e-32 -1.51104e-15 9.21722e-14
  3 7767.24 -0.00934090 4585.67 1.09504e-32 -1.51104e-15 4.10678e-14
  4 7767.24 -0.00934090 4585.67 2.93414e-33 -4.04883e-16 1.16448e-13
  5 7767.24 -0.00934090 4585.67 4.08673e-32 -5.63929e-15 4.02589e-14
  6 7767.24 -0.00934090 4585.67 1.09504e-32 -1.51104e-15 7.44007e-14
  7 7767.24 -0.00934090 4585.67 1.09504e-32 -1.51104e-15 3.97919e-14
  8 7767.24 -0.00934090 4585.67 2.93414e-33 -4.04883e-16 5.01245e-14
</Section>

newXOutput 568

<Section columns = "stress_xx | stress_yy | stress_zz | stress_xy | stress_yz | stress_xz">
  1 7768.10 -0.00932868 4589.44 -6.85549e-15 -8.38586e-14 -2.92636e-14
  2 7768.10 -0.00932868 4589.44 -7.10966e-15 -5.07379e-14 -5.60272e-14
  3 7768.10 -0.00932868 4589.44 -1.35419e-14 -1.43287e-13 -5.60272e-14
  4 7768.10 -0.00932868 4589.44 -1.44905e-14 -2.95491e-14 -1.94845e-13
  5 7768.10 -0.00932868 4589.44 -3.58204e-15 -7.31452e-14 -1.90807e-14
  6 7768.10 -0.00932868 4589.44 -4.53060e-15 -1.07548e-14 -1.80241e-14
  7 7768.10 -0.00932868 4589.44 -5.21253e-15 -1.27467e-13 -1.80241e-14
  8 7768.10 -0.00932868 4589.44 -8.75262e-15 2.94910e-14 -5.30156e-14
</Section>

newXOutput 569

<Section columns = "stress_xx | stress_yy | stress_zz | stress_xy | stress_yz | stress_xz">
  1 7768.96 -0.00931650 4593.19 1.52610e-15 -1.61453e-13 5.41946e-15
  2 7768.96 -0.00931650 4593.19 1.52610e-15 -2.19185e-13 -1.14325e-13
  3 7768.96 -0.00931650 4593.19 3.14380e-15 -3.11683e-13 -5.89319e-16
  4 7768.96 -0.00931650 4593.19 3.14380e-15 -4.08441e-13 -1.36750e-13
  5 7768.96 -0.00931650 4593.19 -2.52963e-15 -1.47010e-13 5.41946e-15
  6 7768.96 -0.00931650 4593.19 -2.52963e-15 -1.65281e-13 -1.14325e-13
  7 7768.96 -0.00931650 4593.19 -5.21110e-15 -2.81929e-13 -5.89319e-16
  8 7768.96 -0.00931650 4593.19 -5.21110e-15 -2.97398e-13 -1.36750e-13
</Section>

newXOutput 570

<Section columns = "stress_xx | stress_yy | stress_zz | stress_xy | stress_yz | stress_xz">
  1 7769.82 -0.00930437 4596.95 4.58186e-15 7.80647e-14 2.64655e-14
  2 7769.82 -0.00930437 4596.95 4.81751e-15 1.52022e-13 3.98452e-14
  3 7769.82 -0.00930437 4596.95 1.00156e-14 1.47604e-13 -1.08917e-14
  4 7769.82 -0.00930437 4596.95 1.00787e-14 3.68715e-13 -7.72024e-14
  5 7769.82 -0.00930437 4596.95 8.90050e-15 7.78146e-14 3.62601e-14
  6 7769.82 -0.00930437 4596.95 9.77996e-15 1.51088e-13 6.00224e-14
  7 7769.82 -0.00930437 4596.95 2.04882e-14 1.34602e-13 2.56624e-14
  8 7769.82 -0.00930437 4596.95 2.07238e-14 3.20192e-13 -1.90014e-15
</Section>

newXOutput 571

<Section columns = "stress_xx | stress_yy | stress_zz | stress_xy | stress_yz | stress_xz">
  1 7770.67 -0.00929228 4600.69 1.13689e-15 5.61772e-14 2.34120e-14
  2 7770.67 -0.00929228 4600.69 1.13689e-15 -3.26453e-14 9.55437e-14
  3 7770.67 -0.00929228 4600.69 3.02233e-15 1.18010e-13 2.69885e-14
  4 7770.67 -0.00929228 4600.69 3.02233e-15 -5.87262e-14 -5.17096e-14
  5 7770.67 -0.00929228 4600.69 -2.61546e-15 5.26953e-14 1.90344e-14
  6 7770.67 -0.00929228 4600.69 -2.61546e-15 -4.56400e-14 1.11881e-13
  7 7770.67 -0.00929228 4600.69 -5.20562e-15 1.17077e-13 1.06509e-14
  8 7770.67 -0.00929228 4600.69 -5.20562e-15 -6.22081e-14 9.26323e-15
</Section>

newXOutput 572

<Section columns = "stress_xx | stress_yy | stress_zz | stress_xy | stress_yz | stress_xz">
  1 7771.51 -0.00928023 4604.43 -4.98647e-15 -7.14316e-14 -1.94050e-14
  2 7771.51 -0.00928023 4604.43 -4.50132e-15 -1.88232e-14 1.66363e-14
  3 7771.51 -0.00928023 4604.43 -1.22580e-14 -2.23211e-13 4.70497e-15
  4 7771.51 -0.00928023 4604.43 -1.12586e-14 -4.33417e-14 -1.50378e-14
  5 7771.51 -0.00928023 4604.43 -2.12599e-15 -7.11817e-14 -3.38577e-14
  6 7771.51 -0.00928023 4604.43 -3.15377e-16 -1.78908e-14 -4.70497e-15
  7 7771.51 -0.00928023 4604.43 -2.39379e-15 -2.10224e-13 -4.92333e-14
  8 7771.51 -0.00928023 4604.43 1.33612e-15 5.12856e-15 -9.46845e-14
</Section>

newXOutput 573

<Section columns = "stress_xx | stress_yy | stress_zz | stress_xy | stress_yz | stress_xz">
  1 7772.35 -0.00926822 4608.16 3.46607e-15 1.24924e-13 2.03695e-14
  2 7772.35 -0.00926822 4608.16 3.21587e-15 6.14318e-14 -5.72452e-14
  3 7772.35 -0.00926822 4608.16 1.04158e-14 3.03034e-13 2.72416e-14
  4 7772.35 -0.00926822 4608.16 9.48204e-15 2.27278e-13 -3.15983e-14
  5 7772.35 -0.00926822 4608.16 -7.89117e-16 1.28152e-13 1.53388e-14
  6 7772.35 -0.00926822 4608.16 -1.72286e-15 7.34803e-14 -7.60201e-14
  7 7772.35 -0.00926822 4608.16 1.23167e-15 2.90986e-13 8.46674e-15
  8 7772.35 -0.00926822 4608.16 -2.25310e-15 1.82312e-13 -1.01667e-13
</Section>

newXOutput 574

<Section columns = "stress_xx | stress_yy | stress_zz | stress_xy | stress_yz | stress_xz">
  1 7773.19 -0.00925625 4611.89 -2.42027e-15 1.23799e-13 -5.62679e-14
  2 7773.19 -0.00925625 4611.89 -2.42027e-15 8.11076e-14 -1.57569e-13
  3 7773.19 -0.00925625 4611.89 -4.93742e-15 2.27107e-13 -4.51890e-14
  4 7773.19 -0.00925625 4611.89 -4.93742e-15 1.67501e-13 -1.54600e-13
  5 7773.19 -0.00925625 4611.89 -4.93742e-15 1.27525e-13 -5.62679e-14
  6 7773.19 -0.00925625 4611.89 -4.93742e-15 9.50123e-14 -1.57569e-13
  7 7773.19 -0.00925625 4611.89 -7.65611e-15 2.41012e-13 -4.51890e-14
  8 7773.19 -0.00925625 4611.89 -7.65611e-15 2.19394e-13 -1.54600e-13
</Section>

newXOutput 575

<Section columns = "stress_xx | stress_yy | stress_zz | stress_xy | stress_yz | stress_xz">
  1 7774.03 -0.00924432 4615.60 2.41463e-15 -1.19143e-13 3.26992e-14
  2 7774.03 -0.00924432 4615.60 2.41463e-15 -1.20892e-13 -1.05943e-14
  3 7774.03 -0.00924432 4615.60 5.02242e-15 -2.54777e-13 -1.05943e-14
  4 7774.03 -0.00924432 4615.60 5.02242e-15 -2.14187e-13 -1.72168e-13
  5 7774.03 -0.00924432 4615.60 5.02242e-15 -1.04747e-13 4.27125e-14
  6 7774.03 -0.00924432 4615.60 5.02242e-15 -6.71659e-14 2.67762e-14
  7 7774.03 -0.00924432 4615.60 1.28535e-14 -2.25121e-13 2.67762e-14
  8 7774.03 -0.00924432 4615.60 1.28535e-14 -1.03509e-13 -3.26992e-14
</Section>

newXOutput 576

<Section columns = "stress_xx | stress_yy | stress_zz | stress_xy | stress_yz | stress_xz">
  1 7774.86 -0.00923244 4619.32 -3.15894e-16 -9.47088e-14 -4.34351e-14
  2 7774.86 -0.00923244 4619.32 -8.46435e-17 -9.37784e-14 -7.38935e-14
  3 7774.86 -0.00923244 4619.32 -8.46435e-17 -1.51878e-13 -1.82820e-15
  4 7774.86 -0.00923244 4619.32 -2.26802e-17 -1.36377e-13 -3.91095e-14
  5 7774.86 -0.00923244 4619.32 -1.17893e-15 -9.81812e-14 -5.77502e-14
  6 7774.86 -0.00923244 4619.32 -3.15894e-16 -1.06737e-13 -9.50315e-14
  7 7774.86 -0.00923244 4619.32 -3.15894e-16 -1.52809e-13 -5.52528e-14
  8 7774.86 -0.00923244 4619.32 -8.46435e-17 -1.39850e-13 -1.17998e-13
</Section>

newXOutput 577

<Section columns = "stress_xx | stress_yy | stress_zz | stress_xy | stress_yz | stress_xz">
  1 7775.68 -0.00922060 4623.02 1.43737e-31 -9.68571e-14 -4.14838e-15
  2 7775.68 -0.00922060 4623.02 -2.31391e-31 -1.22761e-13 -7.42955e-15
  3 7775.68 -0.00922060 4623.02 1.64825e-30 -1.31562e-13 3.65696e-14
  4 7775.68 -0.00922060 4623.02 -5.65650e-31 -1.38503e-13 -1.37803e-14
  5 7775.68 -0.00922060 4623.02 -4.66346e-31 -8.99162e-14 -1.84293e-14
  6 7775.68 -0.00922060 4623.02 -1.13226e-30 -9.68571e-14 -2.85172e-14
  7 7775.68 -0.00922060 4623.02 -6.28606e-31 -1.29702e-13 -1.67277e-14
  8 7775.68 -0.00922060 4623.02 -3.92772e-30 -1.31562e-13 -9.24805e-14
</Section>

newXOutput 578

<Section columns = "stress_xx | stress_yy | stress_zz | stress_xy | stress_yz | stress_xz">
  1 7776.50 -0.00920879 4626.72 2.35525e-15 -9.84472e-14 -7.25428e-14
  2 7776.50 -0.00920879 4626.72 2.10894e-15 -4.83687e-14 -1.39050e-13
  3 7776.50 -0.00920879 4626.72 6.03220e-15 -1.68839e-13 -8.33945e-14
  4 7776.50 -0.00920879 4626.72 5.11296e-15 -1.12072e-13 -1.79550e-13
  5 7776.50 -0.00920879 4626.72 6.03220e-15 -9.81981e-14 -7.75138e-14
  6 7776.50 -0.00920879 4626.72 5.11296e-15 -4.74393e-14 -1.57602e-13
  7 7776.50 -0.00920879 4626.72 1.22206e-14 -1.55894e-13 -1.01946e-13
  8 7776.50 -0.00920879 4626.72 8.78991e-15 -6.37615e-14 -2.48786e-13
</Section>

newXOutput 579

<Section columns = "stress_xx | stress_yy | stress_zz | stress_xy | stress_yz | stress_xz">
  1 7777.32 -0.00919703 4630.41 8.98745e-17 -1.24111e-13 6.07258e-14
  2 7777.32 -0.00919703 4630.41 3.35416e-16 -9.71488e-14 9.52619e-14
  3 7777.32 -0.00919703 4630.41 3.35416e-16 -3.05149e-13 6.75001e-14
  4 7777.32 -0.00919703 4630.41 1.25179e-15 -1.76111e-13 1.20544e-13
  5 7777.32 -0.00919703 4630.41 3.35416e-16 -1.24111e-13 5.57667e-14
  6 7777.32 -0.00919703 4630.41 1.25179e-15 -9.71488e-14 7.67541e-14
  7 7777.32 -0.00919703 4630.41 1.25179e-15 -3.05149e-13 4.89923e-14
  8 7777.32 -0.00919703 4630.41 4.67174e-15 -1.76111e-13 5.14719e-14
</Section>

newXOutput 580

<Section columns = "stress_xx | stress_yy | stress_zz | stress_xy | stress_yz | stress_xz">
  1 7778.14 -0.00918531 4634.10 7.61356e-15 2.82734e-14 -2.84355e-14
  2 7778.14 -0.00918531 4634.10 7.36879e-15 2.51484e-14 -5.44417e-14
  3 7778.14 -0.00918531 4634.10 1.28887e-14 6.67257e-14 -5.44417e-14
  4 7778.14 -0.00918531 4634.10 1.19752e-14 8.34609e-14 -1.89331e-13
  5 7778.14 -0.00918531 4634.10 7.40758e-15 2.45599e-14 -1.85407e-14
  6 7778.14 -0.00918531 4634.10 6.49406e-15 1.12894e-14 -1.75140e-14
  7 7778.14 -0.00918531 4634.10 1.39918e-14 5.28666e-14 -1.75140e-14
  8 7778.14 -0.00918531 4634.10 1.05825e-14 3.17382e-14 -5.15153e-14
</Section>

newXOutput 581

<Section columns = "stress_xx | stress_yy | stress_zz | stress_xy | stress_yz | stress_xz">
  1 7778.95 -0.00917363 4637.78 -7.33990e-15 4.63426e-14 5.26625e-15
  2 7778.95 -0.00917363 4637.78 -7.56757e-15 5.10729e-14 -1.11093e-13
  3 7778.95 -0.00917363 4637.78 -1.16270e-14 1.17795e-13 -5.72658e-16
  4 7778.95 -0.00917363 4637.78 -1.16880e-14 1.19063e-13 -1.32884e-13
  5 7778.95 -0.00917363 4637.78 -6.45155e-15 4.28797e-14 5.26625e-15
  6 7778.95 -0.00917363 4637.78 -7.30123e-15 3.81493e-14 -1.11093e-13
  7 7778.95 -0.00917363 4637.78 -9.38894e-15 1.16868e-13 -5.72658e-16
  8 7778.95 -0.00917363 4637.78 -9.61661e-15 1.15600e-13 -1.32884e-13
</Section>

newXOutput 582

<Section columns = "stress_xx | stress_yy | stress_zz | stress_xy | stress_yz | stress_xz">
  1 7779.75 -0.00916198 4641.45 1.59014e-31 1.11861e-14 -1.59144e-14
  2 7779.75 -0.00916198 4641.45 4.26078e-32 2.99730e-15 2.75645e-14
  3 7779.75 -0.00916198 4641.45 4.26078e-32 2.99730e-15 -1.16501e-14
  4 7779.75 -0.00916198 4641.45 1.14167e-32 8.03124e-16 -7.53076e-14
  5 7779.75 -0.00916198 4641.45 1.59014e-31 1.11861e-14 -2.01786e-14
  6 7779.75 -0.00916198 4641.45 4.26078e-32 2.99730e-15 4.34789e-14
  7 7779.75 -0.00916198 4641.45 4.26078e-32 2.99730e-15 -2.75645e-14
  8 7779.75 -0.00916198 4641.45 1.14167e-32 8.03124e-16 -1.59144e-14
</Section>

newXOutput 583

<Section columns = "stress_xx | stress_yy | stress_zz | stress_xy | stress_yz | stress_xz">
  1 7780.56 -0.00915038 4645.12 2.21908e-17 -3.95580e-15 -4.43512e-14
  2 7780.56 -0.00915038 4645.12 5.94600e-18 4.30158e-16 -1.57583e-13
  3 7780.56 -0.00915038 4645.12 1.15349e-15 8.34484e-14 -4.21005e-15
  4 7780.56 -0.00915038 4645.12 3.09077e-16 9.98170e-14 -1.63843e-13
  5 7780.56 -0.00915038 4645.12 8.28171e-17 -3.95580e-15 -5.84299e-14
  6 7780.56 -0.00915038 4645.12 2.21908e-17 4.30158e-16 -1.78372e-13
  7 7780.56 -0.00915038 4645.12 4.30489e-15 8.34484e-14 -5.67523e-14
  8 7780.56 -0.00915038 4645.12 1.15349e-15 9.98170e-14 -2.41429e-13
</Section>

newXOutput 584

<Section columns = "stress_xx | stress_yy | stress_zz | stress_xy | stress_yz | stress_xz">
  1 7781.36 -0.00913882 4648.78 5.00222e-15 1.04080e-13 -3.13499e-14
  2 7781.36 -0.00913882 4648.78 5.00222e-15 6.76548e-14 1.28202e-14
  3 7781.36 -0.00913882 4648.78 1.36177e-14 2.33601e-13 -4.20480e-14
  4 7781.36 -0.00913882 4648.78 1.36177e-14 2.11005e-13 -2.71058e-14
  5 7781.36 -0.00913882 4648.78 2.79087e-15 1.00374e-13 -3.62505e-14
  6 7781.36 -0.00913882 4648.78 2.79087e-15 5.38260e-14 -5.46923e-15
  7 7781.36 -0.00913882 4648.78 9.06229e-15 2.19772e-13 -6.03374e-14
  8 7781.36 -0.00913882 4648.78 9.06229e-15 1.59395e-13 -9.53628e-14
</Section>

newXOutput 585

<Section columns = "stress_xx | stress_yy | stress_zz | stress_xy | stress_yz | stress_xz">
  1 7782.15 -0.00912730 4652.43 -1.92315e-15 -3.72643e-14 1.96760e-14
  2 7782.15 -0.00912730 4652.43 -1.92315e-15 -3.54126e-14 -6.18644e-14
  3 7782.15 -0.00912730 4652.43 -3.31051e-15 -1.18340e-13 2.60271e-14
  4 7782.15 -0.00912730 4652.43 -3.31051e-15 -5.47889e-14 -5.39636e-14
  5 7782.15 -0.00912730 4652.43 -3.31051e-15 -4.09677e-14 1.44595e-14
  6 7782.15 -0.00912730 4652.43 -3.31051e-15 -4.92338e-14 -9.71344e-14
  7 7782.15 -0.00912730 4652.43 -6.64525e-15 -1.32161e-13 6.55868e-15
  8 7782.15 -0.00912730 4652.43 -6.64525e-15 -1.06371e-13 -1.85593e-13
</Section>

newXOutput 586

<Section columns = "stress_xx | stress_yy | stress_zz | stress_xy | stress_yz | stress_xz">
  1 7782.94 -0.00911581 4656.08 -2.60580e-15 -5.21070e-14 1.19428e-14
  2 7782.94 -0.00911581 4656.08 -2.36554e-15 -7.29184e-14 9.55223e-14
  3 7782.94 -0.00911581 4656.08 -4.52516e-15 -1.14360e-13 -1.36961e-14
  4 7782.94 -0.00911581 4656.08 -3.62849e-15 -1.07114e-13 -3.74621e-14
  5 7782.94 -0.00911581 4656.08 -4.52516e-15 -4.84056e-14 2.16978e-14
  6 7782.94 -0.00911581 4656.08 -3.62849e-15 -5.91046e-14 1.31928e-13
  7 7782.94 -0.00911581 4656.08 -6.17638e-15 -1.00546e-13 2.27100e-14
  8 7782.94 -0.00911581 4656.08 -2.82997e-15 -5.55605e-14 9.84073e-14
</Section>

newXOutput 587

<Section columns = "stress_xx | stress_yy | stress_zz | stress_xy | stress_yz | stress_xz">
  1 7783.73 -0.00910437 4659.72 9.01436e-15 1.51736e-13 -1.55641e-14
  2 7783.73 -0.00910437 4659.72 9.25388e-15 2.93293e-14 -2.29824e-14
  3 7783.73 -0.00910437 4659.72 1.74685e-14 2.77841e-13 -3.44954e-14
  4 7783.73 -0.00910437 4659.72 1.83624e-14 1.03909e-13 -1.73813e-13
  5 7783.73 -0.00910437 4659.72 1.37824e-15 1.59134e-13 -1.49122e-14
  6 7783.73 -0.00910437 4659.72 2.27214e-15 5.69418e-14 1.09048e-14
  7 7783.73 -0.00910437 4659.72 5.45480e-15 3.05454e-13 -3.20625e-14
  8 7783.73 -0.00910437 4659.72 8.79089e-15 2.06960e-13 -4.73443e-14
</Section>

newXOutput 588

<Section columns = "stress_xx | stress_yy | stress_zz | stress_xy | stress_yz | stress_xz">
  1 7784.51 -0.00909296 4663.36 1.74659e-15 2.75974e-14 -4.05577e-14
  2 7784.51 -0.00909296 4663.36 1.74659e-15 -5.14975e-14 -7.13745e-14
  3 7784.51 -0.00909296 4663.36 1.70874e-15 -1.01014e-14 4.41029e-15
  4 7784.51 -0.00909296 4663.36 1.70874e-15 -7.90949e-14 -3.63536e-14
  5 7784.51 -0.00909296 4663.36 -3.63813e-15 3.12948e-14 -4.99416e-14
  6 7784.51 -0.00909296 4663.36 -3.63813e-15 -3.76988e-14 -9.07054e-14
  7 7784.51 -0.00909296 4663.36 -5.60536e-15 3.69735e-15 -3.06106e-14
  8 7784.51 -0.00909296 4663.36 -5.60536e-15 -2.75974e-14 -1.08498e-13
</Section>

newXOutput 589

<Section columns = "stress_xx | stress_yy | stress_zz | stress_xy | stress_yz | stress_xz">
  1 7785.29 -0.00908159 4666.99 -1.95107e-15 5.46697e-14 -1.63772e-14
  2 7785.29 -0.00908159 4666.99 -1.95107e-15 4.96218e-14 -1.05290e-14
  3 7785.29 -0.00908159 4666.99 -4.61627e-15 4.96218e-14 -1.05290e-14
  4 7785.29 -0.00908159 4666.99 -4.61627e-15 1.43817e-13 -2.57389e-14
  5 7785.29 -0.00908159 4666.99 -4.61627e-15 4.72790e-14 -2.12203e-14
  6 7785.29 -0.00908159 4666.99 -4.61627e-15 2.20394e-14 -2.86036e-14
  7 7785.29 -0.00908159 4666.99 -7.28148e-15 2.20394e-14 -2.86036e-14
  8 7785.29 -0.00908159 4666.99 -7.28148e-15 4.08785e-14 -9.31943e-14
</Section>

newXOutput 590

<Section columns = "stress_xx | stress_yy | stress_zz | stress_xy | stress_yz | stress_xz">
  1 7786.07 -0.00907026 4670.61 3.24178e-16 3.71630e-14 -5.59399e-14
  2 7786.07 -0.00907026 4670.61 8.68631e-17 2.01807e-14 -1.31250e-13
  3 7786.07 -0.00907026 4670.61 1.20985e-15 7.34689e-14 -7.71536e-14
  4 7786.07 -0.00907026 4670.61 3.24178e-16 9.91896e-14 -1.73472e-13
  5 7786.07 -0.00907026 4670.61 1.20985e-15 4.40548e-14 -6.07716e-14
  6 7786.07 -0.00907026 4670.61 3.24178e-16 4.59015e-14 -1.49282e-13
  7 7786.07 -0.00907026 4670.61 4.51521e-15 7.53156e-14 -9.51857e-14
  8 7786.07 -0.00907026 4670.61 1.20985e-15 1.06081e-13 -2.40769e-13
</Section>

newXOutput 591

<Section columns = "stress_xx | stress_yy | stress_zz | stress_xy | stress_yz | stress_xz">
  1 7786.84 -0.00905897 4674.23 4.64864e-15 1.39837e-13 5.89076e-14
  2 7786.84 -0.00905897 4674.23 4.86938e-15 2.43653e-13 8.64514e-14
  3 7786.84 -0.00905897 4674.23 9.47741e-15 2.84982e-13 6.51694e-14
  4 7786.84 -0.00905897 4674.23 9.53656e-15 5.59517e-13 9.42412e-14
  5 7786.84 -0.00905897 4674.23 8.43287e-15 1.32455e-13 5.37644e-14
  6 7786.84 -0.00905897 4674.23 9.25667e-15 2.16101e-13 5.16771e-14
  7 7786.84 -0.00905897 4674.23 1.92173e-14 2.57430e-13 4.59746e-14
  8 7786.84 -0.00905897 4674.23 1.94380e-14 4.56690e-13 -3.55383e-14
</Section>

newXOutput 592

<Section columns = "stress_xx | stress_yy | stress_zz | stress_xy | stress_yz | stress_xz">
  1 7787.61 -0.00904772 4677.84 2.04740e-15 5.16901e-14 -2.76402e-14
  2 7787.61 -0.00904772 4677.84 1.81155e-15 -5.31996e-15 -5.29191e-14
  3 7787.61 -0.00904772 4677.84 2.89026e-15 1.18599e-13 -5.29191e-14
  4 7787.61 -0.00904772 4677.84 2.01002e-15 1.03323e-13 -1.84036e-13
  5 7787.61 -0.00904772 4677.84 -2.39118e-15 5.16901e-14 -1.80222e-14
  6 7787.61 -0.00904772 4677.84 -3.27142e-15 -5.31996e-15 -1.70242e-14
  7 7787.61 -0.00904772 4677.84 -1.04923e-15 1.18599e-13 -1.70242e-14
  8 7787.61 -0.00904772 4677.84 -4.33434e-15 1.03323e-13 -5.00745e-14
</Section>

newXOutput 593

<Section columns = "stress_xx | stress_yy | stress_zz | stress_xy | stress_yz | stress_xz">
  1 7788.38 -0.00903651 4681.44 3.11021e-15 -6.30283e-14 -4.15610e-14
  2 7788.38 -0.00903651 4681.44 3.58048e-15 -5.49789e-14 -1.20497e-13
  3 7788.38 -0.00903651 4681.44 6.69491e-15 -1.37546e-13 -2.44161e-14
  4 7788.38 -0.00903651 4681.44 8.45000e-15 -1.07505e-13 -1.35564e-13
  5 7788.38 -0.00903651 4681.44 1.42966e-15 -5.93410e-14 -5.05137e-14
  6 7788.38 -0.00903651 4681.44 3.18475e-15 -4.12176e-14 -1.22896e-13
  7 7788.38 -0.00903651 4681.44 4.01925e-15 -1.23785e-13 -5.78279e-14
  8 7788.38 -0.00903651 4681.44 1.05693e-14 -5.61477e-14 -1.44517e-13
</Section>

newXOutput 594

<Section columns = "stress_xx | stress_yy | stress_zz | stress_xy | stress_yz | stress_xz">
  1 7789.14 -0.00902533 4685.04 3.33511e-15 2.57800e-13 -1.38355e-14
  2 7789.14 -0.00902533 4685.04 3.33511e-15 2.62160e-13 2.72331e-14
  3 7789.14 -0.00902533 4685.04 7.54928e-15 5.71620e-13 -5.22447e-15
  4 7789.14 -0.00902533 4685.04 7.54928e-15 5.87891e-13 -7.15709e-14
  5 7789.14 -0.00902533 4685.04 2.30014e-15 2.57800e-13 -1.35149e-14
  6 7789.14 -0.00902533 4685.04 2.30014e-15 2.62160e-13 4.38998e-14
  7 7789.14 -0.00902533 4685.04 7.27196e-15 5.71620e-13 -4.02785e-15
  8 7789.14 -0.00902533 4685.04 7.27196e-15 5.87891e-13 -9.36968e-15
</Section>

newXOutput 595

<Section columns = "stress_xx | stress_yy | stress_zz | stress_xy | stress_yz | stress_xz">
  1 7789.90 -0.00901419 4688.63 8.55402e-17 4.26445e-14 9.94466e-15
  2 7789.90 -0.00901419 4688.63 3.19240e-16 3.81968e-14 8.69972e-14
  3 7789.90 -0.00901419 4688.63 3.19240e-16 1.20675e-13 -1.99322e-14
  4 7789.90 -0.00901419 4688.63 1.19142e-15 1.32243e-13 -6.10217e-14
  5 7789.90 -0.00901419 4688.63 3.19240e-16 4.63278e-14 1.47199e-14
  6 7789.90 -0.00901419 4688.63 1.19142e-15 5.19431e-14 1.04819e-13
  7 7789.90 -0.00901419 4688.63 1.19142e-15 1.34421e-13 -2.11061e-15
  8 7789.90 -0.00901419 4688.63 4.44644e-15 1.83545e-13 5.48927e-15
</Section>

newXOutput 596

<Section columns = "stress_xx | stress_yy | stress_zz | stress_xy | stress_yz | stress_xz">
  1 7790.65 -0.00900309 4692.21 6.03143e-15 -3.05213e-13 -1.44832e-14
  2 7790.65 -0.00900309 4692.21 6.03143e-15 -2.21456e-13 1.67484e-14
  3 7790.65 -0.00900309 4692.21 1.24249e-14 -6.37978e-13 -3.09552e-14
  4 7790.65 -0.00900309 4692.21 1.24249e-14 -4.21747e-13 -2.36922e-14
  5 7790.65 -0.00900309 4692.21 1.24249e-14 -2.98097e-13 -1.48023e-14
  6 7790.65 -0.00900309 4692.21 1.24249e-14 -1.94899e-13 1.59567e-16
  7 7790.65 -0.00900309 4692.21 2.55956e-14 -6.23319e-13 -3.21462e-14
  8 7790.65 -0.00900309 4692.21 2.55956e-14 -3.67038e-13 -8.56026e-14
</Section>

newXOutput 597

<Section columns = "stress_xx | stress_yy | stress_zz | stress_xy | stress_yz | stress_xz">
  1 7791.41 -0.00899203 4695.79 3.25074e-15 8.39160e-14 1.91284e-14
  2 7791.41 -0.00899203 4695.79 3.25074e-15 9.73963e-15 -6.01426e-14
  3 7791.41 -0.00899203 4695.79 8.57945e-15 2.36309e-13 2.53027e-14
  4 7791.41 -0.00899203 4695.79 8.57945e-15 1.57516e-14 -5.24616e-14
  5 7791.41 -0.00899203 4695.79 -1.82292e-15 9.12747e-14 1.40571e-14
  6 7791.41 -0.00899203 4695.79 -1.82292e-15 3.72026e-14 -9.44310e-14
  7 7791.41 -0.00899203 4695.79 -3.25074e-15 2.63772e-13 6.37614e-15
  8 7791.41 -0.00899203 4695.79 -3.25074e-15 1.18245e-13 -1.80428e-13
</Section>

newXOutput 598

<Section columns = "stress_xx | stress_yy | stress_zz | stress_xy | stress_yz | stress_xz">
  1 7792.15 -0.00898100 4699.37 3.25371e-15 -3.47614e-13 -3.88651e-14
  2 7792.15 -0.00898100 4699.37 2.57452e-15 -2.24278e-13 -1.45047e-13
  3 7792.15 -0.00898100 4699.37 7.23163e-15 -6.77172e-13 -3.88651e-14
  4 7792.15 -0.00898100 4699.37 5.44529e-15 -3.85602e-13 -1.45047e-13
  5 7792.15 -0.00898100 4699.37 1.21430e-14 -3.51292e-13 -3.88651e-14
  6 7792.15 -0.00898100 4699.37 9.60824e-15 -2.38002e-13 -1.45047e-13
  7 7792.15 -0.00898100 4699.37 2.69888e-14 -6.90896e-13 -3.88651e-14
  8 7792.15 -0.00898100 4699.37 2.03221e-14 -4.36821e-13 -1.45047e-13
</Section>

newXOutput 599

<Section columns = "stress_xx | stress_yy | stress_zz | stress_xy | stress_yz | stress_xz">
  1 7792.90 -0.00897001 4702.93 -7.13492e-15 -2.71629e-14 -1.35162e-14
  2 7792.90 -0.00897001 4702.93 -7.13492e-15 9.88631e-14 -2.19111e-14
  3 7792.90 -0.00897001 4702.93 -1.34505e-14 -8.19635e-14 -2.75077e-14
  4 7792.90 -0.00897001 4702.93 -1.34505e-14 1.75404e-13 -1.67369e-13
  5 7792.90 -0.00897001 4702.93 7.65769e-16 -2.69167e-14 -8.46845e-15
  6 7792.90 -0.00897001 4702.93 7.65769e-16 9.97819e-14 1.22175e-14
  7 7792.90 -0.00897001 4702.93 1.91180e-15 -6.91657e-14 -8.66936e-15
  8 7792.90 -0.00897001 4702.93 1.91180e-15 2.23166e-13 -3.99996e-14
</Section>

newXOutput 600

<Section columns = "stress_xx | stress_yy | stress_zz | stress_xy | stress_yz | stress_xz">
  1 7793.64 -0.00895906 4706.49 5.85918e-15 -2.98615e-14 -3.94322e-14
  2 7793.64 -0.00895906 4706.49 6.08934e-15 -7.58269e-14 -6.93937e-14
  3 7793.64 -0.00895906 4706.49 1.46539e-14 6.42841e-15 4.28790e-15
  4 7793.64 -0.00895906 4706.49 1.55128e-14 -1.08936e-13 -3.53447e-14
  5 7793.64 -0.00895906 4706.49 4.80830e-16 -3.35349e-14 -4.85556e-14
  6 7793.64 -0.00895906 4706.49 1.33980e-15 -8.95362e-14 -8.81882e-14
  7 7793.64 -0.00895906 4706.49 -1.38207e-16 -7.28082e-15 -2.97611e-14
  8 7793.64 -0.00895906 4706.49 3.06752e-15 -1.60099e-13 -1.05487e-13
</Section>

newXOutput 601

<Section columns = "stress_xx | stress_yy | stress_zz | stress_xy | stress_yz | stress_xz">
  1 7794.38 -0.00894814 4710.05 4.56453e-15 -1.01534e-14 -1.72354e-15
  2 7794.38 -0.00894814 4710.05 4.33507e-15 -7.62449e-14 -6.43234e-15
  3 7794.38 -0.00894814 4710.05 7.44707e-15 -2.72060e-15 -6.43234e-15
  4 7794.38 -0.00894814 4710.05 6.59071e-15 -2.04298e-14 -2.40058e-14
  5 7794.38 -0.00894814 4710.05 2.30889e-15 -3.30249e-15 -6.43234e-15
  6 7794.38 -0.00894814 4710.05 1.45252e-15 -5.06770e-14 -2.40058e-14
  7 7794.38 -0.00894814 4710.05 6.04779e-15 -8.84899e-16 -2.40058e-14
  8 7794.38 -0.00894814 4710.05 2.85180e-15 -1.35789e-14 -8.95910e-14
</Section>

newXOutput 602

<Section columns = "stress_xx | stress_yy | stress_zz | stress_xy | stress_yz | stress_xz">
  1 7795.11 -0.00893726 4713.60 -1.88266e-15 1.25313e-15 -7.66487e-15
  2 7795.11 -0.00893726 4713.60 -2.11143e-15 -3.64066e-14 -8.87954e-14
  3 7795.11 -0.00893726 4713.60 -2.07517e-15 4.14191e-14 -2.50823e-14
  4 7795.11 -0.00893726 4713.60 -2.92894e-15 1.25313e-15 -1.48241e-13
  5 7795.11 -0.00893726 4713.60 -3.35582e-15 4.67674e-15 -3.59641e-15
  6 7795.11 -0.00893726 4713.60 -4.20959e-15 -2.36295e-14 -1.03979e-13
  7 7795.11 -0.00893726 4713.60 -2.32487e-15 4.23364e-14 -9.89861e-15
  8 7795.11 -0.00893726 4713.60 -5.51117e-15 4.67674e-15 -2.04907e-13
</Section>

newXOutput 603

<Section columns = "stress_xx | stress_yy | stress_zz | stress_xy | stress_yz | stress_xz">
  1 7795.84 -0.00892642 4717.14 1.82553e-15 -2.14702e-13 6.32511e-14
  2 7795.84 -0.00892642 4717.14 1.84081e-15 -1.66306e-13 8.56597e-14
  3 7795.84 -0.00892642 4717.14 3.42354e-15 -4.12673e-13 8.56597e-14
  4 7795.84 -0.00892642 4717.14 4.21770e-15 -2.32057e-13 9.76069e-14
  5 7795.84 -0.00892642 4717.14 3.15373e-15 -2.18370e-13 5.38772e-14
  6 7795.84 -0.00892642 4717.14 3.21075e-15 -1.79993e-13 5.06760e-14
  7 7795.84 -0.00892642 4717.14 7.37348e-15 -4.26360e-13 5.06760e-14
  8 7795.84 -0.00892642 4717.14 1.03373e-14 -2.83138e-13 -3.29543e-14
</Section>

newXOutput 604

<Section columns = "stress_xx | stress_yy | stress_zz | stress_xy | stress_yz | stress_xz">
  1 7796.57 -0.00891561 4720.67 5.57521e-18 -1.07662e-13 0.00000
  2 7796.57 -0.00891561 4720.67 2.08070e-17 -1.07752e-13 0.00000
  3 7796.57 -0.00891561 4720.67 2.89803e-16 -1.48791e-13 0.00000
  4 7796.57 -0.00891561 4720.67 1.08156e-15 -1.21096e-13 0.00000
  5 7796.57 -0.00891561 4720.67 2.08070e-17 -1.03996e-13 0.00000
  6 7796.57 -0.00891561 4720.67 7.76526e-17 -9.40719e-14 0.00000
  7 7796.57 -0.00891561 4720.67 1.08156e-15 -1.35111e-13 0.00000
  8 7796.57 -0.00891561 4720.67 4.03644e-15 -7.00426e-14 0.00000
</Section>

newXOutput 605

<Section columns = "stress_xx | stress_yy | stress_zz | stress_xy | stress_yz | stress_xz">
  1 7797.29 -0.00890484 4724.20 3.09671e-16 4.21125e-15 -5.90403e-15
  2 7797.29 -0.00890484 4724.20 8.29762e-17 1.84642e-14 -8.18057e-14
  3 7797.29 -0.00890484 4724.20 1.15571e-15 -2.25527e-14 -1.85352e-14
  4 7797.29 -0.00890484 4724.20 3.09671e-16 5.86551e-14 -1.23427e-13
  5 7797.29 -0.00890484 4724.20 1.15571e-15 5.47761e-16 2.80137e-15
  6 7797.29 -0.00890484 4724.20 3.09671e-16 4.79189e-15 -7.94731e-14
  7 7797.29 -0.00890484 4724.20 4.31317e-15 -3.62251e-14 1.39538e-14
  8 7797.29 -0.00890484 4724.20 1.15571e-15 7.62932e-15 -1.14722e-13
</Section>

newXOutput 606

<Section columns = "stress_xx | stress_yy | stress_zz | stress_xy | stress_yz | stress_xz">
  1 7798.02 -0.00889411 4727.73 3.08736e-16 1.81761e-14 -3.12502e-14
  2 7798.02 -0.00889411 4727.73 8.27256e-17 2.68394e-14 2.17131e-14
  3 7798.02 -0.00889411 4727.73 1.15222e-15 6.78342e-14 -7.14973e-14
  4 7798.02 -0.00889411 4727.73 3.08736e-16 1.00166e-13 -8.73924e-14
  5 7798.02 -0.00889411 4727.73 1.15222e-15 1.81761e-14 -1.79105e-14
  6 7798.02 -0.00889411 4727.73 3.08736e-16 2.68394e-14 4.14108e-14
  7 7798.02 -0.00889411 4727.73 4.30014e-15 6.78342e-14 -2.17131e-14
  8 7798.02 -0.00889411 4727.73 1.15222e-15 1.00166e-13 -1.38797e-14
</Section>

newXOutput 607

<Section columns = "stress_xx | stress_yy | stress_zz | stress_xy | stress_yz | stress_xz">
  1 7798.73 -0.00888341 4731.25 6.82050e-15 1.46802e-13 -3.97596e-14
  2 7798.73 -0.00888341 4731.25 6.59517e-15 2.31067e-13 -1.48385e-13
  3 7798.73 -0.00888341 4731.25 1.33473e-14 3.13013e-13 -4.44032e-14
  4 7798.73 -0.00888341 4731.25 1.25064e-14 5.15557e-13 -1.65715e-13
  5 7798.73 -0.00888341 4731.25 1.33473e-14 1.46802e-13 -4.44032e-14
  6 7798.73 -0.00888341 4731.25 1.25064e-14 2.31067e-13 -1.65715e-13
  7 7798.73 -0.00888341 4731.25 2.90903e-14 3.13013e-13 -6.17335e-14
  8 7798.73 -0.00888341 4731.25 2.59519e-14 5.15557e-13 -2.30393e-13
</Section>

newXOutput 608

<Section columns = "stress_xx | stress_yy | stress_zz | stress_xy | stress_yz | stress_xz">
  1 7799.45 -0.00887275 4734.76 4.56608e-15 1.11602e-13 3.04130e-14
  2 7799.45 -0.00887275 4734.76 4.34143e-15 5.61761e-14 5.41455e-14
  3 7799.45 -0.00887275 4734.76 1.23474e-14 2.97554e-13 1.32364e-14
  4 7799.45 -0.00887275 4734.76 1.15090e-14 1.62790e-13 -4.47772e-15
  5 7799.45 -0.00887275 4734.76 2.28653e-15 1.15014e-13 3.44252e-14
  6 7799.45 -0.00887275 4734.76 1.44813e-15 6.89119e-14 3.91717e-14
  7 7799.45 -0.00887275 4734.76 7.27585e-15 2.98468e-13 2.82102e-14
  8 7799.45 -0.00887275 4734.76 4.14688e-15 1.66203e-13 -6.03605e-14
</Section>

newXOutput 609

<Section columns = "stress_xx | stress_yy | stress_zz | stress_xy | stress_yz | stress_xz">
  1 7800.16 -0.00886212 4738.26 -2.56913e-15 -6.21847e-14 2.44932e-14
  2 7800.16 -0.00886212 4738.26 -3.00208e-15 5.27135e-15 -5.69093e-14
  3 7800.16 -0.00886212 4738.26 -4.64384e-15 -1.17515e-13 4.65923e-14
  4 7800.16 -0.00886212 4738.26 -5.53571e-15 5.03696e-14 -4.51271e-14
  5 7800.16 -0.00886212 4738.26 1.06495e-16 -6.21847e-14 1.52488e-14
  6 7800.16 -0.00886212 4738.26 -1.50928e-15 5.27135e-15 -9.14098e-14
  7 7800.16 -0.00886212 4738.26 2.64013e-15 -1.17515e-13 1.20918e-14
  8 7800.16 -0.00886212 4738.26 -6.88397e-16 5.03696e-14 -1.73885e-13
</Section>

newXOutput 610

<Section columns = "stress_xx | stress_yy | stress_zz | stress_xy | stress_yz | stress_xz">
  1 7800.87 -0.00885152 4741.77 -1.78186e-15 -4.14204e-14 2.51978e-14
  2 7800.87 -0.00885152 4741.77 -1.78186e-15 -5.77962e-14 9.40396e-14
  3 7800.87 -0.00885152 4741.77 -3.06731e-15 -5.34739e-14 -9.22305e-15
  4 7800.87 -0.00885152 4741.77 -3.06731e-15 -1.02781e-13 -3.44209e-14
  5 7800.87 -0.00885152 4741.77 -3.06731e-15 -4.48293e-14 3.44209e-14
  6 7800.87 -0.00885152 4741.77 -3.06731e-15 -7.05184e-14 1.28461e-13
  7 7800.87 -0.00885152 4741.77 -6.15705e-15 -5.43873e-14 2.51978e-14
  8 7800.87 -0.00885152 4741.77 -6.15705e-15 -1.06190e-13 9.40396e-14
</Section>

newXOutput 611

<Section columns = "stress_xx | stress_yy | stress_zz | stress_xy | stress_yz | stress_xz">
  1 7801.57 -0.00884097 4745.26 -2.19194e-15 -2.28143e-14 1.93171e-14
  2 7801.57 -0.00884097 4745.26 -2.41457e-15 -4.69980e-14 1.31450e-14
  3 7801.57 -0.00884097 4745.26 -3.36222e-15 -6.11307e-15 -2.74815e-14
  4 7801.57 -0.00884097 4745.26 -4.19308e-15 -1.25931e-14 -1.56067e-13
  5 7801.57 -0.00884097 4745.26 -3.36222e-15 -2.28143e-14 3.71043e-14
  6 7801.57 -0.00884097 4745.26 -4.19308e-15 -4.69980e-14 4.97870e-14
  7 7801.57 -0.00884097 4745.26 -2.62229e-15 -6.11307e-15 3.89011e-14
  8 7801.57 -0.00884097 4745.26 -5.72313e-15 -1.25931e-14 -1.93171e-14
</Section>

newXOutput 612

<Section columns = "stress_xx | stress_yy | stress_zz | stress_xy | stress_yz | stress_xz">
  1 7802.27 -0.00883044 4748.75 6.26432e-15 2.32910e-14 -3.03585e-14
  2 7802.27 -0.00883044 4748.75 6.26432e-15 -7.37913e-14 -6.53484e-14
  3 7802.27 -0.00883044 4748.75 1.53467e-14 8.96607e-14 -1.39548e-14
  4 7802.27 -0.00883044 4748.75 1.53467e-14 -1.33106e-13 -3.92316e-14
  5 7802.27 -0.00883044 4748.75 4.35957e-16 2.69408e-14 -3.49488e-14
  6 7802.27 -0.00883044 4748.75 4.35957e-16 -6.01703e-14 -8.24797e-14
  7 7802.27 -0.00883044 4748.75 3.77920e-15 1.03282e-13 -3.10860e-14
  8 7802.27 -0.00883044 4748.75 3.77920e-15 -8.22717e-14 -1.03166e-13
</Section>

newXOutput 613

<Section columns = "stress_xx | stress_yy | stress_zz | stress_xy | stress_yz | stress_xz">
  1 7802.97 -0.00881995 4752.23 -3.64293e-15 -6.29961e-14 -1.67630e-15
  2 7802.97 -0.00881995 4752.23 -3.64293e-15 1.01101e-13 -6.25603e-15
  3 7802.97 -0.00881995 4752.23 -4.51475e-15 -1.39630e-13 -6.25603e-15
  4 7802.97 -0.00881995 4752.23 -4.51475e-15 2.05630e-13 -2.33478e-14
  5 7802.97 -0.00881995 4752.23 4.15713e-15 -7.00473e-14 -6.25603e-15
  6 7802.97 -0.00881995 4752.23 4.15713e-15 7.47859e-14 -2.33478e-14
  7 7802.97 -0.00881995 4752.23 9.36489e-15 -1.54156e-13 -2.33478e-14
  8 7802.97 -0.00881995 4752.23 9.36489e-15 1.51420e-13 -8.71353e-14
</Section>

newXOutput 614

<Section columns = "stress_xx | stress_yy | stress_zz | stress_xy | stress_yz | stress_xz">
  1 7803.66 -0.00880950 4755.71 5.08384e-15 6.12289e-14 -7.45497e-15
  2 7803.66 -0.00880950 4755.71 5.08384e-15 -6.66976e-14 -8.63638e-14
  3 7803.66 -0.00880950 4755.71 1.11546e-14 1.37399e-13 -2.43954e-14
  4 7803.66 -0.00880950 4755.71 1.11546e-14 -6.12289e-14 -1.44181e-13
  5 7803.66 -0.00880950 4755.71 -3.66700e-15 6.12289e-14 -3.49793e-15
  6 7803.66 -0.00880950 4755.71 -3.66700e-15 -6.66976e-14 -1.01132e-13
  7 7803.66 -0.00880950 4755.71 -2.94453e-15 1.37399e-13 -9.62754e-15
  8 7803.66 -0.00880950 4755.71 -2.94453e-15 -6.12289e-14 -1.99296e-13
</Section>

newXOutput 615

<Section columns = "stress_xx | stress_yy | stress_zz | stress_xy | stress_yz | stress_xz">
  1 7804.36 -0.00879908 4759.18 -6.21023e-15 -1.18504e-13 4.71140e-15
  2 7804.36 -0.00879908 4759.18 -6.41547e-15 -9.88985e-15 2.49502e-14
  3 7804.36 -0.00879908 4759.18 -1.26586e-14 -2.13877e-13 1.41641e-14
  4 7804.36 -0.00879908 4759.18 -1.27136e-14 2.42867e-14 -8.46086e-14
  5 7804.36 -0.00879908 4759.18 6.27037e-16 -1.18504e-13 -3.79527e-15
  6 7804.36 -0.00879908 4759.18 -1.38930e-16 -9.88985e-15 2.26708e-14
  7 7804.36 -0.00879908 4759.18 1.79414e-15 -2.13877e-13 -1.75832e-14
  8 7804.36 -0.00879908 4759.18 1.58890e-15 2.42867e-14 -9.31152e-14
</Section>

newXOutput 616

<Section columns = "stress_xx | stress_yy | stress_zz | stress_xy | stress_yz | stress_xz">
  1 7805.04 -0.00878870 4762.64 2.82071e-15 -3.79222e-14 -1.40908e-14
  2 7805.04 -0.00878870 4762.64 3.04003e-15 -6.81706e-14 -5.25876e-14
  3 7805.04 -0.00878870 4762.64 5.94495e-15 1.33806e-14 -5.25876e-14
  4 7805.04 -0.00878870 4762.64 6.76346e-15 -7.16579e-14 -1.96260e-13
  5 7805.04 -0.00878870 4762.64 1.03389e-15 -3.42802e-14 -9.54257e-15
  6 7805.04 -0.00878870 4762.64 1.85240e-15 -5.45787e-14 -3.56133e-14
  7 7805.04 -0.00878870 4762.64 2.63077e-15 2.69724e-14 -3.56133e-14
  8 7805.04 -0.00878870 4762.64 5.68549e-15 -2.09323e-14 -1.32911e-13
</Section>

newXOutput 617

<Section columns = "stress_xx | stress_yy | stress_zz | stress_xy | stress_yz | stress_xz">
  1 7805.73 -0.00877835 4766.10 3.86848e-15 -8.01146e-15 -5.74281e-15
  2 7805.73 -0.00877835 4766.10 3.86848e-15 4.61484e-14 -7.95718e-14
  3 7805.73 -0.00877835 4766.10 7.42073e-15 4.61484e-14 -1.80291e-14
  4 7805.73 -0.00877835 4766.10 7.42073e-15 1.92605e-13 -1.20057e-13
  5 7805.73 -0.00877835 4766.10 7.42073e-15 -4.37148e-15 2.72487e-15
  6 7805.73 -0.00877835 4766.10 7.42073e-15 5.97330e-14 -7.73029e-14
  7 7805.73 -0.00877835 4766.10 1.73336e-14 5.97330e-14 1.35727e-14
  8 7805.73 -0.00877835 4766.10 1.73336e-14 2.43304e-13 -1.11589e-13
</Section>

newXOutput 618

<Section columns = "stress_xx | stress_yy | stress_zz | stress_xy | stress_yz | stress_xz">
  1 7806.41 -0.00876803 4769.55 -3.47934e-15 1.13523e-13 -5.20436e-15
  2 7806.41 -0.00876803 4769.55 -3.47934e-15 7.34569e-14 2.78712e-14
  3 7806.41 -0.00876803 4769.55 -5.98936e-15 1.87045e-13 -2.28185e-14
  4 7806.41 -0.00876803 4769.55 -5.98936e-15 1.80922e-13 -7.24874e-14
  5 7806.41 -0.00876803 4769.55 -5.98936e-15 1.13036e-13 -6.76936e-16
  6 7806.41 -0.00876803 4769.55 -5.98936e-15 7.16379e-14 4.47678e-14
  7 7806.41 -0.00876803 4769.55 -1.20225e-14 1.61710e-13 -5.92193e-15
  8 7806.41 -0.00876803 4769.55 -1.20225e-14 8.63684e-14 -9.42851e-15
</Section>

newXOutput 619

<Section columns = "stress_xx | stress_yy | stress_zz | stress_xy | stress_yz | stress_xz">
  1 7807.09 -0.00875775 4773.00 -1.71460e-15 5.92148e-14 3.53692e-14
  2 7807.09 -0.00875775 4773.00 -1.72916e-15 6.63325e-14 1.32000e-13
  3 7807.09 -0.00875775 4773.00 -1.95186e-15 9.09892e-14 3.08521e-14
  4 7807.09 -0.00875775 4773.00 -2.70873e-15 1.57111e-13 1.15142e-13
  5 7807.09 -0.00875775 4773.00 -2.91154e-15 4.85500e-14 3.08521e-14
  6 7807.09 -0.00875775 4773.00 -2.96588e-15 2.65313e-14 1.15142e-13
  7 7807.09 -0.00875775 4773.00 -2.13477e-15 6.29400e-14 1.39942e-14
  8 7807.09 -0.00875775 4773.00 -4.95947e-15 5.24297e-14 5.22271e-14
</Section>

newXOutput 620

<Section columns = "stress_xx | stress_yy | stress_zz | stress_xy | stress_yz | stress_xz">
  1 7807.77 -0.00874750 4776.44 -2.76212e-16 -2.27047e-14 2.95849e-14
  2 7807.77 -0.00874750 4776.44 -7.40107e-17 -2.64280e-14 5.26711e-14
  3 7807.77 -0.00874750 4776.44 -7.40107e-17 -2.64280e-14 1.28760e-14
  4 7807.77 -0.00874750 4776.44 -1.98311e-17 -1.25326e-14 -4.35579e-15
  5 7807.77 -0.00874750 4776.44 -1.03084e-15 -2.27047e-14 3.34878e-14
  6 7807.77 -0.00874750 4776.44 -2.76212e-16 -2.64280e-14 3.81051e-14
  7 7807.77 -0.00874750 4776.44 -2.76212e-16 -2.64280e-14 2.74420e-14
  8 7807.77 -0.00874750 4776.44 -7.40107e-17 -1.25326e-14 -5.87169e-14
</Section>

newXOutput 621

<Section columns = "stress_xx | stress_yy | stress_zz | stress_xy | stress_yz | stress_xz">
  1 7808.44 -0.00873728 4779.88 2.21373e-16 1.96361e-14 -1.99220e-14
  2 7808.44 -0.00873728 4779.88 -1.96303e-16 5.56737e-14 -6.70835e-14
  3 7808.44 -0.00873728 4779.88 1.08179e-15 1.93037e-14 2.29636e-14
  4 7808.44 -0.00873728 4779.88 2.21373e-16 1.37761e-13 -4.98911e-14
  5 7808.44 -0.00873728 4779.88 8.26175e-16 8.98276e-15 -3.73054e-14
  6 7808.44 -0.00873728 4779.88 -7.32612e-16 1.59148e-14 -1.02894e-13
  7 7808.44 -0.00873728 4779.88 4.03731e-15 -8.71558e-15 -4.19121e-14
  8 7808.44 -0.00873728 4779.88 8.26175e-16 3.31917e-14 -1.83536e-13
</Section>

newXOutput 622

<Section columns = "stress_xx | stress_yy | stress_zz | stress_xy | stress_yz | stress_xz">
  1 7809.11 -0.00872710 4783.31 -5.38585e-17 3.02082e-14 -3.84115e-14
  2 7809.11 -0.00872710 4783.31 -2.69293e-16 1.38480e-14 -1.43354e-13
  3 7809.11 -0.00872710 4783.31 1.00501e-15 9.08438e-14 -4.28977e-14
  4 7809.11 -0.00872710 4783.31 2.01003e-16 1.01337e-13 -1.60096e-13
  5 7809.11 -0.00872710 4783.31 -2.01003e-16 3.35953e-14 -4.28977e-14
  6 7809.11 -0.00872710 4783.31 -1.00501e-15 2.64889e-14 -1.60096e-13
  7 7809.11 -0.00872710 4783.31 3.75076e-15 9.17514e-14 -5.96404e-14
  8 7809.11 -0.00872710 4783.31 7.50153e-16 1.04724e-13 -2.22581e-13
</Section>

newXOutput 623

<Section columns = "stress_xx | stress_yy | stress_zz | stress_xy | stress_yz | stress_xz">
  1 7809.78 -0.00871695 4786.73 -1.04661e-15 -6.40602e-15 1.87926e-14
  2 7809.78 -0.00871695 4786.73 -1.06100e-15 -2.11863e-14 1.27880e-14
  3 7809.78 -0.00871695 4786.73 -1.75523e-15 -2.97711e-14 -2.67352e-14
  4 7809.78 -0.00871695 4786.73 -2.50316e-15 3.03462e-14 -1.51829e-13
  5 7809.78 -0.00871695 4786.73 -2.70357e-15 -6.89213e-15 3.60967e-14
  6 7809.78 -0.00871695 4786.73 -2.75727e-15 -2.30005e-14 4.84350e-14
  7 7809.78 -0.00871695 4786.73 -2.06304e-15 -5.50393e-14 3.78448e-14
  8 7809.78 -0.00871695 4786.73 -4.85435e-15 -6.39561e-14 -1.87926e-14
</Section>

newXOutput 624

<Section columns = "stress_xx | stress_yy | stress_zz | stress_xy | stress_yz | stress_xz">
  1 7810.44 -0.00870684 4790.15 -2.40110e-15 -2.16284e-14 -4.17356e-14
  2 7810.44 -0.00870684 4790.15 -2.40110e-15 -8.07181e-14 -1.09109e-13
  3 7810.44 -0.00870684 4790.15 -4.32610e-15 -4.01161e-14 -5.91098e-14
  4 7810.44 -0.00870684 4790.15 -4.32610e-15 -1.49715e-13 -2.08101e-13
  5 7810.44 -0.00870684 4790.15 -4.32610e-15 -1.43755e-14 -3.72698e-14
  6 7810.44 -0.00870684 4790.15 -4.32610e-15 -5.36501e-14 -9.24427e-14
  7 7810.44 -0.00870684 4790.15 -6.59720e-15 -1.30481e-14 -4.24434e-14
  8 7810.44 -0.00870684 4790.15 -6.59720e-15 -4.86963e-14 -1.45901e-13
</Section>

newXOutput 625

<Section columns = "stress_xx | stress_yy | stress_zz | stress_xy | stress_yz | stress_xz">
  1 7811.10 -0.00869676 4793.56 2.00079e-15 -6.19870e-14 2.43459e-14
  2 7811.10 -0.00869676 4793.56 1.80157e-15 -3.65917e-14 9.08600e-14
  3 7811.10 -0.00869676 4793.56 4.29378e-15 -9.31745e-14 -8.91121e-15
  4 7811.10 -0.00869676 4793.56 4.24040e-15 -1.44004e-14 -3.32571e-14
  5 7811.10 -0.00869676 4793.56 4.04117e-15 -6.17442e-14 3.32571e-14
  6 7811.10 -0.00869676 4793.56 3.29766e-15 -3.56856e-14 1.24117e-13
  7 7811.10 -0.00869676 4793.56 1.09658e-14 -8.05538e-14 2.43459e-14
  8 7811.10 -0.00869676 4793.56 1.07666e-14 3.27006e-14 9.08600e-14
</Section>

newXOutput 626

<Section columns = "stress_xx | stress_yy | stress_zz | stress_xy | stress_yz | stress_xz">
  1 7811.76 -0.00868671 4796.97 -7.23923e-15 -1.76498e-13 1.74841e-14
  2 7811.76 -0.00868671 4796.97 -7.02634e-15 -1.30174e-13 -7.73968e-14
  3 7811.76 -0.00868671 4796.97 -1.24817e-14 -3.37254e-13 2.21476e-14
  4 7811.76 -0.00868671 4796.97 -1.16871e-14 -2.03780e-13 -1.27983e-13
  5 7811.76 -0.00868671 4796.97 -4.13900e-15 -1.76741e-13 1.30386e-14
  6 7811.76 -0.00868671 4796.97 -3.34446e-15 -1.31080e-13 -9.39876e-14
  7 7811.76 -0.00868671 4796.97 -7.42361e-15 -3.49868e-13 5.55684e-15
  8 7811.76 -0.00868671 4796.97 -4.45834e-15 -2.50856e-13 -1.89900e-13
</Section>

newXOutput 627

<Section columns = "stress_xx | stress_yy | stress_zz | stress_xy | stress_yz | stress_xz">
  1 7812.41 -0.00867669 4800.37 -2.84518e-15 5.74516e-14 1.67016e-14
  2 7812.41 -0.00867669 4800.37 -2.43486e-15 5.76942e-14 6.94990e-14
  3 7812.41 -0.00867669 4800.37 -5.24640e-15 1.22783e-13 5.90047e-14
  4 7812.41 -0.00867669 4800.37 -4.40114e-15 1.35391e-13 8.64579e-14
  5 7812.41 -0.00867669 4800.37 -1.43040e-15 5.76942e-14 -4.45671e-16
  6 7812.41 -0.00867669 4800.37 1.00930e-16 5.85993e-14 3.41752e-14
  7 7812.41 -0.00867669 4800.37 -6.52420e-16 1.35391e-13 -4.98980e-15
  8 7812.41 -0.00867669 4800.37 2.50215e-15 1.82442e-13 -4.53723e-14
</Section>

newXOutput 628

<Section columns = "stress_xx | stress_yy | stress_zz | stress_xy | stress_yz | stress_xz">
  1 7813.07 -0.00866671 4803.76 -4.32817e-15 8.77192e-15 -1.61978e-15
  2 7813.07 -0.00866671 4803.76 -4.31399e-15 1.51934e-14 -6.04509e-15
  3 7813.07 -0.00866671 4803.76 -8.08521e-15 -7.83477e-16 -6.04509e-15
  4 7813.07 -0.00866671 4803.76 -7.34826e-15 6.25506e-14 -2.25606e-14
  5 7813.07 -0.00866671 4803.76 -3.59641e-15 1.77689e-15 -6.04509e-15
  6 7813.07 -0.00866671 4803.76 -3.54350e-15 -1.09124e-14 -2.25606e-14
  7 7813.07 -0.00866671 4803.76 -6.28865e-15 -1.51934e-14 -2.25606e-14
  8 7813.07 -0.00866671 4803.76 -3.53831e-15 8.77192e-15 -8.41973e-14
</Section>

newXOutput 629

<Section columns = "stress_xx | stress_yy | stress_zz | stress_xy | stress_yz | stress_xz">
  1 7813.72 -0.00865675 4807.15 -1.94764e-15 4.14223e-14 -4.03078e-14
  2 7813.72 -0.00865675 4807.15 -1.73662e-15 3.31071e-14 -8.67263e-14
  3 7813.72 -0.00865675 4807.15 -2.70174e-15 1.58869e-13 -8.75131e-15
  4 7813.72 -0.00865675 4807.15 -1.91420e-15 1.39526e-13 -1.14459e-13
  5 7813.72 -0.00865675 4807.15 -3.88304e-15 4.16645e-14 -5.67859e-14
  6 7813.72 -0.00865675 4807.15 -3.09551e-15 3.40113e-14 -9.11416e-14
  7 7813.72 -0.00865675 4807.15 -5.08366e-15 1.71463e-13 -7.02483e-14
  8 7813.72 -0.00865675 4807.15 -2.14453e-15 1.86527e-13 -1.30937e-13
</Section>

newXOutput 630

<Section columns = "stress_xx | stress_yy | stress_zz | stress_xy | stress_yz | stress_xz">
  1 7814.36 -0.00864683 4810.54 -1.67892e-15 8.07597e-14 -5.06396e-15
  2 7814.36 -0.00864683 4810.54 -1.67892e-15 4.64594e-14 2.71193e-14
  3 7814.36 -0.00864683 4810.54 -2.89010e-15 1.67878e-13 -2.22029e-14
  4 7814.36 -0.00864683 4810.54 -2.89010e-15 6.75109e-14 -7.05318e-14
  5 7814.36 -0.00864683 4810.54 -2.89010e-15 8.43746e-14 -6.58674e-16
  6 7814.36 -0.00864683 4810.54 -2.89010e-15 5.99503e-14 4.35600e-14
  7 7814.36 -0.00864683 4810.54 -5.80134e-15 1.81369e-13 -5.76216e-15
  8 7814.36 -0.00864683 4810.54 -5.80134e-15 1.17860e-13 -9.17414e-15
</Section>

newXOutput 631

<Section columns = "stress_xx | stress_yy | stress_zz | stress_xy | stress_yz | stress_xz">
  1 7815.00 -0.00863695 4813.92 3.41773e-15 -1.32604e-13 -1.20082e-14
  2 7815.00 -0.00863695 4813.92 3.41773e-15 -2.30153e-14 -4.48153e-14
  3 7815.00 -0.00863695 4813.92 8.21499e-15 -3.06175e-13 -4.48153e-14
  4 7815.00 -0.00863695 4813.92 8.21499e-15 -3.53301e-14 -1.67253e-13
  5 7815.00 -0.00863695 4813.92 7.04061e-15 -1.39830e-13 -3.21759e-15
  6 7815.00 -0.00863695 4813.92 7.04061e-15 -4.99829e-14 -1.20082e-14
  7 7815.00 -0.00863695 4813.92 1.69231e-14 -3.33143e-13 -1.20082e-14
  8 7815.00 -0.00863695 4813.92 1.69231e-14 -1.35975e-13 -4.48153e-14
</Section>

newXOutput 632

<Section columns = "stress_xx | stress_yy | stress_zz | stress_xy | stress_yz | stress_xz">
  1 7815.64 -0.00862709 4817.29 7.65603e-17 -1.84095e-14 5.31910e-14
  2 7815.64 -0.00862709 4817.29 2.85727e-16 1.21549e-14 5.77914e-14
  3 7815.64 -0.00862709 4817.29 2.85727e-16 -6.87050e-14 5.77914e-14
  4 7815.64 -0.00862709 4817.29 1.06635e-15 4.53628e-14 7.88946e-15
  5 7815.64 -0.00862709 4817.29 2.85727e-16 -2.20205e-14 4.88056e-14
  6 7815.64 -0.00862709 4817.29 1.06635e-15 -1.32174e-15 4.14249e-14
  7 7815.64 -0.00862709 4817.29 1.06635e-15 -8.21817e-14 4.14249e-14
  8 7815.64 -0.00862709 4817.29 3.97966e-15 -4.93280e-15 -5.31910e-14
</Section>

newXOutput 633

<Section columns = "stress_xx | stress_yy | stress_zz | stress_xy | stress_yz | stress_xz">
  1 7816.28 -0.00861727 4820.66 2.27588e-15 1.23352e-13 -1.93860e-14
  2 7816.28 -0.00861727 4820.66 2.48443e-15 7.52178e-14 -6.52787e-14
  3 7816.28 -0.00861727 4820.66 3.12543e-15 1.80509e-13 2.23458e-14
  4 7816.28 -0.00861727 4820.66 3.90377e-15 1.50533e-13 -4.85488e-14
  5 7816.28 -0.00861727 4820.66 -1.54457e-15 1.23594e-13 -3.63017e-14
  6 7816.28 -0.00861727 4820.66 -7.66235e-16 7.61201e-14 -1.00125e-13
  7 7816.28 -0.00861727 4820.66 -3.15849e-15 1.93076e-13 -4.07844e-14
  8 7816.28 -0.00861727 4820.66 -2.53707e-16 1.97434e-13 -1.78599e-13
</Section>

newXOutput 634

<Section columns = "stress_xx | stress_yy | stress_zz | stress_xy | stress_yz | stress_xz">
  1 7816.92 -0.00860748 4824.02 2.84056e-16 1.38158e-13 2.22562e-14
  2 7816.92 -0.00860748 4824.02 7.61126e-17 1.25267e-13 8.30611e-14
  3 7816.92 -0.00860748 4824.02 1.06011e-15 2.86816e-13 -1.46947e-14
  4 7816.92 -0.00860748 4824.02 2.84056e-16 2.66292e-13 -5.48414e-14
  5 7816.92 -0.00860748 4824.02 1.06011e-15 1.41765e-13 2.66218e-14
  6 7816.92 -0.00860748 4824.02 2.84056e-16 1.38730e-13 9.93538e-14
  7 7816.92 -0.00860748 4824.02 3.95639e-15 3.00278e-13 1.59792e-15
  8 7816.92 -0.00860748 4824.02 1.06011e-15 3.16535e-13 5.96352e-15
</Section>

newXOutput 635

<Section columns = "stress_xx | stress_yy | stress_zz | stress_xy | stress_yz | stress_xz">
  1 7817.55 -0.00859772 4827.37 1.89725e-17 -2.89448e-13 -1.29891e-14
  2 7817.55 -0.00859772 4827.37 5.08367e-18 -2.85183e-13 4.06398e-15
  3 7817.55 -0.00859772 4827.37 9.86205e-16 -5.07195e-13 -6.24186e-15
  4 7817.55 -0.00859772 4827.37 2.64253e-16 -4.91278e-13 -1.42453e-13
  5 7817.55 -0.00859772 4827.37 7.08063e-17 -2.89448e-13 -1.24055e-14
  6 7817.55 -0.00859772 4827.37 1.89725e-17 -2.85183e-13 3.43979e-14
  7 7817.55 -0.00859772 4827.37 3.68057e-15 -5.07195e-13 -4.06398e-15
  8 7817.55 -0.00859772 4827.37 9.86205e-16 -4.91278e-13 -2.92450e-14
</Section>

newXOutput 636

<Section columns = "stress_xx | stress_yy | stress_zz | stress_xy | stress_yz | stress_xz">
  1 7818.18 -0.00858799 4830.72 -2.31779e-15 -2.14912e-14 -2.87424e-14
  2 7818.18 -0.00858799 4830.72 -2.31779e-15 -8.02063e-14 -6.18698e-14
  3 7818.18 -0.00858799 4830.72 -4.17601e-15 -3.98618e-14 -1.32120e-14
  4 7818.18 -0.00858799 4830.72 -4.17601e-15 -1.48766e-13 -3.71432e-14
  5 7818.18 -0.00858799 4830.72 -4.17601e-15 -1.42844e-14 -3.30884e-14
  6 7818.18 -0.00858799 4830.72 -4.17601e-15 -5.33100e-14 -7.80891e-14
  7 7818.18 -0.00858799 4830.72 -6.36830e-15 -1.29654e-14 -2.94313e-14
  8 7818.18 -0.00858799 4830.72 -6.36830e-15 -4.83876e-14 -9.76745e-14
</Section>

newXOutput 637

<Section columns = "stress_xx | stress_yy | stress_zz | stress_xy | stress_yz | stress_xz">
  1 7818.80 -0.00857829 4834.07 3.35818e-15 -2.30797e-13 -2.24640e-14
  2 7818.80 -0.00857829 4834.07 3.35818e-15 -1.65239e-13 -1.29133e-13
  3 7818.80 -0.00857829 4834.07 8.07184e-15 -3.82756e-13 -3.20362e-14
  4 7818.80 -0.00857829 4834.07 8.07184e-15 -2.64158e-13 -1.31698e-13
  5 7818.80 -0.00857829 4834.07 6.91793e-15 -2.30555e-13 -2.24640e-14
  6 7818.80 -0.00857829 4834.07 6.91793e-15 -1.64339e-13 -1.29133e-13
  7 7818.80 -0.00857829 4834.07 1.66282e-14 -3.70216e-13 -3.20362e-14
  8 7818.80 -0.00857829 4834.07 1.66282e-14 -2.17356e-13 -1.31698e-13
</Section>

newXOutput 638

<Section columns = "stress_xx | stress_yy | stress_zz | stress_xy | stress_yz | stress_xz">
  1 7819.43 -0.00856863 4837.41 3.97185e-15 -3.91286e-14 1.70159e-14
  2 7819.43 -0.00856863 4837.41 4.17738e-15 -6.81258e-14 -7.53241e-14
  3 7819.43 -0.00856863 4837.41 1.05293e-14 -7.23842e-14 2.15544e-14
  4 7819.43 -0.00856863 4837.41 1.12963e-14 -1.09657e-13 -1.24555e-13
  5 7819.43 -0.00856863 4837.41 1.32485e-15 -3.57701e-14 1.26894e-14
  6 7819.43 -0.00856863 4837.41 2.09189e-15 -5.55918e-14 -9.14705e-14
  7 7819.43 -0.00856863 4837.41 3.79386e-15 -7.14843e-14 5.40802e-15
  8 7819.43 -0.00856863 4837.41 6.65647e-15 -1.06299e-13 -1.84814e-13
</Section>

newXOutput 639

<Section columns = "stress_xx | stress_yy | stress_zz | stress_xy | stress_yz | stress_xz">
  1 7820.05 -0.00855899 4840.74 -1.16828e-14 2.96963e-14 4.46128e-15
  2 7820.05 -0.00855899 4840.74 -1.16828e-14 1.28244e-14 2.36256e-14
  3 7820.05 -0.00855899 4840.74 -2.40271e-14 7.75017e-14 1.34122e-14
  4 7820.05 -0.00855899 4840.74 -2.40271e-14 5.36754e-14 -8.01170e-14
  5 7820.05 -0.00855899 4840.74 -1.14079e-14 3.35350e-14 -3.59379e-15
  6 7820.05 -0.00855899 4840.74 -1.14079e-14 2.71508e-14 2.14673e-14
  7 7820.05 -0.00855899 4840.74 -2.14340e-14 1.03456e-13 -1.66497e-14
  8 7820.05 -0.00855899 4840.74 -2.14340e-14 1.50538e-13 -8.81721e-14
</Section>

newXOutput 640

<Section columns = "stress_xx | stress_yy | stress_zz | stress_xy | stress_yz | stress_xz">
  1 7820.67 -0.00854939 4844.07 -1.56438e-15 -1.65580e-13 -3.55465e-16
  2 7820.67 -0.00854939 4844.07 -1.57807e-15 -1.10761e-13 -4.63183e-14
  3 7820.67 -0.00854939 4844.07 -5.08946e-15 -3.52318e-13 -4.63183e-14
  4 7820.67 -0.00854939 4844.07 -5.80096e-15 -2.02726e-13 -1.84918e-13
  5 7820.67 -0.00854939 4844.07 3.15932e-15 -1.69176e-13 3.95155e-15
  6 7820.67 -0.00854939 4844.07 3.10823e-15 -1.24181e-13 -3.02443e-14
  7 7820.67 -0.00854939 4844.07 7.19156e-15 -3.65738e-13 -3.02443e-14
  8 7820.67 -0.00854939 4844.07 4.53623e-15 -2.52809e-13 -1.24929e-13
</Section>

newXOutput 641

<Section columns = "stress_xx | stress_yy | stress_zz | stress_xy | stress_yz | stress_xz">
  1 7821.28 -0.00853982 4847.39 -1.26605e-15 3.65799e-14 -3.62961e-14
  2 7821.28 -0.00853982 4847.39 -1.06231e-15 1.58030e-14 -8.36235e-14
  3 7821.28 -0.00853982 4847.39 -2.44388e-15 1.56637e-13 2.43655e-15
  4 7821.28 -0.00853982 4847.39 -1.68352e-15 1.34063e-13 -1.08467e-13
  5 7821.28 -0.00853982 4847.39 -3.58442e-15 4.01738e-14 -4.43151e-14
  6 7821.28 -0.00853982 4847.39 -2.82406e-15 2.92157e-14 -8.57722e-14
  7 7821.28 -0.00853982 4847.39 -4.86412e-15 1.70050e-13 -2.74907e-14
  8 7821.28 -0.00853982 4847.39 -2.02641e-15 1.84120e-13 -1.16486e-13
</Section>

newXOutput 642

<Section columns = "stress_xx | stress_yy | stress_zz | stress_xy | stress_yz | stress_xz">
  1 7821.89 -0.00853027 4850.71 2.79910e-15 2.83346e-14 -4.92883e-15
  2 7821.89 -0.00853027 4850.71 2.79910e-15 -1.22112e-14 2.63957e-14
  3 7821.89 -0.00853027 4850.71 6.35453e-15 9.25811e-14 -2.16104e-14
  4 7821.89 -0.00853027 4850.71 6.35453e-15 3.52781e-14 -6.86497e-14
  5 7821.89 -0.00853027 4850.71 -2.74333e-15 2.85752e-14 -6.41098e-16
  6 7821.89 -0.00853027 4850.71 -2.74333e-15 -1.13132e-14 4.23977e-14
  7 7821.89 -0.00853027 4850.71 -3.45568e-15 1.05089e-13 -5.60841e-15
  8 7821.89 -0.00853027 4850.71 -3.45568e-15 8.19575e-14 -8.92934e-15
</Section>

newXOutput 643

<Section columns = "stress_xx | stress_yy | stress_zz | stress_xy | stress_yz | stress_xz">
  1 7822.50 -0.00852076 4854.02 2.76700e-16 4.65024e-14 1.29009e-14
  2 7822.50 -0.00852076 4854.02 7.41414e-17 1.81504e-14 3.45679e-15
  3 7822.50 -0.00852076 4854.02 1.03266e-15 1.14393e-13 3.45679e-15
  4 7822.50 -0.00852076 4854.02 2.76700e-16 1.06796e-13 9.26244e-16
  5 7822.50 -0.00852076 4854.02 1.03266e-15 4.98520e-14 1.29009e-14
  6 7822.50 -0.00852076 4854.02 2.76700e-16 3.06516e-14 3.45679e-15
  7 7822.50 -0.00852076 4854.02 3.85393e-15 1.15291e-13 3.45679e-15
  8 7822.50 -0.00852076 4854.02 1.03266e-15 1.10146e-13 9.26244e-16
</Section>

newXOutput 644

<Section columns = "stress_xx | stress_yy | stress_zz | stress_xy | stress_yz | stress_xz">
  1 7823.11 -0.00851128 4857.33 3.61688e-15 -1.27813e-13 5.17742e-14
  2 7823.11 -0.00851128 4857.33 3.61688e-15 -7.13146e-14 5.62521e-14
  3 7823.11 -0.00851128 4857.33 7.99659e-15 -2.32014e-13 5.62521e-14
  4 7823.11 -0.00851128 4857.33 7.99659e-15 -1.30920e-13 7.67932e-15
  5 7823.11 -0.00851128 4857.33 7.99659e-15 -1.24224e-13 4.75056e-14
  6 7823.11 -0.00851128 4857.33 7.99659e-15 -5.79230e-14 4.03216e-14
  7 7823.11 -0.00851128 4857.33 1.66194e-14 -2.18623e-13 4.03216e-14
  8 7823.11 -0.00851128 4857.33 1.66194e-14 -8.09420e-14 -5.17742e-14
</Section>

newXOutput 645

<Section columns = "stress_xx | stress_yy | stress_zz | stress_xy | stress_yz | stress_xz">
  1 7823.71 -0.00850183 4860.63 -1.65735e-15 7.80017e-14 -2.97266e-14
  2 7823.71 -0.00850183 4860.63 -1.85874e-15 5.82530e-14 -6.64505e-14
  3 7823.71 -0.00850183 4860.63 -1.82682e-15 1.62880e-13 -1.87657e-14
  4 7823.71 -0.00850183 4860.63 -2.57841e-15 1.28194e-13 -5.81133e-14
  5 7823.71 -0.00850183 4860.63 -2.95420e-15 7.46555e-14 -3.82446e-14
  6 7823.71 -0.00850183 4860.63 -3.70579e-15 4.57650e-14 -9.82404e-14
  7 7823.71 -0.00850183 4860.63 -2.04663e-15 1.61984e-13 -5.05556e-14
  8 7823.71 -0.00850183 4860.63 -4.85160e-15 1.24848e-13 -1.76755e-13
</Section>

newXOutput 646

<Section columns = "stress_xx | stress_yy | stress_zz | stress_xy | stress_yz | stress_xz">
  1 7824.32 -0.00849241 4863.92 -2.17787e-15 -1.39560e-13 -1.77656e-14
  2 7824.32 -0.00849241 4863.92 -1.97707e-15 -1.73091e-13 -1.10693e-13
  3 7824.32 -0.00849241 4863.92 -3.78203e-15 -2.53357e-13 -1.55367e-14
  4 7824.32 -0.00849241 4863.92 -3.03262e-15 -2.96266e-13 -6.98782e-14
  5 7824.32 -0.00849241 4863.92 -3.78203e-15 -1.32391e-13 -2.62647e-14
  6 7824.32 -0.00849241 4863.92 -3.03262e-15 -1.46336e-13 -1.42412e-13
  7 7824.32 -0.00849241 4863.92 -5.16209e-15 -2.26602e-13 -4.72556e-14
  8 7824.32 -0.00849241 4863.92 -2.36523e-15 -1.96414e-13 -1.88255e-13
</Section>

newXOutput 647

<Section columns = "stress_xx | stress_yy | stress_zz | stress_xy | stress_yz | stress_xz">
  1 7824.91 -0.00848302 4867.21 -3.03368e-15 3.31864e-14 -1.57480e-14
  2 7824.91 -0.00848302 4867.21 -3.42072e-15 -3.12194e-14 -7.62802e-15
  3 7824.91 -0.00848302 4867.21 -5.63075e-15 8.91155e-14 -1.76601e-14
  4 7824.91 -0.00848302 4867.21 -6.42806e-15 1.31306e-14 -1.81901e-13
  5 7824.91 -0.00848302 4867.21 -5.86762e-15 3.31864e-14 -2.36600e-14
  6 7824.91 -0.00848302 4867.21 -7.31207e-15 -3.12194e-14 -9.74805e-15
  7 7824.91 -0.00848302 4867.21 -7.90425e-15 8.91155e-14 -4.71883e-14
  8 7824.91 -0.00848302 4867.21 -1.08799e-14 1.31306e-14 -1.89813e-13
</Section>

newXOutput 648

<Section columns = "stress_xx | stress_yy | stress_zz | stress_xy | stress_yz | stress_xz">
  1 7825.51 -0.00847366 4870.50 -1.56328e-15 4.34871e-14 -4.10864e-14
  2 7825.51 -0.00847366 4870.50 -1.36363e-15 5.00811e-14 -1.09143e-13
  3 7825.51 -0.00847366 4870.50 -3.59893e-15 5.00811e-14 -6.17764e-14
  4 7825.51 -0.00847366 4870.50 -2.85383e-15 1.56837e-13 -2.18711e-13
  5 7825.51 -0.00847366 4870.50 -3.59893e-15 3.99064e-14 -4.10864e-14
  6 7825.51 -0.00847366 4870.50 -2.85383e-15 3.67176e-14 -1.09143e-13
  7 7825.51 -0.00847366 4870.50 -5.08913e-15 3.67176e-14 -6.17764e-14
  8 7825.51 -0.00847366 4870.50 -2.30838e-15 1.06964e-13 -2.18711e-13
</Section>

newXOutput 649

<Section columns = "stress_xx | stress_yy | stress_zz | stress_xy | stress_yz | stress_xz">
  1 7826.10 -0.00846433 4873.78 -2.23196e-15 7.73908e-14 4.00154e-14
  2 7826.10 -0.00846433 4873.78 -2.23196e-15 5.91454e-14 1.05244e-13
  3 7826.10 -0.00846433 4873.78 -4.02136e-15 1.39285e-13 1.07221e-14
  4 7826.10 -0.00846433 4873.78 -4.02136e-15 1.80664e-13 2.82001e-14
  5 7826.10 -0.00846433 4873.78 -4.02136e-15 7.38119e-14 4.00154e-14
  6 7826.10 -0.00846433 4873.78 -4.02136e-15 4.57889e-14 1.05244e-13
  7 7826.10 -0.00846433 4873.78 -6.13247e-15 1.25928e-13 1.07221e-14
  8 7826.10 -0.00846433 4873.78 -6.13247e-15 1.30817e-13 2.82001e-14
</Section>

newXOutput 650

<Section columns = "stress_xx | stress_yy | stress_zz | stress_xy | stress_yz | stress_xz">
  1 7826.70 -0.00845503 4877.05 -1.95438e-15 1.22046e-13 3.80372e-14
  2 7826.70 -0.00845503 4877.05 -2.15288e-15 7.10905e-14 6.80638e-15
  3 7826.70 -0.00845503 4877.05 -2.99781e-15 2.31285e-13 6.80638e-15
  4 7826.70 -0.00845503 4877.05 -3.73863e-15 2.05241e-13 -1.74165e-13
  5 7826.70 -0.00845503 4877.05 -2.99781e-15 1.18469e-13 3.80372e-14
  6 7826.70 -0.00845503 4877.05 -3.73863e-15 5.77410e-14 6.80638e-15
  7 7826.70 -0.00845503 4877.05 -2.33808e-15 2.17935e-13 6.80638e-15
  8 7826.70 -0.00845503 4877.05 -5.10285e-15 1.55419e-13 -1.74165e-13
</Section>

newXOutput 651

<Section columns = "stress_xx | stress_yy | stress_zz | stress_xy | stress_yz | stress_xz">
  1 7827.28 -0.00844575 4880.32 7.24477e-17 1.41722e-14 -1.35825e-14
  2 7827.28 -0.00844575 4880.32 2.70379e-16 1.28636e-14 -5.06907e-14
  3 7827.28 -0.00844575 4880.32 2.70379e-16 5.28912e-14 -3.63943e-15
  4 7827.28 -0.00844575 4880.32 1.00907e-15 4.80075e-14 -1.35825e-14
  5 7827.28 -0.00844575 4880.32 2.70379e-16 2.13224e-14 -1.35825e-14
  6 7827.28 -0.00844575 4880.32 1.00907e-15 3.95487e-14 -5.06907e-14
  7 7827.28 -0.00844575 4880.32 1.00907e-15 7.95763e-14 -3.63943e-15
  8 7827.28 -0.00844575 4880.32 3.76589e-15 1.47598e-13 -1.35825e-14
</Section>

newXOutput 652

<Section columns = "stress_xx | stress_yy | stress_zz | stress_xy | stress_yz | stress_xz">
  1 7827.87 -0.00843651 4883.58 2.69602e-16 -5.00084e-15 -1.44602e-14
  2 7827.87 -0.00843651 4883.58 7.22397e-17 -1.59834e-14 -9.77682e-14
  3 7827.87 -0.00843651 4883.58 1.00617e-15 -2.44379e-14 -3.87460e-15
  4 7827.87 -0.00843651 4883.58 2.69602e-16 4.81021e-14 -2.61969e-14
  5 7827.87 -0.00843651 4883.58 1.00617e-15 -1.90631e-15 -1.44602e-14
  6 7827.87 -0.00843651 4883.58 2.69602e-16 -4.43450e-15 -9.77682e-14
  7 7827.87 -0.00843651 4883.58 3.75508e-15 -3.59868e-14 -3.87460e-15
  8 7827.87 -0.00843651 4883.58 1.00617e-15 5.00084e-15 -2.61969e-14
</Section>

newXOutput 653

<Section columns = "stress_xx | stress_yy | stress_zz | stress_xy | stress_yz | stress_xz">
  1 7828.45 -0.00842730 4886.84 7.20326e-17 2.49471e-13 -1.04596e-15
  2 7828.45 -0.00842730 4886.84 2.68829e-16 2.75387e-13 4.65624e-14
  3 7828.45 -0.00842730 4886.84 2.68829e-16 5.15302e-13 3.66634e-14
  4 7828.45 -0.00842730 4886.84 1.00328e-15 6.39333e-13 2.23754e-14
  5 7828.45 -0.00842730 4886.84 2.68829e-16 2.49471e-13 -8.85307e-15
  6 7828.45 -0.00842730 4886.84 1.00328e-15 2.75387e-13 4.44705e-14
  7 7828.45 -0.00842730 4886.84 1.00328e-15 5.15302e-13 7.52685e-15
  8 7828.45 -0.00842730 4886.84 3.74431e-15 6.39333e-13 1.45683e-14
</Section>

newXOutput 654

<Section columns = "stress_xx | stress_yy | stress_zz | stress_xy | stress_yz | stress_xz">
  1 7829.03 -0.00841812 4890.09 7.18262e-17 -5.75648e-14 -1.65483e-14
  2 7829.03 -0.00841812 4890.09 2.68059e-16 -5.76523e-14 -6.17592e-14
  3 7829.03 -0.00841812 4890.09 2.68059e-16 -1.69101e-13 -1.50203e-14
  4 7829.03 -0.00841812 4890.09 1.00041e-15 -1.73651e-13 -5.60567e-14
  5 7829.03 -0.00841812 4890.09 2.68059e-16 -5.70866e-14 -2.48974e-14
  6 7829.03 -0.00841812 4890.09 1.00041e-15 -5.58676e-14 -9.29185e-14
  7 7829.03 -0.00841812 4890.09 1.00041e-15 -1.44243e-13 -4.61796e-14
  8 7829.03 -0.00841812 4890.09 3.73358e-15 -8.08777e-14 -1.72345e-13
</Section>

newXOutput 655

<Section columns = "stress_xx | stress_yy | stress_zz | stress_xy | stress_yz | stress_xz">
  1 7829.61 -0.00840896 4893.34 -6.90933e-16 1.10435e-13 -2.87934e-14
  2 7829.61 -0.00840896 4893.34 -4.95262e-16 -5.82946e-15 -1.50970e-13
  3 7829.61 -0.00840896 4893.34 -2.28509e-15 1.53947e-13 -5.76989e-14
  4 7829.61 -0.00840896 4893.34 -1.55483e-15 4.74293e-14 -2.26994e-13
  5 7829.61 -0.00840896 4893.34 -6.66662e-15 1.14003e-13 -2.87934e-14
  6 7829.61 -0.00840896 4893.34 -5.93637e-15 7.48522e-15 -1.50970e-13
  7 7829.61 -0.00840896 4893.34 -9.62346e-15 1.67261e-13 -5.76989e-14
  8 7829.61 -0.00840896 4893.34 -6.89811e-15 9.71203e-14 -2.26994e-13
</Section>

newXOutput 656

<Section columns = "stress_xx | stress_yy | stress_zz | stress_xy | stress_yz | stress_xz">
  1 7830.19 -0.00839984 4896.58 5.14245e-15 2.20930e-13 4.05765e-14
  2 7830.19 -0.00839984 4896.58 4.94734e-15 1.67221e-13 1.80710e-14
  3 7830.19 -0.00839984 4896.58 1.10392e-14 4.78170e-13 1.80710e-14
  4 7830.19 -0.00839984 4896.58 1.03110e-14 3.63749e-13 -1.29485e-13
  5 7830.19 -0.00839984 4896.58 2.30120e-15 2.24018e-13 4.88887e-14
  6 7830.19 -0.00839984 4896.58 1.57303e-15 1.78746e-13 4.90925e-14
  7 7830.19 -0.00839984 4896.58 6.40368e-15 4.66645e-13 4.90925e-14
  8 7830.19 -0.00839984 4896.58 3.68612e-15 3.20738e-13 -1.37111e-14
</Section>

newXOutput 657

<Section columns = "stress_xx | stress_yy | stress_zz | stress_xy | stress_yz | stress_xz">
  1 7830.76 -0.00839074 4899.81 -9.16641e-15 -1.74564e-13 -2.77684e-14
  2 7830.76 -0.00839074 4899.81 -9.36096e-15 -7.43309e-14 -1.03633e-13
  3 7830.76 -0.00839074 4899.81 -1.57724e-14 -3.13745e-13 -5.72034e-14
  4 7830.76 -0.00839074 4899.81 -1.64985e-14 -4.86843e-14 -2.13486e-13
  5 7830.76 -0.00839074 4899.81 -4.88108e-15 -1.81692e-13 -2.77684e-14
  6 7830.76 -0.00839074 4899.81 -5.60717e-15 -1.00932e-13 -1.03633e-13
  7 7830.76 -0.00839074 4899.81 -5.73052e-15 -3.40347e-13 -5.72034e-14
  8 7830.76 -0.00839074 4899.81 -8.44032e-15 -1.47963e-13 -2.13486e-13
</Section>

newXOutput 658

<Section columns = "stress_xx | stress_yy | stress_zz | stress_xy | stress_yz | stress_xz">
  1 7831.33 -0.00838167 4903.04 -1.32504e-15 1.15772e-13 2.79199e-14
  2 7831.33 -0.00838167 4903.04 -1.51905e-15 1.60909e-13 6.09749e-14
  3 7831.33 -0.00838167 4903.04 -4.94514e-15 2.80554e-13 -3.16790e-14
  4 7831.33 -0.00838167 4903.04 -5.66915e-15 4.21769e-13 -1.29809e-13
  5 7831.33 -0.00838167 4903.04 -6.01027e-16 1.19334e-13 3.61954e-14
  6 7831.33 -0.00838167 4903.04 -1.32504e-15 1.74203e-13 9.18595e-14
  7 7831.33 -0.00838167 4903.04 -2.24306e-15 2.93847e-13 -7.94397e-16
  8 7831.33 -0.00838167 4903.04 -4.94514e-15 4.71382e-13 -1.45465e-14
</Section>

newXOutput 659

<Section columns = "stress_xx | stress_yy | stress_zz | stress_xy | stress_yz | stress_xz">
  1 7831.90 -0.00837263 4906.27 -9.18409e-16 -4.09254e-15 -3.33598e-14
  2 7831.90 -0.00837263 4906.27 -9.18409e-16 -1.79438e-14 -1.78775e-15
  3 7831.90 -0.00837263 4906.27 -1.40677e-15 2.19170e-14 -8.44688e-14
  4 7831.90 -0.00837263 4906.27 -1.40677e-15 -5.70018e-14 -1.56073e-13
  5 7831.90 -0.00837263 4906.27 -1.40677e-15 -5.32321e-16 -1.73985e-14
  6 7831.90 -0.00837263 4906.27 -1.40677e-15 -4.65682e-15 3.10931e-14
  7 7831.90 -0.00837263 4906.27 -4.70867e-15 3.52040e-14 -2.49001e-14
  8 7831.90 -0.00837263 4906.27 -4.70867e-15 -7.41428e-15 -3.33598e-14
</Section>

newXOutput 660

<Section columns = "stress_xx | stress_yy | stress_zz | stress_xy | stress_yz | stress_xz">
  1 7832.47 -0.00836362 4909.49 1.41210e-16 -1.61424e-13 -1.63302e-14
  2 7832.47 -0.00836362 4909.49 5.27003e-16 -1.00536e-13 -6.09453e-14
  3 7832.47 -0.00836362 4909.49 5.27003e-16 -3.31158e-13 -1.48224e-14
  4 7832.47 -0.00836362 4909.49 1.96680e-15 -1.35341e-13 -5.53179e-14
  5 7832.47 -0.00836362 4909.49 5.27003e-16 -1.75181e-13 -2.45693e-14
  6 7832.47 -0.00836362 4909.49 1.96680e-15 -1.51877e-13 -9.16939e-14
  7 7832.47 -0.00836362 4909.49 1.96680e-15 -3.59497e-13 -4.55710e-14
  8 7832.47 -0.00836362 4909.49 7.34021e-15 -2.41105e-13 -1.70073e-13
</Section>

newXOutput 661

<Section columns = "stress_xx | stress_yy | stress_zz | stress_xy | stress_yz | stress_xz">
  1 7833.03 -0.00835464 4912.71 -1.92348e-16 -1.36811e-13 -2.84142e-14
  2 7833.03 -0.00835464 4912.71 1.92348e-16 -1.62881e-13 -1.48982e-13
  3 7833.03 -0.00835464 4912.71 -7.17853e-16 -2.90753e-13 -5.69391e-14
  4 7833.03 -0.00835464 4912.71 7.17853e-16 -3.02248e-13 -2.24005e-13
  5 7833.03 -0.00835464 4912.71 -7.17853e-16 -1.23061e-13 -2.84142e-14
  6 7833.03 -0.00835464 4912.71 7.17853e-16 -1.11566e-13 -1.48982e-13
  7 7833.03 -0.00835464 4912.71 -2.67906e-15 -2.62429e-13 -5.69391e-14
  8 7833.03 -0.00835464 4912.71 2.67906e-15 -1.96540e-13 -2.24005e-13
</Section>

newXOutput 662

<Section columns = "stress_xx | stress_yy | stress_zz | stress_xy | stress_yz | stress_xz">
  1 7833.59 -0.00834568 4915.92 7.02044e-17 1.23137e-14 1.37371e-16
  2 7833.59 -0.00834568 4915.92 2.62006e-16 4.59555e-14 7.14067e-15
  3 7833.59 -0.00834568 4915.92 2.62006e-16 4.59555e-14 -2.56339e-15
  4 7833.59 -0.00834568 4915.92 9.77821e-16 1.71508e-13 -1.33247e-13
  5 7833.59 -0.00834568 4915.92 2.62006e-16 1.23137e-14 6.86857e-16
  6 7833.59 -0.00834568 4915.92 9.77821e-16 4.59555e-14 3.57033e-14
  7 7833.59 -0.00834568 4915.92 9.77821e-16 4.59555e-14 -5.12677e-16
  8 7833.59 -0.00834568 4915.92 3.64928e-15 1.71508e-13 -2.66493e-14
</Section>

newXOutput 663

<Section columns = "stress_xx | stress_yy | stress_zz | stress_xy | stress_yz | stress_xz">
  1 7834.15 -0.00833676 4919.12 -2.79153e-15 -2.01546e-13 -2.44075e-14
  2 7834.15 -0.00833676 4919.12 -2.43464e-15 -6.01577e-14 -9.10900e-14
  3 7834.15 -0.00833676 4919.12 -4.87695e-15 -3.78381e-13 -4.52709e-14
  4 7834.15 -0.00833676 4919.12 -4.78132e-15 1.34421e-14 -1.68953e-13
  5 7834.15 -0.00833676 4919.12 1.99962e-15 -2.08651e-13 -1.62227e-14
  6 7834.15 -0.00833676 4919.12 3.33156e-15 -8.66763e-14 -6.05439e-14
  7 7834.15 -0.00833676 4919.12 7.37988e-15 -4.04900e-13 -1.47248e-14
  8 7834.15 -0.00833676 4919.12 7.73677e-15 -8.55268e-14 -5.49536e-14
</Section>

newXOutput 664

<Section columns = "stress_xx | stress_yy | stress_zz | stress_xy | stress_yz | stress_xz">
  1 7834.70 -0.00832786 4922.32 -7.52070e-15 2.76857e-14 3.05425e-14
  2 7834.70 -0.00832786 4922.32 -7.52070e-15 -1.32843e-14 7.13302e-14
  3 7834.70 -0.00832786 4922.32 -1.38359e-14 7.46319e-14 -2.01069e-14
  4 7834.70 -0.00832786 4922.32 -1.38359e-14 -2.81614e-14 -8.64696e-14
  5 7834.70 -0.00832786 4922.32 -7.43002e-15 2.81614e-14 4.68761e-14
  6 7834.70 -0.00832786 4922.32 -7.43002e-15 -1.15088e-14 1.32288e-13
  7 7834.70 -0.00832786 4922.32 -9.12216e-15 9.93613e-14 4.08512e-14
  8 7834.70 -0.00832786 4922.32 -9.12216e-15 6.41298e-14 1.41029e-13
</Section>

newXOutput 665

<Section columns = "stress_xx | stress_yy | stress_zz | stress_xy | stress_yz | stress_xz">
  1 7835.26 -0.00831899 4925.51 1.81849e-15 4.87750e-14 -2.10056e-15
  2 7835.26 -0.00831899 4925.51 1.62832e-15 9.98956e-14 3.47230e-14
  3 7835.26 -0.00831899 4925.51 4.65747e-15 1.79369e-13 -1.08952e-14
  4 7835.26 -0.00831899 4925.51 3.94773e-15 2.34450e-13 -2.92571e-14
  5 7835.26 -0.00831899 4925.51 4.65747e-15 5.23241e-14 -1.02495e-14
  6 7835.26 -0.00831899 4925.51 3.94773e-15 1.13141e-13 4.31082e-15
  7 7835.26 -0.00831899 4925.51 9.43551e-15 1.92614e-13 -4.13074e-14
  8 7835.26 -0.00831899 4925.51 6.78671e-15 2.83883e-13 -1.42757e-13
</Section>

newXOutput 666

<Section columns = "stress_xx | stress_yy | stress_zz | stress_xy | stress_yz | stress_xz">
  1 7835.81 -0.00831014 4928.70 1.15937e-15 -1.55427e-13 -5.00893e-15
  2 7835.81 -0.00831014 4928.70 9.69735e-16 -1.59148e-13 -1.86936e-14
  3 7835.81 -0.00831014 4928.70 2.34585e-15 -2.78296e-13 2.68246e-14
  4 7835.81 -0.00831014 4928.70 1.63812e-15 -2.37931e-13 1.00111e-13
  5 7835.81 -0.00831014 4928.70 2.34585e-15 -1.51880e-13 -2.12710e-14
  6 7835.81 -0.00831014 4928.70 1.63812e-15 -1.45910e-13 -7.93845e-14
  7 7835.81 -0.00831014 4928.70 8.22404e-15 -2.65058e-13 -3.38663e-14
  8 7835.81 -0.00831014 4928.70 5.58273e-15 -1.88524e-13 -1.26391e-13
</Section>

newXOutput 667

<Section columns = "stress_xx | stress_yy | stress_zz | stress_xy | stress_yz | stress_xz">
  1 7836.36 -0.00830133 4931.89 2.51396e-15 -2.71676e-14 3.84553e-14
  2 7836.36 -0.00830133 4931.89 2.70307e-15 -2.46591e-14 1.01141e-13
  3 7836.36 -0.00830133 4931.89 9.38224e-15 -5.59659e-14 1.03041e-14
  4 7836.36 -0.00830133 4931.89 1.00880e-14 -5.07983e-14 2.71007e-14
  5 7836.36 -0.00830133 4931.89 9.13386e-16 -4.08744e-14 3.84553e-14
  6 7836.36 -0.00830133 4931.89 1.61912e-15 -7.58136e-14 1.01141e-13
  7 7836.36 -0.00830133 4931.89 3.40880e-15 -8.42022e-14 1.03041e-14
  8 7836.36 -0.00830133 4931.89 6.04265e-15 -1.56178e-13 2.71007e-14
</Section>

newXOutput 668

<Section columns = "stress_xx | stress_yy | stress_zz | stress_xy | stress_yz | stress_xz">
  1 7836.90 -0.00829254 4935.07 -4.10293e-15 6.87740e-14 -2.82758e-15
  2 7836.90 -0.00829254 4935.07 -4.10293e-15 1.00626e-13 -4.01141e-15
  3 7836.90 -0.00829254 4935.07 -5.32185e-15 1.79976e-13 -1.35885e-14
  4 7836.90 -0.00829254 4935.07 -5.32185e-15 2.17555e-13 -1.72774e-13
  5 7836.90 -0.00829254 4935.07 -3.21061e-15 6.87740e-14 -1.03808e-14
  6 7836.90 -0.00829254 4935.07 -3.21061e-15 1.00626e-13 -6.03529e-15
  7 7836.90 -0.00829254 4935.07 -1.99169e-15 1.79976e-13 -4.17774e-14
  8 7836.90 -0.00829254 4935.07 -1.99169e-15 2.17555e-13 -1.80328e-13
</Section>

newXOutput 669

<Section columns = "stress_xx | stress_yy | stress_zz | stress_xy | stress_yz | stress_xz">
  1 7837.45 -0.00828378 4938.24 3.90287e-15 -1.81804e-13 -1.60106e-14
  2 7837.45 -0.00828378 4938.24 3.92806e-15 -6.26271e-14 -5.97523e-14
  3 7837.45 -0.00828378 4938.24 4.90727e-15 -3.79862e-13 -1.45322e-14
  4 7837.45 -0.00828378 4938.24 6.21677e-15 -1.63404e-14 -5.42351e-14
  5 7837.45 -0.00828378 4938.24 8.67294e-15 -1.78262e-13 -2.40884e-14
  6 7837.45 -0.00828378 4938.24 8.76696e-15 -4.94090e-14 -8.98990e-14
  7 7837.45 -0.00828378 4938.24 1.67352e-14 -3.66643e-13 -4.46789e-14
  8 7837.45 -0.00828378 4938.24 2.16224e-14 3.29902e-14 -1.66744e-13
</Section>

newXOutput 670

<Section columns = "stress_xx | stress_yy | stress_zz | stress_xy | stress_yz | stress_xz">
  1 7837.99 -0.00827505 4941.41 -2.03364e-15 -9.11746e-14 -1.68481e-14
  2 7837.99 -0.00827505 4941.41 -1.84613e-15 -1.10430e-13 -1.04977e-13
  3 7837.99 -0.00827505 4941.41 -3.53156e-15 -1.81322e-13 -1.47343e-14
  4 7837.99 -0.00827505 4941.41 -2.83177e-15 -2.03233e-13 -6.62694e-14
  5 7837.99 -0.00827505 4941.41 -3.53156e-15 -9.42403e-14 -2.49083e-14
  6 7837.99 -0.00827505 4941.41 -2.83177e-15 -1.21872e-13 -1.35058e-13
  7 7837.99 -0.00827505 4941.41 -4.82022e-15 -1.69881e-13 -4.48151e-14
  8 7837.99 -0.00827505 4941.41 -2.20858e-15 -1.60534e-13 -1.78533e-13
</Section>

newXOutput 671

<Section columns = "stress_xx | stress_yy | stress_zz | stress_xy | stress_yz | stress_xz">
  1 7838.53 -0.00826634 4944.57 -4.19271e-15 1.66989e-13 -1.30595e-14
  2 7838.53 -0.00826634 4944.57 -4.19271e-15 8.72021e-14 -6.73176e-15
  3 7838.53 -0.00826634 4944.57 -7.55408e-15 3.64495e-13 -5.17546e-14
  4 7838.53 -0.00826634 4944.57 -7.55408e-15 2.56119e-13 -1.81895e-13
  5 7838.53 -0.00826634 4944.57 -7.55408e-15 1.66989e-13 -1.30595e-14
  6 7838.53 -0.00826634 4944.57 -7.55408e-15 8.72021e-14 -6.73176e-15
  7 7838.53 -0.00826634 4944.57 -1.15198e-14 3.64495e-13 -5.17546e-14
  8 7838.53 -0.00826634 4944.57 -1.15198e-14 2.56119e-13 -1.81895e-13
</Section>

newXOutput 672

<Section columns = "stress_xx | stress_yy | stress_zz | stress_xy | stress_yz | stress_xz">
  1 7839.07 -0.00825767 4947.73 -1.56793e-30 -1.42221e-13 -2.68683e-14
  2 7839.07 -0.00825767 4947.73 -5.85159e-30 -1.50761e-13 -1.00274e-13
  3 7839.07 -0.00825767 4947.73 -3.83291e-30 -2.29947e-13 -5.53494e-14
  4 7839.07 -0.00825767 4947.73 -1.43046e-29 -2.07735e-13 -2.06567e-13
  5 7839.07 -0.00825767 4947.73 -8.46724e-31 -1.35148e-13 -2.68683e-14
  6 7839.07 -0.00825767 4947.73 -3.16002e-30 -1.24366e-13 -1.00274e-13
  7 7839.07 -0.00825767 4947.73 -1.14133e-30 -2.03552e-13 -5.53494e-14
  8 7839.07 -0.00825767 4947.73 -4.25951e-30 -1.09227e-13 -2.06567e-13
</Section>

newXOutput 673

<Section columns = "stress_xx | stress_yy | stress_zz | stress_xy | stress_yz | stress_xz">
  1 7839.60 -0.00824901 4950.88 2.53985e-16 -8.09669e-14 3.79543e-14
  2 7839.60 -0.00824901 4950.88 6.80552e-17 -7.79926e-14 9.98233e-14
  3 7839.60 -0.00824901 4950.88 9.47887e-16 -7.79926e-14 1.01698e-14
  4 7839.60 -0.00824901 4950.88 2.53985e-16 -9.39209e-14 2.67476e-14
  5 7839.60 -0.00824901 4950.88 9.47887e-16 -7.74324e-14 3.79543e-14
  6 7839.60 -0.00824901 4950.88 2.53985e-16 -6.48018e-14 9.98233e-14
  7 7839.60 -0.00824901 4950.88 3.53756e-15 -6.48018e-14 1.01698e-14
  8 7839.60 -0.00824901 4950.88 9.47887e-16 -4.46922e-14 2.67476e-14
</Section>

newXOutput 674

<Section columns = "stress_xx | stress_yy | stress_zz | stress_xy | stress_yz | stress_xz">
  1 7840.13 -0.00824039 4954.03 6.78643e-17 -8.03969e-14 -2.79077e-15
  2 7840.13 -0.00824039 4954.03 2.53273e-16 -7.33316e-14 -3.95919e-15
  3 7840.13 -0.00824039 4954.03 2.53273e-16 -1.12884e-13 -1.34116e-14
  4 7840.13 -0.00824039 4954.03 9.45228e-16 -8.65156e-14 -1.70525e-13
  5 7840.13 -0.00824039 4954.03 2.53273e-16 -7.33316e-14 -1.02456e-14
  6 7840.13 -0.00824039 4954.03 9.45228e-16 -4.69637e-14 -5.95672e-15
  7 7840.13 -0.00824039 4954.03 9.45228e-16 -8.65156e-14 -4.12335e-14
  8 7840.13 -0.00824039 4954.03 3.52764e-15 1.18909e-14 -1.77980e-13
</Section>

newXOutput 675

<Section columns = "stress_xx | stress_yy | stress_zz | stress_xy | stress_yz | stress_xz">
  1 7840.66 -0.00823179 4957.17 -3.72653e-16 -3.91133e-14 -1.28841e-14
  2 7840.66 -0.00823179 4957.17 -7.42431e-16 -1.09090e-13 -4.80842e-14
  3 7840.66 -0.00823179 4957.17 2.61067e-15 -6.95581e-14 -3.45229e-15
  4 7840.66 -0.00823179 4957.17 1.23064e-15 -2.49712e-13 -1.28841e-14
  5 7840.66 -0.00823179 4957.17 -1.52943e-15 -3.55825e-14 -1.28841e-14
  6 7840.66 -0.00823179 4957.17 -2.90946e-15 -9.59124e-14 -4.80842e-14
  7 7840.66 -0.00823179 4957.17 2.53515e-15 -5.63809e-14 -3.45229e-15
  8 7840.66 -0.00823179 4957.17 -2.61520e-15 -2.00534e-13 -1.28841e-14
</Section>

newXOutput 676

<Section columns = "stress_xx | stress_yy | stress_zz | stress_xy | stress_yz | stress_xz">
  1 7841.19 -0.00822322 4960.31 -8.09977e-15 -1.40163e-13 -1.72239e-15
  2 7841.19 -0.00822322 4960.31 -7.75573e-15 -9.37671e-14 -8.95313e-14
  3 7841.19 -0.00822322 4960.31 -1.88326e-14 -4.09856e-13 -4.61514e-16
  4 7841.19 -0.00822322 4960.31 -1.87404e-14 -1.82730e-13 -2.39898e-14
  5 7841.19 -0.00822322 4960.31 -8.07507e-15 -1.36634e-13 -1.72239e-15
  6 7841.19 -0.00822322 4960.31 -6.79108e-15 -8.05967e-14 -8.95313e-14
  7 7841.19 -0.00822322 4960.31 -1.42925e-14 -3.96686e-13 -4.61514e-16
  8 7841.19 -0.00822322 4960.31 -1.39485e-14 -1.33578e-13 -2.39898e-14
</Section>

newXOutput 677

<Section columns = "stress_xx | stress_yy | stress_zz | stress_xy | stress_yz | stress_xz">
  1 7841.72 -0.00821468 4963.45 3.49524e-15 8.90905e-14 8.59327e-16
  2 7841.72 -0.00821468 4963.45 3.31139e-15 -8.07451e-14 4.46685e-14
  3 7841.72 -0.00821468 4963.45 3.71725e-15 1.16709e-13 2.30256e-16
  4 7841.72 -0.00821468 4963.45 3.03109e-15 -8.55633e-14 1.19689e-14
  5 7841.72 -0.00821468 4963.45 -4.51668e-15 8.55633e-14 8.59327e-16
  6 7841.72 -0.00821468 4963.45 -5.20284e-15 -9.39087e-14 4.46685e-14
  7 7841.72 -0.00821468 4963.45 -5.09408e-15 1.03545e-13 2.30256e-16
  8 7841.72 -0.00821468 4963.45 -7.65487e-15 -1.34690e-13 1.19689e-14
</Section>

newXOutput 678

<Section columns = "stress_xx | stress_yy | stress_zz | stress_xy | stress_yz | stress_xz">
  1 7842.24 -0.00820616 4966.57 -2.92602e-15 2.08383e-13 -1.56996e-14
  2 7842.24 -0.00820616 4966.57 -2.92602e-15 1.33141e-13 -5.85918e-14
  3 7842.24 -0.00820616 4966.57 -2.98414e-15 3.69963e-13 -1.42500e-14
  4 7842.24 -0.00820616 4966.57 -2.98414e-15 2.50907e-13 -5.31817e-14
  5 7842.24 -0.00820616 4966.57 -7.08960e-15 2.04858e-13 -2.36205e-14
  6 7842.24 -0.00820616 4966.57 -7.08960e-15 1.19984e-13 -8.81530e-14
  7 7842.24 -0.00820616 4966.57 -1.01106e-14 3.56806e-13 -4.38112e-14
  8 7842.24 -0.00820616 4966.57 -1.01106e-14 2.01805e-13 -1.63506e-13
</Section>

newXOutput 679

<Section columns = "stress_xx | stress_yy | stress_zz | stress_xy | stress_yz | stress_xz">
  1 7842.76 -0.00819767 4969.70 3.83594e-16 -8.47671e-14 -6.30690e-14
  2 7842.76 -0.00819767 4969.70 5.66425e-16 -4.54898e-14 -1.52813e-13
  3 7842.76 -0.00819767 4969.70 -6.15414e-16 -2.03290e-13 -6.43217e-14
  4 7842.76 -0.00819767 4969.70 6.69208e-17 -2.81544e-15 -2.17929e-13
  5 7842.76 -0.00819767 4969.70 3.47860e-15 -8.82906e-14 -6.30690e-14
  6 7842.76 -0.00819767 4969.70 4.16093e-15 -5.86398e-14 -1.52813e-13
  7 7842.76 -0.00819767 4969.70 5.34277e-15 -2.16440e-13 -6.43217e-14
  8 7842.76 -0.00819767 4969.70 7.88928e-15 -5.18920e-14 -2.17929e-13
</Section>

newXOutput 680

<Section columns = "stress_xx | stress_yy | stress_zz | stress_xy | stress_yz | stress_xz">
  1 7843.28 -0.00818920 4972.81 -4.08827e-15 1.42162e-13 1.32076e-16
  2 7843.28 -0.00818920 4972.81 -4.08827e-15 7.58875e-14 6.86540e-15
  3 7843.28 -0.00818920 4972.81 -7.36590e-15 2.73036e-13 -2.46457e-15
  4 7843.28 -0.00818920 4972.81 -7.36590e-15 2.14214e-13 -1.28110e-13
  5 7843.28 -0.00818920 4972.81 -7.36590e-15 1.38640e-13 6.60379e-16
  6 7843.28 -0.00818920 4972.81 -7.36590e-15 6.27443e-14 3.43270e-14
  7 7843.28 -0.00818920 4972.81 -1.12328e-14 2.59893e-13 -4.92914e-16
  8 7843.28 -0.00818920 4972.81 -1.12328e-14 1.65163e-13 -2.56220e-14
</Section>

newXOutput 681

<Section columns = "stress_xx | stress_yy | stress_zz | stress_xy | stress_yz | stress_xz">
  1 7843.80 -0.00818076 4975.93 -2.28680e-15 7.58254e-14 -2.63479e-14
  2 7843.80 -0.00818076 4975.93 -2.10499e-15 2.03173e-14 -9.83316e-14
  3 7843.80 -0.00818076 4975.93 -4.59960e-15 9.91364e-14 -5.42772e-14
  4 7843.80 -0.00818076 4975.93 -3.92106e-15 2.65635e-14 -2.02565e-13
  5 7843.80 -0.00818076 4975.93 -4.59960e-15 7.58254e-14 -2.63479e-14
  6 7843.80 -0.00818076 4975.93 -3.92106e-15 2.03173e-14 -9.83316e-14
  7 7843.80 -0.00818076 4975.93 -9.06001e-15 9.91364e-14 -5.42772e-14
  8 7843.80 -0.00818076 4975.93 -6.52767e-15 2.65635e-14 -2.02565e-13
</Section>

newXOutput 682

<Section columns = "stress_xx | stress_yy | stress_zz | stress_xy | stress_yz | stress_xz">
  1 7844.31 -0.00817235 4979.04 2.09913e-15 5.26284e-14 4.10144e-14
  2 7844.31 -0.00817235 4979.04 2.28044e-15 8.35212e-14 6.17494e-14
  3 7844.31 -0.00817235 4979.04 3.91015e-15 8.35212e-14 -1.68792e-14
  4 7844.31 -0.00817235 4979.04 4.58680e-15 1.45008e-13 -1.19643e-13
  5 7844.31 -0.00817235 4979.04 3.91015e-15 5.96646e-14 5.61935e-14
  6 7844.31 -0.00817235 4979.04 4.58680e-15 1.09781e-13 9.30187e-14
  7 7844.31 -0.00817235 4979.04 6.50951e-15 1.09781e-13 3.97699e-14
  8 7844.31 -0.00817235 4979.04 9.03480e-15 2.43010e-13 -2.94470e-15
</Section>

newXOutput 683

<Section columns = "stress_xx | stress_yy | stress_zz | stress_xy | stress_yz | stress_xz">
  1 7844.82 -0.00816396 4982.14 -2.02712e-15 -1.79264e-14 -9.85538e-15
  2 7844.82 -0.00816396 4982.14 -2.02712e-15 -2.75331e-14 4.14508e-15
  3 7844.82 -0.00816396 4982.14 -3.65230e-15 -2.75331e-14 -3.97191e-14
  4 7844.82 -0.00816396 4982.14 -3.65230e-15 4.41724e-14 -1.37268e-13
  5 7844.82 -0.00816396 4982.14 -3.65230e-15 -2.14427e-14 -2.01980e-15
  6 7844.82 -0.00816396 4982.14 -3.65230e-15 -4.06561e-14 3.33879e-14
  7 7844.82 -0.00816396 4982.14 -5.56967e-15 -4.06561e-14 -1.04763e-14
  8 7844.82 -0.00816396 4982.14 -5.56967e-15 -4.80335e-15 -2.81321e-14
</Section>

newXOutput 684

<Section columns = "stress_xx | stress_yy | stress_zz | stress_xy | stress_yz | stress_xz">
  1 7845.34 -0.00815560 4985.24 -3.06707e-15 -7.83445e-14 -1.54970e-14
  2 7845.34 -0.00815560 4985.24 -3.06707e-15 -6.42003e-14 -5.78357e-14
  3 7845.34 -0.00815560 4985.24 -3.77739e-15 -1.51213e-13 -1.40661e-14
  4 7845.34 -0.00815560 4985.24 -3.77739e-15 -9.42689e-14 -5.24954e-14
  5 7845.34 -0.00815560 4985.24 -1.75870e-15 -6.47573e-14 -2.33157e-14
  6 7845.34 -0.00815560 4985.24 -1.75870e-15 -1.34925e-14 -8.70154e-14
  7 7845.34 -0.00815560 4985.24 2.48433e-15 -1.23224e-13 -4.32458e-14
  8 7845.34 -0.00815560 4985.24 2.48433e-15 1.01903e-14 -1.61396e-13
</Section>

newXOutput 685

<Section columns = "stress_xx | stress_yy | stress_zz | stress_xy | stress_yz | stress_xz">
  1 7845.84 -0.00814726 4988.33 2.26150e-15 -4.38917e-14 -6.22558e-14
  2 7845.84 -0.00814726 4988.33 2.08170e-15 -1.17608e-14 -1.50843e-13
  3 7845.84 -0.00814726 4988.33 4.54871e-15 -9.04180e-14 -6.34923e-14
  4 7845.84 -0.00814726 4988.33 3.87768e-15 -2.42274e-14 -2.15119e-13
  5 7845.84 -0.00814726 4988.33 4.54871e-15 -4.38917e-14 -6.22558e-14
  6 7845.84 -0.00814726 4988.33 3.87768e-15 -1.17608e-14 -1.50843e-13
  7 7845.84 -0.00814726 4988.33 8.95977e-15 -9.04180e-14 -6.34923e-14
  8 7845.84 -0.00814726 4988.33 6.45545e-15 -2.42274e-14 -2.15119e-13
</Section>

newXOutput 686

<Section columns = "stress_xx | stress_yy | stress_zz | stress_xy | stress_yz | stress_xz">
  1 7846.35 -0.00813895 4991.42 1.09620e-15 -4.56078e-15 1.30374e-16
  2 7846.35 -0.00813895 4991.42 9.16894e-16 2.75537e-14 6.77695e-15
  3 7846.35 -0.00813895 4991.42 2.21803e-15 -9.03716e-14 -2.43282e-15
  4 7846.35 -0.00813895 4991.42 1.54885e-15 8.31777e-14 -1.26460e-13
  5 7846.35 -0.00813895 4991.42 2.21803e-15 -1.50934e-14 6.51871e-16
  6 7846.35 -0.00813895 4991.42 1.54885e-15 -1.17547e-14 3.38848e-14
  7 7846.35 -0.00813895 4991.42 7.77591e-15 -1.29680e-13 -4.86563e-16
  8 7846.35 -0.00813895 4991.42 5.27852e-15 -6.35234e-14 -2.52919e-14
</Section>

newXOutput 687

<Section columns = "stress_xx | stress_yy | stress_zz | stress_xy | stress_yz | stress_xz">
  1 7846.85 -0.00813067 4994.50 2.44256e-16 2.38517e-13 -1.42960e-14
  2 7846.85 -0.00813067 4994.50 6.54483e-17 2.43310e-13 -9.39274e-14
  3 7846.85 -0.00813067 4994.50 9.11577e-16 5.18328e-13 -5.04401e-14
  4 7846.85 -0.00813067 4994.50 2.44256e-16 5.36218e-13 -1.99117e-13
  5 7846.85 -0.00813067 4994.50 9.11577e-16 2.35008e-13 -1.42960e-14
  6 7846.85 -0.00813067 4994.50 2.44256e-16 2.30214e-13 -9.39274e-14
  7 7846.85 -0.00813067 4994.50 3.40205e-15 5.05232e-13 -5.04401e-14
  8 7846.85 -0.00813067 4994.50 9.11577e-16 4.87343e-13 -1.99117e-13
</Section>

newXOutput 688

<Section columns = "stress_xx | stress_yy | stress_zz | stress_xy | stress_yz | stress_xz">
  1 7847.35 -0.00812241 4997.58 6.52673e-17 2.82764e-14 4.33242e-14
  2 7847.35 -0.00812241 4997.58 2.43581e-16 6.62608e-14 7.15441e-14
  3 7847.35 -0.00812241 4997.58 2.43581e-16 1.05529e-13 -6.07329e-15
  4 7847.35 -0.00812241 4997.58 9.09057e-16 2.47289e-13 -7.85863e-14
  5 7847.35 -0.00812241 4997.58 2.43581e-16 2.47691e-14 6.60596e-14
  6 7847.35 -0.00812241 4997.58 9.09057e-16 5.31714e-14 1.31340e-13
  7 7847.35 -0.00812241 4997.58 9.09057e-16 9.24396e-14 7.87764e-14
  8 7847.35 -0.00812241 4997.58 3.39265e-15 1.98438e-13 1.44576e-13
</Section>

newXOutput 689

<Section columns = "stress_xx | stress_yy | stress_zz | stress_xy | stress_yz | stress_xz">
  1 7847.85 -0.00811417 5000.65 -6.50871e-17 5.54211e-14 -6.89757e-15
  2 7847.85 -0.00811417 5000.65 -2.42908e-16 5.24712e-14 1.46579e-14
  3 7847.85 -0.00811417 5000.65 -2.42908e-16 1.70215e-13 -2.86427e-14
  4 7847.85 -0.00811417 5000.65 -9.06546e-16 1.86013e-13 -9.60708e-14
  5 7847.85 -0.00811417 5000.65 -2.42908e-16 5.19156e-14 8.57223e-15
  6 7847.85 -0.00811417 5000.65 -9.06546e-16 3.93885e-14 7.23919e-14
  7 7847.85 -0.00811417 5000.65 -9.06546e-16 1.57133e-13 2.90914e-14
  8 7847.85 -0.00811417 5000.65 -3.38328e-15 1.37188e-13 1.19396e-13
</Section>

newXOutput 690

<Section columns = "stress_xx | stress_yy | stress_zz | stress_xy | stress_yz | stress_xz">
  1 7848.35 -0.00810596 5003.72 -1.92327e-15 1.03082e-13 6.88276e-15
  2 7848.35 -0.00810596 5003.72 -1.74594e-15 8.40237e-14 -1.46264e-14
  3 7848.35 -0.00810596 5003.72 -3.33990e-15 1.70770e-13 2.85812e-14
  4 7848.35 -0.00810596 5003.72 -2.67809e-15 1.49083e-13 9.58645e-14
  5 7848.35 -0.00810596 5003.72 -3.33990e-15 1.00048e-13 -8.55382e-15
  6 7848.35 -0.00810596 5003.72 -2.67809e-15 7.26996e-14 -7.22365e-14
  7 7848.35 -0.00810596 5003.72 -4.55862e-15 1.82094e-13 -2.90289e-14
  8 7848.35 -0.00810596 5003.72 -2.08872e-15 1.91345e-13 -1.19139e-13
</Section>

newXOutput 691

<Section columns = "stress_xx | stress_yy | stress_zz | stress_xy | stress_yz | stress_xz">
  1 7848.85 -0.00809778 5006.78 -5.98003e-16 8.74512e-14 1.66748e-15
  2 7848.85 -0.00809778 5006.78 -7.74845e-16 5.71698e-14 8.66766e-14
  3 7848.85 -0.00809778 5006.78 1.59549e-15 2.44924e-13 4.46799e-16
  4 7848.85 -0.00809778 5006.78 9.35504e-16 1.62834e-13 2.32249e-14
  5 7848.85 -0.00809778 5006.78 -2.36441e-15 9.74878e-14 1.66748e-15
  6 7848.85 -0.00809778 5006.78 -3.02439e-15 9.46268e-14 8.66766e-14
  7 7848.85 -0.00809778 5006.78 -9.39840e-16 2.59744e-13 4.46799e-16
  8 7848.85 -0.00809778 5006.78 -3.40293e-15 2.18144e-13 2.32249e-14
</Section>

newXOutput 692

<Section columns = "stress_xx | stress_yy | stress_zz | stress_xy | stress_yz | stress_xz">
  1 7849.34 -0.00808962 5009.84 4.40992e-15 -7.26567e-14 -2.68429e-15
  2 7849.34 -0.00808962 5009.84 4.40992e-15 -7.52189e-14 -3.80813e-15
  3 7849.34 -0.00808962 5009.84 7.24689e-15 -2.31970e-13 -1.28999e-14
  4 7849.34 -0.00808962 5009.84 7.24689e-15 -1.34470e-13 -1.64019e-13
  5 7849.34 -0.00808962 5009.84 3.29789e-15 -6.91565e-14 -9.85471e-15
  6 7849.34 -0.00808962 5009.84 3.29789e-15 -6.21563e-14 -5.72944e-15
  7 7849.34 -0.00808962 5009.84 9.83978e-15 -2.18908e-13 -3.96602e-14
  8 7849.34 -0.00808962 5009.84 9.83978e-15 -8.57193e-14 -1.71189e-13
</Section>

newXOutput 693

<Section columns = "stress_xx | stress_yy | stress_zz | stress_xy | stress_yz | stress_xz">
  1 7849.83 -0.00808148 5012.90 1.35079e-15 7.05817e-14 -1.01820e-15
  2 7849.83 -0.00808148 5012.90 1.52666e-15 -3.68099e-14 -5.29268e-14
  3 7849.83 -0.00808148 5012.90 1.49878e-15 1.19862e-13 -9.24185e-16
  4 7849.83 -0.00808148 5012.90 2.15514e-15 -4.01596e-14 -4.80398e-14
  5 7849.83 -0.00808148 5012.90 -2.43935e-15 7.40800e-14 -1.53191e-15
  6 7849.83 -0.00808148 5012.90 -1.78299e-15 -2.37539e-14 -7.96299e-14
  7 7849.83 -0.00808148 5012.90 -3.23192e-15 1.32918e-13 -2.84138e-15
  8 7849.83 -0.00808148 5012.90 -7.82367e-16 8.56587e-15 -1.47697e-13
</Section>

newXOutput 694

<Section columns = "stress_xx | stress_yy | stress_zz | stress_xy | stress_yz | stress_xz">
  1 7850.32 -0.00807338 5015.95 -4.56382e-15 -4.52041e-14 -1.84442e-15
  2 7850.32 -0.00807338 5015.95 -4.73920e-15 -9.04081e-14 -9.58741e-14
  3 7850.32 -0.00807338 5015.95 -9.44086e-15 -9.04081e-14 -1.14418e-15
  4 7850.32 -0.00807338 5015.95 -1.00954e-14 -4.52041e-14 -5.94751e-14
  5 7850.32 -0.00807338 5015.95 -7.47720e-15 -4.52041e-14 -2.35703e-15
  6 7850.32 -0.00807338 5015.95 -8.13175e-15 -9.04081e-14 -1.22520e-13
  7 7850.32 -0.00807338 5015.95 -1.22665e-14 -9.04081e-14 -3.05727e-15
  8 7850.32 -0.00807338 5015.95 -1.47094e-14 -4.52041e-14 -1.58919e-13
</Section>

newXOutput 695

<Section columns = "stress_xx | stress_yy | stress_zz | stress_xy | stress_yz | stress_xz">
  1 7850.81 -0.00806529 5018.99 -2.55244e-15 1.61448e-13 -1.23993e-14
  2 7850.81 -0.00806529 5018.99 -2.72734e-15 7.30909e-14 -6.39149e-15
  3 7850.81 -0.00806529 5018.99 -1.95513e-15 3.46986e-13 -4.91385e-14
  4 7850.81 -0.00806529 5018.99 -2.60788e-15 2.04305e-13 -1.72701e-13
  5 7850.81 -0.00806529 5018.99 -5.87166e-15 1.68438e-13 -1.23993e-14
  6 7850.81 -0.00806529 5018.99 -6.52441e-15 9.91762e-14 -6.39149e-15
  7 7850.81 -0.00806529 5018.99 -6.31750e-15 3.73071e-13 -4.91385e-14
  8 7850.81 -0.00806529 5018.99 -8.75361e-15 3.01657e-13 -1.72701e-13
</Section>

newXOutput 696

<Section columns = "stress_xx | stress_yy | stress_zz | stress_xy | stress_yz | stress_xz">
  1 7851.29 -0.00805723 5022.03 5.05311e-15 -1.59916e-13 -1.14204e-14
  2 7851.29 -0.00805723 5022.03 4.87869e-15 -7.81218e-14 -9.14340e-14
  3 7851.29 -0.00805723 5022.03 1.31306e-14 -1.64602e-13 -3.97641e-14
  4 7851.29 -0.00805723 5022.03 1.24796e-14 -6.88985e-14 -1.92707e-13
  5 7851.29 -0.00805723 5022.03 9.22482e-15 -1.56891e-13 -4.31111e-15
  6 7851.29 -0.00805723 5022.03 8.57385e-15 -6.68324e-14 -8.95291e-14
  7 7851.29 -0.00805723 5022.03 1.93627e-14 -1.75892e-13 -1.32319e-14
  8 7851.29 -0.00805723 5022.03 1.69332e-14 -1.11031e-13 -1.85598e-13
</Section>

newXOutput 697

<Section columns = "stress_xx | stress_yy | stress_zz | stress_xy | stress_yz | stress_xz">
  1 7851.77 -0.00804920 5025.06 -4.14706e-15 -1.15573e-13 1.64619e-15
  2 7851.77 -0.00804920 5025.06 -4.32101e-15 -5.35351e-14 8.55704e-14
  3 7851.77 -0.00804920 5025.06 -8.07825e-15 -2.09887e-13 4.41096e-16
  4 7851.77 -0.00804920 5025.06 -8.72744e-15 -5.05720e-15 2.29285e-14
  5 7851.77 -0.00804920 5025.06 -2.23562e-15 -1.19064e-13 1.64619e-15
  6 7851.77 -0.00804920 5025.06 -2.88480e-15 -6.65644e-14 8.55704e-14
  7 7851.77 -0.00804920 5025.06 3.85556e-16 -2.22916e-13 4.41096e-16
  8 7851.77 -0.00804920 5025.06 -2.03722e-15 -5.36834e-14 2.29285e-14
</Section>

newXOutput 698

<Section columns = "stress_xx | stress_yy | stress_zz | stress_xy | stress_yz | stress_xz">
  1 7852.26 -0.00804118 5028.09 -4.39489e-16 -2.09908e-14 -1.23201e-14
  2 7852.26 -0.00804118 5028.09 -1.15787e-16 -2.81950e-15 -6.35066e-15
  3 7852.26 -0.00804118 5028.09 -1.92053e-15 -2.81950e-15 -4.88246e-14
  4 7852.26 -0.00804118 5028.09 -1.83380e-15 1.45049e-13 -1.71597e-13
  5 7852.26 -0.00804118 5028.09 4.32122e-16 -2.09908e-14 -1.23201e-14
  6 7852.26 -0.00804118 5028.09 1.64020e-15 -2.81950e-15 -6.35066e-15
  7 7852.26 -0.00804118 5028.09 6.84382e-15 -2.81950e-15 -4.88246e-14
  8 7852.26 -0.00804118 5028.09 7.16752e-15 1.45049e-13 -1.71597e-13
</Section>

newXOutput 699

<Section columns = "stress_xx | stress_yy | stress_zz | stress_xy | stress_yz | stress_xz">
  1 7852.73 -0.00803320 5031.12 2.36319e-16 1.04003e-14 -1.00523e-15
  2 7852.73 -0.00803320 5031.12 6.33215e-17 4.99784e-15 -5.22525e-14
  3 7852.73 -0.00803320 5031.12 8.81954e-16 -3.25402e-15 -9.12410e-16
  4 7852.73 -0.00803320 5031.12 2.36319e-16 1.14062e-13 -4.74278e-14
  5 7852.73 -0.00803320 5031.12 8.81954e-16 9.93308e-15 -1.51239e-15
  6 7852.73 -0.00803320 5031.12 2.36319e-16 3.25402e-15 -7.86153e-14
  7 7852.73 -0.00803320 5031.12 3.29150e-15 -2.75423e-14 -2.80518e-15
  8 7852.73 -0.00803320 5031.12 8.81954e-16 2.34164e-14 -1.45815e-13
</Section>

newXOutput 700

<Section columns = "stress_xx | stress_yy | stress_zz | stress_xy | stress_yz | stress_xz">
  1 7853.21 -0.00802523 5034.14 -2.10682e-15 2.67890e-13 9.44369e-16
  2 7853.21 -0.00802523 5034.14 -1.76177e-15 2.11558e-13 -8.43334e-14
  3 7853.21 -0.00802523 5034.14 -4.12893e-15 5.15537e-13 9.19065e-15
  4 7853.21 -0.00802523 5034.14 -2.84119e-15 4.96023e-13 -2.02022e-14
  5 7853.21 -0.00802523 5034.14 -4.12893e-15 2.81367e-13 7.99324e-15
  6 7853.21 -0.00802523 5034.14 -2.84119e-15 2.61853e-13 -8.24446e-14
  7 7853.21 -0.00802523 5034.14 -7.71759e-15 5.43299e-13 3.54974e-14
  8 7853.21 -0.00802523 5034.14 -2.91166e-15 5.99631e-13 -1.31534e-14
</Section>

newXOutput 701

<Section columns = "stress_xx | stress_yy | stress_zz | stress_xy | stress_yz | stress_xz">
  1 7853.69 -0.00801730 5037.16 -1.69399e-15 -2.09016e-13 1.88472e-15
  2 7853.69 -0.00801730 5037.16 -1.86604e-15 -2.52232e-13 7.03388e-15
  3 7853.69 -0.00801730 5037.16 -2.59841e-15 -4.08266e-13 -3.51694e-14
  4 7853.69 -0.00801730 5037.16 -3.24052e-15 -4.36333e-13 -1.31254e-13
  5 7853.69 -0.00801730 5037.16 -2.59841e-15 -2.05532e-13 9.42361e-15
  6 7853.69 -0.00801730 5037.16 -3.24052e-15 -2.39229e-13 3.51694e-14
  7 7853.69 -0.00801730 5037.16 -2.02657e-15 -3.95263e-13 -7.03388e-15
  8 7853.69 -0.00801730 5037.16 -4.42298e-15 -3.87805e-13 -2.62508e-14
</Section>

newXOutput 702

<Section columns = "stress_xx | stress_yy | stress_zz | stress_xy | stress_yz | stress_xz">
  1 7854.16 -0.00800938 5040.17 -1.17195e-15 -4.47870e-14 9.27760e-15
  2 7854.16 -0.00800938 5040.17 -1.34353e-15 -9.43934e-14 -1.35677e-14
  3 7854.16 -0.00800938 5040.17 -2.45268e-15 -1.64160e-14 3.74455e-14
  4 7854.16 -0.00800938 5040.17 -3.09304e-15 -4.17712e-14 9.60063e-14
  5 7854.16 -0.00800938 5040.17 -2.45268e-15 -4.82693e-14 1.25080e-15
  6 7854.16 -0.00800938 5040.17 -3.09304e-15 -1.07390e-13 -6.78384e-14
  7 7854.16 -0.00800938 5040.17 -1.98390e-15 -2.94123e-14 7.48911e-15
  8 7854.16 -0.00800938 5040.17 -4.37377e-15 -9.02738e-14 -1.06535e-13
</Section>

newXOutput 703

<Section columns = "stress_xx | stress_yy | stress_zz | stress_xy | stress_yz | stress_xz">
  1 7854.63 -0.00800149 5043.17 2.93643e-15 1.62370e-14 -5.99024e-14
  2 7854.63 -0.00800149 5043.17 3.10755e-15 -5.10884e-14 -1.45140e-13
  3 7854.63 -0.00800149 5043.17 5.72467e-15 2.68494e-14 -6.10922e-14
  4 7854.63 -0.00800149 5043.17 6.36329e-15 -6.47150e-14 -2.06987e-13
  5 7854.63 -0.00800149 5043.17 -1.93879e-15 1.97176e-14 -5.99024e-14
  6 7854.63 -0.00800149 5043.17 -1.30017e-15 -3.80987e-14 -1.45140e-13
  7 7854.63 -0.00800149 5043.17 -2.00142e-15 3.98390e-14 -6.10922e-14
  8 7854.63 -0.00800149 5043.17 3.81944e-16 -1.62370e-14 -2.06987e-13
</Section>

newXOutput 704

<Section columns = "stress_xx | stress_yy | stress_zz | stress_xy | stress_yz | stress_xz">
  1 7855.10 -0.00799362 5046.17 1.04065e-15 1.19448e-13 1.87274e-15
  2 7855.10 -0.00799362 5046.17 8.70000e-16 6.93406e-14 6.98917e-15
  3 7855.10 -0.00799362 5046.17 5.79442e-15 2.64086e-13 -3.49458e-14
  4 7855.10 -0.00799362 5046.17 5.15754e-15 2.10096e-13 -1.30420e-13
  5 7855.10 -0.00799362 5046.17 -1.84819e-15 1.15969e-13 9.36371e-15
  6 7855.10 -0.00799362 5046.17 -2.48507e-15 5.63575e-14 3.49458e-14
  7 7855.10 -0.00799362 5046.17 2.33116e-16 2.51103e-13 -6.98917e-15
  8 7855.10 -0.00799362 5046.17 -2.14377e-15 1.61643e-13 -2.60839e-14
</Section>

newXOutput 705

<Section columns = "stress_xx | stress_yy | stress_zz | stress_xy | stress_yz | stress_xz">
  1 7855.57 -0.00798578 5049.17 -1.07459e-14 -1.27793e-13 -9.92485e-16
  2 7855.57 -0.00798578 5049.17 -1.07459e-14 -6.43540e-14 -5.15901e-14
  3 7855.57 -0.00798578 5049.17 -2.20708e-14 -2.20071e-13 -9.00844e-16
  4 7855.57 -0.00798578 5049.17 -2.20708e-14 -3.64921e-14 -4.68265e-14
  5 7855.57 -0.00798578 5049.17 -8.73254e-15 -1.20839e-13 -1.49322e-15
  6 7855.57 -0.00798578 5049.17 -8.73254e-15 -3.84011e-14 -7.76188e-14
  7 7855.57 -0.00798578 5049.17 -1.45568e-14 -1.94118e-13 -2.76962e-15
  8 7855.57 -0.00798578 5049.17 -1.45568e-14 6.03654e-14 -1.43967e-13
</Section>

newXOutput 706

<Section columns = "stress_xx | stress_yy | stress_zz | stress_xy | stress_yz | stress_xz">
  1 7856.03 -0.00797796 5052.16 -1.39111e-15 1.13827e-13 3.89603e-14
  2 7856.03 -0.00797796 5052.16 -1.39111e-15 9.02611e-14 5.86568e-14
  3 7856.03 -0.00797796 5052.16 -3.29140e-15 1.68080e-13 -1.60338e-14
  4 7856.03 -0.00797796 5052.16 -3.29140e-15 1.33282e-13 -1.13651e-13
  5 7856.03 -0.00797796 5052.16 -3.29140e-15 1.13827e-13 5.33791e-14
  6 7856.03 -0.00797796 5052.16 -3.29140e-15 9.02611e-14 8.83600e-14
  7 7856.03 -0.00797796 5052.16 -5.19168e-15 1.68080e-13 3.77780e-14
  8 7856.03 -0.00797796 5052.16 -5.19168e-15 1.33282e-13 -2.79722e-15
</Section>

newXOutput 707

<Section columns = "stress_xx | stress_yy | stress_zz | stress_xy | stress_yz | stress_xz">
  1 7856.50 -0.00797017 5055.15 -1.89777e-15 1.15041e-13 1.86087e-15
  2 7856.50 -0.00797017 5055.15 -1.89777e-15 5.60703e-14 6.94486e-15
  3 7856.50 -0.00797017 5055.15 -3.41924e-15 2.11630e-13 -3.47243e-14
  4 7856.50 -0.00797017 5055.15 -3.41924e-15 1.50923e-13 -1.29593e-13
  5 7856.50 -0.00797017 5055.15 -3.41924e-15 1.18514e-13 9.30435e-15
  6 7856.50 -0.00797017 5055.15 -3.41924e-15 6.90336e-14 3.47243e-14
  7 7856.50 -0.00797017 5055.15 -5.21425e-15 2.24593e-13 -6.94486e-15
  8 7856.50 -0.00797017 5055.15 -5.21425e-15 1.99302e-13 -2.59186e-14
</Section>

newXOutput 708

<Section columns = "stress_xx | stress_yy | stress_zz | stress_xy | stress_yz | stress_xz">
  1 7856.96 -0.00796239 5058.13 2.24680e-15 -2.01626e-13 -9.86198e-16
  2 7856.96 -0.00796239 5058.13 2.41560e-15 -1.48784e-13 -5.12633e-14
  3 7856.96 -0.00796239 5058.13 4.73176e-15 -4.29090e-13 -8.95137e-16
  4 7856.96 -0.00796239 5058.13 5.36176e-15 -2.27773e-13 -4.65299e-14
  5 7856.96 -0.00796239 5058.13 4.73176e-15 -1.98620e-13 -1.48376e-15
  6 7856.96 -0.00796239 5058.13 5.36176e-15 -1.37563e-13 -7.71271e-14
  7 7856.96 -0.00796239 5058.13 1.01331e-14 -4.40311e-13 -2.75207e-15
  8 7856.96 -0.00796239 5058.13 1.24843e-14 -2.69649e-13 -1.43055e-13
</Section>

newXOutput 709

<Section columns = "stress_xx | stress_yy | stress_zz | stress_xy | stress_yz | stress_xz">
  1 7857.42 -0.00795464 5061.11 2.29972e-16 1.27928e-13 -5.91455e-14
  2 7857.42 -0.00795464 5061.11 6.16208e-17 1.35589e-13 -1.43307e-13
  3 7857.42 -0.00795464 5061.11 8.58267e-16 3.29841e-13 -6.03203e-14
  4 7857.42 -0.00795464 5061.11 2.29972e-16 3.31894e-13 -2.04372e-13
  5 7857.42 -0.00795464 5061.11 8.58267e-16 1.27928e-13 -5.91455e-14
  6 7857.42 -0.00795464 5061.11 2.29972e-16 1.35589e-13 -1.43307e-13
  7 7857.42 -0.00795464 5061.11 3.20310e-15 3.29841e-13 -6.03203e-14
  8 7857.42 -0.00795464 5061.11 8.58267e-16 3.31894e-13 -2.04372e-13
</Section>

newXOutput 710

<Section columns = "stress_xx | stress_yy | stress_zz | stress_xy | stress_yz | stress_xz">
  1 7857.87 -0.00794692 5064.08 1.02645e-15 -2.62842e-13 1.84910e-15
  2 7857.87 -0.00794692 5064.08 8.58556e-16 -2.32937e-13 6.90094e-15
  3 7857.87 -0.00794692 5064.08 2.07690e-15 -4.65922e-13 -3.45047e-14
  4 7857.87 -0.00794692 5064.08 1.45031e-15 -3.27793e-13 -1.28773e-13
  5 7857.87 -0.00794692 5064.08 2.07690e-15 -2.66311e-13 9.24551e-15
  6 7857.87 -0.00794692 5064.08 1.45031e-15 -2.45881e-13 3.45047e-14
  7 7857.87 -0.00794692 5064.08 7.28117e-15 -4.78866e-13 -6.90094e-15
  8 7857.87 -0.00794692 5064.08 4.94268e-15 -3.76099e-13 -2.57547e-14
</Section>

newXOutput 711

<Section columns = "stress_xx | stress_yy | stress_zz | stress_xy | stress_yz | stress_xz">
  1 7858.33 -0.00793922 5067.05 -2.16733e-15 5.30171e-14 -9.79966e-16
  2 7858.33 -0.00793922 5067.05 -2.16733e-15 1.42059e-14 -5.09394e-14
  3 7858.33 -0.00793922 5067.05 -4.46475e-15 5.30171e-14 -8.89481e-16
  4 7858.33 -0.00793922 5067.05 -4.46475e-15 1.42059e-14 -4.62359e-14
  5 7858.33 -0.00793922 5067.05 -4.46475e-15 5.30171e-14 -1.47439e-15
  6 7858.33 -0.00793922 5067.05 -4.46475e-15 1.42059e-14 -7.66397e-14
  7 7858.33 -0.00793922 5067.05 -9.19750e-15 5.30171e-14 -2.73468e-15
  8 7858.33 -0.00793922 5067.05 -9.19750e-15 1.42059e-14 -1.42151e-13
</Section>

newXOutput 712

<Section columns = "stress_xx | stress_yy | stress_zz | stress_xy | stress_yz | stress_xz">
  1 7858.78 -0.00793154 5070.01 6.11228e-17 2.31983e-13 1.20258e-14
  2 7858.78 -0.00793154 5070.01 2.28113e-16 2.73690e-13 5.08321e-14
  3 7858.78 -0.00793154 5070.01 2.28113e-16 3.51273e-13 8.87607e-16
  4 7858.78 -0.00793154 5070.01 8.51331e-16 4.80431e-13 -1.07739e-13
  5 7858.78 -0.00793154 5070.01 2.28113e-16 2.25053e-13 1.25192e-14
  6 7858.78 -0.00793154 5070.01 8.51331e-16 2.47829e-13 7.64783e-14
  7 7858.78 -0.00793154 5070.01 8.51331e-16 3.25412e-13 2.72892e-15
  8 7858.78 -0.00793154 5070.01 3.17721e-15 3.83916e-13 -1.20258e-14
</Section>

newXOutput 713

<Section columns = "stress_xx | stress_yy | stress_zz | stress_xy | stress_yz | stress_xz">
  1 7859.23 -0.00792388 5072.97 4.28382e-15 -4.45381e-14 4.52763e-15
  2 7859.23 -0.00792388 5072.97 4.61691e-15 -5.50968e-14 1.68974e-14
  3 7859.23 -0.00792388 5072.97 9.02862e-15 -5.50968e-14 -2.42471e-14
  4 7859.23 -0.00792388 5072.97 1.02717e-14 -4.15390e-14 -9.04914e-14
  5 7859.23 -0.00792388 5072.97 1.57018e-15 -4.80010e-14 1.92271e-14
  6 7859.23 -0.00792388 5072.97 2.81325e-15 -6.80208e-14 7.17566e-14
  7 7859.23 -0.00792388 5072.97 3.99537e-15 -6.80208e-14 3.06122e-14
  8 7859.23 -0.00792388 5072.97 8.63459e-15 -8.97721e-14 1.14246e-13
</Section>

newXOutput 714

<Section columns = "stress_xx | stress_yy | stress_zz | stress_xy | stress_yz | stress_xz">
  1 7859.68 -0.00791625 5075.93 -1.63529e-15 -3.88062e-14 9.04503e-15
  2 7859.68 -0.00791625 5075.93 -1.80138e-15 -6.99179e-14 -1.32276e-14
  3 7859.68 -0.00791625 5075.93 -2.50836e-15 -6.99179e-14 3.65069e-14
  4 7859.68 -0.00791625 5075.93 -3.12822e-15 -1.06623e-13 9.35997e-14
  5 7859.68 -0.00791625 5075.93 -2.50836e-15 -3.88062e-14 1.21944e-15
  6 7859.68 -0.00791625 5075.93 -3.12822e-15 -6.99179e-14 -6.61379e-14
  7 7859.68 -0.00791625 5075.93 -1.95634e-15 -6.99179e-14 7.30138e-15
  8 7859.68 -0.00791625 5075.93 -4.26971e-15 -1.06623e-13 -1.03864e-13
</Section>

newXOutput 715

<Section columns = "stress_xx | stress_yy | stress_zz | stress_xy | stress_yz | stress_xz">
  1 7860.13 -0.00790863 5078.88 6.33593e-32 2.41459e-14 1.26198e-14
  2 7860.13 -0.00790863 5078.88 1.69771e-32 1.52428e-14 8.53247e-14
  3 7860.13 -0.00790863 5078.88 1.69771e-32 5.39756e-14 3.38146e-15
  4 7860.13 -0.00790863 5078.88 4.54900e-33 4.72036e-14 2.28627e-14
  5 7860.13 -0.00790863 5078.88 6.33593e-32 3.10649e-14 1.26198e-14
  6 7860.13 -0.00790863 5078.88 1.69771e-32 4.10647e-14 8.53247e-14
  7 7860.13 -0.00790863 5078.88 1.69771e-32 7.97976e-14 3.38146e-15
  8 7860.13 -0.00790863 5078.88 4.54900e-33 1.43572e-13 2.28627e-14
</Section>

newXOutput 716

<Section columns = "stress_xx | stress_yy | stress_zz | stress_xy | stress_yz | stress_xz">
  1 7860.58 -0.00790105 5081.82 2.25667e-16 -7.99579e-14 -8.47392e-16
  2 7860.58 -0.00790105 5081.82 6.04673e-17 -7.65002e-14 -3.16251e-15
  3 7860.58 -0.00790105 5081.82 8.42201e-16 -1.15214e-13 -4.40481e-14
  4 7860.58 -0.00790105 5081.82 2.25667e-16 -1.02309e-13 -1.64390e-13
  5 7860.58 -0.00790105 5081.82 8.42201e-16 -7.65002e-14 -8.47392e-16
  6 7860.58 -0.00790105 5081.82 2.25667e-16 -6.35957e-14 -3.16251e-15
  7 7860.58 -0.00790105 5081.82 3.14314e-15 -1.02309e-13 -4.40481e-14
  8 7860.58 -0.00790105 5081.82 8.42201e-16 -5.41490e-14 -1.64390e-13
</Section>

newXOutput 717

<Section columns = "stress_xx | stress_yy | stress_zz | stress_xy | stress_yz | stress_xz">
  1 7861.02 -0.00789348 5084.76 2.25061e-16 1.71559e-14 -9.67667e-16
  2 7861.02 -0.00789348 5084.76 6.03050e-17 2.53329e-14 -5.03001e-14
  3 7861.02 -0.00789348 5084.76 8.39940e-16 6.40267e-14 -8.78318e-16
  4 7861.02 -0.00789348 5084.76 2.25061e-16 9.45435e-14 -4.56556e-14
  5 7861.02 -0.00789348 5084.76 8.39940e-16 1.71559e-14 -1.45588e-15
  6 7861.02 -0.00789348 5084.76 2.25061e-16 2.53329e-14 -7.56779e-14
  7 7861.02 -0.00789348 5084.76 3.13470e-15 6.40267e-14 -2.70036e-15
  8 7861.02 -0.00789348 5084.76 8.39940e-16 9.45435e-14 -1.40367e-13
</Section>

newXOutput 718

<Section columns = "stress_xx | stress_yy | stress_zz | stress_xy | stress_yz | stress_xz">
  1 7861.47 -0.00788594 5087.70 3.16442e-15 -5.40945e-14 -2.78649e-14
  2 7861.47 -0.00788594 5087.70 3.49305e-15 -8.58603e-14 -9.81165e-14
  3 7861.47 -0.00788594 5087.70 4.94396e-15 -1.63209e-13 1.54223e-14
  4 7861.47 -0.00788594 5087.70 6.17042e-15 -1.76100e-13 -5.21020e-14
  5 7861.47 -0.00788594 5087.70 1.26459e-15 -4.71860e-14 -4.19235e-14
  6 7861.47 -0.00788594 5087.70 2.49105e-15 -6.00774e-14 -1.27078e-13
  7 7861.47 -0.00788594 5087.70 2.87982e-15 -1.37426e-13 -3.70451e-14
  8 7861.47 -0.00788594 5087.70 7.45702e-15 -7.98773e-14 -1.60186e-13
</Section>

newXOutput 719

<Section columns = "stress_xx | stress_yy | stress_zz | stress_xy | stress_yz | stress_xz">
  1 7861.91 -0.00787842 5090.63 1.34314e-15 1.84023e-14 -8.42073e-16
  2 7861.91 -0.00787842 5090.63 1.34314e-15 3.00236e-14 -3.14266e-15
  3 7861.91 -0.00787842 5090.63 5.01265e-15 6.86784e-14 -4.37716e-14
  4 7861.91 -0.00787842 5090.63 5.01265e-15 1.12050e-13 -1.63358e-13
  5 7861.91 -0.00787842 5090.63 1.34314e-15 2.18548e-14 -8.42073e-16
  6 7861.91 -0.00787842 5090.63 1.34314e-15 4.29085e-14 -3.14266e-15
  7 7861.91 -0.00787842 5090.63 5.01265e-15 8.15634e-14 -4.37716e-14
  8 7861.91 -0.00787842 5090.63 5.01265e-15 1.60137e-13 -1.63358e-13
</Section>

newXOutput 720

<Section columns = "stress_xx | stress_yy | stress_zz | stress_xy | stress_yz | stress_xz">
  1 7862.35 -0.00787092 5093.56 3.25110e-15 -2.40852e-14 -9.61599e-16
  2 7862.35 -0.00787092 5093.56 3.08767e-15 -5.38398e-14 -4.99846e-14
  3 7862.35 -0.00787092 5093.56 5.30421e-15 -1.52044e-14 -8.72810e-16
  4 7862.35 -0.00787092 5093.56 4.69426e-15 -4.70848e-14 -4.53693e-14
  5 7862.35 -0.00787092 5093.56 1.64451e-15 -3.09867e-14 -1.44675e-15
  6 7862.35 -0.00787092 5093.56 1.03457e-15 -7.95968e-14 -7.52033e-14
  7 7862.35 -0.00787092 5093.56 4.30757e-15 -4.09614e-14 -2.68343e-15
  8 7862.35 -0.00787092 5093.56 2.03121e-15 -1.43211e-13 -1.39487e-13
</Section>

newXOutput 721

<Section columns = "stress_xx | stress_yy | stress_zz | stress_xy | stress_yz | stress_xz">
  1 7862.78 -0.00786344 5096.48 5.96615e-17 -1.35651e-14 1.24619e-14
  2 7862.78 -0.00786344 5096.48 2.22660e-16 -1.71833e-14 8.42574e-14
  3 7862.78 -0.00786344 5096.48 2.22660e-16 6.00487e-14 3.33916e-15
  4 7862.78 -0.00786344 5096.48 8.30977e-16 9.92959e-14 2.25767e-14
  5 7862.78 -0.00786344 5096.48 2.22660e-16 -1.01161e-14 1.24619e-14
  6 7862.78 -0.00786344 5096.48 8.30977e-16 -4.31130e-15 8.42574e-14
  7 7862.78 -0.00786344 5096.48 8.30977e-16 7.29207e-14 3.33916e-15
  8 7862.78 -0.00786344 5096.48 3.10125e-15 1.47335e-13 2.25767e-14
</Section>

newXOutput 722

<Section columns = "stress_xx | stress_yy | stress_zz | stress_xy | stress_yz | stress_xz">
  1 7863.22 -0.00785599 5099.40 4.17296e-16 -1.62811e-13 -8.36801e-16
  2 7863.22 -0.00785599 5099.40 4.17296e-16 -2.34579e-13 -3.12298e-15
  3 7863.22 -0.00785599 5099.40 1.80121e-15 -3.11772e-13 -4.34975e-14
  4 7863.22 -0.00785599 5099.40 1.80121e-15 -3.95083e-13 -1.62335e-13
  5 7863.22 -0.00785599 5099.40 -5.47909e-15 -1.73153e-13 -8.36801e-16
  6 7863.22 -0.00785599 5099.40 -5.47909e-15 -2.73176e-13 -3.12298e-15
  7 7863.22 -0.00785599 5099.40 -7.77304e-15 -3.50369e-13 -4.34975e-14
  8 7863.22 -0.00785599 5099.40 -7.77304e-15 -5.39127e-13 -1.62335e-13
</Section>

newXOutput 723

<Section columns = "stress_xx | stress_yy | stress_zz | stress_xy | stress_yz | stress_xz">
  1 7863.65 -0.00784856 5102.31 -1.26949e-15 -9.91878e-14 -9.55583e-16
  2 7863.65 -0.00784856 5102.31 -1.10736e-15 -1.02718e-13 -4.96719e-14
  3 7863.65 -0.00784856 5102.31 -2.92258e-15 -2.87451e-13 -8.67349e-16
  4 7863.65 -0.00784856 5102.31 -2.31750e-15 -1.99307e-13 -4.50855e-14
  5 7863.65 -0.00784856 5102.31 -2.92258e-15 -1.12508e-13 -1.43770e-15
  6 7863.65 -0.00784856 5102.31 -2.31750e-15 -1.52431e-13 -7.47328e-14
  7 7863.65 -0.00784856 5102.31 -4.13272e-15 -3.14892e-13 -2.66664e-15
  8 7863.65 -0.00784856 5102.31 -1.87456e-15 -3.01718e-13 -1.38614e-13
</Section>

newXOutput 724

<Section columns = "stress_xx | stress_yy | stress_zz | stress_xy | stress_yz | stress_xz">
  1 7864.08 -0.00784115 5105.22 -1.32529e-15 2.45958e-13 -2.75172e-14
  2 7864.08 -0.00784115 5105.22 -1.32529e-15 2.13742e-13 -9.68922e-14
  3 7864.08 -0.00784115 5105.22 -3.13566e-15 4.45089e-13 1.52298e-14
  4 7864.08 -0.00784115 5105.22 -3.13566e-15 4.03864e-13 -5.14519e-14
  5 7864.08 -0.00784115 5105.22 -3.13566e-15 2.52846e-13 -4.14003e-14
  6 7864.08 -0.00784115 5105.22 -3.13566e-15 2.39448e-13 -1.25492e-13
  7 7864.08 -0.00784115 5105.22 -4.94604e-15 4.70794e-13 -3.65829e-14
  8 7864.08 -0.00784115 5105.22 -4.94604e-15 4.99797e-13 -1.58187e-13
</Section>

newXOutput 725

<Section columns = "stress_xx | stress_yy | stress_zz | stress_xy | stress_yz | stress_xz">
  1 7864.51 -0.00783376 5108.13 2.63271e-15 -8.83708e-14 1.79179e-15
  2 7864.51 -0.00783376 5108.13 2.79398e-15 -3.18230e-14 6.68706e-15
  3 7864.51 -0.00783376 5108.13 4.65065e-15 -1.77833e-13 -3.34353e-14
  4 7864.51 -0.00783376 5108.13 5.25250e-15 -4.98324e-14 -1.24782e-13
  5 7864.51 -0.00783376 5108.13 4.65065e-15 -9.47939e-14 8.95897e-15
  6 7864.51 -0.00783376 5108.13 5.25250e-15 -5.57943e-14 3.34353e-14
  7 7864.51 -0.00783376 5108.13 9.71527e-15 -1.79554e-13 -6.68706e-15
  8 7864.51 -0.00783376 5108.13 1.19614e-14 -5.62554e-14 -2.49565e-14
</Section>

newXOutput 726

<Section columns = "stress_xx | stress_yy | stress_zz | stress_xy | stress_yz | stress_xz">
  1 7864.94 -0.00782640 5111.03 -1.58354e-15 1.07010e-13 2.87202e-14
  2 7864.94 -0.00782640 5111.03 -1.74438e-15 6.55957e-14 -7.56717e-15
  3 7864.94 -0.00782640 5111.03 -2.42899e-15 2.19672e-13 7.25105e-14
  4 7864.94 -0.00782640 5111.03 -3.02924e-15 1.96657e-13 1.01166e-13
  5 7864.94 -0.00782640 5111.03 -2.42899e-15 1.03570e-13 1.44157e-14
  6 7864.94 -0.00782640 5111.03 -3.02924e-15 5.27559e-14 -6.09523e-14
  7 7864.94 -0.00782640 5111.03 -1.89444e-15 2.06832e-13 1.91254e-14
  8 7864.94 -0.00782640 5111.03 -4.13460e-15 1.48739e-13 -9.80694e-14
</Section>

newXOutput 727

<Section columns = "stress_xx | stress_yy | stress_zz | stress_xy | stress_yz | stress_xz">
  1 7865.37 -0.00781905 5113.92 -1.79845e-15 1.05866e-13 -4.61921e-14
  2 7865.37 -0.00781905 5113.92 -1.79845e-15 2.29950e-14 -1.35112e-13
  3 7865.37 -0.00781905 5113.92 -3.24031e-15 2.45858e-13 -5.52013e-14
  4 7865.37 -0.00781905 5113.92 -3.24031e-15 1.51013e-13 -1.96025e-13
  5 7865.37 -0.00781905 5113.92 -3.24031e-15 1.15722e-13 -4.61921e-14
  6 7865.37 -0.00781905 5113.92 -3.24031e-15 5.97755e-14 -1.35112e-13
  7 7865.37 -0.00781905 5113.92 -4.94138e-15 2.60411e-13 -5.52013e-14
  8 7865.37 -0.00781905 5113.92 -4.94138e-15 2.05324e-13 -1.96025e-13
</Section>

newXOutput 728

<Section columns = "stress_xx | stress_yy | stress_zz | stress_xy | stress_yz | stress_xz">
  1 7865.79 -0.00781173 5116.81 8.33420e-15 7.40298e-14 1.78063e-15
  2 7865.79 -0.00781173 5116.81 8.49418e-15 9.41910e-14 6.64540e-15
  3 7865.79 -0.00781173 5116.81 1.42716e-14 1.24540e-13 -3.32270e-14
  4 7865.79 -0.00781173 5116.81 1.48687e-14 2.82696e-13 -1.24005e-13
  5 7865.79 -0.00781173 5116.81 7.10687e-15 8.38801e-14 8.90315e-15
  6 7865.79 -0.00781173 5116.81 7.70393e-15 1.30953e-13 3.32270e-14
  7 7865.79 -0.00781173 5116.81 1.58082e-14 1.39085e-13 -6.64540e-15
  8 7865.79 -0.00781173 5116.81 1.80365e-14 3.36980e-13 -2.48010e-14
</Section>

newXOutput 729

<Section columns = "stress_xx | stress_yy | stress_zz | stress_xy | stress_yz | stress_xz">
  1 7866.22 -0.00780443 5119.70 1.86622e-15 2.26659e-14 -2.64626e-14
  2 7866.22 -0.00780443 5119.70 1.70666e-15 -2.04880e-14 -5.58924e-14
  3 7866.22 -0.00780443 5119.70 2.08418e-15 -2.04880e-14 1.52782e-14
  4 7866.22 -0.00780443 5119.70 1.48870e-15 2.86158e-14 -4.02019e-14
  5 7866.22 -0.00780443 5119.70 -1.48870e-15 1.57954e-14 -4.02019e-14
  6 7866.22 -0.00780443 5119.70 -2.08418e-15 -4.61289e-14 -8.41957e-14
  7 7866.22 -0.00780443 5119.70 -6.75258e-16 -4.61289e-14 -3.59976e-14
  8 7866.22 -0.00780443 5119.70 -2.89762e-15 -6.70771e-14 -1.45831e-13
</Section>

newXOutput 730

<Section columns = "stress_xx | stress_yy | stress_zz | stress_xy | stress_yz | stress_xz">
  1 7866.64 -0.00779715 5122.58 2.05980e-15 7.25839e-14 1.15812e-14
  2 7866.64 -0.00779715 5122.58 2.05980e-15 1.19694e-13 4.89528e-14
  3 7866.64 -0.00779715 5122.58 4.24324e-15 1.96578e-13 8.54792e-16
  4 7866.64 -0.00779715 5122.58 4.24324e-15 2.93626e-13 -1.03756e-13
  5 7866.64 -0.00779715 5122.58 4.24324e-15 7.25839e-14 1.20563e-14
  6 7866.64 -0.00779715 5122.58 4.24324e-15 1.19694e-13 7.36509e-14
  7 7866.64 -0.00779715 5122.58 8.74118e-15 1.96578e-13 2.62803e-15
  8 7866.64 -0.00779715 5122.58 8.74118e-15 2.93626e-13 -1.15812e-14
</Section>

newXOutput 731

<Section columns = "stress_xx | stress_yy | stress_zz | stress_xy | stress_yz | stress_xz">
  1 7867.06 -0.00778989 5125.46 -4.53738e-15 -1.29899e-13 1.76956e-15
  2 7867.06 -0.00778989 5125.46 -4.69609e-15 -7.75803e-14 6.60410e-15
  3 7867.06 -0.00778989 5125.46 -8.52496e-15 -2.31272e-13 -3.30205e-14
  4 7867.06 -0.00778989 5125.46 -9.11728e-15 -8.85038e-14 -1.23234e-13
  5 7867.06 -0.00778989 5125.46 -3.19401e-15 -1.33330e-13 8.84782e-15
  6 7867.06 -0.00778989 5125.46 -3.78634e-15 -9.03879e-14 3.30205e-14
  7 7867.06 -0.00778989 5125.46 -3.51144e-15 -2.44079e-13 -6.60410e-15
  8 7867.06 -0.00778989 5125.46 -5.72203e-15 -1.36302e-13 -2.46468e-14
</Section>

newXOutput 732

<Section columns = "stress_xx | stress_yy | stress_zz | stress_xy | stress_yz | stress_xz">
  1 7867.48 -0.00778266 5128.33 -4.70733e-15 1.23417e-14 1.87151e-14
  2 7867.48 -0.00778266 5128.33 -4.70733e-15 7.65609e-15 -4.34840e-14
  3 7867.48 -0.00778266 5128.33 -7.52793e-15 4.60597e-14 3.56009e-14
  4 7867.48 -0.00778266 5128.33 -7.52793e-15 2.85729e-14 -3.44814e-14
  5 7867.48 -0.00778266 5128.33 -3.98337e-15 1.57717e-14 1.16515e-14
  6 7867.48 -0.00778266 5128.33 -3.98337e-15 2.04573e-14 -6.98457e-14
  7 7867.48 -0.00778266 5128.33 -6.03654e-15 5.88609e-14 9.23926e-15
  8 7867.48 -0.00778266 5128.33 -6.03654e-15 7.63476e-14 -1.32864e-13
</Section>

newXOutput 733

<Section columns = "stress_xx | stress_yy | stress_zz | stress_xy | stress_yz | stress_xz">
  1 7867.89 -0.00777544 5131.20 2.73448e-16 1.37052e-14 -4.56199e-14
  2 7867.89 -0.00777544 5131.20 2.73448e-16 4.85772e-14 -1.33439e-13
  3 7867.89 -0.00777544 5131.20 1.02052e-15 9.50731e-14 -5.45176e-14
  4 7867.89 -0.00777544 5131.20 1.02052e-15 2.21161e-13 -1.93597e-13
  5 7867.89 -0.00777544 5131.20 1.02052e-15 4.51068e-16 -4.56199e-14
  6 7867.89 -0.00777544 5131.20 1.02052e-15 -8.87857e-16 -1.33439e-13
  7 7867.89 -0.00777544 5131.20 3.80864e-15 6.77694e-14 -5.45176e-14
  8 7867.89 -0.00777544 5131.20 3.80864e-15 1.19262e-13 -1.93597e-13
</Section>

newXOutput 734

<Section columns = "stress_xx | stress_yy | stress_zz | stress_xy | stress_yz | stress_xz">
  1 7868.31 -0.00776825 5134.07 2.15092e-16 -9.67082e-14 1.75859e-15
  2 7868.31 -0.00776825 5134.07 5.76338e-17 -6.42781e-14 6.56316e-15
  3 7868.31 -0.00776825 5134.07 8.02735e-16 -1.79374e-13 -3.28158e-14
  4 7868.31 -0.00776825 5134.07 2.15092e-16 -5.83430e-14 -1.22470e-13
  5 7868.31 -0.00776825 5134.07 8.02735e-16 -9.67082e-14 8.79296e-15
  6 7868.31 -0.00776825 5134.07 2.15092e-16 -6.42781e-14 3.28158e-14
  7 7868.31 -0.00776825 5134.07 2.99585e-15 -1.79374e-13 -6.56316e-15
  8 7868.31 -0.00776825 5134.07 8.02735e-16 -5.83430e-14 -2.44940e-14
</Section>

newXOutput 735

<Section columns = "stress_xx | stress_yy | stress_zz | stress_xy | stress_yz | stress_xz">
  1 7868.72 -0.00776108 5136.93 3.18143e-15 -7.24725e-15 -2.61353e-14
  2 7868.72 -0.00776108 5136.93 3.18143e-15 -6.02558e-14 -5.52012e-14
  3 7868.72 -0.00776108 5136.93 5.31127e-15 -5.21523e-14 1.50892e-14
  4 7868.72 -0.00776108 5136.93 5.31127e-15 -7.06985e-14 -3.97048e-14
  5 7868.72 -0.00776108 5136.93 1.79472e-15 -6.78839e-15 -3.97048e-14
  6 7868.72 -0.00776108 5136.93 1.79472e-15 -5.85433e-14 -8.31545e-14
  7 7868.72 -0.00776108 5136.93 4.93970e-15 -2.83007e-14 -3.55525e-14
  8 7868.72 -0.00776108 5136.93 4.93970e-15 1.83168e-14 -1.44028e-13
</Section>

newXOutput 736

<Section columns = "stress_xx | stress_yy | stress_zz | stress_xy | stress_yz | stress_xz">
  1 7869.13 -0.00775393 5139.78 -1.59945e-15 -5.86820e-14 1.14381e-14
  2 7869.13 -0.00775393 5139.78 -1.91271e-15 -7.08311e-14 4.83479e-14
  3 7869.13 -0.00775393 5139.78 -2.57941e-15 -1.01059e-13 8.44230e-16
  4 7869.13 -0.00775393 5139.78 -3.74850e-15 -7.19163e-14 -1.02474e-13
  5 7869.13 -0.00775393 5139.78 -2.57941e-15 -7.19163e-14 1.19074e-14
  6 7869.13 -0.00775393 5139.78 -3.74850e-15 -1.20222e-13 7.27408e-14
  7 7869.13 -0.00775393 5139.78 -2.64339e-15 -1.28322e-13 2.59556e-15
  8 7869.13 -0.00775393 5139.78 -7.00651e-15 -1.73663e-13 -1.14381e-14
</Section>

newXOutput 737

<Section columns = "stress_xx | stress_yy | stress_zz | stress_xy | stress_yz | stress_xz">
  1 7869.54 -0.00774680 5142.63 6.75374e-15 1.71751e-13 1.48472e-14
  2 7869.54 -0.00774680 5142.63 6.44131e-15 4.60205e-14 1.88966e-14
  3 7869.54 -0.00774680 5142.63 1.55313e-14 3.90791e-13 -2.02388e-14
  4 7869.54 -0.00774680 5142.63 1.43653e-14 1.04712e-13 -8.53160e-14
  5 7869.54 -0.00774680 5142.63 1.53908e-15 1.71751e-13 2.88289e-14
  6 7869.54 -0.00774680 5142.63 3.73067e-16 4.60205e-14 7.10771e-14
  7 7869.54 -0.00774680 5142.63 9.21060e-15 3.90791e-13 3.19417e-14
  8 7869.54 -0.00774680 5142.63 4.85896e-15 1.04712e-13 1.09424e-13
</Section>

newXOutput 738

<Section columns = "stress_xx | stress_yy | stress_zz | stress_xy | stress_yz | stress_xz">
  1 7869.95 -0.00773969 5145.48 -3.95831e-15 -6.46082e-14 2.80142e-14
  2 7869.95 -0.00773969 5145.48 -3.66758e-15 -8.79659e-14 -7.38117e-15
  3 7869.95 -0.00773969 5145.48 -1.16524e-14 -2.02832e-13 7.07282e-14
  4 7869.95 -0.00773969 5145.48 -1.15745e-14 -1.85398e-13 9.86798e-14
  5 7869.95 -0.00773969 5145.48 -6.05050e-15 -5.77685e-14 1.40613e-14
  6 7869.95 -0.00773969 5145.48 -4.96546e-15 -6.24401e-14 -5.94540e-14
  7 7869.95 -0.00773969 5145.48 -1.09360e-14 -1.77306e-13 1.86553e-14
  8 7869.95 -0.00773969 5145.48 -1.06453e-14 -9.01340e-14 -9.56589e-14
</Section>

newXOutput 739

<Section columns = "stress_xx | stress_yy | stress_zz | stress_xy | stress_yz | stress_xz">
  1 7870.36 -0.00773260 5148.32 1.13758e-16 -6.80472e-14 1.20045e-14
  2 7870.36 -0.00773260 5148.32 4.24550e-16 -2.69012e-14 8.11650e-14
  3 7870.36 -0.00773260 5148.32 4.24550e-16 -2.18250e-13 3.21661e-15
  4 7870.36 -0.00773260 5148.32 1.58444e-15 -9.08292e-14 2.17481e-14
  5 7870.36 -0.00773260 5148.32 4.24550e-16 -7.48835e-14 1.20045e-14
  6 7870.36 -0.00773260 5148.32 1.58444e-15 -5.24143e-14 8.11650e-14
  7 7870.36 -0.00773260 5148.32 1.58444e-15 -2.43763e-13 3.21661e-15
  8 7870.36 -0.00773260 5148.32 5.91322e-15 -1.86045e-13 2.17481e-14
</Section>

newXOutput 740

<Section columns = "stress_xx | stress_yy | stress_zz | stress_xy | stress_yz | stress_xz">
  1 7870.76 -0.00772553 5151.16 1.03895e-30 1.50828e-13 1.20422e-14
  2 7870.76 -0.00772553 5151.16 6.11886e-30 1.60078e-13 4.34233e-16
  3 7870.76 -0.00772553 5151.16 6.44993e-30 2.66747e-13 -3.02404e-14
  4 7870.76 -0.00772553 5151.16 2.73207e-29 3.57562e-13 -1.53257e-13
  5 7870.76 -0.00772553 5151.16 -3.61107e-31 1.50371e-13 1.85245e-14
  6 7870.76 -0.00772553 5151.16 2.98265e-30 1.58370e-13 2.17117e-15
  7 7870.76 -0.00772553 5151.16 1.74706e-30 2.42955e-13 -6.04809e-15
  8 7870.76 -0.00772553 5151.16 1.75651e-29 2.68768e-13 -1.46775e-13
</Section>

newXOutput 741

<Section columns = "stress_xx | stress_yy | stress_zz | stress_xy | stress_yz | stress_xz">
  1 7871.16 -0.00771848 5154.00 2.42079e-15 6.70115e-14 -2.58137e-14
  2 7871.16 -0.00771848 5154.00 2.11163e-15 5.89322e-14 -5.45219e-14
  3 7871.16 -0.00771848 5154.00 9.03451e-15 2.50090e-13 1.49036e-14
  4 7871.16 -0.00771848 5154.00 7.88069e-15 2.19938e-13 -3.92161e-14
  5 7871.16 -0.00771848 5154.00 2.11163e-15 6.70115e-14 -3.92161e-14
  6 7871.16 -0.00771848 5154.00 9.57812e-16 5.89322e-14 -8.21312e-14
  7 7871.16 -0.00771848 5154.00 7.88069e-15 2.50090e-13 -3.51150e-14
  8 7871.16 -0.00771848 5154.00 3.57460e-15 2.19938e-13 -1.42255e-13
</Section>

newXOutput 742

<Section columns = "stress_xx | stress_yy | stress_zz | stress_xy | stress_yz | stress_xz">
  1 7871.56 -0.00771146 5156.83 -4.35124e-15 -9.47313e-14 -2.65097e-14
  2 7871.56 -0.00771146 5156.83 -4.35124e-15 -5.55205e-14 -9.33446e-14
  3 7871.56 -0.00771146 5156.83 -8.07065e-15 -2.16446e-13 1.46722e-14
  4 7871.56 -0.00771146 5156.83 -8.07065e-15 -6.60718e-14 -4.95680e-14
  5 7871.56 -0.00771146 5156.83 -2.89210e-15 -8.83625e-14 -3.98845e-14
  6 7871.56 -0.00771146 5156.83 -2.89210e-15 -3.17519e-14 -1.20897e-13
  7 7871.56 -0.00771146 5156.83 -2.62505e-15 -2.14740e-13 -3.52435e-14
  8 7871.56 -0.00771146 5156.83 -2.62505e-15 -5.97031e-14 -1.52395e-13
</Section>

newXOutput 743

<Section columns = "stress_xx | stress_yy | stress_zz | stress_xy | stress_yz | stress_xz">
  1 7871.96 -0.00770445 5159.65 1.99040e-15 1.39631e-13 1.19681e-14
  2 7871.96 -0.00770445 5159.65 1.99040e-15 1.87602e-13 4.31560e-16
  3 7871.96 -0.00770445 5159.65 4.10027e-15 3.10254e-13 -3.00543e-14
  4 7871.96 -0.00770445 5159.65 4.10027e-15 4.06986e-13 -1.52314e-13
  5 7871.96 -0.00770445 5159.65 4.10027e-15 1.33265e-13 1.84105e-14
  6 7871.96 -0.00770445 5159.65 4.10027e-15 1.63845e-13 2.15780e-15
  7 7871.96 -0.00770445 5159.65 8.44665e-15 3.08548e-13 -6.01086e-15
  8 7871.96 -0.00770445 5159.65 8.44665e-15 4.00621e-13 -1.45871e-13
</Section>

newXOutput 744

<Section columns = "stress_xx | stress_yy | stress_zz | stress_xy | stress_yz | stress_xz">
  1 7872.36 -0.00769746 5162.47 1.98519e-15 8.92332e-14 1.82573e-14
  2 7872.36 -0.00769746 5162.47 1.98519e-15 1.49821e-13 -4.24203e-14
  3 7872.36 -0.00769746 5162.47 4.08954e-15 1.49821e-13 3.47300e-14
  4 7872.36 -0.00769746 5162.47 4.08954e-15 2.45570e-13 -3.36379e-14
  5 7872.36 -0.00769746 5162.47 4.08954e-15 9.60524e-14 1.13665e-14
  6 7872.36 -0.00769746 5162.47 4.08954e-15 1.75271e-13 -6.81371e-14
  7 7872.36 -0.00769746 5162.47 8.42455e-15 1.75271e-13 9.01325e-15
  8 7872.36 -0.00769746 5162.47 8.42455e-15 3.40550e-13 -1.29614e-13
</Section>

newXOutput 745

<Section columns = "stress_xx | stress_yy | stress_zz | stress_xy | stress_yz | stress_xz">
  1 7872.76 -0.00769050 5165.29 4.24070e-15 3.91218e-14 1.18573e-14
  2 7872.76 -0.00769050 5165.29 3.93476e-15 -4.06221e-15 8.01693e-14
  3 7872.76 -0.00769050 5165.29 9.43472e-15 1.48561e-13 3.17715e-15
  4 7872.76 -0.00769050 5165.29 8.29294e-15 1.17700e-13 2.14813e-14
  5 7872.76 -0.00769050 5165.29 2.58402e-15 2.54901e-14 1.18573e-14
  6 7872.76 -0.00769050 5165.29 1.44223e-15 -5.49365e-14 8.01693e-14
  7 7872.76 -0.00769050 5165.29 7.93101e-15 9.76863e-14 3.17715e-15
  8 7872.76 -0.00769050 5165.29 3.66981e-15 -7.21656e-14 2.14813e-14
</Section>

newXOutput 746

<Section columns = "stress_xx | stress_yy | stress_zz | stress_xy | stress_yz | stress_xz">
  1 7873.15 -0.00768355 5168.10 2.50336e-15 -6.13488e-14 1.18946e-14
  2 7873.15 -0.00768355 5168.10 2.50336e-15 -7.80050e-15 4.28911e-16
  3 7873.15 -0.00768355 5168.10 6.04068e-15 -1.22211e-13 -2.98698e-14
  4 7873.15 -0.00768355 5168.10 6.04068e-15 -5.09297e-16 -1.51378e-13
  5 7873.15 -0.00768355 5168.10 6.04068e-15 -5.45364e-14 1.82974e-14
  6 7873.15 -0.00768355 5168.10 6.04068e-15 1.76240e-14 2.14455e-15
  7 7873.15 -0.00768355 5168.10 1.57420e-14 -9.67863e-14 -5.97395e-15
  8 7873.15 -0.00768355 5168.10 1.57420e-14 9.43762e-14 -1.44976e-13
</Section>

newXOutput 747

<Section columns = "stress_xx | stress_yy | stress_zz | stress_xy | stress_yz | stress_xz">
  1 7873.55 -0.00767663 5170.91 2.40345e-15 -9.58566e-14 -2.54976e-14
  2 7873.55 -0.00767663 5170.91 2.70780e-15 -1.72259e-13 -5.38542e-14
  3 7873.55 -0.00767663 5170.91 4.31508e-15 -1.72259e-13 1.47210e-14
  4 7873.55 -0.00767663 5170.91 5.45091e-15 -1.97048e-13 -3.87358e-14
  5 7873.55 -0.00767663 5170.91 -2.49993e-15 -8.90475e-14 -3.87358e-14
  6 7873.55 -0.00767663 5170.91 -1.36409e-15 -1.46847e-13 -8.11253e-14
  7 7873.55 -0.00767663 5170.91 -4.67512e-15 -1.46847e-13 -3.46849e-14
  8 7873.55 -0.00767663 5170.91 -4.36131e-16 -1.02210e-13 -1.40513e-13
</Section>

newXOutput 748

<Section columns = "stress_xx | stress_yy | stress_zz | stress_xy | stress_yz | stress_xz">
  1 7873.94 -0.00766972 5173.71 -5.25769e-16 6.83664e-14 -3.48960e-14
  2 7873.94 -0.00766972 5173.71 -5.25769e-16 2.91054e-14 -9.45363e-14
  3 7873.94 -0.00766972 5173.71 -1.96220e-15 2.49648e-13 -1.80161e-14
  4 7873.94 -0.00766972 5173.71 -1.96220e-15 2.11237e-13 -5.76722e-14
  5 7873.94 -0.00766972 5173.71 -1.96220e-15 7.47162e-14 -4.17305e-14
  6 7873.94 -0.00766972 5173.71 -1.96220e-15 5.28032e-14 -1.20043e-13
  7 7873.94 -0.00766972 5173.71 -7.32302e-15 2.51349e-13 -4.35229e-14
  8 7873.94 -0.00766972 5173.71 -7.32302e-15 2.17587e-13 -1.52865e-13
</Section>

newXOutput 749

<Section columns = "stress_xx | stress_yy | stress_zz | stress_xy | stress_yz | stress_xz">
  1 7874.33 -0.00766284 5176.51 1.10819e-16 -1.33044e-13 1.18217e-14
  2 7874.33 -0.00766284 5176.51 4.13581e-16 -9.04015e-14 4.26283e-16
  3 7874.33 -0.00766284 5176.51 4.13581e-16 -2.72755e-13 -2.96868e-14
  4 7874.33 -0.00766284 5176.51 1.54351e-15 -1.17633e-13 -1.50451e-13
  5 7874.33 -0.00766284 5176.51 4.13581e-16 -1.46193e-13 1.81854e-14
  6 7874.33 -0.00766284 5176.51 1.54351e-15 -1.39474e-13 2.13142e-15
  7 7874.33 -0.00766284 5176.51 1.54351e-15 -2.99842e-13 -5.93736e-15
  8 7874.33 -0.00766284 5176.51 5.76045e-15 -2.18724e-13 -1.44088e-13
</Section>

newXOutput 750

<Section columns = "stress_xx | stress_yy | stress_zz | stress_xy | stress_yz | stress_xz">
  1 7874.72 -0.00765597 5179.31 4.12506e-16 1.01903e-14 2.05256e-14
  2 7874.72 -0.00765597 5179.31 1.10531e-16 3.54811e-14 -3.26041e-14
  3 7874.72 -0.00765597 5179.31 1.53949e-15 8.15856e-14 4.36037e-14
  4 7874.72 -0.00765597 5179.31 4.12506e-16 1.71950e-13 1.47367e-15
  5 7874.72 -0.00765597 5179.31 1.53949e-15 3.84676e-15 2.05256e-14
  6 7874.72 -0.00765597 5179.31 4.12506e-16 1.18067e-14 -3.26041e-14
  7 7874.72 -0.00765597 5179.31 5.74547e-15 7.98859e-14 4.36037e-14
  8 7874.72 -0.00765597 5179.31 1.53949e-15 1.65607e-13 1.47367e-15
</Section>

newXOutput 751

<Section columns = "stress_xx | stress_yy | stress_zz | stress_xy | stress_yz | stress_xz">
  1 7875.11 -0.00764913 5182.10 7.59403e-31 -1.42659e-14 -3.37197e-14
  2 7875.11 -0.00764913 5182.10 2.83413e-30 2.02954e-14 -1.25844e-13
  3 7875.11 -0.00764913 5182.10 3.20994e-30 -9.70771e-15 -4.97914e-14
  4 7875.11 -0.00764913 5182.10 1.19797e-29 1.15257e-13 -1.85824e-13
  5 7875.11 -0.00764913 5182.10 -1.72326e-31 -2.74019e-14 -3.37197e-14
  6 7875.11 -0.00764913 5182.10 -6.43128e-31 -2.87289e-14 -1.25844e-13
  7 7875.11 -0.00764913 5182.10 7.59403e-31 -3.67682e-14 -4.97914e-14
  8 7875.11 -0.00764913 5182.10 2.83413e-30 1.42659e-14 -1.85824e-13
</Section>

newXOutput 752

<Section columns = "stress_xx | stress_yy | stress_zz | stress_xy | stress_yz | stress_xz">
  1 7875.49 -0.00764230 5184.89 -1.42389e-15 1.98706e-13 1.42307e-14
  2 7875.49 -0.00764230 5184.89 -1.42389e-15 1.94150e-13 9.68377e-15
  3 7875.49 -0.00764230 5184.89 -2.06324e-15 3.54279e-13 -2.02453e-14
  4 7875.49 -0.00764230 5184.89 -2.06324e-15 3.85200e-13 -1.14973e-13
  5 7875.49 -0.00764230 5184.89 -2.06324e-15 1.85576e-13 2.73343e-14
  6 7875.49 -0.00764230 5184.89 -2.06324e-15 1.45150e-13 3.66775e-14
  7 7875.49 -0.00764230 5184.89 -1.00346e-15 3.27232e-13 2.86580e-14
  8 7875.49 -0.00764230 5184.89 -1.00346e-15 2.84259e-13 -1.42307e-14
</Section>

newXOutput 753

<Section columns = "stress_xx | stress_yy | stress_zz | stress_xy | stress_yz | stress_xz">
  1 7875.88 -0.00763550 5187.67 -1.42019e-15 -1.83848e-13 -2.51868e-14
  2 7875.88 -0.00763550 5187.67 -1.42019e-15 -1.71884e-13 -5.31977e-14
  3 7875.88 -0.00763550 5187.67 -2.05789e-15 -3.23903e-13 1.45416e-14
  4 7875.88 -0.00763550 5187.67 -2.05789e-15 -1.49465e-13 -3.82637e-14
  5 7875.88 -0.00763550 5187.67 -2.05789e-15 -1.90637e-13 -3.82637e-14
  6 7875.88 -0.00763550 5187.67 -2.05789e-15 -1.97221e-13 -8.01365e-14
  7 7875.88 -0.00763550 5187.67 -1.00086e-15 -3.49240e-13 -3.42621e-14
  8 7875.88 -0.00763550 5187.67 -1.00086e-15 -2.44022e-13 -1.38800e-13
</Section>

newXOutput 754

<Section columns = "stress_xx | stress_yy | stress_zz | stress_xy | stress_yz | stress_xz">
  1 7876.26 -0.00762871 5190.45 1.09388e-16 3.33187e-15 1.25980e-14
  2 7876.26 -0.00762871 5190.45 4.08242e-16 -2.04621e-14 4.70165e-14
  3 7876.26 -0.00762871 5190.45 4.08242e-16 -2.84895e-14 -2.85717e-14
  4 7876.26 -0.00762871 5190.45 1.52358e-15 1.64484e-14 -1.06631e-13
  5 7876.26 -0.00762871 5190.45 4.08242e-16 1.64484e-14 1.93493e-14
  6 7876.26 -0.00762871 5190.45 1.52358e-15 2.84895e-14 7.22126e-14
  7 7876.26 -0.00762871 5190.45 1.52358e-15 -1.46911e-15 -3.37563e-15
  8 7876.26 -0.00762871 5190.45 5.68608e-15 1.17290e-13 -1.25980e-14
</Section>

newXOutput 755

<Section columns = "stress_xx | stress_yy | stress_zz | stress_xy | stress_yz | stress_xz">
  1 7876.64 -0.00762195 5193.22 -2.89255e-15 -6.59275e-14 1.41440e-14
  2 7876.64 -0.00762195 5193.22 -2.89255e-15 -1.32143e-13 9.62473e-15
  3 7876.64 -0.00762195 5193.22 -5.90089e-15 -1.40166e-13 -2.01219e-14
  4 7876.64 -0.00762195 5193.22 -5.90089e-15 -9.80212e-14 -1.14272e-13
  5 7876.64 -0.00762195 5193.22 -5.90089e-15 -6.63818e-14 2.71677e-14
  6 7876.64 -0.00762195 5193.22 -5.90089e-15 -1.33839e-13 3.64539e-14
  7 7876.64 -0.00762195 5193.22 -9.15009e-15 -1.63782e-13 2.84833e-14
  8 7876.64 -0.00762195 5193.22 -9.15009e-15 -1.86157e-13 -1.41440e-14
</Section>

newXOutput 756

<Section columns = "stress_xx | stress_yy | stress_zz | stress_xy | stress_yz | stress_xz">
  1 7877.02 -0.00761520 5195.99 -1.92415e-15 -1.30156e-13 1.78149e-14
  2 7877.02 -0.00761520 5195.99 -1.92415e-15 -1.59465e-13 -4.13925e-14
  3 7877.02 -0.00761520 5195.99 -3.96379e-15 -1.89394e-13 3.38886e-14
  4 7877.02 -0.00761520 5195.99 -3.96379e-15 -2.25027e-13 -3.28229e-14
  5 7877.02 -0.00761520 5195.99 -3.96379e-15 -1.36481e-13 1.10911e-14
  6 7877.02 -0.00761520 5195.99 -3.96379e-15 -1.83069e-13 -6.64862e-14
  7 7877.02 -0.00761520 5195.99 -8.16551e-15 -1.91088e-13 8.79486e-15
  8 7877.02 -0.00761520 5195.99 -8.16551e-15 -2.31352e-13 -1.26474e-13
</Section>

newXOutput 757

<Section columns = "stress_xx | stress_yy | stress_zz | stress_xy | stress_yz | stress_xz">
  1 7877.40 -0.00760847 5198.76 6.00744e-15 1.67166e-13 -3.33100e-14
  2 7877.40 -0.00760847 5198.76 6.00744e-15 1.10643e-13 -1.24315e-13
  3 7877.40 -0.00760847 5198.76 1.00292e-14 3.68136e-13 -4.91864e-14
  4 7877.40 -0.00760847 5198.76 1.00292e-14 3.16633e-13 -1.83566e-13
  5 7877.40 -0.00760847 5198.76 3.38894e-15 1.87039e-13 -3.33100e-14
  6 7877.40 -0.00760847 5198.76 3.38894e-15 1.84808e-13 -1.24315e-13
  7 7877.40 -0.00760847 5198.76 9.32756e-15 4.20402e-13 -4.91864e-14
  8 7877.40 -0.00760847 5198.76 9.32756e-15 5.11695e-13 -1.83566e-13
</Section>

newXOutput 758

<Section columns = "stress_xx | stress_yy | stress_zz | stress_xy | stress_yz | stress_xz">
  1 7877.78 -0.00760176 5201.52 1.89212e-15 -3.74048e-14 1.40579e-14
  2 7877.78 -0.00760176 5201.52 2.18789e-15 -7.13931e-14 9.56620e-15
  3 7877.78 -0.00760176 5201.52 8.82020e-16 4.42904e-15 -1.99995e-14
  4 7877.78 -0.00760176 5201.52 1.98587e-15 -9.65234e-14 -1.13577e-13
  5 7877.78 -0.00760176 5201.52 8.82020e-16 -2.38605e-14 2.70025e-14
  6 7877.78 -0.00760176 5201.52 1.98587e-15 -2.08450e-14 3.62322e-14
  7 7877.78 -0.00760176 5201.52 1.63597e-15 5.49771e-14 2.83101e-14
  8 7877.78 -0.00760176 5201.52 5.75560e-15 9.21247e-14 -1.40579e-14
</Section>

newXOutput 759

<Section columns = "stress_xx | stress_yy | stress_zz | stress_xy | stress_yz | stress_xz">
  1 7878.15 -0.00759507 5204.27 -9.53499e-16 -3.52933e-14 -2.48812e-14
  2 7878.15 -0.00759507 5204.27 -9.53499e-16 -5.59317e-14 -5.25524e-14
  3 7878.15 -0.00759507 5204.27 -1.90700e-15 -9.38241e-14 1.43652e-14
  4 7878.15 -0.00759507 5204.27 -1.90700e-15 -6.73238e-14 -3.77995e-14
  5 7878.15 -0.00759507 5204.27 -1.90700e-15 -4.20622e-14 -3.77995e-14
  6 7878.15 -0.00759507 5204.27 -1.90700e-15 -8.11933e-14 -7.91643e-14
  7 7878.15 -0.00759507 5204.27 -9.53499e-16 -1.19086e-13 -3.38465e-14
  8 7878.15 -0.00759507 5204.27 -9.53499e-16 -1.61601e-13 -1.37117e-13
</Section>

newXOutput 760

<Section columns = "stress_xx | stress_yy | stress_zz | stress_xy | stress_yz | stress_xz">
  1 7878.52 -0.00758841 5207.03 5.85110e-15 2.85336e-13 1.24453e-14
  2 7878.52 -0.00758841 5207.03 5.55685e-15 1.48488e-13 4.64466e-14
  3 7878.52 -0.00758841 5207.03 1.27255e-14 6.32843e-13 -2.82254e-14
  4 7878.52 -0.00758841 5207.03 1.16273e-14 4.10675e-13 -1.05339e-13
  5 7878.52 -0.00758841 5207.03 -4.52557e-16 2.78117e-13 1.91148e-14
  6 7878.52 -0.00758841 5207.03 -1.55073e-15 1.21548e-13 7.13372e-14
  7 7878.52 -0.00758841 5207.03 1.57598e-15 5.84036e-13 -3.33472e-15
  8 7878.52 -0.00758841 5207.03 -2.52245e-15 2.28525e-13 -1.24453e-14
</Section>

newXOutput 761

<Section columns = "stress_xx | stress_yy | stress_zz | stress_xy | stress_yz | stress_xz">
  1 7878.90 -0.00758176 5209.78 -1.45695e-15 -2.95156e-14 1.39726e-14
  2 7878.90 -0.00758176 5209.78 -1.45695e-15 -1.07618e-13 9.50816e-15
  3 7878.90 -0.00758176 5209.78 -3.79438e-15 -7.77627e-14 -1.98782e-14
  4 7878.90 -0.00758176 5209.78 -3.79438e-15 -1.58401e-13 -1.12888e-13
  5 7878.90 -0.00758176 5209.78 -3.79438e-15 -1.64443e-14 2.68386e-14
  6 7878.90 -0.00758176 5209.78 -3.79438e-15 -5.88351e-14 3.60124e-14
  7 7878.90 -0.00758176 5209.78 -8.02901e-15 -5.08354e-14 2.81383e-14
  8 7878.90 -0.00758176 5209.78 -8.02901e-15 -5.79069e-14 -1.39726e-14
</Section>

newXOutput 762

<Section columns = "stress_xx | stress_yy | stress_zz | stress_xy | stress_yz | stress_xz">
  1 7879.27 -0.00757512 5212.52 -3.99893e-16 4.16361e-15 -1.22838e-14
  2 7879.27 -0.00757512 5212.52 -1.07151e-16 -2.22976e-14 -4.04764e-14
  3 7879.27 -0.00757512 5212.52 -1.49242e-15 1.55388e-14 2.60355e-14
  4 7879.27 -0.00757512 5212.52 -3.99893e-16 -8.32160e-14 -2.98751e-15
  5 7879.27 -0.00757512 5212.52 -1.49242e-15 1.76813e-14 -1.84813e-14
  6 7879.27 -0.00757512 5212.52 -3.99893e-16 2.81510e-14 -4.21370e-14
  7 7879.27 -0.00757512 5212.52 -5.56979e-15 6.59874e-14 2.90608e-15
  8 7879.27 -0.00757512 5212.52 -1.49242e-15 1.05061e-13 -9.18501e-15
</Section>

newXOutput 763

<Section columns = "stress_xx | stress_yy | stress_zz | stress_xy | stress_yz | stress_xz">
  1 7879.64 -0.00756851 5215.26 4.40254e-16 1.86827e-14 2.14254e-14
  2 7879.64 -0.00756851 5215.26 4.40254e-16 3.69734e-14 7.99605e-14
  3 7879.64 -0.00756851 5215.26 1.17966e-16 -8.44439e-16 5.74091e-15
  4 7879.64 -0.00756851 5215.26 1.17966e-16 1.19078e-13 2.14254e-14
  5 7879.64 -0.00756851 5215.26 1.17966e-16 1.19272e-14 2.14254e-14
  6 7879.64 -0.00756851 5215.26 1.17966e-16 1.17615e-14 7.99605e-14
  7 7879.64 -0.00756851 5215.26 3.16088e-17 -2.60563e-14 5.74091e-15
  8 7879.64 -0.00756851 5215.26 3.16088e-17 2.49856e-14 2.14254e-14
</Section>

newXOutput 764

<Section columns = "stress_xx | stress_yy | stress_zz | stress_xy | stress_yz | stress_xz">
  1 7880.00 -0.00756192 5218.00 -3.97842e-16 1.43403e-14 1.38881e-14
  2 7880.00 -0.00756192 5218.00 -1.06601e-16 -1.95478e-14 9.45061e-15
  3 7880.00 -0.00756192 5218.00 -1.48477e-15 1.82515e-14 -1.97579e-14
  4 7880.00 -0.00756192 5218.00 -3.97842e-16 -8.24032e-14 -1.12204e-13
  5 7880.00 -0.00756192 5218.00 -1.48477e-15 2.78447e-14 2.66762e-14
  6 7880.00 -0.00756192 5218.00 -3.97842e-16 3.08512e-14 3.57944e-14
  7 7880.00 -0.00756192 5218.00 -5.54123e-15 6.86505e-14 2.79680e-14
  8 7880.00 -0.00756192 5218.00 -1.48477e-15 1.05689e-13 -1.38881e-14
</Section>

newXOutput 765

<Section columns = "stress_xx | stress_yy | stress_zz | stress_xy | stress_yz | stress_xz">
  1 7880.37 -0.00755534 5220.73 -3.68406e-31 -4.21642e-14 -2.30408e-14
  2 7880.37 -0.00755534 5220.73 -9.68942e-31 -4.90786e-14 -5.15052e-14
  3 7880.37 -0.00755534 5220.73 -9.87141e-32 -4.90786e-14 -1.45451e-14
  4 7880.37 -0.00755534 5220.73 -2.59627e-31 -2.32739e-14 -4.50431e-14
  5 7880.37 -0.00755534 5220.73 -3.68406e-31 -4.21642e-14 -2.96431e-14
  6 7880.37 -0.00755534 5220.73 -9.68942e-31 -4.90786e-14 -7.61453e-14
  7 7880.37 -0.00755534 5220.73 -9.87141e-32 -4.90786e-14 -3.91852e-14
  8 7880.37 -0.00755534 5220.73 -2.59627e-31 -2.32739e-14 -1.37001e-13
</Section>

newXOutput 766

<Section columns = "stress_xx | stress_yy | stress_zz | stress_xy | stress_yz | stress_xz">
  1 7880.74 -0.00754879 5223.46 9.56158e-31 1.49798e-13 -2.37076e-14
  2 7880.74 -0.00754879 5223.46 3.56843e-30 1.58847e-13 -8.84780e-14
  3 7880.74 -0.00754879 5223.46 1.83063e-30 3.09896e-13 -1.47069e-14
  4 7880.74 -0.00754879 5223.46 6.83200e-30 3.95252e-13 -5.48869e-14
  5 7880.74 -0.00754879 5223.46 2.19787e-30 1.49798e-13 -3.02966e-14
  6 7880.74 -0.00754879 5223.46 8.20256e-30 1.58847e-13 -1.13068e-13
  7 7880.74 -0.00754879 5223.46 6.46476e-30 3.09896e-13 -3.92973e-14
  8 7880.74 -0.00754879 5223.46 2.41268e-29 3.95252e-13 -1.46659e-13
</Section>

newXOutput 767

<Section columns = "stress_xx | stress_yy | stress_zz | stress_xy | stress_yz | stress_xz">
  1 7881.10 -0.00754225 5226.19 -1.36985e-15 1.95412e-14 1.38042e-14
  2 7881.10 -0.00754225 5226.19 -1.36985e-15 3.77134e-14 9.39354e-15
  3 7881.10 -0.00754225 5226.19 -1.98494e-15 4.56895e-14 -1.96385e-14
  4 7881.10 -0.00754225 5226.19 -1.98494e-15 1.61080e-13 -1.11527e-13
  5 7881.10 -0.00754225 5226.19 -1.98494e-15 1.32506e-14 2.65151e-14
  6 7881.10 -0.00754225 5226.19 -1.98494e-15 1.42365e-14 3.55783e-14
  7 7881.10 -0.00754225 5226.19 -9.65376e-16 4.40040e-14 2.77991e-14
  8 7881.10 -0.00754225 5226.19 -9.65376e-16 1.54789e-13 -1.38042e-14
</Section>

newXOutput 768

<Section columns = "stress_xx | stress_yy | stress_zz | stress_xy | stress_yz | stress_xz">
  1 7881.46 -0.00753573 5228.91 -1.47186e-15 -8.57158e-14 -1.45378e-14
  2 7881.46 -0.00753573 5228.91 -1.76013e-15 -1.38851e-13 -4.89533e-14
  3 7881.46 -0.00753573 5228.91 -2.37365e-15 -1.38851e-13 1.67574e-14
  4 7881.46 -0.00753573 5228.91 -3.44949e-15 -2.08322e-13 -3.64074e-14
  5 7881.46 -0.00753573 5228.91 -2.37365e-15 -8.57158e-14 -2.72231e-14
  6 7881.46 -0.00753573 5228.91 -3.44949e-15 -1.38851e-13 -7.50853e-14
  7 7881.46 -0.00753573 5228.91 -2.43253e-15 -1.38851e-13 -3.05848e-14
  8 7881.46 -0.00753573 5228.91 -6.44760e-15 -2.08322e-13 -1.33933e-13
</Section>

newXOutput 769

<Section columns = "stress_xx | stress_yy | stress_zz | stress_xy | stress_yz | stress_xz">
  1 7881.82 -0.00752924 5231.62 3.98556e-15 3.09710e-14 2.11675e-14
  2 7881.82 -0.00752924 5231.62 3.69803e-15 2.46541e-15 7.89981e-14
  3 7881.82 -0.00752924 5231.62 8.86708e-15 1.53292e-13 5.67181e-15
  4 7881.82 -0.00752924 5231.62 7.79399e-15 1.49924e-13 2.11675e-14
  5 7881.82 -0.00752924 5231.62 2.42855e-15 2.42353e-14 2.11675e-14
  6 7881.82 -0.00752924 5231.62 1.35546e-15 -2.26723e-14 7.89981e-14
  7 7881.82 -0.00752924 5231.62 7.45384e-15 1.28154e-13 5.67181e-15
  8 7881.82 -0.00752924 5231.62 3.44902e-15 5.61087e-14 2.11675e-14
</Section>

newXOutput 770

<Section columns = "stress_xx | stress_yy | stress_zz | stress_xy | stress_yz | stress_xz">
  1 7882.18 -0.00752275 5234.33 3.71003e-15 -9.67369e-14 1.37210e-14
  2 7882.18 -0.00752275 5234.33 3.71003e-15 -7.21450e-14 9.33694e-15
  3 7882.18 -0.00752275 5234.33 1.07425e-14 -1.47521e-13 -1.95202e-14
  4 7882.18 -0.00752275 5234.33 1.07425e-14 -8.14845e-14 -1.10855e-13
  5 7882.18 -0.00752275 5234.33 4.32042e-15 -1.03469e-13 2.63553e-14
  6 7882.18 -0.00752275 5234.33 4.32042e-15 -9.72704e-14 3.53639e-14
  7 7882.18 -0.00752275 5234.33 9.73075e-15 -1.72647e-13 2.76317e-14
  8 7882.18 -0.00752275 5234.33 9.73075e-15 -1.75254e-13 -1.37210e-14
</Section>

newXOutput 771

<Section columns = "stress_xx | stress_yy | stress_zz | stress_xy | stress_yz | stress_xz">
  1 7882.54 -0.00751629 5237.04 3.90777e-16 1.49069e-14 -2.27639e-14
  2 7882.54 -0.00751629 5237.04 1.04708e-16 -1.71828e-14 -5.08862e-14
  3 7882.54 -0.00751629 5237.04 1.45840e-15 5.01960e-14 -1.43703e-14
  4 7882.54 -0.00751629 5237.04 3.90777e-16 3.73316e-14 -4.45018e-14
  5 7882.54 -0.00751629 5237.04 1.45840e-15 2.79142e-14 -2.92868e-14
  6 7882.54 -0.00751629 5237.04 3.90777e-16 3.13612e-14 -7.52302e-14
  7 7882.54 -0.00751629 5237.04 5.44281e-15 7.69914e-14 -3.87143e-14
  8 7882.54 -0.00751629 5237.04 1.45840e-15 1.37333e-13 -1.35355e-13
</Section>

newXOutput 772

<Section columns = "stress_xx | stress_yy | stress_zz | stress_xy | stress_yz | stress_xz">
  1 7882.90 -0.00750985 5239.75 -1.74224e-15 9.57492e-14 -2.34229e-14
  2 7882.90 -0.00750985 5239.75 -1.45690e-15 3.36126e-14 -8.74155e-14
  3 7882.90 -0.00750985 5239.75 -3.41443e-15 1.38610e-13 -1.45303e-14
  4 7882.90 -0.00750985 5239.75 -2.34952e-15 3.92723e-14 -5.42278e-14
  5 7882.90 -0.00750985 5239.75 -3.41443e-15 1.02024e-13 -2.99328e-14
  6 7882.90 -0.00750985 5239.75 -2.34952e-15 5.70320e-14 -1.11711e-13
  7 7882.90 -0.00750985 5239.75 -6.38207e-15 1.40291e-13 -3.88254e-14
  8 7882.90 -0.00750985 5239.75 -2.40780e-15 4.55475e-14 -1.44898e-13
</Section>

newXOutput 773

<Section columns = "stress_xx | stress_yy | stress_zz | stress_xy | stress_yz | stress_xz">
  1 7883.25 -0.00750342 5242.45 3.88789e-16 -1.78113e-14 1.36386e-14
  2 7883.25 -0.00750342 5242.45 1.04176e-16 -3.38816e-14 9.28082e-15
  3 7883.25 -0.00750342 5242.45 1.45098e-15 4.13840e-14 -1.94029e-14
  4 7883.25 -0.00750342 5242.45 3.88789e-16 3.28161e-14 -1.10189e-13
  5 7883.25 -0.00750342 5242.45 1.45098e-15 -1.10888e-14 2.61969e-14
  6 7883.25 -0.00750342 5242.45 3.88789e-16 -8.79306e-15 3.51514e-14
  7 7883.25 -0.00750342 5242.45 5.41514e-15 6.64726e-14 2.74656e-14
  8 7883.25 -0.00750342 5242.45 1.45098e-15 1.26448e-13 -1.36386e-14
</Section>

newXOutput 774

<Section columns = "stress_xx | stress_yy | stress_zz | stress_xy | stress_yz | stress_xz">
  1 7883.61 -0.00749701 5245.14 6.64516e-31 -1.39029e-13 -1.43635e-14
  2 7883.61 -0.00749701 5245.14 -1.45801e-30 -1.15182e-13 -4.83664e-14
  3 7883.61 -0.00749701 5245.14 4.13927e-30 -3.40869e-13 1.65565e-14
  4 7883.61 -0.00749701 5245.14 -2.02326e-30 -2.51872e-13 -3.59709e-14
  5 7883.61 -0.00749701 5245.14 -9.50275e-31 -1.39029e-13 -2.68967e-14
  6 7883.61 -0.00749701 5245.14 -4.01538e-30 -1.15182e-13 -7.41850e-14
  7 7883.61 -0.00749701 5245.14 -1.88721e-30 -3.40869e-13 -3.02181e-14
  8 7883.61 -0.00749701 5245.14 -1.15675e-29 -2.51872e-13 -1.32327e-13
</Section>

newXOutput 775

<Section columns = "stress_xx | stress_yy | stress_zz | stress_xy | stress_yz | stress_xz">
  1 7883.96 -0.00749063 5247.83 -3.86816e-16 8.44705e-15 -3.21216e-14
  2 7883.96 -0.00749063 5247.83 -1.03647e-16 3.40433e-14 -1.19879e-13
  3 7883.96 -0.00749063 5247.83 -1.44362e-15 -3.55275e-15 -4.74316e-14
  4 7883.96 -0.00749063 5247.83 -3.86816e-16 1.17652e-13 -1.77017e-13
  5 7883.96 -0.00749063 5247.83 -1.44362e-15 1.73117e-15 -3.21216e-14
  6 7883.96 -0.00749063 5247.83 -3.86816e-16 8.97927e-15 -1.19879e-13
  7 7883.96 -0.00749063 5247.83 -5.38765e-15 -2.86168e-14 -4.74316e-14
  8 7883.96 -0.00749063 5247.83 -1.44362e-15 2.41121e-14 -1.77017e-13
</Section>

newXOutput 776

<Section columns = "stress_xx | stress_yy | stress_zz | stress_xy | stress_yz | stress_xz">
  1 7884.31 -0.00748425 5250.52 3.85834e-16 7.74919e-14 -9.62878e-15
  2 7884.31 -0.00748425 5250.52 1.03384e-16 1.01315e-13 3.01262e-15
  3 7884.31 -0.00748425 5250.52 1.43995e-15 2.89204e-13 -4.62707e-15
  4 7884.31 -0.00748425 5250.52 3.85834e-16 3.78113e-13 -1.05600e-13
  5 7884.31 -0.00748425 5250.52 1.43995e-15 7.74919e-14 -9.19619e-15
  6 7884.31 -0.00748425 5250.52 3.85834e-16 1.01315e-13 2.54991e-14
  7 7884.31 -0.00748425 5250.52 5.37398e-15 2.89204e-13 -3.01262e-15
  8 7884.31 -0.00748425 5250.52 1.43995e-15 3.78113e-13 -2.16793e-14
</Section>

newXOutput 777

<Section columns = "stress_xx | stress_yy | stress_zz | stress_xy | stress_yz | stress_xz">
  1 7884.66 -0.00747790 5253.21 -3.84856e-16 -1.39664e-13 -2.24916e-14
  2 7884.66 -0.00747790 5253.21 -1.03122e-16 -1.23175e-13 -5.02775e-14
  3 7884.66 -0.00747790 5253.21 -1.43630e-15 -2.65475e-13 -1.41984e-14
  4 7884.66 -0.00747790 5253.21 -3.84856e-16 -2.33562e-13 -4.39695e-14
  5 7884.66 -0.00747790 5253.21 -1.43630e-15 -1.45924e-13 -2.89365e-14
  6 7884.66 -0.00747790 5253.21 -3.84856e-16 -1.46538e-13 -7.43303e-14
  7 7884.66 -0.00747790 5253.21 -5.36035e-15 -2.67153e-13 -3.82512e-14
  8 7884.66 -0.00747790 5253.21 -1.43630e-15 -2.39822e-13 -1.33736e-13
</Section>

newXOutput 778

<Section columns = "stress_xx | stress_yy | stress_zz | stress_xy | stress_yz | stress_xz">
  1 7885.01 -0.00747157 5255.89 2.09975e-15 1.10152e-13 1.20023e-14
  2 7885.01 -0.00747157 5255.89 1.53771e-15 1.15795e-13 4.47933e-14
  3 7885.01 -0.00747157 5255.89 4.79541e-15 3.03501e-13 -2.72207e-14
  4 7885.01 -0.00747157 5255.89 2.69784e-15 2.73279e-13 -1.01589e-13
  5 7885.01 -0.00747157 5255.89 4.79541e-15 1.16858e-13 1.84344e-14
  6 7885.01 -0.00747157 5255.89 2.69784e-15 1.40823e-13 6.87980e-14
  7 7885.01 -0.00747157 5255.89 1.16322e-14 3.28528e-13 -3.21602e-15
  8 7885.01 -0.00747157 5255.89 3.80402e-15 3.66683e-13 -1.20023e-14
</Section>

newXOutput 779

<Section columns = "stress_xx | stress_yy | stress_zz | stress_xy | stress_yz | stress_xz">
  1 7885.35 -0.00746525 5258.56 -1.43122e-15 1.15687e-13 3.13357e-14
  2 7885.35 -0.00746525 5258.56 -1.71153e-15 6.90902e-14 1.39556e-14
  3 7885.35 -0.00746525 5258.56 -2.30810e-15 2.27110e-13 1.39556e-14
  4 7885.35 -0.00746525 5258.56 -3.35423e-15 1.00501e-13 -9.99964e-14
  5 7885.35 -0.00746525 5258.56 -2.30810e-15 1.16136e-13 3.77549e-14
  6 7885.35 -0.00746525 5258.56 -3.35423e-15 7.07659e-14 3.79123e-14
  7 7885.35 -0.00746525 5258.56 -2.36536e-15 2.50450e-13 3.79123e-14
  8 7885.35 -0.00746525 5258.56 -6.26956e-15 1.87605e-13 -1.05886e-14
</Section>

newXOutput 780

<Section columns = "stress_xx | stress_yy | stress_zz | stress_xy | stress_yz | stress_xz">
  1 7885.70 -0.00745895 5261.23 3.81942e-16 2.49428e-14 -1.41921e-14
  2 7885.70 -0.00745895 5261.23 1.02341e-16 -1.44007e-14 -4.77892e-14
  3 7885.70 -0.00745895 5261.23 1.42543e-15 5.26825e-14 1.63589e-14
  4 7885.70 -0.00745895 5261.23 3.81942e-16 3.78931e-14 -3.55416e-14
  5 7885.70 -0.00745895 5261.23 1.42543e-15 3.78931e-14 -2.65757e-14
  6 7885.70 -0.00745895 5261.23 3.81942e-16 3.39303e-14 -7.32997e-14
  7 7885.70 -0.00745895 5261.23 5.31976e-15 7.93603e-14 -2.98574e-14
  8 7885.70 -0.00745895 5261.23 1.42543e-15 1.37456e-13 -1.30748e-13
</Section>

newXOutput 781

<Section columns = "stress_xx | stress_yy | stress_zz | stress_xy | stress_yz | stress_xz">
  1 7886.04 -0.00745267 5263.90 0.00000 -1.08213e-14 -3.17385e-14
  2 7886.04 -0.00745267 5263.90 0.00000 -2.89956e-15 -1.18450e-13
  3 7886.04 -0.00745267 5263.90 0.00000 -4.03857e-14 -4.68660e-14
  4 7886.04 -0.00745267 5263.90 0.00000 -1.08213e-14 -1.74906e-13
  5 7886.04 -0.00745267 5263.90 0.00000 -1.08213e-14 -3.17385e-14
  6 7886.04 -0.00745267 5263.90 0.00000 -2.89956e-15 -1.18450e-13
  7 7886.04 -0.00745267 5263.90 0.00000 -4.03857e-14 -4.68660e-14
  8 7886.04 -0.00745267 5263.90 0.00000 -1.08213e-14 -1.74906e-13
</Section>

newXOutput 782

<Section columns = "stress_xx | stress_yy | stress_zz | stress_xy | stress_yz | stress_xz">
  1 7886.39 -0.00744640 5266.57 1.01825e-16 1.08681e-14 -9.51405e-15
  2 7886.39 -0.00744640 5266.57 3.80015e-16 4.30700e-14 2.97672e-15
  3 7886.39 -0.00744640 5266.57 3.80015e-16 5.60216e-15 -4.57194e-15
  4 7886.39 -0.00744640 5266.57 1.41824e-15 1.51373e-13 -1.04342e-13
  5 7886.39 -0.00744640 5266.57 3.80015e-16 1.08681e-14 -9.08661e-15
  6 7886.39 -0.00744640 5266.57 1.41824e-15 4.30700e-14 2.51953e-14
  7 7886.39 -0.00744640 5266.57 1.41824e-15 5.60216e-15 -2.97672e-15
  8 7886.39 -0.00744640 5266.57 5.29293e-15 1.51373e-13 -2.14209e-14
</Section>

newXOutput 783

<Section columns = "stress_xx | stress_yy | stress_zz | stress_xy | stress_yz | stress_xz">
  1 7886.73 -0.00744016 5269.23 -1.79587e-15 -4.47435e-14 -2.22238e-14
  2 7886.73 -0.00744016 5269.23 -1.79587e-15 -8.95770e-14 -4.96789e-14
  3 7886.73 -0.00744016 5269.23 -3.69954e-15 -1.64476e-13 -1.40294e-14
  4 7886.73 -0.00744016 5269.23 -3.69954e-15 -2.03904e-13 -4.34460e-14
  5 7886.73 -0.00744016 5269.23 -3.69954e-15 -4.47435e-14 -2.85920e-14
  6 7886.73 -0.00744016 5269.23 -3.69954e-15 -8.95770e-14 -7.34453e-14
  7 7886.73 -0.00744016 5269.23 -7.62114e-15 -1.64476e-13 -3.77957e-14
  8 7886.73 -0.00744016 5269.23 -7.62114e-15 -2.03904e-13 -1.32143e-13
</Section>

newXOutput 784

<Section columns = "stress_xx | stress_yy | stress_zz | stress_xy | stress_yz | stress_xz">
  1 7887.07 -0.00743393 5271.88 3.45854e-15 3.79581e-13 1.18595e-14
  2 7887.07 -0.00743393 5271.88 3.45854e-15 2.96360e-13 4.42604e-14
  3 7887.07 -0.00743393 5271.88 7.12468e-15 7.75058e-13 -2.68968e-14
  4 7887.07 -0.00743393 5271.88 7.12468e-15 6.47392e-13 -1.00380e-13
  5 7887.07 -0.00743393 5271.88 9.26714e-16 3.79133e-13 1.82151e-14
  6 7887.07 -0.00743393 5271.88 9.26714e-16 2.94688e-13 6.79795e-14
  7 7887.07 -0.00743393 5271.88 1.90905e-15 7.51776e-13 -3.17775e-15
  8 7887.07 -0.00743393 5271.88 1.90905e-15 5.60499e-13 -1.18595e-14
</Section>

newXOutput 785

<Section columns = "stress_xx | stress_yy | stress_zz | stress_xy | stress_yz | stress_xz">
  1 7887.41 -0.00742772 5274.53 2.76093e-16 -4.28653e-14 3.09632e-14
  2 7887.41 -0.00742772 5274.53 -2.76093e-16 -1.78412e-14 1.37897e-14
  3 7887.41 -0.00742772 5274.53 1.03039e-15 -2.57476e-14 1.37897e-14
  4 7887.41 -0.00742772 5274.53 -1.03039e-15 7.15968e-14 -9.88076e-14
  5 7887.41 -0.00742772 5274.53 1.03039e-15 -4.99962e-14 3.73061e-14
  6 7887.41 -0.00742772 5274.53 -1.03039e-15 -4.44542e-14 3.74616e-14
  7 7887.41 -0.00742772 5274.53 3.84549e-15 -7.39611e-14 3.74616e-14
  8 7887.41 -0.00742772 5274.53 -3.84549e-15 -1.08338e-13 -1.04627e-14
</Section>

newXOutput 786

<Section columns = "stress_xx | stress_yy | stress_zz | stress_xy | stress_yz | stress_xz">
  1 7887.74 -0.00742153 5277.18 1.88101e-15 1.15905e-13 -1.40235e-14
  2 7887.74 -0.00742153 5277.18 2.15641e-15 1.08531e-13 -4.72215e-14
  3 7887.74 -0.00742153 5277.18 7.02003e-15 2.20717e-13 1.61645e-14
  4 7887.74 -0.00742153 5277.18 8.04784e-15 2.18741e-13 -3.51194e-14
  5 7887.74 -0.00742153 5277.18 8.53208e-16 1.15905e-13 -2.62600e-14
  6 7887.74 -0.00742153 5277.18 1.88101e-15 1.08531e-13 -7.24290e-14
  7 7887.74 -0.00742153 5277.18 3.18422e-15 2.20717e-13 -2.95028e-14
  8 7887.74 -0.00742153 5277.18 7.02003e-15 2.18741e-13 -1.29195e-13
</Section>

newXOutput 787

<Section columns = "stress_xx | stress_yy | stress_zz | stress_xy | stress_yz | stress_xz">
  1 7888.08 -0.00741535 5279.83 -1.65678e-15 4.78312e-14 2.04192e-14
  2 7888.08 -0.00741535 5279.83 -1.65678e-15 7.38892e-14 7.62055e-14
  3 7888.08 -0.00741535 5279.83 -4.43934e-16 4.44110e-14 5.47131e-15
  4 7888.08 -0.00741535 5279.83 -4.43934e-16 1.37711e-13 2.04192e-14
  5 7888.08 -0.00741535 5279.83 -4.43934e-16 3.49250e-14 2.04192e-14
  6 7888.08 -0.00741535 5279.83 -4.43934e-16 2.57226e-14 7.62055e-14
  7 7888.08 -0.00741535 5279.83 -1.18952e-16 1.78239e-14 5.47131e-15
  8 7888.08 -0.00741535 5279.83 -1.18952e-16 3.84870e-14 2.04192e-14
</Section>

newXOutput 788

<Section columns = "stress_xx | stress_yy | stress_zz | stress_xy | stress_yz | stress_xz">
  1 7888.42 -0.00740919 5282.47 1.42940e-30 9.95035e-15 -9.40120e-15
  2 7888.42 -0.00740919 5282.47 3.88760e-30 4.78160e-15 2.94141e-15
  3 7888.42 -0.00740919 5282.47 3.88760e-30 -3.11323e-15 -4.51771e-15
  4 7888.42 -0.00740919 5282.47 1.18248e-29 1.09127e-13 -1.03104e-13
  5 7888.42 -0.00740919 5282.47 5.48719e-31 9.50331e-15 -8.97883e-15
  6 7888.42 -0.00740919 5282.47 1.08608e-30 3.11323e-15 2.48964e-14
  7 7888.42 -0.00740919 5282.47 1.08608e-30 -2.63507e-14 -2.94141e-15
  8 7888.42 -0.00740919 5282.47 3.18035e-30 2.24033e-14 -2.11669e-14
</Section>

newXOutput 789

<Section columns = "stress_xx | stress_yy | stress_zz | stress_xy | stress_yz | stress_xz">
  1 7888.75 -0.00740305 5285.10 3.73377e-16 1.17232e-13 -2.19604e-14
  2 7888.75 -0.00740305 5285.10 1.00046e-16 1.48796e-13 -4.90901e-14
  3 7888.75 -0.00740305 5285.10 1.39346e-15 2.60818e-13 -1.38631e-14
  4 7888.75 -0.00740305 5285.10 3.73377e-16 3.78616e-13 -4.29310e-14
  5 7888.75 -0.00740305 5285.10 1.39346e-15 1.17232e-13 -2.82531e-14
  6 7888.75 -0.00740305 5285.10 3.73377e-16 1.48796e-13 -7.25748e-14
  7 7888.75 -0.00740305 5285.10 5.20047e-15 2.60818e-13 -3.73478e-14
  8 7888.75 -0.00740305 5285.10 1.39346e-15 3.78616e-13 -1.30577e-13
</Section>

newXOutput 790

<Section columns = "stress_xx | stress_yy | stress_zz | stress_xy | stress_yz | stress_xz">
  1 7889.08 -0.00739693 5287.74 2.62324e-15 1.43285e-13 -1.31276e-14
  2 7889.08 -0.00739693 5287.74 2.89588e-15 9.93771e-14 -8.17951e-14
  3 7889.08 -0.00739693 5287.74 5.51789e-15 3.31199e-13 -1.14806e-14
  4 7889.08 -0.00739693 5287.74 6.53542e-15 2.14373e-13 -5.16353e-14
  5 7889.08 -0.00739693 5287.74 -5.87281e-16 1.30397e-13 -1.94079e-14
  6 7889.08 -0.00739693 5287.74 4.30248e-16 5.12805e-14 -1.05233e-13
  7 7889.08 -0.00739693 5287.74 -3.33648e-15 3.04651e-13 -3.49187e-14
  8 7889.08 -0.00739693 5287.74 4.60986e-16 1.15293e-13 -1.39108e-13
</Section>

newXOutput 791

<Section columns = "stress_xx | stress_yy | stress_zz | stress_xy | stress_yz | stress_xz">
  1 7889.41 -0.00739082 5290.37 3.71509e-16 1.32080e-14 3.05968e-14
  2 7889.41 -0.00739082 5290.37 9.95456e-17 1.19884e-14 1.36265e-14
  3 7889.41 -0.00739082 5290.37 1.38649e-15 4.92928e-14 1.36265e-14
  4 7889.41 -0.00739082 5290.37 3.71509e-16 4.47414e-14 -9.76383e-14
  5 7889.41 -0.00739082 5290.37 1.38649e-15 1.98718e-14 3.68646e-14
  6 7889.41 -0.00739082 5290.37 3.71509e-16 3.68580e-14 3.70183e-14
  7 7889.41 -0.00739082 5290.37 5.17446e-15 7.41624e-14 3.70183e-14
  8 7889.41 -0.00739082 5290.37 1.38649e-15 1.37556e-13 -1.03389e-14
</Section>

newXOutput 792

<Section columns = "stress_xx | stress_yy | stress_zz | stress_xy | stress_yz | stress_xz">
  1 7889.74 -0.00738473 5292.99 1.90206e-31 -1.66514e-15 -1.38577e-14
  2 7889.74 -0.00738473 5292.99 5.09655e-32 3.10719e-14 -4.66631e-14
  3 7889.74 -0.00738473 5292.99 7.09858e-31 -6.21439e-15 1.59734e-14
  4 7889.74 -0.00738473 5292.99 1.90206e-31 1.15962e-13 -3.47041e-14
  5 7889.74 -0.00738473 5292.99 5.09655e-32 -8.32570e-15 -2.59495e-14
  6 7889.74 -0.00738473 5292.99 1.36562e-32 6.21439e-15 -7.15725e-14
  7 7889.74 -0.00738473 5292.99 1.90206e-31 -3.10719e-14 -2.91539e-14
  8 7889.74 -0.00738473 5292.99 5.09655e-32 2.31924e-14 -1.27667e-13
</Section>

newXOutput 793

<Section columns = "stress_xx | stress_yy | stress_zz | stress_xy | stress_yz | stress_xz">
  1 7890.07 -0.00737866 5295.61 -9.90486e-17 -1.24745e-14 2.95910e-14
  2 7890.07 -0.00737866 5295.61 -3.69654e-16 -1.17837e-14 7.78273e-14
  3 7890.07 -0.00737866 5295.61 -3.69654e-16 -1.17837e-14 7.92890e-15
  4 7890.07 -0.00737866 5295.61 -1.37957e-15 -3.46603e-14 2.08537e-14
  5 7890.07 -0.00737866 5295.61 -3.69654e-16 -1.91318e-14 2.95910e-14
  6 7890.07 -0.00737866 5295.61 -1.37957e-15 -3.66292e-14 7.78273e-14
  7 7890.07 -0.00737866 5295.61 -1.37957e-15 -3.66292e-14 7.92890e-15
  8 7890.07 -0.00737866 5295.61 -5.14862e-15 -1.27385e-13 2.08537e-14
</Section>

newXOutput 794

<Section columns = "stress_xx | stress_yy | stress_zz | stress_xy | stress_yz | stress_xz">
  1 7890.40 -0.00737260 5298.23 7.75725e-16 1.56841e-14 -9.29020e-15
  2 7890.40 -0.00737260 5298.23 5.05795e-16 -4.82263e-14 2.90668e-15
  3 7890.40 -0.00737260 5298.23 1.48518e-15 1.84022e-14 -4.46437e-15
  4 7890.40 -0.00737260 5298.23 4.77785e-16 -8.89668e-14 -1.01887e-13
  5 7890.40 -0.00737260 5298.23 1.48518e-15 3.52007e-14 -8.87282e-15
  6 7890.40 -0.00737260 5298.23 4.77785e-16 2.46106e-14 2.46025e-14
  7 7890.40 -0.00737260 5298.23 5.16499e-15 6.97328e-14 -2.90668e-15
  8 7890.40 -0.00737260 5298.23 1.40535e-15 1.02601e-13 -2.09169e-14
</Section>

newXOutput 795

<Section columns = "stress_xx | stress_yy | stress_zz | stress_xy | stress_yz | stress_xz">
  1 7890.73 -0.00736656 5300.84 1.23807e-15 -9.31322e-14 -2.17013e-14
  2 7890.73 -0.00736656 5300.84 9.68808e-16 -2.49547e-14 -4.85109e-14
  3 7890.73 -0.00736656 5300.84 3.11320e-15 -1.73884e-13 -1.36995e-14
  4 7890.73 -0.00736656 5300.84 2.10832e-15 -4.65920e-14 -4.24245e-14
  5 7890.73 -0.00736656 5300.84 3.11320e-15 -9.31322e-14 -2.79198e-14
  6 7890.73 -0.00736656 5300.84 2.10832e-15 -2.49547e-14 -7.17185e-14
  7 7890.73 -0.00736656 5300.84 5.99322e-15 -1.73884e-13 -3.69071e-14
  8 7890.73 -0.00736656 5300.84 2.24295e-15 -4.65920e-14 -1.29036e-13
</Section>

newXOutput 796

<Section columns = "stress_xx | stress_yy | stress_zz | stress_xy | stress_yz | stress_xz">
  1 7891.05 -0.00736054 5303.45 1.61280e-31 2.15373e-14 -1.29728e-14
  2 7891.05 -0.00736054 5303.45 7.95615e-31 4.56570e-14 -8.08308e-14
  3 7891.05 -0.00736054 5303.45 7.95615e-31 4.56570e-14 -1.13452e-14
  4 7891.05 -0.00736054 5303.45 3.02118e-30 1.61091e-13 -5.10266e-14
  5 7891.05 -0.00736054 5303.45 7.54679e-31 2.15373e-14 -1.91790e-14
  6 7891.05 -0.00736054 5303.45 3.01021e-30 4.56570e-14 -1.03993e-13
  7 7891.05 -0.00736054 5303.45 3.01021e-30 4.56570e-14 -3.45071e-14
  8 7891.05 -0.00736054 5303.45 1.12862e-29 1.61091e-13 -1.37468e-13
</Section>

newXOutput 797

<Section columns = "stress_xx | stress_yy | stress_zz | stress_xy | stress_yz | stress_xz">
  1 7891.38 -0.00735454 5306.06 1.26988e-15 3.05518e-14 3.02363e-14
  2 7891.38 -0.00735454 5306.06 1.26988e-15 7.68245e-14 1.34659e-14
  3 7891.38 -0.00735454 5306.06 1.84009e-15 7.68245e-14 1.34659e-14
  4 7891.38 -0.00735454 5306.06 1.84009e-15 1.47895e-13 -9.64881e-14
  5 7891.38 -0.00735454 5306.06 1.84009e-15 2.39073e-14 3.64303e-14
  6 7891.38 -0.00735454 5306.06 1.84009e-15 5.20270e-14 3.65822e-14
  7 7891.38 -0.00735454 5306.06 8.94927e-16 5.20270e-14 3.65822e-14
  8 7891.38 -0.00735454 5306.06 8.94927e-16 5.53493e-14 -1.02171e-14
</Section>

newXOutput 798

<Section columns = "stress_xx | stress_yy | stress_zz | stress_xy | stress_yz | stress_xz">
  1 7891.70 -0.00734855 5308.66 1.82744e-15 5.61447e-14 -1.36945e-14
  2 7891.70 -0.00734855 5308.66 2.09469e-15 1.00491e-13 -4.61138e-14
  3 7891.70 -0.00734855 5308.66 3.92812e-15 1.37669e-13 1.57854e-14
  4 7891.70 -0.00734855 5308.66 4.92552e-15 2.26990e-13 -3.42956e-14
  5 7891.70 -0.00734855 5308.66 3.92812e-15 6.27859e-14 -2.56440e-14
  6 7891.70 -0.00734855 5308.66 4.92552e-15 1.25276e-13 -7.07300e-14
  7 7891.70 -0.00734855 5308.66 8.70244e-15 1.62454e-13 -2.88107e-14
  8 7891.70 -0.00734855 5308.66 1.24248e-14 3.19491e-13 -1.26164e-13
</Section>

newXOutput 799

<Section columns = "stress_xx | stress_yy | stress_zz | stress_xy | stress_yz | stress_xz">
  1 7892.02 -0.00734258 5311.26 1.70332e-15 4.83322e-14 -2.13243e-14
  2 7892.02 -0.00734258 5311.26 1.96991e-15 -3.26264e-14 -1.11808e-13
  3 7892.02 -0.00734258 5311.26 3.67203e-15 7.88545e-14 -4.27316e-14
  4 7892.02 -0.00734258 5311.26 4.66694e-15 -2.02397e-14 -1.68111e-13
  5 7892.02 -0.00734258 5311.26 -2.29748e-15 4.16942e-14 -2.13243e-14
  6 7892.02 -0.00734258 5311.26 -1.30256e-15 -5.74000e-14 -1.11808e-13
  7 7892.02 -0.00734258 5311.26 -4.12396e-15 5.40810e-14 -4.27316e-14
  8 7892.02 -0.00734258 5311.26 -4.10882e-16 -1.12696e-13 -1.68111e-13
</Section>

newXOutput 800

<Section columns = "stress_xx | stress_yy | stress_zz | stress_xy | stress_yz | stress_xz">
  1 7892.34 -0.00733662 5313.85 -5.35635e-15 8.28957e-14 -9.18101e-15
  2 7892.34 -0.00733662 5313.85 -5.35635e-15 1.68266e-13 2.87252e-15
  3 7892.34 -0.00733662 5313.85 -7.38992e-15 1.38972e-13 -4.41190e-15
  4 7892.34 -0.00733662 5313.85 -7.38992e-15 3.52178e-13 -1.00689e-13
  5 7892.34 -0.00733662 5313.85 -2.92390e-15 7.67053e-14 -8.76853e-15
  6 7892.34 -0.00733662 5313.85 -2.92390e-15 1.45163e-13 2.43133e-14
  7 7892.34 -0.00733662 5313.85 -2.37901e-15 1.37314e-13 -2.87252e-15
  8 7892.34 -0.00733662 5313.85 -2.37901e-15 3.45988e-13 -2.06711e-14
</Section>

newXOutput 801

<Section columns = "stress_xx | stress_yy | stress_zz | stress_xy | stress_yz | stress_xz">
  1 7892.66 -0.00733068 5316.44 1.96220e-15 -1.69257e-13 -1.21805e-14
  2 7892.66 -0.00733068 5316.44 1.69694e-15 -1.98618e-13 -4.54584e-14
  3 7892.66 -0.00733068 5316.44 1.78102e-15 -3.76395e-13 -1.10558e-14
  4 7892.66 -0.00733068 5316.44 7.91036e-16 -3.88466e-13 -4.12610e-14
  5 7892.66 -0.00733068 5316.44 1.78102e-15 -1.68813e-13 -1.83260e-14
  6 7892.66 -0.00733068 5316.44 7.91036e-16 -1.96960e-13 -6.83934e-14
  7 7892.66 -0.00733068 5316.44 5.16189e-15 -3.53303e-13 -3.39909e-14
  8 7892.66 -0.00733068 5316.44 1.46721e-15 -3.02287e-13 -1.26856e-13
</Section>

newXOutput 802

<Section columns = "stress_xx | stress_yy | stress_zz | stress_xy | stress_yz | stress_xz">
  1 7892.98 -0.00732476 5319.03 2.81462e-15 9.36385e-14 2.06927e-14
  2 7892.98 -0.00732476 5319.03 2.55002e-15 1.04632e-13 4.51913e-14
  3 7892.98 -0.00732476 5319.03 3.59397e-15 1.41738e-13 -2.34788e-14
  4 7892.98 -0.00732476 5319.03 2.60644e-15 3.34831e-13 -9.62078e-14
  5 7892.98 -0.00732476 5319.03 3.59397e-15 9.36385e-14 2.68261e-14
  6 7892.98 -0.00732476 5319.03 2.60644e-15 1.04632e-13 6.80813e-14
  7 7892.98 -0.00732476 5319.03 1.15613e-14 1.41738e-13 -5.88764e-16
  8 7892.98 -0.00732476 5319.03 7.87573e-15 3.34831e-13 -1.07811e-14
</Section>

