newXOutput 1

<Section columns = "stress_xx | stress_yy | stress_xy">
  1 0.00000 0.00000 0.00000
  2 0.00000 0.00000 0.00000
  3 0.00000 0.00000 0.00000
  4 0.00000 0.00000 0.00000
  5 0.00000 0.00000 0.00000
  6 0.00000 0.00000 0.00000
  7 0.00000 0.00000 0.00000
  8 0.00000 0.00000 0.00000
  9 0.00000 0.00000 0.00000
  10 0.00000 0.00000 0.00000
  11 0.00000 0.00000 0.00000
  12 0.00000 0.00000 0.00000
  13 0.00000 0.00000 0.00000
  14 0.00000 0.00000 0.00000
  15 0.00000 0.00000 0.00000
  16 0.00000 0.00000 0.00000
  17 0.00000 0.00000 0.00000
  18 0.00000 0.00000 0.00000
  19 0.00000 0.00000 0.00000
  20 0.00000 0.00000 0.00000
  21 0.00000 0.00000 0.00000
  22 0.00000 0.00000 0.00000
  23 0.00000 0.00000 0.00000
  24 0.00000 0.00000 0.00000
  25 0.00000 0.00000 0.00000
  26 0.00000 0.00000 0.00000
  27 0.00000 0.00000 0.00000
  28 0.00000 0.00000 0.00000
  29 0.00000 0.00000 0.00000
  30 0.00000 0.00000 0.00000
  31 0.00000 0.00000 0.00000
  32 0.00000 0.00000 0.00000
  33 0.00000 0.00000 0.00000
  34 0.00000 0.00000 0.00000
  35 0.00000 0.00000 0.00000
  36 0.00000 0.00000 0.00000
  37 0.00000 0.00000 0.00000
  38 0.00000 0.00000 0.00000
  39 0.00000 0.00000 0.00000
  40 0.00000 0.00000 0.00000
  41 0.00000 0.00000 0.00000
  42 0.00000 0.00000 0.00000
  43 0.00000 0.00000 0.00000
  44 0.00000 0.00000 0.00000
  45 0.00000 0.00000 0.00000
  46 0.00000 0.00000 0.00000
  47 0.00000 0.00000 0.00000
  48 0.00000 0.00000 0.00000
  49 0.00000 0.00000 0.00000
  50 0.00000 0.00000 0.00000
  51 0.00000 0.00000 0.00000
  52 0.00000 0.00000 0.00000
  53 0.00000 0.00000 0.00000
  54 0.00000 0.00000 0.00000
  55 0.00000 0.00000 0.00000
  56 0.00000 0.00000 0.00000
  57 0.00000 0.00000 0.00000
  58 0.00000 0.00000 0.00000
  59 0.00000 0.00000 0.00000
  60 0.00000 0.00000 0.00000
  61 0.00000 0.00000 0.00000
  62 0.00000 0.00000 0.00000
  63 0.00000 0.00000 0.00000
  64 0.00000 0.00000 0.00000
  65 0.00000 0.00000 0.00000
  66 0.00000 0.00000 0.00000
  67 0.00000 0.00000 0.00000
  68 0.00000 0.00000 0.00000
  69 0.00000 0.00000 0.00000
  70 0.00000 0.00000 0.00000
  71 0.00000 0.00000 0.00000
  72 0.00000 0.00000 0.00000
  73 0.00000 0.00000 0.00000
  74 0.00000 0.00000 0.00000
  75 0.00000 0.00000 0.00000
  76 0.00000 0.00000 0.00000
  77 0.00000 0.00000 0.00000
  78 0.00000 0.00000 0.00000
  79 0.00000 0.00000 0.00000
  80 0.00000 0.00000 0.00000
  81 0.00000 0.00000 0.00000
  82 0.00000 0.00000 0.00000
  83 0.00000 0.00000 0.00000
  84 0.00000 0.00000 0.00000
  85 0.00000 0.00000 0.00000
  86 0.00000 0.00000 0.00000
  87 0.00000 0.00000 0.00000
  88 0.00000 0.00000 0.00000
  89 0.00000 0.00000 0.00000
  90 0.00000 0.00000 0.00000
  91 0.00000 0.00000 0.00000
  92 0.00000 0.00000 0.00000
  93 0.00000 0.00000 0.00000
  94 0.00000 0.00000 0.00000
  95 0.00000 0.00000 0.00000
  96 0.00000 0.00000 0.00000
  97 0.00000 0.00000 0.00000
  98 0.00000 0.00000 0.00000
  99 0.00000 0.00000 0.00000
  100 0.00000 0.00000 0.00000
  101 0.00000 0.00000 0.00000
  102 0.00000 0.00000 0.00000
  103 0.00000 0.00000 0.00000
  104 0.00000 0.00000 0.00000
  105 0.00000 0.00000 0.00000
  106 0.00000 0.00000 0.00000
  107 0.00000 0.00000 0.00000
  108 0.00000 0.00000 0.00000
  109 0.00000 0.00000 0.00000
  110 0.00000 0.00000 0.00000
  111 0.00000 0.00000 0.00000
  112 0.00000 0.00000 0.00000
  113 0.00000 0.00000 0.00000
  114 0.00000 0.00000 0.00000
  115 0.00000 0.00000 0.00000
  116 0.00000 0.00000 0.00000
  117 0.00000 0.00000 0.00000
  118 0.00000 0.00000 0.00000
  119 0.00000 0.00000 0.00000
  120 0.00000 0.00000 0.00000
  121 0.00000 0.00000 0.00000
  122 0.00000 0.00000 0.00000
  123 0.00000 0.00000 0.00000
  124 0.00000 0.00000 0.00000
  125 0.00000 0.00000 0.00000
  126 0.00000 0.00000 0.00000
  127 0.00000 0.00000 0.00000
  128 0.00000 0.00000 0.00000
  129 0.00000 0.00000 0.00000
  130 0.00000 0.00000 0.00000
  131 0.00000 0.00000 0.00000
  132 0.00000 0.00000 0.00000
  133 0.00000 0.00000 0.00000
  134 0.00000 0.00000 0.00000
  135 0.00000 0.00000 0.00000
  136 0.00000 0.00000 0.00000
  137 0.00000 0.00000 0.00000
  138 0.00000 0.00000 0.00000
  139 0.00000 0.00000 0.00000
  140 0.00000 0.00000 0.00000
  141 0.00000 0.00000 0.00000
  142 0.00000 0.00000 0.00000
  143 0.00000 0.00000 0.00000
  144 0.00000 0.00000 0.00000
  145 0.00000 0.00000 0.00000
  146 0.00000 0.00000 0.00000
  147 0.00000 0.00000 0.00000
  148 0.00000 0.00000 0.00000
  149 0.00000 0.00000 0.00000
  150 0.00000 0.00000 0.00000
  151 0.00000 0.00000 0.00000
  152 0.00000 0.00000 0.00000
  153 0.00000 0.00000 0.00000
  154 0.00000 0.00000 0.00000
  155 0.00000 0.00000 0.00000
  156 0.00000 0.00000 0.00000
  157 0.00000 0.00000 0.00000
  158 0.00000 0.00000 0.00000
  159 0.00000 0.00000 0.00000
  160 0.00000 0.00000 0.00000
  161 0.00000 0.00000 0.00000
  162 0.00000 0.00000 0.00000
  163 0.00000 0.00000 0.00000
  164 0.00000 0.00000 0.00000
  165 0.00000 0.00000 0.00000
  166 0.00000 0.00000 0.00000
  167 0.00000 0.00000 0.00000
  168 0.00000 0.00000 0.00000
  169 0.00000 0.00000 0.00000
  170 0.00000 0.00000 0.00000
  171 0.00000 0.00000 0.00000
  172 0.00000 0.00000 0.00000
  173 0.00000 0.00000 0.00000
  174 0.00000 0.00000 0.00000
  175 0.00000 0.00000 0.00000
  176 0.00000 0.00000 0.00000
  177 0.00000 0.00000 0.00000
  178 0.00000 0.00000 0.00000
  179 0.00000 0.00000 0.00000
  180 0.00000 0.00000 0.00000
  181 0.00000 0.00000 0.00000
  182 0.00000 0.00000 0.00000
  183 0.00000 0.00000 0.00000
  184 0.00000 0.00000 0.00000
  185 0.00000 0.00000 0.00000
  186 0.00000 0.00000 0.00000
  187 0.00000 0.00000 0.00000
  188 0.00000 0.00000 0.00000
  189 0.00000 0.00000 0.00000
  190 0.00000 0.00000 0.00000
  191 0.00000 0.00000 0.00000
  192 0.00000 0.00000 0.00000
  193 0.00000 0.00000 0.00000
  194 0.00000 0.00000 0.00000
  195 0.00000 0.00000 0.00000
  196 0.00000 0.00000 0.00000
  197 0.00000 0.00000 0.00000
  198 0.00000 0.00000 0.00000
  199 0.00000 0.00000 0.00000
  200 0.00000 0.00000 0.00000
  201 0.00000 0.00000 0.00000
  202 0.00000 0.00000 0.00000
  203 0.00000 0.00000 0.00000
  204 0.00000 0.00000 0.00000
  205 0.00000 0.00000 0.00000
  206 0.00000 0.00000 0.00000
  207 0.00000 0.00000 0.00000
  208 0.00000 0.00000 0.00000
  209 0.00000 0.00000 0.00000
  210 0.00000 0.00000 0.00000
  211 0.00000 0.00000 0.00000
  212 0.00000 0.00000 0.00000
  213 0.00000 0.00000 0.00000
  214 0.00000 0.00000 0.00000
  215 0.00000 0.00000 0.00000
  216 0.00000 0.00000 0.00000
  217 0.00000 0.00000 0.00000
  218 0.00000 0.00000 0.00000
  219 0.00000 0.00000 0.00000
  220 0.00000 0.00000 0.00000
  221 0.00000 0.00000 0.00000
  222 0.00000 0.00000 0.00000
  223 0.00000 0.00000 0.00000
  224 0.00000 0.00000 0.00000
  225 0.00000 0.00000 0.00000
  226 0.00000 0.00000 0.00000
  227 0.00000 0.00000 0.00000
  228 0.00000 0.00000 0.00000
  229 0.00000 0.00000 0.00000
  230 0.00000 0.00000 0.00000
  231 0.00000 0.00000 0.00000
  232 0.00000 0.00000 0.00000
  233 0.00000 0.00000 0.00000
  234 0.00000 0.00000 0.00000
  235 0.00000 0.00000 0.00000
  236 0.00000 0.00000 0.00000
  237 0.00000 0.00000 0.00000
  238 0.00000 0.00000 0.00000
  239 0.00000 0.00000 0.00000
  240 0.00000 0.00000 0.00000
  241 0.00000 0.00000 0.00000
  242 0.00000 0.00000 0.00000
  243 0.00000 0.00000 0.00000
  244 0.00000 0.00000 0.00000
  245 0.00000 0.00000 0.00000
  246 0.00000 0.00000 0.00000
  247 0.00000 0.00000 0.00000
  248 0.00000 0.00000 0.00000
  249 0.00000 0.00000 0.00000
  250 0.00000 0.00000 0.00000
  251 0.00000 0.00000 0.00000
  252 0.00000 0.00000 0.00000
  253 0.00000 0.00000 0.00000
  254 0.00000 0.00000 0.00000
  255 0.00000 0.00000 0.00000
  256 0.00000 0.00000 0.00000
  257 0.00000 0.00000 0.00000
  258 0.00000 0.00000 0.00000
  259 0.00000 0.00000 0.00000
  260 0.00000 0.00000 0.00000
  261 0.00000 0.00000 0.00000
  262 0.00000 0.00000 0.00000
  263 0.00000 0.00000 0.00000
  264 0.00000 0.00000 0.00000
  265 0.00000 0.00000 0.00000
  266 0.00000 0.00000 0.00000
  267 0.00000 0.00000 0.00000
  268 0.00000 0.00000 0.00000
  269 0.00000 0.00000 0.00000
  270 0.00000 0.00000 0.00000
  271 0.00000 0.00000 0.00000
  272 0.00000 0.00000 0.00000
  273 0.00000 0.00000 0.00000
  274 0.00000 0.00000 0.00000
  275 0.00000 0.00000 0.00000
  276 0.00000 0.00000 0.00000
  277 0.00000 0.00000 0.00000
  278 0.00000 0.00000 0.00000
  279 0.00000 0.00000 0.00000
  280 0.00000 0.00000 0.00000
  281 0.00000 0.00000 0.00000
  282 0.00000 0.00000 0.00000
  283 0.00000 0.00000 0.00000
  284 0.00000 0.00000 0.00000
  285 0.00000 0.00000 0.00000
  286 0.00000 0.00000 0.00000
  287 0.00000 0.00000 0.00000
  288 0.00000 0.00000 0.00000
  289 0.00000 0.00000 0.00000
  290 0.00000 0.00000 0.00000
  291 0.00000 0.00000 0.00000
  292 0.00000 0.00000 0.00000
  293 0.00000 0.00000 0.00000
  294 0.00000 0.00000 0.00000
  295 0.00000 0.00000 0.00000
  296 0.00000 0.00000 0.00000
  297 0.00000 0.00000 0.00000
  298 0.00000 0.00000 0.00000
  299 0.00000 0.00000 0.00000
  300 0.00000 0.00000 0.00000
  301 0.00000 0.00000 0.00000
  302 0.00000 0.00000 0.00000
  303 0.00000 0.00000 0.00000
  304 0.00000 0.00000 0.00000
  305 0.00000 0.00000 0.00000
  306 0.00000 0.00000 0.00000
  307 0.00000 0.00000 0.00000
  308 0.00000 0.00000 0.00000
  309 0.00000 0.00000 0.00000
  310 0.00000 0.00000 0.00000
  311 0.00000 0.00000 0.00000
  312 0.00000 0.00000 0.00000
  313 0.00000 0.00000 0.00000
  314 0.00000 0.00000 0.00000
  315 0.00000 0.00000 0.00000
  316 0.00000 0.00000 0.00000
  317 0.00000 0.00000 0.00000
  318 0.00000 0.00000 0.00000
  319 0.00000 0.00000 0.00000
  320 0.00000 0.00000 0.00000
  321 0.00000 0.00000 0.00000
  322 0.00000 0.00000 0.00000
  323 0.00000 0.00000 0.00000
  324 0.00000 0.00000 0.00000
  325 0.00000 0.00000 0.00000
  326 0.00000 0.00000 0.00000
  327 0.00000 0.00000 0.00000
  328 0.00000 0.00000 0.00000
  329 0.00000 0.00000 0.00000
  330 0.00000 0.00000 0.00000
  331 0.00000 0.00000 0.00000
  332 0.00000 0.00000 0.00000
  333 0.00000 0.00000 0.00000
  334 0.00000 0.00000 0.00000
  335 0.00000 0.00000 0.00000
  336 0.00000 0.00000 0.00000
  337 0.00000 0.00000 0.00000
  338 0.00000 0.00000 0.00000
  339 0.00000 0.00000 0.00000
  340 0.00000 0.00000 0.00000
  341 0.00000 0.00000 0.00000
  342 0.00000 0.00000 0.00000
  343 0.00000 0.00000 0.00000
  344 0.00000 0.00000 0.00000
  345 0.00000 0.00000 0.00000
  346 0.00000 0.00000 0.00000
  347 0.00000 0.00000 0.00000
  348 0.00000 0.00000 0.00000
  349 0.00000 0.00000 0.00000
  350 0.00000 0.00000 0.00000
  351 0.00000 0.00000 0.00000
  352 0.00000 0.00000 0.00000
  353 0.00000 0.00000 0.00000
  354 0.00000 0.00000 0.00000
  355 0.00000 0.00000 0.00000
  356 0.00000 0.00000 0.00000
  357 0.00000 0.00000 0.00000
  358 0.00000 0.00000 0.00000
  359 0.00000 0.00000 0.00000
  360 0.00000 0.00000 0.00000
  361 0.00000 0.00000 0.00000
  362 0.00000 0.00000 0.00000
  363 0.00000 0.00000 0.00000
  364 0.00000 0.00000 0.00000
  365 0.00000 0.00000 0.00000
  366 0.00000 0.00000 0.00000
  367 0.00000 0.00000 0.00000
  368 0.00000 0.00000 0.00000
  369 0.00000 0.00000 0.00000
  370 0.00000 0.00000 0.00000
  371 0.00000 0.00000 0.00000
  372 0.00000 0.00000 0.00000
  373 0.00000 0.00000 0.00000
  374 0.00000 0.00000 0.00000
  375 0.00000 0.00000 0.00000
  376 0.00000 0.00000 0.00000
  377 0.00000 0.00000 0.00000
  378 0.00000 0.00000 0.00000
  379 0.00000 0.00000 0.00000
  380 0.00000 0.00000 0.00000
  381 0.00000 0.00000 0.00000
  382 0.00000 0.00000 0.00000
  383 0.00000 0.00000 0.00000
  384 0.00000 0.00000 0.00000
  385 0.00000 0.00000 0.00000
  386 0.00000 0.00000 0.00000
  387 0.00000 0.00000 0.00000
  388 0.00000 0.00000 0.00000
  389 0.00000 0.00000 0.00000
  390 0.00000 0.00000 0.00000
  391 0.00000 0.00000 0.00000
  392 0.00000 0.00000 0.00000
  393 0.00000 0.00000 0.00000
  394 0.00000 0.00000 0.00000
  395 0.00000 0.00000 0.00000
  396 0.00000 0.00000 0.00000
  397 0.00000 0.00000 0.00000
  398 0.00000 0.00000 0.00000
  399 0.00000 0.00000 0.00000
  400 0.00000 0.00000 0.00000
  401 0.00000 0.00000 0.00000
  402 0.00000 0.00000 0.00000
  403 0.00000 0.00000 0.00000
  404 0.00000 0.00000 0.00000
  405 0.00000 0.00000 0.00000
  406 0.00000 0.00000 0.00000
  407 0.00000 0.00000 0.00000
  408 0.00000 0.00000 0.00000
  409 0.00000 0.00000 0.00000
  410 0.00000 0.00000 0.00000
  411 0.00000 0.00000 0.00000
  412 0.00000 0.00000 0.00000
  413 0.00000 0.00000 0.00000
  414 0.00000 0.00000 0.00000
  415 0.00000 0.00000 0.00000
  416 0.00000 0.00000 0.00000
  417 0.00000 0.00000 0.00000
  418 0.00000 0.00000 0.00000
  419 0.00000 0.00000 0.00000
  420 0.00000 0.00000 0.00000
  421 0.00000 0.00000 0.00000
  422 0.00000 0.00000 0.00000
  423 0.00000 0.00000 0.00000
  424 0.00000 0.00000 0.00000
  425 0.00000 0.00000 0.00000
  426 0.00000 0.00000 0.00000
  427 0.00000 0.00000 0.00000
  428 0.00000 0.00000 0.00000
  429 0.00000 0.00000 0.00000
  430 0.00000 0.00000 0.00000
  431 0.00000 0.00000 0.00000
  432 0.00000 0.00000 0.00000
  433 0.00000 0.00000 0.00000
  434 0.00000 0.00000 0.00000
  435 0.00000 0.00000 0.00000
  436 0.00000 0.00000 0.00000
  437 0.00000 0.00000 0.00000
  438 0.00000 0.00000 0.00000
  439 0.00000 0.00000 0.00000
  440 0.00000 0.00000 0.00000
  441 0.00000 0.00000 0.00000
  442 0.00000 0.00000 0.00000
  443 0.00000 0.00000 0.00000
  444 0.00000 0.00000 0.00000
  445 0.00000 0.00000 0.00000
  446 0.00000 0.00000 0.00000
  447 0.00000 0.00000 0.00000
  448 0.00000 0.00000 0.00000
  449 0.00000 0.00000 0.00000
  450 0.00000 0.00000 0.00000
  451 0.00000 0.00000 0.00000
  452 0.00000 0.00000 0.00000
  453 0.00000 0.00000 0.00000
  454 0.00000 0.00000 0.00000
  455 0.00000 0.00000 0.00000
  456 0.00000 0.00000 0.00000
  457 0.00000 0.00000 0.00000
  458 0.00000 0.00000 0.00000
  459 0.00000 0.00000 0.00000
  460 0.00000 0.00000 0.00000
  461 0.00000 0.00000 0.00000
  462 0.00000 0.00000 0.00000
  463 0.00000 0.00000 0.00000
  464 0.00000 0.00000 0.00000
  465 0.00000 0.00000 0.00000
  466 0.00000 0.00000 0.00000
  467 0.00000 0.00000 0.00000
  468 0.00000 0.00000 0.00000
  469 0.00000 0.00000 0.00000
  470 0.00000 0.00000 0.00000
  471 0.00000 0.00000 0.00000
  472 0.00000 0.00000 0.00000
  473 0.00000 0.00000 0.00000
  474 0.00000 0.00000 0.00000
  475 0.00000 0.00000 0.00000
  476 0.00000 0.00000 0.00000
  477 0.00000 0.00000 0.00000
  478 0.00000 0.00000 0.00000
  479 0.00000 0.00000 0.00000
  480 0.00000 0.00000 0.00000
  481 0.00000 0.00000 0.00000
  482 0.00000 0.00000 0.00000
  483 0.00000 0.00000 0.00000
  484 0.00000 0.00000 0.00000
  485 0.00000 0.00000 0.00000
  486 0.00000 0.00000 0.00000
  487 0.00000 0.00000 0.00000
  488 0.00000 0.00000 0.00000
  489 0.00000 0.00000 0.00000
  490 0.00000 0.00000 0.00000
  491 0.00000 0.00000 0.00000
  492 0.00000 0.00000 0.00000
  493 0.00000 0.00000 0.00000
  494 0.00000 0.00000 0.00000
  495 0.00000 0.00000 0.00000
  496 0.00000 0.00000 0.00000
  497 0.00000 0.00000 0.00000
  498 0.00000 0.00000 0.00000
  499 0.00000 0.00000 0.00000
  500 0.00000 0.00000 0.00000
  501 0.00000 0.00000 0.00000
  502 0.00000 0.00000 0.00000
  503 0.00000 0.00000 0.00000
  504 0.00000 0.00000 0.00000
  505 0.00000 0.00000 0.00000
  506 0.00000 0.00000 0.00000
  507 0.00000 0.00000 0.00000
  508 0.00000 0.00000 0.00000
  509 0.00000 0.00000 0.00000
  510 0.00000 0.00000 0.00000
  511 0.00000 0.00000 0.00000
  512 0.00000 0.00000 0.00000
  513 0.00000 0.00000 0.00000
  514 0.00000 0.00000 0.00000
  515 0.00000 0.00000 0.00000
  516 0.00000 0.00000 0.00000
  517 0.00000 0.00000 0.00000
  518 0.00000 0.00000 0.00000
  519 0.00000 0.00000 0.00000
  520 0.00000 0.00000 0.00000
  521 0.00000 0.00000 0.00000
  522 0.00000 0.00000 0.00000
  523 0.00000 0.00000 0.00000
  524 0.00000 0.00000 0.00000
  525 0.00000 0.00000 0.00000
  526 0.00000 0.00000 0.00000
  527 0.00000 0.00000 0.00000
  528 0.00000 0.00000 0.00000
  529 0.00000 0.00000 0.00000
  530 0.00000 0.00000 0.00000
</Section>

newXOutput 2

<Section columns = "stress_xx | stress_yy | stress_xy">
  1 21.9709 0.0432253 0.0847627
  2 21.9719 0.0413241 -0.0860681
  3 11.6596 -0.0131058 -0.0337948
  4 -0.159474 -0.157218 -0.168601
  5 40.0833 15.4025 13.2681
  6 40.1396 15.5971 -12.7507
  7 -0.164595 -0.161907 0.174543
  8 11.6545 -0.0128122 0.0340601
  9 22.3190 -0.101877 0.0708217
  10 22.1664 -0.123626 0.0676134
  11 21.6887 -0.0775908 0.242179
  12 21.1582 -0.0622606 0.387761
  13 20.4634 -0.0956752 0.490217
  14 19.1314 -0.0848945 0.682609
  15 17.6105 -0.00653048 0.780898
  16 16.0334 0.0794503 0.748222
  17 15.1336 0.249017 0.457024
  18 13.8502 0.432448 -0.00888468
  19 15.0833 0.272383 -0.514381
  20 16.2023 0.0640061 -0.824966
  21 17.4705 0.0258917 -0.792190
  22 19.1694 -0.0929596 -0.740026
  23 20.4789 -0.124773 -0.524720
  24 21.1633 -0.147250 -0.391472
  25 22.0443 -0.160763 -0.183637
  26 21.9458 -0.0634920 -0.107498
  27 22.3001 -0.0849979 -0.0630670
  28 20.9506 -0.0651624 -0.0978431
  29 19.6928 -0.203434 -0.0766986
  30 18.1020 -0.263821 -0.0517309
  31 16.8512 -0.268087 -0.0704585
  32 15.6490 -0.276548 0.0127140
  33 14.0066 -0.145570 0.0224535
  34 12.7072 -0.0711505 -0.0284632
  35 11.4945 -0.00275001 0.0549835
  36 11.2043 0.0809353 0.0255907
  37 11.0829 -0.00466654 0.128005
  38 10.7605 -0.00428395 0.209617
  39 10.0120 0.000890598 0.236131
  40 9.36798 -0.0275734 0.405023
  41 8.20746 -0.0240729 0.478168
  42 6.92647 -0.0154670 0.607524
  43 5.26756 -0.0598836 0.716399
  44 3.98559 0.0149144 1.00266
  45 2.18278 0.172993 0.816181
  46 0.0960822 0.320441 0.510360
  47 -1.02044 0.258545 0.186952
  48 -1.33185 0.218561 -0.0226625
  49 -1.03303 0.139762 -0.316628
  50 -0.567408 -0.0400404 -0.244310
  51 -0.0578402 -0.550737 -0.255587
  52 0.0510314 -1.10894 -0.392346
  53 0.133782 -1.78709 -0.236344
  54 0.328845 -1.96943 -0.0945295
  55 0.692500 -0.866587 0.610558
  56 1.92270 2.64976 2.85555
  57 8.72279 11.0555 9.91165
  58 53.8262 6.80083 8.76504
  59 44.4574 1.83250 2.98047
  60 41.6838 0.819845 1.01542
  61 40.5392 0.561454 -0.128038
  62 41.6090 0.846204 -1.11799
  63 45.3325 2.05478 -3.47298
  64 52.1593 7.72557 -9.22454
  65 10.2253 12.5253 -10.6177
  66 1.99788 2.24348 -2.36785
  67 0.704143 -0.944205 -0.624912
  68 0.274732 -1.99735 0.0674215
  69 0.148319 -1.81088 0.208714
  70 0.0603461 -1.13595 0.394984
  71 -0.0577847 -0.568478 0.262241
  72 -0.583358 -0.0379695 0.248392
  73 -1.05114 0.145610 0.314516
  74 -1.33255 0.219057 0.0136464
  75 -1.00773 0.253869 -0.189843
  76 0.105425 0.318742 -0.507402
  77 2.18356 0.174277 -0.814469
  78 3.98635 0.0149866 -1.00151
  79 5.26625 -0.0606954 -0.714179
  80 6.91942 -0.0136934 -0.605409
  81 8.20007 -0.0212561 -0.481192
  82 9.37193 -0.0290875 -0.409018
  83 10.0176 -0.000968747 -0.236137
  84 10.7630 -0.00419777 -0.208437
  85 11.0835 -0.00539887 -0.126559
  86 11.2024 0.0815870 -0.0237347
  87 11.4902 -0.00223313 -0.0543771
  88 12.7053 -0.0710235 0.0279621
  89 14.0079 -0.148852 -0.0236265
  90 15.6500 -0.282154 -0.0127716
  91 16.8561 -0.270744 0.0697208
  92 18.1052 -0.261800 0.0520788
  93 19.6915 -0.203529 0.0763414
  94 20.9415 -0.0652085 0.0992085
  95 18.7227 -2.02172 -0.664238
  96 18.9866 -2.00724 0.476957
  97 20.2977 3.42234 -0.513620
  98 13.5298 -0.378924 -4.41800
  99 13.3282 -0.332854 4.43513
  100 23.5389 4.79534 1.25050
  101 25.1832 5.39100 -0.659923
  102 15.5812 -0.706482 -0.378010
  103 15.7614 -0.690362 0.305001
  104 20.4710 -0.0136175 -2.28017
  105 23.1146 -0.566403 0.225345
  106 20.0315 -0.145155 2.25861
  107 23.9129 -0.266671 0.208605
  108 3.57974 1.91340 2.41121
  109 3.54192 1.81755 -2.50229
  110 19.3092 -0.829321 0.817751
  111 19.3676 -0.862174 -0.905719
  112 28.4251 5.60433 -0.122543
  113 12.2858 -0.957078 -2.41562
  114 12.2991 -0.952962 2.43114
  115 13.4148 -0.816689 1.19832
  116 13.4322 -0.799066 -1.18722
  117 11.4977 2.27300 -6.74561
  118 12.1603 2.33651 6.81382
  119 29.0176 6.81929 -0.986252
  120 31.0507 6.29470 1.79559
  121 19.5333 1.75518 1.69568
  122 18.3481 -0.503620 0.165528
  123 18.3738 -0.546029 -0.168629
  124 18.0171 0.661951 -1.48829
  125 6.36727 0.212552 -2.77351
  126 6.37551 0.201719 2.76337
  127 19.5357 -0.492632 -1.69077
  128 21.8918 0.746009 2.16506
  129 13.3762 -0.256213 0.334829
  130 13.3791 -0.258808 -0.327221
  131 16.9665 -1.39386 -0.492315
  132 16.8349 -1.33847 0.516782
  133 18.7310 -2.02716 1.94078
  134 22.1978 0.970611 -2.11128
  135 19.7642 -1.25815 1.36711
  136 23.3085 5.08274 -0.0401486
  137 19.4613 -2.05083 -1.74513
  138 27.8224 3.97333 0.392854
  139 26.1579 1.23812 -3.46683
  140 17.3875 1.15594 -0.0506113
  141 19.4563 -0.446587 1.67427
  142 19.9476 -1.25326 -1.43813
  143 36.5036 2.96241 0.944328
  144 21.2630 -1.30329 -1.10495
  145 37.1193 4.18688 -3.03316
  146 21.3197 -1.28342 0.986552
  147 18.3078 0.369900 1.78885
  148 0.477760 0.554500 -0.0445616
  149 0.508602 0.595516 0.0500869
  150 20.1930 -0.338198 0.481150
  151 20.1702 -0.306694 -0.465031
  152 15.1729 -1.50703 -1.61585
  153 15.4895 -1.47280 1.51435
  154 7.62175 -0.268847 -2.21401
  155 7.62137 -0.266890 2.21245
  156 16.3771 -0.445797 -0.0308079
  157 16.3669 -0.417846 0.0379504
  158 2.20109 2.65465 -2.57259
  159 2.84819 2.69298 2.70648
  160 20.3604 1.88414 -1.99980
  161 11.1168 -0.507977 -1.52132
  162 11.1004 -0.531429 1.51101
  163 26.4070 2.32312 6.12246
  164 19.7769 -0.858847 4.38838
  165 17.9477 -0.988644 0.199898
  166 17.9117 -0.941373 -0.191246
  167 20.2508 -0.146332 0.168705
  168 20.2252 -0.142665 -0.176184
  169 20.3597 -1.59233 -2.99101
  170 12.2698 -0.289234 -0.595063
  171 12.2719 -0.289737 0.591305
  172 18.7256 0.0611929 -1.89128
  173 24.9960 3.10504 1.24371
  174 25.0382 2.94968 -1.36987
  175 21.2715 3.96883 0.937644
  176 34.7532 9.15133 4.03833
  177 14.7704 -1.62007 3.09690
  178 20.9942 4.65009 -9.82877
  179 14.9358 -1.48315 -3.18524
  180 19.9935 -0.366553 -0.967272
  181 19.9815 -0.349634 0.983403
  182 18.9017 -1.41485 -0.523516
  183 2.42764 0.652923 -1.46676
  184 2.43141 0.669859 1.47108
  185 9.39556 1.03588 -4.69141
  186 9.20932 1.09711 4.64340
  187 21.7642 3.75585 -1.40796
  188 18.8126 -1.36568 0.511070
  189 11.0498 -0.497633 -3.55761
  190 11.0791 -0.473061 3.58571
  191 9.19797 -0.304438 -1.62009
  192 9.19243 -0.311538 1.62875
  193 29.8319 5.58686 -1.68304
  194 9.76748 5.92519 7.99336
  195 26.7831 5.75535 0.0208664
  196 14.5593 -0.245299 -0.118877
  197 14.5483 -0.252063 0.118242
  198 16.6821 -1.89587 1.75955
  199 5.15094 4.72270 -5.13877
  200 16.8306 -1.94820 -1.82429
  201 11.0163 -0.236826 0.802259
  202 11.0143 -0.245764 -0.798045
  203 20.6689 -1.17053 1.59415
  204 38.4742 4.13482 3.46892
  205 13.8652 -0.538211 -0.699085
  206 13.8429 -0.540644 0.687071
  207 21.5275 2.94226 1.95004
  208 12.7149 -0.0853995 -0.119255
  209 12.7184 -0.0878251 0.120434
  210 26.3505 5.76826 0.147459
  211 18.3134 1.45122 -1.00552
  212 36.7200 7.40530 -4.94779
  213 19.4540 2.58323 0.851011
  214 25.9820 5.21725 -0.774340
  215 19.6479 -0.724552 1.46690
  216 17.1530 -0.573306 0.0461139
  217 17.1110 -0.675239 -0.00479473
  218 1.05850 0.661112 0.626368
  219 1.06824 0.644746 -0.642604
  220 16.7357 0.575010 -0.644709
  221 18.9506 -0.690427 0.438178
  222 19.0004 -0.680537 -0.455661
  223 0.982907 0.885306 -0.572640
  224 0.870327 0.964932 0.615300
  225 18.2222 -0.308163 -0.0849478
  226 18.2213 -0.303302 0.0925126
  227 5.07680 0.0145048 -1.67432
  228 5.07856 0.0139523 1.67356
  229 14.9515 0.523107 -5.64012
  230 18.0490 0.950511 1.41540
  231 19.5602 -0.883886 -1.31191
  232 19.8919 -0.625388 -2.02472
  233 18.2213 -1.51557 3.39796
  234 21.9838 -1.30408 -0.0972806
  235 22.4088 3.10250 -1.95558
  236 18.8081 -0.0986047 -1.32308
  237 19.0308 -0.0761671 1.94314
  238 19.9866 0.821193 2.25226
  239 32.1610 6.87241 3.40847
  240 39.0900 1.50548 -0.811637
  241 19.1075 0.619251 -2.12873
  242 19.7008 -0.552572 2.01672
  243 12.8802 -1.00331 -1.83896
  244 12.7434 -1.00098 1.83787
  245 26.5320 2.37537 -0.155802
  246 23.3944 0.805052 1.60331
  247 -0.115711 -0.0629914 -0.462578
  248 -0.113406 -0.0517521 0.472065
  249 5.31265 1.13482 -2.99545
  250 5.31203 1.16471 2.99285
  251 17.6154 0.152690 -1.36194
  252 19.1444 -1.69754 0.371041
  253 6.92121 2.28186 -4.75504
  254 6.27083 2.63527 4.49223
  255 2.82978 0.212649 -1.34487
  256 2.83504 0.209626 1.34799
  257 14.7263 -0.444669 -0.279286
  258 14.7234 -0.441767 0.283506
  259 20.6149 -0.955261 -1.74305
  260 17.3318 -1.56337 -3.27389
  261 23.1068 0.269465 -1.36192
  262 18.0944 -1.67661 0.203040
  263 19.3208 1.47545 -7.08797
  264 17.7424 -1.76359 -0.557616
  265 15.2127 -1.10065 -0.969851
  266 15.2571 -1.15200 1.02044
  267 31.0007 5.72080 -1.47685
  268 25.1310 5.51947 0.192713
  269 25.9159 0.739902 2.13082
  270 19.7377 -0.237994 -0.997299
  271 12.0975 -0.147159 0.290101
  272 12.0974 -0.150213 -0.288595
  273 20.2241 -1.68333 -0.788298
  274 21.5576 -1.57580 -0.409187
  275 31.0118 5.20903 0.759207
  276 14.7193 0.392295 5.58551
  277 20.2678 -1.66707 0.758727
  278 20.4405 -0.178697 0.560762
  279 21.4375 -0.247559 -2.03402
  280 19.2781 8.20980 10.5622
  281 2.21029 2.90486 2.94430
  282 21.0103 -0.147532 0.215212
  283 20.7846 -0.132080 -0.271855
  284 18.7116 -0.107861 1.18819
  285 16.7945 0.682450 0.614587
  286 20.4782 -0.152002 -0.549354
  287 21.8513 -1.30843 1.96556
  288 8.41925 0.311705 -3.73370
  289 8.40434 0.292855 3.73141
  290 22.8145 2.84560 1.85452
  291 20.0849 -2.02685 -0.402190
  292 19.0577 0.817126 1.99828
  293 19.2711 -0.203024 0.0512838
  294 19.2710 -0.205984 -0.0527332
  295 19.6968 -0.214588 0.977677
  296 20.3225 -1.99775 0.440730
  297 21.4669 4.29229 0.193544
  298 30.3430 5.52561 -6.27566
  299 15.6892 -0.915467 -0.537561
  300 15.4444 -0.922188 0.588472
  301 21.2814 -0.591209 1.85528
  302 24.0119 5.24942 -0.488931
  303 14.8450 -1.51158 -2.06475
  304 14.4008 -1.42833 2.23508
  305 40.0581 1.10448 0.740422
  306 41.2109 1.51840 -2.41798
  307 19.7902 -0.541985 -0.814764
  308 11.0851 -0.0953041 0.470863
  309 11.0836 -0.0946044 -0.469652
  310 5.87903 4.03692 5.32810
  311 19.7826 -0.535034 0.803196
  312 20.9824 0.914961 -2.30612
  313 9.81493 -0.211386 -0.821319
  314 9.81195 -0.210557 0.815938
  315 19.6063 -0.319857 0.305770
  316 19.6100 -0.333052 -0.318061
  317 0.111211 -0.461246 -0.373274
  318 0.131838 -0.480337 0.375630
  319 20.6488 0.554022 5.79000
  320 22.9121 4.82021 0.738460
  321 19.4229 -1.07988 1.09053
  322 5.62750 -0.120082 -1.21436
  323 5.62693 -0.119374 1.21524
  324 -0.272115 0.269513 -0.138964
  325 -0.278948 0.279935 0.128222
  326 19.5645 2.32878 -1.22775
  327 26.0590 5.38685 0.663599
  328 19.3974 -1.62213 -0.612411
  329 0.516638 0.169275 -0.609947
  330 0.658157 0.410175 0.722427
  331 10.7426 -0.741955 2.84328
  332 10.7327 -0.736543 -2.82563
  333 21.3636 -0.0420471 -0.0685499
  334 21.3616 -0.0540875 0.0745665
  335 17.4418 -1.81334 0.932895
  336 17.5869 0.0662308 1.21331
  337 16.6980 0.262562 1.01984
  338 1.69122 1.45227 -1.02134
  339 1.58871 1.30900 0.995229
  340 33.9073 3.99583 -0.619078
  341 29.3526 6.93912 1.01595
  342 17.8761 -1.28670 -0.0594477
  343 12.1428 -0.0627708 -0.120735
  344 12.1435 -0.0641209 0.123777
  345 21.1548 2.83665 -1.87860
  346 8.21250 -0.289047 2.88527
  347 8.21224 -0.293272 -2.88773
  348 24.0059 -0.347171 -1.46997
  349 13.2824 -0.315675 -0.474281
  350 13.2826 -0.304063 0.472730
  351 10.9212 -0.624209 -1.90220
  352 10.8999 -0.638651 1.90846
  353 8.37643 -0.125671 0.927547
  354 8.37181 -0.120181 -0.926378
  355 25.6547 1.85073 -0.502917
  356 16.2761 0.158296 -0.916912
  357 18.4602 3.28670 8.81609
  358 28.0278 6.12167 0.427287
  359 42.2017 3.62663 -4.76537
  360 15.4592 -0.325743 -0.0844015
  361 15.4592 -0.313258 0.0814147
  362 17.1820 -1.16471 -0.168706
  363 41.6493 4.93285 5.06650
  364 17.3570 -0.430677 0.0678759
  365 17.3446 -0.442652 -0.0537701
  366 18.7781 -1.11486 -0.535145
  367 16.0829 -0.568079 -0.174145
  368 15.8995 -0.536648 0.187965
  369 7.71303 6.16958 -7.10070
  370 12.5059 -0.455144 -0.882900
  371 12.5035 -0.459419 0.878552
  372 15.3260 0.492030 -0.0209953
  373 40.0456 9.69934 -6.43723
  374 7.36386 -0.0912392 -1.27825
  375 7.36405 -0.0885108 1.28156
  376 14.0755 -1.11594 -1.37898
  377 13.8181 -1.02161 1.42085
  378 19.2583 1.37090 -1.83858
  379 18.1357 -1.60243 -0.0248451
  380 1.45767 2.70248 -2.40285
  381 13.5312 -0.988597 -3.80745
  382 14.1351 -1.11515 3.75967
  383 0.516326 0.162412 -0.555135
  384 0.510051 0.167692 0.557661
  385 16.8857 -1.03109 0.208970
  386 11.3087 -0.112137 -0.292054
  387 11.3084 -0.111972 0.292079
  388 41.0580 1.42272 2.21515
  389 16.8422 -0.337307 0.0314254
  390 16.8470 -0.334985 -0.0356278
  391 18.7873 -1.10882 0.544176
  392 43.8489 11.3488 8.16689
  393 19.7253 -0.656027 -1.10674
  394 34.8461 4.84933 2.32518
  395 22.3063 -1.40276 -1.38674
  396 18.9936 2.34608 -0.130311
  397 17.5529 -0.927323 -4.34086
  398 20.9886 -0.439963 -4.37223
  399 2.44376 1.03343 -1.44088
  400 2.45843 1.08437 1.43875
  401 19.5471 -1.22768 -1.15923
  402 12.1047 -0.511282 1.27498
  403 12.0984 -0.533212 -1.28886
  404 20.4528 -0.103479 0.616493
  405 16.8090 -0.871570 -0.154091
  406 21.0889 -0.124041 0.302340
  407 20.8351 0.271308 2.35102
  408 22.5122 -0.753901 1.02183
  409 9.80788 -0.421868 2.21173
  410 9.81040 -0.433267 -2.21409
  411 6.36466 3.57713 -5.19755
  412 19.3440 0.384826 2.20003
  413 19.9073 -1.47122 1.18853
  414 16.9332 -1.79295 2.34272
  415 32.7811 6.68857 -3.17657
  416 19.7579 -0.963506 -1.65106
  417 22.1755 -0.529293 -1.50476
  418 17.9239 -0.789369 0.133413
  419 18.1344 -0.749434 -0.225506
  420 17.0296 -1.91673 -2.34962
  421 19.6935 0.0521214 -2.27191
  422 16.8589 -1.85486 -1.40015
  423 13.4653 -0.152029 -0.101528
  424 13.4663 -0.153594 0.0993782
  425 20.6831 3.18136 -1.36834
  426 20.4916 -0.105580 -0.607106
  427 23.9656 4.04389 -1.55308
  428 20.4019 -1.92931 -1.98363
  429 21.3152 -0.147126 -0.284565
  430 18.5714 -2.13631 1.47366
  431 27.9200 5.51550 0.0395322
  432 14.4828 -0.521253 0.466907
  433 14.5250 -0.555499 -0.472827
  434 20.3138 -0.121567 -0.0309043
  435 20.3095 -0.124124 0.0294366
  436 19.6752 -0.697106 1.12936
  437 14.2928 -0.752365 0.870491
  438 14.3022 -0.735252 -0.869273
  439 18.3502 1.59828 0.810165
  440 18.5967 -2.08564 -1.48274
  441 22.0478 3.64650 1.53160
  442 19.7363 -0.424499 1.34825
  443 25.6511 1.87228 -6.47827
  444 13.5437 -0.229721 -0.229489
  445 13.5393 -0.233777 0.229791
  446 23.0104 4.58712 -1.17942
  447 19.1021 -0.284778 -0.174469
  448 19.0970 -0.270461 0.176163
  449 18.4799 0.414528 -1.83772
  450 21.4650 1.95316 -2.27913
  451 12.0854 -0.0244065 -0.0203800
  452 12.0890 -0.0252935 0.0209273
  453 19.7380 -0.518451 -1.31204
  454 16.4872 -0.845039 4.75999
  455 22.4068 11.0783 -12.1531
  456 20.6555 2.98197 1.52582
  457 6.03439 1.67757 -3.74876
  458 5.88018 1.75035 3.69535
  459 10.8365 1.64174 -5.68681
  460 10.9413 1.77896 5.70571
  461 3.65955 5.95825 5.57808
  462 16.6339 -1.55796 0.895647
  463 30.3030 6.48548 1.21905
  464 3.12692 2.43670 -2.66681
  465 2.61113 2.20548 2.10514
  466 10.1653 -0.0623758 0.450333
  467 10.1704 -0.0663453 -0.450309
  468 25.4319 5.62668 -0.175469
  469 1.18758 0.906447 0.657331
  470 1.19128 0.911781 -0.686142
  471 23.5367 2.20793 -1.86943
  472 -0.176113 0.173170 -0.207131
  473 -0.183797 0.179687 0.198878
  474 19.3326 -0.270063 -1.98910
  475 0.238567 -0.856223 0.0860322
  476 0.216689 -0.774757 -0.0994419
  477 21.6012 -0.124857 0.121489
  478 21.5595 -0.0606323 -0.130374
  479 14.1664 -1.43379 2.71054
  480 14.2102 -1.45983 -2.70498
  481 28.8674 3.23284 2.15258
  482 21.8846 4.35970 -0.628647
  483 20.6052 -0.572575 2.12216
  484 26.6840 4.09666 -0.750693
  485 24.8076 0.919562 0.674377
  486 24.5350 5.51342 0.534301
  487 20.2583 3.31156 0.531314
  488 11.5151 3.85627 -7.81541
  489 20.1259 -0.973803 1.82418
  490 24.5639 4.38845 1.27752
  491 22.7944 -0.788981 2.76870
  492 19.4452 -1.37132 0.952956
  493 15.3685 -0.391024 -0.137242
  494 15.3325 -0.393544 0.129237
  495 21.0004 1.84117 2.20847
  496 34.2322 6.80685 3.69407
  497 19.7665 -0.833579 1.66639
  498 22.1577 -0.216930 1.75702
  499 38.3764 2.49652 2.14765
  500 9.09396 -0.0700678 3.50348
  501 11.4738 -0.245506 4.02702
  502 9.08576 -0.0717791 -3.49746
  503 11.3738 -0.277220 -4.06460
  504 31.6377 8.49961 -2.76962
  505 18.0002 -1.31758 0.0733882
  506 19.2612 -1.12526 -0.926131
  507 -0.191738 -0.180983 -0.304989
  508 -0.196699 -0.183513 0.313753
  509 33.4360 8.19478 7.89047
  510 14.6528 -0.235998 -0.0862228
  511 14.6500 -0.231364 0.0838554
  512 16.2827 -1.47309 -1.07407
  513 16.8059 -1.65929 2.97031
  514 20.9359 -1.25141 1.37216
  515 19.9992 0.865579 -2.28546
  516 17.5895 0.0560312 -1.16615
  517 -0.550971 0.00887910 0.389887
  518 -0.535164 0.00262719 -0.385765
  519 20.7242 -1.90262 1.58044
  520 12.8865 -1.05893 3.25885
  521 11.4921 0.00990908 0.0666017
  522 11.4915 0.00966017 -0.0640949
  523 4.90975 0.508925 -2.53167
  524 4.92283 0.494488 2.53798
  525 12.8617 -1.02455 -3.23036
  526 24.4121 1.30485 -1.28663
  527 9.89919 -0.338791 -1.40774
  528 9.89771 -0.353471 1.40848
  529 -0.0371140 -0.540968 -0.405556
  530 -0.0349876 -0.556431 0.414905
</Section>

newXOutput 3

<Section columns = "stress_xx | stress_yy | stress_xy">
  1 43.7965 0.0838510 0.167609
  2 43.7987 0.0802124 -0.170181
  3 23.3400 -0.0255384 -0.0667430
  4 -0.318740 -0.314200 -0.337103
  5 79.6643 30.7765 26.4374
  6 79.8029 31.1743 -25.4077
  7 -0.328990 -0.323586 0.348991
  8 23.3301 -0.0249545 0.0672657
  9 44.4863 -0.203963 0.139469
  10 44.1860 -0.247207 0.132100
  11 43.2450 -0.155868 0.478045
  12 42.1992 -0.125649 0.766531
  13 40.8279 -0.191643 0.970220
  14 38.1928 -0.169705 1.35337
  15 35.1795 -0.0128388 1.55009
  16 32.0511 0.159422 1.48646
  17 30.2644 0.498309 0.908725
  18 27.7176 0.862502 -0.0176458
  19 30.1649 0.544607 -1.02280
  20 32.3860 0.128656 -1.63867
  21 34.9027 0.0511614 -1.57220
  22 38.2682 -0.185886 -1.46723
  23 40.8588 -0.249539 -1.03858
  24 42.2095 -0.294182 -0.774036
  25 43.9492 -0.320740 -0.361953
  26 43.7503 -0.128148 -0.210696
  27 44.4492 -0.170427 -0.124109
  28 41.7768 -0.132870 -0.193747
  29 39.2841 -0.408832 -0.151301
  30 36.1279 -0.528694 -0.100818
  31 33.6449 -0.536132 -0.139260
  32 31.2578 -0.551547 0.0268653
  33 27.9967 -0.289686 0.0455515
  34 25.4179 -0.141004 -0.0559193
  35 23.0116 -0.00506607 0.110150
  36 22.4330 0.161027 0.0524392
  37 22.1880 -0.00893265 0.256878
  38 21.5423 -0.00810974 0.419318
  39 20.0483 0.00196859 0.472477
  40 18.7616 -0.0547831 0.809050
  41 16.4441 -0.0478147 0.955560
  42 13.8857 -0.0306335 1.21411
  43 10.5710 -0.119794 1.43262
  44 8.00709 0.0293477 2.00507
  45 4.39929 0.345188 1.63468
  46 0.223306 0.639843 1.02472
  47 -2.01667 0.516524 0.377648
  48 -2.64869 0.437016 -0.0415825
  49 -2.06025 0.280287 -0.630460
  50 -1.13313 -0.0793077 -0.487567
  51 -0.114886 -1.10003 -0.510200
  52 0.103086 -2.21251 -0.781829
  53 0.268665 -3.55820 -0.467473
  54 0.659533 -3.90936 -0.179544
  55 1.38799 -1.68360 1.23668
  56 3.84443 5.38353 5.72825
  57 17.3651 22.1769 19.7788
  58 107.000 13.5424 17.4037
  59 88.4575 3.64713 5.91647
  60 82.9621 1.63268 2.01487
  61 80.6957 1.11855 -0.253998
  62 82.8144 1.68538 -2.21899
  63 90.1873 4.09027 -6.89349
  64 103.709 15.3862 -18.3256
  65 20.3495 25.1132 -21.1767
  66 3.99966 4.56413 -4.75652
  67 1.41084 -1.83776 -1.26440
  68 0.550876 -3.96611 0.126159
  69 0.297575 -3.60629 0.412493
  70 0.121663 -2.26671 0.787212
  71 -0.114802 -1.13556 0.523544
  72 -1.16507 -0.0751870 0.495762
  73 -2.09661 0.291968 0.626304
  74 -2.65043 0.438022 0.0236102
  75 -1.99167 0.507213 -0.383413
  76 0.241623 0.636477 -1.01884
  77 4.40062 0.347758 -1.63131
  78 8.00847 0.0294954 -2.00281
  79 10.5683 -0.121418 -1.42824
  80 13.8717 -0.0271046 -1.20992
  81 16.4294 -0.0421995 -0.961590
  82 18.7695 -0.0577996 -0.817013
  83 20.0596 -0.00173910 -0.472500
  84 21.5475 -0.00793859 -0.416985
  85 22.1895 -0.0103951 -0.254021
  86 22.4294 0.162319 -0.0487616
  87 23.0031 -0.00403765 -0.108949
  88 25.4142 -0.140755 0.0549191
  89 27.9994 -0.296229 -0.0478867
  90 31.2598 -0.562726 -0.0269817
  91 33.6547 -0.541452 0.137792
  92 36.1341 -0.524703 0.101528
  93 39.2812 -0.409014 0.150601
  94 41.7588 -0.132982 0.196423
  95 37.3594 -4.03460 -1.34938
  96 37.8841 -4.00558 0.976290
  97 40.5254 6.82862 -1.01873
  98 27.0100 -0.759461 -8.83379
  99 26.6091 -0.667301 8.86822
  100 46.9718 9.56320 2.46696
  101 50.2436 10.7505 -1.28904
  102 31.1206 -1.40868 -0.764202
  103 31.4784 -1.37669 0.618898
  104 40.8520 -0.0287987 -4.51764
  105 46.0947 -1.12763 0.410468
  106 39.9786 -0.290652 4.47702
  107 47.6778 -0.527578 0.457006
  108 7.16804 3.82380 4.83473
  109 7.09198 3.63265 -5.01666
  110 38.5302 -1.65641 1.61066
  111 38.6470 -1.72187 -1.78513
  112 56.6932 11.1675 -0.247616
  113 24.5491 -1.91064 -4.83113
  114 24.5757 -1.90236 4.86180
  115 26.8086 -1.62809 2.39968
  116 26.8432 -1.59308 -2.37782
  117 22.9525 4.54023 -13.4818
  118 24.2698 4.66907 13.6178
  119 57.8656 13.5993 -2.00022
  120 61.9071 12.5465 3.59857
  121 38.9994 3.50361 3.36485
  122 36.6176 -1.00654 0.319533
  123 36.6686 -1.09099 -0.325550
  124 35.9863 1.32318 -2.95558
  125 12.7431 0.421891 -5.55013
  126 12.7595 0.400302 5.52977
  127 38.9898 -0.984333 -3.34911
  128 43.6775 1.48736 4.28298
  129 26.7419 -0.509817 0.672671
  130 26.7477 -0.515022 -0.657617
  131 33.8702 -2.78048 -0.999658
  132 33.6090 -2.66972 1.04776
  133 37.3692 -4.04584 3.89643
  134 44.2866 1.93582 -4.17544
  135 39.4378 -2.51192 2.69871
  136 46.5204 10.1346 -0.0795188
  137 38.8225 -4.09293 -3.50714
  138 55.4618 7.94047 0.838129
  139 52.1230 2.49111 -6.95610
  140 34.7383 2.31055 -0.100634
  141 38.8331 -0.892209 3.31709
  142 39.8028 -2.50228 -2.83897
  143 72.7122 5.90043 1.87974
  144 42.4159 -2.60184 -2.17008
  145 73.9375 8.33973 -6.04159
  146 42.5286 -2.56187 1.93336
  147 36.5618 0.739423 3.55138
  148 0.962728 1.11372 -0.0776398
  149 1.02422 1.19564 0.0888988
  150 40.2812 -0.677228 0.947312
  151 40.2362 -0.614614 -0.915420
  152 30.2994 -3.00664 -3.23800
  153 30.9294 -2.93823 3.03603
  154 15.2550 -0.537794 -4.42747
  155 15.2542 -0.533892 4.42426
  156 32.7030 -0.889517 -0.0685160
  157 32.6829 -0.833793 0.0827414
  158 4.40762 5.32062 -5.16168
  159 5.70200 5.39476 5.42939
  160 40.6424 3.75960 -3.96589
  161 22.2316 -1.01290 -3.04134
  162 22.1988 -1.05967 3.02079
  163 52.6000 4.67034 12.2482
  164 39.4367 -1.71147 8.77862
  165 35.8226 -1.97292 0.381307
  166 35.7511 -1.87882 -0.364733
  167 40.3915 -0.295306 0.330838
  168 40.3409 -0.288023 -0.345664
  169 40.6030 -3.17455 -5.99454
  170 24.5400 -0.575699 -1.19150
  171 24.5441 -0.576685 1.18398
  172 37.3889 0.122512 -3.75327
  173 49.8527 6.19876 2.43659
  174 49.9362 5.88828 -2.68716
  175 42.4628 7.91728 1.85770
  176 69.2513 18.2515 8.08255
  177 29.4878 -3.23509 6.19625
  178 41.8261 9.31030 -19.6192
  179 29.8169 -2.96197 -6.37260
  180 39.8931 -0.733097 -1.91284
  181 39.8691 -0.699505 1.94489
  182 37.7196 -2.82359 -1.02035
  183 4.87254 1.30363 -2.94196
  184 4.88031 1.33733 2.95054
  185 18.7710 2.06531 -9.38324
  186 18.3996 2.18733 9.28724
  187 43.4409 7.49207 -2.78779
  188 37.5423 -2.72538 0.995991
  189 22.0786 -0.996388 -7.11373
  190 22.1367 -0.947348 7.16971
  191 18.4062 -0.607413 -3.23858
  192 18.3951 -0.621544 3.25579
  193 59.4560 11.1652 -3.41681
  194 19.4901 11.8463 15.9714
  195 53.4301 11.4718 0.0551738
  196 29.0933 -0.488618 -0.241075
  197 29.0714 -0.502069 0.239806
  198 33.2983 -3.78349 3.52951
  199 10.2965 9.45249 -10.2854
  200 33.5931 -3.88810 -3.65918
  201 22.0406 -0.471580 1.60440
  202 22.0367 -0.489402 -1.59604
  203 41.2379 -2.33724 3.14772
  204 76.6241 8.23494 6.90525
  205 27.7089 -1.07240 -1.40263
  206 27.6644 -1.07718 1.37863
  207 42.9648 5.86979 3.86213
  208 25.4323 -0.169375 -0.239877
  209 25.4391 -0.174198 0.242203
  210 52.5670 11.5011 0.269819
  211 36.5766 2.89884 -1.99692
  212 73.1583 14.7594 -9.86789
  213 38.8451 5.15603 1.68849
  214 51.8244 10.4082 -1.50334
  215 39.2088 -1.44762 2.90177
  216 34.2438 -1.14462 0.0809777
  217 34.1604 -1.34759 0.00214918
  218 2.13158 1.32167 1.26294
  219 2.15074 1.28907 -1.29529
  220 33.4437 1.15042 -1.28113
  221 37.8152 -1.37931 0.858099
  222 37.9144 -1.35958 -0.892730
  223 1.97091 1.78145 -1.16030
  224 1.74607 1.94057 1.24594
  225 36.3669 -0.617039 -0.163514
  226 36.3652 -0.607383 0.178607
  227 10.1755 0.0276596 -3.34987
  228 10.1791 0.0265606 3.34828
  229 29.8335 1.04439 -11.2736
  230 36.0505 1.89912 2.81088
  231 39.0330 -1.76547 -2.59240
  232 39.6981 -1.24929 -4.01017
  233 36.3491 -3.02528 6.80129
  234 43.8450 -2.60178 -0.159116
  235 44.7162 6.18849 -3.86929
  236 37.5515 -0.197341 -2.62408
  237 37.9929 -0.152330 3.85431
  238 39.8948 1.63841 4.46711
  239 64.0724 13.7368 6.86117
  240 77.8307 2.99826 -1.61409
  241 38.1487 1.23611 -4.22461
  242 39.3189 -1.10400 3.99562
  243 25.7381 -2.00165 -3.67929
  244 25.4658 -1.99699 3.67700
  245 52.8911 4.75091 -0.360341
  246 46.6603 1.60704 3.15779
  247 -0.226999 -0.122351 -0.919492
  248 -0.222517 -0.0999561 0.938587
  249 10.6303 2.26439 -5.99854
  250 10.6292 2.32390 5.99309
  251 35.1882 0.306139 -2.70468
  252 38.2013 -3.38763 0.714126
  253 13.8342 4.55780 -9.51428
  254 12.5362 5.26386 8.98988
  255 5.68267 0.423631 -2.69456
  256 5.69335 0.417577 2.70070
  257 29.4239 -0.886014 -0.563690
  258 29.4180 -0.880144 0.571916
  259 41.1315 -1.90785 -3.44473
  260 34.5816 -3.12101 -6.55316
  261 46.0861 0.537888 -2.67618
  262 36.1122 -3.34516 0.426771
  263 38.5177 2.95544 -14.1603
  264 35.4115 -3.51873 -1.13330
  265 30.3831 -2.19485 -1.94778
  266 30.4707 -2.29736 2.04885
  267 61.8073 11.4000 -2.95680
  268 50.1459 11.0031 0.375070
  269 51.6501 1.49224 4.29388
  270 39.3905 -0.475675 -1.97520
  271 24.2017 -0.292422 0.581479
  272 24.2016 -0.298514 -0.578518
  273 40.3492 -3.36003 -1.54200
  274 42.9951 -3.14404 -0.849294
  275 61.8281 10.3785 1.52129
  276 29.3712 0.783060 11.1647
  277 40.4358 -3.32744 1.48287
  278 40.7761 -0.358506 1.10721
  279 42.7697 -0.495578 -4.02291
  280 38.3723 16.4411 21.0795
  281 4.42441 5.84001 5.90542
  282 41.8987 -0.296345 0.422824
  283 41.4516 -0.266107 -0.534913
  284 37.3603 -0.215459 2.35670
  285 33.5603 1.36476 1.22113
  286 40.8510 -0.305289 -1.08460
  287 43.5713 -2.60818 3.95196
  288 16.8302 0.618749 -7.46944
  289 16.8003 0.581186 7.46479
  290 45.5208 5.67718 3.66481
  291 40.0677 -4.04514 -0.831134
  292 38.0517 1.63194 3.96631
  293 38.4478 -0.408318 0.0986903
  294 38.4477 -0.414202 -0.101524
  295 39.3096 -0.428836 1.93659
  296 40.5395 -3.98690 0.908378
  297 42.8541 8.56174 0.383340
  298 60.4187 11.0737 -12.5683
  299 31.3328 -1.82552 -1.08496
  300 30.8463 -1.83874 1.18604
  301 42.4582 -1.18138 3.66629
  302 47.9183 10.4661 -0.961718
  303 29.6434 -3.01670 -4.13432
  304 28.7596 -2.85065 4.47301
  305 79.7463 2.19971 1.47106
  306 82.0343 3.02255 -4.80440
  307 39.4857 -1.08358 -1.60762
  308 22.1829 -0.189509 0.941793
  309 22.1799 -0.188119 -0.939411
  310 11.7508 8.07022 10.6615
  311 39.4705 -1.06964 1.58472
  312 41.8725 1.82458 -4.56933
  313 19.6452 -0.421155 -1.64182
  314 19.6393 -0.419507 1.63109
  315 39.1150 -0.641047 0.599640
  316 39.1225 -0.667253 -0.624015
  317 0.224294 -0.913611 -0.739467
  318 0.265432 -0.951949 0.744379
  319 41.1641 1.11549 11.5743
  320 45.7292 9.61248 1.45909
  321 38.7581 -2.15608 2.15071
  322 11.2830 -0.240218 -2.42844
  323 11.2819 -0.238808 2.43013
  324 -0.534179 0.540024 -0.271192
  325 -0.548046 0.560858 0.249841
  326 39.0638 4.64824 -2.43641
  327 51.9794 10.7474 1.28251
  328 38.7051 -3.23744 -1.19456
  329 1.03615 0.365142 -1.23410
  330 1.31957 0.847155 1.45981
  331 21.4714 -1.48256 5.68608
  332 21.4519 -1.47171 -5.65100
  333 42.5950 -0.0863656 -0.134673
  334 42.5908 -0.110353 0.146543
  335 34.8120 -3.61792 1.88101
  336 35.1316 0.132612 2.40878
  337 33.3687 0.525585 2.02606
  338 3.39117 2.90739 -2.05764
  339 3.18668 2.62119 2.00588
  340 67.5700 7.95932 -1.23500
  341 58.5249 13.8422 2.06680
  342 35.6797 -2.56733 -0.0989810
  343 24.2956 -0.124567 -0.242808
  344 24.2968 -0.127248 0.248837
  345 42.2248 5.65889 -3.72268
  346 16.4258 -0.579532 5.77060
  347 16.4253 -0.588006 -5.77562
  348 47.8573 -0.685136 -2.97023
  349 26.5531 -0.628426 -0.952115
  350 26.5536 -0.605275 0.948969
  351 21.8369 -1.24549 -3.80311
  352 21.7945 -1.27426 3.81552
  353 16.7750 -0.250593 1.85363
  354 16.7659 -0.239657 -1.85133
  355 51.1494 3.69940 -0.955052
  356 32.5320 0.318115 -1.82194
  357 36.7986 6.57397 17.6015
  358 55.9009 12.2062 0.878154
  359 84.0078 7.22032 -9.48029
  360 30.8807 -0.649481 -0.171878
  361 30.8806 -0.624625 0.165945
  362 34.3000 -2.32329 -0.353260
  363 82.9195 9.82416 10.0814
  364 34.6491 -0.860608 0.127348
  365 34.6246 -0.884426 -0.0991895
  366 37.4737 -2.22523 -1.04640
  367 32.1182 -1.13287 -0.356567
  368 31.7540 -1.07014 0.383243
  369 15.3811 12.3666 -14.1909
  370 25.0041 -0.907007 -1.76749
  371 24.9993 -0.915475 1.75872
  372 30.6459 0.983794 -0.0417398
  373 79.7245 19.3457 -12.8474
  374 14.7500 -0.182095 -2.55533
  375 14.7504 -0.176643 2.56186
  376 28.1197 -2.22560 -2.76284
  377 27.6073 -2.03732 2.84531
  378 38.4516 2.73685 -3.64924
  379 36.1954 -3.19711 -0.0715564
  380 2.91851 5.43850 -4.82116
  381 27.0182 -1.97619 -7.61378
  382 28.2202 -2.22843 7.51861
  383 1.05694 0.323944 -1.11542
  384 1.04472 0.334455 1.12045
  385 33.7117 -2.05661 0.431732
  386 22.6326 -0.223075 -0.584666
  387 22.6318 -0.222740 0.584689
  388 81.7319 2.83201 4.40175
  389 33.6269 -0.673933 0.0590214
  390 33.6364 -0.669262 -0.0673404
  391 37.4921 -2.21317 1.06464
  392 87.2480 22.6392 16.2861
  393 39.3599 -1.31091 -2.18681
  394 69.4346 9.66125 4.63615
  395 44.4789 -2.79668 -2.79920
  396 37.9303 4.68378 -0.258850
  397 35.0158 -1.85028 -8.68219
  398 41.8463 -0.871327 -8.74892
  399 4.90040 2.06479 -2.89382
  400 4.92998 2.16629 2.88958
  401 39.0052 -2.45091 -2.28543
  402 24.2017 -1.01904 2.55032
  403 24.1893 -1.06280 -2.57813
  404 40.8048 -0.207598 1.21965
  405 33.5599 -1.73866 -0.320840
  406 42.0580 -0.249383 0.595700
  407 41.5768 0.540121 4.65766
  408 44.9004 -1.50407 2.00055
  409 19.6153 -0.842394 4.42169
  410 19.6203 -0.865166 -4.42649
  411 12.7187 7.15078 -10.3991
  412 38.6170 0.767941 4.36512
  413 39.7210 -2.93697 2.34112
  414 33.7934 -3.57893 4.69378
  415 65.3415 13.3323 -6.34779
  416 39.4278 -1.92412 -3.26576
  417 44.2335 -1.05707 -2.96485
  418 35.7753 -1.57560 0.252009
  419 36.1934 -1.49619 -0.435370
  420 33.9851 -3.82594 -4.70789
  421 39.3086 0.103232 -4.50565
  422 33.6524 -3.70107 -2.81158
  423 26.9220 -0.302204 -0.204002
  424 26.9240 -0.305310 0.199720
  425 41.2897 6.34705 -2.71311
  426 40.8816 -0.211652 -1.20106
  427 47.8132 8.06669 -3.06120
  428 40.6904 -3.84902 -3.98549
  429 42.5054 -0.295026 -0.560837
  430 37.0551 -4.26355 2.96348
  431 55.6716 11.0110 0.0278436
  432 28.9380 -1.03867 0.939563
  433 29.0219 -1.10695 -0.951431
  434 40.5153 -0.245854 -0.0595750
  435 40.5066 -0.250940 0.0566544
  436 39.2600 -1.39296 2.23137
  437 28.5560 -1.49970 1.74636
  438 28.5750 -1.46568 -1.74407
  439 36.6505 3.19238 1.60882
  440 37.1057 -4.16267 -2.98146
  441 44.0038 7.27410 3.03175
  442 39.3852 -0.848520 2.66873
  443 51.0969 3.76689 -12.9513
  444 27.0766 -0.456942 -0.460905
  445 27.0677 -0.464993 0.461465
  446 45.9207 9.14839 -2.32897
  447 38.1137 -0.571113 -0.340375
  448 38.1036 -0.542597 0.343793
  449 36.9028 0.828037 -3.64842
  450 42.8360 3.89604 -4.51593
  451 24.1839 -0.0481080 -0.0417984
  452 24.1910 -0.0498701 0.0428766
  453 39.3881 -1.03612 -2.59621
  454 32.8939 -1.68714 9.51708
  455 44.5757 22.1878 -24.2384
  456 41.2331 5.94988 3.02504
  457 12.0695 3.34931 -7.50562
  458 11.7623 3.49430 7.39871
  459 21.6409 3.27676 -11.3705
  460 21.8479 3.54984 11.4074
  461 7.31074 11.9637 11.1661
  462 33.2076 -3.10784 1.80428
  463 60.4004 12.9532 2.49188
  464 6.25917 4.87466 -5.34748
  465 5.23073 4.41301 4.22635
  466 20.3493 -0.124016 0.900239
  467 20.3595 -0.131932 -0.900207
  468 50.7450 11.2158 -0.345646
  469 2.38657 1.81336 1.32737
  470 2.39365 1.82411 -1.38473
  471 46.9500 4.40523 -3.68815
  472 -0.334541 0.345778 -0.420320
  473 -0.349574 0.358763 0.403877
  474 38.5906 -0.539649 -3.94408
  475 0.478331 -1.69379 0.163012
  476 0.434823 -1.53042 -0.189393
  477 43.0666 -0.250357 0.238822
  478 42.9841 -0.122991 -0.256389
  479 28.2889 -2.86267 5.42308
  480 28.3763 -2.91460 -5.41237
  481 57.5213 6.47553 4.34944
  482 43.6844 8.69534 -1.24382
  483 41.1154 -1.14425 4.20088
  484 53.2090 8.17899 -1.44698
  485 49.4643 1.84003 1.30119
  486 48.9584 10.9936 1.04656
  487 40.4465 6.60810 1.05401
  488 22.9764 7.71104 -15.6164
  489 40.1602 -1.94471 3.60873
  490 49.0055 8.75504 2.51133
  491 45.4429 -1.56651 5.55678
  492 38.8013 -2.73726 1.87413
  493 30.7000 -0.779526 -0.279728
  494 30.6283 -0.784548 0.263769
  495 41.9121 3.67310 4.37653
  496 68.2221 13.5649 7.37348
  497 39.4449 -1.66500 3.29695
  498 44.1995 -0.434051 3.46724
  499 76.4223 4.97130 4.27184
  500 18.1789 -0.143431 7.00689
  501 22.9188 -0.493781 8.05202
  502 18.1627 -0.146928 -6.99496
  503 22.7197 -0.557295 -8.12684
  504 63.0682 16.9535 -5.56005
  505 35.9267 -2.62881 0.126575
  506 38.4357 -2.24642 -1.82317
  507 -0.382420 -0.361031 -0.608647
  508 -0.392377 -0.366117 0.626206
  509 66.5486 16.4014 15.7916
  510 29.2797 -0.469952 -0.173604
  511 29.2741 -0.460723 0.168900
  512 32.5084 -2.93862 -2.15867
  513 33.5372 -3.31298 5.94589
  514 41.7675 -2.49846 2.70373
  515 39.9199 1.72664 -4.53283
  516 35.1370 0.111934 -2.31490
  517 -1.09803 0.0186132 0.777085
  518 -1.06632 0.00613657 -0.768773
  519 41.3336 -3.79651 3.18117
  520 25.7382 -2.11577 6.51764
  521 23.0027 0.0200459 0.134395
  522 23.0016 0.0195465 -0.129427
  523 9.83099 1.01420 -5.06972
  524 9.85717 0.985313 5.08212
  525 25.6889 -2.04716 -6.46095
  526 48.6812 2.60581 -2.52181
  527 19.8070 -0.675314 -2.81380
  528 19.8040 -0.704568 2.81525
  529 -0.0730505 -1.07826 -0.808259
  530 -0.0688416 -1.10927 0.827039
</Section>

newXOutput 4

<Section columns = "stress_xx | stress_yy | stress_xy">
  1 65.4783 0.121933 0.248576
  2 65.4819 0.116717 -0.252377
  3 35.0402 -0.0373044 -0.0988584
  4 -0.477798 -0.470948 -0.505505
  5 118.750 46.1215 39.5079
  6 118.997 46.7308 -37.9711
  7 -0.493186 -0.485038 0.523343
  8 35.0258 -0.0364334 0.0996309
  9 66.5036 -0.306240 0.205989
  10 66.0604 -0.370732 0.193530
  11 64.6702 -0.234809 0.707723
  12 63.1240 -0.190139 1.13648
  13 61.0943 -0.287894 1.44019
  14 57.1844 -0.254429 2.01246
  15 52.7066 -0.0189233 2.30771
  16 48.0525 0.239914 2.21483
  17 45.3917 0.747875 1.35515
  18 41.6010 1.29019 -0.0262850
  19 45.2439 0.816678 -1.52531
  20 48.5505 0.193946 -2.44122
  21 52.2961 0.0758226 -2.34019
  22 57.2964 -0.278776 -2.18179
  23 61.1405 -0.374295 -1.54178
  24 63.1395 -0.440791 -1.14785
  25 65.7159 -0.479937 -0.535059
  26 65.4152 -0.193937 -0.309688
  27 66.4488 -0.256267 -0.183168
  28 62.4799 -0.203056 -0.287745
  29 58.7746 -0.616127 -0.223846
  30 54.0780 -0.794562 -0.147314
  31 50.3814 -0.804102 -0.206437
  32 46.8263 -0.824990 0.0424223
  33 41.9700 -0.432351 0.0692776
  34 38.1314 -0.209573 -0.0823864
  35 34.5503 -0.00695199 0.165491
  36 33.6851 0.240288 0.0805174
  37 33.3145 -0.0128016 0.386591
  38 32.3448 -0.0114819 0.629081
  39 30.1080 0.00323334 0.709010
  40 28.1801 -0.0816295 1.21206
  41 24.7092 -0.0712249 1.43215
  42 20.8771 -0.0454970 1.81973
  43 15.9097 -0.179725 2.14863
  44 12.0641 0.0433113 3.00717
  45 6.64918 0.516594 2.45545
  46 0.381435 0.958213 1.54302
  47 -2.98885 0.773940 0.572059
  48 -3.95062 0.655363 -0.0567843
  49 -3.08169 0.421569 -0.941513
  50 -1.69717 -0.117807 -0.729776
  51 -0.171142 -1.64790 -0.763843
  52 0.156156 -3.31072 -1.16846
  53 0.404642 -5.31341 -0.693419
  54 0.992045 -5.81997 -0.255115
  55 2.08641 -2.45139 1.87818
  56 5.76507 8.20028 8.61762
  57 25.9279 33.3623 29.6010
  58 159.530 20.2254 25.9177
  59 132.007 5.44412 8.80876
  60 123.840 2.43861 2.99866
  61 120.474 1.67135 -0.377911
  62 123.622 2.51762 -3.30329
  63 134.571 6.10673 -10.2624
  64 154.657 22.9826 -27.3048
  65 30.3735 37.7618 -31.6766
  66 6.00511 6.96105 -7.16552
  67 2.12003 -2.68105 -1.91829
  68 0.828420 -5.90643 0.176279
  69 0.447761 -5.38632 0.611367
  70 0.183942 -3.39229 1.17670
  71 -0.171057 -1.70126 0.783911
  72 -1.74516 -0.111657 0.742112
  73 -3.13645 0.439066 0.935377
  74 -3.95370 0.656895 0.0299158
  75 -2.95196 0.760037 -0.580680
  76 0.408362 0.953212 -1.53425
  77 6.65083 0.520456 -2.45047
  78 12.0659 0.0435376 -3.00388
  79 15.9056 -0.182159 -2.14214
  80 20.8562 -0.0402308 -1.81350
  81 24.6874 -0.0628293 -1.44117
  82 28.1920 -0.0861371 -1.22397
  83 30.1250 -0.00231174 -0.709062
  84 32.3527 -0.0112269 -0.625622
  85 33.3169 -0.0149919 -0.382355
  86 33.6801 0.242208 -0.0750521
  87 34.5379 -0.00541731 -0.163707
  88 38.1262 -0.209206 0.0808892
  89 41.9742 -0.442132 -0.0727644
  90 46.8294 -0.841708 -0.0425984
  91 50.3959 -0.812089 0.204245
  92 54.0873 -0.788652 0.148400
  93 58.7701 -0.616386 0.222818
  94 62.4529 -0.203253 0.291677
  95 55.9106 -6.03867 -2.05505
  96 56.6931 -5.99504 1.49759
  97 60.6832 10.2190 -1.51542
  98 40.4409 -1.14158 -13.2472
  99 39.8428 -1.00331 13.2991
  100 70.2992 14.3039 3.64989
  101 75.1818 16.0788 -1.88785
  102 46.6180 -2.10662 -1.15838
  103 47.1511 -2.05900 0.941489
  104 61.1433 -0.0454685 -6.71301
  105 68.9414 -1.68365 0.556028
  106 59.8418 -0.436437 6.65576
  107 71.2959 -0.782686 0.744524
  108 10.7647 5.73120 7.27037
  109 10.6500 5.44528 -7.54290
  110 57.6636 -2.48127 2.37917
  111 57.8387 -2.57909 -2.63869
  112 84.8051 16.6898 -0.375148
  113 36.7897 -2.86069 -7.24639
  114 36.8296 -2.84822 7.29186
  115 40.1810 -2.43424 3.60392
  116 40.2328 -2.38206 -3.57165
  117 34.3644 6.80173 -20.2084
  118 36.3287 6.99769 20.4118
  119 86.5450 20.3404 -3.04125
  120 92.5703 18.7559 5.40855
  121 58.3984 5.24536 5.00784
  122 54.8087 -1.50871 0.462243
  123 54.8847 -1.63485 -0.470995
  124 53.9075 1.98370 -4.40210
  125 19.1271 0.628048 -8.32974
  126 19.1517 0.595781 8.29906
  127 58.3629 -1.47508 -4.97552
  128 65.3579 2.22416 6.35443
  129 40.0966 -0.760832 1.01343
  130 40.1053 -0.768661 -0.991094
  131 50.7111 -4.15989 -1.52172
  132 50.3224 -3.99381 1.59263
  133 55.9153 -6.05608 5.86663
  134 66.2669 2.89577 -6.19315
  135 59.0214 -3.76130 3.99536
  136 69.6359 15.1559 -0.118116
  137 58.0843 -6.12633 -5.28566
  138 82.9198 11.9016 1.33483
  139 77.8972 3.75890 -10.4672
  140 52.0519 3.46383 -0.150071
  141 58.1306 -1.33685 4.92892
  142 59.5662 -3.74705 -4.20309
  143 108.629 8.81435 2.80632
  144 63.4594 -3.89564 -3.19603
  145 110.458 12.4589 -9.02548
  146 63.6275 -3.83532 2.84105
  147 54.7617 1.10859 5.28791
  148 1.45484 1.67760 -0.0993285
  149 1.54678 1.80034 0.116528
  150 60.2656 -1.01705 1.39877
  151 60.1989 -0.923712 -1.35144
  152 45.3795 -4.49888 -4.86625
  153 46.3197 -4.39634 4.56484
  154 22.8993 -0.806826 -6.64028
  155 22.8982 -0.800992 6.63536
  156 48.9779 -1.33115 -0.112979
  157 48.9479 -1.24783 0.134229
  158 6.61941 7.99774 -7.76698
  159 8.56124 8.10517 8.16842
  160 60.8464 5.62649 -5.89871
  161 33.3438 -1.51479 -4.55998
  162 33.2947 -1.58475 4.52927
  163 78.5812 7.04145 18.3768
  164 58.9803 -2.55790 13.1705
  165 53.6250 -2.95283 0.544576
  166 53.5185 -2.81236 -0.520795
  167 60.4230 -0.446848 0.486533
  168 60.3480 -0.436000 -0.508577
  169 60.7307 -4.74673 -9.01027
  170 36.8101 -0.859419 -1.78923
  171 36.8161 -0.860867 1.77793
  172 55.9898 0.183976 -5.58634
  173 74.5711 9.28134 3.57945
  174 74.6950 8.81602 -3.95271
  175 63.5740 11.8455 2.76041
  176 103.496 27.3009 12.1321
  177 44.1522 -4.84510 9.29790
  178 62.4972 13.9805 -29.3712
  179 44.6432 -4.43648 -9.56188
  180 59.6993 -1.09961 -2.83708
  181 59.6636 -1.04959 2.88482
  182 56.4542 -4.22624 -1.49096
  183 7.33448 1.95213 -4.42549
  184 7.34645 2.00243 4.43824
  185 28.1260 3.08837 -14.0753
  186 27.5708 3.27073 13.9313
  187 65.0302 11.2089 -4.13985
  188 56.1896 -4.07914 1.45522
  189 33.0861 -1.49624 -10.6682
  190 33.1728 -1.42283 10.7519
  191 27.6241 -0.908924 -4.85541
  192 27.6075 -0.930019 4.88102
  193 88.8741 16.7352 -5.20016
  194 29.1680 17.7633 23.9339
  195 79.9418 17.1497 0.102669
  196 43.6018 -0.729960 -0.366516
  197 43.5691 -0.750024 0.364613
  198 49.8488 -5.66292 5.30959
  199 15.4365 14.1892 -15.4396
  200 50.2879 -5.81976 -5.50440
  201 33.0724 -0.704276 2.40634
  202 33.0666 -0.730927 -2.39393
  203 61.7076 -3.50010 4.66133
  204 114.453 12.3008 10.3093
  205 41.5307 -1.60258 -2.11050
  206 41.4643 -1.60965 2.07452
  207 64.3122 8.78276 5.73677
  208 38.1513 -0.251935 -0.361825
  209 38.1613 -0.259130 0.365266
  210 78.6501 17.1990 0.367542
  211 54.7893 4.34287 -2.97436
  212 109.317 22.0627 -14.7603
  213 58.1734 7.71850 2.51260
  214 77.5280 15.5733 -2.18777
  215 58.6831 -2.16918 4.30510
  216 51.2727 -1.71394 0.104818
  217 51.1482 -2.01705 0.0205947
  218 3.21909 1.98167 1.90961
  219 3.24735 1.93296 -1.95796
  220 50.1237 1.72624 -1.90936
  221 56.5944 -2.06662 1.26010
  222 56.7426 -2.03710 -1.31155
  223 2.96395 2.68833 -1.76282
  224 2.62717 2.92681 1.89176
  225 54.4346 -0.926575 -0.235828
  226 54.4320 -0.912191 0.258414
  227 15.2956 0.0394842 -5.02657
  228 15.3012 0.0378449 5.02406
  229 44.6463 1.56387 -16.9004
  230 54.0044 2.84584 4.18665
  231 58.4188 -2.64475 -3.84197
  232 59.4191 -1.87168 -5.95693
  233 54.3841 -4.52916 10.2097
  234 65.5844 -3.89310 -0.186088
  235 66.9226 9.25819 -5.74171
  236 56.2303 -0.296194 -3.90330
  237 56.8866 -0.228463 5.73393
  238 59.7246 2.45172 6.64503
  239 95.7367 20.5933 10.3568
  240 116.226 4.47850 -2.40748
  241 57.1236 1.85062 -6.28804
  242 58.8546 -1.65425 5.93725
  243 38.5733 -2.99505 -5.52084
  244 38.1670 -2.98806 5.51723
  245 79.0788 7.12671 -0.612746
  246 69.7989 2.40609 4.66418
  247 -0.333892 -0.178103 -1.37078
  248 -0.327360 -0.144636 1.39960
  249 15.9527 3.38873 -9.00908
  250 15.9513 3.47758 9.00055
  251 52.7182 0.460347 -4.02843
  252 57.1712 -5.07029 1.02973
  253 20.7387 6.82784 -14.2775
  254 18.7959 7.88579 13.4927
  255 8.55837 0.632959 -4.04897
  256 8.57466 0.623868 4.05806
  257 44.0924 -1.32405 -0.853084
  258 44.0835 -1.31515 0.865107
  259 61.5505 -2.85774 -5.10567
  260 51.7497 -4.67293 -9.83759
  261 68.9387 0.805378 -3.94350
  262 54.0537 -5.00569 0.670806
  263 57.5915 4.43994 -21.2170
  264 53.0076 -5.26547 -1.72669
  265 45.5113 -3.28265 -2.93358
  266 45.6407 -3.43614 3.08499
  267 92.4211 17.0380 -4.43961
  268 75.0450 16.4514 0.547252
  269 77.2043 2.25698 6.48850
  270 58.9588 -0.713034 -2.93400
  271 36.3118 -0.435809 0.874081
  272 36.3119 -0.444921 -0.869713
  273 60.3760 -5.03011 -2.26167
  274 64.3134 -4.70474 -1.31979
  275 92.4502 15.5090 2.28612
  276 43.9560 1.17233 16.7376
  277 60.5048 -4.98111 2.17299
  278 61.0077 -0.539392 1.63961
  279 63.9972 -0.743980 -5.96732
  280 57.2847 24.6930 31.5518
  281 6.64219 8.80506 8.88302
  282 62.6662 -0.446399 0.622995
  283 62.0020 -0.402027 -0.789351
  284 55.9459 -0.322785 3.50581
  285 50.2971 2.04693 1.81970
  286 61.1189 -0.459824 -1.60598
  287 65.1613 -3.89927 5.95875
  288 25.2326 0.921179 -11.2071
  289 25.1878 0.865039 11.2000
  290 68.1197 8.49492 5.43151
  291 59.9490 -6.05491 -1.28637
  292 56.9821 2.44448 5.90446
  293 57.5308 -0.615808 0.142301
  294 57.5309 -0.624580 -0.146457
  295 58.8389 -0.642736 2.87702
  296 60.6518 -5.96746 1.40248
  297 64.1615 12.8086 0.569440
  298 90.2301 16.6441 -18.8770
  299 46.9308 -2.73018 -1.64195
  300 46.2055 -2.74968 1.79249
  301 63.5311 -1.77046 5.43366
  302 71.7197 15.6505 -1.41860
  303 44.3951 -4.51542 -6.20852
  304 43.0766 -4.26701 6.71360
  305 119.069 3.28582 2.19207
  306 122.475 4.51265 -7.15971
  307 59.0870 -1.62476 -2.37897
  308 33.2927 -0.282624 1.41275
  309 33.2884 -0.280553 -1.40923
  310 17.6151 12.0998 15.9999
  311 59.0641 -1.60380 2.34494
  312 62.6708 2.72898 -6.79021
  313 29.4903 -0.629317 -2.46144
  314 29.4813 -0.626857 2.44540
  315 58.5269 -0.963513 0.881843
  316 58.5383 -1.00255 -0.918098
  317 0.339237 -1.35716 -1.09862
  318 0.400770 -1.41489 1.10629
  319 61.5469 1.68438 17.3527
  320 68.4514 14.3771 2.16215
  321 58.0062 -3.22860 3.18105
  322 16.9660 -0.360400 -3.64220
  323 16.9645 -0.358293 3.64463
  324 -0.786262 0.811524 -0.396732
  325 -0.807366 0.842760 0.364903
  326 58.4980 6.95846 -3.62620
  327 77.7621 16.0819 1.85751
  328 57.9237 -4.84593 -1.74695
  329 1.55848 0.587383 -1.87231
  330 1.98418 1.31071 2.21197
  331 32.1861 -2.22180 8.52830
  332 32.1572 -2.20550 -8.47597
  333 63.6955 -0.132899 -0.198418
  334 63.6891 -0.168740 0.215983
  335 52.1110 -5.41380 2.84404
  336 52.6336 0.199150 3.58664
  337 50.0114 0.789068 3.01881
  338 5.09973 4.36532 -3.10872
  339 4.79380 3.93651 3.03178
  340 100.990 11.8908 -1.84776
  341 87.5183 20.7097 3.15177
  342 53.4111 -3.84190 -0.118972
  343 36.4576 -0.185395 -0.366179
  344 36.4591 -0.189390 0.375140
  345 63.2104 8.46689 -5.53270
  346 24.6396 -0.871427 8.65589
  347 24.6390 -0.884170 -8.66356
  348 71.5555 -1.01391 -4.50022
  349 39.8119 -0.938274 -1.43339
  350 39.8124 -0.903655 1.42860
  351 32.7468 -1.86384 -5.70264
  352 32.6835 -1.90682 5.72108
  353 25.1951 -0.374765 2.77822
  354 25.1816 -0.358427 -2.77481
  355 76.4854 5.54614 -1.35726
  356 48.7669 0.479445 -2.71520
  357 55.0160 9.86183 26.3561
  358 83.6202 18.2539 1.35210
  359 125.423 10.7814 -14.1453
  360 46.2642 -0.971212 -0.262357
  361 46.2640 -0.934099 0.253519
  362 51.3541 -3.47575 -0.553344
  363 123.815 14.6744 15.0453
  364 51.8766 -1.28976 0.178587
  365 51.8400 -1.32529 -0.136427
  366 56.0872 -3.33112 -1.53419
  367 48.1059 -1.69439 -0.547085
  368 47.5634 -1.60049 0.585671
  369 23.0043 18.5906 -21.2701
  370 37.4942 -1.35561 -2.65367
  371 37.4868 -1.36819 2.64040
  372 45.9592 1.47529 -0.0622355
  373 119.040 28.9396 -19.2302
  374 22.1579 -0.272564 -3.83118
  375 22.1585 -0.264391 3.84084
  376 42.1324 -3.32901 -4.15139
  377 41.3674 -3.04718 4.27322
  378 57.5800 4.09790 -5.43231
  379 54.1796 -4.78410 -0.139732
  380 4.38242 8.20766 -7.25461
  381 40.4611 -2.96277 -11.4189
  382 42.2553 -3.33985 11.2767
  383 1.62163 0.484602 -1.68080
  384 1.60380 0.500296 1.68831
  385 50.4779 -3.07659 0.668003
  386 33.9709 -0.332823 -0.877796
  387 33.9695 -0.332315 0.877790
  388 122.026 4.22808 6.56025
  389 50.3542 -1.00985 0.0828662
  390 50.3684 -1.00280 -0.0952173
  391 56.1148 -3.31304 1.56183
  392 130.203 33.8717 24.3575
  393 58.9041 -1.96462 -3.24066
  394 103.768 14.4362 6.93294
  395 66.5189 -4.18176 -4.23691
  396 56.8100 7.01316 -0.385635
  397 52.3893 -2.76889 -13.0238
  398 62.5740 -1.29414 -13.1298
  399 7.36976 3.09407 -4.35870
  400 7.41448 3.24575 4.35234
  401 58.3750 -3.66970 -3.37912
  402 36.2905 -1.52329 3.82591
  403 36.2721 -1.58878 -3.86769
  404 61.0566 -0.312336 1.80971
  405 50.2528 -2.60130 -0.499984
  406 62.9083 -0.375991 0.880258
  407 62.2258 0.806525 6.92053
  408 67.1653 -2.25046 2.93684
  409 29.4218 -1.26157 6.62978
  410 29.4293 -1.29569 -6.63711
  411 19.0619 10.7209 -15.6044
  412 57.8192 1.14939 6.49574
  413 59.4418 -4.39726 3.45834
  414 50.5808 -5.35800 7.05296
  415 97.6828 19.9317 -9.51339
  416 59.0101 -2.88181 -4.84465
  417 66.1747 -1.58325 -4.38094
  418 53.5544 -2.35869 0.356078
  419 54.1772 -2.24026 -0.629892
  420 50.8668 -5.72767 -7.07457
  421 58.8455 0.153383 -6.70171
  422 50.3806 -5.53868 -4.23403
  423 40.3698 -0.450538 -0.307394
  424 40.3725 -0.455158 0.300995
  425 61.8201 9.49722 -4.03460
  426 61.1706 -0.318200 -1.78208
  427 71.5435 12.0687 -4.52501
  428 60.8663 -5.75916 -6.00520
  429 63.5719 -0.443673 -0.828980
  430 55.4518 -6.38177 4.46912
  431 83.2561 16.4867 -0.0341052
  432 43.3651 -1.55227 1.41782
  433 43.4903 -1.65439 -1.43566
  434 60.6057 -0.372783 -0.0860596
  435 60.5924 -0.380372 0.0817010
  436 58.7550 -2.08755 3.30651
  437 42.7894 -2.24203 2.62743
  438 42.8179 -2.19132 -2.62423
  439 54.9006 4.78235 2.39609
  440 55.5275 -6.23113 -4.49582
  441 65.8685 10.8830 4.50088
  442 58.9471 -1.27204 3.96190
  443 76.3398 5.68361 -19.4189
  444 40.5981 -0.681682 -0.694188
  445 40.5847 -0.693667 0.694962
  446 68.7314 13.6841 -3.44910
  447 57.0354 -0.858942 -0.497890
  448 57.0203 -0.816342 0.503060
  449 55.2687 1.24055 -5.43241
  450 64.1135 5.82878 -6.71098
  451 36.2947 -0.0711095 -0.0642316
  452 36.3050 -0.0737349 0.0658247
  453 58.9507 -1.55298 -3.85294
  454 49.2205 -2.52630 14.2711
  455 66.5100 33.3273 -36.2558
  456 61.7329 8.90388 4.49802
  457 18.1051 5.01526 -11.2704
  458 17.6461 5.23187 11.1098
  459 32.4133 4.90512 -17.0509
  460 32.7198 5.31269 17.1050
  461 10.9534 18.0155 16.7634
  462 49.7210 -4.64968 2.72562
  463 90.2939 19.4033 3.81731
  464 9.39656 7.31380 -8.04177
  465 7.85864 6.62252 6.36339
  466 30.5514 -0.184926 1.34969
  467 30.5666 -0.196765 -1.34966
  468 75.9398 16.7678 -0.510608
  469 3.59685 2.72071 2.00998
  470 3.60697 2.73697 -2.09565
  471 70.2409 6.59209 -5.45691
  472 -0.475416 0.517829 -0.639516
  473 -0.497464 0.537235 0.614945
  474 57.7741 -0.808735 -5.86543
  475 0.719282 -2.51283 0.231009
  476 0.654392 -2.26711 -0.269924
  477 64.3977 -0.376473 0.352088
  478 64.2754 -0.187030 -0.378138
  479 42.3675 -4.28664 8.13746
  480 42.4983 -4.36433 -8.12201
  481 85.9636 9.72805 6.58962
  482 65.3998 13.0071 -1.84570
  483 61.5310 -1.71497 6.23679
  484 79.5763 12.2472 -2.08979
  485 73.9712 2.76150 1.88121
  486 73.2706 16.4409 1.53713
  487 60.5647 9.88975 1.56821
  488 34.3842 11.5643 -23.4029
  489 60.1037 -2.91270 5.35423
  490 73.3254 13.1000 3.70211
  491 67.9469 -2.33264 8.36380
  492 58.0691 -4.09783 2.76404
  493 45.9941 -1.16551 -0.427338
  494 45.8873 -1.17302 0.403474
  495 62.7354 5.49593 6.50471
  496 101.972 20.2745 11.0381
  497 59.0356 -2.49424 4.89222
  498 66.1260 -0.651276 5.13136
  499 114.141 7.42462 6.37289
  500 27.2545 -0.220047 10.5101
  501 34.3349 -0.744787 12.0749
  502 27.2305 -0.225405 -10.4923
  503 34.0377 -0.840184 -12.1866
  504 94.2929 25.3622 -8.37057
  505 53.7798 -3.93373 0.159938
  506 57.5240 -3.36348 -2.69160
  507 -0.572051 -0.540148 -0.910977
  508 -0.587038 -0.547816 0.937365
  509 99.3417 24.6193 23.7023
  510 43.8803 -0.701867 -0.262111
  511 43.8719 -0.688083 0.255101
  512 48.6773 -4.39661 -3.25354
  513 50.1944 -4.96111 8.92652
  514 62.4953 -3.74114 3.99534
  515 59.7623 2.58328 -6.74260
  516 52.6422 0.167719 -3.44647
  517 -1.64121 0.0291967 1.16161
  518 -1.59350 0.0105224 -1.14904
  519 61.8292 -5.68171 4.80178
  520 38.5549 -3.17050 9.77623
  521 34.5308 0.0304093 0.203351
  522 34.5294 0.0296579 -0.195963
  523 14.7634 1.51584 -7.61399
  524 14.8027 1.47251 7.63230
  525 38.4814 -3.06781 -9.69162
  526 72.8087 3.90303 -3.70635
  527 29.7231 -1.00958 -4.21811
  528 29.7185 -1.05330 4.22025
  529 -0.107817 -1.61190 -1.20813
  530 -0.101569 -1.65854 1.23642
</Section>

newXOutput 5

<Section columns = "stress_xx | stress_yy | stress_xy">
  1 87.0180 0.157526 0.327702
  2 87.0232 0.150887 -0.332694
  3 46.7594 -0.0484104 -0.130155
  4 -0.636646 -0.627460 -0.673806
  5 157.349 61.4367 52.4801
  6 157.728 62.2656 -50.4411
  7 -0.657181 -0.646263 0.697598
  8 46.7408 -0.0472556 0.131170
  9 88.3725 -0.408694 0.270425
  10 87.7911 -0.494190 0.251976
  11 85.9655 -0.314395 0.931335
  12 83.9335 -0.255704 1.49776
  13 81.2631 -0.384419 1.90029
  14 76.1062 -0.339061 2.66005
  15 70.1915 -0.0247823 3.05392
  16 64.0368 0.320925 2.93343
  17 60.5148 0.997716 1.79636
  18 55.4994 1.71555 -0.0348036
  19 60.3195 1.08860 -2.02197
  20 64.6952 0.259874 -3.23276
  21 69.6505 0.0998884 -3.09632
  22 76.2541 -0.371623 -2.88390
  23 81.3243 -0.499032 -2.03448
  24 83.9543 -0.587073 -1.51309
  25 87.3459 -0.638356 -0.703062
  26 86.9418 -0.260830 -0.404567
  27 88.3008 -0.342500 -0.240285
  28 83.0609 -0.275656 -0.379868
  29 78.1651 -0.825251 -0.294371
  30 71.9528 -1.06137 -0.191272
  31 67.0605 -1.07196 -0.272018
  32 62.3543 -1.09687 0.0593539
  33 55.9260 -0.573569 0.0936160
  34 50.8470 -0.276867 -0.107882
  35 46.1096 -0.00841166 0.220997
  36 44.9598 0.318731 0.109798
  37 44.4614 -0.0162766 0.517114
  38 43.1671 -0.0144049 0.838884
  39 40.1905 0.00468411 0.945706
  40 37.6227 -0.108113 1.61404
  41 33.0022 -0.0943030 1.90792
  42 27.9000 -0.0600552 2.42435
  43 21.2832 -0.239667 2.86439
  44 16.1560 0.0568163 4.00894
  45 8.93212 0.687222 3.27844
  46 0.570236 1.27556 2.06523
  47 -3.93714 1.03080 0.770152
  48 -5.23772 0.873603 -0.0682926
  49 -4.09738 0.563600 -1.24980
  50 -2.25953 -0.155542 -0.970943
  51 -0.226613 -2.19432 -1.01652
  52 0.210234 -4.40360 -1.55226
  53 0.541703 -7.05280 -0.914211
  54 1.32636 -7.70141 -0.321313
  55 2.78774 -3.17033 2.53488
  56 7.68450 11.0990 11.5232
  57 34.4117 44.6099 39.3778
  58 211.426 26.8506 34.3090
  59 175.110 7.22375 11.6581
  60 164.323 3.23773 3.96707
  61 159.879 2.21991 -0.499806
  62 164.035 3.34302 -4.37118
  63 178.490 8.10443 -13.5806
  64 205.013 30.5155 -36.1639
  65 40.2983 50.4687 -42.1171
  66 8.01403 9.43334 -9.59434
  67 2.83167 -3.47446 -2.58639
  68 1.10735 -7.81848 0.217847
  69 0.598868 -7.15103 0.805364
  70 0.247178 -4.51272 1.56346
  71 -0.226554 -2.26557 1.04335
  72 -2.32361 -0.147386 0.987447
  73 -4.17068 0.586897 1.24175
  74 -5.24245 0.875674 0.0325876
  75 -3.88875 1.01234 -0.781612
  76 0.605408 1.26895 -2.05360
  77 8.93386 0.692380 -3.27190
  78 16.1582 0.0571240 -4.00466
  79 21.2777 -0.242912 -2.85586
  80 27.8723 -0.0530695 -2.41614
  81 32.9734 -0.0831447 -1.91991
  82 37.6387 -0.114101 -1.62986
  83 40.2132 -0.00268746 -0.945796
  84 43.1777 -0.0140674 -0.834325
  85 44.4649 -0.0191926 -0.511530
  86 44.9534 0.321267 -0.102578
  87 46.0936 -0.00637589 -0.218642
  88 50.8404 -0.276388 0.105890
  89 55.9318 -0.586567 -0.0982435
  90 62.3585 -1.11909 -0.0595907
  91 67.0798 -1.08262 0.269111
  92 71.9650 -1.05359 0.192747
  93 78.1588 -0.825579 0.293030
  94 83.0251 -0.275956 0.385004
  95 74.3768 -8.03399 -2.78083
  96 75.4142 -7.97569 2.04045
  97 80.7712 13.5935 -2.00380
  98 53.8225 -1.52525 -17.6582
  99 53.0295 -1.34084 17.7277
  100 93.5215 19.0177 4.79978
  101 99.9984 21.3763 -2.45685
  102 62.0734 -2.80031 -1.56036
  103 62.7793 -2.73730 1.27258
  104 81.3453 -0.0635541 -8.86685
  105 91.6557 -2.23443 0.662671
  106 79.6214 -0.582462 8.79540
  107 94.7686 -1.03196 1.07049
  108 14.3696 7.63558 9.71793
  109 14.2157 7.25544 -10.0808
  110 76.7098 -3.30387 3.12369
  111 76.9433 -3.43381 -3.46684
  112 112.762 22.1718 -0.505071
  113 49.0074 -3.80725 -9.66128
  114 49.0605 -3.79053 9.72119
  115 53.5318 -3.23518 4.81092
  116 53.6007 -3.16605 -4.76856
  117 45.7334 9.05754 -26.9252
  118 48.3369 9.32240 27.1956
  119 115.057 27.0430 -4.10870
  120 123.042 24.9233 7.22520
  121 77.7304 6.98051 6.62498
  122 72.9220 -2.01012 0.593882
  123 73.0227 -2.17758 -0.605190
  124 71.7804 2.64352 -5.82809
  125 25.5191 0.831056 -11.1122
  126 25.5519 0.788189 11.0711
  127 77.6551 -1.96486 -6.57046
  128 86.9335 2.95656 8.38007
  129 53.4397 -1.00928 1.35703
  130 53.4514 -1.01974 -1.32756
  131 67.4895 -5.53214 -2.05818
  132 66.9753 -5.31076 2.15109
  133 74.3698 -8.05792 7.85105
  134 88.1396 3.85058 -8.16506
  135 78.5153 -5.00628 5.25761
  136 92.6555 20.1468 -0.155945
  137 77.2473 -8.15109 -7.08035
  138 110.198 15.8567 1.88199
  139 103.482 5.04140 -13.9996
  140 69.3281 4.61577 -0.198927
  141 77.3491 -1.78048 6.51022
  142 79.2383 -4.98755 -5.53107
  143 144.256 11.7045 3.72418
  144 84.3942 -5.18466 -4.18338
  145 146.683 16.5448 -11.9850
  146 84.6171 -5.10374 3.71022
  147 72.9077 1.47741 6.99874
  148 1.95403 2.24612 -0.109721
  149 2.07622 2.40955 0.133068
  150 80.1468 -1.35762 1.83580
  151 80.0589 -1.23394 -1.77337
  152 60.4133 -5.98379 -6.50039
  153 61.6605 -5.84716 6.10054
  154 30.5542 -1.07593 -8.85236
  155 30.5529 -1.06817 8.84564
  156 65.2017 -1.77070 -0.164055
  157 65.1621 -1.65995 0.192271
  158 8.83631 10.6858 -10.3882
  159 11.4257 10.8241 10.9233
  160 80.9725 7.48492 -7.79868
  161 44.4531 -2.01366 -6.07714
  162 44.3877 -2.10666 6.03636
  163 104.353 9.43626 24.5076
  164 78.4087 -3.39816 17.5639
  165 71.3553 -3.92840 0.690048
  166 71.2141 -3.74199 -0.659762
  167 80.3462 -0.600887 0.635922
  168 80.2474 -0.586524 -0.665053
  169 80.7437 -6.30893 -12.0379
  170 49.0794 -1.14041 -2.38816
  171 49.0872 -1.14230 2.37309
  172 74.5285 0.245602 -7.39088
  173 99.1521 12.3530 4.67307
  174 99.3155 11.7331 -5.16731
  175 84.6053 15.7538 3.64598
  176 137.490 36.3000 16.1862
  177 58.7638 -6.45010 12.4017
  178 83.0090 18.6606 -39.0848
  179 59.4151 -5.90668 -12.7529
  180 79.4127 -1.46606 -3.74034
  181 79.3654 -1.39985 3.80356
  182 75.1059 -5.62282 -1.93581
  183 9.81324 2.59844 -5.91724
  184 9.82963 2.66518 5.93409
  185 37.4607 4.10509 -18.7675
  186 36.7226 4.34735 18.5756
  187 86.5325 14.9064 -5.46453
  188 74.7548 -5.42697 1.88919
  189 44.0723 -1.99716 -14.2210
  190 44.1871 -1.89949 14.3321
  191 36.8513 -1.20897 -6.47050
  192 36.8292 -1.23696 6.50439
  193 118.088 22.2970 -7.03195
  194 38.8012 23.6761 31.8807
  195 106.319 22.7896 0.163105
  196 58.0845 -0.969332 -0.495121
  197 58.0410 -0.995935 0.492586
  198 66.3339 -7.53420 7.09955
  199 20.5706 18.9325 -20.6009
  200 66.9151 -7.74322 -7.35967
  201 44.1110 -0.934929 3.20804
  202 44.1035 -0.970355 -3.19163
  203 82.0787 -4.65908 6.13558
  204 151.964 16.3327 13.6814
  205 55.3304 -2.12880 -2.82254
  206 55.2422 -2.13807 2.77462
  207 85.5701 11.6814 7.57446
  208 50.8715 -0.333092 -0.485059
  209 50.8844 -0.342631 0.489585
  210 104.601 22.8623 0.441080
  211 72.9515 5.78334 -3.93800
  212 145.200 29.3156 -19.6249
  213 77.4389 10.2707 3.32351
  214 103.094 20.7127 -2.82837
  215 78.0713 -2.88921 5.67741
  216 68.2397 -2.28124 0.117856
  217 68.0747 -2.68361 0.0503089
  218 4.32089 2.64111 2.56629
  219 4.35794 2.57643 -2.63051
  220 66.7752 2.30244 -2.52947
  221 75.2886 -2.75234 1.64453
  222 75.4853 -2.71308 -1.71246
  223 3.96195 3.60583 -2.38005
  224 3.51356 3.92355 2.55261
  225 72.4257 -1.23672 -0.302016
  226 72.4222 -1.21767 0.332060
  227 20.4369 0.0499980 -6.70433
  228 20.4445 0.0478246 6.70084
  229 59.3901 2.08160 -22.5203
  230 71.9104 3.79069 5.54295
  231 77.7181 -3.52169 -5.06112
  232 79.0552 -2.49251 -7.86553
  233 72.3269 -6.02724 13.6231
  234 87.2032 -5.17804 -0.178768
  235 89.0286 12.3118 -7.57341
  236 74.8445 -0.395149 -5.16106
  237 75.7120 -0.304541 7.58244
  238 79.4765 3.26121 8.78650
  239 127.156 27.4419 13.8942
  240 154.281 5.94636 -3.19192
  241 76.0324 2.46282 -8.31944
  242 78.3084 -2.20330 7.84214
  243 51.3857 -3.98352 -7.36347
  244 50.8469 -3.97421 7.35843
  245 105.097 9.50286 -0.912161
  246 92.8109 3.20232 6.12320
  247 -0.436420 -0.230273 -1.81647
  248 -0.427965 -0.185817 1.85513
  249 21.2796 4.50788 -12.0269
  250 21.2781 4.62581 12.0151
  251 70.2051 0.615313 -5.33343
  252 76.0545 -6.74557 1.31833
  253 27.6346 9.09198 -19.0445
  254 25.0497 10.5011 18.0006
  255 11.4566 0.840650 -5.40802
  256 11.4787 0.828515 5.41996
  257 58.7316 -1.75881 -1.14734
  258 58.7197 -1.74680 1.16295
  259 81.8724 -3.80489 -6.72646
  260 68.8367 -6.21918 -13.1270
  261 91.6657 1.07204 -5.16460
  262 71.9192 -6.65826 0.934764
  263 76.5432 5.92895 -28.2579
  264 70.5312 -7.00387 -2.33744
  265 60.5971 -4.36408 -3.92702
  266 60.7671 -4.56837 4.12866
  267 122.843 22.6352 -5.92505
  268 99.8288 21.8646 0.709437
  269 102.580 3.03408 8.71401
  270 78.4429 -0.950060 -3.87402
  271 48.4273 -0.577337 1.16785
  272 48.4277 -0.589453 -1.16213
  273 80.3049 -6.69359 -2.94784
  274 85.5133 -6.25791 -1.82016
  275 122.879 20.6007 3.05354
  276 58.4739 1.56013 22.3039
  277 80.4753 -6.62809 2.82962
  278 81.1359 -0.721325 2.15822
  279 85.1207 -0.992686 -7.86790
  280 76.0176 32.9649 41.9789
  281 8.86344 11.7997 11.8767
  282 83.3140 -0.597655 0.815876
  283 82.4369 -0.539787 -1.03534
  284 74.4687 -0.429832 4.63578
  285 67.0044 2.72896 2.41040
  286 81.2829 -0.615573 -2.11377
  287 86.6223 -5.18175 7.98552
  288 33.6263 1.21904 -14.9465
  289 33.5665 1.14446 14.9369
  290 90.6117 11.2990 7.15523
  291 79.7295 -8.05618 -1.76743
  292 75.8489 3.25478 7.81312
  293 76.5209 -0.825421 0.182197
  294 76.5212 -0.837047 -0.187611
  295 78.2849 -0.856280 3.79928
  296 80.6599 -7.93948 1.92256
  297 85.3895 17.0330 0.751897
  298 119.780 22.2363 -25.2008
  299 62.4832 -3.62948 -2.20832
  300 61.5220 -3.65504 2.40761
  301 84.5007 -2.35837 7.15804
  302 95.4164 20.8029 -1.85982
  303 59.1003 -6.00774 -8.28715
  304 57.3517 -5.67742 8.95669
  305 158.031 4.36293 2.90362
  306 162.537 5.98888 -9.48437
  307 78.5948 -2.16550 -3.12918
  308 44.4137 -0.374656 1.88368
  309 44.4083 -0.371913 -1.87907
  310 23.4717 16.1257 21.3430
  311 78.5642 -2.13747 3.08425
  312 83.3778 3.62826 -8.96931
  313 39.3496 -0.835880 -3.28013
  314 39.3375 -0.832618 3.25883
  315 77.8425 -1.28720 1.15261
  316 77.8579 -1.33889 -1.20054
  317 0.456029 -1.79193 -1.45079
  318 0.537839 -1.86923 1.46142
  319 81.7982 2.26064 23.1251
  320 91.0792 19.1143 2.84789
  321 77.1677 -4.29743 4.18202
  322 22.6760 -0.480620 -4.85558
  323 22.6742 -0.477822 4.85868
  324 -1.02844 1.08400 -0.515634
  325 -1.05697 1.12563 0.473458
  326 77.8673 9.25954 -4.79736
  327 103.408 21.3907 2.38933
  328 77.0535 -6.44765 -2.27008
  329 2.08361 0.835779 -2.52442
  330 2.65195 1.80061 2.97875
  331 42.8865 -2.95968 11.3698
  332 42.8486 -2.93791 -11.3004
  333 84.6664 -0.181593 -0.259834
  334 84.6577 -0.229195 0.282939
  335 69.3391 -7.20103 3.82165
  336 70.0929 0.265852 4.74709
  337 66.6259 1.05301 3.99824
  338 6.81677 5.82599 -4.17443
  339 6.40994 5.25491 4.07277
  340 134.170 15.7908 -2.45735
  341 116.334 27.5420 4.27008
  342 71.0706 -5.11045 -0.119787
  343 48.6279 -0.245264 -0.490811
  344 48.6297 -0.250554 0.502649
  345 84.1117 11.2608 -7.30910
  346 32.8536 -1.16470 11.5410
  347 32.8530 -1.18174 -11.5514
  348 95.1020 -1.33351 -6.05937
  349 53.0581 -1.24524 -1.91799
  350 53.0586 -1.19923 1.91153
  351 43.6506 -2.47928 -7.60070
  352 43.5666 -2.53636 7.62504
  353 33.6363 -0.498188 3.70127
  354 33.6183 -0.476492 -3.69679
  355 101.664 7.39108 -1.71037
  356 64.9804 0.642269 -3.59682
  357 73.1134 13.1503 35.0801
  358 111.187 24.2652 1.84864
  359 166.451 14.3103 -18.7610
  360 61.6097 -1.29094 -0.355771
  361 61.6093 -1.24168 0.344066
  362 68.3446 -4.62215 -0.768647
  363 164.339 19.4839 19.9586
  364 69.0396 -1.71811 0.221758
  365 68.9910 -1.76522 -0.165649
  366 74.6192 -4.43254 -1.99893
  367 64.0460 -2.25263 -0.745518
  368 63.3277 -2.12769 0.795087
  369 30.5828 24.8411 -28.3382
  370 49.9757 -1.80097 -3.54132
  371 49.9658 -1.81759 3.52349
  372 61.2650 1.96653 -0.0824844
  373 157.998 38.4814 -25.5855
  374 29.5871 -0.362640 -5.10575
  375 29.5878 -0.351751 5.11845
  376 56.1133 -4.42622 -5.54446
  377 55.0983 -4.05121 5.70440
  378 76.6436 5.45411 -7.18813
  379 72.0885 -6.36342 -0.228977
  380 5.84925 11.0096 -9.70291
  381 53.8598 -3.94833 -15.2225
  382 56.2406 -4.44940 15.0337
  383 2.21021 0.644396 -2.25121
  384 2.18709 0.665223 2.26118
  385 67.1846 -4.09104 0.917504
  386 45.3228 -0.441391 -1.17140
  387 45.3206 -0.440705 1.17134
  388 161.946 5.61109 8.69105
  389 67.0243 -1.34503 0.103037
  390 67.0431 -1.33558 -0.119336
  391 74.6558 -4.40844 2.03614
  392 172.719 45.0466 32.3811
  393 78.3586 -2.61715 -4.26871
  394 137.848 19.1745 9.21559
  395 88.4274 -5.55806 -5.69939
  396 75.6327 9.33429 -0.510683
  397 69.6739 -3.68317 -17.3656
  398 83.1728 -1.70846 -17.5147
  399 9.85163 4.12128 -5.83534
  400 9.91173 4.32278 5.82687
  401 77.6568 -4.88403 -4.44084
  402 48.3707 -2.02406 5.10164
  403 48.3465 -2.11118 -5.15744
  404 81.2088 -0.417675 2.38689
  405 66.8877 -3.45948 -0.691264
  406 83.6410 -0.503832 1.15619
  407 82.7825 1.07061 9.14023
  408 89.3080 -2.99302 3.83136
  409 39.2272 -1.67940 8.83592
  410 39.2372 -1.72485 -8.84586
  411 25.3940 14.2874 -20.8131
  412 76.9507 1.52923 8.59233
  413 79.0702 -5.85207 4.54075
  414 67.2958 -7.13018 9.41999
  415 129.807 26.4872 -12.6731
  416 78.5052 -3.83658 -6.38828
  417 88.0002 -2.10779 -5.75369
  418 71.2615 -3.13864 0.445904
  419 72.0863 -2.98164 -0.809366
  420 67.6750 -7.62196 -9.44942
  421 78.3046 0.202623 -8.86060
  422 67.0438 -7.36776 -5.66722
  423 53.8080 -0.597042 -0.411674
  424 53.8113 -0.603152 0.403174
  425 82.2742 12.6320 -5.33312
  426 81.3594 -0.425207 -2.35040
  427 95.1571 16.0501 -5.94517
  428 80.9306 -7.65980 -8.04237
  429 84.5158 -0.593042 -1.08915
  430 73.7619 -8.49101 5.99024
  431 110.675 21.9428 -0.145370
  432 57.7640 -2.06208 1.90151
  433 57.9301 -2.19783 -1.92535
  434 80.5857 -0.502282 -0.110405
  435 80.5678 -0.512346 0.104623
  436 78.1607 -2.78084 4.35521
  437 56.9927 -2.97940 3.51354
  438 57.0310 -2.91219 -3.50957
  439 73.1006 6.36819 3.17211
  440 73.8626 -8.29108 -6.02549
  441 87.6422 14.4734 5.93941
  442 78.4224 -1.69504 5.22818
  443 101.382 7.62225 -25.8807
  444 54.1078 -0.903958 -0.929278
  445 54.0898 -0.919819 0.930222
  446 91.4429 18.1945 -4.54021
  447 75.8679 -1.14821 -0.647182
  448 75.8479 -1.09163 0.654134
  449 73.5775 1.65210 -7.19002
  450 85.2979 7.75155 -8.86482
  451 48.4169 -0.0934162 -0.0876560
  452 48.4303 -0.0968936 0.0897485
  453 78.4264 -2.06903 -5.08269
  454 65.4676 -3.36252 19.0220
  455 88.2126 44.4956 -48.2052
  456 82.1552 11.8441 5.94508
  457 24.1410 6.67542 -15.0428
  458 23.5314 6.96309 14.8286
  459 43.1534 6.52686 -22.7278
  460 43.5568 7.06759 22.7982
  461 14.5872 24.1129 22.3695
  462 66.1745 -6.18353 3.65938
  463 119.985 25.8360 5.19419
  464 12.5389 9.75405 -10.7495
  465 10.4947 8.83394 8.51604
  466 40.7707 -0.245112 1.79864
  467 40.7911 -0.260851 -1.79863
  468 101.017 22.2830 -0.670431
  469 4.81830 3.62850 2.70506
  470 4.83114 3.65036 -2.81878
  471 93.4100 8.76871 -7.17644
  472 -0.598868 0.689331 -0.864669
  473 -0.627599 0.715111 0.832032
  474 76.8835 -1.07730 -7.75361
  475 0.961408 -3.31345 0.290090
  476 0.875384 -2.98497 -0.341106
  477 85.5957 -0.503176 0.461373
  478 85.4345 -0.252707 -0.495708
  479 56.4022 -5.70572 10.8535
  480 56.5762 -5.80904 -10.8337
  481 114.196 12.9904 8.87212
  482 87.0307 17.2953 -2.43446
  483 81.8527 -2.28468 8.23048
  484 105.787 16.3016 -2.68002
  485 98.3297 3.68405 2.41519
  486 97.4721 21.8557 2.00637
  487 80.6131 13.1566 2.07400
  488 45.7384 15.4160 -31.1746
  489 79.9566 -3.87774 7.06126
  490 97.5244 17.4237 4.85052
  491 90.3074 -3.08743 11.1893
  492 77.2488 -5.45304 3.62320
  493 61.2509 -1.54898 -0.579954
  494 61.1094 -1.55896 0.548236
  495 83.4707 7.30979 8.59355
  496 135.483 26.9363 14.6878
  497 78.5392 -3.32127 6.45274
  498 87.9381 -0.868518 6.75005
  499 151.536 9.85676 8.45107
  500 36.3206 -0.299877 14.0130
  501 45.7219 -0.998484 16.0955
  502 36.2891 -0.307170 -13.9895
  503 45.3276 -1.12585 -16.2438
  504 125.313 33.7260 -11.2004
  505 71.5598 -5.23237 0.173848
  506 76.5265 -4.47645 -3.53191
  507 -0.760637 -0.718340 -1.21199
  508 -0.780687 -0.728613 1.24724
  509 131.819 32.8484 31.6214
  510 58.4545 -0.931749 -0.351712
  511 58.4431 -0.913451 0.342427
  512 64.7895 -5.84713 -4.35843
  513 66.7777 -6.60370 11.9120
  514 83.1201 -4.97941 5.24758
  515 79.5268 3.43558 -8.91527
  516 70.1047 0.223395 -4.56108
  517 -2.18052 0.0406233 1.54347
  518 -2.11672 0.0157787 -1.52658
  519 82.2118 -7.55827 6.44189
  520 51.3367 -4.22312 13.0345
  521 46.0757 0.0409977 0.273438
  522 46.0742 0.0399928 -0.263675
  523 19.7068 2.01389 -10.1643
  524 19.7593 1.95609 10.1884
  525 51.2393 -4.08651 -12.9222
  526 96.7955 5.19667 -4.84103
  527 39.6468 -1.34159 -5.62060
  528 39.6406 -1.39969 5.62340
  529 -0.141421 -2.14190 -1.60517
  530 -0.133178 -2.20425 1.64305
</Section>

newXOutput 6

<Section columns = "stress_xx | stress_yy | stress_xy">
  1 108.417 0.190684 0.405022
  2 108.424 0.182774 -0.411169
  3 58.4967 -0.0588633 -0.160645
  4 -0.795286 -0.783737 -0.842005
  5 195.467 76.7215 65.3541
  6 196.003 77.7778 -62.8176
  7 -0.820975 -0.807259 0.871753
  8 58.4740 -0.0574278 0.161895
  9 110.095 -0.511308 0.332822
  10 109.380 -0.617571 0.307506
  11 107.132 -0.394604 1.14900
  12 104.629 -0.322318 1.85054
  13 101.335 -0.481209 2.35070
  14 94.9584 -0.423599 3.29631
  15 87.6339 -0.0304146 3.78885
  16 80.0034 0.402452 3.64237
  17 75.6328 1.24783 2.23239
  18 69.4119 2.13860 -0.0432032
  19 75.3911 1.36037 -2.51283
  20 80.8195 0.326438 -4.01339
  21 86.9655 0.123372 -3.84072
  22 95.1414 -0.464423 -3.57374
  23 101.411 -0.623746 -2.51688
  24 104.655 -0.733024 -1.86989
  25 108.841 -0.795999 -0.866065
  26 108.332 -0.328797 -0.495426
  27 110.007 -0.429108 -0.295501
  28 103.521 -0.350607 -0.470149
  29 97.4562 -1.03614 -0.362913
  30 89.7525 -1.32907 -0.232742
  31 83.6826 -1.33967 -0.336034
  32 77.8418 -1.36718 0.0776297
  33 69.8644 -0.713343 0.118551
  34 63.5642 -0.342899 -0.132423
  35 57.6887 -0.00944900 0.276659
  36 56.2560 0.396367 0.140253
  37 55.6280 -0.0193612 0.648418
  38 54.0084 -0.0168833 1.04871
  39 50.2949 0.00632010 1.18254
  40 47.0889 -0.134236 2.01498
  41 41.3224 -0.117049 2.38285
  42 34.9539 -0.0743059 3.02797
  43 26.6911 -0.299615 3.57986
  44 20.2825 0.0698733 5.01034
  45 11.2478 0.857084 4.10361
  46 0.789475 1.59188 2.59130
  47 -4.86167 1.28710 0.971897
  48 -6.51007 1.09174 -0.0761316
  49 -5.10734 0.706374 -1.55534
  50 -2.82022 -0.192520 -1.21107
  51 -0.281305 -2.73933 -1.26823
  52 0.265314 -5.49116 -1.93324
  53 0.679840 -8.77645 -1.12988
  54 1.66246 -9.55384 -0.378208
  55 3.49190 -3.84078 3.20660
  56 9.60262 14.0786 14.4445
  57 42.8175 55.9177 49.1088
  58 262.697 33.4186 42.5794
  59 217.775 8.98624 14.4652
  60 204.416 4.03013 4.92041
  61 198.915 2.76429 -0.619714
  62 204.061 4.16166 -5.42292
  63 221.950 10.0836 -16.8489
  64 254.784 37.9856 -44.9043
  65 50.1252 63.2319 -52.4976
  66 10.0262 11.9801 -12.0425
  67 3.54570 -4.21837 -3.26853
  68 1.38764 -9.70240 0.250927
  69 0.750887 -8.90051 0.994514
  70 0.311362 -5.62801 1.94750
  71 -0.281298 -2.82850 1.30185
  72 -2.90043 -0.182377 1.23177
  73 -5.19933 0.735455 1.54544
  74 -6.51676 1.09436 0.0316497
  75 -4.80220 1.26413 -0.986180
  76 0.832532 1.58371 -2.57685
  77 11.2494 0.863540 -4.09556
  78 20.2849 0.0702653 -5.00513
  79 26.6840 -0.303670 -3.56934
  80 34.9194 -0.0656184 -3.01779
  81 41.2866 -0.103145 -2.39779
  82 47.1088 -0.141691 -2.03468
  83 50.3232 -0.00286711 -1.18268
  84 54.0218 -0.0164645 -1.04307
  85 55.6326 -0.0230005 -0.641517
  86 56.2485 0.399510 -0.131311
  87 57.6693 -0.00691723 -0.273743
  88 63.5563 -0.342312 0.129939
  89 69.8717 -0.729536 -0.124308
  90 77.8470 -1.39488 -0.0779278
  91 83.7066 -1.35301 0.332419
  92 89.7676 -1.31947 0.234620
  93 97.4482 -1.03653 0.361273
  94 103.477 -0.351026 0.476438
  95 92.7583 -10.0206 -3.52637
  96 94.0478 -9.94757 2.60448
  97 100.790 16.9524 -2.48397
  98 67.1548 -1.91044 -22.0665
  99 66.1691 -1.67988 22.1539
  100 116.639 23.7048 5.91712
  101 124.694 26.6432 -2.99652
  102 77.4866 -3.48979 -1.96995
  103 78.3630 -3.41162 1.61196
  104 101.459 -0.0829847 -10.9797
  105 114.239 -2.77995 0.731033
  106 99.3178 -0.728676 10.8965
  107 118.097 -1.27538 1.43424
  108 17.9824 9.53693 12.1772
  109 17.7890 9.06310 -12.6302
  110 95.6693 -4.12421 3.84465
  111 95.9613 -4.28602 -4.27001
  112 140.564 27.6139 -0.637318
  113 61.2021 -4.75032 -12.0757
  114 61.2683 -4.72931 12.1497
  115 66.8608 -4.03093 6.02052
  116 66.9467 -3.94509 -5.96840
  117 57.0594 11.3077 -33.6322
  118 60.2947 11.6432 33.9691
  119 143.403 33.7074 -5.20194
  120 153.323 31.0492 9.04816
  121 96.9954 8.70911 8.21657
  122 90.9577 -2.51073 0.714670
  123 91.0828 -2.71916 -0.728357
  124 89.6049 3.30265 -7.23380
  125 31.9187 1.03095 -13.8974
  126 31.9596 0.977558 13.8458
  127 96.8668 -2.45365 -8.13441
  128 108.405 3.68465 10.3605
  129 66.7708 -1.25517 1.70336
  130 66.7856 -1.26829 -1.66692
  131 84.2055 -6.89727 -2.60876
  132 83.5678 -6.62063 2.72287
  133 92.7333 -10.0514 9.84937
  134 109.905 4.80038 -10.0918
  135 97.9202 -6.24686 6.48599
  136 115.579 25.1078 -0.193013
  137 96.3122 -10.1673 -8.89087
  138 137.298 19.8062 2.47865
  139 128.881 6.33851 -17.5526
  140 86.5666 5.76637 -0.247205
  141 96.4890 -2.22309 8.06145
  142 98.8196 -6.22378 -6.82347
  143 179.598 14.5711 4.63341
  144 105.221 -6.46888 -5.13273
  145 182.616 20.5978 -14.9203
  146 105.498 -6.36714 4.54146
  147 90.9995 1.84591 8.68421
  148 2.46025 2.81921 -0.108909
  149 2.61249 3.02324 0.138607
  150 99.9256 -1.69890 2.25869
  151 99.8170 -1.54525 -2.18148
  152 75.4007 -7.46142 -8.14021
  153 76.9518 -7.29074 7.64293
  154 38.2196 -1.34508 -11.0636
  155 38.2179 -1.33542 11.0550
  156 81.3745 -2.20814 -0.221604
  157 81.3253 -2.07015 0.256729
  158 11.0582 13.3847 -13.0251
  159 14.2953 13.5513 13.6938
  160 101.021 9.33499 -9.66621
  161 55.5590 -2.50952 -7.59276
  162 55.4775 -2.62545 7.54198
  163 129.917 11.8546 30.6402
  164 97.7226 -4.23228 21.9584
  165 89.0136 -4.89962 0.818059
  166 88.8383 -4.66771 -0.781959
  167 100.162 -0.757352 0.779133
  168 100.040 -0.739522 -0.815225
  169 100.643 -7.86120 -15.0770
  170 61.3475 -1.41871 -2.98823
  171 61.3569 -1.42102 2.96937
  172 93.0050 0.307408 -9.16723
  173 123.597 15.4139 5.71824
  174 123.799 14.6397 -6.33177
  175 105.557 19.6422 4.51465
  176 171.236 45.2491 20.2445
  177 73.3227 -8.05012 15.5074
  178 103.363 23.3503 -48.7601
  179 74.1325 -7.37259 -15.9456
  180 99.0339 -1.83244 -4.62297
  181 98.9752 -1.75027 4.70146
  182 93.6752 -7.01336 -2.35533
  183 12.3086 3.24257 -7.41709
  184 12.3296 3.32558 7.43796
  185 46.7747 5.11554 -23.4596
  186 45.8550 5.41727 23.2197
  187 107.948 18.5849 -6.76217
  188 93.2384 -6.76890 2.29836
  189 55.0369 -2.49912 -17.7719
  190 55.1795 -2.37729 17.9103
  191 46.0874 -1.50756 -8.08376
  192 46.0597 -1.54238 8.12581
  193 147.099 27.8506 -8.91108
  194 48.3898 29.5845 39.8114
  195 132.561 28.3917 0.236234
  196 72.5410 -1.20674 -0.626814
  197 72.4868 -1.23981 0.623648
  198 82.7537 -9.39738 8.89911
  199 25.6986 23.6822 -25.7689
  200 83.4750 -9.65853 -9.22475
  201 55.1560 -1.16355 4.00941
  202 55.1467 -1.20770 -3.98909
  203 102.352 -5.81417 7.57106
  204 189.160 20.3311 17.0219
  205 69.1077 -2.65107 -3.53861
  206 68.9978 -2.66246 3.47877
  207 106.739 14.5658 9.37570
  208 63.5920 -0.412856 -0.609541
  209 63.6077 -0.424712 0.615122
  210 130.419 28.4912 0.490881
  211 91.0631 7.22027 -4.88799
  212 180.808 36.5187 -24.4618
  213 96.6416 12.8128 4.12137
  214 128.522 25.8268 -3.42588
  215 97.3739 -3.60770 7.01918
  216 85.1451 -2.84651 0.120311
  217 84.9400 -3.34728 0.0910630
  218 5.43685 3.30000 3.23287
  219 5.48236 3.21946 -3.31284
  220 83.3979 2.87901 -3.14155
  221 93.8983 -3.43645 2.01169
  222 94.1432 -3.38751 -2.09579
  223 4.96485 4.53385 -3.01185
  224 4.40518 4.93066 3.22834
  225 90.3406 -1.54743 -0.362204
  226 90.3361 -1.52378 0.399671
  227 25.5990 0.0592200 -8.38308
  228 25.6087 0.0565190 8.37853
  229 74.0653 2.59760 -28.1332
  230 89.7684 4.73370 6.88000
  231 96.9315 -4.39630 -6.25035
  232 98.6070 -3.11177 -9.73655
  233 90.1780 -7.51954 17.0412
  234 108.702 -6.45658 -0.137718
  235 111.035 15.3496 -9.36494
  236 93.3942 -0.494192 -6.39765
  237 94.4692 -0.380538 9.40025
  238 99.1506 4.06694 10.8920
  239 158.333 34.2825 17.4721
  240 191.997 7.40197 -3.96752
  241 94.8751 3.07278 -10.3192
  242 97.6805 -2.75111 9.71083
  243 64.1750 -4.96711 -9.20705
  244 63.5051 -4.95547 9.20046
  245 130.946 11.8795 -1.25774
  246 115.697 3.99584 7.53556
  247 -0.534611 -0.278884 -2.25661
  248 -0.524359 -0.223522 2.30522
  249 26.6108 5.62187 -15.0519
  250 26.6094 5.76860 15.0365
  251 87.6488 0.771032 -6.61989
  252 94.8518 -8.41350 1.58038
  253 34.5216 11.3502 -23.8150
  254 31.2974 13.1097 22.5131
  255 14.3771 1.04672 -6.77161
  256 14.4051 1.03153 6.78633
  257 73.3413 -2.19029 -1.44634
  258 73.3263 -2.17512 1.46534
  259 102.098 -4.74927 -8.30769
  260 85.8430 -7.75978 -16.4211
  261 114.268 1.33798 -6.34018
  262 89.7092 -8.30290 1.21827
  263 95.3737 7.42246 -35.2829
  264 87.9824 -8.73396 -2.96520
  265 75.6405 -5.43919 -4.92790
  266 75.8499 -5.69410 5.17965
  267 153.075 28.1921 -7.41289
  268 124.498 27.2430 0.861798
  269 127.779 3.82349 10.9697
  270 97.8433 -1.18675 -4.79553
  271 60.5474 -0.717024 1.46275
  272 60.5482 -0.732126 -1.45571
  273 100.137 -8.35048 -3.60106
  274 106.596 -7.80356 -2.34987
  275 153.117 25.6543 3.82343
  276 72.9252 1.94651 27.8635
  277 100.348 -8.26841 3.45330
  278 101.162 -0.904271 2.66328
  279 106.141 -1.24162 -9.72526
  280 94.5731 41.2559 52.3606
  281 11.0880 14.8234 14.8862
  282 103.843 -0.750075 1.00162
  283 102.757 -0.679336 -1.27305
  284 92.9284 -0.536592 5.74689
  285 83.6818 3.41083 2.99331
  286 101.344 -0.772504 -2.60820
  287 107.955 -6.45566 10.0319
  288 42.0110 1.51237 -18.6875
  289 41.9363 1.41948 18.6753
  290 112.997 14.0897 8.83660
  291 99.4099 -10.0490 -2.27387
  292 94.6523 4.06289 9.69263
  293 95.4185 -1.03709 0.218455
  294 95.4192 -1.05153 -0.225067
  295 97.6481 -1.06946 4.70364
  296 100.565 -9.90299 2.46817
  297 106.538 21.2351 0.930760
  298 149.072 27.8500 -31.5386
  299 77.9900 -4.52346 -2.78385
  300 76.7959 -4.55487 3.03118
  301 105.368 -2.94507 8.84005
  302 119.009 25.9235 -2.28562
  303 73.7589 -7.49373 -10.3700
  304 71.5848 -7.08193 11.2021
  305 196.635 5.43114 3.60586
  306 202.225 7.45141 -11.7788
  307 98.0096 -2.70576 -3.85862
  308 55.5455 -0.465614 2.35454
  309 55.5388 -0.462208 -2.34888
  310 29.3203 20.1478 26.6904
  311 97.9713 -2.67063 3.80302
  312 103.994 4.52254 -11.1072
  313 49.2225 -1.04085 -4.09785
  314 49.2073 -1.03680 4.07131
  315 97.0626 -1.61205 1.41216
  316 97.0822 -1.67621 -1.47157
  317 0.574658 -2.21801 -1.79602
  318 0.676627 -2.31500 1.80980
  319 101.919 2.84425 28.8913
  320 113.613 23.8244 3.51656
  321 96.2429 -5.36258 5.15413
  322 28.4127 -0.600868 -6.06852
  323 28.4105 -0.597386 6.07222
  324 -1.26077 1.35745 -0.627945
  325 -1.29694 1.40946 0.575552
  326 97.1716 11.5515 -5.95011
  327 128.917 26.6741 2.87873
  328 96.0953 -8.04260 -2.76443
  329 2.61147 1.11012 -3.19028
  330 3.32283 2.31662 3.75999
  331 53.5724 -3.69617 14.2104
  332 53.5257 -3.66891 -14.1242
  333 105.509 -0.232394 -0.318970
  334 105.498 -0.291663 0.347461
  335 86.4965 -8.97965 4.81354
  336 87.5091 0.332724 5.89037
  337 83.2117 1.31741 4.96450
  338 8.54217 7.28936 -5.25459
  339 8.03499 6.57634 5.12867
  340 167.111 19.6595 -3.06375
  341 144.973 34.3393 5.42096
  342 88.6585 -6.37301 -0.101785
  343 60.8059 -0.304180 -0.616664
  344 60.8077 -0.310748 0.631327
  345 104.929 14.0408 -9.05231
  346 41.0676 -1.45934 14.4258
  347 41.0669 -1.48068 -14.4391
  348 118.498 -1.64396 -7.64711
  349 66.2914 -1.54935 -2.40581
  350 66.2918 -1.49201 2.39763
  351 54.5478 -3.09182 -9.49718
  352 54.4434 -3.16288 9.52733
  353 42.0978 -0.620863 4.62273
  354 42.0756 -0.593850 -4.61721
  355 126.686 9.23434 -2.01521
  356 81.1720 0.806575 -4.46692
  357 91.0914 16.4394 43.7734
  358 138.601 30.2404 2.36729
  359 207.097 17.8073 -23.3279
  360 76.9170 -1.60865 -0.452049
  361 76.9163 -1.54736 0.437518
  362 85.2716 -5.76250 -0.998863
  363 204.496 24.2532 24.8219
  364 86.1384 -2.14562 0.257025
  365 86.0780 -2.20419 -0.187018
  366 93.0700 -5.52949 -2.44102
  367 79.9384 -2.80762 -0.951691
  368 79.0468 -2.65177 1.01133
  369 38.1168 31.1176 -35.3947
  370 62.4483 -2.24312 -4.43035
  371 62.4357 -2.26369 4.40789
  372 76.5627 2.45751 -0.102488
  373 196.600 47.9716 -31.9131
  374 37.0371 -0.452319 -6.37899
  375 37.0380 -0.438720 6.39463
  376 70.0625 -5.51725 -6.94187
  377 68.7996 -5.04947 7.13871
  378 95.6425 6.80555 -8.91702
  379 89.9225 -7.93514 -0.338903
  380 7.31890 13.8439 -12.1657
  381 67.2145 -4.93285 -19.0247
  382 70.1763 -5.55708 18.7896
  383 2.82247 0.803332 -2.82661
  384 2.79438 0.829244 2.83901
  385 83.8320 -5.10001 1.17996
  386 56.6876 -0.548791 -1.46545
  387 56.6846 -0.547923 1.46531
  388 201.495 6.98122 10.7946
  389 83.6373 -1.67944 0.119609
  390 83.6606 -1.66757 -0.139774
  391 93.1157 -5.49939 2.48798
  392 214.802 56.1644 40.3569
  393 97.7238 -3.26847 -5.27141
  394 171.677 23.8767 11.4841
  395 110.206 -6.92559 -7.18616
  396 94.3984 11.6472 -0.634013
  397 86.8701 -4.59313 -21.7072
  398 103.644 -2.11433 -21.9032
  399 12.3458 5.14643 -7.32361
  400 12.4216 5.39737 7.31302
  401 96.8513 -6.09393 -5.47110
  402 60.4420 -2.52138 6.37743
  403 60.4121 -2.63002 -6.44727
  404 101.262 -0.523597 2.95142
  405 83.4649 -4.31324 -0.894428
  406 104.257 -0.632874 1.42366
  407 103.247 1.33246 11.3174
  408 111.329 -3.73171 4.68475
  409 49.0310 -2.09587 11.0400
  410 49.0435 -2.15262 -11.0526
  411 31.7150 17.8503 -26.0250
  412 96.0118 1.90750 10.6553
  413 98.6068 -7.30143 5.58888
  414 83.9388 -8.89551 11.7947
  415 161.715 32.9990 -15.8267
  416 97.9138 -4.78841 -7.89719
  417 109.711 -2.63061 -7.08375
  418 88.8970 -3.91545 0.521767
  419 89.9211 -3.72031 -0.974081
  420 84.4102 -9.50886 -11.8322
  421 97.6862 0.250999 -10.9828
  422 83.6422 -9.18834 -7.11088
  423 67.2361 -0.741729 -0.516812
  424 67.2399 -0.749304 0.506230
  425 102.652 15.7516 -6.60895
  426 101.449 -0.532659 -2.90624
  427 118.655 20.0113 -7.32235
  428 100.884 -9.55099 -10.0967
  429 105.338 -0.743105 -1.34152
  430 91.9859 -10.5913 7.52651
  431 137.929 27.3797 -0.305021
  432 72.1344 -2.56813 2.39050
  433 72.3410 -2.73729 -2.42037
  434 100.456 -0.634279 -0.132656
  435 100.434 -0.646790 0.125465
  436 97.4776 -3.47283 5.37791
  437 71.1658 -3.71183 4.40452
  438 71.2139 -3.62833 -4.39992
  439 91.2502 7.94994 3.93702
  440 92.1114 -10.3426 -7.57015
  441 109.325 18.0455 7.34776
  442 97.8117 -2.11751 6.46800
  443 126.225 9.58258 -32.3364
  444 67.6053 -1.12379 -1.16611
  445 67.5826 -1.14347 1.16719
  446 114.056 22.6798 -5.60271
  447 94.6115 -1.43884 -0.788418
  448 94.5867 -1.36841 0.797178
  449 91.8293 2.06270 -8.92158
  450 106.390 9.66449 -10.9780
  451 60.5499 -0.115033 -0.112049
  452 60.5661 -0.119351 0.114625
  453 97.8155 -2.58424 -6.28587
  454 81.6354 -4.19581 23.7695
  455 109.687 55.6912 -60.0862
  456 102.500 14.7707 7.36657
  457 30.1768 8.32981 -18.8226
  458 29.4179 8.68799 18.5546
  459 53.8611 8.14203 -28.4011
  460 54.3589 8.81458 28.4869
  461 18.2121 30.2552 27.9839
  462 82.5681 -7.70945 4.60526
  463 149.476 32.2515 6.62142
  464 15.6861 12.1954 -13.4703
  465 13.1387 11.0472 10.6841
  466 51.0068 -0.304580 2.24707
  467 51.0323 -0.324196 -2.24709
  468 125.976 27.7618 -0.825188
  469 6.05079 4.53671 3.41246
  470 6.06604 4.56424 -3.55398
  471 116.458 10.9353 -8.84747
  472 -0.705025 0.860288 -1.09573
  473 -0.740110 0.892396 1.05509
  474 95.9189 -1.34531 -9.60908
  475 1.20470 -4.09579 0.340325
  476 1.09779 -3.68412 -0.403010
  477 106.662 -0.630442 0.566759
  478 106.463 -0.319978 -0.609186
  479 70.3931 -7.11995 13.5710
  480 70.6101 -7.24875 -13.5473
  481 142.222 16.2624 11.1960
  482 108.578 21.5600 -3.01027
  483 102.081 -2.85333 10.1826
  484 131.842 20.3424 -3.21859
  485 122.541 4.60777 2.90388
  486 121.563 27.2382 2.45462
  487 100.592 16.4088 2.57151
  488 57.0393 19.2661 -38.9313
  489 99.7196 -4.83982 8.73039
  490 121.603 21.7263 5.95723
  491 112.526 -3.83095 14.0329
  492 96.3411 -6.80290 4.45212
  493 76.4700 -1.92995 -0.737461
  494 76.2944 -1.94237 0.697940
  495 104.118 9.11482 10.6436
  496 168.758 33.5507 18.3224
  497 97.9560 -4.14609 7.97904
  498 109.637 -1.08570 8.32400
  499 188.611 12.2680 10.5067
  500 45.3770 -0.382881 17.5155
  501 57.0798 -1.25484 20.1137
  502 45.3382 -0.392182 -17.4863
  503 56.5895 -1.41425 -20.2983
  504 156.131 42.0453 -14.0489
  505 89.2670 -6.52475 0.168670
  506 95.4438 -5.58533 -4.34456
  507 -0.948182 -0.895610 -1.51168
  508 -0.973328 -0.908513 1.55582
  509 163.985 41.0881 39.5476
  510 73.0019 -1.15961 -0.442377
  511 72.9876 -1.13683 0.430847
  512 80.8451 -7.29022 -5.47309
  513 83.2876 -8.24077 14.9021
  514 103.642 -6.21326 6.46106
  515 99.2136 4.28361 -11.0513
  516 87.5244 0.278972 -5.65892
  517 -2.71598 0.0528874 1.92268
  518 -2.63601 0.0218995 -1.90141
  519 102.482 -9.42623 8.10111
  520 64.0835 -5.27364 16.2922
  521 57.6364 0.0518098 0.344626
  522 57.6349 0.0505501 -0.332530
  523 24.6609 2.50836 -12.7206
  524 24.7266 2.43610 12.7502
  525 63.9625 -5.10324 -16.1527
  526 120.643 6.48685 -5.92663
  527 49.5777 -1.67137 -7.02121
  528 49.5698 -1.74373 7.02464
  529 -0.173869 -2.66829 -1.99941
  530 -0.163674 -2.74643 2.04695
</Section>

newXOutput 7

<Section columns = "stress_xx | stress_yy | stress_xy">
  1 129.677 0.221460 0.480572
  2 129.686 0.212425 -0.487838
  3 70.2512 -0.0686697 -0.190343
  4 -0.953716 -0.939778 -1.01010
  5 233.112 91.9754 78.1302
  6 233.828 93.2666 -75.1009
  7 -0.984567 -0.968026 1.04581
  8 70.2246 -0.0669566 0.191822
  9 131.672 -0.614067 0.393223
  10 130.828 -0.740866 0.360188
  11 128.171 -0.475418 1.36084
  12 125.210 -0.389958 2.19498
  13 121.310 -0.578256 2.79159
  14 113.741 -0.508041 3.92142
  15 105.034 -0.0358189 4.51265
  16 95.9518 0.484494 4.34175
  17 90.7451 1.49822 2.66329
  18 83.3375 2.55937 -0.0514853
  19 90.4578 1.63201 -2.99795
  20 96.9228 0.393633 -4.78325
  21 104.241 0.146285 -4.57356
  22 113.958 -0.557173 -4.25150
  23 121.401 -0.748432 -2.98914
  24 125.242 -0.878637 -2.21842
  25 130.201 -0.952872 -1.02417
  26 129.586 -0.397810 -0.582353
  27 131.568 -0.516073 -0.348856
  28 123.862 -0.427847 -0.558618
  29 116.649 -1.24873 -0.429510
  30 107.478 -1.59760 -0.271774
  31 100.248 -1.60721 -0.398514
  32 93.2885 -1.63592 0.0972197
  33 83.7846 -0.851678 0.144067
  34 76.2821 -0.407679 -0.156027
  35 69.2865 -0.0100680 0.332467
  36 67.5729 0.473210 0.171857
  37 66.8133 -0.0220587 0.780473
  38 64.8679 -0.0189218 1.25852
  39 60.4205 0.00814045 1.41948
  40 56.5777 -0.159997 2.41485
  41 49.6691 -0.139462 2.85691
  42 42.0381 -0.0882472 3.63054
  43 32.1326 -0.359561 4.29502
  44 24.4432 0.0824930 6.01131
  45 13.5958 1.02619 4.93090
  46 1.03892 1.90720 3.12117
  47 -5.76261 1.54284 1.17726
  48 -7.76775 1.30976 -0.0803253
  49 -6.11159 0.849885 -1.85814
  50 -3.37925 -0.228744 -1.45016
  51 -0.335221 -3.28290 -1.51898
  52 0.321388 -6.57345 -2.31141
  53 0.819044 -10.4845 -1.34045
  54 2.00033 -11.3774 -0.425869
  55 4.19887 -4.46310 3.89318
  56 11.5193 17.1382 17.3812
  57 51.1460 67.2841 58.7938
  58 313.353 39.9301 50.7305
  59 260.006 10.7319 17.2308
  60 244.123 4.81593 5.85895
  61 237.587 3.30454 -0.737663
  62 243.703 4.97363 -6.45880
  63 264.958 12.0445 -20.0682
  64 303.978 45.3936 -53.5278
  65 59.8551 76.0493 -62.8179
  66 12.0414 14.6005 -14.5095
  67 4.26207 -4.91316 -3.96453
  68 1.66929 -11.5584 0.275586
  69 0.903809 -10.6348 1.17884
  70 0.376488 -6.73819 2.32883
  71 -0.335294 -3.39004 1.55943
  72 -3.47563 -0.216636 1.47509
  73 -6.22241 0.884733 1.84645
  74 -7.77671 1.31295 0.0271260
  75 -5.69245 1.51541 -1.19435
  76 1.08951 1.89748 -3.10393
  77 13.5970 1.03395 -4.92139
  78 24.4456 0.0829720 -6.00523
  79 32.1239 -0.364425 -4.28256
  80 41.9969 -0.0778751 -3.61845
  81 49.6265 -0.122831 -2.87478
  82 56.6017 -0.168910 -2.43841
  83 60.4545 -0.00285161 -1.41968
  84 64.8842 -0.0184228 -1.25184
  85 66.8192 -0.0264191 -0.772287
  86 67.5645 0.476947 -0.161225
  87 69.2640 -0.00704520 -0.329003
  88 76.2731 -0.406988 0.153053
  89 83.7937 -0.871043 -0.150944
  90 93.2950 -1.66906 -0.0975796
  91 100.276 -1.62322 0.394198
  92 107.495 -1.58623 0.274068
  93 116.639 -1.24917 0.427584
  94 123.808 -0.428399 0.566009
  95 111.056 -11.9986 -4.29128
  96 112.594 -11.9107 3.18928
  97 120.738 20.2957 -2.95602
  98 80.4381 -2.29711 -26.4722
  99 79.2618 -2.02038 26.5775
  100 139.653 28.3657 7.00240
  101 149.269 31.8799 -3.50735
  102 92.8576 -4.17507 -2.38696
  103 93.9021 -4.08198 1.95946
  104 121.484 -0.103692 -13.0522
  105 136.691 -3.32017 0.761741
  106 118.931 -0.875034 12.9595
  107 141.282 -1.51290 1.83514
  108 21.6030 11.4353 14.6480
  109 21.3696 10.8682 -15.1909
  110 114.543 -4.94227 4.54245
  111 114.893 -5.13573 -5.04863
  112 168.212 33.0166 -0.771823
  113 73.3736 -5.68990 -14.4894
  114 73.4530 -5.66457 14.5772
  115 80.1676 -4.82154 7.23259
  116 80.2704 -4.71919 -7.17103
  117 68.3425 13.5523 -40.3292
  118 72.2021 13.9602 40.7321
  119 171.583 40.3341 -6.32034
  120 183.414 37.1339 10.8771
  121 116.194 10.4313 9.78295
  122 108.916 -3.01051 0.824824
  123 109.066 -3.25956 -0.840716
  124 107.381 3.96110 -8.61945
  125 38.3257 1.22775 -16.6852
  126 38.3747 1.16392 16.6230
  127 115.999 -2.94143 -9.66782
  128 129.773 4.40857 12.2965
  129 80.0895 -1.49854 2.05235
  130 80.1075 -1.51432 -2.00908
  131 100.859 -8.25532 -3.17314
  132 100.100 -7.92346 3.30766
  133 111.006 -12.0366 11.8613
  134 131.564 5.74530 -11.9740
  135 117.237 -7.48306 7.68104
  136 138.408 30.0390 -0.229323
  137 115.280 -12.1749 -10.7169
  138 164.220 23.7499 3.12387
  139 154.093 7.65016 -21.1257
  140 103.767 6.91564 -0.294910
  141 115.551 -2.66467 9.58305
  142 118.311 -7.45574 -8.08082
  143 214.656 17.4144 5.53409
  144 125.941 -7.74829 -6.04466
  145 218.259 24.6181 -17.8316
  146 126.271 -7.62547 5.33538
  147 109.037 2.21409 10.3446
  148 2.97342 3.39685 -0.0969840
  149 3.15552 3.64136 0.133236
  150 119.603 -2.04084 2.66769
  151 119.474 -1.85761 -2.57602
  152 90.3419 -8.93181 -9.78551
  153 92.1936 -8.72713 9.19179
  154 45.8949 -1.61428 -13.2739
  155 45.8929 -1.60272 13.2634
  156 97.4963 -2.64349 -0.285489
  157 97.4378 -2.47841 0.327466
  158 13.2849 16.0942 -15.6775
  159 17.1698 16.2867 16.4796
  160 120.992 11.1768 -11.5017
  161 66.6612 -3.00239 -9.10674
  162 66.5636 -3.14111 9.04604
  163 155.277 14.2962 36.7742
  164 116.923 -5.06028 26.3541
  165 106.600 -5.86652 0.928940
  166 106.391 -5.58953 -0.887705
  167 119.871 -0.916174 0.916292
  168 119.727 -0.894927 -0.959220
  169 120.429 -9.40361 -18.1274
  170 73.6137 -1.69432 -3.58936
  171 73.6246 -1.69704 3.56670
  172 111.419 0.369410 -10.9158
  173 147.906 18.4642 6.71572
  174 148.146 17.5360 -7.44687
  175 126.429 23.5110 5.36663
  176 204.734 54.1488 24.3063
  177 87.8291 -9.64518 18.6148
  178 123.560 28.0497 -58.3971
  179 88.7958 -8.83423 -19.1397
  180 118.563 -2.19872 -5.48532
  181 118.493 -2.10083 5.57888
  182 112.163 -8.39789 -2.74996
  183 14.8204 3.88452 -8.92492
  184 14.8462 3.98365 8.94975
  185 56.0681 6.11976 -28.1515
  186 54.9678 6.48053 27.8637
  187 129.277 22.2446 -8.03314
  188 111.641 -8.10496 2.68315
  189 65.9799 -3.00210 -21.3208
  190 66.1500 -2.85622 21.4862
  191 55.3319 -1.80468 -9.69513
  192 55.2987 -1.84626 9.74522
  193 175.910 33.3962 -10.8365
  194 57.9338 35.4885 47.7260
  195 158.671 33.9566 0.321817
  196 86.9711 -1.44219 -0.761519
  197 86.9062 -1.48165 0.757725
  198 99.1086 -11.2525 10.7080
  199 30.8203 28.4382 -30.9434
  200 99.9680 -11.5657 -11.0994
  201 66.2067 -1.39016 4.81040
  202 66.1957 -1.44298 -4.78624
  203 122.527 -6.96534 8.96834
  204 226.045 24.2965 20.3310
  205 82.8623 -3.16943 -4.25858
  206 82.7308 -3.18287 4.18685
  207 127.819 17.4361 11.1410
  208 76.3123 -0.491236 -0.735232
  209 76.3306 -0.505384 0.741838
  210 156.106 34.0863 0.517382
  211 109.124 8.65369 -5.82448
  212 216.143 43.6724 -29.2709
  213 115.782 15.3447 4.90634
  214 153.814 30.9159 -3.98103
  215 116.591 -4.32462 8.33089
  216 101.989 -3.40973 0.112397
  217 101.744 -4.00805 0.142632
  218 6.56680 3.95832 3.90926
  219 6.62047 3.86206 -4.00486
  220 99.9911 3.45596 -3.74567
  221 112.424 -4.11894 2.36192
  222 112.717 -4.06035 -2.46187
  223 5.97258 5.47228 -3.65807
  224 5.30197 5.94805 3.91880
  225 108.180 -1.85866 -0.416513
  226 108.174 -1.83047 0.461368
  227 30.7815 0.0671688 -10.0627
  228 30.7934 0.0639468 10.0571
  229 88.6721 3.11190 -33.7390
  230 107.578 5.67488 8.19803
  231 116.059 -5.26856 -7.41012
  232 118.075 -3.72942 -11.5705
  233 107.938 -9.00608 20.4637
  234 130.082 -7.72874 -0.0634942
  235 132.941 18.3717 -11.1169
  236 111.879 -0.593310 -7.61337
  237 113.158 -0.456432 11.1878
  238 118.747 4.86900 12.9620
  239 189.270 41.1154 21.0893
  240 229.381 8.84550 -4.73439
  241 113.652 3.68053 -12.2877
  242 116.971 -3.29765 11.5438
  243 76.9411 -5.94583 -11.0514
  244 76.1415 -5.93186 11.0432
  245 156.629 14.2566 -1.64867
  246 138.459 4.78678 8.90197
  247 -0.628495 -0.323961 -2.69121
  248 -0.616569 -0.257775 2.74990
  249 31.9460 6.73072 -18.0837
  250 31.9449 6.90600 18.0646
  251 105.049 0.927505 -7.88802
  252 113.564 -10.0741 1.81634
  253 41.3996 13.6026 -28.5889
  254 37.5389 15.7117 27.0303
  255 17.3196 1.25118 -8.13967
  256 17.3538 1.23294 8.15708
  257 87.9211 -2.61852 -1.74996
  258 87.9031 -2.60012 1.77215
  259 122.228 -5.69085 -9.84995
  260 102.769 -9.29475 -19.7197
  261 136.746 1.60329 -7.47093
  262 107.424 -9.93967 1.52096
  263 114.084 8.92045 -42.2920
  264 105.362 -10.4558 -3.60964
  265 90.6414 -6.50802 -5.93600
  266 90.8890 -6.81336 6.23774
  267 183.118 33.7091 -8.90289
  268 149.052 32.5870 1.00451
  269 152.804 4.62519 13.2550
  270 117.160 -1.42308 -5.69884
  271 72.6715 -0.854886 1.75871
  272 72.6727 -0.872959 -1.75040
  273 119.872 -10.0008 -4.22184
  274 127.562 -9.34172 -2.90844
  275 183.165 30.6700 4.59565
  276 87.3102 2.33148 33.4164
  277 120.123 -9.90207 4.04456
  278 121.085 -1.08820 3.15504
  279 127.058 -1.49072 -11.5400
  280 112.953 49.5654 62.6967
  281 13.3157 17.8760 17.9112
  282 124.255 -0.903622 1.18037
  283 122.964 -0.820623 -1.50265
  284 111.325 -0.643059 6.83938
  285 100.329 4.09255 3.56851
  286 121.302 -0.930582 -3.08952
  287 129.161 -7.72102 12.0974
  288 50.3866 1.80123 -22.4299
  289 50.2969 1.69016 22.4151
  290 135.277 16.8671 10.4762
  291 118.991 -12.0334 -2.80525
  292 113.392 4.86884 11.5434
  293 114.224 -1.25074 0.251154
  294 114.226 -1.26797 -0.258903
  295 116.929 -1.28227 5.59038
  296 120.367 -11.8580 3.03888
  297 127.608 25.4153 1.10608
  298 178.109 33.4849 -37.8897
  299 93.4512 -5.41214 -3.36831
  300 92.0270 -5.44920 3.66299
  301 126.133 -3.53049 10.4803
  302 142.497 31.0127 -2.69621
  303 88.3710 -8.97339 -12.4569
  304 85.7760 -8.48056 13.4497
  305 234.887 6.49059 4.29894
  306 241.544 8.90043 -14.0435
  307 117.332 -3.24552 -4.56766
  308 66.6872 -0.555505 2.82530
  309 66.6795 -0.551445 -2.81861
  310 35.1609 24.1661 32.0420
  311 117.286 -3.20326 4.50160
  312 124.519 5.41191 -13.2045
  313 59.1084 -1.24425 -4.91455
  314 59.0902 -1.23941 4.88281
  315 116.188 -1.93802 1.66072
  316 116.212 -2.01448 -1.73141
  317 0.695113 -2.63543 -2.13435
  318 0.817123 -2.75228 2.15148
  319 121.911 3.43517 34.6511
  320 136.053 28.5076 4.16841
  321 115.233 -6.42403 6.09783
  322 34.1754 -0.721138 -7.28096
  323 34.1731 -0.716977 7.28520
  324 -1.48334 1.63187 -0.733713
  325 -1.52734 1.69425 0.671233
  326 116.411 13.8345 -7.08466
  327 154.292 31.9323 3.32644
  328 115.049 -9.63083 -3.23048
  329 3.14205 1.41018 -3.86975
  330 3.99675 2.85852 4.55552
  331 64.2436 -4.43128 17.0501
  332 64.1884 -4.39851 -16.9472
  333 126.224 -0.285250 -0.375871
  334 126.211 -0.356093 0.409599
  335 103.584 -10.7497 5.81940
  336 104.882 0.399772 7.01666
  337 99.7683 1.58226 5.91773
  338 10.2758 8.75538 -6.34905
  339 9.66882 7.90076 6.19933
  340 199.816 23.4973 -3.66695
  341 173.437 41.1020 6.60368
  342 106.175 -7.62961 -0.0653200
  343 72.9908 -0.362151 -0.743700
  344 72.9926 -0.369979 0.761136
  345 125.663 16.8071 -10.7628
  346 49.2813 -1.75530 17.3103
  347 49.2806 -1.78098 -17.3265
  348 141.745 -1.94528 -9.26290
  349 79.5113 -1.85062 -2.89673
  350 79.5116 -1.78202 2.88680
  351 65.4383 -3.70146 -11.3920
  352 65.3136 -3.78640 11.4278
  353 50.5793 -0.742790 5.54258
  354 50.5528 -0.710504 -5.53605
  355 151.554 11.0760 -2.27259
  356 97.3410 0.972348 -5.32562
  357 108.951 19.7291 52.4362
  358 165.864 36.1800 2.90757
  359 247.366 21.2728 -27.8465
  360 92.1858 -1.92435 -0.551124
  361 92.1850 -1.85114 0.533807
  362 102.135 -6.89683 -1.24369
  363 244.291 28.9827 29.6357
  364 103.173 -2.57227 0.284548
  365 103.101 -2.64217 -0.200693
  366 111.440 -6.62199 -2.86088
  367 95.7832 -3.35935 -1.16543
  368 94.7207 -3.17273 1.23425
  369 45.6066 37.4198 -42.4394
  370 74.9114 -2.68207 -5.32065
  371 74.8961 -2.70651 5.29349
  372 91.8515 2.94822 -0.122249
  373 234.851 57.4107 -38.2128
  374 44.5073 -0.541598 -7.65083
  375 44.5085 -0.525291 7.66935
  376 83.9797 -6.60216 -8.34344
  377 82.4714 -6.04198 8.57599
  378 114.577 8.15227 -10.6193
  379 107.682 -9.49928 -0.469127
  380 8.79125 16.7102 -14.6428
  381 80.5252 -5.91633 -22.8252
  382 84.0623 -6.66288 22.5441
  383 3.45821 0.961417 -3.40694
  384 3.42549 0.992367 3.42175
  385 100.420 -6.10351 1.45511
  386 68.0645 -0.655031 -1.75990
  387 68.0606 -0.653977 1.75965
  388 240.677 8.33867 12.8712
  389 100.193 -2.01307 0.132656
  390 100.221 -1.99875 -0.156607
  391 111.495 -6.58590 2.91776
  392 256.456 67.2254 48.2848
  393 117.000 -3.91858 -6.24917
  394 205.257 28.5431 13.7386
  395 131.854 -8.28439 -8.69678
  396 113.107 13.9520 -0.755642
  397 103.978 -5.49879 -26.0487
  398 123.988 -2.51180 -26.2952
  399 14.8522 6.16952 -8.82336
  400 14.9438 6.46954 8.81066
  401 115.959 -7.29939 -6.47041
  402 72.5039 -3.01525 7.65317
  403 72.4685 -3.14533 -7.73709
  404 121.217 -0.630086 3.50352
  405 99.9845 -5.16259 -1.10922
  406 124.757 -0.763083 1.68285
  407 123.621 1.59215 13.4525
  408 133.230 -4.46650 5.49765
  409 58.8330 -2.51099 13.2420
  410 58.8479 -2.57901 -13.2574
  411 38.0245 21.4096 -31.2399
  412 115.003 2.28424 12.6852
  413 118.052 -8.74534 6.60329
  414 100.510 -10.6540 14.1767
  415 193.408 39.4678 -18.9738
  416 117.236 -5.73729 -9.37191
  417 131.307 -3.15166 -8.37175
  418 106.461 -4.68911 0.583941
  419 107.682 -4.45629 -1.12432
  420 101.073 -11.3884 -14.2227
  421 116.990 0.298558 -13.0689
  422 100.176 -11.0005 -8.56476
  423 80.6536 -0.884612 -0.622782
  424 80.6579 -0.893627 0.610132
  425 122.955 18.8561 -7.86238
  426 121.439 -0.640539 -3.44982
  427 142.037 23.9524 -8.65716
  428 120.727 -11.4328 -12.1677
  429 126.040 -0.893839 -1.58622
  430 110.124 -12.6828 9.07763
  431 165.019 32.7975 -0.512145
  432 86.4761 -3.07043 2.88464
  433 86.7227 -3.27282 -2.92055
  434 120.219 -0.768702 -0.152858
  435 120.191 -0.783633 0.144273
  436 116.706 -4.16348 6.37504
  437 85.3086 -4.43936 5.30021
  438 85.3665 -4.33977 -5.29511
  439 109.349 9.52763 4.69093
  440 110.275 -12.3856 -9.12948
  441 130.918 21.5995 8.72633
  442 117.115 -2.53941 7.68178
  443 150.871 11.5644 -38.7856
  444 81.0899 -1.34119 -1.40464
  445 81.0625 -1.36463 1.40580
  446 136.570 27.1404 -6.63702
  447 113.267 -1.73080 -0.921757
  448 113.237 -1.64662 0.932354
  449 110.024 2.47238 -10.6274
  450 127.389 11.5678 -13.0511
  451 72.6927 -0.135967 -0.137387
  452 72.7116 -0.141114 0.140433
  453 117.118 -3.09859 -7.46293
  454 97.7245 -5.02617 28.5136
  455 130.935 66.9131 -71.8989
  456 122.768 17.6838 8.76280
  457 36.2124 9.97847 -22.6098
  458 35.3053 10.4066 22.2879
  459 64.5365 9.75067 -34.0706
  460 65.1260 10.5537 34.1710
  461 21.8278 36.4416 33.6059
  462 98.9021 -9.22749 5.56301
  463 178.768 38.6500 8.09787
  464 18.8379 14.6376 -16.2041
  465 15.7905 13.2623 12.8673
  466 61.2588 -0.363335 2.69493
  467 61.2894 -0.386806 -2.69500
  468 150.819 33.2045 -0.974954
  469 7.29422 5.44534 4.13207
  470 7.31154 5.47862 -4.30114
  471 139.387 13.0920 -10.4707
  472 -0.794014 1.03071 -1.33265
  473 -0.835127 1.06910 1.28407
  474 114.881 -1.61275 -11.4323
  475 1.44914 -4.85997 0.381780
  476 1.32159 -4.36469 -0.455705
  477 127.598 -0.758244 0.668330
  478 127.362 -0.388803 -0.718659
  479 84.3403 -8.52932 16.2899
  480 84.5999 -8.68349 -16.2627
  481 170.042 19.5443 13.5603
  482 130.041 25.8016 -3.57331
  483 122.216 -3.42087 12.0936
  484 157.743 24.3697 -3.70636
  485 146.606 5.53275 3.34801
  486 145.545 32.5888 2.88222
  487 120.501 19.6465 3.06082
  488 68.2868 23.1147 -46.6729
  489 119.393 -5.79891 10.3622
  490 145.562 26.0081 7.02289
  491 134.603 -4.56325 16.8941
  492 115.346 -8.14743 5.25128
  493 91.6515 -2.30841 -0.899745
  494 91.4421 -2.32327 0.852471
  495 124.679 10.9111 12.6553
  496 201.798 40.1181 21.9418
  497 117.287 -4.96868 9.47165
  498 131.222 -1.30273 9.85385
  499 225.370 14.6586 12.5400
  500 54.4235 -0.469019 21.0175
  501 68.4087 -1.51380 24.1294
  502 54.3775 -0.480402 -20.9826
  503 67.8231 -1.70535 -24.3499
  504 186.748 50.3205 -16.9154
  505 106.902 -7.81092 0.144764
  506 114.276 -6.69012 -5.13002
  507 -1.13469 -1.07196 -1.81007
  508 -1.16497 -1.08752 1.86313
  509 195.842 49.3381 47.4799
  510 87.5221 -1.38545 -0.534075
  511 87.5048 -1.35824 0.520331
  512 96.8443 -8.72592 -6.59726
  513 99.7244 -9.87235 17.8967
  514 124.063 -7.44267 7.63637
  515 118.823 5.12745 -13.1512
  516 104.901 0.334458 -6.74022
  517 -3.24761 0.0659830 2.29926
  518 -3.15137 0.0288791 -2.27354
  519 122.641 -11.2856 9.77905
  520 76.7952 -6.32204 19.5494
  521 69.2123 0.0628439 0.416888
  522 69.2109 0.0613281 -0.402500
  523 29.6254 2.99929 -15.2827
  524 29.7043 2.91257 15.3176
  525 76.6509 -6.11800 -19.3827
  526 144.352 7.77373 -6.96392
  527 59.5153 -1.99892 -8.41986
  528 59.5058 -2.08545 8.42390
  529 -0.205170 -3.19108 -2.39085
  530 -0.193066 -3.28509 2.44814
</Section>

newXOutput 8

<Section columns = "stress_xx | stress_yy | stress_xy">
  1 150.800 0.249904 0.554385
  2 150.810 0.239888 -0.562736
  3 82.0219 -0.0778366 -0.219261
  4 -1.11194 -1.09558 -1.17809
  5 270.291 107.198 90.8089
  6 271.209 108.731 -87.2911
  7 -1.14796 -1.12857 1.21976
  8 81.9917 -0.0758488 0.220962
  9 153.106 -0.716957 0.451670
  10 152.137 -0.864066 0.410086
  11 149.085 -0.556817 1.56696
  12 145.680 -0.458599 2.53122
  13 141.190 -0.675550 3.22311
  14 132.454 -0.592382 4.53552
  15 122.390 -0.0409941 5.22547
  16 111.881 0.567050 5.03168
  17 105.851 1.74887 3.08912
  18 97.2753 2.97789 -0.0596513
  19 105.519 1.90351 -3.47738
  20 113.005 0.461456 -5.54245
  21 121.476 0.168640 -5.29498
  22 132.705 -0.649869 -4.91734
  23 141.295 -0.873083 -3.45145
  24 145.716 -1.02391 -2.55882
  25 151.430 -1.10898 -1.17748
  26 150.707 -0.467842 -0.665435
  27 152.987 -0.603377 -0.400388
  28 144.083 -0.507314 -0.645305
  29 135.744 -1.46297 -0.494196
  30 125.129 -1.86693 -0.308418
  31 116.756 -1.87453 -0.459487
  32 108.694 -1.90309 0.118095
  33 97.6864 -0.988578 0.170149
  34 89.0002 -0.471219 -0.178711
  35 80.9024 -0.0102727 0.388414
  36 78.9096 0.549269 0.204584
  37 78.0166 -0.0243725 0.913254
  38 75.7448 -0.0205249 1.46832
  39 70.5665 0.0101443 1.65651
  40 66.0886 -0.185399 2.81364
  41 58.0417 -0.161542 3.33008
  42 49.1521 -0.101877 4.23206
  43 37.6075 -0.419499 5.00982
  44 28.6375 0.0946859 7.01184
  45 15.9759 1.19455 5.76027
  46 1.31835 2.22151 3.65481
  47 -6.64009 1.79804 1.38622
  48 -9.01084 1.52768 -0.0808975
  49 -7.11018 0.994126 -2.15822
  50 -3.93662 -0.264220 -1.68823
  51 -0.388368 -3.82506 -1.76878
  52 0.378450 -7.65047 -2.68678
  53 0.959305 -12.1769 -1.54596
  54 2.33994 -13.1723 -0.464366
  55 4.90859 -5.03764 4.59443
  56 13.4345 20.2767 20.3327
  57 59.3980 78.7072 68.4323
  58 363.401 46.3858 58.7641
  59 301.810 12.4608 19.9556
  60 283.451 5.59520 6.78297
  61 275.899 3.84072 -0.853683
  62 282.966 5.77902 -7.47909
  63 307.519 13.9874 -23.2391
  64 352.604 52.7402 -62.0359
  65 69.4891 88.9189 -73.0777
  66 14.0595 17.2935 -16.9949
  67 4.98074 -5.55920 -4.67422
  68 1.95227 -13.3865 0.291886
  69 1.05763 -12.3541 1.35839
  70 0.442547 -7.84328 2.70748
  71 -0.388546 -3.95021 1.81609
  72 -4.04921 -0.250167 1.71740
  73 -7.23996 1.03472 2.14481
  74 -9.02238 1.53145 0.0190401
  75 -6.55964 1.76617 -1.40610
  76 1.37610 2.21029 -3.63481
  77 15.9765 1.20361 -5.74935
  78 28.6398 0.0952542 -7.00493
  79 37.5971 -0.425172 -4.99549
  80 49.1043 -0.0898377 -4.21809
  81 57.9923 -0.142200 -3.35086
  82 66.1166 -0.195757 -2.84102
  83 70.6063 -0.00264191 -1.65677
  84 75.7640 -0.0199469 -1.46061
  85 78.0238 -0.0294519 -0.903812
  86 78.9004 0.553592 -0.192292
  87 80.8768 -0.00676373 -0.384412
  88 88.9902 -0.470429 0.175250
  89 97.6971 -1.01109 -0.178135
  90 108.702 -1.94162 -0.118517
  91 116.789 -1.89323 0.454478
  92 125.149 -1.85382 0.311142
  93 135.732 -1.46344 0.491999
  94 144.021 -0.508016 0.653750
  95 129.270 -13.9679 -5.07519
  96 131.055 -13.8652 3.79446
  97 140.617 23.6237 -3.42006
  98 93.6724 -2.68525 -30.8749
  99 92.3077 -2.36232 30.9984
  100 162.563 33.0006 8.05609
  101 173.725 37.0868 -3.98981
  102 108.186 -4.85617 -2.81123
  103 109.397 -4.74839 2.31488
  104 141.421 -0.125608 -15.0849
  105 159.015 -3.85508 0.755410
  106 138.463 -1.02149 14.9850
  107 164.326 -1.74451 2.27253
  108 25.2311 13.3305 17.1302
  109 24.9573 12.6709 -17.7627
  110 133.331 -5.75805 5.21749
  111 133.739 -5.98290 -5.80312
  112 195.708 38.3801 -0.908521
  113 85.5217 -6.62602 -16.9024
  114 85.6142 -6.59633 17.0036
  115 93.4521 -5.60703 8.44698
  116 93.5716 -5.48840 -8.37629
  117 79.5826 15.7913 -47.0160
  118 84.0592 16.2733 47.4845
  119 199.599 46.9233 -7.46331
  120 213.318 43.1778 12.7117
  121 135.325 12.1470 11.3244
  122 126.798 -3.50943 0.924554
  123 126.971 -3.79876 -0.942481
  124 125.108 4.61889 -9.98527
  125 44.7398 1.42151 -19.4754
  126 44.7968 1.34730 19.4026
  127 135.050 -3.42818 -11.1712
  128 151.038 5.12841 14.1886
  129 93.3953 -1.73939 2.40391
  130 93.4165 -1.75785 -2.35396
  131 117.451 -9.60634 -3.75104
  132 116.572 -9.21929 3.90520
  133 129.190 -14.0136 13.8865
  134 153.118 6.68546 -13.8124
  135 136.465 -8.71485 8.84329
  136 161.141 34.9408 -0.264883
  137 134.150 -14.1740 -12.5581
  138 190.968 27.6882 3.81671
  139 179.123 8.97625 -24.7183
  140 120.929 8.06357 -0.342045
  141 134.534 -3.10520 11.0755
  142 137.712 -8.68341 -9.30366
  143 249.433 20.2348 6.42632
  144 146.555 -9.02287 -6.91976
  145 253.616 28.6063 -20.7191
  146 146.938 -8.87875 6.09255
  147 127.021 2.58198 11.9803
  148 3.49348 3.97899 -0.0740365
  149 3.70525 4.26388 0.117043
  150 139.179 -2.38342 3.06307
  151 139.031 -2.17096 -2.95725
  152 105.237 -10.3950 -11.4361
  153 107.386 -10.1564 10.7469
  154 53.5797 -1.88351 -15.4832
  155 53.5776 -1.87006 15.4707
  156 113.567 -3.07672 -0.355573
  157 113.499 -2.88474 0.404348
  158 15.5162 18.8141 -18.3449
  159 20.0491 19.0301 19.2805
  160 140.886 13.0105 -13.3056
  161 77.7592 -3.49228 -10.6190
  162 77.6457 -3.65367 10.5485
  163 180.433 16.7609 42.9090
  164 136.011 -5.88220 30.7506
  165 124.116 -6.82910 1.02302
  166 123.874 -6.50747 -0.977311
  167 139.475 -1.07729 1.04752
  168 139.308 -1.05267 -1.09716
  169 140.103 -10.9362 -21.1888
  170 85.8775 -1.96728 -4.19146
  171 85.8899 -1.97038 4.16501
  172 129.771 0.431623 -12.6369
  173 172.081 21.5042 7.66626
  174 172.358 20.4223 -8.51337
  175 147.222 27.3603 6.20214
  176 237.987 62.9993 28.3710
  177 102.283 -11.2353 21.7239
  178 143.602 32.7585 -67.9959
  179 103.405 -10.2916 -22.3350
  180 138.002 -2.56488 -6.32774
  181 137.920 -2.45150 6.43616
  182 130.568 -9.77642 -3.12015
  183 17.3483 4.52432 -10.4406
  184 17.3792 4.63940 10.4693
  185 65.3406 7.11780 -32.8430
  186 64.0610 7.53719 32.5072
  187 150.520 25.8857 -9.27779
  188 129.963 -9.43516 3.04398
  189 76.9011 -3.50608 -24.8677
  190 77.0983 -3.33624 25.0599
  191 64.5843 -2.10033 -11.3045
  192 64.5457 -2.14862 11.3625
  193 204.522 38.9338 -12.8070
  194 67.4332 41.3881 55.6241
  195 184.647 39.4845 0.419617
  196 101.374 -1.67568 -0.899162
  197 101.299 -1.72147 0.894742
  198 115.399 -13.0996 12.5261
  199 35.9354 33.2001 -36.1239
  200 116.394 -13.4649 -12.9833
  201 77.2626 -1.61477 5.61096
  202 77.2500 -1.67620 -5.58301
  203 142.606 -8.11258 10.3280
  204 262.622 28.2291 23.6091
  205 96.5938 -3.68390 -4.98230
  206 96.4410 -3.69932 4.89871
  207 148.810 20.2927 12.8708
  208 89.0318 -0.568245 -0.862094
  209 89.0525 -0.584659 0.869697
  210 181.663 39.6477 0.521016
  211 127.134 10.0836 -6.74762
  212 251.209 50.7771 -34.0521
  213 134.859 17.8667 5.67858
  214 178.971 35.9802 -4.49454
  215 135.724 -5.03995 9.61301
  216 118.772 -3.97091 0.0943254
  217 118.488 -4.66592 0.204796
  218 7.71063 4.61608 4.59536
  219 7.77213 4.50422 -4.70647
  220 116.555 4.03327 -4.34193
  221 130.866 -4.79978 2.69554
  222 131.206 -4.73160 -2.81101
  223 6.98508 6.42103 -4.31855
  224 6.20387 6.97561 4.62384
  225 125.943 -2.17035 -0.465062
  226 125.937 -2.13768 0.517272
  227 35.9840 0.0738628 -11.7432
  228 35.9983 0.0701267 11.7364
  229 103.211 3.62453 -39.3376
  230 125.340 6.61425 9.49725
  231 135.102 -6.13846 -8.54092
  232 137.459 -4.34543 -13.3679
  233 125.608 -10.4869 23.8906
  234 151.344 -8.99450 0.0433599
  235 154.749 21.3784 -12.8297
  236 130.300 -0.692489 -8.80850
  237 131.780 -0.532200 12.9454
  238 138.267 5.66746 14.9970
  239 219.968 47.9404 24.7447
  240 266.434 10.2771 -5.49265
  241 132.363 4.28611 -14.2254
  242 136.181 -3.84291 13.3416
  243 89.6837 -6.91970 -12.8965
  244 88.7558 -6.90341 12.8865
  245 182.145 16.6343 -2.08411
  246 161.097 5.57524 10.2231
  247 -0.718099 -0.365528 -3.12033
  248 -0.704624 -0.288600 3.18920
  249 37.2852 7.83448 -21.1224
  250 37.2844 8.03804 21.0992
  251 122.405 1.08473 -9.13805
  252 132.190 -11.7274 2.02664
  253 48.2683 15.8492 -33.3659
  254 43.7740 18.3071 31.5517
  255 20.2839 1.45405 -9.51211
  256 20.3243 1.43275 9.53212
  257 102.471 -3.04351 -2.05807
  258 102.450 -3.02183 2.08326
  259 142.262 -6.62959 -11.3538
  260 119.615 -10.8241 -23.0226
  261 159.102 1.86807 -8.55755
  262 125.064 -11.5686 1.84248
  263 132.675 10.4229 -49.2851
  264 122.669 -12.1695 -4.27043
  265 105.600 -7.57060 -6.95111
  266 105.884 -7.92620 7.30273
  267 212.973 39.1865 -10.3948
  268 173.493 37.8970 1.13774
  269 177.654 5.43912 15.5693
  270 136.394 -1.65906 -6.58422
  271 84.7989 -0.990943 2.05569
  272 84.8008 -1.01197 -2.04616
  273 139.511 -11.6445 -4.81070
  274 148.412 -10.8724 -3.49536
  275 213.023 35.6483 5.37007
  276 101.629 2.71509 38.9625
  277 139.802 -11.5291 4.60392
  278 140.908 -1.27308 3.63375
  279 147.874 -1.73990 -13.3128
  280 131.161 57.8926 72.9871
  281 15.5463 20.9571 20.9512
  282 144.550 -1.05826 1.35227
  283 143.058 -0.963598 -1.72430
  284 129.659 -0.749226 7.91353
  285 116.946 4.77411 4.13609
  286 141.158 -1.08978 -3.55798
  287 150.241 -8.97788 14.1816
  288 58.7529 2.08564 -26.1736
  289 58.6482 1.95653 26.1561
  290 157.452 19.6315 12.0747
  291 138.473 -14.0094 -3.36112
  292 132.069 5.67266 13.3657
  293 132.939 -1.46631 0.280369
  294 132.941 -1.48630 -0.289196
  295 136.127 -1.49470 6.45978
  296 140.067 -13.8046 3.63422
  297 148.598 29.5736 1.27791
  298 206.894 39.1406 -44.2531
  299 108.867 -6.29556 -3.96148
  300 107.215 -6.33806 4.30283
  301 146.797 -4.11458 12.0795
  302 165.882 36.0708 -3.09184
  303 102.937 -10.4468 -14.5477
  304 99.9253 -9.87335 15.6993
  305 272.791 7.54138 4.98302
  306 280.498 10.3361 -16.2788
  307 136.563 -3.78476 -5.25666
  308 77.8382 -0.644340 3.29591
  309 77.8296 -0.639634 -3.28824
  310 40.9931 28.1805 37.3975
  311 136.509 -3.73533 5.18035
  312 144.955 6.29648 -15.2616
  313 69.0068 -1.44607 -5.73018
  314 68.9855 -1.44046 5.69328
  315 135.219 -2.26505 1.89850
  316 135.247 -2.35364 -1.98027
  317 0.817381 -3.04427 -2.46583
  318 0.959315 -3.18111 2.48650
  319 141.774 4.03337 40.4043
  320 158.399 33.1642 4.80367
  321 134.137 -7.48180 7.01360
  322 39.9640 -0.841422 -8.49286
  323 39.9615 -0.836587 8.49758
  324 -1.69620 1.90724 -0.832986
  325 -1.74822 1.97997 0.760547
  326 135.586 16.1086 -8.20123
  327 179.531 37.1657 3.73316
  328 133.916 -11.2123 -3.66870
  329 3.67528 1.73576 -4.56267
  330 4.67368 3.42609 5.36519
  331 74.8998 -5.16500 19.8887
  332 74.8364 -5.12669 -19.7693
  333 146.814 -0.340108 -0.430585
  334 146.798 -0.422435 0.469403
  335 120.601 -12.5113 6.83892
  336 122.211 0.467000 8.12619
  337 116.295 1.84756 6.85807
  338 12.0176 10.2240 -7.45765
  339 11.3113 9.22812 7.28458
  340 232.287 27.3046 -4.26696
  341 201.727 47.8305 7.81749
  342 123.621 -8.88028 -0.0107398
  343 85.1819 -0.419185 -0.871884
  344 85.1836 -0.428256 0.892042
  345 146.314 19.5598 -12.4409
  346 57.4943 -2.05256 20.1943
  347 57.4937 -2.08260 -20.2135
  348 164.844 -2.23749 -10.9062
  349 92.7175 -2.14907 -3.39066
  350 92.7175 -2.06929 3.37894
  351 76.3216 -4.30821 -13.2851
  352 76.1769 -4.40692 13.3265
  353 59.0800 -0.863970 6.46077
  354 59.0495 -0.826452 -6.45326
  355 176.268 12.9163 -2.48331
  356 113.487 1.13957 -6.17304
  357 126.693 23.0194 61.0683
  358 192.976 42.0842 3.46901
  359 287.261 24.7071 -32.3174
  360 107.416 -2.23805 -0.652931
  361 107.415 -2.15302 0.632866
  362 118.936 -8.02519 -1.50283
  363 283.727 33.6728 34.4004
  364 120.144 -2.99803 0.304484
  365 120.061 -3.07914 -0.206833
  366 129.730 -7.71006 -3.25890
  367 111.580 -3.90785 -1.38657
  368 110.349 -3.69058 1.46370
  369 53.0522 43.7471 -49.4719
  370 87.3647 -3.11784 -6.21213
  371 87.3467 -3.14609 6.18020
  372 107.131 3.43868 -0.141770
  373 272.754 66.7991 -44.4845
  374 51.9974 -0.630472 -8.92124
  375 51.9988 -0.611463 8.94254
  376 97.8647 -7.68098 -9.74901
  377 96.1134 -7.02878 10.0161
  378 133.446 9.49432 -12.2954
  379 125.367 -11.0559 -0.619274
  380 10.2662 19.6081 -17.1339
  381 93.7919 -6.89876 -26.6239
  382 97.8989 -7.76681 26.2973
  383 4.11725 1.11866 -3.99213
  384 4.08020 1.15460 4.00934
  385 116.949 -7.10158 1.74267
  386 79.4528 -0.760124 -2.05470
  387 79.4480 -0.758879 2.05433
  388 279.498 9.68359 14.9215
  389 116.692 -2.34588 0.142251
  390 116.724 -2.32909 -0.169907
  391 129.793 -7.66797 3.32586
  392 297.687 78.2300 56.1649
  393 136.188 -4.56744 -7.20241
  394 238.590 33.1741 15.9790
  395 153.375 -9.63449 -10.2308
  396 131.758 16.2487 -0.875587
  397 121.000 -6.40018 -30.3898
  398 144.206 -2.90092 -30.6904
  399 17.3706 7.19056 -10.3344
  400 17.4783 7.53929 10.3196
  401 134.980 -8.50041 -7.43925
  402 84.5561 -3.50571 8.92876
  403 84.5154 -3.65712 -9.02679
  404 141.075 -0.737122 4.04341
  405 116.447 -6.00754 -1.33541
  406 145.143 -0.894428 1.93390
  407 143.903 1.84976 15.5462
  408 155.012 -5.19734 6.27068
  409 68.6329 -2.92474 15.4417
  410 68.6502 -3.00401 -15.4599
  411 44.3225 24.9652 -36.4575
  412 133.923 2.65950 14.6823
  413 137.407 -10.1838 7.58450
  414 117.010 -12.4058 16.5659
  415 224.889 45.8938 -22.1144
  416 136.473 -6.68321 -10.8130
  417 152.789 -3.67088 -9.61832
  418 123.954 -5.45963 0.632697
  419 125.369 -5.18955 -1.26037
  420 117.663 -13.2606 -16.6206
  421 136.218 0.345344 -15.1192
  422 116.645 -12.8043 -10.0286
  423 94.0601 -1.02570 -0.729554
  424 94.0647 -1.03613 0.714854
  425 143.182 21.9457 -9.09368
  426 141.331 -0.748834 -3.98134
  427 165.304 27.8738 -9.95026
  428 140.461 -13.3052 -14.2551
  429 146.622 -1.04522 -1.82342
  430 128.178 -14.7654 10.6433
  431 191.947 38.1965 -0.765844
  432 100.789 -3.56902 3.38379
  433 101.075 -3.80442 -3.42576
  434 139.873 -0.905484 -0.171055
  435 139.841 -0.922806 0.161091
  436 135.847 -4.85279 7.34703
  437 99.4207 -5.16202 6.20045
  438 99.4886 -5.04653 -6.19500
  439 127.398 11.1013 5.43398
  440 128.352 -14.4203 -10.7032
  441 152.421 25.1356 10.0755
  442 136.334 -2.96074 8.86994
  443 175.323 13.5675 -45.2282
  444 94.5613 -1.55619 -1.64480
  445 94.5292 -1.58333 1.64601
  446 158.986 31.5765 -7.64354
  447 131.835 -2.02401 -1.04736
  448 131.801 -1.92619 1.05982
  449 128.162 2.88115 -12.3078
  450 148.297 13.4615 -15.0845
  451 84.8446 -0.156221 -0.163649
  452 84.8660 -0.162188 0.167150
  453 136.336 -3.61207 -8.61426
  454 113.735 -5.85360 33.2542
  455 151.961 78.1601 -83.6432
  456 142.959 20.5835 10.1341
  457 42.2475 11.6214 -26.4039
  458 41.1936 12.1189 26.0281
  459 75.1793 11.3528 -39.7361
  460 75.8583 12.2851 39.8502
  461 25.4341 42.6715 39.2350
  462 115.177 -10.7377 6.53234
  463 207.862 45.0316 9.62246
  464 21.9942 17.0809 -18.9506
  465 18.4500 15.4790 15.0654
  466 71.5262 -0.421384 3.14221
  467 71.5619 -0.448686 -3.14233
  468 175.545 38.6115 -1.11980
  469 8.54846 6.35436 4.86378
  470 8.56755 6.39348 -5.06015
  471 162.195 15.2391 -12.0469
  472 -0.865962 1.20059 -1.57538
  473 -0.912779 1.24522 1.51892
  474 133.769 -1.87959 -13.2237
  475 1.69472 -5.60610 0.414523
  476 1.54677 -5.02681 -0.499261
  477 148.405 -0.886557 0.766165
  478 148.132 -0.459139 -0.824208
  479 98.2437 -9.93388 19.0100
  480 98.5458 -10.1133 -18.9796
  481 197.658 22.8358 15.9642
  482 151.420 30.0202 -4.12373
  483 142.259 -3.98725 13.9643
  484 183.492 28.3838 -4.14421
  485 170.526 6.45905 3.74831
  486 169.416 37.9078 3.28950
  487 140.340 22.8698 3.54206
  488 79.4812 26.9616 -54.3993
  489 138.978 -6.75499 11.9572
  490 169.402 30.2694 8.04812
  491 156.541 -5.28440 19.7725
  492 134.265 -9.48665 6.02118
  493 106.795 -2.68438 -1.06670
  494 106.553 -2.70166 1.01172
  495 145.153 12.6989 14.6292
  496 234.605 46.6390 25.5459
  497 136.531 -5.78901 10.9311
  498 152.696 -1.51955 11.3403
  499 261.815 17.0287 14.5513
  500 63.4599 -0.558254 24.5187
  501 79.7083 -1.77535 28.1425
  502 63.4069 -0.571790 -24.4783
  503 79.0286 -1.99911 -28.3986
  504 217.164 58.5520 -19.7991
  505 124.464 -9.09089 0.102481
  506 133.024 -7.79084 -5.88875
  507 -1.32017 -1.24740 -2.10715
  508 -1.35561 -1.26564 2.16917
  509 227.396 57.5980 55.4173
  510 102.015 -1.60927 -0.626776
  511 101.995 -1.57767 0.610847
  512 112.787 -10.1543 -7.73071
  513 116.088 -11.4985 20.8955
  514 144.383 -8.66763 8.77408
  515 138.355 5.96719 -15.2154
  516 122.234 0.389862 -7.80518
  517 -3.77544 0.0799044 2.67322
  518 -3.66285 0.0367118 -2.64299
  519 142.690 -13.1365 11.4754
  520 89.4719 -7.36833 22.8058
  521 80.8024 0.0740986 0.490194
  522 80.8013 0.0723253 -0.473555
  523 34.6000 3.48670 -17.8505
  524 34.6922 3.38551 17.8904
  525 89.3045 -7.13079 -22.6123
  526 167.923 9.05743 -7.95365
  527 69.4592 -2.32425 -9.81649
  528 69.4479 -2.42485 9.82112
  529 -0.235330 -3.71030 -2.77951
  530 -0.221360 -3.82025 2.84663
</Section>

newXOutput 9

<Section columns = "stress_xx | stress_yy | stress_xy">
  1 171.786 0.276067 0.626497
  2 171.799 0.265210 -0.635899
  3 93.8080 -0.0863708 -0.247412
  4 -1.26995 -1.25115 -1.34598
  5 307.011 122.388 103.390
  6 308.154 124.170 -99.3883
  7 -1.31115 -1.28888 1.39361
  8 93.7744 -0.0841113 0.249328
  9 174.398 -0.819964 0.508204
  10 173.308 -0.987161 0.457265
  11 169.873 -0.638782 1.76749
  12 166.037 -0.528217 2.85942
  13 160.974 -0.773083 3.64544
  14 151.098 -0.676620 5.13879
  15 139.703 -0.0459393 5.92744
  16 127.791 0.650116 5.71226
  17 120.949 1.99980 3.50991
  18 111.224 3.39418 -0.0677027
  19 120.574 2.17487 -3.95117
  20 129.064 0.529904 -6.29111
  21 138.670 0.190449 -6.00513
  22 151.382 -0.742506 -5.57146
  23 161.094 -0.997695 -3.90397
  24 166.079 -1.16884 -2.89124
  25 172.526 -1.26432 -1.32609
  26 171.694 -0.538864 -0.744757
  27 174.264 -0.691004 -0.450135
  28 164.188 -0.588951 -0.730240
  29 154.742 -1.67878 -0.557007
  30 142.706 -2.13699 -0.342721
  31 133.207 -2.14162 -0.518980
  32 124.060 -2.16867 0.140225
  33 111.569 -1.12405 0.196783
  34 101.718 -0.533531 -0.200490
  35 92.5353 -0.0100670 0.444492
  36 90.2652 0.624558 0.238407
  37 89.2369 -0.0263063 1.04673
  38 86.6383 -0.0216971 1.67807
  39 80.7323 0.0123306 1.89360
  40 75.6209 -0.210441 3.21133
  41 66.4396 -0.183289 3.80233
  42 56.2953 -0.115194 4.83249
  43 43.1151 -0.479422 5.72424
  44 32.8651 0.106462 8.01187
  45 18.3877 1.36217 6.59167
  46 1.62753 2.53483 4.19217
  47 -7.49428 2.05268 1.59874
  48 -10.2394 1.74548 -0.0778718
  49 -8.10311 1.13909 -2.45560
  50 -4.49233 -0.298953 -1.92526
  51 -0.440749 -4.36580 -2.01763
  52 0.436492 -8.72225 -3.05938
  53 1.10062 -13.8538 -1.74643
  54 2.68128 -14.9387 -0.493768
  55 5.62102 -5.56477 5.31018
  56 15.3480 23.4931 23.2987
  57 67.5743 90.1852 78.0241
  58 412.852 52.7863 66.6819
  59 343.192 14.1734 22.6404
  60 322.403 6.36804 7.69276
  61 313.856 4.37288 -0.967803
  62 321.855 6.57792 -8.48405
  63 349.640 15.9125 -26.3627
  64 400.669 60.0261 -70.4301
  65 79.0282 101.839 -83.2766
  66 16.0802 20.0584 -19.4981
  67 5.70165 -6.15687 -5.39741
  68 2.23658 -15.1870 0.299892
  69 1.21233 -14.0583 1.53317
  70 0.509534 -8.94330 3.08345
  71 -0.441059 -4.50900 2.07182
  72 -4.62118 -0.282976 1.95871
  73 -8.25200 1.18542 2.44053
  74 -10.2538 1.74985 0.00741552
  75 -7.40391 2.01642 -1.62139
  76 1.69210 2.52212 -4.16944
  77 18.3875 1.37254 -6.57938
  78 32.8671 0.107122 -8.00420
  79 43.1030 -0.485903 -5.70808
  80 56.2409 -0.101504 -4.81668
  81 66.3835 -0.161254 -3.82601
  82 75.6529 -0.222234 -3.24252
  83 80.7777 -0.00223903 -1.89394
  84 86.6606 -0.0210414 -1.66935
  85 89.2457 -0.0321023 -1.03606
  86 90.2553 0.629456 -0.224486
  87 92.5068 -0.00607679 -0.439961
  88 101.707 -0.532645 0.196545
  89 111.582 -1.14969 -0.205866
  90 124.068 -2.21257 -0.140710
  91 133.245 -2.16299 0.513286
  92 142.729 -2.12219 0.345888
  93 154.727 -1.67928 0.554552
  94 164.117 -0.589815 0.739692
  95 147.400 -15.9287 -5.87774
  96 149.429 -15.8111 4.41966
  97 160.427 26.9363 -3.87618
  98 106.858 -3.07481 -35.2747
  99 105.307 -2.70567 35.4165
  100 185.369 37.6097 9.07866
  101 198.061 42.2641 -4.44435
  102 123.473 -5.53311 -3.24256
  103 124.847 -5.41087 2.67804
  104 161.271 -0.148669 -17.0783
  105 181.210 -4.38465 0.712646
  106 157.912 -1.16800 16.9735
  107 187.229 -1.97018 2.74581
  108 28.8667 15.2228 19.6235
  109 28.5521 14.4710 -20.3455
  110 152.033 -6.57154 5.87018
  111 152.500 -6.82755 -6.53390
  112 223.052 43.7051 -1.04735
  113 97.6463 -7.55868 -19.3145
  114 97.7518 -7.52458 19.4287
  115 106.714 -6.38745 9.66356
  116 106.850 -6.25274 -9.58406
  117 90.7799 18.0248 -53.6926
  118 95.8660 18.5826 54.2262
  119 227.452 53.4756 -8.63024
  120 243.035 49.1814 14.5516
  121 154.390 13.8564 12.8413
  122 144.604 -4.00746 1.01407
  123 144.800 -4.33673 -1.03386
  124 142.787 5.27601 -11.3315
  125 51.1606 1.61223 -22.2680
  126 51.2257 1.52774 22.1845
  127 154.023 -3.91388 -12.6449
  128 172.201 5.84431 16.0373
  129 106.688 -1.97776 2.75796
  130 106.712 -1.99890 -2.70148
  131 133.982 -10.9504 -4.34217
  132 132.985 -10.5082 4.51521
  133 147.284 -15.9823 15.9247
  134 174.566 7.62098 -15.6074
  135 155.606 -9.94226 9.97323
  136 183.779 39.8134 -0.299697
  137 152.925 -16.1647 -14.4141
  138 217.542 31.6211 4.55628
  139 203.970 10.3167 -28.3298
  140 138.053 9.21015 -0.388614
  141 153.440 -3.54467 12.5391
  142 157.024 -9.90681 -10.4925
  143 283.932 23.0325 7.31020
  144 167.062 -10.2926 -7.75858
  145 288.689 32.5625 -23.5829
  146 167.498 -10.1269 6.81353
  147 144.950 2.94958 13.5915
  148 4.02038 4.56558 -0.0401559
  149 4.26161 4.89074 0.0901178
  150 158.656 -2.72659 3.44509
  151 158.488 -2.48526 -3.32542
  152 120.085 -11.8510 -13.0918
  153 122.529 -11.5785 12.3081
  154 61.2739 -2.15275 -17.6914
  155 61.2715 -2.13743 17.6768
  156 129.587 -3.50784 -0.431726
  157 129.510 -3.28912 0.487243
  158 17.7521 21.5443 -21.0272
  159 22.9329 21.7813 22.0961
  160 160.704 14.8361 -15.0783
  161 88.8528 -3.97921 -12.1295
  162 88.7234 -4.16314 12.0492
  163 205.389 19.2484 49.0442
  164 154.987 -6.69807 35.1478
  165 141.561 -7.78738 1.10061
  166 141.285 -7.42154 -1.05109
  167 158.973 -1.24062 1.17294
  168 158.785 -1.21268 -1.22917
  169 159.665 -12.4591 -24.2609
  170 98.1384 -2.23760 -4.79446
  171 98.1522 -2.24107 4.76422
  172 148.062 0.494063 -14.3308
  173 196.123 24.5339 8.57060
  174 196.435 23.2986 -9.53205
  175 167.936 31.1904 7.02140
  176 270.998 71.8011 32.4382
  177 116.685 -12.8205 24.8345
  178 163.490 37.4767 -77.5564
  179 117.960 -11.7448 -25.5315
  180 157.349 -2.93090 -7.15055
  181 157.257 -2.80226 7.27363
  182 148.893 -11.1490 -3.46630
  183 19.8922 5.16197 -11.9641
  184 19.9284 5.29284 11.9966
  185 74.5921 8.10971 -37.5340
  186 73.1343 8.58731 37.1503
  187 171.677 29.5083 -10.4965
  188 148.204 -10.7595 3.38128
  189 87.8004 -4.01103 -28.4123
  190 88.0244 -3.81733 28.6312
  191 73.8443 -2.39453 -12.9119
  192 73.8002 -2.44945 12.9777
  193 232.936 44.4636 -14.8217
  194 76.8883 47.2832 63.5057
  195 210.491 44.9759 0.529399
  196 115.751 -1.90723 -1.03967
  197 115.665 -1.95928 1.03463
  198 131.625 -14.9388 14.3530
  199 41.0438 37.9679 -41.3102
  200 132.754 -15.3560 -14.8762
  201 88.3232 -1.83739 6.41101
  202 88.3091 -1.90738 -6.37935
  203 162.589 -9.25588 11.6506
  204 298.894 32.1294 26.8564
  205 110.302 -4.19450 -5.70965
  206 110.128 -4.21183 5.61422
  207 169.714 23.1355 14.5656
  208 101.750 -0.643892 -0.990092
  209 101.773 -0.662548 0.998663
  210 207.089 45.1760 0.502207
  211 145.093 11.5101 -7.65757
  212 286.008 57.8333 -38.8056
  213 153.874 20.3787 6.43824
  214 203.993 41.0201 -4.96709
  215 154.772 -5.75369 10.8660
  216 135.493 -4.53003 0.0663020
  217 135.171 -5.32089 0.277337
  218 8.86818 5.27328 5.29107
  219 8.93722 5.14594 -5.41758
  220 133.088 4.61093 -4.93040
  221 149.225 -5.47895 3.01284
  222 149.613 -5.40123 -3.14354
  223 8.00228 7.37998 -4.99317
  224 7.11081 8.01324 5.34330
  225 143.631 -2.48247 -0.507971
  226 143.624 -2.44538 0.567502
  227 41.2063 0.0793201 -13.4245
  228 41.2229 0.0750767 13.4164
  229 117.682 4.13553 -44.9289
  230 143.053 7.55182 10.7779
  231 154.060 -7.00599 -9.64320
  232 156.760 -4.95978 -15.1294
  233 143.187 -11.9620 27.3214
  234 172.488 -10.2539 0.182308
  235 176.458 24.3698 -14.5041
  236 148.657 -0.791718 -9.98333
  237 150.333 -0.607820 14.6736
  238 157.710 6.46237 16.9973
  239 250.430 54.7577 28.4371
  240 303.161 11.6968 -6.24240
  241 151.008 4.88956 -16.1326
  242 155.311 -4.38686 15.1048
  243 102.403 -7.88876 -14.7421
  244 101.348 -7.87015 14.7303
  245 207.498 19.0128 -2.56328
  246 183.612 6.36133 11.4997
  247 -0.803451 -0.403608 -3.54399
  248 -0.788550 -0.316020 3.62315
  249 42.6279 8.93316 -24.1677
  250 42.6277 9.16475 24.1403
  251 139.717 1.24270 -10.3702
  252 150.732 -13.3735 2.21174
  253 55.1276 18.0899 -38.1458
  254 50.0024 20.8959 36.0773
  255 23.2696 1.65533 -10.8888
  256 23.3165 1.63097 10.9114
  257 116.991 -3.46529 -2.37057
  258 116.966 -3.44027 2.39857
  259 162.202 -7.56547 -12.8199
  260 136.382 -12.3479 -26.3296
  261 181.335 2.13242 -9.60069
  262 142.630 -13.1898 2.18246
  263 151.147 11.9298 -56.2622
  264 139.906 -13.8750 -4.94724
  265 120.516 -8.62698 -7.97305
  266 120.836 -9.03267 8.37443
  267 242.642 44.6249 -11.8885
  268 197.820 43.1733 1.26165
  269 202.334 6.26524 17.9118
  270 155.546 -1.89468 -7.45197
  271 96.9291 -1.12521 2.35364
  272 96.9316 -1.14918 -2.34294
  273 159.055 -13.2817 -5.36816
  274 169.147 -12.3956 -4.11014
  275 242.694 40.5896 6.14656
  276 115.883 3.09736 44.5016
  277 159.385 -13.1495 5.13188
  278 160.630 -1.45889 4.09963
  279 168.587 -1.98911 -15.0442
  280 149.197 66.2369 83.2316
  281 17.7797 24.0664 24.0060
  282 164.730 -1.21395 1.51747
  283 163.041 -1.10821 -1.93816
  284 147.931 -0.855087 8.96958
  285 133.531 5.45551 4.69611
  286 160.914 -1.25006 -4.01380
  287 171.196 -10.2263 16.2842
  288 67.1096 2.36566 -29.9185
  289 66.9900 2.21864 29.8982
  290 179.522 22.3830 13.6325
  291 157.857 -15.9771 -3.94106
  292 150.682 6.47440 15.1599
  293 151.564 -1.68373 0.306173
  294 151.566 -1.70645 -0.316020
  295 155.244 -1.70675 7.31211
  296 159.666 -15.7429 4.25378
  297 169.510 33.7102 1.44629
  298 235.429 44.8169 -50.6280
  299 124.237 -7.17374 -4.56316
  300 122.361 -7.22148 4.95052
  301 167.360 -4.69728 13.6380
  302 189.164 41.0982 -3.47273
  303 117.456 -11.9139 -16.6422
  304 114.033 -11.2603 17.9507
  305 310.350 8.58362 5.65823
  306 319.091 11.7586 -18.4852
  307 155.702 -4.32345 -5.92597
  308 88.9980 -0.732125 3.76633
  309 88.9885 -0.726783 -3.75770
  310 46.8167 32.1910 42.7565
  311 155.641 -4.26681 5.83962
  312 165.301 7.17635 -17.2792
  313 78.9171 -1.64634 -6.54469
  314 78.8927 -1.63995 6.50267
  315 154.157 -2.59310 2.12571
  316 154.189 -2.69364 -2.21838
  317 0.941452 -3.44456 -2.79050
  318 1.10319 -3.60155 2.81490
  319 161.510 4.63881 46.1509
  320 180.652 37.7944 5.42260
  321 152.957 -8.53589 7.90190
  322 45.7777 -0.961713 -9.70417
  323 45.7753 -0.956209 9.70929
  324 -1.89943 2.18355 -0.925811
  325 -1.95967 2.26663 0.843541
  326 154.695 18.3739 -9.30005
  327 204.638 42.3746 4.09961
  328 152.697 -12.7872 -4.07956
  329 4.21114 2.08664 -5.26891
  330 5.35356 4.01909 6.18882
  331 85.5409 -5.89732 22.7262
  332 85.4696 -5.85346 -22.5905
  333 167.279 -0.396919 -0.483154
  334 167.261 -0.490637 0.526920
  335 137.548 -14.2645 7.87183
  336 139.497 0.534414 9.21916
  337 132.792 2.11331 7.78567
  338 13.7674 11.6952 -8.58022
  339 12.9624 10.5584 8.38426
  340 264.525 31.0817 -4.86376
  341 229.845 54.5251 9.06166
  342 140.996 -10.1250 0.0616137
  343 97.3785 -0.475289 -1.00118
  344 97.3799 -0.485587 1.02401
  345 166.881 22.2991 -14.0871
  346 65.7065 -2.35110 23.0776
  347 65.7060 -2.38551 -23.0999
  348 187.796 -2.52061 -12.5765
  349 105.909 -2.44473 -3.88749
  350 105.909 -2.35384 3.87394
  351 87.1974 -4.91208 -15.1763
  352 87.0329 -5.02445 15.2232
  353 67.5996 -0.984404 7.37726
  354 67.5650 -0.941695 -7.36880
  355 200.830 14.7552 -2.64816
  356 129.610 1.30823 -7.00929
  357 144.318 26.3104 69.6699
  358 219.940 47.9536 4.05117
  359 326.787 28.1106 -36.7411
  360 122.608 -2.54974 -0.757404
  361 122.607 -2.45301 0.734629
  362 135.674 -9.14761 -1.77600
  363 322.807 38.3240 39.1167
  364 137.052 -3.42287 0.316989
  365 136.957 -3.51507 -0.205591
  366 147.940 -8.79369 -3.63545
  367 127.330 -4.45311 -1.61494
  368 125.933 -4.20533 1.69951
  369 60.4539 50.0990 -56.4919
  370 99.8078 -3.55047 -7.10468
  371 99.7870 -3.58244 7.06793
  372 122.400 3.92888 -0.161051
  373 310.314 76.1372 -50.7279
  374 59.5069 -0.718938 -10.1901
  375 59.5085 -0.697231 10.2142
  376 111.718 -8.75374 -11.1584
  377 109.726 -8.00990 11.4588
  378 152.252 10.8318 -13.9454
  379 142.979 -12.6050 -0.788973
  380 11.7435 22.5373 -19.6386
  381 107.015 -7.88013 -30.4206
  382 111.686 -8.86885 30.0489
  383 4.79938 1.27506 -4.58215
  384 4.75833 1.31595 4.60173
  385 133.420 -8.09425 2.04241
  386 90.8518 -0.864078 -2.34984
  387 90.8459 -0.862639 2.34932
  388 317.961 11.0162 16.9456
  389 133.135 -2.67786 0.148467
  390 133.171 -2.65857 -0.179748
  391 148.012 -8.74561 3.71268
  392 338.500 89.1787 63.9970
  393 155.289 -5.21505 -8.13153
  394 271.679 37.7702 18.2053
  395 174.768 -10.9759 -11.7877
  396 150.353 18.5373 -0.993865
  397 137.934 -7.29730 -34.7303
  398 164.300 -3.28175 -35.0886
  399 19.9008 8.20955 -11.8567
  400 20.0248 8.60664 11.8398
  401 153.915 -9.69700 -8.37813
  402 96.5982 -3.99277 10.2041
  403 96.5523 -4.16542 -10.3163
  404 160.835 -0.844691 4.57129
  405 132.851 -6.84812 -1.57275
  406 165.414 -1.02688 2.17699
  407 164.096 2.10538 17.5991
  408 176.674 -5.92420 7.00447
  409 78.4302 -3.33713 17.6391
  410 78.4499 -3.42762 -17.6603
  411 50.6088 28.5170 -41.6775
  412 152.774 3.03333 16.6471
  413 156.671 -11.6168 8.53302
  414 133.439 -14.1507 18.9621
  415 256.159 52.2774 -25.2481
  416 155.624 -7.62615 -12.2208
  417 174.159 -4.18821 -10.8241
  418 141.377 -6.22701 0.668298
  419 142.982 -5.92010 -1.38249
  420 134.181 -15.1256 -19.0257
  421 155.369 0.391400 -17.1343
  422 133.051 -14.5997 -11.5021
  423 107.455 -1.16501 -0.837103
  424 107.460 -1.17684 0.820369
  425 163.333 25.0205 -10.3031
  426 161.125 -0.857529 -4.50102
  427 188.458 31.7756 -11.2022
  428 160.087 -15.1683 -16.3586
  429 167.087 -1.19722 -2.05326
  430 146.146 -16.8393 12.2231
  431 218.715 43.5770 -1.06523
  432 115.073 -4.06391 3.88781
  433 115.398 -4.33213 -3.93586
  434 159.421 -1.04456 -0.187289
  435 159.384 -1.06424 0.175960
  436 154.901 -5.54074 8.29430
  437 113.502 -5.87985 7.10509
  438 113.580 -5.74866 -7.09941
  439 145.396 12.6709 6.16628
  440 146.345 -16.4467 -12.2909
  441 173.834 28.6539 11.3958
  442 155.467 -3.38148 10.0329
  443 199.582 15.5918 -51.6638
  444 108.019 -1.76880 -1.88653
  445 107.982 -1.79959 1.88775
  446 181.305 35.9883 -8.62266
  447 150.316 -2.31843 -1.16538
  448 150.277 -2.20707 1.17973
  449 146.242 3.28905 -13.9630
  450 169.113 15.3458 -17.0789
  451 97.0049 -0.175803 -0.190813
  452 97.0286 -0.182578 0.194755
  453 155.468 -4.12467 -9.74028
  454 129.668 -6.67811 37.9911
  455 172.768 89.4309 -95.3189
  456 163.073 23.4700 11.4808
  457 48.2820 13.2587 -30.2049
  458 47.0823 13.8250 29.7751
  459 85.7896 12.9486 -45.3974
  460 86.5555 14.0087 45.5246
  461 29.0309 48.9440 44.8708
  462 131.392 -12.2401 7.51298
  463 236.761 51.3967 11.1941
  464 25.1548 19.5249 -21.7096
  465 21.1169 17.6975 17.2783
  466 81.8083 -0.478731 3.58887
  467 81.8490 -0.509843 -3.58906
  468 200.155 43.9832 -1.25980
  469 9.81341 7.26376 5.60746
  470 9.83393 7.30879 -5.83087
  471 184.886 17.3766 -13.5766
  472 -0.920994 1.36996 -1.82387
  473 -0.973192 1.42077 1.75959
  474 152.584 -2.14583 -14.9837
  475 1.94142 -6.33431 0.438618
  476 1.77334 -5.67060 -0.533747
  477 169.084 -1.01536 0.860344
  478 168.776 -0.530947 -0.925915
  479 112.103 -11.3336 21.7312
  480 112.448 -11.5381 -21.6980
  481 225.073 26.1370 18.4066
  482 172.716 34.2160 -4.66171
  483 162.210 -4.55243 15.7951
  484 209.088 32.3849 -4.53298
  485 194.303 7.38677 4.10548
  486 193.179 43.1955 3.67681
  487 160.110 26.0788 4.01531
  488 90.6226 30.8070 -62.1101
  489 158.474 -7.70804 13.5160
  490 193.124 34.5103 9.03356
  491 178.340 -5.99446 22.6677
  492 153.098 -10.8205 6.76229
  493 121.901 -3.05785 -1.23820
  494 121.625 -3.07755 1.17557
  495 165.540 14.4782 16.5658
  496 267.181 53.1138 29.1347
  497 155.691 -6.60708 12.3578
  498 174.058 -1.73606 12.7839
  499 297.951 19.3788 16.5409
  500 72.4859 -0.650547 28.0191
  501 90.9787 -2.03944 32.1529
  502 72.4262 -0.666310 -27.9733
  503 90.2056 -2.29550 -32.4443
  504 247.382 66.7401 -22.6994
  505 141.955 -10.3647 0.0421689
  506 151.689 -8.88748 -6.62119
  507 -1.50463 -1.42193 -2.40294
  508 -1.54525 -1.44287 2.47393
  509 258.648 65.8674 63.3585
  510 116.480 -1.83110 -0.720452
  511 116.457 -1.79514 0.702367
  512 128.674 -11.5753 -8.87320
  513 132.380 -13.1191 23.8984
  514 164.602 -9.88813 9.87477
  515 157.811 6.80290 -17.2444
  516 139.523 0.445192 -8.85399
  517 -4.29949 0.0946459 3.04457
  518 -4.17045 0.0453916 -3.00977
  519 162.628 -14.9789 13.1896
  520 102.114 -8.41250 26.0613
  521 92.4059 0.0855721 0.564516
  522 92.4053 0.0835402 -0.545666
  523 39.5846 3.97063 -20.4237
  524 39.6901 3.85496 20.4686
  525 101.923 -8.14161 -25.8413
  526 191.358 10.3381 -8.89656
  527 79.4090 -2.64738 -11.2110
  528 79.3959 -2.76195 11.2162
  529 -0.264357 -4.22596 -3.16541
  530 -0.248564 -4.35192 3.24242
</Section>

newXOutput 10

<Section columns = "stress_xx | stress_yy | stress_xy">
  1 192.638 0.299999 0.696940
  2 192.653 0.288435 -0.707360
  3 105.609 -0.0942790 -0.274810
  4 -1.42775 -1.40649 -1.51376
  5 343.278 137.545 115.875
  6 344.668 139.584 -111.393
  7 -1.47413 -1.44896 1.56736
  8 105.572 -0.0917508 0.276935
  9 195.550 -0.923073 0.562865
  10 194.344 -1.11014 0.501788
  11 190.537 -0.721295 1.96252
  12 186.284 -0.598789 3.17973
  13 180.664 -0.870848 4.05872
  14 169.673 -0.760752 5.73139
  15 156.973 -0.0506537 6.61869
  16 143.681 0.733691 6.38359
  17 136.040 2.25100 3.92573
  18 125.183 3.80828 -0.0756409
  19 135.621 2.44611 -4.41938
  20 145.101 0.598974 -7.02934
  21 155.824 0.211723 -6.70415
  22 169.990 -0.835082 -6.21400
  23 180.798 -1.12226 -4.34687
  24 186.332 -1.31342 -3.21584
  25 193.493 -1.41890 -1.47010
  26 192.551 -0.610851 -0.820402
  27 195.402 -0.778937 -0.498135
  28 184.175 -0.672700 -0.813452
  29 173.643 -1.89611 -0.617977
  30 160.209 -2.40774 -0.374732
  31 149.602 -2.40844 -0.577023
  32 139.384 -2.43266 0.163583
  33 125.433 -1.25809 0.223953
  34 114.434 -0.594626 -0.221382
  35 104.184 -0.00945516 0.500691
  36 101.639 0.699087 0.273301
  37 100.474 -0.0278634 1.18088
  38 97.5478 -0.0224431 1.88775
  39 90.9171 0.0146984 2.13073
  40 85.1739 -0.235126 3.60792
  41 74.8622 -0.204704 4.27366
  42 63.4671 -0.128196 5.43182
  43 48.6549 -0.539323 6.43824
  44 37.1254 0.117832 9.01138
  45 20.8309 1.52906 7.42506
  46 1.96624 2.84716 4.73320
  47 -8.32530 2.30678 1.81480
  48 -11.4536 1.96318 -0.0712717
  49 -9.09043 1.28477 -2.75028
  50 -5.04640 -0.332948 -2.16128
  51 -0.492370 -4.90513 -2.26552
  52 0.495507 -9.78881 -3.42921
  53 1.24297 -15.5153 -1.94190
  54 3.02433 -16.6768 -0.514144
  55 6.33610 -6.04482 6.04025
  56 17.2597 26.7864 26.2786
  57 75.6757 101.717 87.5688
  58 461.714 59.1323 74.4856
  59 384.157 15.8697 25.2857
  60 360.984 7.13455 8.58858
  61 351.462 4.90107 -1.08005
  62 360.375 7.37040 -9.47394
  63 391.327 17.8201 -29.4395
  64 448.180 67.2519 -78.7120
  65 88.4735 114.807 -93.4144
  66 18.1033 22.8943 -22.0188
  67 6.42475 -6.70654 -6.13395
  68 2.52219 -16.9600 0.299667
  69 1.36791 -15.7476 1.70321
  70 0.577442 -10.0383 3.45675
  71 -0.492838 -5.06642 2.32664
  72 -5.19154 -0.315066 2.19903
  73 -9.25855 1.33682 2.73361
  74 -11.4712 1.96815 -0.00772462
  75 -8.22542 2.26617 -1.84020
  76 2.03728 2.83299 -4.70777
  77 20.8297 1.54074 -7.41146
  78 37.1271 0.118586 -9.00299
  79 48.6410 -0.546612 -6.42030
  80 63.4061 -0.112872 -5.41420
  81 74.7995 -0.179991 -4.30022
  82 85.2098 -0.248342 -3.64288
  83 90.9681 -0.00164403 -2.13115
  84 97.5731 -0.0217107 -1.87806
  85 100.484 -0.0343739 -1.16901
  86 101.628 0.704550 -0.257782
  87 104.153 -0.00498836 -0.495643
  88 114.423 -0.593649 0.216955
  89 125.447 -1.28685 -0.234123
  90 139.394 -2.48190 -0.164130
  91 149.644 -2.43249 0.570651
  92 160.235 -2.39130 0.378355
  93 173.627 -1.89663 0.615279
  94 184.096 -0.673738 0.823866
  95 165.448 -17.8810 -6.69858
  96 167.718 -17.7483 5.06449
  97 180.168 30.2338 -4.32446
  98 119.995 -3.46578 -39.6714
  99 118.259 -3.05040 39.8316
  100 208.073 42.1933 10.0706
  101 222.278 47.4122 -4.87145
  102 138.717 -6.20592 -3.68079
  103 140.252 -6.06944 3.04875
  104 181.033 -0.172811 -19.0329
  105 203.278 -4.90885 0.634047
  106 177.279 -1.31452 18.9255
  107 209.992 -2.18989 3.25435
  108 32.5095 17.1119 22.1278
  109 32.1536 16.2685 -22.9389
  110 170.651 -7.38272 6.50090
  111 171.176 -7.66966 -7.24136
  112 250.244 48.9918 -1.18825
  113 109.747 -8.48789 -21.7256
  114 109.866 -8.44935 21.8526
  115 119.953 -7.16282 10.8822
  116 120.105 -7.01225 -10.7942
  117 101.934 20.2527 -60.3588
  118 107.623 20.8882 60.9570
  119 255.143 59.9911 -9.82056
  120 272.566 55.1450 16.3965
  121 173.388 15.5596 14.3338
  122 162.334 -4.50458 1.09357
  123 162.553 -4.87345 -1.11507
  124 160.416 5.93249 -12.6584
  125 57.5880 1.79997 -25.0629
  126 57.6612 1.70526 24.9685
  127 172.916 -4.39853 -14.0894
  128 193.262 6.55635 17.8434
  129 119.967 -2.21365 3.11440
  130 119.994 -2.23748 -3.05154
  131 150.450 -12.2874 -4.94625
  132 149.338 -11.7901 5.13740
  133 165.289 -17.9429 17.9756
  134 195.910 8.55198 -17.3598
  135 174.659 -11.1653 11.0714
  136 206.323 44.6571 -0.333772
  137 171.604 -18.1469 -16.2846
  138 243.943 35.5487 5.34168
  139 228.638 11.6714 -31.9598
  140 155.138 10.3554 -0.434621
  141 172.269 -3.98306 13.9744
  142 176.248 -11.1259 -11.6480
  143 318.157 25.8078 8.18580
  144 187.465 -11.5575 -8.56168
  145 323.480 36.4872 -26.4232
  146 187.952 -11.3700 7.49889
  147 162.825 3.31692 15.1785
  148 4.55406 5.15659 0.00456911
  149 4.82456 5.52191 0.0525461
  150 178.032 -3.07032 3.81400
  151 177.846 -2.80048 -3.68079
  152 134.888 -13.3000 -14.7524
  153 137.623 -12.9936 13.8751
  154 68.9769 -2.42199 -19.8984
  155 68.9744 -2.40481 19.8817
  156 145.556 -3.93684 -0.513817
  157 145.471 -3.69155 0.576021
  158 19.9923 24.2846 -23.7242
  159 25.8212 24.5403 24.9263
  160 180.444 16.6538 -16.8201
  161 99.9414 -4.46320 -13.6381
  162 99.7963 -4.66954 13.5481
  163 230.146 21.7587 55.1793
  164 173.852 -7.50791 39.5454
  165 158.935 -8.74137 1.16203
  166 158.627 -8.33173 -1.10933
  167 178.368 -1.40612 1.29268
  168 178.159 -1.37491 -1.35538
  169 179.117 -13.9723 -27.3433
  170 110.396 -2.50532 -5.39830
  171 110.411 -2.50913 5.36426
  172 166.290 0.556743 -15.9980
  173 220.032 27.5536 9.42948
  174 220.379 26.1653 -10.5036
  175 188.571 35.0013 7.82462
  176 303.768 80.5546 36.5072
  177 131.035 -14.4008 27.9464
  178 183.225 42.2041 -87.0787
  179 132.462 -13.1937 -28.7289
  180 176.607 -3.29677 -7.95408
  181 176.504 -3.15308 8.09163
  182 167.137 -12.5156 -3.78883
  183 22.4518 5.79748 -13.4952
  184 22.4935 5.94399 13.5315
  185 83.8226 9.09555 -42.2243
  186 82.1877 9.63094 41.7927
  187 192.749 33.1127 -11.6895
  188 166.366 -12.0781 3.69545
  189 98.6776 -4.51693 -31.9546
  190 98.9280 -4.29947 32.1999
  191 83.1114 -2.68726 -14.5172
  192 83.0619 -2.74875 14.5907
  193 261.155 49.9856 -16.8795
  194 86.2990 53.1737 71.3704
  195 236.204 50.4310 0.650934
  196 130.100 -2.13684 -1.18297
  197 130.004 -2.19507 1.17731
  198 147.786 -16.7701 16.1885
  199 46.1451 42.7412 -46.5018
  200 149.048 -17.2392 -16.7780
  201 99.3879 -2.05805 7.21050
  202 99.3723 -2.13654 -7.17520
  203 182.475 -10.3952 12.9368
  204 334.863 35.9977 30.0734
  205 123.987 -4.70128 -6.44050
  206 123.792 -4.72044 6.33327
  207 190.530 25.9648 16.2258
  208 114.466 -0.718190 -1.11919
  209 114.491 -0.739062 1.12870
  210 232.386 50.6713 0.461374
  211 163.001 12.9331 -8.55448
  212 320.541 64.8413 -43.5312
  213 172.826 22.8809 7.18548
  214 228.882 46.0358 -5.39940
  215 173.736 -6.46581 12.0904
  216 152.154 -5.08707 0.0285304
  217 151.793 -5.97296 0.360042
  218 10.0393 5.92991 5.99631
  219 10.1156 5.78721 -6.13810
  220 149.591 5.18894 -5.51116
  221 167.502 -6.15645 3.31414
  222 167.936 -6.06922 -3.45976
  223 9.02413 8.34905 -5.68177
  224 8.02273 9.06083 6.07705
  225 161.245 -2.79497 -0.545353
  226 161.237 -2.75352 0.612172
  227 46.4480 0.0835584 -15.1065
  228 46.4671 0.0788148 15.0970
  229 132.086 4.64491 -50.5128
  230 160.718 8.48762 12.0401
  231 172.934 -7.87114 -10.7174
  232 175.978 -5.57244 -16.8553
  233 160.678 -13.4315 30.7562
  234 193.516 -11.5068 0.352821
  235 198.069 27.3461 -16.1404
  236 166.949 -0.890983 -11.1381
  237 168.819 -0.683271 16.3726
  238 177.076 7.25382 18.9636
  239 280.659 61.5671 32.1653
  240 339.566 13.1050 -6.98375
  241 169.588 5.49094 -18.0097
  242 174.360 -4.92947 16.8338
  243 115.098 -8.85302 -16.5881
  244 113.917 -8.83210 16.5743
  245 232.688 21.3919 -3.08539
  246 206.006 7.14515 12.7323
  247 -0.884580 -0.438224 -3.96223
  248 -0.868375 -0.340058 4.05178
  249 47.9740 10.0268 -27.2194
  250 47.9747 10.2862 27.1876
  251 156.985 1.40141 -11.5846
  252 169.191 -15.0123 2.37206
  253 61.9773 20.3247 -42.9285
  254 56.2240 23.4782 40.6068
  255 26.2764 1.85505 -12.2698
  256 26.3300 1.82762 12.2948
  257 131.480 -3.88388 -2.68733
  258 131.452 -3.85545 2.71795
  259 182.047 -8.49847 -14.2486
  260 153.070 -13.8662 -29.6406
  261 203.447 2.39642 -10.6010
  262 160.121 -14.8032 2.54055
  263 169.501 13.4412 -63.2232
  264 157.071 -15.5724 -5.63974
  265 135.389 -9.67719 -9.00160
  266 135.744 -10.1328 9.45263
  267 272.126 50.0247 -13.3837
  268 222.034 48.4163 1.37641
  269 226.843 7.10351 20.2821
  270 174.615 -2.12992 -8.30235
  271 109.061 -1.25771 2.65251
  272 109.065 -1.28460 -2.64067
  273 178.505 -14.9124 -5.89471
  274 189.769 -13.9114 -4.75231
  275 272.178 45.4944 6.92501
  276 130.071 3.47832 50.0336
  277 178.873 -14.7633 5.62895
  278 180.253 -1.64559 4.55293
  279 189.201 -2.23827 -16.7348
  280 167.065 74.5975 93.4301
  281 20.0157 27.2034 27.0752
  282 184.795 -1.37067 1.67610
  283 182.913 -1.25442 -2.14439
  284 166.139 -0.960636 10.0078
  285 150.085 6.13674 5.24868
  286 180.569 -1.41139 -4.45722
  287 192.027 -11.4662 18.4048
  288 75.4566 2.64132 -33.6645
  289 75.3221 2.47652 33.6413
  290 201.488 25.1217 15.1504
  291 177.143 -17.9365 -4.54465
  292 169.232 7.27408 16.9264
  293 170.098 -1.90294 0.328639
  294 170.101 -1.92835 -0.339449
  295 174.280 -1.91841 8.14765
  296 179.164 -17.6727 4.89712
  297 190.343 37.8254 1.61127
  298 263.718 50.5133 -57.0134
  299 139.561 -8.04673 -5.17314
  300 137.463 -8.09951 5.60584
  301 187.823 -5.27856 15.1567
  302 212.343 46.0950 -3.83911
  303 131.929 -13.3748 -18.7402
  304 128.098 -12.6415 20.2038
  305 347.569 9.61744 6.32474
  306 357.328 13.1681 -20.6631
  307 174.751 -4.86156 -6.57594
  308 100.166 -0.818868 4.23651
  309 100.156 -0.812899 -4.22697
  310 52.6316 36.1975 48.1188
  311 174.682 -4.79769 6.47976
  312 185.558 8.05161 -19.2577
  313 88.8388 -1.84505 -7.35803
  314 88.8113 -1.83790 7.31093
  315 173.001 -2.92211 2.34256
  316 173.038 -3.03444 -2.44593
  317 1.06732 -3.83638 -3.10841
  318 1.24874 -4.01365 3.13673
  319 181.120 5.25145 51.8906
  320 202.812 42.3985 6.02542
  321 171.692 -9.58629 8.76317
  322 51.6164 -1.08200 -10.9148
  323 51.6140 -1.07584 10.9203
  324 -2.09309 2.46080 -1.01223
  325 -2.16174 2.55421 0.920259
  326 173.741 20.6304 -10.3813
  327 229.611 47.5591 4.42648
  328 171.391 -14.3554 -4.46352
  329 4.74958 2.46263 -5.98830
  330 6.03634 4.63732 7.02628
  331 96.1666 -6.62824 25.5623
  332 96.0877 -6.57881 -25.4104
  333 187.621 -0.455635 -0.533624
  334 187.601 -0.560653 0.582197
  335 154.426 -16.0092 8.91782
  336 156.738 0.602020 10.2958
  337 149.259 2.37951 8.70066
  338 15.5251 13.1689 -9.71662
  339 14.6219 11.8915 9.49821
  340 296.532 34.8290 -5.45734
  341 257.790 61.1862 10.3355
  342 158.300 -11.3639 0.151404
  343 109.580 -0.530472 -1.13155
  344 109.581 -0.541979 1.15700
  345 187.366 25.0251 -15.7018
  346 73.9176 -2.65089 25.9603
  347 73.9172 -2.68970 -25.9858
  348 210.603 -2.79466 -14.2732
  349 119.087 -2.73762 -4.38712
  350 119.086 -2.63568 4.37171
  351 98.0655 -5.51308 -17.0655
  352 97.8814 -5.63901 17.1178
  353 76.1375 -1.10409 8.29203
  354 76.0988 -1.05623 -8.28264
  355 225.241 16.5929 -2.76789
  356 145.708 1.47832 -7.83451
  357 161.827 29.6020 78.2410
  358 246.754 53.7883 4.65358
  359 365.948 31.4836 -41.1181
  360 137.761 -2.85942 -0.864479
  361 137.759 -2.75109 0.839032
  362 152.350 -10.2641 -2.06291
  363 361.537 42.9367 43.7849
  364 153.896 -3.84677 0.322215
  365 153.789 -3.94995 -0.197118
  366 166.070 -9.87291 -3.99094
  367 143.032 -4.99516 -1.85038
  368 141.471 -4.71700 1.94155
  369 67.8118 56.4753 -63.4992
  370 112.240 -3.97996 -7.99821
  371 112.217 -4.01558 7.95658
  372 137.659 4.41883 -0.180096
  373 347.533 85.4255 -56.9429
  374 67.0352 -0.806992 -11.4575
  375 67.0371 -0.782591 11.4841
  376 125.538 -9.82049 -12.5715
  377 123.308 -8.98539 12.9041
  378 170.992 12.1646 -15.5699
  379 160.516 -14.1467 -0.977863
  380 13.2233 25.4974 -22.1566
  381 120.194 -8.86042 -34.2154
  382 125.424 -9.96902 33.7988
  383 5.50441 1.43064 -5.17692
  384 5.45968 1.47642 5.19885
  385 149.831 -9.08154 2.35405
  386 102.261 -0.966905 -2.64526
  387 102.254 -0.965267 2.64457
  388 356.071 12.3365 18.9441
  389 149.520 -3.00898 0.151372
  390 149.561 -2.98717 -0.186200
  391 166.152 -9.81885 4.07859
  392 378.899 100.072 71.7814
  393 174.302 -5.86140 -9.03695
  394 304.525 42.3316 20.4177
  395 196.034 -12.3087 -13.3672
  396 168.890 20.8180 -1.11049
  397 154.782 -8.19018 -39.0701
  398 184.269 -3.65432 -39.4895
  399 22.4427 9.22649 -13.3900
  400 22.5832 9.67158 13.3710
  401 172.765 -10.8892 -9.28753
  402 108.630 -4.47646 11.4791
  403 108.579 -4.67024 -11.6055
  404 180.499 -0.952775 5.08737
  405 149.199 -7.68434 -1.82099
  406 185.574 -1.16041 2.41227
  407 184.198 2.35908 19.6117
  408 198.219 -6.64704 7.69962
  409 88.2248 -3.74815 19.8342
  410 88.2468 -3.84984 -19.8583
  411 56.8831 32.0651 -46.8997
  412 171.555 3.40575 18.5800
  413 175.846 -13.0444 9.44938
  414 149.797 -15.8890 21.3650
  415 287.219 58.6191 -28.3747
  416 174.691 -8.56612 -13.5961
  417 195.417 -4.70359 -11.9896
  418 158.729 -6.99125 0.691005
  419 160.523 -6.64794 -1.49096
  420 150.627 -16.9833 -21.4379
  421 174.443 0.436768 -19.1147
  422 149.392 -16.3869 -12.9851
  423 120.838 -1.30256 -0.945402
  424 120.843 -1.31576 0.926651
  425 183.410 28.0807 -11.4910
  426 180.822 -0.966609 -5.00907
  427 211.498 35.6582 -12.4137
  428 179.604 -17.0222 -18.4777
  429 187.434 -1.34982 -2.27588
  430 164.031 -18.9044 13.8168
  431 245.322 48.9390 -1.40945
  432 129.327 -4.55512 4.39655
  433 129.691 -4.85598 -4.45071
  434 178.863 -1.18586 -0.201603
  435 178.821 -1.20788 0.188923
  436 173.867 -6.22732 9.21725
  437 127.553 -6.59288 8.01397
  438 127.641 -6.44617 -8.00819
  439 163.343 14.2365 6.88797
  440 164.254 -18.4648 -13.8923
  441 195.157 32.1548 12.6874
  442 174.517 -3.80161 11.1710
  443 223.650 17.6368 -58.0923
  444 121.463 -1.97904 -2.12979
  445 121.421 -2.01342 2.13098
  446 203.526 40.3761 -9.57477
  447 168.710 -2.61400 -1.27598
  448 168.667 -2.48921 1.29225
  449 164.265 3.69609 -15.5935
  450 189.839 17.2209 -19.0348
  451 109.173 -0.194718 -0.218857
  452 109.199 -0.202290 0.223226
  453 174.516 -4.63637 -10.8414
  454 145.524 -7.49970 42.7241
  455 193.358 100.724 -106.926
  456 183.111 26.3433 12.8032
  457 54.3156 14.8902 -34.0126
  458 52.9713 15.5249 33.5286
  459 96.3673 14.5379 -51.0545
  460 97.2177 15.7247 51.1938
  461 32.6179 55.2585 50.5127
  462 147.548 -13.7348 8.50469
  463 265.466 57.7452 12.8118
  464 28.3195 21.9698 -24.4808
  465 23.7911 19.9175 19.5056
  466 92.1044 -0.535384 4.03489
  467 92.1503 -0.570283 -4.03515
  468 224.649 49.3198 -1.39503
  469 11.0889 8.17354 6.36299
  470 11.1106 8.22456 -6.61321
  471 207.459 19.5048 -15.0607
  472 -0.959233 1.53880 -2.07808
  473 -1.01649 1.59576 2.00604
  474 171.326 -2.41143 -16.7128
  475 2.18925 -7.04471 0.454132
  476 2.00127 -6.29619 -0.559230
  477 189.637 -1.14462 0.950942
  478 189.294 -0.604189 -1.02386
  479 125.920 -12.7286 24.4532
  480 126.306 -12.9581 -24.4176
  481 252.288 29.4478 20.8868
  482 193.929 38.3892 -5.18741
  483 182.070 -5.11636 17.5866
  484 234.533 36.3732 -4.87353
  485 217.937 8.31597 4.42022
  486 216.834 48.4522 4.04445
  487 179.811 29.2735 4.48068
  488 101.711 34.6506 -69.8054
  489 177.882 -8.65805 15.0390
  490 216.728 38.7311 9.97984
  491 200.002 -6.69348 25.5793
  492 171.846 -12.1492 7.47508
  493 136.968 -3.42885 -1.41416
  494 136.661 -3.45094 1.34393
  495 185.841 16.2491 18.4657
  496 299.527 59.5430 32.7079
  497 174.765 -7.42287 13.7524
  498 195.310 -1.95221 14.1854
  499 333.779 21.7090 18.5090
  500 81.5015 -0.745861 31.5187
  501 102.220 -2.30605 36.1604
  502 81.4352 -0.763923 -31.4674
  503 101.354 -2.59447 -36.4868
  504 277.403 74.8853 -25.6157
  505 159.375 -11.6324 -0.0358319
  506 170.270 -9.98005 -7.32779
  507 -1.68806 -1.59556 -2.69744
  508 -1.73391 -1.61922 2.77744
  509 289.604 74.1460 71.3027
  510 130.918 -2.05093 -0.815073
  511 130.891 -2.01065 0.794861
  512 144.505 -12.9891 -10.0245
  513 148.600 -14.7344 26.9051
  514 184.722 -11.1041 10.9390
  515 177.189 7.63465 -19.2386
  516 156.769 0.500455 -9.88688
  517 -4.81977 0.110202 3.41333
  518 -4.67420 0.0549131 -3.37390
  519 182.458 -16.8128 14.9215
  520 114.720 -9.45456 29.3159
  521 104.022 0.0972627 0.639827
  522 104.022 0.0949710 -0.618805
  523 44.5789 4.45108 -23.0024
  524 44.6977 4.32094 23.0521
  525 114.507 -9.15044 -29.0695
  526 214.658 11.6158 -9.79338
  527 89.3640 -2.96831 -12.6035
  528 89.3492 -3.09675 12.6092
  529 -0.292257 -4.73808 -3.54856
  530 -0.274683 -4.88014 3.63554
</Section>

newXOutput 11

<Section columns = "stress_xx | stress_yy | stress_xy">
  1 213.356 0.321746 0.765746
  2 213.373 0.309609 -0.777152
  3 117.423 -0.101568 -0.301465
  4 -1.58534 -1.56159 -1.68143
  5 379.099 152.669 128.263
  6 380.757 154.971 -123.305
  7 -1.63691 -1.60881 1.74100
  8 117.383 -0.0987743 0.303793
  9 216.563 -1.02627 0.615692
  10 215.245 -1.23300 0.543715
  11 211.079 -0.804338 2.15217
  12 206.422 -0.670292 3.49229
  13 200.259 -0.968837 4.46312
  14 188.179 -0.844777 6.31348
  15 174.199 -0.0551367 7.29937
  16 159.551 0.817772 7.04577
  17 151.122 2.50247 4.33660
  18 139.152 4.22021 -0.0834674
  19 150.661 2.71722 -4.88205
  20 161.115 0.668662 -7.75727
  21 172.936 0.232475 -7.39219
  22 188.527 -0.927592 -6.84516
  23 200.408 -1.24678 -4.78032
  24 206.474 -1.45765 -3.53274
  25 214.331 -1.57272 -1.60960
  26 213.278 -0.683777 -0.892453
  27 216.401 -0.867161 -0.544423
  28 204.048 -0.758503 -0.894971
  29 192.449 -2.11492 -0.677140
  30 177.639 -2.67914 -0.404496
  31 165.940 -2.67496 -0.633642
  32 154.667 -2.69507 0.188141
  33 139.277 -1.39072 0.251646
  34 127.149 -0.654515 -0.241403
  35 115.849 -0.00844119 0.557003
  36 113.030 0.772867 0.309241
  37 111.726 -0.0290475 1.31567
  38 108.472 -0.0227673 2.09735
  39 101.120 0.0172466 2.36788
  40 94.7469 -0.259454 4.00338
  41 83.3088 -0.225785 4.74404
  42 70.6670 -0.140882 6.03003
  43 54.2265 -0.599197 7.15178
  44 41.4182 0.128805 10.0103
  45 23.3052 1.69523 8.26039
  46 2.33426 3.15850 5.27786
  47 -9.13331 2.56034 2.03435
  48 -12.6534 2.18077 -0.0611204
  49 -10.0722 1.43117 -3.04229
  50 -5.59882 -0.366209 -2.39628
  51 -0.543236 -5.44305 -2.51247
  52 0.555490 -10.8502 -3.79628
  53 1.38635 -17.1614 -2.13238
  54 3.36907 -18.3866 -0.525562
  55 7.05380 -6.47816 6.78449
  56 19.1696 30.1558 29.2722
  57 83.7028 113.299 97.0662
  58 509.995 65.4244 82.1769
  59 424.711 17.5501 27.8923
  60 399.199 7.89481 9.47068
  61 388.721 5.42535 -1.19046
  62 398.530 8.15656 -10.4490
  63 432.585 19.7104 -32.4704
  64 495.147 74.4183 -86.8831
  65 97.8260 127.821 -103.491
  66 20.1287 25.8003 -24.5565
  67 7.15000 -7.20857 -6.88364
  68 2.80910 -18.7056 0.291274
  69 1.52436 -17.4220 1.86855
  70 0.646262 -11.1282 3.82740
  71 -0.543886 -5.62247 2.58055
  72 -5.76030 -0.346444 2.43836
  73 -10.2596 1.48891 3.02408
  74 -12.6744 2.18636 -0.0263573
  75 -9.02430 2.51542 -2.06249
  76 2.41141 3.14291 -5.24976
  77 23.3027 1.70823 -8.24551
  78 41.4194 0.129654 -10.0013
  79 54.2108 -0.607294 -7.13213
  80 70.5995 -0.123941 -6.01063
  81 83.2395 -0.198413 -4.77345
  82 94.7868 -0.274083 -4.04208
  83 101.177 -0.000858037 -2.36839
  84 108.501 -0.0219596 -2.08671
  85 111.738 -0.0362702 -1.30263
  86 113.019 0.778886 -0.292153
  87 115.815 -0.00350248 -0.551449
  88 127.137 -0.653452 0.236497
  89 139.293 -1.42256 -0.262893
  90 154.678 -2.74961 -0.188751
  91 165.987 -2.70170 0.626600
  92 177.667 -2.66109 0.408587
  93 192.430 -2.11544 0.674211
  94 203.960 -0.759727 0.906300
  95 183.414 -19.8248 -7.53735
  96 185.922 -19.6771 5.72860
  97 199.839 33.5162 -4.76502
  98 133.083 -3.85812 -44.0649
  99 131.166 -3.39648 44.2437
  100 230.675 46.7517 11.0323
  101 246.378 52.5313 -5.27154
  102 153.919 -6.87462 -4.12575
  103 155.613 -6.72412 3.42684
  104 200.710 -0.197974 -20.9493
  105 225.219 -5.42768 0.520199
  106 196.565 -1.46101 20.8414
  107 232.617 -2.40362 3.79754
  108 36.1592 18.9980 24.6429
  109 35.7617 18.0635 -25.5429
  110 189.185 -8.19159 7.11003
  111 189.768 -8.50923 -7.92591
  112 277.286 54.2406 -1.33115
  113 121.824 -9.41366 -24.1356
  114 121.956 -9.37064 24.2750
  115 133.169 -7.93319 12.1028
  116 133.338 -7.76696 -12.0065
  117 113.046 22.4753 -67.0145
  118 119.329 23.1900 67.6769
  119 282.672 66.4703 -11.0337
  120 301.914 61.0691 18.2462
  121 192.321 17.2565 15.8024
  122 179.988 -5.00076 1.16327
  123 180.230 -5.40889 -1.18630
  124 177.997 6.58832 -13.9661
  125 64.0217 1.98474 -27.8598
  126 64.1028 1.87990 27.7546
  127 191.731 -4.88210 -15.5052
  128 214.222 7.26464 19.6075
  129 133.231 -2.44709 3.47318
  130 133.262 -2.47363 -3.40406
  131 166.858 -13.6176 -5.56300
  132 165.631 -13.0652 5.77153
  133 183.206 -19.8954 20.0389
  134 217.150 9.47856 -19.0702
  135 193.626 -12.3839 12.1383
  136 228.772 49.4721 -0.367112
  137 190.187 -20.1208 -18.1693
  138 270.173 39.4711 6.17202
  139 253.128 13.0403 -35.6078
  140 172.184 11.4993 -0.480070
  141 191.020 -4.42035 15.3818
  142 195.383 -12.3407 -12.7704
  143 352.109 28.5610 9.05322
  144 207.764 -12.8175 -9.32961
  145 357.994 40.3807 -29.2402
  146 208.301 -12.6081 8.14918
  147 180.645 3.68400 16.7417
  148 5.09445 5.75197 0.0600508
  149 5.39402 6.15734 0.00441438
  150 197.311 -3.41457 4.17005
  151 197.106 -3.11658 -4.02358
  152 149.644 -14.7419 -16.4177
  153 152.668 -14.4016 15.4478
  154 76.6885 -2.69122 -22.1042
  155 76.6859 -2.67219 22.0852
  156 161.475 -4.36372 -0.601718
  157 161.380 -4.09203 0.670555
  158 22.2367 27.0348 -26.4355
  159 28.7138 27.3068 27.7707
  160 200.108 18.4636 -18.5315
  161 111.025 -4.94426 -15.1447
  162 110.864 -5.17289 15.0452
  163 254.706 24.2914 61.3140
  164 192.607 -8.31175 43.9434
  165 176.239 -9.69108 1.20759
  166 175.899 -9.23806 -1.15235
  167 197.659 -1.57372 1.40684
  168 197.430 -1.53927 -1.47589
  169 198.459 -15.4758 -30.4358
  170 122.650 -2.77044 -6.00289
  171 122.666 -2.77458 5.96505
  172 184.456 0.619678 -17.6388
  173 243.809 30.5634 10.2436
  174 244.191 29.0224 -11.4289
  175 209.127 38.7932 8.61200
  176 336.299 89.2602 40.5776
  177 145.333 -15.9763 31.0594
  178 202.810 46.9406 -96.5628
  179 146.910 -14.6384 -31.9271
  180 195.775 -3.66245 -8.73866
  181 195.661 -3.50395 8.89048
  182 185.301 -13.8763 -4.08816
  183 25.0271 6.43087 -15.0339
  184 25.0744 6.59286 15.0738
  185 93.0318 10.0754 -46.9138
  186 91.2211 10.6681 46.4343
  187 213.735 36.6989 -12.8572
  188 184.448 -13.3909 3.98690
  189 109.533 -5.02375 -35.4944
  190 109.809 -4.78263 35.7660
  191 92.3852 -2.97854 -16.1203
  192 92.3304 -3.04654 16.2014
  193 289.180 55.5000 -18.9794
  194 95.6655 59.0595 79.2182
  195 261.786 55.8504 0.783996
  196 144.421 -2.36452 -1.32900
  197 144.315 -2.42887 1.32272
  198 163.884 -18.5935 18.0324
  199 51.2392 47.5200 -51.6985
  200 165.275 -19.1145 -18.6883
  201 110.456 -2.27674 8.00937
  202 110.439 -2.36370 -7.97050
  203 202.267 -11.5306 14.1869
  204 370.534 39.8344 33.2602
  205 137.648 -5.20424 -7.17472
  206 137.432 -5.22517 7.05571
  207 211.258 28.7807 17.8520
  208 127.179 -0.791148 -1.24935
  209 127.206 -0.814213 1.25977
  210 257.554 56.1341 0.398927
  211 180.858 14.3527 -9.43848
  212 354.811 71.8017 -48.2291
  213 191.716 25.3733 7.92044
  214 253.638 51.0277 -5.79214
  215 192.617 -7.17630 13.2865
  216 168.754 -5.64203 -0.0187898
  217 168.355 -6.62214 0.452703
  218 11.2239 6.58597 6.71098
  219 11.3071 6.42804 -6.86792
  220 166.063 5.76728 -6.08430
  221 185.697 -6.83225 3.59973
  222 186.177 -6.73557 -3.75996
  223 10.0506 9.32813 -6.38421
  224 8.93959 10.1183 6.82494
  225 178.784 -3.10781 -0.577323
  226 178.775 -3.06205 0.651397
  227 51.7087 0.0865952 -16.7891
  228 51.7305 0.0813587 16.7782
  229 146.422 5.15272 -56.0892
  230 178.334 9.42166 13.2842
  231 191.724 -8.73390 -11.7640
  232 195.114 -6.18339 -18.5463
  233 178.079 -14.8953 34.1946
  234 214.429 -12.7534 0.554381
  235 219.583 30.3076 -17.7393
  236 185.177 -0.990274 -12.2732
  237 187.238 -0.758534 18.0430
  238 196.365 8.04186 20.8961
  239 310.656 68.3689 35.9284
  240 375.652 14.5016 -7.71681
  241 188.102 6.09028 -19.8572
  242 193.330 -5.47072 18.5290
  243 127.769 -9.81252 -18.4344
  244 126.464 -9.78929 18.4186
  245 257.717 23.7720 -3.64965
  246 228.278 7.92682 13.9217
  247 -0.961512 -0.469400 -4.37507
  248 -0.944124 -0.360737 4.47514
  249 53.3234 11.1154 -30.2775
  250 53.3250 11.4023 30.2410
  251 174.209 1.56087 -12.7816
  252 187.565 -16.6439 2.50803
  253 68.8172 22.5538 -47.7137
  254 62.4386 26.0538 45.1400
  255 29.3043 2.05322 -13.6549
  256 29.3646 2.02272 13.6822
  257 145.938 -4.29928 -3.00825
  258 145.908 -4.26740 3.04131
  259 201.799 -9.42855 -15.6407
  260 169.679 -15.3790 -32.9552
  261 225.439 2.66015 -11.5592
  262 177.539 -16.4089 2.91642
  263 187.739 14.9570 -70.1680
  264 174.165 -17.2617 -6.34762
  265 150.220 -10.7213 -10.0366
  266 150.609 -11.2266 10.5371
  267 301.425 55.3861 -14.8803
  268 246.136 53.6261 1.48218
  269 251.183 7.95386 22.6794
  270 193.602 -2.36479 -9.13564
  271 121.195 -1.38845 2.95226
  272 121.199 -1.41825 -2.93933
  273 197.860 -16.5365 -6.39085
  274 210.277 -15.4197 -5.42138
  275 301.477 50.3629 7.70529
  276 144.193 3.85799 55.5584
  277 198.266 -16.3705 6.09563
  278 199.777 -1.83315 4.99386
  279 209.713 -2.48732 -18.3852
  280 184.765 82.9737 103.582
  281 22.2541 30.3678 30.1585
  282 204.746 -1.52837 1.82830
  283 202.675 -1.40218 -2.34313
  284 184.285 -1.06587 11.0284
  285 166.607 6.81780 5.79386
  286 200.124 -1.57375 -4.88845
  287 212.735 -12.6978 20.5431
  288 83.7938 2.91267 -37.4113
  289 83.6444 2.73021 37.3853
  290 223.351 27.8480 16.6289
  291 196.333 -19.8877 -5.17146
  292 187.720 8.07174 18.6655
  293 188.543 -2.12387 0.347839
  294 188.547 -2.15195 -0.359555
  295 193.234 -2.12968 8.96664
  296 198.562 -19.5942 5.56383
  297 211.098 41.9193 1.77291
  298 291.763 56.2296 -63.4086
  299 154.840 -8.91454 -5.79121
  300 152.523 -8.97217 6.26860
  301 208.186 -5.85835 16.6360
  302 235.420 51.0617 -4.19118
  303 146.356 -14.8296 -20.8415
  304 142.122 -14.0169 22.4585
  305 384.451 10.6429 6.98266
  306 395.213 14.5647 -22.8128
  307 193.709 -5.39908 -7.20690
  308 111.341 -0.904580 4.70643
  309 111.330 -0.897991 -4.69601
  310 58.4376 40.2000 53.4841
  311 193.633 -5.32793 7.10110
  312 205.726 8.92238 -21.1978
  313 98.7713 -2.04222 -8.17017
  314 98.7408 -2.03432 8.11803
  315 191.754 -3.25203 2.54926
  316 191.795 -3.37600 -2.66314
  317 1.19496 -4.21977 -3.41960
  318 1.39595 -4.41746 3.45203
  319 200.605 5.87126 57.6233
  320 224.880 46.9768 6.61237
  321 190.343 -10.6330 9.59786
  322 57.4794 -1.20228 -12.1248
  323 57.4772 -1.19546 12.1305
  324 -2.27726 2.73898 -1.09230
  325 -2.35450 2.84270 0.990748
  326 192.721 22.8782 -11.4452
  327 254.452 52.7197 4.71445
  328 189.999 -15.9169 -4.82101
  329 5.29057 2.86351 -6.72072
  330 6.72198 5.28055 7.87739
  331 106.777 -7.35774 28.3970
  332 106.691 -7.30272 -28.2292
  333 207.841 -0.516206 -0.582037
  334 207.818 -0.632433 0.635279
  335 171.235 -17.7457 9.97660
  336 173.935 0.669821 11.3562
  337 165.695 2.64616 9.60319
  338 17.2905 14.6450 -10.8667
  339 16.2897 13.2273 10.6263
  340 328.311 38.5467 -6.04771
  341 285.566 67.8140 11.6383
  342 175.535 -12.5970 0.258302
  343 121.786 -0.584740 -1.26296
  344 121.786 -0.597441 1.29099
  345 207.768 27.7379 -17.2855
  346 82.1274 -2.95190 28.8422
  347 82.1271 -2.99514 -28.8709
  348 233.266 -3.05967 -15.9958
  349 132.249 -3.02776 -4.88945
  350 132.248 -2.91483 4.87214
  351 108.926 -6.11122 -18.9528
  352 108.722 -6.25060 19.0103
  353 84.6931 -1.22304 9.20503
  354 84.6504 -1.17007 -9.19474
  355 249.503 18.4294 -2.84328
  356 161.782 1.64981 -8.64879
  357 179.221 32.8943 86.7816
  358 273.421 59.5887 5.27581
  359 404.748 34.8265 -45.4489
  360 152.875 -3.16710 -0.974094
  361 152.873 -3.04728 0.946013
  362 168.963 -11.3747 -2.36328
  363 399.920 47.5112 48.4057
  364 170.676 -4.26971 0.320310
  365 170.559 -4.38374 -0.181564
  366 184.122 -10.9477 -4.32573
  367 158.686 -5.53400 -2.09272
  368 156.964 -5.22559 2.18967
  369 75.1261 62.8753 -70.4934
  370 124.662 -4.40635 -8.89263
  371 124.635 -4.44554 8.84606
  372 152.906 4.90852 -0.198905
  373 384.417 94.6644 -63.1293
  374 74.5820 -0.894631 -12.7233
  375 74.5842 -0.867541 12.7525
  376 139.326 -10.8813 -13.9880
  377 136.859 -9.95529 14.3518
  378 189.669 13.4930 -17.1690
  379 177.981 -15.6810 -1.18558
  380 14.7052 28.4881 -24.6878
  381 133.329 -9.83964 -38.0079
  382 139.113 -11.0673 37.5469
  383 6.23216 1.58539 -5.77641
  384 6.18406 1.63603 5.80067
  385 166.184 -10.0635 2.67734
  386 113.679 -1.06861 -2.94093
  387 113.671 -1.06677 2.94005
  388 393.832 13.6449 20.9172
  389 165.849 -3.33922 0.151035
  390 165.894 -3.31488 -0.189335
  391 184.212 -10.8877 4.42397
  392 418.891 110.910 79.5179
  393 193.229 -6.50646 -9.91904
  394 337.131 46.8588 22.6162
  395 217.176 -13.6330 -14.9687
  396 187.370 23.0907 -1.22549
  397 171.544 -9.07883 -43.4091
  398 204.116 -4.01871 -43.8929
  399 24.9960 10.2414 -14.9343
  400 25.1533 10.7341 14.9132
  401 191.530 -12.0769 -10.1679
  402 120.651 -4.95680 12.7537
  403 120.595 -5.17163 -12.8943
  404 200.068 -1.06136 5.59185
  405 165.489 -8.51623 -2.07992
  406 205.621 -1.29498 2.63989
  407 204.211 2.61092 21.5846
  408 219.647 -7.36583 8.35673
  409 98.0163 -4.15780 22.0267
  410 98.0406 -4.27066 -22.0539
  411 63.1454 35.6094 -52.1239
  412 190.267 3.77682 20.4814
  413 194.931 -14.4666 10.3341
  414 166.085 -17.6206 23.7744
  415 318.072 64.9193 -31.4940
  416 193.673 -9.50309 -14.9392
  417 216.564 -5.21699 -13.1156
  418 176.011 -7.75235 0.701074
  419 177.991 -7.37306 -1.58605
  420 167.002 -18.8339 -23.8569
  421 193.441 0.481489 -21.0608
  422 165.670 -18.1658 -14.4773
  423 134.208 -1.43835 -1.05442
  424 134.213 -1.45290 1.03367
  425 203.411 31.1263 -12.6576
  426 200.423 -1.07606 -5.50567
  427 234.425 39.5217 -13.5854
  428 199.015 -18.8669 -20.6123
  429 207.665 -1.50300 -2.49143
  430 181.832 -20.9609 15.4242
  431 271.770 54.2828 -1.79762
  432 143.552 -5.04270 4.90989
  433 143.954 -5.37598 -4.97016
  434 198.201 -1.32932 -0.214037
  435 198.153 -1.35364 0.200021
  436 192.748 -6.91249 10.1163
  437 141.572 -7.30113 8.92694
  438 141.670 -7.13909 -8.92119
  439 181.239 15.7982 7.59917
  440 182.079 -20.4747 -15.5072
  441 216.392 35.6382 13.9509
  442 193.482 -4.22111 12.2847
  443 247.530 19.7026 -64.5132
  444 134.892 -2.18693 -2.37451
  445 134.845 -2.22485 2.37564
  446 225.651 44.7402 -10.5003
  447 187.018 -2.91066 -1.37930
  448 186.970 -2.77255 1.39751
  449 182.232 4.10229 -17.1994
  450 210.474 19.0868 -20.9526
  451 121.348 -0.212971 -0.247760
  452 121.375 -0.221331 0.252544
  453 193.479 -5.14715 -11.9180
  454 161.302 -8.31837 47.4533
  455 213.734 112.040 -118.464
  456 203.073 29.2037 14.1016
  457 60.3480 16.5161 -37.8266
  458 58.8605 17.2186 37.2886
  459 106.912 16.1209 -56.7072
  460 107.845 17.4331 56.8578
  461 36.1950 61.6142 56.1601
  462 163.645 -15.2218 9.50719
  463 293.978 64.0774 14.4745
  464 31.4882 24.4154 -27.2641
  465 26.4726 22.1391 21.7473
  466 102.414 -0.591347 4.48022
  467 102.465 -0.630012 -4.48057
  468 249.029 54.6219 -1.52555
  469 12.3749 9.08368 7.13025
  470 12.3974 9.14076 -7.40703
  471 229.915 21.6239 -16.4997
  472 -0.980801 1.70712 -2.33796
  473 -1.04281 1.77019 2.25822
  474 189.995 -2.67638 -18.4113
  475 2.43818 -7.73742 0.461130
  476 2.23054 -6.90369 -0.575778
  477 210.065 -1.27433 1.03804
  478 209.688 -0.678826 -1.11812
  479 139.692 -14.1188 27.1760
  480 140.120 -14.3731 -27.1383
  481 279.306 32.7682 23.4039
  482 215.058 42.5402 -5.70099
  483 201.839 -5.67900 19.3394
  484 259.829 40.3490 -5.16667
  485 241.430 9.24673 4.69323
  486 240.380 53.6783 4.39275
  487 199.443 32.4543 4.93827
  488 112.747 38.4927 -77.4849
  489 197.202 -9.60500 16.5269
  490 240.216 42.9321 10.8875
  491 221.527 -7.38153 28.5069
  492 190.508 -13.4725 8.16003
  493 151.998 -3.79737 -1.59446
  494 151.658 -3.82184 1.51667
  495 206.057 18.0119 20.3292
  496 331.646 65.9271 36.2655
  497 193.755 -8.23637 15.1153
  498 216.452 -2.16792 15.5453
  499 369.305 24.0195 20.4560
  500 90.5064 -0.844160 35.0172
  501 113.432 -2.57512 40.1650
  502 90.4336 -0.864592 -34.9606
  503 112.475 -2.89600 -40.5260
  504 307.229 82.9878 -28.5472
  505 176.723 -12.8940 -0.131186
  506 188.768 -11.0686 -8.00898
  507 -1.87048 -1.76829 -2.99064
  508 -1.92159 -1.79469 3.07968
  509 320.266 82.4334 79.2488
  510 145.327 -2.26877 -0.910612
  511 145.297 -2.22421 0.888302
  512 160.279 -14.3957 -11.1844
  513 164.748 -16.3443 29.9155
  514 204.742 -12.3157 11.9673
  515 196.492 8.46251 -21.1985
  516 173.970 0.555660 -10.9040
  517 -5.33630 0.126566 3.77951
  518 -5.17412 0.0652706 -3.73538
  519 202.180 -18.6384 16.6707
  520 127.291 -10.4945 32.5692
  521 115.650 0.109169 0.716100
  522 115.651 0.106616 -0.692944
  523 49.5825 4.92810 -25.5863
  524 49.7148 4.78348 25.6406
  525 127.056 -10.1573 -32.2969
  526 237.824 12.8908 -10.6448
  527 99.3240 -3.28705 -13.9937
  528 99.3073 -3.42927 13.9999
  529 -0.319039 -5.24667 -3.92898
  530 -0.299726 -5.40490 4.02600
</Section>

newXOutput 12

<Section columns = "stress_xx | stress_yy | stress_xy">
  1 233.943 0.341356 0.832947
  2 233.963 0.328774 -0.845307
  3 129.251 -0.108246 -0.327392
  4 -1.74272 -1.71646 -1.84899
  5 414.482 167.759 140.554
  6 416.427 170.330 -135.125
  7 -1.79949 -1.76843 1.91453
  8 129.208 -0.105188 0.329917
  9 237.439 -1.12955 0.666724
  10 236.013 -1.35573 0.583106
  11 231.499 -0.887895 2.33654
  12 226.450 -0.742704 3.79724
  13 219.761 -1.06704 4.85878
  14 206.616 -0.928691 6.88520
  15 191.380 -0.0593877 7.96961
  16 175.399 0.902356 7.69891
  17 166.195 2.75420 4.74259
  18 153.129 4.62998 -0.0911836
  19 165.693 2.98820 -5.33925
  20 177.105 0.738964 -8.47501
  21 190.008 0.252714 -8.06937
  22 206.995 -1.02003 -7.46509
  23 219.924 -1.37125 -5.20447
  24 226.508 -1.60152 -3.84210
  25 235.042 -1.72579 -1.74468
  26 233.876 -0.757616 -0.960988
  27 237.264 -0.955659 -0.589035
  28 223.806 -0.846307 -0.974824
  29 211.160 -2.33513 -0.734529
  30 194.997 -2.95114 -0.432060
  31 182.222 -2.94115 -0.688863
  32 169.909 -2.95588 0.213872
  33 153.101 -1.52193 0.279848
  34 139.862 -0.713211 -0.260567
  35 127.528 -0.00702925 0.613421
  36 124.437 0.845910 0.346204
  37 122.993 -0.0298622 1.45108
  38 119.412 -0.0226744 2.30685
  39 111.341 0.0199741 2.60501
  40 104.339 -0.283427 4.39770
  41 91.7788 -0.246535 5.21345
  42 77.8943 -0.153249 6.62709
  43 59.8294 -0.659038 7.86485
  44 45.7430 0.139390 11.0087
  45 25.8103 1.86070 9.09762
  46 2.73136 3.46887 5.82610
  47 -9.91845 2.81336 2.25738
  48 -13.8389 2.39825 -0.0474408
  49 -11.0483 1.57826 -3.33163
  50 -6.14961 -0.398741 -2.63026
  51 -0.593350 -5.97957 -2.75848
  52 0.616432 -11.9064 -4.16062
  53 1.53076 -18.7923 -2.31792
  54 3.71548 -20.0684 -0.528089
  55 7.77408 -6.86514 7.54271
  56 21.0776 33.6001 32.2789
  57 91.6566 124.932 106.516
  58 557.703 71.6633 89.7574
  59 464.859 19.2148 30.4608
  60 437.052 8.64890 10.3393
  61 425.637 5.94577 -1.29905
  62 436.325 8.93647 -11.4095
  63 473.419 21.5836 -35.4562
  64 541.575 81.5261 -94.9449
  65 107.087 140.879 -113.506
  66 22.1562 28.7756 -27.1106
  67 7.87733 -7.66334 -7.64633
  68 3.09729 -20.4241 0.274776
  69 1.68167 -19.0816 2.02922
  70 0.715990 -12.2131 4.19540
  71 -0.594209 -6.17716 2.83354
  72 -6.32745 -0.377113 2.67670
  73 -11.2553 1.64169 3.31195
  74 -13.8637 2.40447 -0.0484597
  75 -9.80070 2.76416 -2.28824
  76 2.81428 3.45188 -5.79537
  77 25.8063 1.87500 -9.08151
  78 45.7434 0.140338 -10.9990
  79 59.8117 -0.667941 -7.84352
  80 77.8204 -0.134708 -6.60595
  81 91.7031 -0.216518 -5.24570
  82 104.383 -0.299457 -4.44012
  83 111.403 0.000117807 -2.60563
  84 119.443 -0.0217924 -2.29528
  85 123.007 -0.0377949 -1.43690
  86 124.426 0.852475 -0.327576
  87 127.492 -0.00162321 -0.607370
  88 139.849 -0.712064 0.255185
  89 153.119 -1.55684 -0.292160
  90 169.922 -3.01570 -0.214544
  91 182.273 -2.97058 0.681160
  92 195.027 -2.93153 0.436632
  93 211.139 -2.33565 0.731384
  94 223.710 -0.847728 0.987025
  95 201.298 -21.7602 -8.39371
  96 204.041 -21.5974 6.41162
  97 219.442 36.7838 -5.19793
  98 146.123 -4.25182 -48.4550
  99 144.025 -3.74389 48.6527
  100 253.175 51.2852 11.9642
  101 270.359 57.6218 -5.64508
  102 169.078 -7.53923 -4.57726
  103 170.929 -7.37493 3.81213
  104 220.300 -0.224097 -22.8281
  105 247.036 -5.94111 0.371679
  106 215.770 -1.60743 22.7219
  107 255.105 -2.61135 4.37480
  108 39.8159 20.8811 27.1686
  109 39.3763 19.8558 -28.1573
  110 207.635 -8.99815 7.69795
  111 208.276 -9.34625 -8.58794
  112 304.179 59.4520 -1.47600
  113 133.877 -10.3360 -26.5443
  114 134.022 -10.2885 26.6959
  115 146.361 -8.69859 13.3252
  116 146.546 -8.51690 -13.2210
  117 124.115 24.6924 -73.6595
  118 130.986 25.4880 74.3856
  119 310.041 72.9135 -12.2690
  120 331.078 66.9541 20.1002
  121 211.186 18.9473 17.2472
  122 197.567 -5.49597 1.22334
  123 197.832 -5.94305 -1.24775
  124 195.528 7.24353 -15.2549
  125 70.4613 2.16658 -30.6588
  126 70.5505 2.05168 30.5426
  127 210.467 -5.36458 -16.8926
  128 235.082 7.96930 21.3300
  129 146.481 -2.67810 3.83419
  130 146.516 -2.70736 -3.75897
  131 183.204 -14.9409 -6.19215
  132 181.865 -14.3335 6.41732
  133 201.035 -21.8398 22.1143
  134 238.287 10.4009 -20.7390
  135 212.508 -13.5981 13.1743
  136 251.128 54.2588 -0.399725
  137 208.677 -22.0864 -20.0680
  138 296.234 43.3885 7.04644
  139 277.441 14.4232 -39.2730
  140 189.190 12.6418 -0.524965
  141 209.695 -4.85654 16.7617
  142 214.431 -13.5513 -13.8605
  143 385.791 31.2922 9.91254
  144 227.959 -14.0726 -10.0629
  145 392.232 44.2434 -32.0341
  146 228.547 -13.8409 8.76495
  147 198.411 4.05083 18.2813
  148 5.64150 6.35168 0.126202
  149 5.96994 6.79700 -0.0541920
  150 216.491 -3.75931 4.51348
  151 216.268 -3.43350 -4.35405
  152 164.354 -16.1767 -18.0875
  153 167.664 -15.8027 17.0260
  154 84.4083 -2.96042 -24.3086
  155 84.4056 -2.93955 24.2873
  156 177.342 -4.78848 -0.695304
  157 177.239 -4.49055 0.770721
  158 24.4853 29.7948 -29.1609
  159 31.6104 30.0808 30.6292
  160 219.697 20.2657 -20.2129
  161 122.103 -5.42240 -16.6494
  162 121.926 -5.67320 16.5403
  163 279.072 26.8465 67.4477
  164 211.252 -9.10962 48.3415
  165 193.472 -10.6365 1.23759
  166 193.101 -10.1405 -1.18042
  167 216.849 -1.74335 1.51554
  168 216.600 -1.70572 -1.59082
  169 217.693 -16.9698 -33.5381
  170 134.899 -3.03299 -6.60818
  171 134.916 -3.03744 6.56654
  172 202.560 0.682880 -19.2535
  173 267.456 33.5635 11.0137
  174 267.871 31.8701 -12.3085
  175 229.605 42.5664 9.38376
  176 368.593 97.9183 44.6489
  177 159.579 -17.5468 34.1734
  178 222.244 51.6861 -106.009
  179 161.304 -16.0789 -35.1259
  180 214.854 -4.02794 -9.50461
  181 214.730 -3.85484 9.67051
  182 203.385 -15.2311 -4.36470
  183 27.6177 7.06214 -16.5800
  184 27.6709 7.23946 16.6235
  185 102.220 11.0492 -51.6023
  186 100.234 11.6989 51.0750
  187 234.637 40.2673 -14.0000
  188 202.451 -14.6980 4.25601
  189 120.365 -5.53147 -39.0318
  190 120.668 -5.26680 39.3294
  191 101.665 -3.26835 -17.7212
  192 101.605 -3.34280 17.8097
  193 317.012 61.0067 -21.1204
  194 104.988 64.9405 87.0488
  195 287.237 61.2344 0.928363
  196 158.715 -2.59028 -1.47769
  197 158.598 -2.66068 1.47079
  198 179.918 -20.4091 19.8844
  199 56.3258 52.3040 -56.8999
  200 181.438 -20.9819 -20.6069
  201 121.528 -2.49349 8.80757
  202 121.509 -2.58885 -8.76518
  203 221.965 -12.6619 15.4017
  204 405.908 43.6399 36.4172
  205 151.284 -5.70343 -7.91218
  206 151.048 -5.72606 7.78142
  207 231.900 31.5835 19.4445
  208 139.889 -0.862779 -1.38053
  209 139.918 -0.888012 1.39185
  210 282.595 61.5646 0.315270
  211 198.664 15.7689 -10.3097
  212 388.821 78.7148 -52.8992
  213 210.543 27.8561 8.64327
  214 278.261 55.9960 -6.14598
  215 211.415 -7.88515 14.4548
  216 185.293 -6.19490 -0.0754628
  217 184.857 -7.26842 0.555113
  218 12.4219 7.24146 7.43498
  219 12.5116 7.06842 -7.60696
  220 182.504 6.34594 -6.64988
  221 203.810 -7.50635 3.86991
  222 204.335 -7.40026 -4.04446
  223 11.0815 10.3171 -7.10035
  224 9.86130 11.1855 7.58683
  225 196.250 -3.42095 -0.603992
  226 196.239 -3.37093 0.685287
  227 56.9882 0.0884477 -18.4722
  228 57.0126 0.0827256 18.4599
  229 160.692 5.65896 -61.6580
  230 195.901 10.3539 14.5104
  231 210.431 -9.59428 -12.7835
  232 214.168 -6.79260 -20.2027
  233 195.392 -16.3534 37.6365
  234 235.227 -13.9936 0.786476
  235 240.999 33.2544 -19.3012
  236 203.341 -1.08958 -13.3888
  237 205.589 -0.833587 19.6851
  238 215.579 8.82656 22.7954
  239 340.424 75.1628 39.7251
  240 411.423 15.8868 -8.44168
  241 206.551 6.68761 -21.6753
  242 212.220 -6.01058 20.1911
  243 140.416 -10.7673 -20.2809
  244 138.989 -10.7417 20.2629
  245 282.586 26.1529 -4.25532
  246 250.429 8.70642 15.0685
  247 -1.03428 -0.497158 -4.78255
  248 -1.01583 -0.378079 4.89324
  249 58.6758 12.1991 -33.3417
  250 58.6785 12.5132 33.3004
  251 191.388 1.72106 -13.9613
  252 205.856 -18.2684 2.62007
  253 75.6472 24.7770 -52.5013
  254 68.6462 28.6229 49.6768
  255 32.3528 2.24985 -15.0440
  256 32.4201 2.21627 15.0737
  257 160.366 -4.71153 -3.33321
  258 160.332 -4.67613 3.36853
  259 221.458 -10.3557 -16.9965
  260 186.210 -16.8863 -36.2734
  261 247.312 2.92372 -12.4759
  262 194.883 -18.0069 3.30972
  263 205.861 16.4772 -77.0966
  264 191.190 -18.9431 -7.07057
  265 165.009 -11.7593 -11.0778
  266 165.430 -12.3142 11.6278
  267 330.542 60.7096 -16.3779
  268 270.125 58.8033 1.57912
  269 275.357 8.81627 25.1032
  270 212.508 -2.59927 -9.95211
  271 133.330 -1.51746 3.25284
  272 133.335 -1.55015 -3.23886
  273 217.122 -18.1542 -6.85708
  274 230.673 -16.9207 -6.11690
  275 330.593 55.1957 8.48728
  276 158.252 4.23641 61.0759
  277 217.565 -17.9711 6.53240
  278 219.202 -2.02155 5.42266
  279 230.127 -2.73620 -19.9960
  280 202.301 91.3649 113.689
  281 24.4949 33.5594 33.2556
  282 224.586 -1.68703 1.97419
  283 222.328 -1.55144 -2.53454
  284 202.368 -1.17078 12.0317
  285 183.098 7.49868 6.33174
  286 219.581 -1.73711 -5.30774
  287 233.322 -13.9210 22.6985
  288 92.1208 3.17974 -41.1590
  289 91.9565 2.97977 41.1300
  290 245.111 30.5619 18.0685
  291 215.426 -21.8306 -5.82109
  292 206.144 8.86741 20.3776
  293 206.900 -2.34647 0.363841
  294 206.904 -2.37719 -0.376409
  295 212.108 -2.34054 9.76935
  296 217.862 -21.5075 6.25349
  297 231.774 45.9921 1.93124
  298 319.568 61.9654 -69.8127
  299 170.073 -9.77721 -6.41717
  300 167.540 -9.83950 6.93862
  301 228.451 -6.43661 18.0765
  302 258.395 55.9985 -4.52917
  303 160.736 -16.2782 -22.9460
  304 156.104 -15.3866 24.7145
  305 421.001 11.6602 7.63215
  306 432.749 15.9487 -24.9349
  307 212.579 -5.93597 -7.81920
  308 122.524 -0.989267 5.17605
  309 122.512 -0.982066 -5.16477
  310 64.2344 44.1984 58.8521
  311 212.494 -5.85752 7.70397
  312 225.806 9.78872 -23.0998
  313 108.714 -2.23786 -8.98106
  314 108.681 -2.22922 8.92391
  315 210.415 -3.58283 2.74599
  316 210.460 -3.71826 -2.87021
  317 1.32437 -4.59479 -3.72411
  318 1.54481 -4.81305 3.76085
  319 219.966 6.49821 63.3489
  320 246.855 51.5295 7.18367
  321 208.912 -11.6760 10.4064
  322 63.3665 -1.32255 -13.3340
  323 63.3645 -1.31507 13.3400
  324 -2.45199 3.01808 -1.16606
  325 -2.53802 3.13210 1.05505
  326 211.638 25.1174 -12.4920
  327 279.162 57.8565 4.96421
  328 208.523 -17.4719 -5.15249
  329 5.83405 3.28907 -7.46602
  330 7.41043 5.94857 8.74201
  331 117.372 -8.08583 31.2302
  332 117.278 -8.02519 -31.0466
  333 227.939 -0.578587 -0.628436
  334 227.914 -0.705933 0.686213
  335 187.975 -19.4738 11.0479
  336 191.088 0.737822 12.4007
  337 182.099 2.91324 10.4934
  338 19.0637 16.1235 -12.0303
  339 17.9657 14.5660 11.7683
  340 359.863 42.2354 -6.63485
  341 313.172 74.4089 12.9694
  342 192.700 -13.8242 0.381981
  343 133.995 -0.638102 -1.39538
  344 133.995 -0.651981 1.42593
  345 228.089 30.4378 -18.8384
  346 90.3355 -3.25412 31.7231
  347 90.3354 -3.30180 -31.7552
  348 255.787 -3.31568 -17.7439
  349 145.397 -3.31517 -5.39438
  350 145.395 -3.19133 5.37515
  351 119.777 -6.70651 -20.8379
  352 119.555 -6.85924 20.9007
  353 93.2659 -1.34124 10.1162
  354 93.2193 -1.28320 -10.1051
  355 273.615 20.2650 -2.87508
  356 177.831 1.82270 -9.45227
  357 196.501 36.1873 95.2918
  358 299.941 65.3552 5.91742
  359 443.192 38.1395 -49.7340
  360 167.951 -3.47278 -1.08619
  361 167.948 -3.34158 1.05551
  362 185.514 -12.4795 -2.67683
  363 437.959 52.0480 52.9794
  364 187.394 -4.69166 0.311421
  365 187.266 -4.81643 -0.159075
  366 202.094 -12.0182 -4.64019
  367 174.292 -6.06964 -2.34181
  368 172.411 -5.73111 2.44372
  369 82.3970 69.2988 -77.4743
  370 137.072 -4.82964 -9.78785
  371 137.042 -4.87234 9.73628
  372 168.141 5.39795 -0.217482
  373 420.967 103.854 -69.2871
  374 82.1468 -0.981852 -13.9875
  375 82.1493 -0.952076 14.0191
  376 153.081 -11.9361 -15.4079
  377 150.381 -10.9196 15.8017
  378 208.281 14.8169 -18.7430
  379 195.373 -17.2079 -1.41179
  380 16.1893 31.5089 -27.2318
  381 146.420 -10.8178 -41.7982
  382 152.753 -12.1637 41.2930
  383 6.98244 1.73933 -6.38056
  384 6.93128 1.79478 6.40713
  385 182.479 -11.0401 3.01205
  386 125.106 -1.16921 -3.23683
  387 125.097 -1.16717 3.23573
  388 431.247 14.9414 22.8655
  389 182.122 -3.66856 0.147526
  390 182.171 -3.64166 -0.189220
  391 202.194 -11.9521 4.74918
  392 458.479 121.693 87.2065
  393 212.069 -7.15023 -10.7782
  394 369.498 51.3521 24.8008
  395 238.193 -14.9486 -16.5918
  396 205.793 25.3556 -1.33887
  397 188.221 -9.96328 -47.7470
  398 223.841 -4.37495 -48.2986
  399 27.5606 11.2543 -16.4893
  400 27.7349 11.7943 16.4661
  401 210.210 -13.2603 -11.0198
  402 132.661 -5.43382 14.0278
  403 132.600 -5.66959 -14.1826
  404 219.541 -1.17043 6.08494
  405 181.723 -9.34379 -2.34930
  406 225.557 -1.43057 2.86001
  407 224.135 2.86099 23.5182
  408 240.958 -8.08055 8.97639
  409 107.804 -4.56608 24.2167
  410 107.831 -4.69009 -24.2470
  411 69.3955 39.1499 -57.3498
  412 208.909 4.14656 22.3518
  413 213.928 -15.8834 11.1876
  414 182.303 -19.3456 26.1901
  415 348.718 71.1783 -34.6057
  416 212.571 -10.4371 -16.2506
  417 237.601 -5.72834 -14.2025
  418 193.223 -8.51031 0.698755
  419 195.387 -8.09545 -1.66800
  420 183.306 -20.6773 -26.2824
  421 212.364 0.525603 -22.9730
  422 181.885 -19.9366 -15.9785
  423 147.566 -1.57240 -1.16414
  424 147.570 -1.58827 1.14141
  425 223.338 34.1576 -13.8031
  426 219.928 -1.18587 -5.99104
  427 257.240 43.3665 -14.7177
  428 218.320 -20.7025 -22.7619
  429 227.780 -1.65673 -2.70005
  430 199.550 -23.0088 17.0448
  431 298.061 59.6088 -2.22893
  432 157.747 -5.52664 5.42768
  433 158.187 -5.89216 -5.49409
  434 217.434 -1.47487 -0.224632
  435 217.381 -1.50148 0.209295
  436 211.543 -7.59627 10.9918
  437 155.560 -8.00465 9.84385
  438 155.668 -7.82747 -9.83825
  439 199.085 17.3559 8.29999
  440 199.821 -22.4763 -17.1353
  441 237.539 39.1045 15.1866
  442 212.364 -4.63998 13.3743
  443 271.223 21.7889 -70.9263
  444 148.306 -2.39249 -2.62065
  445 148.255 -2.43389 2.62167
  446 247.679 49.0807 -11.3995
  447 205.241 -3.20838 -1.47548
  448 205.189 -3.05703 1.49566
  449 200.141 4.50768 -18.7811
  450 231.019 20.9438 -22.8329
  451 133.528 -0.230569 -0.277501
  452 133.558 -0.239706 0.282686
  453 212.358 -5.65700 -12.9705
  454 177.004 -9.13413 52.1784
  455 233.898 123.375 -129.934
  456 222.959 32.0513 15.3764
  457 66.3791 18.1364 -41.6470
  458 64.7495 18.9061 41.0547
  459 117.424 17.6976 -62.3553
  460 118.437 19.1339 62.5164
  461 39.7619 68.0105 61.8127
  462 179.683 -16.7012 10.5202
  463 322.300 70.3935 16.1812
  464 34.6608 26.8617 -30.0593
  465 29.1610 24.3621 24.0031
  466 112.736 -0.646626 4.92485
  467 112.792 -0.689035 -4.92529
  468 273.293 59.8896 -1.65143
  469 13.6713 9.99416 7.90914
  470 13.6943 10.0574 -8.21223
  471 252.254 23.7341 -17.8944
  472 -0.985821 1.87494 -2.60345
  473 -1.05226 1.94407 2.51608
  474 208.592 -2.94066 -20.0798
  475 2.68821 -8.41255 0.459676
  476 2.46116 -7.49324 -0.583459
  477 230.369 -1.40445 1.12170
  478 229.959 -0.754821 -1.20877
  479 153.421 -15.5043 29.8993
  480 153.891 -15.7833 -29.8600
  481 306.127 36.0981 25.9569
  482 236.106 46.6689 -6.20262
  483 221.518 -6.24031 21.0541
  484 284.976 44.3123 -5.41322
  485 264.782 10.1791 4.92517
  486 263.819 58.8739 4.72204
  487 219.005 35.6210 5.38817
  488 123.730 42.3330 -85.1485
  489 216.436 -10.5489 17.9801
  490 263.587 47.1135 11.7573
  491 242.918 -8.05867 31.4501
  492 209.086 -14.7906 8.81758
  493 166.989 -4.16343 -1.77900
  494 166.618 -4.19026 1.69371
  495 226.187 19.7665 22.1569
  496 363.540 72.2664 39.8073
  497 212.662 -9.04756 16.4470
  498 237.485 -2.38313 16.8643
  499 404.530 26.3106 22.3820
  500 99.5004 -0.945407 38.5146
  501 124.614 -2.84664 44.1665
  502 99.4214 -0.968281 -38.4527
  503 123.566 -3.20005 -44.5619
  504 336.860 91.0481 -31.4935
  505 194.000 -14.1495 -0.243565
  506 207.183 -12.1530 -8.66518
  507 -2.05189 -1.94012 -3.28257
  508 -2.10828 -1.96929 3.38068
  509 350.638 90.7291 87.1958
  510 159.707 -2.48464 -1.00704
  511 159.675 -2.43584 0.982661
  512 175.999 -15.7952 -12.3526
  513 180.825 -17.9488 32.9294
  514 224.664 -13.5227 12.9603
  515 215.718 9.28656 -23.1245
  516 191.127 0.610813 -11.9056
  517 -5.84911 0.143735 4.14311
  518 -5.67024 0.0764586 -4.09423
  519 221.794 -20.4556 18.4368
  520 139.828 -11.5323 35.8214
  521 127.290 0.121288 0.793308
  522 127.291 0.118474 -0.768056
  523 54.5954 5.40170 -28.1753
  524 54.7411 5.24261 28.2340
  525 139.571 -11.1622 -35.5232
  526 260.857 14.1630 -11.4516
  527 109.288 -3.60362 -15.3816
  528 109.270 -3.75952 15.3884
  529 -0.344708 -5.75177 -4.30667
  530 -0.323698 -5.92624 4.41381
</Section>

newXOutput 13

<Section columns = "stress_xx | stress_yy | stress_xy">
  1 254.399 0.358875 0.898574
  2 254.421 0.345974 -0.911858
  3 141.090 -0.114318 -0.352601
  4 -1.89989 -1.87109 -2.01644
  5 449.431 182.815 152.750
  6 451.684 185.661 -146.852
  7 -1.96186 -1.92782 2.08796
  8 141.045 -0.111000 0.355317
  9 258.180 -1.23288 0.715999
  10 256.648 -1.47832 0.620021
  11 251.799 -0.971947 2.51574
  12 246.370 -0.816004 4.09473
  13 239.170 -1.16546 5.24586
  14 224.984 -1.01249 7.44672
  15 208.518 -0.0634063 8.62954
  16 191.226 0.987442 8.34309
  17 181.258 3.00619 5.14373
  18 167.114 5.03764 -0.0987909
  19 180.715 3.25907 -5.79103
  20 193.071 0.809876 -9.18267
  21 207.037 0.272452 -8.73586
  22 225.393 -1.11240 -8.07397
  23 239.347 -1.49565 -5.61948
  24 246.434 -1.74504 -4.14404
  25 255.627 -1.87811 -1.87543
  26 254.347 -0.832344 -1.02609
  27 257.991 -1.04442 -0.632005
  28 243.451 -0.936057 -1.05304
  29 229.777 -2.55669 -0.790177
  30 212.282 -3.22369 -0.457467
  31 198.447 -3.20700 -0.742714
  32 185.110 -3.21510 0.240747
  33 166.905 -1.65174 0.308545
  34 152.571 -0.770724 -0.278891
  35 139.220 -0.00522349 0.669936
  36 135.860 0.918225 0.384164
  37 134.274 -0.0303111 1.58708
  38 130.364 -0.0221690 2.51623
  39 121.579 0.0228799 2.84212
  40 113.950 -0.307045 4.79087
  41 100.272 -0.266951 5.68187
  42 85.1486 -0.165298 7.22298
  43 65.4631 -0.718839 8.57740
  44 50.0993 0.149599 12.0064
  45 28.3458 2.02546 9.93669
  46 3.15733 3.77826 6.37788
  47 -10.6809 3.06584 2.48386
  48 -15.0103 2.61562 -0.0302559
  49 -12.0189 1.72606 -3.61832
  50 -6.69876 -0.430548 -2.86324
  51 -0.642718 -6.51469 -3.00355
  52 0.678327 -12.9574 -4.52223
  53 1.67619 -20.4080 -2.49854
  54 4.06354 -21.7222 -0.521794
  55 8.49687 -7.20610 8.31475
  56 22.9834 37.1184 35.2983
  57 99.5377 136.613 115.918
  58 604.847 77.8497 97.2288
  59 504.607 20.8640 32.9920
  60 474.549 9.39693 11.1948
  61 462.215 6.46238 -1.40585
  62 473.765 9.71021 -12.3557
  63 513.837 23.4400 -38.3975
  64 587.472 88.5758 -102.899
  65 116.257 153.981 -123.459
  66 24.1855 31.8193 -29.6809
  67 8.60672 -8.07120 -8.42185
  68 3.38674 -22.1155 0.250235
  69 1.83984 -20.7265 2.18523
  70 0.786617 -13.2930 4.56078
  71 -0.643810 -6.73048 3.08563
  72 -6.89301 -0.407078 2.91405
  73 -12.2455 1.79515 3.59722
  74 -15.0391 2.62248 -0.0740092
  75 -10.5547 3.01240 -2.51741
  76 3.24568 3.75991 -6.34455
  77 28.3401 2.04109 -9.91941
  78 50.0989 0.150646 -11.9962
  79 65.4434 -0.728547 -8.55445
  80 85.0683 -0.145171 -7.20014
  81 100.190 -0.234307 -5.71693
  82 113.998 -0.324466 -4.83698
  83 121.646 0.00128230 -2.84284
  84 130.399 -0.0212139 -2.50374
  85 134.289 -0.0389515 -1.57179
  86 135.848 0.925328 -0.364024
  87 139.182 0.000645388 -0.663399
  88 152.558 -0.769499 0.273036
  89 166.925 -1.68969 -0.321912
  90 185.124 -3.28015 -0.241482
  91 198.503 -3.23910 0.734357
  92 212.315 -3.20256 0.462532
  93 229.753 -2.55720 0.786829
  94 243.347 -0.937684 1.06607
  95 219.100 -23.6873 -9.26732
  96 222.076 -23.5092 7.11319
  97 238.975 40.0365 -5.62329
  98 159.114 -4.64683 -52.8418
  99 156.838 -4.09261 53.0583
  100 275.573 55.7940 12.8669
  101 294.224 62.6840 -5.99250
  102 184.195 -8.19977 -5.03516
  103 186.201 -8.02188 4.20445
  104 239.804 -0.251123 -24.6697
  105 268.727 -6.44913 0.189057
  106 234.894 -1.75374 24.5674
  107 277.457 -2.81306 4.98552
  108 43.4791 22.7610 29.7047
  109 42.9971 21.6456 -30.7819
  110 226.002 -9.80239 8.26502
  111 226.701 -10.1807 -9.22783
  112 330.923 64.6263 -1.62275
  113 145.906 -11.2549 -28.9517
  114 146.064 -11.2028 29.1152
  115 159.530 -9.45904 14.5492
  116 159.731 -9.26211 -14.4374
  117 135.141 26.9042 -80.2939
  118 142.593 27.7823 81.0830
  119 337.251 79.3211 -13.5261
  120 360.060 72.8003 21.9583
  121 229.986 20.6321 18.6686
  122 215.071 -5.99020 1.27400
  123 215.358 -6.47589 -1.29963
  124 213.010 7.89810 -16.5249
  125 76.9067 2.34551 -33.4596
  126 77.0039 2.22062 33.3324
  127 229.126 -5.84596 -18.2521
  128 255.842 8.67041 23.0117
  129 159.716 -2.90669 4.19737
  130 159.754 -2.93869 -4.11617
  131 199.490 -16.2574 -6.83343
  132 198.041 -15.5950 7.07452
  133 218.777 -23.7762 24.2015
  134 259.321 11.3189 -22.3670
  135 231.303 -14.8080 14.1801
  136 273.389 59.0173 -0.431615
  137 227.073 -24.0437 -21.9802
  138 322.127 47.3009 7.96410
  139 301.580 15.8201 -42.9552
  140 206.157 13.7830 -0.569310
  141 228.294 -5.29162 18.1145
  142 233.392 -14.7575 -14.9186
  143 419.206 34.0018 10.7639
  144 248.051 -15.3229 -10.7621
  145 426.197 48.0754 -34.8050
  146 248.688 -15.0687 9.34673
  147 216.123 4.41744 19.7976
  148 6.19515 6.95568 0.202937
  149 6.55226 7.44084 -0.123189
  150 235.574 -4.10450 4.84453
  151 235.334 -3.75123 -4.67242
  152 179.019 -17.6046 -19.7617
  153 182.611 -17.1968 18.6095
  154 92.1361 -3.22959 -26.5116
  155 92.1333 -3.20689 26.4880
  156 193.159 -5.21111 -0.794451
  157 193.047 -4.88711 0.876395
  158 26.7377 32.5644 -31.9002
  159 34.5110 32.8620 33.5014
  160 239.209 22.0601 -21.8645
  161 133.174 -5.89765 -18.1519
  162 132.983 -6.17049 18.0334
  163 303.245 29.4235 73.5801
  164 229.789 -9.90156 52.7395
  165 210.636 -11.5777 1.25233
  166 210.234 -11.0392 -1.19384
  167 235.936 -1.91496 1.61889
  168 235.668 -1.87420 -1.70029
  169 236.818 -18.4543 -36.6499
  170 147.143 -3.29299 -7.21409
  171 147.161 -3.29774 7.16865
  172 220.603 0.746363 -20.8425
  173 290.973 36.5541 11.7405
  174 291.420 34.7087 -13.1433
  175 250.005 46.3210 10.1401
  176 400.652 106.529 48.7206
  177 173.773 -19.1126 37.2883
  178 241.530 56.4404 -115.417
  179 175.645 -17.5153 -38.3253
  180 233.845 -4.39322 -10.2522
  181 233.710 -4.20574 10.4320
  182 221.390 -16.5801 -4.61882
  183 30.2234 7.69130 -18.1334
  184 30.2827 7.88380 18.1805
  185 111.386 12.0171 -56.2896
  186 109.227 12.7234 55.7146
  187 255.453 43.8180 -15.1181
  188 220.376 -15.9993 4.50320
  189 131.175 -6.04008 -42.5664
  190 131.504 -5.75195 42.8899
  191 110.951 -3.55671 -19.3198
  192 110.886 -3.63755 19.4156
  193 344.654 66.5060 -23.3015
  194 114.266 70.8168 94.8621
  195 312.559 66.5832 1.08381
  196 172.981 -2.81412 -1.62896
  197 172.854 -2.89051 1.62146
  198 195.888 -22.2169 21.7444
  199 61.4049 57.0930 -62.1057
  200 197.534 -22.8415 -22.5336
  201 132.602 -2.70832 9.60504
  202 132.582 -2.81203 -9.55920
  203 241.568 -13.7893 16.5816
  204 440.990 47.4145 39.5446
  205 164.897 -6.19887 -8.65275
  206 164.640 -6.22313 8.51028
  207 252.455 34.3732 21.0039
  208 152.595 -0.933093 -1.51272
  209 152.626 -0.960471 1.52489
  210 307.507 66.9633 0.210801
  211 216.419 17.1817 -11.1684
  212 422.572 85.5811 -57.5415
  213 229.308 30.3292 9.35413
  214 302.754 60.9409 -6.46158
  215 230.131 -8.59234 15.5959
  216 201.772 -6.74568 -0.141296
  217 201.299 -7.91180 0.667070
  218 13.6330 7.89639 8.16823
  219 13.7291 7.70835 -8.35513
  220 198.913 6.92492 -7.20799
  221 221.841 -8.17872 4.12497
  222 222.413 -8.06326 -4.31354
  223 12.1169 11.3159 -7.83007
  224 10.7878 12.2624 8.36257
  225 213.642 -3.73435 -0.625468
  226 213.630 -3.68013 0.713953
  227 62.2861 0.0891328 -20.1558
  228 62.3133 0.0829325 20.1420
  229 174.895 6.16368 -67.2190
  230 213.419 11.2845 15.7188
  231 229.056 -10.4522 -13.7762
  232 233.140 -7.40005 -21.8252
  233 212.618 -17.8060 41.0817
  234 255.912 -15.2275 1.04860
  235 262.319 36.1867 -20.8267
  236 221.441 -1.18889 -14.4852
  237 223.874 -0.908415 21.2992
  238 234.717 9.60799 24.6619
  239 369.965 81.9491 43.5545
  240 446.882 17.2607 -9.15848
  241 224.935 7.28299 -23.4644
  242 231.031 -6.54905 21.8205
  243 153.038 -11.7173 -22.1275
  244 151.490 -11.6895 22.1072
  245 307.297 28.5348 -4.90164
  246 272.462 9.48405 16.1733
  247 -1.10290 -0.521522 -5.18471
  248 -1.08350 -0.392107 5.30611
  249 64.0310 13.2777 -36.4119
  250 64.0350 13.6189 36.3655
  251 208.522 1.88198 -15.1239
  252 224.065 -19.8858 2.70859
  253 82.4670 26.9944 -57.2910
  254 74.8463 31.1855 54.2168
  255 35.4217 2.44496 -16.4371
  256 35.4962 2.40830 16.4690
  257 174.762 -5.12064 -3.66210
  258 174.726 -5.08168 3.69950
  259 241.024 -11.2799 -18.3167
  260 202.664 -18.3881 -39.5949
  261 269.066 3.18720 -13.3517
  262 212.154 -19.5974 3.72012
  263 223.868 18.0018 -84.0089
  264 208.144 -20.6165 -7.80829
  265 179.755 -12.7913 -12.1251
  266 180.207 -13.3956 12.7244
  267 359.477 65.9957 -17.8765
  268 294.003 63.9480 1.66738
  269 299.365 9.69067 27.5529
  270 231.332 -2.83336 -10.7520
  271 145.465 -1.64475 3.55420
  272 145.471 -1.68031 -3.53921
  273 236.291 -19.7654 -7.29385
  274 250.957 -18.4143 -6.83840
  275 359.525 59.9931 9.27087
  276 172.245 4.61361 66.5861
  277 236.770 -19.5652 6.93974
  278 238.530 -2.21077 5.83954
  279 250.441 -2.98486 -21.5677
  280 219.674 99.7704 123.749
  281 26.7377 36.7777 36.3662
  282 244.314 -1.84661 2.11391
  283 241.874 -1.70216 -2.71876
  284 220.389 -1.27536 13.0178
  285 199.555 8.17938 6.86239
  286 238.939 -1.90143 -5.71528
  287 253.787 -15.1359 24.8708
  288 100.438 3.44258 -44.9072
  289 100.259 3.22521 44.8752
  290 266.768 33.2636 19.4697
  291 234.424 -23.7653 -6.49314
  292 224.505 9.66113 22.0630
  293 225.168 -2.57068 0.376715
  294 225.174 -2.60401 -0.390080
  295 230.901 -2.55100 10.5560
  296 237.062 -23.4125 6.96571
  297 252.373 50.0439 2.08631
  298 347.134 67.7203 -76.2249
  299 185.260 -10.6348 -7.05083
  300 182.514 -10.7015 7.61571
  301 248.618 -7.01329 19.4787
  302 281.268 60.9057 -4.85330
  303 175.071 -17.7207 -25.0535
  304 170.044 -16.7507 26.9718
  305 457.222 12.6693 8.27335
  306 469.942 17.3201 -27.0297
  307 231.359 -6.47223 -8.41315
  308 133.712 -1.07294 5.64531
  309 133.700 -1.06513 -5.63321
  310 70.0220 48.1927 64.2227
  311 231.267 -6.38644 8.28870
  312 245.798 10.6508 -24.9643
  313 118.667 -2.43197 -9.79066
  314 118.630 -2.42260 9.72855
  315 228.984 -3.91446 2.93297
  316 229.035 -4.06119 -3.06733
  317 1.45554 -4.96150 -4.02199
  318 1.69532 -5.20045 4.06321
  319 239.203 7.13224 69.0672
  320 268.738 56.0568 7.73956
  321 227.397 -12.7154 11.1892
  322 69.2771 -1.44279 -14.5424
  323 69.2755 -1.43467 14.5486
  324 -2.61736 3.29809 -1.23355
  325 -2.71235 3.42240 1.11321
  326 230.490 27.3481 -13.5219
  327 303.742 62.9698 5.17641
  328 226.962 -19.0203 -5.45839
  329 6.38000 3.73913 -8.22405
  330 8.10163 6.64116 9.61998
  331 127.950 -8.81250 34.0617
  332 127.850 -8.74623 -33.8625
  333 247.918 -0.642732 -0.672861
  334 247.891 -0.781106 0.735041
  335 204.647 -21.1937 12.1315
  336 208.196 0.806027 13.4294
  337 198.473 3.18076 11.3714
  338 20.8444 17.6044 -13.2072
  339 19.6499 15.9073 12.9242
  340 391.190 45.8952 -7.21877
  341 340.610 80.9712 14.3281
  342 209.796 -15.0456 0.522123
  343 146.207 -0.690566 -1.52877
  344 146.206 -0.705607 1.56180
  345 248.327 33.1249 -20.3610
  346 98.5418 -3.55752 34.6031
  347 98.5419 -3.60965 -34.6386
  348 278.165 -3.56269 -19.5170
  349 158.528 -3.59988 -5.90181
  350 158.526 -3.46519 5.88062
  351 130.620 -7.29897 -22.7209
  352 130.379 -7.46493 22.7887
  353 101.856 -1.45870 11.0256
  354 101.805 -1.39563 -11.0136
  355 297.581 22.0996 -2.86400
  356 193.855 1.99697 -10.2450
  357 213.667 39.4809 103.772
  358 326.314 71.0882 6.57799
  359 481.283 41.4231 -53.9740
  360 182.987 -3.77646 -1.20070
  361 182.984 -3.63397 1.16746
  362 202.003 -13.5785 -3.00329
  363 475.658 56.5475 57.5066
  364 204.050 -5.11260 0.295691
  365 203.910 -5.24800 -0.129794
  366 219.989 -13.0842 -4.93469
  367 189.851 -6.60209 -2.59750
  368 187.813 -6.23359 2.70358
  369 89.6248 75.7452 -84.4416
  370 149.470 -5.24987 -10.6838
  371 149.438 -5.29601 10.6272
  372 183.363 5.88713 -0.235828
  373 457.188 112.996 -75.4161
  374 89.7291 -1.06865 -15.2499
  375 89.7320 -1.03619 15.2840
  376 166.804 -12.9851 -16.8310
  377 163.872 -11.8784 17.2536
  378 226.829 16.1364 -20.2924
  379 212.693 -18.7275 -1.65612
  380 17.6754 34.5596 -29.7883
  381 159.468 -11.7948 -45.5861
  382 166.344 -13.2582 45.0372
  383 7.75506 1.89246 -6.98932
  384 7.70114 1.95267 7.01818
  385 198.715 -12.0115 3.35793
  386 136.541 -1.26872 -3.53291
  387 136.531 -1.26646 3.53158
  388 468.322 16.2263 24.7892
  389 198.339 -3.99697 0.140908
  390 198.391 -3.96750 -0.185922
  391 220.097 -13.0122 5.05458
  392 497.669 132.421 94.8474
  393 230.824 -7.79269 -11.6148
  394 401.629 55.8120 26.9715
  395 259.087 -16.2557 -18.2362
  396 224.158 27.6126 -1.45065
  397 204.814 -10.8435 -52.0838
  398 243.445 -4.72310 -52.7063
  399 30.1364 12.2651 -18.0549
  400 30.3279 12.8521 18.0297
  401 228.806 -14.4392 -11.8435
  402 144.659 -5.90752 15.3013
  403 144.593 -6.16415 -15.4703
  404 238.920 -1.27997 6.56684
  405 197.900 -10.1671 -2.62891
  406 245.384 -1.56716 3.07277
  407 243.970 3.10935 25.4133
  408 262.155 -8.79115 9.55917
  409 117.589 -4.97298 26.4041
  410 117.618 -5.10811 -26.4376
  411 75.6332 42.6866 -62.5772
  412 227.482 4.51503 24.1915
  413 232.837 -17.2947 12.0105
  414 198.452 -21.0640 28.6119
  415 379.159 77.3965 -37.7098
  416 231.386 -11.3681 -17.5308
  417 258.528 -6.23761 -15.2510
  418 210.366 -9.26515 0.684294
  419 212.711 -8.81512 -1.73708
  420 199.540 -22.5136 -28.7143
  421 231.210 0.569147 -24.8519
  422 198.036 -21.6992 -17.4884
  423 160.910 -1.70472 -1.27454
  424 160.914 -1.72190 1.24983
  425 243.190 37.1747 -14.9279
  426 239.338 -1.29603 -6.46536
  427 279.943 47.1927 -15.8113
  428 237.519 -22.5289 -24.9262
  429 247.782 -1.81099 -2.90186
  430 217.185 -25.0482 18.6784
  431 324.196 64.9169 -2.70253
  432 171.912 -6.00699 5.94980
  433 172.389 -6.40456 -6.02236
  434 236.564 -1.62247 -0.233427
  435 236.506 -1.65133 0.216783
  436 230.252 -8.27862 11.8442
  437 169.517 -8.70346 10.7646
  438 169.635 -8.51133 -10.7592
  439 216.879 18.9097 8.99056
  440 217.480 -24.4699 -18.7762
  441 258.597 42.5538 16.3948
  442 231.163 -5.05819 14.4403
  443 294.731 23.8954 -77.3315
  444 161.705 -2.59573 -2.86815
  445 161.649 -2.64056 2.86904
  446 269.611 53.3980 -12.2729
  447 223.379 -3.50709 -1.56468
  448 223.323 -3.34262 1.58686
  449 217.993 4.91226 -20.3389
  450 251.475 22.7919 -24.6762
  451 145.715 -0.247517 -0.308061
  452 145.746 -0.257421 0.313634
  453 231.154 -6.16592 -13.9992
  454 192.630 -9.94700 56.8993
  455 253.855 134.730 -141.335
  456 242.769 34.8861 16.6278
  457 72.4086 19.7510 -45.4734
  458 70.6381 20.5875 44.8268
  459 127.904 19.2680 -67.9986
  460 128.994 20.8272 68.1695
  461 43.3186 74.4466 67.4698
  462 195.663 -18.1730 11.5436
  463 350.432 76.6936 17.9308
  464 37.8370 29.3086 -32.8661
  465 31.8562 26.5865 26.2727
  466 123.071 -0.701228 5.36874
  467 123.132 -0.747359 -5.36929
  468 297.444 65.1233 -1.77274
  469 14.9779 10.9050 8.69953
  470 15.0011 10.9744 -9.02870
  471 274.479 25.8354 -19.2453
  472 -0.974411 2.04225 -2.87452
  473 -1.04497 2.11740 2.77957
  474 227.116 -3.20425 -21.7185
  475 2.93931 -9.07023 0.449834
  476 2.69311 -8.06495 -0.582340
  477 250.550 -1.53497 1.20200
  478 250.107 -0.832138 -1.29590
  479 167.107 -16.8850 32.6232
  480 167.617 -17.1887 -32.5826
  481 332.755 39.4375 28.5451
  482 257.070 50.7758 -6.69244
  483 241.106 -6.80025 22.7311
  484 309.975 48.2634 -5.61399
  485 287.996 11.1132 5.11672
  486 287.151 64.0395 5.03260
  487 238.499 38.7739 5.83048
  488 134.660 46.1717 -92.7961
  489 235.583 -11.4897 19.3992
  490 286.842 51.2756 12.5897
  491 264.174 -8.72497 34.4085
  492 227.580 -16.1034 9.44818
  493 181.942 -4.52703 -1.96767
  494 181.539 -4.55621 1.87494
  495 246.232 21.5132 23.9492
  496 395.209 78.5614 43.3334
  497 231.484 -9.85645 17.7479
  498 258.410 -2.59776 18.1430
  499 439.458 28.5826 24.2873
  500 108.483 -1.04957 42.0107
  501 135.767 -3.12057 48.1649
  502 108.398 -1.07496 -41.9436
  503 134.630 -3.50658 -48.5943
  504 366.299 99.0665 -34.4537
  505 211.207 -15.3991 -0.372644
  506 225.517 -13.2335 -9.29683
  507 -2.23229 -2.11106 -3.57323
  508 -2.29400 -2.14303 3.68042
  509 380.723 99.0329 95.1428
  510 174.060 -2.69854 -1.10433
  511 174.024 -2.64554 1.07791
  512 191.662 -17.1875 -13.5289
  513 196.831 -19.5480 35.9467
  514 244.488 -14.7252 13.9184
  515 234.869 10.1069 -25.0171
  516 208.240 0.665921 -12.8919
  517 -6.35821 0.161700 4.50416
  518 -6.16256 0.0884716 -4.45047
  519 241.301 -22.2645 20.2195
  520 152.329 -12.5680 39.0721
  521 138.940 0.133619 0.871425
  522 138.942 0.130542 -0.844115
  523 59.6172 5.87191 -30.7694
  524 59.7764 5.69834 30.8323
  525 152.050 -12.1651 -38.7484
  526 283.758 15.4327 -12.2144
  527 119.257 -3.91802 -16.7672
  528 119.237 -4.08752 16.7745
  529 -0.369272 -6.25339 -4.68165
  530 -0.346607 -6.44417 4.79898
</Section>

newXOutput 14

<Section columns = "stress_xx | stress_yy | stress_xy">
  1 274.727 0.374349 0.962657
  2 274.751 0.361250 -0.976836
  3 152.941 -0.119792 -0.377104
  4 -2.05685 -2.02548 -2.18378
  5 483.955 197.836 164.851
  6 486.534 200.963 -158.488
  7 -2.12403 -2.08698 2.26127
  8 152.893 -0.116217 0.380006
  9 278.786 -1.33627 0.763552
  10 277.154 -1.60077 0.654515
  11 271.980 -1.05648 2.68986
  12 266.183 -0.890170 4.38488
  13 258.487 -1.26407 5.62451
  14 243.283 -1.09618 7.99818
  15 225.610 -0.0671921 9.27929
  16 207.030 1.07303 8.97843
  17 196.311 3.25845 5.54008
  18 181.105 5.44321 -0.106291
  19 195.728 3.52981 -6.23742
  20 209.013 0.881394 -9.88036
  21 224.024 0.291700 -9.39177
  22 243.722 -1.20470 -8.67194
  23 258.677 -1.62000 -6.02551
  24 266.252 -1.88819 -4.43870
  25 276.086 -2.02969 -2.00195
  26 274.692 -0.907936 -1.08782
  27 278.585 -1.13342 -0.673368
  28 262.983 -1.02770 -1.12964
  29 248.300 -2.77956 -0.844116
  30 229.495 -3.49676 -0.480761
  31 214.617 -3.47246 -0.795219
  32 200.269 -3.47273 0.268742
  33 180.688 -1.78015 0.337723
  34 165.277 -0.827067 -0.296390
  35 150.926 -0.00302808 0.726541
  36 147.297 0.989823 0.423099
  37 145.568 -0.0303978 1.72365
  38 141.330 -0.0212555 2.72547
  39 131.833 0.0259627 3.07918
  40 123.580 -0.330311 5.18288
  41 108.787 -0.287036 6.14928
  42 92.4294 -0.177026 7.81769
  43 71.1272 -0.778595 9.28941
  44 54.4867 0.159439 13.0034
  45 30.9115 2.18954 10.7776
  46 3.61194 4.08670 6.93316
  47 -11.4207 3.31779 2.71375
  48 -16.1675 2.83288 -0.00958816
  49 -12.9840 1.87455 -3.90238
  50 -7.24628 -0.461637 -3.09521
  51 -0.691343 -7.04841 -3.24769
  52 0.741169 -14.0033 -4.88112
  53 1.82262 -22.0086 -2.67426
  54 4.41323 -23.3484 -0.506744
  55 9.22214 -7.50138 9.10044
  56 24.8872 40.7098 38.3301
  57 107.347 148.341 125.272
  58 651.435 83.9841 104.593
  59 543.959 22.4979 35.4863
  60 511.692 10.1390 12.0373
  61 498.458 6.97522 -1.51089
  62 510.852 10.4779 -13.2879
  63 553.842 25.2797 -41.2952
  64 632.846 95.5680 -110.746
  65 125.337 167.123 -133.350
  66 26.2165 34.9305 -32.2667
  67 9.33810 -8.43253 -9.21003
  68 3.67744 -23.7800 0.217712
  69 1.99885 -22.3568 2.33662
  70 0.858138 -14.3680 4.92354
  71 -0.692695 -7.28244 3.33681
  72 -7.45698 -0.436344 3.15042
  73 -13.2304 1.94929 3.87992
  74 -16.2007 2.84039 -0.102984
  75 -11.2866 3.26015 -2.74998
  76 3.70539 4.06701 -6.89725
  77 30.9039 2.20648 -10.7592
  78 54.4854 0.160588 -12.9927
  79 71.1054 -0.789109 -9.26489
  80 92.3426 -0.155331 -7.79318
  81 108.698 -0.251779 -6.18714
  82 123.631 -0.349111 -5.23264
  83 131.906 0.00263421 -3.08001
  84 141.368 -0.0202286 -2.71209
  85 145.585 -0.0397438 -1.70727
  86 147.286 0.997454 -0.401474
  87 150.886 0.00329920 -0.719527
  88 165.264 -0.825767 0.290066
  89 180.710 -1.82111 -0.352134
  90 200.285 -3.54299 -0.269539
  91 214.676 -3.50725 0.786216
  92 229.530 -3.47415 0.486332
  93 248.274 -2.78004 0.840577
  94 262.871 -1.02954 1.14346
  95 236.822 -25.6060 -10.1578
  96 240.029 -25.4127 7.83297
  97 258.440 43.2746 -6.04119
  98 172.057 -5.04315 -57.2250
  99 169.606 -4.44260 57.4606
  100 297.870 60.2784 13.7406
  101 317.973 67.7180 -6.31423
  102 199.269 -8.85627 -5.49930
  103 201.428 -8.66501 4.60364
  104 259.224 -0.278997 -26.4746
  105 290.296 -6.95172 -0.0271094
  106 253.939 -1.89991 26.3783
  107 299.674 -3.00874 5.62914
  108 47.1489 24.6379 32.2511
  109 46.6239 23.4328 -33.4165
  110 244.286 -10.6043 8.81161
  111 245.044 -11.0126 -9.84597
  112 357.519 69.7640 -1.77133
  113 157.911 -12.1705 -31.3577
  114 158.082 -12.1138 31.5326
  115 172.675 -10.2146 15.7748
  116 172.892 -10.0026 -15.6557
  117 146.124 29.1106 -86.9174
  118 154.151 30.0729 87.7691
  119 364.304 85.6934 -14.8042
  120 388.862 78.6081 23.8203
  121 248.720 22.3108 20.0669
  122 232.501 -6.48342 1.31543
  123 232.810 -7.00740 -1.34212
  124 230.443 8.55206 -17.7765
  125 83.3576 2.52156 -36.2622
  126 83.4628 2.38677 36.1240
  127 247.706 -6.32622 -19.5842
  128 276.503 9.36808 24.6531
  129 172.936 -3.13290 4.56264
  130 172.977 -3.16763 -4.47560
  131 215.715 -17.5671 -7.48658
  132 214.157 -16.8498 7.74288
  133 236.433 -25.7046 26.3003
  134 280.253 12.2330 -23.9546
  135 250.014 -16.0135 15.1559
  136 295.558 63.7480 -0.462788
  137 245.376 -25.9928 -23.9057
  138 347.853 51.2085 8.92414
  139 325.545 17.2309 -46.6537
  140 223.084 14.9228 -0.613109
  141 246.816 -5.72557 19.4406
  142 252.266 -15.9595 -15.9453
  143 452.357 36.6900 11.6072
  144 268.042 -16.5682 -11.4278
  145 459.891 51.8773 -37.5531
  146 268.728 -16.2914 9.89505
  147 233.780 4.78382 21.2910
  148 6.75534 7.56394 0.290170
  149 7.14093 8.08882 -0.202492
  150 254.561 -4.45012 5.16344
  151 254.303 -4.06971 -4.97892
  152 193.637 -19.0255 -21.4401
  153 197.509 -18.5841 20.1981
  154 99.8713 -3.49870 -28.7130
  155 99.8686 -3.47419 28.6870
  156 208.926 -5.63162 -0.899038
  157 208.805 -5.28170 0.987457
  158 28.9940 35.3435 -34.6531
  159 37.4154 35.6504 36.3872
  160 258.646 23.8470 -23.4869
  161 144.240 -6.37002 -19.6524
  162 144.033 -6.66478 19.5245
  163 327.227 32.0225 79.7108
  164 248.219 -10.6876 57.1374
  165 227.731 -12.5147 1.25210
  166 227.298 -11.9340 -1.19289
  167 254.924 -2.08849 1.71701
  168 254.636 -2.04463 -1.80441
  169 255.836 -19.9294 -39.7710
  170 159.382 -3.55047 -7.82055
  171 159.401 -3.55549 7.77131
  172 238.584 0.810137 -22.4061
  173 314.361 39.5353 12.4246
  174 314.840 37.5382 -13.9338
  175 270.327 50.0571 10.8812
  176 432.478 115.093 52.7922
  177 187.916 -20.6736 40.4039
  178 260.669 61.2034 -124.787
  179 189.933 -18.9475 -41.5251
  180 252.747 -4.75827 -10.9818
  181 252.602 -4.55663 11.1753
  182 239.316 -17.9232 -4.85093
  183 32.8441 8.31837 -19.6940
  184 32.9097 8.52590 19.7446
  185 120.531 12.9791 -60.9758
  186 118.200 13.7416 60.3530
  187 276.186 47.3511 -16.2120
  188 238.222 -17.2950 4.72882
  189 141.963 -6.54955 -46.0983
  190 142.317 -6.23805 46.4475
  191 120.243 -3.84361 -20.9160
  192 120.172 -3.93077 21.0191
  193 372.106 71.9978 -25.5218
  194 123.500 76.6883 102.658
  195 337.751 71.8974 1.25014
  196 187.218 -3.03605 -1.78275
  197 187.081 -3.11837 1.77464
  198 211.796 -24.0171 23.6121
  199 66.4760 61.8868 -67.3156
  200 213.566 -24.6933 -24.4682
  201 143.678 -2.92123 10.4017
  202 143.657 -3.03324 -10.3525
  203 261.078 -14.9126 17.7271
  204 475.781 51.1585 42.6429
  205 178.485 -6.69058 -9.39633
  206 178.207 -6.71641 9.24218
  207 272.924 37.1500 22.5305
  208 165.296 -1.00210 -1.64586
  209 165.329 -1.03160 1.65887
  210 332.293 72.3303 0.0859127
  211 234.122 18.5911 -12.0145
  212 456.067 92.4010 -62.1560
  213 248.010 32.7927 10.0531
  214 327.115 65.8627 -6.73960
  215 248.764 -9.29787 16.7100
  216 218.191 -7.29435 -0.216100
  217 217.681 -8.55230 0.788376
  218 14.8572 8.55074 8.91063
  219 14.9592 8.34783 -9.11234
  220 215.291 7.50421 -7.75871
  221 239.793 -8.84935 4.36518
  222 240.409 -8.72458 -4.56749
  223 13.1567 12.3244 -8.57320
  224 11.7191 13.3488 9.15203
  225 230.960 -4.04796 -0.641858
  226 230.948 -3.98960 0.737502
  227 67.6020 0.0886671 -21.8399
  228 67.6321 0.0819963 21.8245
  229 189.032 6.66690 -72.7723
  230 230.889 12.2134 16.9096
  231 247.597 -11.3078 -14.7426
  232 252.031 -8.00573 -23.4142
  233 229.757 -19.2531 44.5301
  234 276.483 -16.4549 1.34027
  235 283.543 39.1047 -22.3162
  236 239.477 -1.28819 -15.5627
  237 242.091 -0.982997 22.8858
  238 253.780 10.3862 26.4960
  239 399.280 88.7276 47.4156
  240 482.033 18.6235 -9.86729
  241 243.254 7.87643 -25.2249
  242 249.763 -7.08609 23.4176
  243 165.636 -12.6627 -23.9739
  244 163.968 -12.6326 23.9514
  245 331.850 30.9177 -5.58787
  246 294.376 10.2598 17.2368
  247 -1.16740 -0.542514 -5.58157
  248 -1.14719 -0.402844 5.71380
  249 69.3887 14.3515 -39.4879
  250 69.3943 14.7195 39.4363
  251 225.612 2.04364 -16.2697
  252 242.191 -21.4961 2.77398
  253 89.2766 29.2061 -62.0827
  254 81.0391 33.7416 58.7601
  255 38.5109 2.63856 -17.8341
  256 38.5926 2.59881 17.8681
  257 189.128 -5.52662 -3.99481
  258 189.088 -5.48405 4.03414
  259 260.499 -12.2011 -19.6018
  260 219.040 -19.8845 -42.9196
  261 290.702 3.45066 -14.1872
  262 229.353 -21.1803 4.14729
  263 241.760 19.5308 -90.9049
  264 225.028 -22.2821 -8.56047
  265 194.458 -13.8172 -13.1782
  266 194.940 -14.4708 13.8267
  267 388.232 71.2446 -19.3758
  268 317.770 69.0607 1.74712
  269 323.209 10.5770 30.0279
  270 250.076 -3.06705 -11.5356
  271 157.600 -1.77034 3.85631
  272 157.607 -1.80876 -3.84034
  273 255.367 -21.3701 -7.70166
  274 271.131 -19.9005 -7.58544
  275 388.277 64.7554 10.0560
  276 186.174 4.98960 72.0888
  277 255.882 -21.1528 7.31813
  278 257.761 -2.40077 6.24472
  279 270.658 -3.23322 -23.1008
  280 236.886 108.190 133.762
  281 28.9825 40.0224 39.4899
  282 263.931 -2.00708 2.24759
  283 261.312 -1.85429 -2.89595
  284 238.347 -1.37961 13.9871
  285 215.980 8.85989 7.38589
  286 258.200 -2.06669 -6.11130
  287 274.132 -16.3426 27.0596
  288 108.744 3.70122 -48.6560
  289 108.550 3.46659 48.6209
  290 288.324 35.9533 20.8332
  291 253.327 -25.6919 -7.18721
  292 242.803 10.4529 23.7219
  293 243.349 -2.79644 0.386526
  294 243.356 -2.83235 -0.400636
  295 249.614 -2.76104 11.3270
  296 256.165 -25.3093 7.70007
  297 272.893 54.0751 2.23817
  298 374.464 73.4940 -82.6444
  299 200.402 -11.4873 -7.69200
  300 197.445 -11.5583 8.29967
  301 268.687 -7.58836 20.8433
  302 304.040 65.7836 -5.16377
  303 189.359 -19.1571 -27.1638
  304 183.942 -18.1090 29.2302
  305 493.119 13.6705 8.90637
  306 506.794 18.6792 -29.0976
  307 250.051 -7.00782 -8.98909
  308 144.907 -1.15560 6.11420
  309 144.894 -1.14720 -6.10131
  310 75.8001 52.1830 69.5956
  311 249.951 -6.91467 8.85560
  312 265.703 11.5086 -26.7919
  313 128.629 -2.62457 -10.5989
  314 128.589 -2.61448 10.5319
  315 247.464 -4.24687 3.11038
  316 247.519 -4.40474 -3.25471
  317 1.58846 -5.31994 -4.31328
  318 1.84744 -5.57973 4.35918
  319 258.318 7.77333 74.7781
  320 290.530 60.5589 8.28025
  321 245.800 -13.7511 11.9468
  322 75.2109 -1.56301 -15.7500
  323 75.2098 -1.55424 15.7563
  324 -2.77343 3.57900 -1.29482
  325 -2.87757 3.71359 1.16528
  326 249.277 29.5703 -14.5350
  327 328.192 68.0599 5.35170
  328 245.317 -20.5622 -5.73913
  329 6.92837 4.21347 -8.99469
  330 8.79555 7.35811 10.5111
  331 138.513 -9.53773 36.8916
  332 138.406 -9.46582 -36.6769
  333 267.779 -0.708595 -0.715353
  334 267.749 -0.857908 0.781807
  335 221.251 -22.9055 13.2270
  336 225.259 0.874440 14.4426
  337 214.814 3.44872 12.2373
  338 22.6325 19.0877 -14.3974
  339 21.3420 17.2513 14.0936
  340 422.294 49.5264 -7.79947
  341 367.882 87.5012 15.7138
  342 226.822 -16.2613 0.678413
  343 158.421 -0.742140 -1.66310
  344 158.419 -0.758327 1.69857
  345 268.484 35.7993 -21.8538
  346 106.746 -3.86208 37.4820
  347 106.746 -3.91869 -37.5210
  348 300.403 -3.80075 -21.3145
  349 171.643 -3.88190 -6.41165
  350 171.641 -3.73643 6.38848
  351 141.454 -7.88859 -24.6016
  352 141.194 -8.06770 24.6744
  353 110.461 -1.57542 11.9331
  354 110.407 -1.50736 -11.9203
  355 321.400 23.9333 -2.81079
  356 209.853 2.17261 -11.0272
  357 230.720 42.7753 112.221
  358 352.543 76.7879 7.25709
  359 519.026 44.6775 -58.1693
  360 197.984 -4.07814 -1.31757
  361 197.980 -3.92448 1.28180
  362 218.430 -14.6716 -3.34240
  363 513.022 61.0100 61.9877
  364 220.642 -5.53251 0.273262
  365 220.492 -5.67843 -0.0938610
  366 237.806 -14.1459 -5.20958
  367 205.363 -7.13138 -2.85962
  368 203.170 -6.73302 2.96909
  369 96.8095 82.2141 -91.3951
  370 161.856 -5.66706 -11.5803
  371 161.821 -5.71656 11.5186
  372 198.572 6.37606 -0.253945
  373 493.084 122.089 -81.5162
  374 97.3286 -1.15502 -16.5107
  375 97.3319 -1.11989 16.5470
  376 180.494 -14.0282 -18.2571
  377 177.333 -12.8317 18.7076
  378 245.314 17.4516 -21.8173
  379 229.940 -20.2398 -1.91826
  380 19.1635 37.6397 -32.3572
  381 172.472 -12.7708 -49.3715
  382 179.887 -14.3509 48.7791
  383 8.54984 2.04478 -7.60264
  384 8.49347 2.10972 7.63376
  385 214.893 -12.9776 3.71474
  386 147.984 -1.36714 -3.82915
  387 147.972 -1.36466 3.82755
  388 505.059 17.4995 26.6887
  389 214.499 -4.32445 0.131249
  390 214.556 -4.29238 -0.179509
  391 237.923 -14.0679 5.34053
  392 536.465 143.096 102.441
  393 249.493 -8.43382 -12.4293
  394 433.525 60.2388 29.1284
  395 279.859 -17.5544 -19.9015
  396 242.467 29.8619 -1.56085
  397 221.322 -11.7197 -56.4193
  398 262.929 -5.06321 -57.1159
  399 32.7232 13.2739 -19.6311
  400 32.9321 13.9075 19.6037
  401 247.319 -15.6138 -12.6396
  402 156.645 -6.37794 16.5741
  403 156.575 -6.65533 -16.7573
  404 258.204 -1.38996 7.03773
  405 214.020 -10.9860 -2.91853
  406 265.101 -1.70470 3.27831
  407 263.717 3.35607 27.2702
  408 283.237 -9.49762 10.1057
  409 127.369 -5.37850 28.5888
  410 127.400 -5.52474 -28.6255
  411 81.8585 46.2193 -67.8060
  412 245.986 4.88225 26.0009
  413 251.659 -18.7007 12.8031
  414 214.531 -22.7759 31.0395
  415 409.396 83.5742 -40.8060
  416 250.118 -12.2960 -18.7803
  417 279.347 -6.74474 -16.2616
  418 227.440 -10.0169 0.657935
  419 229.963 -9.53207 -1.79354
  420 215.703 -24.3428 -31.1524
  421 249.982 0.612159 -26.6979
  422 214.125 -23.4538 -19.0068
  423 174.240 -1.83533 -1.38558
  424 174.244 -1.85380 1.35892
  425 262.967 40.1777 -16.0321
  426 258.653 -1.40652 -6.92883
  427 302.536 51.0005 -16.8668
  428 256.614 -24.3464 -27.1048
  429 267.670 -1.96577 -3.09702
  430 234.738 -27.0790 20.3248
  431 350.175 70.2075 -3.21762
  432 186.047 -6.48377 6.47613
  433 186.561 -6.91319 -6.55485
  434 255.592 -1.77205 -0.240462
  435 255.528 -1.80313 0.222524
  436 248.877 -8.95954 12.6738
  437 183.442 -9.39760 11.6889
  438 183.571 -9.19069 -11.6840
  439 234.622 20.4596 9.67098
  440 235.057 -26.4554 -20.4296
  441 279.567 45.9862 17.5760
  442 249.880 -5.47574 15.4830
  443 318.055 26.0220 -83.7285
  444 175.088 -2.79668 -3.11697
  445 175.027 -2.84489 3.11768
  446 291.447 57.6923 -13.1207
  447 241.433 -3.80676 -1.64704
  448 241.372 -3.62925 1.67123
  449 235.788 5.31607 -21.8731
  450 271.841 24.6313 -26.4829
  451 157.906 -0.263822 -0.339419
  452 157.939 -0.274483 0.345368
  453 249.867 -6.67388 -15.0046
  454 208.180 -10.7570 61.6160
  455 273.606 146.103 -152.668
  456 262.504 37.7083 17.8561
  457 78.4364 21.3601 -49.3057
  458 76.5262 22.2628 48.6048
  459 138.350 20.8322 -73.6371
  460 139.516 22.5131 73.8169
  461 46.8648 80.9219 73.1311
  462 211.585 -19.6373 12.5770
  463 378.377 82.9778 19.7225
  464 41.0168 31.7561 -35.6843
  465 34.5582 28.8123 28.5560
  466 133.417 -0.755158 5.81188
  467 133.483 -0.804989 -5.81253
  468 321.480 70.3234 -1.88956
  469 16.2947 11.8161 9.50132
  470 16.3178 11.8918 -9.85632
  471 296.588 27.9281 -20.5531
  472 -0.946691 2.20907 -3.15112
  473 -1.02106 2.29019 3.04866
  474 245.569 -3.46715 -23.3280
  475 3.19150 -9.71056 0.431668
  476 2.92638 -8.61895 -0.572486
  477 270.609 -1.66587 1.27902
  478 270.135 -0.910741 -1.37956
  479 180.749 -18.2611 35.3474
  480 181.301 -18.5892 -35.3058
  481 359.191 42.7863 31.1677
  482 277.952 54.8608 -7.17061
  483 260.606 -7.35878 24.3710
  484 334.829 52.2025 -5.76975
  485 311.071 12.0490 5.26853
  486 310.375 69.1754 5.32477
  487 257.923 41.9131 6.26530
  488 145.538 50.0087 -100.427
  489 254.644 -12.4273 20.7846
  490 309.983 55.4185 13.3853
  491 285.298 -9.38048 37.3817
  492 245.991 -17.4110 10.0523
  493 196.856 -4.88818 -2.16039
  494 196.423 -4.91970 2.06025
  495 266.193 23.2520 25.7067
  496 426.656 84.8125 46.8436
  497 250.224 -10.6630 19.0186
  498 279.227 -2.81176 19.3820
  499 474.093 30.8357 26.1723
  500 117.455 -1.15661 45.5055
  501 146.890 -3.39688 52.1600
  502 117.364 -1.18458 -45.4332
  503 145.664 -3.81557 -52.6232
  504 395.546 107.043 -37.4275
  505 228.344 -16.6426 -0.518105
  506 243.769 -14.3099 -9.90432
  507 -2.41169 -2.28112 -3.86261
  508 -2.47874 -2.31589 3.97892
  509 410.525 107.344 103.089
  510 188.383 -2.91048 -1.20246
  511 188.344 -2.85331 1.17403
  512 207.270 -18.5728 -14.7132
  513 212.766 -21.1419 38.9670
  514 264.215 -15.9232 14.8422
  515 253.944 10.9235 -26.8767
  516 225.308 0.720991 -13.8630
  517 -6.86362 0.180459 4.86267
  518 -6.65112 0.101304 -4.80411
  519 260.703 -24.0652 22.0183
  520 164.795 -13.6016 42.3214
  521 150.599 0.146160 0.950425
  522 150.602 0.142819 -0.921093
  523 64.6478 6.33875 -33.3683
  524 64.8205 6.15072 33.4352
  525 164.494 -13.1660 -41.9724
  526 306.527 16.7000 -12.9340
  527 129.229 -4.23027 -18.1505
  528 129.207 -4.41327 18.1582
  529 -0.392738 -6.75154 -5.05395
  530 -0.368459 -6.95870 5.18152
</Section>

newXOutput 15

<Section columns = "stress_xx | stress_yy | stress_xy">
  1 294.926 0.387820 1.02523
  2 294.954 0.374642 -1.04027
  3 164.803 -0.124674 -0.400914
  4 -2.21360 -2.17964 -2.35101
  5 518.058 212.822 176.856
  6 520.982 216.235 -170.033
  7 -2.28599 -2.24591 2.43448
  8 164.752 -0.120844 0.403996
  9 299.259 -1.43970 0.809420
  10 297.530 -1.72306 0.686645
  11 292.043 -1.14147 2.85901
  12 285.890 -0.965181 4.66783
  13 277.712 -1.36288 5.99486
  14 261.514 -1.17975 8.53973
  15 242.658 -0.0707451 9.91899
  16 222.812 1.15911 9.60501
  17 211.352 3.51097 5.93168
  18 195.103 5.84670 -0.113685
  19 210.731 3.80045 -6.67850
  20 224.929 0.953516 -10.5682
  21 240.970 0.310467 -10.0373
  22 261.982 -1.29692 -9.25917
  23 277.915 -1.74428 -6.42272
  24 285.964 -2.03098 -4.72622
  25 296.422 -2.18052 -2.12431
  26 294.912 -0.984370 -1.14627
  27 299.046 -1.22265 -0.713158
  28 282.404 -1.12119 -1.20466
  29 266.730 -3.00368 -0.896377
  30 246.636 -3.77031 -0.501987
  31 230.730 -3.73753 -0.846405
  32 215.388 -3.72876 0.297830
  33 194.450 -1.90716 0.367369
  34 177.979 -0.882252 -0.313078
  35 162.644 -0.000447210 0.783229
  36 158.749 1.06072 0.462984
  37 156.875 -0.0301261 1.86076
  38 152.309 -0.0199386 2.93456
  39 142.102 0.0292213 3.31617
  40 133.226 -0.353224 5.57371
  41 117.324 -0.306790 6.61567
  42 99.7360 -0.188433 8.41119
  43 76.8211 -0.838300 10.0008
  44 58.9049 0.168921 13.9998
  45 33.5070 2.35293 11.6202
  46 4.09499 4.39417 7.49190
  47 -12.1381 3.56921 2.94703
  48 -17.3107 3.05003 0.0145399
  49 -13.9436 2.02373 -4.18381
  50 -7.79219 -0.492010 -3.32618
  51 -0.739232 -7.58074 -3.49090
  52 0.804952 -15.0441 -5.23731
  53 1.97005 -23.5942 -2.84512
  54 4.76454 -24.9470 -0.483005
  55 9.94985 -7.75134 9.89961
  56 26.7886 44.3733 41.3738
  57 115.085 160.113 134.577
  58 697.474 90.0672 111.850
  59 582.922 24.1167 37.9445
  60 548.488 10.8751 12.8671
  61 534.371 7.48434 -1.61420
  62 547.593 11.2395 -14.2062
  63 593.441 27.1031 -44.1499
  64 677.704 102.504 -118.489
  65 134.329 180.304 -143.179
  66 28.2491 38.1086 -34.8678
  67 10.0714 -8.74767 -10.0107
  68 3.96937 -25.4177 0.177270
  69 2.15870 -23.9725 2.48341
  70 0.930545 -15.4380 5.28370
  71 -0.740867 -7.83305 3.58709
  72 -8.01936 -0.464914 3.38582
  73 -14.2099 2.10409 4.16006
  74 -17.3485 3.05821 -0.135361
  75 -11.9963 3.50740 -2.98593
  76 4.19319 4.37317 -7.45345
  77 33.4973 2.37119 -11.6007
  78 58.9025 0.170172 -13.9886
  79 76.7971 -0.849618 -9.97480
  80 99.6429 -0.165184 -8.38504
  81 117.229 -0.268936 -6.65631
  82 133.282 -0.373393 -5.62710
  83 142.181 0.00417226 -3.31712
  84 152.349 -0.0188409 -2.92031
  85 156.894 -0.0401755 -1.84332
  86 158.737 1.06887 -0.439903
  87 162.602 0.00633411 -0.775747
  88 177.966 -0.880880 0.306288
  89 194.474 -1.95113 -0.382815
  90 215.404 -3.80419 -0.298688
  91 230.794 -3.77500 0.836763
  92 246.673 -3.74625 0.508075
  93 266.702 -3.00412 0.892661
  94 282.285 -1.12325 1.21923
  95 254.463 -27.5165 -11.0650
  96 257.898 -27.3078 8.57062
  97 277.836 46.4981 -6.45172
  98 184.952 -5.44074 -61.6045
  99 182.327 -4.79385 61.8594
  100 320.067 64.7387 14.5859
  101 341.606 72.7244 -6.61070
  102 214.300 -9.50875 -5.96951
  103 216.610 -9.30432 5.00952
  104 278.558 -0.307662 -28.2433
  105 311.742 -7.44887 -0.276269
  106 272.903 -2.04590 28.1551
  107 321.757 -3.19838 6.30509
  108 50.8249 26.5116 34.8076
  109 50.2567 25.2174 -36.0609
  110 262.488 -11.4039 9.33808
  111 263.303 -11.8420 -10.4427
  112 383.968 74.8654 -1.92169
  113 169.891 -13.0826 -33.7621
  114 170.075 -13.0213 33.9483
  115 185.796 -10.9653 17.0019
  116 186.029 -10.7384 -16.8757
  117 157.064 31.3118 -93.5299
  118 165.658 32.3599 94.4438
  119 391.198 92.0307 -16.1030
  120 417.485 84.3779 25.6858
  121 267.388 23.9836 21.4423
  122 249.857 -6.97560 1.34781
  123 250.188 -7.53756 -1.37540
  124 247.826 9.20541 -19.0098
  125 89.8137 2.69476 -39.0665
  126 89.9269 2.55015 38.9171
  127 266.209 -6.80536 -20.8891
  128 297.065 10.0624 26.2547
  129 186.140 -3.35673 4.92992
  130 186.185 -3.39421 -4.83717
  131 231.879 -18.8701 -8.15134
  132 230.214 -18.0978 8.42214
  133 254.003 -27.6251 28.4104
  134 301.084 13.1430 -25.5025
  135 268.639 -17.2146 16.1025
  136 317.633 68.4511 -0.493251
  137 263.586 -27.9338 -25.8442
  138 373.413 55.1113 9.92576
  139 349.339 18.6555 -50.3680
  140 239.971 16.0613 -0.656366
  141 265.263 -6.15839 20.7404
  142 271.054 -17.1572 -16.9411
  143 485.246 39.3571 12.4428
  144 287.930 -17.8087 -12.0603
  145 493.318 55.6493 -40.2787
  146 288.665 -17.5089 10.4104
  147 251.383 5.15000 22.7616
  148 7.32201 8.17641 0.387818
  149 7.73588 8.74091 -0.292019
  150 273.452 -4.79612 5.47043
  151 273.177 -4.38891 -5.27378
  152 208.209 -20.4396 -23.1225
  153 212.359 -19.9645 21.7915
  154 107.614 -3.76776 -30.9129
  155 107.611 -3.74145 30.8844
  156 224.642 -6.04999 -1.00895
  157 224.513 -5.67433 1.10379
  158 31.2540 38.1318 -37.4193
  159 40.3234 38.4457 39.2862
  160 278.007 25.6264 -25.0804
  161 155.299 -6.83951 -21.1505
  162 155.076 -7.15608 21.0134
  163 351.021 34.6431 85.8394
  164 266.541 -11.4677 61.5348
  165 244.757 -13.4474 1.23719
  166 244.293 -12.8250 -1.17785
  167 273.811 -2.26389 1.80999
  168 273.505 -2.21698 -1.90328
  169 274.747 -21.3951 -42.9011
  170 171.615 -3.80545 -8.42750
  171 171.635 -3.81072 8.37447
  172 256.503 0.874214 -23.9445
  173 337.621 42.5072 13.0667
  174 338.131 40.3588 -14.6808
  175 290.571 53.7750 11.6073
  176 464.072 123.611 56.8632
  177 202.008 -22.2297 43.5200
  178 279.663 65.9750 -134.119
  179 204.169 -20.3756 -44.7250
  180 271.563 -5.12307 -11.6937
  181 271.407 -4.90748 11.9007
  182 257.163 -19.2605 -5.06141
  183 35.4796 8.94336 -21.2618
  184 35.5517 9.16576 21.3158
  185 129.655 13.9353 -65.6605
  186 127.152 14.7536 64.9900
  187 296.834 50.8669 -17.2818
  188 255.991 -18.5850 4.93328
  189 152.728 -7.05987 -49.6274
  190 153.107 -6.72509 50.0021
  191 129.540 -4.12906 -22.5099
  192 129.464 -4.22249 22.6200
  193 399.371 77.4823 -27.7803
  194 132.691 82.5548 110.436
  195 362.815 77.1771 1.42712
  196 201.427 -3.25609 -1.93900
  197 201.281 -3.34427 1.93029
  198 227.640 -25.8095 25.4872
  199 71.5392 66.6853 -72.5293
  200 229.533 -26.5375 -26.4104
  201 154.756 -3.13224 11.1976
  202 154.733 -3.25251 -11.1450
  203 280.495 -16.0320 18.8388
  204 510.285 54.8724 45.7122
  205 192.048 -7.17860 -10.1428
  206 191.750 -7.20593 9.97698
  207 293.307 39.9141 24.0248
  208 177.993 -1.06982 -1.77993
  209 178.027 -1.10142 1.79375
  210 356.953 77.6661 -0.0590113
  211 251.774 19.9972 -12.8484
  212 489.308 99.1749 -66.7428
  213 266.651 35.2468 10.7405
  214 351.348 70.7618 -6.98067
  215 267.315 -10.0017 17.7977
  216 234.550 -7.84092 -0.299690
  217 234.004 -9.18990 0.918836
  218 16.0943 9.20452 9.66210
  219 16.2021 8.98684 -9.87850
  220 231.636 8.08380 -8.30211
  221 257.664 -9.51824 4.59083
  222 258.325 -9.38419 -4.80659
  223 14.2008 13.3426 -9.32964
  224 12.6551 14.4447 9.95506
  225 248.206 -4.36176 -0.653268
  226 248.192 -4.29930 0.756038
  227 72.9357 0.0870669 -23.5243
  228 72.9688 0.0799334 23.5073
  229 203.103 7.16864 -78.3177
  230 248.309 13.1405 18.0831
  231 266.057 -12.1610 -15.6832
  232 270.841 -8.60961 -24.9702
  233 246.809 -20.6945 47.9813
  234 296.942 -17.6760 1.66098
  235 304.672 42.0086 -23.7703
  236 257.449 -1.38747 -16.6215
  237 260.242 -1.05732 24.4452
  238 272.767 11.1613 28.2981
  239 428.372 95.4984 51.3072
  240 516.879 19.9754 -10.5682
  241 261.508 8.46799 -26.9572
  242 268.418 -7.62170 24.9829
  243 178.210 -13.6034 -25.8202
  244 176.422 -13.5710 25.7953
  245 356.247 33.3017 -6.31329
  246 316.172 11.0338 18.2595
  247 -1.22782 -0.560156 -5.97317
  248 -1.20690 -0.410310 6.11633
  249 74.7489 15.4203 -42.5696
  250 74.7562 15.8149 42.5125
  251 242.656 2.20603 -17.3988
  252 260.236 -23.0994 2.81666
  253 96.0757 31.4120 -66.8762
  254 87.2242 36.2912 63.3063
  255 41.6199 2.83065 -19.2349
  256 41.7092 2.78782 19.2710
  257 203.461 -5.92951 -4.33125
  258 203.419 -5.88327 4.37232
  259 279.882 -13.1193 -20.8523
  260 235.340 -21.3755 -46.2472
  261 312.222 3.71419 -14.9831
  262 246.479 -22.7557 4.59092
  263 259.540 21.0641 -97.7845
  264 241.843 -23.9397 -9.32682
  265 209.119 -14.8373 -14.2370
  266 209.630 -15.5399 14.9346
  267 416.808 76.4568 -20.8757
  268 341.425 74.1415 1.81849
  269 346.891 11.4752 32.5278
  270 268.739 -3.30034 -12.3032
  271 169.734 -1.89425 4.15911
  272 169.742 -1.93551 -4.14221
  273 274.352 -22.9684 -8.08095
  274 291.195 -21.3794 -8.35758
  275 416.848 69.4831 10.8424
  276 200.040 5.36441 77.5839
  277 274.902 -22.7339 7.66802
  278 276.896 -2.59153 6.63841
  279 290.776 -3.48125 -24.5960
  280 253.938 116.622 143.729
  281 31.2292 43.2933 42.6265
  282 283.439 -2.16841 2.37535
  283 280.644 -2.00780 -3.06623
  284 256.243 -1.48352 14.9397
  285 232.372 9.54021 7.90232
  286 277.364 -2.23287 -6.49601
  287 294.358 -17.5410 29.2646
  288 117.040 3.95571 -52.4051
  289 116.831 3.70393 52.3669
  290 309.779 38.6311 22.1595
  291 272.135 -27.6104 -7.90291
  292 261.039 11.2428 25.3548
  293 261.443 -3.02369 0.393342
  294 261.451 -3.06215 -0.408143
  295 268.248 -2.97068 12.0823
  296 275.171 -27.1980 8.45619
  297 293.336 58.0857 2.38686
  298 401.562 79.2863 -89.0705
  299 215.498 -12.3347 -8.34047
  300 212.333 -12.4099 8.99034
  301 288.659 -8.16177 22.1708
  302 326.711 70.6324 -5.46079
  303 203.602 -20.5875 -29.2768
  304 197.799 -19.4617 31.4895
  305 528.695 14.6637 9.53136
  306 543.311 20.0261 -31.1389
  307 268.655 -7.54274 -9.54732
  308 156.106 -1.23727 6.58268
  309 156.093 -1.22828 -6.56902
  310 81.5685 56.1690 74.9704
  311 268.547 -7.44218 9.40500
  312 285.521 12.3622 -28.5829
  313 138.599 -2.81567 -11.4058
  314 138.557 -2.80487 11.3339
  315 265.854 -4.58002 3.27840
  316 265.913 -4.74887 -3.43252
  317 1.72311 -5.67017 -4.59802
  318 2.00119 -5.95093 4.64877
  319 277.312 8.42144 80.4814
  320 312.230 65.0362 8.80596
  321 264.121 -14.7831 12.6794
  322 81.1675 -1.68319 -16.9567
  323 81.1670 -1.67379 16.9630
  324 -2.92026 3.86081 -1.34991
  325 -3.03373 4.00566 1.21129
  326 268.001 31.7841 -15.5316
  327 352.513 73.1270 5.49073
  328 263.588 -22.0975 -5.99514
  329 7.47913 4.71190 -9.77779
  330 9.49213 8.09921 11.4154
  331 149.059 -10.2615 39.7196
  332 148.946 -10.1840 -39.4896
  333 287.521 -0.776134 -0.755952
  334 287.489 -0.936296 0.826552
  335 237.787 -24.6091 14.3342
  336 242.278 0.943064 15.4404
  337 231.123 3.71711 13.0914
  338 24.4280 20.5732 -15.6006
  339 23.0420 18.5980 15.2767
  340 453.177 53.1295 -8.37693
  341 394.988 93.9992 17.1257
  342 243.780 -17.4713 0.850542
  343 170.636 -0.792831 -1.79834
  344 170.634 -0.810150 1.83620
  345 288.560 38.4612 -23.3170
  346 114.948 -4.16776 40.3597
  347 114.948 -4.22887 -40.4022
  348 322.502 -4.02988 -23.1359
  349 184.742 -4.16126 -6.92381
  350 184.739 -4.00507 6.89863
  351 152.279 -8.47539 -26.4800
  352 152.000 -8.66755 26.5577
  353 119.083 -1.69140 12.8387
  354 119.025 -1.61839 -12.8251
  355 345.075 25.7663 -2.71615
  356 225.824 2.34959 -11.7989
  357 247.662 46.0703 120.640
  358 378.627 82.4547 7.95431
  359 556.424 47.9030 -62.3205
  360 212.942 -4.37783 -1.43674
  361 212.938 -4.21310 1.39849
  362 234.796 -15.7591 -3.69389
  363 550.053 65.4361 66.4232
  364 237.173 -5.95137 0.244273
  365 237.012 -6.10770 -0.0514156
  366 255.546 -15.2033 -5.46521
  367 220.827 -7.65750 -3.12804
  368 218.482 -7.22943 3.24014
  369 103.951 88.7053 -98.3344
  370 174.230 -6.08123 -12.4774
  371 174.192 -6.13401 12.4105
  372 213.767 6.86473 -0.271835
  373 528.657 131.134 -87.5872
  374 104.945 -1.24097 -17.7696
  375 104.948 -1.20317 17.8082
  376 194.151 -15.0654 -19.6861
  377 190.763 -13.7796 20.1634
  378 263.734 18.7625 -23.3181
  379 247.116 -21.7450 -2.19785
  380 20.6533 40.7490 -34.9380
  381 185.433 -13.7456 -53.1542
  382 193.380 -15.4416 52.5188
  383 9.36660 2.19631 -8.22046
  384 9.30808 2.26592 8.25383
  385 231.014 -13.9384 4.08224
  386 159.433 -1.46448 -4.12550
  387 159.420 -1.46178 4.12363
  388 541.463 18.7615 28.5645
  389 230.604 -4.65097 0.118612
  390 230.664 -4.61629 -0.170045
  391 255.671 -15.1193 5.60737
  392 574.872 153.717 109.986
  393 268.078 -9.07363 -13.2219
  394 465.189 64.6328 31.2716
  395 300.509 -18.8446 -21.5871
  396 260.718 32.1034 -1.66948
  397 237.747 -12.5916 -60.7533
  398 282.295 -5.39533 -61.5272
  399 35.3208 14.2807 -21.2176
  400 35.5474 14.9605 21.1882
  401 265.749 -16.7840 -13.4086
  402 168.620 -6.84510 17.8461
  403 168.545 -7.14315 -18.0437
  404 277.396 -1.50039 7.49780
  405 230.083 -11.8008 -3.21794
  406 284.711 -1.84318 3.47678
  407 283.377 3.60121 29.0895
  408 304.205 -10.1999 10.6164
  409 137.146 -5.78265 30.7707
  410 137.178 -5.93996 -30.8107
  411 88.0710 49.7482 -73.0358
  412 264.422 5.24826 27.7804
  413 270.393 -20.1013 13.5661
  414 230.541 -24.4812 33.4728
  415 439.432 89.7119 -43.8940
  416 268.767 -13.2210 -19.9996
  417 300.057 -7.24968 -17.2350
  418 244.445 -10.7654 0.619914
  419 247.144 -10.2463 -1.83763
  420 231.796 -26.1651 -33.5964
  421 268.679 0.654675 -28.5113
  422 230.151 -25.2003 -20.5335
  423 187.556 -1.96424 -1.49724
  424 187.560 -1.98397 1.46865
  425 282.671 43.1667 -17.1161
  426 277.874 -1.51734 -7.38163
  427 325.018 54.7902 -17.8847
  428 275.605 -26.1548 -29.2976
  429 287.446 -2.12104 -3.28564
  430 252.209 -29.1014 21.9836
  431 376.000 75.4808 -3.77340
  432 200.151 -6.95700 7.00653
  433 200.703 -7.41808 -7.09143
  434 274.518 -1.92354 -0.245773
  435 274.449 -1.95681 0.226556
  436 267.417 -9.63902 13.4811
  437 197.336 -10.0871 12.6168
  438 197.475 -9.86560 -12.6124
  439 252.314 22.0057 10.3414
  440 252.551 -28.4328 -22.0954
  441 300.449 49.4020 18.7305
  442 268.514 -5.89261 16.5027
  443 341.199 28.1685 -90.1169
  444 188.455 -2.99535 -3.36705
  445 188.389 -3.04690 3.36755
  446 313.189 61.9637 -13.9435
  447 259.403 -4.10732 -1.72268
  448 259.338 -3.91689 1.74892
  449 253.526 5.71911 -23.3839
  450 292.119 26.4621 -28.2536
  451 170.101 -0.279489 -0.371555
  452 170.136 -0.290899 0.377869
  453 268.497 -7.18088 -15.9870
  454 223.655 -11.5640 66.3284
  455 293.154 157.494 -163.931
  456 282.163 40.5181 19.0616
  457 84.4623 22.9636 -53.1437
  458 82.4136 23.9320 52.3884
  459 148.764 22.3902 -79.2706
  460 150.003 24.1916 79.4586
  461 50.4005 87.4356 78.7960
  462 227.448 -21.0941 13.6202
  463 406.135 89.2463 21.5552
  464 44.1999 34.2040 -38.5138
  465 37.2667 31.0394 30.8528
  466 143.775 -0.808422 6.25423
  467 143.846 -0.861932 -6.25500
  468 345.404 75.4902 -2.00194
  469 17.6215 12.7276 10.3144
  470 17.6441 12.8096 -10.6950
  471 318.584 30.0123 -21.8185
  472 -0.902778 2.37539 -3.43320
  473 -0.980653 2.46244 3.32328
  474 263.950 -3.72932 -24.9086
  475 3.44474 -10.3337 0.405240
  476 3.16095 -9.15535 -0.553963
  477 290.548 -1.79712 1.35281
  478 290.043 -0.990595 -1.45983
  479 194.348 -19.6324 38.0717
  480 194.940 -19.9849 -38.0295
  481 385.436 46.1446 33.8238
  482 298.753 58.9244 -7.63730
  483 280.017 -7.91587 25.9743
  484 359.537 56.1297 -5.88129
  485 334.010 12.9866 5.38125
  486 333.494 74.2817 5.59882
  487 277.280 45.0386 6.69273
  488 156.364 53.8439 -108.043
  489 273.620 -13.3619 22.1368
  490 333.009 59.5424 14.1447
  491 306.290 -10.0253 40.3695
  492 264.318 -18.7134 10.6303
  493 211.731 -5.24688 -2.35704
  494 211.268 -5.28073 2.24956
  495 286.070 24.9831 27.4297
  496 457.883 91.0201 50.3379
  497 268.881 -11.4672 20.2595
  498 299.938 -3.02507 20.5818
  499 508.437 33.0702 28.0371
  500 126.416 -1.26649 48.9988
  501 157.984 -3.67553 56.1518
  502 126.319 -1.29712 -48.9215
  503 156.670 -4.12698 -56.6484
  504 424.603 114.979 -40.4141
  505 245.411 -17.8801 -0.679635
  506 261.940 -15.3822 -10.4881
  507 -2.59010 -2.45029 -4.15073
  508 -2.66252 -2.48790 4.27619
  509 440.048 115.663 111.033
  510 202.677 -3.12047 -1.30140
  511 202.635 -3.05917 1.27098
  512 222.823 -19.9510 -15.9051
  513 228.631 -22.7305 41.9903
  514 283.846 -17.1166 15.7322
  515 272.944 11.7365 -28.7037
  516 242.331 0.776029 -14.8191
  517 -7.36536 0.200004 5.21865
  518 -7.13592 0.114951 -5.15516
  519 280.000 -25.8576 23.8331
  520 177.226 -14.6330 45.5691
  521 162.268 0.158909 1.03028
  522 162.272 0.155302 -0.998964
  523 69.6868 6.80225 -35.9719
  524 69.8731 6.59975 36.0428
  525 176.904 -14.1649 -45.1950
  526 329.167 17.9650 -13.6109
  527 139.204 -4.54038 -19.5313
  528 139.181 -4.73678 19.5395
  529 -0.415113 -7.24624 -5.42356
  530 -0.389261 -7.46985 5.56145
</Section>

newXOutput 16

<Section columns = "stress_xx | stress_yy | stress_xy">
  1 315.000 0.399333 1.08631
  2 315.030 0.386191 -1.10219
  3 176.674 -0.128973 -0.424042
  4 -2.37014 -2.33356 -2.51813
  5 551.747 227.771 188.767
  6 555.035 231.477 -181.486
  7 -2.44775 -2.40461 2.60757
  8 176.621 -0.124890 0.427298
  9 319.602 -1.54316 0.853639
  10 317.779 -1.84519 0.716464
  11 311.989 -1.22692 3.02329
  12 305.491 -1.04102 4.94372
  13 296.846 -1.46188 6.35706
  14 279.677 -1.26320 9.07152
  15 259.661 -0.0740652 10.5488
  16 238.571 1.24568 10.2229
  17 226.382 3.76375 6.31857
  18 209.105 6.24815 -0.120974
  19 225.722 4.07096 -7.11430
  20 240.820 1.02624 -11.2463
  21 257.872 0.328763 -10.6724
  22 280.173 -1.38905 -9.83583
  23 297.062 -1.86849 -6.81124
  24 305.571 -2.17340 -5.00671
  25 316.636 -2.33062 -2.24260
  26 315.008 -1.06162 -1.20150
  27 319.377 -1.31210 -0.751405
  28 301.716 -1.21646 -1.27812
  29 285.069 -3.22900 -0.946992
  30 263.706 -4.04429 -0.521185
  31 246.788 -4.00217 -0.896295
  32 230.465 -3.98320 0.327986
  33 208.191 -2.03278 0.397471
  34 190.677 -0.936289 -0.328972
  35 174.373 0.00251490 0.839992
  36 170.213 1.13091 0.503798
  37 168.193 -0.0294996 1.99839
  38 163.298 -0.0182227 3.14347
  39 152.387 0.0326544 3.55307
  40 142.890 -0.375788 5.96335
  41 125.882 -0.326212 7.08102
  42 107.068 -0.199517 9.00347
  43 82.5444 -0.897948 10.7117
  44 63.3535 0.178052 14.9954
  45 36.1321 2.51566 12.4646
  46 4.60626 4.70070 8.05404
  47 -12.8331 3.82009 3.18367
  48 -18.4399 3.26707 0.0421062
  49 -14.8978 2.17359 -4.46264
  50 -8.33648 -0.521673 -3.55616
  51 -0.786388 -8.11168 -3.73318
  52 0.869668 -16.0798 -5.59082
  53 2.11847 -25.1648 -3.01114
  54 5.11745 -26.5181 -0.450643
  55 10.6799 -7.95631 10.7121
  56 28.6878 48.1080 44.4290
  57 122.753 171.929 143.834
  58 742.973 96.0996 119.004
  59 621.499 25.7206 40.3672
  60 584.940 11.6054 13.6844
  61 569.958 7.98980 -1.71580
  62 583.991 11.9952 -15.1109
  63 632.639 28.9102 -46.9624
  64 722.052 109.383 -126.128
  65 143.233 193.522 -152.946
  66 30.2829 41.3526 -37.4836
  67 10.8067 -9.01698 -10.8237
  68 4.26253 -27.0289 0.128967
  69 2.31938 -25.5737 2.62563
  70 1.00383 -16.5030 5.64126
  71 -0.788331 -8.38230 3.83647
  72 -8.58015 -0.492795 3.62024
  73 -15.1840 2.25956 4.43765
  74 -18.4826 3.27592 -0.171118
  75 -12.6841 3.75416 -3.22522
  76 4.70888 4.67841 -8.01308
  77 36.1200 2.53523 -12.4440
  78 63.3498 0.179407 -14.9838
  79 82.5182 -0.910071 -10.6842
  80 106.969 -0.174730 -8.97571
  81 125.781 -0.285777 -7.12441
  82 142.949 -0.397315 -6.02035
  83 152.471 0.00589513 -3.55414
  84 163.342 -0.0170555 -3.12837
  85 168.215 -0.0402501 -1.97991
  86 170.202 1.13957 -0.479286
  87 174.329 0.00974598 -0.832052
  88 190.663 -0.934849 0.321718
  89 208.217 -2.07973 -0.413940
  90 230.483 -4.06376 -0.328905
  91 246.856 -4.04232 0.886023
  92 263.745 -4.01882 0.527803
  93 285.037 -3.22939 0.943110
  94 301.588 -1.21876 1.29340
  95 272.025 -29.4187 -11.9883
  96 275.684 -29.1947 9.32579
  97 297.163 49.7072 -6.85497
  98 197.799 -5.83958 -65.9803
  99 195.002 -5.14633 66.2546
  100 342.164 69.1750 15.4032
  101 365.124 77.7032 -6.88233
  102 229.289 -10.1572 -6.44563
  103 231.748 -9.93984 5.42193
  104 297.808 -0.337068 -29.9764
  105 333.066 -7.94056 -0.557880
  106 291.788 -2.19167 29.8984
  107 343.708 -3.38197 7.01281
  108 54.5071 28.3823 37.3741
  109 53.8952 26.9994 -38.7151
  110 280.608 -12.2011 9.84478
  111 281.481 -12.6688 -11.0185
  112 410.271 79.9309 -2.07377
  113 181.847 -13.9914 -36.1648
  114 182.044 -13.9254 36.3619
  115 198.893 -11.7111 18.2303
  116 199.142 -11.4696 -18.0972
  117 167.962 33.5077 -100.131
  118 177.117 34.6432 101.107
  119 417.937 98.3334 -17.4219
  120 445.929 90.1101 27.5545
  121 285.990 25.6505 22.7952
  122 267.139 -7.46673 1.37132
  123 267.492 -8.06635 -1.39968
  124 265.160 9.85816 -20.2250
  125 96.2747 2.86514 -41.8723
  126 96.3959 2.71078 41.7117
  127 284.636 -7.28335 -22.1674
  128 317.529 10.7535 27.8171
  129 199.328 -3.57821 5.29915
  130 199.376 -3.61845 -5.20081
  131 247.983 -20.1664 -8.82745
  132 246.213 -19.3392 9.11206
  133 271.487 -29.5377 30.5315
  134 321.815 14.0491 -27.0111
  135 287.181 -18.4114 17.0201
  136 339.615 73.1269 -0.523009
  137 281.705 -29.8666 -27.7955
  138 398.810 59.0095 10.9681
  139 372.964 20.0938 -54.0978
  140 256.818 17.1984 -0.699084
  141 283.634 -6.59006 22.0143
  142 289.756 -18.3506 -17.9063
  143 517.875 42.0033 13.2706
  144 307.718 -19.0442 -12.6604
  145 526.479 59.3917 -42.9817
  146 308.500 -18.7213 10.8934
  147 268.932 5.51598 24.2098
  148 7.89511 8.79305 0.495795
  149 8.33707 9.39706 -0.391689
  150 292.248 -5.14249 5.76573
  151 291.957 -4.70881 -5.55721
  152 222.735 -21.8468 -24.8087
  153 227.159 -21.3381 23.3897
  154 115.363 -4.03675 -33.1110
  155 115.361 -4.00864 33.0801
  156 240.307 -6.46624 -1.12406
  157 240.170 -6.06500 1.22527
  158 33.5174 40.9293 -40.1988
  159 43.2349 41.2480 42.1983
  160 297.293 27.3984 -26.6453
  161 166.351 -7.30616 -22.6464
  162 166.113 -7.64441 22.5001
  163 374.629 37.2852 91.9655
  164 284.758 -12.2421 65.9317
  165 261.714 -14.3759 1.20788
  166 261.220 -13.7122 -1.14898
  167 292.599 -2.44109 1.89795
  168 292.276 -2.39117 -1.99702
  169 293.552 -22.8514 -46.0400
  170 183.841 -4.05795 -9.03488
  171 183.862 -4.06346 8.97805
  172 274.361 0.938605 -25.4582
  173 360.754 45.4701 13.6675
  174 361.294 43.1708 -15.3851
  175 310.737 57.4747 12.3185
  176 495.438 132.083 60.9332
  177 216.048 -23.7811 46.6366
  178 298.511 70.7551 -143.413
  179 218.351 -21.7996 -47.9251
  180 290.291 -5.48762 -12.3882
  181 290.126 -5.25828 12.6085
  182 274.932 -20.5920 -5.25064
  183 38.1296 9.56627 -22.8366
  184 38.2085 9.80341 22.8939
  185 138.757 14.8856 -70.3438
  186 136.084 15.7594 69.6256
  187 317.399 54.3655 -18.3280
  188 273.682 -19.8693 5.11692
  189 163.471 -7.57100 -53.1535
  190 163.874 -7.21305 53.5535
  191 138.841 -4.41306 -24.1012
  192 138.760 -4.51270 24.2184
  193 426.450 82.9594 -30.0761
  194 141.838 88.4164 118.196
  195 387.751 82.4229 1.61454
  196 215.608 -3.47424 -2.09765
  197 215.451 -3.56822 2.08834
  198 243.422 -27.5944 27.3696
  199 76.5941 71.4882 -77.7465
  200 245.436 -28.3739 -28.3601
  201 165.835 -3.34136 11.9926
  202 165.811 -3.46984 -11.9367
  203 299.821 -17.1472 19.9172
  204 544.505 58.5565 48.7528
  205 205.586 -7.66295 -10.8920
  206 205.268 -7.69171 10.7146
  207 313.605 42.6655 25.4873
  208 190.685 -1.13625 -1.91489
  209 190.720 -1.16993 1.92951
  210 381.488 82.9709 -0.223592
  211 269.374 21.4000 -13.6700
  212 522.298 105.903 -71.3019
  213 285.229 37.6915 11.4162
  214 375.451 75.6383 -7.18542
  215 285.786 -10.7039 18.8592
  216 250.849 -8.38537 -0.391883
  217 250.268 -9.82463 1.05826
  218 17.3442 9.85773 10.4226
  219 17.4574 9.62540 -10.6535
  220 247.948 8.66367 -8.83828
  221 275.455 -10.1854 4.80219
  222 276.160 -10.0421 -5.03112
  223 15.2492 14.3702 -10.0992
  224 13.5957 15.5500 10.7715
  225 265.379 -4.67570 -0.659802
  226 265.364 -4.60920 0.769666
  227 78.2868 0.0843482 -25.2090
  228 78.3230 0.0767601 25.1903
  229 217.108 7.66892 -83.8551
  230 265.680 14.0660 19.2395
  231 284.436 -13.0117 -16.5982
  232 289.571 -9.21168 -26.4937
  233 263.775 -22.1305 51.4352
  234 317.290 -18.8907 2.01027
  235 325.705 44.8986 -25.1894
  236 275.358 -1.48673 -17.6619
  237 278.326 -1.13136 25.9777
  238 291.679 11.9332 30.0686
  239 457.243 102.261 55.2284
  240 551.424 21.3164 -11.2614
  241 279.697 9.05770 -28.6616
  242 286.994 -8.15585 26.5168
  243 190.758 -14.5394 -27.6662
  244 188.853 -14.5047 27.6388
  245 380.490 35.6869 -7.07719
  246 337.851 11.8061 19.2422
  247 -1.28417 -0.574470 -6.35953
  248 -1.26266 -0.414527 6.51372
  249 80.1113 16.4843 -45.6569
  250 80.1205 16.9052 45.5941
  251 259.655 2.36913 -18.5114
  252 278.199 -24.6957 2.83701
  253 102.864 33.6122 -71.6713
  254 93.4015 38.8342 67.8553
  255 44.7487 3.02126 -20.6395
  256 44.8456 2.97535 20.6776
  257 217.764 -6.32932 -4.67131
  258 217.718 -6.27936 4.71396
  259 299.174 -14.0345 -22.0686
  260 251.563 -22.8612 -49.5777
  261 333.625 3.97786 -15.7400
  262 263.534 -24.3237 5.05068
  263 277.207 22.6018 -104.648
  264 258.589 -25.5896 -10.1070
  265 223.737 -15.8513 -15.3013
  266 224.277 -16.6029 16.0479
  267 445.206 81.6326 -22.3760
  268 364.971 79.1909 1.88163
  269 370.412 12.3853 35.0518
  270 287.323 -3.53323 -13.0549
  271 181.866 -2.01649 4.46256
  272 181.876 -2.06058 -4.44477
  273 293.246 -24.5602 -8.43220
  274 311.150 -22.8510 -9.15436
  275 445.241 74.1765 11.6301
  276 213.842 5.73807 83.0714
  277 293.830 -24.3085 7.98987
  278 295.935 -2.78303 7.02082
  279 310.797 -3.72888 -26.0538
  280 270.834 125.067 153.650
  281 33.4774 46.5900 45.7757
  282 302.838 -2.33057 2.49731
  283 299.872 -2.16264 -3.22975
  284 274.076 -1.58709 15.8760
  285 248.731 10.2203 8.41176
  286 296.432 -2.39993 -6.86960
  287 314.466 -18.7312 31.4853
  288 125.325 4.20608 -56.1545
  289 125.102 3.93729 56.1132
  290 331.133 41.2973 23.4491
  291 290.850 -29.5209 -8.63985
  292 279.212 12.0308 26.9620
  293 279.451 -3.25237 0.397224
  294 279.460 -3.29337 -0.412666
  295 286.803 -3.17989 12.8224
  296 294.080 -29.0785 9.23367
  297 313.701 62.0759 2.53243
  298 428.429 85.0966 -95.5025
  299 230.549 -13.1772 -8.99607
  300 227.178 -13.2562 9.68753
  301 308.535 -8.73348 23.4617
  302 349.281 75.4525 -5.74457
  303 217.798 -22.0118 -31.3922
  304 211.613 -20.8089 33.7497
  305 563.953 15.6492 10.1485
  306 579.495 21.3610 -33.1541
  307 287.172 -8.07695 -10.0882
  308 167.310 -1.31794 7.05070
  309 167.296 -1.30838 -7.03631
  310 87.3271 60.1509 80.3471
  311 287.056 -7.96897 9.93720
  312 305.252 13.2118 -30.3380
  313 148.578 -3.00528 -12.2113
  314 148.533 -2.99376 12.1345
  315 284.155 -4.91387 3.43723
  316 284.219 -5.09355 -3.60096
  317 1.85949 -6.01224 -4.87626
  318 2.15654 -6.31411 4.93205
  319 296.185 9.07652 86.1771
  320 333.840 69.4888 9.31692
  321 282.360 -15.8115 13.3876
  322 87.1465 -1.80333 -18.1624
  323 87.1466 -1.79329 18.1688
  324 -3.05791 4.14351 -1.39887
  325 -3.18090 4.29860 1.25129
  326 286.660 33.9896 -16.5118
  327 376.705 78.1714 5.59414
  328 281.775 -23.6264 -6.22683
  329 8.03224 5.23423 -10.5732
  330 10.1913 8.86425 12.3325
  331 159.590 -10.9839 42.5456
  332 159.470 -10.9006 -42.3005
  333 307.148 -0.845306 -0.794695
  334 307.113 -1.01623 0.869319
  335 254.255 -26.3047 15.4529
  336 259.251 1.01190 16.4230
  337 247.400 3.98593 13.9336
  338 26.2308 22.0609 -16.8167
  339 24.7498 19.9472 16.4730
  340 483.841 56.7048 -8.95117
  341 421.929 100.465 18.5634
  342 260.669 -18.6756 1.03821
  343 182.853 -0.842648 -1.93445
  344 182.850 -0.861083 1.97466
  345 308.555 41.1107 -24.7511
  346 123.147 -4.47456 43.2361
  347 123.148 -4.54019 -43.2823
  348 344.463 -4.25012 -24.9809
  349 197.825 -4.43798 -7.43819
  350 197.821 -4.27114 7.41098
  351 163.094 -9.05939 -28.3559
  352 162.797 -9.26449 28.4384
  353 127.720 -1.80665 13.7424
  354 127.658 -1.72872 -13.7280
  355 368.605 27.5987 -2.58077
  356 241.769 2.52791 -12.5603
  357 264.492 49.3660 129.030
  358 404.567 88.0889 8.66925
  359 593.481 51.1000 -66.4280
  360 227.861 -4.67553 -1.55815
  361 227.856 -4.49983 1.51744
  362 251.101 -16.8408 -4.05751
  363 586.755 69.8260 70.8137
  364 253.641 -6.36916 0.208859
  365 253.470 -6.53579 -0.00259333
  366 273.208 -16.2563 -5.70192
  367 236.243 -8.18048 -3.40260
  368 233.748 -7.72282 3.51657
  369 111.051 95.2181 -105.259
  370 186.591 -6.49239 -13.3749
  371 186.550 -6.54840 13.3028
  372 228.948 7.35314 -0.289500
  373 563.912 140.133 -93.6291
  374 112.577 -1.32649 -19.0268
  375 112.581 -1.28602 19.0675
  376 207.775 -16.0969 -21.1179
  377 204.162 -14.7220 21.6208
  378 282.091 20.0691 -24.7951
  379 264.220 -23.2429 -2.49458
  380 22.1448 43.8871 -37.5305
  381 198.351 -14.7194 -56.9343
  382 206.826 -16.5305 56.2561
  383 10.2051 2.34705 -8.84273
  384 10.1448 2.42130 8.87834
  385 247.076 -14.8941 4.46022
  386 170.888 -1.56075 -4.42194
  387 170.873 -1.55783 4.41979
  388 577.537 20.0121 30.4167
  389 246.652 -4.97652 0.103059
  390 246.716 -4.93921 -0.157595
  391 273.342 -16.1664 5.85545
  392 612.894 164.284 117.484
  393 286.578 -9.71210 -13.9931
  394 496.623 68.9944 33.4011
  395 321.039 -20.1264 -23.2928
  396 278.912 34.3373 -1.77656
  397 254.089 -13.4594 -65.0857
  398 301.542 -5.71952 -65.9398
  399 37.9291 15.2854 -22.8144
  400 38.1735 16.0112 22.7829
  401 284.096 -17.9498 -14.1508
  402 180.582 -7.30902 19.1173
  403 180.503 -7.62764 -19.3291
  404 296.495 -1.61125 7.94724
  405 246.091 -12.6112 -3.52692
  406 304.213 -1.98257 3.66832
  407 302.949 3.84485 30.8717
  408 325.061 -10.8981 11.0919
  409 146.917 -6.18542 32.9497
  410 146.952 -6.35378 -32.9931
  411 94.2708 53.2731 -78.2665
  412 282.788 5.61309 29.5304
  413 289.041 -21.4966 14.2998
  414 246.482 -26.1800 35.9116
  415 469.267 95.8100 -46.9738
  416 287.335 -14.1429 -21.1891
  417 320.660 -7.75241 -18.1716
  418 261.381 -11.5109 0.570465
  419 264.254 -10.9578 -1.86958
  420 247.820 -27.9803 -36.0461
  421 287.301 0.696728 -30.2927
  422 246.115 -26.9389 -22.0683
  423 200.857 -2.09147 -1.60951
  424 200.861 -2.11244 1.57900
  425 302.300 46.1419 -18.1801
  426 297.002 -1.62846 -7.82394
  427 347.391 58.5621 -18.8656
  428 294.493 -27.9543 -31.5041
  429 307.112 -2.27678 -3.46785
  430 269.599 -31.1154 23.6546
  431 401.672 80.7369 -4.36908
  432 214.226 -7.42670 7.54088
  433 214.813 -7.91926 -7.63196
  434 293.344 -2.07690 -0.249399
  435 293.269 -2.11234 0.228917
  436 285.874 -10.3170 14.2664
  437 211.198 -10.7720 13.5481
  438 211.347 -10.5361 -13.5442
  439 269.955 23.5478 11.0019
  440 269.965 -30.4023 -23.7732
  441 321.245 52.8013 19.8586
  442 287.067 -6.30878 17.4999
  443 364.163 30.3347 -96.4967
  444 201.805 -3.19177 -3.61834
  445 201.734 -3.24660 3.61860
  446 334.835 66.2126 -14.7414
  447 277.290 -4.40875 -1.79176
  448 277.220 -4.20547 1.82006
  449 271.207 6.12140 -24.8717
  450 312.308 28.2844 -29.9886
  451 182.300 -0.294524 -0.404451
  452 182.336 -0.306673 0.411117
  453 287.046 -7.68691 -16.9468
  454 239.055 -12.3682 71.0362
  455 312.503 168.900 -175.127
  456 301.747 43.3155 20.2447
  457 90.4860 24.5615 -56.9872
  458 88.3000 25.5951 56.1775
  459 159.145 23.9421 -84.8990
  460 160.455 25.8628 85.0944
  461 53.9253 93.9872 84.4641
  462 243.253 -22.5435 14.6729
  463 433.708 95.4992 23.4280
  464 47.3863 36.6524 -41.3543
  465 39.9816 33.2677 33.1629
  466 154.143 -0.861025 6.69576
  467 154.218 -0.918193 -6.69667
  468 369.215 80.6241 -2.10995
  469 18.9583 13.6394 11.1386
  470 18.9802 13.7278 -11.5446
  471 340.467 32.0881 -23.0421
  472 -0.842789 2.54123 -3.72073
  473 -0.923866 2.63417 3.60341
  474 282.259 -3.99076 -26.4608
  475 3.69903 -10.9396 0.370613
  476 3.39682 -9.67427 -0.526837
  477 310.369 -1.92870 1.42345
  478 309.833 -1.07167 -1.53678
  479 207.904 -20.9992 40.7962
  480 208.536 -21.3759 -40.7536
  481 411.493 49.5121 36.5126
  482 319.471 62.9665 -8.09264
  483 299.339 -8.47148 27.5416
  484 384.100 60.0453 -5.94936
  485 356.813 13.9261 5.45550
  486 356.507 79.3588 5.85507
  487 296.567 48.1506 7.11284
  488 167.138 57.6774 -115.641
  489 292.510 -14.2934 23.4564
  490 355.921 63.6477 14.8684
  491 327.152 -10.6594 43.3713
  492 282.563 -20.0106 11.1827
  493 226.568 -5.60316 -2.55754
  494 226.076 -5.63932 2.44275
  495 305.863 26.7065 29.1188
  496 488.891 97.1847 53.8162
  497 287.455 -12.2691 21.4711
  498 320.542 -3.23762 21.7430
  499 542.493 35.2861 29.8820
  500 135.364 -1.37919 52.4906
  501 169.049 -3.95650 60.1401
  502 135.262 -1.41254 -52.4082
  503 167.647 -4.44077 -60.6699
  504 453.472 122.874 -43.4130
  505 262.409 -19.1118 -0.856926
  506 280.030 -16.4506 -11.0485
  507 -2.76752 -2.61858 -4.43759
  508 -2.84534 -2.65904 4.57221
  509 469.294 123.989 118.974
  510 216.942 -3.32853 -1.40112
  511 216.897 -3.26314 1.36874
  512 238.321 -21.3223 -17.1046
  513 244.427 -24.3138 45.0165
  514 303.380 -18.3056 16.5890
  515 291.869 12.5460 -30.4985
  516 259.308 0.831042 -15.7605
  517 -7.86345 0.220332 5.57211
  518 -7.61700 0.129407 -5.50364
  519 299.192 -27.6419 25.6635
  520 189.621 -15.6624 48.8150
  521 173.945 0.171863 1.11097
  522 173.950 0.167991 -1.07770
  523 74.7341 7.26244 -38.5802
  524 74.9340 7.04547 38.6547
  525 189.278 -15.1618 -48.4162
  526 351.678 19.2277 -14.2459
  527 149.183 -4.84835 -20.9096
  528 149.157 -5.05807 20.9182
  529 -0.436403 -7.73752 -5.79050
  530 -0.409018 -7.97764 5.93879
</Section>

newXOutput 17

<Section columns = "stress_xx | stress_yy | stress_xy">
  1 334.948 0.408928 1.14594
  2 334.981 0.395936 -1.16263
  3 188.554 -0.132694 -0.446499
  4 -2.52646 -2.48725 -2.68514
  5 585.029 242.685 200.584
  6 588.698 246.687 -192.848
  7 -2.60930 -2.56308 2.78055
  8 188.499 -0.128362 0.449925
  9 339.814 -1.64663 0.896241
  10 337.902 -1.96716 0.744027
  11 331.818 -1.31279 3.18278
  12 324.988 -1.11766 5.21267
  13 315.889 -1.56106 6.71125
  14 297.771 -1.34654 9.59369
  15 276.619 -0.0771523 11.1688
  16 254.306 1.33274 10.8323
  17 241.399 4.01678 6.70080
  18 223.112 6.64757 -0.128159
  19 240.702 4.34137 -7.54488
  20 256.685 1.09955 -11.9148
  21 274.732 0.346599 -11.2975
  22 298.295 -1.48111 -10.4021
  23 316.118 -1.99263 -7.19124
  24 325.073 -2.31545 -5.28032
  25 336.728 -2.47998 -2.35691
  26 334.983 -1.13967 -1.25359
  27 339.578 -1.40176 -0.788143
  28 320.917 -1.31348 -1.35005
  29 303.315 -3.45548 -0.995989
  30 280.705 -4.31866 -0.538398
  31 262.790 -4.26636 -0.944915
  32 245.500 -4.23604 0.359185
  33 221.910 -2.15703 0.428015
  34 203.369 -0.989191 -0.344084
  35 186.113 0.00585405 0.896822
  36 181.690 1.20042 0.545517
  37 179.523 -0.0285220 2.13652
  38 174.299 -0.0161124 3.35218
  39 162.685 0.0362608 3.78986
  40 152.570 -0.398002 6.35179
  41 134.460 -0.345303 7.54531
  42 114.425 -0.210277 9.59450
  43 88.2966 -0.957535 11.4219
  44 67.8320 0.186843 15.9903
  45 38.7864 2.67771 13.3107
  46 5.14554 5.00628 8.61956
  47 -13.5060 4.07046 3.42364
  48 -19.5552 3.48400 0.0730886
  49 -15.8465 2.32412 -4.73887
  50 -8.87915 -0.550631 -3.78514
  51 -0.832815 -8.64124 -3.97453
  52 0.935312 -17.1105 -5.94165
  53 2.26787 -26.7205 -3.17235
  54 5.47193 -28.0620 -0.409726
  55 11.4124 -8.11663 11.5378
  56 30.5845 51.9130 47.4954
  57 130.351 183.788 153.043
  58 787.940 102.082 126.054
  59 659.696 27.3099 42.7549
  60 621.051 12.3300 14.4894
  61 605.222 8.49165 -1.81572
  62 620.050 12.7451 -16.0022
  63 671.441 30.7014 -49.7333
  64 765.898 116.207 -133.665
  65 152.050 206.775 -162.650
  66 32.3180 44.6617 -40.1137
  67 11.5438 -9.24082 -11.6489
  68 4.55690 -28.6136 0.0728662
  69 2.48088 -27.1604 2.76332
  70 1.07799 -17.5632 5.99624
  71 -0.835091 -8.93019 4.08496
  72 -9.13937 -0.519989 3.85370
  73 -16.1528 2.41568 4.71270
  74 -19.6031 3.49353 -0.210235
  75 -13.3502 4.00042 -3.46782
  76 5.25225 4.98272 -8.57611
  77 38.7717 2.69861 -13.2891
  78 67.8269 0.188303 -15.9782
  79 88.2681 -0.970461 -11.3929
  80 114.319 -0.183968 -9.56517
  81 134.353 -0.302304 -7.59143
  82 152.633 -0.420877 -6.41236
  83 162.775 0.00780149 -3.79106
  84 174.347 -0.0148768 -3.33626
  85 179.546 -0.0399715 -2.11702
  86 181.680 1.20958 -0.519601
  87 186.067 0.0135307 -0.888434
  88 203.355 -0.987687 0.336370
  89 221.938 -2.20693 -0.445497
  90 245.520 -4.32171 -0.360165
  91 262.862 -4.30919 0.934021
  92 280.746 -4.29182 0.545556
  93 303.282 -3.45580 0.991955
  94 320.782 -1.31602 1.36599
  95 289.507 -31.3128 -12.9277
  96 293.389 -31.0733 10.0982
  97 316.422 52.9020 -7.25102
  98 210.599 -6.23965 -70.3522
  99 207.631 -5.50001 70.6461
  100 364.161 73.5876 16.1929
  101 388.527 82.6549 -7.12952
  102 244.236 -10.8017 -6.92752
  103 246.841 -10.5716 5.84071
  104 316.975 -0.367161 -31.6743
  105 354.270 -8.42680 -0.871410
  106 310.594 -2.33720 31.6085
  107 365.527 -3.55948 7.75175
  108 58.1952 30.2498 39.9503
  109 57.5393 28.7787 -41.3787
  110 298.647 -12.9960 10.3320
  111 299.578 -13.4930 -11.5735
  112 436.428 84.9609 -2.22752
  113 193.779 -14.8967 -38.5658
  114 193.988 -14.8260 38.7736
  115 211.966 -12.4522 19.4598
  116 212.230 -12.1962 -19.3203
  117 178.818 35.6983 -106.722
  118 188.526 36.9228 107.758
  119 444.521 104.602 -18.7603
  120 474.197 95.8051 29.4263
  121 304.527 27.3116 24.1258
  122 284.348 -7.95678 1.38616
  123 284.722 -8.59375 -1.41512
  124 282.444 10.5103 -21.4224
  125 102.741 3.03272 -44.6796
  126 102.870 2.86869 44.5077
  127 302.985 -7.76020 -23.4194
  128 337.895 11.4414 29.3409
  129 212.500 -3.79736 5.67024
  130 212.551 -3.84036 -5.56644
  131 264.027 -21.4560 -9.51467
  132 262.154 -20.5740 9.81241
  133 288.886 -31.4425 32.6633
  134 342.445 14.9515 -28.4812
  135 305.639 -19.6038 17.9092
  136 361.505 77.7756 -0.552068
  137 299.732 -31.7914 -29.7592
  138 424.044 62.9031 12.0505
  139 396.420 21.5457 -57.8425
  140 273.625 18.3341 -0.741268
  141 301.930 -7.02058 23.2627
  142 308.373 -19.5397 -18.8415
  143 550.248 44.6289 14.0907
  144 327.406 -20.2749 -13.2284
  145 559.378 63.1048 -45.6626
  146 328.236 -19.9286 11.3444
  147 286.425 5.88177 25.6358
  148 8.47458 9.41382 0.614020
  149 8.94442 10.0572 -0.501419
  150 310.950 -5.48919 6.04956
  151 310.642 -5.02935 -5.82944
  152 237.216 -23.2472 -26.4987
  153 241.911 -22.7050 24.9925
  154 123.119 -4.30565 -35.3075
  155 123.117 -4.27576 35.2740
  156 255.922 -6.88036 -1.24426
  157 255.777 -6.45369 1.35180
  158 35.7843 43.7358 -42.9911
  159 46.1497 44.0569 45.1232
  160 316.505 29.1630 -28.1820
  161 177.395 -7.76997 -24.1400
  162 177.143 -8.12980 23.9845
  163 398.051 39.9485 98.0886
  164 302.869 -13.0106 70.3279
  165 278.603 -15.3003 1.16445
  166 278.079 -14.5956 -1.10656
  167 311.289 -2.62004 1.98098
  168 310.948 -2.56716 -2.08572
  169 312.253 -24.2986 -49.1873
  170 196.061 -4.30799 -9.64262
  171 196.083 -4.31372 9.58200
  172 292.158 1.00332 -26.9474
  173 383.761 48.4240 14.2277
  174 384.330 45.9742 -16.0471
  175 330.826 61.1565 13.0151
  176 526.576 140.509 65.0018
  177 230.037 -25.3278 49.7535
  178 317.216 75.5436 -152.669
  179 232.481 -23.2195 -51.1251
  180 308.933 -5.85188 -13.0655
  181 308.758 -5.60902 13.2990
  182 292.624 -21.9178 -5.41898
  183 40.7941 10.1871 -24.4184
  184 40.8798 10.4388 24.4789
  185 147.837 15.8302 -75.0254
  186 144.995 16.7590 74.2596
  187 337.880 57.8471 -19.3508
  188 291.296 -21.1480 5.28013
  189 174.190 -8.08293 -56.6766
  190 174.618 -7.70191 57.1018
  191 148.147 -4.69560 -25.6900
  192 148.061 -4.80140 25.8141
  193 453.345 88.4293 -32.4083
  194 150.941 94.2729 125.938
  195 412.560 87.6349 1.81222
  196 229.759 -3.69050 -2.25862
  197 229.593 -3.79022 2.24872
  198 259.141 -29.3717 29.2591
  199 81.6406 76.2954 -82.9669
  200 261.274 -30.2028 -30.3169
  201 176.915 -3.54862 12.7866
  202 176.889 -3.68524 -12.7276
  203 319.054 -18.2585 20.9627
  204 578.443 62.2111 51.7651
  205 219.098 -8.14365 -11.6439
  206 218.761 -8.17379 11.4549
  207 333.817 45.4046 26.9183
  208 203.370 -1.20141 -2.05072
  209 203.407 -1.23714 2.06610
  210 405.897 88.2451 -0.407456
  211 286.923 22.7995 -14.4796
  212 555.037 112.586 -75.8333
  213 303.745 40.1269 12.0806
  214 399.426 80.4924 -7.35449
  215 304.175 -11.4043 19.8952
  216 267.089 -8.92770 -0.492500
  217 266.472 -10.4565 1.20646
  218 18.6067 10.5104 11.1919
  219 18.7251 10.2635 -11.4373
  220 264.228 9.24382 -9.36727
  221 293.167 -10.8507 4.99953
  222 293.916 -10.6982 -5.24135
  223 16.3018 15.4073 -10.8818
  224 14.5408 16.6645 11.6013
  225 282.480 -4.98976 -0.661559
  226 282.464 -4.91926 0.778487
  227 83.6551 0.0805270 -26.8939
  228 83.6945 0.0724922 26.8734
  229 231.048 8.16778 -89.3845
  230 283.002 14.9898 20.3789
  231 302.733 -13.8600 -17.4882
  232 308.221 -9.81191 -27.9850
  233 280.656 -23.5610 54.8918
  234 337.528 -20.0991 2.38765
  235 346.644 47.7748 -26.5740
  236 293.203 -1.58595 -18.6842
  237 296.344 -1.20511 27.4838
  238 310.517 12.7022 31.8080
  239 485.895 109.017 59.1782
  240 585.671 22.6466 -11.9469
  241 297.822 9.64558 -30.3384
  242 305.492 -8.68852 28.0199
  243 203.282 -15.4709 -29.5118
  244 201.261 -15.4339 29.4818
  245 404.579 38.0732 -7.87886
  246 359.415 12.5768 20.1853
  247 -1.33649 -0.585478 -6.74070
  248 -1.31450 -0.415517 6.90602
  249 85.4758 17.5434 -48.7496
  250 85.4870 17.9904 48.6810
  251 276.609 2.53296 -19.6077
  252 296.082 -26.2849 2.83542
  253 109.642 35.8066 -76.4679
  254 99.5709 41.3708 72.4069
  255 47.8969 3.21040 -22.0477
  256 48.0016 3.16140 22.0878
  257 232.034 -6.72606 -5.01488
  258 231.986 -6.67234 5.05895
  259 318.376 -14.9467 -23.2514
  260 267.711 -24.3416 -52.9108
  261 354.913 4.24175 -16.4584
  262 280.517 -25.8842 5.52627
  263 294.762 24.1438 -111.495
  264 275.266 -27.2318 -10.9009
  265 238.312 -16.8596 -16.3710
  266 238.879 -17.6598 17.1664
  267 473.427 86.7725 -23.8764
  268 388.407 84.2092 1.93670
  269 393.774 13.3072 37.5995
  270 305.827 -3.76570 -13.7911
  271 193.997 -2.13707 4.76663
  272 194.008 -2.18398 -4.74798
  273 312.049 -26.1457 -8.75584
  274 330.997 -24.3153 -9.97538
  275 473.455 78.8360 12.4190
  276 227.580 6.11060 88.5512
  277 312.667 -25.8766 8.28414
  278 314.879 -2.97524 7.39214
  279 330.722 -3.97606 -27.4747
  280 287.575 133.523 163.523
  281 35.7272 49.9122 48.9371
  282 322.130 -2.49354 2.61360
  283 318.995 -2.31878 -3.38664
  284 291.848 -1.69032 16.7960
  285 265.056 10.9002 8.91427
  286 315.405 -2.56785 -7.23229
  287 334.457 -19.9133 33.7215
  288 133.599 4.45236 -59.9041
  289 133.361 4.16668 59.8596
  290 352.387 43.9519 24.7025
  291 309.471 -31.4234 -9.39767
  292 297.323 12.8170 28.5437
  293 297.373 -3.48244 0.398238
  294 297.383 -3.52595 -0.414271
  295 305.278 -3.38868 13.5475
  296 312.893 -30.9510 10.0322
  297 333.989 66.0459 2.67491
  298 455.068 90.9248 -101.940
  299 245.554 -14.0146 -9.65862
  300 241.980 -14.0974 10.3911
  301 328.315 -9.30345 24.7165
  302 371.752 80.2442 -6.01530
  303 231.949 -23.4302 -33.5101
  304 225.387 -22.1504 36.0105
  305 598.898 16.6269 10.7578
  306 615.351 22.6839 -35.1436
  307 305.601 -8.61044 -10.6119
  308 178.518 -1.39763 7.51824
  309 178.504 -1.38750 -7.50315
  310 93.0757 64.1285 85.7252
  311 305.479 -8.49500 10.4525
  312 324.897 14.0574 -32.0575
  313 158.565 -3.19340 -13.0153
  314 158.517 -3.18119 12.9338
  315 302.367 -5.24837 3.58704
  316 302.436 -5.43874 -3.76021
  317 1.99758 -6.34621 -5.14804
  318 2.31349 -6.66931 5.20904
  319 314.940 9.73854 91.8649
  320 355.358 73.9169 9.81333
  321 300.519 -16.8363 14.0718
  322 93.1475 -1.92342 -19.3672
  323 93.1483 -1.91276 19.3735
  324 -3.18646 4.42709 -1.44174
  325 -3.31913 4.59240 1.28532
  326 305.255 36.1868 -17.4759
  327 400.771 83.1932 5.66253
  328 299.881 -25.1488 -6.43460
  329 8.58766 5.78026 -11.3808
  330 10.8931 9.65302 13.2623
  331 170.103 -11.7048 45.3697
  332 169.977 -11.6159 -45.1096
  333 326.659 -0.916068 -0.831622
  334 326.622 -1.09766 0.910147
  335 270.656 -27.9922 16.5827
  336 276.178 1.08096 17.3906
  337 263.643 4.25517 14.7642
  338 28.0407 23.5508 -18.0456
  339 26.4652 21.2989 17.6826
  340 514.287 60.2524 -9.52218
  341 448.707 106.900 20.0261
  342 277.490 -19.8742 1.24111
  343 195.070 -0.891599 -2.07141
  344 195.066 -0.911135 2.11392
  345 328.469 43.7479 -26.1565
  346 131.344 -4.78245 46.1111
  347 131.345 -4.85262 -46.1610
  348 366.287 -4.46148 -26.8489
  349 210.890 -4.71209 -7.95471
  350 210.885 -4.53465 7.92544
  351 173.900 -9.64058 -30.2294
  352 173.585 -9.85853 30.3166
  353 136.371 -1.92116 14.6441
  354 136.306 -1.83835 -14.6289
  355 391.993 29.4305 -2.40536
  356 257.687 2.70756 -13.3114
  357 281.212 52.6625 137.389
  358 430.365 93.6908 9.40150
  359 630.201 54.2689 -70.4923
  360 242.740 -4.97125 -1.68175
  361 242.735 -4.78468 1.63863
  362 267.344 -17.9168 -4.43300
  363 623.131 74.1802 75.1595
  364 270.048 -6.78587 0.167154
  365 269.867 -6.96269 0.0524724
  366 290.794 -17.3050 -5.92007
  367 251.612 -8.70032 -3.68317
  368 248.969 -8.21321 3.79827
  369 118.108 101.752 -112.170
  370 198.939 -6.90058 -14.2728
  371 198.895 -6.95974 14.1955
  372 244.114 7.84130 -0.306942
  373 598.851 149.084 -99.6418
  374 120.225 -1.41157 -20.2821
  375 120.230 -1.36844 20.3249
  376 221.366 -17.1227 -22.5522
  377 217.530 -15.6591 23.0799
  378 300.384 21.3714 -26.2485
  379 281.253 -24.7337 -2.80811
  380 23.6379 47.0537 -40.1346
  381 211.225 -15.6920 -60.7115
  382 220.223 -17.6175 59.9908
  383 11.0653 2.49701 -9.46941
  384 11.0034 2.57584 9.50723
  385 263.082 -15.8446 4.84843
  386 182.349 -1.65597 -4.71844
  387 182.333 -1.65282 4.71598
  388 613.286 21.2517 32.2459
  389 262.645 -5.30108 0.0846531
  390 262.713 -5.26112 -0.142220
  391 290.937 -17.2091 6.08511
  392 650.537 174.798 124.934
  393 304.994 -10.3492 -14.7432
  394 527.828 73.3240 35.5169
  395 341.450 -21.3998 -25.0181
  396 297.049 36.5635 -1.88211
  397 270.348 -14.3232 -69.4164
  398 320.672 -6.03582 -70.3538
  399 40.5479 16.2882 -24.4213
  400 40.8104 17.0595 24.3877
  401 302.361 -19.1113 -14.8667
  402 192.531 -7.76972 20.3876
  403 192.447 -8.10882 -20.6137
  404 315.502 -1.72252 8.38624
  405 262.042 -13.4175 -3.84528
  406 323.609 -2.12285 3.85307
  407 322.435 4.08703 32.6173
  408 345.805 -11.5920 11.5329
  409 156.684 -6.58681 35.1259
  410 156.721 -6.76619 -35.1727
  411 100.458 56.7940 -83.4978
  412 301.087 5.97679 31.2513
  413 307.603 -22.8865 15.0046
  414 262.356 -27.8724 38.3557
  415 498.903 101.869 -50.0451
  416 305.820 -15.0619 -22.3492
  417 341.157 -8.25287 -19.0719
  418 278.249 -12.2532 0.509817
  419 281.293 -11.6666 -1.88963
  420 263.774 -29.7887 -38.5015
  421 305.849 0.738354 -32.0424
  422 262.016 -28.6696 -23.6109
  423 214.143 -2.21702 -1.72235
  424 214.147 -2.23922 1.68994
  425 321.856 49.1034 -19.2244
  426 316.038 -1.73988 -8.25596
  427 369.654 62.3162 -19.8100
  428 313.279 -29.7450 -33.7241
  429 326.666 -2.43296 -3.64378
  430 286.908 -33.1210 25.3374
  431 427.191 85.9760 -5.00388
  432 228.269 -7.89290 8.07906
  433 228.892 -8.41676 -8.17634
  434 312.069 -2.23207 -0.251375
  435 311.990 -2.26964 0.229642
  436 304.247 -10.9936 15.0300
  437 225.028 -11.4523 14.4826
  438 225.188 -11.2021 -14.4795
  439 287.545 25.0862 11.6526
  440 287.297 -32.3638 -25.4627
  441 341.953 56.1843 20.9608
  442 305.538 -6.72425 18.4749
  443 386.950 32.5204 -102.868
  444 215.138 -3.38595 -3.87079
  445 215.063 -3.44401 3.87079
  446 356.387 70.4392 -15.5150
  447 295.094 -4.71098 -1.85440
  448 295.020 -4.49496 1.88479
  449 288.830 6.52297 -26.3367
  450 332.410 30.0983 -31.6886
  451 194.501 -0.308935 -0.438087
  452 194.539 -0.321812 0.445094
  453 305.512 -8.19195 -17.8843
  454 254.381 -13.1696 75.7396
  455 331.653 180.322 -186.253
  456 321.256 46.1006 21.4055
  457 96.5074 26.1539 -60.8360
  458 94.1852 27.2522 59.9718
  459 169.492 25.4878 -90.5221
  460 170.871 27.5266 90.7242
  461 57.4393 100.576 90.1349
  462 259.000 -23.9855 15.7351
  463 461.098 101.737 25.3400
  464 50.5757 39.1013 -44.2056
  465 42.7028 35.4972 35.4861
  466 164.521 -0.912974 7.13646
  467 164.601 -0.973779 -7.13750
  468 392.913 85.7252 -2.21366
  469 20.3048 14.5514 11.9740
  470 20.3257 14.6463 -12.4050
  471 362.237 34.1558 -24.2244
  472 -0.766839 2.70658 -4.01364
  473 -0.850817 2.80537 3.88899
  474 300.497 -4.25145 -27.9849
  475 3.95437 -11.5286 0.327848
  476 3.63397 -10.1758 -0.491172
  477 330.071 -2.06060 1.49101
  478 329.505 -1.15392 -1.61049
  479 221.417 -22.3612 43.5206
  480 222.089 -22.7621 -43.4780
  481 437.363 52.8889 39.2333
  482 340.108 66.9876 -8.53680
  483 318.574 -9.02558 29.0734
  484 408.521 63.9494 -5.97473
  485 379.481 14.8675 5.49192
  486 379.414 84.4070 6.09381
  487 315.786 51.2492 7.52575
  488 177.860 61.5092 -123.223
  489 311.316 -15.2217 24.7438
  490 378.720 67.7345 15.5571
  491 347.883 -11.2830 46.3869
  492 300.725 -21.3027 11.7099
  493 241.366 -5.95702 -2.76179
  494 240.845 -5.99548 2.63975
  495 325.573 28.4224 30.7743
  496 519.682 103.307 57.2783
  497 305.948 -13.0686 22.6537
  498 341.041 -3.44935 22.8663
  499 576.264 37.4839 31.7072
  500 144.301 -1.49466 55.9808
  501 180.084 -4.23975 64.1249
  502 144.193 -1.53080 -55.8934
  503 178.596 -4.75693 -64.6875
  504 482.153 130.728 -46.4237
  505 279.337 -20.3375 -1.04968
  506 298.040 -17.5149 -11.5859
  507 -2.94395 -2.78600 -4.72320
  508 -3.02720 -2.82933 4.86701
  509 498.266 132.321 126.912
  510 231.177 -3.53465 -1.50160
  511 231.129 -3.46521 1.46729
  512 253.764 -22.6866 -18.3113
  513 260.153 -25.8919 48.0452
  514 322.819 -19.4900 17.4130
  515 310.720 13.3520 -32.2616
  516 276.241 0.886034 -16.6873
  517 -8.35791 0.241436 5.92306
  518 -8.09438 0.144666 -5.84955
  519 318.281 -29.4180 27.5091
  520 201.982 -16.6896 52.0592
  521 185.630 0.185021 1.19247
  522 185.635 0.180882 -1.15729
  523 79.7895 7.71933 -41.1929
  524 80.0030 7.48790 41.2711
  525 201.618 -16.1568 -51.6357
  526 374.060 20.4883 -14.8396
  527 159.163 -5.15421 -22.2854
  528 159.136 -5.37716 22.2944
  529 -0.456615 -8.22538 -6.15479
  530 -0.427739 -8.48209 6.31354
</Section>

newXOutput 18

<Section columns = "stress_xx | stress_yy | stress_xy">
  1 354.772 0.416649 1.20414
  2 354.808 0.403915 -1.22161
  3 200.443 -0.135844 -0.468297
  4 -2.68258 -2.64071 -2.85203
  5 617.909 257.561 212.306
  6 621.976 261.866 -204.120
  7 -2.77065 -2.72132 2.95342
  8 200.386 -0.131265 0.471887
  9 359.898 -1.75011 0.937262
  10 357.899 -2.08895 0.769385
  11 351.533 -1.39908 3.33759
  12 344.381 -1.19509 5.47481
  13 334.841 -1.66041 7.05757
  14 315.797 -1.42975 10.1064
  15 293.531 -0.0800065 11.7791
  16 270.017 1.42029 11.4332
  17 256.403 4.27007 7.07841
  18 237.122 7.04499 -0.135243
  19 255.669 4.61167 -7.97029
  20 272.523 1.17345 -12.5737
  21 291.549 0.363983 -11.9124
  22 316.349 -1.57308 -10.9580
  23 335.084 -2.11669 -7.56284
  24 344.471 -2.45713 -5.54715
  25 356.699 -2.62861 -2.46731
  26 354.836 -1.21849 -1.30261
  27 359.650 -1.49160 -0.823402
  28 340.011 -1.41220 -1.42047
  29 321.471 -3.68305 -1.04340
  30 297.634 -4.59339 -0.553665
  31 278.736 -4.53008 -0.992288
  32 260.494 -4.48729 0.391402
  33 235.607 -2.27990 0.458989
  34 216.056 -1.04097 -0.358429
  35 197.862 0.00956600 0.953712
  36 193.179 1.26925 0.588120
  37 190.863 -0.0271971 2.27512
  38 185.311 -0.0136123 3.56069
  39 172.998 0.0400392 4.02651
  40 162.265 -0.419870 6.73902
  41 143.059 -0.364065 8.00852
  42 121.806 -0.220713 10.1843
  43 94.0774 -1.01706 12.1314
  44 72.3400 0.195301 16.9843
  45 41.4696 2.83911 14.1584
  46 5.71262 5.31093 9.18841
  47 -14.1569 4.32030 3.66691
  48 -20.6568 3.70082 0.107465
  49 -16.7898 2.47532 -5.01252
  50 -9.42022 -0.578887 -4.01314
  51 -0.878518 -9.16941 -4.21497
  52 1.00188 -18.1361 -6.28981
  53 2.41825 -28.2614 -3.32878
  54 5.82798 -29.5787 -0.360317
  55 12.1471 -8.23263 12.3764
  56 32.4786 55.7872 50.5725
  57 137.880 195.686 162.203
  58 832.381 108.015 133.003
  59 697.518 28.8847 45.1083
  60 656.828 13.0489 15.2825
  61 640.167 8.98991 -1.91399
  62 655.775 13.4891 -16.8804
  63 709.852 32.4769 -52.4633
  64 809.248 122.976 -141.102
  65 160.781 220.063 -172.293
  66 34.3540 48.0351 -42.7578
  67 12.2827 -9.41954 -12.4861
  68 4.85245 -30.1720 0.00902605
  69 2.64319 -28.7328 2.89648
  70 1.15302 -18.6184 6.34865
  71 -0.881152 -9.47674 4.33255
  72 -9.69701 -0.546501 4.08619
  73 -17.1163 2.57246 4.98523
  74 -20.7101 3.71104 -0.252689
  75 -13.9945 4.24620 -3.71371
  76 5.82308 5.28613 -9.14250
  77 41.4522 2.86133 -14.1358
  78 72.3334 0.196868 -16.9720
  79 94.0464 -1.03078 -12.1011
  80 121.694 -0.192897 -10.1534
  81 142.946 -0.318515 -8.05736
  82 162.332 -0.444081 -6.80313
  83 173.093 0.00988997 -4.02785
  84 185.361 -0.0123094 -3.54397
  85 190.888 -0.0393434 -2.25463
  86 193.169 1.27891 -0.560826
  87 197.815 0.0176840 -0.944885
  88 216.042 -1.03940 0.350259
  89 235.637 -2.33273 -0.477474
  90 260.515 -4.57802 -0.392442
  91 278.812 -4.57558 0.980779
  92 297.677 -4.56521 0.561376
  93 321.435 -3.68330 1.03922
  94 339.868 -1.41498 1.43705
  95 306.909 -33.1988 -13.8826
  96 311.012 -32.9437 10.8874
  97 335.613 56.0826 -7.63996
  98 223.351 -6.64092 -74.7202
  99 220.215 -5.85487 75.0338
  100 386.059 77.9768 16.9554
  101 411.816 87.5796 -7.35269
  102 259.140 -11.4423 -7.41502
  103 261.889 -11.1996 6.26571
  104 336.057 -0.397893 -33.3376
  105 375.354 -8.90757 -1.21633
  106 329.321 -2.48244 33.2859
  107 387.215 -3.73093 8.52138
  108 61.8892 32.1143 42.5360
  109 61.1888 30.5554 -44.0517
  110 316.605 -13.7886 10.8002
  111 317.594 -14.3147 -12.1083
  112 462.441 89.9557 -2.38290
  113 205.685 -15.7988 -40.9649
  114 205.908 -15.7233 41.1830
  115 225.013 -13.1885 20.6905
  116 225.294 -12.9182 -20.5447
  117 189.630 37.8838 -113.301
  118 199.886 39.1989 114.398
  119 470.950 110.836 -20.1178
  120 502.288 101.463 31.3008
  121 322.998 28.9668 25.4343
  122 301.485 -8.44574 1.39248
  123 301.879 -9.11975 -1.42191
  124 299.679 11.1619 -22.6021
  125 109.211 3.19754 -47.4882
  126 109.348 3.02391 47.3050
  127 321.259 -8.23588 -24.6455
  128 358.165 12.1262 30.8265
  129 225.655 -4.01420 6.04313
  130 225.710 -4.05997 -5.93400
  131 280.011 -22.7390 -10.2127
  132 278.036 -21.8023 10.5229
  133 306.201 -33.3395 34.8057
  134 362.975 15.8502 -29.9131
  135 324.014 -20.7919 18.7703
  136 383.303 82.3974 -0.580434
  137 317.669 -33.7082 -31.7350
  138 449.117 66.7922 13.1720
  139 419.710 23.0111 -61.6016
  140 290.391 19.4685 -0.782921
  141 320.151 -7.44994 24.4859
  142 326.905 -20.7246 -19.7472
  143 582.366 47.2340 14.9033
  144 346.995 -21.5006 -13.7648
  145 592.016 66.7890 -48.3213
  146 347.871 -21.1307 11.7639
  147 303.865 6.24738 27.0399
  148 9.06036 10.0387 0.742411
  149 9.55790 10.7214 -0.621130
  150 329.558 -5.83618 6.32214
  151 329.234 -5.35052 -6.09067
  152 251.651 -24.6408 -28.1921
  153 256.615 -24.0651 26.5996
  154 130.882 -4.57447 -37.5021
  155 130.880 -4.54280 37.4660
  156 271.487 -7.29236 -1.36944
  157 271.334 -6.84042 1.48325
  158 38.0545 46.5511 -45.7961
  159 49.0678 46.8725 48.0607
  160 335.641 30.9205 -29.6908
  161 188.432 -8.23097 -25.6311
  162 188.165 -8.61225 25.4666
  163 421.291 42.6329 104.209
  164 320.876 -13.7733 74.7233
  165 295.423 -16.2205 1.10718
  166 294.871 -15.4753 -1.05085
  167 329.881 -2.80070 2.05918
  168 329.524 -2.74489 -2.16948
  169 330.849 -25.7365 -52.3428
  170 208.274 -4.55559 -10.2507
  171 208.296 -4.56152 10.1863
  172 309.893 1.06837 -28.4125
  173 406.643 51.3691 14.7478
  174 407.240 48.7692 -16.6677
  175 350.838 64.8204 13.6973
  176 557.489 148.889 69.0684
  177 243.976 -26.8698 52.8706
  178 335.780 80.3403 -161.888
  179 246.558 -24.6353 -54.3249
  180 327.488 -6.21586 -13.7260
  181 327.304 -5.95966 13.9725
  182 310.238 -23.2378 -5.56681
  183 43.4727 10.8059 -26.0069
  184 43.5656 11.0721 26.0707
  185 156.895 16.7692 -79.7053
  186 153.885 17.7526 78.8918
  187 358.278 61.3119 -20.3505
  188 308.834 -22.4212 5.42326
  189 184.887 -8.59565 -60.1966
  190 185.338 -8.19164 60.6467
  191 157.457 -4.97670 -27.2762
  192 157.366 -5.08859 27.4072
  193 480.057 93.8920 -34.7760
  194 160.000 100.124 133.663
  195 437.243 92.8137 2.01993
  196 243.881 -3.90490 -2.42186
  197 243.705 -4.01030 2.41138
  198 274.799 -31.1414 31.1554
  199 86.6785 81.1068 -88.1903
  200 277.048 -32.0240 -32.2808
  201 187.995 -3.75401 13.5797
  202 187.968 -3.89875 -13.5175
  203 338.197 -19.3657 21.9758
  204 612.103 65.8365 54.7493
  205 232.585 -8.62075 -12.3983
  206 232.229 -8.65220 12.1977
  207 353.945 48.1313 28.3183
  208 216.049 -1.26532 -2.18738
  209 216.087 -1.30308 2.20351
  210 430.183 93.4889 -0.610238
  211 304.420 24.1957 -15.2773
  212 587.529 119.225 -80.3371
  213 322.199 42.5530 12.7337
  214 423.274 85.3246 -7.48847
  215 322.484 -12.1031 20.9059
  216 283.269 -9.46791 -0.601366
  217 282.617 -11.0854 1.36324
  218 19.8819 11.1624 11.9700
  219 20.0050 10.9011 -12.2298
  220 280.474 9.82424 -9.88917
  221 310.800 -11.5143 5.18311
  222 311.593 -11.3527 -5.43755
  223 17.3585 16.4537 -11.6774
  224 15.4905 17.7882 12.4443
  225 299.509 -5.30389 -0.658639
  226 299.493 -5.22945 0.782599
  227 89.0402 0.0756187 -28.5789
  228 89.0829 0.0671454 28.5567
  229 244.923 8.66522 -94.9057
  230 300.274 15.9119 21.5016
  231 320.950 -14.7059 -18.3536
  232 326.791 -10.4103 -29.4447
  233 297.452 -24.9861 58.3507
  234 357.656 -21.3011 2.79267
  235 367.488 50.6373 -27.9246
  236 310.984 -1.68513 -19.6885
  237 314.296 -1.27855 28.9637
  238 329.280 13.4681 33.5166
  239 514.329 115.764 63.1557
  240 619.622 23.9663 -12.6248
  241 315.882 10.2317 -31.9881
  242 323.913 -9.21970 29.4925
  243 215.780 -16.3977 -31.3568
  244 213.644 -16.3585 31.3242
  245 428.517 40.4608 -8.71762
  246 380.863 13.3459 21.0895
  247 -1.38480 -0.593202 -7.11669
  248 -1.36245 -0.413301 7.29324
  249 90.8421 18.5977 -51.8475
  250 90.8555 19.0706 51.7729
  251 293.517 2.69750 -20.6879
  252 313.884 -27.8673 2.81226
  253 116.409 37.9953 -81.2657
  254 105.732 43.9010 76.9609
  255 51.0643 3.39808 -23.4595
  256 51.1769 3.34599 23.5015
  257 246.273 -7.11977 -5.36187
  258 246.221 -7.06224 5.40721
  259 337.488 -15.8558 -24.4010
  260 283.783 -25.8166 -56.2463
  261 376.087 4.50591 -17.1389
  262 297.428 -27.4373 6.01737
  263 312.206 25.6902 -118.325
  264 291.875 -28.8662 -11.7080
  265 252.845 -17.8619 -17.4458
  266 253.439 -18.7108 18.2900
  267 501.473 91.8767 -25.3769
  268 411.733 89.1965 1.98384
  269 416.978 14.2407 40.1703
  270 324.251 -3.99775 -14.5121
  271 206.126 -2.25603 5.07128
  272 206.137 -2.30574 -5.05179
  273 330.762 -27.7248 -9.05232
  274 350.736 -25.7724 -10.8202
  275 501.494 83.4620 13.2089
  276 241.256 6.48202 94.0232
  277 331.413 -27.4383 8.55126
  278 333.729 -3.16814 7.75259
  279 350.551 -4.22273 -28.8592
  280 304.162 141.991 173.351
  281 37.9784 53.2595 52.1105
  282 341.315 -2.65728 2.72432
  283 338.014 -2.47617 -3.53703
  284 309.557 -1.79320 17.7001
  285 281.347 11.5800 9.40994
  286 334.282 -2.73660 -7.58427
  287 354.332 -21.0872 35.9729
  288 141.862 4.69460 -63.6537
  289 141.610 4.39215 63.6059
  290 373.541 46.5951 25.9202
  291 328.001 -33.3178 -10.1760
  292 315.371 13.6014 30.1004
  293 315.210 -3.71384 0.396445
  294 315.222 -3.75983 -0.413018
  295 323.676 -3.59704 14.2577
  296 331.611 -32.8154 10.8512
  297 354.200 69.9958 2.81436
  298 481.483 96.7705 -108.381
  299 260.514 -14.8471 -10.3279
  300 256.739 -14.9335 11.1008
  301 348.000 -9.87165 25.9358
  302 394.122 85.0077 -6.27319
  303 246.054 -24.8427 -35.6301
  304 239.118 -23.4865 38.2719
  305 633.532 17.5970 11.3594
  306 650.883 23.9951 -37.1076
  307 323.945 -9.14320 -11.1189
  308 189.730 -1.47635 7.98526
  309 189.715 -1.46565 -7.96949
  310 98.8141 68.1019 91.1047
  311 323.815 -9.02027 10.9512
  312 344.457 14.8992 -33.7419
  313 168.560 -3.38005 -13.8179
  314 168.508 -3.36714 13.7315
  315 320.491 -5.58350 3.72802
  316 320.565 -5.78439 -3.91045
  317 2.13738 -6.67213 -5.41340
  318 2.47202 -7.01658 5.47978
  319 333.576 10.4075 97.5449
  320 376.787 78.3209 10.2954
  321 318.597 -17.8573 14.7322
  322 99.1701 -2.04346 -20.5709
  323 99.1717 -2.03218 20.5771
  324 -3.30595 4.71154 -1.47857
  325 -3.44849 4.88706 1.31343
  326 323.787 38.3758 -18.4241
  327 424.710 88.1929 5.69654
  328 317.904 -26.6648 -6.61887
  329 9.14535 6.34979 -12.2005
  330 11.5974 10.4653 14.2048
  331 180.600 -12.4243 48.1916
  332 180.468 -12.3296 -47.9167
  333 346.056 -0.988380 -0.866769
  334 346.016 -1.18056 0.949077
  335 286.990 -29.6718 17.7235
  336 293.061 1.15024 18.3434
  337 279.854 4.52483 15.5832
  338 29.8576 25.0429 -19.2872
  339 28.1882 22.6531 18.9052
  340 544.518 63.7729 -10.0900
  341 475.323 113.304 21.5132
  342 294.243 -21.0672 1.45895
  343 207.287 -0.939692 -2.20919
  344 207.282 -0.960315 2.25395
  345 348.303 46.3730 -27.5335
  346 139.537 -5.09140 48.9847
  347 139.539 -5.16613 -49.0384
  348 387.976 -4.66402 -28.7394
  349 223.937 -4.98359 -8.47329
  350 223.932 -4.79563 8.44193
  351 184.696 -10.2190 -32.1003
  352 184.363 -10.4497 32.1921
  353 145.037 -2.03493 15.5438
  354 144.968 -1.94729 -15.5279
  355 415.240 31.2618 -2.19059
  356 273.577 2.88851 -14.0524
  357 297.823 55.9597 145.717
  358 456.021 99.2608 10.1507
  359 666.588 57.4098 -74.5139
  360 257.580 -5.26499 -1.80748
  361 257.574 -5.06765 1.76197
  362 283.527 -18.9872 -4.82011
  363 659.186 78.4991 79.4611
  364 286.393 -7.20146 0.119290
  365 286.201 -7.38838 0.113651
  366 308.304 -18.3494 -6.11997
  367 266.934 -9.21705 -3.96959
  368 264.145 -8.70061 4.08511
  369 125.122 108.307 -119.065
  370 211.273 -7.30581 -15.1710
  371 211.226 -7.36806 15.0884
  372 259.265 8.32921 -0.324163
  373 633.478 157.988 -105.625
  374 127.889 -1.49622 -21.5355
  375 127.894 -1.45043 21.5804
  376 234.923 -18.1427 -23.9890
  377 230.867 -16.5908 24.5403
  378 318.614 22.6696 -27.6787
  379 298.215 -26.2174 -3.13814
  380 25.1325 50.2484 -42.7498
  381 224.056 -16.6635 -64.4857
  382 233.572 -18.7026 63.7230
  383 11.9469 2.64619 -10.1004
  384 11.8838 2.72957 10.1405
  385 279.029 -16.7899 5.24666
  386 193.815 -1.75014 -5.01497
  387 193.797 -1.74676 5.01217
  388 648.713 22.4804 34.0522
  389 278.583 -5.62463 0.0634540
  390 278.654 -5.58200 -0.123982
  391 308.456 -18.2476 6.29667
  392 687.804 185.260 132.337
  393 323.328 -10.9850 -15.4726
  394 558.807 77.6218 37.6190
  395 361.742 -22.6649 -26.7627
  396 315.129 38.7822 -1.98614
  397 286.524 -15.1828 -73.7453
  398 339.686 -6.34429 -74.7687
  399 43.1771 17.2889 -26.0382
  400 43.4579 18.1055 26.0025
  401 320.544 -20.2684 -15.5566
  402 204.467 -8.22722 21.6568
  403 204.379 -8.58671 -21.8973
  404 334.417 -1.83419 8.81497
  405 277.937 -14.2195 -4.17281
  406 342.899 -2.26398 4.03114
  407 341.835 4.32783 34.3269
  408 366.437 -12.2817 11.9397
  409 166.446 -6.98682 37.2990
  410 166.485 -7.17720 -37.3493
  411 106.631 60.3110 -88.7296
  412 319.317 6.33937 32.9434
  413 326.079 -24.2711 15.6812
  414 278.161 -29.5584 40.8049
  415 528.342 107.888 -53.1078
  416 324.224 -15.9778 -23.4805
  417 361.547 -8.75103 -19.9367
  418 295.049 -12.9925 0.438196
  419 298.263 -12.3726 -1.89802
  420 279.660 -31.5901 -40.9622
  421 324.323 0.779584 -33.7609
  422 277.855 -30.3924 -25.1611
  423 227.414 -2.34091 -1.83575
  424 227.417 -2.36431 1.80145
  425 341.338 52.0514 -20.2491
  426 334.981 -1.85159 -8.67784
  427 391.809 66.0529 -20.7186
  428 331.963 -31.5268 -35.9573
  429 346.112 -2.58959 -3.81355
  430 304.137 -35.1184 27.0319
  431 452.560 91.1983 -5.67705
  432 242.282 -8.35563 8.62095
  433 242.940 -8.91060 -8.72444
  434 330.696 -2.38898 -0.251737
  435 330.611 -2.42867 0.228766
  436 322.538 -11.6687 15.7724
  437 238.826 -12.1281 15.4202
  438 238.996 -11.8639 -15.4179
  439 305.083 26.6207 12.2936
  440 304.549 -34.3175 -27.1637
  441 362.575 59.5512 22.0374
  442 323.929 -7.13901 19.4280
  443 409.561 34.7253 -109.229
  444 228.454 -3.57792 -4.12437
  445 228.374 -3.63916 4.12406
  446 377.845 74.6437 -16.2644
  447 312.815 -5.01399 -1.91073
  448 312.738 -4.78532 1.94324
  449 306.397 6.92382 -27.7791
  450 352.424 31.9041 -33.3539
  451 206.705 -0.322726 -0.472445
  452 206.743 -0.336324 0.479782
  453 323.898 -8.69601 -18.7999
  454 269.632 -13.9680 80.4382
  455 350.609 191.759 -197.311
  456 340.691 48.8737 22.5445
  457 102.526 27.7408 -64.6901
  458 100.069 28.9033 63.7714
  459 179.807 27.0276 -96.1399
  460 181.253 29.1833 96.3479
  461 60.9421 107.201 95.8080
  462 274.690 -25.4202 16.8063
  463 488.306 107.959 27.2902
  464 53.7681 41.5504 -47.0676
  465 45.4301 37.7278 37.8221
  466 174.908 -0.964274 7.57630
  467 174.993 -1.02869 -7.57748
  468 416.499 90.7940 -2.31313
  469 21.6611 15.4638 12.8202
  470 21.6807 15.5652 -13.2762
  471 383.895 36.2154 -25.3662
  472 -0.675042 2.87145 -4.31191
  473 -0.761623 2.97605 4.17997
  474 318.664 -4.51138 -29.4812
  475 4.21073 -12.1007 0.277007
  476 3.87239 -10.6601 -0.447032
  477 349.656 -2.19280 1.55554
  478 349.061 -1.23733 -1.68101
  479 234.886 -23.7187 46.2447
  480 235.598 -24.1436 -46.2026
  481 463.048 56.2749 41.9852
  482 360.664 70.9876 -8.96991
  483 337.721 -9.57813 30.5701
  484 432.799 67.8421 -5.95812
  485 402.016 15.8109 5.49112
  486 402.216 89.4265 6.31532
  487 334.937 54.3345 7.93153
  488 188.530 65.3391 -130.789
  489 330.037 -16.1469 25.9995
  490 401.407 71.8030 16.2112
  491 368.487 -11.8960 49.4159
  492 318.806 -22.5896 12.2122
  493 256.126 -6.30846 -2.96969
  494 255.575 -6.34921 2.84045
  495 345.199 30.1309 32.3968
  496 550.258 109.386 60.7243
  497 324.360 -13.8658 23.8079
  498 361.436 -3.66022 23.9521
  499 609.754 39.6637 33.5131
  500 153.227 -1.61288 59.4691
  501 191.089 -4.52525 68.1060
  502 153.113 -1.65188 -59.3768
  503 189.516 -5.07541 -68.7011
  504 510.649 138.542 -49.4455
  505 296.196 -21.5574 -1.25759
  506 315.971 -18.5753 -12.1008
  507 -3.11939 -2.95254 -5.00756
  508 -3.20810 -2.99877 5.16059
  509 526.969 140.659 134.845
  510 245.382 -3.73886 -1.60281
  511 245.331 -3.66539 1.56660
  512 269.152 -24.0440 -19.5251
  513 275.810 -27.4649 51.0764
  514 342.164 -20.6698 18.2047
  515 329.496 14.1545 -33.9933
  516 293.128 0.941012 -17.5996
  517 -8.84875 0.263312 6.27152
  518 -8.56806 0.160723 -6.19292
  519 337.267 -31.1860 29.3697
  520 214.307 -17.7147 55.3014
  521 197.321 0.198380 1.27476
  522 197.328 0.193974 -1.23769
  523 84.8526 8.17294 -43.8101
  524 85.0799 7.92707 43.8916
  525 213.923 -17.1497 -54.8535
  526 396.316 21.7468 -15.3927
  527 169.146 -5.45796 -23.6587
  528 169.117 -5.69404 23.6680
  529 -0.475756 -8.70986 -6.51644
  530 -0.445428 -8.98321 6.68571
</Section>

newXOutput 19

<Section columns = "stress_xx | stress_yy | stress_xy">
  1 374.475 0.422534 1.26094
  2 374.513 0.410165 -1.27916
  3 212.339 -0.138431 -0.489446
  4 -2.83848 -2.79393 -3.01880
  5 650.393 272.400 223.936
  6 654.874 277.013 -215.302
  7 -2.93179 -2.87933 3.12617
  8 212.280 -0.133607 0.493196
  9 379.854 -1.85359 0.976734
  10 377.773 -2.21057 0.792588
  11 371.135 -1.48577 3.48780
  12 363.671 -1.27328 5.73026
  13 353.705 -1.75993 7.39615
  14 333.756 -1.51283 10.6097
  15 310.398 -0.0826282 12.3798
  16 285.703 1.50832 12.0257
  17 271.394 4.52361 7.45146
  18 251.135 7.44044 -0.142226
  19 270.624 4.88186 -8.39057
  20 288.334 1.24794 -13.2232
  21 308.323 0.380926 -12.5175
  22 334.334 -1.66496 -11.5039
  23 353.959 -2.24066 -7.92621
  24 363.766 -2.59844 -5.80734
  25 376.552 -2.77652 -2.57388
  26 374.569 -1.29806 -1.34862
  27 379.596 -1.58162 -0.857213
  28 358.997 -1.51256 -1.48941
  29 339.537 -3.91169 -1.08925
  30 314.492 -4.86844 -0.567028
  31 294.627 -4.79331 -1.03844
  32 275.447 -4.73694 0.424613
  33 249.282 -2.40140 0.490382
  34 228.737 -1.09163 -0.372022
  35 209.621 0.0136465 1.01066
  36 204.679 1.33741 0.631585
  37 202.213 -0.0255286 2.41416
  38 196.332 -0.0107267 3.76898
  39 183.324 0.0439882 4.26301
  40 171.976 -0.441391 7.12502
  41 151.677 -0.382497 8.47064
  42 129.211 -0.230823 10.7728
  43 99.8861 -1.07650 12.8403
  44 76.8772 0.203435 17.9775
  45 44.1815 2.99987 15.0077
  46 6.30729 5.61464 9.76054
  47 -14.7859 4.56961 3.91346
  48 -21.7445 3.91752 0.145215
  49 -17.7277 2.62719 -5.28360
  50 -9.95969 -0.606446 -4.24015
  51 -0.923502 -9.69621 -4.45449
  52 1.06936 -19.1567 -6.63533
  53 2.56960 -29.7875 -3.48045
  54 6.18556 -31.0685 -0.302483
  55 12.8841 -8.30467 13.2279
  56 34.3702 59.7299 53.6600
  57 145.341 207.624 171.313
  58 876.305 113.899 139.852
  59 734.970 30.4453 47.4280
  60 692.272 13.7622 16.0637
  61 674.797 9.48465 -2.01063
  62 691.169 14.2275 -17.7456
  63 747.877 34.2368 -55.1531
  64 852.110 129.691 -148.439
  65 169.428 233.383 -181.872
  66 36.3908 51.4720 -45.4154
  67 13.0233 -9.55349 -13.3351
  68 5.14919 -31.7042 -0.0624935
  69 2.80632 -30.2909 3.02515
  70 1.22891 -19.6688 6.69850
  71 -0.926516 -10.0219 4.57925
  72 -10.2531 -0.572336 4.31771
  73 -18.0746 2.72988 5.25524
  74 -21.8036 3.92845 -0.298459
  75 -14.6173 4.49150 -3.96286
  76 6.42119 5.58863 -9.71221
  77 44.1611 3.02340 -14.9842
  78 76.8689 0.205110 -17.9649
  79 99.8527 -1.09103 -12.8086
  80 129.093 -0.201515 -10.7404
  81 151.558 -0.334412 -8.52218
  82 172.046 -0.466929 -7.19265
  83 183.424 0.0121592 -4.26450
  84 196.385 -0.00935771 -3.75146
  85 202.240 -0.0383695 -2.39272
  86 204.669 1.34756 -0.602938
  87 209.573 0.0222018 -1.00140
  88 228.723 -1.09001 0.363399
  89 249.314 -2.45715 -0.509859
  90 275.469 -4.83271 -0.425713
  91 294.707 -4.84148 1.02632
  92 314.537 -4.83896 0.575302
  93 339.498 -3.91185 1.08495
  94 358.847 -1.51560 1.50658
  95 324.233 -35.0767 -14.8529
  96 328.554 -34.8060 11.6932
  97 354.735 59.2490 -8.02188
  98 236.055 -7.04338 -79.0842
  99 232.752 -6.21090 79.4177
  100 407.858 82.3429 17.6911
  101 434.992 92.4777 -7.55223
  102 274.001 -12.0789 -7.90798
  103 276.893 -11.8238 6.69678
  104 355.057 -0.429215 -34.9666
  105 396.319 -9.38286 -1.59214
  106 347.969 -2.62737 34.9310
  107 408.774 -3.89629 9.32115
  108 65.5887 33.9756 45.1312
  109 64.8435 32.3294 -46.7339
  110 334.482 -14.5788 11.2496
  111 335.529 -15.1338 -12.6231
  112 488.310 94.9157 -2.53984
  113 217.567 -16.6974 -43.3621
  114 217.803 -16.6172 43.5902
  115 238.037 -13.9200 21.9222
  116 238.332 -13.6357 -21.7703
  117 200.401 40.0642 -119.869
  118 211.197 41.4714 121.026
  119 497.226 117.037 -21.4939
  120 530.206 107.085 33.1778
  121 341.404 30.6164 26.7211
  122 318.549 -8.93359 1.39047
  123 318.964 -9.64434 -1.42023
  124 316.864 11.8128 -23.7644
  125 115.685 3.35961 -50.2980
  126 115.831 3.17646 50.1034
  127 339.456 -8.71040 -25.8461
  128 378.338 12.8080 32.2746
  129 238.793 -4.22875 6.41775
  130 238.851 -4.27729 -6.30341
  131 295.936 -24.0155 -10.9214
  132 293.861 -23.0240 11.2434
  133 323.431 -35.2287 36.9583
  134 383.407 16.7453 -31.3074
  135 342.307 -21.9756 19.6038
  136 405.008 86.9927 -0.608113
  137 335.516 -35.6169 -33.7227
  138 474.030 70.6770 14.3320
  139 442.835 24.4899 -65.3747
  140 307.116 20.6015 -0.824048
  141 338.298 -7.87812 25.6843
  142 345.354 -21.9052 -20.6238
  143 614.233 49.8190 15.7083
  144 366.485 -22.7214 -14.2701
  145 624.398 70.4446 -50.9582
  146 367.406 -22.3277 12.1526
  147 321.250 6.61282 28.4224
  148 9.65240 10.6676 0.880886
  149 10.1774 11.3895 -0.750742
  150 348.072 -6.18345 6.58369
  151 347.734 -5.67227 -6.34111
  152 266.040 -26.0278 -29.8889
  153 271.270 -25.4186 28.2110
  154 138.650 -4.84317 -39.6949
  155 138.648 -4.80975 39.6561
  156 287.001 -7.70222 -1.49949
  157 286.841 -7.22517 1.61952
  158 40.3278 49.3751 -48.6136
  159 51.9889 49.6945 51.0106
  160 354.704 32.6709 -31.1722
  161 199.461 -8.68916 -27.1198
  162 199.180 -9.09178 26.9463
  163 444.350 45.3381 110.325
  164 338.779 -14.5302 79.1177
  165 312.176 -17.1365 1.03633
  166 311.594 -16.3511 -0.982106
  167 348.377 -2.98300 2.13267
  168 348.003 -2.92431 -2.24842
  169 349.342 -27.1652 -55.5063
  170 220.479 -4.80077 -10.8589
  171 220.502 -4.80690 10.7908
  172 327.567 1.13376 -29.8538
  173 429.400 54.3055 15.2286
  174 430.025 51.5560 -17.2474
  175 370.773 68.4667 14.3652
  176 588.178 157.225 73.1328
  177 257.864 -28.4070 55.9877
  178 354.202 85.1451 -171.069
  179 260.584 -26.0470 -57.5244
  180 345.959 -6.57953 -14.3699
  181 345.765 -6.31021 14.6292
  182 327.776 -24.5522 -5.69448
  183 46.1654 11.4227 -27.6022
  184 46.2655 11.7031 27.6691
  185 165.931 17.7024 -84.3832
  186 162.755 18.7402 83.5222
  187 378.593 64.7599 -21.3275
  188 326.296 -23.6888 5.54666
  189 195.560 -9.10913 -63.7133
  190 196.036 -8.68223 64.1882
  191 166.771 -5.25636 -28.8598
  192 166.674 -5.37429 28.9975
  193 506.588 99.3476 -37.1784
  194 169.016 105.971 141.369
  195 461.799 97.9594 2.23748
  196 257.974 -4.11744 -2.58731
  197 257.789 -4.22845 2.57625
  198 290.394 -32.9037 33.0583
  199 91.7077 85.9221 -93.4162
  200 292.759 -33.8378 -34.2514
  201 199.075 -3.95757 14.3717
  202 199.047 -4.11036 -14.3064
  203 357.249 -20.4689 22.9571
  204 645.487 69.4332 57.7057
  205 246.047 -9.09425 -13.1551
  206 245.671 -9.12695 12.9431
  207 373.988 50.8459 29.6876
  208 228.720 -1.32797 -2.32485
  209 228.760 -1.36775 2.34169
  210 454.345 98.7026 -0.831576
  211 321.866 25.5886 -16.0632
  212 619.775 125.819 -84.8134
  213 340.591 44.9700 13.3756
  214 446.996 90.1349 -7.58797
  215 340.713 -12.8001 21.8917
  216 299.390 -10.0060 -0.718306
  217 298.704 -11.7115 1.52844
  218 21.1694 11.8139 12.7569
  219 21.2971 11.5383 -13.0309
  220 296.687 10.4049 -10.4041
  221 328.355 -12.1761 5.35318
  222 329.191 -12.0053 -5.61997
  223 18.4194 17.5094 -12.4856
  224 16.4447 18.9210 13.3002
  225 316.467 -5.61806 -0.651140
  226 316.450 -5.53972 0.782102
  227 94.4418 0.0696387 -30.2641
  228 94.4879 0.0607352 30.2400
  229 258.734 9.16128 -100.419
  230 317.497 16.8324 22.6078
  231 339.086 -15.5494 -19.1947
  232 345.282 -11.0068 -30.8733
  233 314.163 -26.4057 61.8119
  234 377.675 -22.4968 3.22486
  235 388.239 53.4865 -29.2417
  236 328.702 -1.78426 -20.6752
  237 332.181 -1.35166 30.4179
  238 347.969 14.2312 35.1949
  239 542.549 122.504 67.1599
  240 653.283 25.2755 -13.2952
  241 333.878 10.8160 -33.6108
  242 342.258 -9.74938 30.9350
  243 228.254 -17.3200 -33.2013
  244 226.004 -17.2786 33.1659
  245 452.304 42.8497 -9.59279
  246 402.197 14.1136 21.9554
  247 -1.42912 -0.597663 -7.48755
  248 -1.40653 -0.407900 7.67543
  249 96.2100 19.6472 -54.9506
  250 96.2259 20.1457 54.8697
  251 310.379 2.86275 -21.7522
  252 331.606 -29.4427 2.76792
  253 123.165 40.1783 -86.0647
  254 111.885 46.4247 81.5172
  255 54.2507 3.58431 -24.8748
  256 54.3714 3.52912 24.9186
  257 260.479 -7.51045 -5.71219
  258 260.425 -7.44906 5.75862
  259 356.512 -16.7618 -25.5181
  260 299.780 -27.2864 -59.5841
  261 397.147 4.77044 -17.7821
  262 314.269 -28.9832 6.52370
  263 329.541 27.2408 -125.139
  264 308.416 -30.4930 -12.5281
  265 267.336 -18.8585 -18.5256
  266 267.954 -19.7558 19.4185
  267 529.344 96.9456 -26.8773
  268 434.950 94.1533 2.02318
  269 440.025 15.1860 42.7637
  270 342.597 -4.22938 -15.2179
  271 218.251 -2.37337 5.37645
  272 218.264 -2.42587 -5.35618
  273 349.385 -29.2975 -9.32208
  274 370.369 -27.2222 -11.6884
  275 529.357 88.0547 13.9998
  276 254.868 6.85236 99.4873
  277 350.069 -28.9935 8.79167
  278 352.486 -3.36170 8.10235
  279 370.285 -4.46887 -30.2078
  280 320.598 150.469 183.131
  281 40.2307 56.6316 55.2955
  282 360.395 -2.82176 2.82959
  283 356.931 -2.63478 -3.68106
  284 327.204 -1.89573 18.5885
  285 297.603 12.2595 9.89884
  286 353.066 -2.90617 -7.92573
  287 374.091 -22.2531 38.2390
  288 150.114 4.93283 -67.4032
  289 149.847 4.61374 67.3521
  290 394.596 49.2271 27.1028
  291 346.438 -35.2044 -10.9744
  292 333.357 14.3840 31.6322
  293 332.963 -3.94652 0.391904
  294 332.976 -3.99497 -0.408971
  295 341.995 -3.80497 14.9533
  296 350.234 -34.6718 11.6906
  297 374.334 73.9259 2.95081
  298 507.674 102.633 -114.826
  299 275.429 -15.6747 -11.0038
  300 271.455 -15.7645 11.8165
  301 367.590 -10.4380 27.1201
  302 416.394 89.7432 -6.51844
  303 260.114 -26.2493 -37.7522
  304 252.808 -24.8170 40.5337
  305 667.861 18.5596 11.9535
  306 686.094 25.2948 -39.0466
  307 342.203 -9.67521 -11.6094
  308 200.945 -1.55410 8.45174
  309 200.930 -1.54285 -8.43532
  310 104.542 72.0710 96.4853
  311 342.065 -9.54475 11.4336
  312 363.931 15.7371 -35.3918
  313 178.561 -3.56523 -14.6189
  314 178.506 -3.55164 14.5278
  315 338.528 -5.91921 3.86033
  316 338.607 -6.13048 -4.05186
  317 2.27887 -6.99004 -5.67237
  318 2.63213 -7.35597 5.74432
  319 352.094 11.0832 103.217
  320 398.125 82.7008 10.7634
  321 336.595 -18.8748 15.3694
  322 105.214 -2.16344 -21.7736
  323 105.216 -2.15154 21.7796
  324 -3.41646 4.99685 -1.50939
  325 -3.56905 5.18257 1.33565
  326 342.255 40.5568 -19.3565
  327 448.523 93.1705 5.69675
  328 335.845 -28.1744 -6.78002
  329 9.70527 6.94263 -13.0321
  330 12.3042 11.3010 15.1597
  331 191.080 -13.1424 51.0113
  332 190.943 -13.0419 -50.7217
  333 365.340 -1.06220 -0.900172
  334 365.298 -1.26488 0.986146
  335 303.258 -31.3434 18.8749
  336 309.897 1.21974 19.2815
  337 296.031 4.79490 16.3908
  338 31.6814 26.5371 -20.5413
  339 29.9187 24.0098 20.1408
  340 574.535 67.2663 -10.6545
  341 501.778 119.677 23.0241
  342 310.929 -22.2547 1.69146
  343 219.503 -0.986935 -2.34775
  344 219.497 -1.00863 2.39473
  345 368.057 48.9861 -28.8824
  346 147.728 -5.40140 51.8567
  347 147.729 -5.48071 -51.9143
  348 409.530 -4.85775 -30.6522
  349 236.967 -5.25253 -8.99382
  350 236.961 -5.05410 8.96036
  351 195.481 -10.7946 -33.9685
  352 195.131 -11.0380 34.0648
  353 153.717 -2.14798 16.4416
  354 153.644 -2.05553 -16.4249
  355 438.346 33.0927 -1.93712
  356 289.440 3.07075 -14.7833
  357 314.325 59.2576 154.016
  358 481.535 104.799 10.9164
  359 702.646 60.5231 -78.4932
  360 272.381 -5.55675 -1.93528
  361 272.374 -5.34874 1.88743
  362 299.649 -20.0520 -5.21860
  363 694.923 82.7829 83.7191
  364 302.677 -7.61594 0.0653945
  365 302.475 -7.81285 0.180813
  366 325.739 -19.3895 -6.30196
  367 282.208 -9.73067 -4.26173
  368 279.275 -9.18504 4.37695
  369 132.095 114.883 -125.946
  370 223.594 -7.70811 -16.0694
  371 223.544 -7.77338 15.9814
  372 274.400 8.81686 -0.341166
  373 667.796 166.847 -111.579
  374 135.568 -1.58043 -22.7869
  375 135.573 -1.53199 22.8338
  376 248.448 -19.1571 -25.4281
  377 244.174 -17.5172 26.0021
  378 336.780 23.9637 -29.0858
  379 315.107 -27.6940 -3.48434
  380 26.6285 53.4709 -45.3761
  381 236.843 -17.6339 -68.2569
  382 246.873 -19.7858 67.4525
  383 12.8498 2.79460 -10.7358
  384 12.7857 2.88249 10.7780
  385 294.920 -17.7302 5.65469
  386 205.284 -1.84327 -5.31149
  387 205.265 -1.83966 5.30836
  388 683.821 23.6983 35.8362
  389 294.465 -5.94715 0.0395213
  390 294.540 -5.90185 -0.102943
  391 325.898 -19.2817 6.49046
  392 724.700 195.669 139.692
  393 341.578 -11.6193 -16.1815
  394 589.561 81.8883 39.7077
  395 381.916 -23.9217 -28.5261
  396 333.152 40.9934 -2.08867
  397 302.620 -16.0384 -78.0721
  398 358.585 -6.64498 -79.1845
  399 45.8164 18.2876 -27.6649
  400 46.1157 19.1491 27.6271
  401 338.646 -21.4212 -16.2211
  402 216.390 -8.68155 22.9250
  403 216.298 -9.06133 -23.1798
  404 353.241 -1.94625 9.23360
  405 293.776 -15.0174 -4.50930
  406 362.085 -2.40595 4.20269
  407 361.148 4.56729 36.0008
  408 386.959 -12.9671 12.3129
  409 176.203 -7.38544 39.4691
  410 176.243 -7.58681 -39.5229
  411 112.792 63.8239 -93.9617
  412 337.480 6.70088 34.6072
  413 344.471 -25.6504 16.3298
  414 293.899 -31.2380 43.2590
  415 557.584 113.870 -56.1617
  416 342.548 -16.8907 -24.5833
  417 381.833 -9.24685 -20.7663
  418 311.782 -13.7286 0.355824
  419 315.162 -13.0760 -1.89498
  420 295.477 -33.3847 -43.4280
  421 342.723 0.820451 -35.4486
  422 293.633 -32.1075 -26.7187
  423 240.668 -2.46316 -1.94968
  424 240.671 -2.48774 1.91351
  425 360.747 54.9858 -21.2546
  426 353.833 -1.96357 -9.08977
  427 413.856 69.7724 -21.5918
  428 350.546 -33.2999 -38.2033
  429 365.449 -2.74662 -3.97728
  430 321.287 -37.1075 28.7378
  431 477.779 96.4041 -6.38783
  432 256.264 -8.81490 9.16643
  433 256.957 -9.40080 -9.27614
  434 349.225 -2.54760 -0.250521
  435 349.134 -2.58936 0.226325
  436 340.746 -12.3423 16.4938
  437 252.592 -12.7994 16.3608
  438 252.772 -12.5212 -16.3595
  439 322.570 28.1514 12.9251
  440 321.721 -36.2633 -28.8760
  441 383.111 62.9020 23.0887
  442 342.239 -7.55304 20.3597
  443 431.999 36.9494 -115.582
  444 241.753 -3.76768 -4.37902
  445 241.667 -3.83206 4.37838
  446 399.209 78.8263 -16.9901
  447 330.455 -5.31771 -1.96089
  448 330.374 -5.07649 1.99553
  449 323.907 7.32397 -29.1994
  450 372.351 33.7017 -34.9850
  451 218.910 -0.335904 -0.507507
  452 218.949 -0.350213 0.515162
  453 342.202 -9.19905 -19.6940
  454 284.810 -14.7636 85.1321
  455 369.372 203.208 -208.301
  456 360.052 51.6347 23.6618
  457 108.542 29.3221 -68.5491
  458 105.952 30.5484 67.5758
  459 190.088 28.5613 -101.752
  460 191.599 30.8328 101.965
  461 64.4338 113.862 101.483
  462 290.322 -26.8476 17.8864
  463 515.334 114.166 29.2778
  464 56.9633 43.9999 -49.9401
  465 48.1633 39.9595 40.1709
  466 185.304 -1.01493 8.01526
  467 185.394 -1.08295 -8.01659
  468 439.974 95.8308 -2.40843
  469 23.0270 16.3764 13.6773
  470 23.0449 16.4844 -14.1579
  471 405.443 38.2672 -26.4679
  472 -0.567512 3.03586 -4.61548
  473 -0.656401 3.14622 4.47632
  474 336.760 -4.77054 -30.9503
  475 4.46811 -12.6559 0.218150
  476 4.11207 -11.1273 -0.394481
  477 369.125 -2.32527 1.61712
  478 368.502 -1.32186 -1.74842
  479 248.313 -25.0716 48.9686
  480 249.064 -25.5204 -48.9271
  481 488.550 59.6700 44.7676
  482 381.138 74.9669 -9.39212
  483 356.782 -10.1291 32.0323
  484 456.937 71.7237 -5.90027
  485 424.418 16.7564 5.45370
  486 424.914 94.4177 6.51988
  487 354.020 57.4066 8.33027
  488 199.148 69.1673 -138.337
  489 348.675 -17.0689 27.2240
  490 423.982 75.8534 16.8313
  491 388.963 -12.4985 52.4579
  492 336.806 -23.8713 12.6902
  493 270.846 -6.65750 -3.18116
  494 270.267 -6.70053 3.04477
  495 364.743 31.8320 33.9866
  496 580.619 115.424 64.1541
  497 342.691 -14.6607 24.9340
  498 381.727 -3.87017 25.0010
  499 642.965 41.8257 35.2998
  500 162.140 -1.73381 62.9557
  501 202.065 -4.81298 72.0834
  502 162.021 -1.77575 -62.8585
  503 200.407 -5.39619 -72.7108
  504 538.959 146.316 -52.4780
  505 312.987 -22.7714 -1.48037
  506 333.822 -19.6317 -12.5935
  507 -3.29386 -3.11822 -5.29068
  508 -3.38805 -3.16737 5.45295
  509 555.404 149.003 142.773
  510 259.558 -3.94115 -1.70474
  511 259.504 -3.86371 1.66665
  512 284.485 -25.3946 -20.7457
  513 291.398 -29.0327 54.1099
  514 361.414 -21.8451 18.9646
  515 348.198 14.9537 -35.6941
  516 309.969 0.995980 -18.4978
  517 -9.33600 0.285954 6.61750
  518 -9.03807 0.177574 -6.53375
  519 356.151 -32.9460 31.2449
  520 226.598 -18.7377 58.5415
  521 209.019 0.211939 1.35781
  522 209.027 0.207265 -1.31889
  523 89.9234 8.62331 -46.4315
  524 90.1645 8.36299 46.5162
  525 226.192 -18.1407 -58.0696
  526 418.445 23.0035 -15.9057
  527 179.130 -5.75961 -25.0292
  528 179.099 -6.00874 25.0390
  529 -0.493831 -9.19095 -6.87546
  530 -0.462093 -9.48101 7.05532
</Section>

newXOutput 20

<Section columns = "stress_xx | stress_yy | stress_xy">
  1 394.055 0.426624 1.31636
  2 394.097 0.414724 -1.33532
  3 224.243 -0.140462 -0.509958
  4 -2.99418 -2.94691 -3.18546
  5 682.487 287.202 235.472
  6 687.399 292.126 -226.394
  7 -3.09272 -3.03711 3.29881
  8 224.182 -0.135395 0.513862
  9 399.685 -1.95705 1.01469
  10 397.524 -2.33199 0.813687
  11 390.623 -1.57286 3.63350
  12 382.859 -1.35222 5.97915
  13 372.479 -1.85961 7.72712
  14 351.647 -1.59580 11.1039
  15 327.219 -0.0850175 12.9712
  16 301.364 1.59684 12.6100
  17 286.370 4.77740 7.81997
  18 265.150 7.83393 -0.149110
  19 285.566 5.15195 -8.80579
  20 304.118 1.32301 -13.8634
  21 325.054 0.397436 -13.1128
  22 352.251 -1.75675 -12.0397
  23 372.746 -2.36456 -8.28147
  24 382.959 -2.73936 -6.06101
  25 396.287 -2.92370 -2.67670
  26 394.184 -1.37836 -1.39169
  27 399.417 -1.67181 -0.889606
  28 377.878 -1.61453 -1.55689
  29 357.514 -4.14133 -1.13357
  30 331.280 -5.14377 -0.578524
  31 310.463 -5.05602 -1.08339
  32 290.358 -4.98499 0.458795
  33 262.935 -2.52155 0.522181
  34 241.411 -1.14120 -0.384876
  35 221.388 0.0180914 1.06765
  36 216.189 1.40492 0.675890
  37 213.571 -0.0235202 2.55364
  38 207.362 -0.00746020 3.97703
  39 193.662 0.0481065 4.49935
  40 181.701 -0.462568 7.50979
  41 160.314 -0.400601 8.93165
  42 136.639 -0.240608 11.3600
  43 105.723 -1.13588 13.5484
  44 81.4432 0.211255 18.9699
  45 46.9218 3.15998 15.8585
  46 6.92934 5.91742 10.3359
  47 -15.3931 4.81841 4.16326
  48 -22.8186 4.13412 0.186315
  49 -18.6602 2.77971 -5.55212
  50 -10.4976 -0.633313 -4.46618
  51 -0.967770 -10.2216 -4.69309
  52 1.13774 -20.1723 -6.97820
  53 2.72191 -31.2990 -3.62740
  54 6.54467 -32.5315 -0.236288
  55 13.6233 -8.33305 14.0920
  56 36.2590 63.7401 56.7575
  57 152.735 219.599 180.375
  58 919.719 119.734 146.603
  59 772.055 31.9918 49.7145
  60 727.390 14.4700 16.8334
  61 709.117 9.97591 -2.10567
  62 726.237 14.9602 -18.5982
  63 785.522 35.9814 -57.8033
  64 894.490 136.352 -155.678
  65 177.991 246.733 -191.389
  66 38.4283 54.9717 -48.0861
  67 13.7657 -9.64301 -14.1958
  68 5.44710 -33.2104 -0.141633
  69 2.97024 -31.8347 3.14936
  70 1.30566 -20.7143 7.04581
  71 -0.971189 -10.5658 4.82506
  72 -10.8076 -0.597498 4.54828
  73 -19.0276 2.88794 5.52275
  74 -22.8837 4.14576 -0.347524
  75 -15.2187 4.73631 -4.21524
  76 7.04635 5.89023 -10.2852
  77 46.8982 3.18484 -15.8341
  78 81.4331 0.213038 -18.9570
  79 105.687 -1.15121 -13.5154
  80 136.515 -0.209822 -11.3261
  81 160.188 -0.349995 -8.98586
  82 181.775 -0.489422 -7.58090
  83 193.767 0.0146076 -4.50098
  84 207.419 -0.00602624 -3.95874
  85 213.601 -0.0370535 -2.53125
  86 216.179 1.41555 -0.645915
  87 221.338 0.0270799 -1.05797
  88 241.397 -1.13953 0.375804
  89 262.969 -2.58019 -0.542639
  90 290.381 -5.08577 -0.459953
  91 310.547 -5.10686 1.07067
  92 331.327 -5.11302 0.587373
  93 357.472 -4.14139 1.12916
  94 377.719 -1.61782 1.57462
  95 341.479 -36.9466 -15.8382
  96 346.016 -36.6603 12.5152
  97 373.790 62.4015 -8.39686
  98 248.712 -7.44700 -83.4440
  99 245.245 -6.56807 83.7975
  100 429.560 86.6860 18.4004
  101 458.055 97.3494 -7.72853
  102 288.819 -12.7116 -8.40626
  103 291.852 -12.4444 7.13375
  104 373.974 -0.461080 -36.5618
  105 417.167 -9.85266 -1.99831
  106 366.540 -2.77196 36.5443
  107 430.205 -4.05557 10.1505
  108 69.2937 35.8338 47.7357
  109 68.5033 34.1007 -49.4251
  110 352.280 -15.3666 11.6806
  111 353.384 -15.9503 -13.1184
  112 514.036 99.8413 -2.69830
  113 229.424 -17.5928 -45.7572
  114 229.673 -17.5078 45.9951
  115 251.035 -14.6469 23.1547
  116 251.346 -14.3486 -22.9971
  117 211.129 42.2394 -126.425
  118 222.458 43.7403 127.641
  119 523.351 123.204 -22.8881
  120 557.949 112.670 35.0570
  121 359.745 32.2603 27.9865
  122 335.541 -9.42030 1.38029
  123 335.976 -10.1675 -1.41023
  124 333.999 12.4632 -24.9094
  125 122.164 3.51896 -53.1090
  126 122.317 3.32638 52.9030
  127 357.578 -9.18374 -27.0215
  128 398.416 13.4869 33.6857
  129 251.913 -4.44102 6.79403
  130 251.975 -4.49235 -6.67460
  131 311.801 -25.2854 -11.6405
  132 309.628 -24.2393 11.9736
  133 340.579 -37.1103 39.1209
  134 403.740 17.6368 -32.6647
  135 360.517 -23.1550 20.4102
  136 426.622 91.5616 -0.635111
  137 353.273 -37.5178 -35.7220
  138 498.784 74.5574 15.5296
  139 465.796 25.9821 -69.1613
  140 323.801 21.7331 -0.864653
  141 356.371 -8.30513 26.8582
  142 363.718 -23.0816 -21.4718
  143 645.850 52.3841 16.5059
  144 385.877 -23.9373 -14.7449
  145 656.523 74.0718 -53.5733
  146 386.843 -23.5196 12.5107
  147 338.580 6.97810 29.7836
  148 10.2506 11.3006 1.02936
  149 10.8030 12.0615 -0.890178
  150 366.495 -6.53096 6.83440
  151 366.141 -5.99458 -6.58096
  152 280.383 -27.4080 -31.5888
  153 285.877 -26.7654 29.8264
  154 146.424 -5.11177 -41.8856
  155 146.423 -5.07660 41.8441
  156 302.465 -8.10996 -1.63430
  157 302.297 -7.60796 1.76050
  158 42.6042 52.2077 -51.4433
  159 54.9129 52.5229 53.9725
  160 373.692 34.4142 -32.6264
  161 210.482 -9.14456 -28.6059
  162 210.186 -9.56841 28.4235
  163 467.229 48.0639 116.437
  164 356.580 -15.2815 83.5109
  165 328.861 -18.0483 0.952161
  166 328.251 -17.2232 -0.900584
  167 366.777 -3.16690 2.20152
  168 366.386 -3.10537 -2.32262
  169 367.732 -28.5849 -58.6776
  170 232.676 -5.04356 -11.4674
  171 232.699 -5.04986 11.3954
  172 345.180 1.19951 -31.2715
  173 452.034 57.2335 15.6706
  174 452.686 54.3346 -17.7870
  175 390.632 72.0955 15.0190
  176 618.645 165.516 77.1944
  177 271.702 -29.9397 59.1047
  178 372.485 89.9578 -180.212
  179 274.557 -27.4547 -60.7235
  180 364.345 -6.94289 -14.9975
  181 364.141 -6.66064 15.2695
  182 345.237 -25.8609 -5.80234
  183 48.8719 12.0374 -29.2041
  184 48.9795 12.3320 29.2741
  185 174.945 18.6300 -89.0592
  186 171.603 19.7217 88.1507
  187 398.825 68.1915 -22.2821
  188 343.682 -24.9509 5.65068
  189 206.211 -9.62335 -67.2267
  190 206.710 -9.17366 67.7262
  191 176.088 -5.53457 -30.4407
  192 175.986 -5.65848 30.5849
  193 532.939 104.796 -39.6145
  194 177.989 111.812 149.056
  195 486.230 103.072 2.46469
  196 272.038 -4.32812 -2.75491
  197 271.843 -4.44469 2.74327
  198 305.928 -34.6586 34.9676
  199 96.7279 90.7412 -98.6445
  200 308.406 -35.6440 -36.2286
  201 210.154 -4.15930 15.1627
  202 210.124 -4.32009 -15.0943
  203 376.211 -21.5680 23.9071
  204 678.597 73.0013 60.6345
  205 259.483 -9.56420 -13.9143
  206 259.088 -9.59809 13.6907
  207 393.947 53.5484 31.0268
  208 241.385 -1.38939 -2.46308
  209 241.425 -1.43116 2.48063
  210 478.384 103.887 -1.07112
  211 339.260 26.9783 -16.8375
  212 651.778 132.369 -89.2621
  213 358.921 47.3778 14.0066
  214 470.591 94.9236 -7.65359
  215 358.863 -13.4954 22.8530
  216 315.453 -10.5419 -0.843152
  217 314.732 -12.3348 1.70186
  218 22.4693 12.4648 13.5524
  219 22.6012 12.1750 -13.8405
  220 312.866 10.9859 -10.9120
  221 345.832 -12.8361 5.51001
  222 346.711 -12.6563 -5.78889
  223 19.4843 18.5743 -13.3066
  224 17.4033 20.0628 14.1691
  225 333.354 -5.93224 -0.639158
  226 333.336 -5.85005 0.777091
  227 99.8597 0.0626019 -31.9493
  228 99.9093 0.0532768 31.9233
  229 272.480 9.65597 -105.923
  230 334.671 17.7512 23.6975
  231 357.143 -16.3905 -20.0119
  232 363.694 -11.6015 -32.2711
  233 330.791 -27.8200 65.2751
  234 397.586 -23.6862 3.68378
  235 408.897 56.3223 -30.5256
  236 346.357 -1.88332 -21.6445
  237 350.001 -1.42444 31.8467
  238 366.585 14.9913 36.8432
  239 570.555 129.236 71.1899
  240 686.655 26.5743 -13.9582
  241 351.809 11.3987 -35.2071
  242 360.526 -10.2775 32.3480
  243 240.701 -18.2378 -35.0450
  244 238.340 -18.1941 35.0068
  245 475.941 45.2400 -10.5037
  246 423.417 14.8800 22.7835
  247 -1.46948 -0.598882 -7.85329
  248 -1.44676 -0.399335 8.05259
  249 101.579 20.6920 -58.0586
  250 101.598 21.2159 57.9714
  251 327.195 3.02870 -22.8009
  252 349.249 -31.0113 2.70275
  253 129.909 42.3556 -90.8646
  254 118.030 48.9420 86.0756
  255 57.4558 3.76910 -26.2936
  256 57.5849 3.71083 26.3391
  257 274.654 -7.89813 -6.06572
  258 274.596 -7.83285 6.11311
  259 375.446 -17.6648 -26.6030
  260 315.702 -28.7509 -62.9241
  261 418.095 5.03537 -18.3887
  262 331.039 -30.5217 7.04494
  263 346.766 28.7957 -131.936
  264 324.889 -32.1122 -13.3611
  265 281.784 -19.8493 -19.6102
  266 282.426 -20.7949 20.5517
  267 557.043 101.980 -28.3773
  268 458.059 99.0799 2.05488
  269 462.917 16.1428 45.3792
  270 360.864 -4.46059 -15.9089
  271 230.373 -2.48911 5.68212
  272 230.387 -2.54438 -5.66109
  273 367.920 -30.8639 -9.56554
  274 389.896 -28.6649 -12.5796
  275 557.046 92.6146 14.7916
  276 268.419 7.22163 104.943
  277 368.636 -30.5424 9.00580
  278 371.150 -3.55590 8.44162
  279 389.924 -4.71440 -31.5211
  280 336.884 158.957 192.866
  281 42.4841 60.0283 58.4919
  282 379.369 -2.98697 2.92952
  283 375.746 -2.79456 -3.81885
  284 344.789 -1.99790 19.4613
  285 313.825 12.9387 10.3810
  286 371.756 -3.07652 -8.25687
  287 393.736 -23.4110 40.5196
  288 158.355 5.16709 -71.1525
  289 158.073 4.83148 71.0981
  290 415.553 51.8481 28.2507
  291 364.784 -37.0831 -11.7927
  292 351.280 15.1649 33.1395
  293 350.632 -4.18043 0.384676
  294 350.645 -4.23131 -0.402188
  295 360.236 -4.01246 15.6346
  296 368.764 -36.5202 12.5498
  297 394.391 77.8363 3.08431
  298 533.646 108.513 -121.274
  299 290.298 -16.4975 -11.6861
  300 286.129 -16.5905 12.5381
  301 387.086 -11.0026 28.2698
  302 438.566 94.4511 -6.75123
  303 274.128 -27.6499 -39.8762
  304 266.456 -26.1420 42.7958
  305 701.886 19.5148 12.5402
  306 720.988 26.5829 -40.9610
  307 360.376 -10.2064 -12.0836
  308 212.162 -1.63089 8.91763
  309 212.147 -1.61910 -8.90059
  310 110.260 76.0357 101.867
  311 360.231 -10.0684 11.8999
  312 383.321 16.5713 -37.0075
  313 188.568 -3.74895 -15.4184
  314 188.511 -3.73470 15.3226
  315 356.479 -6.25546 3.98414
  316 356.562 -6.47697 -4.18461
  317 2.42205 -7.30000 -5.92500
  318 2.79380 -7.68754 6.00270
  319 370.496 11.7658 108.880
  320 419.374 87.0570 11.2174
  321 354.513 -19.8886 15.9836
  322 111.279 -2.28335 -22.9752
  323 111.282 -2.27084 22.9810
  324 -3.51805 5.28302 -1.53425
  325 -3.68084 5.47892 1.35202
  326 360.659 42.7296 -20.2734
  327 472.211 98.1263 5.66377
  328 353.705 -29.6777 -6.91844
  329 10.2674 7.55861 -13.8755
  330 13.0134 12.1597 16.1270
  331 201.543 -13.8590 53.8287
  332 201.400 -13.7527 -53.5246
  333 384.512 -1.13749 -0.931868
  334 384.468 -1.35058 1.02139
  335 319.459 -33.0072 20.0368
  336 326.688 1.28946 20.2052
  337 312.174 5.06539 17.1872
  338 33.5121 28.0333 -21.8077
  339 31.6565 25.3689 21.3891
  340 604.340 70.7332 -11.2159
  341 528.073 126.020 24.5583
  342 327.547 -23.4365 1.93833
  343 231.718 -1.03334 -2.48706
  344 231.710 -1.05609 2.53622
  345 387.732 51.5874 -30.2037
  346 155.915 -5.71242 54.7271
  347 155.916 -5.79633 -54.7886
  348 430.950 -5.04271 -32.5866
  349 249.979 -5.51891 -9.51624
  350 249.973 -5.31008 9.48064
  351 206.256 -11.3675 -35.8341
  352 205.888 -11.6234 35.9348
  353 162.410 -2.26029 17.3372
  354 162.334 -2.16308 -17.3199
  355 461.314 34.9232 -1.64561
  356 305.274 3.25428 -15.5043
  357 330.719 62.5562 162.285
  358 506.910 110.306 11.6983
  359 738.378 63.6091 -82.4308
  360 287.141 -5.84655 -2.06512
  361 287.134 -5.62796 2.01495
  362 315.711 -21.1112 -5.62824
  363 730.345 87.0321 87.9338
  364 318.900 -8.02927 0.00559516
  365 318.688 -8.23607 0.253832
  366 343.098 -20.4254 -6.46637
  367 297.435 -10.2412 -4.55946
  368 294.360 -9.66651 4.67369
  369 139.025 121.479 -132.811
  370 235.900 -8.10749 -16.9679
  371 235.847 -8.17572 16.8746
  372 289.518 9.30425 -0.357951
  373 701.809 175.659 -117.504
  374 143.261 -1.66420 -24.0364
  375 143.267 -1.61311 24.0852
  376 261.939 -20.1659 -26.8694
  377 257.449 -18.4383 27.4651
  378 354.883 25.2538 -30.4703
  379 331.929 -29.1637 -3.84642
  380 28.1257 56.7208 -48.0131
  381 249.588 -18.6031 -72.0250
  382 260.126 -20.8672 71.1791
  383 13.7738 2.94224 -11.3754
  384 13.7090 3.03460 11.4197
  385 310.754 -18.6654 6.07231
  386 216.758 -1.93537 -5.60799
  387 216.738 -1.93153 5.60449
  388 718.615 24.9055 37.5980
  389 310.291 -6.26864 0.0129135
  390 310.370 -6.22065 -0.0791601
  391 343.266 -20.3116 6.66681
  392 761.230 206.027 147.000
  393 359.746 -12.2523 -16.8705
  394 620.093 86.1238 41.7828
  395 401.974 -25.1702 -30.3081
  396 351.118 43.1971 -2.18971
  397 318.634 -16.8900 -82.3969
  398 377.369 -6.93794 -83.6009
  399 48.4658 19.2844 -29.3014
  400 48.7838 20.1904 29.2615
  401 356.667 -22.5697 -16.8606
  402 228.300 -9.13273 24.1920
  403 228.204 -9.53271 -24.4612
  404 371.975 -2.05868 9.64232
  405 309.559 -15.8111 -4.85455
  406 381.168 -2.54873 4.36783
  407 380.377 4.80549 37.6397
  408 407.372 -13.6483 12.6530
  409 185.954 -7.78269 41.6360
  410 185.996 -7.99500 -41.6935
  411 118.939 67.3328 -99.1938
  412 355.574 7.06134 36.2429
  413 362.777 -27.0243 16.9510
  414 309.570 -32.9113 45.7178
  415 586.633 119.813 -59.2066
  416 360.791 -17.8006 -25.6581
  417 402.014 -9.74030 -21.5612
  418 328.448 -14.4617 0.262916
  419 331.992 -13.7766 -1.88072
  420 311.226 -35.1725 -45.8989
  421 361.050 0.860984 -37.1059
  422 309.350 -33.8147 -28.2835
  423 253.907 -2.58378 -2.06411
  424 253.909 -2.60952 2.02610
  425 380.082 57.9070 -22.2410
  426 372.593 -2.07581 -9.49192
  427 435.796 73.4748 -22.4301
  428 369.029 -35.0642 -40.4620
  429 384.680 -2.90406 -4.13510
  430 338.356 -39.0884 30.4547
  431 502.850 101.593 -7.13549
  432 270.215 -9.27075 9.71540
  433 270.942 -9.88739 -9.83132
  434 367.656 -2.70787 -0.247759
  435 367.560 -2.75168 0.222354
  436 358.872 -13.0144 17.1947
  437 266.326 -13.4662 17.3043
  438 266.516 -13.1743 -17.3040
  439 340.006 29.6784 13.5471
  440 338.814 -38.2013 -30.5992
  441 403.561 66.2370 24.1151
  442 360.469 -7.96634 21.2701
  443 454.264 39.1923 -121.924
  444 255.033 -3.95527 -4.63469
  445 254.943 -4.02273 4.63369
  446 420.480 82.9872 -17.6925
  447 348.014 -5.62213 -2.00500
  448 347.929 -5.36843 2.04179
  449 341.361 7.72345 -30.5977
  450 392.191 35.4912 -36.5823
  451 231.116 -0.348475 -0.543254
  452 231.156 -0.363488 0.551217
  453 360.427 -9.70109 -20.5668
  454 299.915 -15.5564 89.8212
  455 387.945 214.670 -219.222
  456 379.338 54.3838 24.7577
  457 114.556 30.8980 -72.4129
  458 111.832 32.1875 71.3851
  459 200.337 30.0890 -107.359
  460 201.911 32.4752 107.576
  461 67.9141 120.558 107.159
  462 305.897 -28.2678 18.9752
  463 542.183 120.358 31.3019
  464 60.1612 46.4495 -52.8228
  465 50.9024 42.1923 42.5322
  466 195.709 -1.06495 8.45331
  467 195.803 -1.13654 -8.45479
  468 463.338 100.836 -2.49961
  469 24.4024 17.2892 14.5452
  470 24.4184 17.4039 -15.0502
  471 426.880 40.3112 -27.5303
  472 -0.444360 3.19979 -4.92431
  473 -0.535265 3.31589 4.77800
  474 354.786 -5.02891 -32.3924
  475 4.72650 -13.1945 0.151338
  476 4.35301 -11.5775 -0.333583
  477 388.480 -2.45800 1.67580
  478 387.830 -1.40748 -1.81278
  479 261.696 -26.4199 51.6920
  480 262.487 -26.8925 -51.6515
  481 513.871 63.0742 47.5796
  482 401.532 78.9255 -9.80358
  483 375.756 -10.6785 33.4604
  484 480.934 75.5943 -5.80190
  485 446.689 17.7039 5.38027
  486 447.508 99.3808 6.70778
  487 373.035 60.4655 8.72207
  488 209.715 72.9937 -145.869
  489 367.229 -17.9877 28.4176
  490 446.445 79.8859 17.4179
  491 409.313 -13.0907 55.5127
  492 354.725 -25.1480 13.1442
  493 285.528 -7.00415 -3.39610
  494 284.920 -7.04944 3.25261
  495 384.205 33.5259 35.5442
  496 610.769 121.421 67.5677
  497 360.941 -15.4531 26.0326
  498 401.914 -4.07915 26.0136
  499 675.900 43.9702 37.0675
  500 171.041 -1.85743 66.4403
  501 213.011 -5.10290 76.0570
  502 170.917 -1.90236 -66.3382
  503 211.269 -5.71923 -76.7164
  504 567.087 154.050 -55.5206
  505 329.709 -23.9797 -1.71774
  506 351.594 -20.6841 -13.0644
  507 -3.46736 -3.28304 -5.57256
  508 -3.56706 -3.33512 5.74409
  509 583.576 157.353 150.694
  510 273.703 -4.14155 -1.80735
  511 273.646 -4.06017 1.76741
  512 299.764 -26.7384 -21.9731
  513 306.917 -30.5953 57.1456
  514 380.571 -23.0159 19.6933
  515 366.826 15.7497 -37.3644
  516 326.764 1.05094 -19.3818
  517 -9.81968 0.309357 6.96101
  518 -9.50444 0.195213 -6.87206
  519 374.934 -34.6981 33.1344
  520 238.853 -19.7585 61.7795
  521 220.723 0.225695 1.44159
  522 220.732 0.220752 -1.40086
  523 95.0016 9.07045 -49.0570
  524 95.2565 8.79569 49.1449
  525 238.427 -19.1297 -61.2836
  526 440.449 24.2583 -16.3794
  527 189.116 -6.05917 -26.3971
  528 189.083 -6.32127 26.4073
  529 -0.510849 -9.66869 -7.23187
  530 -0.477739 -9.97553 7.42238
</Section>

newXOutput 21

<Section columns = "stress_xx | stress_yy | stress_xy">
  1 413.516 0.428956 1.37044
  2 413.560 0.417626 -1.39010
  3 236.152 -0.141942 -0.529842
  4 -3.14966 -3.09966 -3.35200
  5 714.197 301.965 246.916
  6 719.555 307.206 -237.396
  7 -3.25344 -3.19466 3.47132
  8 236.090 -0.136636 0.533897
  9 419.391 -2.06048 1.05116
  10 417.154 -2.45323 0.832730
  11 410.000 -1.66031 3.77478
  12 401.945 -1.43190 6.22158
  13 391.164 -1.95945 8.05061
  14 369.470 -1.67863 11.5890
  15 343.994 -0.0871750 13.5532
  16 317.000 1.68583 13.1860
  17 301.332 5.03144 8.18401
  18 279.166 8.22549 -0.155896
  19 300.493 5.42194 -9.21597
  20 319.874 1.39866 -14.4944
  21 341.740 0.413523 -13.6985
  22 370.099 -1.84845 -12.5657
  23 391.444 -2.48836 -8.62876
  24 402.051 -2.87991 -6.30826
  25 415.905 -3.07017 -2.77585
  26 413.681 -1.45938 -1.43189
  27 419.113 -1.76214 -0.920610
  28 396.652 -1.71805 -1.62294
  29 375.401 -4.37195 -1.17640
  30 347.999 -5.41935 -0.588193
  31 326.243 -5.31821 -1.12716
  32 305.227 -5.23146 0.493925
  33 276.564 -2.64034 0.554374
  34 254.077 -1.18968 -0.397005
  35 233.163 0.0228963 1.12468
  36 227.708 1.47177 0.721016
  37 224.939 -0.0211757 2.69352
  38 218.401 -0.00381724 4.18482
  39 204.012 0.0523926 4.73549
  40 191.440 -0.483403 7.89331
  41 168.969 -0.418377 9.39153
  42 144.090 -0.250066 11.9459
  43 111.586 -1.19517 14.2558
  44 86.0376 0.218767 19.9614
  45 49.6901 3.31947 16.7109
  46 7.57856 6.21929 10.9145
  47 -15.9787 5.06670 4.41629
  48 -23.8792 4.35060 0.230745
  49 -19.5874 2.93289 -5.81811
  50 -11.0339 -0.659491 -4.69123
  51 -1.01133 -10.7457 -4.93078
  52 1.20703 -21.1829 -7.31845
  53 2.87516 -32.7959 -3.76964
  54 6.90529 -33.9678 -0.161797
  55 14.3647 -8.31813 14.9687
  56 38.1451 67.8169 59.8646
  57 160.062 231.610 189.387
  58 962.630 125.522 153.256
  59 808.780 33.5245 51.9683
  60 762.184 15.1723 17.5917
  61 743.128 10.4637 -2.19913
  62 760.983 15.6874 -19.4383
  63 822.791 37.7109 -60.4146
  64 936.394 142.960 -162.820
  65 186.472 260.113 -200.843
  66 40.4663 58.5334 -50.7695
  67 14.5098 -9.68846 -15.0681
  68 5.74615 -34.6907 -0.228335
  69 3.13495 -33.3644 3.26913
  70 1.38326 -21.7550 7.39058
  71 -1.01517 -11.1083 5.06999
  72 -11.3605 -0.621990 4.77789
  73 -19.9753 3.04664 5.78778
  74 -23.9505 4.36297 -0.399863
  75 -15.7988 4.98064 -4.47082
  76 7.69838 6.19093 -10.8614
  77 49.6631 3.34564 -16.6857
  78 86.0255 0.220659 -19.9483
  79 111.547 -1.21130 -14.2216
  80 143.959 -0.217818 -11.9105
  81 168.838 -0.365265 -9.44841
  82 191.518 -0.511562 -7.96788
  83 204.122 0.0172339 -4.73728
  84 218.460 -0.00231946 -4.16579
  85 224.970 -0.0353993 -2.67022
  86 227.699 1.48288 -0.689737
  87 233.112 0.0323142 -1.11459
  88 254.064 -1.18795 0.387487
  89 276.601 -2.70186 -0.575804
  90 305.252 -5.33721 -0.495141
  91 326.331 -5.37171 1.11386
  92 348.047 -5.38737 0.597627
  93 375.357 -4.37189 1.17187
  94 396.487 -1.72161 1.64120
  95 358.648 -38.8086 -16.8383
  96 363.398 -38.5064 13.3532
  97 392.777 65.5402 -8.76498
  98 261.322 -7.85176 -87.7997
  99 257.692 -6.92636 88.1733
  100 451.163 91.0064 19.0837
  101 481.005 102.195 -7.88199
  102 303.595 -13.3405 -8.90972
  103 306.767 -13.0613 7.57648
  104 392.809 -0.493442 -38.1238
  105 437.897 -10.3170 -2.43435
  106 385.033 -2.91618 38.1263
  107 451.509 -4.20875 11.0091
  108 73.0041 37.6888 50.3493
  109 72.1681 35.8693 -52.1252
  110 369.998 -16.1522 12.0935
  111 371.160 -16.7643 -13.5943
  112 539.619 104.733 -2.85824
  113 241.256 -18.4848 -48.1501
  114 241.518 -18.3950 48.3976
  115 264.008 -15.3691 24.3880
  116 264.334 -15.0571 -24.2248
  117 221.814 44.4095 -132.970
  118 233.672 46.0057 134.245
  119 549.323 129.338 -24.2998
  120 585.521 118.219 36.9382
  121 378.021 33.8987 29.2306
  122 352.461 -9.90587 1.36211
  123 352.916 -10.6892 -1.39210
  124 351.084 13.1131 -26.0374
  125 128.647 3.67563 -55.9210
  126 128.808 3.47367 55.7035
  127 375.624 -9.65589 -28.1722
  128 418.398 14.1631 35.0602
  129 265.016 -4.65104 7.17191
  130 265.081 -4.70517 -7.04750
  131 327.607 -26.5489 -12.3697
  132 325.337 -25.4481 12.7134
  133 357.644 -38.9843 41.2932
  134 423.976 18.5250 -33.9854
  135 378.645 -24.3301 21.1899
  136 448.145 96.1043 -0.661433
  137 370.941 -39.4108 -37.7327
  138 523.381 78.4336 16.7641
  139 488.596 27.4874 -72.9611
  140 340.444 22.8633 -0.904739
  141 374.370 -8.73096 28.0081
  142 382.000 -24.2537 -22.2915
  143 677.221 54.9295 17.2961
  144 405.171 -25.1482 -15.1895
  145 688.396 77.6710 -56.1668
  146 406.183 -24.7063 12.8389
  147 355.856 7.34322 31.1236
  148 10.8550 11.9375 1.18777
  149 11.4345 12.7374 -1.03936
  150 384.826 -6.87870 7.07448
  151 384.457 -6.31741 -6.81043
  152 294.681 -28.7817 -33.2919
  153 300.435 -28.1057 31.4457
  154 154.204 -5.38024 -44.0744
  155 154.203 -5.34333 44.0301
  156 317.879 -8.51558 -1.77376
  157 317.704 -7.98878 1.90608
  158 44.8834 55.0486 -54.2850
  159 57.8396 55.3575 56.9464
  160 392.607 36.1506 -34.0538
  161 221.495 -9.59719 -30.0894
  162 221.184 -10.0422 29.8982
  163 489.932 50.8102 122.545
  164 374.278 -16.0270 87.9027
  165 345.480 -18.9561 0.854940
  166 344.841 -18.0916 -0.806533
  167 385.082 -3.35234 2.26584
  168 384.675 -3.28802 -2.39219
  169 386.021 -29.9956 -61.8564
  170 244.864 -5.28398 -12.0760
  171 244.889 -5.29043 12.0003
  172 362.732 1.26561 -32.6660
  173 474.545 60.1530 16.0745
  174 475.223 57.1053 -18.2869
  175 410.414 75.7070 15.6590
  176 648.891 173.763 81.2529
  177 285.489 -31.4676 62.2215
  178 390.630 94.7785 -189.318
  179 288.478 -28.8584 -63.9220
  180 382.646 -7.30591 -15.6091
  181 382.433 -7.01093 15.8935
  182 362.622 -27.1639 -5.89075
  183 51.5921 12.6501 -30.8125
  184 51.7074 12.9587 30.8856
  185 183.937 19.5521 -93.7331
  186 180.431 20.6974 92.7770
  187 418.976 71.6067 -23.2145
  188 360.993 -26.2075 5.73566
  189 216.838 -10.1383 -70.7367
  190 217.360 -9.66591 71.2606
  191 185.407 -5.81134 -32.0188
  192 185.301 -5.94118 32.1696
  193 559.111 110.238 -42.0835
  194 186.918 117.648 156.725
  195 510.537 108.153 2.70134
  196 286.072 -4.53696 -2.92460
  197 285.867 -4.65903 2.91238
  198 321.400 -36.4061 36.8832
  199 101.739 95.5639 -103.875
  200 323.990 -37.4429 -38.2122
  201 221.232 -4.35921 15.9525
  202 221.201 -4.52797 -15.8812
  203 395.084 -22.6631 24.8261
  204 711.437 76.5413 63.5362
  205 272.892 -10.0306 -14.6756
  206 272.478 -10.0656 14.4407
  207 413.823 56.2391 32.3362
  208 254.041 -1.44959 -2.60206
  209 254.082 -1.49333 2.62028
  210 502.300 109.041 -1.32851
  211 356.603 28.3648 -17.6002
  212 683.540 138.875 -93.6833
  213 377.190 49.7766 14.6266
  214 494.062 99.6910 -7.68590
  215 376.933 -14.1890 23.7903
  216 331.456 -11.0758 -0.975737
  217 330.702 -12.9551 1.88334
  218 23.7813 13.1151 14.3564
  219 23.9172 12.8112 -14.6586
  220 329.012 11.5670 -11.4131
  221 363.232 -13.4942 5.65385
  222 364.153 -13.3054 -5.94454
  223 20.5532 19.6482 -14.1400
  224 18.3662 21.2135 15.0508
  225 350.171 -6.24641 -0.622785
  226 350.151 -6.16041 0.767659
  227 105.293 0.0545232 -33.6345
  228 105.347 0.0447850 33.6065
  229 286.162 10.1493 -111.420
  230 351.795 18.6685 24.7711
  231 375.121 -17.2291 -20.8056
  232 382.028 -12.1942 -33.6386
  233 347.336 -29.2289 68.7402
  234 417.389 -24.8693 4.16899
  235 429.462 59.1451 -31.7769
  236 363.949 -1.98232 -22.5966
  237 367.755 -1.49687 33.2504
  238 385.127 15.7487 38.4620
  239 598.351 135.960 75.2448
  240 719.741 27.8628 -14.6140
  241 369.677 11.9796 -36.7771
  242 378.717 -10.8042 33.7318
  243 253.124 -19.1510 -36.8879
  244 250.651 -19.1051 36.8468
  245 499.430 47.6316 -11.4497
  246 444.525 15.6451 23.5744
  247 -1.50591 -0.596880 -8.21396
  248 -1.48317 -0.387626 8.42478
  249 106.950 21.7320 -61.1715
  250 106.971 22.2811 61.0777
  251 343.966 3.19535 -23.8339
  252 366.813 -32.5731 2.61712
  253 136.643 44.5272 -95.6654
  254 124.166 51.4529 90.6360
  255 60.6794 3.95246 -27.7158
  256 60.8169 3.89110 27.7629
  257 288.795 -8.28283 -6.42238
  258 288.735 -8.21360 6.47058
  259 394.292 -18.5646 -27.6562
  260 331.550 -30.2103 -66.2660
  261 438.931 5.30080 -18.9590
  262 347.739 -32.0530 7.58081
  263 363.883 30.3548 -138.716
  264 341.294 -33.7239 -14.2065
  265 296.189 -20.8344 -20.6995
  266 296.855 -21.8281 21.6894
  267 584.569 106.979 -29.8770
  268 481.060 103.976 2.07906
  269 485.656 17.1112 48.0163
  270 379.053 -4.69136 -16.5853
  271 242.491 -2.60327 5.98825
  272 242.507 -2.66130 -5.96649
  273 386.366 -32.4241 -9.78312
  274 409.317 -30.1003 -13.4934
  275 584.563 97.1421 15.5841
  276 281.907 7.58987 110.391
  277 387.114 -32.0850 9.19407
  278 389.721 -3.75072 8.77058
  279 409.469 -4.95929 -32.7996
  280 353.023 167.455 202.553
  281 44.7384 63.4492 61.6994
  282 398.240 -3.15287 3.02423
  283 394.460 -2.95549 -3.95053
  284 362.312 -2.09972 20.3188
  285 330.013 13.6178 10.8566
  286 390.354 -3.24764 -8.57787
  287 413.267 -24.5609 42.8143
  288 166.584 5.39741 -74.9015
  289 166.288 5.04540 74.8437
  290 436.412 54.4581 29.3644
  291 383.039 -38.9539 -12.6303
  292 369.142 15.9440 34.6226
  293 368.217 -4.41553 0.374819
  294 368.232 -4.46882 -0.392730
  295 378.400 -4.21952 16.3018
  296 387.200 -38.3608 13.4286
  297 414.372 81.7271 3.21489
  298 559.400 114.409 -127.725
  299 305.121 -17.3153 -12.3747
  300 300.759 -17.4114 13.2653
  301 406.489 -11.5652 29.3856
  302 460.640 99.1315 -6.97177
  303 288.096 -29.0448 -42.0020
  304 280.063 -27.4616 45.0581
  305 735.612 20.4626 13.1196
  306 755.568 27.8598 -42.8510
  307 378.465 -10.7369 -12.5420
  308 223.382 -1.70674 9.38291
  309 223.366 -1.69440 -9.36527
  310 115.967 79.9961 107.249
  311 378.312 -10.5913 12.3506
  312 402.626 17.4018 -38.5896
  313 198.582 -3.93123 -16.2163
  314 198.522 -3.91632 16.1159
  315 374.343 -6.59222 4.09963
  316 374.432 -6.82381 -4.30886
  317 2.56689 -7.60206 -6.17134
  318 2.95702 -8.01133 6.25495
  319 388.783 12.4552 114.536
  320 440.533 91.3897 11.6577
  321 372.351 -20.8988 16.5754
  322 117.364 -2.40319 -24.1756
  323 117.368 -2.39007 24.1812
  324 -3.61077 5.57004 -1.55319
  325 -3.78395 5.77610 1.36260
  326 378.999 44.8945 -21.1748
  327 495.775 103.061 5.59817
  328 371.484 -31.1746 -7.03451
  329 10.8317 8.19752 -14.7305
  330 13.7250 13.0414 17.1064
  331 211.990 -14.5741 56.6437
  332 211.841 -14.4621 -56.3252
  333 403.573 -1.21422 -0.961890
  334 403.526 -1.43763 1.05485
  335 335.595 -34.6632 21.2089
  336 343.433 1.35942 21.1146
  337 328.283 5.33629 17.9724
  338 35.3495 29.5315 -23.0863
  339 33.4016 26.7304 22.6501
  340 633.934 74.1737 -11.7740
  341 554.209 132.332 26.1152
  342 344.099 -24.6128 2.19929
  343 243.930 -1.07890 -2.62710
  344 243.922 -1.10270 2.67839
  345 407.327 54.1769 -31.4977
  346 164.098 -6.02445 57.5959
  347 164.100 -6.11298 -57.6612
  348 452.238 -5.21893 -34.5422
  349 262.973 -5.78276 -10.0405
  350 262.965 -5.56359 10.0027
  351 217.020 -11.9376 -37.6969
  352 216.635 -12.2060 37.8020
  353 171.117 -2.37188 18.2308
  354 171.036 -2.26993 -18.2129
  355 484.143 36.7535 -1.31671
  356 321.079 3.43907 -16.2154
  357 347.006 65.8556 170.524
  358 532.145 115.782 12.4960
  359 773.789 66.6682 -86.3271
  360 301.863 -6.13438 -2.19692
  361 301.854 -5.90532 2.14447
  362 331.713 -22.1649 -6.04878
  363 765.455 91.2471 92.1058
  364 335.061 -8.44145 -0.0599842
  365 334.839 -8.65804 0.332585
  366 360.382 -21.4570 -6.61349
  367 312.615 -10.7486 -4.86263
  368 309.400 -10.1450 4.97519
  369 145.915 128.094 -139.661
  370 248.192 -8.50397 -17.8665
  371 248.136 -8.57510 17.7677
  372 304.619 9.79139 -0.374522
  373 735.520 184.426 -123.398
  374 150.969 -1.74754 -25.2838
  375 150.976 -1.69379 25.3344
  376 275.397 -21.1690 -28.3127
  377 270.692 -19.3542 28.9292
  378 372.923 26.5397 -31.8323
  379 348.682 -30.6263 -4.22406
  380 29.6242 59.9980 -50.6605
  381 262.290 -19.5713 -75.7898
  382 273.331 -21.9467 74.9028
  383 14.7187 3.08913 -12.0192
  384 14.6535 3.18591 12.0657
  385 326.531 -19.5955 6.49930
  386 228.235 -2.02646 -5.90442
  387 228.213 -2.02238 5.90055
  388 753.099 26.1023 39.3380
  389 326.063 -6.58908 -0.0163122
  390 326.145 -6.53838 -0.0526932
  391 360.559 -21.3372 6.82601
  392 797.398 216.333 154.261
  393 377.832 -12.8839 -17.5397
  394 650.403 90.3286 43.8444
  395 421.916 -26.4105 -32.1082
  396 369.027 45.3933 -2.28928
  397 334.568 -17.7376 -86.7194
  398 396.040 -7.22323 -88.0178
  399 51.1252 20.2791 -30.9474
  400 51.4621 21.2294 30.9055
  401 374.608 -23.7139 -17.4754
  402 240.195 -9.58077 25.4578
  403 240.095 -10.0009 -25.7413
  404 390.620 -2.17147 10.0413
  405 325.287 -16.6007 -5.20838
  406 400.147 -2.69230 4.52668
  407 399.520 5.04247 39.2439
  408 427.676 -14.3251 12.9606
  409 195.699 -8.17855 43.7998
  410 195.743 -8.40179 -43.8609
  411 125.073 70.8377 -104.426
  412 373.602 7.42079 37.8510
  413 381.000 -28.3931 17.5452
  414 325.174 -34.5783 48.1812
  415 615.488 125.718 -62.2424
  416 378.954 -18.7074 -26.7053
  417 422.092 -10.2313 -22.3221
  418 345.046 -15.1916 0.159688
  419 348.753 -14.4745 -1.85548
  420 326.907 -36.9535 -48.3745
  421 379.304 0.901214 -38.7332
  422 325.005 -35.5143 -29.8553
  423 267.129 -2.70278 -2.17904
  424 267.131 -2.72967 2.13919
  425 399.345 60.8150 -23.2087
  426 391.264 -2.18831 -9.88446
  427 457.630 77.1603 -23.2341
  428 387.413 -36.8199 -42.7329
  429 403.803 -3.06187 -4.28711
  430 355.347 -41.0612 32.1825
  431 527.772 106.766 -7.91931
  432 284.134 -9.72320 10.2677
  433 284.896 -10.3704 -10.3899
  434 385.990 -2.86973 -0.243487
  435 385.889 -2.91557 0.216884
  436 376.917 -13.6850 17.8753
  437 280.027 -14.1285 18.2505
  438 280.228 -13.8231 -18.2513
  439 357.390 31.2016 14.1598
  440 355.827 -40.1315 -32.3331
  441 423.925 69.5564 25.1169
  442 378.619 -8.37889 22.1597
  443 476.358 41.4540 -128.257
  444 268.296 -4.14070 -4.89135
  445 268.200 -4.21120 4.88996
  446 441.659 87.1266 -18.3718
  447 365.492 -5.92719 -2.04317
  448 365.403 -5.66110 2.08214
  449 358.757 8.12225 -31.9743
  450 411.945 37.2729 -38.1464
  451 243.322 -0.360447 -0.579669
  452 243.363 -0.376153 0.587930
  453 378.571 -10.2021 -21.4187
  454 314.947 -16.3463 94.5053
  455 406.331 226.143 -230.075
  456 398.551 57.1211 25.8326
  457 120.566 32.4685 -76.2815
  458 117.711 33.8207 75.1990
  459 210.552 31.6108 -112.960
  460 212.187 34.1104 113.181
  461 71.3830 127.289 112.837
  462 321.415 -29.6808 20.0724
  463 568.855 126.535 33.3616
  464 63.3616 48.8994 -55.7156
  465 53.6471 44.4259 44.9058
  466 206.121 -1.11434 8.89042
  467 206.220 -1.18948 -8.89207
  468 486.592 105.810 -2.58674
  469 25.7872 18.2023 15.4237
  470 25.8010 18.3237 -15.9529
  471 448.208 42.3476 -28.5537
  472 -0.305697 3.36326 -5.23836
  473 -0.398329 3.48505 5.08495
  474 372.741 -5.28649 -33.8079
  475 4.98589 -13.7166 0.0766291
  476 4.59518 -12.0107 -0.264399
  477 407.722 -2.59098 1.73164
  478 407.044 -1.49416 -1.87415
  479 275.037 -27.7637 54.4149
  480 275.866 -28.2600 -54.3757
  481 539.011 66.4875 50.4206
  482 421.845 82.8638 -10.2044
  483 394.644 -11.2262 34.8550
  484 504.793 79.4540 -5.66370
  485 468.829 18.6535 5.27140
  486 469.998 104.316 6.87929
  487 391.982 63.5115 9.10700
  488 220.231 76.8183 -153.384
  489 385.701 -18.9035 29.5810
  490 468.799 83.9008 17.9716
  491 429.537 -13.6725 58.5798
  492 372.564 -26.4195 13.5745
  493 300.170 -7.34842 -3.61443
  494 299.535 -7.39597 3.46388
  495 403.584 35.2127 37.0701
  496 640.709 127.376 70.9649
  497 379.112 -16.2432 27.1039
  498 421.999 -4.28710 26.9904
  499 708.562 46.0973 38.8166
  500 179.930 -1.98370 69.9228
  501 223.928 -5.39499 80.0268
  502 179.801 -2.03170 -69.8160
  503 222.102 -6.04452 -80.7177
  504 595.032 161.746 -58.5728
  505 346.364 -25.1822 -1.96940
  506 369.288 -21.7326 -13.5138
  507 -3.63989 -3.44700 -5.85321
  508 -3.74513 -3.50203 6.03402
  509 611.487 165.707 158.609
  510 287.818 -4.34007 -1.91063
  511 287.758 -4.25477 1.86886
  512 314.989 -28.0755 -23.2069
  513 322.369 -32.1528 60.1833
  514 399.634 -24.1821 20.3911
  515 385.381 16.5423 -39.0046
  516 343.514 1.10591 -20.2520
  517 -10.2998 0.333517 7.30206
  518 -9.96718 0.213635 -7.20786
  519 393.616 -36.4421 35.0379
  520 251.073 -20.7773 65.0153
  521 232.431 0.239647 1.52609
  522 232.442 0.234434 -1.48357
  523 100.087 9.51439 -51.6866
  524 100.356 9.22520 51.7774
  525 250.627 -20.1167 -64.4957
  526 462.329 25.5115 -16.8142
  527 199.103 -6.35666 -27.7623
  528 199.068 -6.63164 27.7728
  529 -0.526815 -10.1431 -7.58567
  530 -0.492372 -10.4668 7.78690
</Section>

newXOutput 22

<Section columns = "stress_xx | stress_yy | stress_xy">
  1 432.858 0.429570 1.42319
  2 432.905 0.418908 -1.44353
  3 248.067 -0.142880 -0.549111
  4 -3.30493 -3.25218 -3.51843
  5 745.528 316.690 258.267
  6 751.347 322.251 -248.309
  7 -3.41396 -3.35197 3.64372
  8 248.003 -0.137336 0.553311
  9 438.974 -2.16388 1.08617
  10 436.663 -2.57426 0.849764
  11 429.266 -1.74813 3.91173
  12 420.931 -1.51228 6.45769
  13 409.762 -2.05944 8.36675
  14 387.226 -1.76134 12.0651
  15 360.723 -0.0891011 14.1261
  16 332.610 1.77529 13.7540
  17 316.279 5.28572 8.54360
  18 293.182 8.61514 -0.162585
  19 315.406 5.69182 -9.62118
  20 335.603 1.47488 -15.1163
  21 358.383 0.429194 -14.2746
  22 387.880 -1.94006 -13.0821
  23 410.053 -2.61208 -8.96822
  24 421.042 -3.02008 -6.54922
  25 435.408 -3.21591 -2.87140
  26 433.062 -1.54108 -1.46928
  27 438.686 -1.85262 -0.950253
  28 415.322 -1.82309 -1.68758
  29 393.201 -4.60349 -1.21774
  30 364.648 -5.69515 -0.596072
  31 341.969 -5.57984 -1.16978
  32 320.055 -5.47633 0.529979
  33 290.171 -2.75780 0.586949
  34 266.736 -1.23708 -0.408423
  35 244.944 0.0280571 1.18174
  36 239.236 1.53799 0.766940
  37 236.313 -0.0184989 2.83378
  38 229.447 0.000197729 4.39235
  39 214.373 0.0568451 4.97143
  40 201.193 -0.503897 8.27558
  41 177.642 -0.435826 9.85028
  42 151.563 -0.259197 12.5304
  43 117.476 -1.25437 14.9624
  44 90.6600 0.225980 20.9520
  45 52.4862 3.47833 17.5647
  46 8.25477 6.52024 11.4963
  47 -16.5427 5.31447 4.67251
  48 -24.9262 4.56698 0.278485
  49 -20.5092 3.08672 -6.08156
  50 -11.5685 -0.684986 -4.91531
  51 -1.05418 -11.2684 -5.16757
  52 1.27722 -22.1885 -7.65609
  53 3.02936 -34.2782 -3.90722
  54 7.26740 -35.3775 -0.0790735
  55 15.1082 -8.26022 15.8577
  56 40.0283 71.9594 62.9810
  57 167.323 243.656 198.350
  58 1005.04 131.263 159.815
  59 845.147 35.0435 54.1901
  60 796.658 15.8693 18.3389
  61 776.836 10.9481 -2.29103
  62 795.409 16.4090 -20.2660
  63 859.688 39.4254 -62.9876
  64 977.829 149.515 -169.867
  65 194.870 273.520 -210.235
  66 42.5047 62.1562 -53.4653
  67 15.2555 -9.69017 -15.9517
  68 6.04634 -36.1452 -0.322540
  69 3.30045 -34.8800 3.38449
  70 1.46169 -22.7908 7.73282
  71 -1.05848 -11.6495 5.31404
  72 -11.9119 -0.645818 5.00655
  73 -20.9179 3.20596 6.05033
  74 -25.0040 4.58007 -0.455455
  75 -16.3578 5.22448 -4.72959
  76 8.37707 6.49074 -11.4408
  77 52.4557 3.50582 -17.5387
  78 90.6459 0.227983 -20.9387
  79 117.435 -1.27130 -14.9270
  80 151.427 -0.225500 -12.4937
  81 177.505 -0.380222 -9.90979
  82 201.274 -0.533351 -8.35358
  83 214.489 0.0200365 -4.97337
  84 229.510 0.00175820 -4.37258
  85 236.347 -0.0334106 -2.80959
  86 239.228 1.54956 -0.734381
  87 244.893 0.0379004 -1.17125
  88 266.723 -1.23530 0.398461
  89 290.210 -2.82216 -0.609341
  90 320.081 -5.58702 -0.531252
  91 342.061 -5.63600 1.15589
  92 364.698 -5.66196 0.606102
  93 393.153 -4.60331 1.21313
  94 415.150 -1.82691 1.70632
  95 375.738 -40.6626 -17.8528
  96 380.700 -40.3446 14.2067
  97 411.696 68.6650 -9.12633
  98 273.884 -8.25764 -92.1510
  99 270.094 -7.28575 92.5449
  100 472.668 95.3043 19.7414
  101 503.844 107.015 -8.01299
  102 318.329 -13.9655 -9.41822
  103 321.637 -13.6745 8.02483
  104 411.562 -0.526258 -39.6529
  105 458.512 -10.7758 -2.89977
  106 403.448 -3.06000 39.6773
  107 472.686 -4.35585 11.8962
  108 76.7195 39.5407 52.9719
  109 75.8376 37.6353 -54.8341
  110 387.637 -16.9353 12.4885
  111 388.856 -17.5757 -14.0513
  112 565.062 109.590 -3.01960
  113 253.063 -19.3735 -50.5408
  114 253.338 -19.2788 50.7975
  115 276.956 -16.0866 25.6220
  116 277.297 -15.7611 -25.4535
  117 232.458 46.5747 -139.503
  118 244.836 48.2676 140.836
  119 575.146 135.439 -25.7287
  120 612.922 123.733 38.8211
  121 396.232 35.5314 30.4537
  122 369.310 -10.3903 1.33610
  123 369.785 -11.2095 -1.36599
  124 368.119 13.7623 -27.1485
  125 135.133 3.82962 -58.7339
  126 135.302 3.61838 58.5049
  127 393.596 -10.1269 -29.2985
  128 438.286 14.8364 36.3987
  129 278.100 -4.85883 7.55131
  130 278.169 -4.91576 -7.42204
  131 343.354 -27.8059 -13.1089
  132 340.989 -26.6505 13.4624
  133 374.626 -40.8506 43.4751
  134 444.114 19.4099 -35.2702
  135 396.692 -25.5009 21.9432
  136 469.577 100.621 -0.687087
  137 388.522 -41.2960 -39.7544
  138 547.822 82.3056 18.0348
  139 511.235 29.0058 -76.7735
  140 357.046 23.9922 -0.944310
  141 392.295 -9.15560 29.1343
  142 400.198 -25.4215 -23.0834
  143 708.347 57.4554 18.0791
  144 424.369 -26.3543 -15.6045
  145 720.019 81.2425 -58.7390
  146 425.424 -25.8879 13.1375
  147 373.078 7.70820 32.4428
  148 11.4655 12.5784 1.35602
  149 12.0719 13.4171 -1.19821
  150 403.066 -7.22662 7.30414
  151 402.683 -6.64073 -7.02971
  152 308.933 -30.1487 -34.9978
  153 314.946 -29.4394 33.0687
  154 161.989 -5.64858 -46.2610
  155 161.988 -5.60994 46.2140
  156 333.243 -8.91907 -1.91776
  157 333.061 -8.36763 2.05615
  158 47.1654 57.8979 -57.1385
  159 60.7691 58.1981 59.9319
  160 411.448 37.8801 -35.4547
  161 232.498 -10.0471 -31.5703
  162 232.173 -10.5130 31.3704
  163 512.459 53.5767 128.649
  164 391.875 -16.7669 92.2932
  165 362.031 -19.8597 0.744918
  166 361.365 -18.9562 -0.700199
  167 403.292 -3.53929 2.32572
  168 402.870 -3.47221 -2.45721
  169 404.208 -31.3974 -65.0424
  170 257.044 -5.52204 -12.6847
  171 257.069 -5.52863 12.6051
  172 380.223 1.33208 -34.0376
  173 496.934 63.0643 16.4409
  174 497.638 59.8681 -18.7480
  175 430.120 79.3013 16.2852
  176 678.920 181.966 85.3079
  177 299.226 -32.9910 65.3379
  178 408.638 99.6069 -198.386
  179 302.348 -30.2581 -67.1199
  180 400.863 -7.66859 -16.2050
  181 400.642 -7.36108 16.5017
  182 379.932 -28.4614 -5.96003
  183 54.3257 13.2607 -32.4274
  184 54.4489 13.5833 32.5035
  185 192.907 20.4686 -98.4047
  186 189.238 21.6671 97.4012
  187 439.044 75.0056 -24.1250
  188 378.229 -27.4586 5.80193
  189 227.442 -10.6540 -74.2432
  190 227.987 -10.1590 74.7914
  191 194.730 -6.08668 -33.5941
  192 194.619 -6.22239 33.7513
  193 585.107 115.672 -44.5846
  194 195.805 123.479 164.375
  195 534.719 113.202 2.94726
  196 300.076 -4.74397 -3.09632
  197 299.862 -4.87149 3.08354
  198 336.811 -38.1463 38.8048
  199 106.741 100.390 -109.107
  200 339.511 -39.2343 -40.2020
  201 232.309 -4.55733 16.7412
  202 232.277 -4.73399 -16.6669
  203 413.867 -23.7541 25.7146
  204 744.010 80.0534 66.4108
  205 286.276 -10.4935 -15.4391
  206 285.843 -10.5296 15.1927
  207 433.615 58.9180 33.6161
  208 266.689 -1.50858 -2.74175
  209 266.731 -1.55426 2.76063
  210 526.095 114.167 -1.60341
  211 373.894 29.7480 -18.3516
  212 715.062 145.338 -98.0770
  213 395.397 52.1664 15.2360
  214 517.409 104.437 -7.68548
  215 394.925 -14.8808 24.7039
  216 347.401 -11.6074 -1.11590
  217 346.613 -13.5727 2.07270
  218 25.1054 13.7648 15.1689
  219 25.2450 13.4470 -15.4850
  220 345.122 12.1484 -11.9073
  221 380.555 -14.1506 5.78492
  222 381.518 -13.9528 -6.08719
  223 21.6260 20.7311 -14.9858
  224 19.3334 22.3729 15.9451
  225 366.917 -6.56052 -0.602115
  226 366.896 -6.47076 0.753899
  227 110.743 0.0454172 -35.3195
  228 110.800 0.0352746 35.2896
  229 299.780 10.6413 -116.908
  230 368.869 19.5841 25.8288
  231 393.020 -18.0653 -21.5762
  232 400.283 -12.7850 -34.9763
  233 363.798 -30.6324 72.2070
  234 437.087 -26.0461 4.68004
  235 449.935 61.9549 -32.9961
  236 381.477 -2.08124 -23.5318
  237 385.444 -1.56894 34.6293
  238 403.596 16.5032 40.0515
  239 625.937 142.677 79.3237
  240 752.546 29.1413 -15.2625
  241 387.481 12.5589 -38.3213
  242 396.833 -11.3293 35.0869
  243 265.520 -20.0598 -38.7299
  244 262.938 -20.0117 38.6859
  245 522.773 50.0247 -12.4301
  246 465.520 16.4089 24.3287
  247 -1.53842 -0.591679 -8.56957
  248 -1.51577 -0.372793 8.79201
  249 112.322 22.7672 -64.2892
  250 112.346 23.3413 64.1886
  251 360.690 3.36270 -24.8517
  252 384.298 -34.1281 2.51138
  253 143.364 46.6931 -100.467
  254 130.294 53.9574 95.1981
  255 63.9213 4.13442 -29.1413
  256 64.0675 4.06997 29.1900
  257 302.905 -8.66457 -6.78209
  258 302.842 -8.59136 6.83094
  259 413.051 -19.4614 -28.6782
  260 347.325 -31.6644 -69.6097
  261 459.655 5.56676 -19.4938
  262 364.370 -33.5772 8.13103
  263 380.893 31.9182 -145.480
  264 357.632 -35.3281 -15.0641
  265 310.552 -21.8138 -21.7933
  266 311.241 -22.8554 22.8316
  267 611.925 111.944 -31.3760
  268 503.953 108.843 2.09586
  269 508.242 18.0911 50.6745
  270 397.164 -4.92170 -17.2473
  271 254.605 -2.71586 6.29479
  272 254.622 -2.77663 -6.27234
  273 404.724 -33.9779 -9.97525
  274 428.635 -31.5286 -14.4293
  275 611.907 101.637 16.3773
  276 295.333 7.95708 115.831
  277 405.503 -33.6212 9.35690
  278 408.201 -3.94614 9.08943
  279 428.921 -5.20350 -34.0437
  280 369.015 175.962 212.194
  281 46.9935 66.8941 64.9177
  282 417.007 -3.31943 3.11382
  283 413.074 -3.11753 -4.07621
  284 379.773 -2.20117 21.1612
  285 346.165 14.2966 11.3256
  286 408.859 -3.41949 -8.88892
  287 432.686 -25.7029 45.1229
  288 174.802 5.62382 -78.6500
  289 174.491 5.25554 78.5889
  290 457.173 57.0573 30.4444
  291 401.204 -40.8170 -13.4870
  292 386.942 16.7214 36.0819
  293 385.719 -4.65175 0.362390
  294 385.736 -4.70743 -0.380654
  295 396.486 -4.42614 16.9550
  296 405.543 -40.1935 14.3265
  297 434.277 85.5986 3.34259
  298 584.938 120.321 -134.177
  299 319.900 -18.1284 -13.0693
  300 315.347 -18.2274 13.9981
  301 425.799 -12.1260 30.4678
  302 482.616 103.785 -7.18023
  303 302.019 -30.4338 -44.1294
  304 293.628 -28.7758 47.3204
  305 769.041 21.4032 13.6919
  306 789.839 29.1255 -44.7171
  307 396.469 -11.2665 -12.9847
  308 234.603 -1.78164 9.84755
  309 234.586 -1.76877 -9.82934
  310 121.663 83.9521 112.631
  311 396.308 -11.1134 12.7857
  312 421.848 18.2287 -40.1385
  313 208.601 -4.11208 -17.0125
  314 208.538 -4.09650 16.9075
  315 392.122 -6.92945 4.20696
  316 392.215 -7.17099 -4.42479
  317 2.71340 -7.89627 -6.41141
  318 3.12179 -8.32739 6.50110
  319 406.955 13.1513 120.183
  320 461.603 95.6990 12.0845
  321 390.111 -21.9054 17.1450
  322 123.469 -2.52296 -25.3748
  323 123.475 -2.50924 25.3801
  324 -3.69470 5.85790 -1.56626
  325 -3.87842 6.07411 1.36741
  326 397.277 47.0515 -22.0611
  327 519.215 107.974 5.50054
  328 389.183 -32.6653 -7.12862
  329 11.3981 8.85919 -15.5971
  330 14.4390 13.9458 18.0978
  331 222.418 -15.2878 59.4562
  332 222.265 -15.1700 -59.1235
  333 422.524 -1.29234 -0.990273
  334 422.475 -1.52599 1.08657
  335 351.664 -36.3115 22.3909
  336 360.132 1.42960 22.0099
  337 344.358 5.60759 18.7465
  338 37.1935 31.0317 -24.3770
  339 35.1539 28.0941 23.9236
  340 663.320 77.5881 -12.3289
  341 580.187 138.614 27.6941
  342 360.584 -25.7836 2.47407
  343 256.140 -1.12364 -2.76784
  344 256.131 -1.14847 2.82123
  345 426.842 56.7549 -32.7648
  346 172.277 -6.33747 60.4628
  347 172.280 -6.43063 -60.5322
  348 473.395 -5.38646 -36.5187
  349 275.948 -6.04410 -10.5664
  350 275.940 -5.81466 10.5265
  351 227.773 -12.5050 -39.5568
  352 227.371 -12.7857 39.6662
  353 179.835 -2.48274 19.1223
  354 179.751 -2.37609 -19.1037
  355 506.835 38.5836 -0.951049
  356 336.856 3.62511 -16.9169
  357 363.186 69.1557 178.734
  358 557.241 121.227 13.3091
  359 808.880 69.7006 -90.1826
  360 316.544 -6.42026 -2.33065
  361 316.535 -6.18082 2.27595
  362 347.654 -23.2130 -6.47999
  363 800.256 95.4283 96.2354
  364 351.162 -8.85246 -0.131221
  365 350.931 -9.07874 0.416950
  366 377.592 -22.4844 -6.74366
  367 327.747 -11.2530 -5.17113
  368 324.395 -10.6206 5.28134
  369 152.762 134.729 -146.495
  370 260.470 -8.89759 -18.7650
  371 260.411 -8.97155 18.6608
  372 319.702 10.2783 -0.390879
  373 768.931 193.149 -129.264
  374 158.690 -1.83042 -26.5292
  375 158.698 -1.77404 26.5816
  376 288.821 -22.1666 -29.7580
  377 283.905 -20.2649 30.3942
  378 390.900 27.8217 -33.1721
  379 365.364 -32.0821 -4.61698
  380 31.1238 63.3019 -53.3182
  381 274.949 -20.5383 -79.5514
  382 286.489 -23.0243 78.6236
  383 15.6843 3.23526 -12.6672
  384 15.6190 3.33642 12.7158
  385 342.251 -20.5207 6.93546
  386 239.714 -2.11654 -6.20077
  387 239.691 -2.11221 6.19650
  388 787.275 27.2887 41.0566
  389 341.780 -6.90845 -0.0480994
  390 341.865 -6.85503 -0.0235991
  391 377.777 -22.3587 6.96839
  392 833.208 226.587 161.474
  393 395.837 -13.5142 -18.1895
  394 680.495 94.5030 45.8927
  395 441.744 -27.6426 -33.9260
  396 386.879 47.5822 -2.38739
  397 350.421 -18.5811 -91.0395
  398 414.598 -7.50090 -92.4350
  399 53.7943 21.2718 -32.6030
  400 54.1503 22.2661 32.5590
  401 392.469 -24.8537 -18.0659
  402 252.077 -10.0257 26.7223
  403 251.972 -10.4658 -27.0202
  404 409.175 -2.28461 10.4307
  405 340.960 -17.3862 -5.57059
  406 419.025 -2.83663 4.67939
  407 418.580 5.27828 40.8140
  408 447.872 -14.9977 13.2362
  409 205.438 -8.57303 45.9603
  410 205.484 -8.80717 -46.0251
  411 131.193 74.3384 -109.657
  412 391.561 7.77925 39.4318
  413 399.140 -29.7565 18.1127
  414 340.711 -36.2390 50.6489
  415 644.151 131.585 -65.2690
  416 397.037 -19.6113 -27.7254
  417 442.066 -10.7199 -23.0494
  418 361.578 -15.9185 0.0463487
  419 365.444 -15.1697 -1.81947
  420 342.521 -38.7278 -50.8548
  421 397.484 0.941168 -40.3309
  422 340.599 -37.2061 -31.4338
  423 280.334 -2.82017 -2.29444
  424 280.335 -2.84819 2.25276
  425 418.534 63.7099 -24.1579
  426 409.844 -2.30105 -10.2675
  427 479.357 80.8292 -24.0043
  428 405.698 -38.5670 -45.0159
  429 422.821 -3.22004 -4.43343
  430 372.260 -43.0259 33.9209
  431 552.548 111.923 -8.73856
  432 298.022 -10.1723 10.8233
  433 298.818 -10.8499 -10.9517
  434 404.229 -3.03315 -0.237736
  435 404.122 -3.08098 0.209949
  436 394.880 -14.3541 18.5360
  437 293.696 -14.7865 19.1993
  438 293.907 -14.4676 -19.2014
  439 374.723 32.7211 14.7632
  440 372.762 -42.0541 -34.0775
  441 444.205 72.8602 26.0944
  442 396.691 -8.79068 23.0288
  443 498.284 43.7341 -134.580
  444 281.539 -4.32398 -5.14895
  445 281.439 -4.39748 5.14714
  446 462.744 91.2449 -19.0283
  447 382.890 -6.23285 -2.07554
  448 382.797 -5.95447 2.11671
  449 376.096 8.52041 -33.3294
  450 431.613 39.0469 -39.6776
  451 255.528 -0.371824 -0.616735
  452 255.570 -0.388215 0.625283
  453 396.636 -10.7021 -22.2501
  454 329.907 -17.1334 99.1843
  455 424.531 237.626 -240.860
  456 417.690 59.8468 26.8866
  457 126.573 34.0335 -80.1545
  458 123.588 35.4480 79.0174
  459 220.735 33.1267 -118.555
  460 222.429 35.7387 118.779
  461 74.8402 134.054 118.515
  462 336.876 -31.0867 21.1778
  463 595.350 132.697 35.4561
  464 66.5643 51.3494 -58.6182
  465 56.3974 46.6605 47.2916
  466 216.540 -1.16310 9.32659
  467 216.644 -1.24178 -9.32840
  468 509.735 110.752 -2.66988
  469 27.1813 19.1157 16.3127
  470 27.1927 19.2439 -16.8659
  471 469.428 44.3765 -29.5389
  472 -0.151633 3.52627 -5.55760
  473 -0.245706 3.65371 5.39713
  474 390.626 -5.54325 -35.1973
  475 5.24626 -14.2221 -0.00591632
  476 4.83857 -12.4272 -0.186991
  477 426.851 -2.72418 1.78470
  478 426.146 -1.58187 -1.93259
  479 288.335 -29.1029 57.1371
  480 289.203 -29.6228 -57.0995
  481 563.974 69.9096 53.2898
  482 442.078 86.7818 -10.5948
  483 413.447 -11.7723 36.2165
  484 528.513 83.3030 -5.48637
  485 490.840 19.6053 5.12767
  486 492.385 109.224 7.03469
  487 410.861 66.5446 9.48516
  488 230.696 80.6411 -160.881
  489 404.091 -19.8160 30.7144
  490 491.042 87.8982 18.4929
  491 449.637 -14.2440 61.6590
  492 390.323 -27.6860 13.9817
  493 314.774 -7.69032 -3.83606
  494 314.111 -7.74011 3.67851
  495 422.883 36.8925 38.5645
  496 670.440 133.291 74.3458
  497 397.202 -17.0309 28.1485
  498 441.982 -4.49399 27.9319
  499 740.954 48.2073 40.5472
  500 188.806 -2.11258 73.4033
  501 234.815 -5.68923 83.9925
  502 188.672 -2.16372 -73.2917
  503 232.907 -6.37201 -84.7149
  504 622.797 169.402 -61.6341
  505 362.951 -26.3790 -2.23509
  506 386.904 -22.7772 -13.9421
  507 -3.81146 -3.61010 -6.13263
  508 -3.92226 -3.66810 6.32275
  509 639.140 174.067 166.516
  510 301.903 -4.53671 -2.01455
  511 301.840 -4.44754 1.97098
  512 330.159 -29.4058 -24.4470
  513 337.753 -33.7053 63.2228
  514 418.606 -25.3438 21.0585
  515 403.862 17.3318 -40.6149
  516 360.218 1.16088 -21.1086
  517 -10.7764 0.358429 7.64066
  518 -10.4263 0.232836 -7.54116
  519 412.199 -38.1783 36.9552
  520 263.258 -21.7939 68.2487
  521 244.144 0.253791 1.61128
  522 244.156 0.248308 -1.56702
  523 105.179 9.95514 -54.3201
  524 105.462 9.65153 54.4137
  525 262.792 -21.1017 -67.7056
  526 484.086 26.7629 -17.2110
  527 209.090 -6.65208 -29.1247
  528 209.053 -6.93986 29.1355
  529 -0.541735 -10.6142 -7.93689
  530 -0.506000 -10.9547 8.14889
</Section>

newXOutput 23

<Section columns = "stress_xx | stress_yy | stress_xy">
  1 452.083 0.428502 1.47465
  2 452.133 0.418604 -1.49564
  3 259.987 -0.143282 -0.567773
  4 -3.45998 -3.40446 -3.68473
  5 776.486 331.376 269.527
  6 782.780 337.262 -259.133
  7 -3.57427 -3.50906 3.81600
  8 259.922 -0.137503 0.572115
  9 458.435 -2.26724 1.11976
  10 456.054 -2.69509 0.864836
  11 448.422 -1.83629 4.04443
  12 439.817 -1.59336 6.68758
  13 428.272 -2.15958 8.67567
  14 404.915 -1.84393 12.5325
  15 377.406 -0.0907962 14.6899
  16 348.194 1.86523 14.3139
  17 331.210 5.54024 8.89879
  18 307.198 9.00290 -0.169179
  19 330.304 5.96161 -10.0215
  20 351.302 1.55167 -15.7292
  21 374.982 0.444458 -14.8413
  22 405.593 -2.03157 -13.5889
  23 428.575 -2.73570 -9.29998
  24 439.933 -3.15987 -6.78400
  25 454.796 -3.36095 -2.96342
  26 452.328 -1.62346 -1.50392
  27 458.138 -1.94323 -0.978564
  28 433.889 -1.92960 -1.75083
  29 410.913 -4.83591 -1.25764
  30 381.229 -5.97113 -0.602199
  31 357.640 -5.84090 -1.21126
  32 334.841 -5.71961 0.566935
  33 303.754 -2.87392 0.619897
  34 279.387 -1.28341 -0.419142
  35 256.733 0.0335695 1.23883
  36 250.773 1.60357 0.813643
  37 247.695 -0.0154935 2.97441
  38 240.501 0.00458029 4.59959
  39 224.745 0.0614627 5.20715
  40 210.958 -0.524051 8.65658
  41 186.333 -0.452949 10.3079
  42 159.059 -0.268000 13.1136
  43 123.393 -1.31348 15.6683
  44 95.3101 0.232903 21.9416
  45 55.3098 3.63658 18.4200
  46 8.95775 6.82028 12.0811
  47 -17.0855 5.56173 4.93189
  48 -25.9597 4.78324 0.329512
  49 -21.4258 3.24118 -6.34250
  50 -12.1017 -0.709801 -5.13842
  51 -1.09632 -11.7897 -5.40345
  52 1.34830 -23.1892 -7.99113
  53 3.18450 -35.7461 -4.04014
  54 7.63098 -36.7609 0.0118189
  55 15.8537 -8.15966 16.7590
  56 41.9085 76.1668 66.1063
  57 174.519 255.735 207.264
  58 1046.97 136.957 166.278
  59 881.163 36.5490 56.3804
  60 830.817 16.5610 19.0751
  61 810.243 11.4292 -2.38141
  62 829.521 17.1253 -21.0818
  63 896.220 41.1252 -65.5230
  64 1018.80 156.019 -176.820
  65 203.188 286.953 -219.564
  66 44.5432 65.8394 -56.1730
  67 16.0028 -9.64847 -16.8465
  68 6.34766 -37.5742 -0.424190
  69 3.46672 -36.3816 3.49546
  70 1.54097 -23.8218 8.07256
  71 -1.10110 -12.1894 5.55721
  72 -12.4618 -0.668985 5.23426
  73 -21.8552 3.36591 6.31042
  74 -26.0443 4.79707 -0.514280
  75 -16.8957 5.46786 -4.99151
  76 9.08222 6.78967 -12.0234
  77 55.2755 3.66539 -18.3932
  78 95.2937 0.235016 -21.9282
  79 123.349 -1.33121 -15.6317
  80 158.916 -0.232869 -13.0755
  81 186.190 -0.394868 -10.3700
  82 211.043 -0.554790 -8.73799
  83 224.866 0.0230140 -5.20925
  84 240.567 0.00620233 -4.57911
  85 247.731 -0.0310911 -2.94934
  86 250.765 1.61560 -0.779828
  87 256.680 0.0438344 -1.22794
  88 279.374 -1.28159 0.408741
  89 303.795 -2.94111 -0.643239
  90 334.869 -5.83522 -0.568265
  91 357.735 -5.89972 1.19680
  92 381.281 -5.93676 0.612835
  93 410.862 -4.83559 1.25295
  94 433.709 -1.93368 1.77003
  95 392.752 -42.5088 -18.8814
  96 397.922 -42.1749 15.0756
  97 430.547 71.7762 -9.48098
  98 286.400 -8.66462 -96.4979
  99 282.451 -7.64622 96.9123
  100 494.077 99.5799 20.3738
  101 526.572 111.809 -8.12190
  102 333.019 -14.5866 -9.93162
  103 336.462 -14.2840 8.47864
  104 430.233 -0.559484 -41.1496
  105 479.011 -11.2291 -3.39408
  106 421.787 -3.20340 41.1977
  107 493.737 -4.49685 12.8114
  108 80.4400 41.3895 55.6033
  109 79.5118 39.3986 -57.5514
  110 405.198 -17.7161 12.8661
  111 406.474 -18.3845 -14.4896
  112 590.363 114.415 -3.18233
  113 264.844 -20.2590 -52.9292
  114 265.132 -20.1593 53.1949
  115 289.878 -16.7996 26.8565
  116 290.234 -16.4607 -26.6830
  117 243.059 48.7348 -146.025
  118 255.952 50.5260 147.416
  119 600.819 141.508 -27.1743
  120 640.153 129.212 40.7056
  121 414.378 37.1587 31.6561
  122 386.087 -10.8735 1.30241
  123 386.582 -11.7282 -1.33207
  124 385.104 14.4110 -28.2430
  125 141.622 3.98098 -61.5477
  126 141.800 3.76053 61.3071
  127 411.492 -10.5966 -30.4007
  128 458.079 15.5071 37.7018
  129 291.166 -5.06440 7.93218
  130 291.238 -5.12414 -7.79816
  131 359.042 -29.0565 -13.8577
  132 356.583 -27.8466 14.2204
  133 391.526 -42.7094 45.6662
  134 464.156 20.2915 -36.5194
  135 414.658 -26.6675 22.6706
  136 490.918 105.112 -0.712077
  137 406.014 -43.1734 -41.7870
  138 572.108 86.1735 19.3410
  139 533.716 30.5373 -80.5982
  140 373.606 25.1196 -0.983371
  141 410.147 -9.57904 30.2371
  142 418.315 -26.5851 -23.8480
  143 739.230 59.9620 18.8548
  144 443.471 -27.5554 -15.9902
  145 751.394 84.7865 -61.2899
  146 444.570 -27.0644 13.4071
  147 390.245 8.07305 33.7414
  148 12.0821 13.2232 1.53403
  149 12.7152 14.1007 -1.36665
  150 421.215 -7.57471 7.52358
  151 420.818 -6.96452 -7.23900
  152 323.141 -31.5092 -36.7064
  153 329.409 -30.7666 34.6953
  154 169.778 -5.91678 -48.4455
  155 169.778 -5.87642 48.3956
  156 348.558 -9.32045 -2.06621
  157 348.368 -8.74451 2.21063
  158 49.4501 60.7552 -60.0036
  159 63.7010 61.0447 62.9289
  160 430.216 39.6027 -36.8295
  161 243.493 -10.4942 -33.0484
  162 243.153 -10.9811 32.8399
  163 534.812 56.3632 134.747
  164 409.371 -17.5012 96.6821
  165 378.516 -20.7593 0.622347
  166 377.822 -19.8172 -0.581823
  167 421.408 -3.72769 2.38125
  168 420.971 -3.65789 -2.51779
  169 422.294 -32.7902 -68.2355
  170 269.214 -5.75777 -13.2933
  171 269.240 -5.76449 13.2101
  172 397.653 1.39893 -35.3865
  173 519.202 65.9674 16.7703
  174 519.930 62.6233 -19.1707
  175 449.750 82.8785 16.8979
  176 708.732 190.125 89.3591
  177 312.913 -34.5097 68.4539
  178 426.510 104.443 -207.417
  179 316.166 -31.6538 -70.3169
  180 418.997 -8.03091 -16.7853
  181 418.767 -7.71107 17.0942
  182 397.166 -29.7532 -6.01054
  183 57.0726 13.8694 -34.0486
  184 57.2039 14.2057 34.1276
  185 201.855 21.3796 -103.074
  186 198.023 22.6310 102.023
  187 459.031 78.3886 -25.0140
  188 395.391 -28.7043 5.84984
  189 238.022 -11.1703 -77.7462
  190 238.591 -10.6528 78.3184
  191 204.055 -6.36058 -35.1666
  192 203.939 -6.50212 35.3301
  193 610.928 121.100 -47.1170
  194 204.649 129.304 172.007
  195 558.778 118.219 3.20226
  196 314.049 -4.94916 -3.27002
  197 313.827 -5.08206 3.25668
  198 352.162 -39.8792 40.7323
  199 111.733 105.220 -114.341
  200 354.970 -41.0184 -42.1977
  201 243.384 -4.75366 17.5287
  202 243.350 -4.93819 -17.4515
  203 432.563 -24.8411 26.5732
  204 776.317 83.5380 69.2588
  205 299.632 -10.9530 -16.2046
  206 299.181 -10.9901 15.9469
  207 453.325 61.5853 34.8670
  208 279.328 -1.56636 -2.88213
  209 279.371 -1.61397 2.90165
  210 549.769 119.263 -1.89548
  211 391.133 31.1281 -19.0916
  212 746.347 151.759 -102.443
  213 413.542 54.5473 15.8347
  214 540.632 109.163 -7.65290
  215 412.838 -15.5709 25.5941
  216 363.287 -12.1370 -1.26347
  217 362.467 -14.1873 2.26977
  218 26.4414 14.4140 15.9898
  219 26.5844 14.0822 -16.3196
  220 361.198 12.7301 -12.3949
  221 397.801 -14.8051 5.90349
  222 398.806 -14.5984 -6.21707
  223 22.7027 21.8229 -15.8439
  224 20.3049 23.5411 16.8519
  225 383.593 -6.87455 -0.577238
  226 383.571 -6.78107 0.735903
  227 116.208 0.0352981 -37.0045
  228 116.269 0.0247601 36.9725
  229 313.335 11.1321 -122.387
  230 385.894 20.4981 26.8706
  231 410.840 -18.8991 -22.3240
  232 418.461 -13.3740 -36.2845
  233 380.178 -32.0307 75.6755
  234 456.678 -27.2166 5.21651
  235 470.315 64.7519 -34.1835
  236 398.943 -2.18007 -24.4503
  237 403.067 -1.64063 35.9838
  238 421.991 17.2551 41.6122
  239 653.315 149.385 83.4258
  240 785.072 30.4098 -15.9039
  241 405.221 13.1366 -39.8399
  242 414.873 -11.8528 36.4136
  243 277.891 -20.9641 -40.5708
  244 275.200 -20.9138 40.5238
  245 545.969 52.4192 -13.4444
  246 486.404 17.1717 25.0468
  247 -1.56705 -0.583298 -8.92017
  248 -1.54461 -0.354857 9.15431
  249 117.695 23.7978 -67.4114
  250 117.722 24.3967 67.3039
  251 377.368 3.53074 -25.8543
  252 401.706 -35.6764 2.38588
  253 150.075 48.8534 -105.269
  254 136.413 56.4556 99.7618
  255 67.1813 4.31497 -30.5700
  256 67.3362 4.24743 30.6202
  257 316.981 -9.04337 -7.14474
  258 316.916 -8.96613 7.19411
  259 431.723 -20.3550 -29.6695
  260 363.026 -33.1135 -72.9551
  261 480.270 5.83333 -19.9935
  262 380.930 -35.0942 8.69531
  263 397.796 33.4858 -152.228
  264 373.903 -36.9248 -15.9338
  265 324.873 -22.7875 -22.8914
  266 325.583 -23.8770 23.9780
  267 639.111 116.876 -32.8742
  268 526.739 113.681 2.10541
  269 530.677 19.0824 53.3532
  270 415.197 -5.15161 -17.8952
  271 266.714 -2.82690 6.60172
  272 266.732 -2.89041 -6.57861
  273 422.995 -35.5255 -10.1423
  274 447.848 -32.9498 -15.3871
  275 639.082 106.101 17.1711
  276 308.698 8.32328 121.263
  277 423.805 -35.1510 9.49469
  278 426.590 -4.14214 9.39834
  279 448.279 -5.44698 -35.2539
  280 384.862 184.477 221.788
  281 49.2492 70.3625 68.1465
  282 435.673 -3.48664 3.19840
  283 431.589 -3.28064 -4.19602
  284 397.173 -2.30227 21.9888
  285 362.282 14.9752 11.7882
  286 427.273 -3.59207 -9.19019
  287 451.993 -26.8369 47.4450
  288 183.008 5.84636 -82.3981
  289 182.683 5.46193 82.3335
  290 477.838 59.6458 31.4913
  291 419.279 -42.6722 -14.3624
  292 404.680 17.4971 37.5175
  293 403.139 -4.88907 0.347444
  294 403.157 -4.94712 -0.366016
  295 414.497 -4.63232 17.5945
  296 423.794 -42.0183 15.2433
  297 454.105 89.4509 3.46747
  298 610.263 126.249 -140.630
  299 334.633 -18.9366 -13.7698
  300 329.891 -19.0384 14.7362
  301 445.017 -12.6848 31.5170
  302 504.494 108.411 -7.37680
  303 315.897 -31.8171 -46.2583
  304 307.152 -30.0847 49.5827
  305 802.178 22.3366 14.2570
  306 823.803 30.3802 -46.5596
  307 414.390 -11.7954 -13.4121
  308 245.825 -1.85562 10.3115
  309 245.808 -1.84222 -10.2928
  310 127.349 87.9037 118.014
  311 414.222 -11.6346 13.2057
  312 440.985 19.0522 -41.6545
  313 218.625 -4.29149 -17.8071
  314 218.559 -4.27528 17.6975
  315 409.816 -7.26712 4.30628
  316 409.914 -7.51846 -4.53257
  317 2.86156 -8.18268 -6.64527
  318 3.28809 -8.63576 6.74121
  319 425.013 13.8541 125.822
  320 482.585 99.9853 12.4979
  321 407.793 -22.9084 17.6928
  322 129.594 -2.64264 -26.5728
  323 129.601 -2.62832 26.5777
  324 -3.76987 6.14660 -1.57348
  325 -3.96432 6.37293 1.36650
  326 415.491 49.2006 -22.9323
  327 542.532 112.865 5.37145
  328 406.802 -34.1496 -7.20112
  329 11.9666 9.54342 -16.4751
  330 15.1552 14.8728 19.1012
  331 232.830 -16.0000 62.2661
  332 232.671 -15.8764 -61.9193
  333 441.366 -1.37182 -1.01705
  334 441.315 -1.61562 1.11657
  335 367.669 -37.9520 23.5827
  336 376.784 1.50002 22.8913
  337 360.398 5.87929 19.5098
  338 39.0440 32.5339 -25.6797
  339 36.9131 29.4602 25.2095
  340 692.499 80.9768 -12.8806
  341 606.008 144.867 29.2946
  342 377.002 -26.9490 2.76241
  343 268.348 -1.16757 -2.90925
  344 268.337 -1.19342 2.96469
  345 446.279 59.3214 -34.0053
  346 180.453 -6.65145 63.3278
  347 180.455 -6.74927 -63.4013
  348 494.422 -5.54532 -38.5156
  349 288.904 -6.30296 -11.0940
  350 288.895 -6.06329 11.0518
  351 238.515 -13.0696 -41.4138
  352 238.097 -13.3627 41.5274
  353 188.566 -2.59287 20.0117
  354 188.478 -2.48157 -19.9925
  355 529.392 40.4135 -0.549261
  356 352.603 3.81239 -17.6087
  357 379.261 72.4565 186.913
  358 582.199 126.642 14.1372
  359 843.657 72.7066 -93.9977
  360 331.186 -6.70419 -2.46624
  361 331.176 -6.45446 2.40933
  362 363.536 -24.2557 -6.92164
  363 834.753 99.5759 100.323
  364 367.203 -9.26229 -0.207997
  365 366.962 -9.49816 0.506807
  366 394.727 -23.5076 -6.85717
  367 342.833 -11.7544 -5.48481
  368 339.344 -11.0933 5.59202
  369 159.569 141.383 -153.313
  370 272.732 -9.28836 -19.6635
  371 272.670 -9.36508 19.5538
  372 334.768 10.7649 -0.407025
  373 802.047 201.826 -135.100
  374 166.425 -1.91286 -27.7725
  375 166.433 -1.85385 27.8266
  376 302.211 -23.1587 -31.2050
  377 297.086 -21.1704 31.8601
  378 408.814 29.0998 -34.4901
  379 381.978 -33.5310 -5.02487
  380 32.6244 66.6324 -55.9859
  381 287.565 -21.5041 -83.3095
  382 299.599 -24.1000 82.3412
  383 16.6705 3.38064 -13.3193
  384 16.6054 3.48615 13.3700
  385 357.915 -21.4408 7.38059
  386 251.196 -2.20563 -6.49700
  387 251.171 -2.20104 6.49233
  388 821.147 28.4648 42.7541
  389 357.442 -7.22675 -0.0823930
  390 357.531 -7.17059 0.00806599
  391 394.921 -23.3758 7.09424
  392 868.664 236.790 168.641
  393 413.761 -14.1430 -18.8202
  394 710.370 98.6474 47.9276
  395 461.458 -28.8666 -35.7614
  396 404.673 49.7638 -2.48406
  397 366.195 -19.4207 -95.3572
  398 433.045 -7.77100 -96.8523
  399 56.4730 22.2626 -34.2679
  400 56.8483 23.3004 34.2219
  401 410.251 -25.9893 -18.6325
  402 263.944 -10.4675 27.9854
  403 263.836 -10.9276 -28.2977
  404 427.642 -2.39809 10.8106
  405 356.577 -18.1675 -5.94099
  406 437.801 -2.98171 4.82605
  407 437.555 5.51299 42.3503
  408 467.960 -15.6660 13.4802
  409 215.171 -8.96613 48.1175
  410 215.219 -9.21115 -48.1860
  411 137.300 77.8351 -114.889
  412 409.454 8.13675 40.9856
  413 417.196 -31.1147 18.6541
  414 356.182 -37.8935 53.1208
  415 672.624 137.415 -68.2861
  416 415.042 -20.5121 -28.7186
  417 461.939 -11.2060 -23.7436
  418 378.043 -16.6423 -0.0768961
  419 382.068 -15.8621 -1.77290
  420 358.067 -40.4954 -53.3396
  421 415.592 0.980876 -41.8994
  422 356.133 -38.8904 -33.0190
  423 293.522 -2.93598 -2.41028
  424 293.522 -2.96511 2.36680
  425 437.652 66.5918 -25.0887
  426 428.336 -2.41403 -10.6413
  427 500.979 84.4817 -24.7412
  428 423.885 -40.3055 -47.3106
  429 441.735 -3.37856 -4.57416
  430 389.094 -44.9825 35.6697
  431 577.179 117.064 -9.59256
  432 311.879 -10.6180 11.3820
  433 312.708 -11.3258 -11.5167
  434 422.372 -3.19806 -0.230539
  435 422.260 -3.24786 0.201582
  436 412.763 -15.0217 19.1771
  437 307.332 -15.4401 20.1506
  438 307.554 -15.1079 -20.1540
  439 392.004 34.2368 15.3574
  440 389.619 -43.9690 -35.8321
  441 464.399 76.1487 27.0480
  442 414.683 -9.20172 23.8777
  443 520.043 46.0326 -140.893
  444 294.764 -4.50514 -5.40745
  445 294.659 -4.58160 5.40518
  446 483.738 95.3421 -19.6625
  447 400.208 -6.53908 -2.10222
  448 400.112 -6.24849 2.14561
  449 393.379 8.91792 -34.6634
  450 451.196 40.8131 -41.1764
  451 267.733 -0.382613 -0.654434
  452 267.776 -0.399682 0.663260
  453 414.621 -11.2011 -23.0613
  454 344.795 -17.9176 103.858
  455 442.550 249.119 -251.577
  456 436.755 62.5609 27.9201
  457 132.576 35.5930 -84.0319
  458 129.462 37.0695 82.8402
  459 230.884 34.6367 -124.144
  460 232.635 37.3600 124.371
  461 78.2857 140.852 124.193
  462 352.281 -32.4855 22.2913
  463 621.671 138.845 37.5845
  464 69.7694 53.7995 -61.5306
  465 59.1531 48.8960 49.6893
  466 226.967 -1.21124 9.76179
  467 227.075 -1.29343 -9.76377
  468 532.769 115.664 -2.74909
  469 28.5847 20.0292 17.2122
  470 28.5932 20.1643 -17.7890
  471 490.539 46.3981 -30.4864
  472 0.0177235 3.68883 -5.88196
  473 -0.0775061 3.82188 5.71451
  474 408.442 -5.79920 -36.5608
  475 5.50761 -14.7113 -0.0962400
  476 5.08319 -12.8270 -0.101423
  477 445.868 -2.85759 1.83505
  478 445.137 -1.67057 -1.98816
  479 301.590 -30.4377 59.8585
  480 302.497 -30.9810 -59.8228
  481 588.760 73.3407 56.1866
  482 462.231 90.6798 -10.9749
  483 432.165 -12.3167 37.5453
  484 552.097 87.1415 -5.27060
  485 512.723 20.5594 4.94966
  486 514.669 114.104 7.17423
  487 429.673 69.5648 9.85664
  488 241.109 84.4621 -168.362
  489 422.398 -20.7254 31.8184
  490 513.176 91.8783 18.9823
  491 469.614 -14.8054 64.7500
  492 408.003 -28.9474 14.3660
  493 329.338 -8.02986 -4.06091
  494 328.649 -8.08188 3.89640
  495 442.100 38.5653 40.0280
  496 699.963 139.165 77.7103
  497 415.214 -17.8162 29.1667
  498 461.864 -4.69975 28.8386
  499 773.079 50.3004 42.2597
  500 197.670 -2.24406 76.8815
  501 245.672 -5.98557 87.9541
  502 197.531 -2.29840 -76.7652
  503 243.682 -6.70169 -88.7076
  504 650.382 177.020 -64.7039
  505 379.470 -27.5701 -2.51452
  506 404.442 -23.8178 -14.3498
  507 -3.98206 -3.77235 -6.41083
  508 -4.09845 -3.83334 6.61027
  509 666.539 182.430 174.415
  510 315.957 -4.73148 -2.11908
  511 315.891 -4.63847 2.07374
  512 345.276 -30.7295 -25.6933
  513 353.070 -35.2526 66.2640
  514 437.485 -26.5009 21.6960
  515 422.271 18.1181 -42.1959
  516 376.875 1.21586 -21.9515
  517 -11.2494 0.384087 7.97684
  518 -10.8818 0.252809 -7.87198
  519 430.682 -39.9066 38.8859
  520 275.408 -22.8085 71.4796
  521 255.861 0.268126 1.69715
  522 255.875 0.262373 -1.65116
  523 110.279 10.3927 -56.9574
  524 110.575 10.0747 57.0536
  525 274.923 -22.0848 -70.9133
  526 505.720 28.0129 -17.5701
  527 219.077 -6.94545 -30.4842
  528 219.039 -7.24594 30.4954
  529 -0.555616 -11.0819 -8.28553
  530 -0.518627 -11.4394 8.50837
</Section>

newXOutput 24

<Section columns = "stress_xx | stress_yy | stress_xy">
  1 471.191 0.425788 1.52483
  2 471.244 0.416747 -1.54646
  3 271.911 -0.143154 -0.585840
  4 -3.61483 -3.55651 -3.85092
  5 807.076 346.022 280.696
  6 813.860 352.237 -269.869
  7 -3.73437 -3.66591 3.98816
  8 271.844 -0.137143 0.590319
  9 477.775 -2.37054 1.15196
  10 475.327 -2.81572 0.877991
  11 467.469 -1.92479 4.17297
  12 458.604 -1.67512 6.91137
  13 446.695 -2.25986 8.97748
  14 422.536 -1.92638 12.9912
  15 394.042 -0.0922612 15.2447
  16 363.750 1.95563 14.8659
  17 346.125 5.79501 9.24963
  18 321.214 9.38879 -0.175679
  19 345.186 6.23129 -10.4169
  20 366.973 1.62902 -16.3332
  21 391.537 0.459324 -15.3988
  22 423.238 -2.12298 -14.0863
  23 447.010 -2.85923 -9.62416
  24 458.725 -3.29927 -7.01271
  25 474.070 -3.50529 -3.05199
  26 471.479 -1.70648 -1.53587
  27 477.470 -2.03396 -1.00557
  28 452.353 -2.03754 -1.81272
  29 428.538 -5.06917 -1.29613
  30 397.741 -6.24726 -0.606608
  31 373.256 -6.10137 -1.25163
  32 349.586 -5.96131 0.604772
  33 317.314 -2.98871 0.653205
  34 292.030 -1.32869 -0.429175
  35 268.526 0.0394293 1.29595
  36 262.317 1.66853 0.861106
  37 259.084 -0.0121633 3.11538
  38 251.561 0.00932603 4.80653
  39 235.127 0.0662438 5.44263
  40 220.736 -0.543868 9.03631
  41 195.040 -0.469746 10.7643
  42 166.575 -0.276475 13.6955
  43 129.335 -1.37250 16.3733
  44 99.9875 0.239542 22.9302
  45 58.1606 3.79421 19.2767
  46 9.68730 7.11942 12.6691
  47 -17.6069 5.80849 5.19443
  48 -26.9799 4.99939 0.383806
  49 -22.3371 3.39629 -6.60093
  50 -12.6332 -0.733941 -5.36057
  51 -1.13777 -12.3097 -5.63843
  52 1.42026 -24.1850 -8.32357
  53 3.34057 -37.1996 -4.16845
  54 7.99601 -38.1181 0.110817
  55 16.6014 -8.01676 17.6722
  56 43.7857 80.4381 69.2402
  57 181.651 267.847 216.128
  58 1088.41 142.605 172.650
  59 916.831 38.0412 58.5396
  60 864.664 17.2475 19.8005
  61 843.353 11.9070 -2.47028
  62 863.322 17.8362 -21.8856
  63 932.391 42.8104 -68.0213
  64 1059.32 162.472 -183.680
  65 211.426 300.410 -228.831
  66 46.5818 69.5823 -58.8922
  67 16.7516 -9.56372 -17.7525
  68 6.65009 -38.9777 -0.533229
  69 3.63377 -37.8692 3.60207
  70 1.62108 -24.8481 8.40979
  71 -1.14304 -12.7279 5.79950
  72 -13.0100 -0.691496 5.46103
  73 -22.7874 3.52648 6.56806
  74 -27.0715 5.01396 -0.576317
  75 -17.4127 5.71075 -5.25655
  76 9.81364 7.08771 -12.6091
  77 58.1223 3.82434 -19.2492
  78 99.9687 0.241766 -22.9167
  79 129.288 -1.39103 -16.3356
  80 166.426 -0.239924 -13.6560
  81 194.891 -0.409202 -10.8290
  82 220.824 -0.575881 -9.12109
  83 235.253 0.0261648 -5.44489
  84 251.630 0.0110085 -4.78535
  85 259.122 -0.0284448 -3.08946
  86 262.310 1.68101 -0.826058
  87 268.472 0.0501119 -1.28466
  88 292.017 -1.32683 0.418339
  89 317.357 -3.05871 -0.677488
  90 349.615 -6.08179 -0.606157
  91 373.355 -6.16284 1.23660
  92 397.795 -6.21175 0.617861
  93 428.485 -5.06871 1.29136
  94 452.166 -2.04189 1.83234
  95 409.690 -44.3471 -19.9240
  96 415.067 -43.9973 15.9595
  97 449.331 74.8739 -9.82901
  98 298.869 -9.07269 -100.840
  99 294.762 -8.00775 101.275
  100 515.390 103.834 20.9814
  101 549.189 116.578 -8.20910
  102 347.667 -15.2040 -10.4498
  103 351.244 -14.8899 8.93779
  104 448.824 -0.593079 -42.6144
  105 499.396 -11.6770 -3.91680
  106 440.049 -3.34635 42.6881
  107 514.665 -4.63175 13.7542
  108 84.1653 43.2352 58.2433
  109 83.1904 41.1591 -60.2772
  110 422.680 -18.4946 13.2265
  111 424.014 -19.1908 -14.9097
  112 615.525 119.206 -3.34639
  113 276.600 -21.1411 -55.3151
  114 276.902 -21.0365 55.5895
  115 302.775 -17.5080 28.0915
  116 303.145 -17.1559 -27.9132
  117 253.618 50.8899 -152.535
  118 267.020 52.7809 153.983
  119 626.344 147.545 -28.6361
  120 667.215 134.656 42.5913
  121 432.460 38.7805 32.8381
  122 402.795 -11.3555 1.26120
  123 403.309 -12.2455 -1.29051
  124 402.039 15.0591 -29.3210
  125 148.115 4.12971 -64.3622
  126 148.300 3.90013 64.1100
  127 429.315 -11.0652 -31.4793
  128 477.779 16.1752 38.9698
  129 304.214 -5.26778 8.31445
  130 304.289 -5.33033 -8.17579
  131 374.672 -30.3008 -14.6160
  132 372.121 -29.0363 14.9873
  133 408.346 -44.5607 47.8664
  134 484.102 21.1699 -37.7336
  135 432.544 -27.8297 23.3726
  136 512.169 109.578 -0.736409
  137 423.419 -45.0431 -43.8302
  138 596.241 90.0374 20.6820
  139 556.039 32.0816 -84.4347
  140 390.125 26.2457 -1.02193
  141 427.926 -10.0013 31.3169
  142 436.349 -27.7445 -24.5857
  143 769.874 62.4496 19.6235
  144 462.477 -28.7517 -16.3472
  145 782.523 88.3034 -63.8198
  146 463.619 -28.2357 13.6480
  147 407.358 8.43777 35.0197
  148 12.7046 13.8718 1.72174
  149 13.3642 14.7880 -1.54460
  150 439.275 -7.92294 7.73298
  151 438.864 -7.28875 -7.43848
  152 337.302 -32.8632 -38.4177
  153 343.823 -32.0874 36.3253
  154 177.572 -6.18483 -50.6278
  155 177.573 -6.14276 50.5750
  156 363.822 -9.71971 -2.21900
  157 363.625 -9.11943 2.36940
  158 51.7373 63.6205 -62.8800
  159 66.6352 63.8972 65.9372
  160 448.911 41.3187 -38.1785
  161 254.478 -10.9386 -34.5238
  162 254.125 -11.4463 34.3067
  163 556.993 59.1695 140.840
  164 426.768 -18.2299 101.069
  165 394.934 -21.6548 0.487471
  166 394.214 -20.6744 -0.451641
  167 439.432 -3.91750 2.43252
  168 438.980 -3.84501 -2.57400
  169 440.281 -34.1742 -71.4354
  170 281.375 -5.99119 -13.9019
  171 281.401 -5.99801 13.8149
  172 415.023 1.46617 -36.7131
  173 541.350 68.8626 17.0634
  174 542.102 65.3708 -19.5557
  175 469.304 86.4388 17.4972
  176 738.330 198.241 93.4060
  177 326.550 -36.0239 71.5693
  178 444.248 109.287 -216.411
  179 329.933 -33.0456 -73.5130
  180 437.048 -8.39287 -17.3505
  181 436.809 -8.06088 17.6713
  182 414.326 -31.0396 -6.04260
  183 59.8327 14.4761 -35.6761
  184 59.9722 14.8260 35.7580
  185 210.781 22.2852 -107.741
  186 206.788 23.5891 106.643
  187 478.936 81.7557 -25.8817
  188 412.478 -29.9446 5.87969
  189 248.579 -11.6874 -81.2454
  190 249.171 -11.1474 81.8417
  191 213.382 -6.63306 -36.7362
  192 213.261 -6.78036 36.9059
  193 636.574 126.520 -49.6799
  194 213.449 135.124 179.620
  195 582.713 123.204 3.46615
  196 327.993 -5.15254 -3.44564
  197 327.761 -5.29077 3.43174
  198 367.452 -41.6048 42.6654
  199 116.716 110.052 -119.576
  200 370.367 -42.7953 -44.1993
  201 254.456 -4.94822 18.3149
  202 254.422 -5.14056 -18.2349
  203 451.171 -25.9240 27.4021
  204 808.361 86.9954 72.0804
  205 312.963 -11.4089 -16.9720
  206 312.493 -11.4470 16.7029
  207 472.951 64.2411 36.0893
  208 291.957 -1.62296 -3.02317
  209 292.001 -1.67248 3.04330
  210 573.323 124.331 -2.20439
  211 408.320 32.5050 -19.8206
  212 777.397 158.137 -106.783
  213 431.626 56.9194 16.4229
  214 563.733 113.867 -7.58871
  215 430.674 -16.2592 26.4614
  216 379.116 -12.6644 -1.41830
  217 378.263 -14.7992 2.47440
  218 27.7893 15.0625 16.8190
  219 27.9354 14.7170 -17.1625
  220 377.240 13.3119 -12.8757
  221 414.971 -15.4578 6.00978
  222 416.017 -15.2421 -6.33442
  223 23.7832 22.9234 -16.7141
  224 21.2805 24.7180 17.7712
  225 400.200 -7.18846 -0.548242
  226 400.177 -7.09132 0.713757
  227 121.688 0.0241801 -38.6892
  228 121.752 0.0132555 38.6551
  229 326.827 11.6215 -127.858
  230 402.869 21.4106 27.8968
  231 428.582 -19.7305 -23.0494
  232 436.562 -13.9610 -37.5637
  233 396.476 -33.4237 79.1453
  234 476.164 -28.3808 5.77798
  235 490.605 67.5363 -35.3396
  236 416.346 -2.27882 -25.3523
  237 420.626 -1.71193 37.3143
  238 440.314 18.0043 43.1445
  239 680.488 156.086 87.5501
  240 817.322 31.6683 -16.5384
  241 422.897 13.7126 -41.3333
  242 432.838 -12.3748 37.7123
  243 290.236 -21.8640 -42.4107
  244 287.438 -21.8115 42.3606
  245 569.022 54.8152 -14.4918
  246 507.178 17.9333 25.7294
  247 -1.59182 -0.571758 -9.26578
  248 -1.56969 -0.333838 9.51171
  249 123.069 24.8237 -70.5381
  250 123.099 25.4472 70.4235
  251 394.000 3.69947 -26.8418
  252 419.035 -37.2179 2.24097
  253 156.773 51.0080 -110.071
  254 142.522 58.9474 104.327
  255 70.4591 4.49413 -32.0018
  256 70.6229 4.42351 32.0536
  257 331.025 -9.41925 -7.51024
  258 330.957 -9.33794 7.55999
  259 450.307 -21.2455 -30.6305
  260 378.654 -34.5574 -76.3020
  261 500.774 6.10056 -20.4586
  262 397.422 -36.6041 9.27338
  263 414.593 35.0576 -158.958
  264 390.108 -38.5141 -16.8151
  265 339.151 -23.7557 -23.9938
  266 339.881 -24.8928 25.1285
  267 666.129 121.774 -34.3716
  268 549.419 118.489 2.10785
  269 552.963 20.0851 56.0521
  270 433.154 -5.38108 -18.5291
  271 278.818 -2.93641 6.90899
  272 278.837 -3.00263 -6.88525
  273 441.180 -37.0668 -10.2848
  274 466.959 -34.3640 -16.3662
  275 666.087 110.533 17.9653
  276 322.002 8.68851 126.687
  277 442.019 -36.6746 9.60786
  278 444.889 -4.33870 9.69750
  279 467.545 -5.68969 -36.4308
  280 400.567 192.999 231.335
  281 51.5054 73.8543 71.3857
  282 454.237 -3.65446 3.27807
  283 450.005 -3.44479 -4.31008
  284 414.511 -2.40300 22.8016
  285 378.363 15.6536 12.2443
  286 445.596 -3.76533 -9.48187
  287 471.189 -27.9631 49.7803
  288 191.202 6.06507 -86.1455
  289 190.863 5.66460 86.0774
  290 498.406 62.2238 32.5054
  291 437.266 -44.5198 -15.2563
  292 422.356 18.2712 38.9298
  293 420.478 -5.12743 0.330036
  294 420.497 -5.18782 -0.348874
  295 432.430 -4.83805 18.2206
  296 441.954 -43.8354 16.1785
  297 473.857 93.2841 3.58954
  298 635.377 132.192 -147.084
  299 349.321 -19.7402 -14.4761
  300 344.393 -19.8445 15.4795
  301 464.143 -13.2417 32.5337
  302 526.275 113.011 -7.56167
  303 329.730 -33.1947 -48.3885
  304 320.635 -31.3881 51.8448
  305 835.026 23.2630 14.8152
  306 857.465 31.6240 -48.3787
  307 432.228 -12.3234 -13.8243
  308 257.047 -1.92866 10.7748
  309 257.030 -1.91475 -10.7555
  310 133.023 91.8509 123.397
  311 432.052 -12.1549 13.6107
  312 460.040 19.8722 -43.1383
  313 228.654 -4.46949 -18.6000
  314 228.585 -4.45264 18.4859
  315 427.426 -7.60519 4.39777
  316 427.529 -7.86620 -4.63234
  317 3.01136 -8.46133 -6.87294
  318 3.45591 -8.93649 6.97531
  319 442.958 14.5636 131.452
  320 503.478 104.249 12.8982
  321 425.396 -23.9078 18.2191
  322 135.738 -2.76224 -27.7695
  323 135.747 -2.74733 27.7741
  324 -3.83637 6.43612 -1.57491
  325 -4.04169 6.67256 1.35991
  326 433.641 51.3419 -23.7887
  327 565.727 117.736 5.21144
  328 424.341 -35.6278 -7.25239
  329 12.5371 10.2500 -17.3643
  330 15.8737 15.8221 20.1163
  331 243.224 -16.7108 65.0734
  332 243.061 -16.5813 -64.7126
  333 460.100 -1.45262 -1.04226
  334 460.047 -1.70649 1.14489
  335 383.608 -39.5849 24.7839
  336 393.391 1.57067 23.7589
  337 376.403 6.15139 20.2623
  338 40.9010 34.0380 -26.9942
  339 38.6794 30.8285 26.5076
  340 721.473 84.3399 -13.4291
  341 631.675 151.090 30.9161
  342 393.355 -28.1089 3.06402
  343 280.551 -1.21068 -3.05130
  344 280.539 -1.23753 3.10876
  345 465.638 61.8765 -35.2195
  346 188.624 -6.96638 66.1909
  347 188.627 -7.06887 -66.2685
  348 515.320 -5.69556 -40.5325
  349 301.841 -6.55935 -11.6231
  350 301.831 -6.30952 11.5788
  351 249.245 -13.6315 -43.2679
  352 248.811 -13.9368 43.3856
  353 197.309 -2.70229 20.8990
  354 197.217 -2.58635 -20.8791
  355 551.814 42.2434 -0.111959
  356 368.320 4.00089 -18.2911
  357 395.231 75.7581 195.063
  358 607.021 132.026 14.9801
  359 878.123 75.6865 -97.7729
  360 345.788 -6.98617 -2.60366
  361 345.777 -6.72626 2.54456
  362 379.359 -25.2929 -7.37351
  363 868.948 103.690 104.369
  364 383.184 -9.67092 -0.290193
  365 382.933 -9.91629 0.602037
  366 411.789 -24.5266 -6.95433
  367 357.871 -12.2527 -5.80355
  368 354.248 -11.5631 5.90712
  369 166.334 148.056 -160.115
  370 284.979 -9.67630 -20.5618
  371 284.914 -9.75573 20.4465
  372 349.815 11.2512 -0.422963
  373 834.870 210.459 -140.906
  374 174.173 -1.99486 -29.0137
  375 174.182 -1.93321 29.0694
  376 315.569 -24.1454 -32.6537
  377 310.236 -22.0708 33.3267
  378 426.665 30.3739 -35.7864
  379 398.523 -34.9730 -5.44746
  380 34.1259 69.9891 -58.6633
  381 300.139 -22.4688 -87.0640
  382 312.662 -25.1739 86.0556
  383 17.6772 3.52528 -13.9755
  384 17.6125 3.63510 14.0282
  385 373.522 -22.3560 7.83448
  386 262.679 -2.29372 -6.79309
  387 262.652 -2.28889 6.78800
  388 854.718 29.6309 44.4307
  389 373.049 -7.54396 -0.119139
  390 373.141 -7.48506 0.0422469
  391 411.991 -24.3888 7.20387
  392 903.770 246.943 175.760
  393 431.604 -14.7704 -19.4321
  394 740.029 102.762 49.9493
  395 481.058 -30.0825 -37.6138
  396 422.411 51.9381 -2.57931
  397 381.890 -20.2564 -99.6723
  398 451.381 -8.03358 -101.270
  399 59.1612 23.2513 -35.9421
  400 59.5560 24.3325 35.8940
  401 427.953 -27.1207 -19.1757
  402 275.796 -10.9063 29.2471
  403 275.684 -11.3862 -29.5737
  404 446.020 -2.51189 11.1813
  405 372.139 -18.9448 -6.31941
  406 456.477 -3.12750 4.96680
  407 456.446 5.74664 43.8535
  408 487.943 -16.3299 13.6931
  409 224.898 -9.35784 50.2713
  410 224.947 -9.61372 -50.3436
  411 143.393 81.3276 -120.119
  412 427.280 8.49332 42.5128
  413 435.170 -32.4677 19.1697
  414 371.587 -39.5419 55.5967
  415 700.908 143.209 -71.2937
  416 432.967 -21.4099 -29.6856
  417 481.710 -11.6897 -24.4052
  418 394.443 -17.3630 -0.209844
  419 398.623 -16.5519 -1.71599
  420 373.547 -42.2564 -55.8286
  421 433.628 1.02036 -43.4391
  422 371.606 -40.5672 -34.6106
  423 306.692 -3.05021 -2.52656
  424 306.692 -3.08043 2.48129
  425 456.697 69.4609 -26.0014
  426 446.738 -2.52723 -11.0060
  427 522.496 88.1179 -25.4454
  428 441.975 -42.0356 -49.6168
  429 460.544 -3.53740 -4.70943
  430 405.851 -46.9312 37.4285
  431 601.665 122.189 -10.4806
  432 325.704 -11.0604 11.9438
  433 326.566 -11.7982 -12.0847
  434 440.421 -3.36442 -0.221928
  435 440.303 -3.41616 0.191813
  436 430.566 -15.6877 19.7990
  437 320.936 -16.0893 21.1043
  438 321.168 -15.7440 -21.1091
  439 409.233 35.7489 15.9427
  440 406.398 -45.8764 -37.5967
  441 484.509 79.4219 27.9780
  442 432.597 -9.61198 24.7067
  443 541.637 48.3493 -147.196
  444 307.969 -4.68420 -5.66680
  445 307.860 -4.76356 5.66406
  446 504.640 99.4185 -20.2745
  447 417.447 -6.84584 -2.12333
  448 417.347 -6.54313 2.16896
  449 410.605 9.31481 -35.9764
  450 470.694 42.5718 -42.6431
  451 279.936 -0.392821 -0.692750
  452 279.980 -0.410559 0.701845
  453 432.528 -11.6990 -23.8525
  454 359.611 -18.6991 108.527
  455 460.387 260.621 -262.226
  456 455.747 65.2635 28.9333
  457 138.576 37.1472 -87.9135
  458 135.334 38.6850 86.6671
  459 241.000 36.1409 -129.727
  460 242.807 38.9744 129.955
  461 81.7193 147.682 129.871
  462 367.629 -33.8773 23.4126
  463 647.819 144.978 39.7460
  464 72.9766 56.2496 -64.4526
  465 61.9141 51.1323 52.0988
  466 237.399 -1.25877 10.1960
  467 237.512 -1.34445 -10.1981
  468 555.694 120.545 -2.82443
  469 29.9971 20.9430 18.1220
  470 30.0026 21.0849 -18.7223
  471 511.542 48.4125 -31.3967
  472 0.202265 3.85094 -6.21143
  473 0.106159 3.98956 6.03704
  474 426.188 -6.05432 -37.8988
  475 5.76993 -15.1842 -0.194284
  476 5.32901 -13.2102 -0.00775408
  477 464.775 -2.99119 1.88274
  478 464.019 -1.76025 -2.04093
  479 314.803 -31.7679 62.5790
  480 315.748 -32.3347 -62.5455
  481 613.371 76.7805 59.1102
  482 482.304 94.5578 -11.3447
  483 450.799 -12.8594 38.8420
  484 575.544 90.9695 -5.01705
  485 534.478 21.5157 4.73792
  486 536.851 118.957 7.29819
  487 448.418 72.5724 10.2215
  488 251.472 88.2812 -175.825
  489 440.624 -21.6316 32.8934
  490 535.201 95.8413 19.4403
  491 489.469 -15.3566 67.8524
  492 425.603 -30.2039 14.7278
  493 343.863 -8.36705 -4.28888
  494 343.147 -8.42129 4.11747
  495 461.236 40.2313 41.4610
  496 729.282 145.000 81.0583
  497 433.147 -18.5992 30.1589
  498 481.645 -4.90436 29.7111
  499 804.939 52.3767 43.9541
  500 206.521 -2.37810 80.3574
  501 256.500 -6.28401 91.9116
  502 206.378 -2.43571 -80.2365
  503 254.429 -7.03352 -92.6960
  504 677.790 184.599 -67.7819
  505 395.923 -28.7555 -2.80744
  506 421.903 -24.8545 -14.7370
  507 -4.15172 -3.93375 -6.68781
  508 -4.27371 -3.99776 6.89660
  509 693.686 190.798 182.304
  510 329.980 -4.92440 -2.22421
  511 329.911 -4.82759 2.17713
  512 360.339 -32.0466 -26.9455
  513 368.320 -36.7950 69.3068
  514 456.274 -27.6535 22.3041
  515 440.606 18.9014 -43.7479
  516 393.486 1.27085 -22.7812
  517 -11.7189 0.410487 8.31058
  518 -11.3338 0.273551 -8.20032
  519 449.066 -41.6271 40.8297
  520 287.523 -23.8209 74.7080
  521 267.581 0.282650 1.78367
  522 267.596 0.276625 -1.73599
  523 115.384 10.8272 -59.5985
  524 115.695 10.4948 59.6971
  525 287.018 -23.0658 -74.1187
  526 527.233 29.2613 -17.8923
  527 229.064 -7.23678 -31.8409
  528 229.025 -7.54989 31.8524
  529 -0.568465 -11.5464 -8.63161
  530 -0.530260 -11.9209 8.86535
</Section>

newXOutput 25

<Section columns = "stress_xx | stress_yy | stress_xy">
  1 490.184 0.421463 1.57376
  2 490.240 0.413370 -1.59600
  3 283.839 -0.142505 -0.603321
  4 -3.76947 -3.70832 -4.01699
  5 837.303 360.629 291.775
  6 844.592 367.176 -280.517
  7 -3.89426 -3.82253 4.16020
  8 283.771 -0.136263 0.607933
  9 496.996 -2.47379 1.18279
  10 494.484 -2.93613 0.889274
  11 486.409 -2.01361 4.29741
  12 477.292 -1.75754 7.12916
  13 465.032 -2.36027 9.27231
  14 440.091 -2.00870 13.4413
  15 410.632 -0.0934967 15.7907
  16 379.280 2.04650 15.4101
  17 361.023 6.05000 9.59616
  18 335.227 9.77284 -0.182086
  19 360.053 6.50088 -10.8074
  20 382.615 1.70693 -16.9285
  21 408.047 0.473799 -15.9471
  22 440.816 -2.21430 -14.5744
  23 465.358 -2.98266 -9.94091
  24 477.418 -3.43828 -7.23546
  25 493.232 -3.64892 -3.13717
  26 490.517 -1.79014 -1.56520
  27 496.682 -2.12479 -1.03130
  28 470.715 -2.14687 -1.87326
  29 446.077 -5.30323 -1.33321
  30 414.185 -6.52351 -0.609337
  31 388.817 -6.36124 -1.29091
  32 364.289 -6.20143 0.643468
  33 330.850 -3.10219 0.686862
  34 304.663 -1.37293 -0.438535
  35 280.325 0.0456322 1.35307
  36 273.867 1.73287 0.909308
  37 270.478 -0.00851204 3.25667
  38 262.628 0.0144306 5.01316
  39 245.519 0.0711869 5.67785
  40 230.525 -0.563348 9.41476
  41 203.764 -0.486220 11.2196
  42 174.113 -0.284622 14.2760
  43 135.303 -1.43142 17.0775
  44 104.692 0.245907 23.9178
  45 61.0384 3.95125 20.1347
  46 10.4432 7.41767 13.2601
  47 -18.1073 6.05473 5.46007
  48 -27.9867 5.21542 0.441347
  49 -23.2431 3.55202 -6.85687
  50 -13.1632 -0.757409 -5.58176
  51 -1.17853 -12.8283 -5.87252
  52 1.49310 -25.1759 -8.65344
  53 3.49755 -38.6388 -4.29216
  54 8.36248 -39.4491 0.217858
  55 17.3510 -7.83186 18.5974
  56 45.6598 84.7725 72.3823
  57 188.718 279.989 224.943
  58 1129.38 148.208 178.929
  59 952.156 39.5203 60.6684
  60 898.202 17.9289 20.5154
  61 876.170 12.3815 -2.55768
  62 896.815 18.5417 -22.6778
  63 968.204 44.4813 -70.4832
  64 1099.38 168.874 -190.448
  65 219.584 313.891 -238.035
  66 48.6202 73.3840 -61.6226
  67 17.5019 -9.43623 -18.6693
  68 6.95362 -40.3558 -0.649599
  69 3.80158 -39.3429 3.70434
  70 1.70201 -25.8695 8.74453
  71 -1.18432 -13.2651 6.04092
  72 -13.5568 -0.713354 5.68686
  73 -23.7145 3.68765 6.82327
  74 -28.0856 5.23076 -0.641546
  75 -17.9090 5.95318 -5.52469
  76 10.5711 7.38488 -13.1978
  77 60.9959 3.98270 -20.1065
  78 104.670 0.248242 -23.9043
  79 135.254 -1.45075 -17.0387
  80 173.957 -0.246665 -14.2352
  81 203.609 -0.423226 -11.2869
  82 230.617 -0.596627 -9.50289
  83 245.649 0.0294874 -5.68028
  84 262.700 0.0161724 -4.99131
  85 270.518 -0.0254752 -3.22992
  86 273.861 1.74580 -0.873049
  87 280.270 0.0567289 -1.34141
  88 304.650 -1.37103 0.427268
  89 330.895 -3.17497 -0.712076
  90 364.319 -6.32675 -0.644908
  91 388.920 -6.42535 1.27532
  92 414.240 -6.48689 0.621217
  93 446.020 -5.30261 1.32839
  94 470.522 -2.15149 1.89328
  95 426.552 -46.1777 -20.9801
  96 432.132 -45.8119 16.8581
  97 468.048 77.9581 -10.1705
  98 311.291 -9.48182 -105.178
  99 307.029 -8.37032 105.634
  100 536.606 108.065 21.5645
  101 571.695 121.321 -8.27495
  102 362.272 -15.8175 -10.9726
  103 365.980 -15.4923 9.40213
  104 467.334 -0.627002 -44.0477
  105 519.667 -12.1193 -4.46748
  106 458.234 -3.48882 44.1487
  107 535.469 -4.76056 14.7242
  108 87.8952 45.0776 60.8918
  109 86.8733 42.9169 -63.0113
  110 440.085 -19.2707 13.5700
  111 441.476 -19.9945 -15.3118
  112 640.548 123.965 -3.51174
  113 288.331 -22.0200 -57.6985
  114 288.646 -21.9105 57.9814
  115 315.646 -18.2119 29.3269
  116 316.031 -17.8467 -29.1440
  117 264.135 53.0401 -159.033
  118 278.040 55.0324 160.537
  119 651.721 153.550 -30.1136
  120 694.109 140.066 44.4782
  121 450.477 40.3970 33.9999
  122 419.432 -11.8363 1.21263
  123 419.965 -12.7613 -1.24145
  124 418.924 15.7067 -30.3827
  125 154.610 4.27585 -67.1774
  126 154.804 4.03722 66.9135
  127 447.064 -11.5325 -32.5345
  128 497.386 16.8408 40.2032
  129 317.242 -5.46899 8.69806
  130 317.321 -5.53435 -8.55488
  131 390.244 -31.5388 -15.3836
  132 387.602 -30.2198 15.7629
  133 425.084 -46.4046 50.0754
  134 503.953 22.0453 -38.9132
  135 450.350 -28.9877 24.0494
  136 533.330 114.019 -0.760091
  137 440.738 -46.9051 -45.8837
  138 620.221 93.8974 22.0570
  139 578.207 33.6388 -88.2827
  140 406.602 27.3704 -1.05998
  141 445.633 -10.4223 32.3741
  142 454.303 -28.8997 -25.2968
  143 800.280 64.9184 20.3851
  144 481.389 -29.9430 -16.6759
  145 813.409 91.7934 -66.3288
  146 482.572 -29.4019 13.8607
  147 424.416 8.80236 36.2779
  148 13.3331 14.5244 1.91906
  149 14.0190 15.4790 -1.73200
  150 457.246 -8.27129 7.93253
  151 456.821 -7.61338 -7.62834
  152 351.419 -34.2108 -40.1314
  153 358.190 -33.4017 37.9586
  154 185.371 -6.45272 -52.8078
  155 185.372 -6.40895 52.7520
  156 379.037 -10.1169 -2.37604
  157 378.833 -9.49239 2.53236
  158 54.0269 66.4937 -65.7676
  159 69.5717 66.7554 68.9565
  160 467.532 43.0280 -39.5019
  161 265.454 -11.3803 -35.9964
  162 265.086 -11.9087 35.7708
  163 579.004 61.9955 146.928
  164 444.066 -18.9531 105.454
  165 411.287 -22.5462 0.340533
  166 410.539 -21.5280 -0.309886
  167 457.363 -4.10867 2.47961
  168 456.897 -4.03354 -2.62594
  169 458.169 -35.5494 -74.6418
  170 293.526 -6.22232 -14.5105
  171 293.552 -6.22924 14.4197
  172 432.332 1.53379 -38.0176
  173 563.379 71.7498 17.3208
  174 564.154 68.1110 -19.9036
  175 488.783 89.9824 18.0833
  176 767.714 206.314 97.4483
  177 340.137 -37.5335 74.6840
  178 461.852 114.138 -225.367
  179 343.648 -34.4334 -76.7081
  180 455.017 -8.75445 -17.9006
  181 454.769 -8.41050 18.2333
  182 431.411 -32.3203 -6.05654
  183 62.6057 15.0807 -37.3098
  184 62.7537 15.4442 37.3944
  185 219.684 23.1853 -112.405
  186 215.531 24.5414 111.260
  187 498.760 85.1070 -26.7283
  188 429.492 -31.1795 5.89182
  189 259.113 -12.2051 -84.7410
  190 259.727 -11.6427 85.3610
  191 222.710 -6.90410 -38.3028
  192 222.585 -7.05712 38.4787
  193 662.048 131.934 -52.2724
  194 222.207 140.939 187.213
  195 606.527 128.158 3.73876
  196 341.906 -5.35412 -3.62313
  197 341.666 -5.49763 3.60868
  198 382.681 -43.3233 44.6040
  199 121.689 114.888 -124.812
  200 385.701 -44.5648 -46.2065
  201 265.526 -5.14102 19.0998
  202 265.490 -5.34114 -19.0170
  203 469.691 -27.0028 28.2020
  204 840.146 90.4258 74.8757
  205 326.266 -11.8615 -17.7412
  206 325.778 -11.9005 17.4609
  207 492.496 66.8855 37.2834
  208 304.577 -1.67837 -3.16484
  209 304.622 -1.72978 3.18557
  210 596.756 129.370 -2.52982
  211 425.456 33.8787 -20.5385
  212 808.214 164.473 -111.094
  213 449.649 59.2827 17.0008
  214 586.711 118.552 -7.49347
  215 448.432 -16.9458 27.3060
  216 394.886 -13.1896 -1.58023
  217 394.001 -15.4082 2.68640
  218 29.1489 15.7105 17.6565
  219 29.2978 15.3513 -18.0135
  220 393.246 13.8940 -13.3500
  221 432.065 -16.1087 6.10403
  222 433.152 -15.8841 -6.43948
  223 24.8675 24.0327 -17.5964
  224 22.2603 25.9033 18.7026
  225 416.737 -7.50225 -0.515215
  226 416.713 -7.40147 0.687551
  227 127.182 0.0120770 -40.3737
  228 127.251 0.000775016 40.3375
  229 340.256 12.1097 -133.320
  230 419.794 22.3215 28.9075
  231 446.247 -20.5594 -23.7529
  232 454.585 -14.5460 -38.8143
  233 412.693 -34.8114 82.6165
  234 495.547 -29.5388 6.36403
  235 510.803 70.3082 -36.4648
  236 433.686 -2.37747 -26.2381
  237 438.119 -1.78283 38.6209
  238 458.565 18.7508 44.6487
  239 707.457 162.779 91.6959
  240 849.299 32.9171 -17.1658
  241 440.511 14.2871 -42.8018
  242 450.729 -12.8951 38.9835
  243 302.555 -22.7595 -44.2493
  244 299.651 -22.7048 44.1960
  245 591.930 57.2128 -15.5718
  246 527.843 18.6940 26.3770
  247 -1.61275 -0.557079 -9.60642
  248 -1.59104 -0.309755 9.86423
  249 128.443 25.8450 -73.6692
  250 128.477 26.4928 73.5473
  251 410.585 3.86887 -27.8146
  252 436.288 -38.7528 2.07699
  253 163.460 53.1570 -114.873
  254 148.623 61.4329 108.893
  255 73.7546 4.67192 -33.4368
  256 73.9275 4.59820 33.4899
  257 345.036 -9.79223 -7.87852
  258 344.965 -9.70682 7.92851
  259 468.806 -22.1329 -31.5616
  260 394.209 -35.9962 -79.6502
  261 521.170 6.36851 -20.8897
  262 413.845 -38.1069 9.86496
  263 431.285 36.6335 -165.672
  264 406.247 -40.0961 -17.7079
  265 353.387 -24.7183 -25.1002
  266 354.137 -25.9029 26.2829
  267 692.979 126.639 -35.8679
  268 571.992 123.268 2.10330
  269 575.100 21.0991 58.7706
  270 451.034 -5.61010 -19.1494
  271 290.915 -3.04440 7.21657
  272 290.936 -3.11333 -7.19223
  273 459.278 -38.6020 -10.4029
  274 485.968 -35.7710 -17.3664
  275 692.924 114.934 18.7600
  276 335.244 9.05277 132.102
  277 460.147 -38.1920 9.69678
  278 463.098 -4.53579 9.98708
  279 486.719 -5.93159 -37.5747
  280 416.131 201.529 240.836
  281 53.7620 77.3692 74.6348
  282 472.700 -3.82288 3.35293
  283 468.324 -3.60995 -4.41850
  284 431.788 -2.50336 23.6000
  285 394.409 16.3317 12.6941
  286 463.828 -3.93928 -9.76413
  287 490.275 -29.0815 52.1286
  288 199.384 6.27997 -89.8922
  289 199.030 5.86358 89.8206
  290 518.878 64.7915 33.4872
  291 455.164 -46.3597 -16.1682
  292 439.971 19.0436 40.3190
  293 437.735 -5.36679 0.310221
  294 437.756 -5.42950 -0.329280
  295 450.288 -5.04333 18.8333
  296 460.023 -45.6447 17.1319
  297 493.534 97.0985 3.70886
  298 660.283 138.151 -153.537
  299 363.964 -20.5389 -15.1879
  300 358.852 -20.6457 16.2279
  301 483.178 -13.7965 33.5183
  302 547.959 117.585 -7.73502
  303 343.518 -34.5665 -50.5200
  304 334.076 -32.6863 54.1065
  305 867.587 24.1824 15.3666
  306 890.827 32.8571 -50.1749
  307 449.983 -12.8505 -14.2217
  308 268.269 -2.00080 11.2373
  309 268.252 -1.98637 -11.2176
  310 138.686 95.7936 128.779
  311 449.800 -12.6744 14.0011
  312 479.012 20.6888 -44.5901
  313 238.687 -4.64609 -19.3912
  314 238.616 -4.62860 19.2726
  315 444.951 -7.94364 4.48157
  316 445.060 -8.21417 -4.72427
  317 3.16279 -8.73228 -7.09447
  318 3.62524 -9.22964 7.20342
  319 460.792 15.2797 137.073
  320 524.283 108.489 13.2856
  321 442.922 -24.9036 18.7244
  322 141.902 -2.88174 -28.9650
  323 141.912 -2.86624 28.9690
  324 -3.89423 6.72646 -1.57059
  325 -4.11060 6.97299 1.34768
  326 451.729 53.4755 -24.6304
  327 588.801 122.587 5.02107
  328 441.802 -37.0997 -7.28278
  329 13.1097 10.9789 -18.2647
  330 16.5945 16.7935 21.1430
  331 253.600 -17.4201 67.8780
  332 253.432 -17.2848 -67.5034
  333 478.727 -1.53471 -1.06592
  334 478.672 -1.79857 1.17157
  335 399.483 -41.2102 25.9945
  336 409.951 1.64155 24.6130
  337 392.373 6.42387 21.0041
  338 42.7643 35.5439 -28.3203
  339 40.4525 32.1990 27.8178
  340 750.244 87.6779 -13.9743
  341 657.186 157.284 32.5580
  342 409.642 -29.2634 3.37866
  343 292.751 -1.25299 -3.19397
  344 292.738 -1.28084 3.25341
  345 484.918 64.4204 -36.4078
  346 196.791 -7.28224 69.0519
  347 196.794 -7.38942 -69.1337
  348 536.090 -5.83720 -42.5690
  349 314.758 -6.81329 -12.1537
  350 314.748 -6.55336 12.1072
  351 259.964 -14.1907 -45.1190
  352 259.513 -14.5081 45.2407
  353 206.062 -2.81098 21.7840
  354 205.967 -2.69046 -21.7636
  355 574.102 44.0734 0.360253
  356 384.007 4.19060 -18.9640
  357 411.098 79.0605 203.183
  358 631.706 137.381 15.8374
  359 912.280 78.6406 -101.509
  360 360.350 -7.26622 -2.74285
  361 360.339 -6.99621 2.68160
  362 395.122 -26.3248 -7.83539
  363 902.845 107.772 108.375
  364 399.104 -10.0783 -0.377694
  365 398.844 -10.3331 0.702527
  366 428.778 -25.5414 -7.03542
  367 372.862 -12.7479 -6.12722
  368 369.108 -12.0299 6.22652
  369 173.059 154.747 -166.901
  370 297.211 -10.0614 -21.4599
  371 297.143 -10.1435 21.3390
  372 364.843 11.7374 -0.438693
  373 867.403 219.048 -146.682
  374 181.933 -2.07640 -30.2527
  375 181.944 -2.01213 30.3100
  376 328.892 -25.1266 -34.1040
  377 323.354 -22.9661 34.7939
  378 444.454 31.6441 -37.0614
  379 415.000 -36.4083 -5.88445
  380 35.6282 73.3717 -61.3503
  381 312.669 -23.4324 -90.8150
  382 325.678 -26.2460 89.7667
  383 18.7041 3.66919 -14.6357
  384 18.6401 3.78328 14.6905
  385 389.074 -23.2663 8.29694
  386 274.163 -2.38084 -7.08902
  387 274.135 -2.37575 7.08349
  388 887.993 30.7870 46.0868
  389 388.602 -7.86007 -0.158283
  390 388.698 -7.79841 0.0788893
  391 428.988 -25.3977 7.29757
  392 938.531 257.045 182.833
  393 449.367 -15.3964 -20.0257
  394 769.475 106.847 51.9577
  395 500.547 -31.2903 -39.4829
  396 440.092 54.1051 -2.67314
  397 397.506 -21.0881 -103.985
  398 469.607 -8.28869 -105.687
  399 61.8587 24.2381 -37.6255
  400 62.2732 25.3622 37.5753
  401 445.578 -28.2478 -19.6957
  402 287.634 -11.3421 30.5073
  403 287.518 -11.8417 -30.8483
  404 464.311 -2.62601 11.5430
  405 387.647 -19.7180 -6.70565
  406 475.054 -3.27400 5.10174
  407 475.254 5.97928 45.3238
  408 507.819 -16.9895 13.8755
  409 234.618 -9.74818 52.4217
  410 234.668 -10.0149 -52.4978
  411 149.472 84.8160 -125.349
  412 445.039 8.84899 44.0138
  413 453.062 -33.8154 19.6599
  414 386.927 -41.1840 58.0765
  415 729.005 148.966 -74.2916
  416 450.815 -22.3047 -30.6265
  417 501.379 -12.1707 -25.0347
  418 410.777 -18.0806 -0.352296
  419 415.110 -17.2390 -1.64893
  420 388.960 -44.0108 -58.3217
  421 451.592 1.05966 -44.9503
  422 387.019 -42.2364 -36.2084
  423 319.844 -3.16288 -2.64323
  424 319.843 -3.19417 2.59619
  425 475.670 72.3172 -26.8963
  426 465.053 -2.64065 -11.3617
  427 543.909 91.7380 -26.1171
  428 459.968 -43.7572 -51.9342
  429 479.251 -3.69656 -4.83933
  430 422.531 -48.8720 39.1973
  431 626.007 127.299 -11.4020
  432 339.497 -11.4995 12.5085
  433 340.392 -12.2672 -12.6557
  434 458.377 -3.53219 -0.211934
  435 458.253 -3.58584 0.180674
  436 448.290 -16.3523 20.4019
  437 334.507 -16.7342 22.0602
  438 334.750 -16.3760 -22.0665
  439 426.412 37.2573 16.5190
  440 423.099 -47.7762 -39.3710
  441 504.535 82.6801 28.8847
  442 450.434 -10.0215 25.5162
  443 563.066 50.6839 -153.487
  444 321.155 -4.86118 -5.92697
  445 321.041 -4.94340 5.92372
  446 525.451 103.474 -20.8649
  447 434.608 -7.15309 -2.13899
  448 434.504 -6.83834 2.18687
  449 427.775 9.71109 -37.2688
  450 490.108 44.3230 -44.0783
  451 292.138 -0.402454 -0.731668
  452 292.182 -0.420852 0.741020
  453 450.357 -12.1959 -24.6241
  454 374.356 -19.4778 113.191
  455 478.047 272.131 -272.807
  456 474.667 67.9548 29.9264
  457 144.573 38.6960 -91.7991
  458 141.204 40.2948 90.4980
  459 251.083 37.6393 -135.304
  460 252.943 40.5820 135.533
  461 85.1410 154.545 135.548
  462 382.920 -35.2621 24.5415
  463 673.795 151.096 41.9398
  464 76.1858 58.6997 -67.3839
  465 64.6803 53.3693 54.5199
  466 247.838 -1.30568 10.6292
  467 247.954 -1.39484 -10.6315
  468 578.511 125.396 -2.89596
  469 31.4186 21.8570 19.0420
  470 31.4208 22.0059 -19.6656
  471 532.439 50.4198 -32.2704
  472 0.401884 4.01261 -6.54594
  473 0.305179 4.15676 6.36468
  474 443.865 -6.30860 -39.2116
  475 6.03321 -15.6410 -0.299991
  476 5.57602 -13.5770 0.0939542
  477 483.573 -3.12496 1.92782
  478 482.792 -1.85088 -2.09095
  479 327.974 -33.0938 65.2985
  480 328.956 -33.6838 -65.2674
  481 637.808 80.2291 62.0600
  482 502.297 98.4162 -11.7045
  483 469.349 -13.4004 40.1069
  484 598.856 94.7873 -4.72640
  485 556.108 22.4743 4.49301
  486 558.932 123.784 7.40682
  487 467.095 75.5673 10.5798
  488 261.785 92.0984 -183.271
  489 458.769 -22.5346 33.9397
  490 557.118 99.7874 19.8673
  491 509.203 -15.8977 70.9658
  492 443.126 -31.4553 15.0676
  493 358.349 -8.70191 -4.51991
  494 357.607 -8.75836 4.34165
  495 480.292 41.8905 42.8638
  496 758.396 150.795 84.3900
  497 451.002 -19.3798 31.1256
  498 501.327 -5.10776 30.5498
  499 836.538 54.4366 45.6307
  500 215.359 -2.51468 83.8310
  501 267.298 -6.58450 95.8649
  502 215.211 -2.57562 -83.7055
  503 265.147 -7.36748 -96.6798
  504 705.020 192.141 -70.8675
  505 412.309 -29.9353 -3.11357
  506 439.288 -25.8873 -15.1042
  507 -4.32042 -4.09431 -6.96359
  508 -4.44805 -4.16134 7.18174
  509 720.584 199.169 190.184
  510 343.972 -5.11548 -2.32992
  511 343.900 -5.01490 2.28111
  512 375.348 -33.3571 -28.2034
  513 383.503 -38.3324 72.3509
  514 474.972 -28.8016 22.8832
  515 458.870 19.6816 -45.2713
  516 410.051 1.32587 -23.5976
  517 -12.1850 0.437624 8.64192
  518 -11.7822 0.295055 -8.52621
  519 467.353 -43.3398 42.7864
  520 299.603 -24.8313 77.9338
  521 279.304 0.297360 1.87081
  522 279.320 0.291063 -1.82147
  523 120.496 11.2585 -62.2431
  524 120.821 10.9117 62.3440
  525 299.079 -24.0449 -77.3217
  526 548.625 30.5084 -18.1780
  527 239.051 -7.52608 -33.1947
  528 239.010 -7.85174 33.2065
  529 -0.580286 -12.0076 -8.97514
  530 -0.540904 -12.3992 9.21983
</Section>

newXOutput 26

<Section columns = "stress_xx | stress_yy | stress_xy">
  1 509.063 0.415563 1.62147
  2 509.122 0.408506 -1.64430
  3 295.770 -0.141339 -0.620227
  4 -3.92389 -3.85990 -4.18293
  5 867.174 375.195 302.762
  6 874.979 382.079 -291.077
  7 -4.05394 -3.97892 4.33212
  8 295.700 -0.134869 0.624968
  9 516.099 -2.57696 1.21228
  10 513.526 -3.05631 0.898726
  11 505.242 -2.10274 4.41785
  12 495.884 -1.84061 7.34107
  13 483.283 -2.46081 9.56027
  14 457.579 -2.09089 13.8831
  15 427.175 -0.0945034 16.3280
  16 394.782 2.13783 15.9466
  17 375.904 6.30524 9.93842
  18 349.238 10.1551 -0.188401
  19 374.903 6.77037 -11.1932
  20 398.227 1.78540 -17.5150
  21 424.512 0.487892 -16.4863
  22 458.327 -2.30551 -15.0534
  23 483.620 -3.10599 -10.2503
  24 496.014 -3.57691 -7.45235
  25 512.283 -3.79185 -3.21903
  26 509.444 -1.87442 -1.59196
  27 515.776 -2.21572 -1.05577
  28 488.977 -2.25754 -1.93249
  29 463.530 -5.53805 -1.36893
  30 430.561 -6.79986 -0.610420
  31 404.325 -6.62048 -1.32912
  32 378.950 -6.43996 0.683002
  33 344.361 -3.21435 0.720858
  34 317.287 -1.41613 -0.447236
  35 292.128 0.0521741 1.41021
  36 285.424 1.79661 0.958230
  37 281.878 -0.00454350 3.39827
  38 273.700 0.0198895 5.21946
  39 255.920 0.0762906 5.91280
  40 240.326 -0.582495 9.79191
  41 212.504 -0.502370 11.6736
  42 181.671 -0.292440 14.8551
  43 141.296 -1.49024 17.7808
  44 109.423 0.252003 24.9044
  45 63.9429 4.10770 20.9941
  46 11.2253 7.71502 13.8541
  47 -18.5867 6.30048 5.72881
  48 -28.9803 5.43135 0.502114
  49 -24.1440 3.70838 -7.11034
  50 -13.6916 -0.780211 -5.80199
  51 -1.21859 -13.3456 -6.10571
  52 1.56681 -26.1619 -8.98074
  53 3.65545 -40.0638 -4.41130
  54 8.73037 -40.7542 0.332879
  55 18.1025 -7.60527 19.5343
  56 47.5308 89.1691 75.5322
  57 195.723 292.160 233.708
  58 1169.88 153.765 185.119
  59 987.142 40.9865 62.7673
  60 931.437 18.6052 21.2199
  61 908.697 12.8527 -2.64361
  62 930.005 19.2421 -23.4585
  63 1003.67 46.1380 -72.9093
  64 1139.00 175.225 -197.127
  65 227.665 327.394 -247.176
  66 50.6584 77.2440 -64.3639
  67 18.2537 -9.26635 -19.5970
  68 7.25824 -41.7088 -0.773244
  69 3.97014 -40.8028 3.80230
  70 1.78376 -26.8863 9.07679
  71 -1.22493 -13.8009 6.28147
  72 -14.1020 -0.734563 5.91175
  73 -24.6364 3.84944 7.07604
  74 -29.0867 5.44744 -0.709948
  75 -18.3846 6.19513 -5.79591
  76 11.3545 7.68118 -13.7896
  77 63.8960 4.14046 -20.9652
  78 109.399 0.254449 -24.8909
  79 141.244 -1.51036 -17.7409
  80 181.509 -0.253091 -14.8129
  81 212.343 -0.436941 -11.7435
  82 240.421 -0.617028 -9.88336
  83 256.055 0.0329801 -5.91540
  84 273.775 0.0216896 -5.19695
  85 281.920 -0.0221862 -3.37071
  86 285.419 1.80998 -0.920783
  87 292.073 0.0636811 -1.39817
  88 317.275 -1.41420 0.435540
  89 344.409 -3.28990 -0.746993
  90 378.982 -6.57010 -0.684495
  91 404.431 -6.68724 1.31298
  92 430.618 -6.76214 0.622936
  93 463.471 -5.53726 1.36406
  94 488.776 -2.26245 1.95287
  95 443.338 -48.0006 -22.0495
  96 449.121 -47.6186 17.7712
  97 486.697 81.0290 -10.5056
  98 323.667 -9.89199 -109.511
  99 319.252 -8.73392 109.988
  100 557.727 112.276 22.1236
  101 594.093 126.040 -8.31980
  102 376.835 -16.4273 -11.4999
  103 380.673 -16.0910 9.87152
  104 485.763 -0.661215 -45.4499
  105 539.826 -12.5562 -5.04564
  106 476.344 -3.63079 45.5800
  107 556.151 -4.88328 15.7208
  108 91.6298 46.9170 63.5487
  109 90.5605 44.6720 -65.7535
  110 457.413 -20.0445 13.8970
  111 458.860 -20.7956 -15.6962
  112 665.433 128.691 -3.67834
  113 300.037 -22.8956 -60.0793
  114 300.364 -22.7811 60.3705
  115 328.491 -18.9113 30.5625
  116 328.890 -18.5332 -30.3753
  117 274.610 55.1853 -165.519
  118 289.011 57.2804 167.079
  119 676.952 159.523 -31.6065
  120 720.837 145.441 46.3658
  121 468.430 42.0080 35.1417
  122 435.999 -12.3159 1.15684
  123 436.551 -13.2756 -1.18505
  124 435.759 16.3538 -31.4284
  125 161.108 4.41942 -69.9932
  126 161.310 4.17181 69.7175
  127 464.739 -11.9986 -33.5667
  128 516.901 17.5039 41.4027
  129 330.251 -5.66804 9.08295
  130 330.333 -5.73623 -8.93535
  131 405.757 -32.7705 -16.1602
  132 403.027 -31.3971 16.5469
  133 441.742 -48.2410 52.2930
  134 523.708 22.9177 -40.0588
  135 468.076 -30.1414 24.7016
  136 554.401 118.434 -0.783126
  137 457.971 -48.7595 -47.9472
  138 644.051 97.7534 23.4653
  139 600.220 35.2087 -92.1416
  140 423.038 28.4937 -1.09753
  141 463.267 -10.8421 33.4088
  142 472.175 -30.0507 -25.9819
  143 830.451 67.3686 21.1397
  144 500.206 -31.1294 -16.9767
  145 844.055 95.2568 -68.8171
  146 501.431 -30.5631 14.0457
  147 441.420 9.16684 37.5162
  148 13.9674 15.1807 2.12591
  149 14.6795 16.1737 -1.92877
  150 475.128 -8.61974 8.12243
  151 474.690 -7.93839 -7.80876
  152 365.490 -35.5519 -41.8474
  153 372.510 -34.7097 39.5949
  154 193.174 -6.72044 -54.9854
  155 193.176 -6.67498 54.9267
  156 394.202 -10.5119 -2.53722
  157 393.991 -9.86338 2.69943
  158 56.3188 69.3746 -68.6662
  159 72.5103 69.6192 71.9866
  160 486.082 44.7308 -40.8003
  161 276.419 -11.8193 -37.4662
  162 276.038 -12.3683 37.2322
  163 600.847 64.8408 153.010
  164 461.265 -19.6707 109.838
  165 427.574 -23.4336 0.181771
  166 426.800 -22.3778 -0.156788
  167 475.202 -4.30115 2.52262
  168 474.723 -4.22342 -2.67370
  169 475.958 -36.9159 -77.8547
  170 305.666 -6.45119 -15.1189
  171 305.693 -6.45818 15.0244
  172 449.581 1.60180 -39.3003
  173 585.289 74.6293 17.5429
  174 586.087 70.8438 -20.2149
  175 508.186 93.5093 18.6565
  176 796.887 214.344 101.486
  177 353.675 -39.0386 77.7978
  178 479.324 118.996 -234.287
  179 357.313 -35.8173 -79.9020
  180 472.903 -9.11563 -18.4360
  181 472.647 -8.75991 18.7804
  182 448.422 -33.5957 -6.05267
  183 65.3916 15.6834 -38.9495
  184 65.5481 16.0602 39.0369
  185 228.565 24.0801 -117.067
  186 224.253 25.4881 115.874
  187 518.504 88.4427 -27.5543
  188 446.432 -32.4090 5.88654
  189 269.623 -12.7234 -88.2327
  190 270.259 -12.1388 88.8763
  191 232.040 -7.17373 -39.8664
  192 231.910 -7.33241 40.0484
  193 687.351 137.341 -54.8939
  194 230.923 146.748 194.788
  195 630.219 133.082 4.01990
  196 355.789 -5.55391 -3.80243
  197 355.539 -5.70264 3.78744
  198 397.851 -45.0346 46.5479
  199 126.653 119.726 -130.049
  200 400.974 -46.3273 -48.2191
  201 276.593 -5.33208 19.8834
  202 276.556 -5.53992 -19.7979
  203 488.125 -28.0776 28.9732
  204 871.674 93.8297 77.6452
  205 339.543 -12.3107 -18.5121
  206 339.037 -12.3505 18.2205
  207 511.959 69.5188 38.4495
  208 317.187 -1.73263 -3.30712
  209 317.232 -1.78591 3.32842
  210 620.071 134.382 -2.87143
  211 442.540 35.2493 -21.2456
  212 838.799 170.767 -115.379
  213 467.610 61.6373 17.5684
  214 609.569 123.216 -7.36771
  215 466.113 -17.6306 28.1284
  216 410.599 -13.7128 -1.74912
  217 409.682 -16.0144 2.90563
  218 30.5200 16.3579 18.5020
  219 30.6715 15.9851 -18.8725
  220 409.217 14.4762 -13.8178
  221 449.084 -16.7577 6.18646
  222 450.212 -16.5243 -6.53249
  223 25.9555 25.1507 -18.4905
  224 23.2442 27.0972 19.6463
  225 433.206 -7.81586 -0.478242
  226 433.181 -7.71150 0.657369
  227 132.692 -0.000997525 -42.0579
  228 132.764 -0.0126677 42.0195
  229 353.622 12.5966 -138.773
  230 436.670 23.2308 29.9030
  231 463.834 -21.3859 -24.4346
  232 472.532 -15.1291 -40.0367
  233 428.829 -36.1940 86.0888
  234 514.826 -30.6906 6.97425
  235 530.911 73.0677 -37.5596
  236 450.964 -2.47601 -27.1078
  237 455.548 -1.85333 39.9041
  238 476.744 19.4948 46.1251
  239 734.224 169.464 95.8623
  240 881.005 34.1563 -17.7865
  241 458.061 14.8601 -44.2457
  242 468.545 -13.4139 40.2276
  243 314.848 -23.6506 -46.0866
  244 311.839 -23.5937 46.0301
  245 614.697 59.6119 -16.6837
  246 548.398 19.4537 26.9901
  247 -1.62987 -0.539282 -9.94213
  248 -1.60868 -0.282627 10.2119
  249 133.818 26.8616 -76.8044
  250 133.856 27.5336 76.6751
  251 427.124 4.03895 -28.7728
  252 453.463 -40.2810 1.89426
  253 170.135 55.3005 -119.676
  254 154.715 63.9121 113.461
  255 77.0674 4.84833 -34.8748
  256 77.2495 4.77153 34.9293
  257 359.014 -10.1623 -8.24949
  258 358.940 -10.0728 8.29958
  259 487.220 -23.0172 -32.4633
  260 409.693 -37.4300 -82.9996
  261 541.458 6.63723 -21.2874
  262 430.199 -39.6028 10.4698
  263 447.873 38.2136 -172.369
  264 422.319 -41.6708 -18.6120
  265 367.580 -25.6754 -26.2105
  266 368.349 -26.9074 27.4412
  267 719.663 131.470 -37.3630
  268 594.460 128.019 2.09190
  269 597.091 22.1243 61.5083
  270 468.838 -5.83867 -19.7561
  271 303.007 -3.15089 7.52442
  272 303.029 -3.22251 -7.49952
  273 477.290 -40.1309 -10.4973
  274 504.876 -37.1711 -18.3873
  275 719.594 119.304 19.5550
  276 348.426 9.41608 137.509
  277 478.189 -39.7031 9.76186
  278 481.218 -4.73340 10.2672
  279 505.802 -6.17264 -38.6863
  280 431.555 210.066 250.290
  281 56.0189 80.9068 77.8936
  282 491.064 -3.99187 3.42308
  283 486.546 -3.77607 -4.52139
  284 449.003 -2.60335 24.3841
  285 410.418 17.0095 13.1376
  286 481.971 -4.11387 -10.0371
  287 509.251 -30.1922 54.4895
  288 207.554 6.49110 -93.6380
  289 207.186 6.05892 93.5628
  290 539.255 67.3489 34.4372
  291 472.974 -48.1920 -17.0978
  292 457.524 19.8145 41.6855
  293 454.911 -5.60710 0.288051
  294 454.934 -5.67212 -0.307289
  295 468.070 -5.24817 19.4330
  296 478.002 -47.4463 18.1032
  297 513.136 100.894 3.82547
  298 684.983 144.124 -159.990
  299 378.561 -21.3330 -15.9052
  300 373.268 -21.4420 16.9812
  301 502.123 -14.3494 34.4712
  302 569.546 122.132 -7.89703
  303 357.261 -35.9327 -52.6525
  304 347.477 -33.9792 56.3679
  305 899.866 25.0949 15.9112
  306 923.894 34.0796 -51.9485
  307 467.656 -13.3768 -14.6046
  308 279.492 -2.07202 11.6991
  309 279.474 -2.05709 -11.6789
  310 144.338 99.7318 134.162
  311 467.466 -13.1930 14.3771
  312 497.901 21.5022 -46.0104
  313 248.723 -4.82128 -20.1807
  314 248.650 -4.80318 20.0576
  315 462.394 -8.28242 4.55783
  316 462.507 -8.56234 -4.80851
  317 3.31584 -8.99557 -7.30990
  318 3.79608 -9.51523 7.42560
  319 478.514 16.0023 142.685
  320 545.000 112.707 13.6602
  321 460.371 -25.8959 19.2090
  322 148.084 -3.00115 -30.1590
  323 148.096 -2.98507 30.1626
  324 -3.94354 7.01762 -1.56055
  325 -4.17111 7.27422 1.32984
  326 469.754 55.6014 -25.4576
  327 611.754 127.416 4.80089
  328 459.184 -38.5655 -7.29264
  329 13.6842 11.7297 -19.1762
  330 17.3174 17.7869 22.1812
  331 263.959 -18.1280 70.6797
  332 263.787 -17.9868 -70.2914
  333 497.249 -1.61806 -1.08808
  334 497.191 -1.89181 1.19664
  335 415.293 -42.8279 27.2140
  336 426.464 1.71267 25.4536
  337 408.307 6.69675 21.7354
  338 44.6339 37.0516 -29.6581
  339 42.2323 33.5717 29.1399
  340 778.813 90.9910 -14.5164
  341 682.544 163.449 34.2199
  342 425.863 -30.4126 3.70606
  343 304.946 -1.29451 -3.33723
  344 304.932 -1.32334 3.39862
  345 504.120 66.9533 -37.5705
  346 204.953 -7.59901 71.9109
  347 204.956 -7.71090 -71.9969
  348 556.733 -5.97029 -44.6247
  349 327.656 -7.06482 -12.6857
  350 327.644 -6.79484 12.6369
  351 270.671 -14.7472 -46.9669
  352 270.204 -15.0766 47.0926
  353 214.827 -2.91896 22.6669
  354 214.728 -2.79387 -22.6459
  355 596.257 45.9033 0.866776
  356 399.664 4.38150 -19.6276
  357 426.861 82.3636 211.274
  358 656.255 142.706 16.7087
  359 946.133 81.5692 -105.205
  360 374.872 -7.54433 -2.88377
  361 374.861 -7.26432 2.82039
  362 410.826 -27.3512 -8.30705
  363 936.446 111.821 112.339
  364 414.965 -10.4845 -0.470387
  365 414.695 -10.7486 0.808163
  366 445.693 -26.5520 -7.10075
  367 387.806 -13.2402 -6.45572
  368 383.922 -12.4939 6.55012
  369 179.743 161.456 -173.670
  370 309.426 -10.4438 -22.3577
  371 309.355 -10.5284 22.2312
  372 379.852 12.2232 -0.454217
  373 899.649 227.593 -152.428
  374 189.707 -2.15750 -31.4895
  375 189.718 -2.09060 31.5484
  376 342.182 -26.1023 -35.5556
  377 336.440 -23.8563 36.2617
  378 462.180 32.9106 -38.3152
  379 431.409 -37.8368 -6.33558
  380 37.1312 76.7799 -64.0466
  381 325.158 -24.3949 -94.5623
  382 338.647 -27.3161 93.4745
  383 19.7510 3.81236 -15.2999
  384 19.6881 3.93068 15.3567
  385 404.569 -24.1716 8.76778
  386 285.648 -2.46699 -7.38475
  387 285.618 -2.46163 7.37877
  388 920.973 31.9333 47.7227
  389 404.101 -8.17507 -0.199774
  390 404.199 -8.11063 0.117940
  391 445.912 -26.4023 7.37563
  392 972.951 267.098 189.859
  393 467.051 -16.0210 -20.6010
  394 798.709 110.904 53.9529
  395 519.924 -32.4902 -41.3685
  396 457.717 56.2650 -2.76558
  397 413.044 -21.9159 -108.294
  398 487.724 -8.53640 -110.103
  399 64.5654 25.2229 -39.3178
  400 64.9997 26.3897 39.2656
  401 463.124 -29.3706 -20.1930
  402 299.456 -11.7748 31.7659
  403 299.336 -12.2941 -32.1213
  404 482.515 -2.74043 11.8956
  405 403.099 -20.4872 -7.09954
  406 493.531 -3.42117 5.23099
  407 493.980 6.21096 46.7618
  408 527.591 -17.6448 14.0277
  409 244.330 -10.1371 54.5686
  410 244.382 -10.4146 -54.6486
  411 155.537 88.3002 -130.577
  412 462.731 9.20377 45.4888
  413 470.872 -35.1580 20.1251
  414 402.201 -42.8201 60.5599
  415 756.916 154.686 -77.2798
  416 468.585 -23.1965 -31.5419
  417 520.949 -12.6493 -25.6326
  418 427.045 -18.7953 -0.504056
  419 431.530 -17.9233 -1.57194
  420 404.308 -45.7587 -60.8188
  421 469.485 1.09878 -46.4335
  422 402.373 -43.8982 -37.8122
  423 332.978 -3.27400 -2.76030
  424 332.976 -3.30635 2.71150
  425 494.571 75.1610 -27.7735
  426 483.280 -2.75427 -11.7086
  427 565.218 95.3423 -26.7571
  428 477.865 -45.4704 -54.2626
  429 497.856 -3.85601 -4.96398
  430 439.134 -50.8048 40.9756
  431 650.207 132.393 -12.3562
  432 353.259 -11.9353 13.0761
  433 354.185 -12.7327 -13.2295
  434 476.240 -3.70132 -0.200586
  435 476.110 -3.75686 0.168194
  436 465.934 -17.0153 20.9862
  437 348.046 -17.3748 23.0183
  438 348.298 -17.0038 -23.0262
  439 443.538 38.7621 17.0865
  440 439.724 -49.6685 -41.1549
  441 524.478 85.9234 29.7684
  442 468.192 -10.4302 26.3064
  443 584.334 53.0362 -159.769
  444 334.321 -5.03609 -6.18791
  445 334.202 -5.12113 6.18414
  446 546.171 107.510 -21.4337
  447 451.690 -7.46080 -2.14929
  448 451.583 -7.13409 2.19946
  449 444.888 10.1068 -38.5408
  450 509.437 46.0669 -45.4823
  451 304.337 -0.411518 -0.771169
  452 304.382 -0.430569 0.780771
  453 468.108 -12.6917 -25.3765
  454 389.031 -20.2536 117.849
  455 495.532 283.647 -283.321
  456 493.513 70.6348 30.8998
  457 150.565 40.2394 -95.6886
  458 147.071 41.8987 94.3328
  459 261.133 39.1320 -140.874
  460 263.045 42.1827 141.104
  461 88.5505 161.439 141.224
  462 398.156 -36.6399 25.6779
  463 699.600 157.200 44.1652
  464 79.3969 61.1497 -70.3244
  465 67.4514 55.6071 56.9525
  466 258.281 -1.35200 11.0613
  467 258.402 -1.44461 -11.0639
  468 601.219 130.217 -2.96373
  469 32.8490 22.7712 19.9721
  470 32.8475 22.9270 -20.6189
  471 553.230 52.4202 -33.1081
  472 0.616476 4.17384 -6.88547
  473 0.519448 4.32349 6.69738
  474 461.472 -6.56204 -40.4997
  475 6.29743 -16.0817 -0.413303
  476 5.82422 -13.9274 0.203642
  477 502.263 -3.25890 1.97035
  478 501.457 -1.94242 -2.13828
  479 341.101 -34.4151 68.0169
  480 342.121 -35.0283 -67.9886
  481 662.075 83.6863 65.0353
  482 522.211 102.255 -12.0544
  483 487.815 -13.9396 41.3406
  484 622.035 98.5950 -4.39929
  485 577.611 23.4352 4.21546
  486 580.910 128.584 7.50038
  487 485.705 78.5497 10.9317
  488 272.047 95.9137 -190.699
  489 476.834 -23.4344 34.9579
  490 578.927 103.717 20.2639
  491 528.816 -16.4288 74.0901
  492 460.570 -32.7017 15.3856
  493 372.795 -9.03444 -4.75392
  494 372.028 -9.09309 4.56884
  495 499.268 43.5431 44.2368
  496 787.308 156.551 87.7051
  497 468.778 -20.1580 32.0671
  498 520.909 -5.30992 31.3552
  499 867.878 56.4801 47.2898
  500 224.185 -2.65375 87.3021
  501 278.067 -6.88703 99.8139
  502 224.032 -2.71810 -87.1720
  503 275.836 -7.70354 -100.659
  504 732.075 199.644 -73.9604
  505 428.628 -31.1096 -3.43266
  506 456.596 -26.9162 -15.4517
  507 -4.48817 -4.25403 -7.23815
  508 -4.62147 -4.32411 7.46569
  509 747.236 207.544 198.053
  510 357.933 -5.30473 -2.43618
  511 357.858 -5.20042 2.38567
  512 390.304 -34.6610 -29.4669
  513 398.620 -39.8648 75.3963
  514 493.580 -29.9451 23.4337
  515 477.061 20.4589 -46.7664
  516 426.569 1.38090 -24.4010
  517 -12.6476 0.465493 8.97086
  518 -12.2271 0.317319 -8.84964
  519 485.543 -45.0448 44.7557
  520 311.648 -25.8395 81.1569
  521 291.028 0.312253 1.95856
  522 291.046 0.305684 -1.90760
  523 125.615 11.6868 -64.8912
  524 125.954 11.3256 64.9943
  525 311.104 -25.0220 -80.5221
  526 569.898 31.7542 -18.4279
  527 249.037 -7.81336 -34.5456
  528 248.994 -8.15148 34.5577
  529 -0.591087 -12.4656 -9.31613
  530 -0.550567 -12.8743 9.57184
</Section>

newXOutput 27

<Section columns = "stress_xx | stress_yy | stress_xy">
  1 527.829 0.408122 1.66798
  2 527.891 0.402186 -1.69137
  3 307.703 -0.139665 -0.636566
  4 -4.07810 -4.01125 -4.34875
  5 896.692 389.721 313.661
  6 905.028 396.945 -301.551
  7 -4.21341 -4.13508 4.50391
  8 307.632 -0.132969 0.641432
  9 535.085 -2.68005 1.24046
  10 532.453 -3.17628 0.906392
  11 523.969 -2.19216 4.53436
  12 514.378 -1.92430 7.54719
  13 501.448 -2.56147 9.84149
  14 475.001 -2.17295 14.3165
  15 443.671 -0.0952822 16.8566
  16 410.257 2.22961 16.4754
  17 390.768 6.56070 10.2764
  18 363.246 10.5355 -0.194626
  19 389.735 7.03977 -11.5743
  20 413.809 1.86441 -18.0929
  21 440.933 0.501610 -17.0166
  22 475.770 -2.39663 -15.5234
  23 501.797 -3.22921 -10.5526
  24 514.514 -3.71515 -7.66349
  25 531.223 -3.93408 -3.29765
  26 528.259 -1.95929 -1.61620
  27 534.754 -2.30673 -1.07902
  28 507.139 -2.36953 -1.99041
  29 480.898 -5.77360 -1.40331
  30 446.870 -7.07626 -0.609891
  31 419.778 -6.87909 -1.36628
  32 393.569 -6.67692 0.723353
  33 357.849 -3.32522 0.755183
  34 329.901 -1.45832 -0.455288
  35 303.935 0.0590506 1.46734
  36 296.987 1.85975 1.00785
  37 293.282 -0.000261437 3.54015
  38 284.777 0.0256986 5.42543
  39 266.329 0.0815533 6.14746
  40 250.138 -0.601310 10.1678
  41 221.259 -0.518198 12.1265
  42 189.249 -0.299930 15.4328
  43 147.314 -1.54895 18.4832
  44 114.180 0.257839 25.8900
  45 66.8737 4.26356 21.8548
  46 12.0334 8.01148 14.4511
  47 -19.0452 6.54573 6.00061
  48 -29.9607 5.64716 0.566087
  49 -25.0396 3.86536 -7.36133
  50 -14.2184 -0.802349 -6.02127
  51 -1.25797 -13.8615 -6.33800
  52 1.64139 -27.1430 -9.30549
  53 3.81425 -41.4746 -4.52589
  54 9.09966 -42.0336 0.455818
  55 18.8560 -7.33731 20.4828
  56 49.3984 93.6271 78.6897
  57 202.664 304.359 242.423
  58 1209.92 159.279 191.220
  59 1021.79 42.4400 64.8366
  60 964.370 19.2764 21.9143
  61 940.937 13.3208 -2.72811
  62 962.894 19.9373 -24.2279
  63 1038.78 47.7808 -75.3001
  64 1178.18 181.527 -203.716
  65 235.669 340.916 -256.255
  66 52.6962 81.1613 -67.1156
  67 19.0069 -9.05441 -20.5352
  68 7.56393 -43.0367 -0.904108
  69 4.13946 -42.2489 3.89597
  70 1.86632 -27.8983 9.40658
  71 -1.26487 -14.3355 6.52115
  72 -14.6456 -0.755128 6.13570
  73 -25.5533 4.01183 7.32640
  74 -30.0749 5.66402 -0.781501
  75 -18.8397 6.43661 -6.07018
  76 12.1636 7.97662 -14.3844
  77 66.8222 4.29763 -21.8253
  78 114.153 0.260397 -25.8765
  79 147.258 -1.56986 -18.4423
  80 189.081 -0.259201 -15.3893
  81 221.093 -0.450348 -12.1989
  82 250.235 -0.637087 -10.2625
  83 266.469 0.0366416 -6.15023
  84 284.855 0.0275558 -5.40227
  85 293.326 -0.0185816 -3.51180
  86 296.982 1.87355 -0.969241
  87 303.879 0.0709644 -1.45495
  88 329.889 -1.45636 0.443168
  89 357.898 -3.40351 -0.782229
  90 393.603 -6.81184 -0.724898
  91 419.888 -6.94848 1.34960
  92 446.928 -7.03749 0.623054
  93 480.836 -5.77262 1.39840
  94 506.931 -2.37471 2.01113
  95 460.049 -49.8158 -23.1319
  96 466.032 -49.4177 18.6984
  97 505.280 84.0867 -10.8342
  98 335.997 -10.3032 -113.840
  99 331.429 -9.09853 114.338
  100 578.752 116.464 22.6588
  101 616.381 130.734 -8.34402
  102 391.355 -17.0334 -12.0316
  103 395.321 -16.6862 10.3458
  104 504.113 -0.695678 -46.8214
  105 559.873 -12.9875 -5.65082
  106 494.379 -3.77223 46.9824
  107 576.712 -4.99990 16.7436
  108 95.3686 48.7531 66.2138
  109 94.2516 46.4244 -68.5037
  110 474.664 -20.8159 14.2076
  111 476.168 -21.5942 -16.0632
  112 690.180 133.385 -3.84613
  113 311.717 -23.7680 -62.4575
  114 312.058 -23.6484 62.7566
  115 341.310 -19.6062 31.7983
  116 341.724 -19.2154 -31.6070
  117 285.043 57.3257 -171.993
  118 299.935 59.5250 173.609
  119 702.037 165.465 -33.1144
  120 747.400 150.783 48.2542
  121 486.319 43.6138 36.2638
  122 452.497 -12.7943 1.09399
  123 453.067 -13.7884 -1.12146
  124 452.544 17.0002 -32.4581
  125 167.609 4.56045 -72.8094
  126 167.819 4.30393 72.5219
  127 482.340 -12.4635 -34.5763
  128 536.324 18.1647 42.5686
  129 343.241 -5.86495 9.46906
  130 343.326 -5.93597 -9.31714
  131 421.213 -33.9960 -16.9456
  132 418.395 -32.5683 17.3391
  133 458.320 -50.0701 54.5189
  134 543.370 23.7872 -41.1708
  135 485.723 -31.2909 25.3294
  136 575.382 122.825 -0.805523
  137 475.118 -50.6063 -50.0207
  138 667.731 101.606 24.9064
  139 622.081 36.7912 -96.0112
  140 439.431 29.6156 -1.13459
  141 480.830 -11.2608 34.4216
  142 489.967 -31.1975 -26.6412
  143 860.389 69.8004 21.8874
  144 518.930 -32.3109 -17.2500
  145 874.461 98.6940 -71.2849
  146 520.196 -31.7191 14.2034
  147 458.370 9.53120 38.7349
  148 14.6076 15.8407 2.34223
  149 15.3457 16.8721 -2.13483
  150 492.922 -8.96825 8.30285
  151 492.472 -8.26375 -7.97992
  152 379.517 -36.8866 -43.5656
  153 386.782 -36.0114 41.2343
  154 200.980 -6.98798 -57.1606
  155 200.983 -6.94084 57.0988
  156 409.318 -10.9048 -2.70245
  157 409.100 -10.2324 2.87050
  158 58.6129 72.2631 -71.5754
  159 75.4508 72.4884 75.0274
  160 504.559 46.4270 -42.0738
  161 287.375 -12.2557 -38.9330
  162 286.980 -12.8251 38.6906
  163 622.523 67.7054 159.085
  164 478.367 -20.3828 114.219
  165 443.796 -24.3170 0.0114169
  166 442.996 -23.2241 0.00742914
  167 492.951 -4.49491 2.56162
  168 492.458 -4.41462 -2.71736
  169 493.650 -38.2738 -81.0737
  170 317.795 -6.67780 -15.7271
  171 317.823 -6.68485 15.6288
  172 466.769 1.67022 -40.5615
  173 607.081 77.5011 17.7304
  174 607.901 73.5695 -20.4903
  175 527.515 97.0198 19.2167
  176 825.850 222.333 105.518
  177 367.164 -40.5392 80.9108
  178 496.665 123.861 -243.169
  179 370.927 -37.1973 -83.0947
  180 490.708 -9.47642 -18.9570
  181 490.444 -9.10912 19.3128
  182 465.360 -34.8655 -6.03131
  183 68.1900 16.2842 -40.5952
  184 68.3554 16.6742 40.6852
  185 237.423 24.9696 -121.725
  186 232.954 26.4290 120.486
  187 538.167 91.7631 -28.3597
  188 463.300 -33.6333 5.86414
  189 280.110 -13.2424 -91.7205
  190 280.768 -12.6356 92.3876
  191 241.371 -7.44193 -41.4270
  192 241.237 -7.60622 41.6149
  193 712.485 142.741 -57.5436
  194 239.596 152.552 202.343
  195 653.790 137.975 4.30940
  196 369.641 -5.75192 -3.98350
  197 369.383 -5.90582 3.96797
  198 412.961 -46.7389 48.4969
  199 131.606 124.567 -135.286
  200 416.185 -48.0825 -50.2369
  201 287.657 -5.52141 20.6656
  202 287.618 -5.73693 -20.5774
  203 506.472 -29.1484 29.7162
  204 902.946 97.2072 80.3891
  205 352.792 -12.7564 -19.2847
  206 352.268 -12.7971 18.9819
  207 531.340 72.1409 39.5882
  208 329.786 -1.78573 -3.44997
  209 329.832 -1.84086 3.47183
  210 643.267 139.366 -3.22892
  211 459.572 36.6168 -21.9419
  212 869.155 177.020 -119.637
  213 485.510 63.9832 18.1259
  214 632.306 127.860 -7.21196
  215 483.717 -18.3136 28.9289
  216 426.254 -14.2337 -1.92480
  217 425.305 -16.6177 3.13193
  218 31.9026 17.0047 19.3557
  219 32.0564 16.6185 -19.7395
  220 425.152 15.0586 -14.2791
  221 466.029 -17.4049 6.25730
  222 467.196 -17.1627 -6.61366
  223 27.0471 26.2772 -19.3965
  224 24.2321 28.2993 20.6019
  225 449.606 -8.12929 -0.437407
  226 449.580 -8.02137 0.623295
  227 138.215 -0.0150300 -43.7418
  228 138.292 -0.0270591 43.7011
  229 366.927 13.0823 -144.218
  230 453.495 24.1385 30.8834
  231 481.345 -22.2100 -25.0950
  232 490.403 -15.7103 -41.2314
  233 444.886 -37.5713 89.5620
  234 534.002 -31.8361 7.60824
  235 550.929 75.8151 -38.6243
  236 468.179 -2.57445 -27.9618
  237 472.912 -1.92341 41.1641
  238 494.850 20.2363 47.5742
  239 760.792 176.141 100.049
  240 912.445 35.3859 -18.4004
  241 475.548 15.4315 -45.6653
  242 486.286 -13.9311 41.4448
  243 327.115 -24.5374 -47.9226
  244 324.002 -24.4783 47.8628
  245 637.323 62.0126 -17.8271
  246 568.845 20.2126 27.5692
  247 -1.64320 -0.518385 -10.2729
  248 -1.62264 -0.252474 10.5548
  249 139.193 27.8737 -79.9438
  250 139.235 28.5697 79.8068
  251 443.616 4.20970 -29.7164
  252 470.562 -41.8027 1.69312
  253 176.798 57.4383 -124.478
  254 160.798 66.3850 118.030
  255 80.3975 5.02339 -36.3158
  256 80.5889 4.94351 36.3715
  257 372.959 -10.5296 -8.62305
  258 372.882 -10.4358 8.67312
  259 505.548 -23.8983 -33.3360
  260 425.104 -38.8587 -86.3501
  261 561.638 6.90677 -21.6520
  262 446.486 -41.0917 11.0876
  263 464.357 39.7978 -179.050
  264 438.326 -43.2382 -19.5270
  265 381.731 -26.6269 -27.3245
  266 382.518 -27.9062 28.6031
  267 746.182 136.270 -38.8569
  268 616.822 132.742 2.07376
  269 618.936 23.1607 64.2647
  270 486.566 -6.06680 -20.3495
  271 315.092 -3.25589 7.83252
  272 315.116 -3.33019 -7.80708
  273 495.218 -41.6537 -10.5681
  274 523.682 -38.5641 -19.4285
  275 746.098 123.643 20.3502
  276 361.548 9.77846 142.907
  277 496.145 -41.2080 9.80348
  278 499.249 -4.93151 10.5382
  279 524.794 -6.41281 -39.7658
  280 446.842 218.609 259.697
  281 58.2758 84.4668 81.1620
  282 509.329 -4.16141 3.48862
  283 504.672 -3.94315 -4.61886
  284 466.158 -2.70298 25.1541
  285 426.392 17.6871 13.5749
  286 500.026 -4.28910 -10.3010
  287 528.120 -31.2951 56.8627
  288 215.712 6.69849 -97.3829
  289 215.330 6.25063 97.3042
  290 559.538 69.8962 35.3559
  291 490.697 -50.0167 -18.0449
  292 475.016 20.5837 43.0295
  293 472.008 -5.84833 0.263577
  294 472.032 -5.91564 -0.282954
  295 485.777 -5.45255 20.0199
  296 495.891 -49.2402 19.0919
  297 532.662 104.671 3.93939
  298 709.479 150.112 -166.441
  299 393.114 -22.1225 -16.6278
  300 387.642 -22.2336 17.7393
  301 520.977 -14.9002 35.3930
  302 591.037 126.654 -8.04786
  303 370.959 -37.2933 -54.7860
  304 360.836 -35.2668 58.6287
  305 931.864 26.0007 16.4492
  306 956.668 35.2915 -53.6998
  307 485.248 -13.9023 -14.9731
  308 290.713 -2.14234 12.1602
  309 290.695 -2.12692 -12.1394
  310 149.978 103.665 139.543
  311 485.050 -13.7107 14.7389
  312 516.709 22.3123 -47.3996
  313 258.764 -4.99509 -20.9683
  314 258.688 -4.97638 20.8408
  315 479.754 -8.62151 4.62671
  316 479.872 -8.91068 -4.88521
  317 3.47051 -9.25125 -7.51926
  318 3.96841 -9.79333 7.64188
  319 496.126 16.7315 148.289
  320 565.630 116.903 14.0223
  321 477.744 -26.8846 19.6731
  322 154.284 -3.12046 -31.3517
  323 154.298 -3.10379 31.3548
  324 -3.98433 7.30957 -1.54483
  325 -4.22326 7.57623 1.30643
  326 487.716 57.7197 -26.2705
  327 634.587 132.226 4.55142
  328 476.488 -40.0252 -7.28233
  329 14.2607 12.5025 -20.0985
  330 18.0424 18.8021 23.2308
  331 274.300 -18.8344 73.4785
  332 274.123 -18.6873 -73.0767
  333 515.665 -1.70262 -1.10876
  334 515.606 -1.98619 1.22013
  335 431.039 -44.4381 28.4424
  336 442.931 1.78403 26.2810
  337 424.206 6.97001 22.4562
  338 46.5096 38.5611 -31.0072
  339 44.0188 34.9465 30.4739
  340 807.182 94.2794 -15.0553
  341 707.750 169.585 35.9011
  342 442.020 -31.5564 4.04598
  343 317.136 -1.33525 -3.48106
  344 317.120 -1.36504 3.54435
  345 523.245 69.4751 -38.7079
  346 213.111 -7.91667 74.7677
  347 213.114 -8.03329 -74.8580
  348 577.250 -6.09487 -46.6992
  349 340.534 -7.31394 -13.2191
  350 340.521 -7.03398 13.1680
  351 281.366 -15.3011 -48.8117
  352 280.883 -15.6424 48.9413
  353 223.602 -3.02622 23.5476
  354 223.500 -2.89661 -23.5260
  355 618.281 47.7334 1.40702
  356 415.291 4.57358 -20.2820
  357 442.521 85.6675 219.335
  358 680.670 148.002 17.5936
  359 979.685 84.4726 -108.863
  360 389.355 -7.82053 -3.02636
  361 389.342 -7.53060 2.96089
  362 426.472 -28.3723 -8.78828
  363 969.755 115.838 116.264
  364 430.766 -10.8895 -0.568160
  365 430.487 -11.1628 0.918833
  366 462.537 -27.5585 -7.15060
  367 402.703 -13.7295 -6.78890
  368 398.691 -12.9551 6.87781
  369 186.386 168.182 -180.422
  370 321.626 -10.8234 -23.2551
  371 321.552 -10.9105 23.1230
  372 394.841 12.7088 -0.469539
  373 931.612 236.095 -158.145
  374 197.492 -2.23814 -32.7241
  375 197.504 -2.16863 32.7844
  376 355.438 -27.0728 -37.0086
  377 349.495 -24.7415 37.7299
  378 479.844 34.1732 -39.5482
  379 447.750 -39.2586 -6.80056
  380 38.6349 80.2134 -66.7519
  381 337.604 -25.3562 -98.3058
  382 351.569 -28.3845 97.1787
  383 20.8179 3.95481 -15.9680
  384 20.7563 4.07732 16.0269
  385 420.009 -25.0722 9.24680
  386 297.132 -2.55218 -7.68027
  387 297.101 -2.54656 7.67383
  388 953.664 33.0699 49.3386
  389 419.545 -8.48895 -0.243560
  390 419.647 -8.42173 0.159347
  391 462.764 -27.4028 7.43832
  392 1007.03 277.100 196.838
  393 484.656 -16.6441 -21.1586
  394 827.734 114.931 55.9351
  395 539.191 -33.6820 -43.2702
  396 475.284 58.4177 -2.85664
  397 428.504 -22.7399 -112.601
  398 505.733 -8.77674 -114.519
  399 67.2812 26.2057 -41.0191
  400 67.7356 27.4149 40.9648
  401 480.592 -30.4893 -20.6679
  402 311.263 -12.2045 33.0229
  403 311.139 -12.7434 -33.3927
  404 500.633 -2.85515 12.2395
  405 418.498 -21.2524 -7.50091
  406 511.911 -3.56901 5.35467
  407 512.623 6.44172 48.1679
  408 547.258 -18.2957 14.1503
  409 254.036 -10.5247 56.7120
  410 254.089 -10.8130 -56.7959
  411 161.588 91.7802 -135.805
  412 480.358 9.55771 46.9382
  413 488.601 -36.4955 20.5658
  414 417.411 -44.4501 63.0469
  415 784.642 160.371 -80.2579
  416 486.277 -24.0853 -32.4321
  417 540.419 -13.1252 -26.1992
  418 443.248 -19.5068 -0.664934
  419 447.883 -18.6050 -1.48520
  420 419.589 -47.5000 -63.3196
  421 487.305 1.13776 -47.8890
  422 417.666 -45.5526 -39.4219
  423 346.093 -3.38359 -2.87774
  424 346.090 -3.41698 2.82720
  425 513.400 77.9922 -28.6333
  426 501.421 -2.86808 -12.0468
  427 586.424 98.9308 -27.3657
  428 495.668 -47.1752 -56.6017
  429 516.360 -4.01574 -5.08346
  430 455.661 -52.7299 42.7634
  431 674.265 137.472 -13.3424
  432 366.988 -12.3678 13.6463
  433 367.946 -13.1947 -13.8060
  434 494.010 -3.87177 -0.187915
  435 493.875 -3.92916 0.154403
  436 483.500 -17.6767 21.5522
  437 361.551 -18.0112 23.9784
  438 361.814 -17.6276 -23.9880
  439 460.613 40.2632 17.6452
  440 456.273 -51.5533 -42.9480
  441 544.336 89.1520 30.6295
  442 485.874 -10.8381 27.0776
  443 605.441 55.4061 -166.039
  444 347.467 -5.20895 -6.44958
  445 347.343 -5.29677 6.44526
  446 566.800 111.525 -21.9815
  447 468.694 -7.76893 -2.15437
  448 468.584 -7.43035 2.20683
  449 461.944 10.5019 -39.7926
  450 528.683 47.8035 -46.8555
  451 316.532 -0.420020 -0.811240
  452 316.578 -0.439716 0.821082
  453 485.781 -13.1864 -26.1099
  454 403.635 -21.0267 122.501
  455 512.843 295.170 -293.768
  456 512.288 73.3037 31.8537
  457 156.553 41.7775 -99.5818
  458 152.935 43.4968 98.1713
  459 271.150 40.6189 -146.438
  460 273.111 43.7766 146.668
  461 91.9479 168.364 146.899
  462 413.336 -38.0109 26.8214
  463 725.236 163.290 46.4212
  464 82.6097 63.5997 -73.2739
  465 70.2274 57.8455 59.3963
  466 268.730 -1.39771 11.4924
  467 268.855 -1.49376 -11.4952
  468 623.819 135.008 -3.02781
  469 34.2882 23.6856 20.9123
  470 34.2829 23.8484 -21.5819
  471 573.916 54.4137 -33.9102
  472 0.845936 4.33463 -7.22997
  473 0.748855 4.48974 7.03511
  474 479.011 -6.81462 -41.7632
  475 6.56259 -16.5064 -0.534164
  476 6.07359 -14.2616 0.321249
  477 520.845 -3.39298 2.01038
  478 520.016 -2.03486 -2.18297
  479 354.187 -35.7321 70.7341
  480 355.244 -36.3684 -70.7088
  481 686.171 87.1521 68.0354
  482 542.046 106.075 -12.3945
  483 506.198 -14.4770 42.5435
  484 645.080 102.393 -4.03635
  485 598.990 24.3985 3.90580
  486 602.788 133.357 7.57913
  487 504.248 81.5197 11.2773
  488 282.259 99.7272 -198.110
  489 494.818 -24.3311 35.9483
  490 600.629 107.630 20.6306
  491 548.310 -16.9499 77.2249
  492 477.937 -33.9432 15.6823
  493 387.203 -9.36465 -4.99081
  494 386.410 -9.42550 4.79897
  495 518.164 45.1891 45.5805
  496 816.020 162.268 91.0037
  497 486.477 -20.9338 32.9837
  498 540.394 -5.51079 32.1279
  499 898.961 58.5076 48.9315
  500 232.997 -2.79531 90.7706
  501 288.805 -7.19157 103.759
  502 232.840 -2.86312 -90.6360
  503 286.496 -8.04168 -104.634
  504 758.956 207.110 -77.0599
  505 444.882 -32.2782 -3.76445
  506 473.828 -27.9412 -15.7799
  507 -4.65499 -4.41291 -7.51151
  508 -4.79397 -4.48605 7.74845
  509 773.644 215.921 205.911
  510 371.863 -5.49216 -2.54298
  511 371.785 -5.38416 2.49079
  512 405.206 -35.9585 -30.7359
  513 413.670 -41.3922 78.4429
  514 512.098 -31.0841 23.9560
  515 495.180 21.2333 -48.2336
  516 443.040 1.43596 -25.1915
  517 -13.1067 0.494090 9.29741
  518 -12.6684 0.340336 -9.17064
  519 503.637 -46.7421 46.7373
  520 323.658 -26.8457 84.3772
  521 302.754 0.327329 2.04691
  522 302.774 0.320486 -1.99434
  523 130.739 12.1119 -67.5426
  524 131.092 11.7364 67.6478
  525 323.095 -25.9972 -83.7199
  526 591.053 32.9987 -18.6426
  527 259.022 -8.09863 -35.8934
  528 258.977 -8.44914 35.9058
  529 -0.600874 -12.9203 -9.65460
  530 -0.559252 -13.3461 9.92138
</Section>

newXOutput 28

<Section columns = "stress_xx | stress_yy | stress_xy">
  1 546.483 0.399172 1.71330
  2 546.548 0.394442 -1.73724
  3 319.638 -0.137489 -0.652350
  4 -4.23210 -4.16236 -4.51445
  5 925.864 404.207 324.470
  6 934.742 411.773 -311.937
  7 -4.37268 -4.29100 4.67557
  8 319.566 -0.130569 0.657337
  9 553.955 -2.78306 1.26735
  10 551.267 -3.29602 0.912313
  11 542.591 -2.28188 4.64701
  12 532.776 -2.00861 7.74765
  13 519.529 -2.66225 10.1161
  14 492.356 -2.25488 14.7417
  15 460.121 -0.0958341 17.3768
  16 425.703 2.32184 16.9966
  17 405.613 6.81639 10.6103
  18 377.250 10.9141 -0.200762
  19 404.550 7.30907 -11.9506
  20 429.361 1.94397 -18.6623
  21 457.309 0.514961 -17.5381
  22 493.147 -2.48764 -15.9846
  23 519.889 -3.35233 -10.8477
  24 532.917 -3.85300 -7.86898
  25 550.054 -4.07563 -3.37307
  26 546.965 -2.04474 -1.63799
  27 553.616 -2.39782 -1.10107
  28 525.201 -2.48278 -2.04706
  29 498.182 -6.00983 -1.43636
  30 463.112 -7.35269 -0.607785
  31 435.177 -7.13704 -1.40241
  32 408.147 -6.91230 0.764500
  33 371.312 -3.43479 0.789826
  34 342.504 -1.49950 -0.462704
  35 315.745 0.0662577 1.52448
  36 308.554 1.92230 1.05816
  37 304.690 0.00433039 3.68229
  38 295.859 0.0318535 5.63104
  39 276.746 0.0869736 6.38181
  40 259.959 -0.619793 10.5423
  41 230.029 -0.533705 12.5781
  42 196.846 -0.307090 16.0091
  43 153.356 -1.60754 19.1847
  44 118.963 0.263422 26.8744
  45 69.8307 4.41884 22.7167
  46 12.8673 8.30707 15.0510
  47 -19.4830 6.79047 6.27546
  48 -30.9281 5.86286 0.633246
  49 -25.9300 4.02296 -7.60988
  50 -14.7437 -0.823829 -6.23959
  51 -1.29667 -14.3761 -6.56941
  52 1.71683 -28.1193 -9.62770
  53 3.97396 -42.8712 -4.63597
  54 9.47033 -43.2872 0.586615
  55 19.6114 -7.02829 21.4428
  56 51.2628 98.1457 81.8544
  57 209.545 316.586 251.089
  58 1249.50 164.748 197.233
  59 1056.11 43.8808 66.8771
  60 997.006 19.9427 22.5987
  61 972.894 13.7857 -2.81120
  62 995.487 20.6274 -24.9862
  63 1073.55 49.4098 -77.6562
  64 1216.93 187.780 -210.217
  65 243.596 354.458 -265.271
  66 54.7335 85.1353 -69.8773
  67 19.7615 -8.80072 -21.4839
  68 7.87067 -44.3397 -1.04213
  69 4.30952 -43.6813 3.98537
  70 1.94970 -28.9055 9.73391
  71 -1.30415 -14.8687 6.75996
  72 -15.1878 -0.775052 6.35872
  73 -26.4650 4.17481 7.57436
  74 -31.0503 5.88050 -0.856187
  75 -19.2744 6.67763 -6.34747
  76 12.9981 8.27119 -14.9821
  77 69.7744 4.45423 -22.6866
  78 118.933 0.266092 -26.8610
  79 153.297 -1.62926 -19.1429
  80 196.673 -0.264996 -15.9644
  81 229.857 -0.463446 -12.6530
  82 260.060 -0.656805 -10.6403
  83 276.891 0.0404700 -6.38476
  84 295.940 0.0337666 -5.60725
  85 304.737 -0.0146651 -3.65317
  86 308.550 1.93652 -1.01840
  87 315.688 0.0785747 -1.51172
  88 342.493 -1.49751 0.450164
  89 371.363 -3.51581 -0.817773
  90 408.183 -7.05197 -0.766096
  91 435.291 -7.20907 1.38519
  92 463.171 -7.31289 0.621603
  93 498.117 -6.00865 1.43143
  94 524.987 -2.48824 2.06808
  95 476.685 -51.6233 -24.2272
  96 482.866 -51.2090 19.6395
  97 523.795 87.1312 -11.1566
  98 348.280 -10.7154 -118.164
  99 343.563 -9.46413 118.682
  100 599.683 120.632 23.1707
  101 638.561 135.404 -8.34796
  102 405.833 -17.6357 -12.5675
  103 409.924 -17.2778 10.8249
  104 522.384 -0.730356 -48.1627
  105 579.809 -13.4134 -6.28259
  106 512.338 -3.91314 48.3563
  107 597.152 -5.11045 17.7922
  108 99.1118 50.5861 68.8869
  109 97.9467 48.1740 -71.2617
  110 491.839 -21.5849 14.5022
  111 493.399 -22.3903 -16.4131
  112 714.790 138.047 -4.01508
  113 323.371 -24.6372 -64.8329
  114 323.725 -24.5125 65.1398
  115 354.103 -20.2967 33.0342
  116 354.531 -19.8934 -32.8390
  117 295.434 59.4613 -178.456
  118 310.811 61.7662 180.126
  119 726.978 171.376 -34.6367
  120 773.798 156.091 50.1430
  121 504.145 45.2144 37.3665
  122 468.926 -13.2714 1.02423
  123 469.515 -14.2997 -1.05083
  124 469.279 17.6462 -33.4721
  125 174.112 4.69895 -75.6260
  126 174.331 4.43361 75.3267
  127 499.869 -12.9272 -35.5636
  128 555.655 18.8232 43.7013
  129 356.211 -6.05975 9.85633
  130 356.299 -6.13361 -9.70021
  131 436.611 -35.2153 -17.7397
  132 433.707 -33.7332 18.1394
  133 474.819 -51.8919 56.7530
  134 562.938 24.6538 -42.2497
  135 503.292 -32.4362 25.9333
  136 596.275 127.192 -0.827285
  137 492.180 -52.4456 -52.1037
  138 691.262 105.454 26.3795
  139 643.790 38.3863 -99.8911
  140 455.782 30.7361 -1.17115
  141 498.320 -11.6782 35.4126
  142 507.679 -32.3401 -27.2752
  143 890.096 72.2140 22.6283
  144 537.560 -33.4875 -17.4963
  145 904.631 102.105 -73.7323
  146 538.867 -32.8700 14.3342
  147 475.265 9.89547 39.9343
  148 15.2536 16.5045 2.56794
  149 16.0174 17.5741 -2.35011
  150 510.630 -9.31682 8.47397
  151 510.166 -8.58945 -8.14199
  152 393.498 -38.2151 -45.2858
  153 401.006 -37.3067 42.8764
  154 208.790 -7.25534 -59.3334
  155 208.794 -7.20653 59.2685
  156 424.384 -11.2956 -2.87164
  157 424.160 -10.5995 3.04548
  158 60.9091 75.1590 -74.4953
  159 78.3932 75.3631 78.0786
  160 522.964 48.1169 -43.3227
  161 298.320 -12.6894 -40.3968
  162 297.911 -13.2791 40.1462
  163 644.033 70.5889 165.154
  164 495.371 -21.0895 118.598
  165 459.952 -25.1964 -0.170298
  166 459.127 -24.0667 0.182544
  167 510.610 -4.68991 2.59670
  168 510.104 -4.60708 -2.75700
  169 511.245 -39.6231 -84.2986
  170 329.914 -6.90219 -16.3350
  171 329.941 -6.90929 16.2331
  172 483.897 1.73905 -41.8015
  173 628.757 80.3654 17.8839
  174 629.597 76.2880 -20.7302
  175 546.768 100.514 19.7644
  176 854.606 230.279 109.544
  177 380.604 -42.0354 84.0227
  178 513.876 128.734 -252.015
  179 384.490 -38.5734 -86.2860
  180 508.433 -9.83680 -19.4637
  181 508.161 -9.45809 19.8308
  182 482.225 -36.1299 -5.99277
  183 71.0009 16.8829 -42.2468
  184 71.1752 17.2860 42.3395
  185 246.259 25.8537 -126.381
  186 241.633 27.3644 125.094
  187 557.750 95.0681 -29.1450
  188 480.095 -34.8523 5.82495
  189 290.573 -13.7620 -95.2044
  190 291.252 -13.1332 95.8948
  191 250.703 -7.70871 -42.9845
  192 250.564 -7.87857 43.1783
  193 737.450 148.134 -60.2206
  194 248.227 158.350 209.879
  195 677.240 142.838 4.60709
  196 383.462 -5.94817 -4.16628
  197 383.195 -6.10718 4.15021
  198 428.011 -48.4361 50.4508
  199 136.549 129.411 -140.524
  200 431.336 -49.8307 -52.2598
  201 298.716 -5.70903 21.4465
  202 298.676 -5.93217 -21.3556
  203 524.734 -30.2150 30.4313
  204 933.966 100.559 83.1076
  205 366.014 -13.1989 -20.0587
  206 365.473 -13.2403 19.7448
  207 550.640 74.7520 40.6997
  208 342.373 -1.83769 -3.59338
  209 342.420 -1.89465 3.61578
  210 666.345 144.322 -3.60197
  211 476.553 37.9812 -22.6275
  212 899.284 183.232 -123.867
  213 503.350 66.3206 18.6735
  214 654.923 132.484 -7.02676
  215 501.245 -18.9949 29.7078
  216 441.852 -14.7526 -2.10713
  217 440.872 -17.2183 3.36514
  218 33.2966 17.6509 20.2173
  219 33.4524 17.2513 -20.6144
  220 441.052 15.6412 -14.7340
  221 482.899 -18.0502 6.31677
  222 484.106 -17.7993 -6.68322
  223 28.1423 27.4121 -20.3140
  224 25.2240 29.5098 21.5695
  225 465.938 -8.44249 -0.392792
  226 465.911 -8.33107 0.585413
  227 143.753 -0.0300074 -45.4252
  228 143.834 -0.0423858 45.3822
  229 380.169 13.5667 -149.654
  230 470.271 25.0448 31.8489
  231 498.779 -23.0317 -25.7344
  232 508.198 -16.2895 -42.3986
  233 460.862 -38.9435 93.0362
  234 553.076 -32.9755 8.26560
  235 570.858 78.5504 -39.6594
  236 485.333 -2.67277 -28.8002
  237 490.212 -1.99306 42.4013
  238 512.886 20.9753 48.9963
  239 787.161 182.810 104.254
  240 943.621 36.6060 -19.0076
  241 492.972 16.0015 -47.0608
  242 503.954 -14.4468 42.6357
  243 339.356 -25.4198 -49.7570
  244 336.141 -25.3586 49.6939
  245 659.809 64.4149 -19.0012
  246 589.185 20.9706 28.1149
  247 -1.65276 -0.494410 -10.5989
  248 -1.63294 -0.219316 10.8929
  249 144.568 28.8812 -83.0871
  250 144.614 29.6009 82.9424
  251 460.062 4.38111 -30.6458
  252 487.586 -43.3178 1.47388
  253 183.448 59.5705 -129.280
  254 166.871 68.8516 122.599
  255 83.7445 5.19710 -37.7597
  256 83.9454 5.11414 37.8166
  257 386.871 -10.8940 -8.99914
  258 386.791 -10.7960 9.04904
  259 523.792 -24.7762 -34.1802
  260 440.445 -40.2825 -89.7016
  261 581.712 7.17719 -21.9842
  262 462.704 -42.5737 11.7181
  263 480.738 41.3861 -185.713
  264 454.268 -44.7985 -20.4528
  265 395.840 -27.5731 -28.4422
  266 396.644 -28.8994 29.7685
  267 772.537 141.037 -40.3493
  268 639.079 137.436 2.04901
  269 640.637 24.2082 67.0393
  270 504.218 -6.29448 -20.9299
  271 327.170 -3.35943 8.14082
  272 327.195 -3.43639 -8.11487
  273 513.061 -43.1704 -10.6158
  274 542.389 -39.9502 -20.4896
  275 772.438 127.953 21.1455
  276 374.610 10.1399 148.297
  277 514.015 -42.7067 9.82202
  278 517.193 -5.13009 10.8000
  279 543.697 -6.65206 -40.8138
  280 461.992 227.158 269.058
  281 60.5327 88.0491 84.4395
  282 527.496 -4.33147 3.54963
  283 522.702 -4.11113 -4.71103
  284 483.251 -2.80223 25.9103
  285 442.329 18.3644 14.0060
  286 517.991 -4.46494 -10.5560
  287 546.881 -32.3903 59.2480
  288 223.857 6.90217 -101.127
  289 223.461 6.43875 101.044
  290 579.726 72.4335 36.2437
  291 508.334 -51.8339 -19.0090
  292 492.446 21.3514 44.3514
  293 489.024 -6.09043 0.236850
  294 489.051 -6.16000 -0.256325
  295 503.409 -5.65648 20.5940
  296 513.691 -51.0266 20.0979
  297 552.113 108.430 4.05066
  298 733.773 156.114 -172.890
  299 407.622 -22.9073 -17.3555
  300 401.973 -23.0204 18.5020
  301 539.742 -15.4489 36.2841
  302 612.432 131.149 -8.18771
  303 384.612 -38.6482 -56.9203
  304 374.154 -36.5492 60.8889
  305 963.586 26.8996 16.9806
  306 989.152 36.4932 -55.4291
  307 502.758 -14.4268 -15.3276
  308 301.933 -2.21178 12.6204
  309 301.914 -2.19586 -12.5992
  310 155.607 107.595 144.924
  311 502.553 -14.2275 15.0868
  312 535.435 23.1192 -48.7582
  313 268.807 -5.16752 -21.7542
  314 268.729 -5.14820 21.6223
  315 497.032 -8.96088 4.68835
  316 497.155 -9.25918 -4.95453
  317 3.62677 -9.49936 -7.72260
  318 4.14222 -10.0640 7.85229
  319 513.630 17.4672 153.884
  320 586.172 121.077 14.3720
  321 495.040 -27.8697 20.1172
  322 160.503 -3.23966 -32.5430
  323 160.518 -3.22242 32.5454
  324 -4.01666 7.60233 -1.52348
  325 -4.26711 7.87902 1.27750
  326 505.615 59.8305 -27.0693
  327 657.301 137.015 4.27318
  328 493.715 -41.4788 -7.25218
  329 14.8391 13.2968 -21.0317
  330 18.7695 19.8388 24.2915
  331 284.622 -19.5393 76.2744
  332 284.442 -19.3863 -75.8591
  333 533.978 -1.78838 -1.12799
  334 533.916 -2.08168 1.24207
  335 446.721 -46.0409 29.6795
  336 459.351 1.85563 27.0953
  337 440.069 7.24364 23.1667
  338 48.3914 40.0724 -32.3677
  339 45.8119 36.3234 31.8196
  340 835.352 97.5434 -15.5911
  341 732.805 175.693 37.6013
  342 458.112 -32.6949 4.39816
  343 329.321 -1.37520 -3.62542
  344 329.304 -1.40595 3.69058
  345 542.293 71.9861 -39.8205
  346 221.263 -8.23521 77.6222
  347 221.267 -8.35658 -77.7169
  348 597.642 -6.21097 -48.7922
  349 353.391 -7.56068 -13.7537
  350 353.378 -7.27079 13.7004
  351 292.049 -15.8522 -50.6534
  352 291.550 -16.2054 50.7867
  353 232.387 -3.13277 24.4260
  354 232.281 -2.99867 -24.4038
  355 640.174 49.5637 1.98042
  356 430.886 4.76684 -20.9273
  357 458.080 88.9721 227.367
  358 704.951 153.269 18.4920
  359 1012.94 87.3510 -112.483
  360 403.797 -8.09480 -3.17059
  361 403.784 -7.79506 3.10306
  362 442.059 -29.3881 -9.27887
  363 1002.77 119.824 120.149
  364 446.508 -11.2932 -0.670904
  365 446.220 -11.5757 1.03443
  366 479.308 -28.5609 -7.18524
  367 417.554 -14.2158 -7.12666
  368 413.415 -13.4134 7.20948
  369 192.990 174.926 -187.158
  370 333.809 -11.2002 -24.1521
  371 333.732 -11.2898 24.0143
  372 409.810 13.1941 -0.484658
  373 963.294 244.554 -163.832
  374 205.288 -2.31834 -33.9564
  375 205.302 -2.24621 34.0181
  376 368.660 -28.0379 -38.4627
  377 362.518 -25.6217 39.1984
  378 497.446 35.4321 -40.7605
  379 464.023 -40.6738 -7.27913
  380 40.1392 83.6719 -69.4661
  381 350.008 -26.3163 -102.045
  382 364.444 -29.4510 100.879
  383 21.9046 4.09655 -16.6400
  384 21.8445 4.22321 16.7009
  385 435.394 -25.9679 9.73382
  386 308.616 -2.63642 -7.97555
  387 308.583 -2.63053 7.96863
  388 986.067 34.1969 50.9349
  389 434.935 -8.80170 -0.289591
  390 435.040 -8.73168 0.203059
  391 479.543 -28.3992 7.48594
  392 1040.78 287.053 203.771
  393 502.181 -17.2658 -21.6985
  394 856.551 118.930 57.9041
  395 558.348 -34.8660 -45.1876
  396 492.795 60.5633 -2.94633
  397 443.888 -23.5600 -116.904
  398 523.634 -9.00978 -118.934
  399 70.0059 27.1865 -42.7291
  400 70.4805 28.4377 42.6728
  401 497.983 -31.6037 -21.1209
  402 323.054 -12.6312 34.2782
  403 322.927 -13.1896 -34.6623
  404 518.665 -2.97015 12.5747
  405 433.841 -22.0136 -7.90959
  406 530.194 -3.71748 5.47288
  407 531.185 6.67162 49.5425
  408 566.822 -18.9422 14.2438
  409 263.734 -10.9109 58.8517
  410 263.789 -11.2100 -58.9396
  411 167.625 95.2561 -141.031
  412 497.918 9.91082 48.3623
  413 506.250 -37.8277 20.9822
  414 432.556 -46.0741 65.5372
  415 812.184 166.020 -83.2261
  416 503.892 -24.9711 -33.2976
  417 559.791 -13.5985 -26.7352
  418 459.387 -20.2154 -0.834740
  419 464.168 -19.2840 -1.38892
  420 434.805 -49.2349 -65.8240
  421 505.055 1.17662 -49.3171
  422 432.900 -47.1996 -41.0372
  423 359.189 -3.49166 -2.99552
  424 359.186 -3.52607 2.94326
  425 532.158 80.8111 -29.4759
  426 519.475 -2.98209 -12.3765
  427 607.527 102.504 -27.9435
  428 513.375 -48.8718 -58.9512
  429 534.763 -4.17574 -5.19789
  430 472.113 -54.6472 44.5604
  431 698.183 142.535 -14.3599
  432 380.686 -12.7971 14.2193
  433 381.675 -13.6534 -14.3852
  434 511.689 -4.04350 -0.173949
  435 511.549 -4.10271 0.139331
  436 500.987 -18.3366 22.1001
  437 375.024 -18.6433 24.9404
  438 375.297 -18.2473 -24.9518
  439 477.636 41.7607 18.1954
  440 472.746 -53.4308 -44.7502
  441 564.112 92.3658 31.4682
  442 503.479 -11.2452 27.8302
  443 626.389 57.7934 -172.298
  444 360.592 -5.37979 -6.71196
  445 360.464 -5.47035 6.70705
  446 587.339 115.520 -22.5084
  447 485.622 -8.07745 -2.15432
  448 485.509 -7.72707 2.20909
  449 478.944 10.8964 -41.0245
  450 547.845 49.5329 -48.1984
  451 328.725 -0.427965 -0.851863
  452 328.771 -0.448299 0.861938
  453 503.378 -13.6801 -26.8246
  454 418.170 -21.7971 127.148
  455 529.983 306.698 -304.147
  456 530.990 75.9615 32.7883
  457 162.537 43.3103 -103.479
  458 158.795 45.0892 102.013
  459 281.134 42.1002 -151.996
  460 283.143 45.3638 152.224
  461 95.3330 175.320 152.573
  462 428.460 -39.3751 27.9720
  463 750.705 169.366 48.7073
  464 85.8242 66.0495 -76.2323
  465 73.0082 60.0845 61.8512
  466 279.183 -1.44284 11.9225
  467 279.312 -1.54230 -11.9254
  468 646.312 139.770 -3.08824
  469 35.7362 24.6001 21.8624
  470 35.7266 24.7701 -22.5546
  471 594.497 56.4005 -34.6772
  472 1.09016 4.49499 -7.57940
  473 0.993297 4.65552 7.37783
  474 496.482 -7.06635 -43.0027
  475 6.82867 -16.9153 -0.662518
  476 6.32412 -14.5796 0.446717
  477 539.322 -3.52719 2.04796
  478 538.468 -2.12816 -2.22509
  479 367.231 -37.0447 73.4499
  480 368.324 -37.7039 -73.4279
  481 710.098 90.6265 71.0598
  482 561.802 109.875 -12.7249
  483 524.499 -15.0127 43.7160
  484 667.993 106.180 -3.63824
  485 620.246 25.3642 3.56457
  486 624.565 138.105 7.64330
  487 522.725 84.4774 11.6165
  488 292.420 103.539 -205.503
  489 512.723 -25.2246 36.9114
  490 622.226 111.526 20.9678
  491 567.686 -17.4612 80.3699
  492 495.226 -35.1797 15.9579
  493 401.571 -9.69257 -5.23052
  494 400.753 -9.75560 5.03196
  495 536.980 46.8286 46.8953
  496 844.532 167.947 94.2858
  497 504.099 -21.7072 33.8759
  498 559.780 -5.71034 32.8683
  499 929.790 60.5191 50.5561
  500 241.796 -2.93931 94.2365
  501 299.515 -7.49810 107.699
  502 241.635 -3.01066 -94.0974
  503 297.128 -8.38188 -108.604
  504 785.664 214.540 -80.1657
  505 461.070 -33.4414 -4.10869
  506 490.985 -28.9625 -16.0890
  507 -4.82086 -4.57096 -7.78368
  508 -4.96555 -4.64718 8.03004
  509 799.813 224.301 213.757
  510 385.761 -5.67779 -2.65028
  511 385.680 -5.56612 2.59645
  512 420.056 -37.2495 -32.0100
  513 428.656 -42.9148 81.4904
  514 530.528 -32.2186 24.4507
  515 513.228 22.0047 -49.6733
  516 459.465 1.49104 -25.9694
  517 -13.5624 0.523410 9.62158
  518 -13.1063 0.364103 -9.48922
  519 521.634 -48.4318 48.7310
  520 335.633 -27.8497 87.5945
  521 314.482 0.342583 2.13582
  522 314.502 0.335467 -2.08167
  523 135.869 12.5340 -70.1974
  524 136.237 12.1441 70.3045
  525 335.052 -26.9703 -86.9150
  526 612.089 34.2421 -18.8225
  527 269.005 -8.38191 -37.2383
  528 268.959 -8.74472 37.2509
  529 -0.609653 -13.3717 -9.99055
  530 -0.566966 -13.8149 10.2685
</Section>

newXOutput 29

<Section columns = "stress_xx | stress_yy | stress_xy">
  1 565.027 0.388747 1.75747
  2 565.095 0.385304 -1.78194
  3 331.574 -0.134818 -0.667586
  4 -4.38588 -4.31323 -4.68003
  5 954.693 418.651 335.190
  6 964.126 426.563 -322.238
  7 -4.53173 -4.44669 4.84712
  8 331.501 -0.127676 0.672691
  9 572.710 -2.88597 1.29299
  10 569.970 -3.41552 0.916528
  11 561.109 -2.37186 4.75589
  12 551.080 -2.09351 7.94253
  13 537.526 -2.76315 10.3841
  14 509.646 -2.33668 15.1589
  15 476.523 -0.0961600 17.8885
  16 441.121 2.41453 17.5104
  17 420.439 7.07230 10.9400
  18 391.250 11.2910 -0.206810
  19 419.347 7.57828 -12.3223
  20 444.882 2.02407 -19.2234
  21 473.640 0.527951 -18.0509
  22 510.457 -2.57854 -16.4370
  23 537.896 -3.47534 -11.1359
  24 551.225 -3.99046 -8.06893
  25 568.776 -4.21649 -3.44538
  26 565.562 -2.13075 -1.65738
  27 572.364 -2.48898 -1.12194
  28 543.165 -2.59727 -2.10245
  29 515.382 -6.24671 -1.46813
  30 479.286 -7.62912 -0.604133
  31 450.522 -7.39433 -1.43753
  32 422.684 -7.14612 0.806425
  33 384.750 -3.54308 0.824778
  34 355.097 -1.53968 -0.469497
  35 327.558 0.0737910 1.58160
  36 320.126 1.98427 1.10913
  37 316.102 0.00922822 3.82468
  38 306.944 0.0383498 5.83629
  39 287.171 0.0925498 6.61585
  40 269.791 -0.637949 10.9156
  41 238.813 -0.548892 13.0285
  42 204.463 -0.313922 16.5839
  43 159.422 -1.66602 19.8853
  44 123.771 0.268760 27.8578
  45 72.8135 4.57355 23.5798
  46 13.7268 8.60177 15.6539
  47 -19.9002 7.03473 6.55331
  48 -31.8824 6.07845 0.703571
  49 -26.8153 4.18117 -7.85598
  50 -15.2675 -0.844654 -6.45697
  51 -1.33468 -14.8893 -6.79994
  52 1.79313 -29.0908 -9.94737
  53 4.13455 -44.2539 -4.74156
  54 9.84238 -44.5154 0.725207
  55 20.3686 -6.67854 22.4140
  56 53.1237 102.724 85.0259
  57 216.364 328.837 259.705
  58 1288.64 170.174 203.160
  59 1090.11 45.3093 68.8890
  60 1029.35 20.6042 23.2732
  61 1004.57 14.2475 -2.89291
  62 1027.79 21.3125 -25.7336
  63 1107.98 51.0251 -79.9782
  64 1255.25 193.985 -216.632
  65 251.448 368.017 -274.225
  66 56.7701 89.1652 -72.6489
  67 20.5175 -8.50562 -22.4430
  68 8.17847 -45.6179 -1.18727
  69 4.48031 -45.1000 4.07053
  70 2.03387 -29.9081 10.0588
  71 -1.34278 -15.4006 6.99791
  72 -15.7284 -0.794339 6.58082
  73 -27.3717 4.33839 7.81992
  74 -32.0128 6.09687 -0.933986
  75 -19.6888 6.91818 -6.62776
  76 13.8580 8.56492 -15.5828
  77 72.7523 4.61025 -23.5492
  78 123.738 0.271541 -27.8445
  79 159.359 -1.68853 -19.8425
  80 204.283 -0.270476 -16.5380
  81 238.636 -0.476239 -13.1059
  82 269.895 -0.676185 -11.0168
  83 287.320 0.0444639 -6.61898
  84 307.028 0.0403179 -5.81189
  85 316.150 -0.0104406 -3.79481
  86 320.123 1.99891 -1.06825
  87 327.500 0.0865077 -1.56850
  88 355.086 -1.53766 0.456540
  89 384.803 -3.62680 -0.853616
  90 422.720 -7.29050 -0.808070
  91 450.639 -7.46898 1.41978
  92 479.347 -7.58833 0.618616
  93 515.314 -6.24533 1.46318
  94 542.945 -2.60301 2.12375
  95 493.246 -53.4234 -25.3350
  96 499.623 -52.9927 20.5942
  97 542.244 90.1627 -11.4727
  98 360.518 -11.1286 -122.482
  99 355.652 -9.83070 123.023
  100 620.519 124.779 23.6595
  101 660.633 140.050 -8.33195
  102 420.268 -18.2344 -13.1075
  103 424.484 -17.8660 11.3087
  104 540.575 -0.765213 -49.4742
  105 599.634 -13.8338 -6.94050
  106 530.222 -4.05347 49.7021
  107 617.473 -5.21491 18.8660
  108 102.859 52.4160 71.5680
  109 101.646 49.9208 -74.0274
  110 508.937 -22.3517 14.7811
  111 510.554 -23.1838 -16.7463
  112 739.265 142.678 -4.18515
  113 335.000 -25.5031 -67.2055
  114 335.367 -25.3734 67.5198
  115 366.870 -20.9827 34.2701
  116 367.311 -20.5671 -34.0712
  117 305.784 61.5920 -184.906
  118 321.639 64.0041 186.630
  119 751.775 177.256 -36.1731
  120 800.034 161.365 52.0320
  121 521.906 46.8098 38.4498
  122 485.286 -13.7472 0.947686
  123 485.893 -14.8094 -0.973311
  124 485.964 18.2916 -34.4706
  125 180.618 4.83495 -78.4429
  126 180.844 4.56086 78.1318
  127 517.325 -13.3896 -36.5289
  128 574.896 19.4794 44.8015
  129 369.161 -6.25246 10.2447
  130 369.252 -6.32915 -10.0845
  131 451.951 -36.4285 -18.5422
  132 448.962 -34.8921 18.9475
  133 491.239 -53.7064 58.9951
  134 582.412 25.5177 -43.2960
  135 520.783 -33.5772 26.5137
  136 617.078 131.534 -0.848420
  137 509.158 -54.2774 -54.1962
  138 714.646 109.299 27.8841
  139 665.348 39.9937 -103.781
  140 472.090 31.8552 -1.20723
  141 515.740 -12.0943 36.3822
  142 525.312 -33.4785 -27.8843
  143 919.575 74.6096 23.3625
  144 556.099 -34.6593 -17.7160
  145 934.567 105.490 -76.1595
  146 557.446 -34.0158 14.4386
  147 492.106 10.2596 41.1145
  148 15.9053 17.1720 2.80296
  149 16.6947 18.2796 -2.57454
  150 528.250 -9.66541 8.63598
  151 527.774 -8.91544 -8.29516
  152 407.435 -39.5372 -47.0080
  153 415.183 -38.5958 44.5212
  154 216.603 -7.52251 -61.5036
  155 216.608 -7.47203 61.4356
  156 439.401 -11.6844 -3.04470
  157 439.170 -10.9646 3.22427
  158 63.2073 78.0622 -77.4255
  159 81.3373 78.2430 81.1399
  160 541.297 49.8004 -44.5474
  161 309.255 -13.1204 -41.8577
  162 308.833 -13.7304 41.5989
  163 665.381 73.4913 171.217
  164 512.280 -21.7907 122.974
  165 476.044 -26.0718 -0.363150
  166 475.193 -24.9056 0.368339
  167 528.179 -4.88609 2.62794
  168 527.660 -4.80077 -2.79271
  169 528.744 -40.9638 -87.5293
  170 342.021 -7.12437 -16.9427
  171 342.049 -7.13150 16.8370
  172 500.965 1.80828 -43.0205
  173 650.316 83.2223 18.0038
  174 651.177 78.9997 -20.9354
  175 565.947 103.992 20.2994
  176 883.155 238.183 113.565
  177 393.994 -43.5271 87.1335
  178 530.959 133.613 -260.823
  179 398.003 -39.9456 -89.4759
  180 526.076 -10.1968 -19.9563
  181 525.796 -9.80683 20.3347
  182 499.016 -37.3889 -5.93735
  183 73.8241 17.4797 -43.9042
  184 74.0076 17.8958 43.9994
  185 255.072 26.7326 -131.034
  186 250.291 28.2941 129.700
  187 577.253 98.3580 -29.9104
  188 496.818 -36.0660 5.76926
  189 301.012 -14.2821 -98.6842
  190 301.713 -13.6314 99.3977
  191 260.035 -7.97409 -44.5389
  192 259.892 -8.14946 44.7385
  193 762.249 153.521 -62.9244
  194 256.816 164.143 217.396
  195 700.571 147.671 4.91280
  196 397.253 -6.14266 -4.35071
  197 396.977 -6.30674 4.33413
  198 443.002 -50.1263 52.4095
  199 141.482 134.257 -145.762
  200 446.425 -51.5718 -54.2876
  201 309.772 -5.89494 22.2259
  202 309.730 -6.12568 -22.1324
  203 542.911 -31.2777 31.1190
  204 964.737 103.885 85.8010
  205 379.209 -13.6380 -20.8343
  206 378.650 -13.6801 20.5092
  207 569.859 77.3523 41.7844
  208 354.950 -1.88851 -3.73731
  209 354.997 -1.94729 3.76023
  210 689.306 149.251 -3.99027
  211 493.482 39.3425 -23.3027
  212 929.188 189.404 -128.071
  213 521.128 68.6494 19.2111
  214 677.421 137.088 -6.81260
  215 518.697 -19.6744 30.4654
  216 457.393 -15.2693 -2.29597
  217 456.382 -17.8160 3.60511
  218 34.7019 18.2965 21.0868
  219 34.8595 17.8837 -21.4971
  220 456.915 16.2240 -15.1826
  221 499.695 -18.6937 6.36509
  222 500.942 -18.4340 -6.74140
  223 29.2411 28.5555 -21.2432
  224 26.2198 30.7285 22.5488
  225 482.203 -8.75546 -0.344478
  226 482.174 -8.64057 0.543802
  227 149.304 -0.0459165 -47.1081
  228 149.390 -0.0586347 47.0628
  229 393.350 14.0500 -155.081
  230 486.997 25.9495 32.7997
  231 516.137 -23.8509 -26.3532
  232 525.918 -16.8667 -43.5387
  233 476.760 -40.3106 96.5110
  234 572.049 -34.1086 8.94595
  235 590.697 81.2739 -40.6653
  236 502.424 -2.77097 -29.6233
  237 507.447 -2.06227 43.6159
  238 530.850 21.7118 50.3917
  239 813.333 189.472 108.477
  240 974.535 37.8168 -19.6083
  241 510.333 16.5699 -48.4327
  242 521.549 -14.9607 43.8006
  243 351.570 -26.2979 -51.5899
  244 348.254 -26.2346 51.5234
  245 682.156 66.8189 -20.2055
  246 609.419 21.7280 28.6275
  247 -1.65858 -0.467374 -10.9199
  248 -1.63960 -0.183170 11.2262
  249 149.944 29.8841 -86.2343
  250 149.994 30.6274 86.0816
  251 476.461 4.55319 -31.5611
  252 504.533 -44.8264 1.23687
  253 190.087 61.6971 -134.082
  254 172.934 71.3119 127.170
  255 87.1083 5.36948 -39.2064
  256 87.3189 5.28344 39.2645
  257 400.749 -11.2555 -9.37766
  258 400.667 -11.1533 9.42728
  259 541.951 -25.6510 -34.9962
  260 455.715 -41.7013 -93.0538
  261 601.680 7.44853 -22.2843
  262 478.856 -44.0488 12.3611
  263 497.018 42.9785 -192.360
  264 470.144 -46.3516 -21.3891
  265 409.907 -28.5138 -29.5634
  266 410.727 -29.8870 30.9373
  267 798.729 145.772 -41.8401
  268 661.232 142.103 2.01776
  269 662.195 25.2668 69.8318
  270 521.795 -6.52170 -21.4974
  271 339.240 -3.46151 8.44930
  272 339.267 -3.54112 -8.42287
  273 530.820 -44.6810 -10.6409
  274 560.997 -41.3293 -21.5703
  275 798.614 132.232 21.9410
  276 387.612 10.5005 153.678
  277 531.801 -44.1993 9.81785
  278 535.049 -5.32914 11.0530
  279 562.509 -6.89035 -41.8307
  280 477.008 235.713 278.373
  281 62.7895 91.6532 87.7261
  282 545.567 -4.50204 3.60623
  283 540.638 -4.27999 -4.79800
  284 500.283 -2.90111 26.6527
  285 458.229 19.0415 14.4311
  286 535.869 -4.64137 -10.8023
  287 565.535 -33.4779 61.6450
  288 231.990 7.10217 -104.870
  289 231.580 6.62331 104.784
  290 599.820 74.9610 37.1009
  291 525.884 -53.6436 -19.9899
  292 509.816 22.1175 45.6513
  293 505.962 -6.33337 0.207921
  294 505.990 -6.40518 -0.227453
  295 520.966 -5.85995 21.1557
  296 531.402 -52.8053 21.1207
  297 571.489 112.170 4.15933
  298 757.868 162.130 -179.337
  299 422.085 -23.6875 -18.0882
  300 416.261 -23.8024 19.2691
  301 558.418 -15.9955 37.1449
  302 633.732 135.620 -8.31673
  303 398.221 -39.9976 -59.0553
  304 387.431 -37.8264 63.1483
  305 995.035 27.7920 17.5056
  306 1021.35 37.6846 -57.1368
  307 520.188 -14.9505 -15.6683
  308 313.151 -2.28033 13.0797
  309 313.132 -2.26393 -13.0582
  310 161.224 111.519 150.304
  311 519.976 -14.7433 15.4211
  312 554.080 23.9231 -50.0865
  313 278.853 -5.33858 -22.5382
  314 278.772 -5.31867 22.4020
  315 514.228 -9.30050 4.74289
  316 514.356 -9.60778 -5.01660
  317 3.78463 -9.73997 -7.91994
  318 4.31750 -10.3272 8.05686
  319 531.024 18.2093 159.469
  320 606.628 125.229 14.7094
  321 512.260 -28.8513 20.5416
  322 166.739 -3.35875 -33.7328
  323 166.756 -3.34093 33.7346
  324 -4.04060 7.89588 -1.49652
  325 -4.30273 8.18258 1.24308
  326 523.452 61.9338 -27.8541
  327 679.897 141.785 3.96670
  328 510.864 -42.9263 -7.20253
  329 15.4194 14.1127 -21.9755
  330 19.4987 20.8970 25.3634
  331 294.927 -20.2427 79.0672
  332 294.743 -20.0838 -78.6387
  333 552.187 -1.87529 -1.14580
  334 552.123 -2.17824 1.26250
  335 462.340 -47.6363 30.9249
  336 475.724 1.92747 27.8966
  337 455.896 7.51765 23.8670
  338 50.2791 41.5853 -33.7393
  339 47.6115 37.7023 33.1769
  340 863.326 100.783 -16.1236
  341 757.709 181.772 39.3198
  342 474.139 -33.8281 4.76237
  343 341.500 -1.41439 -3.77030
  344 341.481 -1.44608 3.83730
  345 561.263 74.4863 -40.9084
  346 229.411 -8.55460 80.4744
  347 229.414 -8.68074 -80.5735
  348 617.911 -6.31863 -50.9032
  349 366.228 -7.80506 -14.2896
  350 366.214 -7.50530 14.2339
  351 302.719 -16.4007 -52.4917
  352 302.205 -16.7656 52.6288
  353 241.182 -3.23861 25.3021
  354 241.072 -3.10004 -25.2795
  355 661.938 51.3942 2.58639
  356 446.450 4.96124 -21.5636
  357 473.538 92.2775 235.370
  358 729.099 158.507 19.4033
  359 1045.90 90.2047 -116.065
  360 418.200 -8.36717 -3.31641
  361 418.186 -8.05770 3.24685
  362 457.587 -30.3987 -9.77862
  363 1035.51 123.778 123.994
  364 462.191 -11.6957 -0.778511
  365 461.894 -11.9872 1.15484
  366 496.007 -29.5592 -7.20497
  367 432.357 -14.6992 -7.46888
  368 428.095 -13.8689 7.54502
  369 199.553 181.686 -193.877
  370 345.976 -11.5743 -25.0485
  371 345.896 -11.6664 24.9050
  372 424.758 13.6791 -0.499579
  373 994.699 252.971 -169.489
  374 213.096 -2.39807 -35.1864
  375 213.111 -2.32333 35.2495
  376 381.849 -28.9977 -39.9180
  377 375.509 -26.4970 40.6671
  378 514.986 36.6873 -41.9525
  379 480.230 -42.0824 -7.77102
  380 41.6439 87.1551 -72.1890
  381 362.370 -27.2754 -105.781
  382 377.273 -30.5156 104.577
  383 23.0109 4.23756 -17.3158
  384 22.9526 4.36834 17.3787
  385 450.723 -26.8587 10.2287
  386 320.099 -2.71971 -8.27056
  387 320.065 -2.71356 8.26315
  388 1018.19 35.3144 52.5119
  389 450.272 -9.11331 -0.337818
  390 450.380 -9.04048 0.249025
  391 496.251 -29.3915 7.51875
  392 1074.20 296.958 210.658
  393 519.629 -17.8861 -22.2213
  394 885.161 122.901 59.8602
  395 577.397 -36.0420 -47.1205
  396 510.249 62.7018 -3.03466
  397 459.194 -24.3763 -121.205
  398 541.429 -9.23556 -123.349
  399 72.7394 28.1654 -44.4479
  400 73.2344 29.4584 44.3894
  401 515.297 -32.7140 -21.5521
  402 334.830 -13.0549 35.5318
  403 334.699 -13.6328 -35.9303
  404 536.612 -3.08542 12.9014
  405 449.131 -22.7709 -8.32540
  406 548.381 -3.86657 5.58572
  407 549.665 6.90070 50.8861
  408 586.283 -19.5844 14.3084
  409 273.425 -11.2957 60.9878
  410 273.480 -11.6055 -61.0797
  411 173.648 98.7277 -146.255
  412 515.412 10.2631 49.7614
  413 523.818 -39.1549 21.3749
  414 447.637 -47.6921 68.0308
  415 839.545 171.634 -86.1841
  416 521.430 -25.8539 -34.1386
  417 579.064 -14.0692 -27.2409
  418 475.461 -20.9209 -1.01329
  419 480.387 -19.9603 -1.28329
  420 449.956 -50.9634 -68.3319
  421 522.734 1.21537 -50.7183
  422 448.075 -48.8393 -42.6580
  423 372.266 -3.59822 -3.11364
  424 372.262 -3.63364 3.05967
  425 550.844 83.6177 -30.3015
  426 537.443 -3.09627 -12.6978
  427 628.529 106.061 -28.4908
  428 530.989 -50.5602 -61.3109
  429 553.067 -4.33600 -5.30736
  430 488.489 -56.5567 46.3663
  431 721.961 147.584 -15.4083
  432 394.351 -13.2233 14.7947
  433 395.371 -14.1087 -14.9669
  434 529.278 -4.21645 -0.158718
  435 529.131 -4.27747 0.123005
  436 518.397 -18.9950 22.6304
  437 388.464 -19.2713 25.9043
  438 388.747 -18.8629 -25.9176
  439 494.608 43.2546 18.7370
  440 489.143 -55.3008 -46.5613
  441 583.805 95.5652 32.2849
  442 521.007 -11.6515 28.5644
  443 647.180 60.1980 -178.546
  444 373.697 -5.54862 -6.97499
  445 373.564 -5.64187 6.96948
  446 607.789 119.495 -23.0147
  447 502.472 -8.38632 -2.14924
  448 502.356 -8.02423 2.20635
  449 495.888 11.2903 -42.2367
  450 566.925 51.2553 -49.5113
  451 340.913 -0.435362 -0.893025
  452 340.960 -0.456325 0.903323
  453 520.897 -14.1728 -27.5209
  454 432.635 -22.5647 131.790
  455 546.953 318.231 -314.459
  456 549.620 78.6084 33.7038
  457 168.517 44.8377 -107.379
  458 164.653 46.6758 105.859
  459 291.084 43.5758 -157.547
  460 293.140 46.9444 157.774
  461 98.7056 182.305 158.244
  462 443.528 -40.7324 29.1295
  463 776.006 175.427 51.0225
  464 89.0402 68.4991 -79.1994
  465 75.7936 62.3241 64.3170
  466 289.639 -1.48737 12.3514
  467 289.773 -1.59024 -12.3545
  468 668.699 144.503 -3.14509
  469 37.1928 25.5148 22.8224
  470 37.1788 25.6919 -23.5370
  471 614.974 58.3807 -35.4098
  472 1.34905 4.65492 -7.93372
  473 1.25267 4.82085 7.72550
  474 513.884 -7.31720 -44.2184
  475 7.09567 -17.3084 -0.798310
  476 6.57581 -14.8816 0.579986
  477 557.692 -3.66152 2.08315
  478 556.816 -2.22231 -2.26467
  479 380.232 -38.3529 76.1643
  480 381.362 -39.0350 -76.1459
  481 733.858 94.1092 74.1077
  482 581.479 113.656 -13.0458
  483 542.717 -15.5465 44.8585
  484 690.775 109.959 -3.20556
  485 641.380 26.3324 3.19228
  486 646.242 142.827 7.69314
  487 541.135 87.4228 11.9496
  488 302.532 107.348 -212.879
  489 530.549 -26.1149 37.8475
  490 643.716 115.406 21.2760
  491 586.945 -17.9626 83.5249
  492 512.439 -36.4113 16.2129
  493 415.899 -10.0182 -5.47296
  494 415.057 -10.0834 5.26774
  495 555.718 48.4617 48.1814
  496 872.847 173.588 97.5513
  497 521.645 -22.4783 34.7441
  498 579.069 -5.90853 33.5769
  499 960.368 62.5149 52.1639
  500 250.582 -3.08573 97.6998
  501 310.195 -7.80659 111.634
  502 250.416 -3.16068 -97.5562
  503 307.730 -8.72410 -112.569
  504 812.200 221.932 -83.2773
  505 477.192 -34.5990 -4.46514
  506 508.067 -29.9798 -16.3794
  507 -4.98581 -4.72819 -8.05465
  508 -5.13623 -4.80750 8.31046
  509 825.743 232.684 221.591
  510 399.628 -5.86162 -2.75808
  511 399.544 -5.74632 2.70262
  512 434.852 -38.5342 -33.2892
  513 443.576 -44.4325 84.5389
  514 548.869 -33.3485 24.9180
  515 531.205 22.7734 -51.0858
  516 475.843 1.54616 -26.7347
  517 -14.0147 0.553448 9.94339
  518 -13.5406 0.388614 -9.80538
  519 539.537 -50.1139 50.7364
  520 347.573 -28.8517 90.8089
  521 326.209 0.358015 2.22527
  522 326.231 0.350625 -2.16959
  523 141.005 12.9531 -72.8553
  524 141.387 12.5489 72.9642
  525 346.973 -27.9415 -90.1073
  526 633.008 35.4845 -18.9682
  527 278.987 -8.66320 -38.5801
  528 278.939 -9.03824 38.5930
  529 -0.617428 -13.8200 -10.3240
  530 -0.573716 -14.2804 10.6131
</Section>

newXOutput 30

<Section columns = "stress_xx | stress_yy | stress_xy">
  1 583.461 0.376879 1.80051
  2 583.531 0.374800 -1.82548
  3 343.511 -0.131658 -0.682285
  4 -4.53946 -4.46388 -4.84548
  5 983.186 433.053 345.822
  6 993.185 441.314 -332.452
  7 -4.69058 -4.60216 5.01853
  8 343.437 -0.124296 0.687503
  9 591.352 -2.98879 1.31740
  10 588.561 -3.53479 0.919077
  11 579.525 -2.46211 4.86106
  12 569.288 -2.17900 8.13193
  13 555.438 -2.86416 10.6458
  14 526.869 -2.41834 15.5682
  15 492.879 -0.0962610 18.3920
  16 456.509 2.50766 18.0167
  17 435.246 7.32843 11.2656
  18 405.245 11.6661 -0.212771
  19 434.126 7.84740 -12.6894
  20 460.373 2.10471 -19.7761
  21 489.926 0.540589 -18.5551
  22 527.701 -2.66934 -16.8808
  23 555.819 -3.59824 -11.4173
  24 569.438 -4.12752 -8.26343
  25 587.391 -4.35666 -3.51462
  26 584.051 -2.21731 -1.67442
  27 590.999 -2.58019 -1.14166
  28 561.032 -2.71296 -2.15661
  29 532.498 -6.48421 -1.49862
  30 495.395 -7.90554 -0.598969
  31 465.814 -7.65093 -1.47166
  32 437.178 -7.37836 0.849106
  33 398.163 -3.65010 0.860028
  34 367.678 -1.57888 -0.475678
  35 339.372 0.0816465 1.63871
  36 331.701 2.04566 1.16075
  37 327.516 0.0144283 3.96729
  38 318.033 0.0451834 6.04116
  39 297.603 0.0982805 6.84955
  40 279.632 -0.655777 11.2875
  41 247.612 -0.563760 13.4777
  42 212.098 -0.320424 17.1573
  43 165.511 -1.72439 20.5849
  44 128.605 0.273859 28.8400
  45 75.8219 4.72770 24.4441
  46 14.6117 8.89561 16.2595
  47 -20.2969 7.27849 6.83416
  48 -32.8237 6.29392 0.777043
  49 -27.6955 4.33998 -8.09965
  50 -15.7896 -0.864827 -6.67341
  51 -1.37203 -15.4012 -7.02958
  52 1.87027 -30.0574 -10.2645
  53 4.29603 -45.6225 -4.84268
  54 10.2158 -45.7182 0.871533
  55 21.1275 -6.28836 23.3964
  56 54.9811 107.361 88.2040
  57 223.123 341.114 268.271
  58 1327.33 175.558 209.003
  59 1123.78 46.7255 70.8730
  60 1061.40 21.2608 23.9381
  61 1035.97 14.7062 -2.97324
  62 1059.80 21.9926 -26.4703
  63 1142.08 52.6270 -82.2666
  64 1293.16 200.142 -222.962
  65 259.226 381.593 -283.117
  66 58.8059 93.2504 -75.4298
  67 21.2747 -8.16943 -23.4123
  68 8.48730 -46.8715 -1.33946
  69 4.65183 -46.5052 4.15148
  70 2.11885 -30.9060 10.3812
  71 -1.38075 -15.9312 7.23501
  72 -16.2674 -0.812993 6.80199
  73 -28.2734 4.50255 8.06311
  74 -32.9626 6.31313 -1.01488
  75 -20.0831 7.15827 -6.91102
  76 14.7430 8.85779 -16.1864
  77 75.7556 4.76570 -24.4130
  78 128.569 0.276751 -28.8268
  79 165.445 -1.74769 -20.5412
  80 211.912 -0.275640 -17.1102
  81 247.428 -0.488725 -13.5575
  82 279.738 -0.695228 -11.3919
  83 297.756 0.0486217 -6.85287
  84 318.120 0.0472053 -6.01617
  85 327.567 -0.00591162 -3.93670
  86 331.699 2.06072 -1.11877
  87 339.314 0.0947595 -1.62527
  88 367.668 -1.57684 0.462308
  89 398.218 -3.73650 -0.889748
  90 437.216 -7.52744 -0.850800
  91 465.934 -7.72820 1.45339
  92 495.457 -7.86376 0.614126
  93 532.427 -6.48260 1.49367
  94 560.805 -2.71898 2.17815
  95 509.734 -55.2159 -26.4550
  96 516.305 -54.7688 21.5623
  97 560.627 93.1813 -11.7827
  98 372.709 -11.5428 -126.796
  99 367.697 -10.1982 127.358
  100 641.261 128.905 24.1256
  101 682.598 144.672 -8.29633
  102 434.660 -18.8294 -13.6516
  103 438.999 -18.4506 11.7970
  104 558.689 -0.800214 -50.7562
  105 619.351 -14.2487 -7.62412
  106 548.032 -4.19322 51.0201
  107 637.676 -5.31331 19.9647
  108 106.610 54.2426 74.2569
  109 105.348 51.6649 -76.8006
  110 525.961 -23.1160 15.0445
  111 527.634 -23.9747 -17.0629
  112 763.604 147.278 -4.35629
  113 346.603 -26.3658 -69.5751
  114 346.983 -26.2310 69.8967
  115 379.610 -21.6645 35.5059
  116 380.065 -21.2366 -35.3036
  117 316.092 63.7180 -191.344
  118 332.420 66.2386 193.121
  119 776.429 183.105 -37.7232
  120 826.107 166.607 53.9210
  121 539.604 48.4000 39.5142
  122 501.578 -14.2217 0.864514
  123 502.202 -15.3175 -0.889038
  124 502.598 18.9365 -35.4537
  125 187.125 4.96846 -81.2600
  126 187.360 4.68570 80.9370
  127 534.709 -13.8508 -37.4725
  128 594.046 20.1334 45.8694
  129 382.090 -6.44308 10.6341
  130 382.185 -6.52262 -10.4699
  131 467.234 -37.6355 -19.3529
  132 464.163 -36.0450 19.7632
  133 507.581 -55.5137 61.2448
  134 601.794 26.3788 -44.3101
  135 538.196 -34.7141 27.0708
  136 637.794 135.852 -0.868933
  137 526.052 -56.1017 -56.2977
  138 737.883 113.140 29.4193
  139 686.759 41.6135 -107.680
  140 488.357 32.9729 -1.24283
  141 533.088 -12.5093 37.3308
  142 542.865 -34.6128 -28.4688
  143 948.827 76.9875 24.0900
  144 574.545 -35.8261 -17.9095
  145 964.271 108.850 -78.5667
  146 575.932 -35.1565 14.5168
  147 508.893 10.6237 42.2758
  148 16.5626 17.8432 3.04723
  149 17.3775 18.9888 -2.80805
  150 545.785 -10.0140 8.78903
  151 545.297 -9.24171 -8.43957
  152 421.326 -40.8531 -48.7319
  153 429.313 -39.8787 46.1686
  154 224.419 -7.78947 -63.6712
  155 224.425 -7.73735 63.6001
  156 454.368 -12.0710 -3.22153
  157 454.132 -11.3278 3.40680
  158 65.5073 80.9726 -80.3658
  159 84.2830 81.1280 84.2114
  160 559.559 51.4776 -45.7482
  161 320.178 -13.5488 -43.3155
  162 319.743 -14.1790 43.0486
  163 686.566 76.4122 177.272
  164 529.093 -22.4866 127.349
  165 492.072 -26.9432 -0.566915
  166 491.196 -25.7410 0.564601
  167 545.659 -5.08343 2.65542
  168 545.128 -4.99565 -2.82457
  169 546.148 -42.2960 -90.7655
  170 354.116 -7.34436 -17.5500
  171 354.144 -7.35151 17.4406
  172 517.974 1.87794 -44.2188
  173 671.760 86.0718 18.0907
  174 672.640 81.7044 -21.1063
  175 585.052 107.454 20.8222
  176 911.500 246.047 117.579
  177 407.336 -45.0143 90.2431
  178 547.914 138.499 -269.595
  179 411.466 -41.3140 -92.6641
  180 543.640 -10.5563 -20.4352
  181 543.352 -10.1553 20.8246
  182 515.736 -38.6426 -5.86536
  183 76.6594 18.0746 -45.5673
  184 76.8522 18.5035 45.6651
  185 263.863 27.6062 -135.684
  186 258.928 29.2183 134.303
  187 596.676 101.633 -30.6561
  188 513.469 -37.2745 5.69736
  189 311.428 -14.8029 -102.160
  190 312.150 -14.1302 102.896
  191 269.367 -8.23805 -46.0901
  192 269.220 -8.41889 46.2954
  193 786.882 158.901 -65.6542
  194 265.363 169.930 224.893
  195 723.782 152.474 5.22637
  196 411.012 -6.33540 -4.53676
  197 410.728 -6.50450 4.51966
  198 457.934 -51.8095 54.3728
  199 146.404 139.106 -151.000
  200 461.454 -53.3059 -56.3201
  201 320.822 -6.07917 23.0038
  202 320.779 -6.31745 -22.9077
  203 561.003 -32.3363 31.7797
  204 995.260 107.185 88.4695
  205 392.376 -14.0739 -21.6111
  206 391.800 -14.1166 21.2749
  207 588.998 79.9419 42.8427
  208 367.514 -1.93822 -3.88175
  209 367.562 -1.99880 3.90518
  210 712.150 154.152 -4.39353
  211 510.359 40.7007 -23.9674
  212 958.868 195.535 -132.247
  213 538.845 70.9698 19.7390
  214 699.801 141.674 -6.57001
  215 536.074 -20.3522 31.2022
  216 472.877 -15.7839 -2.49118
  217 471.835 -18.4110 3.85169
  218 36.1182 18.9415 21.9642
  219 36.2773 18.5155 -22.3875
  220 472.743 16.8069 -15.6250
  221 516.417 -19.3353 6.40245
  222 517.703 -19.0669 -6.78840
  223 30.3434 29.7071 -22.1837
  224 27.2195 31.9553 23.5398
  225 498.399 -9.06816 -0.292545
  226 498.370 -8.94984 0.498543
  227 154.869 -0.0627446 -48.7905
  228 154.959 -0.0757930 48.7429
  229 406.470 14.5321 -160.499
  230 503.673 26.8526 33.7359
  231 533.420 -24.6677 -26.9516
  232 543.562 -17.4419 -44.6523
  233 492.579 -41.6726 99.9864
  234 590.921 -35.2356 9.64889
  235 610.447 83.9855 -41.6423
  236 519.453 -2.86905 -30.4312
  237 524.619 -2.13104 44.8083
  238 548.742 22.4460 51.7608
  239 839.311 196.125 112.718
  240 1005.19 39.0184 -20.2025
  241 527.632 17.1370 -49.7812
  242 539.071 -15.4731 44.9398
  243 363.758 -27.1718 -53.4212
  244 360.341 -27.1063 53.3512
  245 704.366 69.2246 -21.4394
  246 629.546 22.4846 29.1077
  247 -1.66068 -0.437297 -11.2362
  248 -1.64265 -0.144056 11.5547
  249 155.319 30.8825 -89.3852
  250 155.374 31.6492 89.2244
  251 492.813 4.72591 -32.4624
  252 521.406 -46.3285 0.982394
  253 196.712 63.8183 -138.883
  254 178.988 73.7660 131.740
  255 90.4886 5.54053 -40.6559
  256 90.7090 5.45142 40.7151
  257 414.594 -11.6143 -9.75854
  258 414.509 -11.5078 9.80775
  259 560.027 -26.5226 -35.7844
  260 470.914 -43.1152 -96.4067
  261 621.543 7.72085 -22.5530
  262 494.940 -45.5171 13.0163
  263 513.196 44.5749 -198.990
  264 485.957 -47.8976 -22.3357
  265 423.931 -29.4491 -30.6879
  266 424.767 -30.8691 32.1093
  267 824.760 150.476 -43.3293
  268 683.282 146.742 1.98015
  269 683.611 26.3363 72.6417
  270 539.297 -6.74847 -22.0521
  271 351.302 -3.56216 8.75793
  272 351.330 -3.64441 -8.73104
  273 548.495 -46.1855 -10.6435
  274 579.506 -42.7015 -22.6702
  275 824.628 136.483 22.7364
  276 400.554 10.8602 159.050
  277 549.504 -45.6857 9.79133
  278 552.819 -5.52863 11.2971
  279 581.232 -7.12765 -42.8169
  280 491.891 244.271 287.641
  281 65.0460 95.2790 91.0213
  282 563.540 -4.67308 3.65849
  283 558.480 -4.44971 -4.87987
  284 517.254 -2.99962 27.3816
  285 474.092 19.7183 14.8502
  286 553.660 -4.81837 -11.0399
  287 584.084 -34.5579 64.0536
  288 240.110 7.29852 -108.611
  289 239.687 6.80433 108.521
  290 619.821 77.4787 37.9282
  291 543.349 -55.4458 -20.9874
  292 527.125 22.8821 46.9295
  293 522.822 -6.57710 0.176837
  294 522.851 -6.65114 -0.196389
  295 538.449 -6.06297 21.7051
  296 549.026 -54.5766 22.1601
  297 590.791 115.892 4.26543
  298 781.765 168.159 -185.781
  299 436.503 -24.4631 -18.8257
  300 430.506 -24.5798 20.0407
  301 577.005 -16.5400 37.9758
  302 654.937 140.065 -8.43509
  303 411.785 -41.3415 -61.1909
  304 400.667 -39.0984 65.4069
  305 1026.21 28.6778 18.0243
  306 1053.27 38.8659 -58.8231
  307 537.539 -15.4732 -15.9954
  308 324.367 -2.34800 13.5383
  309 324.348 -2.33112 -13.5163
  310 166.830 115.439 155.683
  311 537.319 -15.2583 15.7419
  312 572.645 24.7239 -51.3849
  313 288.901 -5.50828 -23.3204
  314 288.818 -5.48778 23.1799
  315 531.344 -9.64034 4.79048
  316 531.477 -9.95648 -5.07157
  317 3.94406 -9.97310 -8.11134
  318 4.49425 -10.5831 8.25564
  319 548.311 18.9578 165.046
  320 626.998 129.359 15.0348
  321 529.405 -29.8294 20.9465
  322 172.992 -3.47772 -34.9211
  323 173.011 -3.45934 34.9223
  324 -4.05620 8.19021 -1.46401
  325 -4.33015 8.48691 1.20321
  326 541.227 64.0296 -28.6250
  327 702.375 146.535 3.63248
  328 527.937 -44.3678 -7.13371
  329 16.0015 14.9500 -22.9298
  330 20.2299 21.9763 26.4462
  331 305.214 -20.9447 81.8569
  332 305.025 -20.7799 -81.4152
  333 570.294 -1.96332 -1.16222
  334 570.228 -2.27585 1.28145
  335 477.895 -49.2243 32.1785
  336 492.051 1.99954 28.6852
  337 471.687 7.79202 24.5573
  338 52.1727 43.1000 -35.1220
  339 49.4174 39.0833 34.5456
  340 891.104 103.999 -16.6530
  341 782.464 187.824 41.0562
  342 490.102 -34.9561 5.13836
  343 353.672 -1.45282 -3.91567
  344 353.652 -1.48543 3.98447
  345 580.157 76.9759 -41.9721
  346 237.553 -8.87483 83.3242
  347 237.556 -9.00576 -83.4277
  348 638.057 -6.41790 -53.0318
  349 379.044 -8.04711 -14.8265
  350 379.029 -7.73753 14.7686
  351 313.376 -16.9465 -54.3268
  352 312.848 -17.3232 54.4675
  353 249.985 -3.34374 26.1760
  354 249.873 -3.20075 -26.1528
  355 683.573 53.2250 3.22438
  356 461.982 5.15679 -22.1909
  357 488.895 95.5836 243.344
  358 753.115 163.716 20.3274
  359 1078.57 93.0340 -119.610
  360 432.563 -8.63764 -3.46377
  361 432.548 -8.31854 3.39221
  362 473.058 -31.4040 -10.2873
  363 1067.96 127.701 127.801
  364 477.816 -12.0969 -0.890877
  365 477.509 -12.3973 1.27997
  366 512.635 -30.5534 -7.21004
  367 447.114 -15.1796 -7.81545
  368 442.729 -14.3215 7.88433
  369 206.077 188.463 -200.578
  370 358.126 -11.9457 -25.9445
  371 358.043 -12.0401 25.7952
  372 439.684 14.1639 -0.514301
  373 1025.83 261.345 -175.116
  374 220.915 -2.47735 -36.4141
  375 220.931 -2.40001 36.4785
  376 395.003 -29.9522 -41.3741
  377 388.469 -27.3673 42.1359
  378 532.464 37.9388 -43.1244
  379 496.370 -43.4843 -8.27598
  380 43.1490 90.6627 -74.9202
  381 374.690 -28.2332 -109.513
  382 390.056 -31.5784 108.270
  383 24.1367 4.37787 -17.9955
  384 24.0803 4.51273 18.0604
  385 465.996 -27.7449 10.7311
  386 331.581 -2.80208 -8.56529
  387 331.545 -2.79565 8.55738
  388 1050.03 36.4227 54.0698
  389 465.555 -9.42377 -0.388191
  390 465.666 -9.34813 0.297196
  391 512.887 -30.3797 7.53702
  392 1107.29 306.813 217.498
  393 536.999 -18.5050 -22.7270
  394 913.567 126.844 61.8034
  395 596.337 -37.2102 -49.0685
  396 527.646 64.8333 -3.12166
  397 474.425 -25.1887 -125.502
  398 559.118 -9.45413 -127.762
  399 75.4815 29.1423 -46.1752
  400 75.9971 30.4767 46.1146
  401 532.535 -33.8201 -21.9621
  402 346.589 -13.4758 36.7835
  403 346.455 -14.0730 -37.1964
  404 554.474 -3.20096 13.2198
  405 464.366 -23.5241 -8.74818
  406 566.471 -4.01626 5.69331
  407 568.064 7.12900 52.1990
  408 605.642 -20.2222 14.3448
  409 283.108 -11.6792 63.1202
  410 283.164 -11.9997 -63.2161
  411 179.656 102.195 -151.478
  412 532.841 10.6146 51.1360
  413 541.307 -40.4769 21.7441
  414 462.654 -49.3041 70.5274
  415 866.725 177.213 -89.1318
  416 538.893 -26.7337 -34.9555
  417 598.240 -14.5372 -27.7168
  418 491.471 -21.6234 -1.20040
  419 496.541 -20.6339 -1.16849
  420 465.042 -52.6855 -70.8432
  421 540.343 1.25406 -52.0929
  422 463.191 -50.4718 -44.2841
  423 385.324 -3.70330 -3.23208
  424 385.319 -3.73970 3.17640
  425 569.460 86.4121 -31.1104
  426 555.326 -3.21062 -13.0109
  427 649.429 109.604 -29.0082
  428 548.510 -52.2404 -63.6806
  429 571.273 -4.49649 -5.41197
  430 504.790 -58.4586 48.1810
  431 745.600 152.618 -16.4868
  432 407.984 -13.6462 15.3726
  433 409.035 -14.5607 -15.5510
  434 546.776 -4.39060 -0.142249
  435 546.624 -4.45339 0.105454
  436 535.729 -19.6518 23.1432
  437 401.870 -19.8951 26.8699
  438 402.164 -19.4745 -26.8851
  439 511.529 44.7450 19.2701
  440 505.465 -57.1636 -48.3809
  441 603.415 98.7503 33.0798
  442 538.460 -12.0569 29.2806
  443 667.815 62.6195 -184.783
  444 386.781 -5.71545 -7.23864
  445 386.643 -5.81136 7.23250
  446 628.149 123.451 -23.5008
  447 519.247 -8.69552 -2.13925
  448 519.127 -8.32179 2.19871
  449 512.775 11.6837 -43.4295
  450 585.922 52.9707 -50.7947
  451 353.096 -0.442215 -0.934710
  452 353.143 -0.463801 0.945222
  453 538.341 -14.6644 -28.1991
  454 447.031 -23.3295 136.426
  455 563.758 329.767 -324.704
  456 568.178 81.2444 34.6005
  457 174.492 46.3599 -111.283
  458 170.507 48.2567 109.708
  459 301.002 45.0458 -163.092
  460 303.103 48.5183 163.316
  461 102.066 189.319 163.913
  462 458.542 -42.0831 30.2936
  463 801.143 181.475 53.3662
  464 92.2576 70.9485 -82.1750
  465 78.5836 64.5642 66.7936
  466 300.100 -1.53133 12.7793
  467 300.237 -1.63757 -12.7826
  468 690.979 149.207 -3.19840
  469 38.6579 26.4297 23.7921
  470 38.6392 26.6139 -24.5289
  471 635.347 60.3545 -36.1083
  472 1.62250 4.81443 -8.29290
  473 1.52686 4.98571 8.07807
  474 531.219 -7.56718 -45.4105
  475 7.36358 -17.6859 -0.941484
  476 6.82863 -15.1676 0.720999
  477 575.959 -3.79596 2.11600
  478 575.060 -2.31726 -2.30178
  479 393.191 -39.6568 78.8772
  480 394.357 -40.3617 -78.8626
  481 757.453 97.6003 77.1786
  482 601.079 117.418 -13.3573
  483 560.854 -16.0785 45.9715
  484 713.427 113.727 -2.73892
  485 662.392 27.3030 2.78944
  486 667.819 147.523 7.72890
  487 559.478 90.3561 12.2765
  488 312.594 111.156 -220.236
  489 548.296 -27.0020 38.7571
  490 665.101 119.271 21.5556
  491 606.087 -18.4543 86.6895
  492 529.576 -37.6381 16.4476
  493 430.189 -10.3415 -5.71807
  494 429.323 -10.4089 5.50623
  495 574.377 50.0886 49.4393
  496 900.966 179.191 100.800
  497 539.114 -23.2470 35.5885
  498 598.261 -6.10532 34.2541
  499 990.698 64.4951 53.7549
  500 259.354 -3.23455 101.160
  501 320.845 -8.11702 115.565
  502 259.184 -3.31317 -101.012
  503 318.303 -9.06832 -116.529
  504 838.565 229.287 -86.3944
  505 493.249 -35.7513 -4.83355
  506 525.074 -30.9934 -16.6514
  507 -5.14982 -4.88458 -8.32443
  508 -5.30599 -4.96701 8.58970
  509 851.439 241.068 229.411
  510 413.463 -6.04367 -2.86636
  511 413.376 -5.92477 2.80929
  512 449.596 -39.8125 -34.5734
  513 458.431 -45.9453 87.5880
  514 567.122 -34.4740 25.3585
  515 549.110 23.5393 -52.4714
  516 492.174 1.60132 -27.4876
  517 -14.4635 0.584201 10.2628
  518 -13.9715 0.413865 -10.1191
  519 557.346 -51.7885 52.7534
  520 359.478 -29.8516 94.0202
  521 337.936 0.373621 2.31526
  522 337.960 0.365957 -2.25806
  523 146.146 13.3691 -75.5163
  524 146.542 12.9506 75.6268
  525 358.860 -28.9108 -93.2968
  526 653.812 36.7258 -19.0803
  527 288.967 -8.94252 -39.9187
  528 288.917 -9.32971 39.9319
  529 -0.624208 -14.2651 -10.6550
  530 -0.579505 -14.7428 10.9553
</Section>

newXOutput 31

<Section columns = "stress_xx | stress_yy | stress_xy">
  1 601.786 0.363597 1.84242
  2 601.860 0.362962 -1.86788
  3 355.447 -0.128015 -0.696456
  4 -4.69282 -4.61429 -5.01081
  5 1011.35 447.414 356.366
  6 1021.92 456.027 -342.581
  7 -4.84921 -4.75739 5.18982
  8 355.372 -0.120436 0.701784
  9 609.882 -3.09149 1.34061
  10 607.043 -3.65381 0.919999
  11 597.837 -2.55261 4.96259
  12 587.403 -2.26506 8.31597
  13 573.267 -2.96527 10.9011
  14 544.027 -2.49987 15.9697
  15 509.187 -0.0961380 18.8873
  16 471.869 2.60123 18.5157
  17 450.034 7.58478 11.5871
  18 419.234 12.0395 -0.218647
  19 448.886 8.11642 -13.0520
  20 475.832 2.18587 -20.3206
  21 506.166 0.552881 -19.0509
  22 544.878 -2.76004 -17.3161
  23 573.658 -3.72102 -11.6919
  24 587.558 -4.26419 -8.45257
  25 605.900 -4.49616 -3.58087
  26 602.433 -2.30440 -1.68917
  27 609.521 -2.67145 -1.16026
  28 578.802 -2.82981 -2.20955
  29 549.532 -6.72229 -1.52786
  30 511.437 -8.18190 -0.592325
  31 481.052 -7.90684 -1.50482
  32 451.631 -7.60905 0.892525
  33 411.550 -3.75585 0.895566
  34 380.248 -1.61710 -0.481258
  35 351.188 0.0898199 1.69580
  36 343.279 2.10648 1.21300
  37 338.933 0.0199270 4.11012
  38 329.125 0.0523499 6.24565
  39 308.041 0.104164 7.08290
  40 289.481 -0.673281 11.6581
  41 256.424 -0.578311 13.9256
  42 219.751 -0.326598 17.7293
  43 171.623 -1.78263 21.2835
  44 133.463 0.278726 29.8211
  45 78.8556 4.88129 25.3095
  46 15.5218 9.18859 16.8680
  47 -20.6733 7.52175 7.11797
  48 -33.7521 6.50928 0.853642
  49 -28.5705 4.49939 -8.34090
  50 -16.3103 -0.884354 -6.88891
  51 -1.40870 -15.9118 -7.25835
  52 1.94826 -31.0193 -10.5792
  53 4.45838 -46.9773 -4.93936
  54 10.5905 -46.8957 1.02553
  55 21.8882 -5.85806 24.3898
  56 56.8351 112.056 91.3883
  57 229.822 353.413 276.788
  58 1365.58 180.899 214.761
  59 1157.13 48.1297 72.8294
  60 1093.17 21.9127 24.5936
  61 1067.10 15.1619 -3.05224
  62 1091.52 22.6678 -27.1965
  63 1175.84 54.2156 -84.5220
  64 1330.64 206.251 -229.207
  65 266.930 395.184 -291.946
  66 60.8407 97.3901 -78.2199
  67 22.0332 -7.79246 -24.3916
  68 8.79715 -48.1005 -1.49864
  69 4.82407 -47.8969 4.22824
  70 2.20461 -31.8992 10.7013
  71 -1.41808 -16.4604 7.47124
  72 -16.8050 -0.831018 7.02223
  73 -29.1700 4.66729 8.30392
  74 -33.8998 6.52929 -1.09885
  75 -20.4573 7.39790 -7.19723
  76 15.6529 9.14982 -16.7928
  77 78.7840 4.92060 -25.2779
  78 133.424 0.281729 -29.8081
  79 171.554 -1.80672 -21.2390
  80 219.560 -0.280487 -17.6810
  81 256.234 -0.500908 -14.0079
  82 289.591 -0.713937 -11.7657
  83 308.199 0.0529416 -7.08640
  84 329.214 0.0544247 -6.22007
  85 338.987 -0.00108207 -4.07882
  86 343.278 2.12195 -1.16993
  87 351.129 0.103326 -1.68202
  88 380.238 -1.61504 0.467478
  89 411.608 -3.84491 -0.926158
  90 451.670 -7.76278 -0.894267
  91 481.176 -7.98672 1.48603
  92 511.501 -8.13918 0.608164
  93 549.458 -6.72045 1.52292
  94 578.569 -2.83611 2.23131
  95 526.149 -57.0009 -27.5871
  96 532.911 -56.5374 22.5435
  97 578.943 96.1870 -12.0866
  98 384.855 -11.9580 -131.105
  99 379.697 -10.5667 131.688
  100 661.910 133.010 24.5693
  101 704.456 149.270 -8.24145
  102 449.010 -19.4207 -14.1995
  103 453.470 -19.0317 12.2897
  104 576.723 -0.835326 -52.0092
  105 638.959 -14.6581 -8.33302
  106 565.767 -4.33237 52.3107
  107 657.761 -5.40563 21.0878
  108 110.365 56.0661 76.9535
  109 109.054 53.4062 -79.5813
  110 542.909 -23.8781 15.2927
  111 544.638 -24.7631 -17.3634
  112 787.810 151.847 -4.52847
  113 358.181 -27.2254 -71.9418
  114 358.574 -27.0854 72.2704
  115 392.324 -22.3418 36.7416
  116 392.793 -21.9020 -36.5359
  117 326.358 65.8392 -197.770
  118 343.154 68.4698 199.600
  119 800.941 188.925 -39.2866
  120 852.019 171.817 55.8099
  121 557.238 49.9851 40.5598
  122 517.801 -14.6950 0.774847
  123 518.443 -15.8242 -0.798155
  124 519.182 19.5808 -36.4216
  125 193.634 5.09953 -84.0772
  126 193.877 4.80817 83.7423
  127 552.021 -14.3107 -38.3948
  128 613.107 20.7854 46.9056
  129 394.999 -6.63165 11.0246
  130 395.097 -6.71404 -10.8564
  131 482.461 -38.8365 -20.1716
  132 479.307 -37.1918 20.5865
  133 523.845 -57.3139 63.5021
  134 621.084 27.2374 -45.2924
  135 555.531 -35.8468 27.6051
  136 658.421 140.146 -0.888830
  137 542.863 -57.9187 -58.4083
  138 760.976 116.977 30.9847
  139 708.021 43.2454 -111.588
  140 504.580 34.0892 -1.27794
  141 550.366 -12.9230 38.2586
  142 560.340 -35.7429 -29.0292
  143 977.855 79.3478 24.8108
  144 592.901 -36.9881 -18.0771
  145 993.745 112.185 -80.9541
  146 594.326 -36.2922 14.5695
  147 525.626 10.9877 43.4184
  148 17.2257 18.5180 3.30066
  149 18.0657 19.7015 -3.05057
  150 563.235 -10.3626 8.93331
  151 562.734 -9.56823 -8.57541
  152 435.173 -42.1627 -50.4575
  153 443.396 -41.1555 47.8184
  154 232.238 -8.05623 -65.8362
  155 232.245 -8.00247 65.7619
  156 469.287 -12.4556 -3.40204
  157 469.044 -11.6891 3.59297
  158 67.8091 83.8901 -83.3161
  159 87.2302 84.0181 87.2926
  160 577.750 53.1486 -46.9253
  161 331.091 -13.9746 -44.7702
  162 330.642 -14.6248 44.4953
  163 707.592 79.3515 183.320
  164 545.812 -23.1771 131.720
  165 508.035 -27.8107 -0.781377
  166 507.135 -26.5728 0.771119
  167 563.052 -5.28188 2.67922
  168 562.508 -5.19168 -2.85266
  169 563.456 -43.6199 -94.0070
  170 366.199 -7.56219 -18.1569
  171 366.227 -7.56934 18.0439
  172 534.922 1.94801 -45.3967
  173 693.089 88.9141 18.1452
  174 693.988 84.4025 -21.2434
  175 604.083 110.900 21.3327
  176 939.643 253.869 121.587
  177 420.629 -46.4972 93.3513
  178 564.742 143.392 -278.330
  179 424.878 -42.6786 -95.8507
  180 561.124 -10.9154 -20.9006
  181 560.829 -10.5035 21.3009
  182 532.383 -39.8909 -5.77709
  183 79.5067 18.6675 -47.2361
  184 79.7090 19.1092 47.3363
  185 272.631 28.4747 -140.331
  186 267.543 30.1371 138.903
  187 616.021 104.893 -31.3824
  188 530.049 -38.4777 5.60954
  189 321.819 -15.3243 -105.631
  190 322.562 -14.6297 106.391
  191 278.699 -8.50061 -47.6381
  192 278.548 -8.68686 47.8490
  193 811.351 164.274 -68.4092
  194 273.868 175.712 232.370
  195 746.875 157.248 5.54762
  196 424.740 -6.52641 -4.72437
  197 424.447 -6.70047 4.70675
  198 472.807 -53.4859 56.3405
  199 151.316 143.956 -156.237
  200 476.422 -55.0330 -58.3572
  201 331.868 -6.26173 23.7802
  202 331.824 -6.50750 -23.6816
  203 579.010 -33.3909 32.4138
  204 1025.54 110.460 91.1134
  205 405.515 -14.5064 -22.3893
  206 404.922 -14.5497 22.0420
  207 608.056 82.5208 43.8749
  208 380.066 -1.98683 -4.02667
  209 380.115 -2.04918 4.05058
  210 734.878 159.027 -4.81144
  211 527.184 42.0558 -24.6218
  212 988.327 201.627 -136.397
  213 556.502 73.2818 20.2573
  214 722.064 146.240 -6.29948
  215 553.375 -21.0281 31.9184
  216 488.304 -16.2963 -2.69261
  217 487.232 -19.0032 4.10473
  218 37.5457 19.5859 22.8493
  219 37.7060 19.1469 -23.2855
  220 488.534 17.3900 -16.0612
  221 533.066 -19.9750 6.42909
  222 534.391 -19.6980 -6.82445
  223 31.4492 30.8670 -23.1356
  224 28.2231 33.1901 24.5423
  225 514.529 -9.38058 -0.237070
  226 514.499 -9.25886 0.449713
  227 160.447 -0.0804791 -50.4724
  228 160.542 -0.0938478 50.4223
  229 419.528 15.0130 -165.908
  230 520.300 27.7543 34.6577
  231 550.628 -25.4822 -27.5301
  232 561.132 -18.0152 -45.7396
  233 508.321 -43.0295 103.462
  234 609.694 -36.3565 10.3741
  235 630.110 86.6856 -42.5910
  236 536.421 -2.96699 -31.2241
  237 541.727 -2.19936 45.9788
  238 566.565 23.1778 53.1039
  239 865.096 202.770 116.976
  240 1035.59 40.2109 -20.7902
  241 544.868 17.7026 -51.1065
  242 556.520 -15.9839 46.0537
  243 375.919 -28.0414 -55.2507
  244 372.404 -27.9738 55.1772
  245 726.439 71.6320 -22.7025
  246 649.568 23.2406 29.5559
  247 -1.65909 -0.404199 -11.5477
  248 -1.64210 -0.101992 11.8786
  249 160.694 31.8764 -92.5397
  250 160.753 32.6663 92.3707
  251 509.118 4.89928 -33.3499
  252 538.204 -47.8242 0.710763
  253 203.326 65.9338 -143.683
  254 185.033 76.2139 136.312
  255 93.8853 5.71027 -42.1081
  256 94.1157 5.61809 42.1683
  257 428.406 -11.9703 -10.1417
  258 428.318 -11.8595 10.1904
  259 578.020 -27.3910 -36.5454
  260 486.043 -44.5242 -99.7601
  261 641.302 7.99417 -22.7907
  262 510.957 -46.9787 13.6835
  263 529.275 46.1754 -205.604
  264 501.704 -49.4365 -23.2923
  265 437.913 -30.3792 -31.8155
  266 438.764 -31.8458 33.2845
  267 850.630 155.148 -44.8166
  268 705.227 151.354 1.93628
  269 704.887 27.4168 75.4685
  270 556.724 -6.97478 -22.5944
  271 363.356 -3.66138 9.06667
  272 363.386 -3.74626 -9.03935
  273 566.087 -47.6840 -10.6242
  274 597.918 -44.0669 -23.7890
  275 850.481 140.703 23.5318
  276 413.437 11.2190 164.414
  277 567.122 -47.1661 9.74282
  278 570.502 -5.72855 11.5327
  279 599.867 -7.36393 -43.7729
  280 506.643 252.835 296.863
  281 67.3022 98.9261 94.3250
  282 581.418 -4.84459 3.70650
  283 576.230 -4.62025 -4.95674
  284 534.165 -3.09775 28.0973
  285 489.919 20.3948 15.2633
  286 571.364 -4.99593 -11.2691
  287 602.528 -35.6304 66.4734
  288 248.218 7.49126 -112.351
  289 247.781 6.98186 112.258
  290 639.729 79.9868 38.7258
  291 560.729 -57.2407 -22.0010
  292 544.373 23.6452 48.1863
  293 539.603 -6.82158 0.143646
  294 539.634 -6.89784 -0.163179
  295 555.858 -6.26554 22.2423
  296 566.562 -56.3403 23.2157
  297 610.018 119.596 4.36899
  298 805.466 174.201 -192.221
  299 450.876 -25.2342 -19.5680
  300 444.709 -25.3525 20.8164
  301 595.505 -17.0824 38.7774
  302 676.047 144.485 -8.54297
  303 425.305 -42.6799 -63.3269
  304 413.862 -40.3653 67.6645
  305 1057.12 29.5570 18.5367
  306 1084.90 40.0372 -60.4884
  307 554.809 -15.9951 -16.3091
  308 335.581 -2.41481 13.9959
  309 335.561 -2.39746 -13.9736
  310 172.423 119.355 161.060
  311 554.583 -15.7723 16.0496
  312 591.129 25.5217 -52.6539
  313 298.951 -5.67663 -24.1006
  314 298.866 -5.65555 23.9559
  315 548.379 -9.98037 4.83126
  316 548.517 -10.3052 -5.11959
  317 4.10507 -10.1988 -8.29681
  318 4.67246 -10.8316 8.44867
  319 565.492 19.7127 170.613
  320 647.281 133.468 15.3484
  321 546.475 -30.8040 21.3324
  322 179.263 -3.59658 -36.1079
  323 179.284 -3.57763 36.1084
  324 -4.06352 8.48531 -1.42598
  325 -4.34944 8.79199 1.15792
  326 558.939 66.1181 -29.3823
  327 724.735 151.265 3.27103
  328 544.933 -45.8032 -7.04605
  329 16.5855 15.8083 -23.8946
  330 20.9630 23.0768 27.5398
  331 315.482 -21.6453 84.6434
  332 315.290 -21.4744 -84.1886
  333 588.300 -2.05245 -1.17729
  334 588.233 -2.37447 1.29895
  335 493.388 -50.8050 33.4401
  336 508.331 2.07186 29.4612
  337 487.441 8.06676 25.2375
  338 54.0721 44.6162 -36.5157
  339 51.2297 40.4662 35.9257
  340 918.690 107.192 -17.1792
  341 807.071 193.848 42.8101
  342 506.001 -36.0789 5.52590
  343 365.837 -1.49049 -4.06151
  344 365.816 -1.52402 4.13208
  345 598.974 79.4550 -43.0117
  346 245.690 -9.19589 86.1715
  347 245.693 -9.33162 -86.2796
  348 658.081 -6.50881 -55.1777
  349 391.839 -8.28683 -15.3645
  350 391.824 -7.96750 15.3042
  351 324.021 -17.4897 -56.1584
  352 323.477 -17.8780 56.3028
  353 258.798 -3.44816 27.0475
  354 258.682 -3.30078 -27.0239
  355 705.081 55.0561 3.89384
  356 477.483 5.35346 -22.8095
  357 504.153 98.8905 251.288
  358 776.999 168.897 21.2639
  359 1110.95 95.8392 -123.118
  360 446.886 -8.90622 -3.61263
  361 446.870 -8.57756 3.53909
  362 488.470 -32.4041 -10.8048
  363 1100.13 131.593 131.569
  364 493.381 -12.4968 -1.00790
  365 493.066 -12.8061 1.40970
  366 529.192 -31.5436 -7.20072
  367 461.825 -15.6571 -8.16624
  368 457.319 -14.7714 8.22732
  369 212.561 195.256 -207.263
  370 370.258 -12.3145 -26.8398
  371 370.173 -12.4112 26.6848
  372 454.590 14.6484 -0.528828
  373 1056.69 269.677 -180.714
  374 228.745 -2.55618 -37.6394
  375 228.762 -2.47624 37.7050
  376 408.124 -30.9015 -42.8312
  377 401.396 -28.2327 43.6047
  378 549.880 39.1866 -44.2764
  379 512.443 -44.8798 -8.79374
  380 44.6544 94.1944 -77.6597
  381 386.968 -29.1900 -113.241
  382 402.792 -32.6394 111.960
  383 25.2817 4.51747 -18.6789
  384 25.2277 4.65638 18.7457
  385 481.215 -28.6262 11.2411
  386 343.060 -2.88353 -8.85971
  387 343.023 -2.87682 8.85129
  388 1081.59 37.5217 55.6089
  389 480.784 -9.73308 -0.440663
  390 480.898 -9.65461 0.347523
  391 529.452 -31.3638 7.54102
  392 1140.07 316.620 224.292
  393 554.292 -19.1224 -23.2161
  394 941.770 130.759 63.7337
  395 615.171 -38.3706 -51.0313
  396 544.987 66.9579 -3.20733
  397 489.579 -25.9974 -129.796
  398 576.703 -9.66556 -132.174
  399 78.2322 30.1172 -47.9109
  400 78.7686 31.4928 47.8483
  401 549.697 -34.9221 -22.3511
  402 358.332 -13.8937 38.0334
  403 358.194 -14.5101 -38.4606
  404 572.251 -3.31675 13.5300
  405 479.548 -24.2735 -9.17776
  406 584.468 -4.16653 5.79574
  407 586.383 7.35656 53.4818
  408 624.900 -20.8555 14.3534
  409 292.783 -12.0612 65.2488
  410 292.840 -12.3924 -65.3488
  411 185.650 105.658 -156.699
  412 550.204 10.9654 52.4862
  413 558.717 -41.7939 22.0902
  414 477.608 -50.9102 73.0269
  415 893.726 182.758 -92.0692
  416 556.279 -27.6105 -35.7488
  417 617.318 -15.0026 -28.1633
  418 507.416 -22.3229 -1.39590
  419 512.628 -21.3048 -1.04472
  420 480.064 -54.4012 -73.3575
  421 557.881 1.29268 -53.4412
  422 478.249 -52.0970 -45.9154
  423 398.361 -3.80689 -3.35081
  424 398.356 -3.84427 3.29346
  425 588.005 89.1945 -31.9027
  426 573.124 -3.32513 -13.3159
  427 670.228 113.131 -29.4961
  428 565.938 -53.9124 -66.0600
  429 589.380 -4.65720 -5.51181
  430 521.017 -60.3529 50.0042
  431 769.102 157.636 -17.5948
  432 421.585 -14.0660 15.9528
  433 422.666 -15.0093 -16.1375
  434 564.185 -4.56589 -0.124570
  435 564.028 -4.63044 0.0867049
  436 552.985 -20.3071 23.6388
  437 415.244 -20.5148 27.8371
  438 415.548 -20.0822 -27.8543
  439 528.397 46.2318 19.7950
  440 521.713 -59.0191 -50.2090
  441 622.944 101.921 33.8533
  442 555.837 -12.4616 29.9789
  443 688.296 65.0579 -191.008
  444 399.843 -5.88032 -7.50288
  445 399.701 -5.97884 7.49609
  446 648.420 127.387 -23.9670
  447 535.945 -9.00502 -2.12445
  448 535.823 -8.61973 2.18627
  449 529.606 12.0765 -44.6031
  450 604.836 54.6793 -52.0489
  451 365.275 -0.448531 -0.976903
  452 365.322 -0.470732 0.987622
  453 555.709 -15.1548 -28.8595
  454 461.358 -24.0916 141.056
  455 580.397 341.307 -334.883
  456 586.665 83.8697 35.4787
  457 180.463 47.8768 -115.189
  458 176.358 49.8320 113.560
  459 310.886 46.5102 -168.630
  460 313.030 50.0856 168.851
  461 105.413 196.362 169.579
  462 473.500 -43.4270 31.4641
  463 826.116 187.508 55.7377
  464 95.4763 73.3975 -85.1590
  465 81.3779 66.8048 69.2808
  466 310.563 -1.57471 13.2060
  467 310.704 -1.68431 -13.2095
  468 713.153 153.883 -3.24825
  469 40.1315 27.3447 24.7715
  470 40.1078 27.5362 -25.5303
  471 655.618 62.3218 -36.7734
  472 1.91040 4.97352 -8.65689
  473 1.81577 5.15012 8.43551
  474 548.485 -7.81627 -46.5796
  475 7.63239 -18.0478 -1.09199
  476 7.08259 -15.4379 0.869697
  477 594.122 -3.93048 2.14655
  478 593.202 -2.41302 -2.33646
  479 406.109 -40.9563 81.5884
  480 407.311 -41.6839 -81.5780
  481 780.884 101.100 80.2718
  482 620.600 121.162 -13.6594
  483 578.910 -16.6086 47.0553
  484 735.950 117.486 -2.23893
  485 683.283 28.2762 2.35655
  486 689.297 152.194 7.75081
  487 577.755 93.2773 12.5974
  488 322.607 114.962 -227.576
  489 565.964 -27.8860 39.6404
  490 686.382 123.119 21.8071
  491 625.114 -18.9362 89.8634
  492 546.636 -38.8599 16.6622
  493 444.438 -10.6626 -5.96578
  494 443.549 -10.7321 5.74736
  495 592.958 51.7092 50.6693
  496 928.890 184.756 104.033
  497 556.508 -24.0132 36.4096
  498 617.358 -6.30067 34.9004
  499 1020.78 66.4600 55.3294
  500 268.113 -3.38573 104.618
  501 331.465 -8.42936 119.492
  502 267.939 -3.46808 -104.465
  503 328.848 -9.41452 -120.484
  504 864.761 236.607 -89.5165
  505 509.242 -36.8981 -5.21369
  506 542.007 -32.0031 -16.9053
  507 -5.31291 -5.04016 -8.59304
  508 -5.47486 -5.12571 8.86778
  509 876.902 249.453 237.218
  510 427.266 -6.22395 -2.97509
  511 427.176 -6.10149 2.91644
  512 464.287 -41.0844 -35.8623
  513 473.222 -47.4533 90.6377
  514 585.288 -35.5949 25.7725
  515 566.945 24.3024 -53.8305
  516 508.457 1.65651 -28.2283
  517 -14.9090 0.615663 10.5799
  518 -14.3990 0.439851 -10.4305
  519 575.061 -53.4556 54.7816
  520 371.349 -30.8494 97.2283
  521 349.663 0.389400 2.40576
  522 349.688 0.381461 -2.34707
  523 151.293 13.7822 -78.1803
  524 151.703 13.3493 78.2923
  525 370.713 -29.8781 -96.4833
  526 674.500 37.9662 -19.1592
  527 298.944 -9.21988 -41.2542
  528 298.893 -9.61914 41.2677
  529 -0.629997 -14.7070 -10.9834
  530 -0.584340 -15.2021 11.2951
</Section>

newXOutput 32

<Section columns = "stress_xx | stress_yy | stress_xy">
  1 620.004 0.348935 1.88325
  2 620.080 0.349817 -1.90918
  3 367.383 -0.123898 -0.710107
  4 -4.84597 -4.76446 -5.17601
  5 1039.18 461.733 366.823
  6 1050.35 470.700 -352.625
  7 -5.00763 -4.91238 5.36098
  8 367.308 -0.116103 0.715543
  9 628.300 -3.19408 1.36263
  10 625.416 -3.77259 0.919333
  11 616.049 -2.64335 5.06056
  12 605.425 -2.35167 8.49472
  13 591.014 -3.06648 11.1503
  14 561.119 -2.58126 16.3634
  15 525.448 -0.0957924 19.3745
  16 487.198 2.69524 19.0075
  17 464.802 7.84135 11.9046
  18 433.217 12.4112 -0.224438
  19 463.626 8.38535 -13.4100
  20 491.259 2.26756 -20.8570
  21 522.361 0.564833 -19.5383
  22 561.990 -2.85063 -17.7430
  23 591.414 -3.84369 -11.9600
  24 605.584 -4.40047 -8.63646
  25 624.304 -4.63498 -3.64418
  26 620.710 -2.39200 -1.70167
  27 627.933 -2.76275 -1.17774
  28 596.477 -2.94779 -2.26129
  29 566.485 -6.96091 -1.55589
  30 527.414 -8.45819 -0.584231
  31 496.236 -8.16204 -1.53702
  32 466.042 -7.83818 0.936662
  33 424.913 -3.86034 0.931384
  34 392.806 -1.65436 -0.486249
  35 363.004 0.0983072 1.75286
  36 354.860 2.16675 1.26586
  37 350.352 0.0257204 4.25314
  38 340.219 0.0598452 6.44973
  39 318.485 0.110199 7.31589
  40 299.339 -0.690462 12.0273
  41 265.249 -0.592546 14.3722
  42 227.423 -0.332443 18.2998
  43 177.758 -1.84074 21.9811
  44 138.346 0.283368 30.8009
  45 81.9144 5.03433 26.1761
  46 16.4570 9.48070 17.4793
  47 -21.0294 7.76453 7.40472
  48 -34.6677 6.72453 0.933348
  49 -29.4405 4.65940 -8.57974
  50 -16.8294 -0.903237 -7.10348
  51 -1.44471 -16.4210 -7.48624
  52 2.02709 -31.9764 -10.8913
  53 4.62160 -48.3182 -5.03162
  54 10.9666 -48.0481 1.18715
  55 22.6507 -5.38796 25.3941
  56 58.6854 116.809 94.5785
  57 236.462 365.734 285.255
  58 1403.40 186.199 220.438
  59 1190.17 49.5219 74.7588
  60 1124.65 22.5598 25.2398
  61 1097.95 15.6146 -3.12991
  62 1122.96 23.3381 -27.9123
  63 1209.28 55.7912 -86.7449
  64 1367.72 212.313 -235.369
  65 274.562 408.788 -300.714
  66 62.8745 101.584 -81.0186
  67 22.7929 -7.37504 -25.3808
  68 9.10801 -49.3052 -1.66477
  69 4.99703 -49.2751 4.30082
  70 2.29117 -32.8878 11.0189
  71 -1.45476 -16.9884 7.70662
  72 -17.3410 -0.848417 7.24157
  73 -30.0616 4.83261 8.54238
  74 -34.8243 6.74534 -1.18587
  75 -20.8116 7.63707 -7.48636
  76 16.5876 9.44100 -17.4020
  77 81.8374 5.07494 -26.1440
  78 138.303 0.286482 -30.7881
  79 177.686 -1.86562 -21.9358
  80 227.225 -0.285019 -18.2503
  81 265.054 -0.512787 -14.4570
  82 299.451 -0.732313 -12.1381
  83 318.647 0.0574221 -7.31958
  84 340.311 0.0619717 -6.42359
  85 350.408 0.00404437 -4.22114
  86 354.860 2.18262 -1.22173
  87 362.945 0.112202 -1.73876
  88 392.797 -1.65228 0.472064
  89 424.973 -3.95205 -0.962838
  90 466.083 -7.99654 -0.938451
  91 496.364 -8.24453 1.51773
  92 527.479 -8.41454 0.600761
  93 566.407 -6.95882 1.55095
  94 596.238 -2.95437 2.28325
  95 542.490 -58.7785 -28.7309
  96 549.442 -58.2985 23.5374
  97 597.193 99.1801 -12.3845
  98 396.956 -12.3741 -135.409
  99 391.654 -10.9361 136.014
  100 682.466 137.095 24.9911
  101 726.208 153.845 -8.16763
  102 463.318 -20.0085 -14.7513
  103 467.897 -19.6094 12.7867
  104 594.681 -0.870516 -53.2336
  105 658.459 -15.0620 -9.06678
  106 583.429 -4.47089 53.5743
  107 677.730 -5.49190 22.2348
  108 114.124 57.8864 79.6575
  109 112.763 55.1447 -82.3693
  110 559.782 -24.6378 15.5260
  111 561.568 -25.5490 -17.6479
  112 811.881 156.386 -4.70166
  113 369.732 -28.0818 -74.3054
  114 370.139 -27.9366 74.6409
  115 405.011 -23.0149 37.9769
  116 405.493 -22.5631 -37.7682
  117 336.583 67.9557 -204.183
  118 353.840 70.6976 206.066
  119 825.312 194.714 -40.8628
  120 877.772 176.994 57.6985
  121 574.809 51.5651 41.5869
  122 533.957 -15.1670 0.678821
  123 534.616 -16.3292 -0.700798
  124 535.716 20.2246 -37.3746
  125 200.145 5.22815 -86.8945
  126 200.396 4.92828 86.5476
  127 569.262 -14.7695 -39.2960
  128 632.078 21.4353 47.9106
  129 407.887 -6.81818 11.4159
  130 407.988 -6.90342 -11.2439
  131 497.630 -40.0315 -20.9982
  132 494.397 -38.3326 21.4169
  133 540.032 -59.1069 65.7667
  134 640.282 28.0933 -46.2434
  135 572.790 -36.9753 28.1169
  136 678.960 144.416 -0.908118
  137 559.592 -59.7284 -60.5275
  138 783.925 120.811 32.5796
  139 729.138 44.8895 -115.506
  140 520.761 35.2041 -1.31258
  141 567.573 -13.3355 39.1660
  142 577.737 -36.8689 -29.5658
  143 1006.66 81.6907 25.5251
  144 611.166 -38.1452 -18.2194
  145 1022.99 115.495 -83.3217
  146 612.629 -37.4228 14.5968
  147 542.304 11.3516 44.5427
  148 17.8943 19.1964 3.56319
  149 18.7593 20.4176 -3.30203
  150 580.599 -10.7112 9.06898
  151 580.087 -9.89499 -8.70284
  152 448.976 -43.4662 -52.1846
  153 457.432 -42.4261 49.4704
  154 240.060 -8.32277 -67.9984
  155 240.068 -8.26738 67.9209
  156 484.157 -12.8380 -3.58616
  157 483.907 -12.0484 3.78269
  158 70.1125 86.8146 -86.2761
  159 90.1787 86.9131 90.3835
  160 595.870 54.8134 -48.0792
  161 341.992 -14.3978 -46.2217
  162 341.530 -15.0680 45.9389
  163 728.458 82.3090 189.360
  164 562.436 -23.8623 136.089
  165 523.935 -28.6743 -1.00632
  166 523.010 -27.4010 0.987689
  167 580.357 -5.48141 2.69941
  168 579.801 -5.38882 -2.87705
  169 580.671 -44.9354 -97.2537
  170 378.269 -7.77786 -18.7634
  171 378.298 -7.78501 18.6467
  172 551.811 2.01852 -46.5545
  173 714.305 91.7493 18.1678
  174 715.222 87.0939 -21.3473
  175 623.039 114.330 21.8312
  176 967.583 261.651 125.587
  177 433.874 -47.9757 96.4580
  178 581.446 148.292 -287.029
  179 438.241 -44.0394 -99.0356
  180 578.529 -11.2740 -21.3526
  181 578.226 -10.8515 21.7637
  182 548.959 -41.1339 -5.67282
  183 82.3659 19.2585 -48.9104
  184 82.5778 19.7128 49.0131
  185 281.377 29.3380 -144.975
  186 276.136 31.0503 143.500
  187 635.286 108.138 -32.0896
  188 546.558 -39.6759 5.50609
  189 332.187 -15.8462 -109.099
  190 332.951 -15.1299 109.881
  191 288.030 -8.76177 -49.1829
  192 287.875 -8.95339 49.3993
  193 835.657 169.640 -71.1888
  194 282.331 181.488 239.828
  195 769.850 161.993 5.87640
  196 438.436 -6.71570 -4.91350
  197 438.136 -6.89467 4.89537
  198 487.622 -55.1554 58.3125
  199 156.217 148.809 -161.474
  200 491.330 -56.7533 -60.3987
  201 342.909 -6.44262 24.5550
  202 342.863 -6.69585 -24.4540
  203 596.935 -34.4414 33.0217
  204 1055.57 113.711 93.7330
  205 418.627 -14.9358 -23.1686
  206 418.017 -14.9796 22.8103
  207 627.035 85.0892 44.8814
  208 392.606 -2.03434 -4.17205
  209 392.655 -2.09845 4.19643
  210 757.490 163.876 -5.24372
  211 543.958 43.4079 -25.2661
  212 1017.57 207.679 -140.520
  213 574.098 75.5855 20.7661
  214 744.210 150.786 -6.00151
  215 570.602 -21.7023 32.6143
  216 503.675 -16.8066 -2.90013
  217 502.573 -19.5926 4.36410
  218 38.9840 20.2297 23.7421
  219 39.1453 19.7778 -24.1912
  220 504.288 17.9732 -16.4912
  221 549.643 -20.6129 6.44519
  222 551.007 -20.3272 -6.84974
  223 32.5583 32.0350 -24.0987
  224 29.2304 34.4328 25.5563
  225 530.592 -9.69268 -0.178129
  226 530.561 -9.56761 0.397388
  227 166.038 -0.0991076 -52.1536
  228 166.137 -0.112787 52.1011
  229 432.526 15.4928 -171.308
  230 536.876 28.6545 35.5652
  231 567.761 -26.2942 -28.0888
  232 578.628 -18.5864 -46.8010
  233 523.984 -44.3814 106.938
  234 628.367 -37.4713 11.1211
  235 649.684 89.3741 -43.5116
  236 553.326 -3.06480 -32.0023
  237 558.771 -2.26721 47.1276
  238 584.316 23.9072 54.4214
  239 890.690 209.407 121.250
  240 1065.74 41.3944 -21.3716
  241 562.042 18.2669 -52.4090
  242 573.896 -16.4930 47.1427
  243 388.054 -28.9067 -57.0784
  244 384.441 -28.8371 57.0013
  245 748.377 74.0410 -23.9940
  246 669.486 23.9960 29.9725
  247 -1.65382 -0.368098 -11.8544
  248 -1.63798 -0.0569966 12.1978
  249 166.068 32.8659 -95.6978
  250 166.132 33.6788 95.5204
  251 525.376 5.07330 -34.2238
  252 554.928 -49.3134 0.422278
  253 209.927 68.0439 -148.483
  254 191.067 78.6556 140.883
  255 97.2982 5.87870 -43.5629
  256 97.5386 5.78346 43.6241
  257 442.184 -12.3236 -10.5271
  258 442.093 -12.2084 10.5751
  259 595.931 -28.2563 -37.2794
  260 501.102 -45.9284 -103.114
  261 660.957 8.26856 -22.9977
  262 526.908 -48.4335 14.3624
  263 545.253 47.7799 -212.200
  264 517.388 -50.9684 -24.2588
  265 451.854 -31.3039 -32.9463
  266 452.719 -32.8170 34.4626
  267 876.340 159.790 -46.3020
  268 727.070 155.939 1.88627
  269 726.023 28.5081 78.3119
  270 574.078 -7.20063 -23.1244
  271 375.401 -3.75920 9.37549
  272 375.432 -3.84669 -9.34777
  273 583.597 -49.1765 -10.5832
  274 616.232 -45.4254 -24.9264
  275 876.173 144.895 24.3270
  276 426.262 11.5770 169.770
  277 584.658 -48.6404 9.67269
  278 588.100 -5.92888 11.7599
  279 618.414 -7.59916 -44.6992
  280 521.265 261.402 306.038
  281 69.5578 102.594 97.6370
  282 599.202 -5.01654 3.75037
  283 593.886 -4.79158 -5.02871
  284 551.015 -3.19550 28.7997
  285 505.708 21.0710 15.6706
  286 588.983 -5.17403 -11.4900
  287 620.867 -36.6954 68.9042
  288 256.313 7.68041 -116.090
  289 255.862 7.15592 115.993
  290 659.545 82.4854 39.4942
  291 578.024 -59.0282 -23.0304
  292 561.560 24.4068 49.4220
  293 556.307 -7.06679 0.108396
  294 556.339 -7.14524 -0.127873
  295 573.194 -6.46764 22.7677
  296 584.012 -58.0966 24.2873
  297 629.171 123.283 4.47005
  298 828.975 180.257 -198.657
  299 465.205 -26.0009 -20.3147
  300 458.869 -26.1205 21.5962
  301 613.917 -17.6227 39.5500
  302 697.063 148.881 -8.64052
  303 438.780 -44.0128 -65.4634
  304 427.017 -41.6271 69.9211
  305 1087.77 30.4299 19.0430
  306 1116.26 41.1987 -62.1329
  307 572.001 -16.5160 -16.6097
  308 346.792 -2.48075 14.4527
  309 346.772 -2.46294 -14.4300
  310 178.005 123.266 166.436
  311 571.767 -16.2854 16.3443
  312 609.533 26.3166 -53.8938
  313 309.003 -5.84364 -24.8790
  314 308.915 -5.82199 24.7300
  315 565.334 -10.3206 4.86535
  316 565.477 -10.6540 -5.16078
  317 4.26764 -10.4171 -8.47641
  318 4.85211 -11.0729 8.63596
  319 582.567 20.4739 176.171
  320 667.478 137.555 15.6503
  321 563.470 -31.7751 21.6995
  322 185.550 -3.71531 -37.2931
  323 185.573 -3.69580 37.2929
  324 -4.06260 8.78119 -1.38246
  325 -4.36065 9.09783 1.10725
  326 576.589 68.1993 -30.1262
  327 746.979 155.976 2.88283
  328 561.853 -47.2328 -6.93986
  329 17.1712 16.6877 -24.8697
  330 21.6981 24.1980 28.6441
  331 325.732 -22.3443 87.4267
  332 325.536 -22.1675 -86.9589
  333 606.206 -2.14264 -1.19102
  334 606.136 -2.47407 1.31502
  335 508.818 -52.3785 34.7096
  336 524.563 2.14442 30.2247
  337 503.158 8.34186 25.9079
  338 55.9772 46.1341 -37.9201
  339 53.0481 41.8511 37.3169
  340 946.083 110.361 -17.7023
  341 831.531 199.845 44.5809
  342 521.836 -37.1965 5.92476
  343 377.995 -1.52742 -4.20779
  344 377.972 -1.56186 4.28009
  345 617.716 81.9237 -44.0277
  346 253.821 -9.51775 89.0164
  347 253.824 -9.65830 -89.1290
  348 677.984 -6.59140 -57.3406
  349 404.614 -8.52426 -15.9035
  350 404.597 -8.19523 15.8409
  351 334.653 -18.0303 -57.9867
  352 334.094 -18.4301 58.1346
  353 267.619 -3.55188 27.9168
  354 267.499 -3.40013 -27.8927
  355 726.463 56.8877 4.59422
  356 492.952 5.55124 -23.4193
  357 519.313 102.198 259.204
  358 800.752 174.051 22.2126
  359 1143.04 98.6205 -126.590
  360 461.168 -9.17292 -3.76294
  361 461.152 -8.83480 3.68747
  362 503.825 -33.3990 -11.3308
  363 1132.02 135.454 135.300
  364 508.888 -12.8954 -1.12947
  365 508.565 -13.2135 1.54394
  366 545.678 -32.5297 -7.17728
  367 476.489 -16.1317 -8.52117
  368 471.864 -15.2185 8.57388
  369 219.006 202.065 -213.929
  370 382.374 -12.6805 -27.7345
  371 382.286 -12.7795 27.5737
  372 469.473 15.1327 -0.543161
  373 1087.27 277.968 -186.281
  374 236.585 -2.63455 -38.8624
  375 236.603 -2.55201 38.9291
  376 421.211 -31.8457 -44.2889
  377 414.292 -29.0933 45.0735
  378 567.234 40.4309 -45.4087
  379 528.450 -46.2688 -9.32406
  380 46.1600 97.7499 -80.4071
  381 399.204 -30.1455 -116.964
  382 415.482 -33.6985 115.645
  383 26.4459 4.65638 -19.3661
  384 26.3944 4.79929 19.4348
  385 496.380 -29.5029 11.7583
  386 354.537 -2.96406 -9.15380
  387 354.499 -2.95707 9.14485
  388 1112.87 38.6116 57.1295
  389 495.960 -10.0412 -0.495187
  390 496.077 -9.95991 0.399959
  391 545.947 -32.3438 7.53101
  392 1172.52 326.379 231.041
  393 571.507 -19.7384 -23.6887
  394 969.772 134.647 65.6512
  395 633.899 -39.5232 -53.0087
  396 562.272 69.0755 -3.29169
  397 504.659 -26.8024 -134.086
  398 594.183 -9.86989 -136.585
  399 80.9912 31.0902 -49.6551
  400 81.5486 32.5066 49.5904
  401 566.783 -36.0199 -22.7195
  402 370.059 -14.3087 39.2813
  403 369.918 -14.9443 -39.7229
  404 589.946 -3.43278 13.8321
  405 494.676 -25.0190 -9.61400
  406 602.370 -4.31736 5.89312
  407 604.621 7.58342 54.7347
  408 644.057 -21.4845 14.3345
  409 302.450 -12.4419 67.3736
  410 302.508 -12.7838 -67.4777
  411 191.629 109.117 -161.918
  412 567.502 11.3154 53.8124
  413 576.047 -43.1058 22.4136
  414 492.498 -52.5105 75.5291
  415 920.549 188.268 -94.9960
  416 573.590 -28.4844 -36.5187
  417 636.301 -15.4652 -28.5810
  418 523.299 -23.0194 -1.59960
  419 528.649 -21.9731 -0.912146
  420 495.021 -56.1106 -75.8749
  421 575.349 1.33127 -54.7636
  422 493.247 -53.7151 -47.5516
  423 411.379 -3.90902 -3.46982
  424 411.373 -3.94736 3.41080
  425 606.479 91.9649 -32.6786
  426 590.838 -3.43980 -13.6129
  427 690.927 116.644 -29.9549
  428 583.274 -55.5764 -68.4489
  429 607.391 -4.81813 -5.60698
  430 537.170 -62.2396 51.8357
  431 792.468 162.641 -18.7318
  432 435.153 -14.4826 16.5353
  433 436.264 -15.4546 -16.7263
  434 581.506 -4.74230 -0.105708
  435 581.343 -4.80856 0.0667842
  436 570.163 -20.9608 24.1176
  437 428.584 -21.1303 28.8058
  438 428.898 -20.6858 -28.8251
  439 545.215 47.7150 20.3116
  440 537.886 -60.8675 -52.0453
  441 642.391 105.078 34.6056
  442 573.139 -12.8655 30.6597
  443 708.624 67.5129 -197.222
  444 412.884 -6.04323 -7.76767
  445 412.737 -6.14433 7.76021
  446 668.603 131.304 -24.4135
  447 552.569 -9.31477 -2.10493
  448 552.443 -8.91800 2.16913
  449 546.381 12.4689 -45.7577
  450 623.669 56.3810 -53.2743
  451 377.448 -0.454316 -1.01959
  452 377.495 -0.477125 1.03051
  453 573.001 -15.6443 -29.5024
  454 475.618 -24.8510 145.680
  455 596.874 352.848 -344.995
  456 605.081 86.4843 36.3386
  457 186.429 49.3884 -119.099
  458 182.205 51.4015 117.415
  459 320.737 47.9691 -174.161
  460 322.923 51.6464 174.378
  461 108.748 203.433 175.241
  462 488.403 -44.7643 32.6410
  463 850.926 193.528 58.1362
  464 98.6961 75.8463 -88.1512
  465 84.1765 69.0459 71.7784
  466 321.029 -1.61752 13.6316
  467 321.174 -1.73045 -13.6353
  468 735.222 158.530 -3.29466
  469 41.6134 28.2598 25.7604
  470 41.5845 28.4586 -26.5409
  471 675.787 64.2829 -37.4054
  472 2.21267 5.13220 -9.02565
  473 2.11930 5.31407 8.79777
  474 565.684 -8.06448 -47.7258
  475 7.90208 -18.3943 -1.24976
  476 7.33766 -15.6924 1.02602
  477 612.183 -4.06508 2.17485
  478 611.241 -2.50954 -2.36877
  479 418.985 -42.2516 84.2979
  480 420.222 -43.0018 -84.2919
  481 804.153 104.607 83.3868
  482 640.043 124.887 -13.9525
  483 596.885 -17.1369 48.1105
  484 758.344 121.236 -1.70619
  485 704.055 29.2518 1.89410
  486 710.677 156.839 7.75910
  487 595.966 96.1866 12.9123
  488 332.571 118.766 -234.898
  489 583.555 -28.7668 40.4980
  490 707.558 126.952 22.0310
  491 644.027 -19.4086 93.0464
  492 563.622 -40.0770 16.8572
  493 458.649 -10.9815 -6.21600
  494 457.736 -11.0531 5.99105
  495 611.461 53.3236 51.8719
  496 956.621 190.285 107.248
  497 573.825 -24.7772 37.2078
  498 636.359 -6.49457 35.5163
  499 1050.62 68.4097 56.8876
  500 276.858 -3.53926 108.072
  501 342.056 -8.74359 123.414
  502 276.680 -3.62541 -107.916
  503 339.364 -9.76267 -124.435
  504 890.789 243.890 -92.6432
  505 525.169 -38.0395 -5.60531
  506 558.867 -33.0091 -17.1415
  507 -5.47508 -5.19491 -8.86046
  508 -5.64282 -5.28361 9.14469
  509 902.136 257.840 245.010
  510 441.038 -6.40248 -3.08425
  511 440.945 -6.27648 3.02404
  512 478.926 -42.3501 -37.1557
  513 487.949 -48.9565 93.6880
  514 603.367 -36.7114 26.1604
  515 584.709 25.0629 -55.1635
  516 524.694 1.71174 -28.9569
  517 -15.3511 0.647830 10.8947
  518 -14.8230 0.466568 -10.7395
  519 592.683 -55.1152 56.8209
  520 383.185 -31.8452 100.433
  521 361.388 0.405349 2.49675
  522 361.415 0.397135 -2.43660
  523 156.445 14.1923 -80.8472
  524 156.869 13.7451 80.9606
  525 382.531 -30.8434 -99.6667
  526 695.074 39.2058 -19.2056
  527 308.918 -9.49528 -42.5866
  528 308.866 -9.90654 42.6003
  529 -0.634800 -15.1457 -11.3095
  530 -0.588227 -15.6583 11.6324
</Section>

newXOutput 33

<Section columns = "stress_xx | stress_yy | stress_xy">
  1 638.115 0.332920 1.92300
  2 638.195 0.335392 -1.94938
  3 379.318 -0.119311 -0.723248
  4 -4.99890 -4.91440 -5.34109
  5 1066.69 476.009 377.193
  6 1078.46 485.333 -362.585
  7 -5.16585 -5.06715 5.53201
  8 379.242 -0.111303 0.728787
  9 646.609 -3.29654 1.38350
  10 643.682 -3.89112 0.917114
  11 634.160 -2.73432 5.15503
  12 623.354 -2.43882 8.66829
  13 608.678 -3.16780 11.3933
  14 578.145 -2.66252 16.7495
  15 541.662 -0.0952252 19.8537
  16 502.498 2.78969 19.4921
  17 479.549 8.09813 12.2181
  18 447.194 12.7812 -0.230146
  19 478.346 8.65419 -13.7636
  20 506.655 2.34977 -21.3854
  21 538.511 0.576453 -20.0174
  22 579.035 -2.94110 -18.1617
  23 609.088 -3.96625 -12.2215
  24 623.518 -4.53636 -8.81519
  25 642.603 -4.77313 -3.70461
  26 638.881 -2.48010 -1.71198
  27 646.234 -2.85408 -1.19415
  28 614.057 -3.06686 -2.31186
  29 583.355 -7.20005 -1.58271
  30 543.325 -8.73438 -0.574718
  31 511.368 -8.41652 -1.56828
  32 480.412 -8.06576 0.981501
  33 438.249 -3.96359 0.967472
  34 405.351 -1.69067 -0.490662
  35 374.821 0.107104 1.80990
  36 366.443 2.22646 1.31932
  37 361.773 0.0318050 4.39633
  38 351.315 0.0676651 6.65340
  39 328.934 0.116383 7.54850
  40 309.205 -0.707321 12.3952
  41 274.086 -0.606466 14.8176
  42 235.111 -0.337959 18.8688
  43 183.916 -1.89872 22.6777
  44 143.253 0.287792 31.7796
  45 84.9981 5.18683 27.0437
  46 17.4170 9.77196 18.0934
  47 -21.3654 8.00683 7.69439
  48 -35.5705 6.93966 1.01614
  49 -30.3053 4.82000 -8.81619
  50 -17.3470 -0.921482 -7.31711
  51 -1.48005 -16.9289 -7.71326
  52 2.10676 -32.9288 -11.2010
  53 4.78569 -49.6453 -5.11949
  54 11.3439 -49.1756 1.35632
  55 23.4148 -4.87835 26.4090
  56 60.5321 121.618 97.7743
  57 243.043 378.077 293.672
  58 1440.80 191.457 226.033
  59 1222.90 50.9025 76.6616
  60 1155.85 23.2024 25.8768
  61 1128.54 16.0643 -3.20628
  62 1154.12 24.0037 -28.6178
  63 1242.40 57.3538 -88.9358
  64 1404.39 218.330 -241.448
  65 282.121 422.406 -309.419
  66 64.9071 105.830 -83.8257
  67 23.5538 -6.91747 -26.3798
  68 9.41986 -50.4856 -1.83779
  69 5.17070 -50.6399 4.36926
  70 2.37850 -33.8717 11.3341
  71 -1.49079 -17.5150 7.94115
  72 -17.8756 -0.865194 7.45998
  73 -30.9483 4.99851 8.77849
  74 -35.7363 6.96129 -1.27593
  75 -21.1461 7.87579 -7.77840
  76 17.5469 9.73136 -18.0140
  77 84.9154 5.22874 -27.0112
  78 143.207 0.291016 -31.7670
  79 183.839 -1.92440 -22.6316
  80 234.908 -0.289235 -18.8182
  81 273.886 -0.524364 -14.9048
  82 309.320 -0.750358 -12.5091
  83 329.101 0.0620615 -7.55239
  84 351.410 0.0698422 -6.62671
  85 361.830 0.00946397 -4.36366
  86 366.444 2.24273 -1.27415
  87 374.762 0.121386 -1.79548
  88 405.343 -1.68857 0.476075
  89 438.312 -4.05792 -0.999779
  90 480.454 -8.22871 -0.983335
  91 511.498 -8.50161 1.54850
  92 543.391 -8.68983 0.591949
  93 583.275 -7.19770 1.57780
  94 613.811 -3.07372 2.33398
  95 558.759 -60.5487 -29.8863
  96 565.899 -60.0521 24.5440
  97 615.377 102.160 -12.6764
  98 409.011 -12.7911 -139.708
  99 403.568 -11.3064 140.334
  100 702.930 141.160 25.3911
  101 747.854 158.396 -8.07519
  102 477.583 -20.5926 -15.3066
  103 482.279 -20.1837 13.2879
  104 612.560 -0.905752 -54.4297
  105 677.852 -15.4605 -9.82498
  106 601.017 -4.60876 54.8113
  107 697.583 -5.57212 23.4054
  108 117.886 59.7035 82.3690
  109 116.476 56.8805 -85.1644
  110 576.582 -25.3951 15.7447
  111 578.423 -26.3324 -17.9168
  112 835.820 160.894 -4.87580
  113 381.258 -28.9350 -76.6658
  114 381.678 -28.7846 77.0079
  115 417.671 -23.6837 39.2120
  116 418.167 -23.2202 -39.0004
  117 346.767 70.0675 -210.584
  118 364.480 72.9222 212.519
  119 849.543 200.474 -42.4516
  120 903.366 182.139 59.5866
  121 592.317 53.1402 42.5957
  122 550.046 -15.6377 0.576570
  123 550.722 -16.8327 -0.597104
  124 552.200 20.8679 -38.3127
  125 206.657 5.35436 -89.7117
  126 206.916 5.04605 89.3528
  127 586.431 -15.2269 -40.1765
  128 650.961 22.0832 48.8846
  129 420.754 -7.00269 11.8082
  130 420.858 -7.09078 -11.6325
  131 512.743 -41.2205 -21.8324
  132 509.431 -39.4676 22.2545
  133 556.141 -60.8928 68.0384
  134 659.390 28.9468 -47.1636
  135 589.973 -38.0997 28.6066
  136 699.411 148.663 -0.926800
  137 576.238 -61.5308 -62.6553
  138 806.731 124.641 34.2034
  139 750.110 46.5456 -119.431
  140 536.900 36.3175 -1.34675
  141 584.710 -13.7468 40.0531
  142 595.056 -37.9907 -30.0789
  143 1035.25 84.0164 26.2330
  144 629.341 -39.2975 -18.3366
  145 1052.01 118.780 -85.6698
  146 630.842 -38.5484 14.5993
  147 558.929 11.7154 45.6486
  148 18.5684 19.8784 3.83475
  149 19.4583 21.1372 -3.56236
  150 597.880 -11.0597 9.19620
  151 597.356 -10.2219 -8.82201
  152 462.734 -44.7636 -53.9131
  153 471.422 -43.6906 51.1246
  154 247.884 -8.58909 -70.1579
  155 247.893 -8.53207 70.0772
  156 498.977 -13.2184 -3.77378
  157 498.722 -12.4057 3.97587
  158 72.4174 89.7459 -89.2458
  159 93.1285 89.8129 93.4838
  160 613.919 56.4722 -49.2099
  161 352.881 -14.8184 -47.6701
  162 352.407 -15.5085 47.3793
  163 749.168 85.2846 195.393
  164 578.968 -24.5421 140.455
  165 539.771 -29.5340 -1.24154
  166 538.822 -28.2256 1.21411
  167 597.575 -5.68197 2.71606
  168 597.008 -5.58702 -2.89782
  169 597.792 -46.2425 -100.505
  170 390.327 -7.99141 -19.3695
  171 390.356 -7.99853 19.2491
  172 568.640 2.08945 -47.6923
  173 735.407 94.5775 18.1589
  174 736.342 89.7788 -21.4186
  175 641.923 117.744 22.3179
  176 995.325 269.392 129.581
  177 447.071 -49.4498 99.5632
  178 598.025 153.198 -295.692
  179 451.554 -45.3965 -102.219
  180 595.855 -11.6322 -21.7915
  181 595.545 -11.1992 22.2132
  182 565.464 -42.3716 -5.55285
  183 85.2367 19.8476 -50.5903
  184 85.4584 20.3143 50.6952
  185 290.100 30.1963 -149.615
  186 284.708 31.9582 148.093
  187 654.473 111.369 -32.7779
  188 562.997 -40.8689 5.38728
  189 342.531 -16.3686 -112.562
  190 343.316 -15.6307 113.366
  191 297.361 -9.02153 -50.7243
  192 297.202 -9.21847 50.9462
  193 859.802 175.000 -73.9923
  194 290.752 187.259 247.266
  195 792.707 166.710 6.21255
  196 452.101 -6.90328 -5.10410
  197 451.793 -7.08711 5.08547
  198 502.378 -56.8180 60.2886
  199 161.108 153.664 -166.710
  200 506.179 -58.4666 -62.4444
  201 353.944 -6.62187 25.3283
  202 353.896 -6.88250 -25.2248
  203 614.776 -35.4879 33.6037
  204 1085.37 116.936 96.3284
  205 431.710 -15.3619 -23.9490
  206 431.084 -15.4062 23.5798
  207 645.935 87.6472 45.8625
  208 405.133 -2.08076 -4.31786
  209 405.181 -2.14661 4.34269
  210 779.988 168.698 -5.69007
  211 560.680 44.7570 -25.9003
  212 1046.59 213.691 -144.617
  213 591.634 77.8809 21.2654
  214 766.239 155.315 -5.67657
  215 587.755 -22.3748 33.2903
  216 518.989 -17.3147 -3.11361
  217 517.858 -20.1792 4.62964
  218 40.4331 20.8729 24.6425
  219 40.5952 20.4081 -25.1043
  220 520.005 18.5566 -16.9152
  221 566.148 -21.2489 6.45097
  222 567.549 -20.9546 -6.86448
  223 33.6708 33.2111 -25.0729
  224 30.2414 35.6835 26.5816
  225 546.589 -10.0044 -0.115799
  226 546.557 -9.87606 0.341645
  227 171.642 -0.118618 -53.8341
  228 171.746 -0.132597 53.7791
  229 445.464 15.9714 -176.699
  230 553.402 29.5531 36.4587
  231 584.819 -27.1038 -28.6282
  232 596.049 -19.1557 -47.8369
  233 539.571 -45.7284 110.415
  234 646.942 -38.5799 11.8896
  235 669.172 92.0513 -44.4045
  236 570.171 -3.16247 -32.7660
  237 575.752 -2.33459 48.2551
  238 601.998 24.6344 55.7135
  239 916.094 216.036 125.539
  240 1095.64 42.5689 -21.9468
  241 579.154 18.8297 -53.6890
  242 591.200 -17.0005 48.2071
  243 400.162 -29.7679 -58.9042
  244 396.452 -29.6962 58.8236
  245 770.181 76.4518 -25.3136
  246 689.300 24.7510 30.3581
  247 -1.64489 -0.329014 -12.1563
  248 -1.63030 -0.00908764 12.5123
  249 171.442 33.8508 -98.8592
  250 171.511 34.6866 98.6733
  251 541.587 5.24795 -35.0842
  252 571.578 -50.7964 0.117235
  253 216.515 70.1484 -153.282
  254 197.092 81.0912 145.455
  255 100.727 6.04584 -45.0204
  256 100.978 5.94753 45.0825
  257 455.928 -12.6741 -10.9146
  258 455.835 -12.5546 10.9618
  259 613.759 -29.1184 -37.9869
  260 516.092 -47.3277 -106.468
  261 680.509 8.54405 -23.1748
  262 542.793 -49.8816 15.0528
  263 561.132 49.3883 -218.780
  264 533.008 -52.4934 -25.2349
  265 465.752 -32.2234 -34.0800
  266 466.630 -33.7829 35.6435
  267 901.892 164.400 -47.7854
  268 748.810 160.497 1.83024
  269 747.022 29.6102 81.1714
  270 591.358 -7.42602 -23.6423
  271 387.437 -3.85563 9.68437
  272 387.470 -3.94571 -9.65627
  273 601.024 -50.6630 -10.5209
  274 634.450 -46.7771 -26.0820
  275 901.707 149.058 25.1219
  276 439.028 11.9341 175.116
  277 602.111 -50.1086 9.58127
  278 605.614 -6.12960 11.9788
  279 636.874 -7.83331 -45.5961
  280 535.758 269.972 315.168
  281 71.8128 106.283 100.957
  282 616.891 -5.18892 3.79016
  283 611.452 -4.96368 -5.09589
  284 567.805 -3.29288 29.4892
  285 521.460 21.7469 16.0720
  286 606.516 -5.35265 -11.7028
  287 639.103 -37.7529 71.3456
  288 264.395 7.86600 -119.827
  289 263.931 7.32653 119.727
  290 679.269 84.9747 40.2338
  291 595.235 -60.8083 -24.0755
  292 578.687 25.1670 50.6369
  293 572.933 -7.31268 0.0711316
  294 572.968 -7.39330 -0.0905160
  295 590.456 -6.66929 23.2814
  296 601.375 -59.8455 25.3746
  297 648.250 126.952 4.56864
  298 852.292 186.324 -205.089
  299 479.489 -26.7630 -21.0659
  300 472.987 -26.8839 22.3799
  301 632.243 -18.1607 40.2940
  302 717.984 153.252 -8.72790
  303 452.211 -45.3402 -67.6000
  304 440.130 -42.8838 72.1765
  305 1118.15 31.2965 19.5433
  306 1147.35 42.3505 -63.7569
  307 589.114 -17.0360 -16.8975
  308 357.999 -2.54585 14.9085
  309 357.979 -2.52758 -14.8855
  310 183.574 127.172 171.811
  311 588.873 -16.7975 16.6263
  312 627.858 27.1087 -55.1051
  313 319.056 -6.00932 -25.6554
  314 318.966 -5.98711 25.5023
  315 582.209 -10.6609 4.89290
  316 582.357 -11.0029 -5.19529
  317 4.43176 -10.6281 -8.65017
  318 5.03319 -11.3069 8.81757
  319 599.536 21.2414 181.719
  320 687.590 141.622 15.9407
  321 580.391 -32.7427 22.0482
  322 191.853 -3.83391 -38.4767
  323 191.879 -3.81385 38.4757
  324 -4.05351 9.07783 -1.33349
  325 -4.36383 9.40440 1.05124
  326 594.177 70.2732 -30.8566
  327 769.108 160.668 2.46837
  328 578.698 -48.6563 -6.81547
  329 17.7586 17.5879 -25.8550
  330 22.4350 25.3400 29.7590
  331 335.964 -23.0419 90.2066
  332 335.764 -22.8591 -89.7260
  333 624.012 -2.23387 -1.20344
  334 623.941 -2.57463 1.32970
  335 524.186 -53.9448 35.9866
  336 540.749 2.21722 30.9759
  337 518.839 8.61731 26.5686
  338 57.8879 47.6535 -39.3352
  339 54.8726 43.2379 38.7193
  340 973.286 113.507 -18.2222
  341 855.845 205.814 46.3681
  342 537.609 -38.3090 6.33470
  343 390.145 -1.56361 -4.35450
  344 390.121 -1.59894 4.42850
  345 636.381 84.3820 -45.0204
  346 261.946 -9.84041 91.8586
  347 261.949 -9.98579 -91.9758
  348 697.768 -6.66572 -59.5201
  349 417.366 -8.75942 -16.4434
  350 417.349 -8.42073 16.3785
  351 345.271 -18.5683 -59.8115
  352 344.698 -18.9795 59.9628
  353 276.449 -3.65490 28.7837
  354 276.325 -3.49882 -28.7591
  355 747.719 58.7196 5.32500
  356 508.388 5.75012 -24.0205
  357 534.374 105.507 267.090
  358 824.375 179.176 23.1730
  359 1174.85 101.378 -130.025
  360 475.411 -9.43774 -3.91468
  361 475.394 -9.09024 3.83729
  362 519.123 -34.3888 -11.8652
  363 1163.64 139.286 138.992
  364 524.338 -13.2927 -1.25550
  365 524.005 -13.6196 1.68259
  366 562.095 -33.5117 -7.13999
  367 491.106 -16.6034 -8.88011
  368 486.364 -15.6628 8.92391
  369 225.411 208.890 -220.578
  370 394.472 -13.0440 -28.6284
  371 394.381 -13.1451 28.4617
  372 484.335 15.6167 -0.557302
  373 1117.60 286.217 -191.819
  374 244.434 -2.71246 -40.0829
  375 244.454 -2.62733 40.1508
  376 434.264 -32.7847 -45.7473
  377 427.155 -29.9491 46.5420
  378 584.528 41.6716 -46.5216
  379 544.392 -47.6513 -9.86669
  380 47.6658 101.329 -83.1624
  381 411.398 -31.1000 -120.683
  382 428.127 -34.7558 119.327
  383 27.6290 4.79459 -20.0569
  384 27.5804 4.94148 20.1275
  385 511.489 -30.3749 12.2826
  386 366.012 -3.04369 -9.44753
  387 365.972 -3.03641 9.43805
  388 1143.89 39.6926 58.6318
  389 511.083 -10.3482 -0.551718
  390 511.203 -10.2640 0.454457
  391 562.371 -33.3199 7.50724
  392 1204.66 336.089 237.743
  393 588.646 -20.3529 -24.1452
  394 997.574 138.508 67.5560
  395 652.521 -40.6681 -55.0002
  396 579.500 71.1863 -3.37476
  397 519.663 -27.6036 -138.373
  398 611.560 -10.0672 -140.994
  399 83.7585 32.0612 -51.4074
  400 84.3370 33.5182 51.3407
  401 583.795 -37.1136 -23.0676
  402 381.769 -14.7208 40.5273
  403 381.624 -15.3755 -40.9833
  404 607.557 -3.54905 14.1262
  405 509.750 -25.7606 -10.0567
  406 620.178 -4.46874 5.98554
  407 622.779 7.80963 55.9582
  408 663.114 -22.1091 14.2886
  409 312.108 -12.8212 69.4945
  410 312.167 -13.1737 -69.6028
  411 197.594 112.572 -167.135
  412 584.735 11.6647 55.1149
  413 593.300 -44.4127 22.7147
  414 507.325 -54.1049 78.0340
  415 947.195 193.744 -97.9124
  416 590.826 -29.3552 -37.2657
  417 655.188 -15.9252 -28.9701
  418 539.118 -23.7129 -1.81134
  419 544.606 -22.6387 -0.770956
  420 509.915 -57.8138 -78.3951
  421 592.748 1.36985 -56.0604
  422 508.188 -55.3261 -49.1926
  423 424.376 -4.00970 -3.58909
  424 424.369 -4.04898 3.52843
  425 624.883 94.7234 -33.4384
  426 608.468 -3.55462 -13.9022
  427 711.526 120.142 -30.3851
  428 600.519 -57.2324 -70.8471
  429 625.305 -4.97925 -5.69756
  430 553.249 -64.1188 53.6753
  431 815.698 167.630 -19.8971
  432 448.689 -14.8962 17.1200
  433 449.829 -15.8967 -17.3172
  434 598.739 -4.91978 -0.0856882
  435 598.570 -4.98774 0.0457183
  436 587.266 -21.6129 24.5798
  437 441.891 -21.7419 29.7759
  438 442.215 -21.2856 -29.7974
  439 561.980 49.1947 20.8201
  440 553.986 -62.7086 -53.8896
  441 661.756 108.221 35.3371
  442 590.366 -13.2685 31.3233
  443 728.801 69.9845 -203.423
  444 425.904 -6.20420 -8.03297
  445 425.752 -6.30784 8.02482
  446 688.697 135.202 -24.8407
  447 569.117 -9.62476 -2.08080
  448 568.989 -9.21658 2.14740
  449 563.100 12.8607 -46.8935
  450 642.421 58.0761 -54.4712
  451 389.614 -0.459577 -1.06276
  452 389.662 -0.482987 1.07387
  453 590.218 -16.1326 -30.1280
  454 489.809 -25.6077 150.299
  455 613.191 364.392 -355.042
  456 623.425 89.0884 37.1804
  457 192.390 50.8948 -123.012
  458 188.048 52.9655 121.273
  459 330.556 49.4225 -179.685
  460 332.782 53.2008 179.898
  461 112.070 210.531 180.901
  462 503.252 -46.0950 33.8239
  463 875.575 199.534 60.5611
  464 101.917 78.2947 -91.1515
  465 86.9792 71.2873 74.2863
  466 331.497 -1.65976 14.0560
  467 331.646 -1.77602 -14.0599
  468 757.186 163.150 -3.33771
  469 43.1036 29.1751 26.7587
  470 43.0692 29.3812 -27.5609
  471 695.855 66.2379 -38.0049
  472 2.52920 5.29046 -9.39915
  473 2.43735 5.47759 9.16483
  474 582.816 -8.31180 -48.8494
  475 8.17265 -18.7254 -1.41476
  476 7.59384 -15.9313 1.18992
  477 630.142 -4.19975 2.20095
  478 629.179 -2.60680 -2.39876
  479 431.819 -43.5426 87.0056
  480 433.092 -44.3152 -87.0042
  481 827.260 108.123 86.5230
  482 659.409 128.594 -14.2365
  483 614.780 -17.6633 49.1373
  484 780.611 124.976 -1.14127
  485 724.708 30.2300 1.40259
  486 731.958 161.460 7.75401
  487 614.112 99.0840 13.2213
  488 342.485 122.568 -242.202
  489 601.068 -29.6444 41.3302
  490 728.631 130.769 22.2277
  491 662.826 -19.8714 96.2383
  492 580.532 -41.2892 17.0329
  493 472.820 -11.2980 -6.46867
  494 471.884 -11.3718 6.23724
  495 629.887 54.9320 53.0473
  496 984.161 195.777 110.448
  497 591.068 -25.5387 37.9832
  498 655.266 -6.68697 36.1022
  499 1080.22 70.3444 58.4297
  500 285.590 -3.69510 111.524
  501 352.618 -9.05970 127.331
  502 285.408 -3.78511 -111.363
  503 349.850 -10.1128 -128.380
  504 916.650 251.138 -95.7740
  505 541.033 -39.1755 -6.00820
  506 575.653 -34.0112 -17.3602
  507 -5.63633 -5.34885 -9.12671
  508 -5.80989 -5.44072 9.42045
  509 927.143 266.228 252.788
  510 454.777 -6.57925 -3.19383
  511 454.681 -6.44976 3.13209
  512 493.513 -43.6096 -38.4536
  513 502.611 -50.4549 96.7386
  514 621.361 -37.8233 26.5226
  515 602.403 25.8207 -56.4706
  516 540.884 1.76701 -29.6736
  517 -15.7898 0.680698 11.2072
  518 -15.2436 0.494011 -11.0461
  519 610.212 -56.7674 58.8709
  520 394.986 -32.8389 103.635
  521 373.112 0.421465 2.58822
  522 373.140 0.412975 -2.52663
  523 161.601 14.5994 -83.5169
  524 162.040 14.1380 83.6315
  525 394.314 -31.8068 -102.847
  526 715.534 40.4445 -19.2198
  527 318.890 -9.76875 -43.9158
  528 318.836 -10.1919 43.9297
  529 -0.638625 -15.5813 -11.6330
  530 -0.591171 -16.1113 11.9674
</Section>

newXOutput 34

<Section columns = "stress_xx | stress_yy | stress_xy">
  1 656.121 0.315583 1.96170
  2 656.203 0.319717 -1.98851
  3 391.251 -0.114263 -0.735888
  4 -5.15163 -5.06411 -5.50604
  5 1093.88 490.243 387.477
  6 1106.26 499.926 -372.461
  7 -5.32385 -5.22168 5.70292
  8 391.174 -0.106042 0.741527
  9 664.808 -3.39888 1.40323
  10 661.841 -4.00939 0.913379
  11 652.172 -2.82552 5.24607
  12 641.192 -2.52650 8.83677
  13 626.260 -3.26920 11.6304
  14 595.107 -2.74365 17.1282
  15 557.828 -0.0944378 20.3251
  16 517.768 2.88456 19.9697
  17 494.276 8.35511 12.5276
  18 461.162 13.1495 -0.235771
  19 493.046 8.92294 -14.1127
  20 522.019 2.43250 -21.9058
  21 554.614 0.587747 -20.4884
  22 596.015 -3.03147 -18.5723
  23 626.680 -4.08868 -12.4767
  24 641.360 -4.67185 -8.98884
  25 660.798 -4.91061 -3.76223
  26 656.949 -2.56869 -1.72014
  27 664.427 -2.94543 -1.20949
  28 631.542 -3.18699 -2.36127
  29 600.145 -7.43967 -1.60835
  30 559.171 -9.01044 -0.563817
  31 526.446 -8.67027 -1.59863
  32 494.740 -8.29179 1.02702
  33 451.560 -4.06560 1.00382
  34 417.884 -1.72603 -0.494509
  35 386.638 0.116207 1.86690
  36 378.027 2.28563 1.37335
  37 373.194 0.0381769 4.53968
  38 362.412 0.0758054 6.85665
  39 339.389 0.122716 7.78073
  40 319.078 -0.723862 12.7618
  41 282.936 -0.620072 15.2617
  42 242.817 -0.343147 19.4363
  43 190.095 -1.95657 23.3733
  44 148.184 0.292004 32.7570
  45 88.1063 5.33879 27.9123
  46 18.4017 10.0624 18.7101
  47 -21.6815 8.24864 7.98694
  48 -36.4606 7.15469 1.10201
  49 -31.1652 4.98119 -9.05026
  50 -17.8630 -0.939090 -7.52981
  51 -1.51473 -17.4355 -7.93941
  52 2.18725 -33.8764 -11.5082
  53 4.95063 -50.9588 -5.20300
  54 11.7226 -50.2783 1.53299
  55 24.1805 -4.32955 27.4346
  56 62.3750 126.482 100.975
  57 249.567 390.438 302.040
  58 1477.78 196.674 231.548
  59 1255.32 52.2714 78.5382
  60 1186.77 23.8404 26.5049
  61 1158.86 16.5111 -3.28137
  62 1185.01 24.6645 -29.3134
  63 1275.20 58.9037 -91.0952
  64 1440.66 224.300 -247.447
  65 289.610 436.034 -318.063
  66 66.9384 110.129 -86.6410
  67 24.3158 -6.42008 -27.3884
  68 9.73270 -51.6419 -2.01765
  69 5.34507 -51.9914 4.43358
  70 2.46661 -34.8510 11.6469
  71 -1.52619 -18.0404 8.17483
  72 -18.4086 -0.881353 7.67748
  73 -31.8300 5.16497 9.01227
  74 -36.6358 7.17712 -1.36901
  75 -21.4608 8.11405 -8.07331
  76 18.5306 10.0209 -18.6287
  77 88.0177 5.38199 -27.8795
  78 148.134 0.295338 -32.7447
  79 190.015 -1.98304 -23.3264
  80 242.607 -0.293135 -19.3846
  81 282.730 -0.535639 -15.3513
  82 319.196 -0.768075 -12.8787
  83 339.559 0.0668581 -7.78480
  84 362.510 0.0780322 -6.82942
  85 373.253 0.0151730 -4.50636
  86 378.029 2.30229 -1.32716
  87 386.578 0.130871 -1.85216
  88 417.876 -1.72392 0.479524
  89 451.625 -4.16253 -1.03697
  90 494.783 -8.45930 -1.02890
  91 526.580 -8.75794 1.57835
  92 559.239 -8.96502 0.581755
  93 600.062 -7.43705 1.60347
  94 631.291 -3.19413 2.38353
  95 574.956 -62.3116 -31.0529
  96 582.281 -61.7984 25.5628
  97 633.495 105.128 -12.9625
  98 421.021 -13.2090 -144.001
  99 415.437 -11.6776 144.650
  100 723.301 145.205 25.7698
  101 769.394 162.925 -7.96446
  102 491.805 -21.1732 -15.8656
  103 496.618 -20.7545 13.7931
  104 630.363 -0.941004 -55.5980
  105 697.139 -15.8536 -10.6072
  106 618.532 -4.74598 56.0219
  107 717.321 -5.64630 24.5991
  108 121.652 61.5175 85.0877
  109 120.191 58.6134 -87.9665
  110 593.307 -26.1502 15.9489
  111 595.205 -27.1132 -18.1703
  112 859.626 165.373 -5.05087
  113 392.757 -29.7850 -79.0231
  114 393.191 -29.6294 79.3715
  115 430.305 -24.3483 40.4466
  116 430.813 -23.8732 -40.2323
  117 356.910 72.1746 -216.973
  118 375.073 75.1435 218.958
  119 873.634 206.204 -44.0526
  120 928.803 187.253 61.4739
  121 609.762 54.7103 43.5863
  122 566.068 -16.1070 0.468226
  123 566.761 -17.3346 -0.487206
  124 568.634 21.5106 -39.2361
  125 213.170 5.47818 -92.5288
  126 213.438 5.16150 92.1579
  127 603.529 -15.6831 -41.0366
  128 669.755 22.7292 49.8282
  129 433.599 -7.18520 12.2012
  130 433.707 -7.27614 -12.0219
  131 527.800 -42.4036 -22.6741
  132 524.410 -40.5966 23.0990
  133 572.175 -62.6717 70.3170
  134 678.407 29.7979 -48.0533
  135 607.079 -39.2199 29.0746
  136 719.776 152.887 -0.944885
  137 592.802 -63.3259 -64.7913
  138 829.395 128.468 35.8555
  139 770.939 48.2136 -123.365
  140 552.995 37.4296 -1.38045
  141 601.777 -14.1568 40.9204
  142 612.298 -39.1085 -30.5690
  143 1063.62 86.3252 26.9344
  144 647.427 -40.4449 -18.4292
  145 1080.81 122.041 -87.9985
  146 648.965 -39.6689 14.5773
  147 575.500 12.0792 46.7366
  148 19.2481 20.5639 4.11526
  149 20.1626 21.8603 -3.83150
  150 615.076 -11.4081 9.31513
  151 614.542 -10.5491 -8.93307
  152 476.448 -46.0549 -55.6429
  153 485.364 -44.9492 52.7808
  154 255.710 -8.85518 -72.3146
  155 255.720 -8.79655 72.2306
  156 513.749 -13.5968 -3.96483
  157 513.488 -12.7612 4.17245
  158 74.7238 92.6839 -92.2248
  159 96.0793 92.7174 96.5934
  160 631.897 58.1250 -50.3180
  161 363.759 -15.2365 -49.1152
  162 363.272 -15.9463 48.8167
  163 769.722 88.2779 201.418
  164 595.406 -25.2168 144.818
  165 555.544 -30.3897 -1.48682
  166 554.571 -29.0467 1.45017
  167 614.707 -5.88353 2.72925
  168 614.129 -5.78627 -2.91505
  169 614.820 -47.5415 -103.762
  170 402.372 -8.20286 -19.9750
  171 402.401 -8.20994 19.8509
  172 585.410 2.16081 -48.8104
  173 756.397 97.3988 18.1190
  174 757.350 92.4574 -21.4577
  175 660.732 121.143 22.7928
  176 1022.87 277.093 133.567
  177 460.219 -50.9196 102.667
  178 614.481 158.111 -304.318
  179 464.818 -46.7497 -105.399
  180 613.103 -11.9899 -22.2176
  181 612.786 -11.5466 22.6497
  182 581.897 -43.6041 -5.41746
  183 88.1189 20.4347 -52.2755
  184 88.3507 20.9139 52.3827
  185 298.800 31.0494 -154.252
  186 293.259 32.8606 152.683
  187 673.581 114.585 -33.4475
  188 579.365 -42.0568 5.25340
  189 352.851 -16.8916 -116.020
  190 353.656 -16.1321 116.847
  191 306.691 -9.27990 -52.2625
  192 306.528 -9.48211 52.4897
  193 883.786 180.353 -76.8190
  194 299.133 193.023 254.685
  195 815.447 171.397 6.55591
  196 465.735 -7.08915 -5.29612
  197 465.418 -7.27780 5.27699
  198 517.077 -58.4739 62.2686
  199 165.987 158.520 -171.945
  200 520.968 -60.1732 -64.4942
  201 364.973 -6.79949 26.0999
  202 364.924 -7.06749 -25.9941
  203 632.534 -36.5304 34.1604
  204 1114.93 120.138 98.9000
  205 444.766 -15.7848 -24.7304
  206 444.122 -15.8296 24.3503
  207 664.755 90.1949 46.8185
  208 417.646 -2.12612 -4.46408
  209 417.695 -2.19369 4.48935
  210 802.371 173.495 -6.15023
  211 577.350 46.1031 -26.5246
  212 1075.39 219.665 -148.687
  213 609.109 80.1680 21.7555
  214 788.154 159.824 -5.32515
  215 604.834 -23.0454 33.9467
  216 534.247 -17.8208 -3.33292
  217 533.087 -20.7631 4.90123
  218 41.8930 21.5156 25.5505
  219 42.0555 21.0380 -26.0249
  220 535.686 19.1401 -17.3332
  221 582.580 -21.8830 6.44661
  222 584.019 -21.5802 -6.86888
  223 34.7866 34.3952 -26.0581
  224 31.2562 36.9419 27.6181
  225 562.520 -10.3159 -0.0501514
  226 562.487 -10.1842 0.282557
  227 177.258 -0.138998 -55.5140
  228 177.367 -0.153268 55.4564
  229 458.342 16.4489 -182.081
  230 569.879 30.4503 37.3383
  231 601.804 -27.9110 -29.1485
  232 613.397 -19.7229 -48.8477
  233 555.081 -47.0703 113.891
  234 665.419 -39.6825 12.6792
  235 688.572 94.7172 -45.2702
  236 586.954 -3.26000 -33.5154
  237 592.670 -2.40150 49.3614
  238 619.610 25.3594 56.9806
  239 941.310 222.656 129.843
  240 1125.28 43.7346 -22.5158
  241 596.205 19.3913 -54.9467
  242 608.433 -17.5064 49.2472
  243 412.243 -30.6249 -60.7281
  244 408.438 -30.5511 60.6437
  245 791.852 78.8644 -26.6606
  246 709.011 25.5054 30.7132
  247 -1.63234 -0.286963 -12.4536
  248 -1.61909 0.0417168 12.8221
  249 176.816 34.8314 -102.024
  250 176.890 35.6898 101.829
  251 557.751 5.42323 -35.9313
  252 588.154 -52.2730 -0.204073
  253 223.090 72.2474 -158.080
  254 203.106 83.5205 150.027
  255 104.172 6.21169 -46.4804
  256 104.433 6.11033 46.5433
  257 469.638 -13.0219 -11.3041
  258 469.543 -12.8979 11.3505
  259 631.505 -29.9773 -38.6683
  260 531.014 -48.7222 -109.822
  261 699.960 8.82068 -23.3221
  262 558.612 -51.3231 15.7545
  263 576.914 51.0008 -225.343
  264 548.564 -54.0115 -26.2204
  265 479.608 -33.1376 -35.2165
  266 480.499 -34.7433 36.8272
  267 927.287 168.981 -49.2666
  268 770.448 165.028 1.76829
  269 767.884 30.7230 84.0466
  270 608.564 -7.65095 -24.1483
  271 399.464 -3.95068 9.99327
  272 399.498 -4.04335 -9.96482
  273 618.370 -52.1435 -10.4377
  274 652.573 -48.1221 -27.2555
  275 927.082 153.193 25.9166
  276 451.736 12.2904 180.454
  277 619.482 -51.5709 9.46892
  278 623.042 -6.33069 12.1895
  279 655.246 -8.06634 -46.4640
  280 550.124 278.546 324.251
  281 74.0670 109.993 104.285
  282 634.488 -5.36169 3.82596
  283 628.926 -5.13652 -5.15837
  284 584.534 -3.38988 30.1660
  285 537.174 22.4226 16.4677
  286 623.964 -5.53176 -11.9075
  287 657.236 -38.8030 73.7976
  288 272.464 8.04805 -123.563
  289 271.987 7.49372 123.459
  290 698.902 87.4547 40.9451
  291 612.363 -62.5812 -25.1359
  292 595.753 25.9257 51.8311
  293 589.484 -7.55922 0.0318986
  294 589.520 -7.64199 -0.0511546
  295 607.646 -6.87047 23.7835
  296 618.653 -61.5871 26.4773
  297 667.256 130.603 4.66480
  298 875.420 192.404 -211.516
  299 493.728 -27.5207 -21.8214
  300 487.063 -27.6428 23.1675
  301 650.482 -18.6966 41.0098
  302 738.813 157.599 -8.80529
  303 465.599 -46.6623 -69.7368
  304 453.204 -44.1355 74.4307
  305 1148.28 32.1568 20.0376
  306 1178.17 43.4927 -65.3608
  307 606.149 -17.5550 -17.1726
  308 369.202 -2.61010 15.3633
  309 369.182 -2.59139 -15.3400
  310 189.131 131.074 177.183
  311 605.901 -17.3086 16.8957
  312 646.104 27.8979 -56.2880
  313 329.109 -6.17367 -26.4299
  314 329.017 -6.15092 26.2726
  315 599.006 -11.0013 4.91404
  316 599.159 -11.3517 -5.22325
  317 4.59743 -10.8318 -8.81812
  318 5.21570 -11.5338 8.99352
  319 616.402 22.0151 187.258
  320 707.617 145.667 16.2198
  321 597.239 -33.7068 22.3787
  322 198.173 -3.95238 -39.6588
  323 198.201 -3.93176 39.6569
  324 -4.03630 9.37523 -1.27912
  325 -4.35903 9.71172 0.989922
  326 611.703 72.3399 -31.5740
  327 791.121 165.341 2.02813
  328 595.468 -50.0740 -6.67317
  329 18.3478 18.5088 -26.8504
  330 23.1738 26.5024 30.8843
  331 346.177 -23.7381 92.9831
  332 345.974 -23.5493 -92.4898
  333 641.720 -2.32610 -1.21459
  334 641.647 -2.67611 1.34302
  335 539.491 -55.5039 37.2710
  336 556.887 2.29026 31.7149
  337 534.482 8.89311 27.2196
  338 59.8041 49.1745 -40.7610
  339 56.7032 44.6266 40.1326
  340 1000.30 116.630 -18.7390
  341 880.013 211.756 48.1714
  342 553.318 -39.4163 6.75551
  343 402.287 -1.59907 -4.50160
  344 402.262 -1.63529 4.57727
  345 654.971 86.8302 -45.9899
  346 270.065 -10.1638 94.6981
  347 270.069 -10.3141 -94.8200
  348 717.433 -6.73180 -61.7158
  349 430.097 -8.99232 -16.9842
  350 430.079 -8.64404 16.9169
  351 355.876 -19.1036 -61.6328
  352 355.289 -19.5262 61.7875
  353 285.286 -3.75722 29.6482
  354 285.159 -3.59684 -29.6232
  355 768.850 60.5520 6.08563
  356 523.791 5.95009 -24.6132
  357 549.338 108.816 274.948
  358 847.869 184.274 24.1449
  359 1206.39 104.113 -133.425
  360 489.614 -9.70069 -4.06779
  361 489.596 -9.34391 3.98851
  362 534.363 -35.3735 -12.4078
  363 1194.99 143.088 142.648
  364 539.729 -13.6888 -1.38588
  365 539.388 -14.0242 1.82555
  366 578.441 -34.4898 -7.08908
  367 505.677 -17.0722 -9.24295
  368 500.819 -16.1043 9.27733
  369 231.778 215.730 -227.210
  370 406.552 -13.4048 -29.5215
  371 406.458 -13.5080 29.3490
  372 499.173 16.1004 -0.571252
  373 1147.66 294.425 -197.327
  374 252.294 -2.78991 -41.3009
  375 252.314 -2.70220 41.3699
  376 447.283 -33.7186 -47.2063
  377 439.987 -30.8000 48.0104
  378 601.759 42.9087 -47.6154
  379 560.268 -49.0274 -10.4214
  380 49.1717 104.931 -85.9252
  381 423.551 -32.0532 -124.398
  382 440.725 -35.8114 123.005
  383 28.8311 4.93211 -20.7513
  384 28.7855 5.08294 20.8239
  385 526.544 -31.2423 12.8139
  386 377.483 -3.12243 -9.74089
  387 377.441 -3.11486 9.73087
  388 1174.63 40.7647 60.1162
  389 526.153 -10.6540 -0.610210
  390 526.276 -10.5670 0.510970
  391 578.726 -34.2919 7.46997
  392 1236.49 345.753 244.400
  393 605.710 -20.9660 -24.5859
  394 1025.18 142.343 69.4480
  395 671.038 -41.8054 -57.0057
  396 596.672 73.2902 -3.45654
  397 534.593 -28.4011 -142.656
  398 628.835 -10.2575 -145.402
  399 86.5340 33.0303 -53.1679
  400 87.1337 34.5275 53.0991
  401 600.731 -38.2032 -23.3957
  402 393.462 -15.1301 41.7712
  403 393.314 -15.8038 -42.2416
  404 625.085 -3.66554 14.4126
  405 524.771 -26.4983 -10.5058
  406 637.894 -4.62065 6.07311
  407 640.859 8.03522 57.1527
  408 682.072 -22.7293 14.2162
  409 321.758 -13.1992 71.6116
  410 321.818 -13.5623 -71.7241
  411 203.544 116.022 -172.350
  412 601.903 12.0133 56.3939
  413 610.475 -45.7145 22.9938
  414 522.090 -55.6934 80.5413
  415 973.666 199.186 -100.818
  416 607.988 -30.2231 -37.9900
  417 673.980 -16.3824 -29.3311
  418 554.874 -24.4034 -2.03094
  419 560.497 -23.3017 -0.621322
  420 524.746 -59.5108 -80.9180
  421 610.077 1.40843 -57.3320
  422 523.071 -56.9300 -50.8382
  423 437.353 -4.10895 -3.70861
  424 437.345 -4.14915 3.64631
  425 643.217 97.4702 -34.1822
  426 626.015 -3.66957 -14.1837
  427 732.026 123.625 -30.7871
  428 617.673 -58.8804 -73.2542
  429 643.124 -5.14056 -5.78365
  430 569.255 -65.9905 55.5228
  431 838.793 172.606 -21.0901
  432 462.192 -15.3066 17.7067
  433 463.361 -16.3355 -17.9102
  434 615.884 -5.09830 -0.0645376
  435 615.710 -5.16793 0.0235331
  436 604.293 -22.2635 25.0257
  437 455.165 -22.3494 30.7473
  438 455.499 -21.8815 -30.7711
  439 578.694 50.6709 21.3205
  440 570.012 -64.5426 -55.7417
  441 681.040 111.350 36.0479
  442 607.519 -13.6707 31.9699
  443 748.828 72.4723 -209.613
  444 438.901 -6.36326 -8.29875
  445 438.745 -6.46940 8.28989
  446 708.704 139.081 -25.2487
  447 585.591 -9.93496 -2.05215
  448 585.460 -9.51544 2.12115
  449 579.763 13.2519 -48.0108
  450 661.092 59.7646 -55.6401
  451 401.774 -0.464320 -1.10639
  452 401.822 -0.488324 1.11768
  453 607.361 -16.6198 -30.7367
  454 503.933 -26.3618 154.911
  455 629.349 375.936 -365.022
  456 641.699 91.6820 38.0043
  457 198.345 52.3960 -126.927
  458 193.887 54.5238 125.134
  459 340.341 50.8704 -185.202
  460 342.606 54.7486 185.410
  461 115.379 217.657 186.556
  462 518.046 -47.4191 35.0129
  463 900.064 205.526 63.0116
  464 105.139 80.7427 -94.1597
  465 89.7859 73.5291 76.8043
  466 341.967 -1.70145 14.4793
  467 342.119 -1.82100 -14.4834
  468 779.045 167.741 -3.37744
  469 44.6020 30.0905 27.7665
  470 44.5619 30.3039 -28.5900
  471 715.822 68.1868 -38.5724
  472 2.85990 5.44832 -9.77735
  473 2.76981 5.64066 9.53663
  474 599.881 -8.55821 -49.9509
  475 8.44409 -19.0412 -1.58692
  476 7.85113 -16.1546 1.36133
  477 648.001 -4.33447 2.22490
  478 647.017 -2.70479 -2.42647
  479 444.611 -44.8293 89.7114
  480 445.919 -45.6244 -89.7149
  481 850.208 111.647 89.6797
  482 678.697 132.283 -14.5116
  483 632.595 -18.1878 50.1362
  484 802.751 128.707 -0.544758
  485 745.243 31.2108 0.882478
  486 753.141 166.056 7.73576
  487 632.191 101.970 13.5244
  488 352.350 126.368 -249.489
  489 618.503 -30.5188 42.1373
  490 749.602 134.571 22.3976
  491 681.512 -20.3247 99.4387
  492 597.368 -42.4966 17.1895
  493 486.952 -11.6124 -6.72372
  494 485.993 -11.6883 6.48586
  495 648.235 56.5343 54.1960
  496 1011.51 201.233 113.630
  497 608.237 -26.2979 38.7364
  498 674.079 -6.87784 36.6585
  499 1109.58 72.2643 59.9560
  500 294.307 -3.85324 114.973
  501 363.150 -9.37765 131.243
  502 294.122 -3.94717 -114.807
  503 360.308 -10.4648 -132.320
  504 942.345 258.350 -98.9087
  505 556.833 -40.3063 -6.42212
  506 592.366 -35.0097 -17.5617
  507 -5.79666 -5.50198 -9.39180
  508 -5.97607 -5.59702 9.69506
  509 951.925 274.616 260.550
  510 468.484 -6.75430 -3.30381
  511 468.385 -6.62134 3.24055
  512 508.047 -44.8629 -39.7558
  513 517.211 -51.9486 99.7894
  514 639.268 -38.9308 26.8596
  515 620.027 26.5760 -57.7523
  516 557.026 1.82233 -30.3785
  517 -16.2252 0.714263 11.5173
  518 -15.6608 0.522176 -11.3504
  519 627.650 -58.4123 60.9315
  520 406.753 -33.8305 106.833
  521 384.833 0.437746 2.68014
  522 384.863 0.428981 -2.61714
  523 166.763 15.0035 -86.1892
  524 167.216 14.5279 86.3049
  525 406.063 -32.7682 -106.024
  526 735.882 41.6825 -19.2025
  527 328.858 -10.0403 -45.2417
  528 328.802 -10.4753 45.2558
  529 -0.641476 -16.0138 -11.9542
  530 -0.593176 -16.5613 12.3000
</Section>

newXOutput 35

<Section columns = "stress_xx | stress_yy | stress_xy">
  1 674.022 0.296953 1.99936
  2 674.108 0.302816 -2.02659
  3 403.183 -0.108758 -0.748035
  4 -5.30414 -5.21359 -5.67086
  5 1120.76 504.434 397.675
  6 1133.76 514.479 -382.253
  7 -5.48164 -5.37598 5.87369
  8 403.105 -0.100328 0.753770
  9 682.899 -3.50107 1.42186
  10 679.894 -4.12741 0.908164
  11 670.085 -2.91692 5.33375
  12 658.938 -2.61469 9.00026
  13 643.762 -3.37069 11.8616
  14 612.004 -2.82464 17.4995
  15 573.947 -0.0934314 20.7886
  16 533.007 2.97986 20.4402
  17 508.981 8.61230 12.8333
  18 475.123 13.5162 -0.241316
  19 507.726 9.19159 -14.4575
  20 537.351 2.51574 -22.4184
  21 570.672 0.598722 -20.9513
  22 612.930 -3.12173 -18.9748
  23 644.191 -4.21100 -12.7255
  24 659.111 -4.80694 -9.15752
  25 678.891 -5.04744 -3.81708
  26 674.914 -2.65774 -1.72621
  27 682.512 -3.03680 -1.22380
  28 648.934 -3.30815 -2.40954
  29 616.854 -7.67974 -1.63283
  30 574.953 -9.28636 -0.551556
  31 541.472 -8.92327 -1.62808
  32 509.026 -8.51628 1.07321
  33 464.845 -4.16638 1.04042
  34 430.404 -1.76047 -0.497799
  35 398.453 0.125611 1.92385
  36 389.612 2.34425 1.42795
  37 384.615 0.0448326 4.68317
  38 373.510 0.0842620 7.05947
  39 349.848 0.129195 8.01255
  40 328.958 -0.740085 13.1270
  41 291.798 -0.633367 15.7045
  42 250.539 -0.348007 20.0023
  43 196.296 -2.01429 24.0678
  44 153.138 0.296011 33.7331
  45 91.2388 5.49022 28.7820
  46 19.4109 10.3519 19.3295
  47 -21.9776 8.48997 8.28237
  48 -37.3380 7.36959 1.19092
  49 -32.0200 5.14296 -9.28196
  50 -18.3776 -0.956067 -7.74159
  51 -1.54876 -17.9408 -8.16469
  52 2.26856 -34.8193 -11.8129
  53 5.11642 -52.2585 -5.28216
  54 12.1025 -51.3563 1.71709
  55 24.9478 -3.74184 28.4706
  56 64.2141 131.402 104.182
  57 256.034 402.819 310.358
  58 1514.35 201.852 236.984
  59 1287.44 53.6290 80.3891
  60 1217.43 24.4738 27.1242
  61 1188.93 16.9550 -3.35520
  62 1215.62 25.3206 -29.9991
  63 1307.68 60.4410 -93.2237
  64 1476.54 230.225 -253.367
  65 297.029 449.673 -326.645
  66 68.9683 114.480 -89.4640
  67 25.0790 -5.88317 -28.4065
  68 10.0465 -52.7741 -2.20429
  69 5.52014 -53.3296 4.49380
  70 2.55549 -35.8257 11.9573
  71 -1.56095 -18.5645 8.40766
  72 -18.9401 -0.896897 7.89408
  73 -32.7067 5.33199 9.24372
  74 -37.5229 7.39285 -1.46509
  75 -21.7560 8.35185 -8.37107
  76 19.5385 10.3096 -19.2462
  77 91.1442 5.53472 -28.7488
  78 153.085 0.299454 -33.7212
  79 196.212 -2.04154 -24.0202
  80 250.323 -0.296720 -19.9495
  81 291.586 -0.546616 -15.7964
  82 329.078 -0.785465 -13.2470
  83 350.022 0.0718103 -8.01682
  84 373.611 0.0865373 -7.03171
  85 384.677 0.0211678 -4.64921
  86 389.615 2.36130 -1.38075
  87 398.393 0.140655 -1.90882
  88 430.397 -1.75835 0.482420
  89 464.912 -4.26589 -1.07441
  90 509.071 -8.68833 -1.07513
  91 541.609 -9.01353 1.60732
  92 575.021 -9.24009 0.570211
  93 616.768 -7.67684 1.62800
  94 648.677 -3.31556 2.43192
  95 591.080 -64.0672 -32.2306
  96 598.590 -63.5373 26.5937
  97 651.547 108.084 -13.2428
  98 432.986 -13.6279 -148.289
  99 427.264 -12.0497 148.960
  100 743.580 149.230 26.1274
  101 790.831 167.430 -7.83574
  102 505.986 -21.7502 -16.4279
  103 510.913 -21.3220 14.3023
  104 648.089 -0.976243 -56.7388
  105 716.321 -16.2412 -11.4131
  106 635.975 -4.88252 57.2067
  107 736.946 -5.71446 25.8155
  108 125.421 63.3282 87.8135
  109 123.910 60.3435 -90.7755
  110 609.960 -26.9029 16.1390
  111 611.912 -27.8915 -18.4086
  112 883.302 169.822 -5.22683
  113 404.231 -30.6320 -81.3771
  114 404.678 -30.4710 81.7317
  115 442.911 -25.0087 41.6807
  116 443.433 -24.5222 -41.4640
  117 367.011 74.2771 -223.350
  118 385.619 77.3615 225.385
  119 897.588 211.905 -45.6653
  120 954.082 192.335 63.3604
  121 627.144 56.2755 44.5591
  122 582.023 -16.5750 0.353915
  123 582.733 -17.8349 -0.371234
  124 585.017 22.1529 -40.1451
  125 219.684 5.59962 -95.3457
  126 219.960 5.27466 94.9628
  127 620.556 -16.1381 -41.8766
  128 688.462 23.3733 50.7419
  129 446.423 -7.36572 12.5951
  130 446.534 -7.45953 -12.4123
  131 542.801 -43.5808 -23.5230
  132 539.334 -41.7198 23.9503
  133 588.132 -64.4437 72.6024
  134 697.334 30.6466 -48.9130
  135 624.110 -40.3360 29.5211
  136 740.053 157.088 -0.962377
  137 609.286 -65.1138 -66.9354
  138 851.919 132.292 37.5353
  139 791.626 49.8935 -127.306
  140 569.048 38.5402 -1.41369
  141 618.775 -14.5657 41.7682
  142 629.463 -40.2222 -31.0363
  143 1091.77 88.6172 27.6295
  144 665.424 -41.5875 -18.4976
  145 1109.39 125.277 -90.3081
  146 666.999 -40.7844 14.5312
  147 592.016 12.4428 47.8068
  148 19.9331 21.2529 4.40467
  149 20.8722 22.5867 -4.10936
  150 632.190 -11.7564 9.42593
  151 631.645 -10.8764 -9.03620
  152 490.117 -47.3401 -57.3739
  153 499.261 -46.2017 54.4389
  154 263.538 -9.12103 -74.4685
  155 263.550 -9.06080 74.3811
  156 528.473 -13.9730 -4.15923
  157 528.206 -13.1147 4.37232
  158 77.0315 95.6284 -95.2131
  159 99.0312 95.6266 99.7121
  160 649.806 59.7718 -51.4035
  161 374.625 -15.6520 -50.5570
  162 374.125 -16.3815 50.2508
  163 790.122 91.2888 207.434
  164 611.753 -25.8862 149.178
  165 571.254 -31.2417 -1.74196
  166 570.258 -29.8643 1.69569
  167 631.754 -6.08606 2.73906
  168 631.164 -5.98651 -2.92880
  169 631.756 -48.8322 -107.023
  170 414.403 -8.41221 -20.5799
  171 414.433 -8.41924 20.4522
  172 602.120 2.23261 -49.9091
  173 777.276 100.213 18.0488
  174 778.245 95.1296 -21.4652
  175 679.469 124.527 23.2561
  176 1050.21 284.754 137.546
  177 473.320 -52.3851 105.769
  178 630.816 163.029 -312.907
  179 478.032 -48.0992 -108.578
  180 630.274 -12.3472 -22.6309
  181 629.950 -11.8936 23.0734
  182 598.261 -44.8314 -5.26691
  183 91.0126 21.0200 -53.9660
  184 91.2546 21.5114 54.0755
  185 307.477 31.8975 -158.885
  186 301.787 33.7578 157.270
  187 692.611 117.787 -34.0987
  188 595.663 -43.2396 5.10471
  189 363.147 -17.4151 -119.474
  190 363.972 -16.6341 120.324
  191 316.020 -9.53688 -53.7972
  192 315.853 -9.74432 54.0298
  193 907.612 185.699 -79.6684
  194 307.472 198.782 262.083
  195 838.072 176.057 6.90633
  196 479.337 -7.27334 -5.48951
  197 479.012 -7.46676 5.46990
  198 531.718 -60.1231 64.2524
  199 170.856 163.378 -177.179
  200 535.698 -61.8729 -66.5479
  201 375.996 -6.97549 26.8699
  202 375.945 -7.25081 -26.7617
  203 650.210 -37.5689 34.6920
  204 1144.25 123.315 101.448
  205 457.793 -16.2046 -25.5128
  206 457.133 -16.2498 25.1218
  207 683.497 92.7324 47.7498
  208 430.145 -2.17041 -4.61069
  209 430.195 -2.23969 4.63638
  210 824.641 178.265 -6.62390
  211 593.969 47.4462 -27.1391
  212 1103.98 225.601 -152.731
  213 626.525 82.4470 22.2363
  214 809.953 164.315 -4.94772
  215 621.839 -23.7143 34.5837
  216 549.450 -18.3247 -3.55792
  217 548.261 -21.3442 5.17872
  218 43.3635 22.1576 26.4659
  219 43.5262 21.6673 -26.9529
  220 551.329 19.7236 -17.7453
  221 598.941 -22.5152 6.43232
  222 600.418 -22.2039 -6.86312
  223 35.9057 35.5872 -27.0542
  224 32.2745 38.2080 28.6656
  225 578.385 -10.6269 0.0187404
  226 578.351 -10.4920 0.220195
  227 182.886 -0.160236 -57.1930
  228 183.000 -0.174786 57.1329
  229 471.160 16.9253 -187.453
  230 586.305 31.3460 38.2041
  231 618.715 -28.7159 -29.6501
  232 630.671 -20.2882 -49.8336
  233 570.515 -48.4073 117.367
  234 683.800 -40.7790 13.4895
  235 707.886 97.3721 -46.1090
  236 603.675 -3.35737 -34.2506
  237 609.525 -2.46793 50.4470
  238 637.152 26.0822 58.2230
  239 966.340 229.269 134.161
  240 1154.69 44.8916 -23.0787
  241 613.193 19.9515 -56.1824
  242 625.594 -18.0106 50.2635
  243 424.297 -31.4778 -62.5499
  244 420.398 -31.4019 62.4618
  245 813.390 81.2787 -28.0346
  246 728.620 26.2595 31.0380
  247 -1.61618 -0.241965 -12.7461
  248 -1.60438 0.0953990 13.1274
  249 182.188 35.8075 -105.192
  250 182.268 36.6884 104.988
  251 573.868 5.59913 -36.7652
  252 604.658 -53.7433 -0.541357
  253 229.653 74.3410 -162.877
  254 209.111 85.9438 154.599
  255 107.632 6.37627 -47.9428
  256 107.903 6.27185 48.0066
  257 483.314 -13.3670 -11.6957
  258 483.217 -13.2386 11.7410
  259 649.171 -30.8331 -39.3238
  260 545.867 -50.1120 -113.176
  261 719.308 9.09850 -23.4403
  262 574.366 -52.7580 16.4671
  263 592.598 52.6171 -231.888
  264 564.057 -55.5227 -27.2151
  265 493.422 -34.0467 -36.3558
  266 494.325 -35.6985 38.0135
  267 952.525 173.531 -50.7456
  268 791.984 169.534 1.70054
  269 788.610 31.8464 86.9372
  270 625.697 -7.87542 -24.6426
  271 411.481 -4.04437 10.3022
  272 411.516 -4.13961 -10.2734
  273 635.635 -53.6181 -10.3339
  274 670.600 -49.4603 -28.4466
  275 952.301 157.300 26.7109
  276 464.385 12.6459 185.782
  277 636.771 -53.0272 9.33598
  278 640.388 -6.53215 12.3922
  279 673.532 -8.29824 -47.3034
  280 564.365 287.122 333.288
  281 76.3204 113.723 107.620
  282 651.991 -5.53485 3.85786
  283 646.311 -5.31008 -5.21625
  284 601.204 -3.48650 30.8301
  285 552.850 23.0979 16.8577
  286 641.328 -5.71136 -12.1045
  287 675.268 -39.8457 76.2597
  288 280.521 8.22661 -127.297
  289 280.029 7.65753 127.189
  290 718.444 89.9255 41.6284
  291 629.409 -64.3469 -26.2113
  292 612.759 26.6830 53.0049
  293 605.958 -7.80637 -0.00925916
  294 605.996 -7.89128 -0.00983356
  295 624.763 -7.07119 24.2742
  296 635.846 -63.3213 27.5950
  297 686.187 134.236 4.75856
  298 898.360 198.496 -217.937
  299 507.923 -28.2740 -22.5810
  300 501.096 -28.3971 23.9587
  301 668.636 -19.2303 41.6980
  302 759.548 161.922 -8.87283
  303 478.942 -47.9790 -71.8736
  304 466.236 -45.3822 76.6836
  305 1178.15 33.0109 20.5260
  306 1208.72 44.6254 -66.9448
  307 623.106 -18.0731 -17.4353
  308 380.402 -2.67352 15.8173
  309 380.381 -2.65436 -15.7936
  310 194.676 134.971 182.554
  311 622.852 -17.8188 17.1529
  312 664.271 28.6844 -57.4430
  313 339.163 -6.33671 -27.2023
  314 339.069 -6.31342 27.0410
  315 615.725 -11.3419 4.92888
  316 615.882 -11.7004 -5.24479
  317 4.76463 -11.0283 -8.98030
  318 5.39963 -11.7535 9.16384
  319 633.164 22.7950 192.788
  320 727.559 149.692 16.4877
  321 614.013 -34.6675 22.6913
  322 204.508 -4.07071 -40.8391
  323 204.538 -4.04955 40.8365
  324 -4.01101 9.67338 -1.21937
  325 -4.34631 10.0198 0.923334
  326 629.168 74.3994 -32.2783
  327 813.020 169.995 1.56258
  328 612.164 -51.4859 -6.51329
  329 18.9387 19.4501 -27.8558
  330 23.9144 27.6852 32.0200
  331 356.371 -24.4327 95.7562
  332 356.165 -24.2379 -95.2503
  333 659.331 -2.41931 -1.22448
  334 659.255 -2.77849 1.35500
  335 554.735 -57.0560 38.5627
  336 572.978 2.36355 32.4420
  337 550.088 9.16925 27.8611
  338 61.7258 50.6969 -42.1971
  339 58.5397 46.0171 41.5567
  340 1027.13 119.731 -19.2527
  341 904.038 217.672 49.9903
  342 568.964 -40.5186 7.18697
  343 414.421 -1.63381 -4.64908
  344 414.394 -1.67090 4.72638
  345 673.486 89.2682 -46.9368
  346 278.179 -10.4880 97.5350
  347 278.182 -10.6431 -97.6615
  348 736.980 -6.78969 -63.9275
  349 442.806 -9.22298 -17.5258
  350 442.787 -8.86516 17.4562
  351 366.467 -19.6364 -63.4505
  352 365.866 -20.0702 63.6085
  353 294.130 -3.85885 30.5104
  354 293.999 -3.69420 -30.4849
  355 789.858 62.3850 6.87562
  356 539.162 6.15113 -25.1974
  357 564.206 112.126 282.777
  358 871.234 189.345 25.1281
  359 1237.65 106.824 -136.789
  360 503.777 -9.96179 -4.22224
  361 503.758 -9.59580 4.14110
  362 549.546 -36.3531 -12.9583
  363 1226.07 146.860 146.266
  364 555.063 -14.0835 -1.52052
  365 554.713 -14.4275 1.97273
  366 594.718 -35.4639 -7.02481
  367 520.202 -17.5381 -9.60961
  368 515.230 -16.5432 9.63404
  369 238.105 222.584 -233.823
  370 418.614 -13.7630 -30.4138
  371 418.517 -13.8683 30.2354
  372 513.989 16.5838 -0.585014
  373 1177.45 302.593 -202.805
  374 260.162 -2.86690 -42.5165
  375 260.185 -2.77661 42.5865
  376 460.268 -34.6474 -48.6656
  377 452.787 -31.6463 49.4783
  378 618.930 44.1423 -48.6902
  379 576.079 -50.3972 -10.9879
  380 50.6775 108.557 -88.6954
  381 435.662 -33.0054 -128.109
  382 453.278 -36.8650 126.678
  383 30.0518 5.06895 -21.4494
  384 30.0094 5.22368 21.5238
  385 541.545 -32.1050 13.3520
  386 388.950 -3.20027 -10.0339
  387 388.907 -3.19242 10.0233
  388 1205.12 41.8280 61.5829
  389 541.170 -10.9586 -0.670619
  390 541.296 -10.8687 0.569455
  391 595.011 -35.2599 7.41944
  392 1268.01 355.369 251.012
  393 622.697 -21.5776 -25.0109
  394 1052.59 146.150 71.3275
  395 689.452 -42.9350 -59.0249
  396 613.787 75.3873 -3.53705
  397 549.450 -29.1949 -146.936
  398 646.008 -10.4408 -149.808
  399 89.3174 33.9974 -54.9365
  400 89.9386 35.5346 54.8655
  401 617.594 -39.2887 -23.7042
  402 405.138 -15.5365 43.0131
  403 404.986 -16.2291 -43.4978
  404 642.531 -3.78225 14.6913
  405 539.739 -27.2322 -10.9610
  406 655.518 -4.77306 6.15591
  407 658.859 8.26022 58.3186
  408 700.932 -23.3451 14.1176
  409 331.399 -13.5758 73.7246
  410 331.460 -13.9495 -73.8414
  411 209.480 119.468 -177.562
  412 619.007 12.3613 57.6499
  413 627.572 -47.0114 23.2512
  414 536.793 -57.2762 83.0510
  415 999.963 204.595 -103.713
  416 625.075 -31.0881 -38.6920
  417 692.678 -16.8368 -29.6645
  418 570.567 -25.0910 -2.25825
  419 576.324 -23.9620 -0.463418
  420 539.513 -61.2015 -83.4434
  421 627.337 1.44704 -58.5787
  422 537.896 -58.5270 -52.4883
  423 450.308 -4.20677 -3.82836
  424 450.299 -4.24789 3.76445
  425 661.481 100.205 -34.9103
  426 643.480 -3.78466 -14.4577
  427 752.428 127.095 -31.1613
  428 634.738 -60.5205 -75.6702
  429 660.849 -5.30204 -5.86534
  430 585.189 -67.8548 57.3780
  431 861.754 177.567 -22.3103
  432 475.662 -15.7140 18.2955
  433 476.860 -16.7711 -18.5052
  434 632.943 -5.27782 -0.0422814
  435 632.764 -5.34908 0.000253622
  436 621.245 -22.9125 25.4556
  437 468.406 -22.9528 31.7200
  438 468.750 -22.4735 -31.7460
  439 595.357 52.1437 21.8129
  440 585.966 -66.3696 -57.6014
  441 700.244 114.465 36.7384
  442 624.597 -14.0720 32.5998
  443 768.706 74.9763 -215.791
  444 451.876 -6.52043 -8.56499
  445 451.715 -6.62903 8.55538
  446 728.623 142.941 -25.6379
  447 601.991 -10.2453 -2.01907
  448 601.857 -9.81456 2.09050
  449 596.370 13.6427 -49.1099
  450 679.682 61.4466 -56.7814
  451 413.928 -0.468552 -1.15048
  452 413.976 -0.493142 1.16194
  453 624.429 -17.1060 -31.3286
  454 517.989 -27.1131 159.518
  455 645.351 387.480 -374.936
  456 659.903 94.2652 38.8106
  457 204.296 53.8920 -130.846
  458 199.722 56.0765 128.997
  459 350.093 52.3129 -190.712
  460 352.395 56.2901 190.915
  461 118.676 224.808 192.208
  462 532.786 -48.7368 36.2075
  463 924.394 211.505 65.4871
  464 108.362 83.1902 -97.1756
  465 92.5966 75.7711 79.3323
  466 352.438 -1.74258 14.9014
  467 352.594 -1.86542 -14.9057
  468 800.801 172.305 -3.41391
  469 46.1085 31.0060 28.7835
  470 46.0624 31.2268 -29.6282
  471 735.688 70.1297 -39.1082
  472 3.20466 5.60577 -10.1602
  473 3.11658 5.80329 9.91315
  474 616.879 -8.80373 -51.0304
  475 8.71640 -19.3419 -1.76620
  476 8.10950 -16.3626 1.54021
  477 665.760 -4.46922 2.24674
  478 664.756 -2.80348 -2.45195
  479 457.362 -46.1118 92.4153
  480 458.705 -46.9292 -92.4239
  481 872.998 115.178 92.8565
  482 697.909 135.953 -14.7778
  483 650.330 -18.7104 51.1076
  484 824.765 132.430 0.0827917
  485 765.662 32.1942 0.334251
  486 774.226 170.628 7.70457
  487 650.205 104.844 13.8218
  488 362.167 130.166 -256.757
  489 635.863 -31.3901 42.9197
  490 770.470 138.357 22.5412
  491 700.086 -20.7685 102.647
  492 614.129 -43.6992 17.3275
  493 501.044 -11.9246 -6.98108
  494 500.063 -12.0026 6.73683
  495 666.506 58.1308 55.3182
  496 1038.67 206.653 116.796
  497 625.330 -27.0547 39.4676
  498 692.798 -7.06716 37.1857
  499 1138.71 74.1696 61.4665
  500 303.011 -4.01365 118.418
  501 373.652 -9.69743 135.150
  502 302.822 -4.11157 -118.249
  503 370.738 -10.8186 -136.255
  504 967.875 265.527 -102.047
  505 572.569 -41.4317 -6.84685
  506 609.006 -36.0043 -17.7463
  507 -5.95609 -5.65430 -9.65572
  508 -6.14136 -5.75254 9.96852
  509 976.485 283.005 268.296
  510 482.159 -6.92762 -3.41417
  511 482.057 -6.79123 3.34943
  512 522.530 -46.1100 -41.0621
  513 531.747 -53.4376 102.840
  514 657.091 -40.0338 27.1716
  515 637.582 27.3287 -59.0088
  516 573.121 1.87770 -31.0718
  517 -16.6573 0.748520 11.8251
  518 -16.0747 0.551059 -11.6523
  519 644.997 -60.0499 63.0024
  520 418.485 -34.8201 110.028
  521 396.552 0.454191 2.77250
  522 396.583 0.445150 -2.70812
  523 171.928 15.4048 -88.8642
  524 172.397 14.9149 88.9809
  525 417.777 -33.7277 -109.198
  526 756.118 42.9199 -19.1540
  527 338.822 -10.3099 -46.5643
  528 338.766 -10.7567 46.5787
  529 -0.643360 -16.4431 -12.2728
  530 -0.594250 -17.0083 12.6301
</Section>

newXOutput 36

<Section columns = "stress_xx | stress_yy | stress_xy">
  1 691.820 0.277057 2.03602
  2 691.909 0.284717 -2.06364
  3 415.111 -0.102804 -0.759697
  4 -5.45644 -5.36283 -5.83556
  5 1147.33 518.581 407.788
  6 1160.96 528.990 -391.962
  7 -5.63922 -5.53005 6.04433
  8 415.033 -0.0941661 0.765527
  9 700.884 -3.60313 1.43940
  10 697.843 -4.24517 0.901503
  11 687.900 -3.00852 5.41813
  12 676.595 -2.70338 9.15883
  13 661.182 -3.47227 12.0870
  14 628.836 -2.90549 17.8635
  15 590.018 -0.0922073 21.2445
  16 548.215 3.07558 20.9038
  17 523.665 8.86969 13.1351
  18 489.075 13.8812 -0.246781
  19 522.384 9.46016 -14.7979
  20 552.649 2.59949 -22.9233
  21 586.684 0.609383 -21.4064
  22 629.779 -3.21188 -19.3695
  23 661.620 -4.33319 -12.9682
  24 676.771 -4.94164 -9.32130
  25 696.883 -5.18360 -3.86922
  26 692.778 -2.74724 -1.73022
  27 700.491 -3.12816 -1.23708
  28 666.234 -3.43031 -2.45669
  29 633.484 -7.92023 -1.65617
  30 590.670 -9.56211 -0.537966
  31 556.444 -9.17552 -1.65664
  32 523.271 -8.73923 1.12004
  33 478.104 -4.26594 1.07727
  34 442.910 -1.79399 -0.500544
  35 410.267 0.135312 1.98077
  36 401.198 2.40235 1.48310
  37 396.036 0.0517682 4.82679
  38 384.609 0.0930309 7.26184
  39 360.311 0.135819 8.24395
  40 338.844 -0.755994 13.4908
  41 300.670 -0.646350 16.1460
  42 258.278 -0.352540 20.5668
  43 202.518 -2.07186 24.7612
  44 158.116 0.299819 34.7080
  45 94.3953 5.64112 29.6526
  46 20.4443 10.6407 19.9516
  47 -22.2540 8.73082 8.58063
  48 -38.2029 7.58439 1.28287
  49 -32.8698 5.30530 -9.51129
  50 -18.8906 -0.972416 -7.95245
  51 -1.58214 -18.4447 -8.38911
  52 2.35069 -35.7576 -12.1152
  53 5.28305 -53.5448 -5.35700
  54 12.4836 -52.4097 1.90857
  55 25.7167 -3.11554 29.5168
  56 66.0494 136.375 107.393
  57 262.445 415.217 318.626
  58 1550.51 206.989 242.343
  59 1319.25 54.9752 82.2146
  60 1247.81 25.1029 27.7349
  61 1218.73 17.3961 -3.42780
  62 1245.96 25.9722 -30.6751
  63 1339.86 61.9659 -95.3218
  64 1512.03 236.105 -259.207
  65 304.379 463.321 -335.165
  66 70.9966 118.882 -92.2944
  67 25.8432 -5.30705 -29.4340
  68 10.3613 -53.8825 -2.39767
  69 5.69590 -54.6546 4.54994
  70 2.64514 -36.7959 12.2653
  71 -1.59509 -19.0872 8.63965
  72 -19.4701 -0.911831 8.10977
  73 -33.5786 5.49957 9.47285
  74 -38.3976 7.60847 -1.56415
  75 -22.0318 8.58921 -8.67166
  76 20.5704 10.5974 -19.8663
  77 94.2947 5.68691 -29.6191
  78 158.058 0.303371 -34.6964
  79 202.430 -2.09990 -24.7129
  80 258.056 -0.299989 -20.5129
  81 300.453 -0.557293 -16.2403
  82 338.967 -0.802530 -13.6139
  83 360.489 0.0769165 -8.24842
  84 384.712 0.0953537 -7.23358
  85 396.100 0.0274447 -4.79221
  86 401.202 2.41978 -1.43491
  87 410.207 0.150732 -1.96543
  88 442.903 -1.79186 0.484774
  89 478.172 -4.36801 -1.11207
  90 523.317 -8.91578 -1.12200
  91 556.585 -9.26835 1.63540
  92 590.740 -9.51501 0.557345
  93 633.395 -7.91704 1.65139
  94 665.971 -3.43799 2.47917
  95 607.134 -65.8156 -33.4191
  96 614.825 -65.2689 27.6365
  97 669.534 111.027 -13.5174
  98 444.906 -14.0476 -152.572
  99 439.047 -12.4227 153.265
  100 763.768 153.235 26.4643
  101 812.163 171.914 -7.68935
  102 520.124 -22.3237 -16.9936
  103 525.164 -21.8861 14.8152
  104 665.739 -1.01144 -57.8525
  105 735.398 -16.6234 -12.2422
  106 653.345 -5.01836 58.3658
  107 756.458 -5.77660 27.0543
  108 129.193 65.1358 90.5463
  109 127.631 62.0708 -93.5913
  110 626.539 -27.6533 16.3152
  111 628.547 -28.6672 -18.6321
  112 906.847 174.242 -5.40364
  113 415.679 -31.4758 -83.7277
  114 416.139 -31.3095 84.0882
  115 455.490 -25.6648 42.9142
  116 456.025 -25.1671 -42.6952
  117 377.072 76.3750 -229.714
  118 396.119 79.5763 231.799
  119 921.403 217.577 -47.2894
  120 979.207 197.386 65.2459
  121 644.464 57.8358 45.5142
  122 597.912 -17.0417 0.233765
  123 598.638 -18.3337 -0.249316
  124 601.351 22.7946 -41.0397
  125 226.199 5.71871 -98.1623
  126 226.484 5.38554 97.7673
  127 637.513 -16.5918 -42.6968
  128 707.081 24.0156 51.6259
  129 459.225 -7.54428 12.9897
  130 459.339 -7.64095 -12.8034
  131 557.745 -44.7522 -24.3790
  132 554.204 -42.8372 24.8081
  133 604.014 -66.2087 74.8943
  134 716.171 31.4930 -49.7431
  135 641.066 -41.4480 29.9465
  136 760.244 161.266 -0.979283
  137 625.688 -66.8946 -69.0874
  138 874.304 136.112 39.2422
  139 812.172 51.5850 -131.255
  140 585.057 39.6494 -1.44646
  141 635.704 -14.9733 42.5966
  142 646.552 -41.3318 -31.4813
  143 1119.71 90.8925 28.3183
  144 683.333 -42.7253 -18.5421
  145 1137.74 128.490 -92.5986
  146 684.944 -41.8949 14.4614
  147 608.479 12.8064 48.8595
  148 20.6236 21.9454 4.70289
  149 21.5869 23.3165 -4.39590
  150 649.222 -12.1047 9.52876
  151 648.665 -11.2039 -9.13153
  152 503.743 -48.6194 -59.1059
  153 513.110 -47.4482 56.0987
  154 271.368 -9.38665 -76.6194
  155 271.381 -9.32482 76.5287
  156 543.147 -14.3472 -4.35690
  157 542.875 -13.4663 4.57541
  158 79.3405 98.5795 -98.2104
  159 101.984 98.5402 102.840
  160 667.644 61.4128 -52.4669
  161 385.478 -16.0650 -51.9956
  162 384.967 -16.8140 51.6817
  163 810.370 94.3171 213.442
  164 628.008 -26.5504 153.535
  165 586.902 -32.0897 -2.00677
  166 585.882 -30.6784 1.95047
  167 648.716 -6.28952 2.74555
  168 648.116 -6.18771 -2.93916
  169 648.601 -50.1149 -110.288
  170 426.421 -8.61950 -21.1843
  171 426.451 -8.62646 21.0529
  172 618.772 2.30485 -50.9887
  173 798.044 103.021 17.9487
  174 799.029 97.7956 -21.4415
  175 698.133 127.895 23.7081
  176 1077.37 292.376 141.517
  177 486.373 -53.8464 108.869
  178 647.029 167.954 -321.461
  179 491.198 -49.4450 -111.755
  180 647.367 -12.7040 -23.0318
  181 647.036 -12.2404 23.4844
  182 614.554 -46.0535 -5.10149
  183 93.9175 21.6034 -55.6618
  184 94.1697 22.1069 55.7735
  185 316.132 32.7406 -163.515
  186 310.294 34.6496 161.853
  187 711.564 120.975 -34.7318
  188 611.892 -44.4173 4.94148
  189 373.419 -17.9391 -122.924
  190 374.264 -17.1367 123.795
  191 325.347 -9.79248 -55.3286
  192 325.176 -10.0051 55.5664
  193 931.280 191.039 -82.5396
  194 315.770 204.535 269.462
  195 860.580 180.688 7.26366
  196 492.907 -7.45586 -5.68425
  197 492.574 -7.65400 5.66415
  198 546.301 -61.7656 66.2399
  199 175.713 168.237 -182.412
  200 550.369 -63.5660 -68.6053
  201 387.012 -7.14989 27.6382
  202 386.960 -7.43248 -27.5277
  203 667.805 -38.6034 35.1989
  204 1173.34 126.469 103.973
  205 470.792 -16.6212 -26.2960
  206 470.116 -16.6668 25.8941
  207 702.160 95.2599 48.6567
  208 442.631 -2.21365 -4.75767
  209 442.680 -2.28463 4.78376
  210 846.797 183.010 -7.11081
  211 610.536 48.7863 -27.7438
  212 1132.36 231.499 -156.748
  213 643.880 84.7179 22.7081
  214 831.639 168.788 -4.54474
  215 638.771 -24.3813 35.2017
  216 564.597 -18.8265 -3.78848
  217 563.380 -21.9226 5.46197
  218 44.8444 22.7990 27.3887
  219 45.0072 22.2962 -27.8881
  220 566.935 20.3073 -18.1515
  221 615.232 -23.1456 6.40828
  222 616.745 -22.8258 -6.84741
  223 37.0280 36.7870 -28.0610
  224 33.2965 39.4818 29.7242
  225 594.185 -10.9375 0.0908056
  226 594.150 -10.7994 0.154632
  227 188.527 -0.182321 -58.8713
  228 188.646 -0.197140 58.8086
  229 483.918 17.4006 -192.816
  230 602.682 32.2403 39.0563
  231 635.553 -29.5183 -30.1332
  232 647.873 -20.8514 -50.7952
  233 585.873 -49.7394 120.843
  234 702.084 -41.8694 14.3203
  235 727.114 100.016 -46.9213
  236 620.336 -3.45460 -34.9719
  237 626.317 -2.53386 51.5120
  238 654.625 26.8028 59.4411
  239 991.186 235.873 138.492
  240 1183.85 46.0400 -23.6357
  241 630.120 20.5104 -57.3964
  242 642.685 -18.5131 51.2563
  243 436.325 -32.3265 -64.3696
  244 432.332 -32.2486 64.2778
  245 834.798 83.6949 -29.4350
  246 748.127 27.0131 31.3333
  247 -1.59643 -0.194038 -13.0340
  248 -1.58617 0.151941 13.4281
  249 187.560 36.7793 -108.363
  250 187.645 37.6824 108.150
  251 589.938 5.77565 -37.5861
  252 621.089 -55.2073 -0.894335
  253 236.203 76.4291 -167.672
  254 215.105 88.3609 159.170
  255 111.107 6.53958 -49.4077
  256 111.389 6.43212 49.4722
  257 496.957 -13.7094 -12.0891
  258 496.857 -13.5765 12.1334
  259 666.756 -31.6856 -39.9540
  260 560.651 -51.4970 -116.530
  261 738.556 9.37753 -23.5298
  262 590.055 -54.1864 17.1906
  263 608.185 54.2374 -238.418
  264 579.488 -57.0271 -28.2187
  265 507.195 -34.9506 -37.4975
  266 508.109 -36.6484 39.2022
  267 977.608 178.052 -52.2222
  268 813.419 174.013 1.62709
  269 809.202 32.9805 89.8427
  270 642.757 -8.09942 -25.1253
  271 423.487 -4.13671 10.6110
  272 423.524 -4.23452 -10.5819
  273 652.820 -55.0868 -10.2097
  274 688.533 -50.7918 -29.6550
  275 977.364 161.379 27.5048
  276 476.978 13.0006 191.102
  277 653.980 -54.4775 9.18277
  278 657.649 -6.73396 12.5871
  279 691.732 -8.52897 -48.1146
  280 578.482 295.700 342.279
  281 78.5728 117.472 110.962
  282 669.404 -5.70838 3.88594
  283 663.605 -5.48432 -5.26960
  284 617.813 -3.58275 31.4818
  285 568.489 23.7729 17.2421
  286 658.608 -5.89143 -12.2937
  287 693.198 -40.8811 78.7318
  288 288.563 8.40169 -131.030
  289 288.059 7.81798 130.918
  290 737.896 92.3873 42.2841
  291 646.372 -66.1054 -27.3015
  292 629.706 27.4388 54.1586
  293 622.357 -8.05411 -0.0522982
  294 622.397 -8.14114 0.0334031
  295 641.808 -7.27146 24.7538
  296 652.955 -65.0483 28.7276
  297 705.046 137.853 4.84996
  298 921.116 204.600 -224.352
  299 522.074 -29.0229 -23.3447
  300 515.087 -29.1469 24.7535
  301 686.704 -19.7617 42.3587
  302 780.191 166.221 -8.93068
  303 492.241 -49.2904 -74.0103
  304 479.228 -46.6239 78.9350
  305 1207.77 33.8589 21.0087
  306 1239.00 45.7487 -68.5092
  307 639.987 -18.5902 -17.6858
  308 391.596 -2.73611 16.2702
  309 391.575 -2.71651 -16.2463
  310 200.208 138.863 187.922
  311 639.725 -18.3280 17.3981
  312 682.360 29.4682 -58.5704
  313 349.217 -6.49845 -27.9728
  314 349.121 -6.47462 27.8074
  315 632.365 -11.6825 4.93757
  316 632.528 -12.0491 -5.26003
  317 4.93335 -11.2176 -9.13674
  318 5.58497 -11.9660 9.32858
  319 649.823 23.5811 198.307
  320 747.417 153.696 16.7445
  321 630.714 -35.6248 22.9864
  322 210.859 -4.18890 -42.0178
  323 210.892 -4.16720 42.0142
  324 -3.97771 9.97227 -1.15428
  325 -4.32571 10.3285 0.851511
  326 646.571 76.4519 -32.9697
  327 834.806 174.631 1.07218
  328 628.785 -52.8919 -6.33611
  329 19.5312 20.4118 -28.8710
  330 24.6568 28.8881 33.1658
  331 366.546 -25.1260 98.5257
  332 366.338 -24.9251 -98.0073
  333 676.844 -2.51348 -1.23315
  334 676.767 -2.88175 1.36567
  335 569.918 -58.6010 39.8613
  336 589.022 2.43707 33.1572
  337 565.656 9.44573 28.4931
  338 63.6529 52.2208 -43.6436
  339 60.3821 47.4095 42.9916
  340 1053.77 122.809 -19.7633
  341 927.919 223.561 51.8243
  342 584.549 -41.6158 7.62885
  343 426.545 -1.66784 -4.79692
  344 426.517 -1.70579 4.87583
  345 691.926 91.6963 -47.8611
  346 286.286 -10.8130 100.369
  347 286.289 -10.9730 -100.500
  348 756.410 -6.83943 -66.1546
  349 455.493 -9.45143 -18.0682
  350 455.473 -9.08413 17.9961
  351 377.045 -20.1666 -65.2646
  352 376.430 -20.6116 65.4259
  353 302.981 -3.95979 31.3702
  354 302.847 -3.79089 -31.3443
  355 810.743 64.2185 7.69444
  356 554.499 6.35323 -25.7733
  357 578.977 115.436 290.577
  358 894.472 194.389 26.1221
  359 1268.63 109.512 -140.119
  360 517.900 -10.2210 -4.37798
  361 517.881 -9.84593 4.29501
  362 564.673 -37.3276 -13.5167
  363 1256.88 150.603 149.848
  364 570.339 -14.4769 -1.65932
  365 569.981 -14.8294 2.12402
  366 610.926 -36.4340 -6.94743
  367 534.680 -18.0012 -9.97997
  368 529.597 -16.9793 9.99394
  369 244.395 229.453 -240.418
  370 430.657 -14.1186 -31.3052
  371 430.558 -14.2260 31.1209
  372 528.781 17.0669 -0.598590
  373 1206.99 310.720 -208.253
  374 268.040 -2.94344 -43.7296
  375 268.064 -2.85056 43.8006
  376 473.219 -35.5712 -50.1254
  377 465.554 -32.4877 50.9459
  378 636.040 45.3725 -49.7463
  379 591.826 -51.7607 -11.5660
  380 52.1832 112.205 -91.4727
  381 447.732 -33.9564 -131.815
  382 465.786 -37.9169 130.348
  383 31.2910 5.20511 -22.1510
  384 31.2522 5.36371 22.2272
  385 556.492 -32.9631 13.8967
  386 400.413 -3.27725 -10.3264
  387 400.369 -3.26910 10.3153
  388 1235.33 42.8827 63.0321
  389 556.135 -11.2620 -0.732901
  390 556.263 -11.1693 0.629865
  391 611.227 -36.2240 7.35591
  392 1299.22 364.938 257.578
  393 639.609 -22.1878 -25.4205
  394 1079.80 149.932 73.1944
  395 707.763 -44.0570 -61.0574
  396 630.847 77.4776 -3.61630
  397 564.233 -29.9850 -151.212
  398 663.080 -10.6172 -154.212
  399 92.1088 34.9625 -56.7130
  400 92.7516 36.5395 56.6399
  401 634.382 -40.3702 -23.9934
  402 416.796 -15.9402 44.2528
  403 416.641 -16.6516 -44.7518
  404 659.896 -3.89917 14.9625
  405 554.654 -27.9623 -11.4223
  406 673.052 -4.92598 6.23404
  407 676.781 8.48469 59.4563
  408 719.693 -23.9565 13.9932
  409 341.031 -13.9510 75.8337
  410 341.093 -14.3353 -75.9547
  411 215.400 122.910 -182.772
  412 636.046 12.7085 58.8831
  413 644.592 -48.3033 23.4872
  414 551.434 -58.8533 85.5628
  415 1026.09 209.971 -106.597
  416 642.089 -31.9501 -39.3721
  417 711.282 -17.2885 -29.9706
  418 586.198 -25.7756 -2.49309
  419 592.087 -24.6197 -0.297414
  420 554.218 -62.8862 -85.9713
  421 644.528 1.48568 -59.8008
  422 552.664 -60.1169 -54.1428
  423 463.243 -4.30319 -3.94833
  424 463.233 -4.34520 3.88281
  425 679.675 102.929 -35.6228
  426 660.862 -3.89987 -14.7242
  427 772.731 130.549 -31.5082
  428 651.713 -62.1528 -78.0948
  429 678.479 -5.46368 -5.94270
  430 601.050 -69.7117 59.2407
  431 884.582 182.514 -23.5571
  432 489.100 -16.1183 18.8861
  433 490.326 -17.2034 -19.1021
  434 649.916 -5.45830 -0.0189442
  435 649.732 -5.53118 -0.0240953
  436 638.122 -23.5600 25.8697
  437 481.613 -23.5523 32.6937
  438 481.967 -23.0617 -32.7222
  439 611.968 53.6129 22.2975
  440 601.847 -68.1895 -59.4685
  441 719.367 117.567 37.4089
  442 641.603 -14.4725 33.2132
  443 788.438 77.4962 -221.956
  444 464.829 -6.67571 -8.83163
  445 464.664 -6.78673 8.82127
  446 748.456 146.783 -26.0086
  447 618.318 -10.5559 -1.98166
  448 618.181 -10.1139 2.05554
  449 612.922 14.0330 -50.1908
  450 698.192 63.1221 -57.8953
  451 426.073 -0.472279 -1.19500
  452 426.122 -0.497449 1.20664
  453 641.424 -17.5911 -31.9041
  454 531.980 -27.8618 164.118
  455 661.198 399.024 -384.785
  456 678.036 96.8382 39.5995
  457 210.241 55.3828 -134.766
  458 205.553 57.6236 132.863
  459 359.813 53.7499 -196.215
  460 362.150 57.8252 196.411
  461 121.959 231.986 197.855
  462 547.472 -50.0480 37.4079
  463 948.567 217.470 67.9868
  464 111.585 85.6373 -100.199
  465 95.4111 78.0135 81.8701
  466 362.910 -1.78316 15.3222
  467 363.070 -1.90926 -15.3268
  468 822.453 176.842 -3.44716
  469 47.6230 31.9215 29.8098
  470 47.5706 32.1498 -30.6754
  471 755.456 72.0668 -39.6130
  472 3.56340 5.76283 -10.5477
  473 3.47758 5.96549 10.2943
  474 633.811 -9.04834 -52.0884
  475 8.98955 -19.6274 -1.95253
  476 8.36895 -16.5552 1.72648
  477 683.421 -4.60401 2.26652
  478 682.396 -2.90285 -2.47524
  479 470.072 -47.3901 95.1170
  480 471.449 -48.2297 -95.1310
  481 895.631 118.718 96.0528
  482 717.044 139.606 -15.0354
  483 667.987 -19.2311 52.0518
  484 846.655 136.143 0.740817
  485 785.964 33.1803 -0.241633
  486 795.215 175.176 7.66068
  487 668.153 107.706 14.1136
  488 371.935 133.962 -264.007
  489 653.146 -32.2582 43.6778
  490 791.236 142.129 22.6588
  491 718.550 -21.2030 105.864
  492 630.817 -44.8971 17.4470
  493 515.097 -12.2345 -7.24069
  494 514.093 -12.3147 6.99010
  495 684.701 59.7214 56.4144
  496 1065.65 212.037 119.946
  497 642.351 -27.8091 40.1772
  498 711.425 -7.25489 37.6842
  499 1167.60 76.0604 62.9615
  500 311.700 -4.17629 121.860
  501 384.125 -10.0190 139.052
  502 311.508 -4.27826 -121.687
  503 381.138 -11.1744 -140.185
  504 993.242 272.669 -105.188
  505 588.242 -42.5519 -7.28217
  506 625.574 -36.9953 -17.9143
  507 -6.11462 -5.80582 -9.91848
  508 -6.30576 -5.90726 10.2408
  509 1000.83 291.393 276.025
  510 495.802 -7.09923 -3.52490
  511 495.697 -6.95945 3.45868
  512 536.961 -47.3511 -42.3724
  513 546.220 -54.9219 105.891
  514 674.829 -41.1324 27.4591
  515 655.067 28.0788 -60.2404
  516 589.169 1.93312 -31.7536
  517 -17.0860 0.783465 12.1307
  518 -16.4851 0.580655 -11.9519
  519 662.253 -61.6802 65.0833
  520 430.182 -35.8076 113.219
  521 408.267 0.470796 2.86528
  522 408.300 0.461478 -2.79954
  523 177.099 15.8031 -91.5417
  524 177.582 15.2990 91.6592
  525 429.457 -34.6853 -112.368
  526 776.243 44.1566 -19.0750
  527 348.783 -10.5776 -47.8837
  528 348.725 -11.0361 47.8982
  529 -0.644281 -16.8694 -12.5891
  530 -0.594396 -17.4521 12.9580
</Section>

newXOutput 37

<Section columns = "stress_xx | stress_yy | stress_xy">
  1 709.516 0.255923 2.07167
  2 709.607 0.265446 -2.09967
  3 427.036 -0.0964064 -0.770883
  4 -5.60853 -5.51184 -6.00012
  5 1173.60 532.685 417.816
  6 1187.86 543.460 -401.588
  7 -5.79659 -5.68389 6.21484
  8 426.957 -0.0875630 0.776803
  9 718.762 -3.70504 1.45587
  10 715.688 -4.36267 0.893429
  11 705.618 -3.10032 5.49928
  12 694.161 -2.79256 9.31258
  13 678.522 -3.57393 12.3067
  14 645.603 -2.98621 18.2204
  15 606.042 -0.0907670 21.6929
  16 563.393 3.17172 21.3606
  17 538.327 9.12728 13.4330
  18 503.018 14.2446 -0.252168
  19 537.021 9.72864 -15.1340
  20 567.915 2.68373 -23.4204
  21 602.651 0.619736 -21.8535
  22 646.563 -3.30191 -19.7565
  23 678.969 -4.45526 -13.2048
  24 694.342 -5.07594 -9.48028
  25 714.773 -5.31911 -3.91870
  26 710.540 -2.83718 -1.73224
  27 718.363 -3.21953 -1.24937
  28 683.442 -3.55343 -2.50273
  29 650.034 -8.16111 -1.67841
  30 606.323 -9.83767 -0.523074
  31 571.365 -9.42700 -1.68434
  32 537.474 -8.96066 1.16750
  33 491.336 -4.36428 1.11435
  34 455.402 -1.82660 -0.502754
  35 422.079 0.145307 2.03763
  36 412.783 2.45992 1.53877
  37 407.457 0.0589803 4.97051
  38 395.707 0.102108 7.46376
  39 370.777 0.142586 8.47493
  40 348.736 -0.771589 13.8533
  41 309.554 -0.659024 16.5862
  42 266.032 -0.356744 21.1298
  43 208.760 -2.12929 25.4535
  44 163.116 0.303435 35.6816
  45 97.5757 5.79151 30.5242
  46 21.5019 10.9286 20.5763
  47 -22.5107 8.97119 8.88172
  48 -39.0553 7.79907 1.37783
  49 -33.7146 5.46822 -9.73828
  50 -19.4021 -0.988141 -8.16239
  51 -1.61487 -18.9474 -8.61267
  52 2.43363 -36.6911 -12.4150
  53 5.45052 -54.8174 -5.42755
  54 12.8660 -53.4387 2.10738
  55 26.4871 -2.45095 30.5733
  56 67.8808 141.402 110.608
  57 268.799 427.632 326.845
  58 1586.26 212.087 247.625
  59 1350.77 56.3104 84.0153
  60 1277.92 25.7275 28.3370
  61 1248.28 17.8343 -3.49917
  62 1276.04 26.6192 -31.3415
  63 1371.73 63.4785 -97.3899
  64 1547.13 241.941 -264.970
  65 311.660 476.977 -343.625
  66 73.0233 123.334 -95.1320
  67 26.6084 -4.69203 -30.4707
  68 10.6770 -54.9672 -2.59773
  69 5.87234 -55.9664 4.60203
  70 2.73555 -37.7614 12.5710
  71 -1.62859 -19.6087 8.87079
  72 -19.9986 -0.926157 8.32456
  73 -34.4455 5.66770 9.69968
  74 -39.2601 7.82398 -1.66617
  75 -22.2882 8.82611 -8.97506
  76 21.6262 10.8845 -20.4890
  77 97.4687 5.83859 -30.4904
  78 163.055 0.307094 -35.6703
  79 208.670 -2.15812 -25.4046
  80 265.804 -0.302942 -21.0748
  81 309.332 -0.567673 -16.6828
  82 348.862 -0.819273 -13.9794
  83 370.960 0.0821749 -8.47960
  84 395.813 0.104477 -7.43500
  85 407.522 0.0340000 -4.93534
  86 412.788 2.47772 -1.48962
  87 422.019 0.161100 -2.02200
  88 455.396 -1.82446 0.486597
  89 491.407 -4.46890 -1.14997
  90 537.522 -9.14168 -1.16950
  91 571.508 -9.52240 1.66263
  92 606.394 -9.78976 0.543185
  93 649.942 -8.15761 1.67369
  94 683.173 -3.56139 2.52529
  95 623.116 -67.5568 -34.6182
  96 630.988 -66.9932 28.6908
  97 687.456 113.958 -13.7863
  98 456.781 -14.4683 -156.850
  99 450.786 -12.7965 157.565
  100 783.865 157.222 26.7808
  101 833.391 176.374 -7.52559
  102 534.219 -22.8937 -17.5625
  103 539.371 -22.4469 15.3319
  104 683.313 -1.04657 -58.9394
  105 754.371 -17.0001 -13.0942
  106 670.643 -5.15350 59.4998
  107 775.857 -5.83274 28.3149
  108 132.968 66.9402 93.2860
  109 131.355 63.7953 -96.4138
  110 643.046 -28.4013 16.4777
  111 645.109 -29.4405 -18.8410
  112 930.262 178.633 -5.58127
  113 427.100 -32.3165 -86.0750
  114 427.574 -32.1449 86.4412
  115 468.042 -26.3169 44.1470
  116 468.590 -25.8080 -43.9260
  117 387.092 78.4684 -236.066
  118 406.573 81.7879 238.200
  119 945.083 223.220 -48.9246
  120 1004.18 202.406 67.1302
  121 661.721 59.3912 46.4519
  122 613.735 -17.5071 0.107900
  123 614.477 -18.8308 -0.121578
  124 617.634 23.4358 -41.9202
  125 232.715 5.83547 -100.979
  126 233.008 5.49416 100.571
  127 654.401 -17.0443 -43.4974
  128 725.614 24.6562 52.4808
  129 472.006 -7.72090 13.3850
  130 472.123 -7.82043 -13.1954
  131 572.635 -45.9177 -25.2420
  132 569.020 -43.9489 25.6723
  133 619.821 -67.9668 77.1925
  134 734.920 32.3372 -50.5440
  135 657.947 -42.5560 30.3511
  136 780.349 165.421 -0.995607
  137 642.011 -68.6684 -71.2470
  138 896.550 139.928 40.9756
  139 832.579 53.2882 -135.211
  140 601.024 40.7572 -1.47878
  141 652.564 -15.3796 43.4060
  142 663.565 -42.4373 -31.9042
  143 1147.43 93.1514 29.0010
  144 701.154 -43.8582 -18.5630
  145 1165.89 131.679 -94.8702
  146 702.801 -43.0004 14.3682
  147 624.888 13.1700 49.8948
  148 21.3194 22.6413 5.00986
  149 22.3069 24.0496 -4.69104
  150 666.171 -12.4528 9.62376
  151 665.604 -11.5314 -9.21921
  152 517.324 -49.8926 -60.8389
  153 526.914 -48.6888 57.7602
  154 279.199 -9.65201 -78.7674
  155 279.213 -9.58859 78.6733
  156 557.774 -14.7194 -4.55775
  157 557.496 -13.8160 4.78164
  158 81.6506 101.537 -101.217
  159 104.938 101.458 105.976
  160 685.413 63.0479 -53.5084
  161 396.319 -16.4754 -53.4308
  162 395.795 -17.2439 53.1094
  163 830.467 97.3626 219.441
  164 644.173 -27.2094 157.888
  165 602.487 -32.9340 -2.28104
  166 601.444 -31.4889 2.21433
  167 665.593 -6.49388 2.74879
  168 664.983 -6.38985 -2.94618
  169 665.355 -51.3894 -113.558
  170 438.424 -8.82473 -21.7880
  171 438.455 -8.83162 21.6530
  172 635.364 2.37753 -52.0493
  173 818.702 105.822 17.8190
  174 819.702 100.455 -21.3872
  175 716.724 131.248 24.1487
  176 1104.33 299.959 145.479
  177 499.378 -55.3033 111.967
  178 663.123 172.885 -329.979
  179 504.314 -50.7872 -114.930
  180 664.383 -13.0603 -23.4205
  181 664.046 -12.5869 23.8831
  182 630.778 -47.2704 -4.92145
  183 96.8334 22.1848 -57.3627
  184 97.0961 22.7004 57.4765
  185 324.764 33.5787 -168.141
  186 318.780 35.5361 166.432
  187 730.439 124.149 -35.3470
  188 628.052 -45.5901 4.76397
  189 383.667 -18.4636 -126.369
  190 384.532 -17.6399 127.262
  191 334.673 -10.0467 -56.8565
  192 334.498 -10.2645 57.0995
  193 954.793 196.372 -85.4322
  194 324.027 210.283 276.820
  195 882.974 185.292 7.62775
  196 506.445 -7.63671 -5.88027
  197 506.105 -7.83952 5.85970
  198 560.827 -63.4015 68.2308
  199 180.560 173.098 -187.643
  200 564.981 -65.2523 -70.6664
  201 398.022 -7.32269 28.4048
  202 397.968 -7.61252 -28.2921
  203 685.318 -39.6338 35.6814
  204 1202.20 129.599 106.474
  205 483.762 -17.0347 -27.0801
  206 483.071 -17.0806 26.6673
  207 720.745 97.7774 49.5395
  208 455.102 -2.25586 -4.90499
  209 455.152 -2.32851 4.93147
  210 868.841 187.730 -7.61070
  211 627.052 50.1234 -28.3389
  212 1160.53 237.358 -160.739
  213 661.175 86.9808 23.1710
  214 853.211 173.242 -4.11667
  215 655.630 -25.0466 35.8010
  216 579.688 -19.3261 -4.02449
  217 578.443 -22.4983 5.75087
  218 46.3358 23.4398 28.3189
  219 46.4983 22.9245 -28.8306
  220 582.504 20.8911 -18.5519
  221 631.451 -23.7741 6.37469
  222 633.001 -23.4458 -6.82194
  223 38.1534 37.9946 -29.0785
  224 34.3220 40.7631 30.7936
  225 609.920 -11.2478 0.165975
  226 609.884 -11.1065 0.0859361
  227 194.179 -0.205240 -60.5487
  228 194.303 -0.220318 60.4833
  229 496.618 17.8748 -198.171
  230 619.009 33.1331 39.8951
  231 652.318 -30.3184 -30.5981
  232 665.002 -21.4127 -51.7326
  233 601.157 -51.0666 124.319
  234 720.272 -42.9539 15.1712
  235 746.256 102.649 -47.7074
  236 636.936 -3.55167 -35.6795
  237 643.047 -2.59931 52.5567
  238 672.029 27.5213 60.6351
  239 1015.85 242.469 142.836
  240 1212.77 47.1799 -24.1866
  241 646.986 21.0680 -58.5889
  242 659.704 -19.0140 52.2258
  243 448.325 -33.1711 -66.1872
  244 444.240 -33.0912 66.0915
  245 856.076 86.1128 -30.8614
  246 767.534 27.7665 31.5992
  247 -1.57312 -0.143200 -13.3173
  248 -1.56450 0.211327 13.7242
  249 192.930 37.7466 -111.537
  250 193.021 38.6719 111.315
  251 605.960 5.95279 -38.3942
  252 637.448 -56.6652 -1.26273
  253 242.739 78.5117 -172.467
  254 221.089 90.7719 163.742
  255 114.598 6.70163 -50.8749
  256 114.891 6.59113 50.9401
  257 510.566 -14.0491 -12.4844
  258 510.463 -13.9118 12.5275
  259 684.260 -32.5350 -40.5592
  260 575.369 -52.8773 -119.884
  261 757.704 9.65783 -23.5910
  262 605.679 -55.6082 17.9247
  263 623.676 55.8615 -244.930
  264 594.856 -58.5247 -29.2312
  265 520.925 -35.8494 -38.6418
  266 521.850 -37.5930 40.3934
  267 1002.54 182.543 -53.6964
  268 834.753 178.466 1.54805
  269 829.660 34.1250 92.7627
  270 659.746 -8.32296 -25.5966
  271 435.483 -4.22772 10.9198
  272 435.521 -4.32808 -10.8905
  273 669.925 -56.5496 -10.0657
  274 706.372 -52.1166 -30.8803
  275 1002.27 165.431 28.2982
  276 489.512 13.3546 196.413
  277 671.108 -55.9220 9.00962
  278 674.829 -6.93609 12.7742
  279 709.847 -8.75851 -48.8981
  280 592.477 304.280 351.224
  281 80.8242 121.242 114.312
  282 686.725 -5.88225 3.91028
  283 680.812 -5.65923 -5.31854
  284 634.362 -3.67862 32.1213
  285 584.089 24.4476 17.6209
  286 675.805 -6.07195 -12.4753
  287 711.029 -41.9092 81.2136
  288 296.593 8.57333 -134.760
  289 296.076 7.97509 134.644
  290 757.258 94.8402 42.9127
  291 663.253 -67.8567 -28.4061
  292 646.592 28.1933 55.2924
  293 638.681 -8.30239 -0.0971762
  294 638.722 -8.39153 0.0785121
  295 658.782 -7.47126 25.2223
  296 669.979 -66.7680 29.8747
  297 723.831 141.452 4.93902
  298 943.688 210.714 -230.760
  299 536.180 -29.7675 -24.1122
  300 529.035 -29.8922 25.5518
  301 704.687 -20.2910 42.9926
  302 800.741 170.497 -8.97899
  303 505.497 -50.5965 -76.1468
  304 492.180 -47.8607 81.1849
  305 1237.13 34.7009 21.4856
  306 1269.02 46.8628 -70.0544
  307 656.790 -19.1064 -17.9243
  308 402.786 -2.79788 16.7221
  309 402.765 -2.77785 -16.6979
  310 205.728 142.750 193.288
  311 656.522 -18.8362 17.6313
  312 700.371 30.2494 -59.6706
  313 359.271 -6.65890 -28.7412
  314 359.173 -6.63454 28.5718
  315 648.929 -12.0231 4.94022
  316 649.096 -12.3978 -5.26910
  317 5.10359 -11.3997 -9.28748
  318 5.77170 -12.1716 9.48776
  319 666.381 24.3732 203.817
  320 767.190 157.679 16.9905
  321 647.342 -36.5786 23.2642
  322 217.225 -4.30695 -43.1947
  323 217.260 -4.28470 43.1903
  324 -3.93645 10.2719 -1.08390
  325 -4.29728 10.6380 0.774488
  326 663.913 78.4973 -33.6484
  327 856.478 179.248 0.557394
  328 645.333 -54.2921 -6.14193
  329 20.1253 21.3937 -29.8960
  330 25.4009 30.1110 34.3218
  331 376.703 -25.8177 101.292
  332 376.492 -25.6108 -100.761
  333 694.262 -2.60856 -1.24061
  334 694.183 -2.98585 1.37505
  335 585.039 -60.1389 41.1669
  336 605.019 2.51084 33.8607
  337 581.187 9.72255 29.1159
  338 65.5852 53.7461 -45.1004
  339 62.2302 48.8036 44.4370
  340 1080.23 125.865 -20.2707
  341 951.658 229.423 53.6730
  342 600.071 -42.7080 8.08095
  343 438.660 -1.70116 -4.94509
  344 438.630 -1.73996 5.02557
  345 710.291 94.1145 -48.7633
  346 294.386 -11.1386 103.200
  347 294.389 -11.3036 -103.336
  348 775.725 -6.88106 -68.3970
  349 468.158 -9.67768 -18.6112
  350 468.138 -9.30095 18.5368
  351 387.609 -20.6942 -67.0750
  352 386.981 -21.1503 67.2395
  353 311.839 -4.06003 32.2275
  354 311.702 -3.88693 -32.2012
  355 831.507 66.0526 8.54160
  356 569.803 6.55638 -26.3409
  357 593.654 118.748 298.349
  358 917.583 199.406 27.1269
  359 1299.35 112.178 -143.414
  360 531.983 -10.4784 -4.53498
  361 531.963 -10.0943 4.45021
  362 579.743 -38.2972 -14.0828
  363 1287.43 154.318 153.394
  364 585.558 -14.8690 -1.80219
  365 585.192 -15.2298 2.27934
  366 627.065 -37.4002 -6.85718
  367 549.113 -18.4615 -10.3539
  368 543.919 -17.4127 10.3569
  369 250.646 236.337 -246.996
  370 442.683 -14.4717 -32.1956
  371 442.581 -14.5810 32.0054
  372 543.549 17.5498 -0.611980
  373 1236.28 318.807 -213.671
  374 275.927 -3.01951 -44.9401
  375 275.952 -2.92406 45.0121
  376 486.136 -36.4900 -51.5853
  377 478.290 -33.3246 52.4129
  378 653.089 46.5992 -50.7839
  379 607.508 -53.1179 -12.1555
  380 53.6888 115.876 -94.2571
  381 459.761 -34.9062 -135.516
  382 478.249 -38.9670 134.013
  383 32.5487 5.34059 -22.8561
  384 32.5136 5.50303 22.9342
  385 571.386 -33.8167 14.4478
  386 411.872 -3.35335 -10.6185
  387 411.826 -3.34490 10.6068
  388 1265.29 43.9289 64.4640
  389 571.047 -11.5642 -0.797013
  390 571.177 -11.4686 0.692158
  391 627.374 -37.1841 7.27959
  392 1330.14 374.460 264.099
  393 656.447 -22.7965 -25.8151
  394 1106.82 153.688 75.0489
  395 725.972 -45.1715 -63.1030
  396 647.850 79.5612 -3.69431
  397 578.943 -30.7716 -155.483
  398 680.053 -10.7868 -158.614
  399 94.9079 35.9258 -58.4973
  400 95.5725 37.5421 58.4221
  401 651.097 -41.4477 -24.2636
  402 428.437 -16.3410 45.4903
  403 428.279 -17.0711 -46.0037
  404 677.180 -4.01629 15.2262
  405 569.516 -28.6886 -11.8895
  406 690.494 -5.07937 6.30760
  407 694.624 8.70864 60.5661
  408 738.358 -24.5635 13.8434
  409 350.654 -14.3248 77.9388
  410 350.716 -14.7196 -78.0641
  411 221.306 126.347 -187.979
  412 653.022 13.0552 60.0937
  413 661.536 -49.5902 23.7024
  414 566.013 -60.4247 88.0767
  415 1052.04 215.314 -109.470
  416 659.029 -32.8091 -40.0306
  417 729.793 -17.7374 -30.2499
  418 601.766 -26.4573 -2.73531
  419 607.786 -25.2748 -0.123475
  420 568.860 -64.5647 -88.5015
  421 661.651 1.52438 -60.9986
  422 567.375 -61.7000 -55.8014
  423 476.156 -4.39821 -4.06850
  424 476.145 -4.44111 4.00139
  425 697.800 105.641 -36.3199
  426 678.163 -4.01520 -14.9835
  427 792.937 133.990 -31.8281
  428 668.600 -63.7772 -80.5277
  429 696.017 -5.62546 -6.01583
  430 616.839 -71.5613 61.1107
  431 907.279 187.447 -24.8300
  432 502.505 -16.5197 19.4786
  433 503.759 -17.6327 -19.7009
  434 666.804 -5.63971 0.00544949
  435 666.614 -5.71418 -0.0494895
  436 654.925 -24.2058 26.2682
  437 494.787 -24.1479 33.6686
  438 495.151 -23.6460 -33.6995
  439 628.528 55.0787 22.7743
  440 617.656 -70.0025 -61.3428
  441 738.410 120.655 38.0597
  442 658.535 -14.8722 33.8104
  443 808.024 80.0319 -228.109
  444 477.759 -6.82913 -9.09866
  445 477.589 -6.94254 9.08752
  446 768.201 150.607 -26.3610
  447 634.572 -10.8665 -1.94001
  448 634.433 -10.4134 2.01634
  449 629.418 14.4228 -51.2539
  450 716.622 64.7913 -58.9823
  451 438.211 -0.475506 -1.23995
  452 438.260 -0.501249 1.25175
  453 658.345 -18.0751 -32.4634
  454 545.903 -28.6078 168.712
  455 676.893 410.566 -394.568
  456 696.099 99.4009 40.3713
  457 216.181 56.8684 -138.689
  458 211.380 59.1652 136.731
  459 369.499 55.1816 -201.710
  460 371.871 59.3540 201.900
  461 125.229 239.189 203.497
  462 562.104 -51.3527 38.6136
  463 972.583 223.422 70.5103
  464 114.809 88.0838 -103.230
  465 98.2292 80.2560 84.4175
  466 373.382 -1.82320 15.7419
  467 373.546 -1.95255 -15.7466
  468 844.002 181.352 -3.47724
  469 49.1454 32.8372 30.8451
  470 49.0865 33.0729 -31.7315
  471 775.124 73.9982 -40.0871
  472 3.93601 5.91949 -10.9398
  473 3.85269 6.12727 10.6802
  474 650.676 -9.29204 -53.1250
  475 9.26354 -19.8980 -2.14588
  476 8.62946 -16.7326 1.92010
  477 700.983 -4.73881 2.28427
  478 699.939 -3.00287 -2.49640
  479 482.741 -48.6642 97.8165
  480 484.151 -49.5260 -97.8361
  481 918.109 122.265 99.2679
  482 736.102 143.240 -15.2845
  483 685.565 -19.7498 52.9693
  484 868.421 139.847 1.42877
  485 806.152 34.1690 -0.844717
  486 816.106 179.699 7.60428
  487 686.036 110.557 14.3997
  488 381.655 137.756 -271.238
  489 670.353 -33.1232 44.4120
  490 811.901 145.886 22.7509
  491 736.904 -21.6281 109.089
  492 647.432 -46.0903 17.5485
  493 529.110 -12.5423 -7.50248
  494 528.085 -12.6245 7.24559
  495 702.820 61.3063 57.4848
  496 1092.44 217.386 123.079
  497 659.297 -28.5612 40.8655
  498 729.959 -7.44101 38.1544
  499 1196.25 77.9369 64.4412
  500 320.376 -4.34116 125.299
  501 394.569 -10.3424 142.949
  502 320.180 -4.44724 -125.121
  503 391.509 -11.5320 -144.110
  504 1018.45 279.777 -108.332
  505 603.852 -43.6669 -7.72787
  506 642.071 -37.9826 -18.0659
  507 -6.27224 -5.95653 -10.1801
  508 -6.46928 -6.06120 10.5120
  509 1024.95 299.781 283.738
  510 509.412 -7.26915 -3.63597
  511 509.304 -7.12600 3.56831
  512 551.341 -48.5861 -43.6866
  513 560.631 -56.4015 108.942
  514 692.483 -42.2265 27.7224
  515 672.483 28.8265 -61.4475
  516 605.169 1.98859 -32.4241
  517 -17.5115 0.819093 12.4339
  518 -16.8922 0.610960 -12.2492
  519 679.420 -63.3033 67.1741
  520 441.845 -36.7931 116.407
  521 419.979 0.487559 2.95847
  522 420.013 0.477965 -2.89140
  523 182.273 16.1986 -94.2216
  524 182.771 15.6803 94.3398
  525 441.103 -35.6409 -115.535
  526 796.257 45.3928 -18.9658
  527 358.740 -10.8435 -49.1997
  528 358.681 -11.3136 49.2144
  529 -0.644246 -17.2925 -12.9030
  530 -0.593620 -17.8929 13.2834
</Section>

newXOutput 38

<Section columns = "stress_xx | stress_yy | stress_xy">
  1 727.110 0.233579 2.10635
  2 727.204 0.245027 -2.13472
  3 438.958 -0.0895725 -0.781601
  4 -5.76040 -5.66062 -6.16455
  5 1199.57 546.746 427.760
  6 1214.48 557.888 -411.133
  7 -5.95375 -5.83749 6.38521
  8 438.878 -0.0805251 0.787610
  9 736.536 -3.80679 1.47130
  10 733.430 -4.47990 0.883977
  11 723.240 -3.19230 5.57726
  12 711.639 -2.88221 9.46159
  13 695.782 -3.67566 12.5208
  14 662.306 -3.06679 18.5702
  15 622.017 -0.0891118 22.1337
  16 578.539 3.26828 21.8107
  17 552.967 9.38507 13.7272
  18 516.952 14.6065 -0.257476
  19 551.637 9.99702 -15.4659
  20 583.148 2.76847 -23.9101
  21 618.571 0.629788 -22.2930
  22 663.283 -3.39184 -20.1357
  23 696.238 -4.57721 -13.4354
  24 711.824 -5.20984 -9.63453
  25 732.564 -5.45396 -3.96559
  26 728.202 -2.92755 -1.73229
  27 736.132 -3.31088 -1.26069
  28 700.559 -3.67748 -2.54769
  29 666.506 -8.40235 -1.69954
  30 621.912 -10.1130 -0.506908
  31 586.233 -9.67770 -1.71119
  32 551.636 -9.18055 1.21557
  33 504.542 -4.46143 1.15165
  34 467.880 -1.85831 -0.504440
  35 433.889 0.155590 2.09444
  36 424.368 2.51697 1.59496
  37 418.876 0.0664651 5.11434
  38 406.805 0.111489 7.66521
  39 381.247 0.149494 8.70547
  40 358.634 -0.786873 14.2144
  41 318.449 -0.671390 17.0250
  42 273.801 -0.360622 21.6912
  43 215.024 -2.18658 26.1446
  44 168.139 0.306864 36.6538
  45 100.780 5.94138 31.3966
  46 22.5835 11.2156 21.2035
  47 -22.7479 9.21109 9.18560
  48 -39.8952 8.01364 1.47578
  49 -34.5544 5.63170 -9.96293
  50 -19.9121 -1.00324 -8.37142
  51 -1.64695 -19.4487 -8.83537
  52 2.51738 -37.6200 -12.7124
  53 5.61881 -56.0767 -5.49382
  54 13.2497 -54.4434 2.31344
  55 27.2589 -1.74834 31.6397
  56 69.7083 146.481 113.827
  57 275.099 440.062 335.015
  58 1621.62 217.147 252.832
  59 1382.00 57.6346 85.7915
  60 1307.77 26.3478 28.9309
  61 1277.57 18.2697 -3.56935
  62 1305.85 27.2616 -31.9986
  63 1403.29 64.9790 -99.4285
  64 1581.86 247.734 -270.657
  65 318.873 490.640 -352.023
  66 75.0482 127.836 -97.9764
  67 27.3747 -4.03840 -31.5165
  68 10.9937 -56.0282 -2.80441
  69 6.04946 -57.2652 4.65008
  70 2.82671 -38.7224 12.8743
  71 -1.66147 -20.1288 9.10110
  72 -20.5256 -0.939879 8.53845
  73 -35.3076 5.83638 9.92422
  74 -40.1103 8.03938 -1.77114
  75 -22.5253 9.06257 -9.28123
  76 22.7057 11.1707 -21.1144
  77 100.666 5.98974 -31.3626
  78 168.074 0.310630 -36.6430
  79 214.929 -2.21620 -26.0951
  80 273.567 -0.305581 -21.6353
  81 318.220 -0.577758 -17.1239
  82 358.763 -0.835696 -14.3435
  83 381.433 0.0875838 -8.71034
  84 406.914 0.113904 -7.63598
  85 418.944 0.0408301 -5.07857
  86 424.373 2.53515 -1.54486
  87 433.828 0.171755 -2.07852
  88 467.875 -1.85617 0.487900
  89 504.614 -4.56857 -1.18808
  90 551.685 -9.36602 -1.21761
  91 586.379 -9.77567 1.68902
  92 621.984 -10.0643 0.527758
  93 666.411 -8.39854 1.69489
  94 700.285 -3.68571 2.57030
  95 639.027 -69.2909 -35.8277
  96 647.078 -68.7104 29.7565
  97 705.312 116.876 -14.0497
  98 468.612 -14.8897 -161.122
  99 462.483 -13.1711 161.859
  100 803.872 161.189 27.0772
  101 854.517 180.813 -7.34477
  102 548.273 -23.4602 -18.1345
  103 553.535 -23.0043 15.8522
  104 700.812 -1.08160 -59.9999
  105 773.242 -17.3714 -13.9686
  106 687.869 -5.28791 60.6088
  107 795.146 -5.88289 29.5971
  108 136.746 68.7414 96.0324
  109 135.082 65.5170 -99.2427
  110 659.481 -29.1471 16.6269
  111 661.599 -30.2113 -19.0355
  112 953.548 182.995 -5.75969
  113 438.496 -33.1541 -88.4188
  114 438.982 -32.9772 88.7905
  115 480.567 -26.9648 45.3792
  116 481.127 -26.4449 -45.1562
  117 397.071 80.5572 -242.405
  118 416.980 83.9963 244.587
  119 968.626 228.835 -50.5704
  120 1028.99 207.396 69.0131
  121 678.916 60.9419 47.3723
  122 629.492 -17.9710 -0.0235585
  123 630.251 -19.3264 0.0118554
  124 633.867 24.0765 -42.7866
  125 239.231 5.94991 -103.794
  126 239.533 5.60055 103.375
  127 671.218 -17.4955 -44.2789
  128 744.060 25.2950 53.3069
  129 484.764 -7.89559 13.7809
  130 484.884 -7.99799 -13.5881
  131 587.468 -47.0774 -26.1117
  132 583.781 -45.0548 26.5428
  133 635.553 -69.7181 79.4969
  134 753.581 33.1792 -51.3161
  135 674.753 -43.6599 30.7352
  136 800.367 169.554 -1.01136
  137 658.254 -70.4350 -73.4142
  138 918.660 143.741 42.7351
  139 852.848 55.0028 -139.174
  140 616.947 41.8635 -1.51065
  141 669.355 -15.7847 44.1967
  142 680.502 -43.5388 -32.3055
  143 1174.95 95.3941 29.6774
  144 718.889 -44.9864 -18.5608
  145 1193.81 134.844 -97.1231
  146 720.570 -44.1009 14.2521
  147 641.244 13.5335 50.9129
  148 22.0205 23.3406 5.32551
  149 23.0319 24.7860 -4.99471
  150 683.040 -12.8007 9.71109
  151 682.462 -11.8591 -9.29940
  152 530.861 -51.1600 -62.5727
  153 540.671 -49.9236 59.4232
  154 287.031 -9.91712 -80.9123
  155 287.047 -9.85212 80.8148
  156 572.352 -15.0895 -4.76170
  157 572.068 -14.1638 4.99094
  158 83.9617 104.501 -104.231
  159 107.892 104.381 109.121
  160 703.112 64.6773 -54.5282
  161 407.148 -16.8834 -54.8626
  162 406.612 -17.6713 54.5337
  163 850.414 100.425 225.431
  164 660.248 -27.8634 162.238
  165 618.010 -33.7744 -2.56458
  166 616.945 -32.2960 2.48706
  167 682.387 -6.69909 2.74884
  168 681.767 -6.59287 -2.94994
  169 682.019 -52.6560 -116.831
  170 450.414 -9.02794 -22.3910
  171 450.444 -9.03474 22.2524
  172 651.898 2.45066 -53.0913
  173 839.251 108.617 17.6605
  174 840.265 103.109 -21.3027
  175 735.243 134.586 24.5782
  176 1131.09 307.502 149.433
  177 512.336 -56.7561 115.063
  178 679.098 177.822 -338.460
  179 517.382 -52.1256 -118.102
  180 681.323 -13.4161 -23.7971
  181 680.979 -12.9330 24.2696
  182 646.932 -48.4822 -4.72706
  183 99.7602 22.7644 -59.0687
  184 100.034 23.2919 59.1846
  185 333.373 34.4118 -172.763
  186 327.243 36.4175 171.008
  187 749.237 127.309 -35.9445
  188 644.143 -46.7579 4.57244
  189 393.891 -18.9885 -129.810
  190 394.776 -18.1437 130.725
  191 343.996 -10.2995 -58.3810
  192 343.817 -10.5224 58.6290
  193 978.150 201.699 -88.3455
  194 332.243 216.025 284.158
  195 905.253 189.869 7.99845
  196 519.951 -7.81590 -6.07754
  197 519.603 -8.02335 6.05650
  198 575.296 -65.0308 70.2251
  199 185.394 177.960 -192.872
  200 579.535 -66.9320 -72.7309
  201 409.024 -7.49391 29.1697
  202 408.969 -7.79093 -29.0548
  203 702.750 -40.6603 36.1401
  204 1230.83 132.706 108.953
  205 496.704 -17.4452 -27.8648
  206 495.997 -17.4913 27.4413
  207 739.253 100.285 50.3986
  208 467.558 -2.29704 -5.05264
  209 467.608 -2.37135 5.07950
  210 890.774 192.424 -8.12329
  211 643.516 51.4576 -28.9245
  212 1188.49 243.181 -164.704
  213 678.410 89.2357 23.6250
  214 874.670 177.679 -3.66395
  215 672.417 -25.7102 36.3819
  216 594.724 -19.8237 -4.26582
  217 593.451 -23.0713 6.04528
  218 47.8374 24.0800 29.2563
  219 47.9994 23.5523 -29.7802
  220 598.034 21.4750 -18.9466
  221 647.600 -24.4007 6.33171
  222 649.187 -24.0640 -6.78689
  223 39.2819 39.2099 -30.1065
  224 35.3510 42.0519 31.8738
  225 625.590 -11.5576 0.244179
  226 625.553 -11.4131 0.0141766
  227 199.843 -0.228983 -62.2252
  228 199.972 -0.244310 62.1572
  229 509.258 18.3479 -203.515
  230 635.285 34.0244 40.7206
  231 669.011 -31.1161 -31.0452
  232 682.059 -21.9719 -52.6462
  233 616.365 -52.3890 127.795
  234 738.366 -44.0323 16.0418
  235 765.313 105.271 -48.4677
  236 653.475 -3.64858 -36.3735
  237 659.714 -2.66425 53.5815
  238 689.364 28.2377 61.8053
  239 1040.33 249.056 147.192
  240 1241.46 48.3114 -24.7317
  241 663.790 21.6244 -59.7603
  242 676.654 -19.5133 53.1724
  243 460.299 -34.0117 -68.0025
  244 456.123 -33.9298 67.9029
  245 877.225 88.5325 -32.3132
  246 786.840 28.5196 31.8364
  247 -1.54626 -0.0894683 -13.5959
  248 -1.53937 0.273537 14.0158
  249 198.299 38.7097 -114.714
  250 198.396 39.6569 114.483
  251 621.936 6.13053 -39.1897
  252 653.735 -58.1169 -1.64626
  253 249.263 80.5889 -177.259
  254 227.063 93.1768 168.313
  255 118.104 6.86244 -52.3444
  256 118.407 6.74890 52.4102
  257 524.140 -14.3863 -12.8815
  258 524.035 -14.2444 12.9232
  259 701.685 -33.3812 -41.1398
  260 590.018 -54.2529 -123.238
  261 776.752 9.93941 -23.6243
  262 621.239 -57.0236 18.6691
  263 639.073 57.4896 -251.425
  264 610.162 -60.0156 -30.2522
  265 534.614 -36.7432 -39.7884
  266 535.549 -38.5324 41.5867
  267 1027.31 187.005 -55.1680
  268 855.987 182.894 1.46353
  269 849.987 35.2799 95.6969
  270 676.662 -8.54603 -26.0567
  271 447.468 -4.31742 11.2285
  272 447.507 -4.42032 -11.1989
  273 686.949 -58.0066 -9.90200
  274 724.118 -53.4348 -32.1223
  275 1027.03 169.455 29.0910
  276 501.990 13.7077 201.714
  277 688.156 -57.3605 8.81687
  278 691.926 -7.13854 12.9538
  279 727.877 -8.98684 -49.6542
  280 606.350 312.861 360.124
  281 83.0744 125.031 117.668
  282 703.956 -6.05645 3.93095
  283 697.930 -5.83477 -5.36314
  284 650.852 -3.77411 32.7486
  285 599.652 25.1220 17.9942
  286 692.920 -6.25291 -12.6495
  287 728.759 -42.9301 83.7049
  288 304.610 8.74154 -138.489
  289 304.079 8.12890 138.369
  290 776.531 97.2842 43.5144
  291 680.052 -69.6010 -29.5249
  292 663.418 28.9464 56.4066
  293 654.930 -8.55118 -0.143851
  294 654.973 -8.64241 0.125451
  295 675.683 -7.67060 25.6800
  296 686.921 -68.4806 31.0361
  297 742.544 145.035 5.02578
  298 966.079 216.840 -237.162
  299 550.242 -30.5077 -24.8836
  300 542.941 -30.6331 26.3533
  301 722.587 -20.8179 43.5998
  302 821.199 174.749 -9.01791
  303 518.710 -51.8974 -78.2830
  304 505.092 -49.0925 83.4332
  305 1266.25 35.5369 21.9570
  306 1298.79 47.9677 -71.5804
  307 673.518 -19.6216 -18.1510
  308 413.971 -2.85883 17.1730
  309 413.949 -2.83838 -17.1486
  310 211.235 146.633 198.652
  311 673.243 -19.3434 17.8530
  312 718.304 31.0280 -60.7440
  313 369.325 -6.81806 -29.5076
  314 369.224 -6.79318 29.3342
  315 665.415 -12.3638 4.93696
  316 665.588 -12.7463 -5.27213
  317 5.27533 -11.5746 -9.43256
  318 5.95983 -12.3700 9.64142
  319 682.838 25.1714 209.318
  320 786.880 161.643 17.2259
  321 663.899 -37.5289 23.5250
  322 223.605 -4.42485 -44.3700
  323 223.643 -4.40207 44.3645
  324 -3.88727 10.5722 -1.00824
  325 -4.26108 10.9482 0.692299
  326 681.194 80.5357 -34.3146
  327 878.038 183.847 0.0186623
  328 661.808 -55.6865 -5.93105
  329 20.7210 22.3955 -30.9306
  330 26.1467 31.3538 35.4877
  331 386.841 -26.5080 104.054
  332 386.627 -26.2950 -103.511
  333 711.584 -2.70455 -1.24690
  334 711.504 -3.09078 1.38318
  335 600.099 -61.6700 42.4790
  336 620.968 2.58485 34.5526
  337 596.680 9.99969 29.7294
  338 67.5227 55.2728 -46.5673
  339 64.0840 50.1994 45.8930
  340 1106.50 128.900 -20.7751
  341 975.255 235.260 55.5359
  342 615.531 -43.7953 8.54306
  343 450.765 -1.73378 -5.09358
  344 450.734 -1.77342 5.17560
  345 728.582 96.5229 -49.6435
  346 302.481 -11.4650 106.029
  347 302.483 -11.6349 -106.169
  348 794.924 -6.91463 -70.6543
  349 480.801 -9.90177 -19.1548
  350 480.779 -9.51565 19.0780
  351 398.158 -21.2193 -68.8818
  352 397.517 -21.6865 69.0494
  353 320.704 -4.15959 33.0824
  354 320.563 -3.98230 -33.0557
  355 852.149 67.8873 9.41660
  356 585.074 6.76056 -26.9003
  357 608.236 122.060 306.092
  358 940.567 204.397 28.1420
  359 1329.80 114.822 -146.675
  360 546.026 -10.7340 -4.69320
  361 546.005 -10.3409 4.60665
  362 594.757 -39.2618 -14.6563
  363 1317.72 158.004 156.905
  364 600.720 -15.2597 -1.94905
  365 600.346 -15.6289 2.43859
  366 643.135 -38.3624 -6.75429
  367 563.499 -18.9189 -10.7314
  368 558.196 -17.8434 10.7230
  369 256.859 243.234 -253.555
  370 454.690 -14.8222 -33.0850
  371 454.585 -14.9335 32.8889
  372 558.294 18.0324 -0.625188
  373 1265.31 326.854 -219.060
  374 283.821 -3.09512 -46.1481
  375 283.848 -2.99710 46.2209
  376 499.020 -37.4038 -53.0454
  377 490.993 -34.1567 53.8793
  378 670.077 47.8226 -51.8033
  379 623.126 -54.4688 -12.7561
  380 55.1942 119.568 -97.0482
  381 471.749 -35.8549 -139.213
  382 490.666 -40.0153 137.674
  383 33.8246 5.47541 -23.5646
  384 33.7935 5.64165 23.6446
  385 586.225 -34.6658 15.0053
  386 423.325 -3.42860 -10.9102
  387 423.278 -3.41985 10.8979
  388 1295.00 44.9667 65.8790
  389 585.906 -11.8652 -0.862915
  390 586.040 -11.7667 0.756292
  391 643.453 -38.1402 7.19075
  392 1360.76 383.936 270.575
  393 673.210 -23.4038 -26.1948
  394 1133.65 157.418 76.8909
  395 744.079 -46.2785 -65.1613
  396 664.797 81.6382 -3.77109
  397 593.580 -31.5545 -159.751
  398 696.926 -10.9497 -163.014
  399 97.7147 36.8870 -60.2894
  400 98.4012 38.5425 60.2121
  401 667.739 -42.5211 -24.5151
  402 440.061 -16.7390 46.7256
  403 439.899 -17.4879 -47.2533
  404 694.383 -4.13361 15.4827
  405 584.326 -29.4111 -12.3624
  406 707.847 -5.23322 6.37666
  407 712.390 8.93212 61.6484
  408 756.926 -25.1661 13.6687
  409 360.268 -14.6973 80.0397
  410 360.330 -15.1027 -80.1694
  411 227.197 129.780 -193.183
  412 669.933 13.4012 61.2821
  413 678.404 -50.8722 23.8968
  414 580.531 -61.9904 90.5925
  415 1077.82 220.625 -112.332
  416 675.896 -33.6653 -40.6678
  417 748.211 -18.1835 -30.5027
  418 617.273 -27.1360 -2.98474
  419 623.421 -25.9272 0.0582349
  420 583.440 -66.2372 -91.0339
  421 678.706 1.56316 -62.1725
  422 582.028 -63.2761 -57.4640
  423 489.048 -4.49185 -4.18885
  424 489.036 -4.53561 4.12016
  425 715.856 108.342 -37.0019
  426 695.383 -4.13064 -15.2355
  427 813.046 137.417 -32.1216
  428 685.399 -65.3939 -82.9688
  429 713.462 -5.78739 -6.08480
  430 632.557 -73.4037 62.9879
  431 929.844 192.366 -26.1284
  432 515.877 -16.9180 20.0728
  433 517.158 -18.0587 -20.3013
  434 683.608 -5.82201 0.0308758
  435 683.412 -5.89805 -0.0759052
  436 671.654 -24.8502 26.6515
  437 507.927 -24.7396 34.6443
  438 508.302 -24.2266 -34.6778
  439 645.036 56.5411 23.2434
  440 633.394 -71.8085 -63.2241
  441 757.373 123.730 38.6909
  442 675.394 -15.2710 34.3917
  443 827.467 82.5832 -234.249
  444 490.666 -6.98070 -9.36604
  445 490.492 -7.09647 9.35411
  446 787.861 154.412 -26.6954
  447 650.753 -11.1772 -1.89421
  448 650.611 -10.7131 1.97301
  449 645.858 14.8121 -52.2994
  450 734.973 66.4542 -60.0426
  451 450.341 -0.478240 -1.28532
  452 450.389 -0.504551 1.29727
  453 675.193 -18.5579 -33.0067
  454 559.761 -29.3512 173.301
  455 692.438 422.106 -404.287
  456 714.093 101.954 41.1260
  457 222.115 58.3489 -142.614
  458 217.202 60.7012 140.602
  459 379.153 56.6079 -207.199
  460 381.557 60.8766 207.382
  461 128.486 246.417 209.135
  462 576.683 -52.6511 39.8246
  463 996.444 229.360 73.0567
  464 118.034 90.5298 -106.268
  465 101.051 82.4988 86.9745
  466 383.855 -1.86270 16.1603
  467 384.022 -1.99527 -16.1653
  468 865.448 185.835 -3.50421
  469 50.6757 33.7529 31.8895
  470 50.6101 33.9962 -32.7964
  471 794.694 75.9239 -40.5310
  472 4.32240 6.07575 -11.3364
  473 4.24182 6.28862 11.0706
  474 667.476 -9.53482 -54.1405
  475 9.53837 -20.1536 -2.34619
  476 8.89104 -16.8949 2.12102
  477 718.449 -4.87361 2.30005
  478 717.386 -3.10354 -2.51547
  479 495.368 -49.9341 100.514
  480 496.812 -50.8180 -100.539
  481 940.433 125.820 102.501
  482 755.084 146.858 -15.5251
  483 703.065 -20.2666 53.8604
  484 890.064 143.543 2.14611
  485 826.225 35.1603 -1.47455
  486 836.902 184.199 7.53560
  487 703.854 113.396 14.6802
  488 391.327 141.548 -278.452
  489 687.484 -33.9850 45.1225
  490 832.466 149.628 22.8179
  491 755.149 -22.0440 112.321
  492 663.973 -47.2788 17.6322
  493 543.084 -12.8478 -7.76638
  494 542.038 -12.9322 7.50324
  495 720.863 62.8854 58.5298
  496 1119.04 222.700 126.195
  497 676.171 -29.3109 41.5327
  498 748.402 -7.62550 38.5967
  499 1224.68 79.7992 65.9058
  500 329.037 -4.50822 128.735
  501 404.983 -10.6675 146.841
  502 328.838 -4.61848 -128.553
  503 401.852 -11.8914 -148.029
  504 1043.49 286.849 -111.478
  505 619.399 -44.7768 -8.18374
  506 658.496 -38.9661 -18.2016
  507 -6.42897 -6.10645 -10.4405
  508 -6.63193 -6.21435 10.7820
  509 1048.86 308.168 291.433
  510 522.989 -7.43739 -3.74738
  511 522.879 -7.29089 3.67829
  512 565.669 -49.8151 -45.0044
  513 574.979 -57.8766 111.993
  514 710.053 -43.3161 27.9619
  515 689.831 29.5718 -62.6303
  516 621.122 2.04411 -33.0834
  517 -17.9337 0.855402 12.7349
  518 -17.2960 0.641969 -12.5442
  519 696.498 -64.9192 69.2745
  520 453.473 -37.7765 119.591
  521 431.687 0.504478 3.05204
  522 431.723 0.494607 -2.98366
  523 187.452 16.5911 -96.9038
  524 187.964 16.0587 97.0227
  525 452.714 -36.5946 -118.699
  526 816.162 46.6285 -18.8270
  527 368.692 -11.1074 -50.5123
  528 368.632 -11.5891 50.5273
  529 -0.643259 -17.7126 -13.2144
  530 -0.591928 -18.3307 13.6065
</Section>

newXOutput 39

<Section columns = "stress_xx | stress_yy | stress_xy">
  1 744.603 0.210050 2.14007
  2 744.700 0.223485 -2.16879
  3 450.875 -0.0823082 -0.791860
  4 -5.91206 -5.80916 -6.32886
  5 1225.24 560.762 437.620
  6 1240.80 572.274 -420.596
  7 -6.11069 -5.99086 6.55545
  8 450.795 -0.0730586 0.797953
  9 754.206 -3.90839 1.48572
  10 751.071 -4.59685 0.873178
  11 740.767 -3.28445 5.65212
  12 729.028 -2.97233 9.60595
  13 712.962 -3.77747 12.7294
  14 678.945 -3.14724 18.9131
  15 637.946 -0.0872432 22.5672
  16 593.653 3.36524 22.2540
  17 567.583 9.64304 14.0175
  18 530.875 14.9667 -0.262708
  19 566.230 10.2653 -15.7936
  20 598.348 2.85371 -24.3922
  21 634.445 0.639545 -22.7248
  22 679.938 -3.48165 -20.5074
  23 713.427 -4.69903 -13.6602
  24 729.217 -5.34334 -9.78415
  25 750.256 -5.58817 -4.00993
  26 745.765 -3.01833 -1.73043
  27 753.796 -3.40222 -1.27105
  28 717.586 -3.80244 -2.59159
  29 682.900 -8.64392 -1.71960
  30 637.438 -10.3881 -0.489496
  31 601.048 -9.92762 -1.73720
  32 565.756 -9.39893 1.26424
  33 517.721 -4.55739 1.18917
  34 480.344 -1.88914 -0.505611
  35 445.696 0.166160 2.15118
  36 435.951 2.57351 1.65165
  37 430.294 0.0742191 5.25824
  38 417.902 0.121170 7.86619
  39 391.719 0.156543 8.93556
  40 368.538 -0.801848 14.5742
  41 327.353 -0.683449 17.4625
  42 281.586 -0.364174 22.2511
  43 221.307 -2.24372 26.8347
  44 173.185 0.310113 37.6247
  45 104.007 6.09075 32.2700
  46 23.6888 11.5019 21.8333
  47 -22.9658 9.45052 9.49225
  48 -40.7227 8.22809 1.57671
  49 -35.3893 5.79575 -10.1852
  50 -20.4205 -1.01773 -8.57954
  51 -1.67839 -19.9487 -9.05721
  52 2.60194 -38.5443 -13.0074
  53 5.78793 -57.3225 -5.55585
  54 13.6345 -55.4240 2.52671
  55 28.0322 -1.00803 32.7160
  56 71.5317 151.613 117.051
  57 281.343 452.507 343.135
  58 1656.59 222.168 257.965
  59 1412.95 58.9480 87.5436
  60 1337.36 26.9638 29.5165
  61 1306.62 18.7024 -3.63835
  62 1335.40 27.8997 -32.6465
  63 1434.56 66.4675 -101.438
  64 1616.22 253.483 -276.267
  65 326.020 504.309 -360.360
  66 77.0712 132.388 -100.827
  67 28.1419 -3.34647 -32.5712
  68 11.3113 -57.0657 -3.01768
  69 6.22726 -58.5509 4.69413
  70 2.91862 -39.6789 13.1753
  71 -1.69373 -20.6477 9.33057
  72 -21.0511 -0.953000 8.75144
  73 -36.1648 6.00561 10.1465
  74 -40.9483 8.25468 -1.87904
  75 -22.7434 9.29859 -9.59017
  76 23.8087 11.4562 -21.7423
  77 103.887 6.14039 -32.2358
  78 173.115 0.313985 -37.6143
  79 221.208 -2.27412 -26.7846
  80 281.346 -0.307905 -22.1942
  81 327.119 -0.587548 -17.5637
  82 368.668 -0.851800 -14.7062
  83 391.909 0.0931416 -8.94063
  84 418.013 0.123629 -7.83649
  85 430.363 0.0479313 -5.22190
  86 435.958 2.59205 -1.60062
  87 445.635 0.182691 -2.13499
  88 480.339 -1.88700 0.488692
  89 517.795 -4.66703 -1.22640
  90 565.806 -9.58881 -1.26632
  91 601.198 -10.0281 1.71458
  92 637.511 -10.3387 0.511093
  93 682.802 -8.63978 1.71503
  94 717.306 -3.81094 2.61422
  95 654.869 -71.0179 -37.0473
  96 663.095 -70.4204 30.8333
  97 723.103 119.783 -14.3075
  98 480.399 -15.3121 -165.388
  99 474.137 -13.5466 166.148
  100 823.788 165.136 27.3538
  101 875.540 185.230 -7.14717
  102 562.284 -24.0233 -18.7096
  103 567.655 -23.5584 16.3760
  104 718.236 -1.11651 -61.0344
  105 792.010 -17.7374 -14.8652
  106 705.023 -5.42159 61.6932
  107 814.324 -5.92707 30.9004
  108 140.527 70.5394 98.7855
  109 138.811 67.2358 -102.078
  110 675.844 -29.8905 16.7628
  111 678.017 -30.9796 -19.2159
  112 976.705 187.328 -5.93886
  113 449.865 -33.9887 -90.7590
  114 450.365 -33.8063 91.1360
  115 493.064 -27.6087 46.6105
  116 493.637 -27.0779 -46.3858
  117 407.009 82.6415 -248.731
  118 427.342 86.2015 250.961
  119 992.034 234.421 -52.2267
  120 1053.66 212.356 70.8945
  121 696.048 62.4878 48.2758
  122 645.185 -18.4337 -0.160491
  123 645.959 -19.8203 0.150864
  124 650.050 24.7167 -43.6393
  125 245.748 6.06206 -106.610
  126 246.058 5.70472 106.178
  127 687.966 -17.9454 -45.0413
  128 762.421 25.9322 54.1046
  129 497.499 -8.06837 14.1775
  130 497.622 -8.17364 -13.9814
  131 602.247 -48.2314 -26.9880
  132 598.489 -46.1550 27.4193
  133 651.212 -71.4626 81.8073
  134 772.154 34.0191 -52.0599
  135 691.486 -44.7597 31.0993
  136 820.300 173.664 -1.02654
  137 674.419 -72.1947 -75.5886
  138 940.633 147.551 44.5200
  139 872.980 56.7289 -143.143
  140 632.827 42.9684 -1.54206
  141 686.078 -16.1886 44.9689
  142 697.364 -44.6362 -32.6854
  143 1202.26 97.6207 30.3479
  144 736.536 -46.1097 -18.5359
  145 1221.52 137.987 -99.3574
  146 738.252 -45.1964 14.1133
  147 657.545 13.8969 51.9142
  148 22.7269 24.0433 5.64979
  149 23.7621 25.5257 -5.30686
  150 699.827 -13.1486 9.79088
  151 699.239 -12.1869 -9.37222
  152 544.355 -52.4214 -64.3072
  153 554.383 -51.1525 61.0876
  154 294.864 -10.1820 -83.0542
  155 294.882 -10.1154 82.9533
  156 586.882 -15.4576 -4.96869
  157 586.593 -14.5096 5.20322
  158 86.2738 107.470 -107.255
  159 110.847 107.307 112.274
  160 720.742 66.3010 -55.5267
  161 417.963 -17.2889 -56.2910
  162 417.415 -18.0960 55.9547
  163 870.214 103.504 231.412
  164 676.233 -28.5122 166.585
  165 633.472 -34.6111 -2.85721
  166 632.384 -33.0997 2.76850
  167 699.099 -6.90514 2.74578
  168 698.468 -6.79676 -2.95051
  169 698.593 -53.9146 -120.109
  170 462.389 -9.22914 -22.9933
  171 462.420 -9.23583 22.8511
  172 668.373 2.52423 -54.1148
  173 859.691 111.405 17.4734
  174 860.719 105.757 -21.1886
  175 753.689 137.910 24.9968
  176 1157.67 315.008 153.379
  177 525.247 -58.2046 118.157
  178 694.956 182.765 -346.906
  179 530.401 -53.4604 -121.272
  180 698.187 -13.7714 -24.1618
  181 697.837 -13.2788 24.6441
  182 663.017 -49.6889 -4.51859
  183 102.698 23.3421 -60.7797
  184 102.982 23.8814 60.8976
  185 341.959 35.2401 -177.381
  186 335.685 37.2936 175.580
  187 767.959 130.455 -36.5246
  188 660.166 -47.9207 4.36714
  189 404.091 -19.5140 -133.245
  190 404.995 -18.6480 134.182
  191 353.317 -10.5510 -59.9020
  192 353.135 -10.7789 60.1550
  193 1001.35 207.019 -91.2788
  194 340.418 221.761 291.477
  195 927.418 194.418 8.37561
  196 533.425 -7.99346 -6.27602
  197 533.070 -8.20549 6.25452
  198 589.709 -66.6535 72.2226
  199 190.218 182.823 -198.099
  200 594.030 -68.6052 -74.7987
  201 420.019 -7.66357 29.9328
  202 419.962 -7.96774 -29.8157
  203 720.103 -41.6829 36.5751
  204 1259.23 135.789 111.409
  205 509.618 -17.8525 -28.6501
  206 508.895 -17.8989 28.2159
  207 757.683 102.783 51.2342
  208 479.999 -2.33721 -5.20059
  209 480.050 -2.41316 5.22781
  210 912.594 197.094 -8.64834
  211 659.928 52.7888 -29.5007
  212 1216.24 248.966 -168.643
  213 695.586 91.4827 24.0702
  214 896.018 182.098 -3.18702
  215 689.132 -26.3719 36.9446
  216 609.705 -20.3191 -4.51234
  217 608.405 -23.6415 6.34507
  218 49.3493 24.7196 30.2009
  219 49.5106 24.1796 -30.7370
  220 613.527 22.0589 -19.3355
  221 663.680 -25.0254 6.27955
  222 665.302 -24.6803 -6.74244
  223 40.4135 40.4328 -31.1450
  224 36.3834 43.3481 32.9646
  225 641.195 -11.8669 0.325352
  226 641.158 -11.7194 -0.0605795
  227 205.518 -0.253538 -63.9007
  228 205.653 -0.269103 63.8300
  229 521.841 18.8200 -208.851
  230 651.512 34.9143 41.5330
  231 685.632 -31.9114 -31.4747
  232 699.044 -22.5291 -53.5364
  233 631.500 -53.7065 131.270
  234 756.365 -45.1048 16.9318
  235 784.285 107.883 -49.2025
  236 669.954 -3.74532 -37.0541
  237 676.319 -2.72869 54.5865
  238 706.630 28.9520 62.9521
  239 1064.63 255.635 151.559
  240 1269.91 49.4345 -25.2711
  241 680.534 22.1795 -60.9107
  242 693.533 -20.0109 54.0965
  243 472.245 -34.8482 -69.8154
  244 467.979 -34.7643 69.7119
  245 898.246 90.9540 -33.7899
  246 806.046 29.2725 32.0453
  247 -1.51589 -0.0328610 -13.8700
  248 -1.51082 0.338556 14.3029
  249 203.667 39.6684 -117.893
  250 203.770 40.6374 117.653
  251 637.864 6.30887 -39.9725
  252 669.951 -59.5624 -2.04467
  253 255.773 82.6606 -182.050
  254 233.026 95.5756 172.883
  255 121.624 7.02201 -53.8161
  256 121.939 6.90544 53.8825
  257 537.681 -14.7208 -13.2803
  258 537.574 -14.5743 13.3206
  259 719.030 -34.2242 -41.6960
  260 604.601 -55.6239 -126.591
  261 795.702 10.2223 -23.6302
  262 636.734 -58.4326 19.4236
  263 654.374 59.1214 -257.904
  264 625.405 -61.4998 -31.2817
  265 548.262 -37.6319 -40.9371
  266 549.205 -39.4667 42.7822
  267 1051.94 191.438 -56.6369
  268 877.122 187.297 1.37363
  269 870.182 36.4453 98.6450
  270 693.506 -8.76863 -26.5058
  271 459.441 -4.40581 11.5372
  272 459.482 -4.51124 -11.5073
  273 703.895 -59.4577 -9.71902
  274 741.772 -54.7463 -33.3806
  275 1051.63 173.452 29.8833
  276 514.411 14.0601 207.007
  277 705.125 -58.7932 8.60482
  278 708.941 -7.34129 13.1260
  279 745.823 -9.21393 -50.3834
  280 620.104 321.442 368.978
  281 85.3233 128.840 121.031
  282 721.097 -6.23097 3.94803
  283 714.961 -6.01093 -5.40349
  284 667.282 -3.86922 33.3640
  285 615.176 25.7961 18.3620
  286 709.953 -6.43428 -12.8164
  287 746.391 -43.9438 86.2054
  288 312.613 8.90637 -142.216
  289 312.069 8.27943 142.092
  290 795.715 99.7195 44.0898
  291 696.771 -71.3382 -30.6577
  292 680.185 29.6981 57.5014
  293 671.106 -8.80046 -0.192283
  294 671.151 -8.89377 0.174179
  295 692.514 -7.86948 26.1270
  296 703.779 -70.1860 32.2115
  297 761.184 148.600 5.11027
  298 988.290 222.976 -243.556
  299 564.260 -31.2437 -25.6585
  300 556.806 -31.3695 27.1581
  301 740.402 -21.3426 44.1809
  302 841.566 178.978 -9.04760
  303 531.878 -53.1930 -80.4188
  304 517.963 -50.3194 85.6798
  305 1295.13 36.3670 22.4229
  306 1328.30 49.0636 -73.0877
  307 690.169 -20.1358 -18.3662
  308 425.150 -2.91898 17.6228
  309 425.127 -2.89811 -17.5982
  310 216.730 150.512 204.013
  311 689.888 -19.8496 18.0632
  312 736.160 31.8040 -61.7908
  313 379.377 -6.97595 -30.2719
  314 379.275 -6.95056 30.0946
  315 681.826 -12.7044 4.92790
  316 682.003 -13.0947 -5.26923
  317 5.44856 -11.7426 -9.57200
  318 6.14934 -12.5615 9.78959
  319 699.195 25.9757 214.808
  320 806.486 165.586 17.4507
  321 680.383 -38.4759 23.7691
  322 230.000 -4.54260 -45.5434
  323 230.041 -4.51929 45.5370
  324 -3.83024 10.8733 -0.927363
  325 -4.21715 11.2591 0.604978
  326 698.413 82.5672 -34.9683
  327 899.487 188.428 -0.543569
  328 678.209 -57.0752 -5.70376
  329 21.3183 23.4172 -31.9747
  330 26.8941 32.6162 36.6634
  331 396.960 -27.1968 106.812
  332 396.743 -26.9777 -106.257
  333 728.812 -2.80141 -1.25204
  334 728.730 -3.19650 1.39008
  335 615.099 -63.1941 43.7977
  336 636.870 2.65910 35.2332
  337 612.135 10.2772 30.3338
  338 69.4653 56.8009 -48.0441
  339 65.9434 51.5969 47.3593
  340 1132.59 131.912 -21.2764
  341 998.713 241.071 57.4128
  342 630.930 -44.8775 9.01497
  343 462.860 -1.76572 -5.24236
  344 462.828 -1.80619 5.32590
  345 746.799 98.9216 -50.5022
  346 310.568 -11.7921 108.854
  347 310.570 -11.9669 -109.000
  348 814.009 -6.94018 -72.9262
  349 493.420 -10.1237 -19.6990
  350 493.398 -9.72825 19.6198
  351 408.694 -21.7418 -70.6848
  352 408.039 -22.2200 70.8554
  353 329.574 -4.25846 33.9349
  354 329.429 -4.07702 -33.9078
  355 872.673 69.7227 10.3190
  356 600.310 6.96575 -27.4517
  357 622.725 125.373 313.807
  358 963.426 209.361 29.1672
  359 1359.98 117.443 -149.903
  360 560.029 -10.9878 -4.85260
  361 560.007 -10.5858 4.76430
  362 609.714 -40.2215 -15.2370
  363 1347.75 161.661 160.380
  364 615.826 -15.6491 -2.09980
  365 615.443 -16.0266 2.60169
  366 659.138 -39.3207 -6.63900
  367 577.840 -19.3736 -11.1123
  368 572.430 -18.2715 11.0919
  369 263.034 250.145 -260.095
  370 466.678 -15.1702 -33.9734
  371 466.571 -15.2834 33.7714
  372 573.013 18.5147 -0.638215
  373 1294.09 334.861 -224.419
  374 291.724 -3.17027 -47.3535
  375 291.752 -3.06969 47.4272
  376 511.869 -38.3127 -54.5055
  377 503.665 -34.9842 55.3450
  378 687.005 49.0425 -52.8046
  379 638.679 -55.8136 -13.3676
  380 56.6992 123.283 -99.8460
  381 483.696 -36.8025 -142.906
  382 503.038 -41.0619 141.330
  383 35.1186 5.60956 -24.2766
  384 35.0917 5.77957 24.3584
  385 601.012 -35.5103 15.5689
  386 434.774 -3.50300 -11.2014
  387 434.725 -3.49394 11.1885
  388 1324.44 45.9961 67.2773
  389 600.714 -12.1650 -0.930563
  390 600.850 -12.0636 0.822223
  391 659.463 -39.0925 7.08959
  392 1391.09 393.365 277.007
  393 689.900 -24.0096 -26.5599
  394 1160.29 161.123 78.7206
  395 762.085 -47.3780 -67.2322
  396 681.688 83.7085 -3.84665
  397 608.146 -32.3338 -164.015
  398 713.700 -11.1058 -167.411
  399 100.529 37.8464 -62.0891
  400 101.238 39.5407 62.0097
  401 684.308 -43.5905 -24.7482
  402 451.666 -17.1343 47.9586
  403 451.501 -17.9018 -48.5006
  404 711.506 -4.25110 15.7320
  405 599.083 -30.1299 -12.8410
  406 725.111 -5.38751 6.44132
  407 730.079 9.15515 62.7037
  408 775.398 -25.7643 13.4695
  409 369.873 -15.0685 82.1365
  410 369.935 -15.4843 -82.2705
  411 233.073 133.208 -198.384
  412 686.780 13.7466 62.4485
  413 695.196 -52.1493 24.0710
  414 594.988 -63.5504 93.1101
  415 1103.44 225.903 -115.183
  416 692.690 -34.5185 -41.2840
  417 766.538 -18.6268 -30.7294
  418 632.719 -27.8118 -3.24124
  419 638.993 -26.5770 0.247554
  420 597.958 -67.9037 -93.5682
  421 695.693 1.60202 -63.3228
  422 596.625 -64.8455 -59.1305
  423 501.918 -4.58412 -4.30937
  424 501.905 -4.62874 4.23912
  425 733.842 111.032 -37.6689
  426 712.523 -4.24618 -15.4806
  427 833.058 140.830 -32.3889
  428 702.110 -67.0029 -85.4178
  429 730.816 -5.94944 -6.14970
  430 648.204 -75.2388 64.8719
  431 952.280 197.271 -27.4517
  432 529.216 -17.3134 20.6687
  433 530.524 -18.4817 -20.9035
  434 700.327 -6.00518 0.0573114
  435 700.126 -6.08275 -0.103319
  436 688.309 -25.4929 27.0198
  437 521.034 -25.3273 35.6210
  438 521.419 -24.8034 -35.6570
  439 661.493 58.0000 23.7050
  440 649.060 -73.6077 -65.1123
  441 776.257 126.792 39.3029
  442 692.181 -15.6690 34.9573
  443 846.766 85.1500 -240.377
  444 503.550 -7.13045 -9.63375
  445 503.372 -7.24854 9.62100
  446 807.434 158.199 -27.0120
  447 666.862 -11.4880 -1.84435
  448 666.718 -11.0129 1.92562
  449 662.243 15.2009 -53.3274
  450 753.245 68.1109 -61.0767
  451 462.461 -0.480488 -1.33108
  452 462.510 -0.507359 1.34318
  453 691.968 -19.0397 -33.5344
  454 573.554 -30.0920 177.882
  455 707.834 433.644 -413.941
  456 732.017 104.496 41.8640
  457 228.044 59.8242 -146.542
  458 223.019 62.2317 144.475
  459 388.773 58.0289 -212.680
  460 391.209 62.3929 212.855
  461 131.730 253.669 214.767
  462 591.208 -53.9432 41.0408
  463 1020.15 235.285 75.6255
  464 121.259 92.9752 -109.314
  465 103.876 84.7417 89.5408
  466 394.328 -1.90166 16.5775
  467 394.498 -2.03745 -16.5827
  468 886.793 190.291 -3.52810
  469 52.2137 34.6688 32.9428
  470 52.1411 34.9195 -33.8701
  471 814.167 77.8440 -40.9451
  472 4.72249 6.23163 -11.7375
  473 4.64488 6.44954 11.4656
  474 684.210 -9.77669 -55.1354
  475 9.81401 -20.3945 -2.55341
  476 9.15366 -17.0421 2.32918
  477 735.818 -5.00842 2.31389
  478 734.736 -3.20482 -2.53249
  479 507.954 -51.1999 103.209
  480 509.432 -52.1058 -103.240
  481 962.605 129.382 105.753
  482 773.990 150.457 -15.7573
  483 720.487 -20.7814 54.7254
  484 911.585 147.230 2.89231
  485 846.184 36.1543 -2.13069
  486 857.602 188.675 7.45485
  487 721.608 116.224 14.9553
  488 400.951 145.338 -285.647
  489 704.541 -34.8436 45.8098
  490 852.930 153.355 22.8602
  491 773.286 -22.4508 115.560
  492 680.443 -48.4626 17.6983
  493 557.018 -13.1513 -8.03234
  494 555.951 -13.2377 7.76298
  495 738.831 64.4590 59.5498
  496 1145.46 227.979 129.295
  497 692.972 -30.0583 42.1793
  498 766.754 -7.80832 39.0116
  499 1252.89 81.6476 67.3554
  500 337.684 -4.67745 132.167
  501 415.368 -10.9944 150.728
  502 337.481 -4.79196 -131.981
  503 412.166 -12.2526 -151.943
  504 1068.37 293.888 -114.626
  505 634.884 -45.8814 -8.64956
  506 674.850 -39.9460 -18.3215
  507 -6.58480 -6.25557 -10.6998
  508 -6.79370 -6.36672 11.0509
  509 1072.55 316.554 299.110
  510 536.534 -7.60395 -3.85910
  511 536.421 -7.45415 3.78860
  512 579.946 -51.0381 -46.3258
  513 589.266 -59.3470 115.043
  514 727.540 -44.4014 28.1780
  515 707.109 30.3147 -63.7892
  516 637.028 2.09969 -33.7316
  517 -18.3526 0.892386 13.0337
  518 -17.6965 0.673679 -12.8368
  519 713.487 -66.5280 71.3843
  520 465.068 -38.7579 122.771
  521 443.390 0.521551 3.14599
  522 443.427 0.511403 -3.07632
  523 192.635 16.9809 -99.5883
  524 193.162 16.4343 99.7076
  525 464.291 -37.5464 -121.859
  526 835.959 47.8637 -18.6590
  527 378.640 -11.3695 -51.8216
  528 378.578 -11.8626 51.8367
  529 -0.641326 -18.1296 -13.5235
  530 -0.589324 -18.7655 13.9273
</Section>

newXOutput 40

<Section columns = "stress_xx | stress_yy | stress_xy">
  1 762.857 0.215372 2.18986
  2 764.273 0.157681 -2.32169
  3 454.209 -0.133786 -0.798835
  4 -5.67247 -5.60864 -6.02563
  5 440.640 520.207 425.556
  6 1241.99 577.349 -425.265
  7 -6.16436 -6.04350 6.61552
  8 456.185 -0.0409885 0.857067
  9 772.931 -4.06422 1.46165
  10 769.834 -4.79372 0.741177
  11 759.540 -3.40893 5.63054
  12 748.020 -3.04216 9.54963
  13 732.373 -3.96041 12.6609
  14 698.136 -3.41992 19.0871
  15 656.564 -0.396672 23.1289
  16 610.812 3.04768 23.3607
  17 582.255 9.79238 15.7784
  18 541.969 15.5482 1.06989
  19 576.354 10.8647 -14.9952
  20 607.875 3.54148 -24.8756
  21 645.126 1.09642 -23.8091
  22 693.495 -3.42659 -22.0058
  23 729.306 -4.92184 -14.8955
  24 746.774 -5.72057 -10.6912
  25 769.333 -5.92146 -4.45910
  26 765.099 -3.22710 -2.00434
  27 773.730 -3.66679 -1.42644
  28 735.801 -4.22472 -2.78412
  29 699.435 -9.48318 -1.87057
  30 651.702 -11.5222 -0.541992
  31 613.386 -11.0509 -1.82748
  32 576.044 -10.4421 1.39240
  33 525.092 -5.15633 1.33200
  34 485.423 -2.12637 -0.479752
  35 448.643 0.144788 2.36127
  36 438.038 2.69573 1.90736
  37 431.708 0.0497977 5.81880
  38 418.069 0.135367 8.62961
  39 389.498 0.191129 9.76310
  40 364.304 -0.786972 15.8016
  41 319.895 -0.570537 18.7049
  42 271.070 -0.159831 23.5559
  43 207.741 -1.93509 27.8254
  44 158.179 0.935045 38.3496
  45 88.7041 6.83504 31.5585
  46 10.1864 11.9826 20.0165
  47 -32.8660 9.42506 7.58086
  48 -45.8185 7.82852 -0.298119
  49 -36.3380 5.07588 -11.0638
  50 -20.1272 -1.35330 -8.64746
  51 -1.91409 -19.4723 -8.95411
  52 2.00064 -38.7072 -13.3945
  53 4.82739 -60.8196 -7.29945
  54 10.8823 -65.0227 -1.90123
  55 20.5763 -24.7130 20.6640
  56 51.0237 85.4996 82.9511
  57 154.748 299.057 220.146
  58 925.621 22.0953 -131.341
  59 1117.39 -48.7026 -110.220
  60 1179.68 -12.5556 -48.6581
  61 1235.50 2.80619 -35.3219
  62 1300.34 21.7355 -49.7008
  63 1415.97 63.3901 -110.752
  64 1609.43 253.535 -283.015
  65 327.211 510.354 -362.827
  66 77.7316 135.182 -102.130
  67 28.4619 -2.29246 -33.1903
  68 11.4637 -56.9743 -3.24822
  69 6.31616 -58.7747 4.62791
  70 2.96918 -39.9473 13.2409
  71 -1.69428 -20.8152 9.39942
  72 -21.2212 -0.949601 8.81717
  73 -36.4116 6.07270 10.2022
  74 -41.1156 8.32795 -1.94028
  75 -22.6486 9.37814 -9.70624
  76 24.3934 11.5586 -21.9574
  77 105.263 6.20298 -32.5315
  78 175.138 0.325671 -37.9704
  79 223.679 -2.27640 -27.0247
  80 284.395 -0.284797 -22.4079
  81 330.654 -0.550021 -17.7345
  82 372.670 -0.818158 -14.8927
  83 396.192 0.148641 -9.02207
  84 422.721 0.165207 -7.95428
  85 435.253 0.0999505 -5.29271
  86 440.873 2.74697 -1.57633
  87 450.832 0.218971 -2.19065
  88 487.086 -1.88421 0.544506
  89 526.168 -4.64428 -1.24004
  90 576.214 -9.68248 -1.30958
  91 613.140 -10.1391 1.78392
  92 651.089 -10.4895 0.465925
  93 698.445 -8.87726 1.72241
  94 734.464 -3.91726 2.67267
  95 665.262 -72.3358 -38.8804
  96 681.863 -73.7184 34.1710
  97 743.869 124.871 -8.34419
  98 485.118 -15.4526 -167.648
  99 464.737 -2.28773 176.293
  100 845.727 155.943 24.1276
  101 908.126 209.661 5.21376
  102 572.105 -24.2412 -19.2955
  103 578.444 -25.6227 17.8258
  104 738.299 4.21161 -64.8100
  105 802.473 -20.0111 -19.3995
  106 721.668 -7.86098 62.0072
  107 854.891 0.0657797 35.7453
  108 126.183 70.7872 88.6516
  109 140.383 67.7780 -103.279
  110 690.713 -30.5593 16.2857
  111 695.143 -33.1253 -20.9469
  112 1006.97 168.884 -10.6133
  113 455.594 -34.2368 -92.0131
  114 451.625 -33.5656 97.2469
  115 498.718 -29.3291 50.5326
  116 500.836 -27.2977 -47.2053
  117 410.117 83.4302 -251.408
  118 378.387 106.754 248.506
  119 1001.04 225.661 -65.9178
  120 1112.91 213.169 87.5763
  121 714.941 59.9916 51.0870
  122 658.905 -18.7096 -0.551118
  123 660.933 -21.6216 0.0150904
  124 664.472 28.3717 -43.3235
  125 248.553 6.09374 -107.723
  126 233.641 9.88941 105.628
  127 704.774 -18.1133 -48.3582
  128 778.649 21.5596 51.8598
  129 503.569 -8.84569 15.5367
  130 505.123 -8.20136 -14.2690
  131 612.541 -48.8768 -27.9929
  132 611.793 -49.3349 29.8499
  133 667.219 -72.1696 91.4343
  134 797.626 47.6082 -55.4800
  135 705.924 -46.2747 30.3981
  136 848.993 172.014 5.56138
  137 683.141 -73.4071 -78.2977
  138 1016.19 197.437 41.2542
  139 877.554 57.2664 -148.127
  140 648.392 44.5228 1.89323
  141 703.047 -17.1398 45.1931
  142 717.168 -45.8648 -35.2688
  143 1212.64 53.9464 -4.94778
  144 761.892 -45.1306 -19.9371
  145 1216.45 125.114 -120.028
  146 750.792 -47.7372 11.5598
  147 674.960 12.6510 53.9199
  148 18.4323 20.2674 0.330268
  149 24.1433 25.8147 -5.55165
  150 716.511 -13.4606 9.49263
  151 716.481 -13.2192 -10.4055
  152 552.327 -52.9776 -65.5846
  153 564.295 -53.5628 66.2792
  154 298.356 -10.2332 -83.9353
  155 286.209 -8.47385 85.9744
  156 598.048 -15.6022 -5.21429
  157 598.256 -15.9872 5.67192
  158 87.2015 108.607 -108.603
  159 92.7050 96.5119 94.9060
  160 739.619 77.1908 -54.7399
  161 423.353 -17.4043 -57.0099
  162 417.198 -18.7420 60.0729
  163 868.496 129.053 307.970
  164 681.299 -19.0178 190.022
  165 645.951 -35.1155 -3.46425
  166 647.261 -35.7886 2.94069
  167 715.515 -7.07868 2.59567
  168 715.749 -7.48947 -3.31306
  169 705.455 -54.5724 -123.617
  170 468.696 -9.29434 -23.3898
  171 465.922 -9.98204 24.9412
  172 683.333 4.81810 -56.6273
  173 872.667 106.526 10.4237
  174 900.081 138.197 -25.4210
  175 776.689 134.509 28.8749
  176 1329.08 425.096 150.771
  177 529.017 -56.6225 127.527
  178 697.982 184.832 -350.493
  179 536.655 -53.9536 -123.311
  180 714.965 -14.6646 -26.2780
  181 715.143 -13.6659 24.4739
  182 680.506 -52.8701 -4.86634
  183 104.026 23.5149 -61.4596
  184 91.5700 25.3995 55.8876
  185 345.216 35.4626 -179.393
  186 314.147 49.2306 173.998
  187 790.391 145.339 -30.2260
  188 673.011 -48.8427 3.46938
  189 408.682 -19.6343 -134.878
  190 399.582 -13.2444 140.497
  191 357.583 -10.6122 -60.5578
  192 348.089 -10.6902 63.8388
  193 1004.69 207.115 -99.2471
  194 273.545 220.415 260.237
  195 964.611 193.911 18.1809
  196 542.405 -8.01690 -6.43351
  197 541.434 -9.11075 6.87296
  198 601.902 -68.8306 78.8405
  199 191.755 184.603 -200.193
  200 602.345 -69.4603 -76.6661
  201 420.099 -8.14291 32.4695
  202 425.251 -8.00104 -30.2036
  203 734.481 -44.0953 35.3156
  204 1300.98 63.0936 67.2105
  205 517.460 -17.9460 -29.2118
  206 515.742 -19.3136 30.7460
  207 777.891 97.1566 50.9277
  208 486.767 -2.28849 -5.29458
  209 485.049 -2.74427 5.77750
  210 934.288 185.063 -16.4375
  211 675.862 57.1145 -26.7531
  212 1213.47 244.666 -183.061
  213 715.180 90.5029 28.3237
  214 936.345 229.505 1.40810
  215 705.186 -27.3418 36.7526
  216 621.666 -20.5395 -4.89158
  217 621.572 -25.7536 6.86786
  218 41.0024 24.1359 24.5674
  219 50.2584 24.3772 -31.1581
  220 626.803 23.7954 -17.5176
  221 678.123 -25.4796 5.79333
  222 681.487 -26.6943 -7.50600
  223 40.9232 40.9617 -31.7307
  224 30.7272 35.4748 23.9806
  225 655.756 -13.1359 0.279406
  226 654.835 -11.8558 -0.250445
  227 207.970 -0.246640 -64.5301
  228 193.220 1.35139 64.2314
  229 526.023 19.0299 -211.619
  230 668.821 33.8162 44.5256
  231 703.138 -33.5716 -34.0828
  232 717.584 -21.4866 -57.2456
  233 640.876 -49.3333 146.210
  234 785.899 -43.8847 19.9221
  235 808.463 128.822 -47.7383
  236 684.104 -3.24045 -39.3965
  237 693.557 -4.20873 55.5200
  238 724.412 25.7297 64.1034
  239 1252.44 337.252 197.838
  240 1247.18 32.7549 -53.1350
  241 696.714 27.4391 -62.5633
  242 709.880 -21.7613 54.2414
  243 478.645 -35.1258 -70.8852
  244 471.305 -35.9980 74.9966
  245 905.590 89.1894 -40.8714
  246 819.713 25.3064 27.8034
  247 -3.22419 -1.87210 -15.6037
  248 -1.43785 0.396104 14.3413
  249 205.910 39.9422 -119.200
  250 188.529 45.9244 111.700
  251 650.605 7.89596 -41.0167
  252 682.198 -60.8546 -3.32704
  253 258.165 83.3341 -184.029
  254 207.806 100.751 160.923
  255 123.185 7.06840 -54.3602
  256 108.799 8.28483 51.6461
  257 546.740 -14.8406 -13.6431
  258 546.288 -15.9529 14.5424
  259 740.825 -32.8787 -44.9169
  260 611.256 -56.1965 -129.203
  261 828.569 20.9671 -26.8936
  262 652.959 -62.0680 21.2896
  263 658.258 59.8338 -261.440
  264 635.810 -62.4668 -32.6409
  265 556.914 -37.9840 -41.8342
  266 558.962 -41.9677 46.4696
  267 1065.51 173.063 -73.9047
  268 905.406 176.927 1.95919
  269 923.143 46.0288 121.558
  270 709.171 -9.08505 -28.6223
  271 462.872 -4.79337 12.6571
  272 465.551 -4.56003 -11.7123
  273 725.694 -61.3713 -10.1927
  274 751.849 -56.6246 -36.7134
  275 1092.65 149.011 27.3403
  276 493.053 33.5190 219.968
  277 717.633 -60.7398 6.81139
  278 726.544 -7.54381 12.9001
  279 769.908 -3.14687 -54.3015
  280 411.121 304.096 340.421
  281 63.8142 106.062 96.9422
  282 738.668 -6.44996 3.76811
  283 732.915 -6.54858 -5.98803
  284 685.452 -4.39749 33.8797
  285 630.977 25.8829 21.2424
  286 727.257 -6.98292 -14.1082
  287 773.597 -41.1920 101.203
  288 315.921 8.93315 -143.829
  289 297.927 16.2327 143.294
  290 814.155 93.6006 40.8681
  291 707.280 -73.1163 -33.0778
  292 698.130 27.5809 59.7912
  293 686.221 -8.95671 -0.368356
  294 687.121 -9.85305 0.0739172
  295 710.729 -8.22908 26.1978
  296 726.751 -72.2457 36.4360
  297 785.374 148.862 11.1873
  298 990.523 225.677 -248.342
  299 573.783 -31.5211 -26.3536
  300 567.047 -33.7648 29.5597
  301 755.280 -24.5611 42.4508
  302 871.298 184.982 1.04991
  303 539.151 -53.7174 -81.8844
  304 524.490 -51.5171 92.4150
  305 1243.73 3.29605 -29.8133
  306 1308.07 44.1566 -88.5852
  307 707.191 -21.6069 -20.1069
  308 425.713 -3.12878 19.2156
  309 430.336 -2.87664 -17.8447
  310 180.535 148.701 181.348
  311 706.040 -20.3339 17.7393
  312 757.181 42.4012 -64.5013
  313 383.891 -7.01897 -30.6229
  314 376.072 -7.26046 32.4153
  315 697.411 -12.9429 4.64471
  316 698.613 -14.3133 -5.89656
  317 4.32127 -15.2184 -11.9402
  318 6.25516 -12.5274 9.74606
  319 685.411 46.1077 250.533
  320 831.488 159.198 19.5091
  321 694.950 -39.4817 23.2455
  322 232.676 -4.57470 -45.9797
  323 217.831 -4.08604 46.8915
  324 -7.88406 9.76801 -3.93292
  325 -4.08045 11.3674 0.515048
  326 716.615 89.9964 -31.2820
  327 913.503 181.001 -10.2755
  328 697.389 -60.0141 -5.98621
  329 21.5935 24.1319 -32.5800
  330 21.5028 17.6992 26.5287
  331 393.379 -24.9912 112.484
  332 401.501 -27.1678 -107.578
  333 747.574 -3.10104 -1.40970
  334 746.376 -3.30828 1.34398
  335 629.797 -66.5343 47.9181
  336 654.555 2.06113 36.3972
  337 628.765 9.81964 32.2780
  338 70.3384 57.3275 -48.7621
  339 57.1487 47.4960 37.6770
  340 1148.15 103.571 -43.3306
  341 1071.08 310.711 64.6951
  342 646.216 -48.1208 9.79937
  343 468.923 -1.73959 -5.32477
  344 466.679 -2.02989 5.89061
  345 767.645 114.267 -48.0656
  346 301.258 -8.29932 111.488
  347 314.154 -12.0656 -110.180
  348 821.516 -7.91141 -77.7756
  349 500.758 -10.1508 -20.0635
  350 499.164 -10.5949 21.4675
  351 413.873 -21.8792 -71.5548
  352 406.917 -22.4078 75.5800
  353 322.665 -4.28600 36.1136
  354 333.208 -4.09579 -34.2610
  355 925.323 94.3303 6.47785
  356 611.356 8.02595 -27.2148
  357 533.853 155.565 331.321
  358 1009.72 234.749 46.6531
  359 1350.85 114.791 -161.474
  360 570.153 -11.0819 -5.03016
  361 569.996 -11.7344 5.18832
  362 620.845 -40.7430 -16.0048
  363 1387.59 136.247 29.6969
  364 628.264 -15.8429 -2.35040
  365 628.739 -17.6088 2.78317
  366 675.757 -42.1652 -7.28578
  367 588.439 -19.5532 -11.5480
  368 583.349 -20.0008 12.0574
  369 264.481 253.062 -262.513
  370 473.195 -15.2845 -34.5044
  371 470.278 -16.3665 36.6967
  372 585.866 19.2096 1.37729
  373 1292.40 335.310 -232.899
  374 295.105 -3.16856 -47.8434
  375 282.580 -2.61427 49.8040
  376 519.379 -38.6596 -55.5057
  377 509.970 -36.8624 59.8937
  378 703.803 56.2168 -52.1377
  379 650.280 -56.6986 -14.4694
  380 57.2838 125.051 -101.106
  381 489.031 -37.1331 -144.958
  382 502.720 -35.9004 151.390
  383 35.8050 5.64828 -24.5399
  384 23.6814 6.25984 21.6381
  385 614.133 -38.3172 16.9153
  386 440.048 -3.53776 -11.3687
  387 436.234 -3.78829 12.2699
  388 1263.00 -12.8289 -24.6833
  389 612.604 -12.3049 -1.01481
  390 613.195 -13.3557 0.912100
  391 673.063 -39.8101 6.44318
  392 1277.64 511.000 250.051
  393 707.069 -25.5146 -28.8800
  394 1212.97 118.127 63.5930
  395 770.595 -48.7784 -71.1745
  396 699.992 86.2952 0.754300
  397 613.697 -32.5385 -166.951
  398 719.083 -11.1523 -171.137
  399 101.786 38.1329 -62.8480
  400 90.1223 40.4714 54.5045
  401 702.870 -45.8290 -26.7866
  402 454.122 -18.0187 51.8451
  403 457.611 -18.0135 -49.2258
  404 730.090 -4.34373 15.6773
  405 610.289 -30.4567 -13.4822
  406 743.252 -5.57436 6.25284
  407 746.907 5.78911 62.1634
  408 787.762 -28.4746 9.98293
  409 365.729 -14.0487 86.7241
  410 374.452 -15.5608 -83.2254
  411 235.058 134.392 -200.463
  412 704.234 11.4661 63.9077
  413 708.836 -53.9599 22.9169
  414 606.045 -63.4546 101.995
  415 1105.56 215.828 -132.338
  416 711.056 -35.6196 -44.4824
  417 794.723 -12.8527 -33.7077
  418 645.588 -28.2052 -3.79821
  419 653.887 -28.8788 0.136872
  420 605.549 -68.6810 -95.7315
  421 713.148 5.37001 -66.6420
  422 605.705 -65.6630 -60.6717
  423 509.604 -4.59766 -4.41164
  424 508.302 -5.16116 4.65241
  425 754.127 121.440 -32.7737
  426 729.192 -4.57530 -16.8516
  427 862.464 172.237 -30.2620
  428 710.082 -68.1756 -88.6569
  429 749.159 -6.39390 -6.82924
  430 665.429 -77.6537 71.9309
  431 959.960 193.692 -37.5956
  432 537.464 -18.8183 22.5622
  433 539.166 -18.6109 -21.3903
  434 717.701 -6.63651 -0.0374721
  435 716.551 -6.24274 -0.228222
  436 704.316 -26.2106 26.7016
  437 528.777 -27.1183 38.7420
  438 529.450 -24.9879 -36.3262
  439 679.372 57.9629 27.7577
  440 658.234 -74.8211 -67.3895
  441 798.336 120.865 39.7032
  442 709.063 -16.2419 34.8980
  443 849.941 86.2636 -244.420
  444 511.294 -7.18898 -9.87293
  445 509.855 -7.97660 10.5242
  446 833.080 176.735 -18.6896
  447 682.709 -12.6777 -2.13901
  448 681.597 -11.1595 1.68714
  449 677.075 18.7851 -54.7300
  450 774.641 82.7222 -62.0010
  451 468.433 -0.429163 -1.32324
  452 466.471 -0.631913 1.53708
  453 708.819 -20.0132 -36.2743
  454 569.432 -18.0889 195.291
  455 709.825 438.405 -417.404
  456 752.608 100.750 44.3537
  457 230.381 60.2521 -148.173
  458 202.530 67.9365 135.445
  459 392.030 58.4667 -215.077
  460 357.421 76.7468 209.518
  461 91.7663 207.162 165.910
  462 604.117 -57.1452 44.7048
  463 1137.35 318.872 71.0503
  464 122.555 93.8061 -110.630
  465 89.9372 80.4200 76.5006
  466 392.304 -2.02721 18.0167
  467 399.062 -2.04341 -16.7834
  468 920.029 185.139 2.84429
  469 44.5126 33.2053 25.8993
  470 52.8760 35.2152 -34.3817
  471 845.305 101.350 -44.9454
  472 5.04820 6.27222 -11.9100
  473 -3.27206 6.56421 8.34339
  474 700.627 -8.46216 -58.5704
  475 9.94754 -20.2262 -2.77271
  476 7.68706 -24.6874 -1.73783
  477 753.867 -5.20383 2.23655
  478 753.696 -3.49718 -2.82071
  479 512.460 -50.7435 110.940
  480 515.886 -52.5723 -104.935
  481 1066.42 163.418 126.433
  482 798.095 157.596 -7.73852
  483 736.168 -23.5913 53.9640
  484 962.921 194.973 -1.98366
  485 856.630 33.6107 -7.84339
  486 883.103 178.658 5.37274
  487 742.916 116.568 20.2456
  488 403.533 146.739 -288.487
  489 719.818 -36.9340 45.2924
  490 870.944 145.432 16.3357
  491 801.824 -16.5753 139.970
  492 693.948 -49.7042 16.8189
  493 566.933 -13.2407 -8.29489
  494 565.759 -14.5884 8.48297
  495 757.342 59.9410 59.5278
  496 1229.45 220.533 131.295
  497 708.466 -31.4446 41.8915
  498 780.607 -11.5051 36.1143
  499 1251.49 13.8551 12.5393
  500 326.985 1.18377 135.120
  501 407.898 -2.51747 157.241
  502 341.196 -4.85432 -133.456
  503 416.612 -12.3429 -153.785
  504 1070.64 291.206 -126.653
  505 646.909 -46.5543 -9.52514
  506 692.461 -42.4779 -19.9401
  507 -6.65330 -6.40394 -10.7114
  508 -6.83727 -6.41204 11.1319
  509 991.281 487.484 515.883
  510 545.683 -7.65444 -3.97665
  511 544.960 -8.29881 4.13213
  512 589.038 -51.6671 -47.4574
  513 597.628 -57.1681 126.069
  514 741.143 -46.9763 26.3023
  515 725.320 38.2157 -65.7925
  516 648.750 3.00328 -35.2694
  517 -18.4546 0.914076 13.1124
  518 -18.4752 0.137226 -13.4737
  519 737.313 -66.8452 81.5822
  520 464.558 -35.7187 130.779
  521 445.871 0.523650 3.53665
  522 448.723 0.566539 -3.09275
  523 194.855 17.0777 -100.650
  524 179.558 20.1849 96.5309
  525 469.750 -37.8666 -123.584
  526 876.737 67.0389 -23.8219
  527 383.267 -11.4382 -52.4071
  528 375.382 -12.1048 55.3708
  529 -1.08312 -18.8367 -13.9610
  530 -0.570667 -18.8789 14.0052
</Section>

newXOutput 41

<Section columns = "stress_xx | stress_yy | stress_xy">
  1 780.145 0.189330 2.22180
  2 781.616 0.132164 -2.35572
  3 465.946 -0.126648 -0.808160
  4 -5.81497 -5.74896 -6.17911
  5 449.631 533.380 434.544
  6 1267.46 591.475 -434.511
  7 -6.31888 -6.19446 6.78330
  8 467.988 -0.0321986 0.867064
  9 790.393 -4.16675 1.47334
  10 787.272 -4.91180 0.725643
  11 776.879 -3.50242 5.69733
  12 765.241 -3.13362 9.68106
  13 749.414 -4.06457 12.8533
  14 714.673 -3.50449 19.4118
  15 672.430 -0.401089 23.5476
  16 625.891 3.13685 23.7993
  17 596.829 10.0481 16.0838
  18 555.830 15.9100 1.08584
  19 590.840 11.1413 -15.2982
  20 622.932 3.64156 -25.3460
  21 660.845 1.11499 -24.2395
  22 709.995 -3.51310 -22.3828
  23 746.340 -5.04558 -15.1252
  24 764.014 -5.85862 -10.8433
  25 786.869 -6.05921 -4.50397
  26 782.508 -3.32214 -2.00193
  27 791.239 -3.76239 -1.43680
  28 752.678 -4.35897 -2.82839
  29 715.682 -9.73942 -1.89037
  30 667.081 -11.8155 -0.522422
  31 628.051 -11.3176 -1.85297
  32 590.007 -10.6743 1.44440
  33 538.102 -5.25980 1.37223
  34 497.709 -2.15938 -0.479357
  35 460.266 0.155472 2.42115
  36 449.427 2.75287 1.96917
  37 442.920 0.0576565 5.97166
  38 428.944 0.145941 8.84149
  39 399.718 0.199149 10.0051
  40 373.929 -0.800724 16.1775
  41 328.481 -0.579515 19.1583
  42 278.500 -0.158729 24.1312
  43 213.638 -1.98482 28.5236
  44 162.829 0.950648 39.3176
  45 91.5583 6.99628 32.4031
  46 10.9952 12.2722 20.5989
  47 -33.2810 9.65840 7.84231
  48 -46.7310 8.02926 -0.238647
  49 -37.1709 5.22054 -11.2989
  50 -20.6159 -1.37452 -8.85152
  51 -1.94968 -19.9488 -9.16786
  52 2.06997 -39.6105 -13.6901
  53 4.97053 -62.1090 -7.39855
  54 11.1944 -66.1911 -1.79351
  55 21.1581 -24.5175 21.4423
  56 52.3518 89.0672 85.3588
  57 158.465 308.245 225.843
  58 945.105 22.7008 -134.472
  59 1142.44 -49.8909 -112.635
  60 1205.99 -12.7587 -49.5192
  61 1262.63 2.93298 -35.9287
  62 1328.50 22.2469 -50.6076
  63 1446.01 64.7789 -112.840
  64 1642.58 259.111 -288.533
  65 334.149 523.860 -370.958
  66 79.7211 139.758 -104.954
  67 29.2203 -1.54178 -34.2468
  68 11.7789 -57.9558 -3.47055
  69 6.49300 -60.0200 4.66410
  70 3.06130 -40.8831 13.5337
  71 -1.72499 -21.3250 9.62438
  72 -21.7373 -0.961529 9.02586
  73 -37.2493 6.24063 10.4178
  74 -41.9223 8.54025 -2.05145
  75 -22.8324 9.61048 -10.0154
  76 25.5205 11.8393 -22.5811
  77 108.481 6.35136 -33.3951
  78 180.153 0.329144 -38.9285
  79 229.917 -2.33292 -27.7049
  80 292.109 -0.286030 -22.9590
  81 339.472 -0.558386 -18.1684
  82 382.480 -0.832791 -15.2510
  83 406.566 0.155364 -9.25019
  84 433.710 0.176129 -8.15357
  85 446.561 0.108369 -5.43600
  86 452.346 2.80436 -1.63250
  87 462.526 0.230927 -2.24733
  88 499.427 -1.91276 0.544866
  89 539.215 -4.73885 -1.27875
  90 590.189 -9.90109 -1.35984
  91 627.802 -10.3891 1.80831
  92 666.450 -10.7631 0.445963
  93 714.657 -9.12049 1.74009
  94 751.294 -4.04501 2.71457
  95 680.875 -74.0415 -40.1363
  96 697.775 -75.4497 35.3285
  97 761.598 127.798 -8.50204
  98 496.695 -15.8672 -171.871
  99 475.869 -2.41778 180.705
  100 865.472 159.612 24.2661
  101 929.209 214.409 5.61071
  102 585.961 -24.7929 -19.8803
  103 592.407 -26.2013 18.3800
  104 755.636 4.28697 -65.8420
  105 820.901 -20.3968 -20.4059
  106 738.667 -8.03718 63.0198
  107 874.206 0.175125 37.2047
  108 129.563 72.5589 91.1383
  109 144.070 69.4702 -106.090
  110 706.903 -31.2988 16.3821
  111 711.437 -33.9185 -21.1207
  112 1029.94 172.713 -10.9674
  113 466.812 -35.0542 -94.3325
  114 462.741 -34.3691 99.6718
  115 511.017 -29.9881 51.8223
  116 513.201 -27.9164 -48.4317
  117 419.855 85.4864 -257.645
  118 387.461 109.364 254.707
  119 1023.91 230.947 -67.8189
  120 1137.88 217.885 89.4957
  121 731.978 61.4490 51.9730
  122 674.428 -19.1682 -0.704851
  123 676.499 -22.1403 0.165248
  124 680.541 29.0768 -44.1348
  125 254.995 6.20214 -110.506
  126 239.759 10.0797 108.370
  127 721.400 -18.5556 -49.1273
  128 796.795 22.1034 52.5358
  129 516.125 -9.02668 15.9557
  130 517.729 -8.37111 -14.6644
  131 627.135 -50.0120 -28.8895
  132 626.357 -50.4681 30.7781
  133 682.710 -73.8793 93.9195
  134 816.173 48.7078 -56.2107
  135 722.468 -47.3753 30.6985
  136 868.907 175.959 5.61177
  137 699.028 -75.1414 -80.5008
  138 1038.87 202.247 43.0929
  139 897.178 58.9921 -152.120
  140 664.190 45.6355 1.91521
  141 719.630 -17.5529 45.9145
  142 733.937 -46.9600 -35.6381
  143 1239.16 55.2413 -5.06706
  144 779.505 -46.2032 -19.8764
  145 1243.21 127.929 -122.578
  146 768.215 -48.8476 11.3280
  147 691.170 12.9816 54.8956
  148 19.0275 20.8744 0.535388
  149 24.8732 26.5499 -5.87435
  150 733.124 -13.8090 9.55003
  151 733.117 -13.5628 -10.4765
  152 565.641 -54.2154 -67.3184
  153 577.827 -54.8071 68.0264
  154 306.106 -10.4927 -86.0510
  155 293.692 -8.69771 88.1349
  156 612.423 -15.9639 -5.42980
  157 612.628 -16.3526 5.89836
  158 89.4842 111.549 -111.602
  159 95.1840 99.1574 97.6208
  160 757.159 78.9964 -55.6730
  161 434.046 -17.7999 -58.4237
  162 427.746 -19.1675 61.5482
  163 887.286 132.722 315.309
  164 696.847 -19.4400 194.762
  165 661.238 -35.9408 -3.78373
  166 662.565 -36.6250 3.24511
  167 732.044 -7.28723 2.58350
  168 732.304 -7.70671 -3.31142
  169 721.696 -55.8017 -126.909
  170 480.546 -9.48946 -23.9903
  171 477.696 -10.1902 25.5707
  172 699.684 4.94022 -57.6451
  173 892.752 109.171 10.0523
  174 920.711 141.456 -25.2992
  175 795.066 137.670 29.2993
  176 1357.88 434.222 154.359
  177 541.636 -58.0013 130.757
  178 713.419 189.728 -358.790
  179 549.464 -55.2639 -126.461
  180 731.691 -15.0305 -26.6471
  181 731.845 -14.0134 24.8134
  182 696.477 -54.1096 -4.62982
  183 106.946 24.0824 -63.1576
  184 94.2136 26.0100 57.4644
  185 353.659 36.2748 -183.956
  186 321.920 50.3461 178.452
  187 809.060 148.694 -30.6690
  188 688.843 -49.9931 3.22057
  189 418.733 -20.1503 -138.276
  190 409.425 -13.6258 144.016
  191 366.805 -10.8575 -62.0602
  192 357.101 -10.9382 65.4092
  193 1027.28 212.334 -102.289
  194 280.134 226.046 266.773
  195 986.815 198.273 18.6417
  196 555.740 -8.18935 -6.63525
  197 554.735 -9.30401 7.08332
  198 616.142 -70.4545 80.9491
  199 196.491 189.407 -205.351
  200 616.624 -71.1053 -78.7427
  201 430.855 -8.31597 33.2679
  202 436.129 -8.17236 -30.9581
  203 751.622 -45.1355 35.6674
  204 1328.94 64.5379 68.4177
  205 530.231 -18.3426 -29.9987
  206 528.458 -19.7358 31.5612
  207 796.186 99.4838 51.6716
  208 499.085 -2.32531 -5.44335
  209 497.311 -2.78950 5.93502
  210 955.840 189.381 -17.1611
  211 692.179 58.5046 -27.2611
  212 1240.33 250.212 -187.140
  213 732.281 92.6702 28.7995
  214 957.897 234.727 1.99392
  215 721.740 -28.0074 37.2622
  216 636.484 -21.0279 -5.15312
  217 636.381 -26.3506 7.18825
  218 42.3026 24.7498 25.3761
  219 51.7679 24.9954 -32.1143
  220 642.196 24.4058 -17.8620
  221 694.030 -26.0996 5.71334
  222 697.468 -27.3369 -7.45106
  223 42.0455 42.1812 -32.7741
  224 31.6063 36.5766 24.8539
  225 671.217 -13.4649 0.366913
  226 670.273 -12.1602 -0.334023
  227 213.598 -0.271327 -66.1851
  228 198.526 1.36025 65.8826
  229 538.348 19.4997 -216.893
  230 684.967 34.6631 45.3388
  231 719.640 -34.3819 -34.5112
  232 734.466 -22.0084 -58.1383
  233 655.719 -50.5214 149.929
  234 803.905 -44.8953 20.9186
  235 827.401 131.785 -48.3912
  236 700.443 -3.32411 -40.0816
  237 710.042 -4.30030 56.4771
  238 741.545 26.3646 65.1898
  239 1278.82 345.566 203.198
  240 1274.37 33.5361 -54.1693
  241 713.345 28.0915 -63.6876
  242 726.605 -22.2802 55.1002
  243 490.441 -35.9446 -72.6861
  244 482.929 -36.8351 76.8796
  245 926.134 91.5456 -42.4893
  246 838.623 25.9776 27.8706
  247 -3.23114 -1.85579 -15.9071
  248 -1.40353 0.464968 14.6169
  249 211.211 40.8824 -122.347
  250 193.451 46.9998 114.687
  251 666.403 8.10718 -41.7840
  252 698.205 -62.2862 -3.77527
  253 264.570 85.3727 -188.762
  254 213.081 103.225 165.155
  255 126.687 7.22431 -55.8175
  256 111.984 8.46706 53.0468
  257 560.136 -15.1672 -14.0473
  258 559.661 -16.2988 14.9624
  259 758.099 -33.6730 -45.4654
  260 625.576 -57.5412 -132.547
  261 847.582 21.4725 -26.8799
  262 668.331 -63.5124 22.0972
  263 673.194 61.4583 -267.837
  264 650.851 -63.9297 -33.6981
  265 570.395 -38.8544 -42.9883
  266 572.448 -42.9254 47.7265
  267 1089.58 177.028 -75.6930
  268 926.436 180.989 1.80374
  269 943.564 47.4536 124.996
  270 725.874 -9.30885 -29.0779
  271 474.651 -4.88511 12.9829
  272 477.405 -4.64766 -12.0206
  273 742.566 -62.8233 -9.96895
  274 769.197 -57.9313 -38.0444
  275 1117.18 152.354 27.9112
  276 504.671 34.2784 225.419
  277 734.370 -62.1702 6.52798
  278 743.393 -7.74838 13.0500
  279 787.808 -3.24267 -55.0280
  280 420.344 312.221 348.668
  281 65.5283 109.306 99.7065
  282 755.623 -6.62672 3.77435
  283 749.800 -6.73472 -6.02701
  284 701.781 -4.50103 34.4663
  285 646.432 26.5443 21.6365
  286 744.147 -7.17317 -14.2773
  287 791.160 -42.1057 103.994
  288 323.808 9.09247 -147.513
  289 305.423 16.5488 146.973
  290 833.134 95.8648 41.3041
  291 723.738 -74.8394 -34.2658
  292 714.794 28.2732 60.8555
  293 702.222 -9.20708 -0.422766
  294 703.152 -10.1213 0.125434
  295 727.427 -8.43103 26.6152
  296 743.539 -73.9453 37.7184
  297 803.970 152.326 11.3386
  298 1012.10 231.758 -254.681
  299 587.637 -32.2419 -27.1390
  300 580.750 -34.5271 30.4088
  301 772.877 -25.1298 42.9309
  302 891.670 189.184 1.16281
  303 552.134 -54.9887 -84.0135
  304 537.142 -52.7370 94.7591
  305 1270.85 3.46642 -30.3330
  306 1336.37 45.1305 -90.3053
  307 723.709 -22.1402 -20.3213
  308 436.665 -3.19029 19.6879
  309 441.400 -2.93347 -18.2910
  310 185.116 152.490 186.126
  311 722.517 -20.8395 17.9159
  312 774.963 43.3760 -65.5278
  313 393.841 -7.17244 -31.3787
  314 385.847 -7.41884 33.2067
  315 713.646 -13.2836 4.61846
  316 714.886 -14.6807 -5.88908
  317 4.46455 -15.4554 -12.1267
  318 6.44482 -12.7043 9.88257
  319 700.912 47.3294 256.628
  320 851.006 162.900 19.6996
  321 711.256 -40.4247 23.4392
  322 239.022 -4.69033 -47.1377
  323 223.856 -4.19210 48.0706
  324 -7.91331 10.0389 -3.91607
  325 -4.02362 11.6753 0.420313
  326 733.749 92.1271 -31.8466
  327 934.574 185.343 -11.0604
  328 713.692 -61.4261 -5.72359
  329 22.1857 25.1747 -33.6274
  330 22.1101 18.6119 27.4537
  331 403.171 -25.6185 115.307
  332 411.483 -27.8373 -110.296
  333 764.651 -3.20501 -1.41441
  334 763.406 -3.41651 1.34742
  335 644.656 -68.0846 49.3165
  336 670.385 2.12193 37.0586
  337 644.162 10.0823 32.8819
  338 72.2654 58.8375 -50.2375
  339 58.7697 48.7786 38.9075
  340 1173.63 105.948 -44.2957
  341 1095.24 317.636 66.6210
  342 661.485 -49.2392 10.3064
  343 480.899 -1.76927 -5.47415
  344 478.587 -2.06489 6.05029
  345 785.793 116.912 -48.8337
  346 308.962 -8.54683 114.315
  347 322.141 -12.3928 -112.976
  348 840.192 -7.93523 -80.1205
  349 513.244 -10.3655 -20.6091
  350 511.598 -10.8164 22.0392
  351 424.284 -22.3898 -73.3386
  352 417.167 -22.9309 77.4461
  353 331.218 -4.38263 36.9926
  354 341.990 -4.18791 -35.1018
  355 946.188 96.6615 7.40669
  356 626.470 8.25339 -27.7407
  357 546.111 159.461 339.256
  358 1032.80 240.011 47.8844
  359 1379.97 117.286 -164.794
  360 584.009 -11.3304 -5.19336
  361 583.840 -11.9942 5.35531
  362 635.626 -41.6869 -16.6074
  363 1417.06 139.175 29.8665
  364 643.207 -16.2281 -2.51222
  365 643.689 -18.0286 2.95804
  366 691.636 -43.1563 -7.15126
  367 602.624 -19.9990 -11.9393
  368 597.427 -20.4503 12.4480
  369 270.506 259.909 -268.941
  370 485.052 -15.6240 -35.3887
  371 482.055 -16.7268 37.6218
  372 600.513 19.6965 1.39630
  373 1320.27 343.114 -238.255
  374 302.934 -3.24124 -49.0332
  375 290.138 -2.67579 51.0354
  376 532.070 -39.5495 -56.9635
  377 522.441 -37.7042 61.4271
  378 720.627 57.5564 -53.0822
  379 665.640 -58.0244 -15.1157
  380 58.7677 128.756 -103.879
  381 500.783 -38.0641 -148.616
  382 514.734 -36.8137 155.181
  383 37.1130 5.77974 -25.2481
  384 24.7172 6.40508 22.2829
  385 628.776 -39.1939 17.5139
  386 451.382 -3.60985 -11.6586
  387 447.470 -3.86515 12.5763
  388 1290.41 -13.0333 -25.1989
  389 627.255 -12.6011 -1.08705
  390 627.854 -13.6710 0.983611
  391 688.895 -40.7523 6.30481
  392 1303.26 522.690 254.981
  393 723.630 -26.1373 -29.2464
  394 1239.55 120.786 64.8200
  395 788.250 -49.8658 -73.3053
  396 716.807 88.3639 0.749004
  397 627.973 -33.2969 -171.187
  398 735.482 -11.2910 -175.520
  399 104.578 39.0766 -64.6379
  400 92.6549 41.4709 56.1115
  401 719.333 -46.9169 -27.0078
  402 465.502 -18.4196 53.1324
  403 469.082 -18.4168 -50.4643
  404 747.061 -4.46208 15.9065
  405 624.880 -31.1630 -13.9781
  406 760.337 -5.73097 6.30416
  407 764.422 5.94476 63.1246
  408 805.941 -29.0994 9.67213
  409 375.024 -14.3900 88.8732
  410 383.943 -15.9337 -85.3021
  411 240.829 137.772 -205.595
  412 720.960 11.7589 65.0247
  413 725.423 -55.2377 23.0220
  414 620.294 -64.9707 104.657
  415 1130.43 220.782 -135.434
  416 727.743 -36.4742 -45.0988
  417 813.051 -13.1620 -33.9166
  418 660.864 -28.8723 -4.07647
  419 669.320 -29.5582 0.342356
  420 619.831 -70.3182 -98.2687
  421 730.025 5.48664 -67.7875
  422 620.098 -67.2058 -62.3496
  423 522.344 -4.68620 -4.53299
  424 520.998 -5.26018 4.77821
  425 772.042 124.265 -33.3290
  426 746.183 -4.69539 -17.1006
  427 882.514 176.183 -30.4411
  428 726.480 -69.7591 -91.1392
  429 766.363 -6.56299 -6.89459
  430 680.944 -79.4884 73.9465
  431 981.877 198.429 -39.1174
  432 550.633 -19.2304 23.1911
  433 552.386 -19.0235 -21.9974
  434 734.273 -6.83223 -0.0100051
  435 733.080 -6.43002 -0.259331
  436 720.806 -26.8535 27.0255
  437 541.704 -27.7237 39.7685
  438 542.414 -25.5514 -37.3068
  439 695.755 59.3852 28.2542
  440 673.654 -76.5953 -69.3034
  441 817.103 123.730 40.2420
  442 725.698 -16.6430 35.4187
  443 868.723 88.8270 -250.485
  444 524.046 -7.33391 -10.1424
  445 522.561 -8.13643 10.8057
  446 852.634 180.774 -18.8460
  447 698.675 -13.0079 -2.08392
  448 697.531 -11.4588 1.62762
  449 693.340 19.2418 -55.7361
  450 792.842 84.6342 -62.9865
  451 480.436 -0.429591 -1.36948
  452 478.411 -0.635940 1.58689
  453 725.466 -20.5038 -36.8072
  454 582.712 -18.5546 200.136
  455 724.759 449.794 -426.841
  456 770.434 103.151 45.0640
  457 236.226 61.7010 -152.059
  458 207.769 69.5651 139.060
  459 401.471 59.8641 -220.487
  460 366.130 78.5467 214.825
  461 94.0600 213.277 170.365
  462 618.493 -58.4660 45.9896
  463 1162.52 326.448 73.7089
  464 125.739 96.2190 -113.650
  465 92.3860 82.5315 78.7376
  466 402.521 -2.06688 18.4535
  467 409.432 -2.08390 -17.1966
  468 941.366 189.341 2.86349
  469 45.8472 34.0717 26.7836
  470 54.4009 36.1263 -35.4564
  471 864.830 103.707 -45.3532
  472 5.46644 6.42535 -12.3131
  473 -3.04231 6.72414 8.66609
  474 717.242 -8.67003 -59.5694
  475 10.2212 -20.4379 -2.98960
  476 7.90943 -24.9946 -1.62407
  477 771.039 -5.34018 2.24487
  478 770.895 -3.60472 -2.83709
  479 524.789 -51.9680 113.744
  480 528.319 -53.8358 -107.619
  481 1089.55 167.795 130.180
  482 816.963 161.227 -7.84012
  483 753.402 -24.1446 54.7400
  484 984.811 199.554 -1.23723
  485 876.206 34.5524 -8.64146
  486 903.663 182.817 5.18031
  487 760.606 119.323 20.5737
  488 412.943 150.482 -295.568
  489 736.692 -37.8098 45.9056
  490 891.138 148.925 16.1900
  491 819.856 -16.8149 143.675
  492 710.222 -50.8812 16.8294
  493 580.720 -13.5373 -8.56687
  494 579.513 -14.9108 8.75868
  495 775.161 61.3898 60.4608
  496 1256.49 225.297 133.911
  497 725.095 -32.2005 42.4757
  498 798.700 -11.7463 36.4092
  499 1278.62 14.2808 12.7453
  500 335.196 1.14012 138.548
  501 417.851 -2.66046 161.184
  502 349.719 -5.02707 -136.843
  503 426.764 -12.6987 -157.654
  504 1094.83 298.020 -129.955
  505 662.210 -47.6429 -10.0220
  506 708.700 -43.4844 -20.0478
  507 -6.80641 -6.55228 -10.9640
  508 -6.99536 -6.56109 11.3953
  509 1011.27 499.751 526.986
  510 559.088 -7.81644 -4.08979
  511 558.337 -8.47246 4.24854
  512 603.127 -52.8688 -48.7883
  513 611.655 -58.5547 129.293
  514 758.399 -48.0793 26.4288
  515 742.500 39.1034 -66.9246
  516 664.511 3.07768 -35.9146
  517 -18.8624 0.951708 13.4034
  518 -18.8814 0.156663 -13.7721
  519 754.220 -68.4117 83.8910
  520 475.828 -36.6139 134.062
  521 457.379 0.540944 3.63755
  522 460.314 0.584288 -3.18577
  523 199.982 17.4586 -103.307
  524 184.350 20.6333 99.1023
  525 481.152 -38.8012 -126.716
  526 896.706 68.6545 -23.6603
  527 393.108 -11.6932 -53.7008
  528 385.045 -12.3749 56.7250
  529 -1.09065 -19.2576 -14.2712
  530 -0.566429 -19.3028 14.3177
</Section>

newXOutput 42

<Section columns = "stress_xx | stress_yy | stress_xy">
  1 684.050 2.07295 3.69408
  2 730.723 3.06160 -3.30470
  3 -187.828 0.308204 -5.78328
  4 0.223855 0.213116 0.297657
  5 -0.0924839 -11.3792 1.70624
  6 -200.423 -179.499 92.7623
  7 0.442177 0.367065 -0.662063
  8 -140.155 -0.238922 4.55408
  9 712.098 -7.38023 -0.0303230
  10 711.720 -9.25115 -5.46870
  11 706.983 -4.40893 0.475125
  12 718.555 0.924244 -4.61955
  13 749.194 -3.00919 -11.8114
  14 760.101 -4.77706 -12.5193
  15 785.925 -7.01616 -12.5495
  16 811.798 -14.5643 -5.49727
  17 812.197 -19.8543 27.9990
  18 693.046 -6.15178 73.8420
  19 641.837 39.9468 92.1037
  20 593.074 81.3247 -72.5080
  21 731.493 -21.4087 -84.1312
  22 811.362 -36.2308 -28.3054
  23 823.134 -17.4464 4.47772
  24 789.980 -7.28961 7.87249
  25 803.275 -12.8308 8.46533
  26 755.890 -7.09029 9.46244
  27 762.356 -6.23785 2.58840
  28 654.617 -1.06158 -3.56033
  29 548.151 -6.00122 -0.577613
  30 402.522 3.35276 1.25292
  31 288.541 4.44660 -5.98319
  32 182.648 2.83541 -0.982542
  33 40.2760 4.76916 -2.37867
  34 -80.0067 -0.928417 -6.36977
  35 -199.611 1.13334 0.387585
  36 -210.661 10.3181 -8.33933
  37 -195.835 3.01579 -6.01542
  38 -185.055 1.91352 -5.12174
  39 -176.979 3.60652 -10.4215
  40 -160.429 2.59954 -7.60895
  41 -134.997 1.95612 -11.6628
  42 -112.014 0.296752 -11.2174
  43 -83.9966 0.614596 -12.4479
  44 -64.2364 -0.853897 -11.3688
  45 -39.2959 -1.42170 -10.5031
  46 -24.5057 -1.67237 -7.65601
  47 -13.2730 -1.29386 -3.99811
  48 -5.45239 -0.919418 -2.31527
  49 -0.776045 -0.865561 -0.775946
  50 0.349404 -0.294395 0.000831325
  51 -0.252870 0.431389 0.0595788
  52 -0.543662 -0.266002 -0.465969
  53 -0.439503 -3.08847 -1.32664
  54 -0.248773 -6.20268 -1.62397
  55 0.118520 -10.8095 -1.64639
  56 0.639552 -14.6147 -1.07172
  57 1.19459 -15.5039 1.12471
  58 -3.74311 -2.78606 3.17431
  59 -19.8267 -3.19422 9.25589
  60 -42.6575 -2.44295 12.9016
  61 -67.2588 -1.97039 17.5371
  62 -105.251 -3.83138 20.9447
  63 -153.445 -14.4873 35.1102
  64 -224.143 -66.8372 81.6426
  65 -58.2277 -190.932 78.8427
  66 -13.6638 -99.8929 29.4019
  67 -5.60403 -57.3248 15.4703
  68 -2.49428 -29.9698 8.76123
  69 -1.85142 -15.1333 5.60764
  70 -1.85721 -3.18772 2.35551
  71 -0.974994 0.347451 0.291590
  72 -0.119789 -1.16293 0.634958
  73 -5.13132 -2.39633 3.47598
  74 -20.6918 -1.72500 7.12126
  75 -41.2761 -1.49763 9.39782
  76 -63.2288 -0.533685 13.8959
  77 -84.8560 0.591161 14.2048
  78 -112.975 1.32749 10.4639
  79 -129.773 2.26466 9.64628
  80 -146.941 1.54592 5.90112
  81 -156.037 2.75633 5.26913
  82 -163.050 2.65634 0.408778
  83 -166.394 3.38295 4.17671
  84 -158.822 1.73228 -0.442759
  85 -159.493 2.22874 1.23272
  86 -166.813 8.91756 4.89790
  87 -152.025 0.661277 -1.74061
  88 -43.4102 -2.49267 4.80598
  89 66.7277 -0.626041 0.939328
  90 197.584 -4.92423 0.190971
  91 294.004 -3.83479 5.27082
  92 394.882 -4.15124 -0.170315
  93 522.052 -9.30770 1.73794
  94 615.301 -2.99607 4.15986
  95 155.698 20.1701 -14.8061
  96 82.9172 23.2466 -18.7048
  97 196.404 41.5339 -128.384
  98 -31.9054 15.2805 38.6947
  99 -1.01316 -22.6679 -39.0287
  100 126.795 1.30514 -27.5465
  101 -1.82769 -65.7344 36.5380
  102 161.795 3.68619 -8.23297
  103 146.548 20.9195 -1.00025
  104 146.929 -49.2287 125.660
  105 87.9199 12.9218 -24.8031
  106 445.216 -2.71275 -58.2720
  107 14.8343 -79.9686 -12.9920
  108 -6.03973 -11.2989 -15.0608
  109 -29.6968 -14.4127 41.7343
  110 454.920 -0.494159 -22.1036
  111 463.963 4.82975 53.9286
  112 7.21562 -13.1057 39.8938
  113 -22.3845 14.3234 19.3424
  114 -25.7875 4.22991 -45.3955
  115 -9.63456 15.8725 -26.5757
  116 19.0761 7.71556 1.64484
  117 -48.3717 -18.2509 57.6946
  118 3.74079 -28.4470 -16.7991
  119 7.97090 -42.1090 28.4132
  120 -19.9467 -31.0843 39.6916
  121 474.299 -18.7736 -96.8060
  122 400.019 -2.61003 -11.6999
  123 406.725 5.62538 19.8868
  124 1190.64 348.691 -5.25983
  125 -58.1350 4.68898 36.4522
  126 -25.6481 -6.35879 -28.0502
  127 638.312 -48.4932 103.516
  128 247.702 6.94549 -56.3859
  129 -15.2256 5.90047 -7.97779
  130 15.7735 0.0592905 -1.49308
  131 179.866 10.4413 -9.03836
  132 135.153 29.6549 -3.39419
  133 22.1302 -16.9472 -47.3931
  134 -1.93560 -105.873 14.2819
  135 381.052 10.0297 -37.7386
  136 66.6274 11.8663 -9.83171
  137 69.6329 25.3179 -3.29175
  138 0.881883 -43.8742 5.58552
  139 -48.3766 -21.0255 11.9248
  140 839.227 -107.023 -90.5757
  141 578.307 -1.54417 -33.5716
  142 267.370 27.2245 94.2713
  143 -42.7834 -7.33293 43.0870
  144 49.7393 -27.4648 -3.66212
  145 -71.3020 -23.8780 54.3397
  146 195.851 19.7631 -39.0345
  147 633.674 -28.8949 -49.5636
  148 -3.09159 -4.41111 -5.10581
  149 -11.8342 -12.8832 18.0682
  150 579.394 -4.97629 -12.8666
  151 614.249 -1.92856 28.1202
  152 61.1700 14.2933 4.79734
  153 31.6588 19.5449 -35.8689
  154 -76.0348 6.71526 24.7592
  155 -49.2597 -1.41918 -31.9011
  156 244.825 -1.47734 -2.53734
  157 230.194 10.5679 1.57651
  158 -15.6850 -43.9517 39.8059
  159 -0.132894 -14.1124 -8.89988
  160 36.3253 -14.1775 -29.0778
  161 -57.7817 4.86454 10.6635
  162 -63.2386 3.96478 -32.6650
  163 2.88348 -44.0531 -3.41550
  164 11.4059 -42.5723 -31.8968
  165 313.990 4.05750 -11.9375
  166 294.681 23.0487 19.6183
  167 567.802 -4.31340 -4.36800
  168 598.475 -0.786511 9.49422
  169 6.59078 20.7458 9.27591
  170 -50.2126 -0.473572 -1.69012
  171 -77.3001 3.63656 -12.7266
  172 905.754 -20.9541 155.380
  173 86.7720 -9.51428 -20.1903
  174 -1.95488 -48.1049 12.7858
  175 225.354 26.0115 -87.9311
  176 -4.92975 -11.8411 8.91282
  177 -0.853869 -8.50335 -50.4752
  178 -93.7673 -60.2849 60.3464
  179 -0.0953793 22.4378 22.1078
  180 674.382 -12.1778 37.6996
  181 614.089 0.749402 -22.2576
  182 270.362 30.8112 41.4910
  183 -43.5314 -3.13471 29.1672
  184 -16.1227 -4.91492 -13.9827
  185 -41.9477 -0.0559618 49.6858
  186 -3.40901 -19.7731 -26.3857
  187 26.9200 -58.2111 -4.28148
  188 314.427 12.7438 -24.5916
  189 -38.1101 15.0568 33.8309
  190 -18.0519 -9.25321 -42.4854
  191 -87.3595 3.67393 16.1683
  192 -72.6584 1.23614 -31.5640
  193 -39.5940 -60.5805 11.9494
  194 3.07899 -24.4696 -7.34787
  195 -0.0556293 -25.0104 39.9126
  196 107.644 -1.06063 -0.153338
  197 82.7573 5.65750 -3.77284
  198 31.5331 11.8720 -41.6463
  199 -30.7283 -63.2638 54.5391
  200 71.1663 23.9177 2.23777
  201 -102.735 4.31303 -21.1093
  202 -90.1318 2.16292 4.95650
  203 304.321 11.4985 -42.5729
  204 -24.7352 -10.0476 30.4780
  205 45.9364 5.97569 -0.808789
  206 14.7443 13.9361 -17.0129
  207 264.701 7.42223 -73.4935
  208 -39.5582 0.502516 0.0676878
  209 -74.5777 3.64088 -4.39811
  210 51.8579 -13.8454 13.8151
  211 814.028 130.188 -277.828
  212 -83.6861 -60.2129 63.3244
  213 458.887 -3.13578 -142.569
  214 -6.25488 -43.2948 21.0676
  215 516.446 0.522163 -30.9360
  216 291.760 1.64105 -5.89103
  217 266.254 14.9864 8.26389
  218 -9.06378 -3.52116 -8.97630
  219 -28.1699 -5.36819 23.7497
  220 1041.19 42.6496 51.9706
  221 438.637 -1.31011 -17.1062
  222 447.949 8.55855 34.1515
  223 -9.42289 -25.0844 24.7786
  224 -1.40602 -8.03442 -6.21301
  225 406.726 7.40570 8.51343
  226 399.919 -1.36775 -4.57698
  227 -79.4592 3.70053 22.0230
  228 -42.4955 -1.38646 -20.0860
  229 -45.1142 4.30051 44.7306
  230 645.952 -49.6969 -64.1646
  231 497.745 -5.44230 83.7957
  232 408.165 3.26791 168.106
  233 11.7752 -29.8154 -43.9858
  234 26.9067 -60.2058 -30.0969
  235 3.85062 -55.7713 10.0236
  236 831.501 -75.4185 -9.24135
  237 591.046 -10.8611 -44.7918
  238 444.002 -9.92070 -73.2613
  239 0.526678 -22.4169 1.68595
  240 -70.9753 -5.02418 34.6582
  241 601.794 121.108 314.222
  242 496.719 -1.66589 -45.7751
  243 -7.52474 11.9137 10.9109
  244 -26.3023 11.5027 -39.9865
  245 16.3757 -21.7865 -9.75883
  246 144.323 7.99400 -37.8489
  247 -1.67992 -1.71425 -1.67870
  248 -6.08849 -6.18154 6.81026
  249 -39.8188 -3.34918 43.1327
  250 -10.2221 -10.6395 -21.1409
  251 1146.38 151.515 -98.2940
  252 259.148 15.2687 -26.2659
  253 -36.8304 -17.0843 53.0793
  254 -1.20978 -18.6337 -17.0463
  255 -61.3733 0.983306 23.8075
  256 -26.0559 -2.28847 -14.9166
  257 113.969 -1.14537 -4.43376
  258 88.0172 9.34543 -2.22861
  259 138.948 5.72398 75.6139
  260 8.34135 24.0966 18.1537
  261 8.43193 -126.644 5.48541
  262 146.437 35.2796 2.19896
  263 -66.0507 -16.6087 42.2989
  264 175.024 15.6622 -13.0361
  265 95.5353 11.9633 0.329125
  266 52.6550 24.8602 -23.5150
  267 -13.0222 -25.4016 45.8331
  268 54.8211 3.54247 12.4318
  269 8.35353 -58.0730 -5.53549
  270 758.612 -32.2945 20.5314
  271 -108.453 -1.14827 -7.11124
  272 -76.1023 -3.27843 -1.11681
  273 113.822 21.6323 16.2628
  274 99.3818 22.3593 -19.5294
  275 -20.7196 -17.0965 48.6565
  276 4.34826 -31.7287 -28.7992
  277 233.408 19.5207 -33.8459
  278 633.715 -2.49204 -14.6044
  279 35.2506 -92.4049 39.1755
  280 1.63164 -26.5820 -0.789558
  281 0.734725 -16.4813 -4.35822
  282 636.215 -7.62091 -6.49892
  283 660.760 -3.90323 11.0614
  284 702.030 -3.88586 -22.5252
  285 771.916 -73.9557 -23.6967
  286 691.881 -2.53048 26.0790
  287 18.5659 -51.6850 -34.5072
  288 -44.5174 6.70342 43.5825
  289 -12.5756 -13.2524 -32.3950
  290 183.186 3.42391 -44.3043
  291 137.829 23.4655 -18.8837
  292 542.584 -25.7430 -70.8853
  293 489.149 -3.44325 -6.65425
  294 510.208 2.20551 10.4581
  295 679.675 -1.32202 -20.2573
  296 43.1527 -10.4474 -33.8861
  297 159.225 29.9630 -70.1957
  298 -111.559 -76.0556 34.9165
  299 143.030 9.44996 -3.09950
  300 94.1849 22.9327 -11.0527
  301 277.802 9.19058 -51.3772
  302 28.0636 -18.3274 19.6477
  303 32.5523 18.7989 10.7321
  304 1.02893 9.45495 -46.2950
  305 -52.1810 -2.75366 25.5343
  306 -106.874 -8.37727 35.2365
  307 575.755 -5.47068 41.8861
  308 -131.593 3.67251 -12.2278
  309 -112.162 2.34008 1.29616
  310 1.65555 -21.1133 -10.4452
  311 541.197 -3.50195 -18.5322
  312 19.8016 -88.5247 33.5600
  313 -113.945 1.16661 7.07171
  314 -110.953 1.64164 -20.3011
  315 514.285 -2.87066 -9.29957
  316 538.017 2.06451 19.2961
  317 -0.681618 -3.08023 -2.07018
  318 -2.78420 -12.1552 8.41709
  319 8.28575 -43.4583 -17.6366
  320 130.564 18.7968 -35.1603
  321 416.924 4.73023 -26.8475
  322 -104.838 2.05975 14.8664
  323 -65.4597 -0.221421 -17.7262
  324 -4.25441 -1.82190 -3.46088
  325 -14.8533 -4.35787 11.3398
  326 199.817 68.7266 -194.240
  327 57.4490 -27.7038 1.48306
  328 194.108 36.6747 36.0306
  329 -4.87307 -40.9588 19.0394
  330 -0.273142 -10.1770 -3.66827
  331 -28.4553 -2.68833 -44.1951
  332 -41.6830 13.3065 28.2701
  333 687.725 -1.59772 3.35152
  334 645.201 -3.55766 -0.931121
  335 72.1577 27.3558 -27.1844
  336 730.605 -11.4712 -21.9937
  337 756.132 -29.3559 -17.3643
  338 -18.6923 -17.9770 31.2691
  339 -3.66007 -7.59345 -9.12355
  340 -35.3025 -11.6893 49.4648
  341 -8.61303 -24.6684 16.7329
  342 224.494 32.9194 18.5350
  343 -85.4845 0.328581 1.02284
  344 -123.492 2.32077 -5.67478
  345 10.8602 -68.1670 3.00739
  346 -29.7626 -4.97836 -34.4206
  347 -56.9262 8.18361 33.0998
  348 15.9786 4.44311 -5.57776
  349 10.9560 2.55130 0.493762
  350 -18.4963 8.96776 -14.0987
  351 -52.5087 8.22708 16.4817
  352 -51.7660 4.05261 -38.1036
  353 -103.693 0.618001 -18.6848
  354 -123.909 1.32866 8.89450
  355 4.49939 -79.8200 9.82877
  356 829.655 225.195 20.9775
  357 5.44899 -33.9182 -9.35314
  358 -15.7960 -50.6752 40.3914
  359 -132.592 -28.0221 51.1542
  360 180.154 -3.72625 -3.32645
  361 162.819 5.43657 1.45979
  362 232.167 7.12922 -10.3012
  363 -12.9565 -8.50841 14.3378
  364 323.135 -2.45498 -3.77243
  365 316.395 7.87451 6.64040
  366 343.370 19.6034 40.7046
  367 208.839 0.613459 -6.96429
  368 179.748 12.9608 3.23821
  369 -43.2552 -98.0337 59.3436
  370 -24.4794 2.69832 3.06165
  371 -48.2888 7.98892 -22.5691
  372 809.692 -42.9304 61.8028
  373 -133.628 -93.4403 57.9684
  374 -108.288 2.56759 12.9629
  375 -78.7478 -0.160286 -21.2783
  376 39.2189 11.8685 4.62595
  377 -2.34475 16.0075 -35.2259
  378 192.560 116.688 -173.218
  379 243.910 15.0816 -18.5035
  380 -10.9407 -70.7523 31.3354
  381 -21.3344 18.6471 30.6611
  382 -2.65365 -15.5785 -47.0978
  383 -48.8223 -0.487604 15.6335
  384 -17.8736 -1.20772 -7.42422
  385 196.061 24.9143 5.81168
  386 -122.685 -1.58242 0.266899
  387 -151.204 -0.0633554 -8.39265
  388 -31.6762 -3.05089 19.5364
  389 290.338 -4.06660 0.222779
  390 284.594 5.22537 -0.555898
  391 374.285 3.83812 -20.5789
  392 -2.34224 -2.08406 2.35015
  393 570.712 -11.4197 56.8614
  394 -28.1316 -15.1748 41.0876
  395 46.6208 18.9511 -8.43975
  396 518.627 25.3563 -204.750
  397 -21.0528 19.5352 28.0880
  398 -31.7556 8.61902 21.3644
  399 -31.5453 -6.72463 33.9140
  400 -9.24937 -6.66176 -13.7592
  401 330.810 17.0768 77.3893
  402 -52.7431 8.11667 -28.2783
  403 -35.3938 5.82542 4.46140
  404 696.651 2.34313 -10.2744
  405 243.142 5.70202 -11.6838
  406 668.087 -5.18300 -8.71246
  407 347.488 -1.60610 -66.7433
  408 148.678 17.6381 -34.5900
  409 -48.8157 0.425686 -37.1657
  410 -61.9669 8.27208 20.3914
  411 -34.9111 -37.2825 55.7003
  412 530.567 -16.4425 -62.1813
  413 316.273 12.9807 -41.3270
  414 15.8959 -4.53711 -50.8191
  415 -38.6498 -46.0748 53.8327
  416 428.981 -3.20548 121.274
  417 15.7680 -88.4805 -9.25472
  418 344.673 0.193475 -14.7338
  419 354.799 14.3712 22.2858
  420 40.1235 26.2242 10.1889
  421 400.179 -20.4300 254.826
  422 108.041 20.0096 -2.17416
  423 21.5062 -2.99388 -1.85934
  424 -8.95177 0.796743 -0.931703
  425 67.8085 -4.32287 -60.3403
  426 768.939 -3.73794 12.9431
  427 -1.81010 -54.0524 20.2867
  428 40.1504 24.4907 -1.28003
  429 737.262 -8.07338 13.7896
  430 34.9264 -1.30398 -44.9978
  431 14.8792 -44.0563 6.64467
  432 57.7034 14.7315 -9.69935
  433 90.7862 3.10601 -2.99072
  434 603.166 -1.83254 7.96612
  435 569.769 -4.90486 -5.18035
  436 523.906 0.301552 -26.4618
  437 26.1395 16.4664 -23.5239
  438 60.1289 7.52746 3.02548
  439 625.900 -66.4252 -110.349
  440 96.0436 24.3860 -6.17062
  441 200.724 16.2270 -62.6477
  442 577.434 0.187133 -27.7537
  443 -90.6399 -30.6279 33.0698
  444 27.7128 -4.06014 -4.74939
  445 -2.96837 0.809266 -0.738572
  446 17.3391 -66.5457 22.1946
  447 490.321 6.58713 13.8501
  448 473.053 -0.105810 -7.21888
  449 1474.17 268.508 298.449
  450 0.00000 0.00000 0.00000
  451 -96.6809 0.974550 3.19216
  452 -138.084 2.46327 -5.64087
  453 643.200 -25.3821 60.3898
  454 7.20677 -31.4553 -38.1623
  455 -121.738 -145.261 83.8925
  456 315.668 7.01514 -106.464
  457 -38.0444 -8.71556 49.8065
  458 -5.10396 -14.5186 -20.6655
  459 -45.8289 -7.06810 55.3343
  460 1.37547 -24.5968 -23.0781
  461 1.22874 -19.1697 -1.64309
  462 85.9620 33.9904 -17.2902
  463 0.465782 -18.6612 3.35549
  464 -22.8747 -27.3370 42.6420
  465 -2.44651 -12.3742 -11.2273
  466 -143.173 0.656509 -12.3454
  467 -136.207 0.0979613 2.96583
  468 24.0105 -8.47824 25.6266
  469 -5.83048 -5.34711 -9.08083
  470 -21.1109 -9.48528 26.6787
  471 -2.69094 -74.3513 20.0101
  472 -30.5301 -1.17514 13.6925
  473 -9.67829 -1.16829 -5.24811
  474 717.826 -56.5939 175.771
  475 -2.22107 -24.3298 11.0793
  476 -0.387710 -5.82554 -2.54955
  477 668.532 -8.61618 -1.91855
  478 712.392 -4.00279 4.84140
  479 -5.18314 0.593280 -49.6949
  480 5.39089 20.1640 18.4419
  481 3.70685 -46.8541 3.24057
  482 75.6360 3.82975 -33.6506
  483 355.666 4.97170 -58.0038
  484 0.213518 -32.8338 6.45418
  485 67.4349 -1.95731 -21.0812
  486 85.1497 3.07795 -5.56942
  487 298.956 34.9418 -144.719
  488 -56.3654 -43.8613 64.0634
  489 395.080 7.26061 -46.1062
  490 100.296 -9.48401 -14.6726
  491 13.8642 -56.9208 -22.8793
  492 333.246 9.96792 -29.5174
  493 167.289 -0.819691 -2.87295
  494 145.143 9.26358 -0.816339
  495 321.746 -1.35829 -80.3753
  496 -17.2750 -24.7146 29.4899
  497 456.006 4.70605 -40.9238
  498 202.783 13.2063 -47.6074
  499 -37.3166 -5.79547 34.5346
  500 -18.8484 -9.32995 -36.1612
  501 -10.3727 -14.6827 -40.9321
  502 -48.1473 8.73442 39.4585
  503 -36.6145 13.6073 38.6604
  504 -36.2526 -73.0141 39.5835
  505 277.809 11.7735 -17.8923
  506 372.638 14.3815 64.1076
  507 -0.110431 -0.0740235 0.00143626
  508 -0.736592 -0.761803 0.672372
  509 -0.924646 -22.3673 1.56127
  510 117.433 -4.05109 -2.96602
  511 94.8432 2.39074 1.18597
  512 113.960 12.9530 1.05226
  513 10.1280 -14.7645 -50.6660
  514 254.437 15.0134 -43.5932
  515 96.1098 -26.7095 96.5938
  516 819.709 -29.4414 -103.886
  517 -3.88859 -1.69892 2.76100
  518 -0.822180 -0.463207 -0.502636
  519 24.7984 -37.1605 -43.8979
  520 -11.3088 -7.08619 -48.7344
  521 -175.803 2.80560 -7.31840
  522 -136.408 2.13021 3.25424
  523 -48.7509 1.11508 38.3953
  524 -17.8060 -6.84702 -23.3149
  525 -20.0094 17.6272 28.3016
  526 6.09410 -100.744 18.7894
  527 -89.8193 2.39140 12.8592
  528 -83.7268 0.756591 -29.8796
  529 -0.475202 -0.591964 -0.476297
  530 -1.67693 -3.35849 2.45942
</Section>

newXOutput 43

<Section columns = "stress_xx | stress_yy | stress_xy">
  1 698.549 2.04974 3.75495
  2 747.064 3.04776 -3.36625
  3 -191.568 0.281775 -5.90687
  4 0.228269 0.217204 0.303896
  5 -0.0951609 -11.6753 1.75498
  6 -203.551 -182.453 94.1059
  7 0.443180 0.366625 -0.666793
  8 -141.547 -0.262351 4.63745
  9 727.076 -7.57750 -0.0450373
  10 726.723 -9.48546 -5.60395
  11 721.994 -4.55076 0.442911
  12 733.864 0.872187 -4.75905
  13 765.158 -3.14153 -12.0994
  14 776.449 -4.95729 -12.8414
  15 802.945 -7.24055 -12.9078
  16 829.578 -14.9173 -5.79527
  17 830.509 -20.2838 28.1693
  18 710.096 -6.23484 74.8290
  19 658.558 40.9386 93.3873
  20 609.171 83.2216 -73.5976
  21 749.508 -21.8100 -85.3882
  22 830.149 -37.0218 -28.5596
  23 841.704 -17.8751 4.74054
  24 807.700 -7.51415 8.11090
  25 821.080 -13.1625 8.68276
  26 772.758 -7.32866 9.70529
  27 779.294 -6.44483 2.65170
  28 669.526 -1.24148 -3.63615
  29 560.965 -6.35908 -0.578395
  30 412.312 3.17017 1.31946
  31 295.874 4.30217 -6.10113
  32 187.589 2.69922 -0.967019
  33 41.9288 4.74096 -2.40429
  34 -81.1843 -1.01453 -6.49933
  35 -203.657 1.13693 0.416461
  36 -215.052 10.5371 -8.49461
  37 -199.951 3.06792 -6.10433
  38 -189.018 1.95118 -5.19129
  39 -180.889 3.68559 -10.6227
  40 -164.036 2.65816 -7.74507
  41 -138.101 2.00357 -11.9071
  42 -114.640 0.306909 -11.4591
  43 -86.0079 0.633110 -12.7283
  44 -65.7977 -0.868947 -11.6276
  45 -40.2738 -1.45037 -10.7529
  46 -25.1386 -1.70785 -7.84460
  47 -13.6311 -1.32335 -4.09986
  48 -5.60945 -0.940994 -2.37659
  49 -0.806745 -0.886956 -0.799819
  50 0.353103 -0.302616 -0.00161503
  51 -0.259966 0.437677 0.0588911
  52 -0.557349 -0.282815 -0.481375
  53 -0.449962 -3.18483 -1.36310
  54 -0.254106 -6.38290 -1.66790
  55 0.123075 -11.1073 -1.68955
  56 0.657788 -15.0093 -1.09664
  57 1.22753 -15.9168 1.15714
  58 -3.83770 -2.84384 3.25662
  59 -20.2766 -3.25008 9.45596
  60 -43.5598 -2.47126 13.1545
  61 -68.5763 -1.97753 17.8395
  62 -107.164 -3.87237 21.2498
  63 -156.087 -14.7054 35.6234
  64 -227.797 -67.9054 82.8829
  65 -59.1186 -194.188 80.0638
  66 -13.8638 -101.722 29.8752
  67 -5.68416 -58.4601 15.7366
  68 -2.52921 -30.6283 8.92820
  69 -1.87939 -15.5032 5.72282
  70 -1.88974 -3.30010 2.41786
  71 -0.996244 0.328227 0.308976
  72 -0.149297 -1.18737 0.659016
  73 -5.28045 -2.43637 3.55910
  74 -21.1600 -1.74871 7.26251
  75 -42.1361 -1.51428 9.57514
  76 -64.4659 -0.526130 14.1448
  77 -86.4031 0.614780 14.4385
  78 -114.960 1.35728 10.6028
  79 -131.995 2.30651 9.77972
  80 -149.351 1.57564 5.95867
  81 -158.482 2.80870 5.31383
  82 -165.465 2.70370 0.352484
  83 -168.754 3.44547 4.20557
  84 -160.867 1.76196 -0.506464
  85 -161.447 2.26182 1.20728
  86 -168.842 9.08559 4.96232
  87 -153.682 0.661912 -1.79407
  88 -42.8188 -2.58234 4.88831
  89 69.5679 -0.729819 0.934337
  90 203.065 -5.16422 0.162357
  91 301.398 -4.08677 5.36246
  92 404.205 -4.42283 -0.207336
  93 533.734 -9.65875 1.75873
  94 628.635 -3.17257 4.23538
  95 160.232 20.4755 -15.6524
  96 85.2303 24.0065 -18.6840
  97 201.683 43.4721 -132.425
  98 -31.8579 15.6513 39.0719
  99 -0.998100 -23.1316 -39.9082
  100 130.418 1.78083 -29.0654
  101 -1.66847 -66.6300 36.9579
  102 166.524 3.61252 -8.65926
  103 150.626 21.2551 -0.737797
  104 150.715 -49.2679 129.342
  105 90.8719 13.3270 -25.9703
  106 455.896 -2.90227 -60.0793
  107 15.1890 -81.7275 -13.2522
  108 -6.17858 -11.5639 -15.4315
  109 -30.1047 -14.6047 42.4218
  110 465.531 -0.718489 -22.8370
  111 475.251 4.79664 55.5577
  112 7.86064 -12.9573 40.1028
  113 -21.9196 14.5813 19.3871
  114 -26.2216 4.38428 -46.3026
  115 -9.43099 16.2335 -26.9319
  116 20.6962 7.79314 1.36184
  117 -48.8904 -18.4368 58.4759
  118 3.84321 -29.1155 -17.2024
  119 8.84370 -42.5221 28.3300
  120 -20.2442 -31.5468 40.3543
  121 485.683 -19.0298 -99.7320
  122 409.480 -2.86194 -12.1029
  123 416.658 5.50964 20.5361
  124 1215.38 357.844 -5.56894
  125 -58.9108 4.80931 36.9864
  126 -26.2398 -6.48870 -28.7021
  127 653.342 -49.4702 106.434
  128 254.186 7.17736 -58.3473
  129 -14.9554 5.95366 -8.00045
  130 17.5039 -0.00842620 -1.67489
  131 184.935 10.4947 -9.63234
  132 138.894 30.3165 -3.05149
  133 22.7659 -17.1268 -48.2873
  134 -1.96914 -108.083 14.7296
  135 390.328 10.0355 -38.9840
  136 68.7148 12.8340 -10.9941
  137 72.2165 25.8217 -3.92876
  138 0.900242 -44.9479 5.73060
  139 -48.5137 -21.1901 11.6608
  140 858.113 -108.721 -93.4943
  141 591.447 -1.75540 -34.5708
  142 274.197 28.1385 97.1502
  143 -43.4136 -7.34692 43.7519
  144 51.0905 -27.5930 -3.28165
  145 -72.2515 -24.1464 55.0129
  146 201.242 20.1538 -40.5070
  147 648.219 -29.6215 -51.1096
  148 -3.16880 -4.52242 -5.24087
  149 -12.0359 -13.1095 18.4201
  150 592.211 -5.24066 -13.2622
  151 628.522 -2.17049 28.9084
  152 63.6352 14.4954 4.47700
  153 32.7651 20.0667 -36.3845
  154 -77.0184 6.84904 25.0556
  155 -50.3741 -1.43009 -32.6065
  156 251.246 -1.67353 -2.73178
  157 236.218 10.5973 1.78058
  158 -15.8996 -44.6956 40.4657
  159 -0.130565 -14.4628 -9.12355
  160 37.3796 -13.3678 -30.2436
  161 -57.9856 4.93104 10.6395
  162 -64.4915 4.06672 -33.2900
  163 2.95616 -45.1306 -3.49033
  164 11.6984 -43.4886 -32.6119
  165 321.814 3.94045 -12.4935
  166 302.176 23.4053 20.4285
  167 580.328 -4.55222 -4.52019
  168 612.324 -1.00789 9.77229
  169 7.69078 21.2585 8.92062
  170 -49.9513 -0.531526 -1.89901
  171 -78.6160 3.67738 -12.8574
  172 925.831 -20.2783 159.800
  173 89.5523 -9.35832 -21.3535
  174 -2.00357 -49.2621 13.1035
  175 231.293 27.0630 -90.9134
  176 -5.02628 -12.0982 9.10120
  177 -0.760620 -8.58028 -51.5143
  178 -95.0239 -61.1783 61.0814
  179 0.832442 22.8854 22.1048
  180 690.076 -12.5662 38.8349
  181 627.697 0.601988 -22.8784
  182 277.309 31.5168 42.9820
  183 -44.2491 -3.16154 29.6608
  184 -16.5160 -5.02661 -14.3242
  185 -42.3395 0.0399823 50.3749
  186 -3.47009 -20.2120 -27.0081
  187 27.8742 -58.1961 -5.15207
  188 322.300 12.8061 -25.5130
  189 -38.1867 15.3858 34.1738
  190 -18.4091 -9.40795 -43.4206
  191 -88.3821 3.72896 16.3003
  192 -74.2557 1.27103 -32.2235
  193 -39.6044 -61.4007 11.6693
  194 3.16112 -25.0775 -7.52692
  195 0.263037 -25.0736 40.2447
  196 111.305 -1.19098 -0.256765
  197 85.3891 5.63410 -3.74511
  198 32.5458 12.3060 -42.3060
  199 -31.1531 -64.2987 55.3899
  200 73.8072 24.3400 1.78109
  201 -104.833 4.39772 -21.4769
  202 -90.8886 2.17601 4.89085
  203 312.055 11.6130 -44.0644
  204 -25.1856 -10.1960 31.0490
  205 48.2184 6.01391 -1.08016
  206 15.6420 14.1994 -17.1591
  207 271.530 7.85605 -76.0065
  208 -38.9114 0.461116 0.00457411
  209 -75.6537 3.64537 -4.42708
  210 53.6724 -13.6599 13.3051
  211 831.402 135.058 -285.092
  212 -84.7270 -61.0988 64.0866
  213 469.947 -2.83894 -146.639
  214 -6.35308 -44.0868 21.4462
  215 528.340 0.319893 -31.8955
  216 299.119 1.48587 -6.21578
  217 273.096 15.1255 8.71823
  218 -9.29004 -3.60434 -9.20325
  219 -28.6599 -5.44413 24.1825
  220 1064.25 44.1597 51.7238
  221 448.865 -1.54407 -17.6828
  222 458.803 8.54379 35.2150
  223 -9.55918 -25.5355 25.2298
  224 -1.43852 -8.23906 -6.37396
  225 416.633 7.31621 8.81225
  226 409.357 -1.58702 -4.76103
  227 -80.7071 3.78092 22.3426
  228 -43.5026 -1.40909 -20.5487
  229 -45.3893 4.51962 45.2084
  230 660.900 -50.7362 -66.2166
  231 509.795 -5.59921 86.2155
  232 418.144 3.83989 172.727
  233 12.1016 -30.3829 -44.9258
  234 27.5872 -61.2855 -30.6127
  235 4.01518 -56.5489 10.0470
  236 850.693 -76.9211 -8.77574
  237 604.588 -11.2471 -46.1387
  238 454.715 -10.1581 -75.5337
  239 0.539229 -22.9804 1.73462
  240 -72.1492 -5.04107 35.1671
  241 614.423 125.439 321.584
  242 508.357 -1.89249 -47.1827
  243 -6.61562 12.0997 10.7899
  244 -26.6522 11.8075 -40.7107
  245 17.6241 -21.9086 -10.5664
  246 148.493 8.33647 -39.3776
  247 -1.72470 -1.76043 -1.72722
  248 -6.20981 -6.30489 6.96378
  249 -40.3285 -3.34591 43.8086
  250 -10.4552 -10.8782 -21.6489
  251 1171.98 155.527 -99.1794
  252 265.896 15.4170 -27.3081
  253 -37.2572 -17.2859 53.8748
  254 -1.22741 -19.0714 -17.4603
  255 -62.4161 1.01641 24.1989
  256 -26.6937 -2.33651 -15.2737
  257 117.736 -1.28586 -4.69964
  258 90.7470 9.42384 -2.08561
  259 142.643 6.44878 78.0900
  260 9.46569 24.6158 18.0189
  261 8.62712 -129.402 5.68957
  262 150.400 36.1604 2.73769
  263 -66.7066 -16.7346 42.6796
  264 179.984 15.8358 -13.7822
  265 98.8066 12.0985 -0.0299692
  266 54.3635 25.4389 -23.7219
  267 -12.7168 -25.5636 46.1728
  268 56.6512 4.18385 11.8446
  269 8.55125 -59.4330 -5.65579
  270 776.117 -33.0300 21.3497
  271 -110.443 -1.21691 -7.17226
  272 -76.3078 -3.37826 -1.24160
  273 116.906 22.4973 17.2275
  274 102.627 22.8477 -20.5593
  275 -20.8793 -17.1840 49.3347
  276 4.47278 -32.4305 -29.4656
  277 239.619 19.8117 -35.1372
  278 647.576 -2.66141 -15.0002
  279 36.2263 -93.7797 40.5680
  280 1.67326 -27.2539 -0.803411
  281 0.756232 -16.9052 -4.46701
  282 649.976 -7.87501 -6.69692
  283 675.871 -4.14451 11.3873
  284 717.502 -4.07410 -23.1592
  285 789.452 -75.4056 -24.8620
  286 707.775 -2.72302 26.7940
  287 19.0241 -52.7297 -35.2368
  288 -44.9490 6.88826 44.1810
  289 -12.8468 -13.5310 -33.1454
  290 188.171 3.77901 -46.1028
  291 141.957 23.8894 -19.8690
  292 555.364 -26.3240 -73.0751
  293 500.238 -3.69488 -6.83687
  294 522.259 2.00759 10.7452
  295 694.552 -1.45623 -20.8006
  296 44.3423 -10.3727 -34.3342
  297 163.626 31.3162 -72.8411
  298 -113.026 -77.1975 35.1587
  299 147.342 9.50626 -3.48439
  300 96.9728 23.3874 -10.9781
  301 284.967 9.33662 -53.1395
  302 29.0655 -18.0214 19.3499
  303 34.3237 19.1176 10.5211
  304 1.29632 9.76045 -47.1421
  305 -53.1364 -2.75895 25.9720
  306 -108.665 -8.47893 35.7304
  307 589.356 -5.77481 43.1062
  308 -134.312 3.74276 -12.4176
  309 -113.292 2.36893 1.20987
  310 1.70332 -21.6271 -10.7026
  311 553.404 -3.76391 -19.1068
  312 20.3605 -90.0026 34.6021
  313 -115.359 1.17149 7.08128
  314 -113.372 1.67588 -20.6947
  315 525.882 -3.11061 -9.61460
  316 550.700 1.88003 19.8737
  317 -0.698397 -3.16618 -2.12781
  318 -2.83034 -12.4131 8.59511
  319 8.49385 -44.4584 -18.0479
  320 134.263 19.7600 -36.9276
  321 426.863 4.61486 -27.7694
  322 -106.535 2.09581 15.0657
  323 -67.0081 -0.221522 -18.1258
  324 -4.36829 -1.86691 -3.55324
  325 -15.1525 -4.43121 11.5674
  326 204.895 72.1355 -199.859
  327 59.4744 -27.8387 0.762270
  328 199.218 37.6908 37.4627
  329 -4.94404 -41.7441 19.3756
  330 -0.278674 -10.4471 -3.76310
  331 -29.0278 -2.69922 -45.1411
  332 -41.7821 13.5670 28.5255
  333 703.270 -1.75620 3.44129
  334 659.053 -3.72193 -0.971022
  335 74.2550 28.1103 -27.4018
  336 746.825 -11.8055 -22.6901
  337 773.105 -30.0255 -18.1048
  338 -18.9728 -18.2644 31.8274
  339 -3.74720 -7.77847 -9.35624
  340 -35.6145 -11.6862 50.0654
  341 -8.78441 -25.1398 17.0525
  342 230.363 33.6075 19.4142
  343 -85.8125 0.303588 0.981821
  344 -125.766 2.32776 -5.73901
  345 11.3427 -68.6033 2.57832
  346 -30.4228 -5.06713 -35.1967
  347 -57.5383 8.35339 33.5254
  348 17.2892 4.70834 -6.27418
  349 12.5400 2.53664 0.311627
  350 -18.3554 9.10722 -14.2297
  351 -52.6886 8.36323 16.5514
  352 -52.8064 4.17071 -38.8685
  353 -106.044 0.632234 -19.0754
  354 -125.708 1.34501 8.96354
  355 4.60521 -81.7241 10.0830
  356 850.142 229.991 21.1365
  357 5.58855 -34.7377 -9.57838
  358 -15.9811 -51.4416 40.9963
  359 -134.660 -28.4313 51.8378
  360 185.285 -3.94170 -3.47703
  361 167.308 5.36585 1.58962
  362 238.335 7.09747 -10.8647
  363 -13.2172 -8.67342 14.6381
  364 331.101 -2.69613 -3.99141
  365 324.347 7.80733 6.96031
  366 351.978 19.9295 42.0740
  367 214.540 0.470807 -7.31314
  368 184.616 13.0768 3.53440
  369 -43.8835 -99.6799 60.2354
  370 -23.7614 2.69169 2.89362
  371 -48.9913 8.13971 -22.8983
  372 828.472 -43.6465 62.3505
  373 -135.511 -94.8974 58.6500
  374 -109.899 2.61730 13.0961
  375 -80.5605 -0.155650 -21.7377
  376 41.2322 12.0276 4.35631
  377 -2.03085 16.3980 -35.7824
  378 196.820 121.018 -177.593
  379 250.330 15.2166 -19.3297
  380 -11.0977 -72.0147 31.8405
  381 -20.9726 19.0427 30.8662
  382 -2.64376 -15.8493 -48.1166
  383 -49.7471 -0.488927 15.9143
  384 -18.3313 -1.23482 -7.60898
  385 201.280 25.3688 6.31280
  386 -123.932 -1.63741 0.185209
  387 -154.300 -0.0901833 -8.50545
  388 -32.2947 -3.08742 19.9123
  389 297.653 -4.32481 0.161639
  390 291.828 5.10303 -0.490966
  391 383.326 3.70735 -21.3341
  392 -2.39069 -2.13638 2.40709
  393 584.291 -11.8018 58.5302
  394 -28.5691 -15.3366 41.7803
  395 48.6618 19.4293 -9.20913
  396 530.795 26.6668 -210.295
  397 -20.6553 20.0185 28.1719
  398 -31.5579 8.93957 21.2869
  399 -32.0344 -6.80586 34.5028
  400 -9.47210 -6.81618 -14.1002
  401 339.162 17.5232 79.7780
  402 -53.6472 8.30483 -28.7497
  403 -35.0019 5.89954 4.29010
  404 711.689 2.31088 -10.5596
  405 249.531 5.63966 -12.2074
  406 682.464 -5.38035 -8.95350
  407 356.143 -1.68154 -68.8752
  408 153.004 18.0777 -35.9962
  409 -49.8547 0.466132 -37.9474
  410 -62.4773 8.43025 20.5524
  411 -35.3559 -37.8357 56.5570
  412 543.028 -16.9052 -64.0795
  413 324.229 13.0777 -42.7166
  414 16.4163 -4.48272 -51.7910
  415 -38.8031 -46.6401 54.3533
  416 439.568 -3.14210 124.696
  417 16.1636 -90.0602 -9.22943
  418 353.080 -0.00599092 -15.2793
  419 363.617 14.4782 23.0797
  420 42.0234 26.7315 9.89281
  421 409.830 -19.5431 261.574
  422 111.536 20.3188 -2.69746
  423 23.4179 -3.12605 -1.94753
  424 -8.46094 0.706559 -0.895143
  425 69.8493 -2.79210 -62.7509
  426 786.427 -3.89291 13.3770
  427 -1.80461 -54.9766 20.6128
  428 42.0468 25.0345 -1.88049
  429 753.876 -8.36201 14.1582
  430 35.9507 -1.11146 -45.7389
  431 15.9847 -44.5379 6.14270
  432 59.6705 14.9711 -9.67358
  433 94.0405 3.06122 -3.28718
  434 617.081 -2.07375 8.16300
  435 582.309 -5.15179 -5.30661
  436 535.869 0.0970187 -27.2688
  437 27.2584 16.8075 -23.7880
  438 62.6725 7.58770 2.78324
  439 640.466 -67.5810 -113.624
  440 99.2421 24.8235 -6.85145
  441 206.089 16.9598 -64.9776
  442 590.464 0.0146216 -28.5573
  443 -91.7182 -30.9912 33.2666
  444 29.7326 -4.21698 -4.94745
  445 -2.35716 0.724919 -0.642454
  446 17.9665 -67.1835 22.1270
  447 502.000 6.48580 14.2759
  448 483.873 -0.296762 -7.46619
  449 1504.23 276.687 305.940
  450 0.00000 0.00000 0.00000
  451 -97.1952 0.964373 3.22723
  452 -140.656 2.47066 -5.73789
  453 658.332 -26.0163 62.1725
  454 7.40439 -32.1167 -39.0220
  455 -123.610 -147.633 85.1044
  456 323.627 7.47728 -109.759
  457 -38.5114 -8.79014 50.5791
  458 -5.21515 -14.8504 -21.1651
  459 -46.2891 -7.07209 56.0963
  460 1.42410 -25.1560 -23.6282
  461 1.26201 -19.6681 -1.68138
  462 88.4634 34.8414 -17.2738
  463 0.475398 -19.1294 3.44390
  464 -23.1837 -27.7589 43.3479
  465 -2.50105 -12.6728 -11.5087
  466 -146.288 0.663818 -12.5692
  467 -137.972 0.0891761 2.93684
  468 24.9887 -8.08076 25.4329
  469 -5.97398 -5.47518 -9.31168
  470 -21.4590 -9.62995 27.1644
  471 -2.76341 -76.0726 20.5063
  472 -31.1312 -1.19089 13.9523
  473 -9.93281 -1.19570 -5.38277
  474 734.323 -57.4115 180.456
  475 -2.25198 -24.8372 11.2934
  476 -0.396453 -5.98733 -2.61768
  477 682.803 -8.86071 -1.98916
  478 728.426 -4.19973 4.97861
  479 -5.14943 0.706050 -50.6825
  480 6.48109 20.5434 18.3905
  481 3.79583 -48.0121 3.32944
  482 77.9139 4.89538 -35.4042
  483 364.483 4.96448 -59.8575
  484 0.218706 -33.6435 6.61841
  485 69.8598 -1.76422 -22.1856
  486 87.7442 3.67037 -6.60564
  487 306.531 36.2604 -148.981
  488 -57.1009 -44.5032 64.9730
  489 404.685 7.24403 -47.5965
  490 103.314 -9.28133 -15.8160
  491 14.2064 -58.1823 -23.3876
  492 341.534 9.97286 -30.5829
  493 172.154 -0.973751 -3.07238
  494 149.216 9.29597 -0.673948
  495 329.844 -1.25413 -82.9484
  496 -17.5882 -25.1665 30.0528
  497 466.774 4.59101 -42.1795
  498 208.302 13.5365 -49.3219
  499 -37.9522 -5.83704 35.1389
  500 -19.2560 -9.51481 -36.9856
  501 -10.5695 -14.9693 -41.8517
  502 -48.5772 8.93567 39.9723
  503 -36.6977 13.9264 39.0869
  504 -36.2882 -74.0437 39.8150
  505 284.923 11.8258 -18.6427
  506 381.934 14.6372 66.0826
  507 -0.114986 -0.0778524 -0.00140254
  508 -0.759535 -0.785320 0.699822
  509 -0.949524 -22.9386 1.60601
  510 121.304 -4.24303 -3.07394
  511 97.7693 2.28435 1.26891
  512 117.607 13.0945 0.649271
  513 10.4653 -14.9660 -51.7055
  514 261.110 15.2470 -45.1421
  515 98.5214 -26.3187 99.2656
  516 839.287 -29.7673 -105.258
  517 -3.98883 -1.73183 2.83301
  518 -0.848665 -0.475572 -0.519801
  519 25.4419 -37.7954 -44.7555
  520 -11.4758 -7.17312 -49.7696
  521 -179.373 2.85041 -7.44168
  522 -137.825 2.16102 3.27730
  523 -49.4401 1.17272 38.9977
  524 -18.2229 -6.99517 -23.8691
  525 -19.5893 17.9772 28.4843
  526 6.22715 -103.082 19.2542
  527 -90.7874 2.42069 12.9288
  528 -85.5306 0.781648 -30.4856
  529 -0.487847 -0.612773 -0.492378
  530 -1.71043 -3.44922 2.52543
</Section>

newXOutput 44

<Section columns = "stress_xx | stress_yy | stress_xy">
  1 712.956 2.02389 3.81465
  2 763.334 3.03015 -3.42697
  3 -195.264 0.254030 -6.02955
  4 0.232630 0.221235 0.310083
  5 -0.0978575 -11.9722 1.80404
  6 -206.596 -185.339 95.4065
  7 0.443741 0.365761 -0.671011
  8 -142.847 -0.286076 4.71957
  9 741.955 -7.77508 -0.0602969
  10 741.627 -9.71975 -5.73913
  11 736.911 -4.69367 0.409019
  12 749.079 0.817436 -4.89954
  13 781.023 -3.27597 -12.3872
  14 792.701 -5.13977 -13.1639
  15 819.870 -7.46676 -13.2679
  16 847.267 -15.2697 -6.09937
  17 848.750 -20.7105 28.3192
  18 727.140 -6.31356 75.7813
  19 675.314 41.9344 94.6291
  20 625.328 85.1172 -74.6571
  21 767.517 -22.2040 -86.6099
  22 848.880 -37.8079 -28.7953
  23 860.200 -18.3036 5.00939
  24 825.345 -7.74051 8.35113
  25 838.799 -13.4948 8.90055
  26 789.550 -7.56972 9.94849
  27 796.151 -6.65405 2.71503
  28 684.382 -1.42789 -3.71140
  29 573.748 -6.72586 -0.578565
  30 422.096 2.97625 1.38754
  31 303.216 4.14692 -6.21779
  32 192.550 2.55430 -0.949697
  33 43.6126 4.70667 -2.42840
  34 -82.3238 -1.10317 -6.62758
  35 -207.660 1.13956 0.446308
  36 -219.402 10.7545 -8.64744
  37 -204.031 3.11915 -6.19032
  38 -192.951 1.98849 -5.25806
  39 -184.778 3.76427 -10.8212
  40 -167.626 2.71656 -7.87867
  41 -141.194 2.05100 -12.1493
  42 -117.259 0.317211 -11.6992
  43 -88.0166 0.651788 -13.0074
  44 -67.3580 -0.883711 -11.8855
  45 -41.2523 -1.47873 -11.0024
  46 -25.7730 -1.74305 -8.03319
  47 -13.9908 -1.35272 -4.20178
  48 -5.76763 -0.962521 -2.43814
  49 -0.838007 -0.908357 -0.823923
  50 0.356566 -0.310883 -0.00418055
  51 -0.267105 0.443756 0.0580994
  52 -0.571053 -0.300123 -0.496973
  53 -0.460404 -3.28218 -1.39976
  54 -0.259402 -6.56446 -1.71202
  55 0.127708 -11.4066 -1.73283
  56 0.676146 -15.4056 -1.12150
  57 1.26063 -16.3312 1.18980
  58 -3.93242 -2.90116 3.33914
  59 -20.7249 -3.30495 9.65485
  60 -44.4558 -2.49818 13.4046
  61 -69.8789 -1.98284 18.1362
  62 -109.046 -3.91096 21.5454
  63 -158.679 -14.9172 36.1207
  64 -231.367 -68.9467 84.0874
  65 -59.9842 -197.380 81.2517
  66 -14.0578 -103.523 30.3374
  67 -5.76175 -59.5842 15.9980
  68 -2.56300 -31.2838 9.09316
  69 -1.90661 -15.8733 5.83709
  70 -1.92172 -3.41410 2.48047
  71 -1.01739 0.307744 0.326834
  72 -0.180017 -1.21163 0.683470
  73 -5.43073 -2.47561 3.64217
  74 -21.6267 -1.77160 7.40235
  75 -42.9897 -1.53005 9.75014
  76 -65.6895 -0.517637 14.3896
  77 -87.9267 0.638835 14.6672
  78 -116.911 1.38700 10.7365
  79 -134.175 2.34782 9.90851
  80 -151.709 1.60511 6.01230
  81 -160.866 2.86055 5.35474
  82 -167.810 2.75045 0.293256
  83 -171.037 3.50730 4.23118
  84 -162.830 1.79131 -0.572475
  85 -163.313 2.29429 1.17940
  86 -170.778 9.25167 5.02433
  87 -155.246 0.662203 -1.84802
  88 -42.1555 -2.67249 4.96911
  89 72.4590 -0.836118 0.928223
  90 208.572 -5.40776 0.132390
  91 308.797 -4.34380 5.45256
  92 413.511 -4.70002 -0.245652
  93 545.368 -10.0137 1.77861
  94 641.896 -3.35252 4.30977
  95 164.795 20.7735 -16.5185
  96 87.5564 24.7752 -18.6406
  97 206.978 45.4489 -136.501
  98 -31.7733 16.0221 39.4240
  99 -0.981060 -23.5907 -40.7836
  100 134.062 2.27588 -30.6196
  101 -1.49992 -67.4934 37.3563
  102 171.285 3.53315 -9.09471
  103 154.725 21.5830 -0.462190
  104 154.507 -49.2512 133.051
  105 93.8579 13.7363 -27.1607
  106 466.562 -3.09615 -61.9009
  107 15.5433 -83.4761 -13.5094
  108 -6.31697 -11.8283 -15.8022
  109 -30.4983 -14.7895 43.0945
  110 476.117 -0.950594 -23.5776
  111 486.531 4.75696 57.1998
  112 8.52666 -12.7880 40.2779
  113 -21.4103 14.8355 19.4131
  114 -26.6460 4.54116 -47.1996
  115 -9.20629 16.5934 -27.2740
  116 22.3659 7.86666 1.06510
  117 -49.3789 -18.6109 59.2291
  118 3.94615 -29.7825 -17.6051
  119 9.74632 -42.9072 28.2128
  120 -20.5330 -31.9960 41.0030
  121 497.050 -19.2762 -102.679
  122 418.924 -3.12030 -12.5104
  123 426.585 5.38295 21.1923
  124 1239.94 367.016 -5.88507
  125 -59.6577 4.93003 37.5045
  126 -26.8297 -6.61733 -29.3521
  127 668.339 -50.4367 109.368
  128 260.685 7.41239 -60.3318
  129 -14.6546 6.00301 -8.01488
  130 19.2920 -0.0781414 -1.86280
  131 190.032 10.5403 -10.2416
  132 142.653 30.9753 -2.68920
  133 23.4062 -17.2949 -49.1684
  134 -2.00197 -110.274 15.1821
  135 399.598 10.0321 -40.2418
  136 70.8217 13.8308 -12.1960
  137 74.8377 26.3207 -4.58910
  138 0.918432 -46.0213 5.87607
  139 -48.6036 -21.3391 11.3729
  140 876.920 -110.375 -96.4405
  141 604.541 -1.97307 -35.5764
  142 281.034 29.0636 100.054
  143 -44.0249 -7.35348 44.3992
  144 52.4480 -27.6950 -2.87876
  145 -73.1648 -24.4003 55.6564
  146 206.656 20.5410 -42.0002
  147 662.718 -30.3481 -52.6681
  148 -3.24606 -4.63388 -5.37640
  149 -12.2339 -13.3319 18.7681
  150 604.969 -5.51002 -13.6606
  151 642.756 -2.42075 29.7007
  152 66.1415 14.6918 4.13813
  153 33.8871 20.5905 -36.8826
  154 -77.9629 6.98163 25.3383
  155 -51.4837 -1.43982 -33.3080
  156 257.684 -1.87496 -2.93156
  157 242.257 10.6169 1.99210
  158 -16.1066 -45.4249 41.1115
  159 -0.127967 -14.8134 -9.34745
  160 38.4399 -12.5077 -31.4275
  161 -58.1363 4.99562 10.6029
  162 -65.7297 4.16897 -33.9064
  163 3.02892 -46.2077 -3.56472
  164 11.9914 -44.3986 -33.3236
  165 329.640 3.81554 -13.0600
  166 309.680 23.7527 21.2533
  167 592.794 -4.79555 -4.67408
  168 626.133 -1.23786 10.0522
  169 8.83212 21.7716 8.54048
  170 -49.6250 -0.590788 -2.11502
  171 -79.9036 3.71620 -12.9793
  172 945.810 -19.5458 164.243
  173 92.3604 -9.18503 -22.5445
  174 -2.05231 -50.4180 13.4215
  175 237.248 28.1320 -93.9289
  176 -5.12172 -12.3539 9.28824
  177 -0.661719 -8.65078 -52.5436
  178 -96.2324 -62.0458 61.7831
  179 1.80109 23.3289 22.0782
  180 705.728 -12.9582 39.9787
  181 641.243 0.448478 -23.5018
  182 284.267 32.2202 44.4940
  183 -44.9515 -3.18610 30.1446
  184 -16.9091 -5.13785 -14.6657
  185 -42.7028 0.140407 51.0407
  186 -3.53006 -20.6485 -27.6293
  187 28.8412 -58.1171 -6.05599
  188 330.176 12.8588 -26.4469
  189 -38.2254 15.7133 34.4953
  190 -18.7619 -9.55914 -44.3504
  191 -89.3552 3.78271 16.4206
  192 -75.8436 1.30619 -32.8774
  193 -39.5720 -62.1907 11.3647
  194 3.24354 -25.6856 -7.70590
  195 0.596233 -25.1123 40.5479
  196 115.008 -1.32443 -0.364320
  197 88.0485 5.60383 -3.71178
  198 33.5699 12.7469 -42.9483
  199 -31.5629 -65.3106 56.2189
  200 76.4863 24.7557 1.30288
  201 -106.909 4.48155 -21.8372
  202 -91.5814 2.18783 4.81705
  203 319.797 11.7211 -45.5735
  204 -25.6289 -10.3402 31.6121
  205 50.5495 6.04841 -1.36212
  206 16.5652 14.4593 -17.2924
  207 278.370 8.30094 -78.5477
  208 -38.1944 0.418323 -0.0612610
  209 -76.6932 3.64638 -4.45226
  210 55.5105 -13.4510 12.7585
  211 848.660 139.994 -292.362
  212 -85.7224 -61.9572 64.8130
  213 480.992 -2.52554 -150.731
  214 -6.44870 -44.8665 21.8185
  215 540.198 0.109566 -32.8624
  216 306.485 1.32392 -6.54773
  217 279.949 15.2548 9.18379
  218 -9.51647 -3.68736 -9.43051
  219 -29.1412 -5.51758 24.6088
  220 1087.20 45.6952 51.4170
  221 459.069 -1.78525 -18.2654
  222 469.647 8.51927 36.2882
  223 -9.69129 -25.9795 25.6743
  224 -1.47091 -8.44403 -6.53531
  225 426.533 7.21508 9.11496
  226 418.777 -1.81257 -4.94787
  227 -81.9241 3.86094 22.6524
  228 -44.5077 -1.43116 -21.0099
  229 -45.6270 4.74386 45.6591
  230 675.805 -51.7667 -68.2870
  231 521.833 -5.75690 88.6506
  232 428.117 4.43466 177.368
  233 12.4299 -30.9422 -45.8588
  234 28.2688 -62.3456 -31.1174
  235 4.18292 -57.2995 10.0604
  236 869.826 -78.4063 -8.28057
  237 618.086 -11.6374 -47.4949
  238 465.417 -10.3943 -77.8245
  239 0.551758 -23.5446 1.78365
  240 -73.2977 -5.05314 35.6606
  241 626.956 129.828 328.922
  242 519.970 -2.12602 -48.6010
  243 -5.65897 12.2816 10.6520
  244 -26.9876 12.1136 -41.4224
  245 18.9096 -22.0123 -11.3980
  246 152.689 8.68564 -40.9307
  247 -1.76966 -1.80681 -1.77609
  248 -6.32996 -6.42705 7.11680
  249 -40.8175 -3.33873 44.4677
  250 -10.6874 -11.1159 -22.1563
  251 1197.47 159.556 -100.005
  252 272.657 15.5566 -28.3661
  253 -37.6625 -17.4777 54.6480
  254 -1.24446 -19.5080 -17.8742
  255 -63.4387 1.04997 24.5818
  256 -27.3314 -2.38415 -15.6303
  257 121.544 -1.42987 -4.97199
  258 93.5028 9.49579 -1.93343
  259 146.350 7.20069 80.5941
  260 10.6304 25.1320 17.8593
  261 8.82173 -132.143 5.89728
  262 154.379 37.0421 3.29865
  263 -67.3188 -16.8481 43.0314
  264 184.971 16.0012 -14.5457
  265 102.117 12.2278 -0.404412
  266 56.0916 26.0163 -23.9112
  267 -12.3834 -25.7047 46.4778
  268 58.5025 4.84949 11.2188
  269 8.74860 -60.7897 -5.77530
  270 793.569 -33.7625 22.1808
  271 -112.400 -1.28716 -7.22778
  272 -76.4406 -3.47834 -1.37055
  273 120.004 23.3777 18.2185
  274 105.905 23.3339 -21.6119
  275 -21.0231 -17.2568 49.9899
  276 4.59816 -33.1285 -30.1299
  277 245.850 20.0953 -36.4469
  278 661.366 -2.83464 -15.3973
  279 37.2069 -95.1108 41.9806
  280 1.71495 -27.9267 -0.816995
  281 0.777906 -17.3300 -4.57587
  282 663.660 -8.13128 -6.89630
  283 690.930 -4.39194 11.7153
  284 732.899 -4.26573 -23.7960
  285 806.923 -76.8386 -26.0506
  286 723.618 -2.92110 27.5121
  287 19.4824 -53.7633 -35.9605
  288 -45.3512 7.07421 44.7587
  289 -13.1161 -13.8073 -33.8936
  290 193.176 4.14617 -47.9303
  291 146.117 24.3073 -20.8757
  292 568.117 -26.9020 -75.2822
  293 511.288 -3.95214 -7.02018
  294 534.287 1.79891 11.0335
  295 709.354 -1.59417 -21.3455
  296 45.5382 -10.2821 -34.7637
  297 168.046 32.6954 -75.5244
  298 -114.436 -78.3072 35.3741
  299 151.686 9.55620 -3.88202
  300 99.7825 23.8374 -10.8875
  301 292.144 9.47990 -54.9216
  302 30.0813 -17.6821 19.0180
  303 36.1370 19.4305 10.2898
  304 1.57550 10.0696 -47.9752
  305 -54.0773 -2.76146 26.4013
  306 -110.418 -8.57580 36.2076
  307 602.930 -6.08622 44.3342
  308 -137.006 3.81218 -12.6020
  309 -114.350 2.39689 1.11847
  310 1.75144 -22.1406 -10.9601
  311 565.565 -4.03220 -19.6859
  312 20.9225 -91.4457 35.6541
  313 -116.713 1.17559 7.08363
  314 -115.776 1.70989 -21.0832
  315 537.435 -3.35646 -9.93293
  316 563.357 1.68547 20.4557
  317 -0.715178 -3.25263 -2.18576
  318 -2.87554 -12.6692 8.77199
  319 8.70215 -45.4552 -18.4580
  320 137.983 20.7448 -38.7327
  321 436.786 4.49081 -28.7014
  322 -108.194 2.13130 15.2576
  323 -68.5535 -0.221364 -18.5237
  324 -4.48261 -1.91194 -3.64596
  325 -15.4491 -4.50309 11.7929
  326 209.976 75.6174 -205.509
  327 61.5264 -27.9492 0.00912962
  328 204.343 38.7122 38.9195
  329 -5.01287 -42.5200 19.7061
  330 -0.284149 -10.7180 -3.85816
  331 -29.5942 -2.70742 -46.0803
  332 -41.8405 13.8249 28.7616
  333 718.754 -1.91971 3.53140
  334 672.824 -3.88876 -1.01158
  335 76.3676 28.8687 -27.5981
  336 762.972 -12.1415 -23.3922
  337 790.008 -30.6926 -18.8573
  338 -19.2456 -18.5450 32.3767
  339 -3.83420 -7.96341 -9.58933
  340 -35.9015 -11.6700 50.6386
  341 -8.95394 -25.6053 17.3679
  342 236.246 34.2902 20.3124
  343 -86.0629 0.277739 0.937978
  344 -128.002 2.33269 -5.79960
  345 11.8348 -68.9838 2.12733
  346 -31.0796 -5.15427 -35.9694
  347 -58.1158 8.52200 33.9340
  348 18.6402 4.98059 -6.99420
  349 14.1804 2.51956 0.121293
  350 -18.1860 9.24329 -14.3504
  351 -52.8199 8.49688 16.6065
  352 -53.8354 4.28979 -39.6249
  353 -108.385 0.646443 -19.4626
  354 -127.451 1.36079 9.02593
  355 4.71077 -83.6251 10.3379
  356 870.626 234.759 21.2800
  357 5.72838 -35.5565 -9.80339
  358 -16.1568 -52.1867 41.5837
  359 -136.675 -28.8276 52.4954
  360 190.445 -4.16091 -3.63040
  361 171.819 5.28643 1.72374
  362 244.522 7.05814 -11.4408
  363 -13.4755 -8.83650 14.9360
  364 339.067 -2.94334 -4.21542
  365 332.306 7.72895 7.28718
  366 360.591 20.2488 43.4594
  367 220.263 0.322873 -7.66917
  368 189.504 13.1839 3.84046
  369 -44.4918 -101.292 61.1017
  370 -22.9862 2.68262 2.71519
  371 -49.6703 8.28861 -23.2166
  372 847.200 -44.3456 62.8580
  373 -137.332 -96.3158 59.2982
  374 -111.465 2.66656 13.2210
  375 -82.3671 -0.150587 -22.1939
  376 43.2906 12.1818 4.07041
  377 -1.69902 16.7886 -36.3240
  378 201.056 125.403 -181.965
  379 256.768 15.3425 -20.1707
  380 -11.2498 -73.2564 32.3339
  381 -20.5716 19.4359 31.0475
  382 -2.63014 -16.1147 -49.1286
  383 -50.6602 -0.489761 16.1905
  384 -18.7899 -1.26178 -7.79386
  385 206.516 25.8164 6.83018
  386 -125.102 -1.69274 0.0997219
  387 -157.365 -0.118044 -8.61368
  388 -32.9062 -3.12226 20.2835
  389 304.974 -4.58812 0.0978264
  390 299.071 4.96997 -0.422534
  391 392.360 3.56828 -22.0990
  392 -2.43875 -2.18877 2.46399
  393 597.846 -12.1882 60.2104
  394 -28.9951 -15.4891 42.4589
  395 50.7418 19.9083 -10.0021
  396 542.930 28.0072 -215.857
  397 -20.2171 20.5022 28.2296
  398 -31.3166 9.26496 21.1833
  399 -32.5110 -6.88333 35.0809
  400 -9.69461 -6.97014 -14.4413
  401 347.521 17.9710 82.1879
  402 -54.5322 8.49261 -29.2103
  403 -34.5550 5.97120 4.10670
  404 726.642 2.27534 -10.8461
  405 255.935 5.57003 -12.7404
  406 696.759 -5.58011 -9.19548
  407 364.800 -1.75779 -71.0263
  408 157.357 18.5180 -37.4250
  409 -50.8858 0.508065 -38.7228
  410 -62.9433 8.58671 20.6985
  411 -35.7821 -38.3727 57.3910
  412 555.461 -17.3696 -65.9919
  413 332.192 13.1662 -44.1210
  414 16.9431 -4.42025 -52.7495
  415 -38.9208 -47.1795 54.8382
  416 450.154 -3.07201 128.136
  417 16.5596 -91.6109 -9.19164
  418 361.484 -0.212688 -15.8321
  419 372.439 14.5744 23.8843
  420 43.9629 27.2333 9.57355
  421 419.466 -18.5906 268.339
  422 115.067 20.6208 -3.24038
  423 25.3889 -3.25964 -2.03745
  424 -7.93641 0.611845 -0.855792
  425 71.9050 -1.19007 -65.1999
  426 803.850 -4.05048 13.8156
  427 -1.79676 -55.8826 20.9310
  428 43.9827 25.5760 -2.50491
  429 770.423 -8.65444 14.5280
  430 36.9831 -0.908098 -46.4625
  431 17.1225 -44.9925 5.61219
  432 61.6631 15.2055 -9.63547
  433 97.3380 3.01239 -3.59290
  434 630.955 -2.32328 8.35994
  435 594.789 -5.40294 -5.43282
  436 547.791 -0.115385 -28.0816
  437 28.3999 17.1459 -24.0371
  438 65.2614 7.64351 2.52766
  439 654.993 -68.7146 -116.921
  440 102.476 25.2544 -7.55436
  441 211.471 17.7071 -67.3397
  442 603.445 -0.164446 -29.3653
  443 -92.7443 -31.3376 33.4364
  444 31.8096 -4.37519 -5.14891
  445 -1.71357 0.636245 -0.540936
  446 18.6032 -67.7768 22.0322
  447 513.660 6.37318 14.7054
  448 494.659 -0.494238 -7.71617
  449 1534.04 284.932 313.421
  450 0.00000 0.00000 0.00000
  451 -97.6278 0.953327 3.26046
  452 -143.188 2.47589 -5.83288
  453 673.430 -26.6508 63.9677
  454 7.60302 -32.7726 -39.8778
  455 -125.428 -149.951 86.2775
  456 331.590 7.95205 -113.081
  457 -38.9575 -8.85840 51.3320
  458 -5.32564 -15.1811 -21.6643
  459 -46.7194 -7.06841 56.8319
  460 1.47346 -25.7130 -24.1774
  461 1.29542 -20.1677 -1.71958
  462 90.9829 35.6932 -17.2369
  463 0.484924 -19.5980 3.53259
  464 -23.4815 -28.1698 44.0389
  465 -2.55533 -12.9711 -11.7905
  466 -149.382 0.670769 -12.7891
  467 -139.667 0.0801023 2.90339
  468 25.9843 -7.65663 25.2031
  469 -6.11748 -5.60307 -9.54289
  470 -21.7998 -9.77072 27.6428
  471 -2.83622 -77.7883 21.0028
  472 -31.7260 -1.20606 14.2088
  473 -10.1881 -1.22304 -5.51770
  474 750.764 -58.2011 185.156
  475 -2.28185 -25.3409 11.5050
  476 -0.405159 -6.15001 -2.68607
  477 696.986 -9.10614 -2.06066
  478 744.394 -4.40082 5.11660
  479 -5.10778 0.823617 -51.6587
  480 7.61310 20.9182 18.3173
  481 3.88470 -49.1705 3.41876
  482 80.2094 6.00291 -37.1971
  483 373.300 4.95253 -61.7278
  484 0.223886 -34.4532 6.78291
  485 72.3178 -1.56031 -23.3143
  486 90.3602 4.28535 -7.68023
  487 314.112 37.5982 -153.271
  488 -57.8067 -45.1258 65.8531
  489 414.283 7.22009 -49.1006
  490 106.356 -9.05929 -16.9924
  491 14.5488 -59.4370 -23.8931
  492 349.825 9.96868 -31.6617
  493 177.048 -1.13207 -3.27707
  494 153.311 9.31999 -0.524113
  495 337.947 -1.14357 -85.5450
  496 -17.8964 -25.6116 30.6086
  497 477.522 4.46721 -43.4446
  498 213.843 13.8675 -51.0582
  499 -38.5752 -5.87413 35.7323
  500 -19.6610 -9.69752 -37.8068
  501 -10.7634 -15.2523 -42.7670
  502 -48.9738 9.13657 40.4662
  503 -36.7447 14.2451 39.4905
  504 -36.2859 -75.0385 40.0137
  505 292.047 11.8692 -19.4055
  506 391.235 14.8887 68.0748
  507 -0.119630 -0.0817782 -0.00438018
  508 -0.782714 -0.809070 0.727782
  509 -0.974508 -23.5110 1.65106
  510 125.215 -4.43752 -3.18327
  511 100.723 2.17101 1.35433
  512 121.290 13.2293 0.228395
  513 10.8069 -15.1595 -52.7350
  514 267.799 15.4755 -46.7099
  515 100.933 -25.8782 101.948
  516 858.836 -30.0718 -106.577
  517 -4.08936 -1.76437 2.90526
  518 -0.875453 -0.487985 -0.537199
  519 26.0873 -38.4168 -45.6021
  520 -11.6373 -7.25578 -50.7968
  521 -182.907 2.89422 -7.56218
  522 -139.158 2.19120 3.29789
  523 -50.1070 1.23184 39.5851
  524 -18.6388 -7.14234 -24.4223
  525 -19.1291 18.3239 28.6448
  526 6.35934 -105.412 19.7192
  527 -91.7009 2.44899 12.9875
  528 -87.3218 0.807078 -31.0852
  529 -0.500537 -0.633885 -0.508671
  530 -1.74362 -3.54037 2.59175
</Section>

newXOutput 45

<Section columns = "stress_xx | stress_yy | stress_xy">
  1 727.270 1.99547 3.87320
  2 779.533 3.00878 -3.48686
  3 -198.916 0.224992 -6.15130
  4 0.236938 0.225211 0.316217
  5 -0.100574 -12.2700 1.85343
  6 -209.557 -188.159 96.6641
  7 0.443864 0.364475 -0.674718
  8 -144.058 -0.310065 4.80046
  9 756.734 -7.97296 -0.0760943
  10 756.433 -9.95400 -5.87425
  11 751.734 -4.83762 0.373476
  12 764.200 0.760041 -5.04102
  13 796.791 -3.41247 -12.6747
  14 808.860 -5.32446 -13.4869
  15 836.701 -7.69474 -13.6297
  16 864.866 -15.6216 -6.40947
  17 866.919 -21.1343 28.4489
  18 744.178 -6.38788 76.6990
  19 692.103 42.9344 95.8293
  20 641.541 87.0118 -75.6867
  21 785.520 -22.5907 -87.7965
  22 867.555 -38.5891 -29.0128
  23 878.620 -18.7318 5.28419
  24 842.915 -7.96866 8.59318
  25 856.434 -13.8277 9.11869
  26 806.267 -7.81344 10.1920
  27 812.930 -6.86547 2.77838
  28 699.184 -1.62076 -3.78607
  29 586.500 -7.10147 -0.578124
  30 431.872 2.77110 1.45716
  31 310.568 3.98095 -6.33319
  32 197.531 2.40071 -0.930584
  33 45.3272 4.66634 -2.45100
  34 -83.4251 -1.19432 -6.75454
  35 -211.619 1.14126 0.477127
  36 -223.713 10.9704 -8.79781
  37 -208.077 3.16951 -6.27337
  38 -196.854 2.02545 -5.32203
  39 -188.644 3.84256 -11.0170
  40 -171.199 2.77475 -8.00974
  41 -144.276 2.09843 -12.3894
  42 -119.872 0.327658 -11.9375
  43 -90.0226 0.670631 -13.2853
  44 -68.9174 -0.898191 -12.1423
  45 -42.2314 -1.50679 -11.2514
  46 -26.4089 -1.77798 -8.22181
  47 -14.3520 -1.38198 -4.30386
  48 -5.92692 -0.983998 -2.49989
  49 -0.869829 -0.929764 -0.848260
  50 0.359792 -0.319198 -0.00686521
  51 -0.274286 0.449626 0.0572037
  52 -0.584772 -0.317928 -0.512762
  53 -0.470829 -3.38052 -1.43660
  54 -0.264660 -6.74736 -1.75634
  55 0.132420 -11.7075 -1.77625
  56 0.694624 -15.8036 -1.14629
  57 1.29391 -16.7471 1.22270
  58 -4.02729 -2.95803 3.42187
  59 -21.1716 -3.35884 9.85257
  60 -45.3454 -2.52371 13.6518
  61 -71.1670 -1.98632 18.4272
  62 -110.898 -3.94716 21.8317
  63 -161.220 -15.1227 36.6021
  64 -234.853 -69.9612 85.2564
  65 -60.8246 -200.508 82.4065
  66 -14.2457 -105.298 30.7887
  67 -5.83682 -60.6969 16.2546
  68 -2.59564 -31.9365 9.25611
  69 -1.93307 -16.2436 5.95046
  70 -1.95313 -3.52972 2.54334
  71 -1.03843 0.286008 0.345164
  72 -0.211943 -1.23573 0.708319
  73 -5.58215 -2.51403 3.72521
  74 -22.0920 -1.79367 7.54077
  75 -43.8370 -1.54492 9.92285
  76 -66.8997 -0.508210 14.6305
  77 -89.4271 0.663327 14.8908
  78 -118.828 1.41664 10.8649
  79 -136.312 2.38860 10.0327
  80 -154.013 1.63433 6.06201
  81 -163.188 2.91189 5.39189
  82 -170.084 2.79659 0.231112
  83 -173.244 3.56845 4.25356
  84 -164.710 1.82033 -0.640771
  85 -165.093 2.32615 1.14909
  86 -172.623 9.41583 5.08394
  87 -156.720 0.662171 -1.90245
  88 -41.4209 -2.76308 5.04839
  89 75.4004 -0.944840 0.920998
  90 214.103 -5.65470 0.101085
  91 316.202 -4.60573 5.54113
  92 422.800 -4.98266 -0.285245
  93 556.954 -10.3724 1.79758
  94 655.085 -3.53583 4.38303
  95 169.386 21.0640 -17.4042
  96 89.8955 25.5528 -18.5748
  97 212.288 47.4640 -140.612
  98 -31.6519 16.3930 39.7514
  99 -0.962041 -24.0453 -41.6551
  100 137.727 2.79016 -32.2087
  101 -1.32210 -68.3248 37.7334
  102 176.076 3.44823 -9.53920
  103 158.845 21.9032 -0.173482
  104 158.304 -49.1787 136.784
  105 96.8773 14.1497 -28.3738
  106 477.213 -3.29431 -63.7367
  107 15.8971 -85.2143 -13.7636
  108 -6.45488 -12.0920 -16.1729
  109 -30.8778 -14.9671 43.7525
  110 486.677 -1.19033 -24.3255
  111 497.802 4.71077 58.8547
  112 9.21354 -12.5978 40.4192
  113 -20.8569 15.0860 19.4205
  114 -27.0605 4.70054 -48.0864
  115 -8.96047 16.9521 -27.6020
  116 24.0846 7.93619 0.754766
  117 -49.8373 -18.7735 59.9542
  118 4.04958 -30.4480 -18.0074
  119 10.6786 -43.2643 28.0617
  120 -20.8131 -32.4317 41.6378
  121 508.401 -19.5130 -105.647
  122 428.350 -3.38497 -12.9222
  123 436.507 5.24538 21.8554
  124 1264.30 376.205 -6.20814
  125 -60.3761 5.05114 38.0069
  126 -27.4177 -6.74467 -30.0002
  127 683.302 -51.3926 112.317
  128 267.198 7.65059 -62.3389
  129 -14.3231 6.04854 -8.02108
  130 21.1373 -0.149781 -2.05674
  131 195.154 10.5785 -10.8658
  132 146.432 31.6311 -2.30740
  133 24.0511 -17.4516 -50.0363
  134 -2.03406 -112.444 15.6393
  135 408.862 10.0195 -41.5117
  136 72.9478 14.8565 -13.4369
  137 77.4961 26.8151 -5.27254
  138 0.936450 -47.0944 6.02191
  139 -48.6466 -21.4727 11.0613
  140 895.648 -111.985 -99.4140
  141 617.588 -2.19707 -36.5883
  142 287.880 29.9998 102.981
  143 -44.6174 -7.35267 45.0291
  144 53.8117 -27.7710 -2.45347
  145 -74.0423 -24.6397 56.2704
  146 212.093 20.9247 -43.5138
  147 677.170 -31.0746 -54.2388
  148 -3.32338 -4.74547 -5.51238
  149 -12.4280 -13.5504 19.1123
  150 617.668 -5.78425 -14.0620
  151 656.950 -2.67927 30.4969
  152 68.6886 14.8825 3.78091
  153 35.0248 21.1165 -37.3634
  154 -78.8688 7.11306 25.6072
  155 -52.5885 -1.44839 -34.0056
  156 264.137 -2.08148 -3.13659
  157 248.312 10.6266 2.21103
  158 -16.3061 -46.1394 41.7435
  159 -0.125100 -15.1641 -9.57158
  160 39.5060 -11.5977 -32.6290
  161 -58.2342 5.05833 10.5540
  162 -66.9531 4.27153 -34.5140
  163 3.10176 -47.2846 -3.63866
  164 12.2851 -45.3021 -34.0318
  165 337.468 3.68292 -13.6368
  166 317.193 24.0910 22.0926
  167 605.202 -5.04329 -4.82963
  168 639.901 -1.47634 10.3341
  169 10.0145 22.2850 8.13572
  170 -49.2340 -0.651307 -2.33810
  171 -81.1627 3.75303 -13.0925
  172 965.690 -18.7569 168.710
  173 95.1959 -8.99450 -23.7632
  174 -2.10108 -51.5725 13.7395
  175 243.216 29.2181 -96.9768
  176 -5.21606 -12.6081 9.47394
  177 -0.557157 -8.71484 -53.5630
  178 -97.3931 -62.8875 62.4514
  179 2.81028 23.7683 22.0283
  180 721.336 -13.3539 41.1310
  181 654.727 0.288983 -24.1277
  182 291.238 32.9213 46.0266
  183 -45.6386 -3.20839 30.6187
  184 -17.3021 -5.24865 -15.0070
  185 -43.0376 0.245294 51.6832
  186 -3.58892 -21.0827 -28.2491
  187 29.8209 -57.9744 -6.99298
  188 338.057 12.9022 -27.3932
  189 -38.2262 16.0392 34.7956
  190 -19.1105 -9.70678 -45.2749
  191 -90.2791 3.83519 16.5293
  192 -77.4221 1.34162 -33.5255
  193 -39.4973 -62.9508 11.0356
  194 3.32628 -26.2941 -7.88480
  195 0.943886 -25.1268 40.8224
  196 118.752 -1.46087 -0.475955
  197 90.7352 5.56677 -3.67286
  198 34.6056 13.1947 -43.5732
  199 -31.9579 -66.2996 57.0262
  200 79.2034 25.1649 0.803334
  201 -108.965 4.56452 -22.1900
  202 -92.2106 2.19842 4.73515
  203 327.548 11.8230 -47.1000
  204 -26.0652 -10.4800 32.1675
  205 52.9294 6.07927 -1.65457
  206 17.5136 14.7159 -17.4128
  207 285.220 8.75681 -81.1169
  208 -37.4079 0.374205 -0.129789
  209 -77.6961 3.64394 -4.47365
  210 57.3720 -13.2189 12.1755
  211 865.803 144.996 -299.637
  212 -86.6724 -62.7884 65.5039
  213 492.022 -2.19567 -154.843
  214 -6.54176 -45.6340 22.1845
  215 552.022 -0.108685 -33.8367
  216 313.857 1.15536 -6.88678
  217 286.815 15.3742 9.66053
  218 -9.74306 -3.77022 -9.65807
  219 -29.6139 -5.58856 25.0286
  220 1110.04 47.2562 51.0510
  221 469.249 -2.03350 -18.8539
  222 480.481 8.48506 37.3708
  223 -9.81926 -26.4163 26.1121
  224 -1.50321 -8.64934 -6.69706
  225 436.427 7.10241 9.42152
  226 428.179 -2.04422 -5.13746
  227 -83.1103 3.94059 22.9524
  228 -45.5110 -1.45268 -21.4695
  229 -45.8274 4.97320 46.0827
  230 690.666 -52.7885 -70.3757
  231 533.858 -5.91534 91.1007
  232 438.083 5.05213 182.029
  233 12.7601 -31.4935 -46.7848
  234 28.9515 -63.3862 -31.6110
  235 4.35380 -58.0233 10.0638
  236 888.900 -79.8742 -7.75610
  237 631.541 -12.0318 -48.8600
  238 476.106 -10.6295 -80.1332
  239 0.564266 -24.1093 1.83304
  240 -74.4209 -5.06042 36.1390
  241 639.394 134.275 336.235
  242 531.556 -2.36636 -50.0297
  243 -4.65515 12.4594 10.4976
  244 -27.3086 12.4207 -42.1216
  245 20.2320 -22.0977 -12.2532
  246 156.910 9.04149 -42.5080
  247 -1.81478 -1.85338 -1.82531
  248 -6.44895 -6.54803 7.26931
  249 -41.2858 -3.32765 45.1101
  250 -10.9187 -11.3525 -22.6632
  251 1222.84 163.600 -100.771
  252 279.433 15.6876 -29.4397
  253 -38.0465 -17.6599 55.3988
  254 -1.26091 -19.9436 -18.2878
  255 -64.4411 1.08399 24.9561
  256 -27.9690 -2.43139 -15.9865
  257 125.392 -1.57730 -5.25073
  258 96.2846 9.56131 -1.77210
  259 150.069 7.97961 83.1258
  260 11.8353 25.6454 17.6749
  261 9.01577 -134.865 6.10856
  262 158.374 37.9244 3.88173
  263 -67.8874 -16.9493 43.3543
  264 189.984 16.1586 -15.3265
  265 105.466 12.3513 -0.794048
  266 57.8391 26.5924 -24.0832
  267 -12.0223 -25.8251 46.7482
  268 60.3748 5.53921 10.5546
  269 8.94555 -62.1429 -5.89401
  270 810.966 -34.4921 23.0248
  271 -114.324 -1.35901 -7.27779
  272 -76.5011 -3.57863 -1.50362
  273 123.114 24.2735 19.2354
  274 109.218 23.8178 -22.6870
  275 -21.1512 -17.3149 50.6222
  276 4.72440 -33.8227 -30.7921
  277 252.098 20.3718 -37.7748
  278 675.087 -3.01164 -15.7958
  279 38.1924 -96.3983 43.4133
  280 1.75672 -28.6004 -0.830310
  281 0.799745 -17.7557 -4.68482
  282 677.269 -8.38967 -7.09702
  283 705.937 -4.64548 12.0456
  284 748.223 -4.46067 -24.4356
  285 824.331 -78.2548 -27.2622
  286 739.408 -3.12469 28.2330
  287 19.9409 -54.7858 -36.6782
  288 -45.7241 7.26126 45.3157
  289 -13.3836 -14.0813 -34.6396
  290 198.199 4.52533 -49.7866
  291 150.307 24.7193 -21.9036
  292 580.843 -27.4769 -77.5063
  293 522.298 -4.21490 -7.20415
  294 546.291 1.57955 11.3231
  295 724.081 -1.73577 -21.8918
  296 46.7406 -10.1756 -35.1748
  297 172.485 34.1005 -78.2450
  298 -115.787 -79.3846 35.5630
  299 156.063 9.59990 -4.29226
  300 102.614 24.2827 -10.7808
  301 299.333 9.62050 -56.7232
  302 31.1110 -17.3099 18.6520
  303 37.9921 19.7378 10.0385
  304 1.86648 10.3823 -48.7943
  305 -55.0038 -2.76121 26.8222
  306 -112.135 -8.66789 36.6681
  307 616.475 -6.40486 45.5700
  308 -139.674 3.88080 -12.7809
  309 -115.337 2.42399 1.02200
  310 1.79988 -22.6539 -11.2175
  311 577.679 -4.30670 -20.2695
  312 21.4875 -92.8538 36.7158
  313 -118.006 1.17894 7.07881
  314 -118.165 1.74369 -21.4665
  315 548.944 -3.60807 -10.2545
  316 575.987 1.48090 21.0420
  317 -0.731959 -3.33957 -2.24403
  318 -2.91978 -12.9238 8.94773
  319 8.91066 -46.4486 -18.8671
  320 141.722 21.7509 -40.5751
  321 446.695 4.35822 -29.6433
  322 -109.813 2.16624 15.4422
  323 -70.0959 -0.220947 -18.9197
  324 -4.59739 -1.95698 -3.73903
  325 -15.7430 -4.57350 12.0163
  326 215.058 79.1715 -211.188
  327 63.6048 -28.0353 -0.776078
  328 209.482 39.7388 40.4007
  329 -5.07958 -43.2865 20.0310
  330 -0.289568 -10.9900 -3.95344
  331 -30.1542 -2.71290 -47.0125
  332 -41.8584 14.0802 28.9787
  333 734.177 -2.08822 3.62183
  334 686.515 -4.05810 -1.05279
  335 78.4955 29.6311 -27.7732
  336 779.046 -12.4792 -24.1001
  337 806.842 -31.3571 -19.6217
  338 -19.5105 -18.8189 32.9170
  339 -3.92105 -8.14826 -9.82283
  340 -36.1637 -11.6409 51.1846
  341 -9.12163 -26.0648 17.6793
  342 242.145 34.9677 21.2295
  343 -86.2364 0.251073 0.891338
  344 -130.201 2.33558 -5.85654
  345 12.3361 -69.3087 1.65460
  346 -31.7328 -5.23976 -36.7387
  347 -58.6587 8.68944 34.3256
  348 20.0313 5.25981 -7.73758
  349 15.8769 2.50014 -0.0771578
  350 -17.9883 9.37598 -14.4609
  351 -52.9028 8.62809 16.6471
  352 -54.8530 4.40984 -40.3730
  353 -110.716 0.660629 -19.8464
  354 -129.140 1.37602 9.08172
  355 4.81607 -85.5232 10.5934
  356 891.105 239.500 21.4082
  357 5.86847 -36.3746 -10.0282
  358 -16.3234 -52.9106 42.1539
  359 -138.636 -29.2111 53.1271
  360 195.633 -4.38376 -3.78653
  361 176.352 5.19838 1.86213
  362 250.727 7.01137 -12.0293
  363 -13.7312 -8.99766 15.2317
  364 347.031 -3.19646 -4.44438
  365 340.272 7.63946 7.62095
  366 369.209 20.5614 44.8609
  367 226.009 0.169789 -8.03231
  368 194.412 13.2824 4.15632
  369 -45.0802 -102.871 61.9426
  370 -22.1542 2.67116 2.52644
  371 -50.3259 8.43563 -23.5241
  372 865.876 -45.0278 63.3256
  373 -139.089 -97.6956 59.9131
  374 -112.984 2.71536 13.3377
  375 -84.1675 -0.145096 -22.6471
  376 45.3936 12.3310 3.76840
  377 -1.34930 17.1792 -36.8508
  378 205.268 129.842 -186.333
  379 263.221 15.4596 -21.0266
  380 -11.3968 -74.4775 32.8157
  381 -20.1317 19.8267 31.2051
  382 -2.61280 -16.3746 -50.1337
  383 -51.5616 -0.490106 16.4623
  384 -19.2493 -1.28862 -7.97884
  385 211.770 26.2572 7.36371
  386 -126.194 -1.74838 0.0104716
  387 -160.400 -0.146923 -8.71732
  388 -33.5106 -3.15541 20.6502
  389 312.301 -4.85637 0.0313757
  390 306.324 4.82627 -0.350621
  391 401.385 3.42104 -22.8735
  392 -2.48640 -2.24122 2.52087
  393 611.377 -12.5788 61.9018
  394 -29.4098 -15.6322 43.1234
  395 52.8603 20.3880 -10.8183
  396 555.034 29.3772 -221.437
  397 -19.7384 20.9861 28.2613
  398 -31.0317 9.59517 21.0540
  399 -32.9751 -6.95705 35.6485
  400 -9.91689 -7.12365 -14.7825
  401 355.888 18.4200 84.6188
  402 -55.3981 8.68001 -29.6601
  403 -34.0536 6.04045 3.91130
  404 741.510 2.23657 -11.1337
  405 262.355 5.49330 -13.2829
  406 710.972 -5.78223 -9.43838
  407 373.459 -1.83482 -73.1963
  408 161.739 18.9589 -38.8762
  409 -51.9090 0.551486 -39.4916
  410 -63.3650 8.74148 20.8298
  411 -36.1897 -38.8937 58.2024
  412 567.866 -17.8356 -67.9181
  413 340.159 13.2463 -45.5397
  414 17.4764 -4.34972 -53.6946
  415 -39.0031 -47.6932 55.2875
  416 460.737 -2.99522 131.594
  417 16.9562 -93.1325 -9.14132
  418 369.883 -0.426466 -16.3919
  419 381.262 14.6600 24.6996
  420 45.9417 27.7295 9.23129
  421 429.085 -17.5729 275.122
  422 118.633 20.9156 -3.80272
  423 27.4184 -3.39458 -2.12910
  424 -7.37825 0.512652 -0.813656
  425 73.9756 0.482699 -67.6866
  426 821.209 -4.21062 14.2587
  427 -1.78656 -56.7702 21.2414
  428 45.9581 26.1153 -3.15308
  429 786.902 -8.95063 14.8990
  430 38.0238 -0.693910 -47.1685
  431 18.2926 -45.4202 5.05338
  432 63.6812 15.4347 -9.58503
  433 100.678 2.95961 -3.90777
  434 644.786 -2.58106 8.55692
  435 607.209 -5.65818 -5.55898
  436 559.675 -0.335521 -28.9002
  437 29.5639 17.4816 -24.2715
  438 67.8953 7.69498 2.25888
  439 669.478 -69.8260 -120.240
  440 105.746 25.6790 -8.27911
  441 216.869 18.4687 -69.7337
  442 616.376 -0.349954 -30.1776
  443 -93.7183 -31.6672 33.5795
  444 33.9433 -4.53471 -5.35372
  445 -1.03766 0.543292 -0.434030
  446 19.2489 -68.3260 21.9103
  447 525.300 6.24935 15.1384
  448 505.410 -0.698090 -7.96876
  449 1563.59 293.240 320.891
  450 0.00000 0.00000 0.00000
  451 -97.9795 0.941455 3.29184
  452 -145.679 2.47901 -5.92586
  453 688.493 -27.2855 65.7751
  454 7.80269 -33.4231 -40.7297
  455 -127.195 -152.216 87.4119
  456 339.558 8.43938 -116.428
  457 -39.3829 -8.92037 52.0651
  458 -5.43543 -15.5105 -22.1630
  459 -47.1199 -7.05710 57.5413
  460 1.52353 -26.2678 -24.7258
  461 1.32898 -20.6687 -1.75767
  462 93.5204 36.5458 -17.1793
  463 0.494358 -20.0670 3.62157
  464 -23.7680 -28.5696 44.7150
  465 -2.60933 -13.2691 -12.0724
  466 -152.457 0.677367 -13.0050
  467 -141.293 0.0707541 2.86549
  468 26.9973 -7.20603 24.9374
  469 -6.26100 -5.73080 -9.77447
  470 -22.1332 -9.90760 28.1139
  471 -2.90936 -79.4984 21.4994
  472 -32.3146 -1.22064 14.4621
  473 -10.4443 -1.25032 -5.65290
  474 767.150 -58.9626 189.870
  475 -2.31070 -25.8410 11.7143
  476 -0.413826 -6.31360 -2.75472
  477 711.084 -9.35241 -2.13302
  478 760.296 -4.60601 5.25535
  479 -5.05819 0.945985 -52.6236
  480 8.78661 21.2883 18.2227
  481 3.97345 -50.3291 3.50854
  482 82.5225 7.15198 -39.0289
  483 382.118 4.93592 -63.6145
  484 0.229056 -35.2630 6.94768
  485 74.8087 -1.34564 -24.4672
  486 92.9975 4.92274 -8.79284
  487 321.698 38.9552 -157.587
  488 -58.4831 -45.7292 66.7037
  489 423.873 7.18890 -50.6182
  490 109.420 -8.81801 -18.2015
  491 14.8912 -60.6848 -24.3959
  492 358.117 9.95549 -32.7537
  493 181.974 -1.29451 -3.48696
  494 157.430 9.33572 -0.366865
  495 346.054 -1.02662 -88.1648
  496 -18.1996 -26.0499 31.1572
  497 488.250 4.33479 -44.7191
  498 219.405 14.1992 -52.8162
  499 -39.1857 -5.90677 36.3150
  500 -20.0631 -9.87805 -38.6248
  501 -10.9544 -15.5316 -43.6781
  502 -49.3372 9.33712 40.9401
  503 -36.7557 14.5633 39.8714
  504 -36.2457 -75.9984 40.1800
  505 299.181 11.9039 -20.1806
  506 400.538 15.1360 70.0841
  507 -0.124362 -0.0858010 -0.00749662
  508 -0.806129 -0.833050 0.756252
  509 -0.999596 -24.0844 1.69641
  510 129.168 -4.63446 -3.29400
  511 103.703 2.05080 1.44222
  512 125.008 13.3575 -0.210181
  513 11.1529 -15.3452 -53.7544
  514 274.504 15.6991 -48.2965
  515 103.344 -25.3882 104.641
  516 878.354 -30.3547 -107.845
  517 -4.19018 -1.79653 2.97776
  518 -0.902543 -0.500444 -0.554829
  519 26.7345 -39.0245 -46.4378
  520 -11.7934 -7.33417 -51.8160
  521 -186.403 2.93706 -7.67988
  522 -140.405 2.22078 3.31603
  523 -50.7516 1.29242 40.1577
  524 -19.0536 -7.28853 -24.9747
  525 -18.6290 18.6673 28.7832
  526 6.49065 -107.735 20.1843
  527 -92.5603 2.47632 13.0355
  528 -89.1005 0.832882 -31.6785
  529 -0.513274 -0.655299 -0.525174
  530 -1.77649 -3.63197 2.65837
</Section>

newXOutput 46

<Section columns = "stress_xx | stress_yy | stress_xy">
  1 741.493 1.96452 3.93062
  2 795.659 2.98370 -3.54593
  3 -202.525 0.194683 -6.27212
  4 0.241194 0.229131 0.322300
  5 -0.103310 -12.5685 1.90314
  6 -212.436 -190.913 97.8788
  7 0.443551 0.362770 -0.677917
  8 -145.179 -0.334290 4.88011
  9 771.414 -8.17109 -0.0924219
  10 771.142 -10.1882 -6.00930
  11 766.464 -4.98258 0.336306
  12 779.228 0.700056 -5.18346
  13 812.462 -3.55099 -12.9621
  14 824.925 -5.51132 -13.8102
  15 853.439 -7.92445 -13.9931
  16 882.375 -15.9729 -6.72546
  17 885.016 -21.5551 28.5586
  18 761.207 -6.45776 77.5827
  19 708.924 43.9387 96.9882
  20 657.811 88.9055 -76.6865
  21 803.515 -22.9700 -88.9481
  22 886.174 -39.3654 -29.2122
  23 896.966 -19.1598 5.56485
  24 860.408 -8.19858 8.83702
  25 873.985 -14.1612 9.33717
  26 822.909 -8.05979 10.4359
  27 829.630 -7.07906 2.84176
  28 713.931 -1.82002 -3.86015
  29 599.219 -7.48582 -0.577076
  30 441.642 2.55482 1.52831
  31 317.928 3.80434 -6.44733
  32 202.531 2.23855 -0.909688
  33 47.0726 4.62004 -2.47211
  34 -84.4881 -1.28792 -6.88018
  35 -215.535 1.14203 0.508919
  36 -227.984 11.1848 -8.94571
  37 -212.087 3.21899 -6.35349
  38 -200.728 2.06206 -5.38320
  39 -192.488 3.92047 -11.2100
  40 -174.754 2.83273 -8.13826
  41 -147.348 2.14584 -12.6274
  42 -122.478 0.338249 -12.1742
  43 -92.0259 0.689636 -13.5618
  44 -70.4759 -0.912386 -12.3982
  45 -43.2110 -1.53455 -11.5000
  46 -27.0462 -1.81264 -8.41043
  47 -14.7147 -1.41113 -4.40611
  48 -6.08731 -1.00542 -2.56185
  49 -0.902212 -0.951175 -0.872827
  50 0.362782 -0.327561 -0.00966898
  51 -0.281509 0.455288 0.0562040
  52 -0.598505 -0.336229 -0.528740
  53 -0.481237 -3.47984 -1.47362
  54 -0.269880 -6.93160 -1.80085
  55 0.137211 -12.0099 -1.81980
  56 0.713223 -16.2033 -1.17100
  57 1.32735 -17.1645 1.25582
  58 -4.12228 -3.01443 3.50481
  59 -21.6168 -3.41175 10.0491
  60 -46.2289 -2.54787 13.8963
  61 -72.4404 -1.98798 18.7125
  62 -112.721 -3.98097 22.1087
  63 -163.711 -15.3219 37.0677
  64 -238.254 -70.9489 86.3899
  65 -61.6398 -203.572 83.5282
  66 -14.4276 -107.046 31.2291
  67 -5.90938 -61.7984 16.5062
  68 -2.62715 -32.5863 9.41708
  69 -1.95879 -16.6142 6.06293
  70 -1.98399 -3.64695 2.60646
  71 -1.05937 0.263024 0.363963
  72 -0.245069 -1.25966 0.733562
  73 -5.73470 -2.55164 3.80820
  74 -22.5558 -1.81493 7.67779
  75 -44.6780 -1.55890 10.0933
  76 -68.0965 -0.497851 14.8673
  77 -90.9044 0.688254 15.1093
  78 -120.710 1.44619 10.9881
  79 -138.407 2.42887 10.1522
  80 -156.265 1.66330 6.10783
  81 -165.449 2.96272 5.42529
  82 -172.287 2.84215 0.166074
  83 -175.374 3.62893 4.27274
  84 -166.509 1.84904 -0.711336
  85 -166.787 2.35743 1.11639
  86 -174.378 9.57809 5.14117
  87 -158.102 0.661837 -1.95735
  88 -40.6155 -2.85406 5.12617
  89 78.3917 -1.05589 0.912678
  90 219.658 -5.90493 0.0684582
  91 323.612 -4.87243 5.62818
  92 432.072 -5.27060 -0.326098
  93 568.492 -10.7349 1.81565
  94 668.202 -3.72242 4.45517
  95 174.007 21.3473 -18.3093
  96 92.2473 26.3392 -18.4865
  97 217.614 49.5170 -144.755
  98 -31.4938 16.7640 40.0540
  99 -0.941039 -24.4952 -42.5226
  100 141.412 3.32351 -33.8323
  101 -1.13504 -69.1244 38.0892
  102 180.898 3.35787 -9.99263
  103 162.986 22.2158 0.128273
  104 162.107 -49.0505 140.543
  105 99.9299 14.5672 -29.6095
  106 487.850 -3.49667 -65.5863
  107 16.2503 -86.9420 -14.0148
  108 -6.59232 -12.3551 -16.5436
  109 -31.2432 -15.1375 44.3959
  110 497.212 -1.43756 -25.0803
  111 509.063 4.65811 60.5223
  112 9.92116 -12.3870 40.5269
  113 -20.2597 15.3329 19.4095
  114 -27.4652 4.86242 -48.9631
  115 -8.69354 17.3097 -27.9157
  116 25.8521 8.00182 0.430956
  117 -50.2656 -18.9245 60.6515
  118 4.15351 -31.1119 -18.4092
  119 11.6402 -43.5936 27.8769
  120 -21.0845 -32.8543 42.2588
  121 519.735 -19.7402 -108.636
  122 437.760 -3.65580 -13.3385
  123 446.423 5.09702 22.5253
  124 1288.47 385.412 -6.53805
  125 -61.0659 5.17265 38.4934
  126 -28.0037 -6.87072 -30.6464
  127 698.231 -52.3380 115.281
  128 273.725 7.89195 -64.3684
  129 -13.9610 6.09030 -8.01908
  130 23.0391 -0.223272 -2.25664
  131 200.302 10.6093 -11.5049
  132 150.229 32.2841 -1.90616
  133 24.7007 -17.5967 -50.8909
  134 -2.06542 -114.595 16.1013
  135 418.119 9.99808 -42.7935
  136 75.0931 15.9109 -14.7166
  137 80.1914 27.3048 -5.97883
  138 0.954295 -48.1671 6.16813
  139 -48.6430 -21.5909 10.7262
  140 914.297 -113.552 -102.414
  141 630.589 -2.42728 -37.6064
  142 294.735 30.9469 105.933
  143 -45.1911 -7.34450 45.6416
  144 55.1816 -27.8209 -2.00583
  145 -74.8839 -24.8646 56.8550
  146 217.553 21.3049 -45.0475
  147 691.576 -31.8010 -55.8214
  148 -3.40076 -4.85719 -5.64882
  149 -12.6184 -13.7650 19.4526
  150 630.308 -6.06324 -14.4662
  151 671.106 -2.94599 31.2970
  152 71.2761 15.0675 3.40550
  153 36.1781 21.6445 -37.8267
  154 -79.7361 7.24333 25.8625
  155 -53.6885 -1.45577 -34.6994
  156 270.605 -2.29296 -3.34682
  157 254.382 10.6266 2.43732
  158 -16.4980 -46.8394 42.3616
  159 -0.121965 -15.5150 -9.79593
  160 40.5779 -10.6381 -33.8480
  161 -58.2796 5.11918 10.4928
  162 -68.1616 4.37441 -35.1129
  163 3.17468 -48.3611 -3.71214
  164 12.5793 -46.1991 -34.7365
  165 345.299 3.54274 -14.2238
  166 324.716 24.4202 22.9462
  167 617.552 -5.29531 -4.98681
  168 653.629 -1.72326 10.6177
  169 11.2377 22.7986 7.70653
  170 -48.7789 -0.713031 -2.56817
  171 -82.3934 3.78790 -13.1969
  172 985.472 -17.9117 173.199
  173 98.0585 -8.78684 -25.0092
  174 -2.14990 -52.7255 14.0578
  175 249.199 30.3214 -100.057
  176 -5.30932 -12.8608 9.65829
  177 -0.446927 -8.77246 -54.5725
  178 -98.5060 -63.7035 63.0866
  179 3.85974 24.2036 21.9552
  180 736.902 -13.7532 42.2916
  181 668.150 0.123610 -24.7562
  182 298.220 33.6201 47.5799
  183 -46.3106 -3.22843 31.0832
  184 -17.6949 -5.35900 -15.3482
  185 -43.3441 0.354625 52.3026
  186 -3.64666 -21.5146 -28.8676
  187 30.8131 -57.7683 -7.96277
  188 345.942 12.9363 -28.3516
  189 -38.1896 16.3637 35.0748
  190 -19.4547 -9.85087 -46.1939
  191 -91.1540 3.88643 16.6264
  192 -78.9912 1.37732 -34.1678
  193 -39.3802 -63.6811 10.6824
  194 3.40932 -26.9028 -8.06361
  195 1.30592 -25.1171 41.0684
  196 122.539 -1.60019 -0.591625
  197 93.4491 5.52298 -3.62837
  198 35.6527 13.6493 -44.1806
  199 -32.3381 -67.2658 57.8119
  200 81.9579 25.5676 0.282666
  201 -110.999 4.64666 -22.5354
  202 -92.7765 2.20781 4.64523
  203 335.306 11.9187 -48.6434
  204 -26.4946 -10.6155 32.7150
  205 55.3576 6.10658 -1.95739
  206 18.4872 14.9691 -17.5204
  207 292.082 9.22357 -83.7135
  208 -36.5522 0.328825 -0.200982
  209 -78.6624 3.63809 -4.49125
  210 59.2567 -12.9637 11.5564
  211 882.832 150.063 -306.916
  212 -87.5773 -63.5923 66.1593
  213 503.036 -1.84943 -158.976
  214 -6.63226 -46.3894 22.5442
  215 563.810 -0.334726 -34.8181
  216 321.234 0.980339 -7.23283
  217 293.692 15.4838 10.1484
  218 -9.96980 -3.85291 -9.88591
  219 -30.0778 -5.65708 25.4419
  220 1132.77 48.8428 50.6267
  221 479.404 -2.28869 -19.4482
  222 491.305 8.44123 38.4629
  223 -9.94311 -26.8461 26.5432
  224 -1.53541 -8.85499 -6.85920
  225 446.314 6.97830 9.73191
  226 437.564 -2.28183 -5.32975
  227 -84.2658 4.01989 23.2427
  228 -46.5124 -1.47364 -21.9276
  229 -45.9907 5.20760 46.4794
  230 705.484 -53.8015 -72.4821
  231 545.871 -6.07450 93.5658
  232 448.041 5.69224 186.710
  233 13.0921 -32.0366 -47.7039
  234 29.6352 -64.4072 -32.0935
  235 4.52781 -58.7204 10.0573
  236 907.915 -81.3246 -7.20258
  237 644.952 -12.4303 -50.2341
  238 486.783 -10.8635 -82.4595
  239 0.576751 -24.6746 1.88277
  240 -75.5188 -5.06293 36.6022
  241 651.737 138.779 343.522
  242 543.115 -2.61339 -51.4687
  243 -3.60451 12.6333 10.3268
  244 -27.6151 12.7291 -42.8083
  245 21.5909 -22.1650 -13.1319
  246 161.156 9.40398 -44.1093
  247 -1.86007 -1.90014 -1.87488
  248 -6.56678 -6.66783 7.42133
  249 -41.7336 -3.31269 45.7358
  250 -11.1491 -11.5879 -23.1694
  251 1248.10 167.662 -101.479
  252 286.223 15.8100 -30.5288
  253 -38.4093 -17.8323 56.1275
  254 -1.27679 -20.3782 -18.7011
  255 -65.4235 1.11847 25.3221
  256 -28.6064 -2.47824 -16.3421
  257 129.279 -1.72803 -5.53579
  258 99.0921 9.62047 -1.60166
  259 153.799 8.78544 85.6849
  260 13.0801 26.1559 17.4661
  261 9.20924 -137.570 6.32343
  262 162.385 38.8074 4.48686
  263 -68.4126 -17.0381 43.6487
  264 195.024 16.3080 -16.1243
  265 108.853 12.4691 -1.19872
  266 59.6060 27.1672 -24.2377
  267 -11.6335 -25.9249 46.9843
  268 62.2679 6.25285 9.85241
  269 9.14210 -63.4927 -6.01193
  270 828.309 -35.2187 23.8813
  271 -116.215 -1.43242 -7.32229
  272 -76.4900 -3.67909 -1.64078
  273 126.237 25.1847 20.2783
  274 112.564 24.2996 -23.7844
  275 -21.2635 -17.3583 51.2316
  276 4.85150 -34.5130 -31.4522
  277 258.365 20.6411 -39.1206
  278 688.737 -3.19234 -16.1954
  279 39.1829 -97.6421 44.8659
  280 1.79855 -29.2750 -0.843355
  281 0.821749 -18.1823 -4.79384
  282 690.803 -8.65012 -7.29904
  283 720.892 -4.90505 12.3781
  284 763.473 -4.65888 -25.0779
  285 841.674 -79.6541 -28.4965
  286 755.147 -3.33372 28.9568
  287 20.3995 -55.7972 -37.3899
  288 -46.0679 7.44942 45.8523
  289 -13.6492 -14.3529 -35.3832
  290 203.242 4.91640 -51.6713
  291 154.527 25.1254 -22.9525
  292 593.541 -28.0486 -79.7470
  293 533.269 -4.48303 -7.38879
  294 558.269 1.34963 11.6139
  295 738.733 -1.88095 -22.4396
  296 47.9493 -10.0533 -35.5674
  297 176.943 35.5311 -81.0024
  298 -117.081 -80.4301 35.7255
  299 160.473 9.63748 -4.71496
  300 105.467 24.7233 -10.6581
  301 306.534 9.75845 -58.5440
  302 32.1545 -16.9048 18.2523
  303 39.8884 20.0397 9.76733
  304 2.16925 10.6986 -49.5993
  305 -55.9158 -2.75821 27.2348
  306 -113.814 -8.75522 37.1120
  307 629.992 -6.73065 46.8136
  308 -142.316 3.94861 -12.9544
  309 -116.253 2.45026 0.920509
  310 1.84867 -23.1668 -11.4750
  311 589.747 -4.58727 -20.8573
  312 22.0556 -94.2270 37.7872
  313 -119.238 1.18156 7.06687
  314 -120.539 1.77727 -21.8446
  315 560.410 -3.86532 -10.5792
  316 588.590 1.26641 21.6326
  317 -0.748741 -3.42701 -2.30263
  318 -2.96309 -13.1767 9.12233
  319 9.11936 -47.4385 -19.2749
  320 145.481 22.7781 -42.4546
  321 456.588 4.21724 -30.5950
  322 -111.395 2.20063 15.6194
  323 -71.6352 -0.220270 -19.3140
  324 -4.71261 -2.00202 -3.83244
  325 -16.0341 -4.64246 12.2376
  326 220.140 82.7969 -216.896
  327 65.7092 -28.0973 -1.59307
  328 214.636 40.7705 41.9064
  329 -5.14417 -44.0439 20.3503
  330 -0.294929 -11.2628 -4.04894
  331 -30.7079 -2.71567 -47.9378
  332 -41.8361 14.3330 29.1768
  333 749.539 -2.26168 3.71259
  334 700.126 -4.22987 -1.09464
  335 80.6385 30.3975 -27.9272
  336 795.046 -12.8185 -24.8134
  337 823.606 -32.0189 -20.3977
  338 -19.7677 -19.0860 33.4483
  339 -4.00777 -8.33302 -10.0567
  340 -36.4011 -11.5989 51.7036
  341 -9.28749 -26.5184 17.9867
  342 248.058 35.6399 22.1655
  343 -86.3333 0.223629 0.841925
  344 -132.363 2.33647 -5.90983
  345 12.8468 -69.5784 1.16031
  346 -32.3824 -5.32361 -37.5044
  347 -59.1673 8.85573 34.7003
  348 21.4621 5.54596 -8.50411
  349 17.6289 2.47845 -0.283644
  350 -17.7621 9.50532 -14.5612
  351 -52.9376 8.75687 16.6732
  352 -55.8591 4.53087 -41.1127
  353 -113.037 0.674793 -20.2267
  354 -130.774 1.39069 9.13094
  355 4.92110 -87.4182 10.8495
  356 911.578 244.214 21.5212
  357 6.00881 -37.1919 -10.2527
  358 -16.4807 -53.6134 42.7068
  359 -140.544 -29.5817 53.7331
  360 200.849 -4.61012 -3.94538
  361 180.905 5.10179 2.00477
  362 256.949 6.95729 -12.6300
  363 -13.9843 -9.15690 15.5251
  364 354.995 -3.45533 -4.67822
  365 348.242 7.53896 7.96158
  366 377.833 20.8671 46.2783
  367 231.776 0.0116861 -8.40245
  368 199.338 13.3723 4.48196
  369 -45.6486 -104.417 62.7582
  370 -21.2659 2.65738 2.32747
  371 -50.9581 8.58078 -23.8207
  372 884.502 -45.6930 63.7537
  373 -140.783 -99.0369 60.4949
  374 -114.458 2.76372 13.4462
  375 -85.9618 -0.139177 -23.0970
  376 47.5409 12.4754 3.45042
  377 -0.981677 17.5698 -37.3627
  378 209.456 134.334 -190.695
  379 269.690 15.5679 -21.8969
  380 -11.5390 -75.6782 33.2859
  381 -19.6532 20.2151 31.3393
  382 -2.59171 -16.6289 -51.1319
  383 -52.4513 -0.489965 16.7296
  384 -19.7096 -1.31534 -8.16392
  385 217.040 26.6911 7.91333
  386 -127.210 -1.80432 -0.0825082
  387 -163.403 -0.176809 -8.81637
  388 -34.1081 -3.18688 21.0124
  389 319.633 -5.12942 -0.0376792
  390 313.585 4.67204 -0.275248
  391 410.402 3.26579 -23.6575
  392 -2.53366 -2.29372 2.57773
  393 624.884 -12.9735 63.6043
  394 -29.8131 -15.7661 43.7740
  395 55.0172 20.8686 -11.6577
  396 567.104 30.7767 -227.032
  397 -19.2195 21.4703 28.2671
  398 -30.7037 9.93015 20.8990
  399 -33.4268 -7.02704 36.2055
  400 -10.1389 -7.27670 -15.1239
  401 364.261 18.8704 87.0704
  402 -56.2448 8.86705 -30.0990
  403 -33.4981 6.10734 3.70399
  404 756.296 2.19464 -11.4224
  405 268.791 5.40959 -13.8346
  406 725.103 -5.98664 -9.68219
  407 382.119 -1.91256 -75.3849
  408 166.147 19.4006 -40.3495
  409 -52.9242 0.596397 -40.2540
  410 -63.7427 8.89458 20.9463
  411 -36.5789 -39.3988 58.9914
  412 580.244 -18.3031 -69.8579
  413 348.132 13.3180 -46.9727
  414 18.0161 -4.27110 -54.6261
  415 -39.0501 -48.1812 55.7015
  416 471.317 -2.91174 135.071
  417 17.3533 -94.6249 -9.07846
  418 378.278 -0.647177 -16.9588
  419 390.087 14.7351 25.5255
  420 47.9595 28.2204 8.86625
  421 438.687 -16.4901 281.921
  422 122.234 21.2035 -4.38428
  423 29.5062 -3.53078 -2.22243
  424 -6.78650 0.409035 -0.768740
  425 76.0607 2.22565 -70.2106
  426 838.502 -4.37330 14.7064
  427 -1.77402 -57.6397 21.5440
  428 47.9724 26.6524 -3.82476
  429 803.314 -9.25054 15.2711
  430 39.0726 -0.468896 -47.8568
  431 19.4946 -45.8211 4.46650
  432 65.7247 15.6586 -9.52230
  433 104.061 2.90298 -4.23171
  434 658.574 -2.84700 8.75394
  435 619.570 -5.91743 -5.68508
  436 571.518 -0.563256 -29.7244
  437 30.7503 17.8148 -24.4909
  438 70.5737 7.74219 1.97703
  439 683.923 -70.9151 -123.580
  440 109.050 26.0973 -9.02549
  441 222.283 19.2445 -72.1590
  442 629.257 -0.541789 -30.9942
  443 -94.6405 -31.9801 33.6961
  444 36.1331 -4.69544 -5.56184
  445 -0.329501 0.446109 -0.321748
  446 19.9036 -68.8311 21.7615
  447 536.920 6.11441 15.5750
  448 516.127 -0.908174 -8.22393
  449 1592.89 301.611 328.348
  450 0.00000 0.00000 0.00000
  451 -98.2506 0.928798 3.32141
  452 -148.129 2.48004 -6.01682
  453 703.522 -27.9203 67.5947
  454 8.00337 -34.0680 -41.5777
  455 -128.909 -154.429 88.5076
  456 347.529 8.93916 -119.802
  457 -39.7876 -8.97607 52.7786
  458 -5.54452 -15.8387 -22.6613
  459 -47.4906 -7.03820 58.2246
  460 1.57432 -26.8204 -25.2733
  461 1.36268 -21.1710 -1.79567
  462 96.0757 37.3993 -17.1013
  463 0.503700 -20.5364 3.71084
  464 -24.0435 -28.9585 45.3763
  465 -2.66306 -13.5669 -12.3547
  466 -155.511 0.683617 -13.2169
  467 -142.848 0.0611450 2.82319
  468 28.0275 -6.72915 24.6362
  469 -6.40451 -5.85837 -10.0064
  470 -22.4593 -10.0406 28.5778
  471 -2.98282 -81.2028 21.9961
  472 -32.8970 -1.23463 14.7122
  473 -10.7012 -1.27753 -5.78836
  474 783.480 -59.6960 194.599
  475 -2.33852 -26.3375 11.9211
  476 -0.422455 -6.47807 -2.82363
  477 725.096 -9.59949 -2.20623
  478 776.132 -4.81527 5.39485
  479 -5.00065 1.07315 -53.5770
  480 10.0013 21.6539 18.1066
  481 4.06209 -51.4880 3.59876
  482 84.8529 8.34226 -40.8991
  483 390.936 4.91473 -65.5173
  484 0.234217 -36.0729 7.11271
  485 77.3321 -1.12027 -25.6440
  486 95.6558 5.58235 -9.94312
  487 329.288 40.3312 -161.929
  488 -59.1301 -46.3135 67.5248
  489 433.457 7.15057 -52.1491
  490 112.508 -8.55761 -19.4429
  491 15.2337 -61.9257 -24.8959
  492 366.411 9.93344 -33.8586
  493 186.929 -1.46097 -3.70198
  494 161.570 9.34323 -0.202233
  495 354.165 -0.903321 -90.8074
  496 -18.4979 -26.4813 31.6986
  497 498.956 4.19387 -46.0026
  498 224.987 14.5316 -54.5954
  499 -39.7837 -5.93496 36.8869
  500 -20.4625 -10.0564 -39.4396
  501 -11.1425 -15.8073 -44.5848
  502 -49.6677 9.53733 41.3943
  503 -36.7309 14.8812 40.2296
  504 -36.1681 -76.9236 40.3139
  505 306.325 11.9298 -20.9677
  506 409.844 15.3791 72.1104
  507 -0.129183 -0.0899207 -0.0107518
  508 -0.829779 -0.857262 0.785228
  509 -1.02479 -24.6588 1.74208
  510 133.161 -4.83374 -3.40610
  511 106.710 1.92377 1.53257
  512 128.761 13.4791 -0.666273
  513 11.5033 -15.5231 -54.7636
  514 281.224 15.9177 -49.9015
  515 105.754 -24.8487 107.345
  516 897.841 -30.6159 -109.063
  517 -4.29128 -1.82833 3.05049
  518 -0.929936 -0.512950 -0.572691
  519 27.3835 -39.6187 -47.2625
  520 -11.9439 -7.40828 -52.8272
  521 -189.861 2.97893 -7.79478
  522 -141.568 2.24978 3.33175
  523 -51.3740 1.35447 40.7153
  524 -19.4674 -7.43373 -25.5260
  525 -18.0893 19.0075 28.8997
  526 6.62109 -110.051 20.6496
  527 -93.3657 2.50270 13.0727
  528 -90.8666 0.859066 -32.2655
  529 -0.526057 -0.677013 -0.541889
  530 -1.80905 -3.72400 2.72530
</Section>

newXOutput 47

<Section columns = "stress_xx | stress_yy | stress_xy">
  1 3.04226e-10 3.63798e-12 2.37335e-12
  2 1.62800e-10 4.09273e-12 -1.66533e-13
  3 -1.71894e-10 1.36424e-12 -4.49640e-12
  4 -5.91172e-12 3.63798e-12 6.66134e-12
  5 -9.09495e-13 3.18323e-12 -8.32667e-13
  6 -5.22050e-10 -3.00361e-10 2.00866e-10
  7 1.81899e-11 3.77440e-11 -2.83171e-12
  8 -3.26509e-10 4.54747e-13 4.76104e-12
  9 3.30147e-10 -2.72848e-12 -1.30958e-12
  10 3.31056e-10 -3.94114e-12 -6.42897e-12
  11 3.25296e-10 6.06330e-13 -3.58933e-12
  12 3.38332e-10 1.09139e-11 -1.11409e-11
  13 3.72893e-10 1.39456e-11 -2.20969e-11
  14 3.92599e-10 2.21310e-11 -3.16669e-11
  15 4.37467e-10 3.48640e-11 -4.89043e-11
  16 5.05679e-10 4.39589e-11 -7.81505e-11
  17 4.78622e-10 1.90994e-11 -7.07458e-11
  18 4.42469e-10 -2.17369e-10 1.21921e-11
  19 -1.20281e-10 -3.74257e-10 3.62923e-11
  20 7.31916e-10 1.32104e-10 -5.66214e-11
  21 1.07502e-09 5.44181e-10 7.50511e-11
  22 6.54230e-10 2.93767e-10 3.09641e-10
  23 4.89308e-10 1.17628e-10 1.83797e-10
  24 3.12866e-10 3.27418e-11 7.27751e-11
  25 2.48747e-10 2.72848e-12 2.94764e-11
  26 1.87129e-10 9.09495e-13 1.59872e-11
  27 1.75836e-10 1.21266e-12 4.66294e-12
  28 1.38243e-10 8.79178e-12 1.22125e-12
  29 9.27685e-11 1.36424e-11 2.10942e-12
  30 3.41061e-11 2.56932e-11 1.16573e-12
  31 -7.73070e-12 2.68301e-11 -3.16414e-12
  32 -4.45652e-11 2.20552e-11 -2.08687e-12
  33 -9.03431e-11 1.57646e-11 -4.16334e-12
  34 -1.32786e-10 4.54747e-12 -3.55271e-12
  35 -1.72804e-10 2.12215e-12 -3.66374e-12
  36 -1.66438e-10 7.57912e-12 -9.54792e-12
  37 -1.53022e-10 4.09273e-12 -1.02834e-11
  38 -1.33696e-10 3.03165e-12 -9.10383e-12
  39 -1.13990e-10 3.03165e-12 -1.07692e-11
  40 -8.91305e-11 4.54747e-12 -1.11022e-11
  41 -5.88140e-11 6.97279e-12 -1.13243e-11
  42 -4.18368e-11 6.36646e-12 -8.43769e-12
  43 -1.42488e-11 6.36646e-12 -7.99361e-12
  44 -1.30361e-11 3.33481e-12 -7.32747e-12
  45 -1.21266e-12 4.24431e-12 -2.88658e-12
  46 6.06330e-13 2.42532e-12 2.22045e-13
  47 9.39811e-12 8.48862e-12 1.99840e-12
  48 6.36646e-12 6.36646e-12 4.44089e-12
  49 4.24431e-12 6.97279e-12 -2.22045e-13
  50 -3.33481e-12 4.85064e-12 8.88178e-13
  51 7.27596e-12 9.09495e-12 -1.43131e-26
  52 6.36646e-12 1.36424e-11 -4.88498e-12
  53 8.18545e-12 1.18234e-11 -2.49406e-26
  54 1.90994e-11 1.63709e-11 2.22045e-12
  55 1.75836e-11 1.21266e-11 -1.99840e-12
  56 5.15380e-12 9.70128e-12 2.22045e-13
  57 -5.45697e-12 5.45697e-12 -3.33067e-12
  58 -1.09139e-11 8.06419e-11 -2.33645e-11
  59 -7.27596e-11 8.09450e-11 -5.87066e-11
  60 -1.27026e-10 4.88095e-11 -6.52789e-11
  61 -1.69166e-10 3.72893e-11 -4.60030e-11
  62 -2.67391e-10 3.30450e-11 -2.62627e-11
  63 -3.98359e-10 2.42532e-12 1.82801e-11
  64 -5.83289e-10 -1.10352e-10 1.30381e-10
  65 -1.35212e-10 -2.90432e-10 1.74995e-10
  66 -1.69772e-11 -8.27640e-11 4.97180e-11
  67 2.72848e-12 -4.85064e-12 2.26721e-11
  68 1.03076e-11 3.63798e-11 1.13677e-11
  69 1.51582e-11 5.18412e-11 8.83482e-12
  70 1.90994e-11 5.48728e-11 4.21742e-12
  71 2.15247e-11 4.72937e-11 1.82458e-12
  72 1.63709e-11 2.78912e-11 -8.07514e-12
  73 1.42488e-11 2.42532e-11 -9.12348e-12
  74 5.15380e-12 2.33437e-11 -3.57106e-12
  75 -1.72804e-11 2.12215e-11 1.16954e-12
  76 -5.00222e-11 2.09184e-11 1.03265e-11
  77 -9.64064e-11 2.21310e-11 1.56770e-11
  78 -1.50673e-10 2.33437e-11 1.62441e-11
  79 -1.86143e-10 2.30405e-11 1.46196e-11
  80 -2.30405e-10 1.94026e-11 1.16870e-11
  81 -2.63147e-10 1.66741e-11 1.18400e-11
  82 -2.92857e-10 1.36424e-11 8.70866e-12
  83 -3.10138e-10 1.21266e-11 1.12037e-11
  84 -3.18020e-10 8.79178e-12 6.62969e-12
  85 -3.28328e-10 7.04858e-12 7.01663e-12
  86 -3.39848e-10 8.18545e-12 8.22934e-12
  87 -3.32572e-10 2.12215e-12 1.07150e-12
  88 -2.55871e-10 1.51582e-12 4.48789e-12
  89 -1.74926e-10 8.48862e-12 1.99813e-12
  90 -7.88987e-11 9.54969e-12 1.32879e-12
  91 -7.73070e-12 1.00044e-11 4.38956e-12
  92 7.13953e-11 9.54969e-12 6.27292e-13
  93 1.71894e-10 3.03165e-12 9.23891e-13
  94 2.47989e-10 3.94114e-12 2.52503e-12
  95 -1.08620e-10 6.35347e-11 3.82167e-11
  96 -4.22265e-11 -1.92293e-11 -9.06418e-11
  97 -6.89700e-11 -5.10833e-11 1.78502e-10
  98 -1.57473e-10 3.04031e-11 1.05139e-10
  99 9.09495e-13 -1.57213e-11 -2.15542e-11
  100 -5.09317e-11 -4.41105e-11 1.34607e-10
  101 -5.45697e-12 1.39456e-11 1.18540e-10
  102 -9.96806e-11 2.32831e-11 8.09833e-12
  103 -5.97235e-11 4.00178e-11 -2.93376e-11
  104 -4.54747e-11 -2.59206e-10 -1.19599e-10
  105 -1.50370e-10 2.98617e-11 5.15631e-11
  106 5.69084e-11 8.38034e-11 -1.55842e-11
  107 3.63798e-12 -5.11916e-11 -1.40483e-11
  108 2.07885e-12 6.49639e-13 -2.97381e-13
  109 -4.28762e-11 -9.61466e-12 6.70402e-11
  110 1.11686e-10 3.49246e-11 -1.34122e-11
  111 -3.57735e-11 1.14293e-10 3.18495e-12
  112 -4.56047e-11 -3.67696e-11 1.59370e-10
  113 -1.71137e-10 3.45608e-11 6.15543e-11
  114 -3.42576e-11 -4.39589e-12 -4.49363e-11
  115 -6.94854e-11 1.29148e-11 -4.84612e-11
  116 -1.80808e-10 2.54659e-11 2.89959e-11
  117 -1.33847e-10 -2.47079e-11 1.37291e-10
  118 -3.89783e-13 -8.44531e-12 -4.35905e-12
  119 -1.13838e-10 -1.13838e-10 1.09192e-10
  120 7.82165e-12 8.02174e-11 9.28430e-11
  121 -1.55913e-12 7.67873e-11 4.41027e-11
  122 7.39289e-11 1.74103e-11 -5.04296e-12
  123 2.26074e-11 4.79434e-11 8.56458e-12
  124 -1.42271e-10 -2.43745e-10 9.71632e-11
  125 -1.12777e-10 2.09184e-11 6.72997e-11
  126 -4.69906e-12 1.51582e-13 -1.18516e-11
  127 -1.24081e-10 1.88915e-10 -2.59376e-11
  128 -5.97235e-11 4.51716e-11 4.64924e-11
  129 -1.03228e-10 1.44003e-11 -2.14551e-11
  130 -2.04333e-10 1.01560e-11 7.74775e-12
  131 -8.69217e-11 4.26163e-11 2.19792e-11
  132 -6.27551e-11 3.44092e-11 -6.31439e-11
  133 -7.57912e-12 -4.16852e-11 -5.74818e-11
  134 -3.50805e-12 -9.36780e-11 -1.03964e-11
  135 3.83807e-11 6.71207e-11 -1.11305e-11
  136 -3.60766e-11 -3.63798e-11 1.88996e-10
  137 -1.56282e-10 6.27551e-11 6.54934e-11
  138 3.03165e-12 -7.12438e-12 -5.96745e-13
  139 -2.55828e-10 -2.33870e-11 7.95754e-11
  140 -7.57912e-13 -3.71377e-11 2.20376e-11
  141 2.01648e-10 5.17113e-11 -3.62941e-11
  142 -9.30716e-11 -2.57690e-12 -1.38722e-10
  143 -8.30672e-11 2.39500e-11 5.92128e-11
  144 -1.45519e-11 -1.06411e-10 -9.17738e-11
  145 -1.96971e-10 -4.49550e-11 1.03403e-10
  146 -9.35480e-11 6.39245e-11 3.24142e-11
  147 1.96754e-10 1.00348e-10 -4.71609e-11
  148 6.66963e-12 7.12438e-12 1.38778e-12
  149 4.54747e-12 9.39811e-12 1.43389e-11
  150 2.17824e-10 1.37940e-11 -1.18494e-11
  151 1.15657e-10 5.60855e-11 4.51722e-11
  152 -1.50976e-10 4.09273e-11 4.64384e-11
  153 -5.05419e-11 3.50805e-12 -6.57331e-11
  154 -1.55827e-10 2.56174e-11 5.20965e-11
  155 -2.00089e-11 3.03165e-12 -2.13163e-11
  156 -4.13820e-11 1.59162e-11 3.76073e-12
  157 -3.45608e-11 3.22871e-11 -9.58955e-12
  158 -1.40972e-11 -3.91083e-11 6.76858e-11
  159 3.33481e-12 3.63798e-12 -3.27516e-12
  160 -2.16979e-11 -1.22522e-10 7.99156e-11
  161 -2.06091e-10 2.00089e-11 3.63239e-11
  162 -5.52973e-11 4.18368e-12 -3.59046e-11
  163 5.45697e-12 -4.28762e-12 -2.21252e-12
  164 4.09273e-12 -2.62238e-11 -1.83881e-11
  165 5.91172e-12 3.41061e-11 3.73386e-12
  166 -4.00178e-11 7.07890e-11 -2.25792e-11
  167 2.09314e-10 7.27596e-12 -3.75154e-12
  168 1.14596e-10 1.81899e-11 1.54727e-11
  169 -1.90084e-10 4.53232e-11 8.47763e-11
  170 -2.41016e-10 9.85286e-12 1.18814e-11
  171 -1.07017e-10 8.18545e-12 -2.72560e-11
  172 -1.09139e-10 -4.90218e-10 -2.51986e-10
  173 -1.07840e-10 -4.15769e-11 7.21936e-11
  174 3.63798e-12 -1.19750e-11 2.02616e-12
  175 -5.56611e-11 1.27329e-12 1.54196e-10
  176 1.63709e-11 1.09291e-10 1.67420e-11
  177 -1.14596e-11 -2.00089e-11 -4.38857e-11
  178 -2.58448e-10 -8.65536e-11 1.67743e-10
  179 -1.64073e-10 4.89308e-11 8.33395e-11
  180 1.00044e-10 1.38546e-10 1.04250e-10
  181 2.44806e-10 3.00133e-11 -2.66533e-11
  182 -7.50333e-11 6.59384e-11 -7.07490e-11
  183 -5.23609e-11 1.22132e-11 3.86075e-11
  184 2.59856e-13 2.59856e-12 -4.21092e-12
  185 -1.15116e-10 6.10661e-12 1.07733e-10
  186 1.29928e-12 -8.83509e-12 -8.39804e-12
  187 -1.23691e-11 -1.17689e-10 1.60673e-10
  188 4.54747e-13 5.59339e-11 9.20830e-13
  189 -1.50825e-10 3.15291e-11 8.49121e-11
  190 -8.64020e-12 -8.79178e-12 -2.62707e-11
  191 -2.00635e-10 1.94632e-11 3.86263e-11
  192 -4.49290e-11 2.91038e-12 -2.75779e-11
  193 -2.35256e-10 -1.07320e-10 5.59211e-11
  194 7.73070e-12 2.72848e-12 -9.80851e-13
  195 -1.87962e-11 5.45697e-12 1.56508e-10
  196 -1.43397e-10 1.15203e-11 4.70851e-12
  197 -7.86713e-11 2.04636e-11 -1.17198e-11
  198 -3.37812e-11 -1.67607e-11 -7.00392e-11
  199 -5.47516e-11 -8.25821e-11 1.08042e-10
  200 -1.45822e-10 5.77529e-11 5.83309e-11
  201 -8.87667e-11 8.18545e-12 -2.78444e-11
  202 -2.49020e-10 1.43700e-11 1.97663e-11
  203 -2.81943e-11 7.47301e-11 1.01610e-11
  204 -2.72848e-12 7.16682e-11 1.98046e-11
  205 -1.74168e-10 2.13731e-11 1.76692e-11
  206 -8.65536e-11 1.57646e-11 -3.79419e-11
  207 -4.63842e-11 1.43245e-11 9.86914e-11
  208 -2.51021e-10 6.13909e-12 3.94364e-12
  209 -1.29148e-10 9.32232e-12 -7.99361e-12
  210 -5.69571e-11 -7.31006e-11 1.43355e-10
  211 -1.44610e-10 -2.29799e-10 1.45133e-10
  212 -2.48838e-10 -1.19690e-10 1.21357e-10
  213 -5.47516e-11 4.05635e-11 9.69587e-11
  214 3.78956e-12 4.09273e-11 3.61649e-11
  215 1.52613e-10 4.82032e-11 -2.54335e-11
  216 -8.03387e-12 2.16763e-11 3.41846e-12
  217 -2.98996e-11 4.82032e-11 -1.47070e-11
  218 5.09317e-12 5.09317e-12 -1.73195e-12
  219 -2.18279e-11 1.16415e-11 2.25820e-11
  220 -2.79063e-10 -4.45349e-10 8.97542e-11
  221 1.02773e-10 2.60343e-11 -9.00536e-12
  222 1.29603e-11 7.65112e-11 1.40044e-11
  223 2.46863e-12 -7.79567e-13 3.12938e-11
  224 4.28762e-12 4.93726e-12 -2.61695e-13
  225 3.16807e-11 3.34997e-11 4.91274e-12
  226 7.56396e-11 1.45519e-11 -1.42435e-12
  227 -1.24861e-10 2.40366e-11 3.71756e-11
  228 -9.22487e-12 4.80733e-12 -1.00634e-11
  229 -1.70725e-10 1.16935e-11 1.22876e-10
  230 1.30209e-10 1.03228e-10 -1.48820e-11
  231 -8.64020e-11 1.48378e-10 -2.46470e-11
  232 -1.37334e-10 -5.40500e-11 -1.92560e-10
  233 -1.13687e-13 -3.14913e-11 -3.31193e-11
  234 2.85841e-12 -8.38034e-11 -4.65104e-11
  235 6.10661e-12 -4.59944e-11 5.05351e-11
  236 1.43830e-10 3.44569e-10 1.29950e-10
  237 1.94112e-10 7.14603e-11 -4.58953e-11
  238 2.59206e-11 8.74631e-11 1.12242e-11
  239 1.21266e-12 2.12215e-12 -7.77156e-13
  240 -1.74493e-10 2.20877e-11 2.17062e-11
  241 2.86491e-11 -3.30601e-10 -8.71941e-11
  242 1.18780e-10 7.14863e-11 -2.98888e-11
  243 -1.79430e-10 3.14425e-11 4.74819e-11
  244 -4.87229e-11 4.67740e-12 -5.04477e-11
  245 -1.82808e-10 -4.33526e-11 5.29650e-11
  246 -1.04982e-10 1.83198e-11 5.39958e-11
  247 8.94336e-12 6.66963e-12 3.13638e-12
  248 1.59162e-11 2.60722e-11 -1.21200e-12
  249 -7.35391e-11 5.58690e-12 7.49995e-11
  250 4.80733e-12 -1.81899e-12 -3.48531e-12
  251 6.16941e-11 -3.37574e-10 -1.17250e-10
  252 -4.32660e-11 6.30150e-11 1.25818e-11
  253 -8.14647e-11 -2.05286e-11 1.07329e-10
  254 -3.63798e-12 -4.77485e-12 -5.57887e-12
  255 -7.67873e-11 2.10483e-11 3.22770e-11
  256 -2.20877e-12 3.24820e-12 -3.94922e-12
  257 -1.35515e-10 1.40322e-11 5.62335e-12
  258 -7.58778e-11 2.49461e-11 -2.03290e-11
  259 -4.83548e-11 -1.15657e-10 -1.36890e-10
  260 -1.73031e-10 4.95675e-11 8.83335e-11
  261 2.88007e-12 -9.09495e-11 -1.01724e-11
  262 -5.78179e-11 2.75447e-11 -8.12683e-11
  263 -2.21787e-10 -1.74103e-11 1.34146e-10
  264 -9.18590e-11 5.50244e-11 2.81178e-11
  265 -1.35515e-10 3.62282e-11 3.03835e-11
  266 -6.19756e-11 1.74103e-11 -5.97022e-11
  267 -9.98928e-11 -7.48817e-11 1.32727e-10
  268 -4.01693e-11 -4.51716e-11 1.77316e-10
  269 6.88617e-12 -1.94892e-11 -5.92383e-12
  270 2.06585e-10 1.88135e-10 1.66652e-10
  271 -1.27979e-10 3.63798e-12 -1.64868e-11
  272 -2.67391e-10 4.80733e-12 6.91701e-12
  273 -4.50200e-11 -4.71421e-11 -1.14159e-10
  274 -1.47208e-10 5.71682e-11 5.34442e-11
  275 -3.00133e-11 2.01388e-11 1.21204e-10
  276 1.81899e-12 -1.63709e-11 -1.27993e-11
  277 -6.78223e-11 7.24997e-11 2.04565e-11
  278 2.62844e-10 1.42488e-11 -1.74790e-11
  279 -1.94026e-11 -1.95238e-10 -7.21506e-11
  280 4.02776e-12 3.63798e-12 -1.26357e-12
  281 1.22132e-11 7.92560e-12 1.90324e-13
  282 2.65962e-10 2.20877e-12 -6.82004e-12
  283 1.44155e-10 1.74320e-11 2.33702e-11
  284 3.26660e-10 4.09273e-11 -4.46783e-11
  285 2.13883e-10 7.23048e-11 -4.01947e-11
  286 1.70985e-10 6.63931e-11 7.66748e-11
  287 6.06330e-12 -4.79001e-11 -2.70894e-11
  288 -1.15896e-10 2.01388e-11 9.04402e-11
  289 -1.42921e-12 -6.49639e-12 -1.34178e-11
  290 -6.44604e-11 -4.54747e-12 8.86192e-11
  291 -1.23085e-10 6.91216e-11 4.45151e-11
  292 8.51287e-11 1.05683e-10 -9.47886e-12
  293 1.45519e-10 9.39811e-12 -4.76759e-12
  294 7.71555e-11 2.37984e-11 9.19750e-12
  295 3.06110e-10 2.76746e-11 -3.19769e-11
  296 -1.33826e-11 -5.78179e-11 -7.65459e-11
  297 -6.01782e-11 -1.98573e-11 1.79624e-10
  298 -3.43009e-10 -1.08620e-10 1.05513e-10
  299 -1.10390e-10 3.19460e-11 1.90479e-11
  300 -6.87318e-11 3.04031e-11 -4.61060e-11
  301 -4.71638e-11 6.86019e-11 2.35591e-11
  302 -1.74320e-11 -2.66785e-11 1.74352e-10
  303 -1.58707e-10 4.51716e-11 5.82502e-11
  304 -3.38332e-11 -4.91127e-12 -5.76372e-11
  305 -1.23540e-10 3.95630e-11 -2.02645e-11
  306 -2.70848e-10 1.56433e-11 2.46110e-11
  307 5.53276e-11 1.06714e-10 5.66908e-11
  308 -1.09659e-10 5.58690e-12 -1.93179e-11
  309 -2.77266e-10 1.07840e-11 1.18372e-11
  310 -3.09228e-12 -9.09495e-13 -1.59872e-12
  311 1.83566e-10 2.50111e-11 -1.69107e-11
  312 -1.21266e-11 -1.43397e-10 -2.48690e-11
  313 -2.46814e-10 1.46656e-11 2.07345e-11
  314 -6.69615e-11 6.13909e-12 -2.19408e-11
  315 1.65073e-10 1.47035e-11 -6.88040e-12
  316 8.07934e-11 4.38073e-11 2.39808e-11
  317 5.58690e-12 9.09495e-12 -1.40364e-12
  318 1.84497e-11 3.17024e-11 7.03508e-12
  319 3.37812e-12 -1.62410e-11 -9.42104e-12
  320 -4.91127e-11 -2.97535e-11 1.68716e-10
  321 7.42375e-11 5.02496e-11 -1.18030e-11
  322 -1.62072e-10 2.41926e-11 2.58170e-11
  323 -1.34605e-11 6.73026e-12 -1.22569e-11
  324 5.11591e-12 5.45697e-12 2.78944e-12
  325 3.97904e-12 1.85310e-11 1.53745e-12
  326 -6.71510e-11 -1.76442e-10 1.76263e-10
  327 -8.78572e-11 -8.78572e-11 9.79952e-11
  328 -7.10922e-11 1.87962e-11 -1.05527e-10
  329 7.88229e-12 -3.03165e-12 2.74740e-11
  330 1.10655e-11 9.70128e-12 7.49401e-13
  331 -2.24775e-11 -6.23654e-12 -3.22242e-11
  332 -1.59292e-10 3.27418e-11 7.13596e-11
  333 1.48551e-10 5.76013e-12 5.88418e-12
  334 2.72848e-10 2.27374e-12 -1.24250e-12
  335 -4.85670e-11 7.27596e-13 -8.03690e-11
  336 3.49852e-10 5.51760e-11 -6.29997e-11
  337 3.50913e-10 8.88273e-11 -6.93022e-11
  338 -1.40062e-11 -6.54836e-12 3.98455e-11
  339 8.73115e-12 6.00267e-12 6.66134e-13
  340 -9.59517e-11 -1.77351e-11 1.10790e-10
  341 1.46656e-11 8.15135e-11 3.20522e-11
  342 -5.98751e-11 6.06330e-11 -5.25691e-11
  343 -2.81602e-10 4.43379e-12 5.38720e-12
  344 -1.40631e-10 6.02540e-12 -1.03147e-11
  345 -1.67347e-11 -1.27329e-10 9.88482e-11
  346 -9.70128e-12 -7.57912e-13 -1.84158e-11
  347 -1.36273e-10 2.75880e-11 6.91227e-11
  348 -1.96581e-10 1.66308e-11 6.53293e-11
  349 -2.02272e-10 1.36424e-11 1.32459e-11
  350 -1.01863e-10 1.27329e-11 -2.85272e-11
  351 -1.89933e-10 2.53143e-11 4.66644e-11
  352 -4.42621e-11 2.27374e-12 -3.60822e-11
  353 -5.12349e-11 5.30539e-12 -1.67921e-11
  354 -2.29647e-10 1.66741e-11 2.08478e-11
  355 3.94114e-12 -2.25858e-11 -7.07767e-13
  356 -2.51021e-10 -3.10683e-10 7.47911e-11
  357 3.09228e-12 -4.18368e-12 -2.87192e-12
  358 -1.51582e-12 6.74542e-11 1.08683e-10
  359 -3.50762e-10 -3.80472e-11 7.21097e-11
  360 -9.06463e-11 1.12171e-11 9.30684e-13
  361 -5.19928e-11 2.42532e-11 -5.49907e-12
  362 -5.27507e-11 3.63798e-11 1.18668e-11
  363 -2.46863e-12 1.22392e-10 -9.91193e-12
  364 1.70985e-11 1.54614e-11 1.84424e-12
  365 -6.36646e-12 3.67436e-11 -3.06422e-12
  366 -4.80516e-11 8.68567e-11 -2.88727e-11
  367 -6.76058e-11 1.97057e-11 4.45468e-12
  368 -5.05679e-11 3.54703e-11 -1.60705e-11
  369 -9.30283e-11 -1.32786e-10 1.29538e-10
  370 -2.13861e-10 1.58512e-11 2.14722e-11
  371 -8.51027e-11 1.11738e-11 -3.75414e-11
  372 2.31921e-10 -1.63103e-10 -1.67703e-11
  373 -3.86795e-10 -1.62540e-10 1.09561e-10
  374 -1.92553e-10 2.06585e-11 2.78405e-11
  375 -2.93637e-11 6.36646e-12 -1.64154e-11
  376 -1.63709e-10 3.34997e-11 3.82829e-11
  377 -5.76620e-11 1.03682e-11 -5.45064e-11
  378 -5.72982e-11 -1.80838e-10 1.06610e-10
  379 -4.69299e-11 5.52973e-11 1.39831e-11
  380 -6.82121e-12 -6.24520e-11 5.58439e-11
  381 -1.59768e-10 3.89567e-11 9.24291e-11
  382 -1.16935e-12 -1.55913e-11 -3.27625e-11
  383 -4.00178e-11 2.18279e-11 1.22504e-11
  384 4.54747e-12 6.18456e-12 -3.33067e-13
  385 -5.74497e-11 4.88095e-11 -3.90937e-11
  386 -2.94858e-10 6.18456e-12 8.42423e-12
  387 -1.28784e-10 4.18368e-12 -1.52545e-11
  388 -6.82121e-11 5.88140e-11 -3.57278e-11
  389 -8.18545e-12 1.16935e-11 2.33820e-12
  390 -1.15636e-11 2.80644e-11 -3.28606e-12
  391 4.80516e-11 3.94114e-11 -5.26226e-12
  392 5.76013e-12 6.19972e-11 -2.59994e-12
  393 -1.36424e-11 1.55342e-10 4.97602e-11
  394 -1.04592e-11 4.86580e-11 6.93320e-11
  395 -1.78625e-10 4.47471e-11 6.58132e-11
  396 -7.60078e-11 -2.07885e-11 1.17650e-10
  397 -1.84446e-10 3.80169e-11 1.04407e-10
  398 -2.15095e-10 2.28889e-11 1.01077e-10
  399 -3.54703e-11 7.27596e-12 4.42160e-11
  400 7.82165e-12 5.09317e-12 -2.83107e-13
  401 -9.86802e-11 8.32188e-11 -8.73190e-11
  402 -6.89917e-11 8.18545e-12 -4.07531e-11
  403 -2.07755e-10 1.97490e-11 2.93775e-11
  404 3.21052e-10 1.78261e-11 -1.81375e-11
  405 -4.28762e-11 2.98834e-11 5.29451e-12
  406 2.92493e-10 5.09317e-12 -1.06994e-11
  407 -1.45519e-11 7.26080e-11 2.19721e-11
  408 -1.17689e-10 4.58385e-11 4.57101e-11
  409 -3.22871e-11 -1.51582e-13 -3.05311e-11
  410 -1.76139e-10 2.56174e-11 5.21081e-11
  411 -7.07890e-11 -4.97190e-11 1.12374e-10
  412 1.12595e-10 9.64064e-11 -2.93184e-11
  413 -1.07624e-11 7.07890e-11 -1.04310e-12
  414 -1.80383e-11 -2.74364e-11 -5.80092e-11
  415 -1.66256e-10 -1.10595e-10 1.23468e-10
  416 -1.23873e-10 1.06411e-10 -1.11777e-10
  417 -1.09139e-12 -1.29330e-10 -4.52804e-11
  418 3.09228e-11 2.58296e-11 -2.64073e-12
  419 -7.27596e-12 6.59384e-11 -2.83107e-12
  420 -1.59162e-10 5.85108e-11 7.25140e-11
  421 -8.77662e-11 -3.41515e-10 -2.04073e-10
  422 -1.29300e-10 5.38118e-11 4.56121e-11
  423 -2.07625e-10 4.93726e-12 1.32951e-12
  424 -1.06801e-10 1.18234e-11 -5.84651e-12
  425 -4.04725e-11 -1.47944e-10 1.78947e-10
  426 2.73758e-10 8.00355e-11 1.17173e-10
  427 7.73070e-12 9.09495e-13 4.13625e-11
  428 -1.75169e-10 5.67525e-11 7.19155e-11
  429 2.02817e-10 1.87962e-11 3.80251e-11
  430 -2.29193e-11 -3.60160e-11 -7.41407e-11
  431 -1.42942e-10 -9.94381e-11 6.93186e-11
  432 -8.07934e-11 2.37984e-11 -3.27932e-11
  433 -1.47793e-10 1.94026e-11 1.21043e-11
  434 1.16779e-10 1.23691e-11 8.17263e-12
  435 2.10821e-10 5.09317e-12 -4.30850e-12
  436 1.64770e-10 3.91083e-11 -2.25863e-11
  437 -7.40329e-11 1.58252e-11 -4.73954e-11
  438 -1.61162e-10 2.65572e-11 2.60875e-11
  439 6.82121e-12 6.04814e-11 2.66524e-11
  440 -1.40244e-10 6.43922e-11 5.66593e-11
  441 -5.19928e-11 3.03165e-12 1.27797e-10
  442 2.05546e-10 3.91083e-11 -3.12849e-11
  443 -2.93312e-10 -3.29692e-11 1.17006e-10
  444 -2.01301e-10 5.30539e-12 1.81646e-12
  445 -1.04592e-10 1.39456e-11 -1.11716e-11
  446 3.03165e-12 -4.71421e-11 1.37810e-10
  447 6.63931e-11 3.80169e-11 1.42553e-11
  448 1.31877e-10 1.50976e-11 -4.66271e-12
  449 5.54792e-11 -7.46695e-10 -9.51895e-11
  450 0.00000 0.00000 0.00000
  451 -2.93312e-10 3.63798e-12 4.57711e-12
  452 -1.52644e-10 3.94114e-12 -5.82867e-12
  453 -2.65572e-11 1.92631e-10 7.13096e-11
  454 3.41061e-12 -2.13731e-11 -2.20865e-11
  455 -3.02862e-10 -2.35377e-10 2.02804e-10
  456 -4.61244e-11 3.32615e-11 1.11287e-10
  457 -7.54881e-11 -6.13909e-12 9.16481e-11
  458 1.36424e-12 -6.59384e-12 -2.45637e-12
  459 -1.28239e-10 -7.50333e-12 1.25171e-10
  460 -4.54747e-13 -1.06866e-11 -5.66214e-12
  461 3.45608e-12 7.27596e-12 -1.13617e-12
  462 -5.92991e-11 1.49157e-11 -7.37743e-11
  463 0.00000 3.63798e-13 -5.32907e-13
  464 -3.03165e-11 -2.57690e-11 7.14208e-11
  465 -4.84676e-28 1.81899e-13 -3.53051e-12
  466 -9.94987e-11 3.63798e-12 -1.49880e-11
  467 -2.80852e-10 1.09139e-11 1.27114e-11
  468 -2.51021e-11 -2.98314e-11 1.80362e-10
  469 1.03076e-11 7.12438e-12 9.99201e-13
  470 -1.28845e-11 6.21488e-12 2.86126e-11
  471 1.66741e-12 -3.56219e-11 3.77476e-12
  472 -1.39456e-11 2.13731e-11 6.17872e-12
  473 7.88229e-12 7.42754e-12 5.55112e-13
  474 -2.57751e-10 1.61890e-11 -1.94253e-10
  475 1.32786e-11 2.61934e-11 1.33698e-11
  476 4.00178e-12 8.91305e-12 1.83187e-12
  477 2.94131e-10 -1.27329e-12 -2.93860e-12
  478 1.59707e-10 4.36557e-12 1.11577e-11
  479 -2.63753e-11 -1.37723e-11 -4.94366e-11
  480 -1.61890e-10 4.57346e-11 7.20616e-11
  481 3.45608e-12 -2.18279e-12 -1.99840e-12
  482 -3.72893e-11 -5.67785e-11 1.90597e-10
  483 9.09495e-13 7.74889e-11 2.45260e-12
  484 2.91038e-12 -4.36557e-12 1.01585e-12
  485 -1.47884e-10 -3.45608e-12 5.49679e-11
  486 -4.45652e-11 -5.57066e-11 1.64757e-10
  487 -6.39678e-11 1.01560e-11 1.45842e-10
  488 -1.37182e-10 -6.18456e-11 1.49752e-10
  489 3.74192e-11 7.47085e-11 -1.13037e-11
  490 -6.69388e-11 -5.22050e-11 1.08624e-10
  491 3.27418e-12 -3.20142e-11 -1.42886e-11
  492 6.36646e-12 5.94810e-11 -1.02817e-12
  493 -9.84073e-11 1.52795e-11 4.30257e-12
  494 -6.18456e-11 2.72848e-11 -1.29896e-11
  495 -3.30017e-11 4.75536e-11 6.29604e-11
  496 2.72848e-11 1.31725e-10 4.69476e-11
  497 9.74675e-11 6.53320e-11 -2.58014e-11
  498 -8.71296e-11 4.94765e-11 3.79564e-11
  499 -6.02085e-11 4.38376e-11 1.74058e-11
  500 -1.05501e-11 -7.09406e-12 -1.83187e-11
  501 -6.73026e-12 -1.05501e-11 -2.15161e-11
  502 -1.32604e-10 2.60115e-11 8.42792e-11
  503 -1.46792e-10 2.83762e-11 9.54064e-11
  504 -1.87811e-10 -1.52795e-10 9.49620e-11
  505 -2.31921e-11 4.66874e-11 6.16461e-12
  506 -7.49424e-11 1.03682e-10 -4.42313e-11
  507 6.06330e-12 4.69906e-12 3.55271e-12
  508 1.98573e-11 3.38029e-11 -3.90276e-12
  509 4.54747e-12 3.45608e-12 6.66134e-13
  510 -1.37697e-10 8.54925e-12 -2.13540e-14
  511 -7.16682e-11 1.87356e-11 -4.38816e-12
  512 -1.25813e-10 4.28978e-11 3.83639e-11
  513 -6.91216e-12 -2.78305e-11 -4.47808e-11
  514 -5.95719e-11 7.07132e-11 1.91049e-11
  515 -1.89478e-11 -2.00695e-10 -4.61714e-11
  516 5.42605e-10 2.76304e-10 -1.39172e-10
  517 1.50976e-11 2.49202e-11 -8.94134e-12
  518 2.54659e-12 4.18368e-12 7.32747e-13
  519 5.63887e-12 -5.40240e-11 -4.79783e-11
  520 -1.00044e-11 -1.01863e-11 -3.71578e-11
  521 -1.51886e-10 3.63798e-12 -1.06998e-11
  522 -3.16277e-10 4.32010e-12 7.36557e-12
  523 -8.33097e-11 1.54614e-11 6.43092e-11
  524 1.81899e-13 7.27596e-13 -6.76126e-12
  525 -1.59162e-10 3.91083e-11 8.23472e-11
  526 5.45697e-12 -4.34738e-11 1.86517e-12
  527 -2.18097e-10 1.63709e-11 3.35995e-11
  528 -5.63887e-11 2.36469e-12 -2.82774e-11
  529 1.47338e-11 1.20053e-11 -2.43139e-12
  530 2.25555e-11 4.20187e-11 1.88432e-12
</Section>

