newXOutput 1

<Section columns = "stress_xx | stress_yy | stress_xy">
  1 0.00000 0.00000 0.00000
  2 0.00000 0.00000 0.00000
  3 0.00000 0.00000 0.00000
  4 0.00000 0.00000 0.00000
  5 0.00000 0.00000 0.00000
  6 0.00000 0.00000 0.00000
  7 0.00000 0.00000 0.00000
  8 0.00000 0.00000 0.00000
  9 0.00000 0.00000 0.00000
  10 0.00000 0.00000 0.00000
  11 0.00000 0.00000 0.00000
  12 0.00000 0.00000 0.00000
  13 0.00000 0.00000 0.00000
  14 0.00000 0.00000 0.00000
  15 0.00000 0.00000 0.00000
  16 0.00000 0.00000 0.00000
  17 0.00000 0.00000 0.00000
  18 0.00000 0.00000 0.00000
  19 0.00000 0.00000 0.00000
  20 0.00000 0.00000 0.00000
  21 0.00000 0.00000 0.00000
  22 0.00000 0.00000 0.00000
  23 0.00000 0.00000 0.00000
  24 0.00000 0.00000 0.00000
  25 0.00000 0.00000 0.00000
  26 0.00000 0.00000 0.00000
  27 0.00000 0.00000 0.00000
  28 0.00000 0.00000 0.00000
  29 0.00000 0.00000 0.00000
  30 0.00000 0.00000 0.00000
  31 0.00000 0.00000 0.00000
  32 0.00000 0.00000 0.00000
  33 0.00000 0.00000 0.00000
  34 0.00000 0.00000 0.00000
  35 0.00000 0.00000 0.00000
  36 0.00000 0.00000 0.00000
  37 0.00000 0.00000 0.00000
  38 0.00000 0.00000 0.00000
  39 0.00000 0.00000 0.00000
  40 0.00000 0.00000 0.00000
  41 0.00000 0.00000 0.00000
  42 0.00000 0.00000 0.00000
  43 0.00000 0.00000 0.00000
  44 0.00000 0.00000 0.00000
  45 0.00000 0.00000 0.00000
  46 0.00000 0.00000 0.00000
  47 0.00000 0.00000 0.00000
  48 0.00000 0.00000 0.00000
  49 0.00000 0.00000 0.00000
  50 0.00000 0.00000 0.00000
  51 0.00000 0.00000 0.00000
  52 0.00000 0.00000 0.00000
  53 0.00000 0.00000 0.00000
  54 0.00000 0.00000 0.00000
  55 0.00000 0.00000 0.00000
  56 0.00000 0.00000 0.00000
  57 0.00000 0.00000 0.00000
  58 0.00000 0.00000 0.00000
  59 0.00000 0.00000 0.00000
  60 0.00000 0.00000 0.00000
  61 0.00000 0.00000 0.00000
  62 0.00000 0.00000 0.00000
  63 0.00000 0.00000 0.00000
  64 0.00000 0.00000 0.00000
  65 0.00000 0.00000 0.00000
  66 0.00000 0.00000 0.00000
  67 0.00000 0.00000 0.00000
  68 0.00000 0.00000 0.00000
  69 0.00000 0.00000 0.00000
  70 0.00000 0.00000 0.00000
  71 0.00000 0.00000 0.00000
  72 0.00000 0.00000 0.00000
  73 0.00000 0.00000 0.00000
  74 0.00000 0.00000 0.00000
  75 0.00000 0.00000 0.00000
  76 0.00000 0.00000 0.00000
  77 0.00000 0.00000 0.00000
  78 0.00000 0.00000 0.00000
  79 0.00000 0.00000 0.00000
  80 0.00000 0.00000 0.00000
  81 0.00000 0.00000 0.00000
  82 0.00000 0.00000 0.00000
  83 0.00000 0.00000 0.00000
  84 0.00000 0.00000 0.00000
  85 0.00000 0.00000 0.00000
  86 0.00000 0.00000 0.00000
  87 0.00000 0.00000 0.00000
  88 0.00000 0.00000 0.00000
  89 0.00000 0.00000 0.00000
  90 0.00000 0.00000 0.00000
  91 0.00000 0.00000 0.00000
  92 0.00000 0.00000 0.00000
  93 0.00000 0.00000 0.00000
  94 0.00000 0.00000 0.00000
  95 0.00000 0.00000 0.00000
  96 0.00000 0.00000 0.00000
  97 0.00000 0.00000 0.00000
  98 0.00000 0.00000 0.00000
  99 0.00000 0.00000 0.00000
  100 0.00000 0.00000 0.00000
  101 0.00000 0.00000 0.00000
  102 0.00000 0.00000 0.00000
  103 0.00000 0.00000 0.00000
  104 0.00000 0.00000 0.00000
  105 0.00000 0.00000 0.00000
  106 0.00000 0.00000 0.00000
  107 0.00000 0.00000 0.00000
  108 0.00000 0.00000 0.00000
  109 0.00000 0.00000 0.00000
  110 0.00000 0.00000 0.00000
  111 0.00000 0.00000 0.00000
  112 0.00000 0.00000 0.00000
  113 0.00000 0.00000 0.00000
  114 0.00000 0.00000 0.00000
  115 0.00000 0.00000 0.00000
  116 0.00000 0.00000 0.00000
  117 0.00000 0.00000 0.00000
  118 0.00000 0.00000 0.00000
  119 0.00000 0.00000 0.00000
  120 0.00000 0.00000 0.00000
  121 0.00000 0.00000 0.00000
  122 0.00000 0.00000 0.00000
  123 0.00000 0.00000 0.00000
  124 0.00000 0.00000 0.00000
  125 0.00000 0.00000 0.00000
  126 0.00000 0.00000 0.00000
  127 0.00000 0.00000 0.00000
  128 0.00000 0.00000 0.00000
  129 0.00000 0.00000 0.00000
  130 0.00000 0.00000 0.00000
  131 0.00000 0.00000 0.00000
  132 0.00000 0.00000 0.00000
  133 0.00000 0.00000 0.00000
  134 0.00000 0.00000 0.00000
  135 0.00000 0.00000 0.00000
  136 0.00000 0.00000 0.00000
  137 0.00000 0.00000 0.00000
  138 0.00000 0.00000 0.00000
  139 0.00000 0.00000 0.00000
  140 0.00000 0.00000 0.00000
  141 0.00000 0.00000 0.00000
  142 0.00000 0.00000 0.00000
  143 0.00000 0.00000 0.00000
  144 0.00000 0.00000 0.00000
  145 0.00000 0.00000 0.00000
  146 0.00000 0.00000 0.00000
  147 0.00000 0.00000 0.00000
  148 0.00000 0.00000 0.00000
  149 0.00000 0.00000 0.00000
  150 0.00000 0.00000 0.00000
  151 0.00000 0.00000 0.00000
  152 0.00000 0.00000 0.00000
  153 0.00000 0.00000 0.00000
  154 0.00000 0.00000 0.00000
  155 0.00000 0.00000 0.00000
  156 0.00000 0.00000 0.00000
  157 0.00000 0.00000 0.00000
  158 0.00000 0.00000 0.00000
  159 0.00000 0.00000 0.00000
  160 0.00000 0.00000 0.00000
  161 0.00000 0.00000 0.00000
  162 0.00000 0.00000 0.00000
  163 0.00000 0.00000 0.00000
  164 0.00000 0.00000 0.00000
  165 0.00000 0.00000 0.00000
  166 0.00000 0.00000 0.00000
  167 0.00000 0.00000 0.00000
  168 0.00000 0.00000 0.00000
  169 0.00000 0.00000 0.00000
  170 0.00000 0.00000 0.00000
  171 0.00000 0.00000 0.00000
  172 0.00000 0.00000 0.00000
  173 0.00000 0.00000 0.00000
  174 0.00000 0.00000 0.00000
  175 0.00000 0.00000 0.00000
  176 0.00000 0.00000 0.00000
  177 0.00000 0.00000 0.00000
  178 0.00000 0.00000 0.00000
  179 0.00000 0.00000 0.00000
  180 0.00000 0.00000 0.00000
  181 0.00000 0.00000 0.00000
  182 0.00000 0.00000 0.00000
  183 0.00000 0.00000 0.00000
  184 0.00000 0.00000 0.00000
  185 0.00000 0.00000 0.00000
  186 0.00000 0.00000 0.00000
  187 0.00000 0.00000 0.00000
  188 0.00000 0.00000 0.00000
  189 0.00000 0.00000 0.00000
  190 0.00000 0.00000 0.00000
  191 0.00000 0.00000 0.00000
  192 0.00000 0.00000 0.00000
  193 0.00000 0.00000 0.00000
  194 0.00000 0.00000 0.00000
  195 0.00000 0.00000 0.00000
  196 0.00000 0.00000 0.00000
  197 0.00000 0.00000 0.00000
  198 0.00000 0.00000 0.00000
  199 0.00000 0.00000 0.00000
  200 0.00000 0.00000 0.00000
  201 0.00000 0.00000 0.00000
  202 0.00000 0.00000 0.00000
  203 0.00000 0.00000 0.00000
  204 0.00000 0.00000 0.00000
  205 0.00000 0.00000 0.00000
  206 0.00000 0.00000 0.00000
  207 0.00000 0.00000 0.00000
  208 0.00000 0.00000 0.00000
  209 0.00000 0.00000 0.00000
  210 0.00000 0.00000 0.00000
  211 0.00000 0.00000 0.00000
  212 0.00000 0.00000 0.00000
  213 0.00000 0.00000 0.00000
  214 0.00000 0.00000 0.00000
  215 0.00000 0.00000 0.00000
  216 0.00000 0.00000 0.00000
  217 0.00000 0.00000 0.00000
  218 0.00000 0.00000 0.00000
  219 0.00000 0.00000 0.00000
  220 0.00000 0.00000 0.00000
  221 0.00000 0.00000 0.00000
  222 0.00000 0.00000 0.00000
  223 0.00000 0.00000 0.00000
  224 0.00000 0.00000 0.00000
  225 0.00000 0.00000 0.00000
  226 0.00000 0.00000 0.00000
  227 0.00000 0.00000 0.00000
  228 0.00000 0.00000 0.00000
  229 0.00000 0.00000 0.00000
  230 0.00000 0.00000 0.00000
  231 0.00000 0.00000 0.00000
  232 0.00000 0.00000 0.00000
  233 0.00000 0.00000 0.00000
  234 0.00000 0.00000 0.00000
  235 0.00000 0.00000 0.00000
  236 0.00000 0.00000 0.00000
  237 0.00000 0.00000 0.00000
  238 0.00000 0.00000 0.00000
  239 0.00000 0.00000 0.00000
  240 0.00000 0.00000 0.00000
  241 0.00000 0.00000 0.00000
  242 0.00000 0.00000 0.00000
  243 0.00000 0.00000 0.00000
  244 0.00000 0.00000 0.00000
  245 0.00000 0.00000 0.00000
  246 0.00000 0.00000 0.00000
  247 0.00000 0.00000 0.00000
  248 0.00000 0.00000 0.00000
  249 0.00000 0.00000 0.00000
  250 0.00000 0.00000 0.00000
  251 0.00000 0.00000 0.00000
  252 0.00000 0.00000 0.00000
  253 0.00000 0.00000 0.00000
  254 0.00000 0.00000 0.00000
  255 0.00000 0.00000 0.00000
  256 0.00000 0.00000 0.00000
  257 0.00000 0.00000 0.00000
  258 0.00000 0.00000 0.00000
  259 0.00000 0.00000 0.00000
  260 0.00000 0.00000 0.00000
  261 0.00000 0.00000 0.00000
  262 0.00000 0.00000 0.00000
  263 0.00000 0.00000 0.00000
  264 0.00000 0.00000 0.00000
  265 0.00000 0.00000 0.00000
  266 0.00000 0.00000 0.00000
  267 0.00000 0.00000 0.00000
  268 0.00000 0.00000 0.00000
  269 0.00000 0.00000 0.00000
  270 0.00000 0.00000 0.00000
  271 0.00000 0.00000 0.00000
  272 0.00000 0.00000 0.00000
  273 0.00000 0.00000 0.00000
  274 0.00000 0.00000 0.00000
  275 0.00000 0.00000 0.00000
  276 0.00000 0.00000 0.00000
  277 0.00000 0.00000 0.00000
  278 0.00000 0.00000 0.00000
  279 0.00000 0.00000 0.00000
  280 0.00000 0.00000 0.00000
  281 0.00000 0.00000 0.00000
  282 0.00000 0.00000 0.00000
  283 0.00000 0.00000 0.00000
  284 0.00000 0.00000 0.00000
  285 0.00000 0.00000 0.00000
  286 0.00000 0.00000 0.00000
  287 0.00000 0.00000 0.00000
  288 0.00000 0.00000 0.00000
  289 0.00000 0.00000 0.00000
  290 0.00000 0.00000 0.00000
  291 0.00000 0.00000 0.00000
  292 0.00000 0.00000 0.00000
  293 0.00000 0.00000 0.00000
  294 0.00000 0.00000 0.00000
  295 0.00000 0.00000 0.00000
  296 0.00000 0.00000 0.00000
  297 0.00000 0.00000 0.00000
  298 0.00000 0.00000 0.00000
  299 0.00000 0.00000 0.00000
  300 0.00000 0.00000 0.00000
  301 0.00000 0.00000 0.00000
  302 0.00000 0.00000 0.00000
  303 0.00000 0.00000 0.00000
  304 0.00000 0.00000 0.00000
  305 0.00000 0.00000 0.00000
  306 0.00000 0.00000 0.00000
  307 0.00000 0.00000 0.00000
  308 0.00000 0.00000 0.00000
  309 0.00000 0.00000 0.00000
  310 0.00000 0.00000 0.00000
  311 0.00000 0.00000 0.00000
  312 0.00000 0.00000 0.00000
  313 0.00000 0.00000 0.00000
  314 0.00000 0.00000 0.00000
  315 0.00000 0.00000 0.00000
  316 0.00000 0.00000 0.00000
  317 0.00000 0.00000 0.00000
  318 0.00000 0.00000 0.00000
  319 0.00000 0.00000 0.00000
  320 0.00000 0.00000 0.00000
  321 0.00000 0.00000 0.00000
  322 0.00000 0.00000 0.00000
  323 0.00000 0.00000 0.00000
  324 0.00000 0.00000 0.00000
  325 0.00000 0.00000 0.00000
  326 0.00000 0.00000 0.00000
  327 0.00000 0.00000 0.00000
  328 0.00000 0.00000 0.00000
  329 0.00000 0.00000 0.00000
  330 0.00000 0.00000 0.00000
  331 0.00000 0.00000 0.00000
  332 0.00000 0.00000 0.00000
  333 0.00000 0.00000 0.00000
  334 0.00000 0.00000 0.00000
  335 0.00000 0.00000 0.00000
  336 0.00000 0.00000 0.00000
  337 0.00000 0.00000 0.00000
  338 0.00000 0.00000 0.00000
  339 0.00000 0.00000 0.00000
  340 0.00000 0.00000 0.00000
  341 0.00000 0.00000 0.00000
  342 0.00000 0.00000 0.00000
  343 0.00000 0.00000 0.00000
  344 0.00000 0.00000 0.00000
  345 0.00000 0.00000 0.00000
  346 0.00000 0.00000 0.00000
  347 0.00000 0.00000 0.00000
  348 0.00000 0.00000 0.00000
  349 0.00000 0.00000 0.00000
  350 0.00000 0.00000 0.00000
  351 0.00000 0.00000 0.00000
  352 0.00000 0.00000 0.00000
  353 0.00000 0.00000 0.00000
  354 0.00000 0.00000 0.00000
  355 0.00000 0.00000 0.00000
  356 0.00000 0.00000 0.00000
  357 0.00000 0.00000 0.00000
  358 0.00000 0.00000 0.00000
  359 0.00000 0.00000 0.00000
  360 0.00000 0.00000 0.00000
  361 0.00000 0.00000 0.00000
  362 0.00000 0.00000 0.00000
  363 0.00000 0.00000 0.00000
  364 0.00000 0.00000 0.00000
  365 0.00000 0.00000 0.00000
  366 0.00000 0.00000 0.00000
  367 0.00000 0.00000 0.00000
  368 0.00000 0.00000 0.00000
  369 0.00000 0.00000 0.00000
  370 0.00000 0.00000 0.00000
  371 0.00000 0.00000 0.00000
  372 0.00000 0.00000 0.00000
  373 0.00000 0.00000 0.00000
  374 0.00000 0.00000 0.00000
  375 0.00000 0.00000 0.00000
  376 0.00000 0.00000 0.00000
  377 0.00000 0.00000 0.00000
  378 0.00000 0.00000 0.00000
  379 0.00000 0.00000 0.00000
  380 0.00000 0.00000 0.00000
  381 0.00000 0.00000 0.00000
  382 0.00000 0.00000 0.00000
  383 0.00000 0.00000 0.00000
  384 0.00000 0.00000 0.00000
  385 0.00000 0.00000 0.00000
  386 0.00000 0.00000 0.00000
  387 0.00000 0.00000 0.00000
  388 0.00000 0.00000 0.00000
  389 0.00000 0.00000 0.00000
  390 0.00000 0.00000 0.00000
  391 0.00000 0.00000 0.00000
  392 0.00000 0.00000 0.00000
  393 0.00000 0.00000 0.00000
  394 0.00000 0.00000 0.00000
  395 0.00000 0.00000 0.00000
  396 0.00000 0.00000 0.00000
  397 0.00000 0.00000 0.00000
  398 0.00000 0.00000 0.00000
  399 0.00000 0.00000 0.00000
  400 0.00000 0.00000 0.00000
  401 0.00000 0.00000 0.00000
  402 0.00000 0.00000 0.00000
  403 0.00000 0.00000 0.00000
  404 0.00000 0.00000 0.00000
  405 0.00000 0.00000 0.00000
  406 0.00000 0.00000 0.00000
  407 0.00000 0.00000 0.00000
  408 0.00000 0.00000 0.00000
  409 0.00000 0.00000 0.00000
  410 0.00000 0.00000 0.00000
  411 0.00000 0.00000 0.00000
  412 0.00000 0.00000 0.00000
  413 0.00000 0.00000 0.00000
  414 0.00000 0.00000 0.00000
  415 0.00000 0.00000 0.00000
  416 0.00000 0.00000 0.00000
  417 0.00000 0.00000 0.00000
  418 0.00000 0.00000 0.00000
  419 0.00000 0.00000 0.00000
  420 0.00000 0.00000 0.00000
  421 0.00000 0.00000 0.00000
  422 0.00000 0.00000 0.00000
  423 0.00000 0.00000 0.00000
  424 0.00000 0.00000 0.00000
  425 0.00000 0.00000 0.00000
  426 0.00000 0.00000 0.00000
  427 0.00000 0.00000 0.00000
  428 0.00000 0.00000 0.00000
  429 0.00000 0.00000 0.00000
  430 0.00000 0.00000 0.00000
  431 0.00000 0.00000 0.00000
  432 0.00000 0.00000 0.00000
  433 0.00000 0.00000 0.00000
  434 0.00000 0.00000 0.00000
  435 0.00000 0.00000 0.00000
  436 0.00000 0.00000 0.00000
  437 0.00000 0.00000 0.00000
  438 0.00000 0.00000 0.00000
  439 0.00000 0.00000 0.00000
  440 0.00000 0.00000 0.00000
  441 0.00000 0.00000 0.00000
  442 0.00000 0.00000 0.00000
  443 0.00000 0.00000 0.00000
  444 0.00000 0.00000 0.00000
  445 0.00000 0.00000 0.00000
  446 0.00000 0.00000 0.00000
  447 0.00000 0.00000 0.00000
  448 0.00000 0.00000 0.00000
  449 0.00000 0.00000 0.00000
  450 0.00000 0.00000 0.00000
  451 0.00000 0.00000 0.00000
  452 0.00000 0.00000 0.00000
  453 0.00000 0.00000 0.00000
  454 0.00000 0.00000 0.00000
  455 0.00000 0.00000 0.00000
  456 0.00000 0.00000 0.00000
  457 0.00000 0.00000 0.00000
  458 0.00000 0.00000 0.00000
  459 0.00000 0.00000 0.00000
  460 0.00000 0.00000 0.00000
  461 0.00000 0.00000 0.00000
  462 0.00000 0.00000 0.00000
  463 0.00000 0.00000 0.00000
  464 0.00000 0.00000 0.00000
  465 0.00000 0.00000 0.00000
  466 0.00000 0.00000 0.00000
  467 0.00000 0.00000 0.00000
  468 0.00000 0.00000 0.00000
  469 0.00000 0.00000 0.00000
  470 0.00000 0.00000 0.00000
  471 0.00000 0.00000 0.00000
  472 0.00000 0.00000 0.00000
  473 0.00000 0.00000 0.00000
  474 0.00000 0.00000 0.00000
  475 0.00000 0.00000 0.00000
  476 0.00000 0.00000 0.00000
  477 0.00000 0.00000 0.00000
  478 0.00000 0.00000 0.00000
  479 0.00000 0.00000 0.00000
  480 0.00000 0.00000 0.00000
  481 0.00000 0.00000 0.00000
  482 0.00000 0.00000 0.00000
  483 0.00000 0.00000 0.00000
  484 0.00000 0.00000 0.00000
  485 0.00000 0.00000 0.00000
  486 0.00000 0.00000 0.00000
  487 0.00000 0.00000 0.00000
  488 0.00000 0.00000 0.00000
  489 0.00000 0.00000 0.00000
  490 0.00000 0.00000 0.00000
  491 0.00000 0.00000 0.00000
  492 0.00000 0.00000 0.00000
  493 0.00000 0.00000 0.00000
  494 0.00000 0.00000 0.00000
  495 0.00000 0.00000 0.00000
  496 0.00000 0.00000 0.00000
  497 0.00000 0.00000 0.00000
  498 0.00000 0.00000 0.00000
  499 0.00000 0.00000 0.00000
  500 0.00000 0.00000 0.00000
  501 0.00000 0.00000 0.00000
  502 0.00000 0.00000 0.00000
  503 0.00000 0.00000 0.00000
  504 0.00000 0.00000 0.00000
  505 0.00000 0.00000 0.00000
  506 0.00000 0.00000 0.00000
  507 0.00000 0.00000 0.00000
  508 0.00000 0.00000 0.00000
  509 0.00000 0.00000 0.00000
  510 0.00000 0.00000 0.00000
  511 0.00000 0.00000 0.00000
  512 0.00000 0.00000 0.00000
  513 0.00000 0.00000 0.00000
  514 0.00000 0.00000 0.00000
  515 0.00000 0.00000 0.00000
  516 0.00000 0.00000 0.00000
  517 0.00000 0.00000 0.00000
  518 0.00000 0.00000 0.00000
  519 0.00000 0.00000 0.00000
  520 0.00000 0.00000 0.00000
  521 0.00000 0.00000 0.00000
  522 0.00000 0.00000 0.00000
  523 0.00000 0.00000 0.00000
  524 0.00000 0.00000 0.00000
  525 0.00000 0.00000 0.00000
  526 0.00000 0.00000 0.00000
  527 0.00000 0.00000 0.00000
  528 0.00000 0.00000 0.00000
  529 0.00000 0.00000 0.00000
  530 0.00000 0.00000 0.00000
  531 0.00000 0.00000 0.00000
  532 0.00000 0.00000 0.00000
  533 0.00000 0.00000 0.00000
  534 0.00000 0.00000 0.00000
  535 0.00000 0.00000 0.00000
  536 0.00000 0.00000 0.00000
  537 0.00000 0.00000 0.00000
  538 0.00000 0.00000 0.00000
  539 0.00000 0.00000 0.00000
  540 0.00000 0.00000 0.00000
  541 0.00000 0.00000 0.00000
  542 0.00000 0.00000 0.00000
  543 0.00000 0.00000 0.00000
  544 0.00000 0.00000 0.00000
  545 0.00000 0.00000 0.00000
  546 0.00000 0.00000 0.00000
  547 0.00000 0.00000 0.00000
  548 0.00000 0.00000 0.00000
  549 0.00000 0.00000 0.00000
  550 0.00000 0.00000 0.00000
  551 0.00000 0.00000 0.00000
  552 0.00000 0.00000 0.00000
  553 0.00000 0.00000 0.00000
  554 0.00000 0.00000 0.00000
  555 0.00000 0.00000 0.00000
  556 0.00000 0.00000 0.00000
  557 0.00000 0.00000 0.00000
  558 0.00000 0.00000 0.00000
  559 0.00000 0.00000 0.00000
  560 0.00000 0.00000 0.00000
  561 0.00000 0.00000 0.00000
  562 0.00000 0.00000 0.00000
  563 0.00000 0.00000 0.00000
  564 0.00000 0.00000 0.00000
  565 0.00000 0.00000 0.00000
  566 0.00000 0.00000 0.00000
  567 0.00000 0.00000 0.00000
  568 0.00000 0.00000 0.00000
  569 0.00000 0.00000 0.00000
  570 0.00000 0.00000 0.00000
  571 0.00000 0.00000 0.00000
  572 0.00000 0.00000 0.00000
  573 0.00000 0.00000 0.00000
  574 0.00000 0.00000 0.00000
  575 0.00000 0.00000 0.00000
  576 0.00000 0.00000 0.00000
  577 0.00000 0.00000 0.00000
  578 0.00000 0.00000 0.00000
  579 0.00000 0.00000 0.00000
  580 0.00000 0.00000 0.00000
  581 0.00000 0.00000 0.00000
  582 0.00000 0.00000 0.00000
  583 0.00000 0.00000 0.00000
  584 0.00000 0.00000 0.00000
  585 0.00000 0.00000 0.00000
  586 0.00000 0.00000 0.00000
  587 0.00000 0.00000 0.00000
  588 0.00000 0.00000 0.00000
  589 0.00000 0.00000 0.00000
  590 0.00000 0.00000 0.00000
  591 0.00000 0.00000 0.00000
  592 0.00000 0.00000 0.00000
  593 0.00000 0.00000 0.00000
  594 0.00000 0.00000 0.00000
  595 0.00000 0.00000 0.00000
  596 0.00000 0.00000 0.00000
  597 0.00000 0.00000 0.00000
  598 0.00000 0.00000 0.00000
  599 0.00000 0.00000 0.00000
  600 0.00000 0.00000 0.00000
  601 0.00000 0.00000 0.00000
  602 0.00000 0.00000 0.00000
  603 0.00000 0.00000 0.00000
  604 0.00000 0.00000 0.00000
  605 0.00000 0.00000 0.00000
  606 0.00000 0.00000 0.00000
  607 0.00000 0.00000 0.00000
  608 0.00000 0.00000 0.00000
  609 0.00000 0.00000 0.00000
  610 0.00000 0.00000 0.00000
  611 0.00000 0.00000 0.00000
  612 0.00000 0.00000 0.00000
  613 0.00000 0.00000 0.00000
  614 0.00000 0.00000 0.00000
  615 0.00000 0.00000 0.00000
  616 0.00000 0.00000 0.00000
  617 0.00000 0.00000 0.00000
  618 0.00000 0.00000 0.00000
  619 0.00000 0.00000 0.00000
  620 0.00000 0.00000 0.00000
  621 0.00000 0.00000 0.00000
  622 0.00000 0.00000 0.00000
  623 0.00000 0.00000 0.00000
  624 0.00000 0.00000 0.00000
  625 0.00000 0.00000 0.00000
  626 0.00000 0.00000 0.00000
  627 0.00000 0.00000 0.00000
  628 0.00000 0.00000 0.00000
  629 0.00000 0.00000 0.00000
  630 0.00000 0.00000 0.00000
  631 0.00000 0.00000 0.00000
  632 0.00000 0.00000 0.00000
  633 0.00000 0.00000 0.00000
  634 0.00000 0.00000 0.00000
  635 0.00000 0.00000 0.00000
  636 0.00000 0.00000 0.00000
  637 0.00000 0.00000 0.00000
  638 0.00000 0.00000 0.00000
  639 0.00000 0.00000 0.00000
  640 0.00000 0.00000 0.00000
  641 0.00000 0.00000 0.00000
  642 0.00000 0.00000 0.00000
  643 0.00000 0.00000 0.00000
  644 0.00000 0.00000 0.00000
  645 0.00000 0.00000 0.00000
  646 0.00000 0.00000 0.00000
  647 0.00000 0.00000 0.00000
  648 0.00000 0.00000 0.00000
  649 0.00000 0.00000 0.00000
  650 0.00000 0.00000 0.00000
  651 0.00000 0.00000 0.00000
  652 0.00000 0.00000 0.00000
  653 0.00000 0.00000 0.00000
  654 0.00000 0.00000 0.00000
  655 0.00000 0.00000 0.00000
  656 0.00000 0.00000 0.00000
  657 0.00000 0.00000 0.00000
  658 0.00000 0.00000 0.00000
  659 0.00000 0.00000 0.00000
  660 0.00000 0.00000 0.00000
  661 0.00000 0.00000 0.00000
  662 0.00000 0.00000 0.00000
  663 0.00000 0.00000 0.00000
  664 0.00000 0.00000 0.00000
  665 0.00000 0.00000 0.00000
  666 0.00000 0.00000 0.00000
  667 0.00000 0.00000 0.00000
  668 0.00000 0.00000 0.00000
  669 0.00000 0.00000 0.00000
  670 0.00000 0.00000 0.00000
  671 0.00000 0.00000 0.00000
  672 0.00000 0.00000 0.00000
  673 0.00000 0.00000 0.00000
  674 0.00000 0.00000 0.00000
  675 0.00000 0.00000 0.00000
  676 0.00000 0.00000 0.00000
  677 0.00000 0.00000 0.00000
  678 0.00000 0.00000 0.00000
  679 0.00000 0.00000 0.00000
  680 0.00000 0.00000 0.00000
  681 0.00000 0.00000 0.00000
  682 0.00000 0.00000 0.00000
  683 0.00000 0.00000 0.00000
  684 0.00000 0.00000 0.00000
  685 0.00000 0.00000 0.00000
  686 0.00000 0.00000 0.00000
  687 0.00000 0.00000 0.00000
  688 0.00000 0.00000 0.00000
  689 0.00000 0.00000 0.00000
  690 0.00000 0.00000 0.00000
  691 0.00000 0.00000 0.00000
  692 0.00000 0.00000 0.00000
  693 0.00000 0.00000 0.00000
  694 0.00000 0.00000 0.00000
  695 0.00000 0.00000 0.00000
  696 0.00000 0.00000 0.00000
  697 0.00000 0.00000 0.00000
  698 0.00000 0.00000 0.00000
  699 0.00000 0.00000 0.00000
  700 0.00000 0.00000 0.00000
  701 0.00000 0.00000 0.00000
  702 0.00000 0.00000 0.00000
  703 0.00000 0.00000 0.00000
  704 0.00000 0.00000 0.00000
  705 0.00000 0.00000 0.00000
  706 0.00000 0.00000 0.00000
  707 0.00000 0.00000 0.00000
  708 0.00000 0.00000 0.00000
  709 0.00000 0.00000 0.00000
  710 0.00000 0.00000 0.00000
  711 0.00000 0.00000 0.00000
  712 0.00000 0.00000 0.00000
  713 0.00000 0.00000 0.00000
  714 0.00000 0.00000 0.00000
  715 0.00000 0.00000 0.00000
  716 0.00000 0.00000 0.00000
  717 0.00000 0.00000 0.00000
  718 0.00000 0.00000 0.00000
  719 0.00000 0.00000 0.00000
  720 0.00000 0.00000 0.00000
  721 0.00000 0.00000 0.00000
  722 0.00000 0.00000 0.00000
  723 0.00000 0.00000 0.00000
  724 0.00000 0.00000 0.00000
  725 0.00000 0.00000 0.00000
  726 0.00000 0.00000 0.00000
  727 0.00000 0.00000 0.00000
  728 0.00000 0.00000 0.00000
  729 0.00000 0.00000 0.00000
  730 0.00000 0.00000 0.00000
  731 0.00000 0.00000 0.00000
  732 0.00000 0.00000 0.00000
  733 0.00000 0.00000 0.00000
  734 0.00000 0.00000 0.00000
  735 0.00000 0.00000 0.00000
  736 0.00000 0.00000 0.00000
  737 0.00000 0.00000 0.00000
  738 0.00000 0.00000 0.00000
  739 0.00000 0.00000 0.00000
  740 0.00000 0.00000 0.00000
  741 0.00000 0.00000 0.00000
  742 0.00000 0.00000 0.00000
  743 0.00000 0.00000 0.00000
  744 0.00000 0.00000 0.00000
  745 0.00000 0.00000 0.00000
  746 0.00000 0.00000 0.00000
  747 0.00000 0.00000 0.00000
  748 0.00000 0.00000 0.00000
  749 0.00000 0.00000 0.00000
  750 0.00000 0.00000 0.00000
  751 0.00000 0.00000 0.00000
  752 0.00000 0.00000 0.00000
  753 0.00000 0.00000 0.00000
  754 0.00000 0.00000 0.00000
  755 0.00000 0.00000 0.00000
  756 0.00000 0.00000 0.00000
  757 0.00000 0.00000 0.00000
  758 0.00000 0.00000 0.00000
  759 0.00000 0.00000 0.00000
  760 0.00000 0.00000 0.00000
  761 0.00000 0.00000 0.00000
  762 0.00000 0.00000 0.00000
  763 0.00000 0.00000 0.00000
  764 0.00000 0.00000 0.00000
  765 0.00000 0.00000 0.00000
  766 0.00000 0.00000 0.00000
  767 0.00000 0.00000 0.00000
  768 0.00000 0.00000 0.00000
  769 0.00000 0.00000 0.00000
  770 0.00000 0.00000 0.00000
  771 0.00000 0.00000 0.00000
  772 0.00000 0.00000 0.00000
  773 0.00000 0.00000 0.00000
  774 0.00000 0.00000 0.00000
  775 0.00000 0.00000 0.00000
  776 0.00000 0.00000 0.00000
  777 0.00000 0.00000 0.00000
  778 0.00000 0.00000 0.00000
  779 0.00000 0.00000 0.00000
  780 0.00000 0.00000 0.00000
  781 0.00000 0.00000 0.00000
  782 0.00000 0.00000 0.00000
  783 0.00000 0.00000 0.00000
  784 0.00000 0.00000 0.00000
  785 0.00000 0.00000 0.00000
  786 0.00000 0.00000 0.00000
  787 0.00000 0.00000 0.00000
  788 0.00000 0.00000 0.00000
  789 0.00000 0.00000 0.00000
  790 0.00000 0.00000 0.00000
  791 0.00000 0.00000 0.00000
  792 0.00000 0.00000 0.00000
  793 0.00000 0.00000 0.00000
  794 0.00000 0.00000 0.00000
  795 0.00000 0.00000 0.00000
  796 0.00000 0.00000 0.00000
  797 0.00000 0.00000 0.00000
  798 0.00000 0.00000 0.00000
  799 0.00000 0.00000 0.00000
  800 0.00000 0.00000 0.00000
  801 0.00000 0.00000 0.00000
  802 0.00000 0.00000 0.00000
  803 0.00000 0.00000 0.00000
  804 0.00000 0.00000 0.00000
  805 0.00000 0.00000 0.00000
  806 0.00000 0.00000 0.00000
  807 0.00000 0.00000 0.00000
  808 0.00000 0.00000 0.00000
  809 0.00000 0.00000 0.00000
  810 0.00000 0.00000 0.00000
  811 0.00000 0.00000 0.00000
  812 0.00000 0.00000 0.00000
  813 0.00000 0.00000 0.00000
  814 0.00000 0.00000 0.00000
  815 0.00000 0.00000 0.00000
  816 0.00000 0.00000 0.00000
  817 0.00000 0.00000 0.00000
  818 0.00000 0.00000 0.00000
  819 0.00000 0.00000 0.00000
  820 0.00000 0.00000 0.00000
  821 0.00000 0.00000 0.00000
  822 0.00000 0.00000 0.00000
  823 0.00000 0.00000 0.00000
  824 0.00000 0.00000 0.00000
  825 0.00000 0.00000 0.00000
  826 0.00000 0.00000 0.00000
  827 0.00000 0.00000 0.00000
  828 0.00000 0.00000 0.00000
  829 0.00000 0.00000 0.00000
  830 0.00000 0.00000 0.00000
  831 0.00000 0.00000 0.00000
  832 0.00000 0.00000 0.00000
  833 0.00000 0.00000 0.00000
  834 0.00000 0.00000 0.00000
  835 0.00000 0.00000 0.00000
  836 0.00000 0.00000 0.00000
  837 0.00000 0.00000 0.00000
  838 0.00000 0.00000 0.00000
  839 0.00000 0.00000 0.00000
  840 0.00000 0.00000 0.00000
  841 0.00000 0.00000 0.00000
  842 0.00000 0.00000 0.00000
  843 0.00000 0.00000 0.00000
  844 0.00000 0.00000 0.00000
  845 0.00000 0.00000 0.00000
  846 0.00000 0.00000 0.00000
  847 0.00000 0.00000 0.00000
  848 0.00000 0.00000 0.00000
  849 0.00000 0.00000 0.00000
  850 0.00000 0.00000 0.00000
  851 0.00000 0.00000 0.00000
  852 0.00000 0.00000 0.00000
  853 0.00000 0.00000 0.00000
  854 0.00000 0.00000 0.00000
  855 0.00000 0.00000 0.00000
  856 0.00000 0.00000 0.00000
  857 0.00000 0.00000 0.00000
  858 0.00000 0.00000 0.00000
  859 0.00000 0.00000 0.00000
  860 0.00000 0.00000 0.00000
  861 0.00000 0.00000 0.00000
  862 0.00000 0.00000 0.00000
  863 0.00000 0.00000 0.00000
  864 0.00000 0.00000 0.00000
  865 0.00000 0.00000 0.00000
  866 0.00000 0.00000 0.00000
  867 0.00000 0.00000 0.00000
  868 0.00000 0.00000 0.00000
  869 0.00000 0.00000 0.00000
  870 0.00000 0.00000 0.00000
  871 0.00000 0.00000 0.00000
  872 0.00000 0.00000 0.00000
  873 0.00000 0.00000 0.00000
  874 0.00000 0.00000 0.00000
  875 0.00000 0.00000 0.00000
  876 0.00000 0.00000 0.00000
  877 0.00000 0.00000 0.00000
  878 0.00000 0.00000 0.00000
  879 0.00000 0.00000 0.00000
  880 0.00000 0.00000 0.00000
  881 0.00000 0.00000 0.00000
  882 0.00000 0.00000 0.00000
  883 0.00000 0.00000 0.00000
  884 0.00000 0.00000 0.00000
  885 0.00000 0.00000 0.00000
  886 0.00000 0.00000 0.00000
  887 0.00000 0.00000 0.00000
  888 0.00000 0.00000 0.00000
  889 0.00000 0.00000 0.00000
  890 0.00000 0.00000 0.00000
  891 0.00000 0.00000 0.00000
  892 0.00000 0.00000 0.00000
  893 0.00000 0.00000 0.00000
  894 0.00000 0.00000 0.00000
  895 0.00000 0.00000 0.00000
  896 0.00000 0.00000 0.00000
  897 0.00000 0.00000 0.00000
  898 0.00000 0.00000 0.00000
  899 0.00000 0.00000 0.00000
  900 0.00000 0.00000 0.00000
  901 0.00000 0.00000 0.00000
  902 0.00000 0.00000 0.00000
  903 0.00000 0.00000 0.00000
  904 0.00000 0.00000 0.00000
  905 0.00000 0.00000 0.00000
  906 0.00000 0.00000 0.00000
  907 0.00000 0.00000 0.00000
  908 0.00000 0.00000 0.00000
  909 0.00000 0.00000 0.00000
  910 0.00000 0.00000 0.00000
  911 0.00000 0.00000 0.00000
  912 0.00000 0.00000 0.00000
  913 0.00000 0.00000 0.00000
  914 0.00000 0.00000 0.00000
  915 0.00000 0.00000 0.00000
  916 0.00000 0.00000 0.00000
  917 0.00000 0.00000 0.00000
  918 0.00000 0.00000 0.00000
  919 0.00000 0.00000 0.00000
  920 0.00000 0.00000 0.00000
  921 0.00000 0.00000 0.00000
  922 0.00000 0.00000 0.00000
  923 0.00000 0.00000 0.00000
  924 0.00000 0.00000 0.00000
  925 0.00000 0.00000 0.00000
  926 0.00000 0.00000 0.00000
  927 0.00000 0.00000 0.00000
  928 0.00000 0.00000 0.00000
  929 0.00000 0.00000 0.00000
  930 0.00000 0.00000 0.00000
  931 0.00000 0.00000 0.00000
  932 0.00000 0.00000 0.00000
  933 0.00000 0.00000 0.00000
  934 0.00000 0.00000 0.00000
  935 0.00000 0.00000 0.00000
  936 0.00000 0.00000 0.00000
  937 0.00000 0.00000 0.00000
  938 0.00000 0.00000 0.00000
  939 0.00000 0.00000 0.00000
  940 0.00000 0.00000 0.00000
  941 0.00000 0.00000 0.00000
  942 0.00000 0.00000 0.00000
  943 0.00000 0.00000 0.00000
  944 0.00000 0.00000 0.00000
  945 0.00000 0.00000 0.00000
  946 0.00000 0.00000 0.00000
  947 0.00000 0.00000 0.00000
  948 0.00000 0.00000 0.00000
  949 0.00000 0.00000 0.00000
  950 0.00000 0.00000 0.00000
  951 0.00000 0.00000 0.00000
  952 0.00000 0.00000 0.00000
  953 0.00000 0.00000 0.00000
  954 0.00000 0.00000 0.00000
  955 0.00000 0.00000 0.00000
  956 0.00000 0.00000 0.00000
  957 0.00000 0.00000 0.00000
  958 0.00000 0.00000 0.00000
  959 0.00000 0.00000 0.00000
  960 0.00000 0.00000 0.00000
  961 0.00000 0.00000 0.00000
  962 0.00000 0.00000 0.00000
  963 0.00000 0.00000 0.00000
  964 0.00000 0.00000 0.00000
  965 0.00000 0.00000 0.00000
  966 0.00000 0.00000 0.00000
  967 0.00000 0.00000 0.00000
  968 0.00000 0.00000 0.00000
  969 0.00000 0.00000 0.00000
  970 0.00000 0.00000 0.00000
  971 0.00000 0.00000 0.00000
  972 0.00000 0.00000 0.00000
  973 0.00000 0.00000 0.00000
  974 0.00000 0.00000 0.00000
  975 0.00000 0.00000 0.00000
  976 0.00000 0.00000 0.00000
  977 0.00000 0.00000 0.00000
  978 0.00000 0.00000 0.00000
  979 0.00000 0.00000 0.00000
  980 0.00000 0.00000 0.00000
  981 0.00000 0.00000 0.00000
  982 0.00000 0.00000 0.00000
  983 0.00000 0.00000 0.00000
  984 0.00000 0.00000 0.00000
  985 0.00000 0.00000 0.00000
  986 0.00000 0.00000 0.00000
  987 0.00000 0.00000 0.00000
  988 0.00000 0.00000 0.00000
  989 0.00000 0.00000 0.00000
  990 0.00000 0.00000 0.00000
  991 0.00000 0.00000 0.00000
  992 0.00000 0.00000 0.00000
  993 0.00000 0.00000 0.00000
  994 0.00000 0.00000 0.00000
  995 0.00000 0.00000 0.00000
  996 0.00000 0.00000 0.00000
  997 0.00000 0.00000 0.00000
  998 0.00000 0.00000 0.00000
  999 0.00000 0.00000 0.00000
  1000 0.00000 0.00000 0.00000
  1001 0.00000 0.00000 0.00000
  1002 0.00000 0.00000 0.00000
  1003 0.00000 0.00000 0.00000
  1004 0.00000 0.00000 0.00000
  1005 0.00000 0.00000 0.00000
  1006 0.00000 0.00000 0.00000
  1007 0.00000 0.00000 0.00000
  1008 0.00000 0.00000 0.00000
  1009 0.00000 0.00000 0.00000
  1010 0.00000 0.00000 0.00000
  1011 0.00000 0.00000 0.00000
  1012 0.00000 0.00000 0.00000
  1013 0.00000 0.00000 0.00000
  1014 0.00000 0.00000 0.00000
  1015 0.00000 0.00000 0.00000
  1016 0.00000 0.00000 0.00000
  1017 0.00000 0.00000 0.00000
  1018 0.00000 0.00000 0.00000
  1019 0.00000 0.00000 0.00000
  1020 0.00000 0.00000 0.00000
  1021 0.00000 0.00000 0.00000
  1022 0.00000 0.00000 0.00000
  1023 0.00000 0.00000 0.00000
  1024 0.00000 0.00000 0.00000
  1025 0.00000 0.00000 0.00000
  1026 0.00000 0.00000 0.00000
  1027 0.00000 0.00000 0.00000
  1028 0.00000 0.00000 0.00000
  1029 0.00000 0.00000 0.00000
  1030 0.00000 0.00000 0.00000
  1031 0.00000 0.00000 0.00000
  1032 0.00000 0.00000 0.00000
  1033 0.00000 0.00000 0.00000
  1034 0.00000 0.00000 0.00000
  1035 0.00000 0.00000 0.00000
  1036 0.00000 0.00000 0.00000
  1037 0.00000 0.00000 0.00000
  1038 0.00000 0.00000 0.00000
  1039 0.00000 0.00000 0.00000
  1040 0.00000 0.00000 0.00000
  1041 0.00000 0.00000 0.00000
  1042 0.00000 0.00000 0.00000
  1043 0.00000 0.00000 0.00000
  1044 0.00000 0.00000 0.00000
  1045 0.00000 0.00000 0.00000
  1046 0.00000 0.00000 0.00000
  1047 0.00000 0.00000 0.00000
  1048 0.00000 0.00000 0.00000
  1049 0.00000 0.00000 0.00000
  1050 0.00000 0.00000 0.00000
  1051 0.00000 0.00000 0.00000
  1052 0.00000 0.00000 0.00000
  1053 0.00000 0.00000 0.00000
  1054 0.00000 0.00000 0.00000
  1055 0.00000 0.00000 0.00000
  1056 0.00000 0.00000 0.00000
  1057 0.00000 0.00000 0.00000
  1058 0.00000 0.00000 0.00000
  1059 0.00000 0.00000 0.00000
  1060 0.00000 0.00000 0.00000
  1061 0.00000 0.00000 0.00000
  1062 0.00000 0.00000 0.00000
  1063 0.00000 0.00000 0.00000
  1064 0.00000 0.00000 0.00000
  1065 0.00000 0.00000 0.00000
  1066 0.00000 0.00000 0.00000
  1067 0.00000 0.00000 0.00000
  1068 0.00000 0.00000 0.00000
  1069 0.00000 0.00000 0.00000
  1070 0.00000 0.00000 0.00000
  1071 0.00000 0.00000 0.00000
  1072 0.00000 0.00000 0.00000
  1073 0.00000 0.00000 0.00000
  1074 0.00000 0.00000 0.00000
  1075 0.00000 0.00000 0.00000
  1076 0.00000 0.00000 0.00000
  1077 0.00000 0.00000 0.00000
  1078 0.00000 0.00000 0.00000
  1079 0.00000 0.00000 0.00000
  1080 0.00000 0.00000 0.00000
  1081 0.00000 0.00000 0.00000
  1082 0.00000 0.00000 0.00000
  1083 0.00000 0.00000 0.00000
  1084 0.00000 0.00000 0.00000
  1085 0.00000 0.00000 0.00000
  1086 0.00000 0.00000 0.00000
  1087 0.00000 0.00000 0.00000
  1088 0.00000 0.00000 0.00000
  1089 0.00000 0.00000 0.00000
  1090 0.00000 0.00000 0.00000
  1091 0.00000 0.00000 0.00000
  1092 0.00000 0.00000 0.00000
  1093 0.00000 0.00000 0.00000
  1094 0.00000 0.00000 0.00000
  1095 0.00000 0.00000 0.00000
  1096 0.00000 0.00000 0.00000
  1097 0.00000 0.00000 0.00000
  1098 0.00000 0.00000 0.00000
  1099 0.00000 0.00000 0.00000
  1100 0.00000 0.00000 0.00000
  1101 0.00000 0.00000 0.00000
  1102 0.00000 0.00000 0.00000
  1103 0.00000 0.00000 0.00000
  1104 0.00000 0.00000 0.00000
  1105 0.00000 0.00000 0.00000
  1106 0.00000 0.00000 0.00000
  1107 0.00000 0.00000 0.00000
  1108 0.00000 0.00000 0.00000
  1109 0.00000 0.00000 0.00000
  1110 0.00000 0.00000 0.00000
  1111 0.00000 0.00000 0.00000
  1112 0.00000 0.00000 0.00000
  1113 0.00000 0.00000 0.00000
  1114 0.00000 0.00000 0.00000
  1115 0.00000 0.00000 0.00000
  1116 0.00000 0.00000 0.00000
  1117 0.00000 0.00000 0.00000
  1118 0.00000 0.00000 0.00000
  1119 0.00000 0.00000 0.00000
  1120 0.00000 0.00000 0.00000
  1121 0.00000 0.00000 0.00000
  1122 0.00000 0.00000 0.00000
  1123 0.00000 0.00000 0.00000
  1124 0.00000 0.00000 0.00000
  1125 0.00000 0.00000 0.00000
  1126 0.00000 0.00000 0.00000
  1127 0.00000 0.00000 0.00000
  1128 0.00000 0.00000 0.00000
  1129 0.00000 0.00000 0.00000
  1130 0.00000 0.00000 0.00000
  1131 0.00000 0.00000 0.00000
  1132 0.00000 0.00000 0.00000
  1133 0.00000 0.00000 0.00000
  1134 0.00000 0.00000 0.00000
  1135 0.00000 0.00000 0.00000
  1136 0.00000 0.00000 0.00000
  1137 0.00000 0.00000 0.00000
  1138 0.00000 0.00000 0.00000
  1139 0.00000 0.00000 0.00000
  1140 0.00000 0.00000 0.00000
  1141 0.00000 0.00000 0.00000
  1142 0.00000 0.00000 0.00000
  1143 0.00000 0.00000 0.00000
  1144 0.00000 0.00000 0.00000
  1145 0.00000 0.00000 0.00000
  1146 0.00000 0.00000 0.00000
  1147 0.00000 0.00000 0.00000
  1148 0.00000 0.00000 0.00000
  1149 0.00000 0.00000 0.00000
  1150 0.00000 0.00000 0.00000
  1151 0.00000 0.00000 0.00000
  1152 0.00000 0.00000 0.00000
  1153 0.00000 0.00000 0.00000
  1154 0.00000 0.00000 0.00000
  1155 0.00000 0.00000 0.00000
  1156 0.00000 0.00000 0.00000
  1157 0.00000 0.00000 0.00000
  1158 0.00000 0.00000 0.00000
  1159 0.00000 0.00000 0.00000
  1160 0.00000 0.00000 0.00000
  1161 0.00000 0.00000 0.00000
  1162 0.00000 0.00000 0.00000
  1163 0.00000 0.00000 0.00000
  1164 0.00000 0.00000 0.00000
  1165 0.00000 0.00000 0.00000
  1166 0.00000 0.00000 0.00000
  1167 0.00000 0.00000 0.00000
  1168 0.00000 0.00000 0.00000
  1169 0.00000 0.00000 0.00000
  1170 0.00000 0.00000 0.00000
  1171 0.00000 0.00000 0.00000
  1172 0.00000 0.00000 0.00000
  1173 0.00000 0.00000 0.00000
  1174 0.00000 0.00000 0.00000
  1175 0.00000 0.00000 0.00000
  1176 0.00000 0.00000 0.00000
  1177 0.00000 0.00000 0.00000
  1178 0.00000 0.00000 0.00000
  1179 0.00000 0.00000 0.00000
  1180 0.00000 0.00000 0.00000
  1181 0.00000 0.00000 0.00000
  1182 0.00000 0.00000 0.00000
  1183 0.00000 0.00000 0.00000
  1184 0.00000 0.00000 0.00000
  1185 0.00000 0.00000 0.00000
  1186 0.00000 0.00000 0.00000
  1187 0.00000 0.00000 0.00000
  1188 0.00000 0.00000 0.00000
  1189 0.00000 0.00000 0.00000
  1190 0.00000 0.00000 0.00000
  1191 0.00000 0.00000 0.00000
  1192 0.00000 0.00000 0.00000
  1193 0.00000 0.00000 0.00000
  1194 0.00000 0.00000 0.00000
  1195 0.00000 0.00000 0.00000
  1196 0.00000 0.00000 0.00000
  1197 0.00000 0.00000 0.00000
  1198 0.00000 0.00000 0.00000
  1199 0.00000 0.00000 0.00000
  1200 0.00000 0.00000 0.00000
  1201 0.00000 0.00000 0.00000
  1202 0.00000 0.00000 0.00000
  1203 0.00000 0.00000 0.00000
  1204 0.00000 0.00000 0.00000
  1205 0.00000 0.00000 0.00000
  1206 0.00000 0.00000 0.00000
  1207 0.00000 0.00000 0.00000
  1208 0.00000 0.00000 0.00000
  1209 0.00000 0.00000 0.00000
  1210 0.00000 0.00000 0.00000
  1211 0.00000 0.00000 0.00000
  1212 0.00000 0.00000 0.00000
  1213 0.00000 0.00000 0.00000
  1214 0.00000 0.00000 0.00000
  1215 0.00000 0.00000 0.00000
  1216 0.00000 0.00000 0.00000
  1217 0.00000 0.00000 0.00000
  1218 0.00000 0.00000 0.00000
  1219 0.00000 0.00000 0.00000
  1220 0.00000 0.00000 0.00000
  1221 0.00000 0.00000 0.00000
  1222 0.00000 0.00000 0.00000
  1223 0.00000 0.00000 0.00000
  1224 0.00000 0.00000 0.00000
  1225 0.00000 0.00000 0.00000
  1226 0.00000 0.00000 0.00000
  1227 0.00000 0.00000 0.00000
  1228 0.00000 0.00000 0.00000
  1229 0.00000 0.00000 0.00000
  1230 0.00000 0.00000 0.00000
  1231 0.00000 0.00000 0.00000
  1232 0.00000 0.00000 0.00000
  1233 0.00000 0.00000 0.00000
  1234 0.00000 0.00000 0.00000
  1235 0.00000 0.00000 0.00000
  1236 0.00000 0.00000 0.00000
  1237 0.00000 0.00000 0.00000
  1238 0.00000 0.00000 0.00000
  1239 0.00000 0.00000 0.00000
  1240 0.00000 0.00000 0.00000
  1241 0.00000 0.00000 0.00000
  1242 0.00000 0.00000 0.00000
  1243 0.00000 0.00000 0.00000
  1244 0.00000 0.00000 0.00000
  1245 0.00000 0.00000 0.00000
  1246 0.00000 0.00000 0.00000
  1247 0.00000 0.00000 0.00000
  1248 0.00000 0.00000 0.00000
  1249 0.00000 0.00000 0.00000
  1250 0.00000 0.00000 0.00000
  1251 0.00000 0.00000 0.00000
  1252 0.00000 0.00000 0.00000
  1253 0.00000 0.00000 0.00000
  1254 0.00000 0.00000 0.00000
  1255 0.00000 0.00000 0.00000
  1256 0.00000 0.00000 0.00000
  1257 0.00000 0.00000 0.00000
  1258 0.00000 0.00000 0.00000
  1259 0.00000 0.00000 0.00000
  1260 0.00000 0.00000 0.00000
  1261 0.00000 0.00000 0.00000
  1262 0.00000 0.00000 0.00000
  1263 0.00000 0.00000 0.00000
  1264 0.00000 0.00000 0.00000
  1265 0.00000 0.00000 0.00000
  1266 0.00000 0.00000 0.00000
  1267 0.00000 0.00000 0.00000
  1268 0.00000 0.00000 0.00000
  1269 0.00000 0.00000 0.00000
  1270 0.00000 0.00000 0.00000
  1271 0.00000 0.00000 0.00000
  1272 0.00000 0.00000 0.00000
  1273 0.00000 0.00000 0.00000
  1274 0.00000 0.00000 0.00000
  1275 0.00000 0.00000 0.00000
  1276 0.00000 0.00000 0.00000
  1277 0.00000 0.00000 0.00000
  1278 0.00000 0.00000 0.00000
  1279 0.00000 0.00000 0.00000
  1280 0.00000 0.00000 0.00000
  1281 0.00000 0.00000 0.00000
  1282 0.00000 0.00000 0.00000
  1283 0.00000 0.00000 0.00000
  1284 0.00000 0.00000 0.00000
  1285 0.00000 0.00000 0.00000
  1286 0.00000 0.00000 0.00000
  1287 0.00000 0.00000 0.00000
  1288 0.00000 0.00000 0.00000
  1289 0.00000 0.00000 0.00000
  1290 0.00000 0.00000 0.00000
  1291 0.00000 0.00000 0.00000
  1292 0.00000 0.00000 0.00000
  1293 0.00000 0.00000 0.00000
  1294 0.00000 0.00000 0.00000
  1295 0.00000 0.00000 0.00000
  1296 0.00000 0.00000 0.00000
  1297 0.00000 0.00000 0.00000
  1298 0.00000 0.00000 0.00000
  1299 0.00000 0.00000 0.00000
  1300 0.00000 0.00000 0.00000
  1301 0.00000 0.00000 0.00000
  1302 0.00000 0.00000 0.00000
  1303 0.00000 0.00000 0.00000
  1304 0.00000 0.00000 0.00000
  1305 0.00000 0.00000 0.00000
  1306 0.00000 0.00000 0.00000
  1307 0.00000 0.00000 0.00000
  1308 0.00000 0.00000 0.00000
  1309 0.00000 0.00000 0.00000
  1310 0.00000 0.00000 0.00000
  1311 0.00000 0.00000 0.00000
  1312 0.00000 0.00000 0.00000
  1313 0.00000 0.00000 0.00000
  1314 0.00000 0.00000 0.00000
  1315 0.00000 0.00000 0.00000
  1316 0.00000 0.00000 0.00000
  1317 0.00000 0.00000 0.00000
  1318 0.00000 0.00000 0.00000
  1319 0.00000 0.00000 0.00000
  1320 0.00000 0.00000 0.00000
  1321 0.00000 0.00000 0.00000
  1322 0.00000 0.00000 0.00000
  1323 0.00000 0.00000 0.00000
  1324 0.00000 0.00000 0.00000
  1325 0.00000 0.00000 0.00000
  1326 0.00000 0.00000 0.00000
  1327 0.00000 0.00000 0.00000
  1328 0.00000 0.00000 0.00000
  1329 0.00000 0.00000 0.00000
  1330 0.00000 0.00000 0.00000
  1331 0.00000 0.00000 0.00000
  1332 0.00000 0.00000 0.00000
  1333 0.00000 0.00000 0.00000
  1334 0.00000 0.00000 0.00000
  1335 0.00000 0.00000 0.00000
  1336 0.00000 0.00000 0.00000
  1337 0.00000 0.00000 0.00000
  1338 0.00000 0.00000 0.00000
  1339 0.00000 0.00000 0.00000
  1340 0.00000 0.00000 0.00000
  1341 0.00000 0.00000 0.00000
  1342 0.00000 0.00000 0.00000
  1343 0.00000 0.00000 0.00000
  1344 0.00000 0.00000 0.00000
  1345 0.00000 0.00000 0.00000
  1346 0.00000 0.00000 0.00000
  1347 0.00000 0.00000 0.00000
  1348 0.00000 0.00000 0.00000
  1349 0.00000 0.00000 0.00000
  1350 0.00000 0.00000 0.00000
  1351 0.00000 0.00000 0.00000
  1352 0.00000 0.00000 0.00000
  1353 0.00000 0.00000 0.00000
  1354 0.00000 0.00000 0.00000
  1355 0.00000 0.00000 0.00000
  1356 0.00000 0.00000 0.00000
  1357 0.00000 0.00000 0.00000
  1358 0.00000 0.00000 0.00000
  1359 0.00000 0.00000 0.00000
  1360 0.00000 0.00000 0.00000
  1361 0.00000 0.00000 0.00000
  1362 0.00000 0.00000 0.00000
  1363 0.00000 0.00000 0.00000
  1364 0.00000 0.00000 0.00000
  1365 0.00000 0.00000 0.00000
  1366 0.00000 0.00000 0.00000
  1367 0.00000 0.00000 0.00000
  1368 0.00000 0.00000 0.00000
  1369 0.00000 0.00000 0.00000
  1370 0.00000 0.00000 0.00000
  1371 0.00000 0.00000 0.00000
  1372 0.00000 0.00000 0.00000
  1373 0.00000 0.00000 0.00000
  1374 0.00000 0.00000 0.00000
  1375 0.00000 0.00000 0.00000
  1376 0.00000 0.00000 0.00000
  1377 0.00000 0.00000 0.00000
  1378 0.00000 0.00000 0.00000
  1379 0.00000 0.00000 0.00000
  1380 0.00000 0.00000 0.00000
  1381 0.00000 0.00000 0.00000
  1382 0.00000 0.00000 0.00000
  1383 0.00000 0.00000 0.00000
  1384 0.00000 0.00000 0.00000
  1385 0.00000 0.00000 0.00000
  1386 0.00000 0.00000 0.00000
  1387 0.00000 0.00000 0.00000
  1388 0.00000 0.00000 0.00000
  1389 0.00000 0.00000 0.00000
  1390 0.00000 0.00000 0.00000
  1391 0.00000 0.00000 0.00000
  1392 0.00000 0.00000 0.00000
  1393 0.00000 0.00000 0.00000
  1394 0.00000 0.00000 0.00000
  1395 0.00000 0.00000 0.00000
  1396 0.00000 0.00000 0.00000
  1397 0.00000 0.00000 0.00000
  1398 0.00000 0.00000 0.00000
  1399 0.00000 0.00000 0.00000
  1400 0.00000 0.00000 0.00000
  1401 0.00000 0.00000 0.00000
  1402 0.00000 0.00000 0.00000
  1403 0.00000 0.00000 0.00000
  1404 0.00000 0.00000 0.00000
  1405 0.00000 0.00000 0.00000
  1406 0.00000 0.00000 0.00000
  1407 0.00000 0.00000 0.00000
  1408 0.00000 0.00000 0.00000
  1409 0.00000 0.00000 0.00000
  1410 0.00000 0.00000 0.00000
  1411 0.00000 0.00000 0.00000
  1412 0.00000 0.00000 0.00000
  1413 0.00000 0.00000 0.00000
  1414 0.00000 0.00000 0.00000
  1415 0.00000 0.00000 0.00000
  1416 0.00000 0.00000 0.00000
  1417 0.00000 0.00000 0.00000
  1418 0.00000 0.00000 0.00000
  1419 0.00000 0.00000 0.00000
  1420 0.00000 0.00000 0.00000
  1421 0.00000 0.00000 0.00000
  1422 0.00000 0.00000 0.00000
  1423 0.00000 0.00000 0.00000
  1424 0.00000 0.00000 0.00000
  1425 0.00000 0.00000 0.00000
  1426 0.00000 0.00000 0.00000
  1427 0.00000 0.00000 0.00000
  1428 0.00000 0.00000 0.00000
  1429 0.00000 0.00000 0.00000
  1430 0.00000 0.00000 0.00000
  1431 0.00000 0.00000 0.00000
  1432 0.00000 0.00000 0.00000
  1433 0.00000 0.00000 0.00000
  1434 0.00000 0.00000 0.00000
  1435 0.00000 0.00000 0.00000
  1436 0.00000 0.00000 0.00000
  1437 0.00000 0.00000 0.00000
  1438 0.00000 0.00000 0.00000
  1439 0.00000 0.00000 0.00000
  1440 0.00000 0.00000 0.00000
  1441 0.00000 0.00000 0.00000
  1442 0.00000 0.00000 0.00000
  1443 0.00000 0.00000 0.00000
  1444 0.00000 0.00000 0.00000
  1445 0.00000 0.00000 0.00000
  1446 0.00000 0.00000 0.00000
  1447 0.00000 0.00000 0.00000
  1448 0.00000 0.00000 0.00000
  1449 0.00000 0.00000 0.00000
  1450 0.00000 0.00000 0.00000
  1451 0.00000 0.00000 0.00000
  1452 0.00000 0.00000 0.00000
  1453 0.00000 0.00000 0.00000
  1454 0.00000 0.00000 0.00000
  1455 0.00000 0.00000 0.00000
  1456 0.00000 0.00000 0.00000
  1457 0.00000 0.00000 0.00000
  1458 0.00000 0.00000 0.00000
  1459 0.00000 0.00000 0.00000
  1460 0.00000 0.00000 0.00000
  1461 0.00000 0.00000 0.00000
  1462 0.00000 0.00000 0.00000
  1463 0.00000 0.00000 0.00000
  1464 0.00000 0.00000 0.00000
  1465 0.00000 0.00000 0.00000
  1466 0.00000 0.00000 0.00000
  1467 0.00000 0.00000 0.00000
  1468 0.00000 0.00000 0.00000
  1469 0.00000 0.00000 0.00000
  1470 0.00000 0.00000 0.00000
  1471 0.00000 0.00000 0.00000
  1472 0.00000 0.00000 0.00000
  1473 0.00000 0.00000 0.00000
  1474 0.00000 0.00000 0.00000
  1475 0.00000 0.00000 0.00000
  1476 0.00000 0.00000 0.00000
  1477 0.00000 0.00000 0.00000
  1478 0.00000 0.00000 0.00000
  1479 0.00000 0.00000 0.00000
  1480 0.00000 0.00000 0.00000
  1481 0.00000 0.00000 0.00000
  1482 0.00000 0.00000 0.00000
  1483 0.00000 0.00000 0.00000
  1484 0.00000 0.00000 0.00000
  1485 0.00000 0.00000 0.00000
  1486 0.00000 0.00000 0.00000
  1487 0.00000 0.00000 0.00000
  1488 0.00000 0.00000 0.00000
  1489 0.00000 0.00000 0.00000
  1490 0.00000 0.00000 0.00000
  1491 0.00000 0.00000 0.00000
  1492 0.00000 0.00000 0.00000
  1493 0.00000 0.00000 0.00000
  1494 0.00000 0.00000 0.00000
  1495 0.00000 0.00000 0.00000
  1496 0.00000 0.00000 0.00000
  1497 0.00000 0.00000 0.00000
  1498 0.00000 0.00000 0.00000
  1499 0.00000 0.00000 0.00000
  1500 0.00000 0.00000 0.00000
  1501 0.00000 0.00000 0.00000
  1502 0.00000 0.00000 0.00000
  1503 0.00000 0.00000 0.00000
  1504 0.00000 0.00000 0.00000
  1505 0.00000 0.00000 0.00000
  1506 0.00000 0.00000 0.00000
  1507 0.00000 0.00000 0.00000
  1508 0.00000 0.00000 0.00000
  1509 0.00000 0.00000 0.00000
  1510 0.00000 0.00000 0.00000
  1511 0.00000 0.00000 0.00000
  1512 0.00000 0.00000 0.00000
  1513 0.00000 0.00000 0.00000
  1514 0.00000 0.00000 0.00000
  1515 0.00000 0.00000 0.00000
  1516 0.00000 0.00000 0.00000
  1517 0.00000 0.00000 0.00000
  1518 0.00000 0.00000 0.00000
  1519 0.00000 0.00000 0.00000
  1520 0.00000 0.00000 0.00000
  1521 0.00000 0.00000 0.00000
  1522 0.00000 0.00000 0.00000
  1523 0.00000 0.00000 0.00000
  1524 0.00000 0.00000 0.00000
  1525 0.00000 0.00000 0.00000
  1526 0.00000 0.00000 0.00000
  1527 0.00000 0.00000 0.00000
  1528 0.00000 0.00000 0.00000
  1529 0.00000 0.00000 0.00000
  1530 0.00000 0.00000 0.00000
  1531 0.00000 0.00000 0.00000
  1532 0.00000 0.00000 0.00000
  1533 0.00000 0.00000 0.00000
  1534 0.00000 0.00000 0.00000
  1535 0.00000 0.00000 0.00000
  1536 0.00000 0.00000 0.00000
  1537 0.00000 0.00000 0.00000
  1538 0.00000 0.00000 0.00000
  1539 0.00000 0.00000 0.00000
  1540 0.00000 0.00000 0.00000
  1541 0.00000 0.00000 0.00000
  1542 0.00000 0.00000 0.00000
  1543 0.00000 0.00000 0.00000
  1544 0.00000 0.00000 0.00000
  1545 0.00000 0.00000 0.00000
  1546 0.00000 0.00000 0.00000
  1547 0.00000 0.00000 0.00000
  1548 0.00000 0.00000 0.00000
  1549 0.00000 0.00000 0.00000
  1550 0.00000 0.00000 0.00000
  1551 0.00000 0.00000 0.00000
  1552 0.00000 0.00000 0.00000
  1553 0.00000 0.00000 0.00000
  1554 0.00000 0.00000 0.00000
  1555 0.00000 0.00000 0.00000
  1556 0.00000 0.00000 0.00000
  1557 0.00000 0.00000 0.00000
  1558 0.00000 0.00000 0.00000
  1559 0.00000 0.00000 0.00000
  1560 0.00000 0.00000 0.00000
  1561 0.00000 0.00000 0.00000
  1562 0.00000 0.00000 0.00000
  1563 0.00000 0.00000 0.00000
  1564 0.00000 0.00000 0.00000
  1565 0.00000 0.00000 0.00000
  1566 0.00000 0.00000 0.00000
  1567 0.00000 0.00000 0.00000
  1568 0.00000 0.00000 0.00000
  1569 0.00000 0.00000 0.00000
  1570 0.00000 0.00000 0.00000
  1571 0.00000 0.00000 0.00000
  1572 0.00000 0.00000 0.00000
  1573 0.00000 0.00000 0.00000
  1574 0.00000 0.00000 0.00000
  1575 0.00000 0.00000 0.00000
  1576 0.00000 0.00000 0.00000
  1577 0.00000 0.00000 0.00000
  1578 0.00000 0.00000 0.00000
  1579 0.00000 0.00000 0.00000
  1580 0.00000 0.00000 0.00000
  1581 0.00000 0.00000 0.00000
  1582 0.00000 0.00000 0.00000
  1583 0.00000 0.00000 0.00000
  1584 0.00000 0.00000 0.00000
  1585 0.00000 0.00000 0.00000
  1586 0.00000 0.00000 0.00000
  1587 0.00000 0.00000 0.00000
  1588 0.00000 0.00000 0.00000
  1589 0.00000 0.00000 0.00000
  1590 0.00000 0.00000 0.00000
  1591 0.00000 0.00000 0.00000
  1592 0.00000 0.00000 0.00000
  1593 0.00000 0.00000 0.00000
  1594 0.00000 0.00000 0.00000
  1595 0.00000 0.00000 0.00000
  1596 0.00000 0.00000 0.00000
  1597 0.00000 0.00000 0.00000
  1598 0.00000 0.00000 0.00000
  1599 0.00000 0.00000 0.00000
  1600 0.00000 0.00000 0.00000
  1601 0.00000 0.00000 0.00000
  1602 0.00000 0.00000 0.00000
  1603 0.00000 0.00000 0.00000
  1604 0.00000 0.00000 0.00000
  1605 0.00000 0.00000 0.00000
  1606 0.00000 0.00000 0.00000
  1607 0.00000 0.00000 0.00000
  1608 0.00000 0.00000 0.00000
  1609 0.00000 0.00000 0.00000
  1610 0.00000 0.00000 0.00000
  1611 0.00000 0.00000 0.00000
  1612 0.00000 0.00000 0.00000
  1613 0.00000 0.00000 0.00000
  1614 0.00000 0.00000 0.00000
  1615 0.00000 0.00000 0.00000
  1616 0.00000 0.00000 0.00000
  1617 0.00000 0.00000 0.00000
  1618 0.00000 0.00000 0.00000
  1619 0.00000 0.00000 0.00000
  1620 0.00000 0.00000 0.00000
  1621 0.00000 0.00000 0.00000
  1622 0.00000 0.00000 0.00000
  1623 0.00000 0.00000 0.00000
  1624 0.00000 0.00000 0.00000
  1625 0.00000 0.00000 0.00000
  1626 0.00000 0.00000 0.00000
  1627 0.00000 0.00000 0.00000
  1628 0.00000 0.00000 0.00000
  1629 0.00000 0.00000 0.00000
  1630 0.00000 0.00000 0.00000
  1631 0.00000 0.00000 0.00000
  1632 0.00000 0.00000 0.00000
  1633 0.00000 0.00000 0.00000
  1634 0.00000 0.00000 0.00000
  1635 0.00000 0.00000 0.00000
  1636 0.00000 0.00000 0.00000
  1637 0.00000 0.00000 0.00000
  1638 0.00000 0.00000 0.00000
  1639 0.00000 0.00000 0.00000
  1640 0.00000 0.00000 0.00000
  1641 0.00000 0.00000 0.00000
  1642 0.00000 0.00000 0.00000
  1643 0.00000 0.00000 0.00000
  1644 0.00000 0.00000 0.00000
  1645 0.00000 0.00000 0.00000
  1646 0.00000 0.00000 0.00000
  1647 0.00000 0.00000 0.00000
  1648 0.00000 0.00000 0.00000
  1649 0.00000 0.00000 0.00000
  1650 0.00000 0.00000 0.00000
  1651 0.00000 0.00000 0.00000
  1652 0.00000 0.00000 0.00000
  1653 0.00000 0.00000 0.00000
  1654 0.00000 0.00000 0.00000
  1655 0.00000 0.00000 0.00000
  1656 0.00000 0.00000 0.00000
  1657 0.00000 0.00000 0.00000
  1658 0.00000 0.00000 0.00000
  1659 0.00000 0.00000 0.00000
  1660 0.00000 0.00000 0.00000
  1661 0.00000 0.00000 0.00000
  1662 0.00000 0.00000 0.00000
  1663 0.00000 0.00000 0.00000
  1664 0.00000 0.00000 0.00000
  1665 0.00000 0.00000 0.00000
  1666 0.00000 0.00000 0.00000
  1667 0.00000 0.00000 0.00000
  1668 0.00000 0.00000 0.00000
  1669 0.00000 0.00000 0.00000
  1670 0.00000 0.00000 0.00000
  1671 0.00000 0.00000 0.00000
  1672 0.00000 0.00000 0.00000
  1673 0.00000 0.00000 0.00000
  1674 0.00000 0.00000 0.00000
  1675 0.00000 0.00000 0.00000
  1676 0.00000 0.00000 0.00000
  1677 0.00000 0.00000 0.00000
  1678 0.00000 0.00000 0.00000
  1679 0.00000 0.00000 0.00000
  1680 0.00000 0.00000 0.00000
  1681 0.00000 0.00000 0.00000
  1682 0.00000 0.00000 0.00000
  1683 0.00000 0.00000 0.00000
  1684 0.00000 0.00000 0.00000
  1685 0.00000 0.00000 0.00000
  1686 0.00000 0.00000 0.00000
  1687 0.00000 0.00000 0.00000
  1688 0.00000 0.00000 0.00000
  1689 0.00000 0.00000 0.00000
  1690 0.00000 0.00000 0.00000
  1691 0.00000 0.00000 0.00000
  1692 0.00000 0.00000 0.00000
  1693 0.00000 0.00000 0.00000
  1694 0.00000 0.00000 0.00000
  1695 0.00000 0.00000 0.00000
  1696 0.00000 0.00000 0.00000
  1697 0.00000 0.00000 0.00000
  1698 0.00000 0.00000 0.00000
  1699 0.00000 0.00000 0.00000
  1700 0.00000 0.00000 0.00000
  1701 0.00000 0.00000 0.00000
  1702 0.00000 0.00000 0.00000
  1703 0.00000 0.00000 0.00000
  1704 0.00000 0.00000 0.00000
  1705 0.00000 0.00000 0.00000
  1706 0.00000 0.00000 0.00000
  1707 0.00000 0.00000 0.00000
  1708 0.00000 0.00000 0.00000
  1709 0.00000 0.00000 0.00000
  1710 0.00000 0.00000 0.00000
  1711 0.00000 0.00000 0.00000
  1712 0.00000 0.00000 0.00000
  1713 0.00000 0.00000 0.00000
  1714 0.00000 0.00000 0.00000
  1715 0.00000 0.00000 0.00000
  1716 0.00000 0.00000 0.00000
  1717 0.00000 0.00000 0.00000
  1718 0.00000 0.00000 0.00000
  1719 0.00000 0.00000 0.00000
  1720 0.00000 0.00000 0.00000
  1721 0.00000 0.00000 0.00000
  1722 0.00000 0.00000 0.00000
  1723 0.00000 0.00000 0.00000
  1724 0.00000 0.00000 0.00000
  1725 0.00000 0.00000 0.00000
  1726 0.00000 0.00000 0.00000
  1727 0.00000 0.00000 0.00000
  1728 0.00000 0.00000 0.00000
  1729 0.00000 0.00000 0.00000
  1730 0.00000 0.00000 0.00000
  1731 0.00000 0.00000 0.00000
  1732 0.00000 0.00000 0.00000
  1733 0.00000 0.00000 0.00000
  1734 0.00000 0.00000 0.00000
  1735 0.00000 0.00000 0.00000
  1736 0.00000 0.00000 0.00000
  1737 0.00000 0.00000 0.00000
  1738 0.00000 0.00000 0.00000
  1739 0.00000 0.00000 0.00000
  1740 0.00000 0.00000 0.00000
  1741 0.00000 0.00000 0.00000
  1742 0.00000 0.00000 0.00000
  1743 0.00000 0.00000 0.00000
  1744 0.00000 0.00000 0.00000
  1745 0.00000 0.00000 0.00000
  1746 0.00000 0.00000 0.00000
  1747 0.00000 0.00000 0.00000
  1748 0.00000 0.00000 0.00000
  1749 0.00000 0.00000 0.00000
  1750 0.00000 0.00000 0.00000
  1751 0.00000 0.00000 0.00000
  1752 0.00000 0.00000 0.00000
  1753 0.00000 0.00000 0.00000
  1754 0.00000 0.00000 0.00000
  1755 0.00000 0.00000 0.00000
  1756 0.00000 0.00000 0.00000
  1757 0.00000 0.00000 0.00000
  1758 0.00000 0.00000 0.00000
  1759 0.00000 0.00000 0.00000
  1760 0.00000 0.00000 0.00000
  1761 0.00000 0.00000 0.00000
  1762 0.00000 0.00000 0.00000
  1763 0.00000 0.00000 0.00000
  1764 0.00000 0.00000 0.00000
  1765 0.00000 0.00000 0.00000
  1766 0.00000 0.00000 0.00000
  1767 0.00000 0.00000 0.00000
  1768 0.00000 0.00000 0.00000
  1769 0.00000 0.00000 0.00000
  1770 0.00000 0.00000 0.00000
  1771 0.00000 0.00000 0.00000
  1772 0.00000 0.00000 0.00000
  1773 0.00000 0.00000 0.00000
  1774 0.00000 0.00000 0.00000
  1775 0.00000 0.00000 0.00000
  1776 0.00000 0.00000 0.00000
  1777 0.00000 0.00000 0.00000
  1778 0.00000 0.00000 0.00000
  1779 0.00000 0.00000 0.00000
  1780 0.00000 0.00000 0.00000
  1781 0.00000 0.00000 0.00000
  1782 0.00000 0.00000 0.00000
  1783 0.00000 0.00000 0.00000
  1784 0.00000 0.00000 0.00000
  1785 0.00000 0.00000 0.00000
  1786 0.00000 0.00000 0.00000
  1787 0.00000 0.00000 0.00000
  1788 0.00000 0.00000 0.00000
  1789 0.00000 0.00000 0.00000
  1790 0.00000 0.00000 0.00000
  1791 0.00000 0.00000 0.00000
  1792 0.00000 0.00000 0.00000
  1793 0.00000 0.00000 0.00000
  1794 0.00000 0.00000 0.00000
  1795 0.00000 0.00000 0.00000
  1796 0.00000 0.00000 0.00000
  1797 0.00000 0.00000 0.00000
  1798 0.00000 0.00000 0.00000
  1799 0.00000 0.00000 0.00000
  1800 0.00000 0.00000 0.00000
  1801 0.00000 0.00000 0.00000
  1802 0.00000 0.00000 0.00000
  1803 0.00000 0.00000 0.00000
  1804 0.00000 0.00000 0.00000
  1805 0.00000 0.00000 0.00000
  1806 0.00000 0.00000 0.00000
  1807 0.00000 0.00000 0.00000
  1808 0.00000 0.00000 0.00000
  1809 0.00000 0.00000 0.00000
  1810 0.00000 0.00000 0.00000
  1811 0.00000 0.00000 0.00000
  1812 0.00000 0.00000 0.00000
  1813 0.00000 0.00000 0.00000
  1814 0.00000 0.00000 0.00000
  1815 0.00000 0.00000 0.00000
  1816 0.00000 0.00000 0.00000
  1817 0.00000 0.00000 0.00000
  1818 0.00000 0.00000 0.00000
  1819 0.00000 0.00000 0.00000
  1820 0.00000 0.00000 0.00000
  1821 0.00000 0.00000 0.00000
  1822 0.00000 0.00000 0.00000
  1823 0.00000 0.00000 0.00000
  1824 0.00000 0.00000 0.00000
  1825 0.00000 0.00000 0.00000
  1826 0.00000 0.00000 0.00000
  1827 0.00000 0.00000 0.00000
  1828 0.00000 0.00000 0.00000
  1829 0.00000 0.00000 0.00000
  1830 0.00000 0.00000 0.00000
  1831 0.00000 0.00000 0.00000
  1832 0.00000 0.00000 0.00000
  1833 0.00000 0.00000 0.00000
  1834 0.00000 0.00000 0.00000
  1835 0.00000 0.00000 0.00000
  1836 0.00000 0.00000 0.00000
  1837 0.00000 0.00000 0.00000
  1838 0.00000 0.00000 0.00000
  1839 0.00000 0.00000 0.00000
  1840 0.00000 0.00000 0.00000
  1841 0.00000 0.00000 0.00000
  1842 0.00000 0.00000 0.00000
  1843 0.00000 0.00000 0.00000
  1844 0.00000 0.00000 0.00000
  1845 0.00000 0.00000 0.00000
  1846 0.00000 0.00000 0.00000
  1847 0.00000 0.00000 0.00000
  1848 0.00000 0.00000 0.00000
  1849 0.00000 0.00000 0.00000
  1850 0.00000 0.00000 0.00000
  1851 0.00000 0.00000 0.00000
  1852 0.00000 0.00000 0.00000
  1853 0.00000 0.00000 0.00000
  1854 0.00000 0.00000 0.00000
  1855 0.00000 0.00000 0.00000
  1856 0.00000 0.00000 0.00000
  1857 0.00000 0.00000 0.00000
  1858 0.00000 0.00000 0.00000
  1859 0.00000 0.00000 0.00000
  1860 0.00000 0.00000 0.00000
  1861 0.00000 0.00000 0.00000
  1862 0.00000 0.00000 0.00000
  1863 0.00000 0.00000 0.00000
  1864 0.00000 0.00000 0.00000
  1865 0.00000 0.00000 0.00000
  1866 0.00000 0.00000 0.00000
  1867 0.00000 0.00000 0.00000
  1868 0.00000 0.00000 0.00000
  1869 0.00000 0.00000 0.00000
  1870 0.00000 0.00000 0.00000
  1871 0.00000 0.00000 0.00000
  1872 0.00000 0.00000 0.00000
  1873 0.00000 0.00000 0.00000
  1874 0.00000 0.00000 0.00000
  1875 0.00000 0.00000 0.00000
  1876 0.00000 0.00000 0.00000
  1877 0.00000 0.00000 0.00000
  1878 0.00000 0.00000 0.00000
  1879 0.00000 0.00000 0.00000
  1880 0.00000 0.00000 0.00000
  1881 0.00000 0.00000 0.00000
  1882 0.00000 0.00000 0.00000
  1883 0.00000 0.00000 0.00000
  1884 0.00000 0.00000 0.00000
  1885 0.00000 0.00000 0.00000
  1886 0.00000 0.00000 0.00000
  1887 0.00000 0.00000 0.00000
  1888 0.00000 0.00000 0.00000
  1889 0.00000 0.00000 0.00000
  1890 0.00000 0.00000 0.00000
  1891 0.00000 0.00000 0.00000
  1892 0.00000 0.00000 0.00000
  1893 0.00000 0.00000 0.00000
  1894 0.00000 0.00000 0.00000
  1895 0.00000 0.00000 0.00000
  1896 0.00000 0.00000 0.00000
  1897 0.00000 0.00000 0.00000
  1898 0.00000 0.00000 0.00000
  1899 0.00000 0.00000 0.00000
  1900 0.00000 0.00000 0.00000
  1901 0.00000 0.00000 0.00000
  1902 0.00000 0.00000 0.00000
  1903 0.00000 0.00000 0.00000
  1904 0.00000 0.00000 0.00000
  1905 0.00000 0.00000 0.00000
  1906 0.00000 0.00000 0.00000
  1907 0.00000 0.00000 0.00000
  1908 0.00000 0.00000 0.00000
  1909 0.00000 0.00000 0.00000
  1910 0.00000 0.00000 0.00000
  1911 0.00000 0.00000 0.00000
  1912 0.00000 0.00000 0.00000
  1913 0.00000 0.00000 0.00000
  1914 0.00000 0.00000 0.00000
  1915 0.00000 0.00000 0.00000
  1916 0.00000 0.00000 0.00000
  1917 0.00000 0.00000 0.00000
  1918 0.00000 0.00000 0.00000
  1919 0.00000 0.00000 0.00000
  1920 0.00000 0.00000 0.00000
  1921 0.00000 0.00000 0.00000
  1922 0.00000 0.00000 0.00000
  1923 0.00000 0.00000 0.00000
  1924 0.00000 0.00000 0.00000
  1925 0.00000 0.00000 0.00000
  1926 0.00000 0.00000 0.00000
  1927 0.00000 0.00000 0.00000
  1928 0.00000 0.00000 0.00000
  1929 0.00000 0.00000 0.00000
  1930 0.00000 0.00000 0.00000
  1931 0.00000 0.00000 0.00000
  1932 0.00000 0.00000 0.00000
  1933 0.00000 0.00000 0.00000
  1934 0.00000 0.00000 0.00000
  1935 0.00000 0.00000 0.00000
  1936 0.00000 0.00000 0.00000
  1937 0.00000 0.00000 0.00000
  1938 0.00000 0.00000 0.00000
  1939 0.00000 0.00000 0.00000
  1940 0.00000 0.00000 0.00000
  1941 0.00000 0.00000 0.00000
  1942 0.00000 0.00000 0.00000
  1943 0.00000 0.00000 0.00000
  1944 0.00000 0.00000 0.00000
  1945 0.00000 0.00000 0.00000
  1946 0.00000 0.00000 0.00000
  1947 0.00000 0.00000 0.00000
  1948 0.00000 0.00000 0.00000
  1949 0.00000 0.00000 0.00000
  1950 0.00000 0.00000 0.00000
  1951 0.00000 0.00000 0.00000
  1952 0.00000 0.00000 0.00000
  1953 0.00000 0.00000 0.00000
  1954 0.00000 0.00000 0.00000
  1955 0.00000 0.00000 0.00000
  1956 0.00000 0.00000 0.00000
  1957 0.00000 0.00000 0.00000
  1958 0.00000 0.00000 0.00000
  1959 0.00000 0.00000 0.00000
  1960 0.00000 0.00000 0.00000
  1961 0.00000 0.00000 0.00000
  1962 0.00000 0.00000 0.00000
  1963 0.00000 0.00000 0.00000
  1964 0.00000 0.00000 0.00000
  1965 0.00000 0.00000 0.00000
  1966 0.00000 0.00000 0.00000
  1967 0.00000 0.00000 0.00000
  1968 0.00000 0.00000 0.00000
  1969 0.00000 0.00000 0.00000
  1970 0.00000 0.00000 0.00000
  1971 0.00000 0.00000 0.00000
  1972 0.00000 0.00000 0.00000
  1973 0.00000 0.00000 0.00000
  1974 0.00000 0.00000 0.00000
  1975 0.00000 0.00000 0.00000
  1976 0.00000 0.00000 0.00000
  1977 0.00000 0.00000 0.00000
  1978 0.00000 0.00000 0.00000
  1979 0.00000 0.00000 0.00000
  1980 0.00000 0.00000 0.00000
  1981 0.00000 0.00000 0.00000
  1982 0.00000 0.00000 0.00000
  1983 0.00000 0.00000 0.00000
  1984 0.00000 0.00000 0.00000
  1985 0.00000 0.00000 0.00000
  1986 0.00000 0.00000 0.00000
  1987 0.00000 0.00000 0.00000
  1988 0.00000 0.00000 0.00000
  1989 0.00000 0.00000 0.00000
  1990 0.00000 0.00000 0.00000
  1991 0.00000 0.00000 0.00000
  1992 0.00000 0.00000 0.00000
  1993 0.00000 0.00000 0.00000
  1994 0.00000 0.00000 0.00000
  1995 0.00000 0.00000 0.00000
  1996 0.00000 0.00000 0.00000
  1997 0.00000 0.00000 0.00000
  1998 0.00000 0.00000 0.00000
  1999 0.00000 0.00000 0.00000
  2000 0.00000 0.00000 0.00000
  2001 0.00000 0.00000 0.00000
  2002 0.00000 0.00000 0.00000
  2003 0.00000 0.00000 0.00000
  2004 0.00000 0.00000 0.00000
  2005 0.00000 0.00000 0.00000
  2006 0.00000 0.00000 0.00000
  2007 0.00000 0.00000 0.00000
  2008 0.00000 0.00000 0.00000
  2009 0.00000 0.00000 0.00000
  2010 0.00000 0.00000 0.00000
  2011 0.00000 0.00000 0.00000
  2012 0.00000 0.00000 0.00000
  2013 0.00000 0.00000 0.00000
  2014 0.00000 0.00000 0.00000
  2015 0.00000 0.00000 0.00000
  2016 0.00000 0.00000 0.00000
  2017 0.00000 0.00000 0.00000
  2018 0.00000 0.00000 0.00000
  2019 0.00000 0.00000 0.00000
  2020 0.00000 0.00000 0.00000
  2021 0.00000 0.00000 0.00000
  2022 0.00000 0.00000 0.00000
  2023 0.00000 0.00000 0.00000
  2024 0.00000 0.00000 0.00000
  2025 0.00000 0.00000 0.00000
  2026 0.00000 0.00000 0.00000
  2027 0.00000 0.00000 0.00000
  2028 0.00000 0.00000 0.00000
  2029 0.00000 0.00000 0.00000
  2030 0.00000 0.00000 0.00000
  2031 0.00000 0.00000 0.00000
  2032 0.00000 0.00000 0.00000
  2033 0.00000 0.00000 0.00000
  2034 0.00000 0.00000 0.00000
  2035 0.00000 0.00000 0.00000
  2036 0.00000 0.00000 0.00000
  2037 0.00000 0.00000 0.00000
  2038 0.00000 0.00000 0.00000
  2039 0.00000 0.00000 0.00000
  2040 0.00000 0.00000 0.00000
  2041 0.00000 0.00000 0.00000
  2042 0.00000 0.00000 0.00000
  2043 0.00000 0.00000 0.00000
  2044 0.00000 0.00000 0.00000
  2045 0.00000 0.00000 0.00000
  2046 0.00000 0.00000 0.00000
  2047 0.00000 0.00000 0.00000
  2048 0.00000 0.00000 0.00000
  2049 0.00000 0.00000 0.00000
  2050 0.00000 0.00000 0.00000
  2051 0.00000 0.00000 0.00000
  2052 0.00000 0.00000 0.00000
  2053 0.00000 0.00000 0.00000
  2054 0.00000 0.00000 0.00000
  2055 0.00000 0.00000 0.00000
  2056 0.00000 0.00000 0.00000
  2057 0.00000 0.00000 0.00000
  2058 0.00000 0.00000 0.00000
  2059 0.00000 0.00000 0.00000
  2060 0.00000 0.00000 0.00000
  2061 0.00000 0.00000 0.00000
  2062 0.00000 0.00000 0.00000
  2063 0.00000 0.00000 0.00000
  2064 0.00000 0.00000 0.00000
  2065 0.00000 0.00000 0.00000
  2066 0.00000 0.00000 0.00000
  2067 0.00000 0.00000 0.00000
  2068 0.00000 0.00000 0.00000
  2069 0.00000 0.00000 0.00000
  2070 0.00000 0.00000 0.00000
  2071 0.00000 0.00000 0.00000
  2072 0.00000 0.00000 0.00000
  2073 0.00000 0.00000 0.00000
  2074 0.00000 0.00000 0.00000
  2075 0.00000 0.00000 0.00000
  2076 0.00000 0.00000 0.00000
  2077 0.00000 0.00000 0.00000
  2078 0.00000 0.00000 0.00000
  2079 0.00000 0.00000 0.00000
  2080 0.00000 0.00000 0.00000
  2081 0.00000 0.00000 0.00000
  2082 0.00000 0.00000 0.00000
  2083 0.00000 0.00000 0.00000
  2084 0.00000 0.00000 0.00000
  2085 0.00000 0.00000 0.00000
  2086 0.00000 0.00000 0.00000
  2087 0.00000 0.00000 0.00000
  2088 0.00000 0.00000 0.00000
  2089 0.00000 0.00000 0.00000
  2090 0.00000 0.00000 0.00000
  2091 0.00000 0.00000 0.00000
  2092 0.00000 0.00000 0.00000
  2093 0.00000 0.00000 0.00000
  2094 0.00000 0.00000 0.00000
  2095 0.00000 0.00000 0.00000
  2096 0.00000 0.00000 0.00000
  2097 0.00000 0.00000 0.00000
  2098 0.00000 0.00000 0.00000
  2099 0.00000 0.00000 0.00000
  2100 0.00000 0.00000 0.00000
  2101 0.00000 0.00000 0.00000
  2102 0.00000 0.00000 0.00000
  2103 0.00000 0.00000 0.00000
  2104 0.00000 0.00000 0.00000
  2105 0.00000 0.00000 0.00000
  2106 0.00000 0.00000 0.00000
  2107 0.00000 0.00000 0.00000
  2108 0.00000 0.00000 0.00000
  2109 0.00000 0.00000 0.00000
  2110 0.00000 0.00000 0.00000
  2111 0.00000 0.00000 0.00000
  2112 0.00000 0.00000 0.00000
  2113 0.00000 0.00000 0.00000
  2114 0.00000 0.00000 0.00000
  2115 0.00000 0.00000 0.00000
  2116 0.00000 0.00000 0.00000
  2117 0.00000 0.00000 0.00000
  2118 0.00000 0.00000 0.00000
  2119 0.00000 0.00000 0.00000
  2120 0.00000 0.00000 0.00000
  2121 0.00000 0.00000 0.00000
  2122 0.00000 0.00000 0.00000
  2123 0.00000 0.00000 0.00000
  2124 0.00000 0.00000 0.00000
  2125 0.00000 0.00000 0.00000
  2126 0.00000 0.00000 0.00000
  2127 0.00000 0.00000 0.00000
  2128 0.00000 0.00000 0.00000
  2129 0.00000 0.00000 0.00000
  2130 0.00000 0.00000 0.00000
  2131 0.00000 0.00000 0.00000
  2132 0.00000 0.00000 0.00000
  2133 0.00000 0.00000 0.00000
  2134 0.00000 0.00000 0.00000
  2135 0.00000 0.00000 0.00000
  2136 0.00000 0.00000 0.00000
  2137 0.00000 0.00000 0.00000
  2138 0.00000 0.00000 0.00000
  2139 0.00000 0.00000 0.00000
  2140 0.00000 0.00000 0.00000
  2141 0.00000 0.00000 0.00000
  2142 0.00000 0.00000 0.00000
  2143 0.00000 0.00000 0.00000
  2144 0.00000 0.00000 0.00000
  2145 0.00000 0.00000 0.00000
  2146 0.00000 0.00000 0.00000
  2147 0.00000 0.00000 0.00000
  2148 0.00000 0.00000 0.00000
  2149 0.00000 0.00000 0.00000
  2150 0.00000 0.00000 0.00000
  2151 0.00000 0.00000 0.00000
  2152 0.00000 0.00000 0.00000
  2153 0.00000 0.00000 0.00000
  2154 0.00000 0.00000 0.00000
  2155 0.00000 0.00000 0.00000
  2156 0.00000 0.00000 0.00000
  2157 0.00000 0.00000 0.00000
  2158 0.00000 0.00000 0.00000
  2159 0.00000 0.00000 0.00000
  2160 0.00000 0.00000 0.00000
  2161 0.00000 0.00000 0.00000
  2162 0.00000 0.00000 0.00000
  2163 0.00000 0.00000 0.00000
  2164 0.00000 0.00000 0.00000
  2165 0.00000 0.00000 0.00000
  2166 0.00000 0.00000 0.00000
  2167 0.00000 0.00000 0.00000
  2168 0.00000 0.00000 0.00000
  2169 0.00000 0.00000 0.00000
  2170 0.00000 0.00000 0.00000
  2171 0.00000 0.00000 0.00000
  2172 0.00000 0.00000 0.00000
  2173 0.00000 0.00000 0.00000
  2174 0.00000 0.00000 0.00000
  2175 0.00000 0.00000 0.00000
  2176 0.00000 0.00000 0.00000
  2177 0.00000 0.00000 0.00000
  2178 0.00000 0.00000 0.00000
  2179 0.00000 0.00000 0.00000
  2180 0.00000 0.00000 0.00000
  2181 0.00000 0.00000 0.00000
  2182 0.00000 0.00000 0.00000
  2183 0.00000 0.00000 0.00000
  2184 0.00000 0.00000 0.00000
  2185 0.00000 0.00000 0.00000
  2186 0.00000 0.00000 0.00000
  2187 0.00000 0.00000 0.00000
  2188 0.00000 0.00000 0.00000
  2189 0.00000 0.00000 0.00000
  2190 0.00000 0.00000 0.00000
  2191 0.00000 0.00000 0.00000
  2192 0.00000 0.00000 0.00000
  2193 0.00000 0.00000 0.00000
  2194 0.00000 0.00000 0.00000
  2195 0.00000 0.00000 0.00000
  2196 0.00000 0.00000 0.00000
  2197 0.00000 0.00000 0.00000
  2198 0.00000 0.00000 0.00000
  2199 0.00000 0.00000 0.00000
  2200 0.00000 0.00000 0.00000
  2201 0.00000 0.00000 0.00000
  2202 0.00000 0.00000 0.00000
  2203 0.00000 0.00000 0.00000
  2204 0.00000 0.00000 0.00000
  2205 0.00000 0.00000 0.00000
  2206 0.00000 0.00000 0.00000
  2207 0.00000 0.00000 0.00000
  2208 0.00000 0.00000 0.00000
  2209 0.00000 0.00000 0.00000
  2210 0.00000 0.00000 0.00000
  2211 0.00000 0.00000 0.00000
  2212 0.00000 0.00000 0.00000
  2213 0.00000 0.00000 0.00000
  2214 0.00000 0.00000 0.00000
  2215 0.00000 0.00000 0.00000
  2216 0.00000 0.00000 0.00000
  2217 0.00000 0.00000 0.00000
  2218 0.00000 0.00000 0.00000
  2219 0.00000 0.00000 0.00000
  2220 0.00000 0.00000 0.00000
  2221 0.00000 0.00000 0.00000
  2222 0.00000 0.00000 0.00000
  2223 0.00000 0.00000 0.00000
  2224 0.00000 0.00000 0.00000
  2225 0.00000 0.00000 0.00000
  2226 0.00000 0.00000 0.00000
  2227 0.00000 0.00000 0.00000
  2228 0.00000 0.00000 0.00000
  2229 0.00000 0.00000 0.00000
  2230 0.00000 0.00000 0.00000
  2231 0.00000 0.00000 0.00000
  2232 0.00000 0.00000 0.00000
  2233 0.00000 0.00000 0.00000
  2234 0.00000 0.00000 0.00000
  2235 0.00000 0.00000 0.00000
  2236 0.00000 0.00000 0.00000
  2237 0.00000 0.00000 0.00000
  2238 0.00000 0.00000 0.00000
  2239 0.00000 0.00000 0.00000
  2240 0.00000 0.00000 0.00000
  2241 0.00000 0.00000 0.00000
  2242 0.00000 0.00000 0.00000
  2243 0.00000 0.00000 0.00000
  2244 0.00000 0.00000 0.00000
  2245 0.00000 0.00000 0.00000
  2246 0.00000 0.00000 0.00000
  2247 0.00000 0.00000 0.00000
  2248 0.00000 0.00000 0.00000
  2249 0.00000 0.00000 0.00000
  2250 0.00000 0.00000 0.00000
  2251 0.00000 0.00000 0.00000
  2252 0.00000 0.00000 0.00000
  2253 0.00000 0.00000 0.00000
  2254 0.00000 0.00000 0.00000
  2255 0.00000 0.00000 0.00000
  2256 0.00000 0.00000 0.00000
  2257 0.00000 0.00000 0.00000
  2258 0.00000 0.00000 0.00000
  2259 0.00000 0.00000 0.00000
  2260 0.00000 0.00000 0.00000
  2261 0.00000 0.00000 0.00000
  2262 0.00000 0.00000 0.00000
  2263 0.00000 0.00000 0.00000
  2264 0.00000 0.00000 0.00000
  2265 0.00000 0.00000 0.00000
  2266 0.00000 0.00000 0.00000
  2267 0.00000 0.00000 0.00000
  2268 0.00000 0.00000 0.00000
  2269 0.00000 0.00000 0.00000
  2270 0.00000 0.00000 0.00000
  2271 0.00000 0.00000 0.00000
  2272 0.00000 0.00000 0.00000
  2273 0.00000 0.00000 0.00000
  2274 0.00000 0.00000 0.00000
  2275 0.00000 0.00000 0.00000
  2276 0.00000 0.00000 0.00000
  2277 0.00000 0.00000 0.00000
  2278 0.00000 0.00000 0.00000
  2279 0.00000 0.00000 0.00000
  2280 0.00000 0.00000 0.00000
  2281 0.00000 0.00000 0.00000
  2282 0.00000 0.00000 0.00000
  2283 0.00000 0.00000 0.00000
  2284 0.00000 0.00000 0.00000
  2285 0.00000 0.00000 0.00000
  2286 0.00000 0.00000 0.00000
  2287 0.00000 0.00000 0.00000
  2288 0.00000 0.00000 0.00000
  2289 0.00000 0.00000 0.00000
  2290 0.00000 0.00000 0.00000
  2291 0.00000 0.00000 0.00000
  2292 0.00000 0.00000 0.00000
  2293 0.00000 0.00000 0.00000
  2294 0.00000 0.00000 0.00000
  2295 0.00000 0.00000 0.00000
  2296 0.00000 0.00000 0.00000
  2297 0.00000 0.00000 0.00000
  2298 0.00000 0.00000 0.00000
  2299 0.00000 0.00000 0.00000
  2300 0.00000 0.00000 0.00000
  2301 0.00000 0.00000 0.00000
  2302 0.00000 0.00000 0.00000
  2303 0.00000 0.00000 0.00000
  2304 0.00000 0.00000 0.00000
  2305 0.00000 0.00000 0.00000
  2306 0.00000 0.00000 0.00000
  2307 0.00000 0.00000 0.00000
  2308 0.00000 0.00000 0.00000
  2309 0.00000 0.00000 0.00000
  2310 0.00000 0.00000 0.00000
  2311 0.00000 0.00000 0.00000
  2312 0.00000 0.00000 0.00000
  2313 0.00000 0.00000 0.00000
  2314 0.00000 0.00000 0.00000
  2315 0.00000 0.00000 0.00000
  2316 0.00000 0.00000 0.00000
  2317 0.00000 0.00000 0.00000
  2318 0.00000 0.00000 0.00000
  2319 0.00000 0.00000 0.00000
  2320 0.00000 0.00000 0.00000
  2321 0.00000 0.00000 0.00000
  2322 0.00000 0.00000 0.00000
  2323 0.00000 0.00000 0.00000
  2324 0.00000 0.00000 0.00000
  2325 0.00000 0.00000 0.00000
  2326 0.00000 0.00000 0.00000
  2327 0.00000 0.00000 0.00000
  2328 0.00000 0.00000 0.00000
  2329 0.00000 0.00000 0.00000
  2330 0.00000 0.00000 0.00000
  2331 0.00000 0.00000 0.00000
  2332 0.00000 0.00000 0.00000
  2333 0.00000 0.00000 0.00000
  2334 0.00000 0.00000 0.00000
  2335 0.00000 0.00000 0.00000
  2336 0.00000 0.00000 0.00000
  2337 0.00000 0.00000 0.00000
  2338 0.00000 0.00000 0.00000
  2339 0.00000 0.00000 0.00000
  2340 0.00000 0.00000 0.00000
  2341 0.00000 0.00000 0.00000
  2342 0.00000 0.00000 0.00000
  2343 0.00000 0.00000 0.00000
  2344 0.00000 0.00000 0.00000
  2345 0.00000 0.00000 0.00000
  2346 0.00000 0.00000 0.00000
  2347 0.00000 0.00000 0.00000
  2348 0.00000 0.00000 0.00000
  2349 0.00000 0.00000 0.00000
  2350 0.00000 0.00000 0.00000
  2351 0.00000 0.00000 0.00000
  2352 0.00000 0.00000 0.00000
  2353 0.00000 0.00000 0.00000
  2354 0.00000 0.00000 0.00000
  2355 0.00000 0.00000 0.00000
  2356 0.00000 0.00000 0.00000
  2357 0.00000 0.00000 0.00000
  2358 0.00000 0.00000 0.00000
  2359 0.00000 0.00000 0.00000
  2360 0.00000 0.00000 0.00000
  2361 0.00000 0.00000 0.00000
  2362 0.00000 0.00000 0.00000
  2363 0.00000 0.00000 0.00000
  2364 0.00000 0.00000 0.00000
  2365 0.00000 0.00000 0.00000
  2366 0.00000 0.00000 0.00000
  2367 0.00000 0.00000 0.00000
  2368 0.00000 0.00000 0.00000
  2369 0.00000 0.00000 0.00000
  2370 0.00000 0.00000 0.00000
  2371 0.00000 0.00000 0.00000
  2372 0.00000 0.00000 0.00000
  2373 0.00000 0.00000 0.00000
  2374 0.00000 0.00000 0.00000
  2375 0.00000 0.00000 0.00000
  2376 0.00000 0.00000 0.00000
  2377 0.00000 0.00000 0.00000
  2378 0.00000 0.00000 0.00000
  2379 0.00000 0.00000 0.00000
  2380 0.00000 0.00000 0.00000
  2381 0.00000 0.00000 0.00000
  2382 0.00000 0.00000 0.00000
  2383 0.00000 0.00000 0.00000
  2384 0.00000 0.00000 0.00000
  2385 0.00000 0.00000 0.00000
  2386 0.00000 0.00000 0.00000
  2387 0.00000 0.00000 0.00000
  2388 0.00000 0.00000 0.00000
  2389 0.00000 0.00000 0.00000
  2390 0.00000 0.00000 0.00000
  2391 0.00000 0.00000 0.00000
  2392 0.00000 0.00000 0.00000
  2393 0.00000 0.00000 0.00000
  2394 0.00000 0.00000 0.00000
  2395 0.00000 0.00000 0.00000
  2396 0.00000 0.00000 0.00000
  2397 0.00000 0.00000 0.00000
  2398 0.00000 0.00000 0.00000
  2399 0.00000 0.00000 0.00000
  2400 0.00000 0.00000 0.00000
  2401 0.00000 0.00000 0.00000
  2402 0.00000 0.00000 0.00000
  2403 0.00000 0.00000 0.00000
  2404 0.00000 0.00000 0.00000
  2405 0.00000 0.00000 0.00000
  2406 0.00000 0.00000 0.00000
  2407 0.00000 0.00000 0.00000
  2408 0.00000 0.00000 0.00000
  2409 0.00000 0.00000 0.00000
  2410 0.00000 0.00000 0.00000
  2411 0.00000 0.00000 0.00000
  2412 0.00000 0.00000 0.00000
  2413 0.00000 0.00000 0.00000
  2414 0.00000 0.00000 0.00000
  2415 0.00000 0.00000 0.00000
  2416 0.00000 0.00000 0.00000
  2417 0.00000 0.00000 0.00000
  2418 0.00000 0.00000 0.00000
  2419 0.00000 0.00000 0.00000
  2420 0.00000 0.00000 0.00000
  2421 0.00000 0.00000 0.00000
  2422 0.00000 0.00000 0.00000
  2423 0.00000 0.00000 0.00000
  2424 0.00000 0.00000 0.00000
  2425 0.00000 0.00000 0.00000
  2426 0.00000 0.00000 0.00000
  2427 0.00000 0.00000 0.00000
  2428 0.00000 0.00000 0.00000
  2429 0.00000 0.00000 0.00000
  2430 0.00000 0.00000 0.00000
  2431 0.00000 0.00000 0.00000
  2432 0.00000 0.00000 0.00000
  2433 0.00000 0.00000 0.00000
  2434 0.00000 0.00000 0.00000
  2435 0.00000 0.00000 0.00000
  2436 0.00000 0.00000 0.00000
  2437 0.00000 0.00000 0.00000
  2438 0.00000 0.00000 0.00000
  2439 0.00000 0.00000 0.00000
  2440 0.00000 0.00000 0.00000
  2441 0.00000 0.00000 0.00000
  2442 0.00000 0.00000 0.00000
  2443 0.00000 0.00000 0.00000
  2444 0.00000 0.00000 0.00000
  2445 0.00000 0.00000 0.00000
  2446 0.00000 0.00000 0.00000
  2447 0.00000 0.00000 0.00000
  2448 0.00000 0.00000 0.00000
  2449 0.00000 0.00000 0.00000
  2450 0.00000 0.00000 0.00000
  2451 0.00000 0.00000 0.00000
  2452 0.00000 0.00000 0.00000
  2453 0.00000 0.00000 0.00000
  2454 0.00000 0.00000 0.00000
  2455 0.00000 0.00000 0.00000
  2456 0.00000 0.00000 0.00000
  2457 0.00000 0.00000 0.00000
  2458 0.00000 0.00000 0.00000
  2459 0.00000 0.00000 0.00000
  2460 0.00000 0.00000 0.00000
  2461 0.00000 0.00000 0.00000
  2462 0.00000 0.00000 0.00000
  2463 0.00000 0.00000 0.00000
  2464 0.00000 0.00000 0.00000
  2465 0.00000 0.00000 0.00000
  2466 0.00000 0.00000 0.00000
  2467 0.00000 0.00000 0.00000
  2468 0.00000 0.00000 0.00000
  2469 0.00000 0.00000 0.00000
  2470 0.00000 0.00000 0.00000
  2471 0.00000 0.00000 0.00000
  2472 0.00000 0.00000 0.00000
  2473 0.00000 0.00000 0.00000
  2474 0.00000 0.00000 0.00000
  2475 0.00000 0.00000 0.00000
  2476 0.00000 0.00000 0.00000
  2477 0.00000 0.00000 0.00000
  2478 0.00000 0.00000 0.00000
  2479 0.00000 0.00000 0.00000
  2480 0.00000 0.00000 0.00000
  2481 0.00000 0.00000 0.00000
  2482 0.00000 0.00000 0.00000
  2483 0.00000 0.00000 0.00000
  2484 0.00000 0.00000 0.00000
  2485 0.00000 0.00000 0.00000
  2486 0.00000 0.00000 0.00000
  2487 0.00000 0.00000 0.00000
  2488 0.00000 0.00000 0.00000
  2489 0.00000 0.00000 0.00000
  2490 0.00000 0.00000 0.00000
  2491 0.00000 0.00000 0.00000
  2492 0.00000 0.00000 0.00000
  2493 0.00000 0.00000 0.00000
  2494 0.00000 0.00000 0.00000
  2495 0.00000 0.00000 0.00000
  2496 0.00000 0.00000 0.00000
  2497 0.00000 0.00000 0.00000
  2498 0.00000 0.00000 0.00000
  2499 0.00000 0.00000 0.00000
  2500 0.00000 0.00000 0.00000
  2501 0.00000 0.00000 0.00000
  2502 0.00000 0.00000 0.00000
  2503 0.00000 0.00000 0.00000
  2504 0.00000 0.00000 0.00000
  2505 0.00000 0.00000 0.00000
  2506 0.00000 0.00000 0.00000
  2507 0.00000 0.00000 0.00000
  2508 0.00000 0.00000 0.00000
  2509 0.00000 0.00000 0.00000
  2510 0.00000 0.00000 0.00000
  2511 0.00000 0.00000 0.00000
  2512 0.00000 0.00000 0.00000
  2513 0.00000 0.00000 0.00000
  2514 0.00000 0.00000 0.00000
  2515 0.00000 0.00000 0.00000
  2516 0.00000 0.00000 0.00000
  2517 0.00000 0.00000 0.00000
  2518 0.00000 0.00000 0.00000
  2519 0.00000 0.00000 0.00000
  2520 0.00000 0.00000 0.00000
  2521 0.00000 0.00000 0.00000
  2522 0.00000 0.00000 0.00000
  2523 0.00000 0.00000 0.00000
  2524 0.00000 0.00000 0.00000
  2525 0.00000 0.00000 0.00000
  2526 0.00000 0.00000 0.00000
  2527 0.00000 0.00000 0.00000
  2528 0.00000 0.00000 0.00000
  2529 0.00000 0.00000 0.00000
  2530 0.00000 0.00000 0.00000
  2531 0.00000 0.00000 0.00000
  2532 0.00000 0.00000 0.00000
  2533 0.00000 0.00000 0.00000
  2534 0.00000 0.00000 0.00000
  2535 0.00000 0.00000 0.00000
  2536 0.00000 0.00000 0.00000
  2537 0.00000 0.00000 0.00000
  2538 0.00000 0.00000 0.00000
  2539 0.00000 0.00000 0.00000
  2540 0.00000 0.00000 0.00000
  2541 0.00000 0.00000 0.00000
  2542 0.00000 0.00000 0.00000
  2543 0.00000 0.00000 0.00000
  2544 0.00000 0.00000 0.00000
  2545 0.00000 0.00000 0.00000
  2546 0.00000 0.00000 0.00000
  2547 0.00000 0.00000 0.00000
  2548 0.00000 0.00000 0.00000
  2549 0.00000 0.00000 0.00000
  2550 0.00000 0.00000 0.00000
  2551 0.00000 0.00000 0.00000
  2552 0.00000 0.00000 0.00000
  2553 0.00000 0.00000 0.00000
  2554 0.00000 0.00000 0.00000
  2555 0.00000 0.00000 0.00000
  2556 0.00000 0.00000 0.00000
  2557 0.00000 0.00000 0.00000
  2558 0.00000 0.00000 0.00000
  2559 0.00000 0.00000 0.00000
  2560 0.00000 0.00000 0.00000
  2561 0.00000 0.00000 0.00000
  2562 0.00000 0.00000 0.00000
  2563 0.00000 0.00000 0.00000
  2564 0.00000 0.00000 0.00000
  2565 0.00000 0.00000 0.00000
  2566 0.00000 0.00000 0.00000
  2567 0.00000 0.00000 0.00000
  2568 0.00000 0.00000 0.00000
  2569 0.00000 0.00000 0.00000
  2570 0.00000 0.00000 0.00000
  2571 0.00000 0.00000 0.00000
  2572 0.00000 0.00000 0.00000
  2573 0.00000 0.00000 0.00000
  2574 0.00000 0.00000 0.00000
  2575 0.00000 0.00000 0.00000
  2576 0.00000 0.00000 0.00000
  2577 0.00000 0.00000 0.00000
  2578 0.00000 0.00000 0.00000
  2579 0.00000 0.00000 0.00000
  2580 0.00000 0.00000 0.00000
  2581 0.00000 0.00000 0.00000
  2582 0.00000 0.00000 0.00000
  2583 0.00000 0.00000 0.00000
  2584 0.00000 0.00000 0.00000
  2585 0.00000 0.00000 0.00000
  2586 0.00000 0.00000 0.00000
  2587 0.00000 0.00000 0.00000
  2588 0.00000 0.00000 0.00000
  2589 0.00000 0.00000 0.00000
  2590 0.00000 0.00000 0.00000
  2591 0.00000 0.00000 0.00000
  2592 0.00000 0.00000 0.00000
  2593 0.00000 0.00000 0.00000
  2594 0.00000 0.00000 0.00000
  2595 0.00000 0.00000 0.00000
  2596 0.00000 0.00000 0.00000
  2597 0.00000 0.00000 0.00000
  2598 0.00000 0.00000 0.00000
  2599 0.00000 0.00000 0.00000
  2600 0.00000 0.00000 0.00000
  2601 0.00000 0.00000 0.00000
  2602 0.00000 0.00000 0.00000
  2603 0.00000 0.00000 0.00000
  2604 0.00000 0.00000 0.00000
  2605 0.00000 0.00000 0.00000
  2606 0.00000 0.00000 0.00000
  2607 0.00000 0.00000 0.00000
  2608 0.00000 0.00000 0.00000
  2609 0.00000 0.00000 0.00000
  2610 0.00000 0.00000 0.00000
  2611 0.00000 0.00000 0.00000
  2612 0.00000 0.00000 0.00000
  2613 0.00000 0.00000 0.00000
  2614 0.00000 0.00000 0.00000
  2615 0.00000 0.00000 0.00000
  2616 0.00000 0.00000 0.00000
  2617 0.00000 0.00000 0.00000
  2618 0.00000 0.00000 0.00000
  2619 0.00000 0.00000 0.00000
  2620 0.00000 0.00000 0.00000
  2621 0.00000 0.00000 0.00000
  2622 0.00000 0.00000 0.00000
  2623 0.00000 0.00000 0.00000
  2624 0.00000 0.00000 0.00000
  2625 0.00000 0.00000 0.00000
  2626 0.00000 0.00000 0.00000
  2627 0.00000 0.00000 0.00000
  2628 0.00000 0.00000 0.00000
  2629 0.00000 0.00000 0.00000
  2630 0.00000 0.00000 0.00000
  2631 0.00000 0.00000 0.00000
  2632 0.00000 0.00000 0.00000
  2633 0.00000 0.00000 0.00000
  2634 0.00000 0.00000 0.00000
  2635 0.00000 0.00000 0.00000
  2636 0.00000 0.00000 0.00000
  2637 0.00000 0.00000 0.00000
  2638 0.00000 0.00000 0.00000
  2639 0.00000 0.00000 0.00000
  2640 0.00000 0.00000 0.00000
  2641 0.00000 0.00000 0.00000
  2642 0.00000 0.00000 0.00000
  2643 0.00000 0.00000 0.00000
  2644 0.00000 0.00000 0.00000
  2645 0.00000 0.00000 0.00000
  2646 0.00000 0.00000 0.00000
  2647 0.00000 0.00000 0.00000
  2648 0.00000 0.00000 0.00000
  2649 0.00000 0.00000 0.00000
  2650 0.00000 0.00000 0.00000
  2651 0.00000 0.00000 0.00000
  2652 0.00000 0.00000 0.00000
  2653 0.00000 0.00000 0.00000
  2654 0.00000 0.00000 0.00000
  2655 0.00000 0.00000 0.00000
  2656 0.00000 0.00000 0.00000
  2657 0.00000 0.00000 0.00000
  2658 0.00000 0.00000 0.00000
  2659 0.00000 0.00000 0.00000
  2660 0.00000 0.00000 0.00000
  2661 0.00000 0.00000 0.00000
  2662 0.00000 0.00000 0.00000
  2663 0.00000 0.00000 0.00000
  2664 0.00000 0.00000 0.00000
  2665 0.00000 0.00000 0.00000
  2666 0.00000 0.00000 0.00000
  2667 0.00000 0.00000 0.00000
  2668 0.00000 0.00000 0.00000
  2669 0.00000 0.00000 0.00000
  2670 0.00000 0.00000 0.00000
  2671 0.00000 0.00000 0.00000
  2672 0.00000 0.00000 0.00000
  2673 0.00000 0.00000 0.00000
  2674 0.00000 0.00000 0.00000
  2675 0.00000 0.00000 0.00000
  2676 0.00000 0.00000 0.00000
  2677 0.00000 0.00000 0.00000
  2678 0.00000 0.00000 0.00000
  2679 0.00000 0.00000 0.00000
  2680 0.00000 0.00000 0.00000
  2681 0.00000 0.00000 0.00000
  2682 0.00000 0.00000 0.00000
  2683 0.00000 0.00000 0.00000
  2684 0.00000 0.00000 0.00000
  2685 0.00000 0.00000 0.00000
  2686 0.00000 0.00000 0.00000
  2687 0.00000 0.00000 0.00000
  2688 0.00000 0.00000 0.00000
  2689 0.00000 0.00000 0.00000
  2690 0.00000 0.00000 0.00000
  2691 0.00000 0.00000 0.00000
  2692 0.00000 0.00000 0.00000
  2693 0.00000 0.00000 0.00000
  2694 0.00000 0.00000 0.00000
  2695 0.00000 0.00000 0.00000
  2696 0.00000 0.00000 0.00000
  2697 0.00000 0.00000 0.00000
  2698 0.00000 0.00000 0.00000
  2699 0.00000 0.00000 0.00000
  2700 0.00000 0.00000 0.00000
  2701 0.00000 0.00000 0.00000
  2702 0.00000 0.00000 0.00000
  2703 0.00000 0.00000 0.00000
  2704 0.00000 0.00000 0.00000
  2705 0.00000 0.00000 0.00000
  2706 0.00000 0.00000 0.00000
  2707 0.00000 0.00000 0.00000
  2708 0.00000 0.00000 0.00000
  2709 0.00000 0.00000 0.00000
  2710 0.00000 0.00000 0.00000
  2711 0.00000 0.00000 0.00000
  2712 0.00000 0.00000 0.00000
  2713 0.00000 0.00000 0.00000
  2714 0.00000 0.00000 0.00000
  2715 0.00000 0.00000 0.00000
  2716 0.00000 0.00000 0.00000
  2717 0.00000 0.00000 0.00000
  2718 0.00000 0.00000 0.00000
  2719 0.00000 0.00000 0.00000
  2720 0.00000 0.00000 0.00000
  2721 0.00000 0.00000 0.00000
  2722 0.00000 0.00000 0.00000
  2723 0.00000 0.00000 0.00000
  2724 0.00000 0.00000 0.00000
  2725 0.00000 0.00000 0.00000
  2726 0.00000 0.00000 0.00000
  2727 0.00000 0.00000 0.00000
  2728 0.00000 0.00000 0.00000
  2729 0.00000 0.00000 0.00000
  2730 0.00000 0.00000 0.00000
  2731 0.00000 0.00000 0.00000
  2732 0.00000 0.00000 0.00000
  2733 0.00000 0.00000 0.00000
  2734 0.00000 0.00000 0.00000
  2735 0.00000 0.00000 0.00000
  2736 0.00000 0.00000 0.00000
  2737 0.00000 0.00000 0.00000
  2738 0.00000 0.00000 0.00000
  2739 0.00000 0.00000 0.00000
  2740 0.00000 0.00000 0.00000
  2741 0.00000 0.00000 0.00000
  2742 0.00000 0.00000 0.00000
  2743 0.00000 0.00000 0.00000
  2744 0.00000 0.00000 0.00000
  2745 0.00000 0.00000 0.00000
  2746 0.00000 0.00000 0.00000
  2747 0.00000 0.00000 0.00000
  2748 0.00000 0.00000 0.00000
  2749 0.00000 0.00000 0.00000
  2750 0.00000 0.00000 0.00000
  2751 0.00000 0.00000 0.00000
  2752 0.00000 0.00000 0.00000
  2753 0.00000 0.00000 0.00000
  2754 0.00000 0.00000 0.00000
  2755 0.00000 0.00000 0.00000
  2756 0.00000 0.00000 0.00000
  2757 0.00000 0.00000 0.00000
  2758 0.00000 0.00000 0.00000
  2759 0.00000 0.00000 0.00000
  2760 0.00000 0.00000 0.00000
  2761 0.00000 0.00000 0.00000
  2762 0.00000 0.00000 0.00000
  2763 0.00000 0.00000 0.00000
  2764 0.00000 0.00000 0.00000
  2765 0.00000 0.00000 0.00000
  2766 0.00000 0.00000 0.00000
  2767 0.00000 0.00000 0.00000
  2768 0.00000 0.00000 0.00000
  2769 0.00000 0.00000 0.00000
  2770 0.00000 0.00000 0.00000
  2771 0.00000 0.00000 0.00000
  2772 0.00000 0.00000 0.00000
  2773 0.00000 0.00000 0.00000
  2774 0.00000 0.00000 0.00000
  2775 0.00000 0.00000 0.00000
  2776 0.00000 0.00000 0.00000
  2777 0.00000 0.00000 0.00000
  2778 0.00000 0.00000 0.00000
  2779 0.00000 0.00000 0.00000
  2780 0.00000 0.00000 0.00000
  2781 0.00000 0.00000 0.00000
  2782 0.00000 0.00000 0.00000
  2783 0.00000 0.00000 0.00000
  2784 0.00000 0.00000 0.00000
  2785 0.00000 0.00000 0.00000
  2786 0.00000 0.00000 0.00000
  2787 0.00000 0.00000 0.00000
  2788 0.00000 0.00000 0.00000
  2789 0.00000 0.00000 0.00000
  2790 0.00000 0.00000 0.00000
  2791 0.00000 0.00000 0.00000
  2792 0.00000 0.00000 0.00000
  2793 0.00000 0.00000 0.00000
  2794 0.00000 0.00000 0.00000
  2795 0.00000 0.00000 0.00000
  2796 0.00000 0.00000 0.00000
  2797 0.00000 0.00000 0.00000
  2798 0.00000 0.00000 0.00000
  2799 0.00000 0.00000 0.00000
  2800 0.00000 0.00000 0.00000
  2801 0.00000 0.00000 0.00000
  2802 0.00000 0.00000 0.00000
  2803 0.00000 0.00000 0.00000
  2804 0.00000 0.00000 0.00000
  2805 0.00000 0.00000 0.00000
  2806 0.00000 0.00000 0.00000
  2807 0.00000 0.00000 0.00000
  2808 0.00000 0.00000 0.00000
  2809 0.00000 0.00000 0.00000
  2810 0.00000 0.00000 0.00000
  2811 0.00000 0.00000 0.00000
  2812 0.00000 0.00000 0.00000
  2813 0.00000 0.00000 0.00000
  2814 0.00000 0.00000 0.00000
  2815 0.00000 0.00000 0.00000
  2816 0.00000 0.00000 0.00000
  2817 0.00000 0.00000 0.00000
  2818 0.00000 0.00000 0.00000
  2819 0.00000 0.00000 0.00000
  2820 0.00000 0.00000 0.00000
  2821 0.00000 0.00000 0.00000
  2822 0.00000 0.00000 0.00000
  2823 0.00000 0.00000 0.00000
  2824 0.00000 0.00000 0.00000
  2825 0.00000 0.00000 0.00000
  2826 0.00000 0.00000 0.00000
  2827 0.00000 0.00000 0.00000
  2828 0.00000 0.00000 0.00000
  2829 0.00000 0.00000 0.00000
  2830 0.00000 0.00000 0.00000
  2831 0.00000 0.00000 0.00000
  2832 0.00000 0.00000 0.00000
  2833 0.00000 0.00000 0.00000
  2834 0.00000 0.00000 0.00000
  2835 0.00000 0.00000 0.00000
  2836 0.00000 0.00000 0.00000
  2837 0.00000 0.00000 0.00000
  2838 0.00000 0.00000 0.00000
  2839 0.00000 0.00000 0.00000
  2840 0.00000 0.00000 0.00000
  2841 0.00000 0.00000 0.00000
  2842 0.00000 0.00000 0.00000
  2843 0.00000 0.00000 0.00000
  2844 0.00000 0.00000 0.00000
  2845 0.00000 0.00000 0.00000
  2846 0.00000 0.00000 0.00000
  2847 0.00000 0.00000 0.00000
  2848 0.00000 0.00000 0.00000
  2849 0.00000 0.00000 0.00000
  2850 0.00000 0.00000 0.00000
  2851 0.00000 0.00000 0.00000
  2852 0.00000 0.00000 0.00000
  2853 0.00000 0.00000 0.00000
  2854 0.00000 0.00000 0.00000
  2855 0.00000 0.00000 0.00000
  2856 0.00000 0.00000 0.00000
  2857 0.00000 0.00000 0.00000
  2858 0.00000 0.00000 0.00000
  2859 0.00000 0.00000 0.00000
  2860 0.00000 0.00000 0.00000
  2861 0.00000 0.00000 0.00000
  2862 0.00000 0.00000 0.00000
  2863 0.00000 0.00000 0.00000
  2864 0.00000 0.00000 0.00000
  2865 0.00000 0.00000 0.00000
  2866 0.00000 0.00000 0.00000
  2867 0.00000 0.00000 0.00000
  2868 0.00000 0.00000 0.00000
  2869 0.00000 0.00000 0.00000
  2870 0.00000 0.00000 0.00000
  2871 0.00000 0.00000 0.00000
  2872 0.00000 0.00000 0.00000
  2873 0.00000 0.00000 0.00000
  2874 0.00000 0.00000 0.00000
  2875 0.00000 0.00000 0.00000
  2876 0.00000 0.00000 0.00000
  2877 0.00000 0.00000 0.00000
  2878 0.00000 0.00000 0.00000
  2879 0.00000 0.00000 0.00000
  2880 0.00000 0.00000 0.00000
  2881 0.00000 0.00000 0.00000
  2882 0.00000 0.00000 0.00000
  2883 0.00000 0.00000 0.00000
  2884 0.00000 0.00000 0.00000
  2885 0.00000 0.00000 0.00000
  2886 0.00000 0.00000 0.00000
  2887 0.00000 0.00000 0.00000
  2888 0.00000 0.00000 0.00000
  2889 0.00000 0.00000 0.00000
  2890 0.00000 0.00000 0.00000
  2891 0.00000 0.00000 0.00000
  2892 0.00000 0.00000 0.00000
  2893 0.00000 0.00000 0.00000
  2894 0.00000 0.00000 0.00000
  2895 0.00000 0.00000 0.00000
  2896 0.00000 0.00000 0.00000
  2897 0.00000 0.00000 0.00000
  2898 0.00000 0.00000 0.00000
  2899 0.00000 0.00000 0.00000
  2900 0.00000 0.00000 0.00000
  2901 0.00000 0.00000 0.00000
  2902 0.00000 0.00000 0.00000
  2903 0.00000 0.00000 0.00000
  2904 0.00000 0.00000 0.00000
  2905 0.00000 0.00000 0.00000
  2906 0.00000 0.00000 0.00000
  2907 0.00000 0.00000 0.00000
  2908 0.00000 0.00000 0.00000
  2909 0.00000 0.00000 0.00000
  2910 0.00000 0.00000 0.00000
  2911 0.00000 0.00000 0.00000
  2912 0.00000 0.00000 0.00000
  2913 0.00000 0.00000 0.00000
  2914 0.00000 0.00000 0.00000
  2915 0.00000 0.00000 0.00000
  2916 0.00000 0.00000 0.00000
  2917 0.00000 0.00000 0.00000
  2918 0.00000 0.00000 0.00000
  2919 0.00000 0.00000 0.00000
  2920 0.00000 0.00000 0.00000
  2921 0.00000 0.00000 0.00000
  2922 0.00000 0.00000 0.00000
  2923 0.00000 0.00000 0.00000
  2924 0.00000 0.00000 0.00000
  2925 0.00000 0.00000 0.00000
  2926 0.00000 0.00000 0.00000
  2927 0.00000 0.00000 0.00000
  2928 0.00000 0.00000 0.00000
  2929 0.00000 0.00000 0.00000
  2930 0.00000 0.00000 0.00000
  2931 0.00000 0.00000 0.00000
  2932 0.00000 0.00000 0.00000
  2933 0.00000 0.00000 0.00000
  2934 0.00000 0.00000 0.00000
  2935 0.00000 0.00000 0.00000
  2936 0.00000 0.00000 0.00000
  2937 0.00000 0.00000 0.00000
  2938 0.00000 0.00000 0.00000
  2939 0.00000 0.00000 0.00000
  2940 0.00000 0.00000 0.00000
  2941 0.00000 0.00000 0.00000
  2942 0.00000 0.00000 0.00000
  2943 0.00000 0.00000 0.00000
  2944 0.00000 0.00000 0.00000
  2945 0.00000 0.00000 0.00000
  2946 0.00000 0.00000 0.00000
  2947 0.00000 0.00000 0.00000
  2948 0.00000 0.00000 0.00000
  2949 0.00000 0.00000 0.00000
  2950 0.00000 0.00000 0.00000
  2951 0.00000 0.00000 0.00000
  2952 0.00000 0.00000 0.00000
  2953 0.00000 0.00000 0.00000
  2954 0.00000 0.00000 0.00000
  2955 0.00000 0.00000 0.00000
  2956 0.00000 0.00000 0.00000
  2957 0.00000 0.00000 0.00000
  2958 0.00000 0.00000 0.00000
  2959 0.00000 0.00000 0.00000
  2960 0.00000 0.00000 0.00000
  2961 0.00000 0.00000 0.00000
  2962 0.00000 0.00000 0.00000
  2963 0.00000 0.00000 0.00000
  2964 0.00000 0.00000 0.00000
  2965 0.00000 0.00000 0.00000
  2966 0.00000 0.00000 0.00000
  2967 0.00000 0.00000 0.00000
  2968 0.00000 0.00000 0.00000
  2969 0.00000 0.00000 0.00000
  2970 0.00000 0.00000 0.00000
  2971 0.00000 0.00000 0.00000
  2972 0.00000 0.00000 0.00000
  2973 0.00000 0.00000 0.00000
  2974 0.00000 0.00000 0.00000
  2975 0.00000 0.00000 0.00000
  2976 0.00000 0.00000 0.00000
  2977 0.00000 0.00000 0.00000
  2978 0.00000 0.00000 0.00000
  2979 0.00000 0.00000 0.00000
  2980 0.00000 0.00000 0.00000
  2981 0.00000 0.00000 0.00000
  2982 0.00000 0.00000 0.00000
  2983 0.00000 0.00000 0.00000
  2984 0.00000 0.00000 0.00000
  2985 0.00000 0.00000 0.00000
  2986 0.00000 0.00000 0.00000
  2987 0.00000 0.00000 0.00000
  2988 0.00000 0.00000 0.00000
  2989 0.00000 0.00000 0.00000
  2990 0.00000 0.00000 0.00000
  2991 0.00000 0.00000 0.00000
  2992 0.00000 0.00000 0.00000
  2993 0.00000 0.00000 0.00000
  2994 0.00000 0.00000 0.00000
  2995 0.00000 0.00000 0.00000
  2996 0.00000 0.00000 0.00000
  2997 0.00000 0.00000 0.00000
  2998 0.00000 0.00000 0.00000
  2999 0.00000 0.00000 0.00000
  3000 0.00000 0.00000 0.00000
  3001 0.00000 0.00000 0.00000
  3002 0.00000 0.00000 0.00000
  3003 0.00000 0.00000 0.00000
  3004 0.00000 0.00000 0.00000
  3005 0.00000 0.00000 0.00000
  3006 0.00000 0.00000 0.00000
  3007 0.00000 0.00000 0.00000
  3008 0.00000 0.00000 0.00000
  3009 0.00000 0.00000 0.00000
  3010 0.00000 0.00000 0.00000
  3011 0.00000 0.00000 0.00000
  3012 0.00000 0.00000 0.00000
  3013 0.00000 0.00000 0.00000
  3014 0.00000 0.00000 0.00000
  3015 0.00000 0.00000 0.00000
  3016 0.00000 0.00000 0.00000
  3017 0.00000 0.00000 0.00000
  3018 0.00000 0.00000 0.00000
  3019 0.00000 0.00000 0.00000
  3020 0.00000 0.00000 0.00000
  3021 0.00000 0.00000 0.00000
  3022 0.00000 0.00000 0.00000
  3023 0.00000 0.00000 0.00000
  3024 0.00000 0.00000 0.00000
  3025 0.00000 0.00000 0.00000
  3026 0.00000 0.00000 0.00000
  3027 0.00000 0.00000 0.00000
  3028 0.00000 0.00000 0.00000
  3029 0.00000 0.00000 0.00000
  3030 0.00000 0.00000 0.00000
  3031 0.00000 0.00000 0.00000
  3032 0.00000 0.00000 0.00000
  3033 0.00000 0.00000 0.00000
  3034 0.00000 0.00000 0.00000
  3035 0.00000 0.00000 0.00000
  3036 0.00000 0.00000 0.00000
  3037 0.00000 0.00000 0.00000
  3038 0.00000 0.00000 0.00000
  3039 0.00000 0.00000 0.00000
  3040 0.00000 0.00000 0.00000
  3041 0.00000 0.00000 0.00000
  3042 0.00000 0.00000 0.00000
  3043 0.00000 0.00000 0.00000
  3044 0.00000 0.00000 0.00000
  3045 0.00000 0.00000 0.00000
  3046 0.00000 0.00000 0.00000
  3047 0.00000 0.00000 0.00000
  3048 0.00000 0.00000 0.00000
  3049 0.00000 0.00000 0.00000
  3050 0.00000 0.00000 0.00000
  3051 0.00000 0.00000 0.00000
  3052 0.00000 0.00000 0.00000
  3053 0.00000 0.00000 0.00000
  3054 0.00000 0.00000 0.00000
  3055 0.00000 0.00000 0.00000
  3056 0.00000 0.00000 0.00000
  3057 0.00000 0.00000 0.00000
  3058 0.00000 0.00000 0.00000
  3059 0.00000 0.00000 0.00000
  3060 0.00000 0.00000 0.00000
  3061 0.00000 0.00000 0.00000
  3062 0.00000 0.00000 0.00000
  3063 0.00000 0.00000 0.00000
  3064 0.00000 0.00000 0.00000
  3065 0.00000 0.00000 0.00000
  3066 0.00000 0.00000 0.00000
  3067 0.00000 0.00000 0.00000
  3068 0.00000 0.00000 0.00000
  3069 0.00000 0.00000 0.00000
  3070 0.00000 0.00000 0.00000
  3071 0.00000 0.00000 0.00000
  3072 0.00000 0.00000 0.00000
  3073 0.00000 0.00000 0.00000
  3074 0.00000 0.00000 0.00000
  3075 0.00000 0.00000 0.00000
  3076 0.00000 0.00000 0.00000
  3077 0.00000 0.00000 0.00000
  3078 0.00000 0.00000 0.00000
  3079 0.00000 0.00000 0.00000
  3080 0.00000 0.00000 0.00000
  3081 0.00000 0.00000 0.00000
  3082 0.00000 0.00000 0.00000
  3083 0.00000 0.00000 0.00000
  3084 0.00000 0.00000 0.00000
  3085 0.00000 0.00000 0.00000
  3086 0.00000 0.00000 0.00000
  3087 0.00000 0.00000 0.00000
  3088 0.00000 0.00000 0.00000
  3089 0.00000 0.00000 0.00000
  3090 0.00000 0.00000 0.00000
  3091 0.00000 0.00000 0.00000
  3092 0.00000 0.00000 0.00000
  3093 0.00000 0.00000 0.00000
  3094 0.00000 0.00000 0.00000
  3095 0.00000 0.00000 0.00000
  3096 0.00000 0.00000 0.00000
  3097 0.00000 0.00000 0.00000
  3098 0.00000 0.00000 0.00000
  3099 0.00000 0.00000 0.00000
  3100 0.00000 0.00000 0.00000
  3101 0.00000 0.00000 0.00000
  3102 0.00000 0.00000 0.00000
  3103 0.00000 0.00000 0.00000
  3104 0.00000 0.00000 0.00000
  3105 0.00000 0.00000 0.00000
  3106 0.00000 0.00000 0.00000
  3107 0.00000 0.00000 0.00000
  3108 0.00000 0.00000 0.00000
  3109 0.00000 0.00000 0.00000
  3110 0.00000 0.00000 0.00000
  3111 0.00000 0.00000 0.00000
  3112 0.00000 0.00000 0.00000
  3113 0.00000 0.00000 0.00000
  3114 0.00000 0.00000 0.00000
  3115 0.00000 0.00000 0.00000
  3116 0.00000 0.00000 0.00000
  3117 0.00000 0.00000 0.00000
  3118 0.00000 0.00000 0.00000
  3119 0.00000 0.00000 0.00000
  3120 0.00000 0.00000 0.00000
  3121 0.00000 0.00000 0.00000
  3122 0.00000 0.00000 0.00000
  3123 0.00000 0.00000 0.00000
  3124 0.00000 0.00000 0.00000
  3125 0.00000 0.00000 0.00000
  3126 0.00000 0.00000 0.00000
  3127 0.00000 0.00000 0.00000
  3128 0.00000 0.00000 0.00000
  3129 0.00000 0.00000 0.00000
  3130 0.00000 0.00000 0.00000
  3131 0.00000 0.00000 0.00000
  3132 0.00000 0.00000 0.00000
  3133 0.00000 0.00000 0.00000
  3134 0.00000 0.00000 0.00000
  3135 0.00000 0.00000 0.00000
  3136 0.00000 0.00000 0.00000
  3137 0.00000 0.00000 0.00000
  3138 0.00000 0.00000 0.00000
  3139 0.00000 0.00000 0.00000
  3140 0.00000 0.00000 0.00000
  3141 0.00000 0.00000 0.00000
  3142 0.00000 0.00000 0.00000
  3143 0.00000 0.00000 0.00000
  3144 0.00000 0.00000 0.00000
  3145 0.00000 0.00000 0.00000
  3146 0.00000 0.00000 0.00000
  3147 0.00000 0.00000 0.00000
  3148 0.00000 0.00000 0.00000
  3149 0.00000 0.00000 0.00000
  3150 0.00000 0.00000 0.00000
  3151 0.00000 0.00000 0.00000
  3152 0.00000 0.00000 0.00000
  3153 0.00000 0.00000 0.00000
  3154 0.00000 0.00000 0.00000
  3155 0.00000 0.00000 0.00000
  3156 0.00000 0.00000 0.00000
  3157 0.00000 0.00000 0.00000
  3158 0.00000 0.00000 0.00000
  3159 0.00000 0.00000 0.00000
  3160 0.00000 0.00000 0.00000
  3161 0.00000 0.00000 0.00000
  3162 0.00000 0.00000 0.00000
  3163 0.00000 0.00000 0.00000
  3164 0.00000 0.00000 0.00000
  3165 0.00000 0.00000 0.00000
  3166 0.00000 0.00000 0.00000
  3167 0.00000 0.00000 0.00000
  3168 0.00000 0.00000 0.00000
  3169 0.00000 0.00000 0.00000
  3170 0.00000 0.00000 0.00000
  3171 0.00000 0.00000 0.00000
  3172 0.00000 0.00000 0.00000
  3173 0.00000 0.00000 0.00000
  3174 0.00000 0.00000 0.00000
  3175 0.00000 0.00000 0.00000
  3176 0.00000 0.00000 0.00000
  3177 0.00000 0.00000 0.00000
  3178 0.00000 0.00000 0.00000
  3179 0.00000 0.00000 0.00000
  3180 0.00000 0.00000 0.00000
  3181 0.00000 0.00000 0.00000
  3182 0.00000 0.00000 0.00000
  3183 0.00000 0.00000 0.00000
  3184 0.00000 0.00000 0.00000
  3185 0.00000 0.00000 0.00000
  3186 0.00000 0.00000 0.00000
  3187 0.00000 0.00000 0.00000
  3188 0.00000 0.00000 0.00000
  3189 0.00000 0.00000 0.00000
  3190 0.00000 0.00000 0.00000
  3191 0.00000 0.00000 0.00000
  3192 0.00000 0.00000 0.00000
  3193 0.00000 0.00000 0.00000
  3194 0.00000 0.00000 0.00000
  3195 0.00000 0.00000 0.00000
  3196 0.00000 0.00000 0.00000
  3197 0.00000 0.00000 0.00000
  3198 0.00000 0.00000 0.00000
  3199 0.00000 0.00000 0.00000
  3200 0.00000 0.00000 0.00000
  3201 0.00000 0.00000 0.00000
  3202 0.00000 0.00000 0.00000
  3203 0.00000 0.00000 0.00000
  3204 0.00000 0.00000 0.00000
  3205 0.00000 0.00000 0.00000
  3206 0.00000 0.00000 0.00000
  3207 0.00000 0.00000 0.00000
  3208 0.00000 0.00000 0.00000
  3209 0.00000 0.00000 0.00000
  3210 0.00000 0.00000 0.00000
  3211 0.00000 0.00000 0.00000
  3212 0.00000 0.00000 0.00000
  3213 0.00000 0.00000 0.00000
  3214 0.00000 0.00000 0.00000
  3215 0.00000 0.00000 0.00000
  3216 0.00000 0.00000 0.00000
  3217 0.00000 0.00000 0.00000
  3218 0.00000 0.00000 0.00000
  3219 0.00000 0.00000 0.00000
  3220 0.00000 0.00000 0.00000
  3221 0.00000 0.00000 0.00000
  3222 0.00000 0.00000 0.00000
  3223 0.00000 0.00000 0.00000
  3224 0.00000 0.00000 0.00000
  3225 0.00000 0.00000 0.00000
  3226 0.00000 0.00000 0.00000
  3227 0.00000 0.00000 0.00000
  3228 0.00000 0.00000 0.00000
  3229 0.00000 0.00000 0.00000
  3230 0.00000 0.00000 0.00000
  3231 0.00000 0.00000 0.00000
  3232 0.00000 0.00000 0.00000
  3233 0.00000 0.00000 0.00000
  3234 0.00000 0.00000 0.00000
  3235 0.00000 0.00000 0.00000
  3236 0.00000 0.00000 0.00000
  3237 0.00000 0.00000 0.00000
  3238 0.00000 0.00000 0.00000
  3239 0.00000 0.00000 0.00000
  3240 0.00000 0.00000 0.00000
  3241 0.00000 0.00000 0.00000
  3242 0.00000 0.00000 0.00000
  3243 0.00000 0.00000 0.00000
  3244 0.00000 0.00000 0.00000
  3245 0.00000 0.00000 0.00000
  3246 0.00000 0.00000 0.00000
  3247 0.00000 0.00000 0.00000
  3248 0.00000 0.00000 0.00000
  3249 0.00000 0.00000 0.00000
  3250 0.00000 0.00000 0.00000
  3251 0.00000 0.00000 0.00000
  3252 0.00000 0.00000 0.00000
  3253 0.00000 0.00000 0.00000
  3254 0.00000 0.00000 0.00000
  3255 0.00000 0.00000 0.00000
  3256 0.00000 0.00000 0.00000
  3257 0.00000 0.00000 0.00000
  3258 0.00000 0.00000 0.00000
  3259 0.00000 0.00000 0.00000
  3260 0.00000 0.00000 0.00000
  3261 0.00000 0.00000 0.00000
  3262 0.00000 0.00000 0.00000
  3263 0.00000 0.00000 0.00000
  3264 0.00000 0.00000 0.00000
  3265 0.00000 0.00000 0.00000
  3266 0.00000 0.00000 0.00000
  3267 0.00000 0.00000 0.00000
  3268 0.00000 0.00000 0.00000
  3269 0.00000 0.00000 0.00000
  3270 0.00000 0.00000 0.00000
  3271 0.00000 0.00000 0.00000
  3272 0.00000 0.00000 0.00000
  3273 0.00000 0.00000 0.00000
  3274 0.00000 0.00000 0.00000
  3275 0.00000 0.00000 0.00000
  3276 0.00000 0.00000 0.00000
  3277 0.00000 0.00000 0.00000
  3278 0.00000 0.00000 0.00000
  3279 0.00000 0.00000 0.00000
  3280 0.00000 0.00000 0.00000
  3281 0.00000 0.00000 0.00000
  3282 0.00000 0.00000 0.00000
  3283 0.00000 0.00000 0.00000
  3284 0.00000 0.00000 0.00000
  3285 0.00000 0.00000 0.00000
  3286 0.00000 0.00000 0.00000
  3287 0.00000 0.00000 0.00000
  3288 0.00000 0.00000 0.00000
  3289 0.00000 0.00000 0.00000
  3290 0.00000 0.00000 0.00000
  3291 0.00000 0.00000 0.00000
  3292 0.00000 0.00000 0.00000
  3293 0.00000 0.00000 0.00000
  3294 0.00000 0.00000 0.00000
  3295 0.00000 0.00000 0.00000
  3296 0.00000 0.00000 0.00000
  3297 0.00000 0.00000 0.00000
  3298 0.00000 0.00000 0.00000
  3299 0.00000 0.00000 0.00000
  3300 0.00000 0.00000 0.00000
  3301 0.00000 0.00000 0.00000
  3302 0.00000 0.00000 0.00000
  3303 0.00000 0.00000 0.00000
  3304 0.00000 0.00000 0.00000
  3305 0.00000 0.00000 0.00000
  3306 0.00000 0.00000 0.00000
  3307 0.00000 0.00000 0.00000
  3308 0.00000 0.00000 0.00000
  3309 0.00000 0.00000 0.00000
  3310 0.00000 0.00000 0.00000
  3311 0.00000 0.00000 0.00000
  3312 0.00000 0.00000 0.00000
  3313 0.00000 0.00000 0.00000
  3314 0.00000 0.00000 0.00000
  3315 0.00000 0.00000 0.00000
  3316 0.00000 0.00000 0.00000
  3317 0.00000 0.00000 0.00000
  3318 0.00000 0.00000 0.00000
  3319 0.00000 0.00000 0.00000
  3320 0.00000 0.00000 0.00000
  3321 0.00000 0.00000 0.00000
  3322 0.00000 0.00000 0.00000
  3323 0.00000 0.00000 0.00000
  3324 0.00000 0.00000 0.00000
  3325 0.00000 0.00000 0.00000
  3326 0.00000 0.00000 0.00000
  3327 0.00000 0.00000 0.00000
  3328 0.00000 0.00000 0.00000
  3329 0.00000 0.00000 0.00000
  3330 0.00000 0.00000 0.00000
  3331 0.00000 0.00000 0.00000
  3332 0.00000 0.00000 0.00000
  3333 0.00000 0.00000 0.00000
  3334 0.00000 0.00000 0.00000
  3335 0.00000 0.00000 0.00000
  3336 0.00000 0.00000 0.00000
  3337 0.00000 0.00000 0.00000
  3338 0.00000 0.00000 0.00000
  3339 0.00000 0.00000 0.00000
  3340 0.00000 0.00000 0.00000
  3341 0.00000 0.00000 0.00000
  3342 0.00000 0.00000 0.00000
  3343 0.00000 0.00000 0.00000
  3344 0.00000 0.00000 0.00000
  3345 0.00000 0.00000 0.00000
  3346 0.00000 0.00000 0.00000
  3347 0.00000 0.00000 0.00000
  3348 0.00000 0.00000 0.00000
  3349 0.00000 0.00000 0.00000
  3350 0.00000 0.00000 0.00000
  3351 0.00000 0.00000 0.00000
  3352 0.00000 0.00000 0.00000
  3353 0.00000 0.00000 0.00000
  3354 0.00000 0.00000 0.00000
  3355 0.00000 0.00000 0.00000
  3356 0.00000 0.00000 0.00000
  3357 0.00000 0.00000 0.00000
  3358 0.00000 0.00000 0.00000
  3359 0.00000 0.00000 0.00000
  3360 0.00000 0.00000 0.00000
  3361 0.00000 0.00000 0.00000
  3362 0.00000 0.00000 0.00000
  3363 0.00000 0.00000 0.00000
  3364 0.00000 0.00000 0.00000
  3365 0.00000 0.00000 0.00000
  3366 0.00000 0.00000 0.00000
  3367 0.00000 0.00000 0.00000
  3368 0.00000 0.00000 0.00000
  3369 0.00000 0.00000 0.00000
  3370 0.00000 0.00000 0.00000
  3371 0.00000 0.00000 0.00000
  3372 0.00000 0.00000 0.00000
  3373 0.00000 0.00000 0.00000
  3374 0.00000 0.00000 0.00000
  3375 0.00000 0.00000 0.00000
  3376 0.00000 0.00000 0.00000
  3377 0.00000 0.00000 0.00000
  3378 0.00000 0.00000 0.00000
  3379 0.00000 0.00000 0.00000
  3380 0.00000 0.00000 0.00000
  3381 0.00000 0.00000 0.00000
  3382 0.00000 0.00000 0.00000
  3383 0.00000 0.00000 0.00000
  3384 0.00000 0.00000 0.00000
  3385 0.00000 0.00000 0.00000
  3386 0.00000 0.00000 0.00000
  3387 0.00000 0.00000 0.00000
  3388 0.00000 0.00000 0.00000
  3389 0.00000 0.00000 0.00000
  3390 0.00000 0.00000 0.00000
  3391 0.00000 0.00000 0.00000
  3392 0.00000 0.00000 0.00000
  3393 0.00000 0.00000 0.00000
  3394 0.00000 0.00000 0.00000
  3395 0.00000 0.00000 0.00000
  3396 0.00000 0.00000 0.00000
  3397 0.00000 0.00000 0.00000
  3398 0.00000 0.00000 0.00000
  3399 0.00000 0.00000 0.00000
  3400 0.00000 0.00000 0.00000
  3401 0.00000 0.00000 0.00000
  3402 0.00000 0.00000 0.00000
  3403 0.00000 0.00000 0.00000
  3404 0.00000 0.00000 0.00000
  3405 0.00000 0.00000 0.00000
  3406 0.00000 0.00000 0.00000
  3407 0.00000 0.00000 0.00000
  3408 0.00000 0.00000 0.00000
  3409 0.00000 0.00000 0.00000
  3410 0.00000 0.00000 0.00000
  3411 0.00000 0.00000 0.00000
  3412 0.00000 0.00000 0.00000
  3413 0.00000 0.00000 0.00000
  3414 0.00000 0.00000 0.00000
  3415 0.00000 0.00000 0.00000
  3416 0.00000 0.00000 0.00000
  3417 0.00000 0.00000 0.00000
  3418 0.00000 0.00000 0.00000
  3419 0.00000 0.00000 0.00000
  3420 0.00000 0.00000 0.00000
  3421 0.00000 0.00000 0.00000
  3422 0.00000 0.00000 0.00000
  3423 0.00000 0.00000 0.00000
  3424 0.00000 0.00000 0.00000
  3425 0.00000 0.00000 0.00000
  3426 0.00000 0.00000 0.00000
  3427 0.00000 0.00000 0.00000
  3428 0.00000 0.00000 0.00000
  3429 0.00000 0.00000 0.00000
  3430 0.00000 0.00000 0.00000
  3431 0.00000 0.00000 0.00000
  3432 0.00000 0.00000 0.00000
  3433 0.00000 0.00000 0.00000
  3434 0.00000 0.00000 0.00000
  3435 0.00000 0.00000 0.00000
  3436 0.00000 0.00000 0.00000
  3437 0.00000 0.00000 0.00000
  3438 0.00000 0.00000 0.00000
  3439 0.00000 0.00000 0.00000
  3440 0.00000 0.00000 0.00000
  3441 0.00000 0.00000 0.00000
  3442 0.00000 0.00000 0.00000
  3443 0.00000 0.00000 0.00000
  3444 0.00000 0.00000 0.00000
  3445 0.00000 0.00000 0.00000
  3446 0.00000 0.00000 0.00000
  3447 0.00000 0.00000 0.00000
  3448 0.00000 0.00000 0.00000
  3449 0.00000 0.00000 0.00000
  3450 0.00000 0.00000 0.00000
  3451 0.00000 0.00000 0.00000
  3452 0.00000 0.00000 0.00000
  3453 0.00000 0.00000 0.00000
  3454 0.00000 0.00000 0.00000
  3455 0.00000 0.00000 0.00000
  3456 0.00000 0.00000 0.00000
  3457 0.00000 0.00000 0.00000
  3458 0.00000 0.00000 0.00000
  3459 0.00000 0.00000 0.00000
  3460 0.00000 0.00000 0.00000
  3461 0.00000 0.00000 0.00000
  3462 0.00000 0.00000 0.00000
  3463 0.00000 0.00000 0.00000
  3464 0.00000 0.00000 0.00000
  3465 0.00000 0.00000 0.00000
  3466 0.00000 0.00000 0.00000
  3467 0.00000 0.00000 0.00000
  3468 0.00000 0.00000 0.00000
  3469 0.00000 0.00000 0.00000
  3470 0.00000 0.00000 0.00000
  3471 0.00000 0.00000 0.00000
  3472 0.00000 0.00000 0.00000
  3473 0.00000 0.00000 0.00000
  3474 0.00000 0.00000 0.00000
  3475 0.00000 0.00000 0.00000
  3476 0.00000 0.00000 0.00000
  3477 0.00000 0.00000 0.00000
  3478 0.00000 0.00000 0.00000
  3479 0.00000 0.00000 0.00000
  3480 0.00000 0.00000 0.00000
  3481 0.00000 0.00000 0.00000
  3482 0.00000 0.00000 0.00000
  3483 0.00000 0.00000 0.00000
  3484 0.00000 0.00000 0.00000
  3485 0.00000 0.00000 0.00000
  3486 0.00000 0.00000 0.00000
  3487 0.00000 0.00000 0.00000
  3488 0.00000 0.00000 0.00000
  3489 0.00000 0.00000 0.00000
  3490 0.00000 0.00000 0.00000
  3491 0.00000 0.00000 0.00000
  3492 0.00000 0.00000 0.00000
  3493 0.00000 0.00000 0.00000
  3494 0.00000 0.00000 0.00000
  3495 0.00000 0.00000 0.00000
  3496 0.00000 0.00000 0.00000
  3497 0.00000 0.00000 0.00000
  3498 0.00000 0.00000 0.00000
  3499 0.00000 0.00000 0.00000
  3500 0.00000 0.00000 0.00000
  3501 0.00000 0.00000 0.00000
  3502 0.00000 0.00000 0.00000
  3503 0.00000 0.00000 0.00000
  3504 0.00000 0.00000 0.00000
  3505 0.00000 0.00000 0.00000
  3506 0.00000 0.00000 0.00000
  3507 0.00000 0.00000 0.00000
  3508 0.00000 0.00000 0.00000
  3509 0.00000 0.00000 0.00000
  3510 0.00000 0.00000 0.00000
  3511 0.00000 0.00000 0.00000
  3512 0.00000 0.00000 0.00000
  3513 0.00000 0.00000 0.00000
  3514 0.00000 0.00000 0.00000
  3515 0.00000 0.00000 0.00000
  3516 0.00000 0.00000 0.00000
  3517 0.00000 0.00000 0.00000
  3518 0.00000 0.00000 0.00000
  3519 0.00000 0.00000 0.00000
  3520 0.00000 0.00000 0.00000
  3521 0.00000 0.00000 0.00000
  3522 0.00000 0.00000 0.00000
  3523 0.00000 0.00000 0.00000
  3524 0.00000 0.00000 0.00000
  3525 0.00000 0.00000 0.00000
  3526 0.00000 0.00000 0.00000
  3527 0.00000 0.00000 0.00000
  3528 0.00000 0.00000 0.00000
  3529 0.00000 0.00000 0.00000
  3530 0.00000 0.00000 0.00000
  3531 0.00000 0.00000 0.00000
  3532 0.00000 0.00000 0.00000
  3533 0.00000 0.00000 0.00000
  3534 0.00000 0.00000 0.00000
  3535 0.00000 0.00000 0.00000
  3536 0.00000 0.00000 0.00000
  3537 0.00000 0.00000 0.00000
  3538 0.00000 0.00000 0.00000
  3539 0.00000 0.00000 0.00000
  3540 0.00000 0.00000 0.00000
  3541 0.00000 0.00000 0.00000
  3542 0.00000 0.00000 0.00000
  3543 0.00000 0.00000 0.00000
  3544 0.00000 0.00000 0.00000
  3545 0.00000 0.00000 0.00000
  3546 0.00000 0.00000 0.00000
  3547 0.00000 0.00000 0.00000
  3548 0.00000 0.00000 0.00000
  3549 0.00000 0.00000 0.00000
  3550 0.00000 0.00000 0.00000
  3551 0.00000 0.00000 0.00000
  3552 0.00000 0.00000 0.00000
  3553 0.00000 0.00000 0.00000
  3554 0.00000 0.00000 0.00000
  3555 0.00000 0.00000 0.00000
  3556 0.00000 0.00000 0.00000
  3557 0.00000 0.00000 0.00000
  3558 0.00000 0.00000 0.00000
  3559 0.00000 0.00000 0.00000
  3560 0.00000 0.00000 0.00000
  3561 0.00000 0.00000 0.00000
  3562 0.00000 0.00000 0.00000
  3563 0.00000 0.00000 0.00000
  3564 0.00000 0.00000 0.00000
  3565 0.00000 0.00000 0.00000
  3566 0.00000 0.00000 0.00000
  3567 0.00000 0.00000 0.00000
  3568 0.00000 0.00000 0.00000
  3569 0.00000 0.00000 0.00000
  3570 0.00000 0.00000 0.00000
  3571 0.00000 0.00000 0.00000
  3572 0.00000 0.00000 0.00000
  3573 0.00000 0.00000 0.00000
  3574 0.00000 0.00000 0.00000
  3575 0.00000 0.00000 0.00000
  3576 0.00000 0.00000 0.00000
  3577 0.00000 0.00000 0.00000
  3578 0.00000 0.00000 0.00000
  3579 0.00000 0.00000 0.00000
  3580 0.00000 0.00000 0.00000
  3581 0.00000 0.00000 0.00000
  3582 0.00000 0.00000 0.00000
  3583 0.00000 0.00000 0.00000
  3584 0.00000 0.00000 0.00000
  3585 0.00000 0.00000 0.00000
  3586 0.00000 0.00000 0.00000
  3587 0.00000 0.00000 0.00000
  3588 0.00000 0.00000 0.00000
  3589 0.00000 0.00000 0.00000
  3590 0.00000 0.00000 0.00000
  3591 0.00000 0.00000 0.00000
  3592 0.00000 0.00000 0.00000
  3593 0.00000 0.00000 0.00000
  3594 0.00000 0.00000 0.00000
  3595 0.00000 0.00000 0.00000
  3596 0.00000 0.00000 0.00000
  3597 0.00000 0.00000 0.00000
  3598 0.00000 0.00000 0.00000
  3599 0.00000 0.00000 0.00000
  3600 0.00000 0.00000 0.00000
  3601 0.00000 0.00000 0.00000
  3602 0.00000 0.00000 0.00000
  3603 0.00000 0.00000 0.00000
  3604 0.00000 0.00000 0.00000
  3605 0.00000 0.00000 0.00000
  3606 0.00000 0.00000 0.00000
  3607 0.00000 0.00000 0.00000
  3608 0.00000 0.00000 0.00000
  3609 0.00000 0.00000 0.00000
  3610 0.00000 0.00000 0.00000
  3611 0.00000 0.00000 0.00000
  3612 0.00000 0.00000 0.00000
  3613 0.00000 0.00000 0.00000
  3614 0.00000 0.00000 0.00000
  3615 0.00000 0.00000 0.00000
  3616 0.00000 0.00000 0.00000
  3617 0.00000 0.00000 0.00000
  3618 0.00000 0.00000 0.00000
  3619 0.00000 0.00000 0.00000
  3620 0.00000 0.00000 0.00000
  3621 0.00000 0.00000 0.00000
  3622 0.00000 0.00000 0.00000
  3623 0.00000 0.00000 0.00000
  3624 0.00000 0.00000 0.00000
  3625 0.00000 0.00000 0.00000
  3626 0.00000 0.00000 0.00000
  3627 0.00000 0.00000 0.00000
  3628 0.00000 0.00000 0.00000
  3629 0.00000 0.00000 0.00000
  3630 0.00000 0.00000 0.00000
  3631 0.00000 0.00000 0.00000
  3632 0.00000 0.00000 0.00000
  3633 0.00000 0.00000 0.00000
  3634 0.00000 0.00000 0.00000
  3635 0.00000 0.00000 0.00000
  3636 0.00000 0.00000 0.00000
  3637 0.00000 0.00000 0.00000
  3638 0.00000 0.00000 0.00000
  3639 0.00000 0.00000 0.00000
  3640 0.00000 0.00000 0.00000
  3641 0.00000 0.00000 0.00000
  3642 0.00000 0.00000 0.00000
  3643 0.00000 0.00000 0.00000
  3644 0.00000 0.00000 0.00000
  3645 0.00000 0.00000 0.00000
  3646 0.00000 0.00000 0.00000
  3647 0.00000 0.00000 0.00000
  3648 0.00000 0.00000 0.00000
  3649 0.00000 0.00000 0.00000
  3650 0.00000 0.00000 0.00000
  3651 0.00000 0.00000 0.00000
  3652 0.00000 0.00000 0.00000
  3653 0.00000 0.00000 0.00000
  3654 0.00000 0.00000 0.00000
  3655 0.00000 0.00000 0.00000
  3656 0.00000 0.00000 0.00000
  3657 0.00000 0.00000 0.00000
  3658 0.00000 0.00000 0.00000
  3659 0.00000 0.00000 0.00000
  3660 0.00000 0.00000 0.00000
  3661 0.00000 0.00000 0.00000
  3662 0.00000 0.00000 0.00000
  3663 0.00000 0.00000 0.00000
  3664 0.00000 0.00000 0.00000
  3665 0.00000 0.00000 0.00000
  3666 0.00000 0.00000 0.00000
  3667 0.00000 0.00000 0.00000
  3668 0.00000 0.00000 0.00000
  3669 0.00000 0.00000 0.00000
  3670 0.00000 0.00000 0.00000
  3671 0.00000 0.00000 0.00000
  3672 0.00000 0.00000 0.00000
  3673 0.00000 0.00000 0.00000
  3674 0.00000 0.00000 0.00000
  3675 0.00000 0.00000 0.00000
  3676 0.00000 0.00000 0.00000
  3677 0.00000 0.00000 0.00000
  3678 0.00000 0.00000 0.00000
  3679 0.00000 0.00000 0.00000
  3680 0.00000 0.00000 0.00000
  3681 0.00000 0.00000 0.00000
  3682 0.00000 0.00000 0.00000
  3683 0.00000 0.00000 0.00000
  3684 0.00000 0.00000 0.00000
  3685 0.00000 0.00000 0.00000
  3686 0.00000 0.00000 0.00000
  3687 0.00000 0.00000 0.00000
  3688 0.00000 0.00000 0.00000
  3689 0.00000 0.00000 0.00000
  3690 0.00000 0.00000 0.00000
  3691 0.00000 0.00000 0.00000
  3692 0.00000 0.00000 0.00000
  3693 0.00000 0.00000 0.00000
  3694 0.00000 0.00000 0.00000
  3695 0.00000 0.00000 0.00000
  3696 0.00000 0.00000 0.00000
  3697 0.00000 0.00000 0.00000
  3698 0.00000 0.00000 0.00000
  3699 0.00000 0.00000 0.00000
  3700 0.00000 0.00000 0.00000
  3701 0.00000 0.00000 0.00000
  3702 0.00000 0.00000 0.00000
  3703 0.00000 0.00000 0.00000
  3704 0.00000 0.00000 0.00000
  3705 0.00000 0.00000 0.00000
  3706 0.00000 0.00000 0.00000
  3707 0.00000 0.00000 0.00000
  3708 0.00000 0.00000 0.00000
  3709 0.00000 0.00000 0.00000
  3710 0.00000 0.00000 0.00000
  3711 0.00000 0.00000 0.00000
  3712 0.00000 0.00000 0.00000
  3713 0.00000 0.00000 0.00000
  3714 0.00000 0.00000 0.00000
  3715 0.00000 0.00000 0.00000
  3716 0.00000 0.00000 0.00000
  3717 0.00000 0.00000 0.00000
  3718 0.00000 0.00000 0.00000
  3719 0.00000 0.00000 0.00000
  3720 0.00000 0.00000 0.00000
  3721 0.00000 0.00000 0.00000
  3722 0.00000 0.00000 0.00000
  3723 0.00000 0.00000 0.00000
  3724 0.00000 0.00000 0.00000
  3725 0.00000 0.00000 0.00000
  3726 0.00000 0.00000 0.00000
  3727 0.00000 0.00000 0.00000
  3728 0.00000 0.00000 0.00000
  3729 0.00000 0.00000 0.00000
  3730 0.00000 0.00000 0.00000
  3731 0.00000 0.00000 0.00000
  3732 0.00000 0.00000 0.00000
  3733 0.00000 0.00000 0.00000
  3734 0.00000 0.00000 0.00000
  3735 0.00000 0.00000 0.00000
  3736 0.00000 0.00000 0.00000
  3737 0.00000 0.00000 0.00000
  3738 0.00000 0.00000 0.00000
  3739 0.00000 0.00000 0.00000
  3740 0.00000 0.00000 0.00000
  3741 0.00000 0.00000 0.00000
  3742 0.00000 0.00000 0.00000
  3743 0.00000 0.00000 0.00000
  3744 0.00000 0.00000 0.00000
  3745 0.00000 0.00000 0.00000
  3746 0.00000 0.00000 0.00000
  3747 0.00000 0.00000 0.00000
  3748 0.00000 0.00000 0.00000
  3749 0.00000 0.00000 0.00000
  3750 0.00000 0.00000 0.00000
  3751 0.00000 0.00000 0.00000
  3752 0.00000 0.00000 0.00000
  3753 0.00000 0.00000 0.00000
  3754 0.00000 0.00000 0.00000
  3755 0.00000 0.00000 0.00000
  3756 0.00000 0.00000 0.00000
  3757 0.00000 0.00000 0.00000
  3758 0.00000 0.00000 0.00000
  3759 0.00000 0.00000 0.00000
  3760 0.00000 0.00000 0.00000
  3761 0.00000 0.00000 0.00000
  3762 0.00000 0.00000 0.00000
  3763 0.00000 0.00000 0.00000
  3764 0.00000 0.00000 0.00000
  3765 0.00000 0.00000 0.00000
  3766 0.00000 0.00000 0.00000
  3767 0.00000 0.00000 0.00000
  3768 0.00000 0.00000 0.00000
  3769 0.00000 0.00000 0.00000
  3770 0.00000 0.00000 0.00000
  3771 0.00000 0.00000 0.00000
  3772 0.00000 0.00000 0.00000
  3773 0.00000 0.00000 0.00000
  3774 0.00000 0.00000 0.00000
  3775 0.00000 0.00000 0.00000
  3776 0.00000 0.00000 0.00000
  3777 0.00000 0.00000 0.00000
  3778 0.00000 0.00000 0.00000
  3779 0.00000 0.00000 0.00000
  3780 0.00000 0.00000 0.00000
  3781 0.00000 0.00000 0.00000
  3782 0.00000 0.00000 0.00000
  3783 0.00000 0.00000 0.00000
  3784 0.00000 0.00000 0.00000
  3785 0.00000 0.00000 0.00000
  3786 0.00000 0.00000 0.00000
  3787 0.00000 0.00000 0.00000
  3788 0.00000 0.00000 0.00000
  3789 0.00000 0.00000 0.00000
  3790 0.00000 0.00000 0.00000
  3791 0.00000 0.00000 0.00000
  3792 0.00000 0.00000 0.00000
  3793 0.00000 0.00000 0.00000
  3794 0.00000 0.00000 0.00000
  3795 0.00000 0.00000 0.00000
  3796 0.00000 0.00000 0.00000
  3797 0.00000 0.00000 0.00000
  3798 0.00000 0.00000 0.00000
  3799 0.00000 0.00000 0.00000
  3800 0.00000 0.00000 0.00000
  3801 0.00000 0.00000 0.00000
  3802 0.00000 0.00000 0.00000
  3803 0.00000 0.00000 0.00000
  3804 0.00000 0.00000 0.00000
  3805 0.00000 0.00000 0.00000
  3806 0.00000 0.00000 0.00000
  3807 0.00000 0.00000 0.00000
  3808 0.00000 0.00000 0.00000
  3809 0.00000 0.00000 0.00000
  3810 0.00000 0.00000 0.00000
  3811 0.00000 0.00000 0.00000
  3812 0.00000 0.00000 0.00000
  3813 0.00000 0.00000 0.00000
  3814 0.00000 0.00000 0.00000
  3815 0.00000 0.00000 0.00000
  3816 0.00000 0.00000 0.00000
  3817 0.00000 0.00000 0.00000
  3818 0.00000 0.00000 0.00000
  3819 0.00000 0.00000 0.00000
  3820 0.00000 0.00000 0.00000
  3821 0.00000 0.00000 0.00000
  3822 0.00000 0.00000 0.00000
  3823 0.00000 0.00000 0.00000
  3824 0.00000 0.00000 0.00000
  3825 0.00000 0.00000 0.00000
  3826 0.00000 0.00000 0.00000
  3827 0.00000 0.00000 0.00000
  3828 0.00000 0.00000 0.00000
  3829 0.00000 0.00000 0.00000
  3830 0.00000 0.00000 0.00000
  3831 0.00000 0.00000 0.00000
  3832 0.00000 0.00000 0.00000
  3833 0.00000 0.00000 0.00000
  3834 0.00000 0.00000 0.00000
  3835 0.00000 0.00000 0.00000
  3836 0.00000 0.00000 0.00000
  3837 0.00000 0.00000 0.00000
  3838 0.00000 0.00000 0.00000
  3839 0.00000 0.00000 0.00000
  3840 0.00000 0.00000 0.00000
  3841 0.00000 0.00000 0.00000
  3842 0.00000 0.00000 0.00000
  3843 0.00000 0.00000 0.00000
  3844 0.00000 0.00000 0.00000
  3845 0.00000 0.00000 0.00000
  3846 0.00000 0.00000 0.00000
  3847 0.00000 0.00000 0.00000
  3848 0.00000 0.00000 0.00000
  3849 0.00000 0.00000 0.00000
  3850 0.00000 0.00000 0.00000
  3851 0.00000 0.00000 0.00000
  3852 0.00000 0.00000 0.00000
  3853 0.00000 0.00000 0.00000
  3854 0.00000 0.00000 0.00000
  3855 0.00000 0.00000 0.00000
  3856 0.00000 0.00000 0.00000
  3857 0.00000 0.00000 0.00000
  3858 0.00000 0.00000 0.00000
  3859 0.00000 0.00000 0.00000
  3860 0.00000 0.00000 0.00000
  3861 0.00000 0.00000 0.00000
  3862 0.00000 0.00000 0.00000
  3863 0.00000 0.00000 0.00000
  3864 0.00000 0.00000 0.00000
  3865 0.00000 0.00000 0.00000
  3866 0.00000 0.00000 0.00000
  3867 0.00000 0.00000 0.00000
  3868 0.00000 0.00000 0.00000
  3869 0.00000 0.00000 0.00000
  3870 0.00000 0.00000 0.00000
  3871 0.00000 0.00000 0.00000
  3872 0.00000 0.00000 0.00000
  3873 0.00000 0.00000 0.00000
  3874 0.00000 0.00000 0.00000
  3875 0.00000 0.00000 0.00000
  3876 0.00000 0.00000 0.00000
  3877 0.00000 0.00000 0.00000
  3878 0.00000 0.00000 0.00000
  3879 0.00000 0.00000 0.00000
  3880 0.00000 0.00000 0.00000
  3881 0.00000 0.00000 0.00000
  3882 0.00000 0.00000 0.00000
  3883 0.00000 0.00000 0.00000
  3884 0.00000 0.00000 0.00000
  3885 0.00000 0.00000 0.00000
  3886 0.00000 0.00000 0.00000
  3887 0.00000 0.00000 0.00000
  3888 0.00000 0.00000 0.00000
  3889 0.00000 0.00000 0.00000
  3890 0.00000 0.00000 0.00000
  3891 0.00000 0.00000 0.00000
  3892 0.00000 0.00000 0.00000
  3893 0.00000 0.00000 0.00000
  3894 0.00000 0.00000 0.00000
  3895 0.00000 0.00000 0.00000
  3896 0.00000 0.00000 0.00000
  3897 0.00000 0.00000 0.00000
  3898 0.00000 0.00000 0.00000
  3899 0.00000 0.00000 0.00000
  3900 0.00000 0.00000 0.00000
  3901 0.00000 0.00000 0.00000
  3902 0.00000 0.00000 0.00000
  3903 0.00000 0.00000 0.00000
  3904 0.00000 0.00000 0.00000
  3905 0.00000 0.00000 0.00000
  3906 0.00000 0.00000 0.00000
  3907 0.00000 0.00000 0.00000
  3908 0.00000 0.00000 0.00000
  3909 0.00000 0.00000 0.00000
  3910 0.00000 0.00000 0.00000
  3911 0.00000 0.00000 0.00000
  3912 0.00000 0.00000 0.00000
  3913 0.00000 0.00000 0.00000
  3914 0.00000 0.00000 0.00000
  3915 0.00000 0.00000 0.00000
  3916 0.00000 0.00000 0.00000
  3917 0.00000 0.00000 0.00000
  3918 0.00000 0.00000 0.00000
  3919 0.00000 0.00000 0.00000
  3920 0.00000 0.00000 0.00000
  3921 0.00000 0.00000 0.00000
  3922 0.00000 0.00000 0.00000
  3923 0.00000 0.00000 0.00000
  3924 0.00000 0.00000 0.00000
  3925 0.00000 0.00000 0.00000
  3926 0.00000 0.00000 0.00000
  3927 0.00000 0.00000 0.00000
  3928 0.00000 0.00000 0.00000
  3929 0.00000 0.00000 0.00000
  3930 0.00000 0.00000 0.00000
  3931 0.00000 0.00000 0.00000
  3932 0.00000 0.00000 0.00000
  3933 0.00000 0.00000 0.00000
  3934 0.00000 0.00000 0.00000
  3935 0.00000 0.00000 0.00000
  3936 0.00000 0.00000 0.00000
  3937 0.00000 0.00000 0.00000
  3938 0.00000 0.00000 0.00000
  3939 0.00000 0.00000 0.00000
  3940 0.00000 0.00000 0.00000
  3941 0.00000 0.00000 0.00000
  3942 0.00000 0.00000 0.00000
  3943 0.00000 0.00000 0.00000
  3944 0.00000 0.00000 0.00000
  3945 0.00000 0.00000 0.00000
  3946 0.00000 0.00000 0.00000
  3947 0.00000 0.00000 0.00000
  3948 0.00000 0.00000 0.00000
  3949 0.00000 0.00000 0.00000
  3950 0.00000 0.00000 0.00000
  3951 0.00000 0.00000 0.00000
  3952 0.00000 0.00000 0.00000
  3953 0.00000 0.00000 0.00000
  3954 0.00000 0.00000 0.00000
  3955 0.00000 0.00000 0.00000
  3956 0.00000 0.00000 0.00000
  3957 0.00000 0.00000 0.00000
  3958 0.00000 0.00000 0.00000
  3959 0.00000 0.00000 0.00000
  3960 0.00000 0.00000 0.00000
  3961 0.00000 0.00000 0.00000
  3962 0.00000 0.00000 0.00000
  3963 0.00000 0.00000 0.00000
  3964 0.00000 0.00000 0.00000
  3965 0.00000 0.00000 0.00000
  3966 0.00000 0.00000 0.00000
  3967 0.00000 0.00000 0.00000
  3968 0.00000 0.00000 0.00000
  3969 0.00000 0.00000 0.00000
  3970 0.00000 0.00000 0.00000
  3971 0.00000 0.00000 0.00000
  3972 0.00000 0.00000 0.00000
  3973 0.00000 0.00000 0.00000
  3974 0.00000 0.00000 0.00000
  3975 0.00000 0.00000 0.00000
  3976 0.00000 0.00000 0.00000
  3977 0.00000 0.00000 0.00000
  3978 0.00000 0.00000 0.00000
  3979 0.00000 0.00000 0.00000
  3980 0.00000 0.00000 0.00000
  3981 0.00000 0.00000 0.00000
  3982 0.00000 0.00000 0.00000
  3983 0.00000 0.00000 0.00000
  3984 0.00000 0.00000 0.00000
  3985 0.00000 0.00000 0.00000
  3986 0.00000 0.00000 0.00000
  3987 0.00000 0.00000 0.00000
  3988 0.00000 0.00000 0.00000
  3989 0.00000 0.00000 0.00000
  3990 0.00000 0.00000 0.00000
  3991 0.00000 0.00000 0.00000
  3992 0.00000 0.00000 0.00000
  3993 0.00000 0.00000 0.00000
  3994 0.00000 0.00000 0.00000
  3995 0.00000 0.00000 0.00000
  3996 0.00000 0.00000 0.00000
  3997 0.00000 0.00000 0.00000
  3998 0.00000 0.00000 0.00000
  3999 0.00000 0.00000 0.00000
  4000 0.00000 0.00000 0.00000
  4001 0.00000 0.00000 0.00000
  4002 0.00000 0.00000 0.00000
  4003 0.00000 0.00000 0.00000
  4004 0.00000 0.00000 0.00000
  4005 0.00000 0.00000 0.00000
  4006 0.00000 0.00000 0.00000
  4007 0.00000 0.00000 0.00000
  4008 0.00000 0.00000 0.00000
  4009 0.00000 0.00000 0.00000
  4010 0.00000 0.00000 0.00000
  4011 0.00000 0.00000 0.00000
  4012 0.00000 0.00000 0.00000
  4013 0.00000 0.00000 0.00000
  4014 0.00000 0.00000 0.00000
  4015 0.00000 0.00000 0.00000
  4016 0.00000 0.00000 0.00000
  4017 0.00000 0.00000 0.00000
  4018 0.00000 0.00000 0.00000
  4019 0.00000 0.00000 0.00000
  4020 0.00000 0.00000 0.00000
  4021 0.00000 0.00000 0.00000
  4022 0.00000 0.00000 0.00000
  4023 0.00000 0.00000 0.00000
  4024 0.00000 0.00000 0.00000
  4025 0.00000 0.00000 0.00000
  4026 0.00000 0.00000 0.00000
  4027 0.00000 0.00000 0.00000
  4028 0.00000 0.00000 0.00000
  4029 0.00000 0.00000 0.00000
  4030 0.00000 0.00000 0.00000
  4031 0.00000 0.00000 0.00000
  4032 0.00000 0.00000 0.00000
  4033 0.00000 0.00000 0.00000
  4034 0.00000 0.00000 0.00000
  4035 0.00000 0.00000 0.00000
  4036 0.00000 0.00000 0.00000
  4037 0.00000 0.00000 0.00000
  4038 0.00000 0.00000 0.00000
  4039 0.00000 0.00000 0.00000
  4040 0.00000 0.00000 0.00000
  4041 0.00000 0.00000 0.00000
  4042 0.00000 0.00000 0.00000
  4043 0.00000 0.00000 0.00000
  4044 0.00000 0.00000 0.00000
  4045 0.00000 0.00000 0.00000
  4046 0.00000 0.00000 0.00000
  4047 0.00000 0.00000 0.00000
  4048 0.00000 0.00000 0.00000
  4049 0.00000 0.00000 0.00000
  4050 0.00000 0.00000 0.00000
  4051 0.00000 0.00000 0.00000
  4052 0.00000 0.00000 0.00000
  4053 0.00000 0.00000 0.00000
  4054 0.00000 0.00000 0.00000
  4055 0.00000 0.00000 0.00000
  4056 0.00000 0.00000 0.00000
  4057 0.00000 0.00000 0.00000
  4058 0.00000 0.00000 0.00000
  4059 0.00000 0.00000 0.00000
  4060 0.00000 0.00000 0.00000
  4061 0.00000 0.00000 0.00000
  4062 0.00000 0.00000 0.00000
  4063 0.00000 0.00000 0.00000
  4064 0.00000 0.00000 0.00000
  4065 0.00000 0.00000 0.00000
  4066 0.00000 0.00000 0.00000
  4067 0.00000 0.00000 0.00000
  4068 0.00000 0.00000 0.00000
  4069 0.00000 0.00000 0.00000
  4070 0.00000 0.00000 0.00000
  4071 0.00000 0.00000 0.00000
  4072 0.00000 0.00000 0.00000
  4073 0.00000 0.00000 0.00000
  4074 0.00000 0.00000 0.00000
  4075 0.00000 0.00000 0.00000
  4076 0.00000 0.00000 0.00000
  4077 0.00000 0.00000 0.00000
  4078 0.00000 0.00000 0.00000
  4079 0.00000 0.00000 0.00000
  4080 0.00000 0.00000 0.00000
  4081 0.00000 0.00000 0.00000
  4082 0.00000 0.00000 0.00000
  4083 0.00000 0.00000 0.00000
  4084 0.00000 0.00000 0.00000
  4085 0.00000 0.00000 0.00000
  4086 0.00000 0.00000 0.00000
  4087 0.00000 0.00000 0.00000
  4088 0.00000 0.00000 0.00000
  4089 0.00000 0.00000 0.00000
  4090 0.00000 0.00000 0.00000
  4091 0.00000 0.00000 0.00000
  4092 0.00000 0.00000 0.00000
  4093 0.00000 0.00000 0.00000
  4094 0.00000 0.00000 0.00000
  4095 0.00000 0.00000 0.00000
  4096 0.00000 0.00000 0.00000
  4097 0.00000 0.00000 0.00000
  4098 0.00000 0.00000 0.00000
  4099 0.00000 0.00000 0.00000
  4100 0.00000 0.00000 0.00000
  4101 0.00000 0.00000 0.00000
  4102 0.00000 0.00000 0.00000
  4103 0.00000 0.00000 0.00000
  4104 0.00000 0.00000 0.00000
  4105 0.00000 0.00000 0.00000
  4106 0.00000 0.00000 0.00000
  4107 0.00000 0.00000 0.00000
  4108 0.00000 0.00000 0.00000
  4109 0.00000 0.00000 0.00000
  4110 0.00000 0.00000 0.00000
  4111 0.00000 0.00000 0.00000
  4112 0.00000 0.00000 0.00000
  4113 0.00000 0.00000 0.00000
  4114 0.00000 0.00000 0.00000
  4115 0.00000 0.00000 0.00000
  4116 0.00000 0.00000 0.00000
  4117 0.00000 0.00000 0.00000
  4118 0.00000 0.00000 0.00000
  4119 0.00000 0.00000 0.00000
  4120 0.00000 0.00000 0.00000
  4121 0.00000 0.00000 0.00000
  4122 0.00000 0.00000 0.00000
  4123 0.00000 0.00000 0.00000
  4124 0.00000 0.00000 0.00000
  4125 0.00000 0.00000 0.00000
  4126 0.00000 0.00000 0.00000
  4127 0.00000 0.00000 0.00000
  4128 0.00000 0.00000 0.00000
  4129 0.00000 0.00000 0.00000
  4130 0.00000 0.00000 0.00000
  4131 0.00000 0.00000 0.00000
  4132 0.00000 0.00000 0.00000
  4133 0.00000 0.00000 0.00000
  4134 0.00000 0.00000 0.00000
  4135 0.00000 0.00000 0.00000
  4136 0.00000 0.00000 0.00000
  4137 0.00000 0.00000 0.00000
  4138 0.00000 0.00000 0.00000
  4139 0.00000 0.00000 0.00000
  4140 0.00000 0.00000 0.00000
  4141 0.00000 0.00000 0.00000
  4142 0.00000 0.00000 0.00000
  4143 0.00000 0.00000 0.00000
  4144 0.00000 0.00000 0.00000
  4145 0.00000 0.00000 0.00000
  4146 0.00000 0.00000 0.00000
  4147 0.00000 0.00000 0.00000
  4148 0.00000 0.00000 0.00000
  4149 0.00000 0.00000 0.00000
  4150 0.00000 0.00000 0.00000
  4151 0.00000 0.00000 0.00000
  4152 0.00000 0.00000 0.00000
  4153 0.00000 0.00000 0.00000
  4154 0.00000 0.00000 0.00000
  4155 0.00000 0.00000 0.00000
  4156 0.00000 0.00000 0.00000
  4157 0.00000 0.00000 0.00000
  4158 0.00000 0.00000 0.00000
  4159 0.00000 0.00000 0.00000
  4160 0.00000 0.00000 0.00000
  4161 0.00000 0.00000 0.00000
  4162 0.00000 0.00000 0.00000
  4163 0.00000 0.00000 0.00000
  4164 0.00000 0.00000 0.00000
  4165 0.00000 0.00000 0.00000
  4166 0.00000 0.00000 0.00000
  4167 0.00000 0.00000 0.00000
  4168 0.00000 0.00000 0.00000
  4169 0.00000 0.00000 0.00000
  4170 0.00000 0.00000 0.00000
  4171 0.00000 0.00000 0.00000
  4172 0.00000 0.00000 0.00000
  4173 0.00000 0.00000 0.00000
  4174 0.00000 0.00000 0.00000
  4175 0.00000 0.00000 0.00000
  4176 0.00000 0.00000 0.00000
</Section>

newXOutput 2

<Section columns = "stress_xx | stress_yy | stress_xy">
  1 7.51364 0.0100492 -0.0226783
  2 7.51370 0.0100530 0.0226829
  3 9.98594 -0.00282000 0.00553490
  4 9.98588 -0.00282430 -0.00553881
  5 24.7672 1.53989 0.291842
  6 31.3251 0.428771 0.0395995
  7 7.98103 -0.000656243 -0.0261006
  8 7.98141 -0.000655278 0.0261100
  9 10.4045 -0.000666067 0.0195395
  10 10.4047 -0.000667408 -0.0195400
  11 1.09390 -7.61666 0.312695
  12 1.12251 -7.67213 -0.344497
  13 8.68864 0.120624 -0.0119386
  14 8.68858 0.120690 0.0119366
  15 10.1208 -0.0177680 0.0154540
  16 7.52143 0.0122170 -0.0371794
  17 7.52155 0.0122183 0.0371983
  18 10.1209 -0.0177701 -0.0154664
  19 8.34678 0.293020 -0.191073
  20 8.34699 0.293009 0.190980
  21 7.96538 0.0234740 0.0144145
  22 7.22058 0.0957606 0.00363640
  23 8.03767 0.00241744 -0.0252285
  24 8.08477 0.00339703 -0.0277194
  25 8.15782 0.00332697 -0.0399603
  26 8.21875 0.00255786 -0.0350622
  27 8.28737 0.00297784 -0.0411453
  28 8.37667 0.000897170 -0.0447925
  29 8.45478 -0.00257663 -0.0388205
  30 8.54464 -0.000372180 -0.0366424
  31 8.64618 -0.00140749 -0.0381255
  32 8.73479 0.000966552 -0.0395420
  33 8.85091 0.00474510 -0.0593877
  34 8.96773 0.00577009 -0.0611445
  35 9.08920 0.00538581 -0.0751786
  36 9.25168 0.00175934 -0.0814099
  37 9.36758 -0.00273211 -0.0794779
  38 9.54955 0.000431594 -0.0789922
  39 9.68357 -0.00119260 -0.0812009
  40 9.90058 -0.00132516 -0.0795945
  41 10.0599 0.00513007 -0.0988087
  42 10.2519 0.00931159 -0.115216
  43 10.4861 -0.00798359 -0.123167
  44 10.7468 -0.00944782 -0.114971
  45 10.9492 -0.00399232 -0.112744
  46 11.2409 -0.00205954 -0.114001
  47 11.4542 -0.00104633 -0.148816
  48 11.6834 0.00546885 -0.159544
  49 12.0438 -0.0183891 -0.143980
  50 12.3846 -0.0190858 -0.123013
  51 12.6572 -0.0149203 -0.131539
  52 13.0305 -0.0158986 -0.115370
  53 13.3017 -0.00959149 -0.155349
  54 13.6634 -0.00990422 -0.146522
  55 13.9798 -0.00810678 -0.171657
  56 14.2192 -0.0185748 -0.182685
  57 14.7466 -0.0630234 -0.147403
  58 14.8507 -0.0129526 -0.134039
  59 15.2096 -0.00293826 -0.105831
  60 15.4569 -0.0202877 -0.118886
  61 15.6715 -0.0254851 -0.0828247
  62 15.8614 -0.0272714 -0.0635846
  63 15.9676 -0.0291224 -0.0344322
  64 16.0386 -0.0335577 -0.000508950
  65 16.0375 -0.0424299 0.0459319
  66 15.8705 -0.0454669 0.0863513
  67 15.7999 -0.0445169 0.103111
  68 15.5348 -0.0641396 0.146609
  69 15.0724 -0.0482288 0.221951
  70 14.5580 -0.0427861 0.290419
  71 14.0247 -0.0292576 0.337254
  72 13.2856 -0.0232291 0.381901
  73 12.6048 0.00379088 0.409693
  74 11.6970 0.0134278 0.407188
  75 11.0590 0.0303645 0.414307
  76 10.0431 0.0578852 0.341470
  77 9.38205 0.0838896 0.375985
  78 8.67493 0.0542425 0.246707
  79 8.31051 0.0869232 0.287087
  80 7.52582 0.112775 0.139301
  81 7.51002 0.0981531 0.130802
  82 7.31455 0.0847970 -0.0780527
  83 7.48051 0.108888 -0.167679
  84 7.89819 0.149090 -0.174501
  85 8.79898 0.0715907 -0.318905
  86 9.38190 0.0759015 -0.422349
  87 10.0240 0.0591412 -0.378890
  88 11.0824 0.0227462 -0.439413
  89 11.8056 -0.0100418 -0.456872
  90 12.5515 0.00652971 -0.359736
  91 13.3075 -0.00598706 -0.361360
  92 14.0282 -0.0275065 -0.326459
  93 14.5633 -0.0402805 -0.285774
  94 15.0733 -0.0473885 -0.220243
  95 15.5336 -0.0638924 -0.145858
  96 15.7976 -0.0443750 -0.102744
  97 15.8678 -0.0452961 -0.0861755
  98 16.0346 -0.0423277 -0.0459498
  99 16.0359 -0.0334922 0.000361144
  100 15.9653 -0.0290885 0.0342229
  101 15.8596 -0.0272570 0.0633549
  102 15.6702 -0.0254863 0.0826018
  103 15.4560 -0.0202979 0.118678
  104 15.2091 -0.00295987 0.105660
  105 14.8506 -0.0129769 0.133891
  106 14.7466 -0.0630302 0.147284
  107 14.2195 -0.0185771 0.182571
  108 13.9803 -0.00811920 0.171578
  109 13.6640 -0.00991513 0.146465
  110 13.3025 -0.00960168 0.155310
  111 13.0313 -0.0159061 0.115339
  112 12.6581 -0.0149261 0.131518
  113 12.3856 -0.0190915 0.122992
  114 12.0448 -0.0183949 0.143964
  115 11.6844 0.00546396 0.159538
  116 11.4553 -0.00105411 0.148819
  117 11.2420 -0.00206432 0.114003
  118 10.9502 -0.00399551 0.112752
  119 10.7478 -0.00945442 0.114977
  120 10.4870 -0.00798744 0.123180
  121 10.2528 0.00931175 0.115233
  122 10.0608 0.00512725 0.0988263
  123 9.90146 -0.00132790 0.0796066
  124 9.68441 -0.00119432 0.0812164
  125 9.55036 0.000429548 0.0790061
  126 9.36836 -0.00273435 0.0794959
  127 9.25243 0.00175797 0.0814275
  128 9.08991 0.00538542 0.0751983
  129 8.96842 0.00577027 0.0611620
  130 8.85156 0.00474544 0.0594040
  131 8.73542 0.000965322 0.0395538
  132 8.64678 -0.00140907 0.0381359
  133 8.54521 -0.000373430 0.0366527
  134 8.45532 -0.00257823 0.0388317
  135 8.37718 0.000896322 0.0448057
  136 8.28785 0.00297786 0.0411594
  137 8.21922 0.00255802 0.0350752
  138 8.15826 0.00332793 0.0399747
  139 8.08520 0.00339673 0.0277299
  140 8.03807 0.00241671 0.0252371
  141 7.75031 0.0376582 0.0342967
  142 8.05959 0.0723099 0.0281197
  143 8.33514 0.113603 0.0244679
  144 9.02959 0.0907146 -0.00398672
  145 9.38363 0.0595053 -0.00397254
  146 9.72718 0.0212776 0.00251093
  147 10.4720 -0.00487989 -0.0144173
  148 10.4944 -0.00602178 -0.0227258
  149 10.5363 -0.00791865 -0.0112989
  150 10.5603 -0.00692111 -0.0199086
  151 10.5711 -0.00826814 -0.00746226
  152 10.5960 -0.00364743 -0.00336441
  153 10.5736 -0.0142165 -0.00144113
  154 10.5432 -0.0101581 0.0225508
  155 10.5263 -0.0124610 0.0315270
  156 10.4603 -0.0148745 0.0353837
  157 10.3359 -0.0124341 0.0580102
  158 10.2170 -0.00934042 0.0689720
  159 10.0366 -0.0125859 0.0888522
  160 9.84547 -0.00385930 0.120825
  161 9.60692 -0.00182428 0.0939284
  162 9.39689 -0.000180679 0.101778
  163 9.10611 0.00592525 0.0998576
  164 8.87883 0.00979865 0.122190
  165 8.60917 0.0134595 0.106456
  166 8.38433 0.0158214 0.0975377
  167 8.17232 0.0249505 0.0723294
  168 8.00509 0.0224409 0.0455838
  169 8.00248 0.0139786 0.0448606
  170 7.94217 0.0441127 -0.0450366
  171 7.99980 0.0321034 -0.0501578
  172 8.21647 0.0257235 -0.0843918
  173 8.40922 0.0271181 -0.131948
  174 8.58528 0.00944180 -0.109954
  175 8.87580 0.00978871 -0.120787
  176 9.10623 0.00674682 -0.100608
  177 9.39915 -0.000650783 -0.102433
  178 9.60944 -0.00200951 -0.0939346
  179 9.84749 -0.00391741 -0.120563
  180 10.0383 -0.0125769 -0.0886500
  181 10.2183 -0.00933111 -0.0687960
  182 10.3368 -0.0124228 -0.0578672
  183 10.4610 -0.0148646 -0.0352602
  184 10.5268 -0.0124553 -0.0314379
  185 10.5434 -0.0101557 -0.0224694
  186 10.5737 -0.0142079 0.00151019
  187 10.5960 -0.00363827 0.00341129
  188 10.5710 -0.00826029 0.00749826
  189 10.5601 -0.00691358 0.0199304
  190 10.5361 -0.00791215 0.0113159
  191 10.4942 -0.00601638 0.0227323
  192 10.4718 -0.00487574 0.0144216
  193 9.72714 0.0212646 -0.00251574
  194 9.38363 0.0594692 0.00396640
  195 9.02963 0.0906593 0.00398169
  196 8.33519 0.113542 -0.0244628
  197 8.05960 0.0722699 -0.0281119
  198 7.75027 0.0376407 -0.0342893
  199 7.44723 0.0334053 -0.0342992
  200 7.54917 0.00814122 -0.0416326
  201 7.63852 0.00491970 -0.0393493
  202 7.71429 0.00394324 -0.0337626
  203 7.80534 0.000450310 -0.0388629
  204 7.86167 -0.000375549 -0.0334592
  205 7.90951 -0.000232682 -0.0244592
  206 8.00215 0.00245744 -0.0567130
  207 8.01093 0.00753919 -0.0995258
  208 8.03705 0.0185288 -0.155046
  209 8.04923 0.0312286 -0.201810
  210 8.05514 0.0477941 -0.251366
  211 8.04126 0.0705895 -0.286291
  212 8.04122 0.0937235 -0.326903
  213 8.02213 0.123579 -0.358502
  214 7.99936 0.153606 -0.383253
  215 7.97458 0.187580 -0.402553
  216 7.94398 0.222345 -0.408719
  217 7.92030 0.252543 -0.407832
  218 7.89081 0.291539 -0.403044
  219 7.86425 0.324208 -0.381998
  220 7.84151 0.354318 -0.357342
  221 7.83071 0.382286 -0.319969
  222 7.82410 0.398992 -0.274475
  223 7.83119 0.420593 -0.222018
  224 7.84565 0.426968 -0.162288
  225 7.89511 0.417298 -0.0958302
  226 7.95402 0.408764 -0.0342845
  227 8.02173 0.389031 0.0290325
  228 8.11305 0.365830 0.0897675
  229 8.21217 0.325190 0.146099
  230 8.47784 0.240600 0.230354
  231 8.62383 0.200610 0.256532
  232 8.76352 0.161533 0.271350
  233 8.91683 0.126536 0.271301
  234 9.04847 0.0891228 0.270441
  235 9.20100 0.0629295 0.259677
  236 9.33489 0.0394499 0.243775
  237 9.46285 0.0259303 0.225870
  238 9.60207 0.0150614 0.200809
  239 9.72030 0.00908136 0.175202
  240 9.84425 0.000111901 0.152031
  241 9.96693 0.00580758 0.126240
  242 10.0892 0.00183173 0.0996253
  243 10.2058 0.00103411 0.0715137
  244 10.3169 0.00348854 0.0401773
  245 10.3686 -0.00414466 0.0150942
  246 10.2981 -0.00521630 0.0176289
  247 10.2082 -0.00977617 0.0267939
  248 9.99691 -0.00477500 0.0236278
  249 10.3171 0.00348476 -0.0401764
  250 10.2059 0.00102011 -0.0715109
  251 10.0894 0.00180284 -0.0996213
  252 9.96704 0.00576313 -0.126238
  253 9.84434 4.69749e-05 -0.152038
  254 9.72039 0.00900297 -0.175221
  255 9.60215 0.0149649 -0.200843
  256 9.46291 0.0258239 -0.225927
  257 9.33492 0.0393416 -0.243853
  258 9.20101 0.0628235 -0.259776
  259 9.04843 0.0890289 -0.270557
  260 8.91676 0.126461 -0.271427
  261 8.76341 0.161473 -0.271482
  262 8.62368 0.200573 -0.256658
  263 8.47765 0.240586 -0.230468
  264 8.21194 0.325216 -0.146172
  265 8.11281 0.365874 -0.0898133
  266 8.02149 0.389086 -0.0290529
  267 7.95379 0.408829 0.0342901
  268 7.89490 0.417369 0.0958586
  269 7.84545 0.427043 0.162340
  270 7.83102 0.420669 0.222091
  271 7.82396 0.399068 0.274567
  272 7.83060 0.382361 0.320075
  273 7.84144 0.354388 0.357462
  274 7.86421 0.324274 0.382127
  275 7.89080 0.291598 0.403179
  276 7.92033 0.252595 0.407970
  277 7.94405 0.222391 0.408858
  278 7.97469 0.187619 0.402689
  279 7.99950 0.153638 0.383384
  280 8.02231 0.123606 0.358625
  281 8.04143 0.0937432 0.327016
  282 8.04151 0.0706055 0.286391
  283 8.05541 0.0478048 0.251455
  284 8.04953 0.0312363 0.201883
  285 8.03738 0.0185339 0.155102
  286 8.01128 0.00754074 0.0995623
  287 8.00252 0.00245770 0.0567342
  288 7.90987 -0.000234459 0.0244682
  289 7.86201 -0.000378467 0.0334701
  290 7.80564 0.000448276 0.0388769
  291 7.71454 0.00394243 0.0337781
  292 7.63873 0.00491955 0.0393662
  293 7.54934 0.00814022 0.0416485
  294 7.44731 0.0334073 0.0343090
  295 9.99699 -0.00477342 -0.0236393
  296 10.2083 -0.00978010 -0.0268063
  297 10.2983 -0.00521878 -0.0176354
  298 10.3688 -0.00414724 -0.0150971
  299 1.49014 -6.84991 -0.164551
  300 1.85582 -4.95500 -0.261606
  301 3.06011 -2.13342 0.749482
  302 5.03009 -0.107842 1.81547
  303 8.72557 1.81696 3.58629
  304 12.5389 2.86760 4.96308
  305 16.7755 2.87283 5.14362
  306 21.0939 2.47255 4.52695
  307 23.8360 1.85329 2.59632
  308 23.2100 2.09412 -2.32324
  309 20.8757 2.37099 -4.71036
  310 16.7232 2.96673 -5.30936
  311 12.1801 2.83465 -4.77018
  312 8.43690 2.24863 -3.93965
  313 5.12522 0.309860 -2.02305
  314 3.36009 -1.88641 -1.00681
  315 1.92893 -5.20872 0.355107
  316 1.63842 -7.13014 0.173863
  317 1.16222 -8.35304 -1.19852
  318 1.12996 -6.92539 -1.38781
  319 1.37628 -5.31310 -1.32781
  320 2.33275 -3.00564 -0.393077
  321 3.80999 -1.13042 0.575419
  322 6.12212 0.587800 1.81604
  323 9.44775 1.25916 3.14274
  324 12.8568 2.15573 4.55969
  325 16.0312 2.12246 5.13702
  326 19.6751 2.06726 5.51388
  327 23.0923 1.78761 4.81867
  328 27.0715 1.16065 4.57446
  329 29.0149 0.908918 2.98701
  330 30.5888 0.423822 1.42985
  331 31.1166 0.519908 -1.70267
  332 29.2290 0.760666 -3.13274
  333 26.9002 1.27000 -4.13852
  334 23.9908 1.77621 -5.09389
  335 20.1625 2.00301 -5.31042
  336 16.7664 2.28527 -5.36973
  337 12.5864 2.01741 -4.38203
  338 9.13281 1.37907 -3.06457
  339 5.65095 0.623027 -1.75035
  340 3.84200 -1.15320 -0.501131
  341 2.36634 -2.99494 0.387666
  342 1.38239 -5.31073 1.31908
  343 1.12875 -6.93642 1.37912
  344 1.16000 -8.39445 1.17923
  345 7.91835 0.114762 -0.169226
  346 8.37700 0.192607 -0.0150193
  347 9.17904 0.0982313 0.0972963
  348 7.86414 0.0408963 -0.183082
  349 8.05622 0.229698 -0.144838
  350 9.62320 0.0431020 0.116303
  351 7.91746 0.148270 -0.264813
  352 8.69012 0.191162 0.103798
  353 8.26608 0.289026 0.0112268
  354 7.94081 0.266094 -0.244737
  355 7.90308 0.0144529 -0.128672
  356 9.26421 0.0951481 0.166731
  357 7.94789 0.0720447 -0.251631
  358 7.94171 0.123342 -0.303806
  359 7.97222 0.317234 -0.173808
  360 9.93197 0.0168332 0.0969342
  361 8.87189 0.159769 0.178173
  362 8.11761 0.140092 -0.0834717
  363 9.58369 0.0420605 0.158862
  364 7.91276 0.250437 -0.314462
  365 8.48980 0.250011 0.125028
  366 7.77395 0.0314107 -0.122584
  367 9.56961 0.0413083 0.0558899
  368 8.69686 0.162684 0.0383707
  369 9.10086 0.102733 0.215955
  370 8.01934 0.358843 -0.0846305
  371 8.17750 0.333863 0.0226578
  372 7.84907 0.0505631 -0.0644080
  373 9.38395 0.0617425 0.205647
  374 7.93065 0.195428 -0.345995
  375 7.89847 0.336793 -0.258438
  376 7.94333 0.00426877 -0.0792305
  377 10.1488 0.00450737 0.0663416
  378 7.80174 0.0147697 -0.120676
  379 7.86436 0.0781950 -0.195737
  380 7.97204 0.0329912 -0.192553
  381 8.46345 0.127351 -0.00626962
  382 7.94743 0.174083 -0.209467
  383 8.96667 0.138278 0.127160
  384 9.89448 0.0145718 0.125652
  385 9.96226 0.0104558 0.0723002
  386 7.97033 0.116615 -0.320487
  387 9.05198 0.101698 0.0455613
  388 8.04422 0.178149 -0.139117
  389 8.70200 0.191739 0.205617
  390 8.35031 0.286169 0.109979
  391 7.72500 0.0174473 -0.103635
  392 8.45988 0.220483 0.0300351
  393 7.65943 0.0172536 -0.0446342
  394 9.38708 0.0753014 0.125014
  395 8.11308 0.292231 -0.0905166
  396 8.24138 0.225889 -0.0559146
  397 7.90292 0.108807 -0.248708
  398 7.95646 0.0170131 -0.142946
  399 7.88958 0.295021 -0.328356
  400 7.92752 0.367894 -0.180291
  401 9.62742 0.0263875 0.179454
  402 7.98345 0.0719756 -0.273168
  403 9.74903 0.0314027 0.0678706
  404 8.17935 0.106195 -0.0345989
  405 8.14252 0.197780 -0.0998431
  406 7.92955 0.190841 -0.265173
  407 7.87610 0.00261780 -0.0629204
  408 8.98133 0.122692 0.233930
  409 7.94523 0.185430 -0.371321
  410 7.99311 0.204869 -0.184575
  411 8.04942 0.367777 -0.0230904
  412 10.0421 0.00766849 0.0935031
  413 8.44427 0.263693 0.166826
  414 10.0899 0.0103588 0.0574604
  415 9.25480 0.0723538 0.222112
  416 7.91387 0.241846 -0.362930
  417 7.88251 0.0360270 -0.173540
  418 7.96010 0.0950505 -0.0845229
  419 8.69078 0.198811 0.154050
  420 7.81127 0.00560434 -0.0719465
  421 8.38689 0.269454 0.0667154
  422 7.90980 0.0848035 -0.243665
  423 9.46414 0.0648496 0.152476
  424 8.32842 0.151115 -0.0308227
  425 9.05661 0.129710 0.173118
  426 9.36167 0.0653256 0.0858627
  427 8.82661 0.163066 0.0897596
  428 7.83345 0.0614743 -0.108467
  429 7.87174 0.373734 -0.231835
  430 8.01513 0.0555480 -0.249101
  431 7.92478 0.384225 -0.133182
  432 8.74808 0.131284 0.0246613
  433 9.77327 0.0279987 0.136391
  434 7.86831 0.336430 -0.314012
  435 7.98494 0.262069 -0.194649
  436 9.49707 0.0418634 0.201182
  437 9.77846 0.0146669 0.154044
  438 7.80524 0.0399633 -0.150917
  439 8.00319 0.0997389 -0.316915
  440 7.96762 0.152587 -0.353946
  441 7.61947 0.00450772 -0.0651910
  442 8.59043 0.218147 0.210258
  443 8.82070 0.160203 0.233588
  444 7.93068 0.220661 -0.379628
  445 8.12525 0.321064 -0.0472076
  446 9.11837 0.0914843 0.239569
  447 7.88897 0.284675 -0.359095
  448 7.96231 0.388708 -0.0753162
  449 7.90801 0.125882 -0.217574
  450 9.16140 0.111607 0.133467
  451 9.32399 0.0685007 0.0518741
  452 7.85642 0.365660 -0.280204
  453 8.21430 0.322716 0.0853298
  454 9.38934 0.0472164 0.219717
  455 9.80131 0.0204555 0.0337983
  456 8.53124 0.180121 0.0205112
  457 8.83300 0.164926 0.145327
  458 8.01483 0.0863449 -0.0586676
  459 10.2415 0.00261292 0.0534953
  460 8.52733 0.230092 0.0860597
  461 8.10862 0.358211 0.0375665
  462 7.92296 0.0405981 -0.192610
  463 7.90808 0.285698 -0.283438
  464 7.92227 0.337753 -0.215637
  465 9.58360 0.0472024 0.0930714
  466 7.93006 0.155575 -0.305084
  467 7.92195 0.195414 -0.312898
  468 7.86311 0.0727618 -0.158424
  469 9.82304 0.0233888 0.102116
  470 9.50096 0.0493265 0.188689
  471 8.52345 0.159525 0.00116119
  472 8.95069 0.126316 0.0701030
  473 9.39400 0.0667090 0.183724
  474 7.98427 0.0111704 -0.124789
  475 8.04905 0.280028 -0.138124
  476 7.97728 0.351288 -0.135456
  477 7.63570 0.0214544 -0.0355748
  478 8.30580 0.299100 0.138518
  479 9.72243 0.0255023 0.154000
  480 8.02247 0.0371065 -0.213671
  481 7.91009 0.0624769 -0.0242492
  482 7.79456 0.0297470 -0.142172
  483 7.97196 0.0932830 -0.294988
  484 9.24189 0.0868438 0.191000
  485 8.00684 0.0257220 -0.171613
  486 10.1255 0.00334589 0.0874986
  487 8.58632 0.230717 0.173951
  488 9.95065 0.00784134 0.0404365
  489 9.89455 0.00992343 0.138454
  490 7.95241 0.00104747 -0.0447245
  491 7.71997 0.00550686 -0.0772055
  492 9.17245 0.0907116 0.0773188
  493 9.56479 0.0399332 0.0249589
  494 9.65547 0.0417978 0.131855
  495 7.95088 0.104611 -0.289484
  496 7.95802 0.226785 -0.230331
  497 7.96885 0.0532445 -0.232422
  498 7.99443 0.129635 -0.346806
  499 8.19884 0.273473 -0.0485456
  500 8.32147 0.245108 -0.00681083
  501 7.93819 0.00781192 -0.105098
  502 8.61525 0.195877 0.0606710
  503 7.94032 0.305790 -0.227466
  504 10.2803 -0.00188221 0.0296205
  505 7.92933 0.241005 -0.268756
  506 8.24764 0.172522 -0.0603010
  507 7.97892 0.120388 -0.130920
  508 8.97140 0.139276 0.204722
  509 8.27743 0.302234 0.0587939
  510 8.69587 0.186177 0.234832
  511 7.86132 0.0182951 -0.136315
  512 7.90648 0.0551679 -0.210090
  513 9.99371 0.00972033 0.112596
  514 7.67174 0.00913161 -0.0745738
  515 9.19500 0.0803755 0.0282720
  516 7.90423 0.00127480 -0.0386500
  517 7.94300 0.157709 -0.337956
  518 7.72377 0.00394702 -0.0564558
  519 9.87472 0.0115840 0.0144096
  520 7.51870 0.0255695 -0.0380780
  521 8.04261 0.322879 -0.109604
  522 7.86620 0.0607926 -0.198160
  523 9.02101 0.129838 0.108965
  524 10.2301 -0.000284092 0.0267060
  525 10.3393 0.00312747 0.0266560
  526 7.87577 0.395572 -0.186352
  527 7.97632 0.156917 -0.167120
  528 10.0340 0.00593613 0.0931965
  529 10.0895 0.00243628 0.0259793
  530 9.78966 0.0251247 0.0797539
  531 8.38661 0.254468 0.0376640
  532 9.96325 0.0160388 0.0865032
  533 8.13509 0.254963 -0.0962540
  534 7.86588 0.317145 -0.350250
  535 7.89941 0.118444 -0.236438
  536 8.91831 0.108415 0.0140991
  537 8.01992 0.0777066 -0.290977
  538 9.32262 0.0900442 0.143763
  539 8.83651 0.159929 0.204031
  540 7.63445 0.00484075 -0.0532121
  541 7.91838 0.114802 0.169303
  542 8.37690 0.192679 0.0150280
  543 9.17900 0.0982649 -0.0973422
  544 7.86432 0.0409089 0.183159
  545 8.05614 0.229768 0.144901
  546 9.62324 0.0431025 -0.116352
  547 7.91752 0.148311 0.264920
  548 8.69001 0.191207 -0.103847
  549 8.26592 0.289094 -0.0112354
  550 7.94075 0.266162 0.244832
  551 7.90335 0.0144570 0.128723
  552 9.26419 0.0951410 -0.166799
  553 7.94808 0.0720627 0.251726
  554 7.94183 0.123373 0.303920
  555 7.97209 0.317310 0.173874
  556 9.93207 0.0168237 -0.0969651
  557 8.87180 0.159771 -0.178255
  558 8.11757 0.140151 0.0835136
  559 9.58373 0.0420323 -0.158913
  560 7.91275 0.250496 0.314579
  561 8.48964 0.250047 -0.125091
  562 7.77406 0.0314237 0.122641
  563 9.56964 0.0413290 -0.0559209
  564 8.69677 0.162749 -0.0383905
  565 9.10082 0.102691 -0.216045
  566 8.01916 0.358918 0.0846606
  567 8.17731 0.333927 -0.0226718
  568 7.84910 0.0505870 0.0644449
  569 9.38397 0.0616877 -0.205716
  570 7.93071 0.195473 0.346121
  571 7.89836 0.336866 0.258533
  572 7.94366 0.00427023 0.0792601
  573 10.1489 0.00450120 -0.0663566
  574 7.80196 0.0147750 0.120728
  575 7.86446 0.0782213 0.195821
  576 7.97230 0.0329987 0.192626
  577 8.46339 0.127419 0.00627594
  578 7.94743 0.174136 0.209557
  579 8.96659 0.138306 -0.127219
  580 9.89458 0.0145447 -0.125678
  581 9.96236 0.0104544 -0.0723316
  582 7.97048 0.116642 0.320604
  583 9.05194 0.101752 -0.0455819
  584 8.04417 0.178209 0.139181
  585 8.70188 0.191730 -0.205716
  586 8.35012 0.286210 -0.110033
  587 7.72516 0.0174540 0.103681
  588 8.45976 0.220551 -0.0300490
  589 7.65951 0.0172625 0.0446632
  590 9.38708 0.0753149 -0.125068
  591 8.11294 0.292307 0.0905527
  592 8.24127 0.225962 0.0559403
  593 7.90302 0.108836 0.248809
  594 7.95675 0.0170168 0.143001
  595 7.88953 0.295086 0.328474
  596 7.92737 0.367972 0.180356
  597 9.62749 0.0263282 -0.179495
  598 7.98366 0.0719922 0.273269
  599 9.74908 0.0314133 -0.0679046
  600 8.17932 0.106251 0.0346173
  601 8.14244 0.197851 0.0998892
  602 7.92956 0.190892 0.265278
  603 7.87641 0.00261806 0.0629447
  604 8.98127 0.122642 -0.234035
  605 7.94531 0.185472 0.371451
  606 7.99306 0.204932 0.184655
  607 8.04921 0.367844 0.0230930
  608 10.0422 0.00765245 -0.0935188
  609 8.44409 0.263711 -0.166909
  610 10.0901 0.0103562 -0.0574814
  611 9.25480 0.0722854 -0.222195
  612 7.91389 0.241900 0.363058
  613 7.88272 0.0360381 0.173610
  614 7.96012 0.0950911 0.0845735
  615 8.69066 0.198832 -0.154124
  616 7.81154 0.00560619 0.0719754
  617 8.38672 0.269510 -0.0667498
  618 7.90995 0.0848250 0.243762
  619 9.46416 0.0648417 -0.152536
  620 8.32835 0.151184 0.0308425
  621 9.05656 0.129709 -0.173193
  622 9.36166 0.0653521 -0.0859038
  623 8.82652 0.163116 -0.0898020
  624 7.83350 0.0614993 0.108524
  625 7.87160 0.373810 0.231916
  626 8.01538 0.0555619 0.249190
  627 7.92459 0.384300 0.133228
  628 8.74802 0.131350 -0.0246712
  629 9.77334 0.0279780 -0.136432
  630 7.86823 0.336501 0.314122
  631 7.98485 0.262140 0.194727
  632 9.49712 0.0417924 -0.201237
  633 9.77855 0.0146153 -0.154070
  634 7.80538 0.0399772 0.150984
  635 8.00337 0.0997617 0.317028
  636 7.96774 0.152620 0.354072
  637 7.61961 0.00451026 0.0652212
  638 8.59027 0.218139 -0.210361
  639 8.82060 0.160165 -0.233699
  640 7.93073 0.220709 0.379760
  641 8.12508 0.321138 0.0472234
  642 9.11835 0.0914131 -0.239668
  643 7.88895 0.284736 0.359221
  644 7.96210 0.388779 0.0753389
  645 7.90806 0.125921 0.217667
  646 9.16136 0.111624 -0.133527
  647 9.32398 0.0685374 -0.0519005
  648 7.85630 0.365735 0.280301
  649 8.21408 0.322762 -0.0853740
  650 9.38938 0.0471348 -0.219786
  651 9.80136 0.0204658 -0.0338188
  652 8.53114 0.180189 -0.0205212
  653 8.83291 0.164950 -0.145392
  654 8.01483 0.0863871 0.0587030
  655 10.2416 0.00260680 -0.0535005
  656 8.52719 0.230144 -0.0861001
  657 8.10840 0.358268 -0.0375904
  658 7.92319 0.0406083 0.192685
  659 7.90801 0.285766 0.283543
  660 7.92214 0.337828 0.215716
  661 9.58363 0.0472152 -0.0931151
  662 7.93013 0.155614 0.305200
  663 7.92198 0.195462 0.313016
  664 7.86318 0.0727891 0.158499
  665 9.82312 0.0233830 -0.102155
  666 9.50099 0.0492799 -0.188746
  667 8.52337 0.159595 -0.00116085
  668 8.95062 0.126368 -0.0701354
  669 9.39401 0.0666804 -0.183789
  670 7.98459 0.0111728 0.124836
  671 8.04893 0.280103 0.138180
  672 7.97711 0.351366 0.135506
  673 7.63576 0.0214651 0.0355896
  674 8.30559 0.299130 -0.138587
  675 9.72250 0.0254651 -0.154038
  676 8.02275 0.0371151 0.213749
  677 7.91011 0.0625081 0.0242689
  678 7.79474 0.0297561 0.142234
  679 7.97213 0.0933058 0.295097
  680 9.24188 0.0868134 -0.191076
  681 8.00714 0.0257283 0.171676
  682 10.1257 0.00332936 -0.0875061
  683 8.58617 0.230732 -0.174036
  684 9.95074 0.00784458 -0.0404590
  685 9.89465 0.00987999 -0.138468
  686 7.95277 0.00104863 0.0447418
  687 7.72017 0.00551075 0.0772392
  688 9.17242 0.0907531 -0.0773538
  689 9.56481 0.0399576 -0.0249737
  690 9.65552 0.0417867 -0.131904
  691 7.95103 0.104636 0.289593
  692 7.95799 0.226846 0.230426
  693 7.96907 0.0532577 0.232509
  694 7.99459 0.129663 0.346927
  695 8.19870 0.273548 0.0485651
  696 8.32134 0.245180 0.00681364
  697 7.93849 0.00781530 0.105138
  698 8.61514 0.195937 -0.0607001
  699 7.94023 0.305863 0.227553
  700 10.2805 -0.00188493 -0.0296276
  701 7.92930 0.241066 0.268861
  702 8.24756 0.172592 0.0603300
  703 7.97891 0.120435 0.130983
  704 8.97133 0.139256 -0.204813
  705 8.27725 0.302290 -0.0588245
  706 8.69573 0.186147 -0.234946
  707 7.86156 0.0182998 0.136371
  708 7.90667 0.0551818 0.210175
  709 9.99382 0.00969280 -0.112606
  710 7.67185 0.00913932 0.0746107
  711 9.19497 0.0804213 -0.0282842
  712 7.90457 0.00127452 0.0386644
  713 7.94309 0.157746 0.338079
  714 7.72401 0.00394907 0.0564795
  715 9.87478 0.0115915 -0.0144183
  716 7.51879 0.0255725 0.0380926
  717 8.04245 0.322956 0.109646
  718 7.86633 0.0608110 0.198240
  719 9.02095 0.129876 -0.109014
  720 10.2302 -0.000286215 -0.0267158
  721 10.3395 0.00312697 -0.0266593
  722 7.87559 0.395648 0.186416
  723 7.97630 0.156971 0.167196
  724 10.0341 0.00592363 -0.0932202
  725 10.0896 0.00243690 -0.0259957
  726 9.78972 0.0251286 -0.0797922
  727 8.38646 0.254534 -0.0376828
  728 9.96336 0.0160353 -0.0865362
  729 8.13497 0.255038 0.0962960
  730 7.86582 0.317210 0.350370
  731 7.89948 0.118478 0.236536
  732 8.91826 0.108475 -0.0141071
  733 8.02014 0.0777234 0.291081
  734 9.32260 0.0900501 -0.143825
  735 8.83641 0.159912 -0.204127
  736 7.63463 0.00484174 0.0532362
  737 6.19362 0.929505 0.407658
  738 6.19441 0.929318 -0.407562
  739 9.46152 -0.783529 0.859613
  740 9.46402 -0.787330 -0.858678
  741 7.99940 0.424442 0.848043
  742 7.99929 0.424410 -0.847839
  743 7.10625 0.0496776 -1.95632
  744 7.10726 0.0489525 1.95667
  745 10.9639 0.0498646 0.887215
  746 10.9644 0.161736 -0.896270
  747 8.50140 0.414903 -1.34633
  748 8.50178 0.414785 1.34654
  749 10.6566 -1.28492 1.30356
  750 10.6532 -1.28436 -1.30205
  751 7.73615 0.330075 -0.614769
  752 7.73660 0.330287 0.614536
  753 9.90575 -0.245071 0.117979
  754 9.90610 -0.245440 -0.117730
  755 6.66605 -0.515302 1.99241
  756 6.66455 -0.514614 -1.99186
  757 7.34633 0.674509 0.344661
  758 7.34664 0.674440 -0.344588
  759 8.32270 0.126651 -0.485291
  760 8.32302 0.126668 0.485427
  761 9.98884 0.809075 -0.0253122
  762 10.2914 -0.392926 0.427448
  763 10.2910 -0.392731 -0.426948
  764 9.86388 0.143627 -1.58628
  765 9.86469 0.143308 1.58620
  766 8.89243 0.191209 0.842934
  767 8.89197 0.191220 -0.842775
  768 11.0852 -1.51966 -0.795847
  769 11.0426 -1.55322 0.846720
  770 14.0405 -1.02416 0.662965
  771 14.0393 -1.01855 -0.663887
  772 11.2175 -0.219868 -1.41323
  773 11.2186 -0.220303 1.41279
  774 8.96945 -0.102856 0.518694
  775 8.96948 -0.103232 -0.518993
  776 12.1272 2.24170 0.304218
  777 4.03036 0.397518 -0.0760533
  778 4.03326 0.396855 0.0767853
  779 15.7069 0.528748 -1.29232
  780 15.5658 0.510516 1.32844
  781 15.8279 1.36072 0.171626
  782 9.96337 0.150616 -1.10800
  783 9.96405 0.150522 1.10804
  784 7.74931 0.462442 -0.558120
  785 7.74925 0.462509 0.558277
  786 12.7649 0.695007 -0.599657
  787 8.69029 0.0850806 0.503810
  788 8.68983 0.0850754 -0.503688
  789 9.72206 0.232177 -0.609609
  790 9.73267 0.238941 0.620501
  791 7.34308 0.725013 1.00058
  792 7.34321 0.724986 -1.00033
  793 6.69744 0.719640 1.40192
  794 6.69751 0.719848 -1.40139
  795 10.6852 -0.929840 -0.0502597
  796 10.6847 -0.931175 0.0502439
  797 13.3915 -0.761808 -0.0411021
  798 13.3921 -0.759752 0.0395910
  799 6.52474 0.540493 -0.770575
  800 6.52534 0.540677 0.769937
  801 5.21996 -1.38444 -1.87196
  802 5.22353 -1.38529 1.87175
  803 13.0150 0.436503 0.361925
  804 7.65377 0.526413 -0.119389
  805 7.65413 0.526401 0.119327
  806 10.0766 -0.0577722 -0.0867182
  807 10.0765 -0.0576508 0.0868571
  808 10.1810 -0.163636 0.163922
  809 10.1810 -0.163437 -0.163461
  810 9.95544 -0.0952579 0.639901
  811 9.95626 -0.0962151 -0.639739
  812 10.0595 -0.572781 0.121533
  813 10.0604 -0.573356 -0.121096
  814 9.79168 0.0952565 0.742918
  815 9.79099 0.0952819 -0.742836
  816 13.3072 -0.311660 -0.644076
  817 13.3078 -0.311808 0.643076
  818 8.11223 -0.228968 -1.16121
  819 8.11306 -0.228294 1.16077
  820 8.26954 0.0400043 -0.261222
  821 8.26992 0.0400116 0.261305
  822 9.48782 -0.109778 0.291771
  823 9.48801 -0.110089 -0.291815
  824 8.01842 0.261365 0.543180
  825 8.01830 0.261323 -0.543019
  826 7.84971 -1.81293 -2.59049
  827 7.64827 -1.78367 2.61478
  828 10.9799 1.40224 -0.541326
  829 8.31823 0.210705 0.438561
  830 8.31796 0.210585 -0.438778
  831 11.7572 -0.00511467 -1.05429
  832 11.7580 -0.00527710 1.05401
  833 9.14326 -1.11520 -1.51464
  834 9.12702 -1.11431 1.51333
  835 6.83001 0.764588 -0.0350135
  836 6.83056 0.764568 0.0348908
  837 13.7588 -0.185448 -1.55995
  838 13.7624 -0.155933 1.55347
  839 3.69507 -1.23599 1.98167
  840 3.69590 -1.23192 -1.99430
  841 13.1848 0.722562 -0.816936
  842 10.3289 -1.79900 -1.21435
  843 10.3318 -1.78279 1.25564
  844 7.47132 0.644584 0.691495
  845 7.47148 0.644516 -0.691323
  846 8.15645 0.462848 1.09470
  847 8.15625 0.462865 -1.09448
  848 10.7200 1.12582 0.590513
  849 8.49239 0.0378261 -0.300432
  850 8.49284 0.0378316 0.300517
  851 11.0667 0.0539580 0.935008
  852 11.0660 0.0540461 -0.935084
  853 8.92939 -0.631434 -1.94156
  854 8.93054 -0.631518 1.94156
  855 18.9848 1.58541 -0.275622
  856 2.35271 -1.35159 -0.311737
  857 2.35101 -1.35312 0.316738
  858 9.22254 0.0535255 0.455131
  859 9.22191 0.0535253 -0.455041
  860 7.64604 0.523178 0.346613
  861 7.64623 0.523102 -0.346514
  862 9.15890 0.276177 -0.167360
  863 8.18485 0.433859 1.66360
  864 8.18432 0.434184 -1.66336
  865 14.1130 -0.426209 -0.972136
  866 14.1169 -0.429960 0.975715
  867 9.56307 -0.342951 0.372973
  868 9.56356 -0.343552 -0.373030
  869 10.6856 -0.437438 -0.652124
  870 10.6854 -0.438331 0.653283
  871 10.0977 -0.125283 0.351034
  872 10.0980 -0.125168 -0.350459
  873 12.5015 0.503068 1.00520
  874 5.24394 0.542293 1.21431
  875 5.24439 0.542611 -1.21319
  876 5.43532 0.726288 -0.438194
  877 5.43685 0.725845 0.437715
  878 12.0696 -1.02822 1.20973
  879 8.32442 0.232624 0.686213
  880 8.32416 0.232601 -0.686043
  881 14.3861 2.75936 -0.142333
  882 8.46565 -0.0529105 0.751531
  883 8.46530 -0.0532846 -0.751920
  884 15.7264 -0.122775 0.0469511
  885 15.7214 -0.104995 -0.0693510
  886 11.4153 -0.730631 -0.427664
  887 11.3846 -0.693801 0.459085
  888 19.2826 1.47187 0.161058
  889 9.25008 -0.0440657 1.84245
  890 9.24901 -0.0435776 -1.84254
  891 11.5046 -1.18314 -1.59537
  892 10.2429 -0.0747616 0.0197986
  893 10.2429 -0.0746514 -0.0195350
  894 13.2326 -0.127667 -0.790116
  895 13.2331 -0.127881 0.789461
  896 8.15019 0.104576 -0.392192
  897 8.15045 0.104596 0.392315
  898 6.92226 0.831683 -0.532352
  899 6.92184 0.831775 0.532462
  900 9.08732 0.225835 0.228763
  901 15.0687 2.56834 -0.0417307
  902 8.95601 0.277851 1.08303
  903 8.95554 0.277898 -1.08287
  904 10.2603 0.0240785 -0.813083
  905 10.2734 0.0194822 0.813512
  906 9.04075 0.0112086 0.370274
  907 9.04076 0.0109862 -0.370450
  908 9.74611 -0.0534915 -0.187877
  909 9.74597 -0.0533170 0.187913
  910 11.6763 0.934026 0.879957
  911 7.41135 0.706435 1.27251
  912 7.41133 0.706512 -1.27218
  913 7.67523 0.522167 0.116991
  914 7.67551 0.522106 -0.116966
  915 5.59632 0.881148 0.602080
  916 5.59737 0.880940 -0.601647
  917 10.3833 0.560887 -0.747234
  918 9.19754 -0.392645 -0.658727
  919 9.19727 -0.391952 0.658293
  920 12.4826 0.176922 -1.34028
  921 11.4454 -0.668620 -1.25871
  922 11.4473 -0.669194 1.25834
  923 4.84358 -0.388613 -1.68536
  924 4.84492 -0.389964 1.68651
  925 12.6316 0.165355 1.40133
  926 10.3944 -1.25529 0.674719
  927 10.4666 -1.29554 -0.679833
  928 10.4712 0.0498244 -0.644750
  929 10.4720 0.0497980 0.644779
  930 9.46043 0.0286982 -0.517784
  931 9.45618 0.0358607 0.517915
  932 7.72214 -1.90684 -1.82627
  933 7.72929 -1.90663 1.80685
  934 8.05761 0.318487 0.682170
  935 8.05747 0.318449 -0.681989
  936 10.1734 -0.381714 -0.155101
  937 10.1737 -0.381998 0.155608
  938 12.4639 -1.45318 -0.344820
  939 12.4724 -1.45268 0.340065
  940 8.04095 0.364544 0.258195
  941 8.04064 0.364526 -0.258314
  942 11.6244 0.496951 0.208232
  943 8.38015 0.301881 0.865415
  944 8.37988 0.301871 -0.865224
  945 9.22715 0.286143 1.49933
  946 9.22652 0.286364 -1.49924
  947 7.32973 0.590737 -0.225612
  948 7.33017 0.590782 0.225487
  949 21.4280 1.82887 -0.0549463
  950 4.89522 0.149412 -1.32876
  951 4.89733 0.149020 1.32716
  952 9.60788 0.0473745 0.493295
  953 9.60717 0.0473805 -0.493217
  954 12.4112 -0.891413 -1.19467
  955 12.4894 -0.865089 1.06368
  956 7.88379 0.340066 0.495319
  957 7.88378 0.340007 -0.495167
  958 8.16942 0.0144193 -0.142820
  959 8.16981 0.0144227 0.142868
  960 12.8905 -0.0340917 -0.778559
  961 12.8910 -0.0342355 0.778143
  962 19.0482 0.920136 0.429798
  963 8.73435 0.0243670 0.248241
  964 8.73380 0.0243639 -0.248176
  965 9.01086 0.0260952 -0.303295
  966 9.01147 0.0260961 0.303365
  967 14.3644 -0.213353 -0.188386
  968 14.3639 -0.213059 0.187597
  969 11.5659 0.712501 -0.884777
  970 7.22864 -0.0700216 -1.41441
  971 7.22849 -0.0689166 1.41331
  972 18.6125 0.959331 -0.502553
  973 9.96400 0.645995 0.437067
  974 10.2195 -0.0133669 -0.0783392
  975 10.2193 -0.0133251 0.0783959
  976 7.78893 0.472326 0.685622
  977 7.78895 0.472269 -0.685441
  978 14.6073 -0.239511 0.303556
  979 14.6057 -0.238266 -0.302981
  980 10.1560 -0.857995 0.326474
  981 10.1601 -0.860885 -0.326126
  982 10.3991 -0.649548 -0.180575
  983 10.3995 -0.649686 0.181314
  984 10.9212 1.58870 0.0631681
  985 6.93812 0.515452 1.68810
  986 6.93776 0.515909 -1.68757
  987 7.78044 0.562769 0.949485
  988 7.78042 0.562740 -0.949260
  989 8.99115 0.101318 -0.323568
  990 12.2098 -0.656460 -0.138805
  991 14.9375 1.55237 0.912322
  992 12.3084 1.92170 -0.616380
  993 7.75828 0.434786 0.421307
  994 7.75838 0.434714 -0.421178
  995 9.88856 -0.0648700 -0.391459
  996 9.88790 -0.0647548 0.391935
  997 7.43203 0.251028 -0.884768
  998 7.43248 0.251462 0.884436
  999 7.53287 0.595094 0.512400
  1000 7.53305 0.595020 -0.512268
  1001 9.85796 0.603395 -0.390798
  1002 6.68159 0.869474 0.901066
  1003 6.68199 0.869411 -0.900777
  1004 8.60387 0.165434 0.358388
  1005 8.60371 0.165328 -0.358573
  1006 8.83072 0.132428 -0.647389
  1007 8.83119 0.132431 0.647528
  1008 7.83505 0.403293 -0.365346
  1009 7.83543 0.403363 0.365190
  1010 8.55281 0.243018 1.79798
  1011 8.55202 0.243475 -1.79786
  1012 11.9079 0.0291707 0.695834
  1013 11.9072 0.0292280 -0.695961
  1014 10.3954 0.426707 0.808589
  1015 6.32865 0.821375 -0.172617
  1016 6.32943 0.821274 0.172350
  1017 13.7862 -0.202284 -1.10457
  1018 13.7958 -0.198366 1.10148
  1019 10.6740 -0.0622923 1.54161
  1020 10.6730 -0.0619051 -1.54191
  1021 8.02283 -1.18236 2.12094
  1022 8.01305 -1.18374 -2.13734
  1023 12.3869 -0.858315 0.731753
  1024 12.3844 -0.858293 -0.732939
  1025 9.70043 -0.595401 0.471446
  1026 9.70143 -0.596183 -0.471550
  1027 9.87206 -0.127047 -0.147346
  1028 9.87185 -0.126800 0.147486
  1029 8.04804 0.187602 0.462441
  1030 8.04788 0.187568 -0.462295
  1031 12.0272 -0.810944 0.137850
  1032 7.03791 0.562664 -0.508281
  1033 7.03841 0.562842 0.507993
  1034 6.89165 -0.646763 2.06590
  1035 6.89003 -0.646127 -2.06616
  1036 8.37582 0.0139479 -0.174284
  1037 8.37628 0.0139494 0.174337
  1038 9.02537 0.0786526 0.361586
  1039 6.01672 0.342298 -1.14169
  1040 6.01762 0.342244 1.14051
  1041 10.0870 -0.185661 -0.0129466
  1042 10.0872 -0.185914 0.0132936
  1043 10.2251 -0.0552337 0.174656
  1044 10.2255 -0.0551398 -0.174252
  1045 7.43486 0.627553 0.0761757
  1046 7.43521 0.627509 -0.0761810
  1047 9.26465 -1.34854 2.42923
  1048 10.2703 -0.270263 -0.636441
  1049 10.2709 -0.270020 0.637272
  1050 4.51684 -2.14224 2.34043
  1051 4.49559 -2.06393 -2.38241
  1052 13.7551 0.667312 -1.31593
  1053 8.86604 -0.671988 -1.20511
  1054 8.86087 -0.672411 1.20838
  1055 10.3252 -0.0184546 -0.0298659
  1056 10.3251 -0.0184131 0.0299831
  1057 7.82772 0.465144 -0.0481616
  1058 7.82802 0.465104 0.0481312
  1059 8.14662 0.0401333 0.247724
  1060 8.14630 0.0401250 -0.247641
  1061 9.26410 0.262161 1.20836
  1062 9.26355 0.262253 -1.20823
  1063 8.88050 -0.451752 0.951822
  1064 8.88000 -0.452700 -0.952373
  1065 8.14127 0.187173 0.514164
  1066 8.14107 0.187144 -0.514013
  1067 14.1079 -0.491436 1.33822
  1068 14.1043 -0.495730 -1.33655
  1069 9.32926 -0.184687 0.404904
  1070 9.32950 -0.185127 -0.405062
  1071 8.48247 0.110625 0.497191
  1072 8.48209 0.110612 -0.497061
  1073 8.61665 -1.20005 -1.93201
  1074 8.61619 -1.19892 1.93213
  1075 9.32246 0.120592 0.753684
  1076 9.32187 0.120608 -0.753565
  1077 9.94979 -0.0282284 -0.138056
  1078 9.94968 -0.0281303 0.138104
  1079 15.1082 -0.172085 -1.31961
  1080 15.1220 -0.164214 1.31955
  1081 2.33009 -3.09906 -0.687244
  1082 2.33316 -3.09993 0.683598
  1083 14.2242 -0.103205 -0.432424
  1084 14.2240 -0.103294 0.431717
  1085 6.05015 -1.12164 2.45696
  1086 6.09238 -1.11800 -2.43981
  1087 11.1239 0.0256902 0.574158
  1088 11.1230 0.0257164 -0.574174
  1089 10.3188 -0.0499678 0.0795304
  1090 10.3191 -0.0498947 -0.0792423
  1091 1.66786 -2.86838 -0.867071
  1092 1.69236 -2.84637 0.898003
  1093 10.2405 0.0296185 -0.467136
  1094 10.2413 0.0296076 0.467180
  1095 8.11303 0.197153 0.600727
  1096 8.11265 0.196952 -0.600997
  1097 2.78626 -0.567111 -0.619465
  1098 2.79290 -0.569060 0.619992
  1099 4.13827 -2.56323 1.30602
  1100 4.13571 -2.56797 -1.30609
  1101 10.0034 -0.402545 0.0694743
  1102 10.0040 -0.402993 -0.0690967
  1103 7.16285 0.704831 0.0756590
  1104 7.16328 0.704799 -0.0756927
  1105 10.1857 0.144323 -1.24001
  1106 10.1864 0.144175 1.23999
  1107 13.5841 -0.893844 0.396086
  1108 13.5827 -0.889341 -0.397373
  1109 7.92062 -0.659958 -1.72624
  1110 7.91671 -0.656079 1.72335
  1111 10.4977 -1.73809 1.79103
  1112 10.8448 0.0742536 -1.22792
  1113 10.8456 0.0740753 1.22778
  1114 10.1937 -0.264019 -0.321154
  1115 10.1938 -0.264242 0.321703
  1116 9.60982 -0.209748 0.280324
  1117 9.61015 -0.210168 -0.280301
  1118 9.30083 0.000643687 0.287237
  1119 9.30090 0.000456611 -0.287332
  1120 12.5958 1.79129 0.656292
  1121 6.25379 -2.16018 -1.37728
  1122 6.25932 -2.11434 1.34689
  1123 7.82629 -1.48248 -2.50906
  1124 15.7536 1.18010 0.800326
  1125 10.3956 0.995053 -0.447557
  1126 9.79855 -1.76139 -1.82499
  1127 4.07621 0.177574 0.864417
  1128 4.07748 0.177936 -0.862588
  1129 7.98614 0.557671 1.27436
  1130 7.98596 0.557738 -1.27410
  1131 9.38409 0.401783 0.103135
  1132 9.58091 -0.0170909 -0.427630
  1133 9.58030 -0.0152767 0.427862
  1134 11.7997 -0.139156 0.717710
  1135 12.6792 0.0148937 -0.579173
  1136 12.6799 0.0148424 0.578988
  1137 15.9086 1.38445 -0.506003
  1138 9.90672 -1.56212 1.54976
  1139 7.91390 0.370971 -0.621727
  1140 7.91395 0.371022 0.621900
  1141 10.9774 -0.427898 -0.681958
  1142 11.0216 -0.402225 0.701461
  1143 8.23326 0.213792 0.612227
  1144 8.23302 0.213767 -0.612061
  1145 10.2054 0.281862 -0.350217
  1146 8.57659 0.0406916 -0.550021
  1147 8.57680 0.0409443 0.549719
  1148 15.5785 0.956604 -1.08670
  1149 8.26433 0.291070 -0.290888
  1150 8.26459 0.291104 0.290746
  1151 12.4895 0.00848372 1.23187
  1152 12.4481 -0.307468 -1.01395
  1153 12.4491 -0.307842 1.01321
  1154 11.0999 0.225729 -0.942649
  1155 12.4479 0.0188232 -1.22121
  1156 8.37751 0.0628302 -0.358672
  1157 8.37789 0.0628402 0.358776
  1158 10.0684 -0.156592 -0.530851
  1159 10.0683 -0.156302 0.531495
  1160 8.61068 0.115699 0.0155737
  1161 8.59479 0.330925 1.05178
  1162 8.59444 0.330950 -1.05158
  1163 11.8296 -0.110159 -0.715330
  1164 7.20891 0.733445 0.500817
  1165 7.20922 0.733368 -0.500708
  1166 9.66947 -1.04782 1.03702
  1167 9.74729 -1.09168 -1.02040
  1168 7.91442 0.555059 1.47916
  1169 7.91413 0.555245 -1.47887
  1170 7.95835 0.253991 0.471937
  1171 7.95827 0.253944 -0.471788
  1172 10.0517 -0.118989 0.0613597
  1173 10.0518 -0.119188 -0.0611306
  1174 6.63645 0.876113 0.320115
  1175 6.63702 0.876002 -0.320097
  1176 7.91963 0.0753048 0.862642
  1177 7.91912 0.0749072 -0.862980
  1178 9.51797 0.0224489 0.292048
  1179 9.51723 0.0224499 -0.291994
  1180 11.1065 -1.23985 0.234876
  1181 11.1699 -1.22710 -0.198518
  1182 8.58152 0.172849 0.668687
  1183 8.58114 0.172837 -0.668531
  1184 8.26241 0.00927574 0.137657
  1185 8.26198 0.00927452 -0.137612
  1186 14.6267 -0.181009 -0.547172
  1187 14.6280 -0.182390 0.549261
  1188 8.59466 0.0114098 -0.153993
  1189 8.59520 0.0114106 0.154037
  1190 9.99038 -0.302958 1.72722
  1191 9.98913 -0.302512 -1.72741
  1192 17.4730 2.84859 -0.0844334
  1193 7.22448 0.757564 0.727814
  1194 7.22473 0.757491 -0.727637
  1195 9.88491 0.120590 0.923978
  1196 9.88423 0.120642 -0.923906
  1197 9.81784 0.0804805 -0.687341
  1198 9.83115 0.0782603 0.694952
  1199 24.2252 1.47437 0.716727
  1200 11.4649 1.53466 0.649809
  1201 4.97086 0.764291 0.0355218
  1202 4.97272 0.763747 -0.0353280
  1203 7.70535 0.490680 0.237966
  1204 7.70557 0.490606 -0.237896
  1205 23.5961 1.58490 -0.709596
  1206 9.53210 -0.0193825 -0.234220
  1207 9.53199 -0.0192176 0.234188
  1208 11.0170 -1.66728 -1.03687
  1209 11.0302 -1.66829 1.04068
  1210 7.74384 0.533092 -0.794607
  1211 7.74382 0.533143 0.794804
  1212 10.8524 0.162472 0.876588
  1213 10.2793 0.223885 0.549967
  1214 10.1724 -1.48752 -1.26277
  1215 6.96037 0.802040 -0.273309
  1216 6.95992 0.802113 0.273326
  1217 10.6338 -0.665997 0.380381
  1218 10.6339 -0.666075 -0.379362
  1219 8.05783 0.450927 0.971292
  1220 8.05769 0.450915 -0.971073
  1221 11.7304 -0.0661601 1.22254
  1222 11.7296 -0.0658697 -1.22297
  1223 12.2017 -1.18661 -0.616315
  1224 12.2060 -1.18631 0.614718
  1225 10.9211 0.756731 -0.843995
  1226 8.46190 0.407644 1.19949
  1227 8.46158 0.407704 -1.19927
  1228 11.5420 1.99124 -0.187516
  1229 10.9879 0.713814 0.870061
  1230 10.0309 0.0261870 -0.375207
  1231 10.0317 0.0261806 0.375255
  1232 13.0010 -1.42884 -0.171902
  1233 13.0164 -1.41536 0.153766
  1234 9.24594 0.0114284 -0.256153
  1235 9.24663 0.0114269 0.256208
  1236 8.83247 0.0244294 -0.449732
  1237 8.83254 0.0246668 0.449488
  1238 3.57084 -1.27124 1.42962
  1239 3.56866 -1.26901 -1.42825
  1240 6.26249 0.880312 0.995880
  1241 6.26300 0.880278 -0.995426
  1242 14.0291 0.0968600 -1.63359
  1243 11.7231 0.0277789 0.503408
  1244 11.7223 0.0278052 -0.503461
  1245 10.3802 1.11286 0.292833
  1246 13.6665 2.79128 0.144389
  1247 8.27574 -0.236422 -2.00625
  1248 8.27691 -0.236937 2.00623
  1249 10.6481 -0.127743 -0.830200
  1250 10.6479 -0.141295 0.824426
  1251 8.71071 -0.767961 -1.71115
  1252 8.95363 -0.950579 1.72068
  1253 7.74353 0.449697 0.335782
  1254 7.74368 0.449621 -0.335678
  1255 7.48522 0.604902 0.263326
  1256 7.48550 0.604836 -0.263266
  1257 7.66872 0.503355 0.465324
  1258 7.66885 0.503282 -0.465192
  1259 13.8734 -0.0434989 -0.497896
  1260 13.8736 -0.0435773 0.497490
  1261 9.25449 -0.275706 0.516986
  1262 9.25477 -0.276273 -0.517271
  1263 18.4797 0.975457 1.90632
  1264 14.0438 0.0853328 1.61834
  1265 9.56200 0.377943 0.402447
  1266 16.7468 0.450541 -0.561376
  1267 8.56679 0.0662501 -0.127320
  1268 6.25567 0.386316 1.67778
  1269 6.25522 0.386931 -1.67704
  1270 15.0596 0.637299 2.28783
  1271 13.2355 0.802571 -0.234102
  1272 5.67251 0.895199 0.107006
  1273 5.67372 0.894857 -0.107031
  1274 8.94290 0.299752 -1.68198
  1275 8.94359 0.299408 1.68208
  1276 13.3423 0.829795 2.20651
  1277 6.17645 0.633970 1.45455
  1278 6.17649 0.634308 -1.45380
  1279 9.42995 0.184031 1.02335
  1280 9.42936 0.184087 -1.02323
  1281 18.7409 1.70123 0.228890
  1282 13.6757 0.845833 0.542293
  1283 17.0920 2.55161 0.765376
  1284 14.3734 0.219429 -1.85205
  1285 10.9764 -0.785022 -0.382814
  1286 10.9760 -0.781020 0.384895
  1287 14.7874 -0.605146 0.860586
  1288 14.7821 -0.616606 -0.854339
  1289 9.83088 -0.472567 -0.255486
  1290 9.83017 -0.471948 0.255687
  1291 8.25959 0.0779916 0.369150
  1292 8.25926 0.0779776 -0.369038
  1293 8.86910 -0.186351 0.659560
  1294 8.86904 -0.186821 -0.659987
  1295 9.93879 -0.968420 -1.67200
  1296 9.94030 -0.968489 1.67260
  1297 6.93206 0.832554 0.803569
  1298 6.93241 0.832482 -0.803352
  1299 12.6654 -0.587037 -0.251270
  1300 9.45190 0.311026 -0.411340
  1301 17.7030 1.01289 -2.25356
  1302 16.2890 2.07762 -1.39637
  1303 10.4960 0.264579 -0.860771
  1304 21.9538 1.40097 -1.50407
  1305 9.99098 -0.0413340 -0.252970
  1306 9.99000 -0.0413857 0.253435
  1307 10.1081 -0.281846 -0.0726927
  1308 10.1083 -0.282144 0.0731293
  1309 12.9929 -0.0827083 -1.00109
  1310 8.17740 0.0880796 1.92295
  1311 8.17643 0.0886449 -1.92282
  1312 9.69256 -0.114854 -0.216145
  1313 9.69235 -0.114575 0.216199
  1314 15.0963 -0.109247 0.0611852
  1315 15.0947 -0.108860 -0.0613461
  1316 9.76858 -0.323474 0.225712
  1317 9.76905 -0.323981 -0.225557
  1318 8.11183 0.0798910 -0.330350
  1319 8.11209 0.0799073 0.330459
  1320 14.0026 0.497152 1.43154
  1321 13.3456 -0.512953 -0.393479
  1322 13.3465 -0.512538 0.392238
  1323 8.61520 0.399356 1.48874
  1324 8.61473 0.399549 -1.48855
  1325 9.97885 -1.86697 -2.08527
  1326 4.99291 -0.497487 1.95735
  1327 4.99202 -0.496808 -1.96012
  1328 13.4407 0.474679 -1.31929
  1329 10.4519 -0.463788 -0.540158
  1330 10.4523 -0.463943 0.540441
  1331 7.73113 0.608547 1.08675
  1332 7.73109 0.608548 -1.08650
  1333 10.4108 -1.04539 -0.362690
  1334 10.4085 -1.04588 0.355782
  1335 10.6078 0.0897245 0.953770
  1336 10.6070 0.0898007 -0.953786
  1337 1.19918 -3.99850 0.230481
  1338 1.21086 -4.02737 -0.225817
  1339 22.9129 1.50891 1.63199
  1340 13.2944 0.275912 0.0317963
  1341 8.94150 0.0254986 -0.309085
  1342 13.6641 1.67794 -0.432294
  1343 8.07916 0.129882 -0.394156
  1344 8.07937 0.129908 0.394285
  1345 11.7394 -1.35147 0.671493
  1346 10.3901 -0.203598 -0.752086
  1347 10.3903 -0.202647 0.752213
  1348 14.8254 -0.0948842 -0.245392
  1349 14.8245 -0.0948746 0.244733
  1350 8.61395 0.0604196 0.390782
  1351 8.61349 0.0604137 -0.390679
  1352 7.37970 0.616009 1.55342
  1353 7.37946 0.616279 -1.55302
  1354 16.7839 1.05594 0.842777
  1355 11.4306 0.304647 -2.59932
  1356 10.4091 -0.0248056 0.00742227
  1357 10.4091 -0.0247681 -0.00728323
  1358 4.65315 0.641103 0.565222
  1359 4.65474 0.640920 -0.564236
  1360 10.2170 -0.535401 -0.104016
  1361 10.2176 -0.535685 0.104596
  1362 13.1144 -0.0812159 1.05588
  1363 8.14447 0.323054 0.742531
  1364 8.14430 0.323021 -0.742344
  1365 8.59474 0.0577577 0.166994
  1366 9.71634 0.0772018 1.69473
  1367 9.71543 0.0776042 -1.69484
  1368 5.99392 0.623589 -0.642723
  1369 5.99492 0.623512 0.642043
  1370 14.2438 -0.136472 0.749982
  1371 14.2498 -0.136060 -0.746787
  1372 8.90217 0.0128478 0.188006
  1373 8.90155 0.0128465 -0.187959
  1374 9.11795 0.113762 0.687722
  1375 9.11740 0.113769 -0.687595
  1376 3.95678 0.0112694 -1.07129
  1377 3.96127 0.0102240 1.07032
  1378 8.64268 0.219800 0.794034
  1379 8.64230 0.219796 -0.793866
  1380 10.3943 -0.00692907 -0.0360309
  1381 10.3942 -0.00691020 0.0360840
  1382 9.11593 -0.0744010 0.421469
  1383 9.11601 -0.0747279 -0.421673
  1384 2.52539 -3.26300 -1.42267
  1385 2.34438 -3.16497 1.41874
  1386 11.6018 -1.45599 -0.861908
  1387 7.59453 0.572444 -0.641120
  1388 7.59441 0.572511 0.641286
  1389 8.87302 0.102822 0.331318
  1390 8.87295 0.102694 -0.331481
  1391 10.2116 -0.109564 0.0730254
  1392 10.2116 -0.109417 -0.0726701
  1393 10.8125 0.0478114 -1.38087
  1394 10.8134 0.0475472 1.38064
  1395 16.4590 0.354439 0.757674
  1396 10.0961 0.232390 -0.764203
  1397 8.09467 0.261727 -0.597519
  1398 8.09483 0.261765 0.597687
  1399 8.33058 -0.169454 -0.959751
  1400 8.33104 -0.168874 0.959298
  1401 8.35125 0.178627 0.587466
  1402 8.35095 0.178605 -0.587312
  1403 14.3235 -0.0478523 -0.421961
  1404 14.3234 -0.0479192 0.421462
  1405 7.83571 0.359422 0.440747
  1406 7.83575 0.359357 -0.440608
  1407 14.1223 -0.490810 -0.589963
  1408 14.1248 -0.493672 0.591080
  1409 17.8573 1.11535 -0.613382
  1410 8.07948 0.00402275 0.0794896
  1411 8.07909 0.00402236 -0.0794620
  1412 8.88912 0.0751503 0.499834
  1413 8.88859 0.0751481 -0.499722
  1414 6.94656 0.779952 1.26141
  1415 6.94668 0.780036 -1.26101
  1416 7.43135 0.597882 0.106908
  1417 7.43095 0.597883 -0.106978
  1418 12.6270 2.48748 -0.236570
  1419 13.9737 -0.809159 0.908198
  1420 13.9687 -0.805403 -0.907345
  1421 8.03934 -0.434876 -1.43112
  1422 8.04009 -0.432271 1.43162
  1423 9.47605 0.229957 1.32549
  1424 9.47543 0.230106 -1.32541
  1425 4.62017 0.488416 0.624967
  1426 4.61753 0.489290 -0.625414
  1427 10.0714 0.219388 0.755849
  1428 18.0157 1.69329 -0.0900472
  1429 6.65053 0.698722 -0.345724
  1430 6.65115 0.698781 0.345415
  1431 7.99324 0.404026 -0.133230
  1432 7.99353 0.404000 0.133166
  1433 14.0417 1.55661 0.184239
  1434 9.78054 -0.0183303 -0.172942
  1435 9.78043 -0.0182126 0.172955
  1436 7.59507 0.506424 -0.281038
  1437 7.59547 0.506472 0.280917
  1438 9.39711 0.116083 -0.515899
  1439 14.1109 -0.369055 0.0223554
  1440 14.1103 -0.368030 -0.0229982
  1441 5.82065 -1.54529 2.24911
  1442 8.97184 0.0261080 0.315753
  1443 11.2977 -0.190468 0.788176
  1444 8.95452 0.223448 0.946947
  1445 8.95405 0.223473 -0.946790
  1446 11.3039 -0.217581 -0.779702
  1447 10.1749 -0.161766 0.255856
  1448 10.1750 -0.161577 -0.255330
  1449 9.97183 -0.960258 0.659290
  1450 9.96095 -0.967390 -0.664730
  1451 9.98776 -1.35971 1.19402
  1452 7.51794 0.638735 0.821610
  1453 7.51805 0.638682 -0.821409
  1454 11.0943 0.0232285 0.332791
  1455 11.0933 0.0232355 -0.332787
  1456 7.80340 0.469695 0.0609949
  1457 7.80366 0.469634 -0.0609840
  1458 12.2650 0.438056 0.768158
  1459 8.39559 0.355686 0.979513
  1460 8.39531 0.355688 -0.979311
  1461 7.06446 0.212462 -1.08485
  1462 7.06479 0.213100 1.08423
  1463 10.1695 -0.241453 -0.438114
  1464 10.1696 -0.241595 0.438719
  1465 8.21895 0.127980 -0.454863
  1466 8.21922 0.128001 0.454998
  1467 13.2388 0.00881871 -0.495162
  1468 13.2393 0.00876811 0.494937
  1469 8.08498 0.327209 0.358269
  1470 8.08465 0.327148 -0.358432
  1471 9.90117 -0.0691686 -0.144598
  1472 9.90102 -0.0690014 0.144694
  1473 6.61008 0.897339 -0.510758
  1474 6.60952 0.897460 0.510867
  1475 10.3365 -0.00289117 -0.0469094
  1476 10.3364 -0.00287940 0.0469269
  1477 9.51529 0.429606 -0.187825
  1478 6.04524 0.818098 -1.07738
  1479 6.04474 0.818050 1.07796
  1480 9.48002 -0.436744 0.499830
  1481 9.48058 -0.437492 -0.500073
  1482 10.4290 -0.839776 0.0373526
  1483 10.4295 -0.839844 -0.0357149
  1484 7.20502 0.750283 1.11465
  1485 7.20515 0.750290 -1.11434
  1486 12.2900 -0.147107 1.07100
  1487 12.2892 -0.146779 -1.07159
  1488 10.1540 -0.0396269 0.188424
  1489 10.1548 -0.0395598 -0.188020
  1490 10.0179 0.445339 -0.645788
  1491 3.05530 -0.302411 -0.0833659
  1492 3.05123 -0.301808 0.0856841
  1493 7.94122 0.414661 0.748239
  1494 7.94115 0.414616 -0.748047
  1495 7.83298 0.443864 -0.177440
  1496 7.83332 0.443861 0.177357
  1497 13.2978 -0.206727 -0.702611
  1498 13.2983 -0.206949 0.701751
  1499 8.11591 0.0241317 0.191186
  1500 8.11557 0.0241263 -0.191120
  1501 10.1059 -0.0792304 -0.739738
  1502 10.1048 -0.0775720 0.740924
  1503 7.40782 0.489270 0.456853
  1504 7.40736 0.489135 -0.457052
  1505 9.12335 0.0413259 0.309115
  1506 9.12335 0.0411670 -0.309243
  1507 10.9152 -0.436005 1.51308
  1508 10.9138 -0.435500 -1.51340
  1509 12.2316 -0.578766 -0.955779
  1510 12.2334 -0.579178 0.954973
  1511 10.7547 -1.15197 0.211167
  1512 10.7644 -1.14151 -0.197403
  1513 9.44030 0.112930 0.535925
  1514 9.26033 -0.0532174 0.345466
  1515 9.26045 -0.0534942 -0.345595
  1516 12.1344 1.13548 -0.832009
  1517 8.72343 -0.268311 -0.819770
  1518 8.72376 -0.267762 0.819262
  1519 9.40061 -1.79142 2.04348
  1520 10.4404 1.18501 -0.157501
  1521 9.40653 -0.592616 -0.705626
  1522 9.40628 -0.591568 0.705315
  1523 11.5863 -1.25365 0.266346
  1524 6.14523 -0.144308 -1.90391
  1525 6.14654 -0.145266 1.90443
  1526 7.78918 0.416430 0.496197
  1527 7.78924 0.416364 -0.496050
  1528 10.0819 -0.00737123 -0.103614
  1529 10.0817 -0.00732347 0.103645
  1530 7.53652 0.584365 0.401009
  1531 7.53674 0.584290 -0.400904
  1532 13.4356 -1.23382 0.339013
  1533 13.4329 -1.22662 -0.342567
  1534 10.7090 0.0146756 -0.324018
  1535 10.7099 0.0146712 0.324036
  1536 11.3576 0.316777 0.899423
  1537 11.2813 0.0644238 0.995513
  1538 9.47051 -1.71685 -1.56514
  1539 9.46757 -1.71240 1.57156
  1540 8.81800 0.0472099 0.369816
  1541 8.81746 0.0472056 -0.369727
  1542 8.27925 0.293409 0.787654
  1543 8.27901 0.293389 -0.787468
  1544 11.1938 0.0742909 -0.986867
  1545 9.83513 0.659199 0.237926
  1546 14.2929 -0.865571 -0.108107
  1547 14.3468 -0.805225 0.171638
  1548 10.5733 0.153513 0.874201
  1549 9.25889 -0.00247044 -0.323657
  1550 9.25548 -0.00272028 0.319996
  1551 7.02698 0.668515 -0.275869
  1552 7.02749 0.668583 0.275679
  1553 10.3443 0.710532 0.646028
  1554 7.90337 0.339882 -0.536742
  1555 7.90341 0.339937 0.536902
  1556 9.77699 0.167651 -0.508984
  1557 8.46475 0.00644197 -0.131908
  1558 8.46526 0.00644205 0.131947
  1559 5.12621 -1.53117 2.48007
  1560 5.15259 -1.51700 -2.47441
  1561 9.38232 -1.47867 -1.70928
  1562 6.69670 -1.68403 -1.97990
  1563 6.69991 -1.68313 1.97724
  1564 10.1634 -0.0542272 -0.0521691
  1565 10.1633 -0.0541228 0.0523451
  1566 7.88564 0.398539 1.78456
  1567 7.88505 0.398972 -1.78427
  1568 11.5454 1.38318 -0.748591
  1569 3.33683 -0.496008 -0.929729
  1570 3.33623 -0.497191 0.932440
  1571 10.0107 0.437528 0.657053
  1572 9.67919 0.201930 1.50073
  1573 9.67847 0.202182 -1.50074
  1574 10.2294 -0.0246225 0.0651368
  1575 10.2295 -0.0246767 -0.0650440
  1576 8.77407 0.352976 1.25693
  1577 8.77364 0.353065 -1.25675
  1578 5.11803 -0.762552 -1.86614
  1579 5.12025 -0.763922 1.86673
  1580 14.5515 -0.361225 1.49096
  1581 14.5493 -0.367415 -1.48746
  1582 11.2035 0.214836 2.26269
  1583 7.62422 0.542523 0.00162872
  1584 7.62455 0.542485 -0.00164833
  1585 10.0519 0.383476 2.77644
  1586 11.1321 -0.982858 -1.26240
  1587 11.1348 -0.983536 1.26257
  1588 10.4886 -0.174718 -1.61845
  1589 10.4898 -0.175163 1.61815
  1590 9.84928 0.0149278 0.236676
  1591 9.84846 0.0149276 -0.236640
  1592 8.19753 0.327582 -0.223275
  1593 8.19779 0.327584 0.223166
  1594 5.22892 0.196209 -1.55806
  1595 5.22925 0.195387 1.55921
  1596 5.83000 -0.0475839 1.63257
  1597 5.82943 -0.0471866 -1.63398
  1598 5.47367 0.458802 -0.982211
  1599 5.47517 0.458372 0.981129
  1600 7.38520 0.669550 0.547751
  1601 7.38544 0.669475 -0.547618
  1602 9.71078 0.242824 -0.0761359
  1603 7.62619 0.545555 0.236366
  1604 7.62643 0.545484 -0.236303
  1605 8.52837 0.208304 0.302238
  1606 8.52819 0.208244 -0.302391
  1607 8.52836 0.137565 0.566966
  1608 8.52798 0.137552 -0.566824
  1609 9.28993 -1.98143 -1.46501
  1610 9.32923 -1.97201 1.48496
  1611 10.2203 -0.709629 -0.0829834
  1612 10.2190 -0.709096 0.0837987
  1613 9.80344 -0.765434 -0.556389
  1614 9.80271 -0.766524 0.555315
  1615 10.2347 -0.444515 -0.220669
  1616 10.2351 -0.444760 0.221192
  1617 10.4400 0.135593 -2.16756
  1618 10.1718 -0.270149 -0.194102
  1619 10.1720 -0.270410 0.194606
  1620 10.6476 0.926097 -0.681211
  1621 9.61703 -0.00768291 0.555247
  1622 9.61688 -0.00781497 -0.555391
  1623 25.9250 1.50451 -0.112378
  1624 9.97264 -0.156668 0.0863119
  1625 9.97286 -0.156926 -0.0860805
  1626 10.3576 -0.0257387 0.0852353
  1627 10.3580 -0.0256882 -0.0849945
  1628 10.4361 -0.0167597 0.0233470
  1629 10.4363 -0.0167356 -0.0232014
  1630 8.55873 0.139892 0.422286
  1631 8.55854 0.139747 -0.422507
  1632 8.70791 0.0103383 0.144806
  1633 8.70733 0.0103371 -0.144767
  1634 5.30973 0.767760 0.900077
  1635 5.31067 0.767743 -0.899275
  1636 5.97501 0.911456 0.601565
  1637 5.97586 0.911287 -0.601278
  1638 10.7698 -1.43523 0.756026
  1639 11.5069 0.0362646 -0.984097
  1640 11.5077 0.0361447 0.983925
  1641 9.34685 0.197446 0.445885
  1642 9.80732 -0.185459 -0.174106
  1643 9.80703 -0.185120 0.174250
  1644 9.13735 0.00860886 -0.169511
  1645 9.13804 0.00860849 0.169549
  1646 13.1963 -1.03457 0.0167447
  1647 13.1973 -1.03143 -0.0191177
  1648 11.4638 -1.27005 -0.223246
  1649 9.39820 0.0732341 0.550586
  1650 9.39755 0.0732386 -0.550491
  1651 14.9978 -0.0972786 0.310737
  1652 14.9962 -0.0965935 -0.309681
  1653 6.71252 -0.131338 -1.60725
  1654 6.71295 -0.131650 1.60556
  1655 7.90447 0.295845 0.463735
  1656 7.90445 0.295790 -0.463588
  1657 18.2811 1.15833 0.306040
  1658 8.34648 0.00576740 0.0896351
  1659 8.34600 0.00576622 -0.0896060
  1660 9.62676 -0.00335994 0.265629
  1661 9.62822 -0.00387577 -0.265293
  1662 7.93340 -0.904088 2.01407
  1663 7.93249 -0.904405 -2.01458
  1664 4.91850 -1.58975 -1.96017
  1665 18.6980 2.37028 -1.11608
  1666 6.99701 0.449724 -0.739890
  1667 6.99749 0.450040 0.739476
  1668 9.57432 0.0783637 0.642167
  1669 9.57366 0.0783775 -0.642075
  1670 8.18072 0.0781437 0.350061
  1671 8.18043 0.0781293 -0.349950
  1672 12.3175 0.0919904 -0.635888
  1673 8.02448 0.543173 1.36718
  1674 8.02423 0.543287 -1.36691
  1675 8.41282 0.0436354 -0.295683
  1676 8.41324 0.0436421 0.295769
  1677 8.16869 0.00521133 -0.0830106
  1678 8.16911 0.00521356 0.0830391
  1679 7.40207 -0.0283483 -1.24476
  1680 7.40222 -0.0273751 1.24428
  1681 14.0737 0.437085 -1.46541
  1682 13.8237 -0.0121685 -0.342729
  1683 13.8240 -0.0122009 0.342508
  1684 8.44163 0.0808275 0.415980
  1685 8.44124 0.0808170 -0.415865
  1686 8.71375 -0.876054 1.50533
  1687 8.71582 -0.889481 -1.51271
  1688 9.28909 0.177829 0.925715
  1689 9.28853 0.177861 -0.925586
  1690 7.90168 0.317598 0.496487
  1691 7.90128 0.317465 -0.496695
  1692 1.72736 -4.64071 0.437005
  1693 1.72592 -4.63710 -0.443537
  1694 11.2318 1.78205 0.267391
  1695 15.5657 -0.0414861 -0.0476797
  1696 15.5637 -0.0414178 0.0473630
  1697 12.7019 0.00846667 0.433819
  1698 12.7012 0.00849508 -0.433935
  1699 8.20867 0.0321251 0.230136
  1700 8.20830 0.0321189 -0.230061
  1701 12.2965 -0.00467785 -0.894885
  1702 12.2972 -0.00481073 0.894569
  1703 9.94774 -1.32243 -1.15601
  1704 8.09989 0.167388 -0.466662
  1705 8.10009 0.167418 0.466806
  1706 9.57346 -0.267526 0.329584
  1707 9.57386 -0.268028 -0.329609
  1708 20.9535 1.74244 0.0784187
  1709 8.21379 0.353044 0.854490
  1710 8.21358 0.353024 -0.854293
  1711 9.05633 0.243272 0.000540866
  1712 7.36183 -0.822362 -2.04839
  1713 7.36871 -0.826671 2.04531
  1714 7.99738 0.200131 0.441140
  1715 7.99726 0.200092 -0.440996
  1716 10.2290 -0.0981661 0.154747
  1717 10.2292 -0.0980363 -0.154328
  1718 11.2835 0.189036 -0.899663
  1719 8.89543 0.356447 -1.40432
  1720 8.89593 0.356286 1.40448
  1721 5.86051 0.842352 -0.132687
  1722 5.86161 0.842089 0.132434
  1723 7.50255 0.687987 1.16877
  1724 7.50256 0.688013 -1.16848
  1725 7.24218 0.257323 1.87212
  1726 7.24139 0.257931 -1.87173
  1727 9.99278 -0.706081 -0.312107
  1728 9.99148 -0.705097 0.312090
  1729 10.4053 -0.558345 0.328687
  1730 10.4050 -0.558225 -0.328144
  1731 10.7782 -0.630552 -0.504018
  1732 10.7792 -0.630708 0.503669
  1733 9.67063 0.191986 1.10845
  1734 9.67000 0.192070 -1.10837
  1735 10.8075 -1.40310 -0.664877
  1736 8.58479 0.295041 0.930356
  1737 8.58445 0.295046 -0.930170
  1738 6.61659 0.336541 -1.05753
  1739 6.61705 0.336899 1.05666
  1740 9.98057 -0.668729 -1.68816
  1741 9.98205 -0.669053 1.68824
  1742 7.77198 0.475222 0.166676
  1743 7.77221 0.475150 -0.166626
  1744 10.2605 0.0651339 0.646701
  1745 10.2597 0.0651582 -0.646654
  1746 20.2875 1.50794 -3.63050
  1747 8.06986 0.211409 -0.509033
  1748 8.07002 0.211444 0.509186
  1749 10.4197 0.0801129 0.817238
  1750 10.4189 0.0801582 -0.817213
  1751 12.1232 0.0165010 0.449347
  1752 12.1224 0.0165214 -0.449416
  1753 7.46040 0.340445 -0.722145
  1754 7.46087 0.340742 0.721864
  1755 7.79466 0.0618659 -0.984683
  1756 7.79520 0.0623858 0.984353
  1757 9.79434 -0.0588825 0.513061
  1758 9.79478 -0.0595523 -0.512703
  1759 8.71635 -0.504144 1.12131
  1760 8.71671 -0.505221 -1.12204
  1761 7.56315 -1.42150 2.43331
  1762 7.48843 -1.38847 -2.42007
  1763 10.2053 0.740769 -0.553537
  1764 8.60957 0.0275917 -0.269119
  1765 8.61007 0.0275953 0.269192
  1766 8.46837 0.0590032 0.0943394
  1767 7.58206 0.459944 0.419174
  1768 7.58163 0.459840 -0.419347
  1769 11.5965 -1.71314 -0.786177
  1770 11.6166 -1.72060 0.784294
  1771 13.1782 -0.0688613 -0.740407
  1772 13.1786 -0.0690192 0.739896
  1773 9.54915 -0.0519215 0.247923
  1774 9.54929 -0.0521383 -0.247945
  1775 8.65738 0.0331745 -0.206518
  1776 9.07306 -0.658958 1.01854
  1777 9.07107 -0.661130 -1.02024
  1778 13.9374 1.01544 0.172816
  1779 10.1084 -0.494446 -0.00573546
  1780 10.1078 -0.494029 0.00622392
  1781 8.51302 0.232502 -0.785848
  1782 8.51335 0.232511 0.786024
  1783 7.99601 0.183880 0.692191
  1784 7.99557 0.183626 -0.692480
  1785 7.61945 0.546851 0.571689
  1786 7.61958 0.546781 -0.571538
  1787 7.10928 0.749608 0.232468
  1788 7.10969 0.749548 -0.232452
  1789 7.79403 0.408223 0.373727
  1790 7.79413 0.408150 -0.373607
  1791 13.2005 2.38128 0.384125
  1792 13.8933 -0.303685 1.40536
  1793 13.8884 -0.304925 -1.40862
  1794 12.4342 -0.726385 0.149537
  1795 7.77958 0.462809 0.637564
  1796 7.77961 0.462749 -0.637391
  1797 11.0420 1.65167 -0.245014
  1798 20.6398 1.29267 2.80623
  1799 8.73548 0.362622 1.57610
  1800 8.73492 0.362883 -1.57594
  1801 10.0835 0.114140 0.625469
  1802 7.26019 -1.87415 2.68437
  1803 7.34241 0.657951 0.137439
  1804 7.34277 0.657905 -0.137432
  1805 9.95782 0.741878 -0.269507
  1806 8.43301 0.0454983 0.640202
  1807 8.43271 0.0452228 -0.640532
  1808 10.0265 -0.246704 -0.0230478
  1809 10.0262 -0.246382 0.0233935
  1810 11.3965 -0.0217115 1.26727
  1811 11.3956 -0.0214358 -1.26762
  1812 7.44130 -1.87631 -2.63604
  1813 10.8755 1.43884 0.394805
  1814 9.03344 0.0570820 0.426763
  1815 9.03285 0.0570803 -0.426670
  1816 7.88636 0.499987 0.898347
  1817 7.88629 0.499956 -0.898134
  1818 9.24539 0.101798 0.223555
  1819 7.92496 0.522894 1.03373
  1820 7.92486 0.522889 -1.03350
  1821 8.52871 -1.13637 1.86926
  1822 8.49460 -1.16632 -1.91306
  1823 7.44606 0.686248 0.948576
  1824 7.44616 0.686210 -0.948342
  1825 12.8908 2.18300 -0.535434
  1826 14.8313 0.848232 1.13795
  1827 10.6034 0.108326 1.18700
  1828 10.6026 0.108475 -1.18708
  1829 13.8357 -0.582376 0.267139
  1830 13.8347 -0.580086 -0.267666
  1831 10.1159 -0.0232571 -0.0961877
  1832 10.1158 -0.0231900 0.0962561
  1833 7.27545 -0.260710 -2.04856
  1834 7.27673 -0.261344 2.04863
  1835 10.8194 -1.38516 1.89935
  1836 9.48044 -1.77616 2.37361
  1837 14.0786 -0.210426 -0.362631
  1838 14.0785 -0.210389 0.361733
  1839 11.7059 -0.648388 -0.435655
  1840 12.4588 0.0636451 0.558387
  1841 11.4773 -1.46540 -1.04905
  1842 11.5547 -1.38672 1.04529
  1843 14.0240 -0.397495 1.20475
  1844 14.0168 -0.397871 -1.20428
  1845 10.3276 -1.71718 1.52276
  1846 2.05828 -1.64509 0.403284
  1847 2.04698 -1.64023 -0.398283
  1848 10.0116 -0.107086 -0.423422
  1849 10.0112 -0.107027 0.423996
  1850 11.6400 0.00423722 0.337329
  1851 11.6391 0.00425070 -0.337349
  1852 8.20194 0.183194 0.549808
  1853 8.20170 0.183168 -0.549653
  1854 16.8763 2.06093 3.12867
  1855 3.57880 -0.507218 1.34049
  1856 3.57390 -0.508574 -1.34259
  1857 7.73975 0.466651 -0.237427
  1858 7.74012 0.466675 0.237322
  1859 8.47805 0.196755 0.378680
  1860 8.47784 0.196656 -0.378873
  1861 9.00871 0.112811 -0.640426
  1862 9.00924 0.112810 0.640553
  1863 13.7178 -1.18062 -0.0828809
  1864 13.6894 -1.18532 0.0697815
  1865 3.61831 -2.44503 -1.32215
  1866 3.62078 -2.44377 1.32116
  1867 7.56083 0.579877 -0.149040
  1868 7.56053 0.579937 0.149069
  1869 9.98666 0.0432348 0.546700
  1870 9.98589 0.0432508 -0.546637
  1871 7.92612 0.374405 0.661109
  1872 7.92607 0.374358 -0.660931
  1873 7.00040 0.614620 1.55228
  1874 7.00021 0.614936 -1.55178
  1875 5.79911 -2.14687 1.73981
  1876 5.79132 -2.14955 -1.74119
  1877 7.24757 0.694305 1.37790
  1878 7.24753 0.694446 -1.37752
  1879 10.0933 -0.165687 -0.631849
  1880 10.0932 -0.164816 0.632626
  1881 10.2660 -0.328560 -0.526456
  1882 10.2664 -0.328645 0.527061
  1883 10.7016 0.488454 0.864731
  1884 11.7143 -0.635510 0.419660
  1885 10.0140 -0.0888363 -0.0901995
  1886 10.0138 -0.0886597 0.0903693
  1887 6.23608 0.874483 0.110113
  1888 6.23689 0.874331 -0.110208
  1889 3.55108 -2.42424 -0.499078
  1890 3.55351 -2.42132 0.499003
  1891 9.14346 0.192400 -0.298333
  1892 10.3711 0.114922 1.36521
  1893 10.3703 0.115129 -1.36531
  1894 9.63797 -0.0120131 -0.207243
  1895 9.63786 -0.0118803 0.207229
  1896 9.47806 -0.147973 0.311936
  1897 9.47830 -0.148340 -0.311987
  1898 8.73731 0.117518 -0.579579
  1899 8.73776 0.117525 0.579712
  1900 9.83881 -0.0236825 0.247026
  1901 9.84005 -0.0237414 -0.246630
  1902 8.00901 0.316087 0.636826
  1903 8.00890 0.316044 -0.636651
  1904 13.6702 -0.0618549 -0.644812
  1905 13.6731 -0.0613916 0.651078
  1906 9.35486 0.151850 1.70602
  1907 9.35402 0.152246 -1.70604
  1908 13.1981 0.0130395 1.53902
  1909 11.9554 0.558308 -0.823646
  1910 8.31727 0.0214916 -0.200098
  1911 8.31770 0.0214945 0.200160
  1912 8.31685 0.0557825 -0.0487678
  1913 6.57714 0.782713 -0.122250
  1914 6.57779 0.782683 0.122049
  1915 13.5980 1.66428 -3.30341
  1916 7.24518 0.733432 0.638916
  1917 7.24545 0.733357 -0.638766
  1918 2.56520 -1.36261 1.21551
  1919 2.55542 -1.36436 -1.22238
  1920 25.1428 1.17071 -2.38226
  1921 10.8808 -1.70849 -1.27224
  1922 8.45293 0.0193720 -0.208167
  1923 8.45340 0.0193750 0.208229
  1924 17.1542 0.497483 -0.359873
  1925 10.4125 -0.00336893 -0.0344899
  1926 10.4123 -0.00336040 0.0345142
  1927 5.58864 -1.24642 1.20464
  1928 5.94715 -1.16034 -1.34397
  1929 5.93816 -0.587807 -2.10995
  1930 5.93529 -0.585811 2.10822
  1931 9.41221 0.00254118 0.255172
  1932 9.41228 0.00238905 -0.255238
  1933 10.2664 0.0153961 -0.243323
  1934 10.2673 0.0153935 0.243351
  1935 10.7611 0.397194 -0.882301
  1936 8.08756 0.259239 0.497223
  1937 8.08720 0.259104 -0.497447
  1938 10.1359 -0.201337 -0.0861139
  1939 10.1361 -0.201573 0.0865322
  1940 8.89258 0.0558187 0.383170
  1941 8.89253 0.0556303 -0.383365
  1942 8.03455 0.155372 0.408511
  1943 8.03439 0.155342 -0.408376
  1944 7.85083 0.386024 0.555025
  1945 7.85083 0.385963 -0.554865
  1946 15.1952 -0.0772380 -0.163873
  1947 15.1971 -0.0776726 0.164177
  1948 11.9857 1.85142 0.575783
  1949 8.49905 0.0172615 0.155166
  1950 11.4501 0.0311603 0.854988
  1951 11.4493 0.0312340 -0.855102
  1952 6.83409 -1.05575 2.06978
  1953 6.83225 -1.05538 -2.07073
  1954 9.88175 -0.581432 0.300703
  1955 9.88272 -0.582109 -0.300537
  1956 10.1335 -0.118868 -0.00257246
  1957 10.1336 -0.119047 0.00286744
  1958 6.95325 -0.954296 2.23912
  1959 6.93636 -0.955976 -2.23634
  1960 9.08604 0.111877 1.81179
  1961 9.08510 0.112339 -1.81182
  1962 11.7926 -1.09464 0.905620
  1963 11.7886 -1.09423 -0.906159
  1964 8.68681 0.160514 0.311902
  1965 8.68668 0.160431 -0.312058
  1966 20.2664 2.09087 0.801997
  1967 8.27690 0.102996 -0.427971
  1968 8.27721 0.103012 0.428097
  1969 11.1764 -0.960785 0.192227
  1970 11.1636 -0.971672 -0.176081
  1971 7.23052 -0.446982 1.78265
  1972 7.23162 -0.446784 -1.78642
  1973 17.0534 0.739513 -0.783151
  1974 10.4513 -0.00503495 0.0212408
  1975 10.4514 -0.00505141 -0.0211801
  1976 12.7208 -0.432233 -1.04307
  1977 8.21616 0.264294 0.686009
  1978 8.21595 0.264265 -0.685832
  1979 11.2906 1.07405 0.812886
  1980 8.29963 0.168295 0.524240
  1981 8.29932 0.168123 -0.524500
  1982 14.9432 1.03081 -0.840276
  1983 11.2340 0.0241679 0.724299
  1984 12.9684 -0.745171 0.392316
  1985 12.9667 -0.745879 -0.393827
  1986 8.06445 0.433744 -2.88901
  1987 11.4208 1.69016 -0.536068
  1988 10.1335 0.854608 0.311235
  1989 9.40613 0.358589 0.248959
  1990 1.32005 -5.28910 0.465516
  1991 1.32670 -5.28761 -0.476689
  1992 10.7004 1.32416 -0.355301
  1993 6.39132 0.912660 0.732169
  1994 6.39191 0.912544 -0.731911
  1995 11.1746 0.00977835 -0.708931
  1996 10.1973 -1.12363 -0.674207
  1997 10.2195 -1.11983 0.631798
  1998 11.5063 -1.43739 0.919036
  1999 11.4997 -1.43679 -0.919099
  2000 8.10028 -1.57991 1.37036
  2001 8.43955 -1.71907 -1.41325
  2002 6.45012 0.696655 -0.469442
  2003 6.45083 0.696684 0.469001
  2004 3.52860 -2.11822 2.09160
  2005 3.57058 -2.08123 -2.17012
  2006 7.41238 0.647970 0.417086
  2007 7.41264 0.647897 -0.416987
  2008 9.42001 0.00616048 0.165953
  2009 9.41926 0.00616199 -0.165919
  2010 13.3806 0.224730 -0.180416
  2011 8.86971 0.163173 -0.749664
  2012 8.87018 0.163170 0.749813
  2013 7.69309 0.486613 0.404397
  2014 7.69323 0.486539 -0.404278
  2015 14.3232 -0.137914 -1.61685
  2016 13.1180 1.23749 0.574807
  2017 9.13262 -0.958070 -1.30770
  2018 9.13463 -0.935135 1.29527
  2019 15.0944 0.157916 -1.46646
  2020 10.1171 0.0527081 -0.636425
  2021 14.4236 -0.762341 -1.00570
  2022 14.4229 -0.761395 1.00991
  2023 7.73634 0.501363 0.0320427
  2024 7.73662 0.501312 -0.0320453
  2025 8.01011 0.233289 0.494339
  2026 8.00999 0.233248 -0.494187
  2027 16.7163 0.590025 0.948819
  2028 9.82859 0.190814 1.25472
  2029 9.82792 0.190951 -1.25468
  2030 13.0039 0.0791960 -1.49780
  2031 8.10108 0.0538402 0.279939
  2032 8.10080 0.0538292 -0.279843
  2033 9.19000 -0.182704 0.472598
  2034 9.19018 -0.183158 -0.472841
  2035 7.37850 -0.333987 2.56034
  2036 15.0619 -0.0393996 -0.220694
  2037 15.0611 -0.0394253 0.220284
  2038 8.77097 -0.0709671 0.590769
  2039 8.77087 -0.0713213 -0.591125
  2040 8.07656 0.0116228 0.133920
  2041 8.07620 0.0116200 -0.133872
  2042 10.1599 -0.0795300 -0.241330
  2043 10.1595 -0.0796473 0.241821
  2044 3.44102 -2.59219 1.33250
  2045 15.2056 1.24707 -0.185582
  2046 12.9800 -0.553474 -0.613679
  2047 12.9813 -0.553473 0.612514
  2048 9.16818 -0.231245 -1.89853
  2049 9.16936 -0.231715 1.89844
  2050 10.3225 -0.0234210 0.0938595
  2051 10.3231 -0.0233807 -0.0936171
  2052 9.03582 0.123861 0.315423
  2053 27.6698 0.909837 0.558892
  2054 16.7093 1.36447 -0.653406
  2055 9.88211 -0.0367212 -0.670923
  2056 9.88420 -0.0364293 0.671371
  2057 12.5530 0.337683 1.17823
  2058 9.13215 -0.462080 0.772317
  2059 9.13234 -0.462870 -0.772885
  2060 7.77059 0.449497 0.272492
  2061 7.77076 0.449420 -0.272406
  2062 15.1273 0.151032 1.47253
  2063 7.67717 0.541557 0.711190
  2064 7.67723 0.541497 -0.711008
  2065 10.4641 -0.352982 -0.652290
  2066 10.4649 -0.352923 0.652889
  2067 8.64931 -1.57669 -2.24677
  2068 3.15784 -2.89795 -1.25201
  2069 9.74907 -0.469464 -0.337569
  2070 9.74830 -0.468777 0.337640
  2071 9.90607 -0.321108 -0.129052
  2072 9.90564 -0.320672 0.129325
  2073 9.95140 -0.00995431 -0.135003
  2074 9.95129 -0.00988470 0.135024
  2075 13.9031 1.10852 -0.0904050
  2076 8.14918 0.316181 -0.316001
  2077 8.14948 0.316224 0.315851
  2078 7.18984 0.652850 0.138631
  2079 7.18938 0.652827 -0.138739
  2080 9.32822 -0.858265 1.05170
  2081 9.34508 -0.861778 -1.04878
  2082 7.58242 -0.378934 1.57192
  2083 7.58436 -0.381697 -1.57284
  2084 14.3471 -0.139742 1.60107
  2085 6.96486 0.768184 0.0976216
  2086 6.96534 0.768143 -0.0976702
  2087 6.55474 -2.17442 -1.71130
  2088 6.57448 -2.16721 1.70357
  2089 9.60877 -1.29174 -1.70678
  2090 9.60955 -1.29095 1.70828
  2091 6.83119 0.834316 -0.362691
  2092 6.83070 0.834403 0.362733
  2093 2.45228 -1.94701 -0.744216
  2094 2.45450 -1.95168 0.746468
  2095 11.9169 0.548111 0.470527
  2096 12.3796 -0.00814731 -0.854410
  2097 9.73658 0.00715560 0.161891
  2098 9.73576 0.00715598 -0.161863
  2099 10.0098 -0.0400529 -0.117639
  2100 10.0096 -0.0399397 0.117726
  2101 9.59121 -0.136944 0.261089
  2102 9.59145 -0.137273 -0.261078
  2103 10.0210 -0.0668257 1.70221
  2104 10.0200 -0.0663776 -1.70242
  2105 19.8262 1.42864 0.106011
  2106 3.42115 0.0476900 -0.283663
  2107 3.42531 0.0467981 0.284462
  2108 10.2752 -0.0404604 -0.0232343
  2109 10.2752 -0.0403911 0.0234100
  2110 8.78651 0.145997 -0.0874240
  2111 8.82299 0.00487027 -0.114802
  2112 8.82361 0.00487174 0.114833
  2113 7.93456 0.422094 -0.0143002
  2114 7.93482 0.422040 0.0142847
  2115 11.4744 0.400415 -0.684466
  2116 5.12264 0.783156 0.540716
  2117 5.12400 0.782916 -0.540081
  2118 13.9656 -0.676476 0.763811
  2119 13.9619 -0.672112 -0.762767
  2120 10.4100 0.972602 0.493641
  2121 9.40165 -0.256897 0.414999
  2122 9.40200 -0.257424 -0.415149
  2123 10.3125 -0.0477286 0.0446336
  2124 10.3126 -0.0476532 -0.0443854
  2125 10.4547 -0.0125827 0.0427732
  2126 10.4551 -0.0125677 -0.0426259
  2127 8.49003 0.342510 1.72145
  2128 8.48937 0.342896 -1.72128
  2129 1.11894 -4.70821 -0.470791
  2130 1.12691 -4.62928 0.478628
  2131 5.35774 0.867457 -0.267276
  2132 5.35634 0.867830 0.267497
  2133 9.85850 -0.0387080 -0.158927
  2134 9.85837 -0.0385731 0.158979
  2135 8.15723 0.498061 1.19242
  2136 8.15701 0.498108 -1.19218
  2137 10.7206 0.724781 0.801214
  2138 13.8359 0.278231 1.55586
  2139 7.90387 0.247380 1.86139
  2140 7.90306 0.247923 -1.86115
  2141 8.20700 0.0537221 0.297324
  2142 8.20666 0.0537121 -0.297229
  2143 11.2611 0.0295661 0.674861
  2144 11.2603 0.0296090 -0.674904
  2145 8.28196 0.466159 1.28190
  2146 8.28167 0.466245 -1.28166
  2147 12.1788 0.0140383 -0.716000
  2148 12.1795 0.0139683 0.715826
  2149 10.4079 -1.66559 -1.34818
  2150 16.5160 1.45948 0.444377
  2151 9.01830 -1.41227 1.87826
  2152 9.29736 0.179017 -0.441370
  2153 9.08234 0.268007 -1.14517
  2154 9.08284 0.267936 1.14531
  2155 5.74443 0.590002 -0.761153
  2156 5.74565 0.589735 0.760322
  2157 8.65564 0.334296 1.12096
  2158 8.65526 0.334340 -1.12077
  2159 12.2189 1.01016 0.796815
  2160 15.1519 0.633591 -1.34710
  2161 4.60140 0.492756 0.875464
  2162 4.60252 0.492872 -0.874141
  2163 6.54121 -1.58328 2.64836
  2164 6.89077 -1.58677 -2.62262
  2165 10.3796 -0.899157 -2.23560
  2166 8.68351 0.175094 0.709242
  2167 8.68310 0.175087 -0.709086
  2168 11.3528 0.0160107 -0.293551
  2169 11.3538 0.0160015 0.293548
  2170 8.36909 0.0325712 -0.123143
  2171 9.91982 -0.0887687 -0.488072
  2172 9.91938 -0.0884051 0.488552
  2173 6.66092 0.875974 0.725602
  2174 6.66139 0.875881 -0.725393
  2175 10.1030 -0.385336 -0.0557359
  2176 10.1034 -0.385684 0.0561956
  2177 10.7675 0.0420092 -0.630498
  2178 10.7683 0.0419812 0.630505
  2179 7.89322 0.465750 -0.799169
  2180 7.89328 0.465794 0.799368
  2181 5.36121 -0.157475 1.71596
  2182 5.36052 -0.157928 -1.71773
  2183 15.9348 -0.0122018 -0.752730
  2184 7.01308 0.795680 -0.435387
  2185 7.01268 0.795760 0.435464
  2186 9.69603 0.593455 -0.00236096
  2187 21.0921 1.81256 -0.103518
  2188 15.1306 2.86050 0.103548
  2189 9.42308 -0.0587736 0.288580
  2190 9.42322 -0.0590232 -0.288644
  2191 11.6591 -1.25575 -0.400628
  2192 17.7391 1.46851 0.498276
  2193 15.9245 -0.0149948 0.788075
  2194 12.8071 1.54878 -0.712110
  2195 10.1856 -0.00101223 -0.0808106
  2196 10.1854 -0.000987943 0.0808297
  2197 10.7605 -0.814908 -0.265775
  2198 10.7599 -0.815139 0.267147
  2199 8.39731 0.409415 1.12479
  2200 8.39701 0.409449 -1.12458
  2201 10.5893 -0.796386 -0.147400
  2202 10.5896 -0.796299 0.148366
  2203 8.84023 -1.86369 -2.45461
  2204 8.38890 0.112675 0.472682
  2205 8.38855 0.112660 -0.472551
  2206 10.7751 -0.321819 -0.742502
  2207 10.7746 -0.320381 0.746319
  2208 12.4902 -0.00170911 0.774524
  2209 7.93464 0.389591 0.291222
  2210 7.93430 0.389558 -0.291352
  2211 8.24709 0.465639 1.56546
  2212 8.24666 0.465875 -1.56522
  2213 11.1894 -0.0996172 -1.40717
  2214 11.1904 -0.0999919 1.40677
  2215 8.93090 -0.942652 1.93882
  2216 8.93027 -0.942993 -1.93859
  2217 7.33691 0.644761 0.00832725
  2218 7.33651 0.644783 -0.00837059
  2219 8.20564 0.0145960 0.175613
  2220 8.20524 0.0145938 -0.175555
  2221 10.9115 -0.159825 -0.822291
  2222 10.8851 -0.164466 0.825860
  2223 13.1867 0.0111938 -0.293868
  2224 13.1874 0.0111740 0.293771
  2225 9.80897 -0.0949868 -0.172510
  2226 9.80879 -0.0947634 0.172601
  2227 16.3487 2.87448 0.166796
  2228 11.7465 0.0319060 0.648137
  2229 11.7457 0.0319501 -0.648227
  2230 7.60479 0.529640 1.65593
  2231 7.60438 0.529985 -1.65557
  2232 13.7731 -0.0981579 -0.579002
  2233 13.7733 -0.0983138 0.578331
  2234 11.5313 -0.421140 -1.29183
  2235 11.5328 -0.421625 1.29134
  2236 8.38634 -1.61045 -1.80244
  2237 8.38253 -1.60865 1.80146
  2238 4.90287 -0.946133 2.25697
  2239 4.89997 -0.942406 -2.25792
  2240 10.2379 -0.356160 -0.347110
  2241 10.2382 -0.356384 0.347627
  2242 13.1346 -0.0916250 1.30977
  2243 8.41531 0.0510805 -0.242870
  2244 8.33286 0.0527944 0.309287
  2245 8.33247 0.0527856 -0.309194
  2246 18.1399 0.742015 0.551630
  2247 10.5353 0.00247618 0.243269
  2248 10.5344 0.00248171 -0.243250
  2249 10.1622 -0.201183 -0.371130
  2250 10.1622 -0.201356 0.371717
  2251 9.78782 -0.241961 0.188907
  2252 9.78819 -0.242372 -0.188755
  2253 12.3470 -0.0179069 -0.962708
  2254 12.3477 -0.0180915 0.962309
  2255 8.01000 -0.498434 2.04587
  2256 8.00876 -0.498085 -2.04602
  2257 4.52752 0.00225584 1.35694
  2258 4.52731 0.00318335 -1.35538
  2259 25.1671 1.16689 1.79362
  2260 11.3936 0.507679 -0.100224
  2261 7.96300 0.283026 -0.522064
  2262 7.96308 0.283073 0.522222
  2263 18.1473 1.66425 -0.244237
  2264 7.74919 0.487319 -0.0880016
  2265 7.74952 0.487293 0.0879529
  2266 10.0460 -1.20680 0.933113
  2267 14.4450 -0.277727 0.506151
  2268 14.4431 -0.276017 -0.504734
  2269 13.1483 -0.0885551 -1.34583
  2270 10.4501 0.0850791 -1.42359
  2271 10.4509 0.0848278 1.42344
  2272 11.1625 -0.633143 -0.538942
  2273 11.1539 -0.653822 0.521967
  2274 8.41280 0.180332 0.628177
  2275 8.41248 0.180314 -0.628019
  2276 12.6183 -0.179532 -0.972098
  2277 12.6191 -0.179832 0.971419
  2278 13.7818 0.620519 0.808546
  2279 14.9635 2.09655 0.122599
  2280 6.76923 0.584415 0.598020
  2281 6.76867 0.584230 -0.598443
  2282 12.7458 -0.0810483 -0.198482
  2283 8.92294 0.00434841 -0.209552
  2284 9.19086 -1.84111 -2.24932
  2285 13.8097 2.11678 0.347452
  2286 9.80786 0.0503850 0.512528
  2287 9.80712 0.0503934 -0.512459
  2288 14.6222 -0.0989914 -0.450978
  2289 14.6219 -0.100310 0.453636
  2290 10.2166 -0.165246 0.719852
  2291 10.2160 -0.166663 -0.718881
  2292 9.35357 0.000686888 -0.200988
  2293 9.35129 0.00140300 0.199890
  2294 9.09454 0.149776 0.789332
  2295 9.09401 0.149788 -0.789195
  2296 5.03935 0.661197 -0.425727
  2297 5.04133 0.660542 0.425379
  2298 10.1891 -0.323033 -0.235666
  2299 10.1893 -0.323287 0.236180
  2300 7.10754 0.790849 0.964406
  2301 7.10776 0.790812 -0.964144
  2302 4.18292 0.448144 0.423594
  2303 4.18498 0.447928 -0.422349
  2304 8.27343 0.00590597 0.0715983
  2305 8.27297 0.00590479 -0.0715748
  2306 10.5103 -1.60560 1.17370
  2307 10.2350 0.0747096 1.57373
  2308 10.2341 0.0750397 -1.57390
  2309 11.2581 0.348494 0.829008
  2310 7.33123 0.684227 0.444821
  2311 7.33151 0.684154 -0.444720
  2312 9.32326 0.0243687 0.336519
  2313 9.32258 0.0243696 -0.336453
  2314 8.79229 -0.0197233 0.514583
  2315 8.79220 -0.0200154 -0.514876
  2316 10.3168 -0.548702 0.220557
  2317 10.3164 -0.548511 -0.219980
  2318 8.60056 0.0905940 0.483032
  2319 8.60013 0.0905841 -0.482911
  2320 9.76892 0.401178 -0.533197
  2321 9.64818 0.142298 -0.619406
  2322 12.3356 0.453320 -1.02599
  2323 9.20791 0.0382555 0.283989
  2324 9.20793 0.0381103 -0.284096
  2325 14.0138 0.858401 0.884018
  2326 7.19988 0.764360 0.858726
  2327 7.20010 0.764303 -0.858508
  2328 11.8490 1.37391 0.791847
  2329 9.31024 -0.112443 0.367263
  2330 9.31042 -0.112794 -0.367395
  2331 9.16919 -0.00503154 0.335901
  2332 9.16925 -0.00525160 -0.336040
  2333 7.66390 0.619244 -0.998235
  2334 7.66390 0.619268 0.998471
  2335 8.30736 0.468265 1.45714
  2336 8.30699 0.468428 -1.45691
  2337 6.13492 0.121118 -1.79353
  2338 6.13573 0.120299 1.79425
  2339 15.5116 0.716181 1.25788
  2340 16.9880 2.04068 -3.48503
  2341 13.5601 -0.299728 1.28165
  2342 11.4868 0.139480 -1.06175
  2343 7.66991 0.202508 -0.841007
  2344 7.67041 0.202897 0.840711
  2345 10.4982 -0.0104750 -0.00568951
  2346 10.4982 -0.0104612 0.00575942
  2347 9.43428 0.106629 -0.491819
  2348 9.01237 0.00798371 0.112006
  2349 9.01170 0.00798297 -0.111979
  2350 8.21762 0.0711043 0.722409
  2351 8.21721 0.0708050 -0.722741
  2352 10.5899 0.0908287 -1.07169
  2353 10.5907 0.0907228 1.07165
  2354 10.7184 0.0805918 -0.877439
  2355 10.1150 -0.177249 -0.446703
  2356 10.1150 -0.177308 0.447330
  2357 8.07841 0.100595 -0.351434
  2358 8.07864 0.100616 0.351552
  2359 23.6980 1.36620 3.35149
  2360 7.69906 0.493961 0.305392
  2361 7.69925 0.493885 -0.305301
  2362 10.0465 -0.156815 -0.0382562
  2363 10.0463 -0.156580 0.0385409
  2364 6.20610 0.530218 0.861718
  2365 6.20530 0.530189 -0.862562
  2366 8.77029 0.256876 0.946464
  2367 8.76988 0.256893 -0.946290
  2368 16.9809 1.28302 3.71127
  2369 2.42858 -2.32390 1.54677
  2370 2.43511 -2.34108 -1.53927
  2371 9.72366 0.139984 0.897933
  2372 9.72301 0.140026 -0.897843
  2373 7.83564 0.367615 -0.400017
  2374 7.83558 0.367684 0.400148
  2375 9.96866 -0.500481 -0.153627
  2376 9.96796 -0.499927 0.153968
  2377 6.74647 0.821999 0.142218
  2378 6.74703 0.821931 -0.142274
  2379 9.49863 0.126825 -0.790681
  2380 9.49926 0.126802 0.790788
  2381 15.1174 1.36370 -3.59412
  2382 11.4769 -1.05495 -0.0614597
  2383 11.4903 -0.970820 0.147746
  2384 10.0717 0.0686102 0.623486
  2385 13.8422 -0.180029 -0.498244
  2386 13.8422 -0.180138 0.497365
  2387 10.8909 -0.978175 0.0751651
  2388 10.8886 -0.975485 -0.0772299
  2389 9.10369 -0.290162 -0.616814
  2390 9.10353 -0.289572 0.616414
  2391 11.4430 -0.659122 1.97991
  2392 11.5314 -0.384133 -0.663092
  2393 7.73639 0.463942 0.510521
  2394 7.73648 0.463873 -0.510374
  2395 12.6453 -0.398986 -0.882920
  2396 12.6464 -0.399317 0.882018
  2397 9.66492 0.223599 -1.41928
  2398 9.66560 0.223396 1.41931
  2399 8.41730 0.232697 0.724017
  2400 8.41699 0.232679 -0.723845
  2401 13.1150 -0.00296964 -0.607482
  2402 11.2929 0.996972 -0.842218
  2403 10.0675 0.116170 -0.766978
  2404 1.54186 -4.91724 -0.613872
  2405 1.60089 -4.73694 0.685827
  2406 10.2390 0.371083 -0.760082
  2407 15.3392 -0.0307340 -0.154735
  2408 15.3380 -0.0307413 0.154343
  2409 8.63618 -0.0716209 -0.675751
  2410 8.63640 -0.0712571 0.675354
  2411 12.4067 -0.0868533 1.00349
  2412 12.4060 -0.0866043 -1.00400
  2413 8.38046 0.266767 0.257470
  2414 8.38024 0.266745 -0.257597
  2415 8.29166 0.164996 -0.545153
  2416 8.29194 0.165019 0.545302
  2417 7.87789 0.318172 0.438070
  2418 7.87790 0.318112 -0.437928
  2419 14.1094 0.973641 -0.567907
  2420 8.87905 0.156376 0.109469
  2421 12.0566 2.30316 -0.0654742
  2422 7.69986 0.511624 0.643741
  2423 7.69993 0.511561 -0.643571
  2424 21.7374 1.52426 -0.694345
  2425 15.6346 -0.0469977 0.00632077
  2426 15.6324 -0.0468629 -0.00651307
  2427 11.7822 0.437793 0.871154
  2428 14.5294 -0.0313601 -0.304328
  2429 14.5293 -0.0313979 0.304019
  2430 11.2389 0.0472581 -1.19188
  2431 11.2397 0.0470640 1.19166
  2432 4.41129 -0.161748 -1.51311
  2433 4.41395 -0.162237 1.51092
  2434 8.72018 0.0438604 -0.342823
  2435 8.72070 0.0438645 0.342910
  2436 12.1084 0.0641352 -1.22487
  2437 7.02406 0.816641 0.697608
  2438 7.02440 0.816558 -0.697438
  2439 14.3005 -0.232268 -0.773063
  2440 14.2997 -0.232523 0.777761
  2441 14.9523 2.98381 -0.0423671
  2442 10.0636 0.0140658 -0.191534
  2443 10.0645 0.0140654 0.191560
  2444 19.4064 1.82380 0.0481444
  2445 7.96181 0.223542 0.436091
  2446 7.96172 0.223498 -0.435947
  2447 10.1089 -0.0164909 -0.141932
  2448 10.1078 -0.0165184 0.142250
  2449 8.12704 0.275387 0.643079
  2450 8.12687 0.275352 -0.642906
  2451 9.66278 0.141812 0.630668
  2452 8.60767 0.00115824 -0.0725990
  2453 8.60824 0.00115866 0.0726197
  2454 8.99816 -0.0108482 0.412048
  2455 8.99817 -0.0111075 -0.412258
  2456 11.5051 -0.368490 0.672738
  2457 9.29295 0.00484409 -0.124696
  2458 9.29369 0.00484347 0.124723
  2459 8.20629 0.0390912 0.00675059
  2460 12.3487 0.0613783 1.30199
  2461 9.67042 0.0272102 -0.615367
  2462 9.67666 0.0289486 0.619283
  2463 10.2873 -0.632901 -0.0728258
  2464 10.2880 -0.633159 0.0735402
  2465 8.24150 -0.0258681 0.844021
  2466 8.24105 -0.0262850 -0.844396
  2467 5.99648 0.902369 0.134544
  2468 5.99745 0.902137 -0.134606
  2469 8.08802 0.0363496 -0.227682
  2470 8.08833 0.0363580 0.227762
  2471 6.45339 0.531256 1.62073
  2472 6.45313 0.531721 -1.62004
  2473 15.8329 0.352497 -1.36371
  2474 10.1460 0.919005 -0.189575
  2475 13.1179 -1.21758 -0.106901
  2476 13.1161 -1.22256 0.102790
  2477 7.78585 0.451270 0.213771
  2478 7.78605 0.451194 -0.213705
  2479 10.0733 0.111542 0.772442
  2480 21.6415 1.96463 -0.630098
  2481 7.66589 0.630760 1.27374
  2482 7.66580 0.630834 -1.27344
  2483 9.61683 0.457569 -0.351189
  2484 8.53075 0.232766 2.22836
  2485 9.75432 -0.153528 1.77763
  2486 9.75318 -0.153059 -1.77781
  2487 16.3389 0.511711 1.30574
  2488 7.52456 0.637056 -2.27252
  2489 10.3200 0.198794 0.821647
  2490 10.5882 -0.522360 0.540864
  2491 10.5886 -0.522101 -0.540491
  2492 9.82014 0.460894 0.516003
  2493 13.5892 -0.768875 0.246617
  2494 13.5884 -0.765879 -0.247848
  2495 11.8708 -1.50750 -0.655541
  2496 11.8814 -1.50788 0.654335
  2497 10.6965 -0.330417 -1.56808
  2498 10.6978 -0.330887 1.56776
  2499 7.50811 0.585236 0.0272132
  2500 7.50775 0.585259 -0.0272502
  2501 4.55129 0.636402 0.170259
  2502 4.55339 0.635916 -0.169629
  2503 9.42011 0.0909663 -0.632789
  2504 9.42074 0.0909566 0.632890
  2505 11.0499 -1.65308 1.22706
  2506 27.7595 0.800158 -1.71470
  2507 8.57700 -0.0587947 1.93132
  2508 8.57591 -0.0582629 -1.93131
  2509 16.4624 0.894710 -1.02557
  2510 10.1619 -0.0767408 -0.0277346
  2511 10.1618 -0.0766077 0.0279590
  2512 11.8693 -0.249207 -1.21102
  2513 11.8704 -0.249621 1.21044
  2514 7.09174 0.775361 1.18948
  2515 7.09187 0.775400 -1.18913
  2516 8.72489 -1.57140 2.18873
  2517 10.1742 0.0842006 0.797625
  2518 10.1734 0.0842419 -0.797578
  2519 9.25669 -0.612465 -0.836483
  2520 9.25605 -0.611370 0.835821
  2521 21.8015 1.56748 0.518463
  2522 5.85987 0.527193 1.47432
  2523 5.85990 0.527628 -1.47343
  2524 9.56853 -1.38417 1.52704
  2525 8.11268 0.00180433 0.0547273
  2526 8.11227 0.00180403 -0.0547080
  2527 13.5340 -0.0496771 -1.57274
  2528 7.96042 0.318637 -0.577482
  2529 7.96050 0.318686 0.577649
  2530 7.57764 0.612752 0.765981
  2531 7.57774 0.612693 -0.765790
  2532 10.9848 0.00459344 0.223451
  2533 10.9838 0.00459787 -0.223442
  2534 8.96404 -0.0449214 0.466359
  2535 8.96405 -0.0452281 -0.466613
  2536 12.2865 0.597332 -0.488725
  2537 15.4582 -0.0343415 -0.105713
  2538 15.4567 -0.0343216 0.105332
  2539 10.5667 -0.268887 -0.756816
  2540 10.5680 -0.269735 0.756870
  2541 9.52099 0.0407465 0.426711
  2542 9.52028 0.0407485 -0.426638
  2543 8.16155 0.344064 0.799722
  2544 8.16137 0.344036 -0.799528
  2545 14.4690 1.28147 -0.478240
  2546 9.71988 -0.396971 0.297661
  2547 9.72046 -0.397581 -0.297572
  2548 11.0127 -1.64439 -1.54518
  2549 11.6079 0.344488 -0.887112
  2550 11.4738 -1.46180 1.23515
  2551 10.5089 -0.947819 0.111760
  2552 10.5089 -0.945929 -0.110001
  2553 13.5197 -0.175491 -1.30557
  2554 8.98935 0.0863715 0.303916
  2555 8.98931 0.0862515 -0.304054
  2556 9.42916 0.00133554 -0.453707
  2557 9.42363 0.00796017 0.452329
  2558 4.16639 -1.62092 1.64003
  2559 4.16327 -1.62007 -1.63996
  2560 13.5180 2.78101 -0.114951
  2561 10.4363 -0.105426 -0.814048
  2562 10.4369 -0.106950 0.811538
  2563 1.47823 -2.93798 -0.424499
  2564 1.48402 -2.93425 0.450291
  2565 8.12300 0.362037 0.152588
  2566 8.12274 0.362061 -0.152663
  2567 8.52861 0.0630140 0.371725
  2568 8.52818 0.0630049 -0.371623
  2569 13.5316 -0.172386 1.29004
  2570 7.57633 0.638315 1.37876
  2571 7.57620 0.638446 -1.37843
  2572 11.8499 -1.17179 0.258966
  2573 6.60767 0.861635 1.01721
  2574 6.60804 0.861607 -1.01684
  2575 9.33967 0.246468 0.357565
  2576 8.70690 0.0755763 0.334391
  2577 10.7359 -1.27764 0.464349
  2578 10.7978 -1.24630 -0.376572
  2579 8.42415 0.00317777 0.0737982
  2580 8.42363 0.00317762 -0.0737752
  2581 11.2016 -1.33116 0.408622
  2582 7.38432 0.641969 0.253370
  2583 7.38464 0.641907 -0.253322
  2584 8.25057 0.379045 0.928260
  2585 8.25035 0.379034 -0.928057
  2586 14.0030 0.770549 -1.09059
  2587 9.50517 -0.439316 1.83875
  2588 9.50388 -0.438955 -1.83883
  2589 7.83344 -0.0294774 -1.98217
  2590 7.83453 -0.0300836 1.98229
  2591 15.0765 -0.0577495 -0.280011
  2592 15.0773 -0.0582093 0.281326
  2593 11.2466 1.86260 0.0128653
  2594 8.19515 0.431092 1.02048
  2595 8.19495 0.431093 -1.02026
  2596 9.87818 -0.395920 0.184389
  2597 9.87876 -0.396442 -0.184140
  2598 9.03787 -0.181866 0.564368
  2599 9.03796 -0.182331 -0.564714
  2600 23.1887 1.68164 0.157328
  2601 3.90514 -0.530478 1.32243
  2602 3.90438 -0.528939 -1.32051
  2603 9.64933 -0.0411456 -0.216378
  2604 9.64920 -0.0409649 0.216382
  2605 8.92369 0.000662359 0.207882
  2606 23.4891 1.32265 -3.48255
  2607 10.4984 -0.666377 -0.273083
  2608 10.4985 -0.666451 0.273898
  2609 14.2481 -0.382716 -0.718180
  2610 14.2506 -0.384647 0.720541
  2611 12.6236 0.00529736 0.243325
  2612 12.6228 0.00530349 -0.243378
  2613 13.0794 -0.0287966 0.644050
  2614 9.70732 0.497204 0.358782
  2615 9.21587 0.0598764 0.438377
  2616 11.0557 0.432749 -0.907577
  2617 6.53708 0.805918 1.22903
  2618 6.53734 0.806004 -1.22854
  2619 7.92387 0.297308 0.499618
  2620 7.92383 0.297256 -0.499464
  2621 12.0632 -0.00661026 -0.252539
  2622 12.0641 -0.00661629 0.252510
  2623 7.59277 0.556557 0.475143
  2624 7.59294 0.556483 -0.475015
  2625 12.0091 2.07958 -0.402440
  2626 14.1936 -0.0485177 -0.493180
  2627 14.1927 -0.0506407 0.497439
  2628 14.0612 -0.258314 0.983273
  2629 14.0624 -0.257081 -0.978734
  2630 9.53143 0.000249229 0.225546
  2631 9.53151 0.000119084 -0.225588
  2632 13.8406 -0.327109 -0.317786
  2633 13.8407 -0.326857 0.316760
  2634 20.3458 1.64711 0.00358552
  2635 3.84042 -2.01454 -0.488919
  2636 3.78653 -2.05537 0.479480
  2637 14.7591 -0.497662 -1.20979
  2638 14.7716 -0.482237 1.21022
  2639 8.11275 0.108104 -0.375168
  2640 8.11299 0.108125 0.375290
  2641 8.33002 0.246113 0.366682
  2642 8.32976 0.246037 -0.366862
  2643 13.4574 -1.25490 0.277536
  2644 13.4530 -1.24644 -0.281021
  2645 14.1151 2.13534 3.96532
  2646 10.8856 -0.714644 1.71243
  2647 11.0537 1.30517 0.640555
  2648 8.94638 0.340552 -1.30326
  2649 8.94686 0.340436 1.30342
  2650 19.6286 1.98545 2.47948
  2651 5.31816 0.813411 -0.107449
  2652 5.31974 0.812929 0.107328
  2653 9.36493 0.396311 -0.0640984
  2654 8.52820 -0.161341 0.840549
  2655 8.52780 -0.161842 -0.840974
  2656 13.7616 0.00313744 -0.302026
  2657 13.7621 0.00311545 0.301869
  2658 5.66877 0.704931 -1.17866
  2659 5.66827 0.704765 1.17949
  2660 7.09268 0.763885 0.358438
  2661 7.09307 0.763812 -0.358380
  2662 10.0265 -0.311818 0.0182429
  2663 10.0269 -0.312185 -0.0178661
  2664 10.4806 0.0523570 -0.856739
  2665 10.2576 0.125094 1.10243
  2666 10.2569 0.125198 -1.10243
  2667 14.4130 -0.885471 0.556889
  2668 14.4330 -0.863585 -0.550655
  2669 14.9155 -0.0176560 -0.223857
  2670 14.9150 -0.0176799 0.223541
  2671 10.3848 -1.60474 -1.34475
  2672 10.3893 -1.60552 1.34943
  2673 14.6014 -0.228932 0.129849
  2674 14.6001 -0.228065 -0.129943
  2675 8.35173 0.0919401 0.425306
  2676 8.35137 0.0919275 -0.425184
  2677 12.0641 -1.13614 -0.830532
  2678 10.0880 -0.0592780 0.259531
  2679 10.0887 -0.0591933 -0.259030
  2680 7.09910 0.781090 -0.592933
  2681 7.09877 0.781171 0.593067
  2682 9.79273 -0.142303 0.179965
  2683 9.79296 -0.142596 -0.179851
  2684 8.08419 0.234827 -0.553623
  2685 8.08436 0.234864 0.553783
  2686 6.83267 0.716678 -0.215891
  2687 6.83323 0.716713 0.215691
  2688 8.18841 0.0327174 -0.0700927
  2689 13.7040 -0.936353 0.607087
  2690 13.7010 -0.931228 -0.608126
  2691 9.43452 -0.351070 0.464425
  2692 9.43498 -0.351713 -0.464625
  2693 16.8183 0.396453 0.219584
  2694 10.2172 1.04214 0.0784124
  2695 9.68571 -0.942380 0.852178
  2696 9.69602 -0.934539 -0.851609
  2697 7.68682 0.516587 0.173828
  2698 7.68707 0.516518 -0.173781
  2699 10.6349 -0.804216 -1.48551
  2700 10.6369 -0.804624 1.48569
  2701 12.8601 0.189304 -1.85815
  2702 7.39046 0.681641 0.733502
  2703 7.39065 0.681575 -0.733322
  2704 7.69107 0.570043 0.858918
  2705 7.69110 0.570000 -0.858710
  2706 10.0885 0.117344 0.956417
  2707 10.0878 0.117409 -0.956371
  2708 9.88121 0.188278 -0.703929
  2709 9.58919 -1.37807 -1.46854
  2710 11.7987 0.149689 1.16882
  2711 9.07734 0.313983 1.43373
  2712 9.07677 0.314167 -1.43360
  2713 17.4075 1.26853 -0.659324
  2714 12.7902 -1.47286 -0.132393
  2715 12.7989 -1.46748 0.122576
  2716 7.79464 0.420011 0.316758
  2717 7.79478 0.419936 -0.316655
  2718 11.0512 0.365857 0.916159
  2719 19.2694 2.15620 -2.61599
  2720 9.26405 0.0454702 -0.457364
  2721 10.1557 -0.317023 -0.147569
  2722 10.1560 -0.317308 0.148047
  2723 13.4899 -0.0351558 -0.559724
  2724 13.4902 -0.0352328 0.559359
  2725 8.43365 0.145466 0.563963
  2726 8.43331 0.145451 -0.563816
  2727 9.15994 0.271607 0.135146
  2728 7.55866 0.565976 0.316702
  2729 7.55890 0.565904 -0.316620
  2730 12.7740 2.48607 0.290324
  2731 10.2186 -0.0378326 -0.0548342
  2732 10.2186 -0.0377581 0.0549646
  2733 8.26396 0.0577948 0.325969
  2734 8.26361 0.0577847 -0.325869
  2735 2.60111 -3.43182 0.0187804
  2736 2.60513 -3.43425 -0.0230124
  2737 6.39417 0.896923 0.327656
  2738 6.39487 0.896785 -0.327631
  2739 8.95556 0.0891485 0.550021
  2740 8.95503 0.0891465 -0.549904
  2741 10.6078 0.663418 -0.802849
  2742 9.59192 -1.19714 1.26351
  2743 11.3456 0.635829 0.885378
  2744 11.8900 -0.799562 -0.990316
  2745 11.8926 -0.800050 0.989638
  2746 12.7597 -0.150317 0.219746
  2747 10.0438 0.0648115 0.642216
  2748 10.0431 0.0648324 -0.642154
  2749 10.9368 -1.05816 -1.45144
  2750 9.43822 0.224154 -1.10717
  2751 9.43880 0.224083 1.10728
  2752 10.4308 -1.86346 -1.18393
  2753 10.4586 -1.86475 1.20152
  2754 12.7498 -1.01542 -0.343733
  2755 12.7526 -1.01407 0.341568
  2756 13.7976 -0.0390109 -0.549052
  2757 13.7978 -0.0391235 0.548533
  2758 7.20880 0.416919 0.715610
  2759 7.20834 0.416619 -0.715943
  2760 9.58321 0.00560845 0.132746
  2761 9.58241 0.00560921 -0.132722
  2762 10.1783 -0.220107 -0.233968
  2763 10.1784 -0.220331 0.234485
  2764 10.3699 -1.41314 -0.952206
  2765 7.00011 0.717981 0.0814825
  2766 6.99961 0.717979 -0.0815986
  2767 8.82006 0.0256221 0.274205
  2768 8.81950 0.0256192 -0.274136
  2769 15.0363 -0.152609 0.656794
  2770 7.88545 -0.228546 1.28109
  2771 7.88469 -0.229549 -1.28122
  2772 10.5050 0.0275136 -0.471629
  2773 10.5058 0.0275000 0.471658
  2774 10.5777 1.29549 0.131386
  2775 13.7537 -0.641795 -0.913041
  2776 9.45202 -0.509421 -0.593604
  2777 9.45147 -0.508608 0.593252
  2778 14.0442 -0.592960 -1.08481
  2779 14.0498 -0.594223 1.08632
  2780 9.13148 0.0249977 0.313115
  2781 9.13084 0.0249980 -0.313047
  2782 7.61498 0.545740 0.402797
  2783 7.61516 0.545666 -0.402686
  2784 11.1616 -1.41082 -0.472092
  2785 10.9280 1.07754 -0.710184
  2786 16.0759 0.381075 -1.11005
  2787 7.83261 0.370669 -0.479668
  2788 7.83257 0.370732 0.479815
  2789 15.0991 2.12590 -0.200020
  2790 10.1598 -1.64386 -2.15731
  2791 13.5390 -0.00251811 -0.279757
  2792 13.5396 -0.00253541 0.279642
  2793 12.7428 0.682818 0.786933
  2794 8.01351 0.399629 -0.0823501
  2795 8.01377 0.399587 0.0823071
  2796 7.46112 0.623154 -0.349964
  2797 7.46085 0.623225 0.350049
  2798 8.21303 0.101406 -0.400361
  2799 8.21332 0.101423 0.400484
  2800 6.30624 -1.87868 -2.66118
  2801 14.3248 -0.0297869 -0.263851
  2802 14.3249 -0.0298132 0.263636
  2803 14.9789 1.20173 0.412763
  2804 8.31005 0.211816 0.645406
  2805 8.30978 0.211793 -0.645239
  2806 9.97337 -0.00817854 0.142106
  2807 9.97484 -0.00816436 -0.141796
  2808 6.16069 -1.86761 2.66779
  2809 10.4165 -1.08095 1.48122
  2810 10.4143 -1.08071 -1.48038
  2811 9.41897 0.208543 -1.62095
  2812 9.41972 0.208230 1.62096
  2813 10.8828 0.963732 0.758702
  2814 12.1536 -1.00937 -0.296609
  2815 6.81716 0.866271 -0.626440
  2816 6.81672 0.866371 0.626590
  2817 10.2399 -0.0877959 -0.0980354
  2818 10.2398 -0.0879217 0.0983977
  2819 8.37416 0.386980 1.05748
  2820 8.37389 0.386995 -1.05727
  2821 7.23503 0.579280 0.354484
  2822 7.23455 0.579183 -0.354669
  2823 5.93182 0.878566 0.840436
  2824 5.93256 0.878479 -0.839963
  2825 12.1564 1.16115 -3.12616
  2826 7.80683 0.544093 1.57874
  2827 7.80647 0.544360 -1.57842
  2828 12.2417 0.000528422 -0.834222
  2829 12.2424 0.000425799 0.833975
  2830 7.94490 0.536040 1.12830
  2831 7.94477 0.536061 -1.12805
  2832 8.68556 0.0140976 0.178254
  2833 7.47870 0.624574 -0.627325
  2834 7.47853 0.624642 0.627481
  2835 8.42928 -0.327831 -1.07371
  2836 8.42973 -0.327039 1.07313
  2837 8.77112 0.0923690 -0.231146
  2838 10.3711 -0.368020 -0.572953
  2839 10.3717 -0.368135 0.573484
  2840 8.70807 0.0937635 0.411807
  2841 8.70794 0.0935929 -0.412026
  2842 8.04717 0.353065 0.731243
  2843 8.04705 0.353027 -0.731055
  2844 7.77682 0.250887 0.715914
  2845 7.77635 0.250609 -0.716185
  2846 9.20423 0.280658 -1.57011
  2847 9.20490 0.280387 1.57018
  2848 14.5090 -0.223038 -0.0264296
  2849 14.5081 -0.222486 0.0258993
  2850 7.87377 0.441563 0.118768
  2851 7.87346 0.441587 -0.118827
  2852 10.1811 -0.978600 -0.463206
  2853 10.1854 -0.972578 0.452807
  2854 9.00086 0.0138007 -0.214866
  2855 9.00150 0.0138014 0.214916
  2856 7.53010 0.672162 1.09522
  2857 7.53013 0.672160 -1.09495
  2858 10.2106 -1.45670 1.40832
  2859 10.0977 -1.50178 -1.36711
  2860 10.5146 -0.00740179 -0.00210435
  2861 10.5145 -0.00741299 0.00218244
  2862 8.15689 0.136880 -0.449106
  2863 8.15713 0.136903 0.449243
  2864 12.5276 -1.25371 -0.340931
  2865 12.5326 -1.25242 0.338275
  2866 7.44293 0.130987 -1.05933
  2867 7.44333 0.131624 1.05895
  2868 8.54904 0.0226474 -0.232294
  2869 8.54954 0.0226507 0.232360
  2870 4.07103 0.295129 -0.615938
  2871 4.07454 0.294161 0.615831
  2872 13.7810 -0.0532278 1.62593
  2873 7.54967 0.543607 -0.161266
  2874 7.55006 0.543614 0.161182
  2875 8.47722 0.140871 -0.475733
  2876 8.47745 0.141036 0.475486
  2877 7.73804 0.448785 0.380811
  2878 7.73817 0.448712 -0.380694
  2879 8.43167 -2.06204 -1.57756
  2880 8.45072 -2.03542 1.52607
  2881 10.9698 -0.603610 0.565078
  2882 10.9640 -0.597513 -0.569869
  2883 5.83947 -0.467263 1.92348
  2884 5.83775 -0.466151 -1.92308
  2885 9.58451 0.309134 0.511940
  2886 10.1572 -0.145006 0.296655
  2887 10.1574 -0.144837 -0.296099
  2888 9.31846 -0.365481 0.556875
  2889 9.31884 -0.366146 -0.557199
  2890 3.60038 0.139581 -0.274936
  2891 3.59750 0.139858 0.276594
  2892 6.34156 0.728599 1.37086
  2893 6.34172 0.728826 -1.37024
  2894 9.67595 0.0241886 0.327356
  2895 9.67519 0.0241899 -0.327301
  2896 10.2448 0.522788 0.714523
  2897 13.4231 -0.109049 -0.998050
  2898 6.69223 0.243350 -1.84244
  2899 6.69297 0.242656 1.84299
  2900 8.13676 0.219181 -0.564301
  2901 8.13695 0.219213 0.564461
  2902 13.6085 -0.530570 -0.141401
  2903 13.6088 -0.529499 0.140233
  2904 10.0592 0.00271003 -0.755883
  2905 9.09579 0.0760898 -0.397122
  2906 8.03343 0.000563799 0.0461111
  2907 8.03304 0.000563885 -0.0460948
  2908 14.9654 -0.556539 0.347078
  2909 14.9521 -0.550040 -0.327769
  2910 8.84515 0.127662 0.302903
  2911 8.84506 0.127568 -0.303048
  2912 8.11176 0.135122 -0.419812
  2913 8.11198 0.135147 0.419945
  2914 8.61593 0.126989 0.572521
  2915 8.61552 0.126980 -0.572384
  2916 10.5501 -1.16161 -0.416354
  2917 10.5351 -1.16661 0.425482
  2918 20.3324 1.47058 -0.525735
  2919 12.3610 0.323032 -1.25565
  2920 9.21294 0.0122592 -0.388190
  2921 20.5751 1.24883 -1.74030
  2922 10.7080 1.45632 -0.128787
  2923 17.4598 1.65726 0.104779
  2924 12.7188 -0.315760 1.37185
  2925 12.0988 -0.340646 0.516863
  2926 8.65705 0.0132536 -0.168753
  2927 7.81865 0.422391 0.595685
  2928 7.81867 0.422330 -0.595517
  2929 12.6923 -1.37259 -0.544342
  2930 12.7716 -1.35050 0.493871
  2931 19.9021 1.42119 4.14381
  2932 14.7139 1.41372 2.02402
  2933 7.94434 0.497304 -0.956972
  2934 7.94444 0.497325 0.957193
  2935 16.6636 2.06460 1.19158
  2936 11.7552 -0.128604 -1.22178
  2937 11.7562 -0.128956 1.22127
  2938 8.32222 0.0102271 -0.138909
  2939 8.32267 0.0102290 0.138952
  2940 9.44099 -0.0275041 0.264679
  2941 9.44109 -0.0277007 -0.264737
  2942 9.98274 -0.210423 -0.0666010
  2943 9.98248 -0.210118 0.0668851
  2944 8.64360 0.392384 1.40798
  2945 8.64316 0.392535 -1.40779
  2946 10.1761 -0.234513 0.577073
  2947 10.1758 -0.234686 -0.576329
  2948 9.68407 -0.269386 0.263956
  2949 9.68449 -0.269865 -0.263882
  2950 8.33906 0.0372062 0.118623
  2951 10.5824 1.20408 0.376828
  2952 14.7003 0.298530 1.56789
  2953 8.36384 0.0307725 -0.245643
  2954 8.36426 0.0307776 0.245718
  2955 9.93870 0.323696 -0.677262
  2956 8.44945 0.0562934 0.349372
  2957 8.44903 0.0562856 -0.349273
  2958 9.72863 -0.0328511 -0.192210
  2959 9.72851 -0.0327020 0.192228
  2960 7.44713 0.565666 -0.205539
  2961 7.44755 0.565700 0.205434
  2962 27.9722 0.860837 1.70387
  2963 10.9562 0.0657101 0.784034
  2964 10.9554 0.0657623 -0.784059
  2965 8.91306 0.0490100 -0.393221
  2966 8.91362 0.0490125 0.393311
  2967 10.0610 0.000769711 0.757314
  2968 8.54542 0.266966 0.865446
  2969 8.54508 0.266963 -0.865264
  2970 8.25212 0.279763 0.742633
  2971 8.25189 0.279739 -0.742450
  2972 8.95378 -0.298902 -0.733244
  2973 8.95380 -0.298300 0.732731
  2974 7.73226 0.454328 0.461090
  2975 7.73237 0.454257 -0.460955
  2976 12.7194 2.59439 0.0201230
  2977 4.52477 0.269663 -1.00757
  2978 4.52768 0.268674 1.00645
  2979 9.53488 0.0676113 -0.575075
  2980 7.50799 0.629518 1.48781
  2981 7.50781 0.629724 -1.48744
  2982 9.01524 0.0460391 0.343851
  2983 9.01522 0.0458625 -0.344010
  2984 12.5446 1.12595 3.20022
  2985 8.83490 0.273513 1.02926
  2986 8.83447 0.273545 -1.02909
  2987 5.56448 -0.614668 -2.07188
  2988 13.0281 0.284779 1.42728
  2989 8.36880 -0.438403 1.25760
  2990 8.36778 -0.438952 -1.25834
  2991 9.94606 -0.0634890 -0.344878
  2992 9.94530 -0.0634868 0.345415
  2993 10.2831 0.167352 -0.815211
  2994 14.6276 0.319224 -1.53105
  2995 8.56953 0.387690 1.25872
  2996 8.56915 0.387773 -1.25851
  2997 20.6646 1.30101 1.17213
  2998 15.2743 2.66023 0.0669460
  2999 1.63453 -3.09486 -0.329643
  3000 1.64116 -3.10483 0.328552
  3001 10.3512 -0.744014 -0.0151067
  3002 10.3520 -0.744241 0.0161058
  3003 8.78830 0.0688054 -0.466262
  3004 8.78881 0.0688086 0.466373
  3005 16.3109 1.10867 0.958476
  3006 5.48842 -0.0915718 1.70972
  3007 5.48742 -0.0905249 -1.70872
  3008 5.68978 0.907347 0.389619
  3009 5.69089 0.907076 -0.389409
  3010 9.75160 0.610497 -0.220241
  3011 11.7940 -0.00445378 -1.10671
  3012 11.7948 -0.00465988 1.10637
  3013 7.03574 0.696644 1.41151
  3014 7.03570 0.696830 -1.41106
  3015 11.5024 0.0279226 0.850932
  3016 17.8788 1.74178 -4.50533
  3017 9.62807 0.159924 -1.01189
  3018 9.62870 0.159865 1.01198
  3019 9.67663 0.201023 1.21583
  3020 9.67599 0.201140 -1.21576
  3021 9.35772 0.0449698 0.445109
  3022 9.35706 0.0449723 -0.445026
  3023 9.95347 -0.127320 0.110648
  3024 9.95366 -0.127552 -0.110464
  3025 7.46555 0.611677 -0.171556
  3026 7.46523 0.611734 0.171585
  3027 18.8118 1.05954 -1.56069
  3028 8.16038 0.0222008 0.191650
  3029 8.16002 0.0221968 -0.191586
  3030 10.3109 -0.0167952 -0.0499591
  3031 10.3108 -0.0167586 0.0500470
  3032 8.91604 0.00728364 0.0891033
  3033 8.91538 0.00728231 -0.0890800
  3034 5.51231 0.232207 1.30812
  3035 5.51102 0.232614 -1.30950
  3036 10.2469 -0.0851326 -0.783470
  3037 10.2503 -0.0850858 0.783658
  3038 10.7275 0.0205331 0.871707
  3039 10.7905 0.0125977 -0.164165
  3040 10.7915 0.0125962 0.164173
  3041 14.1251 -0.765585 -1.07826
  3042 14.1295 -0.765962 1.08138
  3043 8.03194 0.388667 0.786513
  3044 8.03182 0.388630 -0.786316
  3045 8.08788 -0.0422179 -0.956866
  3046 8.08842 -0.0417184 0.956469
  3047 9.15075 -0.0393007 0.379725
  3048 9.15083 -0.0395776 -0.379894
  3049 16.3724 2.71701 -0.282497
  3050 9.69034 -0.0758651 -0.210807
  3051 9.69017 -0.0756426 0.210840
  3052 8.76743 0.345113 1.18751
  3053 8.76701 0.345178 -1.18732
  3054 17.7162 1.25623 0.615063
  3055 4.97145 0.420339 -0.926787
  3056 4.97361 0.419729 0.925822
  3057 7.42680 0.532126 -0.327885
  3058 7.42724 0.532204 0.327734
  3059 10.6349 -1.06258 0.172092
  3060 10.6291 -1.06325 -0.175203
  3061 8.15014 0.0644577 -0.309805
  3062 8.15043 0.0644702 0.309906
  3063 5.01754 0.665094 0.893726
  3064 5.01856 0.665134 -0.892730
  3065 10.1898 -0.147667 0.208015
  3066 10.1899 -0.147485 -0.207522
  3067 12.7444 0.730372 0.292082
  3068 7.70912 -1.70428 2.52717
  3069 9.56668 -0.711666 -0.708058
  3070 9.56656 -0.710233 0.708659
  3071 9.78076 -1.59337 -1.59893
  3072 8.65772 0.0651102 0.474421
  3073 8.65756 0.0648974 -0.474679
  3074 10.1697 -0.465555 -0.109263
  3075 10.1702 -0.465869 0.109779
  3076 4.18034 -0.674883 -1.91451
  3077 4.18231 -0.675344 1.91324
  3078 11.6804 0.00868970 0.634802
  3079 8.44948 0.124911 0.00748526
  3080 7.31945 0.599129 -0.136903
  3081 7.31988 0.599148 0.136811
  3082 5.87370 -1.00417 -1.99493
  3083 5.87625 -1.00520 1.99467
  3084 9.38062 0.330041 -0.290136
  3085 10.1892 1.86958 -3.86465
  3086 9.23970 -1.86541 2.26547
  3087 15.6593 -0.0365420 -0.0623525
  3088 15.6618 -0.0366989 0.0623410
  3089 9.21083 0.0138297 0.384929
  3090 8.06911 0.370478 -0.197985
  3091 8.06940 0.370472 0.197891
  3092 11.1671 -0.0577869 1.39027
  3093 11.1662 -0.0574590 -1.39063
  3094 11.1103 0.0669976 -1.04570
  3095 11.1111 0.0668715 1.04557
  3096 11.2459 0.000228777 -0.183282
  3097 11.2469 0.000225325 0.183286
  3098 10.3860 -0.00182135 -0.0289592
  3099 10.3858 -0.00181790 0.0289645
  3100 1.00655 -6.64281 0.512693
  3101 1.02349 -6.64038 -0.540604
  3102 8.50708 -0.000929388 -0.0817400
  3103 8.50761 -0.000929991 0.0817647
  3104 10.3324 -0.483682 1.64521
  3105 10.3310 -0.483230 -1.64538
  3106 11.1955 0.0638925 0.871758
  3107 10.1665 0.350174 0.754825
  3108 7.93320 0.257121 0.439107
  3109 7.93314 0.257071 -0.438963
  3110 16.6565 1.49833 -0.0431765
  3111 7.68266 0.504341 0.533019
  3112 7.68277 0.504271 -0.532871
  3113 2.99254 -0.993271 -0.916425
  3114 2.99284 -0.995187 0.919368
  3115 9.80844 -0.00697770 -0.164275
  3116 9.80833 -0.00688866 0.164279
  3117 9.21015 0.209103 1.01996
  3118 9.20962 0.209150 -1.01982
  3119 9.88783 0.170562 0.707189
  3120 8.34144 0.109753 -0.101302
  3121 10.2912 -0.0107049 -0.0565551
  3122 10.2910 -0.0106745 0.0566162
  3123 10.3302 -0.0409692 0.0104470
  3124 10.3303 -0.0409093 -0.0102420
  3125 9.20334 0.0818100 0.568362
  3126 9.20275 0.0818127 -0.568255
  3127 9.75453 -0.0513987 0.401396
  3128 9.75531 -0.0517943 -0.400997
  3129 8.69750 -0.177911 -0.753010
  3130 8.69773 -0.177450 0.752550
  3131 12.0066 -0.490340 -0.457354
  3132 9.56279 0.260730 -0.520168
  3133 11.9912 1.46724 -0.753251
  3134 5.77517 0.742486 -0.425079
  3135 5.77637 0.742218 0.424576
  3136 8.05218 0.121667 0.370249
  3137 8.05198 0.121642 -0.370125
  3138 8.47113 -0.960534 -1.71926
  3139 8.47633 -0.958727 1.70708
  3140 9.54688 0.0754714 0.587932
  3141 8.07711 0.0737440 -0.305781
  3142 8.07737 0.0737600 0.305885
  3143 13.2050 0.330810 -1.44777
  3144 8.90793 0.252075 -1.72117
  3145 8.90869 0.251689 1.72124
  3146 14.8778 -0.102984 -0.154103
  3147 14.8767 -0.102888 0.153486
  3148 4.83979 0.333621 1.23506
  3149 4.84011 0.334156 -1.23369
  3150 2.48014 -0.836157 0.0128899
  3151 2.47450 -0.835818 -0.00928305
  3152 12.8528 -0.405673 0.440782
  3153 14.9832 -0.294779 -0.575960
  3154 9.50942 -1.68032 1.90221
  3155 6.65393 0.0689124 -1.37723
  3156 6.65422 0.0693601 1.37595
  3157 14.7674 -0.0586038 -0.288700
  3158 14.7667 -0.0586431 0.288071
  3159 10.7718 0.0186176 0.447929
  3160 10.7709 0.0186304 -0.447914
  3161 8.21228 0.00368906 -0.0660254
  3162 8.21272 0.00369025 0.0660480
  3163 9.57555 -0.0872205 0.249062
  3164 9.57574 -0.0874856 -0.249066
  3165 13.4739 -0.0871033 1.00056
  3166 10.0921 -0.0844022 0.0673749
  3167 10.0922 -0.0845527 -0.0671872
  3168 12.2158 -1.07071 0.617484
  3169 10.0754 -0.250160 -0.0267950
  3170 10.0756 -0.250460 0.0271898
  3171 7.74731 0.409286 0.433316
  3172 7.74689 0.409185 -0.433492
  3173 7.77159 0.593268 1.17920
  3174 7.77150 0.593300 -1.17894
  3175 9.75003 0.0703215 0.650313
  3176 9.74933 0.0703387 -0.650230
  3177 10.2647 -1.83624 -1.79941
  3178 8.47734 0.153234 1.87008
  3179 8.47644 0.153753 -1.86999
  3180 11.2760 -0.299770 1.38995
  3181 11.2747 -0.299304 -1.39040
  3182 10.4860 -0.000809935 -0.0200577
  3183 10.4859 -0.000804834 0.0200850
  3184 8.64121 0.0236658 -0.223726
  3185 8.64175 0.0236696 0.223789
  3186 11.6143 2.09665 0.119888
  3187 9.90334 -1.84987 -1.40689
  3188 9.90373 -1.84679 1.42007
  3189 10.4845 0.0253216 0.846506
  3190 12.4407 -0.976642 0.578327
  3191 12.4376 -0.976829 -0.579754
  3192 11.5834 1.88986 0.422002
  3193 10.3739 -0.452183 0.461950
  3194 10.3736 -0.452041 -0.461516
  3195 7.81960 0.450201 0.108742
  3196 7.81984 0.450134 -0.108713
  3197 13.9560 -0.128420 0.837938
  3198 13.9656 -0.124236 -0.835616
  3199 11.3173 -0.487551 -0.643706
  3200 6.76055 0.869267 -0.476185
  3201 6.76006 0.869374 0.476272
  3202 10.5026 0.453037 -0.829701
  3203 9.17556 0.0378131 -0.386019
  3204 9.17619 0.0378124 0.386099
  3205 10.6425 0.318700 0.332588
  3206 13.5822 0.243066 -1.56983
  3207 9.49845 0.161013 0.906723
  3208 9.49785 0.161048 -0.906613
  3209 11.4038 1.72318 3.59483
  3210 9.83081 0.0251474 0.358053
  3211 9.83003 0.0251501 -0.357999
  3212 12.4726 2.21822 0.488526
  3213 9.94719 0.298883 0.694918
  3214 10.4030 0.748758 -0.653028
  3215 10.3218 -0.462599 -0.342495
  3216 10.3221 -0.462784 0.342987
  3217 7.37324 0.688863 0.625687
  3218 7.37346 0.688791 -0.625535
  3219 13.6415 0.599057 1.17871
  3220 11.2491 -0.430375 0.673112
  3221 7.77181 -2.04687 -1.69637
  3222 7.83352 -2.03903 1.65781
  3223 15.1920 -0.362611 -0.845247
  3224 14.1631 -0.337365 1.52034
  3225 14.1621 -0.347984 -1.52438
  3226 9.65839 -0.323199 0.300521
  3227 9.65887 -0.323742 -0.300473
  3228 3.45013 -0.192204 -0.620338
  3229 3.44832 -0.192528 0.622871
  3230 10.2352 -0.0146665 0.105086
  3231 10.2361 -0.0146410 -0.104837
  3232 8.03259 0.276774 -0.584622
  3233 8.03272 0.276816 0.584789
  3234 11.7018 -1.01456 0.0520752
  3235 9.98728 -0.870744 0.509818
  3236 9.98791 -0.871044 -0.515545
  3237 7.75392 0.494543 0.110789
  3238 7.75418 0.494477 -0.110761
  3239 8.78913 -0.372370 -1.97349
  3240 8.79033 -0.372745 1.97343
  3241 10.1855 -0.00262697 -1.62938
  3242 10.1864 -0.00302188 1.62918
  3243 8.81840 0.120363 0.190733
  3244 10.1623 -0.145342 -0.0542246
  3245 10.1624 -0.145533 0.0545827
  3246 10.1452 0.0254525 0.399903
  3247 10.1443 0.0254601 -0.399858
  3248 12.6116 0.673050 0.703995
  3249 9.09363 -0.103674 0.460008
  3250 9.09372 -0.104042 -0.460248
  3251 5.04932 -1.80626 -1.74551
  3252 5.05353 -1.80564 1.74486
  3253 7.80114 0.397012 0.421499
  3254 7.80122 0.396942 -0.421367
  3255 9.93439 -0.105654 -0.574738
  3256 9.93401 -0.104912 0.575133
  3257 8.25810 0.144280 -0.495063
  3258 8.25838 0.144301 0.495204
  3259 10.7751 -0.589099 -1.50317
  3260 10.7768 -0.589609 1.50298
  3261 10.1587 -0.245351 0.155626
  3262 10.1585 -0.245101 -0.155153
  3263 9.27110 0.112150 0.672912
  3264 9.27051 0.112158 -0.672797
  3265 9.75673 -0.844176 0.691890
  3266 9.75337 -0.840422 -0.690140
  3267 10.2021 -0.107237 0.0432688
  3268 10.2021 -0.107091 -0.0429463
  3269 14.7214 0.463268 1.47838
  3270 10.8993 0.0756886 0.896359
  3271 10.8985 0.0757604 -0.896401
  3272 10.3936 -0.0190048 -0.0181372
  3273 10.3936 -0.0189685 0.0182535
  3274 13.8342 2.30051 -0.300234
  3275 11.5406 -1.42603 0.620924
  3276 10.2886 -0.0484221 -0.121529
  3277 10.2882 -0.0484955 0.121870
  3278 8.62974 -0.299882 -0.921487
  3279 8.63020 -0.299190 0.921019
  3280 11.8509 -0.522201 -1.79321
  3281 7.38481 0.692997 -0.834429
  3282 7.38465 0.693051 0.834635
  3283 1.78999 -4.89616 -0.257793
  3284 2.03365 -4.31184 0.615877
  3285 7.62301 -0.222131 -1.40769
  3286 7.62262 -0.220690 1.40746
  3287 15.2176 -0.342939 0.846870
  3288 8.12710 0.00906153 -0.108653
  3289 8.12749 0.00906412 0.108690
  3290 6.11032 0.749027 -0.374188
  3291 6.11125 0.748906 0.373751
  3292 1.64826 -2.33879 -0.114250
  3293 1.64887 -2.34378 0.122824
  3294 12.7351 0.00180612 -0.673240
  3295 12.7358 0.00173050 0.672987
  3296 10.1443 -1.25679 -0.903324
  3297 11.5216 -0.0356708 -0.818447
  3298 13.5680 0.953000 0.237635
  3299 7.87361 0.442415 -0.0497706
  3300 7.87336 0.442479 0.0497795
  3301 8.68480 -0.000965777 -0.0620612
  3302 8.68540 -0.000967363 0.0620796
  3303 10.0457 -0.00273460 -0.114993
  3304 10.0456 -0.00269197 0.115008
  3305 8.74936 0.173029 0.743122
  3306 8.74894 0.173028 -0.742967
  3307 10.1764 -0.608567 -0.0293297
  3308 10.1756 -0.608112 0.0299331
  3309 13.1934 0.586364 -0.324963
  3310 9.30890 -0.0375824 -0.316255
  3311 9.30880 -0.0373363 0.316151
  3312 8.74342 0.0699620 0.266601
  3313 14.5089 -0.0438703 -0.358236
  3314 14.5086 -0.0439396 0.357703
  3315 5.51688 -0.744330 2.22727
  3316 5.51896 -0.739201 -2.23316
  3317 9.61462 0.501635 0.197818
  3318 10.3357 -0.254967 0.703385
  3319 10.3349 -0.255445 -0.702326
  3320 10.5030 -0.557503 0.434026
  3321 10.5031 -0.557499 -0.433546
  3322 13.8441 -1.02709 0.687441
  3323 13.8401 -1.02128 -0.687712
  3324 6.59420 -0.446236 1.52386
  3325 15.7484 0.122921 -1.18023
  3326 13.2559 1.18057 -0.538536
  3327 6.55696 0.612546 1.55104
  3328 6.55683 0.612899 -1.55042
  3329 16.4662 0.846768 1.06865
  3330 6.42817 0.922292 0.543110
  3331 6.42880 0.922150 -0.542971
  3332 8.11956 0.307684 -0.697462
  3333 8.11972 0.307719 0.697644
  3334 13.3722 -0.365357 -0.492495
  3335 13.3729 -0.365342 0.491417
  3336 7.72450 0.483296 -0.595411
  3337 7.72443 0.483361 0.595573
  3338 6.83830 0.402235 -0.875504
  3339 6.83876 0.402621 0.874930
  3340 7.82077 0.478660 0.745286
  3341 7.82076 0.478609 -0.745095
  3342 11.6268 -0.0152306 -0.640685
  3343 8.72354 0.222750 0.840102
  3344 8.72314 0.222753 -0.839935
  3345 9.71267 -0.173066 0.218392
  3346 9.71295 -0.173417 -0.218309
  3347 12.5060 0.00358963 -0.572058
  3348 18.8019 1.15464 -0.00845892
  3349 3.18333 -1.97517 -1.21769
  3350 3.18637 -1.97703 1.21742
  3351 5.60233 0.377518 -1.51431
  3352 5.60245 0.376898 1.51534
  3353 9.78830 0.131849 -1.64652
  3354 9.78916 0.131491 1.64642
  3355 13.9678 -0.351361 -0.158572
  3356 13.9677 -0.350784 0.157653
  3357 9.51301 0.184756 0.542083
  3358 10.2652 -0.811250 -0.150512
  3359 10.2631 -0.810416 0.151804
  3360 12.5869 0.706407 0.0632285
  3361 5.63617 0.823671 0.885314
  3362 5.63700 0.823613 -0.884661
  3363 13.8240 -0.542088 0.0635614
  3364 13.8236 -0.540410 -0.0643880
  3365 10.3359 -1.38111 0.898894
  3366 12.5771 2.25489 -0.444862
  3367 7.23021 0.725989 0.353215
  3368 7.23055 0.725918 -0.353148
  3369 7.83038 0.500317 -0.842291
  3370 7.83041 0.500358 0.842497
  3371 8.24814 -0.636157 1.55353
  3372 8.25074 -0.642495 -1.55379
  3373 15.0089 -0.117135 -0.0531863
  3374 15.0075 -0.116892 0.0527264
  3375 11.2984 0.00793431 -1.25301
  3376 11.2992 0.00769249 1.25272
  3377 12.8190 -0.653079 -0.584055
  3378 12.8207 -0.652923 0.582754
  3379 10.1350 -0.0382258 -0.0849527
  3380 10.1348 -0.0381435 0.0850507
  3381 7.34414 0.509765 -1.70885
  3382 7.34458 0.509353 1.70927
  3383 12.0724 -0.473267 1.08847
  3384 12.0710 -0.472794 -1.08916
  3385 2.87655 -3.23215 -0.777509
  3386 2.87563 -3.22810 0.774569
  3387 8.03917 0.00468210 -0.0854881
  3388 8.03953 0.00468199 0.0855191
  3389 12.4140 0.799722 -0.797691
  3390 7.86199 0.332598 0.413484
  3391 7.86202 0.332534 -0.413348
  3392 7.99778 0.170833 -0.409343
  3393 7.99791 0.170869 0.409480
  3394 6.83941 0.409566 -1.76422
  3395 6.83995 0.408990 1.76477
  3396 10.2839 0.000251241 -0.0586020
  3397 10.4332 -0.000789530 0.0227167
  3398 10.2837 0.000261170 0.0586098
  3399 10.4334 -0.000793204 -0.0227076
  3400 10.9947 -1.13419 0.105182
  3401 10.9860 -1.13654 -0.0953436
  3402 7.14902 0.310097 -0.923373
  3403 7.14945 0.310562 0.922926
  3404 7.52572 -1.31678 1.99716
  3405 7.52511 -1.31754 -1.99876
  3406 11.4389 0.0181129 0.707444
  3407 11.4381 0.0181611 -0.707518
  3408 8.19711 0.0102489 0.0832139
  3409 10.0702 -0.662103 0.179572
  3410 10.0714 -0.662837 -0.179114
  3411 9.16028 0.173634 0.883542
  3412 9.15975 0.173658 -0.883403
  3413 10.1955 -0.135145 0.106044
  3414 10.1955 -0.134976 -0.105639
  3415 25.9968 1.04825 3.19731
  3416 8.30988 0.0719098 -0.368972
  3417 8.31023 0.0719212 0.369082
  3418 8.53506 0.324966 1.00174
  3419 8.53473 0.324978 -1.00154
  3420 2.86947 -0.697319 -0.495615
  3421 2.86727 -0.698248 0.499133
  3422 7.98617 0.325831 0.410494
  3423 7.98581 0.325742 -0.410677
  3424 4.54864 0.586988 -0.245861
  3425 4.55117 0.586240 0.245986
  3426 15.9173 0.356042 1.20471
  3427 10.8620 0.234228 -0.758263
  3428 9.89357 -0.205246 0.128901
  3429 9.89385 -0.205582 -0.128693
  3430 8.55783 -0.683533 1.40271
  3431 8.56235 -0.695205 -1.40252
  3432 8.05872 0.437134 0.914309
  3433 8.05858 0.437111 -0.914097
  3434 10.3269 0.0985676 0.976066
  3435 10.3262 0.0986416 -0.976049
  3436 14.1700 -0.446030 0.398896
  3437 14.1683 -0.443670 -0.398492
  3438 8.17501 0.263861 -0.439407
  3439 8.17533 0.263968 0.439203
  3440 7.03871 -0.156564 -1.55580
  3441 7.03905 -0.155734 1.55389
  3442 6.94325 0.116684 -1.23592
  3443 6.94345 0.117418 1.23506
  3444 20.0519 1.84978 -0.0118465
  3445 3.11988 -2.80172 1.76384
  3446 15.5398 -0.0257583 0.139606
  3447 15.5377 -0.0255709 -0.139166
  3448 17.5178 0.672751 0.310233
  3449 9.21388 -0.134507 0.420108
  3450 9.21405 -0.134896 -0.420302
  3451 8.24923 0.0223007 -0.202313
  3452 8.24962 0.0223046 0.202378
  3453 8.07308 0.153640 -0.431773
  3454 8.07327 0.153669 0.431911
  3455 3.56981 -0.0947005 -0.846256
  3456 3.57449 -0.0955063 0.846095
  3457 12.7345 -0.118520 0.922368
  3458 12.7338 -0.118278 -0.922977
  3459 6.03265 -0.265654 -1.86472
  3460 6.03225 -0.266248 1.86422
  3461 9.24675 0.135766 0.444347
  3462 7.36549 0.716439 1.21147
  3463 7.36553 0.716484 -1.21115
  3464 8.85543 0.0341982 0.288641
  3465 9.81179 -0.0511801 -0.579859
  3466 9.81147 -0.0506326 0.580018
  3467 11.1230 -0.0800764 -0.852649
  3468 9.93241 0.00140537 0.125567
  3469 9.93155 0.00140566 -0.125546
  3470 7.70524 0.484058 0.352998
  3471 7.70540 0.483982 -0.352893
  3472 13.8642 -0.670740 0.465684
  3473 13.8623 -0.667331 -0.465773
  3474 8.89066 0.147906 -0.190247
  3475 7.51550 0.613406 0.571326
  3476 7.51568 0.613332 -0.571180
  3477 13.3364 -0.0111168 -0.538445
  3478 13.3369 -0.0111887 0.538148
  3479 6.66653 -0.0921132 -1.98056
  3480 6.66774 -0.0929196 1.98090
  3481 6.42018 -0.189461 1.73125
  3482 6.41959 -0.188679 -1.73241
  3483 9.26778 0.264465 1.28331
  3484 9.26721 0.264589 -1.28320
  3485 8.29910 0.0856193 0.197731
  3486 10.1929 0.761932 0.509650
  3487 8.25104 0.318631 0.197875
  3488 8.25080 0.318640 -0.197971
  3489 8.07127 0.0231993 0.184223
  3490 8.07094 0.0231935 -0.184157
  3491 4.17823 -1.01488 1.56814
  3492 8.92159 0.0313602 -0.291527
  3493 8.92218 0.0313634 0.291596
  3494 7.55859 0.605569 -0.688014
  3495 7.55847 0.605635 0.688187
  3496 8.75835 0.115674 0.364118
  3497 8.75824 0.115539 -0.364304
  3498 9.11748 0.0637187 0.288877
  3499 9.11748 0.0635948 -0.288997
  3500 9.08374 -0.000833141 0.165306
  3501 9.07982 -0.000818554 -0.166200
  3502 11.8223 -0.912484 -0.126813
  3503 12.0827 -1.60754 -0.592021
  3504 12.1243 -1.61746 0.568441
  3505 9.96109 0.791244 0.140901
  3506 7.84031 0.378422 0.517759
  3507 7.84032 0.378360 -0.517604
  3508 4.39162 -0.796804 1.67052
  3509 4.38963 -0.795145 -1.66936
  3510 9.82260 0.344339 0.608752
  3511 9.08168 0.231562 0.982800
  3512 9.08118 0.231595 -0.982652
  3513 10.0351 -0.0171136 0.113265
  3514 10.0352 -0.0171817 -0.113217
  3515 6.25539 0.634113 -0.639528
  3516 6.25618 0.634124 0.638905
  3517 6.87041 0.848128 0.888861
  3518 6.87074 0.848069 -0.888600
  3519 8.67483 0.349069 -1.63604
  3520 8.67546 0.348749 1.63618
  3521 11.3623 -1.53476 -0.838374
  3522 7.79169 0.407555 0.455478
  3523 7.79176 0.407486 -0.455339
  3524 3.35348 -2.58648 -1.93331
  3525 8.37336 0.287091 0.816373
  3526 8.37309 0.287076 -0.816185
  3527 7.86768 0.336605 -0.464739
  3528 7.86767 0.336665 0.464885
  3529 23.4230 1.70917 -0.269713
  3530 7.38426 0.405285 1.79315
  3531 7.38367 0.405794 -1.79275
  3532 11.2264 1.59867 0.491962
  3533 15.7485 0.109554 1.19973
  3534 7.79789 -0.0677131 -1.13753
  3535 7.79851 -0.0669691 1.13724
  3536 9.00047 0.150076 -0.750079
  3537 9.00097 0.150070 0.750220
  3538 14.3412 -0.549699 1.35179
  3539 14.3389 -0.558394 -1.34787
  3540 9.70885 4.73452e-05 -0.182568
  3541 9.70875 0.000148106 0.182558
  3542 18.0221 0.834319 -0.119188
  3543 7.88076 0.416753 0.699027
  3544 7.88072 0.416703 -0.698843
  3545 8.53596 0.0794912 0.435785
  3546 8.53553 0.0794813 -0.435670
  3547 9.45352 -0.815651 -1.80218
  3548 9.45472 -0.815672 1.80248
  3549 9.87406 -0.0173141 -0.150802
  3550 9.87394 -0.0172176 0.150831
  3551 7.95192 0.409180 -0.189470
  3552 7.95223 0.409174 0.189382
  3553 9.68685 0.00147255 -0.142896
  3554 9.68474 0.00159038 0.143137
  3555 28.6607 0.680462 -0.659307
  3556 10.1650 -0.241768 -0.505563
  3557 10.1652 -0.241793 0.506211
  3558 10.2408 0.0420672 0.525816
  3559 8.60079 -0.00888676 0.620136
  3560 8.60057 -0.00919126 -0.620486
  3561 7.88445 0.367431 -0.578743
  3562 7.88448 0.367487 0.578909
  3563 8.74638 -1.87180 -1.70139
  3564 8.73831 -1.86247 1.70290
  3565 6.11853 0.840487 -0.0836049
  3566 6.11944 0.840314 0.0833830
  3567 8.14209 0.0858227 -0.352160
  3568 8.14236 0.0858391 0.352273
  3569 10.8241 0.000305936 -1.42756
  3570 10.8250 -4.87413e-06 1.42728
  3571 9.03548 -1.44709 -1.92017
  3572 7.44405 0.644093 0.493617
  3573 7.44428 0.644017 -0.493494
  3574 14.3246 -0.130964 -0.389926
  3575 14.3242 -0.130990 0.389127
  3576 11.7772 1.04030 -0.860452
  3577 5.89664 -1.95326 2.58290
  3578 7.58808 0.636717 -0.903383
  3579 7.58802 0.636759 0.903602
  3580 9.29478 0.0745526 0.471018
  3581 10.1720 -1.49425 1.21448
  3582 10.1956 0.596807 -0.665138
  3583 6.20179 0.0729754 -1.48537
  3584 6.20246 0.0727918 1.48389
  3585 10.2750 -0.00693563 -0.0641867
  3586 10.2748 -0.00691322 0.0642230
  3587 10.0904 0.779777 -0.398641
  3588 8.37255 0.138486 -0.528999
  3589 8.37288 0.138503 0.529142
  3590 11.2963 0.598588 -0.913958
  3591 10.0090 0.559595 -0.529179
  3592 9.52857 0.184969 -0.553635
  3593 7.53228 0.664146 1.03878
  3594 7.53234 0.664128 -1.03853
  3595 8.13807 0.338671 -0.253393
  3596 8.13836 0.338686 0.253272
  3597 11.2125 1.31458 -0.718297
  3598 8.06825 0.00272339 0.0388510
  3599 8.06785 0.00272368 -0.0388373
  3600 10.1755 -0.190670 -0.302468
  3601 10.1755 -0.190867 0.303025
  3602 6.47186 0.863524 -0.100376
  3603 6.47117 0.863634 0.100279
  3604 9.46061 0.264589 1.38119
  3605 9.45997 0.264763 -1.38112
  3606 5.91921 0.933702 -0.349133
  3607 5.91823 0.933957 0.349248
  3608 9.92623 -0.0922275 -0.125346
  3609 9.92606 -0.0920289 0.125484
  3610 9.62964 0.0205483 1.73784
  3611 9.62864 0.0209895 -1.73797
  3612 10.1910 -0.109728 0.222200
  3613 10.1912 -0.109581 -0.221702
  3614 12.0700 0.0978996 0.736555
  3615 6.49097 0.768992 -0.282501
  3616 6.49166 0.768965 0.282188
  3617 9.98161 -0.0710124 -0.114321
  3618 9.98147 -0.0708548 0.114448
  3619 10.4718 -0.743090 -0.119808
  3620 10.4722 -0.743190 0.120793
  3621 8.43202 0.191635 0.418665
  3622 8.43179 0.191518 -0.418878
  3623 9.80811 -1.52835 -1.54906
  3624 9.80905 -1.52690 1.55228
  3625 11.1035 -0.180052 0.812136
  3626 8.51482 0.00756318 -0.157134
  3627 8.51532 0.00756446 0.157180
  3628 7.29582 0.467310 -0.560838
  3629 7.29630 0.467512 0.560586
  3630 10.7192 1.13452 -0.554867
  3631 16.6587 2.51494 -0.819337
  3632 10.6835 0.0603331 0.807808
  3633 10.6827 0.0603834 -0.807809
  3634 4.94136 -2.61204 1.28695
  3635 4.92937 -2.61771 -1.28638
  3636 10.1547 -0.0116660 -0.0889295
  3637 10.1546 -0.0116230 0.0889723
  3638 9.98523 0.0911832 -0.777189
  3639 9.98595 0.0911499 0.777256
  3640 8.80382 0.0160328 0.197958
  3641 8.80323 0.0160310 -0.197907
  3642 8.40396 0.00713896 -0.133713
  3643 8.40444 0.00713949 0.133755
  3644 8.13117 0.0167951 0.154956
  3645 8.13081 0.0167911 -0.154903
  3646 8.39218 0.0704252 -0.252587
  3647 10.2134 0.0281260 -0.541817
  3648 14.4349 0.697752 -1.32071
  3649 6.19717 0.904939 0.828306
  3650 6.19781 0.904841 -0.827945
  3651 15.0451 1.14574 0.699548
  3652 6.90714 0.825234 1.02820
  3653 6.90742 0.825216 -1.02789
  3654 15.1840 1.47913 -1.72608
  3655 8.70657 0.0673460 0.432730
  3656 8.70609 0.0673407 -0.432622
  3657 8.65960 0.0334250 0.302803
  3658 8.65909 0.0334220 -0.302723
  3659 10.3254 -0.916771 -0.237733
  3660 10.3233 -0.915931 0.241270
  3661 7.91598 0.433071 0.0652055
  3662 7.91570 0.433112 -0.0652422
  3663 10.6134 -1.53166 -1.02350
  3664 14.5198 1.65431 4.15901
  3665 7.54785 0.394317 -0.590125
  3666 7.54831 0.394519 0.589894
  3667 4.69416 -1.14388 -1.78267
  3668 4.69699 -1.14531 1.78317
  3669 9.53127 -1.18377 -1.30345
  3670 7.70271 0.444101 -0.343164
  3671 7.70310 0.444169 0.343020
  3672 6.13574 -1.34486 -2.01528
  3673 6.13890 -1.34529 2.01404
  3674 7.85485 0.273291 0.603479
  3675 7.85441 0.273092 -0.603725
  3676 13.4793 -1.08066 -0.497778
  3677 13.4692 -1.04420 0.462924
  3678 10.0406 -0.108050 -0.689335
  3679 10.0398 -0.106397 0.689762
  3680 9.99120 -0.786655 -0.394488
  3681 9.98965 -0.785286 0.393703
  3682 8.84049 0.0958501 0.568572
  3683 8.84000 0.0958475 -0.568446
  3684 14.0669 2.62478 0.252694
  3685 10.1240 -0.753659 -0.237710
  3686 10.1220 -0.752466 0.238207
  3687 8.05393 0.112815 0.768548
  3688 8.05347 0.112495 -0.768866
  3689 13.0944 0.00418540 -0.472475
  3690 13.0951 0.00414527 0.472294
  3691 9.97249 -0.273992 0.0741822
  3692 9.97282 -0.274364 -0.0738785
  3693 10.2236 -0.301183 -0.443179
  3694 10.2239 -0.301346 0.443747
  3695 9.90232 0.768025 -0.138177
  3696 6.84826 0.662273 -0.389327
  3697 6.84881 0.662368 0.389050
  3698 7.76137 0.488727 -0.157376
  3699 7.76171 0.488720 0.157304
  3700 10.1778 -1.81839 1.81837
  3701 8.52074 -1.71403 2.37013
  3702 12.4096 0.00425397 0.196126
  3703 12.4086 0.00425931 -0.196159
  3704 11.7914 1.73042 -0.649244
  3705 13.3441 -0.0638407 1.52453
  3706 13.0190 0.0103396 0.203503
  3707 13.0182 0.0103469 -0.203557
  3708 8.97885 -1.27663 -1.74495
  3709 8.86644 -0.361633 -0.852451
  3710 8.86675 -0.360943 0.851857
  3711 7.84559 0.456691 -0.000986600
  3712 7.84532 0.456743 0.000975613
  3713 12.8253 -0.00575588 -0.730894
  3714 12.8259 -0.00586409 0.730568
  3715 8.28940 -1.86638 2.56686
  3716 5.32881 0.603164 -0.706337
  3717 5.33051 0.602642 0.705578
  3718 6.55179 -0.297270 -2.01372
  3719 6.55323 -0.298173 2.01392
  3720 9.85776 -0.683809 -0.430695
  3721 9.85655 -0.683400 0.430498
  3722 9.44804 -0.198581 0.350869
  3723 9.44833 -0.199023 -0.350947
  3724 9.65369 -0.516479 -0.444973
  3725 9.65290 -0.515703 0.444870
  3726 5.58608 0.829036 -0.193361
  3727 5.58743 0.828656 0.193086
  3728 14.1880 -0.398469 0.202050
  3729 14.1869 -0.396867 -0.202232
  3730 10.0339 -0.0743088 0.333905
  3731 10.0344 -0.0742448 -0.333348
  3732 11.8392 0.416689 0.773725
  3733 7.21057 0.720883 1.30741
  3734 7.21060 0.720982 -1.30705
  3735 15.4380 -0.0579302 -0.174314
  3736 15.4397 -0.0581734 0.174982
  3737 8.20362 0.00732907 -0.121232
  3738 8.20403 0.00733076 0.121273
  3739 11.7973 0.00670052 -0.968990
  3740 11.7980 0.00657130 0.968763
  3741 20.0989 1.26698 -0.674655
  3742 7.62253 0.546194 -0.0958845
  3743 7.62223 0.546249 0.0958987
  3744 9.09616 0.0760782 0.508049
  3745 9.09558 0.0760768 -0.507946
  3746 8.10172 -1.68418 -2.49469
  3747 8.09776 -0.138294 -1.05939
  3748 8.09836 -0.137713 1.05895
  3749 13.2438 2.51311 -0.334126
  3750 10.4395 -0.00775078 0.0461972
  3751 10.4400 -0.00773660 -0.0460593
  3752 8.92741 -1.24742 1.73376
  3753 10.5783 0.870441 0.689245
  3754 7.62141 0.554877 0.166890
  3755 7.62168 0.554812 -0.166851
  3756 8.71961 0.0518782 1.89731
  3757 8.71861 0.0523973 -1.89728
  3758 8.20680 0.267250 0.390941
  3759 8.20650 0.267166 -0.391126
  3760 8.53916 0.215743 0.277431
  3761 8.53898 0.215701 -0.277568
  3762 9.92443 -1.06360 0.828098
  3763 9.90712 -1.05246 -0.820550
  3764 10.2071 0.255622 0.133499
  3765 7.54780 0.579785 0.222343
  3766 7.54808 0.579717 -0.222291
  3767 5.72915 -0.146733 -1.46169
  3768 7.54130 0.589423 -0.0835761
  3769 7.54097 0.589472 0.0835810
  3770 9.62935 -0.663490 0.587995
  3771 9.63020 -0.664223 -0.588302
  3772 8.51569 0.166794 0.636855
  3773 8.51532 0.166780 -0.636699
  3774 10.2003 -0.271221 -0.386974
  3775 10.2005 -0.271419 0.387539
  3776 9.88496 -0.155848 0.138961
  3777 9.88520 -0.156129 -0.138791
  3778 5.92488 -1.99451 -2.56799
  3779 12.2970 0.00373166 0.502429
  3780 12.2962 0.00375971 -0.502534
  3781 10.0486 0.159482 1.38231
  3782 10.0478 0.159680 -1.38235
  3783 9.59798 -0.419308 0.410131
  3784 9.59862 -0.419997 -0.410213
  3785 9.51453 -0.00600177 -0.136810
  3786 9.51209 -0.00566942 0.136847
  3787 16.8211 1.51366 -0.257279
  3788 7.92156 -0.857197 -1.89087
  3789 7.93698 -0.842723 1.87268
  3790 10.9994 0.0184013 -0.470260
  3791 11.0002 0.0183872 0.470263
  3792 8.76308 0.00406849 -0.0691248
  3793 8.76370 0.00406857 0.0691435
  3794 12.8135 -0.478703 -0.761550
  3795 12.8148 -0.478889 0.760511
  3796 7.90297 0.281764 -0.432902
  3797 7.90299 0.281820 0.433043
  3798 10.1931 -0.0205276 -0.0793177
  3799 10.1930 -0.0204750 0.0793920
  3800 7.26720 0.701024 0.239284
  3801 7.26755 0.700965 -0.239251
  3802 7.85444 0.416230 -0.650176
  3803 7.85446 0.416285 0.650353
  3804 7.49564 0.610334 -0.440431
  3805 7.49542 0.610408 0.440542
  3806 3.84292 -0.168174 1.02952
  3807 3.84339 -0.167285 -1.02732
  3808 10.0077 0.152326 -1.48887
  3809 10.0084 0.152061 1.48881
  3810 12.3521 -0.531876 0.178931
  3811 19.4412 0.952759 1.31005
  3812 8.98322 0.204250 0.885494
  3813 8.98274 0.204269 -0.885341
  3814 7.64340 0.141918 1.95074
  3815 7.64246 0.142546 -1.95049
  3816 6.97544 -1.86006 1.83895
  3817 6.97079 -1.86341 -1.84459
  3818 13.0650 -0.174722 -0.828069
  3819 13.0656 -0.174991 0.827305
  3820 9.37827 -0.0860733 0.322200
  3821 9.37843 -0.0863760 -0.322290
  3822 7.34858 0.733666 1.07378
  3823 7.34868 0.733658 -1.07350
  3824 9.38849 -1.04999 -1.83585
  3825 9.38948 -1.04949 1.83656
  3826 10.5503 0.298109 0.861927
  3827 9.81474 -0.0684611 -0.173299
  3828 9.81459 -0.0682751 0.173364
  3829 13.2737 0.110714 1.53933
  3830 10.8603 -0.473745 0.646272
  3831 10.8491 -0.475330 -0.640163
  3832 10.5000 0.623504 0.777512
  3833 8.22471 0.0728865 -0.349136
  3834 8.22502 0.0728994 0.349245
  3835 11.8211 0.115041 2.22055
  3836 8.42307 0.223855 0.330568
  3837 8.42285 0.223787 -0.330734
  3838 8.44004 0.319378 0.914511
  3839 8.43974 0.319375 -0.914318
  3840 10.2270 -0.0356328 0.164312
  3841 10.2277 -0.0355693 -0.163928
  3842 10.1058 0.595066 0.597318
  3843 11.5829 0.278170 1.00787
  3844 10.3199 -0.827851 2.43853
  3845 10.7551 0.224945 0.892470
  3846 9.28766 0.0311962 -0.263901
  3847 9.28762 0.0313322 0.263812
  3848 11.1494 -0.321755 -0.750766
  3849 12.0759 -1.04910 0.275850
  3850 8.15694 0.230474 0.593274
  3851 8.15674 0.230442 -0.593110
  3852 8.19729 0.154931 0.493738
  3853 8.19704 0.154907 -0.493592
  3854 8.05063 0.354489 0.306151
  3855 8.05031 0.354452 -0.306290
  3856 12.6830 -0.164885 -1.75129
  3857 7.72611 0.361905 -0.530077
  3858 7.72655 0.362063 0.529866
  3859 7.97869 0.368093 0.697363
  3860 7.97860 0.368050 -0.697178
  3861 7.63829 0.523116 0.290766
  3862 7.63851 0.523042 -0.290684
  3863 12.5228 -0.662590 -0.772203
  3864 12.5246 -0.662788 0.771174
  3865 25.9532 1.33506 -0.657425
  3866 10.2571 -0.0773415 -0.0565839
  3867 10.2571 -0.0774520 0.0568995
  3868 7.80310 0.428431 0.540656
  3869 7.80314 0.428365 -0.540500
  3870 8.58288 0.0377973 0.315382
  3871 8.58240 0.0377934 -0.315297
  3872 1.60001 -0.0340304 -2.96471e-05
  3873 1.64777 -0.126442 0.00375146
  3874 1.61059 -0.0424213 -0.0745351
  3875 1.60077 -0.0293398 0.0791830
  3876 1.56742 0.0173815 -0.0388833
  3877 1.56281 0.0191927 0.0372838
  3878 1.64476 -0.135674 -0.0805155
  3879 1.55722 0.0155393 -0.00254022
  3880 1.64102 -0.117466 0.0882831
  3881 1.67472 -0.214177 -0.000240565
  3882 1.66694 -0.185552 0.0645046
  3883 1.62373 -0.0709742 -0.0248995
  3884 1.62150 -0.0681574 0.0272715
  3885 1.60871 -0.0512935 -0.115892
  3886 1.56484 0.0363735 -0.0737966
  3887 1.56403 0.0362133 0.0734445
  3888 1.59444 -0.0209983 -0.0377367
  3889 1.66669 -0.201205 -0.0658997
  3890 1.54171 0.0309361 0.0182368
  3891 1.54460 0.0308664 -0.0203449
  3892 1.60556 -0.0387922 0.117069
  3893 1.59190 -0.0194104 0.0379588
  3894 1.57733 -0.00201632 -0.0144688
  3895 1.57652 -0.00176728 0.0173535
  3896 1.58124 0.0107972 -0.103560
  3897 1.57356 0.0258199 0.104419
  3898 1.64232 -0.111264 -0.0438726
  3899 1.68078 -0.243071 0.0308421
  3900 1.63844 -0.104879 0.0500067
  3901 1.68379 -0.245139 -0.0442316
  3902 1.65993 -0.157388 -0.0291618
  3903 1.65914 -0.176193 0.0232107
  3904 1.63450 -0.130862 -0.128704
  3905 1.65378 -0.148601 0.114725
  3906 1.54535 0.0567489 0.0527715
  3907 1.54518 0.0564129 -0.0555809
  3908 1.53869 0.0293803 -0.00702516
  3909 1.62105 -0.0859415 0.133736
  3910 1.53660 0.0465746 0.0322684
  3911 1.53575 0.0300984 0.00304580
  3912 1.54161 0.0461036 -0.0343363
  3913 1.62708 -0.0846385 -0.0819356
  3914 1.62022 -0.0724043 0.0835114
  3915 1.63348 -0.0891892 0.00435189
  3916 1.58582 -0.00267027 -0.0634152
  3917 1.58545 -0.000918251 0.0632064
  3918 1.62202 -0.0706953 -0.0548319
  3919 1.61604 -0.0594898 0.00111484
  3920 1.61183 -0.0624368 -0.140064
  3921 1.58780 -0.00472941 -0.133923
  3922 1.55842 0.0147490 0.0139338
  3923 1.60597 -0.0424819 -0.0220141
  3924 1.60538 -0.0411850 0.0229779
  3925 1.56100 0.0562518 -0.0960654
  3926 1.56421 0.0172946 -0.0245879
  3927 1.67058 -0.228664 0.0826215
  3928 1.65893 -0.179489 -0.115403
  3929 1.57873 0.0209959 0.128112
  3930 1.60614 -0.0389554 0.0485173
  3931 1.65255 -0.154542 0.0696411
  3932 1.55669 0.0568467 0.0908794
  3933 1.68650 -0.261839 0.00463651
  3934 1.63217 -0.101723 -0.100043
  3935 1.59212 -0.0194809 -0.0186290
  3936 1.67106 -0.198447 0.0328103
  3937 1.62204 -0.0629179 0.0558851
  3938 1.60723 -0.0419633 -0.0481033
  3939 1.58598 -0.0115147 -0.00130196
  3940 1.59202 -0.0252435 0.149645
  3941 1.59237 -0.0225069 0.0162661
  3942 1.66469 -0.183260 -0.0444467
  3943 1.54703 0.0698519 -0.0752957
  3944 1.57846 -0.00168686 -0.0323720
  3945 1.53646 0.0507562 -0.0257943
  3946 1.57124 0.0194953 -0.0598684
  3947 1.53095 0.0378831 0.00784609
  3948 1.56742 0.0203360 0.0529756
  3949 1.53121 0.0399592 -0.0114534
  3950 1.54602 0.0623035 0.0700740
  3951 1.59862 -0.0203466 -0.105474
  3952 1.53398 0.0443772 0.0208460
  3953 1.57320 0.00179931 0.00248583
  3954 1.57589 0.00164618 0.0297952
  3955 1.67549 -0.227330 -0.0736778
  3956 1.58492 -9.34700e-05 -0.0809920
  3957 1.62271 -0.0759728 0.106623
  3958 1.64836 -0.127519 0.0322322
  3959 1.55651 0.0245448 0.0231526
  3960 1.59279 -0.0134583 0.0962817
  3961 1.55361 0.0197256 -0.0104979
  3962 1.66052 -0.168536 -0.00271701
  3963 1.58619 0.00104661 0.0816660
  3964 1.65937 -0.183871 0.118880
  3965 1.63330 -0.118536 0.135582
  3966 1.53500 0.0634338 0.0422282
  3967 1.64115 -0.110014 -0.0181851
  3968 1.65827 -0.166426 -0.0893528
  3969 1.53663 0.0611497 -0.0421610
  3970 1.63874 -0.104536 0.0218170
  3971 1.52950 0.0320829 -0.00465915
  3972 1.67951 -0.251349 0.0604607
  3973 1.59725 -0.0200071 -0.148709
  3974 1.56373 0.0462971 -0.118394
  3975 1.68367 -0.230723 0.00762707
  3976 1.56043 0.0546922 0.121454
  3977 1.65091 -0.133906 -0.0513301
  3978 1.64611 -0.124598 0.0603508
  3979 1.65618 -0.166191 0.0889308
  3980 1.66823 -0.218033 -0.104359
  3981 1.63680 -0.114763 0.114195
  3982 1.55111 0.0216341 0.00596841
  3983 1.54969 0.0420290 0.0411573
  3984 1.54441 0.0248474 -0.00251556
  3985 1.68917 -0.274480 0.0344898
  3986 1.55110 0.0399230 -0.0435761
  3987 1.55365 0.0288677 -0.0311118
  3988 1.56638 0.00953923 -0.0118487
  3989 1.62167 -0.0943501 -0.151974
  3990 1.58478 -0.00365903 -0.0450582
  3991 1.64938 -0.132086 -0.0229497
  3992 1.67271 -0.214421 -0.0362427
  3993 1.69034 -0.275735 -0.0385354
  3994 1.52951 0.0600288 -0.0313337
  3995 1.57509 0.0376607 -0.136543
  3996 1.65853 -0.159418 -0.0596707
  3997 1.58204 0.00177611 0.0462338
  3998 1.58186 0.0151896 0.146851
  3999 1.61079 -0.0522006 0.151211
  4000 1.56867 0.0106845 0.0225578
  4001 1.61413 -0.0508346 -0.0895617
  4002 1.64065 -0.149800 -0.139520
  4003 1.54509 0.0649268 -0.0894987
  4004 1.52624 0.0648787 0.0321409
  4005 1.67340 -0.220735 0.0562362
  4006 1.63113 -0.0864086 -0.0373882
  4007 1.53271 0.0372564 0.00587355
  4008 1.56055 0.0384291 0.0616658
  4009 1.52692 0.0690148 -0.0613463
  4010 1.65190 -0.153210 0.138335
  4011 1.56192 0.0433500 -0.0650494
  4012 1.62905 -0.0801496 0.0404875
  4013 1.53031 0.0330796 -0.00584677
  4014 1.56976 0.0321274 0.0844414
  4015 1.66360 -0.173898 0.0472241
  4016 1.63231 -0.0971291 0.0776399
  4017 1.60587 -0.0441492 0.0964451
  4018 1.53329 0.0739762 0.0507496
  4019 1.54381 0.0288113 -0.0145469
  4020 1.55088 0.0700650 0.104987
  4021 1.57111 0.0308178 -0.0891720
  4022 1.63930 -0.110968 -0.0712709
  4023 1.65574 -0.149784 0.0147523
  4024 1.54741 0.0815046 0.0850777
  4025 1.59741 -0.0230732 0.0642532
  4026 1.64190 -0.131865 -0.107251
  4027 1.51938 0.0424779 -0.0163283
  4028 1.66310 -0.195370 0.0909179
  4029 1.54525 0.0349767 0.0259268
  4030 1.59660 -0.0269282 -0.118937
  4031 1.63046 -0.0910711 -0.0612468
  4032 1.54124 0.0311480 0.0107933
  4033 1.68540 -0.289630 -0.0145715
  4034 1.60043 -0.0262821 -0.0668171
  4035 1.62542 -0.0822912 0.0643226
  4036 1.67571 -0.223428 -0.0560864
  4037 1.54561 0.0363058 -0.0248283
  4038 1.52317 0.0446242 0.0134509
  4039 1.62443 -0.0746894 -0.00703392
  4040 1.62303 -0.0733849 0.0105243
  4041 1.66693 -0.189284 0.00553672
  4042 1.61324 -0.0521342 -0.0318964
  4043 1.61642 -0.0542441 0.0730704
  4044 1.60743 -0.0507122 0.131102
  4045 1.57237 0.00470868 -0.0242026
  4046 1.62097 -0.0682412 -0.102344
  4047 1.61557 -0.0577726 -0.0156062
  4048 1.61471 -0.0565240 0.0174781
  4049 1.66193 -0.179307 -0.0652829
  4050 1.57545 0.0158182 -0.0736593
  4051 1.62856 -0.0994123 -0.126412
  4052 1.57289 0.0149144 0.0732713
  4053 1.61184 -0.0503249 0.0334989
  4054 1.60939 -0.0447792 -0.155867
  4055 1.60733 -0.0458474 0.00810092
  4056 1.60761 -0.0457019 -0.00695919
  4057 1.59416 -0.00846938 0.113591
  4058 1.55076 0.0329097 0.0323112
  4059 1.66751 -0.188504 -0.0187907
  4060 1.55787 0.0338361 0.0489884
  4061 1.56857 0.00793924 0.0120394
  4062 1.55768 0.0320198 -0.0529337
  4063 1.54855 0.0225583 -0.00773449
  4064 1.65657 -0.144893 -0.00713822
  4065 1.63856 -0.107813 0.000594755
  4066 1.68762 -0.259040 -0.0678337
  4067 1.53270 0.0765662 -0.0518938
  4068 1.65670 -0.150158 0.0412145
  4069 1.66050 -0.213755 0.110001
  4070 1.60000 -0.0322689 -0.0135091
  4071 1.55113 0.0672446 -0.104447
  4072 1.58491 0.00960167 -0.120929
  4073 1.59738 -0.0265811 0.0263822
  4074 1.59737 -0.0213017 -0.0500160
  4075 1.60023 -0.0343502 0.0370460
  4076 1.52955 0.0713315 0.0573656
  4077 1.61145 -0.0519808 -0.0588474
  4078 1.69892 -0.289481 0.00976719
  4079 1.68237 -0.237519 -0.0150980
  4080 1.61789 -0.0709746 -0.120483
  4081 1.57122 0.0514947 0.137289
  4082 1.60277 -0.0394763 -0.130093
  4083 1.59447 -0.0191956 0.0499668
  4084 1.51475 0.0336779 0.00288193
  4085 1.59788 -0.0278979 -0.0267747
  4086 1.61844 -0.0925098 0.155592
  4087 1.60208 -0.0367212 -0.0364406
  4088 1.55724 0.0518642 -0.0848756
  4089 1.59332 -0.0221314 -0.00693783
  4090 1.61767 -0.0626180 -0.0424623
  4091 1.59173 -0.0185468 0.131658
  4092 1.60759 -0.0467601 -0.106910
  4093 1.64939 -0.148725 -0.114508
  4094 1.59936 -0.0331944 0.0132580
  4095 1.58380 0.0150940 -0.150187
  4096 1.67376 -0.241973 -0.0907667
  4097 1.55123 0.0244697 0.0140508
  4098 1.52184 0.0537491 0.0226666
  4099 1.66102 -0.194389 -0.130683
  4100 1.64863 -0.140609 0.0962412
  4101 1.61719 -0.0593510 0.0438411
  4102 1.62096 -0.0643429 -0.0700518
  4103 1.58850 -0.0142468 -0.0311521
  4104 1.61051 -0.0446740 0.0606904
  4105 1.59185 -0.0225746 0.00535206
  4106 1.56612 0.0412461 -0.104712
  4107 1.58521 -0.0117727 -0.0112873
  4108 1.53706 0.0376277 -0.0211258
  4109 1.67086 -0.248542 0.0870997
  4110 1.56374 0.0537313 0.0801140
  4111 1.56059 0.0108446 0.00624270
  4112 1.59674 -0.0253588 -0.0878382
  4113 1.63276 -0.0906857 -0.0144410
  4114 1.57725 -0.00427546 -0.00683932
  4115 1.55495 0.0246698 -0.0189549
  4116 1.58664 -0.0128592 0.0267135
  4117 1.63010 -0.124761 0.153077
  4118 1.53790 0.0696990 0.0915702
  4119 1.66748 -0.198923 -0.0930258
  4120 1.58280 -0.00673508 -0.0224215
  4121 1.67708 -0.223405 0.0253636
  4122 1.58560 -0.0108732 0.0105981
  4123 1.68625 -0.266249 -0.0211361
  4124 1.53379 0.0376883 0.0153023
  4125 1.57312 0.0181900 0.0624826
  4126 1.62915 -0.0835348 0.0204100
  4127 1.50729 0.0391830 -0.00425038
  4128 1.69540 -0.300797 -0.00440918
  4129 1.54329 0.0955811 0.0927948
  4130 1.54860 0.0943719 -0.0848027
  4131 1.53663 0.0947171 0.0737939
  4132 1.52855 0.0792622 0.0562167
  4133 1.53382 0.0836831 0.0482998
  4134 1.52479 0.0718244 0.0379074
  4135 1.51822 0.0644592 0.0233721
  4136 1.52512 0.0533223 0.0167585
  4137 1.51130 0.0495548 0.0130184
  4138 1.52338 0.0402413 0.00741157
  4139 1.51597 0.0364019 0.00849114
  4140 1.52698 0.0319765 -0.00859897
  4141 1.52995 0.0405885 -0.00645019
  4142 1.51698 0.0436271 -0.00875722
  4143 1.51946 0.0496779 -0.0195406
  4144 1.53455 0.0658629 -0.0276641
  4145 1.52316 0.0636844 -0.0351968
  4146 1.53427 0.0838744 -0.0475960
  4147 1.52628 0.0784117 -0.0601331
  4148 1.53419 0.0911693 -0.0719707
  4149 1.54474 0.0834339 -0.0959170
  4150 1.55330 0.0822089 -0.114260
  4151 1.55977 0.0621012 -0.129619
  4152 1.57319 0.0385543 -0.149703
  4153 1.58424 5.61822e-05 -0.156554
  4154 1.59545 -0.0335504 -0.158595
  4155 1.60200 -0.0742851 -0.164041
  4156 1.62005 -0.127276 -0.161030
  4157 1.62875 -0.159177 -0.151140
  4158 1.65229 -0.173168 -0.143392
  4159 1.66693 -0.230059 -0.116819
  4160 1.68435 -0.257392 -0.0881029
  4161 1.69689 -0.277390 -0.0569646
  4162 1.68695 -0.289329 -0.0295024
  4163 1.70940 -0.289034 0.0285828
  4164 1.67780 -0.272488 0.0623238
  4165 1.66713 -0.263130 0.0847839
  4166 1.66481 -0.236862 0.112991
  4167 1.65629 -0.193442 0.132713
  4168 1.64516 -0.148162 0.154810
  4169 1.61654 -0.112615 0.166561
  4170 1.60717 -0.0680915 0.164437
  4171 1.59370 -0.0380110 0.159965
  4172 1.57760 -0.00492206 0.158411
  4173 1.57355 0.0470250 0.148187
  4174 1.55687 0.0652949 0.129690
  4175 1.55072 0.0804227 0.114805
  4176 1.54182 0.0812978 0.0970079
</Section>

newXOutput 3

<Section columns = "stress_xx | stress_yy | stress_xy">
  1 15.0102 0.0200600 -0.0453040
  2 15.0103 0.0200676 0.0453131
  3 19.9493 -0.00569225 0.0111154
  4 19.9492 -0.00570084 -0.0111232
  5 49.4317 3.07415 0.582580
  6 62.4946 0.852588 0.0795688
  7 15.9418 -0.00131804 -0.0520751
  8 15.9426 -0.00131611 0.0520939
  9 20.7851 -0.00133390 0.0390694
  10 20.7856 -0.00133658 -0.0390706
  11 2.18799 -15.2357 0.626196
  12 2.24521 -15.3467 -0.689823
  13 17.3588 0.240633 -0.0239135
  14 17.3586 0.240766 0.0239094
  15 20.2185 -0.0355321 0.0308096
  16 15.0253 0.0244222 -0.0741536
  17 15.0256 0.0244249 0.0741915
  18 20.2187 -0.0355363 -0.0308343
  19 16.6762 0.585896 -0.381018
  20 16.6766 0.585874 0.380833
  21 15.9115 0.0469965 0.0288512
  22 14.4323 0.191762 0.00735593
  23 16.0548 0.00483844 -0.0503393
  24 16.1488 0.00679175 -0.0553010
  25 16.2946 0.00664371 -0.0797301
  26 16.4161 0.00511177 -0.0699532
  27 16.5531 0.00595302 -0.0820991
  28 16.7313 0.00179960 -0.0893943
  29 16.8871 -0.00513722 -0.0774787
  30 17.0665 -0.000736598 -0.0731314
  31 17.2691 -0.00280829 -0.0760895
  32 17.4460 0.00193470 -0.0789034
  33 17.6777 0.00947775 -0.118520
  34 17.9109 0.0115280 -0.122018
  35 18.1534 0.0107651 -0.150038
  36 18.4777 0.00351470 -0.162502
  37 18.7090 -0.00545039 -0.158638
  38 19.0722 0.000865790 -0.157688
  39 19.3398 -0.00237965 -0.162090
  40 19.7729 -0.00265157 -0.158892
  41 20.0911 0.0102541 -0.197239
  42 20.4744 0.0185891 -0.230005
  43 20.9419 -0.0159648 -0.245916
  44 21.4625 -0.0188650 -0.229554
  45 21.8665 -0.00798412 -0.225093
  46 22.4490 -0.00412479 -0.227619
  47 22.8750 -0.00208186 -0.297157
  48 23.3329 0.0109313 -0.318593
  49 24.0525 -0.0367740 -0.287559
  50 24.7329 -0.0381681 -0.245707
  51 25.2773 -0.0298447 -0.262700
  52 26.0228 -0.0318052 -0.230452
  53 26.5647 -0.0191872 -0.310284
  54 27.2872 -0.0198437 -0.292695
  55 27.9195 -0.0162424 -0.342943
  56 28.3984 -0.0371430 -0.365064
  57 29.4513 -0.125932 -0.294580
  58 29.6603 -0.0258289 -0.267920
  59 30.3777 -0.00596079 -0.211670
  60 30.8724 -0.0406495 -0.237898
  61 31.3021 -0.0510197 -0.165909
  62 31.6825 -0.0546203 -0.127557
  63 31.8957 -0.0583232 -0.0693971
  64 32.0390 -0.0671789 -0.00172113
  65 32.0382 -0.0848536 0.0909826
  66 31.7063 -0.0910000 0.171492
  67 31.5669 -0.0890607 0.205161
  68 31.0388 -0.128396 0.291959
  69 30.1169 -0.0964682 0.442553
  70 29.0912 -0.0856169 0.579467
  71 28.0269 -0.0586284 0.673016
  72 26.5518 -0.0465312 0.762452
  73 25.1924 0.00747426 0.818153
  74 23.3796 0.0267634 0.813442
  75 22.1046 0.0606433 0.827807
  76 20.0751 0.115768 0.682478
  77 18.7538 0.167791 0.751619
  78 17.3402 0.108531 0.493203
  79 16.6115 0.173938 0.574021
  80 15.0427 0.225633 0.278577
  81 15.0110 0.196447 0.261704
  82 14.6201 0.169806 -0.156065
  83 14.9523 0.217942 -0.335340
  84 15.7876 0.298399 -0.348976
  85 17.5880 0.143259 -0.637644
  86 18.7535 0.151815 -0.844224
  87 20.0370 0.118253 -0.757189
  88 22.1514 0.0453907 -0.877878
  89 23.5963 -0.0201425 -0.912578
  90 25.0863 0.0129530 -0.718386
  91 26.5955 -0.0120818 -0.721427
  92 28.0338 -0.0551237 -0.651484
  93 29.1017 -0.0806194 -0.570208
  94 30.1185 -0.0947930 -0.439151
  95 31.0363 -0.127901 -0.290464
  96 31.5623 -0.0887768 -0.204433
  97 31.7008 -0.0906590 -0.171145
  98 32.0324 -0.0846495 -0.0910210
  99 32.0336 -0.0670481 0.00142404
  100 31.8912 -0.0582556 0.0689780
  101 31.6788 -0.0545915 0.127098
  102 31.2994 -0.0510222 0.165464
  103 30.8706 -0.0406699 0.237481
  104 30.3766 -0.00600396 0.211329
  105 29.6600 -0.0258776 0.267624
  106 29.4514 -0.125946 0.294341
  107 28.3989 -0.0371476 0.364835
  108 27.9205 -0.0162672 0.342785
  109 27.2885 -0.0198655 0.292581
  110 26.5662 -0.0192076 0.310205
  111 26.0244 -0.0318202 0.230388
  112 25.2791 -0.0298562 0.262659
  113 24.7348 -0.0381796 0.245667
  114 24.0544 -0.0367857 0.287528
  115 23.3348 0.0109215 0.318582
  116 22.8770 -0.00209741 0.297163
  117 22.4510 -0.00413435 0.227624
  118 21.8685 -0.00799052 0.225109
  119 21.4644 -0.0188782 0.229567
  120 20.9438 -0.0159725 0.245942
  121 20.4762 0.0185894 0.230039
  122 20.0929 0.0102485 0.197274
  123 19.7747 -0.00265706 0.158916
  124 19.3415 -0.00238310 0.162120
  125 19.0739 0.000861697 0.157716
  126 18.7106 -0.00545486 0.158674
  127 18.4792 0.00351195 0.162537
  128 18.1548 0.0107644 0.150077
  129 17.9123 0.0115284 0.122053
  130 17.6790 0.00947843 0.118552
  131 17.4472 0.00193224 0.0789270
  132 17.2703 -0.00281145 0.0761101
  133 17.0676 -0.000739098 0.0731519
  134 16.8882 -0.00514042 0.0775011
  135 16.7323 0.00179791 0.0894207
  136 16.5541 0.00595307 0.0821274
  137 16.4171 0.00511209 0.0699790
  138 16.2954 0.00664561 0.0797589
  139 16.1496 0.00679114 0.0553219
  140 16.0556 0.00483699 0.0503564
  141 15.4832 0.0751521 0.0685266
  142 16.1016 0.144212 0.0561702
  143 16.6524 0.226620 0.0489016
  144 18.0398 0.180944 -0.00790243
  145 18.7467 0.118718 -0.00787998
  146 19.4326 0.0424657 0.00506942
  147 20.9201 -0.00975252 -0.0288422
  148 20.9649 -0.0120374 -0.0454663
  149 21.0488 -0.0158402 -0.0226476
  150 21.0968 -0.0138378 -0.0398866
  151 21.1188 -0.0165410 -0.0150354
  152 21.1687 -0.00729473 -0.00686854
  153 21.1243 -0.0284333 -0.00308332
  154 21.0639 -0.0203380 0.0448790
  155 21.0306 -0.0249448 0.0628426
  156 20.8990 -0.0297746 0.0705163
  157 20.6507 -0.0248970 0.115781
  158 20.4134 -0.0187114 0.137702
  159 20.0532 -0.0251919 0.177481
  160 19.6712 -0.00775836 0.241413
  161 19.1946 -0.00369022 0.187706
  162 18.7748 -0.000398067 0.203442
  163 18.1935 0.0118437 0.199669
  164 17.7389 0.0195925 0.244361
  165 17.1996 0.0269457 0.212935
  166 16.7498 0.0316815 0.195134
  167 16.3257 0.0499642 0.144720
  168 15.9912 0.0449298 0.0912101
  169 15.9858 0.0280038 0.0897821
  170 15.8652 0.0883102 -0.0901222
  171 15.9806 0.0642769 -0.100369
  172 16.4139 0.0515056 -0.168847
  173 16.7996 0.0542748 -0.263960
  174 17.1518 0.0189046 -0.219927
  175 17.7329 0.0195813 -0.241549
  176 18.1937 0.0134899 -0.201169
  177 18.7793 -0.00133882 -0.204751
  178 19.1997 -0.00406030 -0.187718
  179 19.6753 -0.00787432 -0.240891
  180 20.0565 -0.0251738 -0.177077
  181 20.4159 -0.0186927 -0.137351
  182 20.6525 -0.0248743 -0.115496
  183 20.9002 -0.0297549 -0.0702704
  184 21.0315 -0.0249334 -0.0626652
  185 21.0644 -0.0203332 -0.0447169
  186 21.1245 -0.0284161 0.00322063
  187 21.1687 -0.00727648 0.00696172
  188 21.1186 -0.0165253 0.0151068
  189 21.0966 -0.0138228 0.0399299
  190 21.0484 -0.0158272 0.0226813
  191 20.9645 -0.0120267 0.0454790
  192 20.9197 -0.00974426 0.0288507
  193 19.4326 0.0424397 -0.00507902
  194 18.7467 0.118646 0.00786770
  195 18.0398 0.180833 0.00789238
  196 16.6525 0.226497 -0.0488914
  197 16.1016 0.144132 -0.0561546
  198 15.4831 0.0751173 -0.0685118
  199 14.8773 0.0667890 -0.0684951
  200 15.0804 0.0162854 -0.0830789
  201 15.2586 0.00984205 -0.0785019
  202 15.4097 0.00789317 -0.0673438
  203 15.5913 0.000919026 -0.0775452
  204 15.7036 -0.000726720 -0.0667697
  205 15.7991 -0.000451428 -0.0487997
  206 15.9841 0.00490932 -0.113157
  207 16.0017 0.0150535 -0.198588
  208 16.0541 0.0369820 -0.309377
  209 16.0786 0.0623355 -0.402703
  210 16.0906 0.0954061 -0.501602
  211 16.0631 0.140919 -0.571317
  212 16.0633 0.187111 -0.652378
  213 16.0254 0.246718 -0.715467
  214 15.9803 0.306679 -0.764895
  215 15.9311 0.374516 -0.803457
  216 15.8703 0.443948 -0.815802
  217 15.8232 0.504254 -0.814076
  218 15.7646 0.582154 -0.804590
  219 15.7119 0.647411 -0.762642
  220 15.6667 0.707573 -0.713492
  221 15.6454 0.763482 -0.638967
  222 15.6324 0.796887 -0.548223
  223 15.6467 0.840114 -0.443573
  224 15.6757 0.852918 -0.324411
  225 15.7745 0.833674 -0.191789
  226 15.8922 0.816713 -0.0689529
  227 16.0273 0.777402 0.0574323
  228 16.2097 0.731156 0.178685
  229 16.4075 0.650081 0.291171
  230 16.9378 0.481269 0.459519
  231 17.2292 0.401452 0.511890
  232 17.5081 0.323427 0.541591
  233 17.8142 0.253509 0.541601
  234 18.0770 0.178762 0.539998
  235 18.3816 0.126405 0.518625
  236 18.6490 0.0794349 0.486971
  237 18.9046 0.0523703 0.451296
  238 19.1827 0.0305661 0.401315
  239 19.4188 0.0185260 0.350200
  240 19.6664 0.000513218 0.303939
  241 19.9114 0.0118214 0.252407
  242 20.1557 0.00379311 0.199212
  243 20.3884 0.00213652 0.142993
  244 20.6103 0.00700482 0.0803321
  245 20.7133 -0.00828072 0.0301670
  246 20.5726 -0.0104242 0.0352097
  247 20.3930 -0.0195603 0.0535055
  248 19.9712 -0.00957065 0.0471707
  249 20.6107 0.00699732 -0.0803307
  250 20.3887 0.00210871 -0.142988
  251 20.1560 0.00373569 -0.199205
  252 19.9117 0.0117331 -0.252405
  253 19.6666 0.000384166 -0.303953
  254 19.4190 0.0183702 -0.350239
  255 19.1828 0.0303744 -0.401383
  256 18.9047 0.0521589 -0.451412
  257 18.6491 0.0792197 -0.487127
  258 18.3816 0.126195 -0.518823
  259 18.0769 0.178576 -0.540231
  260 17.8140 0.253360 -0.541851
  261 17.5079 0.323309 -0.541853
  262 17.2289 0.401380 -0.512141
  263 16.9374 0.481242 -0.459747
  264 16.4070 0.650134 -0.291315
  265 16.2092 0.731244 -0.178776
  266 16.0269 0.777513 -0.0574723
  267 15.8917 0.816842 0.0689646
  268 15.7741 0.833815 0.191846
  269 15.6753 0.853067 0.324516
  270 15.6463 0.840267 0.443720
  271 15.6321 0.797039 0.548406
  272 15.6452 0.763631 0.639180
  273 15.6666 0.707713 0.713732
  274 15.7118 0.647541 0.762900
  275 15.7646 0.582272 0.804859
  276 15.8233 0.504357 0.814352
  277 15.8704 0.444039 0.816079
  278 15.9313 0.374594 0.803728
  279 15.9805 0.306742 0.765156
  280 16.0258 0.246771 0.715713
  281 16.0637 0.187150 0.652604
  282 16.0636 0.140951 0.571516
  283 16.0912 0.0954276 0.501779
  284 16.0792 0.0623508 0.402847
  285 16.0547 0.0369920 0.309490
  286 16.0024 0.0150566 0.198661
  287 15.9848 0.00490982 0.113199
  288 15.7998 -0.000454977 0.0488176
  289 15.7043 -0.000732547 0.0667916
  290 15.5919 0.000914963 0.0775732
  291 15.4102 0.00789155 0.0673748
  292 15.2590 0.00984177 0.0785357
  293 15.0807 0.0162834 0.0831107
  294 14.8775 0.0667932 0.0685146
  295 19.9714 -0.00956748 -0.0471938
  296 20.3933 -0.0195682 -0.0535303
  297 20.5730 -0.0104291 -0.0352228
  298 20.7137 -0.00828588 -0.0301731
  299 2.98032 -13.7022 -0.328916
  300 3.71129 -9.91195 -0.523745
  301 6.11684 -4.26918 1.49600
  302 10.0503 -0.218605 3.62486
  303 17.4277 3.62939 7.16212
  304 25.0375 5.72849 9.91061
  305 33.4909 5.73843 10.2703
  306 42.1041 4.93799 9.03794
  307 47.5742 3.70034 5.18278
  308 46.3278 4.18137 -4.63890
  309 41.6686 4.73466 -9.40402
  310 33.3863 5.92595 -10.6007
  311 24.3218 5.66251 -9.52523
  312 16.8511 4.49120 -7.86702
  313 10.2408 0.617022 -4.04000
  314 6.71592 -3.77452 -2.01055
  315 3.85725 -10.4196 0.710925
  316 3.27672 -14.2633 0.347710
  317 2.32430 -16.7109 -2.39820
  318 2.25943 -13.8549 -2.77719
  319 2.75118 -10.6305 -2.65812
  320 4.66152 -6.01569 -0.790418
  321 7.61119 -2.26582 1.14372
  322 12.2274 1.16958 3.62142
  323 18.8666 2.51226 6.27177
  324 25.6694 4.30365 9.09995
  325 32.0037 4.23696 10.2526
  326 39.2719 4.12623 11.0044
  327 46.0882 3.56801 9.61665
  328 54.0176 2.31439 9.12729
  329 57.8930 1.81148 5.96016
  330 61.0285 0.843134 2.85292
  331 62.0776 1.03438 -3.39655
  332 58.3187 1.51542 -6.25007
  333 53.6788 2.53282 -8.25769
  334 47.8773 3.54419 -10.1651
  335 40.2438 3.99791 -10.5980
  336 33.4690 4.56143 -10.7166
  337 25.1310 4.02718 -8.74606
  338 18.2378 2.75156 -6.11534
  339 11.2865 1.23984 -3.49006
  340 7.67500 -2.31146 -0.994947
  341 4.72868 -5.99429 0.779600
  342 2.76341 -10.6258 2.64067
  343 2.25700 -13.8770 2.75978
  344 2.31988 -16.7938 2.35960
  345 15.8192 0.229032 -0.337644
  346 16.7364 0.384527 -0.0300838
  347 18.3382 0.196219 0.194167
  348 15.7097 0.0816067 -0.365272
  349 16.0955 0.458579 -0.289159
  350 19.2250 0.0862033 0.232242
  351 15.8172 0.295972 -0.528444
  352 17.3619 0.381955 0.207023
  353 16.5151 0.577381 0.0221087
  354 15.8649 0.531305 -0.488561
  355 15.7868 0.0288427 -0.256723
  356 18.5081 0.190361 0.332893
  357 15.8770 0.143819 -0.502111
  358 15.8652 0.246208 -0.606267
  359 15.9281 0.633526 -0.347168
  360 19.8415 0.0337358 0.193638
  361 17.7247 0.319537 0.355567
  362 16.2178 0.279562 -0.166554
  363 19.1461 0.0842922 0.317330
  364 15.8085 0.500027 -0.627689
  365 16.9618 0.499728 0.249287
  366 15.5300 0.0626509 -0.244552
  367 19.1180 0.0824632 0.111533
  368 17.3753 0.324820 0.0764889
  369 18.1818 0.205721 0.431165
  370 16.0225 0.716807 -0.169294
  371 16.3383 0.667055 0.0448480
  372 15.6806 0.100859 -0.128442
  373 18.7471 0.123785 0.410757
  374 15.8437 0.390166 -0.690545
  375 15.7806 0.672572 -0.516053
  376 15.8668 0.00851928 -0.158090
  377 20.2745 0.00905550 0.132574
  378 15.5847 0.0294635 -0.240747
  379 15.7107 0.156047 -0.390537
  380 15.9246 0.0658594 -0.384205
  381 16.9089 0.254056 -0.0125176
  382 15.8775 0.347507 -0.418004
  383 17.9141 0.276370 0.253744
  384 19.7667 0.0292860 0.251102
  385 19.9020 0.0209090 0.144384
  386 15.9221 0.232804 -0.639560
  387 18.0845 0.202948 0.0909116
  388 16.0712 0.355596 -0.277637
  389 17.3854 0.383546 0.410274
  390 16.6833 0.571971 0.219184
  391 15.4317 0.0348145 -0.206747
  392 16.9021 0.440358 0.0597837
  393 15.3013 0.0344114 -0.0889626
  394 18.7536 0.150519 0.249576
  395 16.2095 0.583625 -0.180906
  396 16.4656 0.451034 -0.111726
  397 15.7878 0.217193 -0.496262
  398 15.8933 0.0339634 -0.285215
  399 15.7625 0.589089 -0.655509
  400 15.8390 0.734780 -0.360183
  401 19.2334 0.0530749 0.358578
  402 15.9479 0.143679 -0.545097
  403 19.4763 0.0627385 0.135475
  404 16.3410 0.211845 -0.0690334
  405 16.2678 0.394804 -0.199324
  406 15.8418 0.380976 -0.529229
  407 15.7326 0.00522405 -0.125540
  408 17.9431 0.245685 0.466990
  409 15.8726 0.370199 -0.741102
  410 15.9691 0.408961 -0.368387
  411 16.0826 0.734789 -0.0465236
  412 20.0615 0.0154271 0.186876
  413 16.8709 0.527227 0.332684
  414 20.1569 0.0207352 0.114770
  415 18.4891 0.145085 0.443584
  416 15.8105 0.482881 -0.724427
  417 15.7461 0.0719010 -0.346243
  418 15.9027 0.189663 -0.168543
  419 17.3631 0.397462 0.307317
  420 15.6034 0.0111808 -0.143542
  421 16.7564 0.538395 0.132863
  422 15.8011 0.169291 -0.486191
  423 18.9074 0.129758 0.304481
  424 16.6391 0.301542 -0.0615169
  425 18.0936 0.259433 0.345563
  426 18.7029 0.130466 0.171370
  427 17.6344 0.325736 0.179048
  428 15.6492 0.122653 -0.216337
  429 15.7275 0.746433 -0.463068
  430 16.0109 0.110879 -0.497077
  431 15.8337 0.767487 -0.266249
  432 17.4775 0.261994 0.0492039
  433 19.5247 0.0561173 0.272477
  434 15.7203 0.671834 -0.626966
  435 15.9532 0.523254 -0.388617
  436 18.9730 0.0840943 0.401934
  437 19.5350 0.0295862 0.307871
  438 15.5922 0.0797452 -0.301072
  439 15.9875 0.199108 -0.632433
  440 15.9170 0.304631 -0.706383
  441 15.2210 0.00897605 -0.130055
  442 17.1626 0.436335 0.419460
  443 17.6223 0.320647 0.466203
  444 15.8438 0.440577 -0.757728
  445 16.2339 0.641330 -0.0945515
  446 18.2167 0.183376 0.478369
  447 15.7611 0.568422 -0.716846
  448 15.9087 0.776551 -0.150785
  449 15.7984 0.251250 -0.434134
  450 18.3029 0.223120 0.266401
  451 18.6276 0.136710 0.103507
  452 15.6967 0.730260 -0.559566
  453 16.4118 0.644951 0.169899
  454 18.7578 0.0948532 0.438908
  455 19.5807 0.0408393 0.0674369
  456 17.0445 0.359642 0.0408197
  457 17.6471 0.329697 0.289991
  458 16.0121 0.172247 -0.116992
  459 20.4596 0.00526398 0.106935
  460 17.0368 0.459739 0.171577
  461 16.2008 0.715792 0.0745237
  462 15.8268 0.0810454 -0.384308
  463 15.7995 0.570455 -0.565849
  464 15.8283 0.674517 -0.430669
  465 19.1460 0.0943234 0.185802
  466 15.8423 0.310572 -0.608837
  467 15.8264 0.390120 -0.624484
  468 15.7085 0.145171 -0.316043
  469 19.6240 0.0468184 0.203953
  470 18.9808 0.0989157 0.376923
  471 17.0289 0.318423 0.00225365
  472 17.8822 0.252209 0.139864
  473 18.7673 0.133598 0.366925
  474 15.9487 0.0222982 -0.248992
  475 16.0815 0.559185 -0.275881
  476 15.9384 0.701621 -0.270708
  477 15.2541 0.0428012 -0.0710031
  478 16.5945 0.597904 0.276097
  479 19.4231 0.0512060 0.307710
  480 16.0253 0.0740730 -0.426364
  481 15.8026 0.124642 -0.0483133
  482 15.5707 0.0593702 -0.283637
  483 15.9252 0.186211 -0.588650
  484 18.4635 0.173873 0.381381
  485 15.9939 0.0513478 -0.342434
  486 20.2281 0.00677136 0.174913
  487 17.1545 0.461318 0.346984
  488 19.8788 0.0156712 0.0806953
  489 19.7669 0.0200546 0.276759
  490 15.8848 0.00208279 -0.0892301
  491 15.4214 0.0109648 -0.154022
  492 18.3250 0.181102 0.154296
  493 19.1084 0.0796710 0.0497966
  494 19.2894 0.0836755 0.263349
  495 15.8832 0.208841 -0.577661
  496 15.8990 0.452769 -0.459728
  497 15.9185 0.106288 -0.463774
  498 15.9703 0.258805 -0.692115
  499 16.3808 0.546187 -0.0971167
  500 16.6257 0.489515 -0.0137847
  501 15.8567 0.0155770 -0.209705
  502 17.2124 0.391256 0.120957
  503 15.8641 0.610622 -0.454173
  504 20.5370 -0.00374325 0.0591941
  505 15.8417 0.481169 -0.536451
  506 16.4779 0.344310 -0.120405
  507 15.9404 0.240238 -0.261207
  508 17.9234 0.278683 0.408645
  509 16.5378 0.603923 0.116997
  510 17.3731 0.372545 0.468605
  511 15.7036 0.0365145 -0.271954
  512 15.7942 0.110127 -0.419174
  513 19.9649 0.0195854 0.225083
  514 15.3257 0.0181558 -0.148751
  515 18.3701 0.160378 0.0564232
  516 15.7886 0.00254749 -0.0771174
  517 15.8680 0.314827 -0.674470
  518 15.4288 0.00787262 -0.112633
  519 19.7272 0.0231116 0.0287498
  520 15.0201 0.0511181 -0.0760150
  521 16.0688 0.644865 -0.219052
  522 15.7141 0.121332 -0.395388
  523 18.0226 0.259404 0.217450
  524 20.4367 -0.000566185 0.0533473
  525 20.6548 0.00627410 0.0532851
  526 15.7357 0.790120 -0.372353
  527 15.9353 0.313190 -0.333477
  528 20.0453 0.0119359 0.186217
  529 20.1559 0.00488568 0.0518339
  530 19.5574 0.0502220 0.159222
  531 16.7558 0.508324 0.0749453
  532 19.9040 0.0321105 0.172779
  533 16.2532 0.509125 -0.192258
  534 15.7152 0.633299 -0.699260
  535 15.7810 0.236434 -0.471788
  536 17.8175 0.216314 0.0281164
  537 16.0207 0.155130 -0.580660
  538 18.6248 0.180059 0.287002
  539 17.6540 0.319968 0.407185
  540 15.2507 0.00965727 -0.106152
  541 15.8192 0.229112 0.337798
  542 16.7362 0.384670 0.0301013
  543 18.3381 0.196286 -0.194259
  544 15.7100 0.0816318 0.365425
  545 16.0953 0.458719 0.289285
  546 19.2251 0.0862047 -0.232341
  547 15.8173 0.296054 0.528656
  548 17.3616 0.382046 -0.207121
  549 16.5148 0.577518 -0.0221254
  550 15.8647 0.531440 0.488752
  551 15.7873 0.0288508 0.256825
  552 18.5081 0.190347 -0.333030
  553 15.8773 0.143855 0.502301
  554 15.8654 0.246269 0.606494
  555 15.9278 0.633677 0.347299
  556 19.8417 0.0337170 -0.193700
  557 17.7245 0.319541 -0.355731
  558 16.2177 0.279680 0.166638
  559 19.1461 0.0842365 -0.317432
  560 15.8084 0.500145 0.627922
  561 16.9615 0.499800 -0.249411
  562 15.5302 0.0626769 0.244664
  563 19.1181 0.0825047 -0.111594
  564 17.3751 0.324949 -0.0765282
  565 18.1817 0.205639 -0.431346
  566 16.0221 0.716956 0.169354
  567 16.3379 0.667183 -0.0448754
  568 15.6806 0.100907 0.128515
  569 18.7471 0.123677 -0.410895
  570 15.8438 0.390257 0.690797
  571 15.7804 0.672718 0.516242
  572 15.8675 0.00852218 0.158150
  573 20.2748 0.00904327 -0.132605
  574 15.5851 0.0294741 0.240851
  575 15.7109 0.156100 0.390705
  576 15.9252 0.0658745 0.384350
  577 16.9087 0.254192 0.0125303
  578 15.8775 0.347613 0.418185
  579 17.9139 0.276426 -0.253862
  580 19.7669 0.0292323 -0.251154
  581 19.9022 0.0209061 -0.144447
  582 15.9224 0.232857 0.639793
  583 18.0844 0.203054 -0.0909528
  584 16.0711 0.355717 0.277765
  585 17.3852 0.383528 -0.410472
  586 16.6830 0.572053 -0.219292
  587 15.4321 0.0348277 0.206840
  588 16.9019 0.440492 -0.0598113
  589 15.3015 0.0344291 0.0890204
  590 18.7536 0.150546 -0.249684
  591 16.2092 0.583779 0.180979
  592 16.4653 0.451181 0.111777
  593 15.7880 0.217252 0.496464
  594 15.8939 0.0339708 0.285325
  595 15.7624 0.589219 0.655745
  596 15.8386 0.734936 0.360315
  597 19.2335 0.0529571 -0.358662
  598 15.9483 0.143712 0.545299
  599 19.4764 0.0627598 -0.135543
  600 16.3410 0.211955 0.0690701
  601 16.2677 0.394945 0.199417
  602 15.8418 0.381078 0.529439
  603 15.7333 0.00522457 0.125589
  604 17.9429 0.245586 -0.467199
  605 15.8728 0.370283 0.741363
  606 15.9691 0.409086 0.368547
  607 16.0822 0.734924 0.0465293
  608 20.0618 0.0153953 -0.186908
  609 16.8705 0.527263 -0.332849
  610 20.1572 0.0207300 -0.114812
  611 18.4891 0.144949 -0.443750
  612 15.8105 0.482988 0.724682
  613 15.7465 0.0719231 0.346382
  614 15.9027 0.189744 0.168644
  615 17.3629 0.397505 -0.307464
  616 15.6039 0.0111845 0.143600
  617 16.7560 0.538507 -0.132931
  618 15.8014 0.169334 0.486384
  619 18.9074 0.129743 -0.304600
  620 16.6390 0.301679 0.0615566
  621 18.0935 0.259432 -0.345713
  622 18.7028 0.130519 -0.171452
  623 17.6342 0.325835 -0.179132
  624 15.6493 0.122703 0.216451
  625 15.7272 0.746584 0.463230
  626 16.0114 0.110907 0.497256
  627 15.8333 0.767638 0.266339
  628 17.4774 0.262125 -0.0492235
  629 19.5248 0.0560763 -0.272559
  630 15.7201 0.671976 0.627186
  631 15.9530 0.523396 0.388774
  632 18.9731 0.0839536 -0.402044
  633 19.5352 0.0294837 -0.307922
  634 15.5925 0.0797728 0.301206
  635 15.9879 0.199153 0.632658
  636 15.9172 0.304699 0.706633
  637 15.2213 0.00898114 0.130116
  638 17.1623 0.436320 -0.419666
  639 17.6221 0.320572 -0.466425
  640 15.8439 0.440672 0.757992
  641 16.2336 0.641479 0.0945835
  642 18.2166 0.183235 -0.478565
  643 15.7610 0.568544 0.717097
  644 15.9083 0.776693 0.150831
  645 15.7985 0.251328 0.434321
  646 18.3028 0.223155 -0.266521
  647 18.6276 0.136783 -0.103560
  648 15.6965 0.730410 0.559761
  649 16.4114 0.645044 -0.169987
  650 18.7579 0.0946913 -0.439046
  651 19.5808 0.0408599 -0.0674779
  652 17.0443 0.359778 -0.0408394
  653 17.6469 0.329745 -0.290122
  654 16.0121 0.172331 0.117063
  655 20.4600 0.00525184 -0.106946
  656 17.0365 0.459843 -0.171658
  657 16.2004 0.715907 -0.0745708
  658 15.8273 0.0810658 0.384458
  659 15.7994 0.570591 0.566060
  660 15.8280 0.674667 0.430827
  661 19.1460 0.0943492 -0.185890
  662 15.8424 0.310650 0.609069
  663 15.8265 0.390217 0.624720
  664 15.7086 0.145225 0.316193
  665 19.6242 0.0468071 -0.204033
  666 18.9809 0.0988233 -0.377039
  667 17.0287 0.318565 -0.00225289
  668 17.8821 0.252313 -0.139929
  669 18.7673 0.133542 -0.367057
  670 15.9493 0.0223032 0.249086
  671 16.0812 0.559334 0.275993
  672 15.9380 0.701776 0.270807
  673 15.2542 0.0428224 0.0710325
  674 16.5940 0.597965 -0.276235
  675 19.4233 0.0511322 -0.307786
  676 16.0258 0.0740901 0.426519
  677 15.8027 0.124704 0.0483528
  678 15.5710 0.0593884 0.283760
  679 15.9255 0.186256 0.588868
  680 18.4635 0.173813 -0.381532
  681 15.9945 0.0513603 0.342560
  682 20.2284 0.00673854 -0.174928
  683 17.1542 0.461348 -0.347153
  684 19.8790 0.0156777 -0.0807404
  685 19.7671 0.0199683 -0.276788
  686 15.8855 0.00208510 0.0892645
  687 15.4218 0.0109725 0.154089
  688 18.3250 0.181185 -0.154366
  689 19.1084 0.0797197 -0.0498262
  690 19.2895 0.0836538 -0.263447
  691 15.8835 0.208891 0.577878
  692 15.8989 0.452893 0.459918
  693 15.9190 0.106314 0.463948
  694 15.9706 0.258862 0.692358
  695 16.3805 0.546337 0.0971560
  696 16.6254 0.489660 0.0137905
  697 15.8573 0.0155837 0.209784
  698 17.2121 0.391376 -0.121015
  699 15.8639 0.610768 0.454348
  700 20.5374 -0.00374867 -0.0592086
  701 15.8416 0.481291 0.536660
  702 16.4777 0.344450 0.120464
  703 15.9404 0.240332 0.261333
  704 17.9232 0.278645 -0.408827
  705 16.5375 0.604036 -0.117058
  706 17.3728 0.372487 -0.468833
  707 15.7041 0.0365239 0.272067
  708 15.7946 0.110155 0.419344
  709 19.9651 0.0195308 -0.225103
  710 15.3259 0.0181712 0.148824
  711 18.3700 0.160470 -0.0564476
  712 15.7893 0.00254694 0.0771462
  713 15.8682 0.314901 0.674716
  714 15.4293 0.00787671 0.112681
  715 19.7273 0.0231266 -0.0287671
  716 15.0203 0.0511241 0.0760443
  717 16.0685 0.645018 0.219137
  718 15.7143 0.121369 0.395549
  719 18.0225 0.259480 -0.217548
  720 20.4370 -0.000570400 -0.0533671
  721 20.6552 0.00627312 -0.0532918
  722 15.7354 0.790273 0.372481
  723 15.9353 0.313298 0.333629
  724 20.0456 0.0119111 -0.186265
  725 20.1562 0.00488694 -0.0518669
  726 19.5575 0.0502301 -0.159299
  727 16.7555 0.508457 -0.0749824
  728 19.9042 0.0321038 -0.172845
  729 16.2530 0.509274 0.192342
  730 15.7151 0.633431 0.699501
  731 15.7811 0.236503 0.471983
  732 17.8174 0.216434 -0.0281325
  733 16.0211 0.155164 0.580867
  734 18.6248 0.180071 -0.287126
  735 17.6538 0.319936 -0.407377
  736 15.2511 0.00965925 0.106201
  737 12.3778 1.85853 0.815371
  738 12.3794 1.85816 -0.815180
  739 18.8998 -1.56515 1.71798
  740 18.9048 -1.57275 -1.71610
  741 15.9814 0.847904 1.69341
  742 15.9812 0.847841 -1.69300
  743 14.1987 0.102024 -3.90940
  744 14.2008 0.100570 3.91010
  745 21.9044 0.0981643 1.77301
  746 21.9055 0.321976 -1.79117
  747 16.9838 0.829452 -2.68920
  748 16.9845 0.829217 2.68963
  749 21.2876 -2.56592 2.60650
  750 21.2810 -2.56482 -2.60348
  751 15.4564 0.660849 -1.22675
  752 15.4573 0.661272 1.22629
  753 19.7889 -0.489274 0.236619
  754 19.7896 -0.490009 -0.236126
  755 13.3180 -1.02867 3.97971
  756 13.3150 -1.02729 -3.97861
  757 14.6791 1.34780 0.688941
  758 14.6797 1.34767 -0.688795
  759 16.6251 0.252904 -0.968664
  760 16.6257 0.252939 0.968936
  761 19.9568 1.61849 -0.0506203
  762 20.5600 -0.786196 0.853408
  763 20.5593 -0.785805 -0.852413
  764 19.7046 0.288096 -3.16957
  765 19.7062 0.287458 3.16939
  766 17.7628 0.381989 1.68308
  767 17.7619 0.382011 -1.68276
  768 22.1423 -3.03926 -1.59181
  769 22.0572 -3.10634 1.69344
  770 28.0443 -2.04774 1.32195
  771 28.0420 -2.03645 -1.32382
  772 22.4086 -0.437769 -2.82524
  773 22.4109 -0.438638 2.82436
  774 17.9184 -0.204273 1.03600
  775 17.9184 -0.205022 -1.03659
  776 24.2306 4.48209 0.607656
  777 8.05693 0.796922 -0.151146
  778 8.06273 0.795596 0.152612
  779 31.3779 1.05509 -2.57875
  780 31.0966 1.01870 2.65107
  781 31.6264 2.71860 0.342482
  782 19.9015 0.301161 -2.21305
  783 19.9029 0.300972 2.21314
  784 15.4827 0.923687 -1.11451
  785 15.4826 0.923820 1.11482
  786 25.5011 1.38847 -1.19620
  787 17.3585 0.169913 1.00571
  788 17.3575 0.169903 -1.00547
  789 19.4234 0.464041 -1.21918
  790 19.4446 0.477558 1.24096
  791 14.6722 1.44902 1.99878
  792 14.6725 1.44896 -1.99828
  793 13.3832 1.43963 2.80116
  794 13.3833 1.44005 -2.80011
  795 21.3451 -1.85995 -0.0990520
  796 21.3442 -1.86263 0.0990108
  797 26.7520 -1.52154 -0.0858159
  798 26.7530 -1.51745 0.0827961
  799 13.0379 1.08159 -1.53775
  800 13.0391 1.08196 1.53647
  801 10.4311 -2.76484 -3.74075
  802 10.4382 -2.76654 3.74035
  803 25.9994 0.871702 0.720858
  804 15.2928 1.05227 -0.237515
  805 15.2935 1.05225 0.237392
  806 20.1307 -0.115182 -0.173860
  807 20.1304 -0.114940 0.174136
  808 20.3398 -0.327065 0.326682
  809 20.3397 -0.326668 -0.325764
  810 19.8898 -0.191070 1.27907
  811 19.8914 -0.192982 -1.27874
  812 20.0953 -1.14468 0.243916
  813 20.0971 -1.14583 -0.243047
  814 19.5575 0.190351 1.48350
  815 19.5561 0.190402 -1.48334
  816 26.5832 -0.621769 -1.28950
  817 26.5845 -0.622067 1.28750
  818 16.2059 -0.455972 -2.31895
  819 16.2076 -0.454626 2.31807
  820 16.5182 0.0798689 -0.521323
  821 16.5190 0.0798836 0.521487
  822 18.9540 -0.218508 0.583234
  823 18.9544 -0.219127 -0.583323
  824 16.0188 0.521938 1.08432
  825 16.0185 0.521854 -1.08399
  826 15.6807 -3.62518 -5.17594
  827 15.2786 -3.56659 5.22449
  828 21.9377 2.80419 -1.08206
  829 16.6187 0.422070 0.875187
  830 16.6181 0.421832 -0.875619
  831 23.4845 -0.00976990 -2.10673
  832 23.4860 -0.0100943 2.10617
  833 18.2636 -2.22836 -3.02651
  834 18.2312 -2.22658 3.02386
  835 13.6483 1.52856 -0.0687089
  836 13.6494 1.52852 0.0684650
  837 27.4898 -0.371884 -3.11458
  838 27.4969 -0.312887 3.10170
  839 7.38540 -2.46983 3.95994
  840 7.38704 -2.46169 -3.98521
  841 26.3482 1.44400 -1.63185
  842 20.6310 -3.59627 -2.42527
  843 20.6367 -3.56395 2.50775
  844 14.9282 1.28788 1.38125
  845 14.9285 1.28774 -1.38091
  846 16.2950 0.924903 2.18629
  847 16.2946 0.924937 -2.18584
  848 21.4182 2.25136 1.18057
  849 16.9630 0.0755234 -0.599621
  850 16.9639 0.0755344 0.599792
  851 22.1043 0.108010 1.86773
  852 22.1027 0.108186 -1.86788
  853 17.8389 -1.25908 -3.88073
  854 17.8413 -1.25925 3.88072
  855 37.9228 3.16579 -0.547656
  856 4.70456 -2.69877 -0.622984
  857 4.70115 -2.70183 0.632987
  858 18.4206 0.106900 0.908603
  859 18.4193 0.106900 -0.908424
  860 15.2771 1.04512 0.692459
  861 15.2775 1.04497 -0.692260
  862 18.2976 0.552545 -0.334801
  863 16.3524 0.868251 3.32377
  864 16.3514 0.868902 -3.32328
  865 28.1960 -0.852165 -1.93900
  866 28.2039 -0.859687 1.94615
  867 19.1037 -0.684466 0.745723
  868 19.1047 -0.685663 -0.745839
  869 21.3477 -0.876090 -1.30265
  870 21.3474 -0.877883 1.30495
  871 20.1742 -0.250688 0.701043
  872 20.1748 -0.250456 -0.699896
  873 24.9831 1.00518 2.00839
  874 10.4806 1.08634 2.42672
  875 10.4815 1.08697 -2.42448
  876 10.8630 1.45313 -0.873998
  877 10.8661 1.45225 0.873042
  878 24.1071 -2.05602 2.41832
  879 16.6292 0.464608 1.36997
  880 16.6287 0.464564 -1.36963
  881 28.7422 5.51491 -0.282745
  882 16.9122 -0.104243 1.50060
  883 16.9115 -0.104989 -1.50138
  884 31.4077 -0.246198 0.0914688
  885 31.3980 -0.210643 -0.135965
  886 22.8044 -1.46274 -0.853294
  887 22.7432 -1.38912 0.916099
  888 38.5151 2.93909 0.318019
  889 18.4795 -0.0859548 3.68218
  890 18.4774 -0.0849775 -3.68236
  891 22.9787 -2.36578 -3.18841
  892 20.4634 -0.149296 0.0388554
  893 20.4634 -0.149077 -0.0383311
  894 26.4326 -0.254514 -1.58010
  895 26.4334 -0.254941 1.57879
  896 16.2808 0.208788 -0.782750
  897 16.2813 0.208827 0.782996
  898 13.8325 1.66227 -1.06402
  899 13.8317 1.66245 1.06424
  900 18.1546 0.451823 0.457651
  901 30.1037 5.13279 -0.0862043
  902 17.8904 0.555260 2.16287
  903 17.8895 0.555356 -2.16255
  904 20.4989 0.0471722 -1.62544
  905 20.5250 0.0379645 1.62628
  906 18.0612 0.0234100 0.739488
  907 18.0612 0.0229674 -0.739840
  908 19.4703 -0.106357 -0.375783
  909 19.4700 -0.106009 0.375855
  910 23.3284 1.86662 1.75805
  911 14.8084 1.41235 2.54216
  912 14.8084 1.41250 -2.54149
  913 15.3357 1.04335 0.234232
  914 15.3362 1.04322 -0.234181
  915 11.1849 1.76258 1.20375
  916 11.1870 1.76217 -1.20288
  917 20.7451 1.12120 -1.49405
  918 18.3732 -0.783444 -1.31614
  919 18.3727 -0.782062 1.31527
  920 24.9445 0.352804 -2.67754
  921 22.8639 -1.33409 -2.51752
  922 22.8678 -1.33524 2.51678
  923 9.68000 -0.773631 -3.36792
  924 9.68267 -0.776334 3.37022
  925 25.2418 0.329675 2.79942
  926 20.7629 -2.50975 1.34955
  927 20.9070 -2.59035 -1.35978
  928 20.9139 0.0995972 -1.28756
  929 20.9155 0.0995443 1.28762
  930 18.9007 0.0571373 -1.03543
  931 18.8922 0.0714678 1.03570
  932 15.4270 -3.81077 -3.64865
  933 15.4414 -3.81036 3.60984
  934 16.0972 0.636104 1.36196
  935 16.0969 0.636027 -1.36160
  936 20.3238 -0.763108 -0.308847
  937 20.3246 -0.763677 0.309855
  938 24.8960 -2.90374 -0.691099
  939 24.9129 -2.90275 0.681624
  940 16.0655 0.729052 0.514829
  941 16.0649 0.729016 -0.515067
  942 23.2325 0.993301 0.416138
  943 16.7408 0.603058 1.72799
  944 16.7403 0.603040 -1.72761
  945 18.4328 0.572465 2.99523
  946 18.4316 0.572907 -2.99505
  947 14.6458 1.18114 -0.449434
  948 14.6466 1.18123 0.449187
  949 42.7974 3.65099 -0.109615
  950 9.78334 0.300388 -2.65359
  951 9.78756 0.299606 2.65040
  952 19.1898 0.0946365 0.984879
  953 19.1884 0.0946485 -0.984725
  954 24.7866 -1.78264 -2.38529
  955 24.9431 -1.72979 2.12390
  956 15.7506 0.679129 0.988876
  957 15.7506 0.679013 -0.988571
  958 16.3181 0.0287829 -0.284999
  959 16.3189 0.0287898 0.285096
  960 25.7478 -0.0677197 -1.55617
  961 25.7489 -0.0680067 1.55533
  962 38.0400 1.83674 0.862307
  963 17.4456 0.0486529 0.495483
  964 17.4445 0.0486465 -0.495353
  965 17.9977 0.0521105 -0.605420
  966 17.9989 0.0521124 0.605559
  967 28.6959 -0.425765 -0.379044
  968 28.6948 -0.425179 0.377463
  969 23.1076 1.42355 -1.76774
  970 14.4419 -0.138286 -2.82437
  971 14.4416 -0.136076 2.82219
  972 37.1702 1.91573 -1.00744
  973 19.9071 1.29206 0.874113
  974 20.4160 -0.0265904 -0.156853
  975 20.4158 -0.0265073 0.156965
  976 15.5616 0.943491 1.36911
  977 15.5617 0.943377 -1.36875
  978 29.1832 -0.478368 0.603409
  979 29.1800 -0.475882 -0.602270
  980 20.2874 -1.71506 0.653528
  981 20.2956 -1.72084 -0.652844
  982 20.7743 -1.29910 -0.359676
  983 20.7750 -1.29938 0.361149
  984 21.8206 3.17736 0.126290
  985 13.8634 1.03213 3.37311
  986 13.8627 1.03304 -3.37204
  987 15.5448 1.12447 1.89629
  988 15.5447 1.12441 -1.89584
  989 17.9625 0.202597 -0.647282
  990 24.3901 -1.31402 -0.275517
  991 29.8364 3.10313 1.82624
  992 24.5920 3.84194 -1.23089
  993 15.5008 0.868397 0.841332
  994 15.5010 0.868252 -0.841073
  995 19.7566 -0.129914 -0.782233
  996 19.7553 -0.129685 0.783183
  997 14.8489 0.503145 -1.76604
  998 14.8498 0.504012 1.76538
  999 15.0511 1.18888 1.02355
  1000 15.0515 1.18874 -1.02329
  1001 19.6951 1.20694 -0.781610
  1002 13.3519 1.73825 1.80052
  1003 13.3527 1.73813 -1.79994
  1004 17.1891 0.331479 0.715289
  1005 17.1887 0.331268 -0.715657
  1006 17.6391 0.264507 -1.29248
  1007 17.6401 0.264513 1.29275
  1008 15.6543 0.806728 -0.728661
  1009 15.6551 0.806866 0.728351
  1010 17.0872 0.487351 3.59270
  1011 17.0856 0.488267 -3.59248
  1012 23.7836 0.0584422 1.39005
  1013 23.7820 0.0585565 -1.39030
  1014 20.7692 0.852637 1.61667
  1015 12.6471 1.64252 -0.343426
  1016 12.6487 1.64232 0.342893
  1017 27.5463 -0.404764 -2.20469
  1018 27.5656 -0.396925 2.19851
  1019 21.3227 -0.123064 3.08112
  1020 21.3207 -0.122290 -3.08173
  1021 16.0263 -2.36279 4.23741
  1022 16.0068 -2.36555 -4.27011
  1023 24.7446 -1.71370 1.46524
  1024 24.7397 -1.71365 -1.46761
  1025 19.3775 -1.18925 0.942702
  1026 19.3795 -1.19081 -0.942910
  1027 19.7218 -0.253385 -0.295084
  1028 19.7214 -0.252891 0.295362
  1029 16.0775 0.374588 0.923027
  1030 16.0772 0.374520 -0.922736
  1031 24.0254 -1.62305 0.273649
  1032 14.0628 1.12553 -1.01385
  1033 14.0638 1.12589 1.01328
  1034 13.7697 -1.28967 4.12857
  1035 13.7664 -1.28839 -4.12908
  1036 16.7300 0.0278539 -0.347825
  1037 16.7309 0.0278570 0.347930
  1038 18.0309 0.157236 0.723304
  1039 12.0230 0.685742 -2.27932
  1040 12.0248 0.685636 2.27696
  1041 20.1515 -0.370816 -0.0249326
  1042 20.1518 -0.371320 0.0256229
  1043 20.4287 -0.110407 0.348488
  1044 20.4295 -0.110220 -0.347682
  1045 14.8559 1.25416 0.152973
  1046 14.8566 1.25408 -0.152983
  1047 18.5061 -2.69713 4.85318
  1048 20.5184 -0.541310 -1.27163
  1049 20.5196 -0.540828 1.27328
  1050 9.02654 -4.28401 4.67714
  1051 8.98412 -4.12751 -4.76106
  1052 27.4729 1.33444 -2.63156
  1053 17.7105 -1.34182 -2.40758
  1054 17.7002 -1.34267 2.41411
  1055 20.6275 -0.0367758 -0.0600979
  1056 20.6274 -0.0366931 0.0603307
  1057 15.6401 0.929624 -0.0954541
  1058 15.6406 0.929544 0.0953942
  1059 16.2730 0.0801175 0.494359
  1060 16.2724 0.0801010 -0.494193
  1061 18.5057 0.524055 2.41343
  1062 18.5046 0.524239 -2.41318
  1063 17.7398 -0.901457 1.90137
  1064 17.7388 -0.903349 -1.90247
  1065 16.2635 0.373758 1.02632
  1066 16.2631 0.373699 -1.02602
  1067 28.1843 -0.983102 2.67066
  1068 28.1771 -0.991660 -2.66730
  1069 18.6369 -0.367995 0.809146
  1070 18.6374 -0.368871 -0.809461
  1071 16.9438 0.220910 0.992459
  1072 16.9430 0.220884 -0.992199
  1073 17.2139 -2.39588 -3.86140
  1074 17.2130 -2.39362 3.86161
  1075 18.6208 0.240933 1.50489
  1076 18.6197 0.240966 -1.50465
  1077 19.8773 -0.0560983 -0.276222
  1078 19.8770 -0.0559030 0.276317
  1079 30.1790 -0.345454 -2.63332
  1080 30.2066 -0.329671 2.63326
  1081 4.65857 -6.19470 -1.37320
  1082 4.66472 -6.19643 1.36591
  1083 28.4137 -0.205814 -0.865526
  1084 28.4132 -0.205993 0.864113
  1085 12.0878 -2.24166 4.90875
  1086 12.1722 -2.23439 -4.87445
  1087 22.2170 0.0513792 1.14670
  1088 22.2153 0.0514314 -1.14673
  1089 20.6156 -0.0998469 0.158351
  1090 20.6160 -0.0997011 -0.157778
  1091 3.33570 -5.73295 -1.73371
  1092 3.38467 -5.68893 1.79556
  1093 20.4527 0.0591754 -0.932739
  1094 20.4543 0.0591536 0.932826
  1095 16.2087 0.395235 1.19897
  1096 16.2080 0.394835 -1.19950
  1097 5.57109 -1.13111 -1.23767
  1098 5.58436 -1.13501 1.23873
  1099 8.27039 -5.12436 2.60916
  1100 8.26529 -5.13386 -2.60930
  1101 19.9838 -0.804257 0.139861
  1102 19.9849 -0.805150 -0.139110
  1103 14.3129 1.40879 0.152098
  1104 14.3137 1.40872 -0.152165
  1105 20.3459 0.288776 -2.47706
  1106 20.3473 0.288479 2.47703
  1107 27.1359 -1.78592 0.787711
  1108 27.1331 -1.77692 -0.790289
  1109 15.8227 -1.31774 -3.44818
  1110 15.8148 -1.30998 3.44241
  1111 20.9678 -3.47567 3.57921
  1112 21.6623 0.148880 -2.45329
  1113 21.6639 0.148523 2.45300
  1114 20.3651 -0.528083 -0.640935
  1115 20.3654 -0.528531 0.642029
  1116 19.1975 -0.418321 0.560621
  1117 19.1981 -0.419158 -0.560578
  1118 18.5808 0.00209251 0.573852
  1119 18.5809 0.00172038 -0.574040
  1120 25.1656 3.58078 1.31017
  1121 12.4943 -4.32037 -2.74947
  1122 12.5054 -4.22873 2.68885
  1123 15.6343 -2.96541 -5.01237
  1124 31.4765 2.35751 1.59718
  1125 20.7698 1.99013 -0.894915
  1126 19.5717 -3.52172 -3.64722
  1127 8.14821 0.357815 1.72766
  1128 8.15073 0.358538 -1.72401
  1129 15.9555 1.11470 2.54545
  1130 15.9551 1.11483 -2.54493
  1131 18.7478 0.803841 0.206320
  1132 19.1418 -0.0343802 -0.854912
  1133 19.1406 -0.0307509 0.855376
  1134 23.5731 -0.280065 1.43307
  1135 25.3240 0.0299113 -1.15716
  1136 25.3253 0.0298087 1.15679
  1137 31.7869 2.76611 -1.00969
  1138 19.7879 -3.12294 3.09739
  1139 15.8107 0.740928 -1.24132
  1140 15.8108 0.741030 1.24167
  1141 21.9305 -0.857313 -1.36216
  1142 22.0189 -0.805997 1.40114
  1143 16.4471 0.426959 1.22217
  1144 16.4467 0.426908 -1.22184
  1145 20.3975 0.563544 -0.700126
  1146 17.1341 0.0826058 -1.09810
  1147 17.1345 0.0831091 1.09749
  1148 31.1254 1.91062 -2.16905
  1149 16.5114 0.582303 -0.580241
  1150 16.5119 0.582369 0.579960
  1151 24.9587 0.0163367 2.46058
  1152 24.8666 -0.613125 -2.02809
  1153 24.8687 -0.613873 2.02661
  1154 22.1840 0.450967 -1.88392
  1155 24.8755 0.0369926 -2.43939
  1156 16.7340 0.125447 -0.715873
  1157 16.7347 0.125467 0.716081
  1158 20.1153 -0.313583 -1.06066
  1159 20.1152 -0.313006 1.06194
  1160 17.2017 0.231510 0.0311611
  1161 17.1695 0.661237 2.10037
  1162 17.1688 0.661287 -2.09998
  1163 23.6329 -0.222035 -1.42827
  1164 14.4047 1.46564 1.00080
  1165 14.4053 1.46549 -1.00058
  1166 19.3147 -2.09386 2.07267
  1167 19.4702 -2.18169 -2.03960
  1168 15.8125 1.10999 2.95497
  1169 15.8119 1.11036 -2.95439
  1170 15.8990 0.507174 0.942069
  1171 15.8989 0.507081 -0.941771
  1172 20.0810 -0.237485 0.123395
  1173 20.0813 -0.237882 -0.122940
  1174 13.2620 1.75139 0.640418
  1175 13.2631 1.75117 -0.640380
  1176 15.8221 0.152003 1.72213
  1177 15.8211 0.151210 -1.72280
  1178 19.0098 0.0448428 0.583026
  1179 19.0083 0.0448447 -0.582919
  1180 22.1859 -2.48006 0.470952
  1181 22.3124 -2.45466 -0.398332
  1182 17.1420 0.345229 1.33497
  1183 17.1412 0.345207 -1.33466
  1184 16.5036 0.0185192 0.274709
  1185 16.5027 0.0185168 -0.274620
  1186 29.2242 -0.361792 -1.09058
  1187 29.2268 -0.364555 1.09475
  1188 17.1666 0.0227857 -0.307342
  1189 17.1677 0.0227872 0.307429
  1190 19.9580 -0.603171 3.45251
  1191 19.9555 -0.602279 -3.45290
  1192 34.9021 5.69078 -0.169186
  1193 14.4357 1.51391 1.45406
  1194 14.4362 1.51376 -1.45371
  1195 19.7442 0.241031 1.84526
  1196 19.7428 0.241135 -1.84511
  1197 19.6148 0.160437 -1.37439
  1198 19.6414 0.155983 1.38960
  1199 48.3678 2.94174 1.43274
  1200 22.9067 3.06848 1.29849
  1201 9.93565 1.52939 0.0720820
  1202 9.93936 1.52830 -0.0716930
  1203 15.3956 0.980230 0.475583
  1204 15.3961 0.980083 -0.475445
  1205 47.1148 3.16302 -1.41920
  1206 19.0427 -0.0380840 -0.468140
  1207 19.0425 -0.0377559 0.468074
  1208 22.0062 -3.33123 -2.07270
  1209 22.0325 -3.33322 2.08033
  1210 15.4717 1.06502 -1.58688
  1211 15.4717 1.06512 1.58727
  1212 21.6897 0.324531 1.75179
  1213 20.5448 0.447594 1.09935
  1214 20.3187 -2.97385 -2.52421
  1215 13.9087 1.60305 -0.546785
  1216 13.9078 1.60320 0.546821
  1217 21.2434 -1.33267 0.759079
  1218 21.2437 -1.33283 -0.757044
  1219 16.0981 0.900942 1.93966
  1220 16.0978 0.900918 -1.93922
  1221 23.4321 -0.131301 2.44358
  1222 23.4305 -0.130721 -2.44443
  1223 24.3739 -2.37000 -1.23432
  1224 24.3824 -2.36941 1.23114
  1225 21.8197 1.51253 -1.68704
  1226 16.9047 0.814716 2.39564
  1227 16.9040 0.814836 -2.39522
  1228 23.0614 3.98188 -0.374662
  1229 21.9531 1.42656 1.73907
  1230 20.0339 0.0523177 -0.749137
  1231 20.0355 0.0523048 0.749233
  1232 25.9664 -2.85602 -0.344521
  1233 25.9973 -2.82907 0.308296
  1234 18.4667 0.0228201 -0.511335
  1235 18.4681 0.0228172 0.511444
  1236 17.6452 0.0499585 -0.898003
  1237 17.6453 0.0504311 0.897517
  1238 7.13755 -2.53830 2.85704
  1239 7.13320 -2.53385 -2.85429
  1240 12.5151 1.76051 1.99014
  1241 12.5161 1.76044 -1.98923
  1242 28.0295 0.192159 -3.26194
  1243 23.4136 0.0555483 1.00546
  1244 23.4119 0.0556008 -1.00557
  1245 20.7392 2.22597 0.585579
  1246 27.3057 5.57934 0.287880
  1247 16.5338 -0.469739 -4.00953
  1248 16.5362 -0.470772 4.00949
  1249 21.2733 -0.256864 -1.65914
  1250 21.2729 -0.283980 1.64758
  1251 17.3984 -1.53798 -3.41485
  1252 17.8837 -1.90257 3.43417
  1253 15.4715 0.898222 0.670688
  1254 15.4719 0.898071 -0.670481
  1255 14.9563 1.20864 0.526457
  1256 14.9569 1.20851 -0.526336
  1257 15.3221 1.00547 0.929371
  1258 15.3224 1.00532 -0.929107
  1259 27.7104 -0.0867455 -0.995443
  1260 27.7108 -0.0869020 0.994631
  1261 18.4873 -0.549789 1.03301
  1262 18.4878 -0.550919 -1.03357
  1263 36.8986 1.94795 3.80872
  1264 28.0588 0.169107 3.23150
  1265 19.1034 0.755946 0.804988
  1266 33.4486 0.899151 -1.11761
  1267 17.1140 0.132531 -0.254729
  1268 12.5006 0.774601 3.35267
  1269 12.4997 0.775833 -3.35119
  1270 30.0711 1.27230 4.56823
  1271 26.4504 1.60389 -0.467593
  1272 11.3371 1.79045 0.214985
  1273 11.3395 1.78976 -0.215032
  1274 17.8658 0.600171 -3.36057
  1275 17.8671 0.599484 3.36075
  1276 26.6467 1.65916 4.40951
  1277 12.3428 1.26908 2.90655
  1278 12.3428 1.26976 -2.90505
  1279 18.8362 0.367804 2.04368
  1280 18.8351 0.367916 -2.04345
  1281 37.4382 3.39747 0.455422
  1282 27.3290 1.69016 1.08307
  1283 34.1393 5.09834 1.53187
  1284 28.7015 0.437472 -3.69825
  1285 21.9276 -1.57113 -0.763799
  1286 21.9268 -1.56312 0.767957
  1287 29.5355 -1.21066 1.71658
  1288 29.5247 -1.23353 -1.70405
  1289 19.6386 -0.943925 -0.511385
  1290 19.6372 -0.942690 0.511783
  1291 16.4988 0.155710 0.736768
  1292 16.4982 0.155682 -0.736545
  1293 17.7176 -0.371020 1.31733
  1294 17.7175 -0.371957 -1.31818
  1295 19.8546 -1.93287 -3.34262
  1296 19.8576 -1.93301 3.34381
  1297 13.8520 1.66411 1.60561
  1298 13.8527 1.66397 -1.60518
  1299 25.2987 -1.17454 -0.504222
  1300 18.8834 0.622101 -0.822786
  1301 35.3472 2.02287 -4.50135
  1302 32.5330 4.15225 -2.79301
  1303 20.9700 0.528108 -1.72079
  1304 43.8342 2.79691 -3.00632
  1305 19.9615 -0.0827242 -0.505337
  1306 19.9595 -0.0828278 0.506266
  1307 20.1935 -0.563219 -0.144216
  1308 20.1940 -0.563812 0.145085
  1309 25.9645 -0.165730 -1.99903
  1310 16.3376 0.178352 3.84274
  1311 16.3357 0.179485 -3.84249
  1312 19.3631 -0.228820 -0.432370
  1313 19.3627 -0.228265 0.432477
  1314 30.1591 -0.218090 0.120116
  1315 30.1557 -0.217318 -0.120444
  1316 19.5145 -0.645784 0.451772
  1317 19.5154 -0.646795 -0.451463
  1318 16.2040 0.159493 -0.659285
  1319 16.2045 0.159526 0.659502
  1320 27.9788 0.992408 2.85890
  1321 26.6605 -1.02396 -0.789511
  1322 26.6621 -1.02314 0.787030
  1323 17.2112 0.798685 2.97397
  1324 17.2103 0.799071 -2.97360
  1325 19.9317 -3.73331 -4.16686
  1326 9.97753 -0.993088 3.91010
  1327 9.97577 -0.991744 -3.91562
  1328 26.8576 0.947722 -2.63520
  1329 20.8807 -0.928358 -1.07876
  1330 20.8814 -0.928671 1.07932
  1331 15.4465 1.21616 2.17063
  1332 15.4464 1.21616 -2.17013
  1333 20.7963 -2.09017 -0.726062
  1334 20.7916 -2.09117 0.712261
  1335 21.1877 0.179456 1.90503
  1336 21.1862 0.179608 -1.90507
  1337 2.39859 -7.99290 0.461259
  1338 2.42193 -8.05068 -0.451917
  1339 45.7470 3.01215 3.26134
  1340 26.5559 0.551141 0.0661737
  1341 17.8635 0.0509218 -0.618237
  1342 27.2979 3.35373 -0.861024
  1343 16.1392 0.259321 -0.786661
  1344 16.1396 0.259371 0.786918
  1345 23.4488 -2.70311 1.34343
  1346 20.7579 -0.408249 -1.50300
  1347 20.7583 -0.406353 1.50325
  1348 29.6150 -0.189299 -0.491908
  1349 29.6132 -0.189281 0.490590
  1350 17.2058 0.120657 0.780015
  1351 17.2049 0.120645 -0.779809
  1352 14.7452 1.23232 3.10366
  1353 14.7447 1.23287 -3.10287
  1354 33.5297 2.10883 1.68041
  1355 22.8293 0.608926 -5.19287
  1356 20.7954 -0.0495388 0.0144394
  1357 20.7955 -0.0494639 -0.0141629
  1358 9.30103 1.28368 1.13008
  1359 9.30420 1.28331 -1.12811
  1360 20.4106 -1.07045 -0.206700
  1361 20.4116 -1.07102 0.207855
  1362 26.2069 -0.162800 2.10835
  1363 16.2705 0.645268 1.48252
  1364 16.2701 0.645204 -1.48214
  1365 17.1699 0.115545 0.334095
  1366 19.4103 0.155755 3.38662
  1367 19.4085 0.156560 -3.38684
  1368 11.9783 1.24770 -1.28239
  1369 11.9803 1.24754 1.28104
  1370 28.4608 -0.272926 1.49619
  1371 28.4729 -0.272116 -1.48980
  1372 17.7804 0.0256534 0.375262
  1373 17.7792 0.0256509 -0.375168
  1374 18.2125 0.227242 1.37309
  1375 18.2114 0.227256 -1.37284
  1376 7.90930 0.0245686 -2.13970
  1377 7.91826 0.0224790 2.13775
  1378 17.2644 0.439079 1.58537
  1379 17.2636 0.439071 -1.58503
  1380 20.7653 -0.0138097 -0.0722337
  1381 20.7651 -0.0137722 0.0723388
  1382 18.2111 -0.147541 0.841919
  1383 18.2112 -0.148192 -0.842326
  1384 5.04902 -6.52425 -2.84436
  1385 4.68747 -6.32782 2.83648
  1386 23.1736 -2.91203 -1.72373
  1387 15.1740 1.14361 -1.28048
  1388 15.1738 1.14374 1.28081
  1389 17.7265 0.206322 0.661458
  1390 17.7263 0.206069 -0.661783
  1391 20.4009 -0.218880 0.145085
  1392 20.4009 -0.218587 -0.144378
  1393 21.5986 0.0963863 -2.75931
  1394 21.6003 0.0958582 2.75886
  1395 32.8748 0.707164 1.50990
  1396 20.1710 0.464129 -1.52807
  1397 16.1708 0.522688 -1.19283
  1398 16.1712 0.522763 1.19316
  1399 16.6421 -0.337080 -1.91655
  1400 16.6431 -0.335923 1.91565
  1401 16.6824 0.356727 1.17273
  1402 16.6818 0.356684 -1.17242
  1403 28.6102 -0.0953945 -0.843914
  1404 28.6099 -0.0955282 0.842917
  1405 15.6549 0.717784 0.879988
  1406 15.6550 0.717655 -0.879709
  1407 28.2136 -0.980728 -1.17504
  1408 28.2187 -0.986449 1.17726
  1409 35.6700 2.22706 -1.22154
  1410 16.1384 0.00803213 0.158618
  1411 16.1376 0.00803134 -0.158563
  1412 17.7552 0.150090 0.997809
  1413 17.7542 0.150086 -0.997587
  1414 13.8807 1.55965 2.52027
  1415 13.8809 1.55982 -2.51946
  1416 14.8488 1.19518 0.212487
  1417 14.8480 1.19518 -0.212626
  1418 25.2293 4.97310 -0.472249
  1419 27.9141 -1.61767 1.81110
  1420 27.9041 -1.61013 -1.80940
  1421 16.0600 -0.867612 -2.85835
  1422 16.0615 -0.862410 2.85937
  1423 18.9292 0.459866 2.64766
  1424 18.9279 0.460164 -2.64749
  1425 9.23481 0.978160 1.24747
  1426 9.22955 0.979907 -1.24836
  1427 20.1215 0.438100 1.51137
  1428 35.9927 3.38205 -0.179572
  1429 13.2897 1.39735 -0.689143
  1430 13.2909 1.39747 0.688528
  1431 15.9704 0.807637 -0.265337
  1432 15.9710 0.807585 0.265209
  1433 28.0506 3.11125 0.365015
  1434 19.5391 -0.0361945 -0.345829
  1435 19.5389 -0.0359603 0.345855
  1436 15.1754 1.01267 -0.560201
  1437 15.1762 1.01276 0.559960
  1438 18.7740 0.231965 -1.03183
  1439 28.1902 -0.736802 0.0412998
  1440 28.1889 -0.734760 -0.0425903
  1441 11.6301 -3.09166 4.49322
  1442 17.9242 0.0521340 0.631542
  1443 22.5708 -0.382694 1.57444
  1444 17.8871 0.446462 1.89093
  1445 17.8861 0.446513 -1.89062
  1446 22.5832 -0.436899 -1.55750
  1447 20.3279 -0.323492 0.510516
  1448 20.3281 -0.323114 -0.509468
  1449 19.9191 -1.91913 1.31831
  1450 19.8973 -1.93338 -1.32917
  1451 19.9501 -2.71803 2.38674
  1452 15.0212 1.27627 1.64108
  1453 15.0214 1.27616 -1.64067
  1454 22.1570 0.0464354 0.664546
  1455 22.1551 0.0464494 -0.664539
  1456 15.5915 0.938507 0.122381
  1457 15.5920 0.938385 -0.122358
  1458 24.5029 0.874392 1.53359
  1459 16.7719 0.710637 1.95598
  1460 16.7713 0.710640 -1.95557
  1461 14.1148 0.426200 -2.16570
  1462 14.1155 0.427475 2.16448
  1463 20.3170 -0.483156 -0.874909
  1464 20.3173 -0.483441 0.876114
  1465 16.4181 0.255546 -0.907892
  1466 16.4186 0.255587 0.908162
  1467 26.4416 0.0177768 -0.989472
  1468 26.4426 0.0176758 0.989023
  1469 16.1532 0.654676 0.714665
  1470 16.1526 0.654556 -0.714991
  1471 19.7801 -0.137789 -0.289463
  1472 19.7798 -0.137456 0.289652
  1473 13.2093 1.79380 -1.02109
  1474 13.2082 1.79404 1.02131
  1475 20.6497 -0.00574644 -0.0938631
  1476 20.6494 -0.00572302 0.0938976
  1477 19.0101 0.859397 -0.375708
  1478 12.0812 1.63655 -2.15302
  1479 12.0802 1.63645 2.15419
  1480 18.9375 -0.871835 0.999096
  1481 18.9386 -0.873326 -0.999581
  1482 20.8332 -1.67931 0.0759225
  1483 20.8344 -1.67945 -0.0726530
  1484 14.3967 1.49981 2.22680
  1485 14.3969 1.49982 -2.22619
  1486 24.5502 -0.292962 2.14132
  1487 24.5485 -0.292305 -2.14250
  1488 20.2871 -0.0792721 0.376193
  1489 20.2887 -0.0791379 -0.375387
  1490 20.0147 0.890366 -1.29147
  1491 6.10878 -0.601575 -0.166867
  1492 6.10065 -0.600369 0.171504
  1493 15.8653 0.828286 1.49405
  1494 15.8651 0.828197 -1.49366
  1495 15.6505 0.887400 -0.353484
  1496 15.6511 0.887394 0.353321
  1497 26.5638 -0.412182 -1.40591
  1498 26.5649 -0.412628 1.40419
  1499 16.2115 0.0481697 0.381516
  1500 16.2108 0.0481590 -0.381386
  1501 20.1902 -0.159267 -1.47871
  1502 20.1881 -0.155954 1.48108
  1503 14.8013 0.978701 0.911205
  1504 14.8004 0.978433 -0.911602
  1505 18.2263 0.0834083 0.617369
  1506 18.2264 0.0830925 -0.617625
  1507 21.8051 -0.869217 3.02519
  1508 21.8022 -0.868208 -3.02584
  1509 24.4345 -1.15489 -1.91246
  1510 24.4381 -1.15572 1.91084
  1511 21.4835 -2.30400 0.423487
  1512 21.5029 -2.28310 -0.395996
  1513 18.8603 0.225628 1.07187
  1514 18.4996 -0.105357 0.690210
  1515 18.4999 -0.105908 -0.690468
  1516 24.2433 2.26936 -1.66160
  1517 17.4265 -0.534725 -1.63731
  1518 17.4272 -0.533630 1.63629
  1519 18.7772 -3.58171 4.08359
  1520 20.8595 2.37026 -0.314918
  1521 18.7903 -1.18337 -1.41020
  1522 18.7898 -1.18128 1.40958
  1523 23.1438 -2.50794 0.533959
  1524 12.2795 -0.285363 -3.80468
  1525 12.2821 -0.287282 3.80570
  1526 15.5622 0.831720 0.990794
  1527 15.5623 0.831587 -0.990499
  1528 20.1411 -0.0145476 -0.207292
  1529 20.1409 -0.0144526 0.207351
  1530 15.0586 1.16745 0.801186
  1531 15.0590 1.16730 -0.800976
  1532 26.8369 -2.46594 0.674583
  1533 26.8317 -2.45154 -0.681696
  1534 21.3877 0.0293059 -0.646987
  1535 21.3895 0.0292969 0.647025
  1536 22.6911 0.631909 1.79709
  1537 22.5465 0.128419 1.98921
  1538 18.9184 -3.42987 -3.12796
  1539 18.9125 -3.42096 3.14074
  1540 17.6129 0.0942728 0.738200
  1541 17.6118 0.0942642 -0.738021
  1542 16.5394 0.586076 1.57264
  1543 16.5389 0.586037 -1.57227
  1544 22.3718 0.148161 -1.97204
  1545 19.6495 1.31866 0.475881
  1546 28.5446 -1.73082 -0.217118
  1547 28.6521 -1.61013 0.344074
  1548 21.1244 0.305817 1.74751
  1549 18.4983 -0.00503648 -0.647198
  1550 18.4915 -0.00554138 0.639872
  1551 14.0413 1.33677 -0.549689
  1552 14.0423 1.33691 0.549311
  1553 20.6671 1.42072 1.29179
  1554 15.7896 0.678774 -1.07158
  1555 15.7897 0.678884 1.07190
  1556 19.5415 0.335136 -1.01749
  1557 16.9073 0.0128670 -0.263250
  1558 16.9083 0.0128672 0.263329
  1559 10.2431 -3.06103 4.95554
  1560 10.2959 -3.03271 -4.94424
  1561 18.7408 -2.95561 -3.41579
  1562 13.3797 -3.36424 -3.95630
  1563 13.3862 -3.36245 3.95099
  1564 20.3042 -0.108152 -0.104880
  1565 20.3041 -0.107944 0.105229
  1566 15.7551 0.798134 3.56571
  1567 15.7540 0.799000 -3.56513
  1568 23.0674 2.76538 -1.49578
  1569 6.67088 -0.988250 -1.85806
  1570 6.66967 -0.990614 1.86348
  1571 20.0002 0.874740 1.31399
  1572 19.3354 0.404275 2.99825
  1573 19.3340 0.404779 -2.99826
  1574 20.4360 -0.0490698 0.130567
  1575 20.4362 -0.0491778 -0.130383
  1576 17.5278 0.705545 2.51044
  1577 17.5269 0.705723 -2.51008
  1578 10.2278 -1.52117 -3.72926
  1579 10.2322 -1.52391 3.73043
  1580 29.0685 -0.723445 2.97594
  1581 29.0642 -0.735845 -2.96893
  1582 22.3743 0.427011 4.51645
  1583 15.2338 1.08426 0.00405592
  1584 15.2345 1.08419 -0.00409418
  1585 20.0770 0.765824 5.54607
  1586 22.2379 -1.96209 -2.52482
  1587 22.2433 -1.96345 2.52515
  1588 20.9529 -0.347342 -3.23503
  1589 20.9551 -0.348231 3.23443
  1590 19.6711 0.0298125 0.472505
  1591 19.6694 0.0298121 -0.472432
  1592 16.3782 0.655083 -0.445205
  1593 16.3787 0.655087 0.444990
  1594 10.4501 0.395081 -3.11354
  1595 10.4508 0.393435 3.11585
  1596 11.6495 -0.0935056 3.26039
  1597 11.6483 -0.0927089 -3.26322
  1598 10.9390 0.918666 -1.96080
  1599 10.9420 0.917806 1.95864
  1600 14.7565 1.33779 1.09431
  1601 14.7570 1.33764 -1.09405
  1602 19.4093 0.485590 -0.152240
  1603 15.2377 1.08996 0.472493
  1604 15.2381 1.08982 -0.472366
  1605 17.0385 0.416971 0.603087
  1606 17.0381 0.416852 -0.603392
  1607 17.0356 0.274735 1.13180
  1608 17.0348 0.274710 -1.13152
  1609 18.5571 -3.96036 -2.92661
  1610 18.6355 -3.94158 2.96635
  1611 20.4164 -1.41866 -0.167015
  1612 20.4140 -1.41759 0.168638
  1613 19.5830 -1.52934 -1.11253
  1614 19.5816 -1.53153 1.11039
  1615 20.4464 -0.888896 -0.439896
  1616 20.4472 -0.889385 0.440936
  1617 20.8499 0.268660 -4.32634
  1618 20.3211 -0.540070 -0.386877
  1619 20.3215 -0.540590 0.387881
  1620 21.2734 1.85180 -1.36192
  1621 19.2137 -0.0157133 1.11017
  1622 19.2134 -0.0159722 -1.11046
  1623 51.7549 3.00169 -0.224237
  1624 19.9228 -0.312684 0.173286
  1625 19.9233 -0.313198 -0.172826
  1626 20.6934 -0.0514262 0.169937
  1627 20.6942 -0.0513254 -0.169458
  1628 20.8498 -0.0334636 0.0462925
  1629 20.8501 -0.0334155 -0.0460030
  1630 17.0988 0.280599 0.842901
  1631 17.0984 0.280310 -0.843341
  1632 17.3926 0.0206431 0.289015
  1633 17.3914 0.0206407 -0.288936
  1634 10.6123 1.53648 1.79898
  1635 10.6142 1.53645 -1.79738
  1636 11.9412 1.82275 1.20267
  1637 11.9429 1.82242 -1.20209
  1638 21.5124 -2.87011 1.51218
  1639 22.9838 0.0727678 -1.96612
  1640 22.9854 0.0725284 1.96578
  1641 18.6734 0.394810 0.891904
  1642 19.5923 -0.370012 -0.348599
  1643 19.5917 -0.369337 0.348884
  1644 18.2498 0.0171937 -0.338360
  1645 18.2511 0.0171929 0.338436
  1646 26.3609 -2.06686 0.0300366
  1647 26.3629 -2.06060 -0.0347739
  1648 22.8995 -2.54074 -0.447816
  1649 18.7714 0.146289 1.09926
  1650 18.7701 0.146298 -1.09907
  1651 29.9646 -0.194343 0.618650
  1652 29.9615 -0.192975 -0.616549
  1653 13.4113 -0.260904 -3.20971
  1654 13.4122 -0.261523 3.20632
  1655 15.7918 0.590767 0.925753
  1656 15.7917 0.590657 -0.925459
  1657 36.5141 2.31320 0.607325
  1658 16.6712 0.0115130 0.178870
  1659 16.6702 0.0115106 -0.178812
  1660 19.2338 -0.00679046 0.530947
  1661 19.2367 -0.00782153 -0.530277
  1662 15.8498 -1.80412 4.02527
  1663 15.8480 -1.80475 -4.02628
  1664 9.82892 -3.18044 -3.91603
  1665 37.3430 4.73465 -2.23120
  1666 13.9808 0.900079 -1.47646
  1667 13.9817 0.900711 1.47564
  1668 19.1233 0.156564 1.28220
  1669 19.1220 0.156592 -1.28202
  1670 16.3414 0.156013 0.698641
  1671 16.3409 0.155984 -0.698419
  1672 24.6070 0.182397 -1.26902
  1673 16.0321 1.08591 2.73101
  1674 16.0316 1.08614 -2.73048
  1675 16.8042 0.0871260 -0.590137
  1676 16.8050 0.0871394 0.590309
  1677 16.3164 0.0103960 -0.165644
  1678 16.3173 0.0104005 0.165701
  1679 14.7884 -0.0550279 -2.48542
  1680 14.7887 -0.0530839 2.48447
  1681 28.1205 0.872358 -2.92631
  1682 27.6097 -0.0242226 -0.684957
  1683 27.6103 -0.0242872 0.684516
  1684 16.8621 0.161399 0.830294
  1685 16.8613 0.161378 -0.830064
  1686 17.4061 -1.74991 3.00745
  1687 17.4102 -1.77676 -3.02220
  1688 18.5548 0.355335 1.84856
  1689 18.5537 0.355401 -1.84831
  1690 15.7871 0.635727 0.990607
  1691 15.7863 0.635462 -0.991022
  1692 3.45386 -9.28159 0.875402
  1693 3.45100 -9.27434 -0.888476
  1694 22.4414 3.56381 0.534418
  1695 31.0944 -0.0827706 -0.0963673
  1696 31.0905 -0.0826349 0.0957323
  1697 25.3683 0.0169529 0.866651
  1698 25.3669 0.0170097 -0.866884
  1699 16.3967 0.0641346 0.459265
  1700 16.3960 0.0641222 -0.459114
  1701 24.5612 -0.00894164 -1.78832
  1702 24.5626 -0.00920694 1.78769
  1703 19.8702 -2.64339 -2.31076
  1704 16.1808 0.334228 -0.931452
  1705 16.1812 0.334286 0.931738
  1706 19.1246 -0.533728 0.659007
  1707 19.1254 -0.534729 -0.659058
  1708 41.8500 3.47856 0.158669
  1709 16.4090 0.705257 1.70620
  1710 16.4086 0.705217 -1.70581
  1711 18.0926 0.486734 0.00109166
  1712 14.7068 -1.64267 -4.09191
  1713 14.7205 -1.65128 4.08577
  1714 15.9766 0.399590 0.880508
  1715 15.9763 0.399512 -0.880221
  1716 20.4362 -0.196221 0.308504
  1717 20.4366 -0.195962 -0.307670
  1718 22.5428 0.376438 -1.79760
  1719 17.7704 0.712740 -2.80516
  1720 17.7714 0.712418 2.80548
  1721 11.7124 1.68473 -0.263699
  1722 11.7146 1.68421 0.263195
  1723 14.9904 1.37519 2.33474
  1724 14.9904 1.37524 -2.33416
  1725 14.4703 0.516655 3.74098
  1726 14.4687 0.517873 -3.74021
  1727 19.9616 -1.41102 -0.624671
  1728 19.9590 -1.40905 0.624631
  1729 20.7870 -1.11698 0.655787
  1730 20.7866 -1.11674 -0.654704
  1731 21.5321 -1.26222 -1.00629
  1732 21.5341 -1.26253 1.00559
  1733 19.3170 0.383800 2.21385
  1734 19.3157 0.383969 -2.21368
  1735 21.5879 -2.80592 -1.33012
  1736 17.1492 0.589453 1.85773
  1737 17.1485 0.589462 -1.85736
  1738 13.2208 0.674165 -2.11108
  1739 13.2217 0.674881 2.10934
  1740 19.9382 -1.33385 -3.37488
  1741 19.9412 -1.33450 3.37502
  1742 15.5287 0.949391 0.333264
  1743 15.5291 0.949246 -0.333164
  1744 20.4931 0.130162 1.29140
  1745 20.4915 0.130211 -1.29130
  1746 40.5010 3.01107 -7.24867
  1747 16.1211 0.422148 -1.01608
  1748 16.1215 0.422218 1.01639
  1749 20.8116 0.160149 1.63213
  1750 20.8101 0.160240 -1.63208
  1751 24.2123 0.0329943 0.897533
  1752 24.2106 0.0330351 -0.897671
  1753 14.9058 0.681672 -1.44115
  1754 14.9067 0.682265 1.44059
  1755 15.5725 0.125222 -1.96589
  1756 15.5735 0.126260 1.96523
  1757 19.5681 -0.118089 1.02551
  1758 19.5690 -0.119427 -1.02479
  1759 17.4118 -1.00615 2.23990
  1760 17.4126 -1.00830 -2.24135
  1761 15.1085 -2.84148 4.86165
  1762 14.9593 -2.77531 -4.83518
  1763 20.3893 1.48146 -1.10695
  1764 17.1967 0.0550905 -0.537139
  1765 17.1977 0.0550976 0.537285
  1766 16.9172 0.118034 0.188768
  1767 15.1492 0.920027 0.836034
  1768 15.1484 0.919820 -0.836379
  1769 23.1629 -3.42370 -1.57174
  1770 23.2029 -3.43861 1.56802
  1771 26.3230 -0.137156 -1.48027
  1772 26.3238 -0.137471 1.47925
  1773 19.0767 -0.103028 0.495609
  1774 19.0770 -0.103459 -0.495654
  1775 17.2954 0.0663139 -0.413131
  1776 18.1241 -1.31582 2.03502
  1777 18.1201 -1.32016 -2.03841
  1778 27.8520 2.02942 0.345224
  1779 20.1934 -0.988232 -0.0125658
  1780 20.1922 -0.987398 0.0135378
  1781 17.0056 0.464425 -1.56900
  1782 17.0063 0.464443 1.56935
  1783 15.9750 0.368834 1.38161
  1784 15.9741 0.368327 -1.38218
  1785 15.2238 1.09243 1.14180
  1786 15.2240 1.09229 -1.14150
  1787 14.2059 1.49816 0.465160
  1788 14.2068 1.49805 -0.465126
  1789 15.5721 0.815311 0.746311
  1790 15.5723 0.815165 -0.746072
  1791 26.3743 4.76019 0.766225
  1792 27.7579 -0.607941 2.80527
  1793 27.7481 -0.610415 -2.81176
  1794 24.8374 -1.45343 0.300891
  1795 15.5430 0.924452 1.27312
  1796 15.5430 0.924332 -1.27277
  1797 22.0620 3.30321 -0.489714
  1798 41.2075 2.58130 5.60466
  1799 17.4515 0.725521 3.14872
  1800 17.4504 0.726043 -3.14840
  1801 20.1539 0.227895 1.25022
  1802 14.5041 -3.74834 5.36338
  1803 14.6713 1.31490 0.275318
  1804 14.6720 1.31481 -0.275303
  1805 19.8947 1.48402 -0.538996
  1806 16.8473 0.0922811 1.27810
  1807 16.8467 0.0917321 -1.27876
  1808 20.0303 -0.492754 -0.0470429
  1809 20.0297 -0.492111 0.0477305
  1810 22.7650 -0.0424955 2.53269
  1811 22.7633 -0.0419446 -2.53338
  1812 14.8658 -3.75259 -5.26669
  1813 21.7293 2.87753 0.789235
  1814 18.0430 0.114007 0.851934
  1815 18.0419 0.114003 -0.851748
  1816 15.7560 0.998931 1.79403
  1817 15.7559 0.998869 -1.79360
  1818 18.4792 0.203390 0.446940
  1819 15.8331 1.04485 2.06453
  1820 15.8329 1.04484 -2.06407
  1821 17.0364 -2.27068 3.73466
  1822 16.9682 -2.33059 -3.82217
  1823 14.8777 1.37140 1.89479
  1824 14.8779 1.37133 -1.89432
  1825 25.7554 4.36394 -1.06856
  1826 29.6343 1.69433 2.27191
  1827 21.1800 0.216886 2.37129
  1828 21.1785 0.217184 -2.37146
  1829 27.6400 -1.16317 0.530069
  1830 27.6381 -1.15860 -0.531129
  1831 20.2092 -0.0462842 -0.192585
  1832 20.2090 -0.0461505 0.192720
  1833 14.5363 -0.518067 -4.09392
  1834 14.5389 -0.519340 4.09407
  1835 21.6101 -2.76995 3.79524
  1836 18.9366 -3.55215 4.74247
  1837 28.1243 -0.419824 -0.726951
  1838 28.1240 -0.419753 0.725155
  1839 23.3847 -1.29829 -0.869099
  1840 24.8888 0.125770 1.11396
  1841 22.9232 -2.92977 -2.09462
  1842 23.0774 -2.77248 2.08723
  1843 28.0184 -0.795169 2.40401
  1844 28.0041 -0.795900 -2.40305
  1845 20.6285 -3.43356 3.04361
  1846 4.11626 -3.28597 0.806204
  1847 4.09367 -3.27623 -0.796208
  1848 20.0022 -0.214406 -0.845928
  1849 20.0014 -0.214288 0.847073
  1850 23.2469 0.00848608 0.673680
  1851 23.2451 0.00851302 -0.673721
  1852 16.3845 0.365824 1.09750
  1853 16.3840 0.365772 -1.09719
  1854 33.6997 4.11821 6.25047
  1855 7.15393 -1.01199 2.67814
  1856 7.14414 -1.01470 -2.68236
  1857 15.4643 0.933091 -0.473198
  1858 15.4650 0.933139 0.472990
  1859 16.9379 0.394091 0.755714
  1860 16.9374 0.393894 -0.756098
  1861 17.9943 0.225332 -1.27860
  1862 17.9954 0.225330 1.27886
  1863 27.3973 -2.36019 -0.164229
  1864 27.3407 -2.36963 0.138029
  1865 7.23190 -4.88685 -2.64198
  1866 7.23684 -4.88434 2.63999
  1867 15.1073 1.15870 -0.298302
  1868 15.1067 1.15882 0.298361
  1869 19.9461 0.0863885 1.09161
  1870 19.9446 0.0864205 -1.09149
  1871 15.8351 0.747808 1.31999
  1872 15.8350 0.747713 -1.31963
  1873 13.9879 1.22990 3.10159
  1874 13.9875 1.23053 -3.10059
  1875 11.5872 -4.29081 3.47593
  1876 11.5716 -4.29618 -3.47866
  1877 14.4815 1.38844 2.75288
  1878 14.4814 1.38872 -2.75211
  1879 20.1651 -0.332006 -1.26271
  1880 20.1650 -0.330267 1.26426
  1881 20.5096 -0.657649 -1.05152
  1882 20.5105 -0.657821 1.05273
  1883 21.3808 0.975899 1.72865
  1884 23.4015 -1.27254 0.837108
  1885 20.0055 -0.177173 -0.180904
  1886 20.0052 -0.176821 0.181241
  1887 12.4625 1.74857 0.221186
  1888 12.4641 1.74826 -0.221375
  1889 7.09662 -4.84959 -0.994247
  1890 7.10143 -4.84378 0.994116
  1891 18.2668 0.384842 -0.596795
  1892 20.7167 0.230262 2.72754
  1893 20.7152 0.230677 -2.72774
  1894 19.2543 -0.0234713 -0.414288
  1895 19.2541 -0.0232070 0.414261
  1896 18.9344 -0.294786 0.623556
  1897 18.9348 -0.295516 -0.623660
  1898 17.4525 0.234713 -1.15703
  1899 17.4534 0.234727 1.15730
  1900 19.6575 -0.0474303 0.493609
  1901 19.6600 -0.0475476 -0.492817
  1902 16.0002 0.631282 1.27140
  1903 16.0000 0.631197 -1.27105
  1904 27.3177 -0.123814 -1.28702
  1905 27.3235 -0.122907 1.29954
  1906 18.6885 0.304825 3.40897
  1907 18.6868 0.305618 -3.40900
  1908 26.3719 0.0249813 3.07378
  1909 23.8851 1.11499 -1.64494
  1910 16.6132 0.0429153 -0.399336
  1911 16.6141 0.0429211 0.399460
  1912 16.6142 0.111603 -0.0975855
  1913 13.1434 1.56501 -0.242867
  1914 13.1447 1.56495 0.242466
  1915 27.1554 3.32620 -6.59911
  1916 14.4770 1.46560 1.27650
  1917 14.4776 1.46545 -1.27620
  1918 5.12890 -2.72199 2.42932
  1919 5.10935 -2.72550 -2.44306
  1920 50.1880 2.33594 -4.75638
  1921 21.7333 -3.41650 -2.54332
  1922 16.8840 0.0386761 -0.415457
  1923 16.8849 0.0386822 0.415579
  1924 34.2580 0.993193 -0.721860
  1925 20.8015 -0.00670685 -0.0690538
  1926 20.8011 -0.00668988 0.0691018
  1927 11.1653 -2.49561 2.40301
  1928 11.8809 -2.32342 -2.68129
  1929 11.8647 -1.17376 -4.21474
  1930 11.8589 -1.16976 4.21128
  1931 18.8033 0.00574761 0.509867
  1932 18.8035 0.00544510 -0.509999
  1933 20.5038 0.0307579 -0.485799
  1934 20.5055 0.0307527 0.485855
  1935 21.4996 0.793239 -1.76366
  1936 16.1581 0.519138 0.992191
  1937 16.1574 0.518869 -0.992639
  1938 20.2495 -0.402314 -0.171106
  1939 20.2498 -0.402784 0.171939
  1940 17.7654 0.112557 0.765078
  1941 17.7653 0.112183 -0.765467
  1942 16.0504 0.310212 0.815324
  1943 16.0501 0.310150 -0.815054
  1944 15.6850 0.770965 1.10817
  1945 15.6850 0.770844 -1.10785
  1946 30.3577 -0.154137 -0.325506
  1947 30.3615 -0.155004 0.326106
  1948 23.9474 3.70161 1.15011
  1949 16.9790 0.0344979 0.310413
  1950 22.8697 0.0624462 1.70795
  1951 22.8681 0.0625934 -1.70818
  1952 13.6545 -2.10738 4.13629
  1953 13.6508 -2.10663 -4.13818
  1954 19.7400 -1.16163 0.601767
  1955 19.7419 -1.16298 -0.601438
  1956 20.2445 -0.237352 -0.00431113
  1957 20.2447 -0.237710 0.00489785
  1958 13.8910 -1.90669 4.47314
  1959 13.8573 -1.91003 -4.46758
  1960 18.1519 0.225429 3.62057
  1961 18.1500 0.226353 -3.62062
  1962 23.5568 -2.18581 1.81216
  1963 23.5489 -2.18500 -1.81323
  1964 17.3548 0.321518 0.622529
  1965 17.3546 0.321352 -0.622839
  1966 40.4685 4.17619 1.60246
  1967 16.5335 0.205653 -0.854207
  1968 16.5342 0.205685 0.854458
  1969 22.3264 -1.92259 0.382666
  1970 22.3010 -1.94433 -0.350386
  1971 14.4450 -0.891951 3.56053
  1972 14.4472 -0.891560 -3.56806
  1973 34.0637 1.47616 -1.56058
  1974 20.8794 -0.0100112 0.0426745
  1975 20.8796 -0.0100440 -0.0425540
  1976 25.4076 -0.864291 -2.08579
  1977 16.4133 0.527861 1.36956
  1978 16.4128 0.527803 -1.36921
  1979 22.5582 2.14707 1.62452
  1980 16.5813 0.337498 1.04633
  1981 16.5807 0.337154 -1.04685
  1982 29.8589 2.05942 -1.67759
  1983 22.4527 0.0480184 1.44714
  1984 25.9065 -1.48781 0.787291
  1985 25.9031 -1.48921 -0.790308
  1986 16.1093 0.865416 -5.77052
  1987 22.8190 3.37968 -1.07125
  1988 20.2459 1.70942 0.622422
  1989 18.7919 0.717342 0.498007
  1990 2.64020 -10.5769 0.931632
  1991 2.65350 -10.5739 -0.953983
  1992 21.3793 2.64837 -0.710318
  1993 12.7725 1.82479 1.46337
  1994 12.7736 1.82456 -1.46285
  1995 22.3343 0.0192397 -1.41646
  1996 20.3693 -2.24614 -1.34831
  1997 20.4137 -2.23862 1.26363
  1998 22.9843 -2.87128 1.83846
  1999 22.9711 -2.87009 -1.83857
  2000 16.1808 -3.15989 2.73499
  2001 16.8583 -3.43794 -2.82091
  2002 12.8894 1.39345 -0.936229
  2003 12.8908 1.39351 0.935350
  2004 7.05279 -4.23491 4.18045
  2005 7.13667 -4.16101 -4.33747
  2006 14.8108 1.29467 0.833438
  2007 14.8114 1.29452 -0.833239
  2008 18.8140 0.0123090 0.331272
  2009 18.8124 0.0123120 -0.331205
  2010 26.7274 0.448819 -0.363243
  2011 17.7172 0.325962 -1.49677
  2012 17.7181 0.325954 1.49706
  2013 15.3708 0.972006 0.807711
  2014 15.3711 0.971857 -0.807473
  2015 28.6149 -0.277187 -3.22787
  2016 26.2068 2.47314 1.14640
  2017 18.2426 -1.91407 -2.61298
  2018 18.2466 -1.86820 2.58812
  2019 30.1540 0.313919 -2.92695
  2020 20.2213 0.105102 -1.27198
  2021 28.8104 -1.52476 -2.00649
  2022 28.8090 -1.52293 2.01491
  2023 15.4576 1.00189 0.0646669
  2024 15.4582 1.00178 -0.0646715
  2025 16.0021 0.465838 0.986766
  2026 16.0019 0.465755 -0.986462
  2027 33.3908 1.17729 1.89172
  2028 19.6329 0.381631 2.50631
  2029 19.6315 0.381905 -2.50623
  2030 25.9845 0.157306 -2.99169
  2031 16.1823 0.107480 0.558641
  2032 16.1818 0.107458 -0.558450
  2033 18.3587 -0.363928 0.944213
  2034 18.3591 -0.364833 -0.944699
  2035 14.7398 -0.669616 5.11421
  2036 30.0853 -0.0786140 -0.441722
  2037 30.0837 -0.0786656 0.440903
  2038 17.5220 -0.140464 1.17976
  2039 17.5218 -0.141169 -1.18046
  2040 16.1328 0.0231968 0.267227
  2041 16.1321 0.0231911 -0.267132
  2042 20.2986 -0.159082 -0.481762
  2043 20.2977 -0.159317 0.482741
  2044 6.87802 -5.18485 2.66252
  2045 30.3841 2.49174 -0.370410
  2046 25.9299 -1.10477 -1.22931
  2047 25.9324 -1.10478 1.22698
  2048 18.3160 -0.459650 -3.79450
  2049 18.3183 -0.460591 3.79432
  2050 20.6236 -0.0468233 0.187241
  2051 20.6249 -0.0467427 -0.186758
  2052 18.0517 0.247686 0.630990
  2053 55.2254 1.81424 1.11619
  2054 33.3839 2.72555 -1.30322
  2055 19.7433 -0.0740258 -1.34132
  2056 19.7474 -0.0734466 1.34221
  2057 25.0855 0.674456 2.35382
  2058 18.2425 -0.922215 1.54306
  2059 18.2428 -0.923790 -1.54420
  2060 15.5257 0.897854 0.544371
  2061 15.5260 0.897701 -0.544198
  2062 30.2196 0.300194 2.93904
  2063 15.3388 1.08189 1.42033
  2064 15.3389 1.08177 -1.41996
  2065 20.9054 -0.706945 -1.30316
  2066 20.9071 -0.706832 1.30435
  2067 17.2770 -3.15191 -4.48924
  2068 6.31235 -5.79593 -2.50195
  2069 19.4750 -0.937536 -0.675248
  2070 19.4735 -0.936165 0.675388
  2071 19.7894 -0.641270 -0.258798
  2072 19.7885 -0.640400 0.259341
  2073 19.8805 -0.0196232 -0.270013
  2074 19.8802 -0.0194847 0.270054
  2075 27.7726 2.21570 -0.177502
  2076 16.2815 0.632543 -0.630307
  2077 16.2821 0.632629 0.630009
  2078 14.3666 1.30519 0.275724
  2079 14.3657 1.30514 -0.275939
  2080 18.6334 -1.71453 2.10164
  2081 18.6671 -1.72156 -2.09581
  2082 15.1478 -0.755813 3.13947
  2083 15.1517 -0.761338 -3.14131
  2084 28.6624 -0.280825 3.19637
  2085 13.9176 1.53552 0.196043
  2086 13.9186 1.53544 -0.196139
  2087 13.0960 -4.34672 -3.41838
  2088 13.1354 -4.33227 3.40299
  2089 19.1951 -2.57942 -3.41175
  2090 19.1967 -2.57784 3.41473
  2091 13.6508 1.66764 -0.725326
  2092 13.6498 1.66781 0.725410
  2093 4.90311 -3.88953 -1.48726
  2094 4.90755 -3.89887 1.49177
  2095 23.8165 1.09566 0.940135
  2096 24.7406 -0.0166077 -1.70651
  2097 19.4459 0.0142902 0.323180
  2098 19.4442 0.0142910 -0.323126
  2099 19.9971 -0.0797268 -0.235533
  2100 19.9969 -0.0795013 0.235705
  2101 19.1605 -0.272849 0.522092
  2102 19.1609 -0.273505 -0.522071
  2103 20.0190 -0.131775 3.40205
  2104 20.0169 -0.130878 -3.40246
  2105 39.5974 2.85253 0.215587
  2106 6.83978 0.0978715 -0.566229
  2107 6.84809 0.0960886 0.567829
  2108 20.5279 -0.0807398 -0.0469952
  2109 20.5278 -0.0806015 0.0473445
  2110 17.5532 0.292137 -0.174909
  2111 17.6222 0.00971337 -0.229126
  2112 17.6235 0.00971630 0.229187
  2113 15.8533 0.843477 -0.0279606
  2114 15.8538 0.843368 0.0279303
  2115 22.9324 0.800272 -1.36789
  2116 10.2388 1.56719 1.08119
  2117 10.2415 1.56671 -1.07992
  2118 27.8994 -1.35210 1.52245
  2119 27.8921 -1.34337 -1.52036
  2120 20.7986 1.94518 0.987053
  2121 18.7814 -0.512327 0.829448
  2122 18.7821 -0.513378 -0.829748
  2123 20.6028 -0.0953106 0.0885959
  2124 20.6030 -0.0951603 -0.0881020
  2125 20.8873 -0.0251470 0.0851868
  2126 20.8880 -0.0251171 -0.0848935
  2127 16.9618 0.685856 3.43952
  2128 16.9604 0.686628 -3.43919
  2129 2.23842 -9.41303 -0.941957
  2130 2.25437 -9.25508 0.957615
  2131 10.7085 1.73530 -0.535054
  2132 10.7057 1.73604 0.535497
  2133 19.6948 -0.0769210 -0.317959
  2134 19.6946 -0.0766525 0.318061
  2135 16.2967 0.995421 2.38160
  2136 16.2963 0.995516 -2.38112
  2137 21.4192 1.44880 1.60174
  2138 27.6451 0.554798 3.10718
  2139 15.7915 0.496472 3.71950
  2140 15.7899 0.497560 -3.71902
  2141 16.3936 0.107253 0.593370
  2142 16.3930 0.107233 -0.593180
  2143 22.4915 0.0591464 1.34794
  2144 22.4898 0.0592322 -1.34802
  2145 16.5458 0.931789 2.56044
  2146 16.5452 0.931960 -2.55997
  2147 24.3249 0.0282154 -1.43049
  2148 24.3263 0.0280756 1.43014
  2149 20.7890 -3.33038 -2.69502
  2150 32.9991 2.91571 0.886358
  2151 18.0138 -2.82279 3.75316
  2152 18.5745 0.357967 -0.882856
  2153 18.1428 0.535669 -2.28710
  2154 18.1438 0.535527 2.28739
  2155 11.4799 1.18073 -1.51907
  2156 11.4824 1.18020 1.51741
  2157 17.2911 0.668045 2.23864
  2158 17.2903 0.668133 -2.23825
  2159 24.4119 2.01865 1.59110
  2160 30.2723 1.26495 -2.68901
  2161 9.19742 0.987435 1.74980
  2162 9.19967 0.987668 -1.74715
  2163 13.0681 -3.16539 5.29156
  2164 13.7660 -3.17240 -5.24007
  2165 20.7317 -1.79807 -4.46644
  2166 17.3455 0.349728 1.41599
  2167 17.3447 0.349715 -1.41568
  2168 22.6732 0.0320283 -0.586209
  2169 22.6751 0.0320097 0.586203
  2170 16.7189 0.0651470 -0.246370
  2171 19.8188 -0.177844 -0.975355
  2172 19.8179 -0.177119 0.976315
  2173 13.3107 1.75113 1.45009
  2174 13.3117 1.75094 -1.44967
  2175 20.1831 -0.770133 -0.110294
  2176 20.1839 -0.770829 0.111209
  2177 21.5056 0.0839914 -1.25918
  2178 21.5072 0.0839353 1.25919
  2179 15.7696 0.930412 -1.59585
  2180 15.7697 0.930501 1.59624
  2181 10.7133 -0.313217 3.42729
  2182 10.7119 -0.314125 -3.43082
  2183 31.8264 -0.0256578 -1.50041
  2184 14.0139 1.59023 -0.870338
  2185 14.0131 1.59039 0.870493
  2186 19.3714 1.18721 -0.00471591
  2187 42.1271 3.61858 -0.208246
  2188 30.2287 5.71624 0.205404
  2189 18.8248 -0.116612 0.576737
  2190 18.8251 -0.117109 -0.576866
  2191 23.2892 -2.51210 -0.802298
  2192 35.4381 2.93302 0.992760
  2193 31.8059 -0.0311475 1.57107
  2194 25.5869 3.09569 -1.42132
  2195 20.3482 -0.00191768 -0.161652
  2196 20.3479 -0.00186940 0.161689
  2197 21.4961 -1.63054 -0.529878
  2198 21.4950 -1.63101 0.532615
  2199 16.7756 0.818155 2.24634
  2200 16.7750 0.818222 -2.24591
  2201 21.1538 -1.59300 -0.293298
  2202 21.1546 -1.59282 0.295222
  2203 17.6584 -3.72695 -4.90436
  2204 16.7571 0.225001 0.943495
  2205 16.7564 0.224970 -0.943235
  2206 21.5268 -0.645060 -1.48345
  2207 21.5258 -0.642205 1.49107
  2208 24.9619 -0.00372383 1.54686
  2209 15.8533 0.779181 0.580708
  2210 15.8526 0.779115 -0.580967
  2211 16.4765 0.931392 3.12743
  2212 16.4757 0.931866 -3.12694
  2213 22.3521 -0.197672 -2.81273
  2214 22.3540 -0.198421 2.81193
  2215 17.8417 -1.88128 3.87521
  2216 17.8404 -1.88195 -3.87476
  2217 14.6603 1.28874 0.0156477
  2218 14.6595 1.28878 -0.0157332
  2219 16.3904 0.0291378 0.350449
  2220 16.3897 0.0291333 -0.350333
  2221 21.7994 -0.321206 -1.64307
  2222 21.7466 -0.330495 1.65021
  2223 26.3361 0.0224458 -0.587048
  2224 26.3375 0.0224062 0.586854
  2225 19.5958 -0.189261 -0.345247
  2226 19.5954 -0.188816 0.345428
  2227 32.6592 5.74341 0.335021
  2228 23.4608 0.0638455 1.29465
  2229 23.4592 0.0639336 -1.29483
  2230 15.1945 1.05990 3.30856
  2231 15.1937 1.06059 -3.30783
  2232 27.5122 -0.195673 -1.15826
  2233 27.5124 -0.195985 1.15692
  2234 23.0356 -0.839729 -2.58332
  2235 23.0385 -0.840698 2.58233
  2236 16.7536 -3.21699 -3.60190
  2237 16.7460 -3.21342 3.59994
  2238 9.79733 -1.89048 4.50930
  2239 9.79156 -1.88304 -4.51121
  2240 20.4532 -0.712447 -0.692770
  2241 20.4538 -0.712895 0.693801
  2242 26.2460 -0.183885 2.61556
  2243 16.8204 0.102047 -0.485608
  2244 16.6447 0.105412 0.617280
  2245 16.6439 0.105394 -0.617094
  2246 36.2260 1.48166 1.10536
  2247 21.0406 0.00494821 0.485728
  2248 21.0388 0.00495926 -0.485690
  2249 20.3025 -0.402481 -0.740997
  2250 20.3026 -0.402828 0.742169
  2251 19.5531 -0.482897 0.378193
  2252 19.5539 -0.483716 -0.377891
  2253 24.6626 -0.0351916 -1.92412
  2254 24.6640 -0.0355602 1.92332
  2255 16.0030 -0.993199 4.08876
  2256 16.0005 -0.992496 -4.08906
  2257 9.04922 0.00757047 2.71169
  2258 9.04879 0.00942664 -2.70857
  2259 50.2400 2.32797 3.58221
  2260 22.7714 1.01500 -0.200228
  2261 15.9084 0.565188 -1.04218
  2262 15.9085 0.565283 1.04250
  2263 36.2542 3.32396 -0.486325
  2264 15.4833 0.974051 -0.174915
  2265 15.4839 0.973999 0.174819
  2266 20.0667 -2.41226 1.86552
  2267 28.8596 -0.554859 1.00806
  2268 28.8557 -0.551441 -1.00524
  2269 26.2731 -0.177822 -2.68765
  2270 20.8747 0.170781 -2.84444
  2271 20.8763 0.170278 2.84414
  2272 22.2997 -1.26774 -1.07595
  2273 22.2825 -1.30907 1.04200
  2274 16.8053 0.360145 1.25404
  2275 16.8046 0.360109 -1.25372
  2276 25.2062 -0.357733 -1.94400
  2277 25.2077 -0.358332 1.94265
  2278 27.5271 1.24063 1.61817
  2279 29.8912 4.19019 0.248366
  2280 13.5263 1.16914 1.19306
  2281 13.5252 1.16877 -1.19390
  2282 25.4609 -0.163136 -0.394454
  2283 17.8268 0.00864682 -0.419094
  2284 18.3584 -3.68128 -4.49453
  2285 27.5895 4.23096 0.691855
  2286 19.5891 0.100663 1.02332
  2287 19.5876 0.100680 -1.02318
  2288 29.2171 -0.197954 -0.899349
  2289 29.2166 -0.200586 0.904657
  2290 20.4114 -0.331354 1.43867
  2291 20.4102 -0.334183 -1.43673
  2292 18.6879 0.00132476 -0.401819
  2293 18.6833 0.00275684 0.399621
  2294 18.1660 0.299223 1.57605
  2295 18.1650 0.299249 -1.57578
  2296 10.0722 1.32330 -0.849249
  2297 10.0761 1.32199 0.848556
  2298 20.3555 -0.645930 -0.469935
  2299 20.3560 -0.646439 0.470959
  2300 14.2021 1.58076 1.92674
  2301 14.2026 1.58069 -1.92622
  2302 8.36167 0.898249 0.847048
  2303 8.36579 0.897819 -0.844557
  2304 16.5254 0.0117926 0.142874
  2305 16.5245 0.0117902 -0.142828
  2306 20.9936 -3.21042 2.34649
  2307 20.4457 0.150433 3.14471
  2308 20.4440 0.151093 -3.14505
  2309 22.5002 0.696538 1.65680
  2310 14.6489 1.36719 0.888889
  2311 14.6494 1.36704 -0.888688
  2312 18.6213 0.0486667 0.671794
  2313 18.6199 0.0486686 -0.671661
  2314 17.5647 -0.0381742 1.02753
  2315 17.5646 -0.0387559 -1.02812
  2316 20.6101 -1.09734 0.439629
  2317 20.6093 -1.09696 -0.438479
  2318 17.1794 0.180908 0.964210
  2319 17.1785 0.180888 -0.963968
  2320 19.5171 0.802256 -1.06641
  2321 19.2758 0.284237 -1.23873
  2322 24.6518 0.905749 -2.04997
  2323 18.3953 0.0772047 0.567241
  2324 18.3953 0.0769161 -0.567455
  2325 28.0033 1.71523 1.76542
  2326 14.3865 1.52762 1.71555
  2327 14.3869 1.52750 -1.71511
  2328 23.6738 2.74650 1.58188
  2329 18.5991 -0.223661 0.733865
  2330 18.5995 -0.224361 -0.734130
  2331 18.3177 -0.00912326 0.670955
  2332 18.3178 -0.00956114 -0.671233
  2333 15.3123 1.23744 -1.99381
  2334 15.3123 1.23749 1.99428
  2335 16.5967 0.936340 2.91080
  2336 16.5960 0.936667 -2.91033
  2337 12.2592 0.244928 -3.58407
  2338 12.2608 0.243288 3.58550
  2339 30.9904 1.42980 2.51064
  2340 33.9211 4.07740 -6.96167
  2341 27.0798 -0.599902 2.55952
  2342 22.9566 0.278324 -2.12162
  2343 15.3238 0.406175 -1.67873
  2344 15.3248 0.406952 1.67814
  2345 20.9733 -0.0209261 -0.0115884
  2346 20.9733 -0.0208986 0.0117273
  2347 18.8568 0.213061 -0.983205
  2348 18.0002 0.0159500 0.223559
  2349 17.9988 0.0159485 -0.223505
  2350 16.4172 0.143506 1.44215
  2351 16.4164 0.142909 -1.44281
  2352 21.1524 0.181740 -2.14073
  2353 21.1540 0.181528 2.14065
  2354 21.4140 0.159826 -1.75376
  2355 20.2084 -0.354750 -0.892231
  2356 20.2083 -0.354870 0.893482
  2357 16.1375 0.200831 -0.701357
  2358 16.1380 0.200873 0.701593
  2359 47.3034 2.72696 6.69088
  2360 15.3829 0.986736 0.610124
  2361 15.3833 0.986585 -0.609942
  2362 20.0704 -0.313084 -0.0773220
  2363 20.0701 -0.312613 0.0778881
  2364 12.4016 1.06117 1.71986
  2365 12.4000 1.06111 -1.72155
  2366 17.5194 0.513227 1.88994
  2367 17.5186 0.513261 -1.88959
  2368 33.9030 2.56147 7.40934
  2369 4.85556 -4.64495 3.09208
  2370 4.86853 -4.67934 -3.07707
  2371 19.4222 0.279766 1.79316
  2372 19.4209 0.279848 -1.79298
  2373 15.6549 0.734148 -0.798686
  2374 15.6548 0.734285 0.798948
  2375 19.9140 -0.999978 -0.307991
  2376 19.9127 -0.998873 0.308669
  2377 13.4816 1.64322 0.285168
  2378 13.4827 1.64308 -0.285279
  2379 18.9726 0.253406 -1.57884
  2380 18.9739 0.253360 1.57905
  2381 30.1847 2.72268 -7.17525
  2382 22.9262 -2.11089 -0.121180
  2383 22.9532 -1.94276 0.293617
  2384 20.1307 0.136982 1.24616
  2385 27.6514 -0.359021 -0.997631
  2386 27.6516 -0.359240 0.995875
  2387 21.7561 -1.95690 0.148749
  2388 21.7513 -1.95152 -0.152873
  2389 18.1860 -0.578568 -1.23226
  2390 18.1857 -0.577392 1.23146
  2391 22.8554 -1.31766 3.95615
  2392 23.0369 -0.769982 -1.32403
  2393 15.4570 0.926681 1.01949
  2394 15.4571 0.926544 -1.01920
  2395 25.2608 -0.795975 -1.76670
  2396 25.2632 -0.796639 1.76490
  2397 19.3066 0.447397 -2.83530
  2398 19.3080 0.446990 2.83535
  2399 16.8145 0.464780 1.44548
  2400 16.8139 0.464745 -1.44513
  2401 26.2098 -0.00611218 -1.21282
  2402 22.5626 1.99288 -1.68312
  2403 20.1138 0.231607 -1.53351
  2404 3.08391 -9.83291 -1.22785
  2405 3.20182 -9.47209 1.37174
  2406 20.4566 0.741515 -1.51979
  2407 30.6399 -0.0612694 -0.309965
  2408 30.6374 -0.0612844 0.309183
  2409 17.2527 -0.141702 -1.34938
  2410 17.2532 -0.140977 1.34859
  2411 24.7827 -0.172819 2.00599
  2412 24.7813 -0.172322 -2.00701
  2413 16.7433 0.533643 0.513593
  2414 16.7429 0.533599 -0.513846
  2415 16.5634 0.329489 -1.08821
  2416 16.5640 0.329534 1.08851
  2417 15.7389 0.635360 0.874550
  2418 15.7389 0.635239 -0.874265
  2419 28.1950 1.94558 -1.13417
  2420 17.7382 0.312840 0.219016
  2421 24.0898 4.60510 -0.130775
  2422 15.3840 1.02203 1.28558
  2423 15.3842 1.02190 -1.28524
  2424 43.4088 3.04270 -1.38984
  2425 31.2333 -0.0938662 0.0114047
  2426 31.2287 -0.0935975 -0.0117923
  2427 23.5390 0.873878 1.74010
  2428 29.0201 -0.0625769 -0.608488
  2429 29.0198 -0.0626524 0.607870
  2430 22.4496 0.0950030 -2.38153
  2431 22.4511 0.0946153 2.38109
  2432 8.81663 -0.321620 -3.02239
  2433 8.82193 -0.322595 3.01800
  2434 17.4177 0.0875907 -0.684295
  2435 17.4187 0.0875988 0.684469
  2436 24.1977 0.127571 -2.44714
  2437 14.0357 1.63214 1.39392
  2438 14.0363 1.63198 -1.39358
  2439 28.5726 -0.464342 -1.54178
  2440 28.5710 -0.464846 1.55117
  2441 29.8729 5.96292 -0.0843557
  2442 20.0988 0.0281061 -0.382385
  2443 20.1006 0.0281052 0.382437
  2444 38.7666 3.64192 0.0956556
  2445 15.9058 0.446347 0.870456
  2446 15.9056 0.446260 -0.870169
  2447 20.1972 -0.0330072 -0.283436
  2448 20.1950 -0.0330624 0.284070
  2449 16.2355 0.549994 1.28384
  2450 16.2352 0.549924 -1.28349
  2451 19.3049 0.283249 1.26125
  2452 17.1924 0.00230647 -0.144886
  2453 17.1935 0.00230732 0.144927
  2454 17.9760 -0.0205763 0.822913
  2455 17.9760 -0.0210926 -0.823330
  2456 22.9845 -0.738702 1.34335
  2457 18.5602 0.00968046 -0.248902
  2458 18.5617 0.00967923 0.248956
  2459 16.3932 0.0782148 0.0134987
  2460 24.6771 0.121974 2.60095
  2461 19.3203 0.0540141 -1.23047
  2462 19.3328 0.0574825 1.23830
  2463 20.5508 -1.26548 -0.144343
  2464 20.5520 -1.26599 0.145766
  2465 16.4646 -0.0501599 1.68517
  2466 16.4637 -0.0509916 -1.68591
  2467 11.9841 1.80449 0.269991
  2468 11.9860 1.80403 -0.270115
  2469 16.1560 0.0725588 -0.454343
  2470 16.1567 0.0725756 0.454501
  2471 12.8956 1.06395 3.23858
  2472 12.8951 1.06488 -3.23719
  2473 31.6171 0.703625 -2.72463
  2474 20.2709 1.83831 -0.379103
  2475 26.2034 -2.43301 -0.210547
  2476 26.1997 -2.44295 0.202337
  2477 15.5563 0.901449 0.427205
  2478 15.5567 0.901297 -0.427071
  2479 20.1252 0.222327 1.54443
  2480 43.2084 3.92316 -1.25856
  2481 15.3164 1.26092 2.54441
  2482 15.3162 1.26107 -2.54382
  2483 19.2131 0.915313 -0.702461
  2484 17.0380 0.461481 4.44674
  2485 19.4865 -0.304678 3.55294
  2486 19.4842 -0.303740 -3.55330
  2487 32.6273 1.02191 2.60924
  2488 15.0289 1.26887 -4.53443
  2489 20.6183 0.396657 1.64270
  2490 21.1528 -1.04566 1.08008
  2491 21.1537 -1.04514 -1.07934
  2492 19.6195 0.921724 1.03202
  2493 27.1467 -1.53578 0.489039
  2494 27.1452 -1.52980 -0.491502
  2495 23.7114 -3.01180 -1.31168
  2496 23.7326 -3.01256 1.30930
  2497 21.3682 -0.658322 -3.13478
  2498 21.3707 -0.659260 3.13415
  2499 15.0020 1.16974 0.0534354
  2500 15.0013 1.16979 -0.0535084
  2501 9.09761 1.27414 0.341104
  2502 9.10181 1.27317 -0.339842
  2503 18.8154 0.181735 -1.26344
  2504 18.8167 0.181715 1.26364
  2505 22.0712 -3.30589 2.45305
  2506 55.4013 1.59501 -3.42306
  2507 17.1355 -0.115048 3.85971
  2508 17.1333 -0.113983 -3.85968
  2509 32.8873 1.78643 -2.04582
  2510 20.3013 -0.153147 -0.0561414
  2511 20.3011 -0.152882 0.0565874
  2512 23.7105 -0.496597 -2.42148
  2513 23.7126 -0.497424 2.42031
  2514 14.1705 1.55018 2.37641
  2515 14.1708 1.55026 -2.37571
  2516 17.4278 -3.14127 4.37334
  2517 20.3214 0.168301 1.59289
  2518 20.3199 0.168383 -1.59280
  2519 18.4909 -1.22294 -1.67147
  2520 18.4896 -1.22075 1.67015
  2521 43.5375 3.12892 1.03854
  2522 11.7105 1.05599 2.94613
  2523 11.7105 1.05687 -2.94435
  2524 19.1127 -2.76665 3.05178
  2525 16.2046 0.00359973 0.109199
  2526 16.2037 0.00359914 -0.109161
  2527 27.0416 -0.100504 -3.14076
  2528 15.9033 0.636353 -1.15289
  2529 15.9035 0.636450 1.15323
  2530 15.1402 1.22426 1.52989
  2531 15.1404 1.22414 -1.52951
  2532 21.9380 0.00917940 0.446167
  2533 21.9361 0.00918826 -0.446150
  2534 17.9077 -0.0885817 0.931400
  2535 17.9077 -0.0891923 -0.931907
  2536 24.5546 1.19389 -0.976485
  2537 30.8787 -0.0684881 -0.212163
  2538 30.8755 -0.0684491 0.211400
  2539 21.1105 -0.539036 -1.51228
  2540 21.1131 -0.540741 1.51238
  2541 19.0161 0.0813913 0.851903
  2542 19.0147 0.0813952 -0.851757
  2543 16.3047 0.687278 1.59678
  2544 16.3043 0.687224 -1.59639
  2545 28.9011 2.56156 -0.958971
  2546 19.4170 -0.792630 0.595481
  2547 19.4181 -0.793845 -0.595305
  2548 21.9965 -3.28839 -3.08828
  2549 23.1909 0.687320 -1.77219
  2550 22.9176 -2.92335 2.46910
  2551 20.9928 -1.89547 0.224695
  2552 20.9927 -1.89169 -0.221189
  2553 27.0141 -0.351507 -2.60662
  2554 17.9589 0.173374 0.606829
  2555 17.9588 0.173135 -0.607106
  2556 18.8384 0.00247432 -0.907230
  2557 18.8273 0.0157317 0.904484
  2558 8.32678 -3.23777 3.27740
  2559 8.32055 -3.23608 -3.27727
  2560 27.0093 5.55902 -0.229175
  2561 20.8504 -0.212030 -1.62705
  2562 20.8516 -0.215082 1.62202
  2563 2.95672 -5.87133 -0.849042
  2564 2.96832 -5.86389 0.900635
  2565 16.2295 0.723749 0.304058
  2566 16.2289 0.723798 -0.304206
  2567 17.0355 0.125825 0.741951
  2568 17.0346 0.125807 -0.741748
  2569 27.0379 -0.345278 2.57559
  2570 15.1377 1.27631 2.75441
  2571 15.1374 1.27657 -2.75375
  2572 23.6704 -2.34425 0.519274
  2573 13.2043 1.72283 2.03257
  2574 13.2050 1.72278 -2.03184
  2575 18.6591 0.492940 0.715258
  2576 17.4032 0.151064 0.668552
  2577 21.4453 -2.55506 0.929389
  2578 21.5690 -2.49250 -0.754029
  2579 16.8261 0.00634958 0.147270
  2580 16.8251 0.00634928 -0.147224
  2581 22.3755 -2.66266 0.818205
  2582 14.7550 1.28280 0.506677
  2583 14.7556 1.28268 -0.506580
  2584 16.4825 0.757267 1.85361
  2585 16.4821 0.757247 -1.85320
  2586 27.9810 1.53952 -2.17804
  2587 18.9889 -0.875331 3.67542
  2588 18.9864 -0.874609 -3.67558
  2589 15.6508 -0.0562526 -3.96118
  2590 15.6529 -0.0574681 3.96143
  2591 30.1235 -0.115379 -0.557939
  2592 30.1252 -0.116296 0.560558
  2593 22.4710 3.72493 0.0257422
  2594 16.3721 0.861348 2.03791
  2595 16.3717 0.861351 -2.03747
  2596 19.7334 -0.790757 0.369343
  2597 19.7345 -0.791797 -0.368849
  2598 18.0548 -0.362141 1.12735
  2599 18.0549 -0.363067 -1.12804
  2600 46.3055 3.35617 0.315136
  2601 7.80579 -1.05722 2.64276
  2602 7.80427 -1.05415 -2.63892
  2603 19.2769 -0.0816062 -0.432638
  2604 19.2766 -0.0812465 0.432645
  2605 17.8283 0.00126105 0.415748
  2606 46.8863 2.63978 -6.95253
  2607 20.9728 -1.33309 -0.544575
  2608 20.9731 -1.33324 0.546198
  2609 28.4662 -0.764998 -1.43152
  2610 28.4711 -0.768862 1.43623
  2611 25.2111 0.0106173 0.486006
  2612 25.2095 0.0106296 -0.486113
  2613 26.1387 -0.0577839 1.28588
  2614 19.3940 0.994517 0.717633
  2615 18.4118 0.119600 0.876793
  2616 22.0883 0.864142 -1.81386
  2617 13.0632 1.61188 2.45578
  2618 13.0637 1.61205 -2.45479
  2619 15.8304 0.593704 0.997398
  2620 15.8303 0.593600 -0.997090
  2621 24.0918 -0.0131928 -0.504368
  2622 24.0936 -0.0132049 0.504310
  2623 15.1707 1.11183 0.949099
  2624 15.1710 1.11169 -0.948843
  2625 23.9946 4.15796 -0.803833
  2626 28.3626 -0.0970165 -0.983965
  2627 28.3607 -0.101261 0.992463
  2628 28.0948 -0.516594 1.96187
  2629 28.0972 -0.514121 -1.95280
  2630 19.0415 0.00106795 0.450743
  2631 19.0416 0.000809181 -0.450827
  2632 27.6494 -0.652804 -0.637900
  2633 27.6496 -0.652305 0.635849
  2634 40.6376 3.28854 0.00425487
  2635 7.67323 -4.03247 -0.972439
  2636 7.56549 -4.11414 0.953631
  2637 29.4812 -0.995959 -2.41404
  2638 29.5061 -0.965114 2.41495
  2639 16.2060 0.215834 -0.748755
  2640 16.2065 0.215876 0.748998
  2641 16.6424 0.492649 0.731628
  2642 16.6419 0.492497 -0.731987
  2643 26.8793 -2.50828 0.552295
  2644 26.8705 -2.49135 -0.559275
  2645 28.1869 4.26703 7.92043
  2646 21.7403 -1.43043 3.41803
  2647 22.0851 2.60982 1.28034
  2648 17.8718 0.680809 -2.60311
  2649 17.8728 0.680577 2.60342
  2650 39.1917 3.96600 4.95309
  2651 10.6293 1.62727 -0.213385
  2652 10.6325 1.62631 0.213145
  2653 18.7095 0.792897 -0.128213
  2654 17.0368 -0.320902 1.67855
  2655 17.0360 -0.321901 -1.67940
  2656 27.4850 0.00632558 -0.603512
  2657 27.4859 0.00628171 0.603199
  2658 11.3292 1.41092 -2.35544
  2659 11.3282 1.41058 2.35709
  2660 14.1728 1.52662 0.716641
  2661 14.1736 1.52647 -0.716525
  2662 20.0302 -0.622937 0.0374759
  2663 20.0309 -0.623670 -0.0367263
  2664 20.9389 0.103537 -1.71257
  2665 20.4890 0.250202 2.20206
  2666 20.4876 0.250409 -2.20205
  2667 28.7866 -1.77079 1.11034
  2668 28.8265 -1.72692 -1.09787
  2669 29.7918 -0.0351655 -0.447762
  2670 29.7907 -0.0352132 0.447129
  2671 20.7444 -3.20573 -2.68818
  2672 20.7533 -3.20728 2.69752
  2673 29.1708 -0.457058 0.256465
  2674 29.1682 -0.455331 -0.256660
  2675 16.6827 0.183586 0.848896
  2676 16.6820 0.183561 -0.848653
  2677 24.0964 -2.27216 -1.66105
  2678 20.1551 -0.118608 0.518294
  2679 20.1565 -0.118439 -0.517295
  2680 14.1855 1.56098 -1.18483
  2681 14.1849 1.56114 1.18509
  2682 19.5632 -0.283766 0.360219
  2683 19.5637 -0.284349 -0.359994
  2684 16.1498 0.468937 -1.10514
  2685 16.1502 0.469010 1.10546
  2686 13.6535 1.43303 -0.429881
  2687 13.6546 1.43310 0.429482
  2688 16.3575 0.0654365 -0.140251
  2689 27.3747 -1.87121 1.20961
  2690 27.3686 -1.86095 -1.21170
  2691 18.8468 -0.700546 0.928269
  2692 18.8477 -0.701829 -0.928667
  2693 33.5874 0.791324 0.441679
  2694 20.4132 2.08466 0.156827
  2695 19.3474 -1.88304 1.70341
  2696 19.3680 -1.86737 -1.70229
  2697 15.3587 1.03210 0.347629
  2698 15.3592 1.03196 -0.347536
  2699 21.2451 -1.60476 -2.97031
  2700 21.2490 -1.60558 2.97067
  2701 25.6841 0.378934 -3.71365
  2702 14.7669 1.36203 1.46524
  2703 14.7672 1.36190 -1.46488
  2704 15.3665 1.13894 1.71541
  2705 15.3666 1.13885 -1.71500
  2706 20.1508 0.234581 1.91014
  2707 20.1494 0.234710 -1.91005
  2708 19.7414 0.376055 -1.40765
  2709 19.1540 -2.75445 -2.93490
  2710 23.5792 0.298653 2.33547
  2711 18.1336 0.627970 2.86402
  2712 18.1325 0.628338 -2.86378
  2713 34.7751 2.53334 -1.31410
  2714 25.5470 -2.94362 -0.266300
  2715 25.5644 -2.93288 0.246702
  2716 15.5735 0.838886 0.632640
  2717 15.5738 0.838734 -0.632434
  2718 22.0792 0.730298 1.83099
  2719 38.4751 4.30725 -5.22624
  2720 18.5081 0.0907560 -0.914740
  2721 20.2887 -0.633716 -0.293856
  2722 20.2892 -0.634286 0.294808
  2723 26.9443 -0.0700334 -1.11878
  2724 26.9450 -0.0701870 1.11805
  2725 16.8466 0.290507 1.12578
  2726 16.8460 0.290477 -1.12549
  2727 18.2997 0.543409 0.270366
  2728 15.1028 1.13074 0.632890
  2729 15.1033 1.13060 -0.632725
  2730 25.5229 4.97005 0.579495
  2731 20.4146 -0.0754492 -0.110077
  2732 20.4144 -0.0753009 0.110336
  2733 16.5073 0.115385 0.650566
  2734 16.5066 0.115365 -0.650366
  2735 5.19922 -6.86431 0.0349643
  2736 5.20727 -6.86918 -0.0434263
  2737 12.7783 1.79319 0.655547
  2738 12.7797 1.79291 -0.655496
  2739 17.8880 0.178050 1.09804
  2740 17.8869 0.178046 -1.09781
  2741 21.1937 1.32614 -1.60509
  2742 19.1596 -2.39252 2.52524
  2743 22.6675 1.27026 1.76922
  2744 23.7519 -1.59592 -1.98155
  2745 23.7571 -1.59690 1.98019
  2746 25.4883 -0.301671 0.436796
  2747 20.0606 0.129512 1.28240
  2748 20.0591 0.129554 -1.28227
  2749 21.8429 -2.11640 -2.89725
  2750 18.8530 0.448048 -2.21121
  2751 18.8542 0.447905 2.21143
  2752 20.8351 -3.72403 -2.36567
  2753 20.8905 -3.72659 2.40077
  2754 25.4692 -2.02815 -0.690215
  2755 25.4748 -2.02546 0.685896
  2756 27.5601 -0.0775573 -1.09794
  2757 27.5604 -0.0777824 1.09690
  2758 14.4036 0.834490 1.42801
  2759 14.4027 0.833889 -1.42867
  2760 19.1396 0.0112110 0.264989
  2761 19.1380 0.0112125 -0.264940
  2762 20.3345 -0.440097 -0.466645
  2763 20.3346 -0.440544 0.467676
  2764 20.7134 -2.82532 -1.90392
  2765 13.9879 1.43537 0.161548
  2766 13.9869 1.43537 -0.161778
  2767 17.6168 0.0511574 0.547322
  2768 17.6157 0.0511517 -0.547184
  2769 30.0281 -0.305666 1.31309
  2770 15.7531 -0.455132 2.55835
  2771 15.7516 -0.457134 -2.55860
  2772 20.9808 0.0549719 -0.941772
  2773 20.9825 0.0549447 0.941830
  2774 21.1340 2.59116 0.262706
  2775 27.4665 -1.28345 -1.82363
  2776 18.8814 -1.01708 -1.18640
  2777 18.8803 -1.01546 1.18570
  2778 28.0568 -1.18563 -2.16399
  2779 28.0679 -1.18819 2.16701
  2780 18.2384 0.0499225 0.625045
  2781 18.2371 0.0499232 -0.624909
  2782 15.2151 1.09022 0.804652
  2783 15.2154 1.09007 -0.804429
  2784 22.2955 -2.82186 -0.945025
  2785 21.8338 2.15450 -1.41961
  2786 32.1123 0.759956 -2.21417
  2787 15.6487 0.740267 -0.957701
  2788 15.6487 0.740393 0.957995
  2789 30.1616 4.24883 -0.403142
  2790 20.2930 -3.28739 -4.31035
  2791 27.0398 -0.00498378 -0.558922
  2792 27.0410 -0.00501829 0.558692
  2793 25.4657 1.36472 1.57230
  2794 16.0109 0.798715 -0.163813
  2795 16.0115 0.798630 0.163728
  2796 14.9081 1.24507 -0.699397
  2797 14.9076 1.24521 0.699566
  2798 16.4061 0.202472 -0.799071
  2799 16.4066 0.202506 0.799315
  2800 12.5994 -3.75678 -5.31727
  2801 28.6104 -0.0594337 -0.527403
  2802 28.6106 -0.0594862 0.526973
  2803 29.9315 2.40129 0.824012
  2804 16.6004 0.423024 1.28844
  2805 16.5998 0.422979 -1.28811
  2806 19.9266 -0.0163742 0.283875
  2807 19.9295 -0.0163457 -0.283256
  2808 12.3087 -3.73466 5.33054
  2809 20.8085 -2.15797 2.96155
  2810 20.8041 -2.15748 -2.95987
  2811 18.8162 0.417768 -3.23865
  2812 18.8177 0.417141 3.23867
  2813 21.7434 1.92678 1.51665
  2814 24.2767 -2.01938 -0.594552
  2815 13.6227 1.73151 -1.25197
  2816 13.6218 1.73171 1.25227
  2817 20.4576 -0.175409 -0.195143
  2818 20.4574 -0.175660 0.195864
  2819 16.7293 0.773234 2.11179
  2820 16.7287 0.773265 -2.11137
  2821 14.4566 1.15845 0.706736
  2822 14.4556 1.15826 -0.707104
  2823 11.8548 1.75722 1.67975
  2824 11.8563 1.75705 -1.67880
  2825 24.2750 2.31788 -6.24022
  2826 15.5978 1.08842 3.15412
  2827 15.5971 1.08895 -3.15349
  2828 24.4511 0.00131005 -1.66689
  2829 24.4525 0.00110513 1.66640
  2830 15.8730 1.07125 2.25352
  2831 15.8727 1.07129 -2.25303
  2832 17.3520 0.0281585 0.356549
  2833 14.9430 1.24787 -1.25309
  2834 14.9426 1.24800 1.25340
  2835 16.8389 -0.653640 -2.14442
  2836 16.8398 -0.652060 2.14327
  2837 17.5226 0.184782 -0.462422
  2838 20.7196 -0.736749 -1.14445
  2839 20.7208 -0.736981 1.14551
  2840 17.3969 0.188413 0.822104
  2841 17.3967 0.188074 -0.822540
  2842 16.0765 0.705214 1.46000
  2843 16.0762 0.705139 -1.45962
  2844 15.5374 0.502745 1.42886
  2845 15.5365 0.502189 -1.42940
  2846 18.3873 0.561740 -3.13686
  2847 18.3887 0.561199 3.13700
  2848 28.9854 -0.445197 -0.0556413
  2849 28.9835 -0.444098 0.0545756
  2850 15.7320 0.882647 0.236406
  2851 15.7314 0.882696 -0.236522
  2852 20.3373 -1.95621 -0.926750
  2853 20.3460 -1.94418 0.905969
  2854 17.9774 0.0275591 -0.428888
  2855 17.9787 0.0275604 0.428989
  2856 15.0454 1.34340 2.18772
  2857 15.0455 1.34340 -2.18719
  2858 20.3935 -2.91337 2.81103
  2859 20.1689 -3.00302 -2.72916
  2860 21.0063 -0.0147688 -0.00397574
  2861 21.0062 -0.0147912 0.00413101
  2862 16.2944 0.273303 -0.896390
  2863 16.2948 0.273349 0.896664
  2864 25.0242 -2.50445 -0.683887
  2865 25.0341 -2.50188 0.678597
  2866 14.8703 0.263366 -2.11484
  2867 14.8711 0.264639 2.11408
  2868 17.0758 0.0452150 -0.463622
  2869 17.0768 0.0452216 0.463754
  2870 8.13790 0.592055 -1.22974
  2871 8.14493 0.590121 1.22953
  2872 27.5342 -0.107745 3.24678
  2873 15.0849 1.08675 -0.321055
  2874 15.0857 1.08677 0.320888
  2875 16.9360 0.282647 -0.949584
  2876 16.9364 0.282977 0.949091
  2877 15.4605 0.896395 0.760554
  2878 15.4608 0.896247 -0.760321
  2879 16.8431 -4.12285 -3.15047
  2880 16.8814 -4.06954 3.04750
  2881 21.9149 -1.20857 1.12832
  2882 21.9034 -1.19639 -1.13789
  2883 11.6687 -0.930837 3.84379
  2884 11.6652 -0.928610 -3.84298
  2885 19.1485 0.618198 1.02396
  2886 20.2929 -0.290055 0.592166
  2887 20.2932 -0.289718 -0.591057
  2888 18.6148 -0.729242 1.11281
  2889 18.6156 -0.730568 -1.11346
  2890 7.19788 0.281763 -0.549868
  2891 7.19212 0.282316 0.553185
  2892 12.6726 1.45784 2.73925
  2893 12.6729 1.45829 -2.73802
  2894 19.3253 0.0483142 0.653536
  2895 19.3238 0.0483170 -0.653428
  2896 20.4683 1.04510 1.42877
  2897 26.8229 -0.218340 -1.99251
  2898 13.3722 0.488926 -3.68175
  2899 13.3737 0.487537 3.68284
  2900 16.2546 0.437697 -1.12646
  2901 16.2550 0.437761 1.12678
  2902 27.1859 -1.05925 -0.286079
  2903 27.1865 -1.05711 0.283743
  2904 20.0970 0.00463590 -1.51118
  2905 18.1717 0.152085 -0.794356
  2906 16.0464 0.00112452 0.0920073
  2907 16.0456 0.00112470 -0.0919748
  2908 29.8888 -1.11331 0.691170
  2909 29.8623 -1.10018 -0.652488
  2910 17.6710 0.255855 0.604678
  2911 17.6708 0.255670 -0.604968
  2912 16.2043 0.269786 -0.837894
  2913 16.2047 0.269836 0.838159
  2914 17.2103 0.253620 1.14292
  2915 17.2095 0.253600 -1.14264
  2916 21.0743 -2.32277 -0.833384
  2917 21.0444 -2.33277 0.851610
  2918 40.6057 2.93659 -1.05390
  2919 24.7020 0.644992 -2.50870
  2920 18.4062 0.0243839 -0.776338
  2921 41.0817 2.49392 -3.47801
  2922 21.3944 2.91282 -0.257468
  2923 34.8832 3.31033 0.208579
  2924 25.4029 -0.630943 2.74247
  2925 24.1697 -0.682866 1.03121
  2926 17.2951 0.0264753 -0.337560
  2927 15.6209 0.843652 1.18942
  2928 15.6209 0.843530 -1.18908
  2929 25.3492 -2.74385 -1.08773
  2930 25.5075 -2.69960 0.986953
  2931 39.7296 2.83688 8.27229
  2932 29.3862 2.82633 4.04576
  2933 15.8717 0.993622 -1.91113
  2934 15.8719 0.993664 1.91157
  2935 33.2815 4.12582 2.38389
  2936 23.4823 -0.255791 -2.44244
  2937 23.4841 -0.256494 2.44143
  2938 16.6229 0.0204189 -0.277220
  2939 16.6238 0.0204226 0.277305
  2940 18.8607 -0.0542171 0.528943
  2941 18.8609 -0.0546083 -0.529059
  2942 19.9429 -0.420151 -0.133993
  2943 19.9424 -0.419542 0.134558
  2944 17.2677 0.784573 2.81247
  2945 17.2668 0.784875 -2.81209
  2946 20.3304 -0.469595 1.15294
  2947 20.3298 -0.469938 -1.15146
  2948 19.3457 -0.537560 0.528040
  2949 19.3465 -0.538513 -0.527894
  2950 16.6589 0.0744591 0.237327
  2951 21.1433 2.40822 0.753420
  2952 29.3691 0.595096 3.13024
  2953 16.7063 0.0614381 -0.490235
  2954 16.7071 0.0614483 0.490386
  2955 19.8564 0.646989 -1.35438
  2956 16.8774 0.112405 0.697314
  2957 16.8766 0.112389 -0.697115
  2958 19.4354 -0.0651309 -0.384374
  2959 19.4352 -0.0648342 0.384408
  2960 14.8802 1.13097 -0.409410
  2961 14.8810 1.13104 0.409201
  2962 55.8239 1.71640 3.40110
  2963 21.8827 0.131406 1.56596
  2964 21.8811 0.131510 -1.56601
  2965 17.8027 0.0978762 -0.784945
  2966 17.8038 0.0978810 0.785125
  2967 20.1006 0.000742931 1.51403
  2968 17.0705 0.533314 1.72802
  2969 17.0698 0.533306 -1.72766
  2970 16.4851 0.558789 1.48268
  2971 16.4847 0.558741 -1.48232
  2972 17.8865 -0.595953 -1.46468
  2973 17.8865 -0.594753 1.46366
  2974 15.4488 0.907463 0.920799
  2975 15.4490 0.907321 -0.920527
  2976 25.4141 5.18677 0.0400890
  2977 9.04386 0.540930 -2.01201
  2978 9.04967 0.538954 2.00976
  2979 19.0494 0.134896 -1.15005
  2980 15.0013 1.25903 2.97242
  2981 15.0009 1.25944 -2.97169
  2982 18.0104 0.0929239 0.686660
  2983 18.0104 0.0925728 -0.686978
  2984 25.0497 2.24744 6.38793
  2985 17.6486 0.546531 2.05539
  2986 17.6477 0.546596 -2.05505
  2987 11.1182 -1.23130 -4.13817
  2988 26.0333 0.568329 2.85116
  2989 16.7179 -0.874675 2.51188
  2990 16.7159 -0.875770 -2.51336
  2991 19.8715 -0.127113 -0.689029
  2992 19.8700 -0.127109 0.690100
  2993 20.5444 0.333795 -1.62984
  2994 29.2245 0.636495 -3.05669
  2995 17.1196 0.774925 2.51404
  2996 17.1188 0.775091 -2.51363
  2997 41.2633 2.59780 2.34415
  2998 30.5142 5.31635 0.136542
  2999 3.26885 -6.18521 -0.658667
  3000 3.28212 -6.20516 0.656499
  3001 20.6780 -1.48775 -0.0289614
  3002 20.6797 -1.48821 0.0309536
  3003 17.5539 0.137412 -0.930747
  3004 17.5549 0.137418 0.930969
  3005 32.5871 2.21428 1.91241
  3006 10.9680 -0.180000 3.41662
  3007 10.9660 -0.177904 -3.41462
  3008 11.3716 1.81474 0.779409
  3009 11.3738 1.81420 -0.778990
  3010 19.4825 1.22125 -0.440504
  3011 23.5584 -0.00823388 -2.21175
  3012 23.5600 -0.00864550 2.21105
  3013 14.0586 1.39341 2.82019
  3014 14.0585 1.39378 -2.81929
  3015 22.9799 0.0540692 1.69980
  3016 35.6927 3.47741 -8.99355
  3017 19.2317 0.319657 -2.02085
  3018 19.2330 0.319538 2.02104
  3019 19.3293 0.401949 2.42848
  3020 19.3280 0.402182 -2.42834
  3021 18.6903 0.0898194 0.888617
  3022 18.6890 0.0898244 -0.888451
  3023 19.8846 -0.254017 0.221835
  3024 19.8849 -0.254478 -0.221470
  3025 14.9171 1.22229 -0.343316
  3026 14.9165 1.22240 0.343374
  3027 37.5635 2.11657 -3.11964
  3028 16.3002 0.0443214 0.382452
  3029 16.2995 0.0443133 -0.382325
  3030 20.5990 -0.0334768 -0.100197
  3031 20.5988 -0.0334038 0.100372
  3032 17.8078 0.0145465 0.177834
  3033 17.8065 0.0145438 -0.177788
  3034 11.0156 0.465817 2.61207
  3035 11.0130 0.466629 -2.61482
  3036 20.4719 -0.171260 -1.56606
  3037 20.4788 -0.171172 1.56643
  3038 21.4322 0.0396487 1.74223
  3039 21.5500 0.0251966 -0.327765
  3040 21.5519 0.0251937 0.327783
  3041 28.2160 -1.53092 -2.15116
  3042 28.2249 -1.53172 2.15739
  3043 16.0462 0.776374 1.57044
  3044 16.0459 0.776300 -1.57004
  3045 16.1578 -0.0827859 -1.91052
  3046 16.1588 -0.0817889 1.90973
  3047 18.2808 -0.0774834 0.758519
  3048 18.2809 -0.0780348 -0.758858
  3049 32.7062 5.42862 -0.566886
  3050 19.3588 -0.150966 -0.421622
  3051 19.3584 -0.150523 0.421688
  3052 17.5143 0.689743 2.37166
  3053 17.5135 0.689873 -2.37129
  3054 35.3906 2.50877 1.22530
  3055 9.93612 0.841916 -1.85029
  3056 9.94044 0.840695 1.84837
  3057 14.8394 1.06416 -0.653685
  3058 14.8403 1.06431 0.653385
  3059 21.2442 -2.12508 0.345319
  3060 21.2327 -2.12644 -0.351541
  3061 16.2803 0.128685 -0.618277
  3062 16.2809 0.128710 0.618478
  3063 10.0287 1.33153 1.78629
  3064 10.0308 1.33161 -1.78430
  3065 20.3577 -0.295240 0.414867
  3066 20.3579 -0.294876 -0.413884
  3067 25.4694 1.45983 0.583460
  3068 15.4006 -3.40882 5.04892
  3069 19.1100 -1.42155 -1.41527
  3070 19.1098 -1.41869 1.41647
  3071 19.5364 -3.18533 -3.19560
  3072 17.2962 0.131284 0.947149
  3073 17.2959 0.130861 -0.947663
  3074 20.3163 -0.930722 -0.217222
  3075 20.3172 -0.931350 0.218250
  3076 8.35487 -1.34766 -3.82503
  3077 8.35879 -1.34858 3.82247
  3078 23.3452 0.0171057 1.26812
  3079 16.8886 0.249844 0.0149323
  3080 14.6254 1.19776 -0.272319
  3081 14.6262 1.19780 0.272137
  3082 11.7367 -2.00429 -3.98660
  3083 11.7418 -2.00636 3.98610
  3084 18.7409 0.660210 -0.580378
  3085 20.3501 3.73518 -7.71857
  3086 18.4559 -3.73006 4.52678
  3087 31.2836 -0.0729695 -0.123335
  3088 31.2886 -0.0732823 0.123307
  3089 18.4020 0.0275165 0.769818
  3090 16.1218 0.740755 -0.394645
  3091 16.1224 0.740742 0.394459
  3092 22.3073 -0.114360 2.77866
  3093 22.3055 -0.113705 -2.77938
  3094 22.1918 0.134185 -2.08906
  3095 22.1934 0.133933 2.08881
  3096 22.4593 0.000479174 -0.365967
  3097 22.4613 0.000472289 0.365975
  3098 20.7483 -0.00363031 -0.0579246
  3099 20.7479 -0.00362343 0.0579347
  3100 2.01351 -13.2856 1.02601
  3101 2.04737 -13.2807 -1.08186
  3102 16.9916 -0.00185936 -0.163122
  3103 16.9927 -0.00186057 0.163171
  3104 20.6410 -0.964323 3.28902
  3105 20.6382 -0.963419 -3.28936
  3106 22.3672 0.126097 1.74183
  3107 20.3117 0.699741 1.50934
  3108 15.8489 0.513414 0.876519
  3109 15.8488 0.513314 -0.876231
  3110 33.2805 2.99315 -0.0861992
  3111 15.3498 1.00744 1.06450
  3112 15.3501 1.00730 -1.06420
  3113 5.98274 -1.98234 -1.83147
  3114 5.98334 -1.98617 1.83736
  3115 19.5949 -0.0135767 -0.328467
  3116 19.5947 -0.0133996 0.328475
  3117 18.3975 0.417874 2.03688
  3118 18.3965 0.417969 -2.03660
  3119 19.7547 0.340584 1.41416
  3120 16.6726 0.219562 -0.202590
  3121 20.5593 -0.0213004 -0.113301
  3122 20.5591 -0.0212399 0.113422
  3123 20.6379 -0.0818258 0.0203093
  3124 20.6380 -0.0817062 -0.0199017
  3125 18.3826 0.163408 1.13472
  3126 18.3814 0.163413 -1.13451
  3127 19.4888 -0.102991 0.802255
  3128 19.4904 -0.103781 -0.801459
  3129 17.3749 -0.354071 -1.50384
  3130 17.3754 -0.353153 1.50292
  3131 23.9853 -0.982176 -0.912295
  3132 19.1050 0.521331 -1.04040
  3133 23.9578 2.93315 -1.50456
  3134 11.5417 1.48531 -0.847709
  3135 11.5441 1.48478 0.846704
  3136 16.0853 0.242911 0.738919
  3137 16.0849 0.242861 -0.738670
  3138 16.9216 -1.91890 -3.43482
  3139 16.9320 -1.91528 3.41045
  3140 19.0734 0.150613 1.17576
  3141 16.1347 0.147218 -0.610232
  3142 16.1352 0.147250 0.610439
  3143 26.3865 0.660068 -2.89182
  3144 17.7961 0.505079 -3.43905
  3145 17.7976 0.504308 3.43919
  3146 29.7207 -0.205436 -0.309741
  3147 29.7185 -0.205245 0.308506
  3148 9.67326 0.669585 2.46819
  3149 9.67390 0.670657 -2.46544
  3150 4.95950 -1.66843 0.0256893
  3151 4.94823 -1.66775 -0.0184787
  3152 25.6723 -0.811668 0.882885
  3153 29.9216 -0.589950 -1.15141
  3154 18.9944 -3.35935 3.80131
  3155 13.2947 0.139370 -2.74997
  3156 13.2953 0.140267 2.74741
  3157 29.4985 -0.116756 -0.578141
  3158 29.4971 -0.116836 0.576883
  3159 21.5136 0.0372103 0.894479
  3160 21.5118 0.0372358 -0.894450
  3161 16.4033 0.00736175 -0.131749
  3162 16.4042 0.00736414 0.131794
  3163 19.1293 -0.173520 0.497971
  3164 19.1297 -0.174048 -0.497979
  3165 26.9242 -0.174507 1.99748
  3166 20.1617 -0.168414 0.135323
  3167 20.1620 -0.168714 -0.134951
  3168 24.3999 -2.14161 1.23563
  3169 20.1282 -0.499776 -0.0525207
  3170 20.1287 -0.500376 0.0533062
  3171 15.4791 0.818827 0.864358
  3172 15.4782 0.818625 -0.864709
  3173 15.5273 1.18575 2.35538
  3174 15.5271 1.18582 -2.35485
  3175 19.4740 0.140504 1.29850
  3176 19.4726 0.140538 -1.29834
  3177 20.5025 -3.67182 -3.59610
  3178 16.9366 0.308261 3.73699
  3179 16.9348 0.309301 -3.73680
  3180 22.5256 -0.597183 2.77903
  3181 22.5230 -0.596251 -2.77992
  3182 20.9485 -0.00159399 -0.0401996
  3183 20.9482 -0.00158384 0.0402536
  3184 17.2597 0.0472543 -0.446526
  3185 17.2608 0.0472619 0.446651
  3186 23.2060 4.19271 0.239543
  3187 19.7824 -3.69644 -2.81151
  3188 19.7831 -3.69026 2.83779
  3189 20.9468 0.0494259 1.69208
  3190 24.8517 -1.95025 1.15866
  3191 24.8454 -1.95062 -1.16150
  3192 23.1439 3.77900 0.843205
  3193 20.7248 -0.904895 0.922346
  3194 20.7241 -0.904608 -0.921482
  3195 15.6238 0.899459 0.217633
  3196 15.6243 0.899324 -0.217574
  3197 27.8868 -0.256823 1.67215
  3198 27.9060 -0.248442 -1.66750
  3199 22.6094 -0.976763 -1.28542
  3200 13.5097 1.73754 -0.951982
  3201 13.5087 1.73775 0.952157
  3202 20.9832 0.905225 -1.65879
  3203 18.3266 0.0755203 -0.770610
  3204 18.3279 0.0755190 0.770769
  3205 21.2707 0.637209 0.664763
  3206 27.1387 0.484581 -3.13521
  3207 18.9726 0.321758 1.81067
  3208 18.9714 0.321829 -1.81045
  3209 22.7753 3.44342 7.18049
  3210 19.6345 0.0502318 0.714848
  3211 19.6330 0.0502372 -0.714741
  3212 24.9204 4.43469 0.975401
  3213 19.8734 0.597314 1.38968
  3214 20.7845 1.49720 -1.30574
  3215 20.6205 -0.925370 -0.683465
  3216 20.6212 -0.925743 0.684443
  3217 14.7326 1.37644 1.24997
  3218 14.7330 1.37629 -1.24966
  3219 27.2592 1.19654 2.35418
  3220 22.4732 -0.862419 1.34428
  3221 15.5260 -4.09145 -3.38856
  3222 15.6494 -4.07578 3.31150
  3223 30.3434 -0.725919 -1.68564
  3224 28.2949 -0.675566 3.03482
  3225 28.2928 -0.696787 -3.04286
  3226 19.2943 -0.645101 0.601097
  3227 19.2952 -0.646182 -0.601001
  3228 6.89747 -0.381136 -1.23989
  3229 6.89386 -0.381784 1.24496
  3230 20.4495 -0.0293280 0.209764
  3231 20.4513 -0.0292770 -0.209268
  3232 16.0471 0.552735 -1.16710
  3233 16.0474 0.552817 1.16743
  3234 23.3754 -2.03021 0.102337
  3235 19.9502 -1.74020 1.01969
  3236 19.9514 -1.74080 -1.03114
  3237 15.4927 0.988103 0.221779
  3238 15.4932 0.987972 -0.221722
  3239 17.5589 -0.741368 -3.94431
  3240 17.5614 -0.742121 3.94418
  3241 20.3471 -0.00381231 -3.25625
  3242 20.3490 -0.00460208 3.25584
  3243 17.6170 0.240776 0.381595
  3244 20.3023 -0.290362 -0.107462
  3245 20.3024 -0.290743 0.108175
  3246 20.2622 0.0508517 0.798453
  3247 20.2605 0.0508669 -0.798363
  3248 25.1949 1.34440 1.40495
  3249 18.1664 -0.205974 0.918902
  3250 18.1666 -0.206707 -0.919381
  3251 10.0900 -3.60885 -3.48785
  3252 10.0985 -3.60761 3.48656
  3253 15.5862 0.792898 0.841635
  3254 15.5863 0.792758 -0.841370
  3255 19.8478 -0.211757 -1.14868
  3256 19.8470 -0.210277 1.14947
  3257 16.4963 0.288109 -0.988175
  3258 16.4969 0.288150 0.988457
  3259 21.5252 -1.17500 -3.00557
  3260 21.5285 -1.17602 3.00519
  3261 20.2949 -0.490420 0.310004
  3262 20.2946 -0.489920 -0.309061
  3263 18.5181 0.224047 1.34354
  3264 18.5169 0.224063 -1.34332
  3265 19.4895 -1.68674 1.38321
  3266 19.4828 -1.67921 -1.37971
  3267 20.3820 -0.214212 0.0856430
  3268 20.3819 -0.213921 -0.0850012
  3269 29.4125 0.924427 2.95166
  3270 21.7696 0.151417 1.79040
  3271 21.7681 0.151561 -1.79048
  3272 20.7644 -0.0379170 -0.0366295
  3273 20.7643 -0.0378447 0.0368606
  3274 27.6390 4.59834 -0.597632
  3275 23.0518 -2.85237 1.24240
  3276 20.5554 -0.0967913 -0.242305
  3277 20.5547 -0.0969380 0.242985
  3278 17.2393 -0.597797 -1.84044
  3279 17.2402 -0.596416 1.83951
  3280 23.6698 -1.04373 -3.58367
  3281 14.7555 1.38481 -1.66682
  3282 14.7552 1.38492 1.66723
  3283 3.57997 -9.79237 -0.515338
  3284 4.06680 -8.62331 1.23124
  3285 15.2291 -0.442330 -2.81117
  3286 15.2283 -0.439451 2.81072
  3287 30.3946 -0.686536 1.68895
  3288 16.2335 0.0180848 -0.216814
  3289 16.2343 0.0180900 0.216889
  3290 12.2110 1.49819 -0.746005
  3291 12.2129 1.49795 0.745133
  3292 3.29665 -4.67283 -0.228067
  3293 3.29785 -4.68280 0.245226
  3294 25.4362 0.00381049 -1.34529
  3295 25.4375 0.00365952 1.34478
  3296 20.2631 -2.51236 -1.80608
  3297 23.0181 -0.0731121 -1.63482
  3298 27.1037 1.90453 0.471784
  3299 15.7316 0.883974 -0.0999266
  3300 15.7312 0.884101 0.0999452
  3301 17.3463 -0.00192712 -0.123850
  3302 17.3475 -0.00193029 0.123887
  3303 20.0688 -0.00528673 -0.229983
  3304 20.0686 -0.00520195 0.230010
  3305 17.4771 0.345628 1.48369
  3306 17.4762 0.345628 -1.48338
  3307 20.3291 -1.21651 -0.0597563
  3308 20.3275 -1.21560 0.0609573
  3309 26.3556 1.17157 -0.646836
  3310 18.5967 -0.0741863 -0.631881
  3311 18.5965 -0.0736964 0.631673
  3312 17.4673 0.139951 0.533345
  3313 28.9811 -0.0874063 -0.716790
  3314 28.9804 -0.0875449 0.715726
  3315 11.0234 -1.48693 4.44952
  3316 11.0276 -1.47671 -4.46128
  3317 19.2087 1.00352 0.395700
  3318 20.6491 -0.510878 1.40554
  3319 20.6475 -0.511831 -1.40343
  3320 20.9825 -1.11561 0.866414
  3321 20.9825 -1.11560 -0.865456
  3322 27.6535 -2.05318 1.37049
  3323 27.6454 -2.04151 -1.37105
  3324 13.1722 -0.896429 3.03951
  3325 31.4569 0.244018 -2.35443
  3326 26.4821 2.35943 -1.07360
  3327 13.1025 1.22610 3.09925
  3328 13.1022 1.22681 -3.09801
  3329 32.8942 1.69057 2.13148
  3330 12.8461 1.84387 1.08578
  3331 12.8474 1.84359 -1.08550
  3332 16.2207 0.614534 -1.39248
  3333 16.2210 0.614604 1.39284
  3334 26.7133 -0.728955 -0.986933
  3335 26.7147 -0.728930 0.984778
  3336 15.4332 0.965390 -1.18901
  3337 15.4331 0.965520 1.18934
  3338 13.6637 0.805301 -1.74738
  3339 13.6646 0.806072 1.74624
  3340 15.6251 0.956185 1.48827
  3341 15.6251 0.956083 -1.48789
  3342 23.2380 -0.0306968 -1.27986
  3343 17.4258 0.444997 1.67742
  3344 17.4250 0.445004 -1.67708
  3345 19.4031 -0.345136 0.436962
  3346 19.4037 -0.345837 -0.436798
  3347 24.9942 0.00703809 -1.14240
  3348 37.5521 2.30569 -0.0127596
  3349 6.36325 -3.94622 -2.43349
  3350 6.36934 -3.94995 2.43296
  3351 11.1960 0.757192 -3.02610
  3352 11.1962 0.755949 3.02815
  3353 19.5538 0.264753 -3.29008
  3354 19.5556 0.264037 3.28988
  3355 27.9039 -0.701302 -0.320012
  3356 27.9035 -0.700153 0.318171
  3357 19.0056 0.369310 1.08422
  3358 20.5059 -1.62190 -0.302004
  3359 20.5017 -1.62023 0.304579
  3360 25.1552 1.41201 0.126399
  3361 11.2643 1.64795 1.76948
  3362 11.2660 1.64784 -1.76817
  3363 27.6168 -1.08262 0.123339
  3364 27.6160 -1.07928 -0.124996
  3365 20.6458 -2.76134 1.79745
  3366 25.1293 4.50801 -0.888102
  3367 14.4473 1.45078 0.706119
  3368 14.4480 1.45064 -0.705986
  3369 15.6443 0.999542 -1.68205
  3370 15.6444 0.999622 1.68246
  3371 16.4766 -1.27010 3.10324
  3372 16.4818 -1.28277 -3.10375
  3373 29.9835 -0.233819 -0.108330
  3374 29.9807 -0.233335 0.107406
  3375 22.5687 0.0165651 -2.50393
  3376 22.5703 0.0160820 2.50335
  3377 25.6081 -1.30363 -1.17024
  3378 25.6115 -1.30333 1.16764
  3379 20.2473 -0.0762012 -0.170218
  3380 20.2471 -0.0760372 0.170412
  3381 14.6741 1.02050 -3.41446
  3382 14.6750 1.01968 3.41528
  3383 24.1166 -0.944065 2.17730
  3384 24.1136 -0.943119 -2.17867
  3385 5.75019 -6.46245 -1.55305
  3386 5.74838 -6.45435 1.54716
  3387 16.0580 0.00935522 -0.170581
  3388 16.0588 0.00935498 0.170643
  3389 24.8010 1.59776 -1.59255
  3390 15.7073 0.664178 0.825508
  3391 15.7074 0.664050 -0.825238
  3392 15.9772 0.341066 -0.816997
  3393 15.9775 0.341137 0.817271
  3394 13.6662 0.820844 -3.52532
  3395 13.6673 0.819688 3.52642
  3396 20.5445 0.000544583 -0.117197
  3397 20.8427 -0.00155598 0.0454574
  3398 20.5441 0.000564316 0.117212
  3399 20.8431 -0.00156328 -0.0454395
  3400 21.9628 -2.26875 0.211755
  3401 21.9455 -2.27350 -0.192120
  3402 14.2839 0.621208 -1.84305
  3403 14.2848 0.622137 1.84216
  3404 15.0354 -2.62950 3.99112
  3405 15.0342 -2.63101 -3.99433
  3406 22.8469 0.0362761 1.41310
  3407 22.8453 0.0363724 -1.41324
  3408 16.3750 0.0204999 0.166508
  3409 20.1166 -1.32332 0.359925
  3410 20.1190 -1.32478 -0.359016
  3411 18.2975 0.346921 1.76427
  3412 18.2964 0.346970 -1.76399
  3413 20.3687 -0.270054 0.211033
  3414 20.3687 -0.269717 -0.210227
  3415 51.8848 2.09080 6.38191
  3416 16.5991 0.143576 -0.736419
  3417 16.5998 0.143599 0.736639
  3418 17.0502 0.649278 2.00036
  3419 17.0495 0.649302 -1.99997
  3420 5.73727 -1.39072 -0.990564
  3421 5.73289 -1.39258 0.997600
  3422 15.9559 0.652022 0.818903
  3423 15.9552 0.651846 -0.819265
  3424 9.09219 1.17527 -0.490145
  3425 9.09723 1.17377 0.490397
  3426 31.7958 0.710020 2.40327
  3427 21.7091 0.467960 -1.51560
  3428 19.7647 -0.409664 0.258370
  3429 19.7652 -0.410333 -0.257959
  3430 17.0950 -1.36485 2.80214
  3431 17.1040 -1.38818 -2.80177
  3432 16.0998 0.873316 1.82579
  3433 16.0995 0.873271 -1.82537
  3434 20.6270 0.197086 1.94949
  3435 20.6255 0.197234 -1.94946
  3436 28.3089 -0.891010 0.793323
  3437 28.3056 -0.886297 -0.792525
  3438 16.3328 0.528274 -0.876758
  3439 16.3334 0.528485 0.876351
  3440 14.0625 -0.311286 -3.10696
  3441 14.0632 -0.309623 3.10315
  3442 13.8725 0.234841 -2.46761
  3443 13.8729 0.236309 2.46589
  3444 40.0540 3.69367 -0.0227027
  3445 6.23668 -5.60259 3.52576
  3446 31.0471 -0.0514286 0.277741
  3447 31.0427 -0.0510547 -0.276869
  3448 34.9878 1.34302 0.615631
  3449 18.4066 -0.267669 0.839343
  3450 18.4069 -0.268444 -0.839730
  3451 16.4775 0.0445230 -0.403741
  3452 16.4783 0.0445306 0.403872
  3453 16.1273 0.306761 -0.861775
  3454 16.1276 0.306819 0.862051
  3455 7.13642 -0.187064 -1.69030
  3456 7.14578 -0.188677 1.68998
  3457 25.4377 -0.236053 1.84423
  3458 25.4364 -0.235569 -1.84545
  3459 12.0537 -0.529507 -3.72441
  3460 12.0529 -0.530698 3.72339
  3461 18.4734 0.271451 0.888805
  3462 14.7169 1.43221 2.42014
  3463 14.7170 1.43230 -2.41952
  3464 17.6914 0.0683213 0.577370
  3465 19.6029 -0.102765 -1.15915
  3466 19.6022 -0.101672 1.15947
  3467 22.2221 -0.161811 -1.70362
  3468 19.8367 0.00280322 0.250660
  3469 19.8350 0.00280381 -0.250618
  3470 15.3952 0.966905 0.705115
  3471 15.3955 0.966753 -0.704903
  3472 27.6970 -1.34012 0.926633
  3473 27.6931 -1.33330 -0.926819
  3474 17.7614 0.295925 -0.380611
  3475 15.0164 1.22550 1.14123
  3476 15.0168 1.22535 -1.14093
  3477 26.6372 -0.0219991 -1.07611
  3478 26.6381 -0.0221426 1.07552
  3479 13.3205 -0.181074 -3.95788
  3480 13.3229 -0.182690 3.95855
  3481 12.8275 -0.377125 3.45757
  3482 12.8263 -0.375564 -3.45990
  3483 18.5134 0.528774 2.56330
  3484 18.5122 0.529022 -2.56308
  3485 16.5881 0.171247 0.395407
  3486 20.3646 1.52383 1.01917
  3487 16.4850 0.637111 0.394537
  3488 16.4846 0.637130 -0.394728
  3489 16.1225 0.0463038 0.367608
  3490 16.1218 0.0462922 -0.367477
  3491 8.34996 -2.03138 3.13209
  3492 17.8194 0.0626232 -0.581917
  3493 17.8206 0.0626295 0.582056
  3494 15.1023 1.20986 -1.37419
  3495 15.1021 1.20999 1.37454
  3496 17.4975 0.232078 0.726872
  3497 17.4972 0.231810 -0.727244
  3498 18.2147 0.128064 0.576903
  3499 18.2147 0.127818 -0.577142
  3500 18.1485 -0.00171058 0.330541
  3501 18.1406 -0.00167888 -0.332328
  3502 23.6162 -1.82612 -0.251695
  3503 24.1327 -3.21315 -1.18302
  3504 24.2156 -3.23299 1.13596
  3505 19.9013 1.58281 0.281820
  3506 15.6640 0.755770 1.03375
  3507 15.6641 0.755647 -1.03344
  3508 8.77712 -1.58971 3.33837
  3509 8.77313 -1.58639 -3.33604
  3510 19.6244 0.688423 1.21748
  3511 18.1410 0.462712 1.96259
  3512 18.1400 0.462778 -1.96230
  3513 20.0477 -0.0339672 0.226659
  3514 20.0480 -0.0341026 -0.226563
  3515 12.5003 1.26866 -1.27598
  3516 12.5019 1.26868 1.27474
  3517 13.7289 1.69541 1.77603
  3518 13.7295 1.69529 -1.77551
  3519 17.3306 0.698701 -3.26870
  3520 17.3319 0.698061 3.26899
  3521 22.6955 -3.06957 -1.67674
  3522 15.5673 0.813974 0.909484
  3523 15.5674 0.813837 -0.909206
  3524 6.70341 -5.17203 -3.86444
  3525 16.7271 0.573474 1.62998
  3526 16.7266 0.573443 -1.62961
  3527 15.7186 0.672201 -0.927831
  3528 15.7186 0.672321 0.928122
  3529 46.7724 3.41081 -0.539294
  3530 14.7541 0.812009 3.58304
  3531 14.7529 0.813028 -3.58223
  3532 22.4305 3.19687 0.983230
  3533 31.4572 0.217464 2.39348
  3534 15.5786 -0.133686 -2.27135
  3535 15.5798 -0.132200 2.27077
  3536 17.9782 0.299805 -1.49762
  3537 17.9792 0.299791 1.49790
  3538 28.6482 -1.09988 2.69778
  3539 28.6436 -1.11724 -2.68990
  3540 19.3959 0.000535112 -0.364970
  3541 19.3957 0.000735448 0.364951
  3542 35.9942 1.66576 -0.233893
  3543 15.7447 0.832434 1.39578
  3544 15.7446 0.832334 -1.39541
  3545 17.0503 0.158730 0.869851
  3546 17.0495 0.158710 -0.869620
  3547 18.8855 -1.62734 -3.60248
  3548 18.8879 -1.62738 3.60308
  3549 19.7259 -0.0342400 -0.301629
  3550 19.7257 -0.0340480 0.301686
  3551 15.8879 0.818086 -0.377575
  3552 15.8885 0.818073 0.377400
  3553 19.3542 0.00291815 -0.285577
  3554 19.3500 0.00315323 0.286058
  3555 57.1972 1.35604 -1.31587
  3556 20.3081 -0.483941 -1.00984
  3557 20.3085 -0.483993 1.01114
  3558 20.4693 0.0839209 1.05088
  3559 17.1822 -0.0163687 1.23821
  3560 17.1818 -0.0169754 -1.23891
  3561 15.7520 0.733825 -1.15549
  3562 15.7520 0.733937 1.15582
  3563 17.4722 -3.74026 -3.39955
  3564 17.4562 -3.72164 3.40251
  3565 12.2277 1.68082 -0.165655
  3566 12.2295 1.68048 0.165213
  3567 16.2644 0.171342 -0.702830
  3568 16.2650 0.171375 0.703056
  3569 21.6222 0.00168905 -2.85289
  3570 21.6239 0.00106785 2.85233
  3571 18.0481 -2.89244 -3.83686
  3572 14.8740 1.28687 0.986167
  3573 14.8744 1.28672 -0.985922
  3574 28.6147 -0.261285 -0.780979
  3575 28.6141 -0.261339 0.779381
  3576 23.5299 2.07921 -1.71900
  3577 11.7819 -3.90698 5.16085
  3578 15.1611 1.27229 -1.80437
  3579 15.1610 1.27237 1.80481
  3580 18.5783 0.148996 0.941624
  3581 20.3181 -2.98736 2.42780
  3582 20.3698 1.19333 -1.33008
  3583 12.3920 0.147494 -2.96609
  3584 12.3933 0.147127 2.96314
  3585 20.5269 -0.0137858 -0.128477
  3586 20.5266 -0.0137412 0.128548
  3587 20.1598 1.55969 -0.797227
  3588 16.7247 0.276548 -1.05595
  3589 16.7253 0.276582 1.05624
  3590 22.5690 1.19578 -1.82640
  3591 19.9970 1.11908 -1.05830
  3592 19.0367 0.369724 -1.10731
  3593 15.0497 1.32728 2.07493
  3594 15.0498 1.32724 -2.07442
  3595 16.2594 0.677329 -0.505304
  3596 16.2600 0.677357 0.505064
  3597 22.4024 2.62846 -1.43562
  3598 16.1159 0.00544337 0.0775186
  3599 16.1151 0.00544395 -0.0774912
  3600 20.3291 -0.381339 -0.603663
  3601 20.3291 -0.381734 0.604774
  3602 12.9333 1.72648 -0.201695
  3603 12.9319 1.72671 0.201503
  3604 18.8986 0.529233 2.75906
  3605 18.8974 0.529580 -2.75892
  3606 11.8298 1.86721 -0.698539
  3607 11.8278 1.86772 0.698769
  3608 19.8301 -0.183853 -0.251087
  3609 19.8298 -0.183458 0.251361
  3610 19.2374 0.0428382 3.47300
  3611 19.2354 0.0437212 -3.47327
  3612 20.3603 -0.219423 0.443330
  3613 20.3608 -0.219130 -0.442337
  3614 24.1131 0.194066 1.47050
  3615 12.9712 1.53780 -0.562862
  3616 12.9726 1.53775 0.562238
  3617 19.9409 -0.141545 -0.229020
  3618 19.9406 -0.141231 0.229272
  3619 20.9193 -1.48621 -0.238182
  3620 20.9201 -1.48641 0.240148
  3621 16.8459 0.383937 0.835550
  3622 16.8454 0.383704 -0.835974
  3623 19.5929 -3.05272 -3.09625
  3624 19.5947 -3.04982 3.10265
  3625 22.1829 -0.361795 1.62255
  3626 17.0073 0.0150914 -0.313603
  3627 17.0083 0.0150940 0.313694
  3628 14.5776 0.934992 -1.11886
  3629 14.5785 0.935393 1.11836
  3630 21.4166 2.26882 -1.10930
  3631 33.2745 5.02522 -1.64010
  3632 21.3385 0.120644 1.61338
  3633 21.3369 0.120744 -1.61338
  3634 9.87400 -5.22344 2.57002
  3635 9.85009 -5.23479 -2.56887
  3636 20.2866 -0.0231743 -0.177977
  3637 20.2863 -0.0230886 0.178062
  3638 19.9440 0.182225 -1.55200
  3639 19.9454 0.182158 1.55214
  3640 17.5842 0.0320104 0.395116
  3641 17.5830 0.0320070 -0.395013
  3642 16.7860 0.0142558 -0.266846
  3643 16.7870 0.0142568 0.266929
  3644 16.2418 0.0335239 0.309218
  3645 16.2411 0.0335160 -0.309112
  3646 16.7745 0.140768 -0.504995
  3647 20.4145 0.0560227 -1.08283
  3648 28.8422 1.39359 -2.63727
  3649 12.3848 1.80960 1.65543
  3650 12.3860 1.80940 -1.65471
  3651 30.0629 2.28925 1.39654
  3652 13.8021 1.64975 2.05432
  3653 13.8027 1.64971 -2.05370
  3654 30.3249 2.95707 -3.45130
  3655 17.3907 0.134492 0.863783
  3656 17.3898 0.134482 -0.863568
  3657 17.2966 0.0667451 0.604391
  3658 17.2956 0.0667391 -0.604231
  3659 20.6260 -1.83294 -0.476344
  3660 20.6218 -1.83126 0.483406
  3661 15.8162 0.865538 0.129528
  3662 15.8157 0.865621 -0.129601
  3663 21.1997 -3.06264 -2.04646
  3664 28.9906 3.30291 8.30173
  3665 15.0806 0.789158 -1.17745
  3666 15.0816 0.789562 1.17699
  3667 9.38115 -2.28366 -3.56249
  3668 9.38682 -2.28651 3.56349
  3669 19.0384 -2.36570 -2.60494
  3670 15.3902 0.888241 -0.684303
  3671 15.3910 0.888377 0.684018
  3672 12.2598 -2.68565 -4.02718
  3673 12.2662 -2.68652 4.02472
  3674 15.6933 0.547371 1.20429
  3675 15.6925 0.546974 -1.20478
  3676 26.9198 -2.16051 -0.994626
  3677 26.8996 -2.08748 0.925204
  3678 20.0598 -0.216816 -1.37787
  3679 20.0583 -0.213512 1.37872
  3680 19.9582 -1.57210 -0.789273
  3681 19.9552 -1.56937 0.787698
  3682 17.6584 0.191432 1.13507
  3683 17.6574 0.191427 -1.13481
  3684 28.1046 5.24614 0.503153
  3685 20.2238 -1.50641 -0.476139
  3686 20.2198 -1.50402 0.477124
  3687 16.0904 0.226897 1.53418
  3688 16.0894 0.226260 -1.53482
  3689 26.1528 0.00847161 -0.944014
  3690 26.1541 0.00839148 0.943653
  3691 19.9223 -0.547185 0.149185
  3692 19.9229 -0.547928 -0.148581
  3693 20.4249 -0.602665 -0.884952
  3694 20.4255 -0.602993 0.886083
  3695 19.7838 1.53644 -0.276357
  3696 13.6844 1.32448 -0.776239
  3697 13.6855 1.32467 0.775689
  3698 15.5075 0.977018 -0.313390
  3699 15.5082 0.977005 0.313246
  3700 20.3291 -3.63607 3.63398
  3701 17.0204 -3.42684 4.73580
  3702 24.7832 0.00853660 0.391707
  3703 24.7814 0.00854727 -0.391772
  3704 23.5592 3.45974 -1.29705
  3705 26.6630 -0.128666 3.04455
  3706 26.0004 0.0207092 0.406475
  3707 25.9989 0.0207239 -0.406584
  3708 17.9351 -2.55131 -3.48677
  3709 17.7119 -0.721302 -1.70277
  3710 17.7125 -0.719925 1.70159
  3711 15.6757 0.912629 -0.00260671
  3712 15.6752 0.912733 0.00258551
  3713 25.6169 -0.0111880 -1.46069
  3714 25.6181 -0.0114041 1.46004
  3715 16.5587 -3.73243 5.12859
  3716 10.6500 1.20720 -1.40969
  3717 10.6534 1.20615 1.40818
  3718 13.0911 -0.591096 -4.02416
  3719 13.0940 -0.592904 4.02454
  3720 19.6917 -1.36619 -0.861435
  3721 19.6893 -1.36538 0.861042
  3722 18.8743 -0.395852 0.701372
  3723 18.8748 -0.396733 -0.701527
  3724 19.2844 -1.03141 -0.889723
  3725 19.2828 -1.02986 0.889519
  3726 11.1644 1.65831 -0.384923
  3727 11.1670 1.65755 0.384374
  3728 28.3446 -0.795806 0.400169
  3729 28.3424 -0.792610 -0.400542
  3730 20.0468 -0.148715 0.666984
  3731 20.0479 -0.148587 -0.665871
  3732 23.6608 0.832648 1.54619
  3733 14.4076 1.44140 2.61199
  3734 14.4077 1.44160 -2.61126
  3735 30.8448 -0.115877 -0.347088
  3736 30.8482 -0.116363 0.348417
  3737 16.3862 0.0146269 -0.241918
  3738 16.3871 0.0146303 0.242000
  3739 23.5639 0.0137090 -1.93612
  3740 23.5654 0.0134509 1.93567
  3741 40.1365 2.52983 -1.35126
  3742 15.2305 1.09143 -0.192170
  3743 15.2299 1.09154 0.192199
  3744 18.1685 0.151956 1.01426
  3745 18.1673 0.151953 -1.01405
  3746 16.1837 -3.36718 -4.98455
  3747 16.1773 -0.274775 -2.11544
  3748 16.1785 -0.273614 2.11455
  3749 26.4612 5.02370 -0.666385
  3750 20.8571 -0.0154766 0.0920861
  3751 20.8581 -0.0154483 -0.0918113
  3752 17.8324 -2.49285 3.46432
  3753 21.1349 1.74046 1.37804
  3754 15.2282 1.10868 0.333861
  3755 15.2287 1.10855 -0.333781
  3756 17.4202 0.105848 3.79157
  3757 17.4182 0.106888 -3.79151
  3758 16.3964 0.534929 0.779987
  3759 16.3958 0.534763 -0.780356
  3760 17.0601 0.431751 0.553566
  3761 17.0598 0.431668 -0.553839
  3762 19.8241 -2.12571 1.65557
  3763 19.7896 -2.10340 -1.64046
  3764 20.4009 0.510979 0.266891
  3765 15.0812 1.15842 0.444599
  3766 15.0818 1.15829 -0.444493
  3767 11.4443 -0.297979 -2.91486
  3768 15.0683 1.17790 -0.167674
  3769 15.0677 1.17800 0.167684
  3770 19.2354 -1.32531 1.17548
  3771 19.2371 -1.32677 -1.17609
  3772 17.0105 0.333120 1.27137
  3773 17.0098 0.333092 -1.27106
  3774 20.3784 -0.542613 -0.772575
  3775 20.3788 -0.543011 0.773700
  3776 19.7475 -0.310936 0.278401
  3777 19.7480 -0.311497 -0.278063
  3778 11.8384 -3.98961 -5.13101
  3779 24.5599 0.00748123 1.00367
  3780 24.5583 0.00753722 -1.00388
  3781 20.0726 0.319275 2.76155
  3782 20.0711 0.319673 -2.76163
  3783 19.1732 -0.837117 0.820022
  3784 19.1745 -0.838490 -0.820187
  3785 19.0098 -0.0120551 -0.273456
  3786 19.0050 -0.0113910 0.273529
  3787 33.6088 3.02379 -0.513210
  3788 15.8243 -1.71226 -3.77733
  3789 15.8551 -1.68331 3.74099
  3790 21.9680 0.0367894 -0.939123
  3791 21.9698 0.0367613 0.939127
  3792 17.5025 0.00812731 -0.137958
  3793 17.5038 0.00812747 0.137995
  3794 25.5971 -0.955259 -1.52456
  3795 25.5996 -0.955633 1.52248
  3796 15.7888 0.562627 -0.864179
  3797 15.7888 0.562738 0.864462
  3798 20.3634 -0.0408740 -0.158873
  3799 20.3632 -0.0407692 0.159020
  3800 14.5212 1.40094 0.478669
  3801 14.5219 1.40082 -0.478603
  3802 15.6922 0.831371 -1.29822
  3803 15.6922 0.831480 1.29857
  3804 14.9769 1.21939 -0.879939
  3805 14.9765 1.21953 0.880161
  3806 7.68194 -0.333045 2.05750
  3807 7.68286 -0.331266 -2.05309
  3808 19.9913 0.305177 -2.97470
  3809 19.9928 0.304648 2.97457
  3810 24.6744 -1.06484 0.355585
  3811 38.8208 1.90237 2.61967
  3812 17.9441 0.408075 1.76814
  3813 17.9432 0.408114 -1.76784
  3814 15.2714 0.286084 3.89819
  3815 15.2695 0.287342 -3.89771
  3816 13.9362 -3.71660 3.67423
  3817 13.9269 -3.72331 -3.68548
  3818 26.0984 -0.348282 -1.65630
  3819 26.0996 -0.348821 1.65478
  3820 18.7352 -0.171062 0.643887
  3821 18.7355 -0.171665 -0.644067
  3822 14.6832 1.46644 2.14503
  3823 14.6834 1.46642 -2.14448
  3824 18.7553 -2.09592 -3.66955
  3825 18.7573 -2.09493 3.67097
  3826 21.0786 0.595169 1.72310
  3827 19.6074 -0.136294 -0.346741
  3828 19.6071 -0.135924 0.346870
  3829 26.5230 0.220123 3.07459
  3830 21.6966 -0.948849 1.29080
  3831 21.6741 -0.952011 -1.27860
  3832 20.9782 1.24636 1.55454
  3833 16.4291 0.145520 -0.696801
  3834 16.4298 0.145546 0.697019
  3835 23.6100 0.230590 4.43717
  3836 16.8282 0.448111 0.659589
  3837 16.8278 0.447977 -0.659921
  3838 16.8604 0.638054 1.82608
  3839 16.8598 0.638048 -1.82570
  3840 20.4328 -0.0712630 0.327942
  3841 20.4341 -0.0711360 -0.327176
  3842 20.1904 1.18995 1.19452
  3843 23.1488 0.555681 2.01409
  3844 20.6122 -1.65607 4.87125
  3845 21.4875 0.448574 1.78388
  3846 18.5546 0.0630388 -0.527173
  3847 18.5545 0.0633092 0.526996
  3848 22.2742 -0.645160 -1.49968
  3849 24.1217 -2.09877 0.553154
  3850 16.2950 0.460262 1.18433
  3851 16.2946 0.460198 -1.18401
  3852 16.3750 0.309368 0.985517
  3853 16.3745 0.309321 -0.985226
  3854 16.0848 0.709077 0.610579
  3855 16.0841 0.709005 -0.610856
  3856 25.3281 -0.330519 -3.49655
  3857 15.4365 0.724300 -1.05759
  3858 15.4374 0.724614 1.05717
  3859 15.9399 0.735215 1.39237
  3860 15.9397 0.735129 -1.39200
  3861 15.2617 1.04505 0.581026
  3862 15.2622 1.04490 -0.580862
  3863 25.0162 -1.32255 -1.54593
  3864 25.0199 -1.32295 1.54388
  3865 51.8101 2.66322 -1.31392
  3866 20.4920 -0.154490 -0.112323
  3867 20.4919 -0.154710 0.112951
  3868 15.5899 0.855706 1.07956
  3869 15.5900 0.855575 -1.07924
  3870 17.1436 0.0754730 0.629492
  3871 17.1426 0.0754653 -0.629322
  3872 3.20110 -0.0671232 -5.93956e-05
  3873 3.29702 -0.252128 0.00751430
  3874 3.22234 -0.0840234 -0.149235
  3875 3.20263 -0.0578546 0.158541
  3876 3.13585 0.0356434 -0.0777632
  3877 3.12663 0.0392621 0.0745528
  3878 3.29113 -0.270765 -0.161330
  3879 3.11567 0.0320284 -0.00507151
  3880 3.28359 -0.234318 0.176884
  3881 3.35170 -0.427905 -0.000487750
  3882 3.33596 -0.370636 0.129302
  3883 3.24866 -0.141082 -0.0498470
  3884 3.24418 -0.135448 0.0545951
  3885 3.21863 -0.101905 -0.232189
  3886 3.13058 0.0736334 -0.147661
  3887 3.12896 0.0733099 0.146946
  3888 3.18993 -0.0410907 -0.0755230
  3889 3.33556 -0.402012 -0.132130
  3890 3.08469 0.0627053 0.0363635
  3891 3.09045 0.0625488 -0.0405825
  3892 3.21229 -0.0768700 0.234536
  3893 3.18485 -0.0379134 0.0759659
  3894 3.15572 -0.00307676 -0.0289439
  3895 3.15411 -0.00258755 0.0347145
  3896 3.16345 0.0224389 -0.207379
  3897 3.14803 0.0525172 0.209089
  3898 3.28607 -0.221776 -0.0878600
  3899 3.36423 -0.485865 0.0618456
  3900 3.27826 -0.209002 0.100146
  3901 3.37028 -0.490057 -0.0887149
  3902 3.32161 -0.314130 -0.0584194
  3903 3.32011 -0.351799 0.0465088
  3904 3.27066 -0.261338 -0.258045
  3905 3.30947 -0.296780 0.230008
  3906 3.09157 0.114306 0.105425
  3907 3.09123 0.113654 -0.111060
  3908 3.07896 0.0596230 -0.0139645
  3909 3.24350 -0.171365 0.268082
  3910 3.07428 0.0938477 0.0643377
  3911 3.07315 0.0610404 0.00603784
  3912 3.08423 0.0929282 -0.0684982
  3913 3.25550 -0.168561 -0.164116
  3914 3.24171 -0.144067 0.167254
  3915 3.26825 -0.177534 0.00871443
  3916 3.17265 -0.00446724 -0.126923
  3917 3.17192 -0.000960947 0.126504
  3918 3.24527 -0.140575 -0.109786
  3919 3.23322 -0.118081 0.00223142
  3920 3.22494 -0.124321 -0.280768
  3921 3.17659 -0.00871679 -0.268364
  3922 3.11801 0.0304281 0.0278470
  3923 3.21303 -0.0840514 -0.0440611
  3924 3.21185 -0.0814567 0.0459908
  3925 3.12287 0.113467 -0.192293
  3926 3.12950 0.0354948 -0.0491526
  3927 3.34376 -0.457084 0.165750
  3928 3.31998 -0.358680 -0.231417
  3929 3.15839 0.0428247 0.256650
  3930 3.21338 -0.0770372 0.0971193
  3931 3.30683 -0.308526 0.139548
  3932 3.11422 0.114642 0.181887
  3933 3.37587 -0.523477 0.00928678
  3934 3.26580 -0.202830 -0.200449
  3935 3.18529 -0.0380210 -0.0372778
  3936 3.34425 -0.396408 0.0657665
  3937 3.24528 -0.125007 0.111892
  3938 3.21558 -0.0830582 -0.0962905
  3939 3.17302 -0.0220677 -0.00260478
  3940 3.18511 -0.0498442 0.299978
  3941 3.18580 -0.0440731 0.0325501
  3942 3.33137 -0.365999 -0.0890736
  3943 3.09484 0.140615 -0.150574
  3944 3.15796 -0.00245584 -0.0647668
  3945 3.07410 0.102130 -0.0512828
  3946 3.14343 0.0398613 -0.119781
  3947 3.06356 0.0764941 0.0155274
  3948 3.13581 0.0415327 0.105968
  3949 3.06403 0.0806217 -0.0227027
  3950 3.09286 0.125492 0.140103
  3951 3.19832 -0.0399073 -0.211251
  3952 3.06924 0.0894246 0.0414491
  3953 3.14750 0.00456018 0.00497597
  3954 3.15282 0.00421373 0.0596045
  3955 3.35355 -0.454426 -0.147798
  3956 3.17086 0.000665545 -0.162137
  3957 3.24675 -0.151288 0.213622
  3958 3.29825 -0.254308 0.0645556
  3959 3.11415 0.0499630 0.0462505
  3960 3.18662 -0.0261084 0.192801
  3961 3.10847 0.0403794 -0.0209649
  3962 3.32283 -0.336445 -0.00544304
  3963 3.17338 0.00295161 0.163489
  3964 3.32095 -0.367493 0.238473
  3965 3.26827 -0.236668 0.271862
  3966 3.07091 0.127538 0.0841821
  3967 3.28369 -0.219235 -0.0364127
  3968 3.31847 -0.332401 -0.179114
  3969 3.07415 0.123000 -0.0840741
  3970 3.27883 -0.208269 0.0436853
  3971 3.06091 0.0649690 -0.00926564
  3972 3.36185 -0.502559 0.121294
  3973 3.19557 -0.0393695 -0.298119
  3974 3.12828 0.0935150 -0.237134
  3975 3.36990 -0.461076 0.0152843
  3976 3.12166 0.110332 0.243276
  3977 3.30343 -0.267136 -0.102821
  3978 3.29376 -0.248512 0.120894
  3979 3.31428 -0.331907 0.178254
  3980 3.33892 -0.435860 -0.209378
  3981 3.27519 -0.229004 0.228875
  3982 3.10352 0.0441893 0.0119112
  3983 3.10034 0.0848523 0.0822153
  3984 3.09029 0.0506131 -0.00500738
  3985 3.38143 -0.548883 0.0691676
  3986 3.10317 0.0806543 -0.0870710
  3987 3.10835 0.0585771 -0.0621621
  3988 3.13389 0.0200288 -0.0236871
  3989 3.24485 -0.188276 -0.304751
  3990 3.17058 -0.00642284 -0.0901622
  3991 3.30030 -0.263444 -0.0459631
  3992 3.34769 -0.428427 -0.0726584
  3993 3.38384 -0.551412 -0.0773483
  3994 3.06003 0.120676 -0.0623304
  3995 3.15105 0.0761820 -0.273589
  3996 3.31886 -0.318265 -0.119565
  3997 3.16510 0.00444599 0.0925089
  3998 3.16463 0.0311517 0.294302
  3999 3.22284 -0.103868 0.303193
  4000 3.13841 0.0222911 0.0451080
  4001 3.22947 -0.100897 -0.179367
  4002 3.28322 -0.299339 -0.279861
  4003 3.09092 0.130843 -0.179091
  4004 3.05351 0.130334 0.0639084
  4005 3.34921 -0.441143 0.112771
  4006 3.26355 -0.171997 -0.0748579
  4007 3.06736 0.0752443 0.0116143
  4008 3.12202 0.0777094 0.123329
  4009 3.05459 0.138887 -0.122536
  4010 3.30575 -0.306165 0.277489
  4011 3.12474 0.0875612 -0.130099
  4012 3.25936 -0.159471 0.0810628
  4013 3.06251 0.0669145 -0.0115518
  4014 3.14044 0.0651435 0.169011
  4015 3.32910 -0.347239 0.0946330
  4016 3.26600 -0.193549 0.155514
  4017 3.21289 -0.0875421 0.193159
  4018 3.06737 0.148702 0.101251
  4019 3.08898 0.0584759 -0.0289999
  4020 3.10251 0.141137 0.210195
  4021 3.14314 0.0625264 -0.178499
  4022 3.28007 -0.221251 -0.142762
  4023 3.31315 -0.298886 0.0295495
  4024 3.09558 0.163969 0.170171
  4025 3.19588 -0.0452869 0.128621
  4026 3.28547 -0.263237 -0.214961
  4027 3.04022 0.0855645 -0.0323367
  4028 3.32840 -0.390408 0.182331
  4029 3.09164 0.0707431 0.0517263
  4030 3.19428 -0.0531280 -0.238278
  4031 3.26224 -0.181383 -0.122655
  4032 3.08387 0.0631314 0.0215011
  4033 3.37402 -0.579241 -0.0292259
  4034 3.20194 -0.0517153 -0.133760
  4035 3.25212 -0.163812 0.128811
  4036 3.35388 -0.446528 -0.112473
  4037 3.09237 0.0733831 -0.0495262
  4038 3.04792 0.0898637 0.0266131
  4039 3.25007 -0.148507 -0.0140820
  4040 3.24726 -0.145898 0.0210679
  4041 3.33585 -0.378015 0.0110909
  4042 3.22762 -0.103382 -0.0638463
  4043 3.23403 -0.107680 0.146311
  4044 3.21607 -0.100806 0.262747
  4045 3.14579 0.0103469 -0.0484103
  4046 3.24325 -0.135787 -0.205021
  4047 3.23229 -0.114648 -0.0312387
  4048 3.23056 -0.112151 0.0349855
  4049 3.32580 -0.358124 -0.130840
  4050 3.15187 0.0325068 -0.147421
  4051 3.25862 -0.198312 -0.253387
  4052 3.14673 0.0306979 0.146645
  4053 3.22480 -0.0997628 0.0670546
  4054 3.22004 -0.0890351 -0.312571
  4055 3.21576 -0.0907759 0.0162140
  4056 3.21633 -0.0904840 -0.0139289
  4057 3.18939 -0.0161487 0.227529
  4058 3.10260 0.0666458 0.0645419
  4059 3.33702 -0.376463 -0.0376599
  4060 3.11669 0.0685116 0.0979434
  4061 3.13825 0.0168263 0.0240757
  4062 3.11629 0.0648856 -0.105845
  4063 3.09845 0.0460404 -0.0154256
  4064 3.31479 -0.289082 -0.0142950
  4065 3.27847 -0.214821 0.00119141
  4066 3.37823 -0.518002 -0.136116
  4067 3.06619 0.153888 -0.103552
  4068 3.31510 -0.299662 0.0825658
  4069 3.32351 -0.427347 0.220684
  4070 3.20107 -0.0636042 -0.0270356
  4071 3.10301 0.135473 -0.209114
  4072 3.17080 0.0200187 -0.242246
  4073 3.19582 -0.0522377 0.0527983
  4074 3.19581 -0.0417211 -0.100107
  4075 3.20153 -0.0678011 0.0741478
  4076 3.05986 0.143522 0.114562
  4077 3.22405 -0.103130 -0.117818
  4078 3.40110 -0.578943 0.0196008
  4079 3.36731 -0.474709 -0.0302714
  4080 3.23710 -0.141331 -0.241432
  4081 3.14326 0.103887 0.275081
  4082 3.20670 -0.0782928 -0.260697
  4083 3.18998 -0.0375068 0.100006
  4084 3.03157 0.0680746 0.00570563
  4085 3.19682 -0.0548738 -0.0535842
  4086 3.23838 -0.184601 0.312037
  4087 3.20523 -0.0725472 -0.0729361
  4088 3.11534 0.104648 -0.169847
  4089 3.18769 -0.0433130 -0.0138828
  4090 3.23653 -0.124383 -0.0850061
  4091 3.18451 -0.0363779 0.263812
  4092 3.21635 -0.0927932 -0.214153
  4093 3.30066 -0.297048 -0.229579
  4094 3.19979 -0.0654557 0.0265334
  4095 3.16852 0.0309593 -0.301019
  4096 3.35035 -0.483856 -0.182155
  4097 3.10370 0.0498348 0.0280457
  4098 3.04483 0.108065 0.0449729
  4099 3.32435 -0.388611 -0.262162
  4100 3.29899 -0.280699 0.192882
  4101 3.23556 -0.117846 0.0877658
  4102 3.24316 -0.127890 -0.140277
  4103 3.17805 -0.0275703 -0.0623362
  4104 3.22217 -0.0885021 0.121503
  4105 3.18477 -0.0441994 0.0107101
  4106 3.13311 0.0834078 -0.209658
  4107 3.17149 -0.0225898 -0.0225845
  4108 3.07543 0.0759697 -0.0420611
  4109 3.34463 -0.496998 0.174793
  4110 3.12833 0.108368 0.160281
  4111 3.12236 0.0226417 0.0124789
  4112 3.19456 -0.0499086 -0.175879
  4113 3.26680 -0.180536 -0.0289123
  4114 3.15557 -0.00758485 -0.0136785
  4115 3.11105 0.0502264 -0.0378558
  4116 3.17432 -0.0247877 0.0534513
  4117 3.26193 -0.249208 0.307057
  4118 3.07653 0.140442 0.183241
  4119 3.33722 -0.397524 -0.186544
  4120 3.16665 -0.0125304 -0.0448601
  4121 3.35656 -0.446421 0.0508485
  4122 3.17225 -0.0207914 0.0212049
  4123 3.37539 -0.532331 -0.0423992
  4124 3.06901 0.0761078 0.0304273
  4125 3.14720 0.0372503 0.125021
  4126 3.25955 -0.166220 0.0408622
  4127 3.01689 0.0790867 -0.00847681
  4128 3.39431 -0.601622 -0.00881800
  4129 3.08730 0.192231 0.185614
  4130 3.09794 0.189801 -0.169610
  4131 3.07399 0.190370 0.147484
  4132 3.05782 0.159333 0.112191
  4133 3.06841 0.168000 0.0962475
  4134 3.05044 0.144164 0.0753743
  4135 3.03751 0.129433 0.0462850
  4136 3.05155 0.107157 0.0331283
  4137 3.02425 0.0996752 0.0256947
  4138 3.04869 0.0811555 0.0145995
  4139 3.03415 0.0734832 0.0168874
  4140 3.05614 0.0647299 -0.0170826
  4141 3.06185 0.0818638 -0.0127039
  4142 3.03556 0.0878284 -0.0171913
  4143 3.04023 0.0998810 -0.0386664
  4144 3.07012 0.132206 -0.0548839
  4145 3.04718 0.127912 -0.0699884
  4146 3.06933 0.168396 -0.0948606
  4147 3.05330 0.157616 -0.120027
  4148 3.06911 0.183266 -0.143823
  4149 3.09021 0.167960 -0.191982
  4150 3.10735 0.165471 -0.228825
  4151 3.12031 0.125152 -0.259696
  4152 3.14718 0.0779289 -0.300036
  4153 3.16940 0.000793417 -0.313874
  4154 3.19193 -0.0665911 -0.318073
  4155 3.20527 -0.148210 -0.329035
  4156 3.24170 -0.254332 -0.323036
  4157 3.25937 -0.318227 -0.303291
  4158 3.30685 -0.346151 -0.287684
  4159 3.33654 -0.460007 -0.234415
  4160 3.37175 -0.514803 -0.176787
  4161 3.39706 -0.554752 -0.114344
  4162 3.37739 -0.578685 -0.0592130
  4163 3.42229 -0.578043 0.0573260
  4164 3.35883 -0.544938 0.125060
  4165 3.33742 -0.526219 0.170191
  4166 3.33233 -0.473719 0.226716
  4167 3.31487 -0.386748 0.266290
  4168 3.29215 -0.296135 0.310594
  4169 3.23466 -0.224923 0.334114
  4170 3.21562 -0.135778 0.329825
  4171 3.18843 -0.0755005 0.320788
  4172 3.15609 -0.00917700 0.317569
  4173 3.14792 0.0948969 0.296991
  4174 3.11448 0.131548 0.259846
  4175 3.10216 0.161889 0.229921
  4176 3.08434 0.163703 0.194172
</Section>

newXOutput 4

<Section columns = "stress_xx | stress_yy | stress_xy">
  1 22.4896 0.0300327 -0.0678770
  2 22.4898 0.0300440 0.0678907
  3 29.8902 -0.00861667 0.0167413
  4 29.8900 -0.00862954 -0.0167530
  5 73.9939 4.60281 0.872216
  6 93.5093 1.27147 0.119900
  7 23.8824 -0.00198535 -0.0779239
  8 23.8835 -0.00198246 0.0779521
  9 31.1420 -0.00200352 0.0585893
  10 31.1427 -0.00200752 -0.0585913
  11 3.28229 -22.8570 0.940501
  12 3.36808 -23.0238 -1.03598
  13 26.0104 0.360029 -0.0359243
  14 26.0103 0.360228 0.0359182
  15 30.2932 -0.0532926 0.0460669
  16 22.5117 0.0366159 -0.110924
  17 22.5121 0.0366198 0.110981
  18 30.2935 -0.0532988 -0.0461040
  19 24.9883 0.878627 -0.569842
  20 24.9889 0.878592 0.569565
  21 23.8386 0.0705674 0.0433099
  22 21.6351 0.288005 0.0111586
  23 24.0513 0.00726299 -0.0753331
  24 24.1920 0.0101842 -0.0827456
  25 24.4103 0.00995027 -0.119310
  26 24.5923 0.00766174 -0.104674
  27 24.7973 0.00892554 -0.122862
  28 25.0639 0.00270727 -0.133806
  29 25.2972 -0.00768179 -0.115975
  30 25.5656 -0.00109324 -0.109468
  31 25.8688 -0.00420239 -0.113893
  32 26.1336 0.00290446 -0.118085
  33 26.4805 0.0141980 -0.177397
  34 26.8296 0.0172737 -0.182623
  35 27.1927 0.0161380 -0.224580
  36 27.6780 0.00526610 -0.243276
  37 28.0245 -0.00815485 -0.237482
  38 28.5681 0.00130261 -0.236089
  39 28.9688 -0.00356113 -0.242667
  40 29.6171 -0.00397915 -0.237893
  41 30.0935 0.0153723 -0.295291
  42 30.6676 0.0278326 -0.344370
  43 31.3678 -0.0239435 -0.368247
  44 32.1470 -0.0282516 -0.343751
  45 32.7520 -0.0119754 -0.337049
  46 33.6243 -0.00619567 -0.340855
  47 34.2624 -0.00310657 -0.445025
  48 34.9485 0.0163872 -0.477150
  49 36.0260 -0.0551545 -0.430739
  50 37.0449 -0.0572469 -0.368085
  51 37.8605 -0.0447730 -0.393486
  52 38.9770 -0.0477196 -0.345245
  53 39.7890 -0.0287872 -0.464804
  54 40.8717 -0.0298183 -0.438517
  55 41.8193 -0.0244067 -0.513858
  56 42.5377 -0.0557047 -0.547135
  57 44.1144 -0.188725 -0.441530
  58 44.4290 -0.0386293 -0.401641
  59 45.5044 -0.00906788 -0.317516
  60 46.2467 -0.0610856 -0.357031
  61 46.8918 -0.0766041 -0.249250
  62 47.4631 -0.0820469 -0.191914
  63 47.7844 -0.0876027 -0.104890
  64 48.0012 -0.100864 -0.00363149
  65 48.0023 -0.127271 0.135157
  66 47.5074 -0.136599 0.255430
  67 47.3012 -0.133631 0.306156
  68 46.5120 -0.192767 0.436055
  69 45.1333 -0.144718 0.661813
  70 43.5996 -0.128493 0.867146
  71 42.0066 -0.0881123 1.00729
  72 39.7987 -0.0699062 1.14165
  73 37.7627 0.0110503 1.22538
  74 35.0479 0.0400066 1.21876
  75 33.1370 0.0908364 1.24050
  76 30.0961 0.173649 1.02302
  77 28.1152 0.251705 1.12690
  78 25.9957 0.162867 0.739486
  79 24.9028 0.261043 0.860799
  80 22.5506 0.338572 0.417827
  81 22.5028 0.294882 0.392705
  82 21.9167 0.255028 -0.234036
  83 22.4154 0.327161 -0.502983
  84 23.6682 0.447926 -0.523423
  85 26.3670 0.215004 -0.956217
  86 28.1147 0.227739 -1.26562
  87 30.0391 0.177336 -1.13490
  88 33.2069 0.0679335 -1.31539
  89 35.3721 -0.0303022 -1.36712
  90 37.6045 0.0192701 -1.07595
  91 39.8640 -0.0182841 -1.08020
  92 42.0170 -0.0828516 -0.975076
  93 43.6152 -0.121017 -0.853304
  94 45.1357 -0.142213 -0.656729
  95 46.5081 -0.192026 -0.433824
  96 47.2941 -0.133205 -0.305073
  97 47.4991 -0.136089 -0.254916
  98 47.9935 -0.126966 -0.135219
  99 47.9931 -0.100668 0.00318366
  100 47.7776 -0.0875016 0.104261
  101 47.4577 -0.0820039 0.191225
  102 46.8877 -0.0766080 0.248583
  103 46.2440 -0.0611162 0.356407
  104 45.5028 -0.00913256 0.317005
  105 44.4285 -0.0387022 0.401198
  106 44.1145 -0.188746 0.441172
  107 42.5386 -0.0557114 0.546792
  108 41.8208 -0.0244438 0.513622
  109 40.8736 -0.0298509 0.438346
  110 39.7913 -0.0288178 0.464685
  111 38.9795 -0.0477421 0.345150
  112 37.8632 -0.0447903 0.393423
  113 37.0478 -0.0572642 0.368024
  114 36.0289 -0.0551721 0.430691
  115 34.9514 0.0163725 0.477133
  116 34.2654 -0.00312990 0.445034
  117 33.6273 -0.00621001 0.340863
  118 32.7550 -0.0119850 0.337074
  119 32.1499 -0.0282714 0.343771
  120 31.3706 -0.0239550 0.368285
  121 30.6704 0.0278330 0.344421
  122 30.0962 0.0153638 0.295344
  123 29.6198 -0.00398740 0.237929
  124 28.9713 -0.00356630 0.242714
  125 28.5706 0.00129647 0.236130
  126 28.0268 -0.00816156 0.237536
  127 27.6803 0.00526198 0.243329
  128 27.1948 0.0161368 0.224639
  129 26.8316 0.0172743 0.182675
  130 26.4825 0.0141990 0.177445
  131 26.1354 0.00290077 0.118121
  132 25.8706 -0.00420713 0.113923
  133 25.5673 -0.00109700 0.109498
  134 25.2988 -0.00768659 0.116009
  135 25.0654 0.00270474 0.133846
  136 24.7987 0.00892561 0.122905
  137 24.5937 0.00766221 0.104712
  138 24.4116 0.00995311 0.119353
  139 24.1933 0.0101833 0.0827769
  140 24.0526 0.00726082 0.0753588
  141 23.1987 0.112483 0.102690
  142 24.1260 0.215707 0.0841518
  143 24.9519 0.339052 0.0733009
  144 27.0306 0.270689 -0.0117474
  145 28.0893 0.177640 -0.0117225
  146 29.1165 0.0635646 0.00767536
  147 31.3443 -0.0146179 -0.0432743
  148 31.4116 -0.0180469 -0.0682211
  149 31.5376 -0.0237645 -0.0340456
  150 31.6098 -0.0207501 -0.0599334
  151 31.6431 -0.0248186 -0.0227186
  152 31.7184 -0.0109420 -0.0105116
  153 31.6522 -0.0426502 -0.00492558
  154 31.5622 -0.0305397 0.0669855
  155 31.5129 -0.0374513 0.0939475
  156 31.3160 -0.0447003 0.105399
  157 30.9445 -0.0373886 0.173313
  158 30.5893 -0.0281129 0.206191
  159 30.0497 -0.0378179 0.265886
  160 29.4774 -0.0116972 0.361766
  161 28.7632 -0.00559782 0.281332
  162 28.1337 -0.000652199 0.304992
  163 27.2622 0.0177554 0.299433
  164 26.5804 0.0293815 0.366514
  165 25.7714 0.0404585 0.319437
  166 25.0966 0.0475803 0.292789
  167 24.4602 0.0750409 0.217172
  168 23.9583 0.0674667 0.136879
  169 23.9500 0.0420756 0.134764
  170 23.7692 0.132593 -0.135257
  171 23.9424 0.0965203 -0.150635
  172 24.5925 0.0773463 -0.253365
  173 25.1712 0.0814701 -0.396035
  174 25.6997 0.0283885 -0.329918
  175 26.5713 0.0293776 -0.362285
  176 27.2625 0.0202291 -0.301682
  177 28.1405 -0.00206415 -0.306954
  178 28.7707 -0.00615236 -0.281350
  179 29.4834 -0.0118707 -0.360983
  180 30.0546 -0.0377907 -0.265282
  181 30.5929 -0.0280848 -0.205666
  182 30.9472 -0.0373546 -0.172887
  183 31.3178 -0.0446706 -0.105031
  184 31.5142 -0.0374341 -0.0936825
  185 31.5630 -0.0305324 -0.0667436
  186 31.6525 -0.0426244 0.00513034
  187 31.7184 -0.0109147 0.0106505
  188 31.6429 -0.0247951 0.0228250
  189 31.6094 -0.0207276 0.0599978
  190 31.5371 -0.0237451 0.0340956
  191 31.4110 -0.0180308 0.0682399
  192 31.3437 -0.0146056 0.0432868
  193 29.1164 0.0635256 -0.00768977
  194 28.0893 0.177532 0.0117041
  195 27.0307 0.270524 0.0117323
  196 24.9520 0.338868 -0.0732856
  197 24.1260 0.215587 -0.0841284
  198 23.1986 0.112430 -0.102668
  199 22.2903 0.100151 -0.102588
  200 22.5938 0.0244325 -0.124340
  201 22.8603 0.0147671 -0.117459
  202 23.0864 0.0118497 -0.100745
  203 23.3580 0.00140611 -0.116048
  204 23.5260 -0.00105360 -0.0999324
  205 23.6688 -0.000656290 -0.0730221
  206 23.9458 0.00735567 -0.169333
  207 23.9725 0.0225431 -0.297189
  208 24.0511 0.0553597 -0.462998
  209 24.0881 0.0933210 -0.602683
  210 24.1065 0.142837 -0.750714
  211 24.0657 0.210989 -0.855083
  212 24.0662 0.280164 -0.976432
  213 24.0100 0.369417 -1.07090
  214 23.9428 0.459220 -1.14493
  215 23.8695 0.560810 -1.20272
  216 23.7789 0.664810 -1.22125
  217 23.7089 0.755134 -1.21874
  218 23.6216 0.871846 -1.20464
  219 23.5430 0.969611 -1.14194
  220 23.4757 1.05977 -1.06845
  221 23.4440 1.14359 -0.956996
  222 23.4249 1.19369 -0.821243
  223 23.4465 1.25856 -0.664665
  224 23.4902 1.27785 -0.486367
  225 23.6383 1.24913 -0.287872
  226 23.8145 1.22385 -0.104001
  227 24.0169 1.16511 0.0852042
  228 24.2899 1.09598 0.266757
  229 24.5861 0.974673 0.435221
  230 25.3799 0.722006 0.687501
  231 25.8162 0.602523 0.766078
  232 26.2338 0.485678 0.810725
  233 26.6921 0.380914 0.810901
  234 27.0857 0.268914 0.808674
  235 27.5418 0.190423 0.776847
  236 27.9424 0.119952 0.729589
  237 28.3252 0.0793172 0.676279
  238 28.7418 0.0465119 0.601516
  239 29.0957 0.0283320 0.524993
  240 29.4665 0.00120252 0.455721
  241 29.8336 0.0180405 0.378501
  242 30.1996 0.00588347 0.298759
  243 30.5480 0.00330688 0.214437
  244 30.8803 0.0105487 0.120464
  245 31.0342 -0.0124082 0.0452184
  246 30.8235 -0.0156238 0.0527424
  247 30.5545 -0.0293526 0.0801348
  248 29.9230 -0.0143869 0.0706291
  249 30.8809 0.0105376 -0.120462
  250 30.5485 0.00326544 -0.214430
  251 30.2000 0.00579788 -0.298749
  252 29.8340 0.0179089 -0.378499
  253 29.4668 0.00101013 -0.455744
  254 29.0959 0.0280998 -0.525052
  255 28.7420 0.0462263 -0.601619
  256 28.3254 0.0790022 -0.676453
  257 27.9425 0.119632 -0.729823
  258 27.5419 0.190110 -0.777144
  259 27.0856 0.268637 -0.809023
  260 26.6918 0.380692 -0.811276
  261 26.2334 0.485504 -0.811117
  262 25.8157 0.602415 -0.766454
  263 25.3794 0.721967 -0.687841
  264 24.5854 0.974753 -0.435436
  265 24.2891 1.09611 -0.266892
  266 24.0162 1.16528 -0.0852633
  267 23.8138 1.22404 0.104020
  268 23.6376 1.24934 0.287959
  269 23.4896 1.27807 0.486525
  270 23.4460 1.25879 0.664886
  271 23.4245 1.19392 0.821519
  272 23.4437 1.14381 0.957316
  273 23.4755 1.05998 1.06881
  274 23.5428 0.969806 1.14232
  275 23.6216 0.872023 1.20505
  276 23.7090 0.755290 1.21915
  277 23.7791 0.664947 1.22167
  278 23.8699 0.560928 1.20313
  279 23.9432 0.459314 1.14532
  280 24.0106 0.369496 1.07127
  281 24.0669 0.280222 0.976771
  282 24.0664 0.211037 0.855382
  283 24.1073 0.142869 0.750979
  284 24.0890 0.0933440 0.602898
  285 24.0521 0.0553748 0.463167
  286 23.9735 0.0225477 0.297298
  287 23.9469 0.00735642 0.169397
  288 23.6699 -0.000661607 0.0730487
  289 23.5270 -0.00106233 0.0999652
  290 23.3589 0.00140003 0.116090
  291 23.0871 0.0118473 0.100791
  292 22.8610 0.0147667 0.117509
  293 22.5943 0.0244295 0.124387
  294 22.2906 0.100158 0.102617
  295 29.9232 -0.0143822 -0.0706637
  296 30.5549 -0.0293642 -0.0801722
  297 30.8241 -0.0156311 -0.0527621
  298 31.0348 -0.0124159 -0.0452276
  299 4.47053 -20.5568 -0.493096
  300 5.56642 -14.8708 -0.786414
  301 9.17021 -6.40727 2.23958
  302 15.0606 -0.332281 5.42818
  303 26.1065 5.43730 10.7275
  304 37.4960 8.58268 14.8426
  305 50.1467 8.59681 15.3802
  306 63.0308 7.39635 13.5330
  307 71.2151 5.54118 7.75942
  308 69.3540 6.26178 -6.94700
  309 62.3792 7.09103 -14.0810
  310 49.9893 8.87767 -15.8742
  311 36.4253 8.48359 -14.2652
  312 25.2426 6.72775 -11.7821
  313 15.3467 0.921493 -6.05088
  314 10.0675 -5.66434 -3.01122
  315 5.78494 -15.6327 1.06745
  316 4.91490 -21.3993 0.521542
  317 3.48625 -25.0734 -3.59904
  318 3.38841 -20.7885 -4.16811
  319 4.12473 -15.9521 -3.99094
  320 6.98635 -9.03013 -1.19201
  321 11.4036 -3.40619 1.70493
  322 18.3158 1.74537 5.41618
  323 28.2567 3.75931 9.38714
  324 38.4382 6.44378 13.6209
  325 47.9178 6.34351 15.3470
  326 58.7906 6.17696 16.4716
  327 68.9882 5.34123 14.3940
  328 80.8391 3.46124 13.6586
  329 86.6350 2.70772 8.91949
  330 91.3200 1.25796 4.26925
  331 92.8840 1.54343 -5.08170
  332 87.2700 2.26429 -9.35207
  333 80.3364 3.78848 -12.3576
  334 71.6601 5.30396 -15.2136
  335 60.2445 5.98473 -15.8629
  336 50.1082 6.82854 -16.0406
  337 37.6340 6.02932 -13.0922
  338 27.3153 4.11748 -9.15236
  339 16.9067 1.85048 -5.21917
  340 11.4991 -3.47476 -1.48147
  341 7.08704 -8.99806 1.17579
  342 4.14305 -15.9451 3.96477
  343 3.38474 -20.8218 4.14200
  344 3.47964 -25.1981 3.54111
  345 23.7025 0.342813 -0.505256
  346 25.0783 0.575760 -0.0451922
  347 27.4774 0.293962 0.290613
  348 23.5367 0.122132 -0.546574
  349 24.1179 0.686646 -0.432964
  350 28.8054 0.129303 0.347818
  351 23.6994 0.443110 -0.790896
  352 26.0153 0.572379 0.309679
  353 24.7472 0.865067 0.0326489
  354 23.7722 0.795633 -0.731475
  355 23.6512 0.0431695 -0.384156
  356 27.7318 0.285636 0.498489
  357 23.7873 0.215323 -0.751445
  358 23.7705 0.368599 -0.907388
  359 23.8676 0.948877 -0.520079
  360 29.7288 0.0507073 0.290110
  361 26.5585 0.479302 0.532184
  362 24.3005 0.418413 -0.249249
  363 28.6872 0.126694 0.475402
  364 23.6871 0.748772 -0.939683
  365 25.4162 0.749149 0.372781
  366 23.2681 0.0937214 -0.365905
  367 28.6454 0.123465 0.166928
  368 26.0354 0.486409 0.114356
  369 27.2429 0.308962 0.645634
  370 24.0094 1.07389 -0.253987
  371 24.4825 0.999575 0.0665743
  372 23.4946 0.150889 -0.192102
  373 28.0896 0.186125 0.615330
  374 23.7391 0.584217 -1.03366
  375 23.6465 1.00734 -0.772844
  376 23.7705 0.0127516 -0.236582
  377 30.3772 0.0136442 0.198698
  378 23.3490 0.0440818 -0.360216
  379 23.5391 0.233558 -0.584402
  380 23.8578 0.0986051 -0.574958
  381 25.3363 0.380117 -0.0187438
  382 23.7903 0.520274 -0.625616
  383 26.8423 0.414276 0.379755
  384 29.6168 0.0441416 0.376350
  385 29.8193 0.0313591 0.216250
  386 23.8555 0.348568 -0.957224
  387 27.0975 0.303751 0.136052
  388 24.0810 0.532344 -0.415561
  389 26.0503 0.575418 0.613976
  390 24.9991 0.857405 0.327620
  391 23.1203 0.0521017 -0.309339
  392 25.3268 0.659624 0.0892482
  393 22.9257 0.0514737 -0.132987
  394 28.0995 0.225651 0.373685
  395 24.2892 0.874186 -0.271168
  396 24.6726 0.675439 -0.167433
  397 23.6546 0.325161 -0.742667
  398 23.8106 0.0508512 -0.426810
  399 23.6187 0.882209 -0.981462
  400 23.7343 1.10066 -0.539677
  401 28.8179 0.0800603 0.537372
  402 23.8934 0.215111 -0.815793
  403 29.1818 0.0940074 0.202814
  404 24.4851 0.316950 -0.103304
  405 24.3760 0.591074 -0.298444
  406 23.7367 0.570406 -0.792174
  407 23.5697 0.00781879 -0.187860
  408 26.8853 0.368977 0.699182
  409 23.7822 0.554311 -1.10935
  410 23.9282 0.612278 -0.551438
  411 24.0996 1.10104 -0.0702959
  412 30.0583 0.0232753 0.280119
  413 25.2799 0.790598 0.497580
  414 30.2010 0.0311289 0.171928
  415 27.7031 0.218190 0.664417
  416 23.6898 0.723107 -1.08449
  417 23.5908 0.107622 -0.518112
  418 23.8277 0.283838 -0.252061
  419 26.0170 0.595952 0.459805
  420 23.3765 0.0167294 -0.214789
  421 25.1085 0.806823 0.198446
  422 23.6741 0.253464 -0.727581
  423 28.3297 0.194724 0.456016
  424 24.9322 0.451282 -0.0920826
  425 27.1109 0.389169 0.517336
  426 28.0236 0.195422 0.256523
  427 26.4234 0.488009 0.267866
  428 23.4474 0.183536 -0.323613
  429 23.5673 1.11810 -0.693700
  430 23.9872 0.165995 -0.743933
  431 23.7267 1.14979 -0.399197
  432 26.1884 0.392130 0.0736284
  433 29.2542 0.0843546 0.408255
  434 23.5559 1.00621 -0.938865
  435 23.9047 0.783558 -0.581907
  436 28.4278 0.126690 0.602256
  437 29.2697 0.0447562 0.461479
  438 23.3611 0.119346 -0.450468
  439 23.9530 0.298108 -0.946559
  440 23.8482 0.456136 -1.05732
  441 22.8047 0.0134052 -0.194594
  442 25.7166 0.654561 0.627611
  443 26.4050 0.481330 0.697849
  444 23.7394 0.659750 -1.13430
  445 24.3260 0.960799 -0.142029
  446 27.2950 0.275673 0.716399
  447 23.6164 0.851244 -1.07326
  448 23.8391 1.16353 -0.226404
  449 23.6712 0.376105 -0.649686
  450 27.4246 0.334539 0.398803
  451 27.9109 0.204628 0.154900
  452 23.5210 1.09380 -0.838088
  453 24.5925 0.966706 0.253713
  454 28.1055 0.142908 0.657572
  455 29.3381 0.0611513 0.100916
  456 25.5400 0.538563 0.0609271
  457 26.4425 0.494311 0.433995
  458 23.9919 0.257707 -0.174975
  459 30.6545 0.00795298 0.160320
  460 25.5285 0.688941 0.256556
  461 24.2766 1.07274 0.110876
  462 23.7116 0.121343 -0.575098
  463 23.6743 0.854275 -0.847237
  464 23.7181 1.01029 -0.645096
  465 28.6871 0.141363 0.278193
  466 23.7367 0.464993 -0.911262
  467 23.7135 0.584121 -0.934762
  468 23.5361 0.217228 -0.472860
  469 29.4030 0.0702881 0.305511
  470 28.4396 0.148765 0.564702
  471 25.5163 0.476698 0.00327838
  472 26.7945 0.377681 0.209285
  473 28.1199 0.200665 0.549605
  474 23.8933 0.0333837 -0.372612
  475 24.0973 0.837474 -0.413272
  476 23.8833 1.05100 -0.405754
  477 22.8551 0.0640407 -0.106285
  478 24.8660 0.896411 0.412743
  479 29.1021 0.0771096 0.461127
  480 24.0085 0.110900 -0.638083
  481 23.6777 0.186496 -0.0721934
  482 23.3283 0.0888701 -0.424397
  483 23.8597 0.278784 -0.880992
  484 27.6648 0.261086 0.571143
  485 23.9613 0.0768776 -0.512467
  486 30.3079 0.0102760 0.262241
  487 25.7046 0.691801 0.519104
  488 29.7846 0.0234895 0.120777
  489 29.6170 0.0303923 0.414916
  490 23.7972 0.00310601 -0.133518
  491 23.1044 0.0163739 -0.230451
  492 27.4578 0.271170 0.230932
  493 28.6309 0.119214 0.0745134
  494 28.9019 0.125632 0.394480
  495 23.7971 0.312693 -0.864536
  496 23.8230 0.677957 -0.688194
  497 23.8491 0.159130 -0.694061
  498 23.9276 0.387513 -1.03594
  499 24.5458 0.818145 -0.145712
  500 24.9127 0.733224 -0.0209193
  501 23.7556 0.0232954 -0.313823
  502 25.7914 0.586136 0.180861
  503 23.7714 0.914499 -0.680123
  504 30.7702 -0.00558319 0.0887206
  505 23.7372 0.720496 -0.803088
  506 24.6908 0.515366 -0.180313
  507 23.8845 0.359552 -0.390864
  508 26.8559 0.418220 0.611770
  509 24.7813 0.905068 0.174614
  510 26.0317 0.559103 0.701324
  511 23.5269 0.0546585 -0.406922
  512 23.6632 0.164878 -0.627257
  513 29.9137 0.0295945 0.337458
  514 22.9620 0.0270730 -0.222533
  515 27.5253 0.240010 0.0844540
  516 23.6533 0.00381809 -0.115403
  517 23.7752 0.471356 -1.00955
  518 23.1151 0.0117769 -0.168534
  519 29.5576 0.0345832 0.0430208
  520 22.5042 0.0766457 -0.113812
  521 24.0786 0.965959 -0.328342
  522 23.5437 0.181620 -0.591688
  523 27.0048 0.388698 0.325458
  524 30.6200 -0.000846364 0.0799239
  525 30.9468 0.00943984 0.0798868
  526 23.5799 1.18365 -0.558002
  527 23.8771 0.468821 -0.499073
  528 30.0340 0.0179989 0.279061
  529 30.1995 0.00734810 0.0775639
  530 29.3032 0.0752915 0.238406
  531 25.1077 0.761568 0.111847
  532 29.8223 0.0482148 0.258827
  533 24.3545 0.762488 -0.288011
  534 23.5481 0.948467 -1.04703
  535 23.6448 0.353972 -0.706055
  536 26.6977 0.323697 0.0420523
  537 24.0023 0.232272 -0.869054
  538 27.9065 0.270043 0.429718
  539 26.4525 0.480115 0.609467
  540 22.8488 0.0144496 -0.158822
  541 23.7025 0.342933 0.505488
  542 25.0780 0.575975 0.0452186
  543 27.4773 0.294064 -0.290751
  544 23.5372 0.122169 0.546803
  545 24.1177 0.686855 0.433152
  546 28.8056 0.129306 -0.347965
  547 23.6996 0.443232 0.791215
  548 26.0149 0.572516 -0.309826
  549 24.7467 0.865272 -0.0326734
  550 23.7720 0.795836 0.731761
  551 23.6520 0.0431817 0.384309
  552 27.7317 0.285617 -0.498694
  553 23.7878 0.215377 0.751729
  554 23.7708 0.368691 0.907728
  555 23.8672 0.949104 0.520276
  556 29.7291 0.0506793 -0.290203
  557 26.5583 0.479310 -0.532430
  558 24.3004 0.418589 0.249375
  559 28.6873 0.126611 -0.475556
  560 23.6871 0.748948 0.940032
  561 25.4157 0.749258 -0.372966
  562 23.2684 0.0937603 0.366074
  563 28.6454 0.123527 -0.167021
  564 26.0351 0.486603 -0.114415
  565 27.2428 0.308841 -0.645905
  566 24.0088 1.07412 0.254079
  567 24.4819 0.999768 -0.0666146
  568 23.4947 0.150961 0.192213
  569 28.0896 0.185964 -0.615538
  570 23.7392 0.584352 1.03403
  571 23.6462 1.00756 0.773128
  572 23.7715 0.0127559 0.236670
  573 30.3777 0.0136260 -0.198744
  574 23.3496 0.0440978 0.360372
  575 23.5394 0.233637 0.584653
  576 23.8586 0.0986277 0.575176
  577 25.3361 0.380321 0.0187628
  578 23.7903 0.520432 0.625886
  579 26.8421 0.414361 -0.379931
  580 29.6171 0.0440618 -0.376429
  581 29.8196 0.0313550 -0.216345
  582 23.8559 0.348648 0.957574
  583 27.0974 0.303910 -0.136114
  584 24.0809 0.532525 0.415753
  585 26.0499 0.575392 -0.614271
  586 24.9986 0.857529 -0.327781
  587 23.1208 0.0521214 0.309478
  588 25.3264 0.659826 -0.0892892
  589 22.9260 0.0515002 0.133073
  590 28.0995 0.225692 -0.373847
  591 24.2888 0.874416 0.271277
  592 24.6722 0.675660 0.167510
  593 23.6549 0.325249 0.742970
  594 23.8115 0.0508622 0.426975
  595 23.6186 0.882403 0.981816
  596 23.7339 1.10089 0.539875
  597 28.8180 0.0798849 -0.537499
  598 23.8940 0.215161 0.816094
  599 29.1819 0.0940394 -0.202916
  600 24.4850 0.317115 0.103359
  601 24.3758 0.591285 0.298582
  602 23.7368 0.570560 0.792488
  603 23.5706 0.00781957 0.187933
  604 26.8851 0.368831 -0.699495
  605 23.7825 0.554436 1.10974
  606 23.9280 0.612466 0.551678
  607 24.0990 1.10124 0.0703051
  608 30.0587 0.0232279 -0.280168
  609 25.2793 0.790655 -0.497827
  610 30.2014 0.0311212 -0.171991
  611 27.7031 0.217988 -0.664667
  612 23.6899 0.723268 1.08488
  613 23.5915 0.107656 0.518321
  614 23.8278 0.283960 0.252213
  615 26.0167 0.596016 -0.460024
  616 23.3773 0.0167349 0.214876
  617 25.1080 0.806991 -0.198548
  618 23.6745 0.253528 0.727871
  619 28.3298 0.194702 -0.456194
  620 24.9321 0.451488 0.0921422
  621 27.1108 0.389168 -0.517561
  622 28.0236 0.195502 -0.256646
  623 26.4232 0.488159 -0.267993
  624 23.4475 0.183611 0.323783
  625 23.5669 1.11832 0.693943
  626 23.9880 0.166037 0.744201
  627 23.7261 1.15001 0.399334
  628 26.1882 0.392326 -0.0736578
  629 29.2544 0.0842937 -0.408379
  630 23.5556 1.00643 0.939195
  631 23.9044 0.783769 0.582142
  632 28.4279 0.126481 -0.602421
  633 29.2699 0.0446036 -0.461557
  634 23.3615 0.119388 0.450670
  635 23.9535 0.298176 0.946896
  636 23.8486 0.456237 1.05769
  637 22.8052 0.0134128 0.194685
  638 25.7161 0.654540 -0.627920
  639 26.4047 0.481219 -0.698182
  640 23.7396 0.659893 1.13470
  641 24.3255 0.961022 0.142078
  642 27.2949 0.275463 -0.716695
  643 23.6163 0.851428 1.07363
  644 23.8385 1.16374 0.226474
  645 23.6713 0.376222 0.649966
  646 27.4245 0.334591 -0.398983
  647 27.9109 0.204738 -0.154979
  648 23.5207 1.09403 0.838380
  649 24.5919 0.966846 -0.253844
  650 28.1055 0.142667 -0.657781
  651 29.3383 0.0611822 -0.100978
  652 25.5397 0.538768 -0.0609565
  653 26.4422 0.494384 -0.434192
  654 23.9919 0.257833 0.175081
  655 30.6551 0.00793491 -0.160336
  656 25.5281 0.689098 -0.256676
  657 24.2760 1.07292 -0.110946
  658 23.7123 0.121373 0.575324
  659 23.6742 0.854479 0.847553
  660 23.7177 1.01052 0.645334
  661 28.6872 0.141402 -0.278324
  662 23.7369 0.465109 0.911611
  663 23.7136 0.584267 0.935115
  664 23.5363 0.217310 0.473084
  665 29.4033 0.0702715 -0.305631
  666 28.4397 0.148628 -0.564876
  667 25.5161 0.476910 -0.00327710
  668 26.7944 0.377837 -0.209382
  669 28.1199 0.200582 -0.549802
  670 23.8942 0.0333912 0.372753
  671 24.0969 0.837698 0.413440
  672 23.8828 1.05123 0.405903
  673 22.8553 0.0640726 0.106330
  674 24.8654 0.896503 -0.412949
  675 29.1023 0.0769999 -0.461243
  676 24.0093 0.110926 0.638314
  677 23.6777 0.186590 0.0722524
  678 23.3289 0.0888973 0.424582
  679 23.8602 0.278852 0.881318
  680 27.6648 0.260998 -0.571370
  681 23.9622 0.0768964 0.512655
  682 30.3083 0.0102271 -0.262265
  683 25.7041 0.691848 -0.519356
  684 29.7848 0.0234993 -0.120844
  685 29.6173 0.0302638 -0.414960
  686 23.7982 0.00310947 0.133569
  687 23.1050 0.0163855 0.230552
  688 27.4577 0.271295 -0.231037
  689 28.6310 0.119287 -0.0745579
  690 28.9020 0.125600 -0.394627
  691 23.7975 0.312768 0.864862
  692 23.8229 0.678142 0.688478
  693 23.8498 0.159170 0.694322
  694 23.9280 0.387598 1.03630
  695 24.5454 0.818370 0.145771
  696 24.9123 0.733442 0.0209285
  697 23.7565 0.0233055 0.313942
  698 25.7911 0.586316 -0.180947
  699 23.7711 0.914718 0.680386
  700 30.7708 -0.00559128 -0.0887425
  701 23.7371 0.720679 0.803402
  702 24.6905 0.515575 0.180401
  703 23.8844 0.359693 0.391054
  704 26.8557 0.418164 -0.612043
  705 24.7807 0.905238 -0.174704
  706 26.0313 0.559018 -0.701665
  707 23.5276 0.0546726 0.407090
  708 23.6637 0.164920 0.627510
  709 29.9140 0.0295131 -0.337489
  710 22.9623 0.0270960 0.222643
  711 27.5252 0.240147 -0.0844905
  712 23.6543 0.00381726 0.115446
  713 23.7755 0.471467 1.00992
  714 23.1159 0.0117830 0.168605
  715 29.5578 0.0346056 -0.0430468
  716 22.5045 0.0766548 0.113856
  717 24.0781 0.966190 0.328470
  718 23.5441 0.181675 0.591930
  719 27.0046 0.388813 -0.325604
  720 30.6205 -0.000852639 -0.0799538
  721 30.9474 0.00943840 -0.0798972
  722 23.5794 1.18388 0.558194
  723 23.8770 0.468982 0.499301
  724 30.0344 0.0179621 -0.279134
  725 30.1999 0.00735004 -0.0776135
  726 29.3034 0.0753040 -0.238521
  727 25.1073 0.761767 -0.111902
  728 29.8226 0.0482050 -0.258927
  729 24.3542 0.762713 0.288137
  730 23.5479 0.948665 1.04740
  731 23.6450 0.354075 0.706347
  732 26.6976 0.323877 -0.0420763
  733 24.0030 0.232322 0.869363
  734 27.9065 0.270063 -0.429904
  735 26.4522 0.480069 -0.609754
  736 22.8494 0.0144526 0.158895
  737 18.5525 2.78708 1.22314
  738 18.5549 2.78652 -1.22285
  739 28.3149 -2.34488 2.57509
  740 28.3224 -2.35626 -2.57227
  741 23.9460 1.27039 2.53609
  742 23.9457 1.27029 -2.53548
  743 21.2775 0.157025 -5.85926
  744 21.2806 0.154840 5.86030
  745 32.8216 0.144901 2.65739
  746 32.8235 0.480722 -2.68471
  747 25.4472 1.24364 -4.02862
  748 25.4483 1.24329 4.02926
  749 31.8933 -3.84301 3.90879
  750 31.8833 -3.84137 -3.90429
  751 23.1609 0.992317 -1.83595
  752 23.1622 0.992950 1.83526
  753 29.6495 -0.732609 0.355917
  754 29.6505 -0.733708 -0.355182
  755 19.9558 -1.54012 5.96192
  756 19.9513 -1.53804 -5.96026
  757 21.9983 2.01988 1.03284
  758 21.9992 2.01968 -1.03262
  759 24.9072 0.378760 -1.45013
  760 24.9082 0.378813 1.45054
  761 29.9039 2.42823 -0.0759243
  762 30.8061 -1.17981 1.27788
  763 30.8050 -1.17922 -1.27640
  764 29.5222 0.433400 -4.74984
  765 29.5246 0.432442 4.74958
  766 26.6112 0.572340 2.52044
  767 26.6098 0.572374 -2.51996
  768 33.1716 -4.55879 -2.38787
  769 33.0439 -4.65938 2.54014
  770 42.0115 -3.07073 1.97698
  771 42.0081 -3.05369 -1.97983
  772 33.5734 -0.653713 -4.23601
  773 33.5767 -0.655015 4.23469
  774 26.8468 -0.304257 1.55192
  775 26.8469 -0.305376 -1.55281
  776 36.3105 6.72118 0.910314
  777 12.0797 1.19820 -0.225279
  778 12.0884 1.19622 0.227480
  779 47.0131 1.57903 -3.85928
  780 46.5924 1.52455 3.96792
  781 47.3956 4.07362 0.512570
  782 29.8145 0.451634 -3.31516
  783 29.8165 0.451350 3.31528
  784 23.2002 1.38374 -1.66917
  785 23.2000 1.38394 1.66964
  786 38.2086 2.08040 -1.78964
  787 26.0046 0.254499 1.50572
  788 26.0032 0.254483 -1.50536
  789 29.1041 0.695592 -1.82872
  790 29.1359 0.715851 1.86138
  791 21.9874 2.17201 2.99461
  792 21.9878 2.17193 -2.99385
  793 20.0573 2.15997 4.19774
  794 20.0575 2.16060 -4.19617
  795 31.9799 -2.79033 -0.146383
  796 31.9785 -2.79435 0.146307
  797 40.0814 -2.27921 -0.134122
  798 40.0831 -2.27308 0.129596
  799 19.5395 1.62328 -2.30152
  800 19.5413 1.62383 2.29962
  801 15.6334 -4.14122 -5.60638
  802 15.6442 -4.14377 5.60579
  803 38.9534 1.30560 1.07681
  804 22.9171 1.57758 -0.354385
  805 22.9181 1.57755 0.354203
  806 30.1624 -0.172230 -0.261422
  807 30.1620 -0.171869 0.261833
  808 30.4765 -0.490286 0.488283
  809 30.4764 -0.489690 -0.486913
  810 29.8031 -0.287436 1.91750
  811 29.8055 -0.290300 -1.91702
  812 30.1077 -1.71569 0.367144
  813 30.1103 -1.71741 -0.365848
  814 29.2975 0.285284 2.22175
  815 29.2955 0.285360 -2.22151
  816 39.8280 -0.930332 -1.93626
  817 39.8300 -0.930782 1.93326
  818 24.2812 -0.681017 -3.47323
  819 24.2837 -0.679002 3.47191
  820 24.7462 0.119594 -0.780305
  821 24.7473 0.119616 0.780552
  822 28.3986 -0.326193 0.874387
  823 28.3992 -0.327117 -0.874522
  824 24.0011 0.781721 1.62342
  825 24.0007 0.781596 -1.62293
  826 23.4931 -5.43674 -7.75638
  827 22.8909 -5.34876 7.82914
  828 32.8735 4.20585 -1.62219
  829 24.9014 0.634090 1.30989
  830 24.9006 0.633736 -1.31053
  831 35.1818 -0.0139695 -3.15733
  832 35.1840 -0.0144555 3.15649
  833 27.3611 -3.33946 -4.53560
  834 27.3126 -3.33679 4.53161
  835 20.4549 2.29193 -0.101093
  836 20.4565 2.29187 0.100730
  837 41.1929 -0.559302 -4.66387
  838 41.2036 -0.470855 4.64468
  839 11.0710 -3.70151 5.93482
  840 11.0735 -3.68932 -5.97274
  841 39.4903 2.16431 -2.44475
  842 30.9063 -5.39179 -3.63274
  843 30.9147 -5.34346 3.75634
  844 22.3707 1.92989 2.06926
  845 22.3712 1.92969 -2.06875
  846 24.4158 1.38616 3.27476
  847 24.4152 1.38621 -3.27408
  848 32.0947 3.37662 1.77016
  849 25.4118 0.113092 -0.897573
  850 25.4132 0.113109 0.897829
  851 33.1127 0.162153 2.79816
  852 33.1104 0.162417 -2.79839
  853 26.7288 -1.88295 -5.81751
  854 26.7322 -1.88322 5.81750
  855 56.8142 4.74114 -0.816119
  856 7.05554 -4.04155 -0.933746
  857 7.05043 -4.04613 0.948753
  858 27.5942 0.160125 1.36042
  859 27.5923 0.160124 -1.36015
  860 22.8933 1.56584 1.03754
  861 22.8938 1.56561 -1.03724
  862 27.4162 0.829104 -0.502321
  863 24.5028 1.30317 4.98051
  864 24.5012 1.30414 -4.97978
  865 42.2492 -1.27786 -2.90062
  866 42.2610 -1.28918 2.91133
  867 28.6220 -1.02455 1.11825
  868 28.6235 -1.02633 -1.11842
  869 31.9863 -1.31595 -1.95157
  870 31.9858 -1.31865 1.95502
  871 30.2294 -0.376213 1.05003
  872 30.2303 -0.375864 -1.04831
  873 37.4451 1.50634 3.00956
  874 15.7100 1.63212 3.63724
  875 15.7113 1.63308 -3.63388
  876 16.2832 2.18053 -1.30742
  877 16.2878 2.17921 1.30599
  878 36.1125 -3.08342 3.62576
  879 24.9144 0.695955 2.05127
  880 24.9136 0.695888 -2.05076
  881 43.0685 8.26665 -0.421243
  882 25.3396 -0.154002 2.24721
  883 25.3386 -0.155117 -2.24837
  884 47.0441 -0.370264 0.133575
  885 47.0297 -0.316939 -0.199867
  886 34.1673 -2.19631 -1.27690
  887 34.0756 -2.08596 1.37105
  888 57.6978 4.40167 0.470907
  889 27.6883 -0.125680 5.51918
  890 27.6852 -0.124212 -5.51945
  891 34.4222 -3.54790 -4.77910
  892 30.6616 -0.223604 0.0571739
  893 30.6616 -0.223275 -0.0563917
  894 39.5998 -0.380544 -2.36994
  895 39.6011 -0.381185 2.36797
  896 24.3918 0.312637 -1.17168
  897 24.3925 0.312694 1.17205
  898 20.7309 2.49175 -1.59501
  899 20.7296 2.49202 1.59534
  900 27.2018 0.677963 0.686662
  901 45.1051 7.69333 -0.133408
  902 26.8034 0.832228 3.23954
  903 26.8020 0.832371 -3.23905
  904 30.7159 0.0692819 -2.43707
  905 30.7549 0.0554478 2.43831
  906 27.0613 0.0366000 1.10765
  907 27.0614 0.0359396 -1.10817
  908 29.1725 -0.158598 -0.563717
  909 29.1721 -0.158079 0.563822
  910 34.9562 2.79779 2.63428
  911 22.1912 2.11773 3.80894
  912 22.1912 2.11797 -3.80795
  913 22.9813 1.56354 0.351719
  914 22.9821 1.56335 -0.351642
  915 16.7658 2.64430 1.80500
  916 16.7689 2.64368 -1.80370
  917 31.0853 1.68093 -2.24046
  918 27.5271 -1.17240 -1.97224
  919 27.5263 -1.17033 1.97095
  920 37.3856 0.527648 -4.01180
  921 34.2557 -1.99643 -3.77641
  922 34.2616 -1.99815 3.77530
  923 14.5093 -1.15506 -5.04770
  924 14.5133 -1.15912 5.05116
  925 37.8306 0.492962 4.19425
  926 31.1056 -3.76338 2.02449
  927 31.3215 -3.88443 -2.03985
  928 31.3282 0.149318 -1.92844
  929 31.3306 0.149238 1.92852
  930 28.3208 0.0853174 -1.55293
  931 28.3081 0.106821 1.55336
  932 23.1148 -5.71179 -5.46715
  933 23.1365 -5.71120 5.40900
  934 24.1188 0.952851 2.03938
  935 24.1184 0.952737 -2.03884
  936 30.4514 -1.14418 -0.461242
  937 30.4525 -1.14503 0.462747
  938 37.2964 -4.35169 -1.03883
  939 37.3217 -4.35023 1.02467
  940 24.0738 1.09352 0.769912
  941 24.0729 1.09347 -0.770267
  942 34.8241 1.48905 0.623718
  943 25.0821 0.903534 2.58772
  944 25.0812 0.903506 -2.58715
  945 27.6170 0.858962 4.48770
  946 27.6152 0.859626 -4.48743
  947 21.9481 1.77121 -0.671474
  948 21.9494 1.77134 0.671106
  949 64.1084 5.46635 -0.164004
  950 14.6644 0.452923 -3.97449
  951 14.6707 0.451753 3.96972
  952 28.7459 0.141786 1.47476
  953 28.7438 0.141804 -1.47453
  954 37.1264 -2.67367 -3.57185
  955 37.3611 -2.59412 3.18065
  956 23.6006 1.01719 1.48067
  957 23.6006 1.01702 -1.48022
  958 24.4461 0.0430913 -0.426540
  959 24.4472 0.0431016 0.426685
  960 38.5720 -0.100887 -2.33282
  961 38.5736 -0.101317 2.33157
  962 56.9755 2.74981 1.29750
  963 26.1340 0.0728577 0.741728
  964 26.1323 0.0728483 -0.741534
  965 26.9605 0.0780462 -0.906379
  966 26.9623 0.0780490 0.906588
  967 42.9946 -0.637235 -0.571957
  968 42.9928 -0.636364 0.569582
  969 34.6251 2.13314 -2.64889
  970 21.6399 -0.204799 -4.22991
  971 21.6394 -0.201484 4.22665
  972 55.6732 2.86921 -1.51465
  973 29.8293 1.93819 1.31114
  974 30.5897 -0.0396709 -0.235540
  975 30.5894 -0.0395469 0.235706
  976 23.3181 1.41350 2.05046
  977 23.3182 1.41333 -2.04992
  978 43.7278 -0.716569 0.899575
  979 43.7230 -0.712847 -0.897885
  980 30.3944 -2.57119 0.981158
  981 30.4066 -2.57987 -0.980148
  982 31.1255 -1.94866 -0.537308
  983 31.1267 -1.94908 0.539509
  984 32.6984 4.76597 0.189365
  985 20.7760 1.55001 5.05503
  986 20.7749 1.55139 -5.05343
  987 23.2931 1.68509 2.84043
  988 23.2930 1.68501 -2.83976
  989 26.9140 0.303837 -0.971143
  990 36.5411 -1.97268 -0.410146
  991 44.6966 4.65230 2.74174
  992 36.8510 5.76071 -1.84353
  993 23.2275 1.30083 1.26008
  994 23.2278 1.30062 -1.25969
  995 29.6041 -0.195132 -1.17232
  996 29.6022 -0.194789 1.17374
  997 22.2506 0.756347 -2.64382
  998 22.2519 0.757646 2.64283
  999 22.5548 1.78137 1.53346
  1000 22.5554 1.78115 -1.53307
  1001 29.5115 1.81065 -1.17244
  1002 20.0111 2.60633 2.69837
  1003 20.0123 2.60614 -2.69750
  1004 25.7557 0.498129 1.07071
  1005 25.7552 0.497816 -1.07126
  1006 26.4253 0.396237 -1.93527
  1007 26.4267 0.396245 1.93569
  1008 23.4578 1.21030 -1.08995
  1009 23.4590 1.21051 1.08949
  1010 25.6033 0.732990 5.38418
  1011 25.6009 0.734364 -5.38384
  1012 35.6271 0.0878130 2.08264
  1013 35.6247 0.0879843 -2.08302
  1014 31.1212 1.27779 2.42424
  1015 18.9555 2.46342 -0.512433
  1016 18.9579 2.46312 0.511637
  1017 41.2804 -0.607437 -3.30035
  1018 41.3093 -0.595672 3.29110
  1019 31.9463 -0.182324 4.61853
  1020 31.9434 -0.181163 -4.61944
  1021 24.0104 -3.54130 6.34942
  1022 23.9812 -3.54541 -6.39833
  1023 37.0733 -2.56615 2.20045
  1024 37.0659 -2.56608 -2.20399
  1025 29.0314 -1.78155 1.41377
  1026 29.0344 -1.78387 -1.41408
  1027 29.5493 -0.379015 -0.443210
  1028 29.5487 -0.378277 0.443624
  1029 24.0885 0.560961 1.38176
  1030 24.0880 0.560858 -1.38133
  1031 35.9947 -2.43631 0.407406
  1032 21.0747 1.68860 -1.51673
  1033 21.0762 1.68913 1.51587
  1034 20.6341 -1.92873 6.18801
  1035 20.6292 -1.92681 -6.18877
  1036 25.0626 0.0417181 -0.520626
  1037 25.0640 0.0417227 0.520783
  1038 27.0168 0.235749 1.08515
  1039 18.0189 1.03033 -3.41290
  1040 18.0216 1.03017 3.40937
  1041 30.1935 -0.555464 -0.0359623
  1042 30.1941 -0.556218 0.0369923
  1043 30.6108 -0.165521 0.521497
  1044 30.6120 -0.165239 -0.520293
  1045 22.2631 1.87983 0.230387
  1046 22.2641 1.87970 -0.230400
  1047 27.7244 -4.04576 7.27183
  1048 30.7444 -0.813138 -1.90556
  1049 30.7462 -0.812420 1.90804
  1050 13.5291 -6.42532 7.01012
  1051 13.4656 -6.19074 -7.13596
  1052 41.1535 2.00138 -3.94686
  1053 26.5335 -2.00949 -3.60741
  1054 26.5180 -2.01077 3.61720
  1055 30.9071 -0.0549638 -0.0906938
  1056 30.9070 -0.0548402 0.0910405
  1057 23.4371 1.39344 -0.141884
  1058 23.4379 1.39332 0.141795
  1059 24.3792 0.119953 0.739908
  1060 24.3783 0.119929 -0.739660
  1061 27.7250 0.785679 3.61521
  1062 27.7233 0.785956 -3.61483
  1063 26.5779 -1.34912 2.84866
  1064 26.5764 -1.35195 -2.85030
  1065 24.3666 0.559757 1.53647
  1066 24.3660 0.559669 -1.53602
  1067 42.2291 -1.47499 3.99734
  1068 42.2183 -1.48778 -3.99225
  1069 27.9231 -0.549927 1.21272
  1070 27.9239 -0.551236 -1.21320
  1071 25.3841 0.330857 1.48581
  1072 25.3829 0.330818 -1.48542
  1073 25.7918 -3.58749 -5.78816
  1074 25.7905 -3.58411 5.78846
  1075 27.8952 0.361023 2.25362
  1076 27.8935 0.361072 -2.25326
  1077 29.7825 -0.0836109 -0.414497
  1078 29.7821 -0.0833193 0.414636
  1079 45.2125 -0.520098 -3.94117
  1080 45.2538 -0.496363 3.94115
  1081 6.98545 -9.28690 -2.05789
  1082 6.99469 -9.28950 2.04695
  1083 42.5683 -0.307830 -1.29929
  1084 42.5677 -0.308099 1.29717
  1085 18.1131 -3.36005 7.35538
  1086 18.2395 -3.34917 -7.30394
  1087 33.2794 0.0770663 1.71762
  1088 33.2768 0.0771446 -1.71767
  1089 30.8904 -0.149637 0.236465
  1090 30.8910 -0.149419 -0.235608
  1091 5.00354 -8.59370 -2.59990
  1092 5.07694 -8.52768 2.69268
  1093 30.6367 0.0886707 -1.39681
  1094 30.6391 0.0886380 1.39694
  1095 24.2871 0.594242 1.79473
  1096 24.2860 0.593643 -1.79553
  1097 8.35449 -1.69200 -1.85461
  1098 8.37439 -1.69784 1.85620
  1099 12.3964 -7.68338 3.90942
  1100 12.3888 -7.69766 -3.90965
  1101 29.9412 -1.20513 0.211155
  1102 29.9428 -1.20647 -0.210035
  1103 21.4501 2.11187 0.229313
  1104 21.4513 2.11177 -0.229410
  1105 30.4807 0.433355 -3.71116
  1106 30.4828 0.432910 3.71111
  1107 40.6557 -2.67622 1.17490
  1108 40.6515 -2.66273 -1.17877
  1109 23.7062 -1.97334 -5.16581
  1110 23.6945 -1.96170 5.15718
  1111 31.4105 -5.21274 5.36453
  1112 32.4526 0.223874 -3.67611
  1113 32.4549 0.223340 3.67567
  1114 30.5144 -0.792192 -0.959346
  1115 30.5149 -0.792865 0.960980
  1116 28.7631 -0.625719 0.840889
  1117 28.7640 -0.626971 -0.840826
  1118 27.8399 0.00434294 0.859843
  1119 27.8401 0.00378777 -0.860126
  1120 37.7096 5.36844 1.96163
  1121 18.7216 -6.48055 -4.11658
  1122 18.7382 -6.34315 4.02589
  1123 23.4241 -4.44879 -7.50995
  1124 47.1687 3.53225 2.39055
  1125 31.1227 2.98522 -1.34207
  1126 29.3197 -5.28099 -5.46671
  1127 12.2160 0.540712 2.58975
  1128 12.2198 0.541798 -2.58426
  1129 23.9080 1.67108 3.81329
  1130 23.9074 1.67128 -3.81250
  1131 28.0912 1.20617 0.309556
  1132 28.6827 -0.0518676 -1.28185
  1133 28.6809 -0.0464225 1.28254
  1134 35.3202 -0.422723 2.14608
  1135 37.9343 0.0450514 -1.73397
  1136 37.9363 0.0448978 1.73342
  1137 47.6347 4.14498 -1.51107
  1138 29.6437 -4.68244 4.64289
  1139 23.6904 1.10987 -1.85880
  1140 23.6905 1.11003 1.85932
  1141 32.8594 -1.28824 -2.04062
  1142 32.9919 -1.21131 2.09903
  1143 24.6417 0.639502 1.82983
  1144 24.6410 0.639425 -1.82934
  1145 30.5762 0.845044 -1.04972
  1146 25.6725 0.125738 -1.64424
  1147 25.6731 0.126489 1.64333
  1148 46.6408 2.86205 -3.24705
  1149 24.7413 0.873696 -0.868067
  1150 24.7421 0.873794 0.867647
  1151 37.4077 0.0235611 3.68612
  1152 37.2557 -0.916977 -3.04240
  1153 37.2588 -0.918099 3.04018
  1154 33.2523 0.675714 -2.82381
  1155 37.2830 0.0545100 -3.65453
  1156 25.0695 0.187851 -1.07161
  1157 25.0706 0.187881 1.07192
  1158 30.1410 -0.470972 -1.58942
  1159 30.1407 -0.470109 1.59134
  1160 25.7730 0.347432 0.0467622
  1161 25.7242 0.990935 3.14579
  1162 25.7231 0.991010 -3.14521
  1163 35.4097 -0.335624 -2.13883
  1164 21.5875 2.19659 1.49994
  1165 21.5884 2.19636 -1.49961
  1166 28.9358 -3.13811 3.10696
  1167 29.1687 -3.27002 -3.05759
  1168 23.6943 1.66479 4.42742
  1169 23.6934 1.66535 -4.42655
  1170 23.8220 0.759551 1.41040
  1171 23.8218 0.759411 -1.40996
  1172 30.0879 -0.355487 0.186102
  1173 30.0883 -0.356080 -0.185423
  1174 19.8766 2.62583 0.960905
  1175 19.8783 2.62550 -0.960848
  1176 23.7076 0.230089 2.57847
  1177 23.7060 0.228902 -2.57947
  1178 28.4755 0.0671818 0.872939
  1179 28.4733 0.0671847 -0.872779
  1180 33.2383 -3.72060 0.708221
  1181 33.4277 -3.68267 -0.599436
  1182 25.6814 0.517142 1.99885
  1183 25.6802 0.517109 -1.99838
  1184 24.7236 0.0277304 0.411159
  1185 24.7223 0.0277268 -0.411027
  1186 43.7924 -0.542347 -1.63023
  1187 43.7963 -0.546492 1.63647
  1188 25.7159 0.0341279 -0.460049
  1189 25.7175 0.0341301 0.460180
  1190 29.9028 -0.900653 5.17587
  1191 29.8991 -0.899314 -5.17645
  1192 52.2874 8.52657 -0.254255
  1193 21.6336 2.26904 2.17874
  1194 21.6343 2.26882 -2.17821
  1195 29.5780 0.361321 2.76384
  1196 29.5759 0.361478 -2.76363
  1197 29.3910 0.239869 -2.06115
  1198 29.4309 0.233169 2.08395
  1199 72.4279 4.40213 2.14804
  1200 34.3257 4.60145 1.94604
  1201 14.8944 2.29529 0.109678
  1202 14.9000 2.29366 -0.109092
  1203 23.0709 1.46865 0.712852
  1204 23.0715 1.46843 -0.712643
  1205 70.5563 4.73437 -2.12881
  1206 28.5320 -0.0561073 -0.701759
  1207 28.5316 -0.0556178 0.701658
  1208 32.9677 -4.99185 -3.10750
  1209 33.0071 -4.99480 3.11895
  1210 23.1837 1.59577 -2.37682
  1211 23.1837 1.59592 2.37742
  1212 32.5120 0.486176 2.62562
  1213 30.7967 0.671125 1.64814
  1214 30.4390 -4.45898 -3.78432
  1215 20.8450 2.40303 -0.820426
  1216 20.8436 2.40325 0.820481
  1217 31.8289 -2.00002 1.13610
  1218 31.8294 -2.00025 -1.13305
  1219 24.1209 1.35004 2.90511
  1220 24.1205 1.35001 -2.90446
  1221 35.1050 -0.195429 3.66311
  1222 35.1026 -0.194560 -3.66438
  1223 36.5166 -3.55017 -1.85400
  1224 36.5294 -3.54930 1.84925
  1225 32.6958 2.26741 -2.52912
  1226 25.3284 1.22121 3.58847
  1227 25.3274 1.22140 -3.58784
  1228 34.5582 5.97192 -0.561437
  1229 32.8957 2.13825 2.60704
  1230 30.0092 0.0783921 -1.12179
  1231 30.0116 0.0783727 1.12194
  1232 38.8965 -4.28152 -0.517848
  1233 38.9427 -4.24112 0.463582
  1234 27.6624 0.0341752 -0.765550
  1235 27.6644 0.0341708 0.765713
  1236 26.4381 0.0765827 -1.34482
  1237 26.4383 0.0772882 1.34409
  1238 10.7002 -3.80119 4.28225
  1239 10.6936 -3.79451 -4.27812
  1240 18.7578 2.64058 2.98277
  1241 18.7593 2.64048 -2.98141
  1242 42.0013 0.285902 -4.88504
  1243 35.0714 0.0833075 1.50616
  1244 35.0689 0.0833863 -1.50632
  1245 31.0770 3.33933 0.878237
  1246 40.9177 8.36419 0.430475
  1247 24.7743 -0.699964 -6.00984
  1248 24.7778 -0.701518 6.00978
  1249 31.8758 -0.387361 -2.48683
  1250 31.8752 -0.428053 2.46946
  1251 26.0632 -2.31003 -5.11113
  1252 26.7903 -2.85598 5.14049
  1253 23.1841 1.34558 1.00472
  1254 23.1846 1.34535 -1.00441
  1255 22.4133 1.81120 0.789390
  1256 22.4142 1.81101 -0.789209
  1257 22.9603 1.50634 1.39214
  1258 22.9607 1.50612 -1.39175
  1259 41.5112 -0.129741 -1.49264
  1260 41.5117 -0.129976 1.49142
  1261 27.6984 -0.822251 1.54806
  1262 27.6993 -0.823940 -1.54891
  1263 55.2569 2.91750 5.70720
  1264 42.0451 0.251329 4.83948
  1265 28.6244 1.13401 1.20762
  1266 50.1055 1.34584 -1.66873
  1267 25.6416 0.198843 -0.382227
  1268 18.7349 1.16484 5.02467
  1269 18.7335 1.16669 -5.02245
  1270 45.0345 1.90501 6.84120
  1271 39.6447 2.40397 -0.700473
  1272 16.9937 2.68574 0.323932
  1273 16.9973 2.68471 -0.324001
  1274 26.7687 0.901249 -5.03576
  1275 26.7707 0.900217 5.03604
  1276 39.9135 2.48811 6.60901
  1277 18.4990 1.90533 4.35600
  1278 18.4991 1.90635 -4.35377
  1279 28.2189 0.551318 3.06102
  1280 28.2172 0.551485 -3.06068
  1281 56.0921 5.08874 0.679606
  1282 40.9599 2.53296 1.62234
  1283 51.1421 7.64019 2.29946
  1284 42.9847 0.654135 -5.53862
  1285 32.8537 -2.35831 -1.14296
  1286 32.8525 -2.34630 1.14919
  1287 44.2443 -1.81654 2.56800
  1288 44.2281 -1.85075 -2.54914
  1289 29.4234 -1.41407 -0.767691
  1290 29.4213 -1.41223 0.768283
  1291 24.7177 0.233155 1.10286
  1292 24.7168 0.233113 -1.10253
  1293 26.5457 -0.554011 1.97332
  1294 26.5455 -0.555412 -1.97459
  1295 29.7474 -2.89336 -5.01184
  1296 29.7519 -2.89357 5.01362
  1297 20.7598 2.49467 2.40613
  1298 20.7608 2.49445 -2.40548
  1299 37.8999 -1.76250 -0.758842
  1300 28.2945 0.933223 -1.23434
  1301 52.9330 3.02995 -6.74337
  1302 48.7321 6.22391 -4.18990
  1303 31.4220 0.790589 -2.58006
  1304 65.6415 4.18782 -4.50673
  1305 29.9115 -0.124170 -0.757103
  1306 29.9086 -0.124326 0.758493
  1307 30.2563 -0.844116 -0.214573
  1308 30.2571 -0.845005 0.215871
  1309 38.9148 -0.249063 -2.99383
  1310 24.4807 0.270804 5.75938
  1311 24.4778 0.272506 -5.75901
  1312 29.0116 -0.341900 -0.648674
  1313 29.0110 -0.341070 0.648832
  1314 45.1884 -0.326530 0.176805
  1315 45.1833 -0.325376 -0.177306
  1316 29.2378 -0.966931 0.678175
  1317 29.2392 -0.968443 -0.677715
  1318 24.2766 0.238807 -0.986810
  1319 24.2774 0.238856 0.987135
  1320 41.9287 1.48577 4.28208
  1321 39.9446 -1.53304 -1.18808
  1322 39.9470 -1.53181 1.18436
  1323 25.7881 1.19798 4.45570
  1324 25.7867 1.19856 -4.45514
  1325 29.8586 -5.59901 -6.24477
  1326 14.9539 -1.48680 5.85823
  1327 14.9513 -1.48481 -5.86652
  1328 40.2508 1.41913 -3.94774
  1329 31.2864 -1.39371 -1.61582
  1330 31.2875 -1.39418 1.61665
  1331 23.1461 1.82283 3.25166
  1332 23.1460 1.82284 -3.25091
  1333 31.1565 -3.13432 -1.09011
  1334 31.1495 -3.13585 1.06943
  1335 31.7399 0.269192 2.85380
  1336 31.7376 0.269420 -2.85385
  1337 3.59822 -11.9832 0.692330
  1338 3.63321 -12.0699 -0.678299
  1339 68.5026 4.50974 4.88805
  1340 39.7846 0.825692 0.103118
  1341 26.7661 0.0762696 -0.927453
  1342 40.9013 5.02735 -1.28620
  1343 24.1802 0.388316 -1.17752
  1344 24.1808 0.388392 1.17791
  1345 35.1283 -4.05492 2.01579
  1346 31.1034 -0.613952 -2.25273
  1347 31.1041 -0.611115 2.25310
  1348 44.3689 -0.283245 -0.739537
  1349 44.3663 -0.283221 0.737559
  1350 25.7756 0.180712 1.16770
  1351 25.7742 0.180695 -1.16740
  1352 22.0965 1.84894 4.65074
  1353 22.0958 1.84975 -4.64955
  1354 50.2376 3.15869 2.51290
  1355 34.1964 0.912833 -7.78064
  1356 31.1592 -0.0741996 0.0210534
  1357 31.1593 -0.0740877 -0.0206411
  1358 13.9437 1.92771 1.69459
  1359 13.9484 1.92717 -1.69163
  1360 30.5808 -1.60515 -0.308057
  1361 30.5823 -1.60600 0.309781
  1362 39.2774 -0.244749 3.15740
  1363 24.3781 0.966645 2.21997
  1364 24.3775 0.966549 -2.21941
  1365 25.7256 0.173361 0.501303
  1366 29.0819 0.235650 5.07567
  1367 29.0792 0.236858 -5.07601
  1368 17.9531 1.87232 -1.91902
  1369 17.9561 1.87209 1.91699
  1370 42.6511 -0.409360 2.23863
  1371 42.6691 -0.408165 -2.22904
  1372 26.6348 0.0384170 0.561771
  1373 26.6330 0.0384132 -0.561630
  1374 27.2836 0.340440 2.05611
  1375 27.2820 0.340461 -2.05573
  1376 11.8576 0.0398927 -3.20524
  1377 11.8710 0.0367601 3.20231
  1378 25.8651 0.657837 2.37401
  1379 25.8639 0.657826 -2.37350
  1380 31.1132 -0.0206421 -0.108607
  1381 31.1129 -0.0205860 0.108763
  1382 27.2855 -0.219425 1.26135
  1383 27.2858 -0.220398 -1.26196
  1384 7.57088 -9.78374 -4.26506
  1385 7.02927 -9.48857 4.25323
  1386 34.7153 -4.36812 -2.58547
  1387 22.7385 1.71350 -1.91809
  1388 22.7381 1.71370 1.91859
  1389 26.5604 0.310498 0.990424
  1390 26.5602 0.310120 -0.990910
  1391 30.5680 -0.327948 0.216183
  1392 30.5681 -0.327509 -0.215127
  1393 32.3584 0.145718 -4.13531
  1394 32.3609 0.144927 4.13464
  1395 49.2476 1.05818 2.25669
  1396 30.2246 0.695216 -2.29159
  1397 24.2286 0.782883 -1.78593
  1398 24.2291 0.782995 1.78643
  1399 24.9348 -0.502885 -2.87040
  1400 24.9361 -0.501152 2.86905
  1401 24.9935 0.534303 1.75579
  1402 24.9926 0.534238 -1.75533
  1403 42.8603 -0.142628 -1.26585
  1404 42.8598 -0.142829 1.26436
  1405 23.4578 1.07509 1.31773
  1406 23.4579 1.07489 -1.31731
  1407 42.2741 -1.46975 -1.75525
  1408 42.2817 -1.47833 1.75856
  1409 53.4382 3.33513 -1.82449
  1410 24.1769 0.0120282 0.237387
  1411 24.1757 0.0120270 -0.237305
  1412 26.5984 0.224820 1.49393
  1413 26.5968 0.224814 -1.49360
  1414 20.8023 2.33907 3.77657
  1415 20.8027 2.33933 -3.77535
  1416 22.2523 1.79188 0.316743
  1417 22.2511 1.79188 -0.316950
  1418 37.8071 7.45686 -0.707038
  1419 41.8214 -2.42552 2.70873
  1420 41.8064 -2.41417 -2.70619
  1421 24.0621 -1.29821 -4.28172
  1422 24.0644 -1.29042 4.28325
  1423 28.3595 0.689722 3.96652
  1424 28.3576 0.690169 -3.96627
  1425 13.8439 1.46923 1.86752
  1426 13.8361 1.47185 -1.86885
  1427 30.1505 0.656137 2.26657
  1428 53.9310 5.06627 -0.268577
  1429 19.9175 2.09589 -1.03027
  1430 19.9193 2.09607 1.02935
  1431 23.9316 1.21083 -0.396327
  1432 23.9325 1.21075 0.396136
  1433 42.0266 4.66392 0.542344
  1434 29.2758 -0.0535944 -0.518660
  1435 29.2755 -0.0532450 0.518697
  1436 22.7411 1.51873 -0.837497
  1437 22.7423 1.51887 0.837137
  1438 28.1307 0.347646 -1.54780
  1439 42.2378 -1.10324 0.0568527
  1440 42.2359 -1.10019 -0.0587957
  1441 17.4283 -4.63911 6.73234
  1442 26.8573 0.0780780 0.947367
  1443 33.8193 -0.576672 2.35879
  1444 26.7977 0.669044 2.83195
  1445 26.7963 0.669119 -2.83148
  1446 33.8378 -0.657952 -2.33340
  1447 30.4592 -0.485177 0.763985
  1448 30.4595 -0.484610 -0.762418
  1449 29.8418 -2.87662 1.97704
  1450 29.8090 -2.89796 -1.99333
  1451 29.8871 -4.07494 3.57816
  1452 22.5097 1.91259 2.45841
  1453 22.5100 1.91244 -2.45780
  1454 33.1883 0.0696207 0.995267
  1455 33.1855 0.0696417 -0.995256
  1456 23.3644 1.40644 0.184153
  1457 23.3651 1.40625 -0.184118
  1458 36.7137 1.30901 2.29630
  1459 25.1289 1.06485 2.92939
  1460 25.1281 1.06486 -2.92879
  1461 21.1511 0.641210 -3.24257
  1462 21.1521 0.643120 3.24075
  1463 30.4426 -0.725106 -1.31039
  1464 30.4431 -0.725536 1.31219
  1465 24.5975 0.382698 -1.35910
  1466 24.5983 0.382759 1.35950
  1467 39.6084 0.0268732 -1.48293
  1468 39.6100 0.0267220 1.48226
  1469 24.2048 0.982399 1.06920
  1470 24.2038 0.982221 -1.06968
  1471 29.6368 -0.205863 -0.434589
  1472 29.6364 -0.205365 0.434869
  1473 19.7978 2.68939 -1.53099
  1474 19.7961 2.68975 1.53132
  1475 30.9395 -0.00856598 -0.140860
  1476 30.9390 -0.00853103 0.140911
  1477 28.4844 1.28937 -0.563647
  1478 18.1078 2.45534 -3.22692
  1479 18.1063 2.45520 3.22868
  1480 28.3725 -1.30528 1.49779
  1481 28.3742 -1.30751 -1.49852
  1482 31.2129 -2.51860 0.115704
  1483 31.2146 -2.51881 -0.110808
  1484 21.5750 2.24856 3.33646
  1485 21.5753 2.24858 -3.33555
  1486 36.7807 -0.437570 3.21094
  1487 36.7783 -0.436586 -3.21272
  1488 30.3994 -0.118935 0.563306
  1489 30.4017 -0.118734 -0.562101
  1490 29.9905 1.33508 -1.93703
  1491 9.16044 -0.897499 -0.250506
  1492 9.14825 -0.895691 0.257461
  1493 23.7722 1.24088 2.23743
  1494 23.7720 1.24074 -2.23685
  1495 23.4525 1.33061 -0.528141
  1496 23.4535 1.33060 0.527898
  1497 39.7981 -0.616372 -2.10988
  1498 39.7997 -0.617042 2.10731
  1499 24.2869 0.0721144 0.570996
  1500 24.2859 0.0720984 -0.570800
  1501 30.2531 -0.240108 -2.21692
  1502 30.2499 -0.235144 2.22046
  1503 22.1806 1.46829 1.36307
  1504 22.1792 1.46789 -1.36366
  1505 27.3091 0.126244 0.924763
  1506 27.3091 0.125773 -0.925147
  1507 32.6696 -1.29965 4.53633
  1508 32.6654 -1.29813 -4.53732
  1509 36.6089 -1.72838 -2.87002
  1510 36.6142 -1.72962 2.86760
  1511 32.1864 -3.45610 0.636953
  1512 32.2154 -3.42477 -0.595771
  1513 28.2601 0.338092 1.60783
  1514 27.7180 -0.156421 1.03423
  1515 27.7183 -0.157244 -1.03462
  1516 36.3267 3.40166 -2.48879
  1517 26.1093 -0.799245 -2.45261
  1518 26.1103 -0.797607 2.45110
  1519 28.1297 -5.37087 6.12032
  1520 31.2573 3.55572 -0.472250
  1521 28.1514 -1.77226 -2.11372
  1522 28.1507 -1.76913 2.11280
  1523 34.6727 -3.76287 0.802831
  1524 18.4027 -0.423175 -5.70231
  1525 18.4067 -0.426059 5.70384
  1526 23.3191 1.24587 1.48379
  1527 23.3193 1.24567 -1.48335
  1528 30.1777 -0.0215299 -0.311029
  1529 30.1774 -0.0213882 0.311116
  1530 22.5661 1.74927 1.20053
  1531 22.5668 1.74905 -1.20022
  1532 40.2043 -3.69636 1.00672
  1533 40.1965 -3.67476 -1.01740
  1534 32.0362 0.0438907 -0.968912
  1535 32.0389 0.0438774 0.968968
  1536 34.0006 0.945398 2.69300
  1537 33.7955 0.191986 2.98109
  1538 28.3438 -5.13906 -4.68845
  1539 28.3350 -5.12568 4.70754
  1540 26.3848 0.141189 1.10516
  1541 26.3832 0.141176 -1.10489
  1542 24.7804 0.878002 2.35497
  1543 24.7797 0.877944 -2.35441
  1544 33.5341 0.221610 -2.95551
  1545 29.4431 1.97839 0.713865
  1546 42.7552 -2.59573 -0.327018
  1547 42.9162 -2.41470 0.517294
  1548 31.6532 0.456914 2.61992
  1549 27.7182 -0.00769810 -0.970621
  1550 27.7081 -0.00846325 0.959627
  1551 21.0430 2.00477 -0.821469
  1552 21.0445 2.00497 0.820904
  1553 30.9685 2.13057 1.93729
  1554 23.6588 1.01668 -1.60452
  1555 23.6589 1.01684 1.60500
  1556 29.2935 0.502454 -1.52553
  1557 25.3277 0.0192753 -0.394030
  1558 25.3293 0.0192755 0.394149
  1559 15.3508 -4.58960 7.42642
  1560 15.4298 -4.54712 -7.40949
  1561 28.0754 -4.43081 -5.11952
  1562 20.0491 -5.04064 -5.92921
  1563 20.0588 -5.03795 5.92127
  1564 30.4226 -0.161775 -0.158129
  1565 30.4224 -0.161464 0.158649
  1566 23.6085 1.19877 5.34346
  1567 23.6068 1.20007 -5.34259
  1568 34.5662 4.14661 -2.24158
  1569 10.0022 -1.47673 -2.78499
  1570 10.0003 -1.48028 2.79313
  1571 29.9688 1.31163 1.97081
  1572 28.9688 0.607029 4.49256
  1573 28.9666 0.607785 -4.49257
  1574 30.6199 -0.0733424 0.196287
  1575 30.6202 -0.0735037 -0.196013
  1576 26.2611 1.05770 3.76053
  1577 26.2598 1.05797 -3.75999
  1578 15.3293 -2.27587 -5.58937
  1579 15.3360 -2.27998 5.59113
  1580 43.5512 -1.08665 4.45497
  1581 43.5448 -1.10528 -4.44442
  1582 33.5125 0.636533 6.76130
  1583 22.8289 1.62522 0.00727573
  1584 22.8299 1.62511 -0.00733171
  1585 30.0753 1.14705 8.30891
  1586 33.3176 -2.93772 -3.78726
  1587 33.3256 -2.93974 3.78775
  1588 31.3929 -0.517881 -4.84974
  1589 31.3962 -0.519215 4.84884
  1590 29.4654 0.0446542 0.707490
  1591 29.4630 0.0446535 -0.707381
  1592 24.5420 0.982502 -0.665798
  1593 24.5428 0.982506 0.665476
  1594 15.6636 0.596603 -4.66645
  1595 15.6645 0.594133 4.66991
  1596 17.4584 -0.137769 4.88350
  1597 17.4567 -0.136570 -4.88773
  1598 16.3959 1.37959 -2.93578
  1599 16.4004 1.37830 2.93254
  1600 22.1139 2.00472 1.63969
  1601 22.1146 2.00450 -1.63929
  1602 29.0957 0.728295 -0.228311
  1603 22.8345 1.63322 0.708378
  1604 22.8352 1.63300 -0.708187
  1605 25.5304 0.625997 0.902554
  1606 25.5299 0.625821 -0.903009
  1607 25.5217 0.411511 1.69452
  1608 25.5205 0.411473 -1.69409
  1609 27.8016 -5.93680 -4.38483
  1610 27.9191 -5.90870 4.44420
  1611 30.5885 -2.12708 -0.252088
  1612 30.5849 -2.12548 0.254513
  1613 29.3388 -2.29172 -1.66842
  1614 29.3367 -2.29502 1.66522
  1615 30.6351 -1.33314 -0.657684
  1616 30.6362 -1.33387 0.659238
  1617 31.2299 0.399212 -6.47638
  1618 30.4480 -0.809759 -0.578329
  1619 30.4486 -0.810539 0.579828
  1620 31.8773 2.77710 -2.04211
  1621 28.7901 -0.0240911 1.66477
  1622 28.7896 -0.0244716 -1.66520
  1623 77.4900 4.49157 -0.335577
  1624 29.8506 -0.468046 0.260919
  1625 29.8513 -0.468816 -0.260234
  1626 31.0075 -0.0770623 0.254107
  1627 31.0087 -0.0769115 -0.253391
  1628 31.2410 -0.0501117 0.0688384
  1629 31.2414 -0.0500397 -0.0684063
  1630 25.6203 0.422116 1.26185
  1631 25.6197 0.421684 -1.26251
  1632 26.0542 0.0309146 0.432628
  1633 26.0524 0.0309110 -0.432510
  1634 15.9079 2.30615 2.69672
  1635 15.9107 2.30610 -2.69431
  1636 17.8985 2.73389 1.80331
  1637 17.9011 2.73338 -1.80244
  1638 32.2280 -4.30463 2.26846
  1639 34.4308 0.109507 -2.94607
  1640 34.4331 0.109148 2.94556
  1641 27.9798 0.592093 1.33806
  1642 29.3549 -0.553661 -0.523475
  1643 29.3541 -0.552651 0.523898
  1644 27.3373 0.0257545 -0.506549
  1645 27.3394 0.0257534 0.506663
  1646 39.4939 -3.09687 0.0398927
  1647 39.4970 -3.08750 -0.0469854
  1648 34.3071 -3.81206 -0.673701
  1649 28.1197 0.219165 1.64602
  1650 28.1178 0.219179 -1.64573
  1651 44.9007 -0.291193 0.923751
  1652 44.8959 -0.289144 -0.920615
  1653 20.0965 -0.388702 -4.80739
  1654 20.0977 -0.389623 4.80231
  1655 23.6620 0.884770 1.38606
  1656 23.6619 0.884605 -1.38562
  1657 54.6990 3.46459 0.903880
  1658 24.9742 0.0172368 0.267706
  1659 24.9728 0.0172332 -0.267619
  1660 28.8212 -0.0102915 0.795955
  1661 28.8255 -0.0118372 -0.794952
  1662 23.7492 -2.70011 6.03359
  1663 23.7465 -2.70104 -6.03511
  1664 14.7313 -4.77208 -5.86759
  1665 55.9352 7.09311 -3.34537
  1666 20.9514 1.35106 -2.20973
  1667 20.9528 1.35201 2.20850
  1668 28.6470 0.234602 1.92011
  1669 28.6450 0.234643 -1.91983
  1670 24.4822 0.233608 1.04574
  1671 24.4814 0.233565 -1.04541
  1672 36.8684 0.271226 -1.89940
  1673 24.0228 1.62822 4.09150
  1674 24.0220 1.62856 -4.09070
  1675 25.1742 0.130472 -0.883369
  1676 25.1755 0.130492 0.883626
  1677 24.4433 0.0155541 -0.247903
  1678 24.4445 0.0155608 0.247988
  1679 22.1589 -0.0800437 -3.72199
  1680 22.1594 -0.0771312 3.72057
  1681 42.1404 1.30582 -4.38271
  1682 41.3582 -0.0361630 -1.02668
  1683 41.3592 -0.0362596 1.02602
  1684 25.2614 0.241714 1.24295
  1685 25.2602 0.241683 -1.24260
  1686 26.0771 -2.62158 4.50636
  1687 26.0833 -2.66185 -4.52849
  1688 27.7971 0.532519 2.76855
  1689 27.7955 0.532618 -2.76816
  1690 23.6563 0.954383 1.48237
  1691 23.6551 0.953988 -1.48299
  1692 5.17951 -13.9226 1.31518
  1693 5.17525 -13.9117 -1.33481
  1694 33.6289 5.34526 0.801082
  1695 46.5862 -0.123854 -0.146055
  1696 46.5803 -0.123652 0.145100
  1697 37.9993 0.0254583 1.29850
  1698 37.9971 0.0255433 -1.29885
  1699 24.5642 0.0960288 0.687390
  1700 24.5631 0.0960101 -0.687164
  1701 36.7942 -0.0127945 -2.68029
  1702 36.7962 -0.0131918 2.67935
  1703 29.7675 -3.96288 -3.46423
  1704 24.2429 0.500519 -1.39438
  1705 24.2434 0.500607 1.39480
  1706 28.6536 -0.798608 0.988268
  1707 28.6548 -0.800105 -0.988346
  1708 62.6895 5.20836 0.240739
  1709 24.5856 1.05664 2.55514
  1710 24.5850 1.05658 -2.55455
  1711 27.1088 0.730383 0.00165236
  1712 22.0350 -2.46092 -6.13055
  1713 22.0556 -2.47384 6.12138
  1714 23.9377 0.598379 1.31811
  1715 23.9373 0.598262 -1.31768
  1716 30.6215 -0.294164 0.461275
  1717 30.6221 -0.293776 -0.460029
  1718 33.7782 0.562211 -2.69382
  1719 26.6249 1.06888 -4.20253
  1720 26.6264 1.06839 4.20300
  1721 17.5557 2.52713 -0.393044
  1722 17.5590 2.52635 0.392291
  1723 22.4636 2.06160 3.49791
  1724 22.4637 2.06168 -3.49704
  1725 21.6845 0.777983 5.60660
  1726 21.6821 0.779814 -5.60545
  1727 29.9066 -2.11481 -0.937685
  1728 29.9027 -2.11187 0.937617
  1729 31.1453 -1.67590 0.981305
  1730 31.1446 -1.67553 -0.979687
  1731 32.2619 -1.89500 -1.50683
  1732 32.2649 -1.89548 1.50578
  1733 28.9391 0.575442 3.31620
  1734 28.9372 0.575695 -3.31595
  1735 32.3413 -4.20846 -1.99571
  1736 25.6933 0.883235 2.78213
  1737 25.6923 0.883249 -2.78157
  1738 19.8126 1.01287 -3.16067
  1739 19.8139 1.01394 3.15806
  1740 29.8730 -1.99537 -5.06014
  1741 29.8775 -1.99634 5.06034
  1742 23.2702 1.42251 0.499761
  1743 23.2708 1.42229 -0.499611
  1744 30.6979 0.195085 1.93409
  1745 30.6956 0.195157 -1.93395
  1746 60.6410 4.50943 -10.8545
  1747 24.1539 0.632218 -1.52115
  1748 24.1544 0.632324 1.52161
  1749 31.1759 0.240108 2.44468
  1750 31.1736 0.240243 -2.44461
  1751 36.2675 0.0494795 1.34456
  1752 36.2650 0.0495406 -1.34477
  1753 22.3362 1.02368 -2.15701
  1754 22.3377 1.02456 2.15618
  1755 23.3334 0.190062 -2.94363
  1756 23.3351 0.191616 2.94265
  1757 29.3215 -0.177619 1.53733
  1758 29.3228 -0.179623 -1.53626
  1759 26.0866 -1.50603 3.35576
  1760 26.0877 -1.50925 -3.35793
  1761 22.6360 -4.25994 7.28501
  1762 22.4127 -4.16051 -7.24533
  1763 30.5522 2.22209 -1.66023
  1764 25.7615 0.0824967 -0.804065
  1765 25.7630 0.0825073 0.804284
  1766 25.3466 0.177091 0.283284
  1767 22.7016 1.38024 1.25059
  1768 22.7003 1.37994 -1.25110
  1769 34.6992 -5.13167 -2.35670
  1770 34.7591 -5.15404 2.35116
  1771 39.4344 -0.204887 -2.21958
  1772 39.4357 -0.205359 2.21805
  1773 28.5827 -0.153322 0.743056
  1774 28.5832 -0.153966 -0.743124
  1775 25.9141 0.0994182 -0.619840
  1776 27.1531 -1.97058 3.04946
  1777 27.1471 -1.97709 -3.05453
  1778 41.7440 3.04195 0.517226
  1779 30.2552 -1.48135 -0.0204862
  1780 30.2534 -1.48010 0.0219368
  1781 25.4779 0.695771 -2.34946
  1782 25.4789 0.695797 2.34998
  1783 23.9369 0.554856 2.06825
  1784 23.9356 0.554098 -2.06911
  1785 22.8130 1.63674 1.71035
  1786 22.8133 1.63653 -1.70989
  1787 21.2900 2.24567 0.698071
  1788 21.2913 2.24549 -0.698019
  1789 23.3343 1.22127 1.11776
  1790 23.3346 1.22105 -1.11740
  1791 39.5216 7.13671 1.14630
  1792 41.5939 -0.912763 4.19976
  1793 41.5791 -0.916464 -4.20944
  1794 37.2097 -2.18113 0.454049
  1795 23.2902 1.38493 1.90666
  1796 23.2903 1.38475 -1.90614
  1797 33.0602 4.95460 -0.734101
  1798 61.7032 3.86590 8.39530
  1799 26.1481 1.08869 4.71788
  1800 26.1464 1.08947 -4.71740
  1801 30.2111 0.341267 1.87426
  1802 21.7317 -5.62259 8.03705
  1803 21.9868 1.97085 0.413630
  1804 21.9879 1.97071 -0.413606
  1805 29.8108 2.22643 -0.808465
  1806 25.2429 0.140343 1.91371
  1807 25.2420 0.139523 -1.91469
  1808 30.0115 -0.738148 -0.0719807
  1809 30.0107 -0.737186 0.0730065
  1810 34.1056 -0.0623585 3.79625
  1811 34.1031 -0.0615330 -3.79729
  1812 22.2734 -5.62885 -7.89196
  1813 32.5612 4.31607 1.18329
  1814 27.0288 0.170775 1.27552
  1815 27.0271 0.170770 -1.27524
  1816 23.6090 1.49683 2.68704
  1817 23.6088 1.49674 -2.68640
  1818 27.7014 0.304775 0.670156
  1819 23.7246 1.56586 3.09241
  1820 23.7243 1.56585 -3.09172
  1821 25.5231 -3.40294 5.59622
  1822 25.4209 -3.49280 -5.72735
  1823 22.2950 2.05546 2.83864
  1824 22.2953 2.05535 -2.83794
  1825 38.5940 6.54284 -1.59938
  1826 44.4089 2.53830 3.40187
  1827 31.7298 0.325678 3.55289
  1828 31.7276 0.326124 -3.55313
  1829 41.4131 -1.74239 0.788810
  1830 41.4103 -1.73555 -0.790409
  1831 30.2799 -0.0690820 -0.289189
  1832 30.2795 -0.0688822 0.289390
  1833 21.7827 -0.772086 -6.13610
  1834 21.7865 -0.774000 6.13632
  1835 32.3723 -4.15437 5.68766
  1836 28.3686 -5.32799 7.10660
  1837 42.1371 -0.628198 -1.09294
  1838 42.1366 -0.628096 1.09025
  1839 35.0366 -1.94969 -1.30034
  1840 37.2901 0.186381 1.66672
  1841 34.3377 -4.39311 -3.13672
  1842 34.5684 -4.15725 3.12583
  1843 41.9835 -1.19302 3.59779
  1844 41.9620 -1.19408 -3.59632
  1845 30.9027 -5.14914 4.56258
  1846 6.17394 -4.92263 1.20876
  1847 6.14008 -4.90800 -1.19377
  1848 29.9718 -0.321958 -1.26752
  1849 29.9707 -0.321782 1.26923
  1850 34.8208 0.0127463 1.00906
  1851 34.8180 0.0127867 -1.00912
  1852 24.5478 0.547891 1.64308
  1853 24.5471 0.547814 -1.64261
  1854 50.4703 6.17183 9.36539
  1855 10.7254 -1.51432 4.01297
  1856 10.7107 -1.51839 -4.01929
  1857 23.1736 1.39932 -0.707322
  1858 23.1747 1.39939 0.707012
  1859 25.3795 0.592003 1.13111
  1860 25.3789 0.591709 -1.13168
  1861 26.9568 0.337565 -1.91454
  1862 26.9584 0.337561 1.91492
  1863 41.0387 -3.53870 -0.244056
  1864 40.9541 -3.55294 0.204754
  1865 10.8408 -7.32548 -3.95948
  1866 10.8482 -7.32169 3.95649
  1867 22.6394 1.73648 -0.447783
  1868 22.6386 1.73666 0.447872
  1869 29.8784 0.129461 1.63474
  1870 29.8761 0.129509 -1.63456
  1871 23.7269 1.12021 1.97665
  1872 23.7267 1.12007 -1.97612
  1873 20.9626 1.84583 4.64793
  1874 20.9620 1.84678 -4.64644
  1875 17.3642 -6.43180 5.20835
  1876 17.3409 -6.43988 -5.21242
  1877 21.7018 2.08239 4.12494
  1878 21.7016 2.08281 -4.12378
  1879 30.2154 -0.498955 -1.89259
  1880 30.2152 -0.496352 1.89491
  1881 30.7310 -0.987264 -1.57519
  1882 30.7323 -0.987526 1.57700
  1883 32.0379 1.46233 2.59175
  1884 35.0617 -1.91108 1.25235
  1885 29.9747 -0.265010 -0.272109
  1886 29.9743 -0.264484 0.272610
  1887 18.6794 2.62225 0.333213
  1888 18.6818 2.62180 -0.333494
  1889 10.6367 -7.27605 -1.48552
  1890 10.6438 -7.26734 1.48536
  1891 27.3702 0.577325 -0.895384
  1892 31.0369 0.346014 4.08699
  1893 31.0346 0.346637 -4.08729
  1894 28.8490 -0.0343769 -0.621134
  1895 28.8487 -0.0339827 0.621092
  1896 28.3690 -0.440441 0.934858
  1897 28.3697 -0.441532 -0.935015
  1898 26.1457 0.351586 -1.73236
  1899 26.1471 0.351607 1.73276
  1900 29.4562 -0.0712432 0.739748
  1901 29.4599 -0.0714186 -0.738562
  1902 23.9737 0.945587 1.90374
  1903 23.9734 0.945459 -1.90322
  1904 40.9426 -0.185875 -1.92662
  1905 40.9513 -0.184545 1.94538
  1906 28.0009 0.458917 5.10883
  1907 27.9984 0.460107 -5.10889
  1908 39.5214 0.0358294 4.60428
  1909 35.7892 1.67005 -2.46390
  1910 24.8879 0.0642714 -0.597718
  1911 24.8892 0.0642800 0.597904
  1912 24.8922 0.167460 -0.146453
  1913 19.6988 2.34689 -0.361859
  1914 19.7007 2.34680 0.361260
  1915 40.6725 4.98575 -9.88712
  1916 21.6956 2.19651 1.91276
  1917 21.6964 2.19629 -1.91230
  1918 7.69112 -4.07815 3.64143
  1919 7.66179 -4.08343 -3.66204
  1920 75.1359 3.49571 -7.12238
  1921 32.5575 -5.12403 -3.81326
  1922 25.2932 0.0579125 -0.621872
  1923 25.2946 0.0579216 0.622056
  1924 51.3115 1.48714 -1.08594
  1925 31.1670 -0.0100139 -0.103691
  1926 31.1666 -0.00998853 0.103762
  1927 16.7299 -3.74755 3.59515
  1928 17.8014 -3.48921 -4.01199
  1929 17.7796 -1.75786 -6.31437
  1930 17.7710 -1.75186 6.30920
  1931 28.1734 0.00961622 0.764084
  1932 28.1736 0.00916506 -0.764283
  1933 30.7123 0.0460856 -0.727432
  1934 30.7149 0.0460778 0.727515
  1935 32.2158 1.18814 -2.64407
  1936 24.2117 0.779690 1.48491
  1937 24.2106 0.779289 -1.48558
  1938 30.3407 -0.602930 -0.254981
  1939 30.3411 -0.603633 0.256224
  1940 26.6184 0.170212 1.14573
  1941 26.6182 0.169653 -1.14631
  1942 24.0477 0.464520 1.22044
  1943 24.0472 0.464428 -1.22004
  1944 23.5025 1.15483 1.65945
  1945 23.5025 1.15465 -1.65897
  1946 45.4876 -0.230698 -0.484909
  1947 45.4933 -0.231994 0.485798
  1948 35.8854 5.55057 1.72298
  1949 25.4398 0.0517090 0.465741
  1950 34.2589 0.0938560 2.55889
  1951 34.2566 0.0940766 -2.55923
  1952 20.4612 -3.15489 6.19954
  1953 20.4556 -3.15376 -6.20236
  1954 29.5748 -1.74059 0.903186
  1955 29.5777 -1.74261 -0.902697
  1956 30.3332 -0.355453 -0.00521992
  1957 30.3335 -0.355987 0.00609517
  1958 20.8134 -2.85717 6.70207
  1959 20.7630 -2.86217 -6.69373
  1960 27.1977 0.340643 5.42633
  1961 27.1949 0.342031 -5.42640
  1962 35.2929 -3.27351 2.71960
  1963 35.2811 -3.27230 -2.72121
  1964 26.0041 0.483008 0.931883
  1965 26.0037 0.482762 -0.932347
  1966 60.6065 6.25600 2.40140
  1967 24.7700 0.307972 -1.27871
  1968 24.7709 0.308019 1.27909
  1969 33.4502 -2.88540 0.571324
  1970 33.4121 -2.91797 -0.522922
  1971 21.6436 -1.33491 5.33365
  1972 21.6469 -1.33433 -5.34493
  1973 51.0313 2.20994 -2.33232
  1974 31.2844 -0.0149290 0.0642997
  1975 31.2847 -0.0149779 -0.0641204
  1976 38.0607 -1.29617 -3.12813
  1977 24.5914 0.790702 2.05067
  1978 24.5907 0.790615 -2.05014
  1979 33.8027 3.21906 2.43491
  1980 24.8452 0.507603 1.56628
  1981 24.8443 0.507090 -1.56705
  1982 44.7472 3.08582 -2.51193
  1983 33.6564 0.0715520 2.16853
  1984 38.8144 -2.22791 1.18491
  1985 38.8094 -2.23000 -1.18943
  1986 24.1348 1.29502 -8.64458
  1987 34.1945 5.06853 -1.60555
  1988 30.3374 2.56442 0.933559
  1989 28.1573 1.07626 0.747144
  1990 3.96043 -15.8633 1.39834
  1991 3.98039 -15.8588 -1.43188
  1992 32.0365 3.97262 -1.06505
  1993 19.1434 2.73637 2.19359
  1994 19.1452 2.73603 -2.19282
  1995 33.4791 0.0283846 -2.12259
  1996 30.5160 -3.36752 -2.02231
  1997 30.5828 -3.35638 1.89550
  1998 34.4342 -4.30169 2.75826
  1999 34.4145 -4.29991 -2.75841
  2000 24.2415 -4.73994 4.09391
  2001 25.2562 -5.15660 -4.22299
  2002 19.3178 2.09039 -1.40037
  2003 19.3199 2.09048 1.39906
  2004 10.5726 -6.35008 6.26656
  2005 10.6983 -6.23935 -6.50203
  2006 22.1954 1.94009 1.24905
  2007 22.1962 1.93987 -1.24876
  2008 28.1819 0.0184455 0.495959
  2009 28.1797 0.0184500 -0.495860
  2010 40.0405 0.672270 -0.548464
  2011 26.5426 0.488366 -2.24131
  2012 26.5440 0.488355 2.24176
  2013 23.0333 1.45618 1.20994
  2014 23.0337 1.45596 -1.20959
  2015 42.8751 -0.417810 -4.83308
  2016 39.2664 3.70697 1.71479
  2017 27.3299 -2.86801 -3.91585
  2018 27.3359 -2.79919 3.87855
  2019 45.1788 0.468017 -4.38148
  2020 30.3127 0.157181 -1.90665
  2021 43.1606 -2.28724 -3.00238
  2022 43.1585 -2.28461 3.01503
  2023 23.1640 1.50157 0.0978678
  2024 23.1648 1.50142 -0.0978734
  2025 23.9760 0.697648 1.47729
  2026 23.9757 0.697524 -1.47683
  2027 50.0236 1.76181 2.82872
  2028 29.4130 0.572447 3.75476
  2029 29.4109 0.572858 -3.75464
  2030 38.9418 0.234333 -4.48168
  2031 24.2438 0.160919 0.836111
  2032 24.2430 0.160886 -0.835824
  2033 27.5062 -0.543675 1.41485
  2034 27.5068 -0.545028 -1.41557
  2035 22.0840 -1.00688 7.66161
  2036 45.0702 -0.117644 -0.663077
  2037 45.0678 -0.117722 0.661850
  2038 26.2531 -0.208494 1.76696
  2039 26.2528 -0.209549 -1.76802
  2040 24.1688 0.0347221 0.399924
  2041 24.1677 0.0347135 -0.399781
  2042 30.4160 -0.238656 -0.721298
  2043 30.4147 -0.239009 0.722762
  2044 10.3110 -7.77796 3.99005
  2045 45.5355 3.73399 -0.554486
  2046 38.8497 -1.65390 -1.84688
  2047 38.8534 -1.65391 1.84339
  2048 27.4434 -0.685226 -5.68792
  2049 27.4470 -0.686640 5.68764
  2050 30.9034 -0.0702065 0.280145
  2051 30.9052 -0.0700857 -0.279423
  2052 27.0477 0.371475 0.946700
  2053 82.6674 2.71322 1.67189
  2054 50.0237 4.08323 -1.94944
  2055 29.5835 -0.111913 -2.01119
  2056 29.5898 -0.111051 2.01252
  2057 37.5976 1.01032 3.52679
  2058 27.3310 -1.38041 2.31224
  2059 27.3315 -1.38276 -2.31393
  2060 23.2653 1.34507 0.815637
  2061 23.2659 1.34484 -0.815377
  2062 45.2770 0.447494 4.39955
  2063 22.9849 1.62100 2.12742
  2064 22.9851 1.62082 -2.12687
  2065 31.3240 -1.06188 -1.95261
  2066 31.3264 -1.06172 1.95439
  2067 25.8831 -4.72564 -6.72744
  2068 9.46355 -8.69392 -3.74985
  2069 29.1779 -1.40422 -1.01303
  2070 29.1757 -1.40217 1.01324
  2071 29.6499 -0.960484 -0.389234
  2072 29.6487 -0.959183 0.390042
  2073 29.7873 -0.0290079 -0.405028
  2074 29.7869 -0.0288013 0.405089
  2075 41.6087 3.32155 -0.261307
  2076 24.3969 0.949083 -0.942925
  2077 24.3978 0.949210 0.942481
  2078 21.5303 1.95701 0.411288
  2079 21.5289 1.95694 -0.411608
  2080 27.9156 -2.56879 3.14981
  2081 27.9660 -2.57933 -3.14107
  2082 22.6962 -1.13064 4.70267
  2083 22.7020 -1.13893 -4.70541
  2084 42.9462 -0.423240 4.78591
  2085 20.8583 2.30201 0.295259
  2086 20.8597 2.30189 -0.295401
  2087 19.6237 -6.51689 -5.12126
  2088 19.6828 -6.49517 5.09826
  2089 28.7591 -3.86303 -5.11490
  2090 28.7615 -3.86067 5.11933
  2091 20.4588 2.49997 -1.08790
  2092 20.4574 2.50023 1.08803
  2093 7.35249 -5.82756 -2.22914
  2094 7.35915 -5.84157 2.23592
  2095 35.6988 1.64264 1.40882
  2096 37.0830 -0.0253801 -2.55629
  2097 29.1280 0.0214038 0.483871
  2098 29.1256 0.0214050 -0.483789
  2099 29.9621 -0.119023 -0.353678
  2100 29.9618 -0.118686 0.353933
  2101 28.7079 -0.407717 0.783006
  2102 28.7086 -0.408697 -0.782976
  2103 29.9939 -0.194858 5.09951
  2104 29.9908 -0.193513 -5.10013
  2105 59.3138 4.27168 0.328701
  2106 10.2559 0.150538 -0.847698
  2107 10.2684 0.147865 0.850101
  2108 30.7579 -0.120838 -0.0712797
  2109 30.7578 -0.120632 0.0718004
  2110 26.3001 0.438420 -0.262456
  2111 26.3978 0.0145294 -0.342974
  2112 26.3996 0.0145338 0.343065
  2113 23.7564 1.26415 -0.0409862
  2114 23.7571 1.26399 0.0409419
  2115 34.3739 1.19957 -2.05028
  2116 15.3485 2.35209 1.62141
  2117 15.3526 2.35137 -1.61951
  2118 41.8017 -2.02688 2.27592
  2119 41.7908 -2.01376 -2.27281
  2120 31.1658 2.91772 1.48023
  2121 28.1393 -0.766294 1.24335
  2122 28.1403 -0.767864 -1.24380
  2123 30.8708 -0.142746 0.131890
  2124 30.8711 -0.142521 -0.131152
  2125 31.2978 -0.0376928 0.127242
  2126 31.2988 -0.0376481 -0.126804
  2127 25.4152 1.03003 5.15421
  2128 25.4132 1.03119 -5.15372
  2129 3.35845 -14.1144 -1.41350
  2130 3.38236 -13.8774 1.43696
  2131 16.0522 2.60351 -0.803333
  2132 16.0480 2.60463 0.803999
  2133 29.5091 -0.114641 -0.477092
  2134 29.5087 -0.114240 0.477243
  2135 24.4186 1.49208 3.56755
  2136 24.4179 1.49222 -3.56683
  2137 32.0956 2.17205 2.40158
  2138 41.4274 0.829703 4.65398
  2139 23.6630 0.747264 5.57434
  2140 23.6606 0.748898 -5.57362
  2141 24.5599 0.160593 0.888144
  2142 24.5589 0.160563 -0.887859
  2143 33.6912 0.0887401 2.01923
  2144 33.6887 0.0888687 -2.01936
  2145 24.7914 1.39689 3.83563
  2146 24.7906 1.39714 -3.83493
  2147 36.4383 0.0425298 -2.14347
  2148 36.4405 0.0423204 2.14295
  2149 31.1434 -4.99438 -4.04052
  2150 49.4496 4.36870 1.32595
  2151 26.9866 -4.23155 5.62473
  2152 27.8316 0.536848 -1.32446
  2153 27.1814 0.802984 -3.42582
  2154 27.1829 0.802770 3.42625
  2155 17.2065 1.77219 -2.27375
  2156 17.2101 1.77139 2.27126
  2157 25.9064 1.00125 3.35304
  2158 25.9053 1.00138 -3.35247
  2159 36.5789 3.02549 2.38285
  2160 45.3612 1.89408 -4.02574
  2161 13.7881 1.48403 2.62300
  2162 13.7914 1.48438 -2.61903
  2163 19.5807 -4.74632 7.92959
  2164 20.6258 -4.75688 -7.85236
  2165 31.0564 -2.69673 -6.69252
  2166 25.9862 0.523902 2.12026
  2167 25.9849 0.523882 -2.11979
  2168 33.9612 0.0480524 -0.877976
  2169 33.9640 0.0480246 0.877967
  2170 25.0494 0.0977273 -0.369679
  2171 29.6971 -0.267226 -1.46185
  2172 29.6957 -0.266140 1.46329
  2173 19.9495 2.62546 2.17347
  2174 19.9509 2.62518 -2.17285
  2175 30.2403 -1.15439 -0.163680
  2176 30.2415 -1.15543 0.165045
  2177 32.2142 0.125946 -1.88604
  2178 32.2167 0.125862 1.88606
  2179 23.6292 1.39399 -2.39004
  2180 23.6294 1.39412 2.39063
  2181 16.0563 -0.467229 5.13399
  2182 16.0542 -0.468593 -5.13928
  2183 47.6750 -0.0403599 -2.24305
  2184 21.0024 2.38364 -1.30485
  2185 21.0012 2.38388 1.30509
  2186 29.0262 1.78125 -0.00706487
  2187 63.1050 5.41809 -0.314174
  2188 45.2942 8.56722 0.305574
  2189 28.2053 -0.173517 0.864469
  2190 28.2056 -0.174259 -0.864663
  2191 34.8902 -3.76904 -1.20500
  2192 53.0972 4.39352 1.48347
  2193 47.6444 -0.0484503 2.34902
  2194 38.3396 4.64074 -2.12764
  2195 30.4879 -0.00271684 -0.242522
  2196 30.4875 -0.00264484 0.242576
  2197 32.2070 -2.44689 -0.792313
  2198 32.2054 -2.44759 0.796409
  2199 25.1350 1.22622 3.36464
  2200 25.1341 1.22632 -3.36401
  2201 31.6938 -2.38982 -0.437698
  2202 31.6950 -2.38957 0.440574
  2203 26.4547 -5.58977 -7.34926
  2204 25.1046 0.336977 1.41245
  2205 25.1036 0.336931 -1.41206
  2206 32.2550 -0.969718 -2.22286
  2207 32.2535 -0.965468 2.23427
  2208 37.4150 -0.00604301 2.31700
  2209 23.7559 1.16877 0.868467
  2210 23.7549 1.16867 -0.868853
  2211 24.6884 1.39725 4.68590
  2212 24.6871 1.39796 -4.68517
  2213 33.4881 -0.294173 -4.21666
  2214 33.4911 -0.295295 4.21546
  2215 26.7325 -2.81588 5.80917
  2216 26.7306 -2.81689 -5.80852
  2217 21.9702 1.93192 0.0219679
  2218 21.9690 1.93199 -0.0220944
  2219 24.5545 0.0436255 0.524511
  2220 24.5533 0.0436188 -0.524337
  2221 32.6638 -0.484141 -2.46233
  2222 32.5848 -0.498085 2.47306
  2223 39.4483 0.0337555 -0.879541
  2224 39.4504 0.0336963 0.879249
  2225 29.3605 -0.282824 -0.518208
  2226 29.3599 -0.282159 0.518476
  2227 48.9318 8.60680 0.504663
  2228 35.1430 0.0958175 1.93954
  2229 35.1406 0.0959496 -1.93981
  2230 22.7692 1.59077 4.95789
  2231 22.7680 1.59180 -4.95681
  2232 41.2172 -0.292550 -1.73775
  2233 41.2176 -0.293018 1.73574
  2234 34.5130 -1.25578 -3.87445
  2235 34.5173 -1.25723 3.87297
  2236 25.1018 -4.81962 -5.39840
  2237 25.0905 -4.81430 5.39542
  2238 14.6834 -2.83305 6.75699
  2239 14.6748 -2.82190 -6.75986
  2240 30.6460 -1.06886 -1.03698
  2241 30.6469 -1.06953 1.03853
  2242 39.3341 -0.276777 3.91736
  2243 25.2152 0.152900 -0.728214
  2244 24.9356 0.157852 0.923983
  2245 24.9345 0.157826 -0.923705
  2246 54.2585 2.21896 1.66116
  2247 31.5162 0.00741604 0.727379
  2248 31.5135 0.00743261 -0.727322
  2249 30.4211 -0.603891 -1.10960
  2250 30.4212 -0.604414 1.11136
  2251 29.2960 -0.722808 0.567853
  2252 29.2971 -0.724034 -0.567404
  2253 36.9470 -0.0518582 -2.88422
  2254 36.9490 -0.0524103 2.88303
  2255 23.9791 -1.48431 6.12866
  2256 23.9754 -1.48324 -6.12912
  2257 13.5651 0.0159341 4.06427
  2258 13.5645 0.0187202 -4.05959
  2259 75.2190 3.48326 5.36577
  2260 34.1336 1.52196 -0.300012
  2261 23.8361 0.846489 -1.56037
  2262 23.8364 0.846632 1.56084
  2263 54.3209 4.97913 -0.726272
  2264 23.2023 1.46019 -0.260748
  2265 23.2033 1.46012 0.260605
  2266 30.0622 -3.61636 2.79720
  2267 43.2439 -0.831393 1.50575
  2268 43.2380 -0.826269 -1.50153
  2269 39.3743 -0.267797 -4.02547
  2270 31.2740 0.257099 -4.26254
  2271 31.2764 0.256346 4.26209
  2272 33.4117 -1.90378 -1.61104
  2273 33.3859 -1.96573 1.56009
  2274 25.1775 0.539442 1.87759
  2275 25.1765 0.539387 -1.87712
  2276 37.7636 -0.534608 -2.91570
  2277 37.7660 -0.535506 2.91367
  2278 41.2361 1.86035 2.42887
  2279 44.7832 6.28090 0.377285
  2280 20.2712 1.75418 1.78513
  2281 20.2696 1.75363 -1.78639
  2282 38.1455 -0.246256 -0.587925
  2283 26.7115 0.0128952 -0.628628
  2284 27.5026 -5.52050 -6.73566
  2285 41.3395 6.34254 1.03322
  2286 29.3438 0.150834 1.53239
  2287 29.3416 0.150859 -1.53218
  2288 43.7848 -0.296886 -1.34512
  2289 43.7840 -0.300828 1.35307
  2290 30.5843 -0.498322 2.15645
  2291 30.5826 -0.502560 -2.15355
  2292 28.0030 0.00191367 -0.602492
  2293 27.9962 0.00406157 0.599195
  2294 27.2146 0.448342 2.36016
  2295 27.2130 0.448381 -2.35975
  2296 15.0986 1.98629 -1.27057
  2297 15.1045 1.98433 1.26954
  2298 30.4994 -0.968689 -0.702812
  2299 30.5002 -0.969453 0.704342
  2300 21.2838 2.36975 2.88701
  2301 21.2845 2.36964 -2.88622
  2302 12.5363 1.35031 1.27036
  2303 12.5424 1.34966 -1.26663
  2304 24.7559 0.0176598 0.213830
  2305 24.7546 0.0176563 -0.213760
  2306 31.4501 -4.81445 3.51836
  2307 30.6321 0.227161 4.71294
  2308 30.6295 0.228151 -4.71345
  2309 33.7264 1.04413 2.48338
  2310 21.9530 2.04887 1.33220
  2311 21.9538 2.04865 -1.33190
  2312 27.8941 0.0728941 1.00583
  2313 27.8921 0.0728969 -1.00563
  2314 26.3174 -0.0553576 1.53886
  2315 26.3172 -0.0562264 -1.53974
  2316 30.8800 -1.64592 0.657220
  2317 30.8788 -1.64534 -0.655502
  2318 25.7365 0.270943 1.44354
  2319 25.7352 0.270914 -1.44318
  2320 29.2445 1.20323 -1.59964
  2321 28.8828 0.425817 -1.85798
  2322 36.9487 1.35729 -3.07193
  2323 27.5622 0.116844 0.849758
  2324 27.5623 0.116414 -0.850079
  2325 41.9685 2.57047 2.64422
  2326 21.5599 2.28976 2.57048
  2327 21.5605 2.28959 -2.56982
  2328 35.4744 4.11776 2.37009
  2329 27.8668 -0.333657 1.09981
  2330 27.8673 -0.334703 -1.10020
  2331 27.4457 -0.0122790 1.00516
  2332 27.4458 -0.0129325 -1.00558
  2333 22.9453 1.85458 -2.98673
  2334 22.9453 1.85465 2.98744
  2335 24.8681 1.40422 4.36097
  2336 24.8670 1.40471 -4.36027
  2337 18.3729 0.371419 -5.37162
  2338 18.3754 0.368954 5.37376
  2339 46.4364 2.14086 3.75830
  2340 50.7995 6.11017 -10.4299
  2341 40.5593 -0.900520 3.83359
  2342 34.4093 0.416532 -3.17962
  2343 22.9616 0.610996 -2.51317
  2344 22.9631 0.612158 2.51229
  2345 31.4255 -0.0313532 -0.0176953
  2346 31.4254 -0.0313121 0.0179024
  2347 28.2677 0.319293 -1.47416
  2348 26.9635 0.0238989 0.334660
  2349 26.9615 0.0238967 -0.334580
  2350 24.5987 0.217199 2.15923
  2351 24.5975 0.216307 -2.16021
  2352 31.6877 0.272731 -3.20712
  2353 31.6900 0.272414 3.20701
  2354 32.0870 0.237705 -2.62897
  2355 30.2803 -0.532501 -1.33659
  2356 30.2802 -0.532682 1.33846
  2357 24.1773 0.300709 -1.04978
  2358 24.1780 0.300771 1.05013
  2359 70.8166 4.08230 10.0182
  2360 23.0517 1.47833 0.914196
  2361 23.0522 1.47810 -0.913923
  2362 30.0720 -0.468805 -0.117193
  2363 30.0715 -0.468101 0.118037
  2364 18.5865 1.59286 2.57445
  2365 18.5841 1.59277 -2.57697
  2366 26.2474 0.769053 2.83042
  2367 26.2461 0.769105 -2.82990
  2368 50.7666 3.83534 11.0942
  2369 7.28094 -6.96314 4.63592
  2370 7.30026 -7.01480 -4.61339
  2371 29.0956 0.419343 2.68569
  2372 29.0937 0.419466 -2.68543
  2373 23.4579 1.09960 -1.19601
  2374 23.4577 1.09981 1.19640
  2375 29.8362 -1.49849 -0.463087
  2376 29.8342 -1.49684 0.464097
  2377 20.2054 2.46365 0.428846
  2378 20.2071 2.46345 -0.429011
  2379 28.4221 0.379742 -2.36448
  2380 28.4239 0.379674 2.36480
  2381 45.2020 4.07697 -10.7434
  2382 34.3482 -3.16780 -0.179168
  2383 34.3888 -2.91580 0.437621
  2384 30.1771 0.205114 1.86803
  2385 41.4279 -0.536978 -1.49815
  2386 41.4282 -0.537309 1.49551
  2387 32.5955 -2.93617 0.220760
  2388 32.5884 -2.92810 -0.226936
  2389 27.2470 -0.865222 -1.84634
  2390 27.2465 -0.863465 1.84515
  2391 34.2372 -1.97561 5.92872
  2392 34.5167 -1.15754 -1.98282
  2393 23.1618 1.38822 1.52692
  2394 23.1621 1.38801 -1.52648
  2395 37.8468 -1.19097 -2.65132
  2396 37.8503 -1.19197 2.64862
  2397 28.9252 0.671389 -4.24806
  2398 28.9272 0.670778 4.24813
  2399 25.1917 0.696251 2.16439
  2400 25.1908 0.696199 -2.16388
  2401 39.2845 -0.00942645 -1.81602
  2402 33.8093 2.98772 -2.52270
  2403 30.1387 0.346311 -2.29961
  2404 4.62614 -14.7470 -1.84192
  2405 4.80279 -14.2055 2.05772
  2406 30.6527 1.11129 -2.27912
  2407 45.9021 -0.0916066 -0.465685
  2408 45.8984 -0.0916298 0.464512
  2409 25.8497 -0.210247 -2.02089
  2410 25.8504 -0.209163 2.01971
  2411 37.1280 -0.257903 3.00750
  2412 37.1260 -0.257158 -3.00903
  2413 25.0886 0.800625 0.768375
  2414 25.0880 0.800561 -0.768753
  2415 24.8153 0.493479 -1.62919
  2416 24.8161 0.493546 1.62964
  2417 23.5831 0.951565 1.30944
  2418 23.5831 0.951384 -1.30902
  2419 42.2567 2.91582 -1.69880
  2420 26.5775 0.469391 0.328641
  2421 36.0997 6.90584 -0.195903
  2422 23.0526 1.53121 1.92551
  2423 23.0528 1.53103 -1.92501
  2424 65.0144 4.55535 -2.08647
  2425 46.7960 -0.140606 0.0152598
  2426 46.7891 -0.140204 -0.0158458
  2427 35.2705 1.30826 2.60683
  2428 43.4722 -0.0936512 -0.912474
  2429 43.4718 -0.0937643 0.911549
  2430 33.6320 0.143230 -3.56894
  2431 33.6343 0.142649 3.56827
  2432 13.2160 -0.479620 -4.52784
  2433 13.2240 -0.481075 4.52125
  2434 26.0925 0.131191 -1.02442
  2435 26.0940 0.131203 1.02468
  2436 36.2680 0.190309 -3.66679
  2437 21.0349 2.44650 2.08894
  2438 21.0359 2.44625 -2.08843
  2439 42.8163 -0.696217 -2.30615
  2440 42.8140 -0.696966 2.32023
  2441 44.7620 8.93732 -0.125967
  2442 30.1057 0.0421208 -0.572556
  2443 30.1083 0.0421194 0.572634
  2444 58.0807 5.45435 0.142537
  2445 23.8320 0.668418 1.30310
  2446 23.8317 0.668288 -1.30267
  2447 30.2650 -0.0495489 -0.424512
  2448 30.2617 -0.0496319 0.425462
  2449 24.3254 0.823822 1.92228
  2450 24.3249 0.823717 -1.92176
  2451 28.9266 0.424308 1.89176
  2452 25.7542 0.00344473 -0.216861
  2453 25.7559 0.00344600 0.216923
  2454 26.9336 -0.0291888 1.23259
  2455 26.9337 -0.0299595 -1.23322
  2456 34.4382 -1.11063 2.01183
  2457 27.8019 0.0145091 -0.372621
  2458 27.8041 0.0145073 0.372701
  2459 24.5608 0.117371 0.0202442
  2460 36.9854 0.181790 3.89690
  2461 28.9496 0.0804116 -1.84532
  2462 28.9683 0.0856015 1.85705
  2463 30.7904 -1.89772 -0.214557
  2464 30.7923 -1.89850 0.216684
  2465 24.6693 -0.0728806 2.52345
  2466 24.6680 -0.0741250 -2.52456
  2467 17.9628 2.70637 0.406337
  2468 17.9657 2.70568 -0.406521
  2469 24.2042 0.108628 -0.679986
  2470 24.2051 0.108653 0.680223
  2471 19.3266 1.59807 4.85356
  2472 19.3258 1.59947 -4.85148
  2473 47.3526 1.05339 -4.08277
  2474 30.3748 2.75792 -0.568585
  2475 39.2564 -3.64630 -0.310954
  2476 39.2508 -3.66118 0.298656
  2477 23.3113 1.35054 0.640299
  2478 23.3119 1.35031 -0.640097
  2479 30.1559 0.332356 2.31597
  2480 64.7010 5.87563 -1.88539
  2481 22.9515 1.89047 3.81204
  2482 22.9512 1.89069 -3.81115
  2483 28.7888 1.37323 -1.05381
  2484 25.5218 0.686159 6.65517
  2485 29.1966 -0.453464 5.32594
  2486 29.1932 -0.452056 -5.32649
  2487 48.8652 1.53060 3.91048
  2488 22.5132 1.89546 -6.78577
  2489 30.8950 0.593590 2.46315
  2490 31.6938 -1.56990 1.61765
  2491 31.6952 -1.56912 -1.61655
  2492 29.3980 1.38249 1.54804
  2493 40.6727 -2.30071 0.727286
  2494 40.6704 -2.29176 -0.730981
  2495 35.5220 -4.51288 -1.96841
  2496 35.5537 -4.51403 1.96488
  2497 32.0151 -0.983725 -4.70010
  2498 32.0190 -0.985131 4.69914
  2499 22.4818 1.75351 0.0786731
  2500 22.4808 1.75358 -0.0787811
  2501 13.6390 1.91321 0.512532
  2502 13.6453 1.91176 -0.510638
  2503 28.1860 0.272305 -1.89195
  2504 28.1879 0.272275 1.89226
  2505 33.0640 -4.95841 3.67797
  2506 82.9259 2.38457 -5.12510
  2507 25.6755 -0.168775 5.78514
  2508 25.6722 -0.167173 -5.78511
  2509 49.2747 2.67518 -3.06075
  2510 30.4182 -0.229219 -0.0852166
  2511 30.4180 -0.228823 0.0858815
  2512 35.5235 -0.742178 -3.63137
  2513 35.5268 -0.743417 3.62962
  2514 21.2363 2.32445 3.56080
  2515 21.2367 2.32456 -3.55976
  2516 26.1089 -4.70962 6.55384
  2517 30.4417 0.252299 2.38580
  2518 30.4395 0.252423 -2.38566
  2519 27.7028 -1.83141 -2.50496
  2520 27.7009 -1.82814 2.50299
  2521 65.2082 4.68431 1.56022
  2522 17.5518 1.58639 4.41544
  2523 17.5519 1.58770 -4.41278
  2524 28.6325 -4.14747 4.57421
  2525 24.2758 0.00538624 0.163417
  2526 24.2745 0.00538535 -0.163360
  2527 40.5231 -0.152477 -4.70406
  2528 23.8287 0.953149 -1.72624
  2529 23.8289 0.953294 1.72674
  2530 22.6879 1.83451 2.29173
  2531 22.6882 1.83434 -2.29116
  2532 32.8599 0.0137578 0.668151
  2533 32.8570 0.0137711 -0.668124
  2534 26.8311 -0.130985 1.39512
  2535 26.8311 -0.131897 -1.39588
  2536 36.8044 1.78968 -1.46328
  2537 46.2614 -0.102440 -0.319342
  2538 46.2566 -0.102383 0.318197
  2539 31.6316 -0.810444 -2.26638
  2540 31.6354 -0.813015 2.26652
  2541 28.4855 0.121934 1.27558
  2542 28.4834 0.121940 -1.27536
  2543 24.4294 1.02964 2.39118
  2544 24.4288 1.02956 -2.39060
  2545 43.2963 3.84028 -1.44217
  2546 29.0914 -1.18698 0.893457
  2547 29.0931 -1.18879 -0.893195
  2548 32.9514 -4.93200 -4.62931
  2549 34.7490 1.02850 -2.65523
  2550 34.3315 -4.38465 3.70184
  2551 31.4516 -2.84294 0.338800
  2552 31.4515 -2.83727 -0.333556
  2553 40.4833 -0.528043 -3.90315
  2554 26.9086 0.261002 0.908744
  2555 26.9084 0.260647 -0.909158
  2556 28.2277 0.00341639 -1.36057
  2557 28.2112 0.0233145 1.35646
  2558 12.4812 -4.85056 4.91213
  2559 12.4719 -4.84803 -4.91194
  2560 40.4739 8.33403 -0.342675
  2561 31.2422 -0.319810 -2.43900
  2562 31.2440 -0.324394 2.43145
  2563 4.43548 -8.80006 -1.27362
  2564 4.45287 -8.78894 1.35103
  2565 24.3194 1.08514 0.454416
  2566 24.3187 1.08521 -0.454636
  2567 25.5206 0.188433 1.11068
  2568 25.5193 0.188405 -1.11038
  2569 40.5189 -0.518671 3.85665
  2570 22.6841 1.91397 4.12695
  2571 22.6837 1.91436 -4.12596
  2572 35.4617 -3.51739 0.780915
  2573 19.7898 2.58358 3.04609
  2574 19.7909 2.58350 -3.04500
  2575 27.9582 0.739414 1.07308
  2576 26.0889 0.226461 1.00248
  2577 32.1284 -3.83224 1.39511
  2578 32.3139 -3.73860 -1.13236
  2579 25.2060 0.00951545 0.220417
  2580 25.2045 0.00951499 -0.220348
  2581 33.5218 -3.99449 1.22874
  2582 22.1120 1.92249 0.759918
  2583 22.1129 1.92231 -0.759771
  2584 24.6959 1.13467 2.77606
  2585 24.6952 1.13464 -2.77545
  2586 41.9341 2.30690 -3.26237
  2587 28.4514 -1.30806 5.50999
  2588 28.4475 -1.30698 -5.51024
  2589 23.4520 -0.0803390 -5.93705
  2590 23.4553 -0.0821667 5.93743
  2591 45.1410 -0.172886 -0.833790
  2592 45.1435 -0.174260 0.837705
  2593 33.6734 5.58701 0.0386306
  2594 24.5309 1.29077 3.05230
  2595 24.5303 1.29077 -3.05164
  2596 29.5656 -1.18451 0.554857
  2597 29.5674 -1.18607 -0.554122
  2598 27.0508 -0.540829 1.68894
  2599 27.0510 -0.542213 -1.68997
  2600 69.3505 5.02361 0.473420
  2601 11.7020 -1.58024 3.96100
  2602 11.6997 -1.57563 -3.95524
  2603 28.8828 -0.121384 -0.648777
  2604 28.8824 -0.120847 0.648786
  2605 26.7138 0.00179606 0.623597
  2606 70.1920 3.95142 -10.4100
  2607 31.4232 -2.00012 -0.814478
  2608 31.4236 -2.00035 0.816906
  2609 42.6545 -1.14684 -2.14004
  2610 42.6618 -1.15264 2.14708
  2611 37.7627 0.0159597 0.728045
  2612 37.7602 0.0159780 -0.728205
  2613 39.1778 -0.0869607 1.92549
  2614 29.0600 1.49194 1.07655
  2615 27.5879 0.179171 1.31525
  2616 33.0977 1.29418 -2.71885
  2617 19.5782 2.41787 3.68025
  2618 19.5790 2.41813 -3.67877
  2619 23.7197 0.889190 1.49335
  2620 23.7196 0.889034 -1.49289
  2621 36.0857 -0.0197479 -0.755489
  2622 36.0885 -0.0197659 0.755402
  2623 22.7337 1.66583 1.42187
  2624 22.7342 1.66561 -1.42149
  2625 35.9566 6.23516 -1.20418
  2626 42.5071 -0.145495 -1.47236
  2627 42.5042 -0.151859 1.48508
  2628 42.1009 -0.774836 2.93579
  2629 42.1045 -0.771118 -2.92221
  2630 28.5302 0.00245351 0.675590
  2631 28.5305 0.00206762 -0.675716
  2632 41.4264 -0.977087 -0.960324
  2633 41.4267 -0.976346 0.957246
  2634 60.8755 4.92430 0.00202631
  2635 11.4984 -6.05377 -1.45058
  2636 11.3369 -6.17627 1.42247
  2637 44.1662 -1.49488 -3.61277
  2638 44.2035 -1.44862 3.61422
  2639 24.2800 0.323189 -1.12077
  2640 24.2807 0.323252 1.12113
  2641 24.9371 0.739602 1.09485
  2642 24.9364 0.739377 -1.09538
  2643 40.2656 -3.76014 0.824290
  2644 40.2525 -3.73474 -0.834774
  2645 42.2156 6.39508 11.8653
  2646 32.5643 -2.14734 5.11683
  2647 33.0942 3.91394 1.91936
  2648 26.7763 1.02077 -3.89954
  2649 26.7778 1.02042 3.90002
  2650 58.6898 5.94167 7.42082
  2651 15.9335 2.44158 -0.317814
  2652 15.9382 2.44014 0.317456
  2653 28.0338 1.18976 -0.192345
  2654 25.5259 -0.478688 2.51402
  2655 25.5247 -0.480182 -2.51529
  2656 41.1702 0.00956383 -0.904459
  2657 41.1715 0.00949821 0.903989
  2658 16.9812 2.11795 -3.53034
  2659 16.9798 2.11745 3.53283
  2660 21.2404 2.28820 1.07461
  2661 21.2416 2.28799 -1.07443
  2662 30.0112 -0.933355 0.0576944
  2663 30.0123 -0.934452 -0.0565760
  2664 31.3751 0.153540 -2.56749
  2665 30.6943 0.375320 3.29887
  2666 30.6922 0.375632 -3.29887
  2667 43.1209 -2.65596 1.66037
  2668 43.1807 -2.58999 -1.64166
  2669 44.6290 -0.0525292 -0.671709
  2670 44.6274 -0.0526008 0.670761
  2671 31.0787 -4.80299 -4.03030
  2672 31.0921 -4.80527 4.04426
  2673 43.7081 -0.684380 0.379864
  2674 43.7042 -0.681798 -0.380170
  2675 24.9931 0.274939 1.27078
  2676 24.9921 0.274902 -1.27041
  2677 36.0972 -3.40804 -2.49154
  2678 30.2014 -0.177990 0.776291
  2679 30.2034 -0.177735 -0.774795
  2680 21.2593 2.33967 -1.77568
  2681 21.2583 2.33991 1.77608
  2682 29.3116 -0.424390 0.540758
  2683 29.3123 -0.425261 -0.540423
  2684 24.1970 0.702329 -1.65457
  2685 24.1975 0.702439 1.65505
  2686 20.4624 2.14905 -0.641977
  2687 20.4641 2.14915 0.641382
  2688 24.5075 0.0981573 -0.210476
  2689 41.0120 -2.80456 1.80759
  2690 41.0028 -2.78916 -1.81073
  2691 28.2369 -1.04843 1.39153
  2692 28.2382 -1.05035 -1.39212
  2693 50.3074 1.18462 0.666261
  2694 30.5883 3.12756 0.235244
  2695 28.9853 -2.82198 2.55370
  2696 29.0160 -2.79848 -2.55203
  2697 23.0158 1.54655 0.521401
  2698 23.0165 1.54634 -0.521260
  2699 31.8305 -2.40165 -4.45442
  2700 31.8364 -2.40287 4.45493
  2701 38.4722 0.568889 -5.56651
  2702 22.1292 2.04116 2.19521
  2703 22.1298 2.04096 -2.19467
  2704 23.0263 1.70668 2.56949
  2705 23.0264 1.70655 -2.56887
  2706 30.1870 0.351708 2.86118
  2707 30.1849 0.351902 -2.86104
  2708 29.5808 0.563329 -2.11117
  2709 28.6944 -4.12913 -4.39909
  2710 35.3416 0.446894 3.49993
  2711 27.1689 0.941957 4.29089
  2712 27.1672 0.942509 -4.29053
  2713 52.1026 3.79446 -1.96433
  2714 38.2706 -4.41229 -0.401712
  2715 38.2965 -4.39622 0.372367
  2716 23.3367 1.25663 0.947649
  2717 23.3371 1.25640 -0.947339
  2718 33.0840 1.09332 2.74449
  2719 57.6175 6.45316 -7.83075
  2720 27.7323 0.135857 -1.37213
  2721 30.3991 -0.950075 -0.438864
  2722 30.3999 -0.950929 0.440285
  2723 40.3634 -0.104634 -1.67716
  2724 40.3645 -0.104864 1.67607
  2725 25.2390 0.435122 1.68546
  2726 25.2380 0.435078 -1.68502
  2727 27.4194 0.815403 0.405662
  2728 22.6325 1.69430 0.948563
  2729 22.6332 1.69408 -0.948315
  2730 38.2468 7.45195 0.867512
  2731 30.5880 -0.112850 -0.165726
  2732 30.5877 -0.112629 0.166111
  2733 24.7302 0.172771 0.973794
  2734 24.7292 0.172741 -0.973494
  2735 7.79434 -10.2974 0.0485627
  2736 7.80644 -10.3048 -0.0612529
  2737 19.1523 2.68878 0.983670
  2738 19.1544 2.68837 -0.983592
  2739 26.7973 0.266706 1.64407
  2740 26.7957 0.266700 -1.64372
  2741 31.7577 1.98815 -2.40673
  2742 28.7032 -3.58614 3.78518
  2743 33.9658 1.90329 2.65154
  2744 35.5859 -2.38909 -2.97367
  2745 35.5936 -2.39055 2.97164
  2746 38.1861 -0.454054 0.651162
  2747 30.0504 0.194101 1.92054
  2748 30.0482 0.194163 -1.92036
  2749 32.7184 -3.17475 -4.33742
  2750 28.2444 0.671679 -3.31212
  2751 28.2461 0.671465 3.31246
  2752 31.2131 -5.58170 -3.54521
  2753 31.2958 -5.58550 3.59777
  2754 38.1582 -3.03817 -1.03943
  2755 38.1665 -3.03416 1.03297
  2756 41.2875 -0.115642 -1.64665
  2757 41.2880 -0.115979 1.64510
  2758 21.5844 1.25271 2.13721
  2759 21.5830 1.25181 -2.13820
  2760 28.6694 0.0168076 0.396730
  2761 28.6670 0.0168099 -0.396656
  2762 30.4685 -0.659968 -0.698035
  2763 30.4687 -0.660639 0.699576
  2764 31.0308 -4.23653 -2.85513
  2765 20.9633 2.15217 0.240203
  2766 20.9618 2.15216 -0.240547
  2767 26.3902 0.0766063 0.819356
  2768 26.3886 0.0765977 -0.819149
  2769 44.9755 -0.459168 1.96888
  2770 23.6030 -0.679763 3.83179
  2771 23.6007 -0.682760 -3.83217
  2772 31.4276 0.0823749 -1.41044
  2773 31.4301 0.0823340 1.41052
  2774 31.6689 3.88700 0.393959
  2775 41.1386 -1.92496 -2.73178
  2776 28.2881 -1.52297 -1.77839
  2777 28.2865 -1.52054 1.77735
  2778 42.0378 -1.77801 -3.23756
  2779 42.0545 -1.78188 3.24211
  2780 27.3208 0.0747747 0.935796
  2781 27.3189 0.0747756 -0.935593
  2782 22.8003 1.63345 1.20556
  2783 22.8008 1.63323 -1.20523
  2784 33.4018 -4.23312 -1.41879
  2785 32.7174 3.23087 -2.12829
  2786 48.1093 1.13665 -3.31237
  2787 23.4484 1.10880 -1.43410
  2788 23.4483 1.10899 1.43454
  2789 45.1876 6.36879 -0.609347
  2790 30.3996 -4.93061 -6.45914
  2791 40.5026 -0.00739737 -0.837493
  2792 40.5043 -0.00744902 0.837150
  2793 38.1687 2.04571 2.35609
  2794 23.9923 1.19726 -0.244394
  2795 23.9931 1.19713 0.244267
  2796 22.3411 1.86574 -1.04830
  2797 22.3403 1.86595 1.04855
  2798 24.5792 0.303199 -1.19613
  2799 24.5800 0.303251 1.19650
  2800 18.8794 -5.63431 -7.96829
  2801 42.8568 -0.0889408 -0.790652
  2802 42.8572 -0.0890195 0.790009
  2803 44.8575 3.59870 1.23375
  2804 24.8710 0.633627 1.92911
  2805 24.8702 0.633560 -1.92861
  2806 29.8598 -0.0245867 0.425308
  2807 29.8642 -0.0245438 -0.424380
  2808 18.4441 -5.60117 7.98825
  2809 31.1761 -3.23107 4.44098
  2810 31.1695 -3.23034 -4.43849
  2811 28.1917 0.627667 -4.85312
  2812 28.1939 0.626726 4.85314
  2813 32.5819 2.88915 2.27383
  2814 36.3692 -3.03000 -0.893820
  2815 20.4167 2.59572 -1.87660
  2816 20.4154 2.59602 1.87705
  2817 30.6533 -0.262839 -0.291325
  2818 30.6530 -0.263215 0.292402
  2819 25.0654 1.15876 3.16294
  2820 25.0646 1.15881 -3.16231
  2821 21.6646 1.73752 1.05677
  2822 21.6632 1.73723 -1.05731
  2823 17.7691 2.63596 2.51794
  2824 17.7713 2.63570 -2.51653
  2825 36.3559 3.47023 -9.34220
  2826 23.3729 1.63297 4.72616
  2827 23.3719 1.63377 -4.72521
  2828 36.6284 0.00234256 -2.49800
  2829 36.6305 0.00203568 2.49726
  2830 23.7844 1.60562 3.37568
  2831 23.7840 1.60569 -3.37494
  2832 25.9995 0.0421828 0.534883
  2833 22.3929 1.86988 -1.87730
  2834 22.3923 1.87008 1.87777
  2835 25.2290 -0.977434 -3.21215
  2836 25.2304 -0.975067 3.21043
  2837 26.2544 0.277240 -0.693827
  2838 31.0453 -1.10618 -1.71449
  2839 31.0472 -1.10653 1.71607
  2840 26.0667 0.283945 1.23090
  2841 26.0663 0.283439 -1.23155
  2842 24.0879 1.05645 2.18628
  2843 24.0875 1.05634 -2.18572
  2844 23.2818 0.755568 2.13885
  2845 23.2804 0.754736 -2.13965
  2846 27.5494 0.843239 -4.70025
  2847 27.5514 0.842427 4.70045
  2848 43.4293 -0.666477 -0.0876176
  2849 43.4265 -0.664837 0.0860112
  2850 23.5746 1.32325 0.352919
  2851 23.5737 1.32333 -0.353093
  2852 30.4687 -2.93283 -1.39063
  2853 30.4818 -2.91479 1.35948
  2854 26.9298 0.0412754 -0.642071
  2855 26.9318 0.0412773 0.642223
  2856 22.5459 2.01373 3.27751
  2857 22.5460 2.01372 -3.27671
  2858 30.5490 -4.37002 4.20813
  2859 30.2135 -4.50370 -4.08618
  2860 31.4752 -0.0221011 -0.00561533
  2861 31.4750 -0.0221345 0.00584686
  2862 24.4125 0.409270 -1.34186
  2863 24.4132 0.409340 1.34227
  2864 37.4899 -3.75223 -1.02886
  2865 37.5048 -3.74840 1.02095
  2866 22.2821 0.397133 -3.16653
  2867 22.2833 0.399039 3.16541
  2868 25.5804 0.0677031 -0.693988
  2869 25.5819 0.0677129 0.694186
  2870 12.2006 0.890773 -1.84141
  2871 12.2112 0.887873 1.84110
  2872 41.2597 -0.163546 4.86257
  2873 22.6058 1.62944 -0.479373
  2874 22.6069 1.62946 0.479125
  2875 25.3763 0.425325 -1.42156
  2876 25.3770 0.425816 1.42082
  2877 23.1674 1.34283 1.13923
  2878 23.1678 1.34261 -1.13888
  2879 25.2345 -6.18242 -4.71874
  2880 25.2921 -6.10234 4.56431
  2881 32.8355 -1.81489 1.68972
  2882 32.8182 -1.79662 -1.70407
  2883 17.4877 -1.39073 5.76093
  2884 17.4825 -1.38739 -5.75971
  2885 28.6919 0.927191 1.53605
  2886 30.4069 -0.435146 0.886534
  2887 30.4074 -0.434640 -0.884876
  2888 27.8892 -1.09129 1.66780
  2889 27.8903 -1.09327 -1.66877
  2890 10.7925 0.426537 -0.824799
  2891 10.7839 0.427366 0.829775
  2892 18.9932 2.18770 4.10519
  2893 18.9936 2.18839 -4.10334
  2894 28.9481 0.0723771 0.978546
  2895 28.9458 0.0723813 -0.978384
  2896 30.6704 1.56694 2.14273
  2897 40.1997 -0.327868 -2.98338
  2898 20.0399 0.736717 -5.51792
  2899 20.0421 0.734629 5.51956
  2900 24.3537 0.655550 -1.68648
  2901 24.3543 0.655646 1.68696
  2902 40.7322 -1.58603 -0.434013
  2903 40.7330 -1.58284 0.430509
  2904 30.1135 0.00577816 -2.26590
  2905 27.2279 0.227986 -1.19170
  2906 24.0390 0.00168220 0.137690
  2907 24.0379 0.00168246 -0.137641
  2908 44.7703 -1.67030 1.03230
  2909 44.7308 -1.65042 -0.974179
  2910 26.4775 0.384575 0.905328
  2911 26.4772 0.384300 -0.905762
  2912 24.2776 0.403994 -1.25425
  2913 24.2783 0.404068 1.25465
  2914 25.7832 0.379892 1.71119
  2915 25.7820 0.379863 -1.71078
  2916 31.5728 -3.48347 -1.25108
  2917 31.5279 -3.49845 1.27838
  2918 60.8200 4.39803 -1.58448
  2919 37.0230 0.965879 -3.75914
  2920 27.5798 0.0363741 -1.16444
  2921 61.5201 3.73526 -5.21312
  2922 32.0594 4.36949 -0.386045
  2923 52.2703 4.95921 0.311401
  2924 38.0524 -0.945549 4.11183
  2925 36.2125 -1.02665 1.54306
  2926 25.9141 0.0396650 -0.506422
  2927 23.4067 1.26379 1.78120
  2928 23.4067 1.26360 -1.78070
  2929 37.9707 -4.11379 -1.63016
  2930 38.2079 -4.04730 1.47924
  2931 59.4827 4.24709 12.3855
  2932 44.0170 4.23782 6.06523
  2933 23.7822 1.48896 -2.86247
  2934 23.7825 1.48902 2.86313
  2935 49.8540 6.18365 3.57693
  2936 35.1811 -0.381567 -3.66198
  2937 35.1839 -0.382621 3.66047
  2938 24.9022 0.0305755 -0.414934
  2939 24.9035 0.0305811 0.415062
  2940 28.2592 -0.0801421 0.792789
  2941 28.2595 -0.0807260 -0.792964
  2942 29.8807 -0.629185 -0.202171
  2943 29.8799 -0.628274 0.203013
  2944 25.8724 1.17656 4.21349
  2945 25.8711 1.17701 -4.21291
  2946 30.4628 -0.705242 1.72761
  2947 30.4620 -0.705753 -1.72539
  2948 28.9849 -0.804522 0.792249
  2949 28.9862 -0.805948 -0.792033
  2950 24.9595 0.111759 0.356111
  2951 31.6828 3.61240 1.12977
  2952 44.0065 0.889706 4.68707
  2953 25.0275 0.0919972 -0.733782
  2954 25.0287 0.0920124 0.734008
  2955 29.7531 0.969878 -2.03135
  2956 25.2840 0.168335 1.04383
  2957 25.2828 0.168312 -1.04353
  2958 29.1203 -0.0968414 -0.576488
  2959 29.1200 -0.0963986 0.576537
  2960 22.2991 1.69591 -0.611622
  2961 22.3004 1.69601 0.611310
  2962 83.5557 2.56673 5.09171
  2963 32.7798 0.197086 2.34579
  2964 32.7774 0.197243 -2.34587
  2965 26.6690 0.146599 -1.17518
  2966 26.6707 0.146606 1.17545
  2967 30.1190 -7.97252e-05 2.27016
  2968 25.5753 0.799043 2.58774
  2969 25.5743 0.799032 -2.58720
  2970 24.6991 0.837080 2.22016
  2971 24.6984 0.837008 -2.21961
  2972 26.7981 -0.891157 -2.19432
  2973 26.7982 -0.889363 2.19279
  2974 23.1497 1.35941 1.37913
  2975 23.1500 1.35919 -1.37872
  2976 38.0842 7.77712 0.0598982
  2977 13.5573 0.813796 -3.01332
  2978 13.5660 0.810834 3.00996
  2979 28.5436 0.201853 -1.72493
  2980 22.4798 1.88852 4.45384
  2981 22.4793 1.88914 -4.45275
  2982 26.9855 0.140650 1.02843
  2983 26.9855 0.140127 -1.02891
  2984 37.5153 3.36449 9.56318
  2985 26.4411 0.819054 3.07840
  2986 26.4398 0.819153 -3.07789
  2987 16.6613 -1.84988 -6.19886
  2988 39.0157 0.850654 4.27163
  2989 25.0474 -1.30882 3.76284
  2990 25.0443 -1.31046 -3.76506
  2991 29.7765 -0.190871 -1.03245
  2992 29.7742 -0.190866 1.03406
  2993 30.7842 0.499332 -2.44389
  2994 43.7908 0.951817 -4.57693
  2995 25.6502 1.16170 3.76596
  2996 25.6490 1.16195 -3.76535
  2997 61.7965 3.89037 3.51601
  2998 45.7198 7.96836 0.208773
  2999 4.90296 -9.27105 -0.987077
  3000 4.92287 -9.30100 0.983844
  3001 30.9807 -2.23121 -0.0415696
  3002 30.9832 -2.23190 0.0445489
  3003 26.2969 0.205819 -1.39346
  3004 26.2984 0.205828 1.39379
  3005 48.8286 3.31684 2.86183
  3006 16.4389 -0.265297 5.12072
  3007 16.4359 -0.262149 -5.11771
  3008 17.0455 2.72218 1.16937
  3009 17.0488 2.72137 -1.16874
  3010 29.1927 1.83227 -0.660790
  3011 35.2934 -0.0113452 -3.31509
  3012 35.2956 -0.0119618 3.31405
  3013 21.0686 2.09028 4.22603
  3014 21.0684 2.09085 -4.22469
  3015 34.4323 0.0784436 2.54662
  3016 53.4419 5.20690 -13.4647
  3017 28.8110 0.479198 -3.02689
  3018 28.8129 0.479020 3.02717
  3019 28.9581 0.602773 3.63795
  3020 28.9562 0.603123 -3.63774
  3021 27.9979 0.134549 1.33053
  3022 27.9960 0.134556 -1.33028
  3023 29.7933 -0.380091 0.333557
  3024 29.7939 -0.380781 -0.333014
  3025 22.3547 1.83183 -0.515276
  3026 22.3538 1.83200 0.515365
  3027 56.2556 3.17109 -4.67682
  3028 24.4196 0.0663619 0.572412
  3029 24.4186 0.0663499 -0.572220
  3030 30.8641 -0.0500449 -0.150712
  3031 30.8638 -0.0499358 0.150972
  3032 26.6755 0.0217885 0.266194
  3033 26.6735 0.0217846 -0.266125
  3034 16.5100 0.700825 3.91185
  3035 16.5061 0.702043 -3.91598
  3036 30.6752 -0.258382 -2.34776
  3037 30.6855 -0.258256 2.34830
  3038 32.1141 0.0573486 2.61157
  3039 32.2786 0.0377967 -0.490805
  3040 32.2814 0.0377923 0.490830
  3041 42.2729 -2.29600 -3.21872
  3042 42.2863 -2.29727 3.22805
  3043 24.0428 1.16312 2.35178
  3044 24.0424 1.16301 -2.35119
  3045 24.2097 -0.121709 -2.86098
  3046 24.2113 -0.120217 2.85980
  3047 27.3901 -0.114552 1.13639
  3048 27.3903 -0.115376 -1.13689
  3049 49.0016 8.13482 -0.853152
  3050 29.0053 -0.225306 -0.632442
  3051 29.0048 -0.224644 0.632539
  3052 26.2407 1.03389 3.55247
  3053 26.2395 1.03408 -3.55192
  3054 53.0234 3.75760 1.83073
  3055 14.8940 1.26472 -2.77053
  3056 14.9005 1.26289 2.76764
  3057 22.2380 1.59609 -0.977409
  3058 22.2393 1.59632 0.976962
  3059 31.8281 -3.18750 0.519673
  3060 31.8108 -3.18954 -0.529007
  3061 24.3905 0.192683 -0.925420
  3062 24.3914 0.192720 0.925722
  3063 15.0335 1.99931 2.67770
  3064 15.0366 1.99943 -2.67471
  3065 30.5038 -0.442716 0.620558
  3066 30.5041 -0.442171 -0.619089
  3067 38.1751 2.18836 0.874134
  3068 23.0744 -5.11363 7.56528
  3069 28.6301 -2.12966 -2.12163
  3070 28.6297 -2.12537 2.12344
  3071 29.2671 -4.77589 -4.79002
  3072 25.9156 0.198518 1.41819
  3073 25.9152 0.197885 -1.41896
  3074 30.4397 -1.39550 -0.323883
  3075 30.4411 -1.39644 0.325417
  3076 12.5236 -2.01835 -5.73155
  3077 12.5295 -2.01972 5.72769
  3078 34.9943 0.0252486 1.89994
  3079 25.3173 0.374799 0.0223409
  3080 21.9178 1.79590 -0.406258
  3081 21.9191 1.79596 0.405987
  3082 17.5891 -3.00038 -5.97504
  3083 17.5968 -3.00348 5.97429
  3084 28.0808 0.990506 -0.870725
  3085 30.4829 5.59681 -11.5618
  3086 27.6486 -5.59397 6.78392
  3087 46.8731 -0.109283 -0.182954
  3088 46.8804 -0.109750 0.182907
  3089 27.5735 0.0410604 1.15467
  3090 24.1582 1.11083 -0.589988
  3091 24.1591 1.11081 0.589710
  3092 33.4207 -0.169727 4.16517
  3093 33.4180 -0.168745 -4.16625
  3094 33.2447 0.201559 -3.13008
  3095 33.2470 0.201182 3.12971
  3096 33.6403 0.000751052 -0.548058
  3097 33.6432 0.000740750 0.548070
  3098 31.0871 -0.00542692 -0.0868954
  3099 31.0865 -0.00541666 0.0869101
  3100 3.02087 -19.9283 1.53996
  3101 3.07162 -19.9210 -1.62375
  3102 25.4538 -0.00278991 -0.244147
  3103 25.4554 -0.00279172 0.244221
  3104 30.9259 -1.44193 4.93141
  3105 30.9217 -1.44058 -4.93193
  3106 33.5149 0.186617 2.61023
  3107 30.4356 1.04870 2.26354
  3108 23.7472 0.768880 1.31224
  3109 23.7470 0.768731 -1.31181
  3110 49.8722 4.48444 -0.129068
  3111 23.0016 1.50930 1.59445
  3112 23.0019 1.50910 -1.59400
  3113 8.97062 -2.96722 -2.74514
  3114 8.97152 -2.97297 2.75398
  3115 29.3594 -0.0197986 -0.492574
  3116 29.3591 -0.0195345 0.492585
  3117 27.5622 0.626313 3.05076
  3118 27.5606 0.626455 -3.05035
  3119 29.6006 0.510066 2.12091
  3120 24.9936 0.329427 -0.303862
  3121 30.8045 -0.0317869 -0.170237
  3122 30.8042 -0.0316965 0.170416
  3123 30.9232 -0.122570 0.0295898
  3124 30.9234 -0.122391 -0.0289818
  3125 27.5378 0.244793 1.69908
  3126 27.5360 0.244801 -1.69876
  3127 29.2029 -0.154776 1.20258
  3128 29.2052 -0.155960 -1.20138
  3129 26.0323 -0.528486 -2.25249
  3130 26.0330 -0.527114 2.25112
  3131 35.9362 -1.47550 -1.36483
  3132 28.6268 0.781805 -1.56070
  3133 35.9001 4.39773 -2.25392
  3134 17.2997 2.22848 -1.26790
  3135 17.3033 2.22768 1.26639
  3136 24.0995 0.363734 1.10602
  3137 24.0989 0.363660 -1.10564
  3138 25.3513 -2.87510 -5.14667
  3139 25.3671 -2.86966 5.11014
  3140 28.5796 0.225426 1.76350
  3141 24.1728 0.220423 -0.913360
  3142 24.1736 0.220471 0.913669
  3143 39.5447 0.987776 -4.33215
  3144 26.6645 0.759004 -5.15365
  3145 26.6668 0.757846 5.15385
  3146 44.5287 -0.307355 -0.466902
  3147 44.5255 -0.307073 0.465047
  3148 14.5004 1.00788 3.69940
  3149 14.5014 1.00949 -3.69527
  3150 7.43810 -2.49683 0.0383947
  3151 7.42121 -2.49580 -0.0275834
  3152 38.4586 -1.21798 1.32630
  3153 44.8154 -0.885509 -1.72633
  3154 28.4551 -5.03708 5.69730
  3155 19.9225 0.211368 -4.11823
  3156 19.9234 0.212717 4.11441
  3157 44.1934 -0.174459 -0.868313
  3158 44.1913 -0.174579 0.866427
  3159 32.2254 0.0557776 1.33965
  3160 32.2228 0.0558159 -1.33961
  3161 24.5733 0.0110181 -0.197173
  3162 24.5746 0.0110217 0.197241
  3163 28.6614 -0.258900 0.746722
  3164 28.6620 -0.259689 -0.746736
  3165 40.3512 -0.262208 2.99076
  3166 30.2090 -0.252036 0.203842
  3167 30.2093 -0.252484 -0.203286
  3168 36.5526 -3.21268 1.85442
  3169 30.1585 -0.748847 -0.0771814
  3170 30.1592 -0.749745 0.0783537
  3171 23.1953 1.22862 1.29314
  3172 23.1941 1.22832 -1.29366
  3173 23.2671 1.77745 3.52853
  3174 23.2668 1.77755 -3.52774
  3175 29.1720 0.210547 1.94458
  3176 29.1699 0.210599 -1.94433
  3177 30.7136 -5.50674 -5.39008
  3178 25.3777 0.465068 5.60074
  3179 25.3750 0.466631 -5.60045
  3180 33.7490 -0.892249 4.16721
  3181 33.7451 -0.890853 -4.16855
  3182 31.3875 -0.00235223 -0.0604247
  3183 31.3871 -0.00233710 0.0605050
  3184 25.8556 0.0707657 -0.668402
  3185 25.8572 0.0707771 0.668589
  3186 34.7750 6.28816 0.358966
  3187 29.6373 -5.53971 -4.21386
  3188 29.6383 -5.53040 4.25316
  3189 31.3869 0.0723142 2.53671
  3190 37.2331 -2.92083 1.74097
  3191 37.2237 -2.92138 -1.74523
  3192 34.6817 5.66741 1.26361
  3193 31.0528 -1.35813 1.38119
  3194 31.0517 -1.35770 -1.37990
  3195 23.4126 1.34777 0.326669
  3196 23.4134 1.34757 -0.326580
  3197 41.7923 -0.385206 2.50264
  3198 41.8210 -0.372615 -2.49566
  3199 33.8763 -1.46763 -1.92513
  3200 20.2476 2.60481 -1.42739
  3201 20.2461 2.60513 1.42765
  3202 31.4421 1.35656 -2.48727
  3203 27.4532 0.113122 -1.15378
  3204 27.4551 0.113120 1.15402
  3205 31.8847 0.955527 0.996524
  3206 40.6695 0.724547 -4.69613
  3207 28.4226 0.482234 2.71184
  3208 28.4208 0.482341 -2.71151
  3209 34.1145 5.16073 10.7570
  3210 29.4112 0.0752533 1.07039
  3211 29.4089 0.0752614 -1.07023
  3212 37.3436 6.64939 1.46063
  3213 29.7786 0.895292 2.08429
  3214 31.1445 2.24532 -1.95813
  3215 30.8961 -1.38831 -1.02291
  3216 30.8971 -1.38887 1.02437
  3217 22.0780 2.06272 1.87284
  3218 22.0787 2.06250 -1.87238
  3219 40.8532 1.79245 3.52643
  3220 33.6724 -1.29613 2.01351
  3221 23.2626 -6.13375 -5.07660
  3222 23.4478 -6.11026 4.96108
  3223 45.4544 -1.08992 -2.52121
  3224 42.3954 -1.01460 4.54346
  3225 42.3923 -1.04640 -4.55544
  3226 28.9077 -0.965707 0.901723
  3227 28.9091 -0.967324 -0.901582
  3228 10.3420 -0.566804 -1.85866
  3229 10.3366 -0.567776 1.86626
  3230 30.6429 -0.0439843 0.314035
  3231 30.6456 -0.0439077 -0.313293
  3232 24.0436 0.827882 -1.74743
  3233 24.0440 0.828006 1.74793
  3234 35.0210 -3.04692 0.150795
  3235 29.8888 -2.60837 1.52960
  3236 29.8907 -2.60926 -1.54677
  3237 23.2164 1.48068 0.332968
  3238 23.2172 1.48048 -0.332881
  3239 26.3095 -1.10701 -5.91246
  3240 26.3131 -1.10814 5.91226
  3241 30.4851 -0.00356581 -4.88061
  3242 30.4879 -0.00475038 4.87998
  3243 26.3958 0.361240 0.572586
  3244 30.4200 -0.435059 -0.159717
  3245 30.4202 -0.435630 0.160781
  3246 30.3511 0.0761977 1.19565
  3247 30.3487 0.0762205 -1.19552
  3248 37.7501 2.01405 2.10286
  3249 27.2184 -0.306906 1.37669
  3250 27.2187 -0.308000 -1.37740
  3251 15.1222 -5.40777 -5.22701
  3252 15.1349 -5.40589 5.22509
  3253 23.3551 1.18766 1.26041
  3254 23.3553 1.18745 -1.26001
  3255 29.7402 -0.318309 -1.72183
  3256 29.7391 -0.316092 1.72301
  3257 24.7147 0.431486 -1.47934
  3258 24.7155 0.431549 1.47977
  3259 32.2503 -1.75772 -4.50721
  3260 32.2552 -1.75925 4.50663
  3261 30.4088 -0.735206 0.463137
  3262 30.4083 -0.734456 -0.461729
  3263 27.7410 0.335691 2.01190
  3264 27.7393 0.335715 -2.01156
  3265 29.1984 -2.52768 2.07395
  3266 29.1883 -2.51637 -2.06870
  3267 30.5395 -0.320923 0.127126
  3268 30.5394 -0.320487 -0.126168
  3269 44.0732 1.38348 4.41986
  3270 32.6112 0.227184 2.68212
  3271 32.6089 0.227399 -2.68224
  3272 31.1124 -0.0567369 -0.0554746
  3273 31.1123 -0.0566289 0.0558190
  3274 41.4143 6.89348 -0.892203
  3275 34.5339 -4.27902 1.86443
  3276 30.8006 -0.145107 -0.362331
  3277 30.7995 -0.145327 0.363347
  3278 25.8288 -0.893751 -2.75686
  3279 25.8301 -0.891684 2.75547
  3280 35.4566 -1.56458 -5.37138
  3281 22.1122 2.07544 -2.49718
  3282 22.1117 2.07560 2.49780
  3283 5.36993 -14.6886 -0.772639
  3284 6.09943 -12.9344 1.84610
  3285 22.8183 -0.660599 -4.21046
  3286 22.8171 -0.656288 4.20978
  3287 45.5311 -1.03078 2.52626
  3288 24.3194 0.0270700 -0.324487
  3289 24.3206 0.0270777 0.324599
  3290 18.3021 2.24750 -1.11546
  3291 18.3048 2.24714 1.11415
  3292 4.94517 -7.00210 -0.341455
  3293 4.94696 -7.01704 0.367210
  3294 38.1033 0.00601143 -2.01615
  3295 38.1052 0.00578538 2.01539
  3296 30.3564 -3.76671 -2.70827
  3297 34.4896 -0.112320 -2.44913
  3298 40.6070 2.85460 0.702461
  3299 23.5742 1.32468 -0.150464
  3300 23.5734 1.32487 0.150493
  3301 25.9845 -0.00288404 -0.185369
  3302 25.9863 -0.00288879 0.185424
  3303 30.0695 -0.00765721 -0.344966
  3304 30.0691 -0.00753078 0.345006
  3305 26.1832 0.517800 2.22171
  3306 26.1820 0.517799 -2.22124
  3307 30.4582 -1.82384 -0.0912747
  3308 30.4558 -1.82247 0.0930675
  3309 39.4867 1.75564 -0.965633
  3310 27.8635 -0.109815 -0.946878
  3311 27.8632 -0.109084 0.946565
  3312 26.1717 0.209967 0.800234
  3313 43.4166 -0.130610 -1.07565
  3314 43.4156 -0.130818 1.07406
  3315 16.5196 -2.22780 6.66678
  3316 16.5258 -2.21252 -6.68437
  3317 28.7822 1.50566 0.593645
  3318 30.9403 -0.767733 2.10647
  3319 30.9379 -0.769157 -2.10330
  3320 31.4384 -1.67431 1.29717
  3321 31.4385 -1.67429 -1.29574
  3322 41.4282 -3.07825 2.04916
  3323 41.4162 -3.06071 -2.05002
  3324 19.7341 -1.35057 4.54699
  3325 47.1256 0.363301 -3.52262
  3326 39.6785 3.53661 -1.60521
  3327 19.6367 1.84065 4.64464
  3328 19.6363 1.84172 -4.64278
  3329 49.2839 2.53140 3.18850
  3330 19.2539 2.76473 1.62801
  3331 19.2558 2.76431 -1.62759
  3332 24.3035 0.920551 -2.08506
  3333 24.3040 0.920655 2.08560
  3334 40.0235 -1.09080 -1.48330
  3335 40.0256 -1.09077 1.48007
  3336 23.1261 1.44628 -1.78082
  3337 23.1259 1.44648 1.78130
  3338 20.4763 1.20919 -2.61564
  3339 20.4776 1.21035 2.61393
  3340 23.4131 1.43258 2.22895
  3341 23.4131 1.43242 -2.22838
  3342 34.8337 -0.0463982 -1.91753
  3343 26.1069 0.666743 2.51195
  3344 26.1057 0.666753 -2.51145
  3345 29.0715 -0.516213 0.655706
  3346 29.0723 -0.517259 -0.655464
  3347 37.4647 0.0103460 -1.71103
  3348 56.2508 3.45316 -0.0129308
  3349 9.53976 -5.91317 -3.64741
  3350 9.54892 -5.91877 3.64661
  3351 16.7810 1.13901 -4.53537
  3352 16.7814 1.13714 4.53846
  3353 29.2967 0.398705 -4.93070
  3354 29.2993 0.397630 4.93040
  3355 41.8082 -1.04982 -0.484301
  3356 41.8077 -1.04811 0.481536
  3357 28.4777 0.553662 1.62642
  3358 30.7223 -2.43196 -0.454470
  3359 30.7160 -2.42944 0.458319
  3360 37.7047 2.11681 0.189512
  3361 16.8845 2.47284 2.65250
  3362 16.8870 2.47266 -2.65054
  3363 41.3784 -1.62160 0.179353
  3364 41.3771 -1.61660 -0.181843
  3365 30.9298 -4.14068 2.69565
  3366 37.6566 6.75936 -1.32972
  3367 21.6513 2.17437 1.05871
  3368 21.6523 2.17416 -1.05851
  3369 23.4419 1.49767 -2.51929
  3370 23.4420 1.49779 2.51990
  3371 24.6855 -1.90182 4.64911
  3372 24.6932 -1.92082 -4.64989
  3373 44.9238 -0.350053 -0.165417
  3374 44.9195 -0.349332 0.164026
  3375 33.8111 0.0258868 -3.75277
  3376 33.8135 0.0251628 3.75190
  3377 38.3674 -1.95167 -1.75854
  3378 38.3724 -1.95122 1.75465
  3379 30.3371 -0.113927 -0.255792
  3380 30.3367 -0.113682 0.256081
  3381 21.9899 1.53221 -5.11681
  3382 21.9912 1.53097 5.11805
  3383 36.1325 -1.41240 3.26645
  3384 36.1280 -1.41098 -3.26851
  3385 8.62095 -9.69091 -2.32662
  3386 8.61825 -9.67873 2.31777
  3387 24.0566 0.0140194 -0.255281
  3388 24.0577 0.0140190 0.255374
  3389 37.1610 2.39413 -2.38458
  3390 23.5361 0.994744 1.23608
  3391 23.5361 0.994552 -1.23567
  3392 23.9384 0.510701 -1.22297
  3393 23.9388 0.510808 1.22338
  3394 20.4805 1.23382 -5.28331
  3395 20.4821 1.23208 5.28496
  3396 30.7818 0.000879807 -0.175785
  3397 31.2285 -0.00229941 0.0682216
  3398 30.7813 0.000909221 0.175807
  3399 31.2291 -0.00231029 -0.0681952
  3400 32.9045 -3.40367 0.319714
  3401 32.8785 -3.41088 -0.290321
  3402 21.4047 0.933328 -2.75904
  3403 21.4060 0.934719 2.75771
  3404 22.5292 -3.93815 5.98189
  3405 22.5272 -3.94041 -5.98670
  3406 34.2240 0.0544885 2.11696
  3407 34.2216 0.0546328 -2.11718
  3408 24.5336 0.0307530 0.249883
  3409 30.1392 -1.98364 0.541054
  3410 30.1428 -1.98584 -0.539700
  3411 27.4118 0.519861 2.64219
  3412 27.4102 0.519934 -2.64177
  3413 30.5198 -0.404726 0.314971
  3414 30.5199 -0.404221 -0.313768
  3415 77.6644 3.12767 9.55385
  3416 24.8677 0.215000 -1.10235
  3417 24.8688 0.215034 1.10268
  3418 25.5454 0.972937 2.99587
  3419 25.5444 0.972973 -2.99528
  3420 8.60342 -2.08022 -1.48485
  3421 8.59685 -2.08300 1.49541
  3422 23.9092 0.978569 1.22523
  3423 23.9081 0.978307 -1.22577
  3424 13.6307 1.76483 -0.732854
  3425 13.6382 1.76259 0.733235
  3426 47.6357 1.06194 3.59571
  3427 32.5412 0.701194 -2.27202
  3428 29.6133 -0.613255 0.388406
  3429 29.6142 -0.614255 -0.387793
  3430 25.6116 -2.04394 4.19829
  3431 25.6251 -2.07894 -4.19775
  3432 24.1233 1.30855 2.73446
  3433 24.1228 1.30848 -2.73382
  3434 30.9002 0.295555 2.92028
  3435 30.8980 0.295777 -2.92023
  3436 42.4169 -1.33494 1.18330
  3437 42.4120 -1.32788 -1.18212
  3438 24.4734 0.793232 -1.31206
  3439 24.4743 0.793548 1.31145
  3440 21.0715 -0.464170 -4.65348
  3441 21.0725 -0.461671 4.64778
  3442 20.7879 0.354467 -3.69506
  3443 20.7885 0.356669 3.69249
  3444 60.0062 5.53169 -0.0325731
  3445 9.35039 -8.40262 5.28577
  3446 46.5219 -0.0770105 0.414413
  3447 46.5153 -0.0764511 -0.413114
  3448 52.4101 2.01081 0.916221
  3449 27.5781 -0.399491 1.25770
  3450 27.5786 -0.400650 -1.25828
  3451 24.6850 0.0666670 -0.604289
  3452 24.6861 0.0666785 0.604485
  3453 24.1626 0.459364 -1.29001
  3454 24.1632 0.459450 1.29043
  3455 10.6998 -0.277097 -2.53215
  3456 10.7139 -0.279515 2.53167
  3457 38.1096 -0.352604 2.76558
  3458 38.1077 -0.351879 -2.76740
  3459 18.0632 -0.791559 -5.57907
  3460 18.0620 -0.793352 5.57755
  3461 27.6800 0.407054 1.33337
  3462 22.0543 2.14730 3.62604
  3463 22.0544 2.14744 -3.62510
  3464 26.5079 0.102369 0.866186
  3465 29.3733 -0.154754 -1.73788
  3466 29.3724 -0.153119 1.73836
  3467 33.2972 -0.245202 -2.55291
  3468 29.7129 0.00419358 0.375279
  3469 29.7103 0.00419445 -0.375218
  3470 23.0698 1.44854 1.05635
  3471 23.0703 1.44831 -1.05603
  3472 41.4983 -2.00812 1.38287
  3473 41.4925 -1.99792 -1.38316
  3474 26.6124 0.444056 -0.571091
  3475 22.5028 1.83629 1.70970
  3476 22.5033 1.83607 -1.70927
  3477 39.9025 -0.0326486 -1.61300
  3478 39.9038 -0.0328634 1.61211
  3479 19.9618 -0.266895 -5.93196
  3480 19.9655 -0.269325 5.93297
  3481 19.2221 -0.562998 5.17897
  3482 19.2203 -0.560657 -5.18246
  3483 27.7368 0.792923 3.83998
  3484 27.7351 0.793296 -3.83965
  3485 24.8671 0.256884 0.593026
  3486 30.5152 2.28569 1.52855
  3487 24.7021 0.955439 0.589993
  3488 24.7014 0.955468 -0.590278
  3489 24.1536 0.0693139 0.550159
  3490 24.1527 0.0692964 -0.549962
  3491 12.5152 -3.04948 4.69185
  3492 26.6936 0.0937891 -0.871175
  3493 26.6954 0.0937986 0.871383
  3494 22.6312 1.81287 -2.05854
  3495 22.6308 1.81307 2.05906
  3496 26.2174 0.349209 1.08827
  3497 26.2171 0.348810 -1.08882
  3498 27.2918 0.193032 0.864081
  3499 27.2918 0.192665 -0.864439
  3500 27.1943 -0.00263228 0.495704
  3501 27.1825 -0.00258097 -0.498383
  3502 35.3818 -2.74091 -0.374657
  3503 36.1500 -4.81683 -1.77301
  3504 36.2740 -4.84661 1.70256
  3505 29.8207 2.37469 0.422758
  3506 23.4712 1.13205 1.54799
  3507 23.4713 1.13186 -1.54752
  3508 13.1565 -2.37873 5.00356
  3509 13.1505 -2.37375 -5.00006
  3510 29.4054 1.03225 1.82617
  3511 27.1780 0.693450 2.93939
  3512 27.1765 0.693549 -2.93895
  3513 30.0379 -0.0505615 0.340177
  3514 30.0383 -0.0507637 -0.340036
  3515 18.7349 1.90364 -1.90936
  3516 18.7373 1.90367 1.90750
  3517 20.5754 2.54184 2.66151
  3518 20.5764 2.54167 -2.66073
  3519 25.9674 1.04889 -4.89798
  3520 25.9693 1.04793 4.89842
  3521 33.9998 -4.60444 -2.51511
  3522 23.3267 1.21926 1.36202
  3523 23.3269 1.21905 -1.36160
  3524 10.0498 -7.75666 -5.79340
  3525 25.0613 0.859149 2.44084
  3526 25.0605 0.859104 -2.44028
  3527 23.5527 1.00679 -1.38928
  3528 23.5527 1.00697 1.38972
  3529 70.0481 5.10494 -0.808736
  3530 22.1096 1.22016 5.36966
  3531 22.1078 1.22169 -5.36845
  3532 33.6123 4.79458 1.47380
  3533 47.1262 0.323739 3.58128
  3534 23.3421 -0.197923 -3.40147
  3535 23.3440 -0.195699 3.40061
  3536 26.9331 0.449185 -2.24262
  3537 26.9347 0.449165 2.24304
  3538 42.9211 -1.65055 4.03796
  3539 42.9143 -1.67654 -4.02612
  3540 29.0613 0.00146126 -0.547206
  3541 29.0610 0.00175999 0.547175
  3542 53.9164 2.49434 -0.344144
  3543 23.5918 1.24705 2.09027
  3544 23.5917 1.24690 -2.08972
  3545 25.5432 0.237716 1.30220
  3546 25.5419 0.237687 -1.30186
  3547 28.2960 -2.43508 -5.40091
  3548 28.2996 -2.43514 5.40178
  3549 29.5557 -0.0507793 -0.452477
  3550 29.5554 -0.0504928 0.452561
  3551 23.8080 1.22672 -0.564320
  3552 23.8089 1.22670 0.564060
  3553 29.0020 0.00433688 -0.428043
  3554 28.9958 0.00468862 0.428764
  3555 85.6100 2.02676 -1.96970
  3556 30.4294 -0.726517 -1.51284
  3557 30.4300 -0.726597 1.51478
  3558 30.6854 0.125561 1.57520
  3559 25.7444 -0.0224510 1.85424
  3560 25.7438 -0.0233576 -1.85528
  3561 23.6026 1.09918 -1.73024
  3562 23.6027 1.09935 1.73074
  3563 26.1777 -5.60537 -5.09451
  3564 26.1537 -5.57750 5.09886
  3565 18.3274 2.52100 -0.246158
  3566 18.3301 2.52048 0.245497
  3567 24.3671 0.256559 -1.05201
  3568 24.3679 0.256608 1.05235
  3569 32.3942 0.00414166 -4.27598
  3570 32.3969 0.00321048 4.27514
  3571 27.0379 -4.33604 -5.75008
  3572 22.2898 1.92833 1.47765
  3573 22.2904 1.92810 -1.47728
  3574 42.8706 -0.390968 -1.17314
  3575 42.8695 -0.391050 1.17075
  3576 35.2583 3.11673 -2.57565
  3577 17.6557 -5.86116 7.73388
  3578 22.7190 1.90671 -2.70297
  3579 22.7188 1.90683 2.70363
  3580 27.8505 0.223330 1.41182
  3581 30.4384 -4.47933 3.63995
  3582 30.5229 1.78958 -1.99481
  3583 18.5705 0.223551 -4.44217
  3584 18.5725 0.223003 4.43776
  3585 30.7557 -0.0205507 -0.192868
  3586 30.7553 -0.0204841 0.192975
  3587 30.2081 2.33974 -1.19576
  3588 25.0564 0.414188 -1.58086
  3589 25.0574 0.414239 1.58129
  3590 33.8181 1.79159 -2.73732
  3591 29.9640 1.67846 -1.58737
  3592 28.5245 0.554265 -1.66102
  3593 22.5524 1.98940 3.10844
  3594 22.5525 1.98935 -3.10768
  3595 24.3641 1.01597 -0.755742
  3596 24.3650 1.01601 0.755384
  3597 33.5698 3.94164 -2.15196
  3598 24.1429 0.00815994 0.116004
  3599 24.1417 0.00816080 -0.115963
  3600 30.4608 -0.572005 -0.903590
  3601 30.4608 -0.572597 0.905250
  3602 19.3843 2.58888 -0.303953
  3603 19.3823 2.58921 0.303667
  3604 28.3142 0.793926 4.13362
  3605 28.3123 0.794447 -4.13341
  3606 17.7317 2.80051 -1.04821
  3607 17.7288 2.80127 1.04856
  3608 29.7118 -0.274879 -0.377221
  3609 29.7113 -0.274287 0.377628
  3610 28.8233 0.0668587 5.20548
  3611 28.8203 0.0681838 -5.20588
  3612 30.5080 -0.329086 0.663394
  3613 30.5087 -0.328646 -0.661909
  3614 36.1293 0.288505 2.20185
  3615 19.4407 2.30643 -0.841091
  3616 19.4427 2.30635 0.840159
  3617 29.8778 -0.211598 -0.344094
  3618 29.8774 -0.211129 0.344468
  3619 31.3424 -2.22935 -0.355128
  3620 31.3436 -2.22966 0.358068
  3621 25.2417 0.576902 1.25066
  3622 25.2410 0.576554 -1.25129
  3623 29.3544 -4.57312 -4.64156
  3624 29.3571 -4.56876 4.65111
  3625 33.2383 -0.545224 2.43124
  3626 25.4776 0.0225849 -0.469409
  3627 25.4791 0.0225887 0.469546
  3628 21.8453 1.40304 -1.67408
  3629 21.8468 1.40364 1.67334
  3630 32.0923 3.40288 -1.66328
  3631 49.8476 7.53083 -2.46228
  3632 31.9649 0.180931 2.41672
  3633 31.9625 0.181082 -2.41672
  3634 14.7980 -7.83421 3.84922
  3635 14.7622 -7.85124 -3.84748
  3636 30.3957 -0.0345253 -0.267141
  3637 30.3954 -0.0343974 0.267266
  3638 29.8764 0.273123 -2.32445
  3639 29.8786 0.273023 2.32465
  3640 26.3411 0.0479332 0.591476
  3641 26.3393 0.0479281 -0.591322
  3642 25.1463 0.0213505 -0.399401
  3643 25.1477 0.0213521 0.399526
  3644 24.3320 0.0501866 0.462787
  3645 24.3309 0.0501748 -0.462629
  3646 25.1469 0.211027 -0.757222
  3647 30.6034 0.0836900 -1.62303
  3648 43.2220 2.08753 -3.94966
  3649 18.5628 2.71397 2.48138
  3650 18.5647 2.71368 -2.48029
  3651 45.0534 3.43053 2.09099
  3652 20.6850 2.47354 3.07836
  3653 20.6858 2.47348 -3.07743
  3654 45.4229 4.43382 -5.17566
  3655 26.0525 0.201440 1.29317
  3656 26.0511 0.201424 -1.29284
  3657 25.9111 0.0999607 0.904769
  3658 25.9096 0.0999518 -0.904529
  3659 30.9018 -2.74851 -0.715826
  3660 30.8955 -2.74598 0.726403
  3661 23.7008 1.29740 0.192974
  3662 23.7000 1.29753 -0.193082
  3663 31.7590 -4.59294 -3.06888
  3664 43.4125 4.94581 12.4282
  3665 22.5984 1.18452 -1.76198
  3666 22.5998 1.18512 1.76129
  3667 14.0610 -3.41934 -5.33948
  3668 14.0695 -3.42361 5.34099
  3669 28.5216 -3.54578 -3.90448
  3670 23.0625 1.33242 -1.02343
  3671 23.0637 1.33262 1.02300
  3672 18.3723 -4.02238 -6.03572
  3673 18.3819 -4.02367 6.03205
  3674 23.5155 0.822235 1.80244
  3675 23.5142 0.821641 -1.80317
  3676 40.3214 -3.23953 -1.49054
  3677 40.2914 -3.12984 1.38683
  3678 30.0578 -0.326296 -2.06560
  3679 30.0555 -0.321345 2.06687
  3680 29.9012 -2.35633 -1.18435
  3681 29.8966 -2.35225 1.18198
  3682 26.4538 0.286746 1.69949
  3683 26.4524 0.286739 -1.69911
  3684 42.1132 7.86409 0.751385
  3685 30.2995 -2.25825 -0.715282
  3686 30.2935 -2.25467 0.716746
  3687 24.1094 0.342241 2.29692
  3688 24.1080 0.341287 -2.29787
  3689 39.1753 0.0128578 -1.41462
  3690 39.1771 0.0127378 1.41408
  3691 29.8494 -0.819580 0.225004
  3692 29.8505 -0.820691 -0.224104
  3693 30.6039 -0.904443 -1.32532
  3694 30.6048 -0.904938 1.32701
  3695 29.6446 2.30526 -0.414539
  3696 20.5084 1.98663 -1.16075
  3697 20.5101 1.98692 1.15993
  3698 23.2385 1.46487 -0.468050
  3699 23.2395 1.46485 0.467836
  3700 30.4542 -5.45303 5.44685
  3701 25.4990 -5.13845 7.09701
  3702 37.1211 0.0128477 0.586741
  3703 37.1184 0.0128637 -0.586840
  3704 35.3036 5.18797 -1.94343
  3705 39.9569 -0.194471 4.56008
  3706 38.9445 0.0311087 0.608917
  3707 38.9422 0.0311308 -0.609080
  3708 26.8688 -3.82406 -5.22544
  3709 26.5364 -1.07901 -2.55098
  3710 26.5374 -1.07695 2.54921
  3711 23.4905 1.36781 -0.00485522
  3712 23.4897 1.36797 0.00482457
  3713 38.3749 -0.0162989 -2.18939
  3714 38.3766 -0.0166224 2.18841
  3715 24.8080 -5.59814 7.68522
  3716 15.9637 1.81210 -2.11007
  3717 15.9688 1.81053 2.10781
  3718 19.6181 -0.881487 -6.03130
  3719 19.6224 -0.884205 6.03188
  3720 29.5020 -2.04715 -1.29222
  3721 29.4984 -2.04595 1.29163
  3722 28.2787 -0.591818 1.05151
  3723 28.2796 -0.593134 -1.05174
  3724 28.8921 -1.54478 -1.33425
  3725 28.8897 -1.54247 1.33394
  3726 16.7348 2.48781 -0.574692
  3727 16.7389 2.48667 0.573872
  3728 42.4698 -1.19201 0.594377
  3729 42.4666 -1.18723 -0.594949
  3730 30.0390 -0.223219 0.999236
  3731 30.0406 -0.223025 -0.997570
  3732 35.4650 1.24787 2.31741
  3733 21.5913 2.16154 3.91374
  3734 21.5913 2.16184 -3.91265
  3735 46.2204 -0.173839 -0.518327
  3736 46.2255 -0.174568 0.520309
  3737 24.5480 0.0218938 -0.362062
  3738 24.5492 0.0218988 0.362185
  3739 35.3000 0.0210225 -2.90140
  3740 35.3022 0.0206359 2.90072
  3741 60.1130 3.78857 -2.02977
  3742 22.8238 1.63571 -0.288851
  3743 22.8229 1.63588 0.288896
  3744 27.2170 0.227634 1.51863
  3745 27.2153 0.227630 -1.51832
  3746 24.2459 -5.04900 -7.46959
  3747 24.2386 -0.409447 -3.16815
  3748 24.2404 -0.407708 3.16682
  3749 39.6521 7.53180 -0.996782
  3750 31.2530 -0.0231773 0.137667
  3751 31.2544 -0.0231349 -0.137257
  3752 26.7152 -3.73630 5.19167
  3753 31.6698 2.61005 2.06637
  3754 22.8204 1.66140 0.500910
  3755 22.8212 1.66120 -0.500789
  3756 26.1019 0.161896 5.68280
  3757 26.0989 0.163458 -5.68271
  3758 24.5687 0.803033 1.16715
  3759 24.5678 0.802787 -1.16770
  3760 25.5630 0.648021 0.828411
  3761 25.5624 0.647897 -0.828819
  3762 29.6991 -3.18636 2.48241
  3763 29.6474 -3.15282 -2.45972
  3764 30.5814 0.766069 0.400176
  3765 22.6004 1.73591 0.666764
  3766 22.6012 1.73571 -0.666606
  3767 17.1456 -0.453722 -4.35953
  3768 22.5811 1.76543 -0.252287
  3769 22.5801 1.76558 0.252305
  3770 28.8182 -1.98546 1.76245
  3771 28.8207 -1.98764 -1.76336
  3772 25.4845 0.498979 1.90354
  3773 25.4834 0.498937 -1.90308
  3774 30.5343 -0.814174 -1.15680
  3775 30.5350 -0.814772 1.15849
  3776 29.5878 -0.465267 0.418318
  3777 29.5885 -0.466106 -0.417814
  3778 17.7405 -5.98530 -7.68906
  3779 36.7888 0.0112482 1.50372
  3780 36.7865 0.0113320 -1.50403
  3781 30.0723 0.479377 4.13773
  3782 30.0701 0.479973 -4.13786
  3783 28.7258 -1.25343 1.22967
  3784 28.7277 -1.25548 -1.22992
  3785 28.4859 -0.0181600 -0.409937
  3786 28.4787 -0.0171646 0.410048
  3787 50.3630 4.53037 -0.767796
  3788 23.7082 -2.56519 -5.65939
  3789 23.7544 -2.52177 5.60492
  3790 32.9061 0.0551641 -1.40659
  3791 32.9087 0.0551220 1.40660
  3792 26.2184 0.0121765 -0.206500
  3793 26.2203 0.0121767 0.206556
  3794 38.3508 -1.42967 -2.28901
  3795 38.3546 -1.43024 2.28589
  3796 23.6575 0.842590 -1.29384
  3797 23.6576 0.842757 1.29426
  3798 30.5111 -0.0610398 -0.238662
  3799 30.5107 -0.0608832 0.238880
  3800 21.7619 2.09975 0.718152
  3801 21.7630 2.09957 -0.718052
  3802 23.5133 1.24542 -1.94414
  3803 23.5134 1.24559 1.94467
  3804 22.4439 1.82716 -1.31852
  3805 22.4433 1.82738 1.31886
  3806 11.5171 -0.494620 3.08394
  3807 11.5184 -0.491951 -3.07732
  3808 29.9509 0.458547 -4.45747
  3809 29.9532 0.457753 4.45728
  3810 36.9671 -1.59889 0.529975
  3811 58.1391 2.84884 3.92883
  3812 26.8828 0.611477 2.64795
  3813 26.8814 0.611535 -2.64749
  3814 22.8840 0.432484 5.84237
  3815 22.8812 0.434376 -5.84165
  3816 20.8823 -5.56962 5.50584
  3817 20.8683 -5.57969 -5.52267
  3818 39.1004 -0.520686 -2.48469
  3819 39.1021 -0.521495 2.48241
  3820 28.0708 -0.254971 0.965059
  3821 28.0712 -0.255871 -0.965330
  3822 22.0038 2.19831 3.21378
  3823 22.0041 2.19828 -3.21294
  3824 28.1006 -3.13782 -5.50113
  3825 28.1036 -3.13633 5.50322
  3826 31.5848 0.891181 2.58352
  3827 29.3779 -0.203501 -0.520324
  3828 29.3775 -0.202947 0.520515
  3829 39.7477 0.328232 4.60577
  3830 32.5088 -1.42531 1.93360
  3831 32.4752 -1.43004 -1.91532
  3832 31.4348 1.86857 2.33109
  3833 24.6134 0.217902 -1.04300
  3834 24.6143 0.217941 1.04333
  3835 35.3666 0.346644 6.64986
  3836 25.2155 0.672764 0.987071
  3837 25.2149 0.672565 -0.987565
  3838 25.2611 0.956028 2.73473
  3839 25.2603 0.956019 -2.73415
  3840 30.6175 -0.106890 0.490892
  3841 30.6193 -0.106700 -0.489747
  3842 30.2540 1.78466 1.79160
  3843 34.6976 0.832532 3.01864
  3844 30.8771 -2.48467 7.29817
  3845 32.1973 0.670889 2.67424
  3846 27.8008 0.0955245 -0.789818
  3847 27.8007 0.0959275 0.789552
  3848 33.3747 -0.970211 -2.24675
  3849 36.1376 -3.14899 0.831903
  3850 24.4141 0.689366 1.77318
  3851 24.4135 0.689271 -1.77269
  3852 24.5333 0.463314 1.47534
  3853 24.5326 0.463243 -1.47491
  3854 24.1025 1.06376 0.913290
  3855 24.1015 1.06366 -0.913704
  3856 37.9355 -0.496901 -5.23580
  3857 23.1314 1.08718 -1.58255
  3858 23.1326 1.08765 1.58193
  3859 23.8836 1.10137 2.08501
  3860 23.8834 1.10124 -2.08446
  3861 22.8704 1.56579 0.870779
  3862 22.8711 1.56557 -0.870532
  3863 37.4803 -1.97988 -2.32117
  3864 37.4859 -1.98048 2.31809
  3865 77.5712 3.98452 -1.96948
  3866 30.7047 -0.231444 -0.167220
  3867 30.7045 -0.231774 0.168157
  3868 23.3604 1.28183 1.61671
  3869 23.3606 1.28163 -1.61624
  3870 25.6821 0.113028 0.942336
  3871 25.6807 0.113016 -0.942082
  3872 4.80326 -0.0992791 -8.92462e-05
  3873 4.94777 -0.377059 0.0112885
  3874 4.83523 -0.124807 -0.224100
  3875 4.80559 -0.0855450 0.238075
  3876 4.70528 0.0547847 -0.116640
  3877 4.69147 0.0602073 0.111807
  3878 4.93911 -0.405274 -0.242443
  3879 4.67536 0.0494665 -0.00759390
  3880 4.92769 -0.350556 0.265801
  3881 5.03094 -0.641183 -0.000741540
  3882 5.00704 -0.555253 0.194393
  3883 4.87478 -0.210323 -0.0748424
  3884 4.86805 -0.201871 0.0819706
  3885 4.82975 -0.151835 -0.348892
  3886 4.69723 0.111779 -0.221593
  3887 4.69480 0.111289 0.220504
  3888 4.78647 -0.0602780 -0.113359
  3889 5.00660 -0.602420 -0.198689
  3890 4.62895 0.0953068 0.0543803
  3891 4.63755 0.0950464 -0.0607129
  3892 4.82019 -0.114234 0.352402
  3893 4.77884 -0.0555098 0.114021
  3894 4.73518 -0.00318217 -0.0434254
  3895 4.73276 -0.00246167 0.0520827
  3896 4.74663 0.0349244 -0.311458
  3897 4.72343 0.0800916 0.314009
  3898 4.93125 -0.331536 -0.131962
  3899 5.05036 -0.728382 0.0930106
  3900 4.91948 -0.312369 0.150418
  3901 5.05946 -0.734753 -0.133450
  3902 4.98506 -0.470225 -0.0877729
  3903 4.98290 -0.526816 0.0698940
  3904 4.90847 -0.391427 -0.388023
  3905 4.96707 -0.444537 0.345848
  3906 4.63867 0.172670 0.157960
  3907 4.63815 0.171722 -0.166439
  3908 4.62080 0.0907273 -0.0208180
  3909 4.86735 -0.256271 0.403036
  3910 4.61303 0.141818 0.0962080
  3911 4.61220 0.0928253 0.00897610
  3912 4.62787 0.140473 -0.102486
  3913 4.88524 -0.251768 -0.246542
  3914 4.86446 -0.214989 0.251229
  3915 4.90429 -0.265036 0.0130876
  3916 4.76051 -0.00539163 -0.190523
  3917 4.75940 -0.000128808 0.189891
  3918 4.86974 -0.209639 -0.164863
  3919 4.85155 -0.175773 0.00334973
  3920 4.83934 -0.185651 -0.422111
  3921 4.76638 -0.0119622 -0.403322
  3922 4.67878 0.0470366 0.0417396
  3923 4.82118 -0.124709 -0.0661408
  3924 4.81941 -0.120816 0.0690385
  3925 4.68559 0.171646 -0.288681
  3926 4.69587 0.0545995 -0.0736940
  3927 5.01952 -0.685262 0.249386
  3928 4.98315 -0.537573 -0.348042
  3929 4.73897 0.0654862 0.385611
  3930 4.82173 -0.114246 0.145806
  3931 4.96285 -0.461954 0.209721
  3932 4.67257 0.173385 0.273022
  3933 5.06809 -0.784915 0.0139508
  3934 4.90089 -0.303323 -0.301217
  3935 4.77951 -0.0556209 -0.0559465
  3936 5.01958 -0.593884 0.0988684
  3937 4.86974 -0.186268 0.168022
  3938 4.82503 -0.123285 -0.144561
  3939 4.76112 -0.0316599 -0.00390846
  3940 4.77925 -0.0738018 0.450999
  3941 4.78028 -0.0646993 0.0488519
  3942 5.00003 -0.548218 -0.133881
  3943 4.64345 0.212290 -0.225833
  3944 4.73849 -0.00230775 -0.0971845
  3945 4.61293 0.154120 -0.0764658
  3946 4.71659 0.0610973 -0.179738
  3947 4.59782 0.115832 0.0230441
  3948 4.70516 0.0635894 0.158976
  3949 4.59846 0.121987 -0.0337480
  3950 4.64051 0.189564 0.210088
  3951 4.79912 -0.0586824 -0.317331
  3952 4.60579 0.135141 0.0618094
  3953 4.72290 0.00828173 0.00747042
  3954 4.73079 0.00770182 0.0894276
  3955 5.03416 -0.681289 -0.222360
  3956 4.75779 0.00227640 -0.243436
  3957 4.87213 -0.225946 0.320995
  3958 4.94965 -0.380367 0.0969703
  3959 4.67292 0.0762536 0.0692936
  3960 4.78151 -0.0379508 0.289557
  3961 4.66457 0.0619604 -0.0314012
  3962 4.98694 -0.503728 -0.00817809
  3963 4.76159 0.00571435 0.245467
  3964 4.98474 -0.550866 0.358778
  3965 4.90491 -0.354395 0.408842
  3966 4.60772 0.192313 0.125862
  3967 4.92762 -0.327663 -0.0546827
  3968 4.98060 -0.497927 -0.269282
  3969 4.61256 0.185549 -0.125740
  3970 4.92029 -0.311200 0.0656049
  3971 4.59425 0.0986576 -0.0138195
  3972 5.04702 -0.753631 0.182500
  3973 4.79498 -0.0580871 -0.448229
  3974 4.69366 0.141653 -0.356219
  3975 5.05867 -0.691058 0.0229719
  3976 4.68369 0.166918 0.365463
  3977 4.95755 -0.399691 -0.154471
  3978 4.94294 -0.371743 0.181628
  3979 4.97427 -0.497148 0.267969
  3980 5.01208 -0.653483 -0.315059
  3981 4.91516 -0.342724 0.344041
  3982 4.65725 0.0676647 0.0178285
  3983 4.65197 0.128469 0.123174
  3984 4.63763 0.0772966 -0.00747553
  3985 5.07678 -0.823211 0.104034
  3986 4.65619 0.122193 -0.130485
  3987 4.66411 0.0891275 -0.0931509
  3988 4.70252 0.0314678 -0.0355154
  3989 4.86954 -0.281777 -0.458330
  3990 4.75740 -0.00829223 -0.135312
  3991 4.95275 -0.394075 -0.0690402
  3992 5.02494 -0.642017 -0.109247
  3993 5.08049 -0.827032 -0.116439
  3994 4.59158 0.181942 -0.0929902
  3995 4.72786 0.115564 -0.411136
  3996 4.98100 -0.476543 -0.179684
  3997 4.74917 0.00800886 0.138825
  3998 4.74831 0.0478864 0.442352
  3999 4.83614 -0.155003 0.455947
  4000 4.70923 0.0348190 0.0676507
  4001 4.84600 -0.150189 -0.269416
  4002 4.92769 -0.448618 -0.421024
  4003 4.63751 0.197746 -0.268775
  4004 4.58182 0.196365 0.0953029
  4005 5.02741 -0.661224 0.169605
  4006 4.89726 -0.256765 -0.112409
  4007 4.60397 0.113963 0.0172222
  4008 4.68441 0.117840 0.184990
  4009 4.58303 0.209617 -0.183570
  4010 4.96153 -0.458865 0.417462
  4011 4.68847 0.132633 -0.195149
  4012 4.89094 -0.237963 0.121726
  4013 4.59657 0.101504 -0.0171150
  4014 4.71204 0.0990475 0.253709
  4015 4.99650 -0.520022 0.142227
  4016 4.90107 -0.289261 0.233621
  4017 4.82106 -0.130179 0.290142
  4018 4.60222 0.224177 0.151504
  4019 4.63549 0.0889931 -0.0433590
  4020 4.65490 0.213215 0.315622
  4021 4.71610 0.0951252 -0.267979
  4022 4.92229 -0.330850 -0.214473
  4023 4.97221 -0.447306 0.0443916
  4024 4.64450 0.247391 0.255278
  4025 4.79542 -0.0666419 0.193105
  4026 4.93072 -0.394115 -0.323129
  4027 4.56251 0.129259 -0.0480253
  4028 4.99589 -0.585113 0.274239
  4029 4.63917 0.107299 0.0773988
  4030 4.79305 -0.0785995 -0.358023
  4031 4.89534 -0.270937 -0.184225
  4032 4.62790 0.0959495 0.0321234
  4033 5.06587 -0.868833 -0.0439630
  4034 4.80453 -0.0763001 -0.200827
  4035 4.88010 -0.244563 0.193464
  4036 5.03449 -0.669301 -0.169159
  4037 4.64027 0.111231 -0.0740937
  4038 4.57427 0.135718 0.0394868
  4039 4.87691 -0.221453 -0.0211441
  4040 4.87268 -0.217541 0.0316309
  4041 5.00676 -0.566193 0.0166624
  4042 4.84313 -0.153744 -0.0958496
  4043 4.85283 -0.160307 0.219721
  4044 4.82592 -0.150281 0.394933
  4045 4.72027 0.0169139 -0.0726229
  4046 4.86682 -0.202638 -0.308031
  4047 4.85015 -0.170627 -0.0468973
  4048 4.84755 -0.166883 0.0525223
  4049 4.99162 -0.536452 -0.196671
  4050 4.72925 0.0500649 -0.221285
  4051 4.89017 -0.296701 -0.380925
  4052 4.72153 0.0473497 0.220120
  4053 4.83889 -0.148314 0.100667
  4054 4.83195 -0.132767 -0.470110
  4055 4.82529 -0.134786 0.0243391
  4056 4.82614 -0.134347 -0.0209092
  4057 4.78567 -0.0230384 0.341811
  4058 4.65551 0.101207 0.0966921
  4059 5.00853 -0.563877 -0.0566073
  4060 4.67645 0.104026 0.146865
  4061 4.70903 0.0266605 0.0361090
  4062 4.67584 0.0985969 -0.158735
  4063 4.64970 0.0704454 -0.0230733
  4064 4.97466 -0.432568 -0.0214702
  4065 4.91974 -0.321024 0.00178995
  4066 5.07181 -0.776887 -0.204848
  4067 4.60047 0.231965 -0.154976
  4068 4.97519 -0.448513 0.124054
  4069 4.98904 -0.640775 0.332051
  4070 4.80322 -0.0940065 -0.0405797
  4071 4.65564 0.204683 -0.314001
  4072 4.75766 0.0312509 -0.363951
  4073 4.79532 -0.0769705 0.0792480
  4074 4.79530 -0.0612588 -0.150272
  4075 4.80390 -0.100354 0.111305
  4076 4.59094 0.216571 0.171589
  4077 4.83780 -0.153447 -0.176912
  4078 5.10654 -0.868386 0.0295010
  4079 5.05483 -0.711568 -0.0455202
  4080 4.85763 -0.211069 -0.362845
  4081 4.71614 0.157178 0.413375
  4082 4.81179 -0.116450 -0.391813
  4083 4.78654 -0.0549344 0.150118
  4084 4.55044 0.103189 0.00847104
  4085 4.79682 -0.0809283 -0.0804284
  4086 4.85981 -0.276273 0.469337
  4087 4.80947 -0.107479 -0.109486
  4088 4.67428 0.158351 -0.254913
  4089 4.78312 -0.0635455 -0.0208348
  4090 4.85656 -0.185296 -0.127631
  4091 4.77834 -0.0534935 0.396462
  4092 4.82628 -0.138100 -0.321729
  4093 4.95381 -0.444969 -0.345212
  4094 4.80129 -0.0967847 0.0398261
  4095 4.75414 0.0475961 -0.452494
  4096 5.02977 -0.725650 -0.274165
  4097 4.65743 0.0760944 0.0419848
  4098 4.56899 0.162946 0.0669190
  4099 4.98998 -0.582666 -0.394438
  4100 4.95107 -0.420272 0.289922
  4101 4.85509 -0.175485 0.131774
  4102 4.86658 -0.190643 -0.210674
  4103 4.76864 -0.0399714 -0.0935520
  4104 4.83496 -0.131485 0.182438
  4105 4.77874 -0.0648752 0.0160741
  4106 4.70097 0.126485 -0.314838
  4107 4.75881 -0.0324522 -0.0338915
  4108 4.61513 0.115025 -0.0628058
  4109 5.02129 -0.745367 0.263081
  4110 4.69378 0.163910 0.240502
  4111 4.68530 0.0353904 0.0187086
  4112 4.79345 -0.0736499 -0.264121
  4113 4.90212 -0.269550 -0.0434139
  4114 4.73497 -0.00992906 -0.0205175
  4115 4.66831 0.0766688 -0.0567026
  4116 4.76304 -0.0357864 0.0802134
  4117 4.89550 -0.373342 0.461942
  4118 4.61588 0.212227 0.275012
  4119 5.00922 -0.595804 -0.280556
  4120 4.75155 -0.0173868 -0.0673157
  4121 5.03843 -0.669049 0.0764546
  4122 4.75997 -0.0297556 0.0318201
  4123 5.06743 -0.798246 -0.0637893
  4124 4.60566 0.115258 0.0453751
  4125 4.72226 0.0571801 0.187616
  4126 4.89120 -0.248056 0.0613566
  4127 4.52881 0.119711 -0.0126793
  4128 5.09674 -0.902476 -0.0132263
  4129 4.63201 0.289947 0.278458
  4130 4.64802 0.286286 -0.254421
  4131 4.61208 0.286958 0.221071
  4132 4.58781 0.240213 0.167924
  4133 4.60376 0.252950 0.143844
  4134 4.57697 0.217018 0.112401
  4135 4.55788 0.194921 0.0687391
  4136 4.57927 0.161504 0.0491098
  4137 4.53885 0.150361 0.0380290
  4138 4.57594 0.122742 0.0215639
  4139 4.55455 0.111243 0.0251887
  4140 4.58747 0.0982593 -0.0254508
  4141 4.59570 0.123825 -0.0187611
  4142 4.55574 0.132603 -0.0253023
  4143 4.56230 0.150609 -0.0573775
  4144 4.60671 0.199029 -0.0816597
  4145 4.57206 0.192682 -0.104375
  4146 4.60517 0.253566 -0.141794
  4147 4.58106 0.237613 -0.179681
  4148 4.60477 0.276288 -0.215557
  4149 4.63641 0.253578 -0.288194
  4150 4.66215 0.249786 -0.343693
  4151 4.68161 0.189151 -0.390228
  4152 4.72197 0.118124 -0.450996
  4153 4.75548 0.00221220 -0.471957
  4154 4.78946 -0.0991214 -0.478433
  4155 4.80981 -0.221776 -0.494982
  4156 4.86492 -0.381167 -0.486017
  4157 4.89184 -0.477150 -0.456452
  4158 4.96370 -0.518949 -0.432876
  4159 5.00883 -0.689845 -0.352787
  4160 5.06221 -0.772234 -0.266053
  4161 5.10052 -0.832087 -0.172140
  4162 5.07130 -0.868069 -0.0891320
  4163 5.13868 -0.867026 0.0862300
  4164 5.04309 -0.817350 0.188208
  4165 5.01088 -0.789268 0.256222
  4166 5.00255 -0.710573 0.341175
  4167 4.97576 -0.579918 0.400730
  4168 4.94097 -0.443920 0.467352
  4169 4.85437 -0.336922 0.502658
  4170 4.82534 -0.203059 0.496164
  4171 4.78420 -0.112468 0.482468
  4172 4.73546 -0.0127643 0.477475
  4173 4.72311 0.143616 0.446411
  4174 4.67284 0.198759 0.390467
  4175 4.65432 0.244399 0.345349
  4176 4.62757 0.247214 0.291492
</Section>

newXOutput 5

<Section columns = "stress_xx | stress_yy | stress_xy">
  1 29.9521 0.0399673 -0.0903979
  2 29.9523 0.0399824 0.0904161
  3 39.8087 -0.0115932 0.0224126
  4 39.8085 -0.0116103 -0.0224282
  5 98.4544 6.12590 1.16075
  6 124.370 1.68545 0.160586
  7 31.8029 -0.00265814 -0.103648
  8 31.8044 -0.00265430 0.103685
  9 41.4752 -0.00267494 0.0780989
  10 41.4761 -0.00268026 -0.0781019
  11 4.37680 -30.4807 1.25561
  12 4.49113 -30.7033 -1.38296
  13 34.6437 0.478815 -0.0479708
  14 34.6435 0.479080 0.0479627
  15 40.3449 -0.0710494 0.0612260
  16 29.9808 0.0487980 -0.147491
  17 29.9812 0.0488032 0.147566
  18 40.3454 -0.0710576 -0.0612754
  19 33.2831 1.17121 -0.757549
  20 33.2840 1.17116 0.757181
  21 31.7465 0.0941868 0.0577906
  22 28.8290 0.384490 0.0150445
  23 32.0275 0.00969107 -0.100210
  24 32.2147 0.0135743 -0.110054
  25 32.5051 0.0132467 -0.158702
  26 32.7472 0.0102078 -0.139224
  27 33.0200 0.0118954 -0.163436
  28 33.3746 0.00362018 -0.178029
  29 33.6849 -0.0102104 -0.154311
  30 34.0421 -0.00144211 -0.145652
  31 34.4455 -0.00558978 -0.151535
  32 34.7977 0.00387584 -0.157088
  33 35.2594 0.0189060 -0.236020
  34 35.7239 0.0230074 -0.242958
  35 36.2071 0.0215044 -0.298805
  36 36.8529 0.00701360 -0.323735
  37 37.3140 -0.0108455 -0.316012
  38 38.0374 0.00174208 -0.314195
  39 38.5707 -0.00473702 -0.322935
  40 39.4333 -0.00530784 -0.316599
  41 40.0674 0.0204846 -0.392968
  42 40.8317 0.0370423 -0.458312
  43 41.7636 -0.0319197 -0.490161
  44 42.8005 -0.0376076 -0.457564
  45 43.6060 -0.0159660 -0.448613
  46 44.7669 -0.00827208 -0.453711
  47 45.6165 -0.00412045 -0.592420
  48 46.5304 0.0218366 -0.635215
  49 47.9645 -0.0735307 -0.573519
  50 49.3209 -0.0763220 -0.490145
  51 50.4070 -0.0597052 -0.523895
  52 51.8934 -0.0636418 -0.459750
  53 52.9749 -0.0383913 -0.618910
  54 54.4169 -0.0398280 -0.583990
  55 55.6792 -0.0325997 -0.684402
  56 56.6374 -0.0742601 -0.728898
  57 58.7358 -0.251404 -0.588251
  58 59.1567 -0.0513539 -0.535201
  59 60.5899 -0.0122598 -0.423367
  60 61.5798 -0.0815962 -0.476284
  61 62.4407 -0.102239 -0.332844
  62 63.2035 -0.109551 -0.256650
  63 63.6339 -0.116961 -0.140907
  64 63.9253 -0.134613 -0.00623502
  65 63.9298 -0.169682 0.178461
  66 63.2738 -0.182265 0.338170
  67 63.0026 -0.178227 0.406102
  68 61.9545 -0.257254 0.578902
  69 60.1218 -0.192978 0.879733
  70 58.0833 -0.171414 1.15346
  71 55.9640 -0.117709 1.34008
  72 53.0263 -0.0933541 1.51950
  73 50.3159 0.0145190 1.63138
  74 46.7018 0.0531576 1.62315
  75 44.1561 0.120944 1.65238
  76 40.1061 0.231528 1.36309
  77 37.4663 0.335630 1.50183
  78 34.6416 0.217249 0.985556
  79 33.1847 0.348240 1.14742
  80 30.0497 0.451592 0.557049
  81 29.9856 0.393457 0.523805
  82 29.2044 0.340461 -0.311966
  83 29.8699 0.436544 -0.670606
  84 31.5401 0.597670 -0.697842
  85 35.1360 0.286826 -1.27462
  86 37.4657 0.303675 -1.68654
  87 40.0301 0.236389 -1.51201
  88 44.2489 0.0903748 -1.75196
  89 47.1331 -0.0405204 -1.82049
  90 50.1060 0.0254809 -1.43243
  91 53.1132 -0.0245939 -1.43768
  92 55.9778 -0.110690 -1.29724
  93 58.1039 -0.161474 -1.13507
  94 60.1248 -0.189649 -0.872980
  95 61.9492 -0.256266 -0.575942
  96 62.9932 -0.177659 -0.404667
  97 63.2628 -0.181585 -0.337495
  98 63.9180 -0.169276 -0.178549
  99 63.9145 -0.134353 0.00563501
  100 63.6248 -0.116827 0.140066
  101 63.1963 -0.109494 0.255732
  102 62.4353 -0.102244 0.331955
  103 61.5763 -0.0816370 0.475453
  104 60.5878 -0.0123459 0.422687
  105 59.1561 -0.0514511 0.534611
  106 58.7360 -0.251431 0.587774
  107 56.6385 -0.0742689 0.728441
  108 55.6812 -0.0326492 0.684088
  109 54.4194 -0.0398715 0.583763
  110 52.9779 -0.0384320 0.618752
  111 51.8967 -0.0636717 0.459624
  112 50.4106 -0.0597282 0.523812
  113 49.3247 -0.0763450 0.490064
  114 47.9684 -0.0735541 0.573456
  115 46.5343 0.0218170 0.635192
  116 45.6205 -0.00415157 0.592431
  117 44.7710 -0.00829121 0.453721
  118 43.6100 -0.0159788 0.448646
  119 42.8044 -0.0376340 0.457591
  120 41.7674 -0.0319351 0.490212
  121 40.8354 0.0370428 0.458379
  122 40.0710 0.0204732 0.393038
  123 39.4369 -0.00531885 0.316647
  124 38.5741 -0.00474392 0.322997
  125 38.0406 0.00173388 0.314250
  126 37.3171 -0.0108545 0.316083
  127 36.8558 0.00700811 0.323805
  128 36.2099 0.0215029 0.298883
  129 35.7266 0.0230081 0.243028
  130 35.2620 0.0189073 0.236085
  131 34.8002 0.00387092 0.157135
  132 34.4479 -0.00559611 0.151577
  133 34.0444 -0.00144711 0.145693
  134 33.6871 -0.0102168 0.154355
  135 33.3767 0.00361680 0.178082
  136 33.0219 0.0118955 0.163492
  137 32.7490 0.0102084 0.139276
  138 32.5069 0.0132505 0.158759
  139 32.2164 0.0135731 0.110095
  140 32.0291 0.00968819 0.100245
  141 30.8970 0.149650 0.136787
  142 32.1328 0.286797 0.112065
  143 33.2336 0.450902 0.0976660
  144 36.0022 0.359952 -0.0155218
  145 37.4114 0.236271 -0.0155003
  146 38.7788 0.0845746 0.0103287
  147 41.7447 -0.0194761 -0.0577134
  148 41.8346 -0.0240503 -0.0909896
  149 42.0027 -0.0316918 -0.0454922
  150 42.0993 -0.0276579 -0.0800483
  151 42.1442 -0.0331009 -0.0305111
  152 42.2450 -0.0145892 -0.0142928
  153 42.1574 -0.0568671 -0.00696691
  154 42.0383 -0.0407630 0.0888711
  155 41.9732 -0.0499804 0.124842
  156 41.7114 -0.0596514 0.140031
  157 41.2174 -0.0499090 0.230606
  158 40.7446 -0.0375450 0.274439
  159 40.0263 -0.0504640 0.354068
  160 39.2639 -0.0156758 0.481882
  161 38.3127 -0.00754703 0.374806
  162 37.4738 -0.000943105 0.406427
  163 36.3123 0.0236601 0.399150
  164 35.4033 0.0391655 0.488648
  165 34.3245 0.0539978 0.425962
  166 33.4246 0.0635177 0.390502
  167 32.5760 0.100181 0.289686
  168 31.9065 0.0900516 0.182590
  169 31.8952 0.0561941 0.179808
  170 31.6542 0.176960 -0.180440
  171 31.8853 0.128834 -0.200954
  172 32.7521 0.103246 -0.337946
  173 33.5241 0.108704 -0.528174
  174 34.2291 0.0378934 -0.439928
  175 35.3911 0.0391777 -0.482997
  176 36.3127 0.0269643 -0.402147
  177 37.4828 -0.00282680 -0.409043
  178 38.3226 -0.00828564 -0.374831
  179 39.2719 -0.0159066 -0.480840
  180 40.0329 -0.0504276 -0.353264
  181 40.7495 -0.0375074 -0.273741
  182 41.2210 -0.0498636 -0.230040
  183 41.7139 -0.0596118 -0.139544
  184 41.9749 -0.0499574 -0.124491
  185 42.0393 -0.0407531 -0.0885501
  186 42.1578 -0.0568327 0.00723832
  187 42.2450 -0.0145529 0.0144768
  188 42.1439 -0.0330697 0.0306520
  189 42.0987 -0.0276280 0.0801333
  190 42.0020 -0.0316659 0.0455582
  191 41.8338 -0.0240289 0.0910142
  192 41.7439 -0.0194597 0.0577296
  193 38.7786 0.0845227 -0.0103479
  194 37.4114 0.236127 0.0154757
  195 36.0023 0.359732 0.0155018
  196 33.2338 0.450657 -0.0976456
  197 32.1329 0.286638 -0.112034
  198 30.8968 0.149581 -0.136758
  199 29.6863 0.133492 -0.136579
  200 30.0893 0.0325824 -0.165416
  201 30.4438 0.0196948 -0.156221
  202 30.7443 0.0158130 -0.133966
  203 31.1055 0.00191154 -0.154372
  204 31.3288 -0.00135626 -0.132948
  205 31.5187 -0.000847320 -0.0971268
  206 31.8874 0.00979654 -0.225243
  207 31.9233 0.0300080 -0.395331
  208 32.0283 0.0736624 -0.615911
  209 32.0779 0.124186 -0.801753
  210 32.1029 0.190087 -0.998705
  211 32.0490 0.280801 -1.13759
  212 32.0502 0.372883 -1.29907
  213 31.9759 0.491678 -1.42481
  214 31.8869 0.611230 -1.52337
  215 31.7900 0.746464 -1.60034
  216 31.6700 0.884933 -1.62508
  217 31.5772 1.00519 -1.62182
  218 31.4616 1.16062 -1.60321
  219 31.3575 1.29081 -1.51988
  220 31.2685 1.41091 -1.42223
  221 31.2267 1.52261 -1.27406
  222 31.2017 1.58940 -1.09354
  223 31.2307 1.67595 -0.885294
  224 31.2891 1.70177 -0.648155
  225 31.4864 1.66366 -0.384078
  226 31.7210 1.63016 -0.139425
  227 31.9905 1.55216 0.112353
  228 32.3537 1.46029 0.353989
  229 32.7479 1.29896 0.578256
  230 33.8043 0.962807 0.914306
  231 34.3849 0.803818 1.01910
  232 34.9406 0.648284 1.07876
  233 35.5506 0.508748 1.07921
  234 36.0746 0.359575 1.07647
  235 36.6818 0.254981 1.03434
  236 37.2151 0.160998 0.971629
  237 37.7249 0.106768 0.900817
  238 38.2796 0.0628964 0.801410
  239 38.7509 0.0384974 0.699578
  240 39.2447 0.00217837 0.607377
  241 39.7336 0.0244637 0.504519
  242 40.2208 0.00810214 0.398264
  243 40.6847 0.00454483 0.285843
  244 41.1270 0.0141200 0.160571
  245 41.3314 -0.0165271 0.0602480
  246 41.0508 -0.0208150 0.0702269
  247 40.6927 -0.0391529 0.106682
  248 39.8523 -0.0192238 0.0940030
  249 41.1277 0.0141053 -0.160570
  250 40.6853 0.00448995 -0.285836
  251 40.2213 0.00798876 -0.398253
  252 39.7340 0.0242894 -0.504518
  253 39.2451 0.00192344 -0.607408
  254 38.7512 0.0381899 -0.699659
  255 38.2799 0.0625180 -0.801550
  256 37.7251 0.106351 -0.901050
  257 37.2153 0.160574 -0.971942
  258 36.6818 0.254566 -1.03474
  259 36.0744 0.359208 -1.07694
  260 35.5503 0.508456 -1.07970
  261 34.9402 0.648054 -1.07928
  262 34.3843 0.803677 -1.01960
  263 33.8035 0.962757 -0.914757
  264 32.7470 1.29907 -0.578541
  265 32.3528 1.46047 -0.354168
  266 31.9895 1.55239 -0.112431
  267 31.7201 1.63042 0.139451
  268 31.4855 1.66394 0.384195
  269 31.2883 1.70206 0.648366
  270 31.2301 1.67625 0.885589
  271 31.2011 1.58970 1.09390
  272 31.2263 1.52291 1.27449
  273 31.2682 1.41119 1.42271
  274 31.3574 1.29107 1.52040
  275 31.4616 1.16085 1.60374
  276 31.5774 1.00539 1.62237
  277 31.6703 0.885116 1.62563
  278 31.7905 0.746621 1.60088
  279 31.8875 0.611356 1.52389
  280 31.9766 0.491784 1.42530
  281 32.0510 0.372961 1.29952
  282 32.0500 0.280865 1.13799
  283 32.1039 0.190130 0.999058
  284 32.0791 0.124216 0.802040
  285 32.0296 0.0736825 0.616135
  286 31.9247 0.0300142 0.395476
  287 31.8889 0.00979754 0.225327
  288 31.5201 -0.000854399 0.0971623
  289 31.3301 -0.00136788 0.132991
  290 31.1067 0.00190343 0.154427
  291 30.7453 0.0158097 0.134027
  292 30.4446 0.0196942 0.156288
  293 30.0900 0.0325785 0.165479
  294 29.6866 0.133501 0.136617
  295 39.8526 -0.0192175 -0.0940491
  296 40.6933 -0.0391684 -0.106732
  297 41.0516 -0.0208248 -0.0702533
  298 41.3323 -0.0165374 -0.0602605
  299 5.96079 -27.4137 -0.657088
  300 7.42122 -19.8317 -1.04961
  301 12.2202 -8.54768 2.98021
  302 20.0611 -0.448861 7.22546
  303 34.7621 7.24070 14.2825
  304 49.9146 11.4302 19.7592
  305 66.7431 11.4480 20.4733
  306 83.8746 9.84765 18.0123
  307 94.7593 7.37584 10.3263
  308 92.2889 8.33538 -9.24757
  309 83.0078 9.44013 -18.7415
  310 66.5328 11.8219 -21.1298
  311 48.4907 11.2979 -18.9901
  312 33.6116 8.95829 -15.6851
  313 20.4430 1.22328 -8.05569
  314 13.4149 -7.55586 -4.00884
  315 7.71203 -20.8479 1.42468
  316 6.55296 -28.5384 0.695356
  317 4.64807 -33.4408 -4.80104
  318 4.51691 -27.7261 -5.56058
  319 5.49691 -21.2780 -5.32626
  320 9.30724 -12.0490 -1.59783
  321 15.1874 -4.55150 2.25907
  322 24.3874 2.31519 7.20035
  323 37.6181 5.00036 12.4889
  324 51.1632 8.57616 18.1225
  325 63.7737 8.44215 20.4201
  326 78.2317 8.21946 21.9157
  327 91.7928 7.10730 19.1509
  328 107.537 4.60123 18.1684
  329 115.242 3.59766 11.8651
  330 121.464 1.66832 5.67885
  331 123.537 2.04708 -6.75815
  332 116.084 3.00731 -12.4388
  333 106.874 5.03703 -16.4383
  334 95.3399 7.05556 -20.2397
  335 80.1650 7.96352 -21.1052
  336 66.6843 9.08662 -21.3420
  337 50.0955 8.02388 -17.4204
  338 36.3651 5.47686 -12.1757
  339 22.5116 2.45494 -6.93770
  340 15.3142 -4.64310 -1.96073
  341 9.44144 -12.0062 1.57621
  342 5.52133 -21.2688 5.29137
  343 4.51198 -27.7707 5.52575
  344 4.63928 -33.6072 4.72374
  345 31.5683 0.456106 -0.672067
  346 33.4028 0.766310 -0.0603432
  347 36.5969 0.391461 0.386637
  348 31.3453 0.162472 -0.726991
  349 32.1235 0.913902 -0.576252
  350 38.3646 0.172401 0.463029
  351 31.5640 0.589683 -1.05218
  352 34.6504 0.762432 0.411769
  353 32.9624 1.15208 0.0428505
  354 31.6629 1.05908 -0.973482
  355 31.4964 0.0574337 -0.510974
  356 36.9353 0.380972 0.663519
  357 31.6789 0.286559 -0.999637
  358 31.6576 0.490517 -1.20718
  359 31.7909 1.26329 -0.692541
  360 39.5938 0.0677471 0.386349
  361 35.3734 0.639063 0.708028
  362 32.3660 0.556647 -0.331557
  363 38.2071 0.169263 0.633080
  364 31.5489 0.996675 -1.25045
  365 33.8529 0.998273 0.495513
  366 30.9884 0.124623 -0.486646
  367 38.1516 0.164313 0.222078
  368 34.6772 0.647451 0.151974
  369 36.2843 0.412454 0.859362
  370 31.9802 1.43010 -0.338709
  371 32.6101 1.33142 0.0878407
  372 31.2911 0.200654 -0.255392
  373 37.4114 0.248761 0.819367
  374 31.6169 0.777581 -1.37533
  375 31.4961 1.34110 -1.02881
  376 31.6544 0.0169658 -0.314705
  377 40.4570 0.0182732 0.264711
  378 31.0946 0.0586249 -0.479086
  379 31.3496 0.310729 -0.777336
  380 31.7717 0.131229 -0.764816
  381 33.7459 0.505536 -0.0249478
  382 31.6859 0.692386 -0.832305
  383 35.7513 0.551995 0.505193
  384 39.4447 0.0591377 0.501395
  385 39.7141 0.0418060 0.287900
  386 31.7704 0.463910 -1.27349
  387 36.0912 0.404106 0.180983
  388 32.0737 0.708395 -0.552892
  389 34.6967 0.767352 0.816727
  390 33.2977 1.14247 0.435292
  391 30.7907 0.0693093 -0.411413
  392 33.7339 0.878283 0.118431
  393 30.5327 0.0684412 -0.176708
  394 37.4250 0.300697 0.497343
  395 32.3523 1.16391 -0.361301
  396 32.8625 0.899104 -0.223035
  397 31.5036 0.432711 -0.987928
  398 31.7084 0.0676766 -0.567734
  399 31.4583 1.17438 -1.30622
  400 31.6137 1.46553 -0.718772
  401 38.3810 0.107342 0.715835
  402 31.8200 0.286273 -1.08526
  403 38.8657 0.125209 0.269888
  404 32.6116 0.421513 -0.137411
  405 32.4671 0.786593 -0.397203
  406 31.6145 0.759135 -1.05401
  407 31.3873 0.0104020 -0.249882
  408 35.8080 0.492564 0.930510
  409 31.6741 0.737766 -1.47607
  410 31.8702 0.814822 -0.733730
  411 32.1004 1.46653 -0.0944036
  412 40.0326 0.0312124 0.373230
  413 33.6713 1.05381 0.661519
  414 40.2224 0.0415397 0.228935
  415 36.8967 0.291666 0.884613
  416 31.5520 0.962527 -1.44314
  417 31.4168 0.143192 -0.689152
  418 31.7354 0.377579 -0.335081
  419 34.6526 0.794278 0.611517
  420 31.1306 0.0222503 -0.285688
  421 33.4433 1.07474 0.263469
  422 31.5287 0.337323 -0.967841
  423 37.7313 0.259746 0.607081
  424 33.2078 0.600339 -0.122520
  425 36.1088 0.518914 0.688440
  426 37.3240 0.260192 0.341323
  427 35.1938 0.649886 0.356218
  428 31.2280 0.244127 -0.430296
  429 31.3913 1.48873 -0.923729
  430 31.9444 0.220896 -0.989674
  431 31.6039 1.53113 -0.532026
  432 34.8808 0.521694 0.0979356
  433 38.9620 0.112709 0.543726
  434 31.3753 1.33957 -1.24971
  435 31.8396 1.04298 -0.774518
  436 37.8616 0.169649 0.802147
  437 38.9826 0.0601755 0.614867
  438 31.1118 0.158767 -0.599109
  439 31.8997 0.396741 -1.25930
  440 31.7613 0.607103 -1.40675
  441 30.3707 0.0177953 -0.258810
  442 34.2524 0.872823 0.834717
  443 35.1687 0.642249 0.928530
  444 31.6176 0.878183 -1.50936
  445 32.4016 1.27947 -0.189638
  446 36.3534 0.368370 0.953664
  447 31.4549 1.13314 -1.42833
  448 31.7537 1.54965 -0.302170
  449 31.5264 0.500449 -0.864233
  450 36.5265 0.445862 0.530675
  451 37.1740 0.272256 0.206054
  452 31.3293 1.45629 -1.11577
  453 32.7566 1.28798 0.336777
  454 37.4324 0.191378 0.875711
  455 39.0738 0.0813916 0.134236
  456 34.0176 0.716888 0.0808353
  457 35.2190 0.658768 0.577343
  458 31.9543 0.342728 -0.232618
  459 40.8263 0.0106797 0.213647
  460 34.0024 0.917699 0.341000
  461 32.3361 1.42906 0.146628
  462 31.5775 0.161490 -0.764985
  463 31.5326 1.13716 -1.12760
  464 31.5917 1.34508 -0.858921
  465 38.2072 0.188320 0.370244
  466 31.6134 0.618840 -1.21237
  467 31.5832 0.777419 -1.24374
  468 31.3460 0.288936 -0.628878
  469 39.1601 0.0937973 0.406790
  470 37.8775 0.198873 0.752027
  471 33.9859 0.634350 0.00423633
  472 35.6878 0.502731 0.278366
  473 37.4519 0.267909 0.731763
  474 31.8181 0.0444271 -0.495652
  475 32.0965 1.11490 -0.550297
  476 31.8122 1.39943 -0.540592
  477 30.4389 0.0851736 -0.141423
  478 33.1205 1.19462 0.548461
  479 38.7596 0.103212 0.614252
  480 31.9722 0.147588 -0.848831
  481 31.5353 0.248042 -0.0958901
  482 31.0677 0.118247 -0.564457
  483 31.7756 0.371005 -1.17202
  484 36.8460 0.348481 0.760288
  485 31.9090 0.102312 -0.681715
  486 40.3649 0.0138592 0.349482
  487 34.2366 0.922165 0.690316
  488 39.6680 0.0312961 0.160680
  489 39.4451 0.0409354 0.552921
  490 31.6897 0.00411718 -0.177588
  491 30.7690 0.0217344 -0.306494
  492 36.5708 0.360918 0.307228
  493 38.1324 0.158562 0.0991096
  494 38.4930 0.167666 0.525248
  495 31.6925 0.416168 -1.15011
  496 31.7300 0.902349 -0.915731
  497 31.7606 0.211773 -0.923287
  498 31.8664 0.515759 -1.37827
  499 32.6940 1.08935 -0.194328
  500 33.1825 0.976235 -0.0282127
  501 31.6349 0.0309672 -0.417454
  502 34.3524 0.780517 0.240384
  503 31.6623 1.21742 -0.905318
  504 40.9801 -0.00740211 0.118199
  505 31.6158 0.958989 -1.06867
  506 32.8864 0.685691 -0.240024
  507 31.8112 0.478332 -0.519894
  508 35.7692 0.557884 0.814101
  509 33.0077 1.20567 0.231648
  510 34.6719 0.745848 0.932993
  511 31.3313 0.0727274 -0.541221
  512 31.5135 0.219423 -0.834343
  513 39.8401 0.0397466 0.449721
  514 30.5806 0.0358836 -0.295922
  515 36.6606 0.319270 0.112365
  516 31.4982 0.00508659 -0.153508
  517 31.6646 0.627299 -1.34319
  518 30.7829 0.0156598 -0.224158
  519 39.3660 0.0459986 0.0572227
  520 29.9712 0.102153 -0.151469
  521 32.0720 1.28616 -0.437473
  522 31.3551 0.241658 -0.787065
  523 35.9677 0.517720 0.432991
  524 40.7800 -0.00112471 0.106436
  525 41.2153 0.0126246 0.106461
  526 31.4083 1.57616 -0.743298
  527 31.8016 0.623812 -0.663911
  528 40.0002 0.0241247 0.371728
  529 40.2202 0.00982345 0.103169
  530 39.0272 0.100333 0.317304
  531 33.4423 1.01420 0.148371
  532 39.7182 0.0643513 0.344647
  533 32.4390 1.01505 -0.383513
  534 31.3645 1.26265 -1.39358
  535 31.4908 0.471060 -0.939241
  536 35.5589 0.430566 0.0559072
  537 31.9649 0.309132 -1.15616
  538 37.1680 0.359996 0.571911
  539 35.2322 0.640368 0.810880
  540 30.4289 0.0192178 -0.211223
  541 31.5684 0.456266 0.672375
  542 33.4024 0.766595 0.0603786
  543 36.5968 0.391597 -0.386820
  544 31.3460 0.162522 0.727295
  545 32.1231 0.914181 0.576504
  546 38.3648 0.172405 -0.463226
  547 31.5642 0.589846 1.05260
  548 34.6499 0.762617 -0.411964
  549 32.9618 1.15236 -0.0428823
  550 31.6626 1.05935 0.973863
  551 31.4975 0.0574498 0.511177
  552 36.9352 0.380948 -0.663792
  553 31.6797 0.286631 1.00002
  554 31.6581 0.490640 1.20763
  555 31.7904 1.26359 0.692804
  556 39.5942 0.0677102 -0.386475
  557 35.3730 0.639075 -0.708355
  558 32.3658 0.556882 0.331725
  559 38.2073 0.169154 -0.633286
  560 31.5488 0.996910 1.25091
  561 33.8522 0.998419 -0.495758
  562 30.9888 0.124675 0.486871
  563 38.1517 0.164396 -0.222202
  564 34.6768 0.647710 -0.152052
  565 36.2841 0.412294 -0.859723
  566 31.9794 1.43040 0.338831
  567 32.6093 1.33168 -0.0878933
  568 31.2912 0.200750 0.255539
  569 37.4115 0.248548 -0.819644
  570 31.6172 0.777761 1.37583
  571 31.4957 1.34139 1.02919
  572 31.6557 0.0169716 0.314823
  573 40.4576 0.0182491 -0.264773
  574 31.0955 0.0586461 0.479293
  575 31.3499 0.310833 0.777671
  576 31.7728 0.131259 0.765107
  577 33.7456 0.505808 0.0249732
  578 31.6859 0.692596 0.832665
  579 35.7510 0.552108 -0.505428
  580 39.4451 0.0590322 -0.501500
  581 39.7146 0.0418007 -0.288026
  582 31.7710 0.464015 1.27395
  583 36.0910 0.404318 -0.181065
  584 32.0736 0.708637 0.553147
  585 34.6962 0.767320 -0.817119
  586 33.2970 1.14264 -0.435505
  587 30.7913 0.0693357 0.411597
  588 33.7334 0.878553 -0.118485
  589 30.5330 0.0684764 0.176823
  590 37.4250 0.300753 -0.497559
  591 32.3518 1.16422 0.361447
  592 32.8621 0.899399 0.223138
  593 31.5040 0.432829 0.988331
  594 31.7096 0.0676913 0.567954
  595 31.4581 1.17464 1.30669
  596 31.6131 1.46585 0.719035
  597 38.3813 0.107110 -0.716006
  598 31.8208 0.286339 1.08566
  599 38.8659 0.125252 -0.270024
  600 32.6115 0.421734 0.137484
  601 32.4668 0.786873 0.397387
  602 31.6145 0.759339 1.05443
  603 31.3885 0.0104031 0.249979
  604 35.8077 0.492372 -0.930927
  605 31.6744 0.737933 1.47659
  606 31.8701 0.815073 0.734050
  607 32.0996 1.46679 0.0944169
  608 40.0331 0.0311498 -0.373296
  609 33.6706 1.05388 -0.661846
  610 40.2229 0.0415296 -0.229019
  611 36.8967 0.291400 -0.884946
  612 31.5521 0.962741 1.44365
  613 31.4176 0.143236 0.689429
  614 31.7354 0.377741 0.335282
  615 34.6521 0.794365 -0.611808
  616 31.1317 0.0222576 0.285803
  617 33.4426 1.07496 -0.263604
  618 31.5293 0.337409 0.968227
  619 37.7314 0.259718 -0.607319
  620 33.2075 0.600613 0.122599
  621 36.1086 0.518915 -0.688740
  622 37.3240 0.260299 -0.341487
  623 35.1934 0.650086 -0.356386
  624 31.2282 0.244226 0.430523
  625 31.3907 1.48903 0.924053
  626 31.9454 0.220951 0.990030
  627 31.6031 1.53143 0.532209
  628 34.8805 0.521956 -0.0979747
  629 38.9623 0.112629 -0.543892
  630 31.3749 1.33986 1.25015
  631 31.8393 1.04326 0.774832
  632 37.8618 0.169372 -0.802368
  633 38.9829 0.0599735 -0.614972
  634 31.1123 0.158822 0.599378
  635 31.9005 0.396832 1.25975
  636 31.7617 0.607237 1.40725
  637 30.3712 0.0178054 0.258930
  638 34.2518 0.872796 -0.835127
  639 35.1683 0.642103 -0.928972
  640 31.6178 0.878373 1.50989
  641 32.4010 1.27977 0.189704
  642 36.3533 0.368093 -0.954057
  643 31.4548 1.13339 1.42883
  644 31.7529 1.54993 0.302263
  645 31.5266 0.500605 0.864606
  646 36.5263 0.445933 -0.530915
  647 37.1739 0.272403 -0.206159
  648 31.3289 1.45659 1.11616
  649 32.7557 1.28817 -0.336949
  650 37.4325 0.191059 -0.875990
  651 39.0740 0.0814328 -0.134318
  652 34.0172 0.717161 -0.0808741
  653 35.2187 0.658867 -0.577605
  654 31.9543 0.342896 0.232759
  655 40.8270 0.0106558 -0.213670
  656 34.0019 0.917909 -0.341159
  657 32.3352 1.42929 -0.146720
  658 31.5784 0.161531 0.765285
  659 31.5324 1.13743 1.12802
  660 31.5912 1.34538 0.859237
  661 38.2073 0.188372 -0.370419
  662 31.6137 0.618995 1.21283
  663 31.5834 0.777614 1.24421
  664 31.3463 0.289045 0.629176
  665 39.1604 0.0937757 -0.406951
  666 37.8776 0.198692 -0.752259
  667 33.9855 0.634632 -0.00423444
  668 35.6876 0.502939 -0.278495
  669 37.4519 0.267799 -0.732026
  670 31.8194 0.0444371 0.495839
  671 32.0960 1.11519 0.550520
  672 31.8115 1.39974 0.540791
  673 30.4392 0.0852160 0.141481
  674 33.1197 1.19474 -0.548734
  675 38.7598 0.103067 -0.614407
  676 31.9733 0.147622 0.849139
  677 31.5354 0.248166 0.0959687
  678 31.0684 0.118284 0.564703
  679 31.7763 0.371095 1.17245
  680 36.8460 0.348364 -0.760591
  681 31.9102 0.102337 0.681966
  682 40.3655 0.0137945 -0.349516
  683 34.2360 0.922228 -0.690650
  684 39.6683 0.0313093 -0.160771
  685 39.4455 0.0407653 -0.552982
  686 31.6911 0.00412178 0.177657
  687 30.7698 0.0217499 0.306629
  688 36.5707 0.361084 -0.307368
  689 38.1324 0.158659 -0.0991689
  690 38.4932 0.167625 -0.525446
  691 31.6931 0.416267 1.15055
  692 31.7299 0.902596 0.916110
  693 31.7615 0.211826 0.923635
  694 31.8670 0.515872 1.37875
  695 32.6935 1.08965 0.194408
  696 33.1820 0.976526 0.0282255
  697 31.6361 0.0309807 0.417612
  698 34.3520 0.780758 -0.240499
  699 31.6619 1.21772 0.905668
  700 40.9808 -0.00741283 -0.118229
  701 31.6157 0.959233 1.06909
  702 32.8860 0.685971 0.240141
  703 31.8112 0.478520 0.520146
  704 35.7689 0.557811 -0.814464
  705 33.0070 1.20590 -0.231768
  706 34.6713 0.745736 -0.933446
  707 31.3322 0.0727461 0.541445
  708 31.5143 0.219478 0.834680
  709 39.8406 0.0396389 -0.449764
  710 30.5810 0.0359143 0.296068
  711 36.6605 0.319453 -0.112413
  712 31.4996 0.00508548 0.153565
  713 31.6649 0.627447 1.34368
  714 30.7838 0.0156680 0.224253
  715 39.3662 0.0460286 -0.0572573
  716 29.9715 0.102165 0.151527
  717 32.0714 1.28647 0.437644
  718 31.3557 0.241731 0.787386
  719 35.9675 0.517874 -0.433185
  720 40.7807 -0.00113302 -0.106476
  721 41.2161 0.0126227 -0.106475
  722 31.4076 1.57646 0.743554
  723 31.8016 0.624026 0.664215
  724 40.0007 0.0240759 -0.371825
  725 40.2207 0.00982609 -0.103236
  726 39.0274 0.100350 -0.317457
  727 33.4418 1.01447 -0.148444
  728 39.7186 0.0643385 -0.344781
  729 32.4386 1.01535 0.383682
  730 31.3643 1.26291 1.39406
  731 31.4911 0.471197 0.939630
  732 35.5587 0.430806 -0.0559391
  733 31.9658 0.309200 1.15658
  734 37.1680 0.360023 -0.572160
  735 35.2318 0.640308 -0.811261
  736 30.4296 0.0192218 0.211319
  737 24.7178 3.71515 1.63096
  738 24.7209 3.71440 -1.63057
  739 37.7070 -3.12270 3.43095
  740 37.7169 -3.13786 -3.42718
  741 31.8933 1.69189 3.37611
  742 31.8929 1.69177 -3.37530
  743 28.3427 0.214669 -7.80590
  744 28.3467 0.211750 7.80729
  745 43.7157 0.190078 3.54035
  746 43.7184 0.637976 -3.57687
  747 33.8917 1.65748 -5.36460
  748 33.8932 1.65700 5.36545
  749 42.4736 -5.11619 5.21045
  750 42.4603 -5.11403 -5.20447
  751 30.8495 1.32447 -2.44239
  752 30.8513 1.32532 2.44147
  753 39.4876 -0.975076 0.475868
  754 39.4889 -0.976537 -0.474894
  755 26.5795 -2.04963 7.93903
  756 26.5737 -2.04685 -7.93682
  757 29.3039 2.69075 1.37635
  758 29.3051 2.69047 -1.37605
  759 33.1692 0.504220 -1.92969
  760 33.1704 0.504291 1.93023
  761 39.8303 3.23831 -0.101224
  762 41.0295 -1.57375 1.70088
  763 41.0281 -1.57297 -1.69890
  764 39.3168 0.579529 -6.32712
  765 39.3200 0.578252 6.32676
  766 35.4377 0.762263 3.35503
  767 35.4358 0.762308 -3.35440
  768 44.1730 -6.07825 -3.18404
  769 44.0028 -6.21231 3.38684
  770 55.9424 -4.09311 2.62807
  771 55.9378 -4.07027 -2.63191
  772 44.7119 -0.867709 -5.64554
  773 44.7164 -0.869443 5.64377
  774 35.7549 -0.402812 2.06645
  775 35.7550 -0.404297 -2.06763
  776 48.3668 8.95894 1.21219
  777 16.0987 1.60136 -0.298452
  778 16.1103 1.59871 0.301390
  779 62.6125 2.10057 -5.13395
  780 62.0533 2.02808 5.27901
  781 63.1355 5.42580 0.681890
  782 39.7023 0.602031 -4.41432
  783 39.7050 0.601652 4.41449
  784 30.9018 1.84259 -2.22211
  785 30.9015 1.84286 2.22274
  786 50.8876 2.77079 -2.37999
  787 34.6288 0.338837 2.00383
  788 34.6270 0.338817 -2.00335
  789 38.7642 0.926829 -2.43823
  790 38.8066 0.953818 2.48175
  791 29.2887 2.89398 3.98805
  792 29.2892 2.89388 -3.98704
  793 26.7197 2.88064 5.59167
  794 26.7200 2.88148 -5.58957
  795 42.5896 -3.72097 -0.192260
  796 42.5878 -3.72633 0.192140
  797 53.3800 -3.03480 -0.186002
  798 53.3822 -3.02666 0.179971
  799 26.0297 2.16557 -3.06192
  800 26.0321 2.16630 3.05939
  801 20.8270 -5.51357 -7.46887
  802 20.8413 -5.51697 7.46809
  803 51.8770 1.73821 1.42980
  804 30.5267 2.10234 -0.470008
  805 30.5281 2.10229 0.469767
  806 40.1717 -0.228918 -0.349402
  807 40.1712 -0.228438 0.349944
  808 40.5911 -0.653298 0.648729
  809 40.5910 -0.652504 -0.646910
  810 39.6954 -0.384353 2.55520
  811 39.6986 -0.388168 -2.55456
  812 40.0965 -2.28582 0.491211
  813 40.1000 -2.28811 -0.489493
  814 39.0119 0.380053 2.95768
  815 39.0092 0.380155 -2.95735
  816 53.0419 -1.23735 -2.58433
  817 53.0444 -1.23796 2.58034
  818 32.3380 -0.904108 -4.62404
  819 32.3413 -0.901426 4.62229
  820 32.9534 0.159181 -1.03818
  821 32.9549 0.159210 1.03850
  822 37.8217 -0.432835 1.16523
  823 37.8224 -0.434062 -1.16541
  824 31.9655 1.04072 2.16049
  825 31.9650 1.04055 -2.15985
  826 31.2870 -7.24761 -10.3318
  827 30.4854 -7.13018 10.4287
  828 43.7874 5.60723 -2.16173
  829 33.1665 0.846763 1.74266
  830 33.1654 0.846293 -1.74352
  831 46.8494 -0.0177173 -4.20609
  832 46.8523 -0.0183644 4.20496
  833 36.4359 -4.44852 -6.04191
  834 36.3712 -4.44496 6.03657
  835 27.2499 3.05467 -0.132174
  836 27.2520 3.05459 0.131693
  837 54.8683 -0.747697 -6.20786
  838 54.8826 -0.629831 6.18242
  839 14.7519 -4.93103 7.90631
  840 14.7551 -4.91480 -7.95689
  841 52.6110 2.88350 -3.25562
  842 41.1549 -7.18557 -4.83680
  843 41.1659 -7.12133 5.00141
  844 29.7988 2.57061 2.75554
  845 29.7995 2.57034 -2.75486
  846 32.5189 1.84663 4.36013
  847 32.5181 1.84670 -4.35922
  848 42.7495 4.50158 2.35930
  849 33.8390 0.150533 -1.19429
  850 33.8408 0.150555 1.19463
  851 44.0921 0.216387 3.72630
  852 44.0890 0.216738 -3.72661
  853 35.5989 -2.50306 -7.75191
  854 35.6035 -2.50342 7.75187
  855 75.6591 6.31147 -1.08103
  856 9.40566 -5.37994 -1.24403
  857 9.39885 -5.38603 1.26404
  858 36.7434 0.213199 1.81060
  859 36.7409 0.213198 -1.81024
  860 30.4945 2.08532 1.38185
  861 30.4953 2.08502 -1.38145
  862 36.5148 1.10585 -0.669921
  863 32.6359 1.73860 6.63382
  864 32.6338 1.73990 -6.63285
  865 56.2726 -1.70329 -3.85699
  866 56.2882 -1.71842 3.87125
  867 38.1180 -1.36319 1.49055
  868 38.1199 -1.36557 -1.49078
  869 42.6015 -1.75702 -2.59889
  870 42.6009 -1.76063 2.60348
  871 40.2635 -0.501856 1.39799
  872 40.2646 -0.501390 -1.39571
  873 49.8873 2.00654 4.00872
  874 20.9321 2.17964 4.84588
  875 20.9338 2.18092 -4.84140
  876 21.6958 2.90848 -1.73846
  877 21.7019 2.90671 1.73656
  878 48.0860 -4.11040 4.83207
  879 33.1800 0.926665 2.73012
  880 33.1789 0.926576 -2.72944
  881 57.3649 11.0146 -0.557834
  882 33.7481 -0.202193 2.99137
  883 33.7468 -0.203676 -2.99291
  884 62.6358 -0.494966 0.173291
  885 62.6168 -0.423876 -0.261080
  886 45.5041 -2.93135 -1.69848
  887 45.3821 -2.78430 1.82394
  888 76.8305 5.85963 0.619744
  889 36.8767 -0.163252 7.35345
  890 36.8724 -0.161294 -7.35382
  891 45.8355 -4.72951 -6.36746
  892 40.8376 -0.297685 0.0747574
  893 40.8376 -0.297248 -0.0737202
  894 52.7346 -0.505762 -3.15962
  895 52.7362 -0.506617 3.15700
  896 32.4833 0.416124 -1.55899
  897 32.4843 0.416199 1.55948
  898 27.6173 3.32012 -2.12531
  899 27.6157 3.32049 2.12575
  900 36.2292 0.904254 0.915796
  901 60.0730 10.2500 -0.183329
  902 35.6948 1.10875 4.31303
  903 35.6930 1.10894 -4.31238
  904 40.9112 0.0904084 -3.24796
  905 40.9632 0.0719329 3.24959
  906 36.0413 0.0507744 1.47475
  907 36.0414 0.0498984 -1.47545
  908 38.8529 -0.210216 -0.751676
  909 38.8524 -0.209528 0.751813
  910 46.5600 3.72753 3.50865
  911 29.5598 2.82259 5.07287
  912 29.5597 2.82290 -5.07154
  913 30.6122 2.08274 0.469449
  914 30.6133 2.08249 -0.469344
  915 22.3389 3.52629 2.40583
  916 22.3431 3.52547 -2.40410
  917 41.4041 2.24009 -2.98645
  918 36.6592 -1.55952 -2.62703
  919 36.6582 -1.55677 2.62531
  920 49.8059 0.701455 -5.34303
  921 45.6210 -2.65564 -5.03538
  922 45.6287 -2.65793 5.03389
  923 19.3314 -1.53292 -6.72471
  924 19.3368 -1.53833 6.72932
  925 50.3981 0.655218 5.58584
  926 41.4226 -5.01617 2.69953
  927 41.7100 -5.17779 -2.72002
  928 41.7144 0.198985 -2.56738
  929 41.7175 0.198880 2.56750
  930 37.7210 0.113238 -2.07029
  931 37.7040 0.141921 2.07088
  932 30.7854 -7.60991 -7.28179
  933 30.8145 -7.60913 7.20434
  934 32.1224 1.26873 2.71443
  935 32.1219 1.26858 -2.71371
  936 40.5562 -1.52493 -0.612290
  937 40.5577 -1.52607 0.614288
  938 49.6653 -5.79700 -1.38799
  939 49.6989 -5.79510 1.36918
  940 32.0658 1.45795 1.02345
  941 32.0646 1.45788 -1.02392
  942 46.3994 1.98419 0.830972
  943 33.4039 1.20331 3.44463
  944 33.4029 1.20327 -3.44387
  945 36.7799 1.14563 5.97675
  946 36.7774 1.14651 -5.97639
  947 29.2369 2.36094 -0.891743
  948 29.2386 2.36111 0.891255
  949 85.3611 7.27498 -0.218111
  950 19.5384 0.607015 -5.29149
  951 19.5468 0.605458 5.28512
  952 38.2763 0.188823 1.96294
  953 38.2735 0.188847 -1.96263
  954 49.4307 -3.56450 -4.75436
  955 49.7437 -3.45805 4.23394
  956 31.4337 1.35426 1.97072
  957 31.4337 1.35403 -1.97011
  958 32.5534 0.0573444 -0.567447
  959 32.5550 0.0573582 0.567640
  960 51.3633 -0.133597 -3.10850
  961 51.3654 -0.134169 3.10684
  962 75.8548 3.65938 1.73534
  963 34.7994 0.0969819 0.986982
  964 34.7972 0.0969693 -0.986723
  965 35.8994 0.103902 -1.20618
  966 35.9019 0.103906 1.20646
  967 57.2604 -0.847767 -0.767107
  968 57.2581 -0.846614 0.763935
  969 46.1186 2.84128 -3.52823
  970 28.8226 -0.269564 -5.63103
  971 28.8220 -0.265144 5.62669
  972 74.1216 3.81978 -2.02413
  973 39.7306 2.58438 1.74814
  974 40.7407 -0.0526091 -0.314396
  975 40.7402 -0.0524446 0.314615
  976 31.0585 1.88234 2.72969
  977 31.0585 1.88212 -2.72897
  978 58.2412 -0.954113 1.19207
  979 58.2348 -0.949160 -1.18984
  980 40.4771 -3.42639 1.30936
  981 40.4932 -3.43796 -1.30803
  982 41.4530 -2.59821 -0.713477
  983 41.4545 -2.59877 0.716401
  984 43.5545 6.35452 0.252393
  985 27.6758 2.06909 6.73388
  986 27.6743 2.07093 -6.73174
  987 31.0254 2.24465 3.78190
  988 31.0253 2.24453 -3.78100
  989 35.8458 0.405038 -1.29515
  990 48.6628 -2.63242 -0.542701
  991 59.5183 6.19987 3.65879
  992 49.0853 7.67802 -2.45429
  993 30.9385 1.73210 1.67754
  994 30.9389 1.73181 -1.67703
  995 39.4312 -0.260522 -1.56172
  996 39.4286 -0.260067 1.56362
  997 29.6372 1.01063 -3.51813
  998 29.6390 1.01236 3.51681
  999 30.0440 2.37256 2.04213
  1000 30.0447 2.37227 -2.04160
  1001 39.3071 2.41451 -1.56327
  1002 26.6590 3.47370 3.59460
  1003 26.6606 3.47345 -3.59345
  1004 34.3037 0.665382 1.42465
  1005 34.3031 0.664968 -1.42538
  1006 35.1893 0.527618 -2.57578
  1007 35.1912 0.527629 2.57633
  1008 31.2456 1.61401 -1.44924
  1009 31.2471 1.61428 1.44862
  1010 34.1011 0.979922 7.17241
  1011 34.0979 0.981756 -7.17196
  1012 47.4384 0.117282 2.77362
  1013 47.4353 0.117510 -2.77413
  1014 41.4517 1.70217 3.23130
  1015 25.2538 3.28409 -0.679647
  1016 25.2570 3.28369 0.678590
  1017 54.9885 -0.810299 -4.39156
  1018 55.0270 -0.794602 4.37925
  1019 42.5448 -0.240082 6.15383
  1020 42.5409 -0.238535 -6.15504
  1021 31.9753 -4.71788 8.45698
  1022 31.9365 -4.72334 -8.52200
  1023 49.3729 -3.41568 2.93736
  1024 49.3631 -3.41557 -2.94207
  1025 38.6621 -2.37229 1.88464
  1026 38.6660 -2.37538 -1.88505
  1027 39.3547 -0.503938 -0.591721
  1028 39.3539 -0.502957 0.592268
  1029 32.0810 0.746721 1.83866
  1030 32.0803 0.746584 -1.83808
  1031 47.9352 -3.25072 0.539132
  1032 28.0736 2.25187 -2.01692
  1033 28.0756 2.25257 2.01578
  1034 27.4850 -2.56395 8.24422
  1035 27.4784 -2.56138 -8.24524
  1036 33.3737 0.0555406 -0.692689
  1037 33.3755 0.0555467 0.692899
  1038 35.9829 0.314193 1.44713
  1039 24.0045 1.37606 -4.54244
  1040 24.0080 1.37584 4.53773
  1041 40.2132 -0.739605 -0.0460398
  1042 40.2140 -0.740608 0.0474059
  1043 40.7716 -0.220573 0.693686
  1044 40.7732 -0.220198 -0.692086
  1045 29.6565 2.50456 0.308411
  1046 29.6579 2.50438 -0.308427
  1047 36.9197 -5.39442 9.68522
  1048 40.9483 -1.08575 -2.53823
  1049 40.9507 -1.08480 2.54153
  1050 18.0246 -8.56617 9.33938
  1051 17.9401 -8.25360 -9.50711
  1052 54.7971 2.66813 -5.26184
  1053 35.3350 -2.67502 -4.80460
  1054 35.3144 -2.67671 4.81765
  1055 41.1641 -0.0730187 -0.121651
  1056 41.1639 -0.0728545 0.122110
  1057 31.2188 1.85659 -0.187456
  1058 31.2199 1.85643 0.187339
  1059 32.4654 0.159641 0.984376
  1060 32.4641 0.159608 -0.984047
  1061 36.9219 1.04703 4.81371
  1062 36.9197 1.04740 -4.81321
  1063 35.3949 -1.79474 3.79368
  1064 35.3929 -1.79851 -3.79585
  1065 32.4509 0.745172 2.04462
  1066 32.4500 0.745054 -2.04402
  1067 56.2425 -1.96709 5.31826
  1068 56.2281 -1.98409 -5.31143
  1069 37.1879 -0.730485 1.61564
  1070 37.1889 -0.732225 -1.61627
  1071 33.8034 0.440467 1.97725
  1072 33.8018 0.440415 -1.97674
  1073 34.3505 -4.77488 -7.71230
  1074 34.3487 -4.77040 7.71268
  1075 37.1457 0.480863 2.99988
  1076 37.1433 0.480928 -2.99941
  1077 39.6655 -0.110767 -0.552876
  1078 39.6651 -0.110381 0.553059
  1079 60.2088 -0.696007 -5.24315
  1080 60.2636 -0.664280 5.24324
  1081 9.31073 -12.3757 -2.74130
  1082 9.32308 -12.3791 2.72671
  1083 56.6884 -0.409256 -1.73371
  1084 56.6875 -0.409616 1.73089
  1085 24.1260 -4.47682 9.79685
  1086 24.2943 -4.46234 -9.72829
  1087 44.3111 0.102751 2.28694
  1088 44.3077 0.102855 -2.28700
  1089 41.1432 -0.199338 0.313873
  1090 41.1441 -0.199048 -0.312736
  1091 6.67138 -11.4506 -3.46566
  1092 6.76916 -11.3626 3.58935
  1093 40.7926 0.118104 -1.85936
  1094 40.7959 0.118061 1.85954
  1095 32.3483 0.794167 2.38802
  1096 32.3468 0.793371 -2.38908
  1097 11.1365 -2.24979 -2.47029
  1098 11.1630 -2.25757 2.47241
  1099 16.5163 -10.2403 5.20682
  1100 16.5061 -10.2594 -5.20713
  1101 39.8757 -1.60518 0.283352
  1102 39.8778 -1.60695 -0.281866
  1103 28.5745 2.81408 0.307295
  1104 28.5762 2.81395 -0.307423
  1105 40.5902 0.578057 -4.94231
  1106 40.5931 0.577463 4.94224
  1107 54.1434 -3.56474 1.55766
  1108 54.1379 -3.54677 -1.56282
  1109 31.5712 -2.62676 -6.87916
  1110 31.5557 -2.61124 6.86768
  1111 41.8257 -6.94931 7.14701
  1112 43.2158 0.299233 -4.89638
  1113 43.2189 0.298521 4.89578
  1114 40.6416 -1.05634 -1.27639
  1115 40.6422 -1.05724 1.27856
  1116 38.3067 -0.831946 1.12112
  1117 38.3079 -0.833609 -1.12104
  1118 37.0782 0.00739147 1.14521
  1119 37.0784 0.00665526 -1.14559
  1120 50.2278 7.15430 2.61069
  1121 24.9357 -8.64072 -5.47862
  1122 24.9579 -8.45759 5.35803
  1123 31.1958 -5.93260 -10.0018
  1124 62.8302 4.70432 3.18047
  1125 41.4544 3.98032 -1.78903
  1126 39.0424 -7.03919 -7.28346
  1127 16.2796 0.726257 3.45068
  1128 16.2846 0.727707 -3.44336
  1129 31.8438 2.22681 5.07787
  1130 31.8431 2.22708 -5.07682
  1131 37.4144 1.60878 0.412842
  1132 38.2037 -0.0695529 -1.70843
  1133 38.2013 -0.0622912 1.70936
  1134 47.0412 -0.567123 2.85675
  1135 50.5104 0.0603130 -2.30959
  1136 50.5130 0.0601086 2.30886
  1137 63.4523 5.52105 -2.01014
  1138 39.4741 -6.24064 6.18626
  1139 31.5531 1.47781 -2.47416
  1140 31.5532 1.47801 2.47485
  1141 43.7643 -1.72068 -2.71733
  1142 43.9407 -1.61816 2.79514
  1143 32.8171 0.851423 2.43523
  1144 32.8161 0.851320 -2.43457
  1145 40.7416 1.12636 -1.39901
  1146 34.1920 0.170082 -2.18844
  1147 34.1928 0.171080 2.18724
  1148 62.1246 3.81090 -4.32071
  1149 32.9541 1.16525 -1.15437
  1150 32.9551 1.16537 1.15381
  1151 49.8364 0.0301588 4.90849
  1152 49.6154 -1.21903 -4.05687
  1153 49.6195 -1.22053 4.05390
  1154 44.3048 0.899968 -3.76231
  1155 49.6704 0.0713775 -4.86664
  1156 33.3840 0.250042 -1.42588
  1157 33.3856 0.250082 1.42630
  1158 40.1453 -0.628756 -2.11714
  1159 40.1450 -0.627610 2.11970
  1160 34.3248 0.463465 0.0623768
  1161 34.2589 1.32002 4.18805
  1162 34.2575 1.32012 -4.18728
  1163 47.1604 -0.450920 -2.84701
  1164 28.7572 2.92629 1.99825
  1165 28.7584 2.92599 -1.99781
  1166 38.5329 -4.18059 4.13988
  1167 38.8430 -4.35668 -4.07438
  1168 31.5598 2.21945 5.89652
  1169 31.5587 2.22020 -5.89537
  1170 31.7275 1.01112 1.87694
  1171 31.7272 1.01094 -1.87635
  1172 40.0725 -0.472996 0.249476
  1173 40.0731 -0.473785 -0.248577
  1174 26.4803 3.49943 1.28157
  1175 26.4826 3.49898 -1.28150
  1176 31.5760 0.309558 3.43167
  1177 31.5739 0.307979 -3.43301
  1178 37.9153 0.0894659 1.16179
  1179 37.9123 0.0894697 -1.16158
  1180 44.2636 -4.96149 0.946676
  1181 44.5159 -4.91113 -0.801822
  1182 34.1999 0.688589 2.66034
  1183 34.1983 0.688545 -2.65972
  1184 32.9225 0.0369096 0.547011
  1185 32.9208 0.0369048 -0.546835
  1186 58.3315 -0.722672 -2.16615
  1187 58.3367 -0.728199 2.17444
  1188 34.2426 0.0454364 -0.612117
  1189 34.2447 0.0454394 0.612291
  1190 39.8250 -1.19542 6.89728
  1191 39.8200 -1.19363 -6.89808
  1192 69.6288 11.3560 -0.339637
  1193 28.8183 3.02294 2.90185
  1194 28.8193 3.02265 -2.90114
  1195 39.3863 0.481460 3.67974
  1196 39.3836 0.481670 -3.67946
  1197 39.1464 0.318777 -2.74761
  1198 39.1996 0.309816 2.77799
  1199 96.4059 5.85557 2.86260
  1200 45.7217 6.13358 2.59246
  1201 19.8471 3.06199 0.148307
  1202 19.8545 3.05982 -0.147523
  1203 30.7311 1.95595 0.949769
  1204 30.7319 1.95566 -0.949491
  1205 93.9208 6.29898 -2.83839
  1206 37.9999 -0.0734552 -0.935074
  1207 37.9995 -0.0728059 0.934938
  1208 43.9017 -6.64914 -4.14127
  1209 43.9540 -6.65303 4.15654
  1210 30.8798 2.12536 -3.16444
  1211 30.8798 2.12556 3.16523
  1212 43.3191 0.647408 3.49805
  1213 41.0350 0.894479 2.19634
  1214 40.5334 -5.94293 -5.04309
  1215 27.7693 3.20198 -1.09423
  1216 27.7675 3.20227 1.09430
  1217 42.3903 -2.66805 1.51144
  1218 42.3911 -2.66834 -1.50739
  1219 32.1263 1.79823 3.86766
  1220 32.1257 1.79819 -3.86678
  1221 46.7493 -0.258550 4.88112
  1222 46.7461 -0.257393 -4.88281
  1223 48.6300 -4.72713 -2.47535
  1224 48.6469 -4.72598 2.46905
  1225 43.5495 3.02135 -3.37025
  1226 33.7330 1.62714 4.77798
  1227 33.7317 1.62738 -4.77714
  1228 46.0326 7.96134 -0.747841
  1229 43.8157 2.84888 3.47395
  1230 39.9568 0.104410 -1.49318
  1231 39.9600 0.104384 1.49337
  1232 51.7913 -5.70536 -0.691876
  1233 51.8529 -5.65151 0.619614
  1234 36.8330 0.0454938 -1.01880
  1235 36.8358 0.0454879 1.01902
  1236 35.2114 0.104297 -1.79018
  1237 35.2117 0.105234 1.78921
  1238 14.2587 -5.05991 5.70527
  1239 14.2500 -5.05101 -5.69976
  1240 24.9906 3.52052 3.97379
  1241 24.9926 3.52039 -3.97197
  1242 55.9444 0.378096 -6.50291
  1243 46.6969 0.111056 2.00552
  1244 46.6935 0.111161 -2.00573
  1245 41.3937 4.45294 1.17081
  1246 54.5024 11.1458 0.572175
  1247 32.9973 -0.927111 -8.00719
  1248 33.0020 -0.929189 8.00710
  1249 42.4557 -0.519231 -3.31326
  1250 42.4547 -0.573512 3.29006
  1251 34.7052 -3.08413 -6.80000
  1252 35.6736 -3.81079 6.83965
  1253 30.8813 1.79177 1.33788
  1254 30.8819 1.79147 -1.33746
  1255 29.8563 2.41261 1.05212
  1256 29.8574 2.41234 -1.05188
  1257 30.5832 2.00596 1.85364
  1258 30.5838 2.00568 -1.85311
  1259 55.2757 -0.172488 -1.98947
  1260 55.2764 -0.172800 1.98784
  1261 36.8880 -1.09309 2.06214
  1262 36.8891 -1.09534 -2.06327
  1263 73.5547 3.88410 7.60174
  1264 56.0028 0.332004 6.44228
  1265 38.1250 1.51212 1.61035
  1266 66.7176 1.79061 -2.21477
  1267 34.1498 0.265186 -0.509814
  1268 24.9585 1.55703 6.69379
  1269 24.9567 1.55950 -6.69083
  1270 59.9502 2.53543 9.10675
  1271 52.8184 3.20279 -0.932741
  1272 22.6424 3.58106 0.433843
  1273 22.6473 3.57970 -0.433932
  1274 35.6517 1.20298 -6.70756
  1275 35.6544 1.20160 6.70793
  1276 53.1427 3.31663 8.80500
  1277 24.6451 2.54270 5.80292
  1278 24.6452 2.54406 -5.79994
  1279 37.5781 0.734571 4.07537
  1280 37.5758 0.734795 -4.07491
  1281 74.7025 6.77503 0.901451
  1282 54.5685 3.37425 2.16010
  1283 68.1005 10.1772 3.06814
  1284 57.2230 0.869421 -7.37315
  1285 43.7548 -3.14656 -1.52031
  1286 43.7532 -3.13054 1.52861
  1287 58.9139 -2.42278 3.41488
  1288 58.8923 -2.46827 -3.38964
  1289 39.1851 -1.88301 -1.02440
  1290 39.1823 -1.88056 1.02518
  1291 32.9164 0.310329 1.46743
  1292 32.9151 0.310273 -1.46699
  1293 35.3534 -0.735329 2.62753
  1294 35.3531 -0.737191 -2.62922
  1295 39.6173 -3.84990 -6.67968
  1296 39.6233 -3.85017 6.68202
  1297 27.6555 3.32422 3.20513
  1298 27.6569 3.32394 -3.20426
  1299 50.4692 -2.35092 -1.01512
  1300 37.6853 1.24439 -1.64599
  1301 70.4604 4.03414 -8.97963
  1302 64.8865 8.29260 -5.58701
  1303 41.8520 1.05202 -3.43858
  1304 87.3759 5.57373 -6.00529
  1305 39.8412 -0.165671 -1.00827
  1306 39.8373 -0.165880 1.01012
  1307 40.2966 -1.12454 -0.283770
  1308 40.2976 -1.12572 0.285491
  1309 51.8439 -0.332705 -3.98549
  1310 32.6068 0.365422 7.67287
  1311 32.6029 0.367696 -7.67237
  1312 38.6383 -0.454096 -0.865053
  1313 38.6374 -0.452994 0.865259
  1314 60.1843 -0.434566 0.231266
  1315 60.1775 -0.433033 -0.231946
  1316 38.9387 -1.28692 0.904917
  1317 38.9405 -1.28893 -0.904310
  1318 32.3297 0.317833 -1.31293
  1319 32.3307 0.317899 1.31336
  1320 55.8522 1.97724 5.70107
  1321 53.1981 -2.04018 -1.58916
  1322 53.2014 -2.03856 1.58420
  1323 34.3460 1.59724 5.93393
  1324 34.3441 1.59802 -5.93319
  1325 39.7597 -7.46409 -8.31900
  1326 19.9220 -1.97864 7.80177
  1327 19.9186 -1.97601 -7.81281
  1328 53.6204 1.88890 -5.25690
  1329 41.6692 -1.85983 -2.15132
  1330 41.6706 -1.86046 2.15243
  1331 30.8301 2.42857 4.32983
  1332 30.8300 2.42857 -4.32884
  1333 41.4915 -4.17786 -1.45483
  1334 41.4822 -4.17993 1.42728
  1335 42.2644 0.358932 3.80006
  1336 42.2614 0.359236 -3.80013
  1337 4.79808 -15.9694 0.923692
  1338 4.84471 -16.0851 -0.904957
  1339 91.1799 6.00169 6.51209
  1340 52.9805 1.09957 0.142614
  1341 35.6494 0.101542 -1.23673
  1342 54.4746 6.69881 -1.70784
  1343 32.2022 0.516870 -1.56675
  1344 32.2031 0.516971 1.56726
  1345 46.7779 -5.40689 2.68858
  1346 41.4267 -0.820704 -3.00129
  1347 41.4276 -0.816932 3.00178
  1348 59.0873 -0.376725 -0.988266
  1349 59.0837 -0.376695 0.985628
  1350 34.3234 0.240586 1.55386
  1351 34.3216 0.240563 -1.55345
  1352 29.4337 2.46584 6.19465
  1353 29.4327 2.46692 -6.19307
  1354 66.9075 4.20550 3.34028
  1355 45.5320 1.21637 -10.3627
  1356 41.5004 -0.0987881 0.0272663
  1357 41.5006 -0.0986393 -0.0267197
  1358 18.5810 2.57321 2.25874
  1359 18.5873 2.57248 -2.25479
  1360 40.7276 -2.13948 -0.408090
  1361 40.7297 -2.14062 0.410379
  1362 52.3261 -0.327061 4.20305
  1363 32.4673 1.28719 2.95489
  1364 32.4666 1.28706 -2.95415
  1365 34.2619 0.231207 0.668619
  1366 38.7313 0.316877 6.76187
  1367 38.7277 0.318488 -6.76233
  1368 23.9185 2.49744 -2.55262
  1369 23.9225 2.49714 2.54992
  1370 56.8147 -0.545771 2.97731
  1371 56.8385 -0.544204 -2.96452
  1372 35.4655 0.0511387 0.747535
  1373 35.4630 0.0511336 -0.747348
  1374 36.3315 0.453357 2.73678
  1375 36.3293 0.453385 -2.73628
  1376 15.8016 0.0572373 -4.26790
  1377 15.8195 0.0530627 4.26400
  1378 34.4449 0.876076 3.15996
  1379 34.4434 0.876061 -3.15929
  1380 41.4381 -0.0274264 -0.145149
  1381 41.4376 -0.0273520 0.145355
  1382 36.3393 -0.290057 1.67976
  1383 36.3396 -0.291348 -1.68058
  1384 10.0910 -13.0415 -5.68478
  1385 9.36980 -12.6472 5.66900
  1386 46.2272 -5.82425 -3.44711
  1387 30.2879 2.28211 -2.55396
  1388 30.2875 2.28238 2.55462
  1389 35.3750 0.415344 1.31822
  1390 35.3747 0.414844 -1.31887
  1391 40.7131 -0.436767 0.286322
  1392 40.7131 -0.436183 -0.284921
  1393 43.0919 0.195801 -5.50889
  1394 43.0952 0.194746 5.50799
  1395 65.5774 1.40751 2.99809
  1396 40.2570 0.925650 -3.05478
  1397 32.2680 1.04231 -2.37684
  1398 32.2686 1.04246 2.37750
  1399 33.2085 -0.666873 -3.82131
  1400 33.2103 -0.664567 3.81952
  1401 33.2846 0.711356 2.33666
  1402 33.2834 0.711269 -2.33605
  1403 57.0737 -0.189554 -1.68776
  1404 57.0731 -0.189822 1.68577
  1405 31.2442 1.43134 1.75396
  1406 31.2444 1.43108 -1.75341
  1407 56.3038 -1.95787 -2.33061
  1408 56.3139 -1.96930 2.33500
  1409 71.1619 4.43958 -2.42227
  1410 32.1950 0.0160110 0.315798
  1411 32.1934 0.0160094 -0.315689
  1412 35.4186 0.299341 1.98821
  1413 35.4165 0.299332 -1.98777
  1414 27.7116 3.11823 5.03031
  1415 27.7121 3.11858 -5.02870
  1416 29.6420 2.38799 0.419684
  1417 29.6404 2.38800 -0.419957
  1418 50.3605 9.93875 -0.940938
  1419 55.6957 -3.23270 3.60110
  1420 55.6756 -3.21752 -3.59773
  1421 32.0457 -1.72668 -5.70123
  1422 32.0487 -1.71631 5.70326
  1423 37.7670 0.919523 5.28207
  1424 37.7645 0.920119 -5.28174
  1425 18.4476 1.96161 2.48511
  1426 18.4371 1.96510 -2.48688
  1427 40.1583 0.873498 3.02144
  1428 71.8307 6.74596 -0.357061
  1429 26.5339 2.79434 -1.36910
  1430 26.5364 2.79457 1.36788
  1431 31.8769 1.61361 -0.526207
  1432 31.8780 1.61350 0.525954
  1433 55.9699 6.21463 0.716239
  1434 38.9907 -0.0705320 -0.691432
  1435 38.9902 -0.0700685 0.691479
  1436 30.2921 2.02461 -1.11293
  1437 30.2937 2.02480 1.11246
  1438 37.4673 0.463126 -2.06380
  1439 56.2540 -1.46837 0.0690334
  1440 56.2514 -1.46432 -0.0716338
  1441 23.2153 -6.18764 8.96648
  1442 35.7710 0.103940 1.26323
  1443 45.0432 -0.772398 3.14124
  1444 35.6866 0.891191 3.77003
  1445 35.6847 0.891292 -3.76940
  1446 45.0679 -0.880734 -3.10740
  1447 40.5688 -0.646820 1.01626
  1448 40.5691 -0.646063 -1.01418
  1449 39.7401 -3.83272 2.63550
  1450 39.6963 -3.86114 -2.65719
  1451 39.7989 -5.43046 4.76826
  1452 29.9836 2.54772 3.27360
  1453 29.9840 2.54751 -3.27280
  1454 44.1883 0.0927840 1.32496
  1455 44.1846 0.0928120 -1.32494
  1456 31.1220 1.87348 0.246308
  1457 31.1231 1.87324 -0.246261
  1458 48.8975 1.74192 3.05629
  1459 33.4668 1.41833 3.89978
  1460 33.4657 1.41834 -3.89897
  1461 28.1733 0.857486 -4.31547
  1462 28.1746 0.860030 4.31305
  1463 40.5464 -0.967301 -1.74455
  1464 40.5471 -0.967877 1.74694
  1465 32.7572 0.509438 -1.80848
  1466 32.7583 0.509519 1.80902
  1467 52.7394 0.0361066 -1.97553
  1468 52.7415 0.0359053 1.97463
  1469 32.2398 1.31037 1.42187
  1470 32.2385 1.31014 -1.42252
  1471 39.4714 -0.273391 -0.579974
  1472 39.4708 -0.272730 0.580344
  1473 26.3754 3.58409 -2.04046
  1474 26.3732 3.58457 2.04090
  1475 41.2061 -0.0113500 -0.187899
  1476 41.2055 -0.0113036 0.187965
  1477 37.9384 1.71954 -0.751644
  1478 24.1251 3.27447 -4.29910
  1479 24.1231 3.27428 4.30145
  1480 37.7851 -1.73707 1.99592
  1481 37.7873 -1.74003 -1.99689
  1482 41.5681 -3.35763 0.156691
  1483 41.5704 -3.35792 -0.150175
  1484 28.7400 2.99655 4.44363
  1485 28.7405 2.99658 -4.44242
  1486 48.9817 -0.580939 4.27986
  1487 48.9784 -0.579628 -4.28223
  1488 40.4909 -0.158616 0.749766
  1489 40.4939 -0.158347 -0.748163
  1490 39.9454 1.77948 -2.58248
  1491 12.2103 -1.19019 -0.334286
  1492 12.1941 -1.18778 0.343560
  1493 31.6620 1.65243 2.97839
  1494 31.6617 1.65226 -2.97763
  1495 31.2391 1.77348 -0.701418
  1496 31.2404 1.77347 0.701096
  1497 53.0009 -0.819301 -2.81452
  1498 53.0029 -0.820195 2.81108
  1499 32.3421 0.0959662 0.759628
  1500 32.3408 0.0959447 -0.759367
  1501 40.2947 -0.321753 -2.95436
  1502 40.2904 -0.315143 2.95907
  1503 29.5457 1.95803 1.81245
  1504 29.5439 1.95750 -1.81324
  1505 36.3716 0.169828 1.23130
  1506 36.3716 0.169204 -1.23181
  1507 43.5089 -1.72730 6.04649
  1508 43.5033 -1.72529 -6.04781
  1509 48.7548 -2.29925 -3.82845
  1510 48.7619 -2.30090 3.82522
  1511 42.8635 -4.60825 0.851559
  1512 42.9020 -4.56650 -0.796722
  1513 37.6397 0.450323 2.14380
  1514 36.9154 -0.206415 1.37753
  1515 36.9158 -0.207507 -1.37804
  1516 48.3847 4.53238 -3.31357
  1517 34.7720 -1.06188 -3.26569
  1518 34.7733 -1.05970 3.26368
  1519 37.4584 -7.15889 8.15369
  1520 41.6340 4.74141 -0.629498
  1521 37.4899 -2.35928 -2.81619
  1522 37.4889 -2.35512 2.81497
  1523 46.1730 -5.01843 1.07295
  1524 24.5151 -0.557758 -7.59680
  1525 24.5204 -0.561609 7.59885
  1526 31.0599 1.65889 1.97520
  1527 31.0602 1.65862 -1.97461
  1528 40.1919 -0.0283189 -0.414825
  1529 40.1914 -0.0281309 0.414939
  1530 30.0593 2.32981 1.59904
  1531 30.0602 2.32952 -1.59862
  1532 53.5376 -4.92505 1.33546
  1533 53.5273 -4.89626 -1.34971
  1534 42.6546 0.0584303 -1.28980
  1535 42.6582 0.0584124 1.28987
  1536 45.2861 1.25725 3.58717
  1537 45.0284 0.255125 3.97115
  1538 37.7467 -6.84442 -6.24663
  1539 37.7350 -6.82657 6.27195
  1540 35.1338 0.187959 1.47069
  1541 35.1317 0.187942 -1.47033
  1542 33.0025 1.16919 3.13464
  1543 33.0016 1.16911 -3.13390
  1544 44.6805 0.294639 -3.93727
  1545 39.2161 2.63838 0.951877
  1546 56.9250 -3.46030 -0.437796
  1547 57.1393 -3.21894 0.691285
  1548 42.1598 0.606802 3.49143
  1549 36.9188 -0.0104553 -1.29393
  1550 36.9053 -0.0114859 1.27926
  1551 28.0321 2.67250 -1.09122
  1552 28.0341 2.67277 1.09047
  1553 41.2487 2.84007 2.58251
  1554 31.5111 1.35360 -2.13556
  1555 31.5112 1.35382 2.13620
  1556 39.0331 0.669605 -2.03309
  1557 33.7261 0.0256668 -0.524249
  1558 33.7281 0.0256671 0.524407
  1559 20.4492 -6.11686 9.89272
  1560 20.5546 -6.06023 -9.87017
  1561 37.3863 -5.90427 -6.82048
  1562 26.7050 -6.71322 -7.89865
  1563 26.7179 -6.70965 7.88810
  1564 40.5186 -0.215096 -0.211912
  1565 40.5183 -0.214683 0.212601
  1566 31.4459 1.60045 7.11781
  1567 31.4435 1.60218 -7.11665
  1568 46.0417 5.52686 -2.98598
  1569 13.3307 -1.96146 -3.71054
  1570 13.3283 -1.96618 3.72140
  1571 39.9165 1.74821 2.62752
  1572 38.5793 0.810186 5.98366
  1573 38.5764 0.811193 -5.98368
  1574 40.7811 -0.0974406 0.262295
  1575 40.7815 -0.0976548 -0.261933
  1576 34.9742 1.40945 5.00721
  1577 34.9725 1.40981 -5.00648
  1578 20.4226 -3.02664 -7.44647
  1579 20.4316 -3.03213 7.44883
  1580 57.9997 -1.45083 5.92805
  1581 57.9911 -1.47571 -5.91396
  1582 44.6182 0.843414 8.99728
  1583 30.4095 2.16540 0.0112823
  1584 30.4108 2.16525 -0.0113551
  1585 40.0470 1.52714 11.0650
  1586 44.3712 -3.90973 -5.04969
  1587 44.3818 -3.91242 5.05034
  1588 41.8086 -0.686348 -6.46259
  1589 41.8130 -0.688126 6.46137
  1590 39.2325 0.0594529 0.941633
  1591 39.2292 0.0594520 -0.941488
  1592 32.6890 1.30983 -0.885060
  1593 32.6901 1.30984 0.884633
  1594 20.8693 0.800766 -6.21680
  1595 20.8706 0.797469 6.22141
  1596 23.2569 -0.180377 6.50189
  1597 23.2547 -0.178775 -6.50753
  1598 21.8446 1.84156 -3.90716
  1599 21.8506 1.83984 3.90284
  1600 29.4575 2.67034 2.18387
  1601 29.4585 2.67004 -2.18334
  1602 38.7699 0.970938 -0.304350
  1603 30.4166 2.17532 0.944020
  1604 30.4176 2.17504 -0.943764
  1605 34.0043 0.835379 1.20064
  1606 34.0035 0.835147 -1.20125
  1607 33.9868 0.547894 2.25511
  1608 33.9853 0.547843 -2.25455
  1609 37.0235 -7.91073 -5.83968
  1610 37.1799 -7.87337 5.91851
  1611 40.7367 -2.83489 -0.338199
  1612 40.7319 -2.83275 0.341418
  1613 39.0709 -3.05258 -2.22405
  1614 39.0681 -3.05700 2.21979
  1615 40.8009 -1.77724 -0.874037
  1616 40.8023 -1.77822 0.876101
  1617 41.5799 0.527258 -8.61770
  1618 40.5525 -1.07921 -0.768462
  1619 40.5533 -1.08025 0.770452
  1620 42.4596 3.70200 -2.72180
  1621 38.3463 -0.0328159 2.21904
  1622 38.3457 -0.0333129 -2.21962
  1623 103.131 5.97417 -0.446395
  1624 39.7561 -0.622757 0.349206
  1625 39.7570 -0.623779 -0.348298
  1626 41.3000 -0.102647 0.337747
  1627 41.3016 -0.102446 -0.336795
  1628 41.6099 -0.0667039 0.0909861
  1629 41.6105 -0.0666082 -0.0904130
  1630 34.1232 0.564439 1.67914
  1631 34.1225 0.563866 -1.68002
  1632 34.6927 0.0411529 0.575649
  1633 34.6904 0.0411482 -0.575492
  1634 21.1963 3.07676 3.59329
  1635 21.2001 3.07670 -3.59008
  1636 23.8471 3.64485 2.40348
  1637 23.8505 3.64418 -2.40233
  1638 42.9166 -5.73880 3.02485
  1639 45.8480 0.146479 -3.92395
  1640 45.8511 0.146001 3.92327
  1641 37.2660 0.789292 1.78434
  1642 39.0953 -0.736407 -0.698730
  1643 39.0942 -0.735065 0.699289
  1644 36.4001 0.0342915 -0.674082
  1645 36.4028 0.0342900 0.674233
  1646 52.5953 -4.12460 0.0463300
  1647 52.5995 -4.11213 -0.0557693
  1648 45.6866 -5.08402 -0.900892
  1649 37.4432 0.291862 2.19087
  1650 37.4406 0.291881 -2.19050
  1651 59.8059 -0.387828 1.22605
  1652 59.7995 -0.385101 -1.22189
  1653 26.7680 -0.514736 -6.40030
  1654 26.7697 -0.515954 6.39354
  1655 31.5151 1.17785 1.84466
  1656 31.5150 1.17763 -1.84407
  1657 72.8359 4.61252 1.19573
  1658 33.2557 0.0229389 0.356145
  1659 33.2538 0.0229342 -0.356029
  1660 38.3889 -0.0138629 1.06065
  1661 38.3947 -0.0159226 -1.05932
  1662 31.6318 -3.59207 8.03905
  1663 31.6281 -3.59329 -8.04109
  1664 19.6256 -6.36465 -7.81485
  1665 74.4747 9.44569 -4.45857
  1666 27.9088 1.80267 -2.93971
  1667 27.9107 1.80393 2.93807
  1668 38.1455 0.312476 2.55589
  1669 38.1428 0.312532 -2.55553
  1670 32.6032 0.310931 1.39138
  1671 32.6020 0.310874 -1.39094
  1672 49.1020 0.358481 -2.52703
  1673 31.9967 2.17009 5.44866
  1674 31.9957 2.17055 -5.44760
  1675 33.5229 0.173675 -1.17538
  1676 33.5246 0.173702 1.17573
  1677 32.5494 0.0206857 -0.329787
  1678 32.5510 0.0206946 0.329901
  1679 29.5138 -0.103401 -4.95448
  1680 29.5144 -0.0995220 4.95259
  1681 56.1334 1.73748 -5.83461
  1682 55.0693 -0.0479906 -1.36790
  1683 55.0706 -0.0481191 1.36702
  1684 33.6397 0.321775 1.65395
  1685 33.6382 0.321733 -1.65349
  1686 34.7269 -3.49105 6.00205
  1687 34.7351 -3.54474 -6.03157
  1688 37.0162 0.709380 3.68569
  1689 37.0140 0.709511 -3.68517
  1690 31.5093 1.27356 1.97179
  1691 31.5077 1.27304 -1.97261
  1692 6.90432 -18.5639 1.75634
  1693 6.89867 -18.5492 -1.78253
  1694 44.7944 7.12639 1.06738
  1695 62.0413 -0.164736 -0.196734
  1696 62.0334 -0.164469 0.195458
  1697 50.5950 0.0339823 1.72936
  1698 50.5921 0.0340955 -1.72982
  1699 32.7112 0.127808 0.914516
  1700 32.7097 0.127783 -0.914215
  1701 48.9955 -0.0162394 -3.57081
  1702 48.9982 -0.0167683 3.56955
  1703 39.6397 -5.28089 -4.61643
  1704 32.2860 0.666265 -1.85544
  1705 32.2868 0.666382 1.85601
  1706 38.1604 -1.06217 1.31736
  1707 38.1620 -1.06416 -1.31747
  1708 83.4723 6.93187 0.324614
  1709 32.7437 1.40719 3.40131
  1710 32.7429 1.40711 -3.40053
  1711 36.1050 0.974221 0.00222292
  1712 29.3465 -3.27711 -8.16435
  1713 29.3738 -3.29433 8.15215
  1714 31.8807 0.796500 1.75395
  1715 31.8802 0.796345 -1.75338
  1716 40.7851 -0.391994 0.613063
  1717 40.7858 -0.391477 -0.611408
  1718 44.9896 0.746357 -3.58832
  1719 35.4590 1.42485 -5.59642
  1720 35.4610 1.42420 5.59704
  1721 23.3905 3.36955 -0.520728
  1722 23.3948 3.36850 0.519728
  1723 29.9222 2.74722 4.65829
  1724 29.9223 2.74732 -4.65713
  1725 28.8847 1.04130 7.46898
  1726 28.8814 1.04374 -7.46745
  1727 39.8278 -2.81745 -1.25115
  1728 39.8227 -2.81354 1.25104
  1729 41.4803 -2.23510 1.30524
  1730 41.4793 -2.23461 -1.30309
  1731 42.9676 -2.52888 -2.00564
  1732 42.9716 -2.52952 2.00422
  1733 38.5371 0.766908 4.41551
  1734 38.5346 0.767245 -4.41517
  1735 43.0678 -5.61071 -2.66165
  1736 34.2172 1.17639 3.70357
  1737 34.2158 1.17641 -3.70282
  1738 26.3920 1.35264 -4.20630
  1739 26.3938 1.35408 4.20283
  1740 39.7851 -2.65330 -6.74393
  1741 39.7910 -2.65460 6.74418
  1742 30.9964 1.89457 0.666166
  1743 30.9973 1.89428 -0.665965
  1744 40.8751 0.259901 2.57480
  1745 40.8720 0.259998 -2.57461
  1746 80.7077 6.00302 -14.4481
  1747 32.1682 0.841623 -2.02424
  1748 32.1689 0.841764 2.02485
  1749 41.5126 0.319988 3.25490
  1750 41.5096 0.320168 -3.25480
  1751 48.2888 0.0659563 1.79043
  1752 48.2854 0.0660375 -1.79070
  1753 29.7518 1.36645 -2.86976
  1754 29.7537 1.36763 2.86865
  1755 31.0777 0.256381 -3.91792
  1756 31.0799 0.258449 3.91661
  1757 39.0544 -0.237472 2.04854
  1758 39.0561 -0.240140 -2.04711
  1759 34.7406 -2.00378 4.46891
  1760 34.7421 -2.00807 -4.47179
  1761 30.1457 -5.67687 9.70341
  1762 29.8487 -5.54408 -9.65054
  1763 40.6940 2.96263 -2.21338
  1764 34.3040 0.109811 -1.06990
  1765 34.3060 0.109825 1.07019
  1766 33.7565 0.236175 0.377890
  1767 30.2391 1.84059 1.66285
  1768 30.2374 1.84018 -1.66353
  1769 46.2057 -6.83706 -3.14105
  1770 46.2853 -6.86689 3.13374
  1771 52.5127 -0.272058 -2.95833
  1772 52.5144 -0.272687 2.95628
  1773 38.0673 -0.202807 0.990263
  1774 38.0679 -0.203662 -0.990356
  1775 34.5136 0.132487 -0.826644
  1776 36.1602 -2.62325 4.06185
  1777 36.1522 -2.63192 -4.06858
  1778 55.6132 4.05301 0.688819
  1779 40.2937 -1.97381 -0.0294918
  1780 40.2913 -1.97214 0.0314160
  1781 33.9298 0.926539 -3.12724
  1782 33.9312 0.926574 3.12793
  1783 31.8819 0.741941 2.75214
  1784 31.8802 0.740934 -2.75328
  1785 30.3871 2.17978 2.27732
  1786 30.3876 2.17950 -2.27671
  1787 28.3616 2.99212 0.931198
  1788 28.3632 2.99189 -0.931127
  1789 31.0806 1.62609 1.48806
  1790 31.0810 1.62580 -1.48758
  1791 52.6424 9.51085 1.52437
  1792 55.4013 -1.21814 5.58884
  1793 55.3817 -1.22307 -5.60167
  1794 49.5511 -2.90949 0.609001
  1795 31.0214 1.84425 2.53820
  1796 31.0215 1.84401 -2.53751
  1797 44.0365 6.60586 -0.978172
  1798 82.1274 5.14649 11.1782
  1799 34.8253 1.45212 6.28357
  1800 34.8231 1.45316 -6.28294
  1801 40.2552 0.454252 2.49757
  1802 28.9432 -7.49687 10.7054
  1803 29.2888 2.62580 0.552371
  1804 29.2902 2.62562 -0.552337
  1805 39.7061 2.96910 -1.07791
  1806 33.6199 0.189680 2.54702
  1807 33.6187 0.188590 -2.54833
  1808 39.9703 -0.982887 -0.0978567
  1809 39.9691 -0.981606 0.0992171
  1810 45.4185 -0.0813068 5.05794
  1811 45.4152 -0.0802073 -5.05933
  1812 29.6644 -7.50507 -10.5119
  1813 43.3714 5.75446 1.57697
  1814 35.9910 0.227386 1.69752
  1815 35.9886 0.227380 -1.69715
  1816 31.4454 1.99369 3.57740
  1817 31.4451 1.99357 -3.57655
  1818 36.9120 0.405952 0.893201
  1819 31.5993 2.08593 4.11738
  1820 31.5989 2.08591 -4.11645
  1821 33.9889 -4.53314 7.45394
  1822 33.8528 -4.65296 -7.62860
  1823 29.6979 2.73842 3.78013
  1824 29.6983 2.73828 -3.77920
  1825 51.4065 8.71968 -2.12790
  1826 59.1553 3.38014 4.52786
  1827 42.2530 0.434697 4.73178
  1828 42.2500 0.435292 -4.73212
  1829 55.1551 -2.32002 1.04338
  1830 55.1513 -2.31092 -1.04552
  1831 40.3281 -0.0916511 -0.385997
  1832 40.3276 -0.0913860 0.386262
  1833 29.0145 -1.02278 -8.17510
  1834 29.0197 -1.02534 8.17539
  1835 43.1060 -5.53841 7.57663
  1836 37.7765 -7.10366 9.46599
  1837 56.1171 -0.835551 -1.46059
  1838 56.1165 -0.835420 1.45700
  1839 46.6615 -2.60260 -1.72938
  1840 49.6627 0.245484 2.21668
  1841 45.7211 -5.85540 -4.17535
  1842 46.0278 -5.54105 4.16109
  1843 55.9191 -1.59103 4.78611
  1844 55.8906 -1.59241 -4.78412
  1845 41.1504 -6.86391 6.07965
  1846 8.23132 -6.55508 1.61094
  1847 8.18620 -6.53556 -1.59097
  1848 39.9205 -0.429741 -1.68819
  1849 39.9191 -0.429509 1.69047
  1850 46.3617 0.0170177 1.34346
  1851 46.3581 0.0170715 -1.34354
  1852 32.6918 0.729397 2.18656
  1853 32.6908 0.729295 -2.18594
  1854 67.1884 8.22180 12.4734
  1855 14.2932 -2.01421 5.34497
  1856 14.2736 -2.01964 -5.35341
  1857 30.8678 1.86533 -0.939806
  1858 30.8693 1.86542 0.939395
  1859 33.8030 0.790487 1.50487
  1860 33.8022 0.790099 -1.50563
  1861 35.8964 0.449509 -2.54825
  1862 35.8985 0.449504 2.54875
  1863 54.6422 -4.71615 -0.322375
  1864 54.5295 -4.73525 0.269971
  1865 14.4450 -9.76090 -5.27468
  1866 14.4548 -9.75584 5.27068
  1867 30.1573 2.31321 -0.597478
  1868 30.1561 2.31345 0.597598
  1869 39.7837 0.172453 2.17610
  1870 39.7807 0.172516 -2.17585
  1871 31.6017 1.49162 2.63110
  1872 31.6014 1.49143 -2.63039
  1873 27.9245 2.46241 6.19131
  1874 27.9237 2.46368 -6.18933
  1875 23.1303 -8.56984 6.93709
  1876 23.0993 -8.58066 -6.94249
  1877 28.9084 2.77615 5.49408
  1878 28.9083 2.77672 -5.49255
  1879 40.2444 -0.666533 -2.52148
  1880 40.2441 -0.663068 2.52457
  1881 40.9301 -1.31740 -2.09748
  1882 40.9319 -1.31776 2.09987
  1883 42.6727 1.94776 3.45403
  1884 46.6949 -2.55113 1.66540
  1885 39.9217 -0.352350 -0.363810
  1886 39.9211 -0.351651 0.364474
  1887 24.8866 3.49553 0.446188
  1888 24.8898 3.49492 -0.446560
  1889 14.1712 -9.70361 -1.97293
  1890 14.1806 -9.69201 1.97274
  1891 36.4535 0.769849 -1.19410
  1892 41.3317 0.462175 5.44355
  1893 41.3286 0.463006 -5.44396
  1894 38.4223 -0.0447322 -0.827780
  1895 38.4219 -0.0442095 0.827721
  1896 37.7820 -0.584942 1.24584
  1897 37.7829 -0.586391 -1.24605
  1898 34.8170 0.468137 -2.30558
  1899 34.8188 0.468165 2.30611
  1900 39.2349 -0.0951208 0.985444
  1901 39.2398 -0.0953538 -0.983865
  1902 31.9295 1.25900 2.53384
  1903 31.9291 1.25883 -2.53314
  1904 54.5449 -0.248036 -2.56363
  1905 54.5565 -0.246303 2.58860
  1906 37.2922 0.614114 6.80562
  1907 37.2889 0.615702 -6.80571
  1908 52.6467 0.0455876 6.13051
  1909 47.6676 2.22348 -3.28052
  1910 33.1414 0.0855599 -0.795248
  1911 33.1431 0.0855714 0.795495
  1912 33.1509 0.223356 -0.195370
  1913 26.2433 3.12835 -0.479233
  1914 26.2459 3.12823 0.478439
  1915 54.1493 6.64295 -13.1675
  1916 28.9009 2.92616 2.54768
  1917 28.9020 2.92586 -2.54708
  1918 10.2519 -5.43109 4.85182
  1919 10.2127 -5.43814 -4.87931
  1920 99.9870 4.65004 -9.48026
  1921 43.3535 -6.83107 -5.08204
  1922 33.6807 0.0770814 -0.827417
  1923 33.6826 0.0770936 0.827661
  1924 68.3149 1.97932 -1.45207
  1925 41.5093 -0.0132901 -0.138399
  1926 41.5087 -0.0132565 0.138493
  1927 22.2827 -5.00223 4.78106
  1928 23.7087 -4.65771 -5.33610
  1929 23.6829 -2.34011 -8.40887
  1930 23.6715 -2.33210 8.40199
  1931 37.5226 0.0141440 1.01782
  1932 37.5228 0.0135459 -1.01809
  1933 40.8921 0.0613790 -0.968224
  1934 40.8956 0.0613686 0.968335
  1935 42.9096 1.58189 -3.52353
  1936 32.2484 1.04089 1.97540
  1937 32.2470 1.04036 -1.97629
  1938 40.4096 -0.803182 -0.337743
  1939 40.4102 -0.804118 0.339392
  1940 35.4518 0.228778 1.52512
  1941 35.4516 0.228036 -1.52589
  1942 32.0264 0.618298 1.62388
  1943 32.0257 0.618176 -1.62334
  1944 31.3035 1.53761 2.20886
  1945 31.3035 1.53737 -2.20822
  1946 60.5849 -0.306919 -0.642094
  1947 60.5926 -0.308643 0.643264
  1948 47.7996 7.39829 2.29439
  1949 33.8815 0.0688949 0.621148
  1950 45.6179 0.125388 3.40780
  1951 45.6148 0.125682 -3.40826
  1952 27.2543 -4.19829 8.25953
  1953 27.2468 -4.19677 -8.26328
  1954 39.3863 -2.31832 1.20496
  1955 39.3901 -2.32100 -1.20431
  1956 40.3995 -0.473169 -0.00530275
  1957 40.4000 -0.473880 0.00646334
  1958 27.7204 -3.80575 8.92591
  1959 27.6534 -3.81240 -8.91480
  1960 36.2234 0.457509 7.22907
  1961 36.2196 0.459361 -7.22917
  1962 47.0008 -4.35775 3.62795
  1963 46.9851 -4.35614 -3.63007
  1964 34.6347 0.644980 1.23997
  1965 34.6342 0.644654 -1.24059
  1966 80.6806 8.33030 3.19880
  1967 32.9863 0.409953 -1.70150
  1968 32.9876 0.410016 1.70200
  1969 44.5479 -3.84921 0.758209
  1970 44.4970 -3.89259 -0.693697
  1971 28.8263 -1.77586 7.10201
  1972 28.8307 -1.77510 -7.11702
  1973 67.9561 2.94088 -3.09839
  1974 41.6664 -0.0197883 0.0861151
  1975 41.6667 -0.0198533 -0.0858778
  1976 50.6800 -1.72788 -4.17010
  1977 32.7506 1.05282 2.72934
  1978 32.7497 1.05270 -2.72863
  1979 45.0243 4.29003 3.24405
  1980 33.0913 0.678605 2.08408
  1981 33.0901 0.677925 -2.08511
  1982 59.6080 4.11003 -3.34331
  1983 44.8449 0.0947692 2.88846
  1984 51.6922 -2.96547 1.58515
  1985 51.6855 -2.96825 -1.59116
  1986 32.1408 1.72256 -11.5112
  1987 45.5474 6.75673 -2.13897
  1988 40.4079 3.41961 1.24465
  1989 37.5025 1.43533 0.996367
  1990 5.28076 -21.1483 1.86564
  1991 5.30739 -21.1423 -1.91037
  1992 42.6723 5.29692 -1.41950
  1993 25.5043 3.64742 2.92285
  1994 25.5066 3.64696 -2.92182
  1995 44.6089 0.0372134 -2.82732
  1996 40.6375 -4.48777 -2.69620
  1997 40.7268 -4.47311 2.52739
  1998 45.8560 -5.72860 3.67842
  1999 45.8298 -5.72624 -3.67861
  2000 32.2826 -6.32005 5.44713
  2001 33.6335 -6.87505 -5.61951
  2002 25.7354 2.78747 -1.86188
  2003 25.7382 2.78758 1.86013
  2004 14.0880 -8.46371 8.34994
  2005 14.2554 -8.31624 -8.66383
  2006 29.5661 2.58425 1.66393
  2007 29.5671 2.58396 -1.66354
  2008 37.5240 0.0245700 0.660018
  2009 37.5210 0.0245760 -0.659886
  2010 53.3199 0.895088 -0.736065
  2011 35.3459 0.650386 -2.98332
  2012 35.3477 0.650371 2.98391
  2013 30.6804 1.93914 1.61110
  2014 30.6810 1.93884 -1.61062
  2015 57.1039 -0.559776 -6.43249
  2016 52.2970 4.93898 2.27999
  2017 36.3947 -3.81989 -5.21631
  2018 36.4027 -3.72811 5.16656
  2019 60.1690 0.620217 -5.83007
  2020 40.3912 0.208945 -2.54045
  2021 57.4742 -3.04978 -3.99340
  2022 57.4715 -3.04641 4.01028
  2023 30.8553 2.00041 0.131640
  2024 30.8565 2.00021 -0.131646
  2025 31.9319 0.928721 1.96591
  2026 31.9314 0.928556 -1.96531
  2027 66.6147 2.34358 3.75985
  2028 39.1689 0.763259 5.00008
  2029 39.1662 0.763806 -4.99993
  2030 51.8760 0.310280 -5.96775
  2031 32.2856 0.214159 1.11235
  2032 32.2845 0.214116 -1.11197
  2033 36.6326 -0.721950 1.88450
  2034 36.6333 -0.723747 -1.88547
  2035 29.4112 -1.34578 10.2026
  2036 60.0167 -0.156490 -0.884754
  2037 60.0135 -0.156594 0.883119
  2038 34.9644 -0.275064 2.35239
  2039 34.9639 -0.276465 -2.35380
  2040 32.1846 0.0461988 0.532014
  2041 32.1832 0.0461874 -0.531824
  2042 40.5122 -0.318251 -0.959939
  2043 40.5104 -0.318721 0.961886
  2044 13.7400 -10.3715 5.31511
  2045 60.6598 4.97384 -0.737809
  2046 51.7394 -2.20087 -2.46637
  2047 51.7444 -2.20089 2.46172
  2048 36.5506 -0.907988 -7.57879
  2049 36.5553 -0.909877 7.57841
  2050 41.1618 -0.0935705 0.372573
  2051 41.1642 -0.0934095 -0.371614
  2052 36.0239 0.495227 1.26255
  2053 109.996 3.60681 2.22601
  2054 66.6289 5.43752 -2.59208
  2055 39.4029 -0.150383 -2.68053
  2056 39.4113 -0.149243 2.68230
  2057 50.0894 1.34527 4.69713
  2058 36.3978 -1.83666 3.07985
  2059 36.3985 -1.83980 -3.08210
  2060 30.9896 1.79116 1.08629
  2061 30.9903 1.79085 -1.08594
  2062 60.2996 0.592938 5.85407
  2063 30.6155 2.15889 2.83246
  2064 30.6157 2.15866 -2.83174
  2065 41.7198 -1.41780 -2.60064
  2066 41.7231 -1.41759 2.60301
  2067 34.4677 -6.29789 -8.96135
  2068 12.6114 -11.5919 -4.99570
  2069 38.8579 -1.86951 -1.35092
  2070 38.8549 -1.86678 1.35120
  2071 39.4879 -1.27875 -0.520354
  2072 39.4862 -1.27702 0.521425
  2073 39.6718 -0.0381095 -0.540046
  2074 39.6714 -0.0378356 0.540124
  2075 55.4114 4.42607 -0.341835
  2076 32.4956 1.26580 -1.25386
  2077 32.4968 1.26596 1.25327
  2078 28.6810 2.60832 0.545331
  2079 28.6792 2.60823 -0.545755
  2080 37.1749 -3.42105 4.19622
  2081 37.2420 -3.43511 -4.18459
  2082 30.2276 -1.50342 6.26153
  2083 30.2353 -1.51447 -6.26516
  2084 57.1985 -0.566978 6.36970
  2085 27.7869 3.06765 0.395263
  2086 27.7888 3.06749 -0.395450
  2087 26.1380 -8.68492 -6.81996
  2088 26.2168 -8.65590 6.78941
  2089 38.3009 -5.14259 -6.81623
  2090 38.3040 -5.13945 6.82210
  2091 27.2553 3.33130 -1.45041
  2092 27.2534 3.33165 1.45058
  2093 9.80042 -7.76109 -2.96986
  2094 9.80932 -7.77977 2.97892
  2095 47.5640 2.18905 1.87658
  2096 49.4070 -0.0344631 -3.40377
  2097 38.7831 0.0284965 0.643966
  2098 38.7798 0.0284981 -0.643857
  2099 39.9049 -0.157942 -0.472072
  2100 39.9044 -0.157495 0.472408
  2101 38.2334 -0.541551 1.04383
  2102 38.2344 -0.542852 -1.04379
  2103 39.9459 -0.256087 6.79459
  2104 39.9418 -0.254293 -6.79542
  2105 78.9754 5.68612 0.445326
  2106 13.6695 0.205682 -1.12807
  2107 13.6861 0.202120 1.13128
  2108 40.9656 -0.160756 -0.0960849
  2109 40.9654 -0.160481 0.0967748
  2110 35.0272 0.584845 -0.350064
  2111 35.1498 0.0193184 -0.456347
  2112 35.1523 0.0193243 0.456469
  2113 31.6437 1.68411 -0.0533820
  2114 31.6448 1.68389 0.0533244
  2115 45.7990 1.59830 -2.73162
  2116 20.4519 3.13785 2.16139
  2117 20.4573 3.13690 -2.15885
  2118 55.6726 -2.70079 3.02426
  2119 55.6580 -2.68329 -3.02012
  2120 41.5118 3.89024 1.97318
  2121 37.4754 -1.01880 1.65669
  2122 37.4767 -1.02089 -1.65729
  2123 41.1167 -0.190035 0.174517
  2124 41.1171 -0.189736 -0.173539
  2125 41.6864 -0.0502202 0.168940
  2126 41.6877 -0.0501606 -0.168358
  2127 33.8505 1.37502 6.86553
  2128 33.8478 1.37657 -6.86489
  2129 4.47903 -18.8125 -1.88540
  2130 4.51089 -18.4963 1.91666
  2131 21.3889 3.47210 -1.07211
  2132 21.3833 3.47358 1.07300
  2133 39.3013 -0.151868 -0.636325
  2134 39.3008 -0.151336 0.636522
  2135 32.5228 1.98803 4.75028
  2136 32.5219 1.98822 -4.74933
  2137 42.7501 2.89454 3.20073
  2138 55.1830 1.10295 6.19625
  2139 31.5184 0.999744 7.42590
  2140 31.5152 1.00193 -7.42496
  2141 32.7060 0.213743 1.18165
  2142 32.7047 0.213703 -1.18127
  2143 44.8604 0.118346 2.68873
  2144 44.8572 0.118518 -2.68891
  2145 33.0191 1.86145 5.10747
  2146 33.0179 1.86179 -5.10654
  2147 48.5193 0.0569798 -2.85494
  2148 48.5222 0.0567011 2.85424
  2149 41.4713 -6.65758 -5.38467
  2150 65.8673 5.81844 1.76315
  2151 35.9367 -5.63856 7.49295
  2152 37.0686 0.715662 -1.76617
  2153 36.1983 1.06995 -4.56131
  2154 36.2003 1.06967 4.56189
  2155 22.9242 2.36437 -3.02521
  2156 22.9290 2.36331 3.02190
  2157 34.5016 1.33390 4.46419
  2158 34.5001 1.33408 -4.46343
  2159 48.7201 4.03068 3.17208
  2160 60.4187 2.52099 -5.35728
  2161 18.3734 1.98252 3.49508
  2162 18.3779 1.98299 -3.48979
  2163 26.0790 -6.32607 10.5625
  2164 27.4702 -6.34020 -10.4595
  2165 41.3538 -3.59515 -8.91384
  2166 34.6055 0.697618 2.82205
  2167 34.6038 0.697592 -2.82143
  2168 45.2169 0.0640828 -1.16885
  2169 45.2207 0.0640459 1.16884
  2170 33.3608 0.130312 -0.493072
  2171 39.5546 -0.356913 -1.94756
  2172 39.5528 -0.355469 1.94947
  2173 26.5772 3.49896 2.89575
  2174 26.5791 3.49859 -2.89491
  2175 40.2747 -1.53810 -0.215897
  2176 40.2763 -1.53949 0.217709
  2177 42.8937 0.167872 -2.51110
  2178 42.8970 0.167761 2.51112
  2179 31.4721 1.85648 -3.18175
  2180 31.4723 1.85666 3.18254
  2181 21.3902 -0.619514 6.83607
  2182 21.3874 -0.621335 -6.84311
  2183 63.4806 -0.0562999 -2.98069
  2184 27.9787 3.17592 -1.73893
  2185 27.9772 3.17624 1.73924
  2186 38.6605 2.37559 -0.00940785
  2187 84.0259 7.21109 -0.421293
  2188 60.3273 11.4134 0.404065
  2189 37.5645 -0.229493 1.15178
  2190 37.5650 -0.230478 -1.15204
  2191 46.4624 -5.02657 -1.60873
  2192 70.7163 5.85002 1.97040
  2193 63.4401 -0.0668949 3.12193
  2194 51.0652 6.18393 -2.83107
  2195 40.6049 -0.00341017 -0.323419
  2196 40.6043 -0.00331474 0.323490
  2197 42.8932 -3.26395 -1.05309
  2198 42.8911 -3.26489 1.05854
  2199 33.4755 1.63360 4.47972
  2200 33.4744 1.63374 -4.47887
  2201 42.2093 -3.18686 -0.580606
  2202 42.2108 -3.18653 0.584427
  2203 35.2291 -7.45216 -9.78932
  2204 33.4316 0.448605 1.87954
  2205 33.4302 0.448544 -1.87902
  2206 42.9599 -1.29579 -2.96072
  2207 42.9579 -1.29017 2.97590
  2208 49.8496 -0.00866549 3.08495
  2209 31.6426 1.55834 1.15451
  2210 31.6413 1.55821 -1.15502
  2211 32.8828 1.86322 6.24088
  2212 32.8811 1.86417 -6.23991
  2213 44.5977 -0.389130 -5.61896
  2214 44.6016 -0.390624 5.61736
  2215 35.6033 -3.74648 7.74070
  2216 35.6007 -3.74782 -7.73985
  2217 29.2667 2.57432 0.0272944
  2218 29.2651 2.57441 -0.0274607
  2219 32.6979 0.0580594 0.697803
  2220 32.6963 0.0580505 -0.697572
  2221 43.5049 -0.648626 -3.28008
  2222 43.3996 -0.667231 3.29441
  2223 52.5234 0.0451225 -1.17135
  2224 52.5261 0.0450436 1.17096
  2225 39.1032 -0.375678 -0.691389
  2226 39.1024 -0.374795 0.691743
  2227 65.1664 11.4647 0.675713
  2228 46.7933 0.127821 2.58281
  2229 46.7901 0.127997 -2.58317
  2230 30.3289 2.12224 6.60394
  2231 30.3272 2.12362 -6.60249
  2232 54.8883 -0.388790 -2.31748
  2233 54.8889 -0.389414 2.31480
  2234 45.9635 -1.66929 -5.16521
  2235 45.9693 -1.67122 5.16323
  2236 33.4311 -6.41836 -7.19193
  2237 33.4162 -6.41130 7.18794
  2238 19.5611 -3.77383 9.00005
  2239 19.5498 -3.75899 -9.00390
  2240 40.8163 -1.42539 -1.37975
  2241 40.8175 -1.42629 1.38180
  2242 52.3991 -0.370297 5.21517
  2243 33.5999 0.203638 -0.970685
  2244 33.2057 0.210117 1.22940
  2245 33.2042 0.210082 -1.22903
  2246 72.2376 2.95389 2.21900
  2247 41.9621 0.00987963 0.968223
  2248 41.9585 0.00990170 -0.968148
  2249 40.5180 -0.805413 -1.47695
  2250 40.5181 -0.806111 1.47928
  2251 39.0166 -0.961697 0.757884
  2252 39.0180 -0.963326 -0.757289
  2253 49.2002 -0.0679111 -3.84302
  2254 49.2028 -0.0686461 3.84142
  2255 31.9384 -1.97177 8.16559
  2256 31.9334 -1.97034 -8.16621
  2257 18.0752 0.0273371 5.41469
  2258 18.0743 0.0310542 -5.40844
  2259 100.105 4.63279 7.14430
  2260 45.4800 2.02856 -0.399575
  2261 31.7464 1.12693 -2.07662
  2262 31.7467 1.12712 2.07725
  2263 72.3473 6.62977 -0.964085
  2264 30.9063 1.94575 -0.345507
  2265 30.9076 1.94564 0.345318
  2266 40.0326 -4.81910 3.72817
  2267 57.5978 -1.10733 1.99922
  2268 57.5900 -1.10050 -1.99363
  2269 52.4521 -0.358476 -5.35927
  2270 41.6480 0.344027 -5.67790
  2271 41.6512 0.343024 5.67730
  2272 44.4986 -2.54127 -2.14420
  2273 44.4641 -2.62380 2.07625
  2274 33.5295 0.718223 2.49885
  2275 33.5283 0.718150 -2.49822
  2276 50.2908 -0.710163 -3.88718
  2277 50.2939 -0.711359 3.88447
  2278 54.9089 2.47966 3.24062
  2279 59.6397 8.36869 0.509337
  2280 27.0040 2.33952 2.37425
  2281 27.0018 2.33878 -2.37592
  2282 50.7996 -0.330404 -0.778908
  2283 35.5773 0.0170935 -0.838151
  2284 36.6236 -7.35879 -8.97270
  2285 55.0596 8.45153 1.37156
  2286 39.0720 0.200897 2.03973
  2287 39.0691 0.200931 -2.03945
  2288 58.3253 -0.395788 -1.78830
  2289 58.3243 -0.401033 1.79888
  2290 40.7356 -0.666147 2.87320
  2291 40.7332 -0.671791 -2.86934
  2292 37.2990 0.00245366 -0.803008
  2293 37.2899 0.00531724 0.798611
  2294 36.2403 0.597134 3.14167
  2295 36.2382 0.597186 -3.14112
  2296 20.1184 2.65018 -1.68970
  2297 20.1263 2.64757 1.68833
  2298 40.6209 -1.29131 -0.934301
  2299 40.6219 -1.29233 0.936331
  2300 28.3527 3.15779 3.84520
  2301 28.3536 3.15765 -3.84416
  2302 16.7067 1.80431 1.69354
  2303 16.7149 1.80345 -1.68856
  2304 32.9652 0.0235078 0.284466
  2305 32.9633 0.0235031 -0.284372
  2306 41.8798 -6.41770 4.68931
  2307 40.7944 0.304886 6.27841
  2308 40.7910 0.306206 -6.27910
  2309 44.9366 1.39127 3.30875
  2310 29.2436 2.72930 1.77476
  2311 29.2447 2.72900 -1.77436
  2312 37.1419 0.0970510 1.33863
  2313 37.1392 0.0970548 -1.33836
  2314 35.0504 -0.0712781 2.04856
  2315 35.0501 -0.0724317 -2.04973
  2316 41.1265 -2.19442 0.873334
  2317 41.1249 -2.19365 -0.871053
  2318 34.2721 0.360700 1.92103
  2319 34.2703 0.360661 -1.92055
  2320 38.9513 1.60411 -2.13288
  2321 38.4694 0.567039 -2.47715
  2322 49.2264 1.80794 -4.09187
  2323 36.7088 0.157170 1.13154
  2324 36.7088 0.156600 -1.13197
  2325 55.9093 3.42414 3.52040
  2326 28.7201 3.05080 3.42350
  2327 28.7210 3.05058 -3.42263
  2328 47.2509 5.48771 3.15648
  2329 37.1132 -0.442435 1.46509
  2330 37.1139 -0.443824 -1.46562
  2331 36.5531 -0.0145028 1.33853
  2332 36.5533 -0.0153696 -1.33908
  2333 30.5630 2.47068 -3.97700
  2334 30.5629 2.47077 3.97794
  2335 33.1216 1.87190 5.80767
  2336 33.1201 1.87256 -5.80673
  2337 24.4761 0.500577 -7.15619
  2338 24.4794 0.497285 7.15904
  2339 61.8496 2.84936 5.00086
  2340 67.6236 8.13899 -13.8898
  2341 53.9988 -1.20158 5.10386
  2342 45.8451 0.554103 -4.23574
  2343 30.5835 0.816965 -3.34435
  2344 30.5855 0.818511 3.34319
  2345 41.8547 -0.0417565 -0.0240092
  2346 41.8546 -0.0417018 0.0242834
  2347 37.6669 0.425326 -1.96467
  2348 35.9024 0.0318304 0.445312
  2349 35.8998 0.0318275 -0.445205
  2350 32.7624 0.292179 2.87365
  2351 32.7608 0.290993 -2.87496
  2352 42.1958 0.363800 -4.27087
  2353 42.1988 0.363377 4.27071
  2354 42.7375 0.314229 -3.50305
  2355 40.3307 -0.710500 -1.77977
  2356 40.3306 -0.710744 1.78226
  2357 32.1980 0.400229 -1.39670
  2358 32.1989 0.400312 1.39717
  2359 94.2381 5.43224 13.3335
  2360 30.7053 1.96874 1.21761
  2361 30.7061 1.96843 -1.21724
  2362 40.0513 -0.623979 -0.157865
  2363 40.0506 -0.623044 0.158984
  2364 24.7609 2.12527 3.42548
  2365 24.7578 2.12515 -3.42883
  2366 34.9543 1.02435 3.76793
  2367 34.9526 1.02442 -3.76724
  2368 67.5720 5.10466 14.7660
  2369 9.70472 -9.27848 6.17829
  2370 9.73032 -9.34744 -6.14825
  2371 38.7441 0.558715 3.57554
  2372 38.7415 0.558879 -3.57518
  2373 31.2446 1.46397 -1.59199
  2374 31.2443 1.46425 1.59251
  2375 39.7352 -1.99602 -0.618909
  2376 39.7325 -1.99382 0.620248
  2377 26.9180 3.28329 0.573246
  2378 26.9202 3.28302 -0.573463
  2379 37.8471 0.505835 -3.14762
  2380 37.8495 0.505744 3.14804
  2381 60.1696 5.42657 -14.2987
  2382 45.7427 -4.22570 -0.235434
  2383 45.7972 -3.88995 0.579766
  2384 40.2107 0.273008 2.48909
  2385 55.1716 -0.713905 -1.99978
  2386 55.1720 -0.714350 1.99627
  2387 43.4092 -3.91597 0.291204
  2388 43.3998 -3.90521 -0.299426
  2389 36.2868 -1.15013 -2.45906
  2390 36.2862 -1.14779 2.45748
  2391 45.5885 -2.63298 7.89764
  2392 45.9707 -1.54681 -2.63946
  2393 30.8509 1.84856 2.03280
  2394 30.8513 1.84829 -2.03222
  2395 50.4032 -1.58399 -3.53678
  2396 50.4078 -1.58532 3.53318
  2397 38.5207 0.895570 -5.65756
  2398 38.5235 0.894755 5.65766
  2399 33.5490 0.927111 2.88077
  2400 33.5478 0.927042 -2.88008
  2401 52.3390 -0.0129113 -2.41709
  2402 45.0329 3.98149 -3.36096
  2403 40.1425 0.460281 -3.06526
  2404 6.16855 -19.6595 -2.45609
  2405 6.40379 -18.9370 2.74379
  2406 40.8275 1.48042 -3.03807
  2407 61.1259 -0.121746 -0.621888
  2408 61.1210 -0.121778 0.620324
  2409 34.4272 -0.277263 -2.69029
  2410 34.4281 -0.275822 2.68872
  2411 49.4428 -0.342110 4.00801
  2412 49.4400 -0.341119 -4.01005
  2413 33.4164 1.06771 1.02182
  2414 33.4156 1.06763 -1.02232
  2415 33.0474 0.656969 -2.16809
  2416 33.0485 0.657058 2.16868
  2417 31.4106 1.26679 1.74276
  2418 31.4106 1.26655 -1.74219
  2419 56.2947 3.88434 -2.26178
  2420 35.3969 0.626029 0.438345
  2421 48.0863 9.20537 -0.260857
  2422 30.7056 2.03918 2.56355
  2423 30.7058 2.03893 -2.56288
  2424 86.5543 6.06222 -2.78421
  2425 62.3228 -0.187216 0.0178944
  2426 62.3137 -0.186683 -0.0186817
  2427 46.9768 1.74094 3.47136
  2428 57.8858 -0.124584 -1.21628
  2429 57.8851 -0.124734 1.21505
  2430 44.7862 0.191935 -4.75410
  2431 44.7893 0.191161 4.75321
  2432 17.6095 -0.635749 -6.02946
  2433 17.6201 -0.637681 6.02068
  2434 34.7448 0.174662 -1.36321
  2435 34.7468 0.174678 1.36355
  2436 48.3192 0.252350 -4.88383
  2437 28.0217 3.25972 2.78268
  2438 28.0231 3.25939 -2.78200
  2439 57.0317 -0.927891 -3.06621
  2440 57.0288 -0.928879 3.08496
  2441 59.6197 11.9070 -0.167203
  2442 40.0844 0.0561098 -0.762048
  2443 40.0878 0.0561080 0.762151
  2444 77.3486 7.26111 0.188794
  2445 31.7405 0.889756 1.73403
  2446 31.7402 0.889583 -1.73346
  2447 40.3124 -0.0661157 -0.565161
  2448 40.3079 -0.0662266 0.566424
  2449 32.3969 1.09687 2.55842
  2450 32.3962 1.09673 -2.55773
  2451 38.5277 0.564991 2.52217
  2452 34.2933 0.00457305 -0.288527
  2453 34.2955 0.00457473 0.288609
  2454 35.8711 -0.0366899 1.64110
  2455 35.8711 -0.0377128 -1.64193
  2456 45.8664 -1.48427 2.67820
  2457 37.0181 0.0193300 -0.495854
  2458 37.0210 0.0193276 0.495961
  2459 32.7092 0.156559 0.0269873
  2460 49.2735 0.240826 5.18983
  2461 38.5586 0.106403 -2.45990
  2462 38.5835 0.113306 2.47553
  2463 41.0064 -2.52964 -0.283473
  2464 41.0089 -2.53068 0.286297
  2465 32.8557 -0.0940355 3.35887
  2466 32.8540 -0.0956906 -3.36035
  2467 23.9327 3.60799 0.543578
  2468 23.9365 3.60707 -0.543820
  2469 32.2324 0.144558 -0.904616
  2470 32.2337 0.144592 0.904932
  2471 25.7465 2.13361 6.46567
  2472 25.7455 2.13548 -6.46289
  2473 63.0396 1.40179 -5.43811
  2474 40.4579 3.67783 -0.758020
  2475 52.2771 -4.85744 -0.408139
  2476 52.2696 -4.87725 0.391763
  2477 31.0510 1.79854 0.853052
  2478 31.0518 1.79823 -0.852783
  2479 40.1654 0.441628 3.08706
  2480 86.1195 7.82204 -2.51060
  2481 30.5713 2.51941 5.07661
  2482 30.5710 2.51971 -5.07543
  2483 38.3441 1.83132 -1.40525
  2484 33.9823 0.906815 8.85370
  2485 38.8847 -0.599898 7.09662
  2486 38.8801 -0.598019 -7.09736
  2487 65.0529 2.03778 5.20945
  2488 29.9774 2.51684 -9.02656
  2489 41.1500 0.789592 3.28300
  2490 42.2115 -2.09507 2.15358
  2491 42.2133 -2.09402 -2.15211
  2492 39.1559 1.84319 2.06408
  2493 54.1672 -3.06366 0.961375
  2494 54.1642 -3.05175 -0.966304
  2495 47.3026 -6.01075 -2.62573
  2496 47.3447 -6.01229 2.62108
  2497 42.6374 -1.30664 -6.26404
  2498 42.6425 -1.30851 6.26275
  2499 29.9475 2.33655 0.102933
  2500 29.9461 2.33665 -0.103075
  2501 18.1754 2.55361 0.684545
  2502 18.1837 2.55167 -0.682017
  2503 37.5320 0.362677 -2.51834
  2504 37.5345 0.362638 2.51874
  2505 44.0282 -6.61066 4.90182
  2506 110.334 3.16886 -6.82083
  2507 34.1971 -0.219986 7.70764
  2508 34.1928 -0.217847 -7.70760
  2509 65.6248 3.56095 -4.07039
  2510 40.5129 -0.304958 -0.114957
  2511 40.5126 -0.304430 0.115838
  2512 47.3086 -0.985959 -4.84067
  2513 47.3129 -0.987609 4.83833
  2514 28.2892 3.09816 4.74265
  2515 28.2897 3.09832 -4.74126
  2516 34.7682 -6.27645 8.73023
  2517 40.5353 0.336196 3.17637
  2518 40.5324 0.336361 -3.17618
  2519 36.8923 -2.43790 -3.33695
  2520 36.8898 -2.43355 3.33433
  2521 86.8138 6.23369 2.08346
  2522 23.3840 2.11838 5.88226
  2523 23.3841 2.12013 -5.87871
  2524 38.1280 -5.52660 6.09435
  2525 32.3263 0.00716389 0.217382
  2526 32.3247 0.00716271 -0.217305
  2527 53.9783 -0.205589 -6.26264
  2528 31.7367 1.26903 -2.29753
  2529 31.7370 1.26922 2.29819
  2530 30.2205 2.44353 3.05151
  2531 30.2209 2.44329 -3.05074
  2532 43.7504 0.0183288 0.889403
  2533 43.7466 0.0183465 -0.889368
  2534 35.7343 -0.172136 1.85754
  2535 35.7343 -0.173347 -1.85854
  2536 49.0360 2.38470 -1.94910
  2537 61.6065 -0.136199 -0.427244
  2538 61.6001 -0.136124 0.425716
  2539 42.1299 -1.08311 -3.01913
  2540 42.1349 -1.08655 3.01931
  2541 37.9293 0.162376 1.69775
  2542 37.9265 0.162384 -1.69746
  2543 32.5358 1.37116 3.18293
  2544 32.5351 1.37106 -3.18215
  2545 57.6549 5.11763 -1.92783
  2546 38.7431 -1.58001 1.19158
  2547 38.7454 -1.58243 -1.19124
  2548 43.8775 -6.57522 -6.16825
  2549 46.2824 1.36803 -3.53625
  2550 45.7155 -5.84571 4.93337
  2551 41.8855 -3.79024 0.454069
  2552 41.8854 -3.78266 -0.447096
  2553 53.9272 -0.705094 -5.19517
  2554 35.8386 0.349254 1.20966
  2555 35.8384 0.348784 -1.21021
  2556 37.5972 0.00416178 -1.81372
  2557 37.5752 0.0307087 1.80826
  2558 16.6297 -6.45929 6.54423
  2559 16.6172 -6.45591 -6.54396
  2560 53.9120 11.1060 -0.455452
  2561 41.6119 -0.428763 -3.24989
  2562 41.6143 -0.434884 3.23981
  2563 5.91450 -11.7242 -1.69824
  2564 5.93770 -11.7094 1.80147
  2565 32.3930 1.44619 0.603668
  2566 32.3919 1.44629 -0.603959
  2567 33.9841 0.250838 1.47793
  2568 33.9824 0.250802 -1.47752
  2569 53.9748 -0.692561 5.13323
  2570 30.2155 2.55130 5.49639
  2571 30.2150 2.55183 -5.49507
  2572 47.2238 -4.69118 1.04388
  2573 26.3644 3.44388 4.05776
  2574 26.3658 3.44377 -4.05631
  2575 37.2372 0.985891 1.43102
  2576 34.7640 0.301769 1.33617
  2577 42.7851 -5.10918 1.86152
  2578 43.0324 -4.98459 -1.51157
  2579 33.5639 0.0126754 0.293240
  2580 33.5619 0.0126748 -0.293149
  2581 44.6406 -5.32663 1.64022
  2582 29.4553 2.56104 1.01309
  2583 29.4566 2.56080 -1.01289
  2584 32.8907 1.51125 3.69561
  2585 32.8898 1.51121 -3.69480
  2586 55.8624 3.07271 -4.34356
  2587 37.8925 -1.73751 7.34246
  2588 37.8874 -1.73607 -7.34282
  2589 31.2373 -0.101750 -7.90977
  2590 31.2417 -0.104193 7.91027
  2591 60.1290 -0.230271 -1.10757
  2592 60.1324 -0.232099 1.11277
  2593 44.8538 7.44883 0.0515304
  2594 32.6716 1.71935 4.06365
  2595 32.6708 1.71936 -4.06278
  2596 39.3751 -1.57717 0.740928
  2597 39.3773 -1.57925 -0.739954
  2598 36.0259 -0.717934 2.24915
  2599 36.0263 -0.719772 -2.25052
  2600 92.3239 6.68397 0.632176
  2601 15.5937 -2.09954 5.27715
  2602 15.5906 -2.09339 -5.26947
  2603 38.4671 -0.160482 -0.864793
  2604 38.4666 -0.159769 0.864802
  2605 35.5804 0.00226740 0.831429
  2606 93.4067 5.25758 -13.8549
  2607 41.8498 -2.66748 -1.08280
  2608 41.8503 -2.66779 1.08603
  2609 56.8129 -1.52825 -2.84374
  2610 56.8226 -1.53598 2.85310
  2611 50.2783 0.0213243 0.969442
  2612 50.2750 0.0213486 -0.969654
  2613 52.1968 -0.116325 2.56288
  2614 38.7054 1.98947 1.43554
  2615 36.7443 0.238589 1.75374
  2616 44.0841 1.72287 -3.62254
  2617 26.0824 3.22389 4.90244
  2618 26.0834 3.22424 -4.90047
  2619 31.5918 1.18377 1.98747
  2620 31.5916 1.18356 -1.98685
  2621 48.0453 -0.0262757 -1.00590
  2622 48.0489 -0.0262996 1.00579
  2623 30.2819 2.21855 1.89346
  2624 30.2826 2.21825 -1.89295
  2625 47.8952 8.31115 -1.60348
  2626 56.6269 -0.193952 -1.95837
  2627 56.6231 -0.202435 1.97529
  2628 56.0795 -1.03304 3.90506
  2629 56.0842 -1.02807 -3.88697
  2630 37.9977 0.00440325 0.900084
  2631 37.9981 0.00389173 -0.900255
  2632 55.1717 -1.29996 -1.28504
  2633 55.1721 -1.29898 1.28093
  2634 81.0595 6.55440 -0.00308199
  2635 15.3161 -8.07843 -1.92336
  2636 15.1009 -8.24176 1.88602
  2637 58.8142 -1.99442 -4.80600
  2638 58.8640 -1.93275 4.80805
  2639 32.3346 0.430171 -1.49121
  2640 32.3355 0.430255 1.49170
  2641 33.2144 0.986970 1.45634
  2642 33.2133 0.986672 -1.45706
  2643 53.6166 -5.01047 1.09354
  2644 53.5993 -4.97659 -1.10753
  2645 56.2013 8.51949 15.8001
  2646 43.3577 -2.86538 6.80885
  2647 44.0812 5.21752 2.55761
  2648 35.6600 1.36042 -5.19257
  2649 35.6620 1.35996 5.19320
  2650 78.1229 7.91249 9.88269
  2651 21.2306 3.25633 -0.420740
  2652 21.2369 3.25441 0.420266
  2653 37.3378 1.58689 -0.256492
  2654 33.9955 -0.634704 3.34695
  2655 33.9939 -0.636691 -3.34863
  2656 54.8173 0.0128516 -1.20486
  2657 54.8190 0.0127644 1.20424
  2658 22.6250 2.82602 -4.70338
  2659 22.6230 2.82534 4.70670
  2660 28.2955 3.04864 1.43233
  2661 28.2971 3.04835 -1.43210
  2662 39.9695 -1.24307 0.0788938
  2663 39.9709 -1.24453 -0.0774105
  2664 41.7893 0.202369 -3.42150
  2665 40.8737 0.500448 4.39289
  2666 40.8708 0.500863 -4.39289
  2667 57.4162 -3.54096 2.20699
  2668 57.4957 -3.45281 -2.18206
  2669 59.4272 -0.0697477 -0.895693
  2670 59.4251 -0.0698432 0.894431
  2671 41.3880 -6.39650 -5.37109
  2672 41.4057 -6.39950 5.38966
  2673 58.2135 -0.910897 0.500065
  2674 58.2083 -0.907465 -0.500490
  2675 33.2830 0.366000 1.69096
  2676 33.2816 0.365950 -1.69047
  2677 48.0665 -4.54379 -3.32199
  2678 40.2269 -0.237423 1.03352
  2679 40.2296 -0.237082 -1.03153
  2680 28.3204 3.11715 -2.36549
  2681 28.3191 3.11748 2.36603
  2682 39.0378 -0.564177 0.721579
  2683 39.0387 -0.565334 -0.721137
  2684 32.2258 0.935007 -2.20191
  2685 32.2264 0.935154 2.20255
  2686 27.2595 2.86473 -0.852190
  2687 27.2618 2.86487 0.851400
  2688 32.6383 0.130880 -0.280766
  2689 54.6161 -3.73640 2.40103
  2690 54.6039 -3.71585 -2.40525
  2691 37.6049 -1.39473 1.85420
  2692 37.6067 -1.39728 -1.85500
  2693 66.9785 1.57635 0.893304
  2694 40.7424 4.17082 0.313663
  2695 38.5993 -3.75920 3.40304
  2696 38.6401 -3.72788 -3.40084
  2697 30.6580 2.05992 0.695140
  2698 30.6590 2.05964 -0.694951
  2699 42.3912 -3.19488 -5.93781
  2700 42.3991 -3.19650 5.93848
  2701 51.2246 0.759166 -7.41671
  2702 29.4776 2.71903 2.92342
  2703 29.4784 2.71877 -2.92270
  2704 30.6706 2.27328 3.42116
  2705 30.6707 2.27311 -3.42032
  2706 40.1971 0.468725 3.80953
  2707 40.1943 0.468985 -3.80935
  2708 39.3993 0.750102 -2.81448
  2709 38.2105 -5.50212 -5.86110
  2710 47.0859 0.594410 4.66220
  2711 36.1832 1.25594 5.71434
  2712 36.1809 1.25668 -5.71386
  2713 69.3903 5.05187 -2.61004
  2714 50.9609 -5.87885 -0.538618
  2715 50.9955 -5.85747 0.499562
  2716 31.0841 1.67323 1.26178
  2717 31.0847 1.67293 -1.26137
  2718 44.0657 1.45494 3.65666
  2719 76.6967 8.59395 -10.4295
  2720 36.9367 0.180774 -1.82952
  2721 40.4869 -1.26610 -0.582597
  2722 40.4880 -1.26724 0.584483
  2723 53.7472 -0.138960 -2.23487
  2724 53.7487 -0.139266 2.23342
  2725 33.6109 0.579313 2.24302
  2726 33.6095 0.579254 -2.24243
  2727 36.5190 1.08759 0.541033
  2728 30.1478 2.25664 1.26372
  2729 30.1488 2.25635 -1.26339
  2730 50.9458 9.93174 1.15438
  2731 40.7388 -0.150036 -0.221777
  2732 40.7385 -0.149742 0.222287
  2733 32.9327 0.229954 1.29566
  2734 32.9313 0.229914 -1.29526
  2735 10.3865 -13.7312 0.0595868
  2736 10.4026 -13.7410 -0.0765031
  2737 25.5164 3.58371 1.31202
  2738 25.5191 3.58316 -1.31192
  2739 35.6835 0.355115 2.18812
  2740 35.6814 0.355108 -2.18765
  2741 42.2999 2.64946 -3.20775
  2742 38.2227 -4.77800 5.04333
  2743 45.2406 2.53493 3.53232
  2744 47.3919 -3.17906 -3.96669
  2745 47.4023 -3.18101 3.96399
  2746 50.8531 -0.607462 0.862857
  2747 40.0133 0.258577 2.55667
  2748 40.0103 0.258661 -2.55642
  2749 43.5635 -4.23318 -5.77199
  2750 37.6125 0.895047 -4.40992
  2751 37.6148 0.894760 4.41036
  2752 41.5647 -7.43647 -4.72256
  2753 41.6747 -7.44149 4.79252
  2754 50.8168 -4.04550 -1.39136
  2755 50.8279 -4.04017 1.38277
  2756 54.9799 -0.153266 -2.19519
  2757 54.9805 -0.153715 2.19312
  2758 28.7513 1.67156 2.84323
  2759 28.7494 1.67037 -2.84454
  2760 38.1725 0.0223983 0.527970
  2761 38.1693 0.0224014 -0.527872
  2762 40.5804 -0.879719 -0.928140
  2763 40.5808 -0.880614 0.930186
  2764 41.3220 -5.64677 -3.80583
  2765 27.9264 2.86837 0.317457
  2766 27.9245 2.86836 -0.317912
  2767 35.1405 0.101969 1.09031
  2768 35.1383 0.101957 -1.09003
  2769 59.8787 -0.613112 2.62414
  2770 31.4353 -0.902442 5.10142
  2771 31.4322 -0.906432 -5.10192
  2772 41.8454 0.109722 -1.87762
  2773 41.8488 0.109668 1.87773
  2774 42.1826 5.18300 0.525144
  2775 54.7702 -2.56633 -3.63746
  2776 37.6723 -2.02710 -2.36958
  2777 37.6702 -2.02388 2.36818
  2778 55.9873 -2.37009 -4.30553
  2779 56.0095 -2.37531 4.31161
  2780 36.3789 0.0995543 1.24537
  2781 36.3763 0.0995556 -1.24510
  2782 30.3707 2.17542 1.60554
  2783 30.3714 2.17513 -1.60509
  2784 44.4806 -5.64458 -1.89338
  2785 43.5790 4.30665 -2.83621
  2786 64.0669 1.51117 -4.40468
  2787 31.2316 1.47626 -1.90888
  2788 31.2315 1.47651 1.90947
  2789 60.1772 8.48578 -0.818618
  2790 40.4798 -6.57350 -8.60367
  2791 53.9275 -0.00975927 -1.11547
  2792 53.9297 -0.00982798 1.11501
  2793 50.8518 2.72579 3.13830
  2794 31.9577 1.59526 -0.324099
  2795 31.9588 1.59509 0.323932
  2796 29.7601 2.48517 -1.39666
  2797 29.7590 2.48545 1.39700
  2798 32.7324 0.403589 -1.59156
  2799 32.7336 0.403658 1.59205
  2800 25.1464 -7.51126 -10.6143
  2801 57.0643 -0.118309 -1.05360
  2802 57.0647 -0.118414 1.05274
  2803 59.7573 4.79393 1.64197
  2804 33.1221 0.843626 2.56743
  2805 33.1210 0.843536 -2.56676
  2806 39.7729 -0.0328161 0.566404
  2807 39.7787 -0.0327585 -0.565170
  2808 24.5669 -7.46711 10.6409
  2809 41.5194 -4.30025 5.91951
  2810 41.5106 -4.29929 -5.91621
  2811 37.5456 0.838232 -6.46434
  2812 37.5486 0.836977 6.46437
  2813 43.3982 3.85084 3.03025
  2814 48.4313 -4.04124 -1.19440
  2815 27.1991 3.45890 -2.50031
  2816 27.1973 3.45930 2.50092
  2817 40.8270 -0.350085 -0.386585
  2818 40.8266 -0.350585 0.388015
  2819 33.3826 1.54357 4.21094
  2820 33.3816 1.54363 -4.21010
  2821 28.8593 2.31647 1.40458
  2822 28.8574 2.31609 -1.40531
  2823 23.6746 3.51477 3.35502
  2824 23.6775 3.51443 -3.35313
  2825 48.3992 4.61819 -12.4322
  2826 31.1323 2.17773 6.29486
  2827 31.1309 2.17881 -6.29359
  2828 48.7736 0.00362366 -3.32756
  2829 48.7764 0.00321515 3.32657
  2830 31.6791 2.13916 4.49478
  2831 31.6785 2.13925 -4.49380
  2832 34.6280 0.0561703 0.713257
  2833 29.8284 2.49060 -2.49996
  2834 29.8277 2.49088 2.50059
  2835 33.5996 -1.29922 -4.27690
  2836 33.6014 -1.29606 4.27462
  2837 34.9667 0.369741 -0.925361
  2838 41.3486 -1.47632 -2.28307
  2839 41.3510 -1.47679 2.28517
  2840 34.7173 0.380354 1.63819
  2841 34.7168 0.379683 -1.63905
  2842 32.0816 1.40677 2.91009
  2843 32.0811 1.40662 -2.90934
  2844 31.0101 1.00935 2.84589
  2845 31.0082 1.00825 -2.84696
  2846 36.6904 1.12515 -6.26028
  2847 36.6930 1.12407 6.26054
  2848 57.8408 -0.886881 -0.122341
  2849 57.8369 -0.884704 0.120189
  2850 31.4018 1.76338 0.468315
  2851 31.4006 1.76348 -0.468545
  2852 40.5754 -3.90845 -1.85483
  2853 40.5929 -3.88442 1.81333
  2854 35.8581 0.0549495 -0.854417
  2855 35.8607 0.0549521 0.854619
  2856 30.0317 2.68313 4.36460
  2857 30.0318 2.68312 -4.36353
  2858 40.6771 -5.82664 5.59966
  2859 40.2317 -6.00382 -5.43817
  2860 41.9213 -0.0293987 -0.00702428
  2861 41.9211 -0.0294431 0.00733117
  2862 32.5113 0.544784 -1.78552
  2863 32.5122 0.544877 1.78606
  2864 49.9249 -4.99705 -1.37583
  2865 49.9447 -4.99196 1.36533
  2866 29.6785 0.532282 -4.21443
  2867 29.6800 0.534820 4.21294
  2868 34.0629 0.0901118 -0.923396
  2869 34.0649 0.0901249 0.923659
  2870 16.2592 1.19128 -2.45095
  2871 16.2733 1.18741 2.45054
  2872 54.9576 -0.220626 6.47329
  2873 30.1123 2.17166 -0.636228
  2874 30.1138 2.17169 0.635901
  2875 33.7982 0.568898 -1.89166
  2876 33.7991 0.569549 1.89068
  2877 30.8589 1.78809 1.51684
  2878 30.8594 1.78780 -1.51638
  2879 33.6058 -8.24074 -6.28238
  2880 33.6829 -8.13382 6.07651
  2881 43.7316 -2.42254 2.24930
  2882 43.7085 -2.39820 -2.26840
  2883 23.2965 -1.84696 7.67492
  2884 23.2896 -1.84249 -7.67329
  2885 38.2150 1.23611 2.04822
  2886 40.4994 -0.580278 1.17976
  2887 40.5000 -0.579603 -1.17756
  2888 37.1416 -1.45161 2.22186
  2889 37.1431 -1.45425 -2.22314
  2890 14.3843 0.573896 -1.09973
  2891 14.3728 0.575000 1.10637
  2892 25.3033 2.91819 5.46867
  2893 25.3039 2.91910 -5.46620
  2894 38.5444 0.0963772 1.30239
  2895 38.5414 0.0963828 -1.30217
  2896 40.8512 2.08830 2.85641
  2897 53.5533 -0.437631 -3.97067
  2898 26.6955 0.986710 -7.35096
  2899 26.6984 0.983920 7.35315
  2900 32.4340 0.872741 -2.24438
  2901 32.4347 0.872870 2.24502
  2902 54.2476 -2.11092 -0.585184
  2903 54.2486 -2.10669 0.580511
  2904 40.1088 0.00613737 -3.02003
  2905 36.2643 0.303791 -1.58915
  2906 32.0114 0.00223684 0.183159
  2907 32.0098 0.00223719 -0.183094
  2908 59.6100 -2.22752 1.37048
  2909 59.5577 -2.20076 -1.29286
  2910 35.2649 0.513818 1.20486
  2911 35.2645 0.513455 -1.20543
  2912 32.3318 0.537748 -1.66889
  2913 32.3327 0.537847 1.66942
  2914 34.3347 0.505807 2.27736
  2915 34.3331 0.505769 -2.27681
  2916 42.0455 -4.64371 -1.66945
  2917 41.9858 -4.66367 1.70578
  2918 80.9756 5.85491 -2.11743
  2919 49.3241 1.28569 -5.00697
  2920 36.7339 0.0482297 -1.55250
  2921 81.8906 4.97287 -6.94561
  2922 42.7029 5.82635 -0.514516
  2923 69.6211 6.60389 0.413250
  2924 50.6674 -1.25958 5.47993
  2925 48.2276 -1.37200 2.05241
  2926 34.5143 0.0528226 -0.675338
  2927 31.1761 1.68279 2.37104
  2928 31.1762 1.68255 -2.37037
  2929 50.5571 -5.48239 -2.17164
  2930 50.8728 -5.39360 1.97074
  2931 79.1619 5.65183 16.4835
  2932 58.6064 5.64819 8.08241
  2933 31.6758 1.98331 -3.81101
  2934 31.6762 1.98339 3.81189
  2935 66.3811 8.23812 4.77068
  2936 46.8519 -0.505941 -4.88040
  2937 46.8555 -0.507345 4.87838
  2938 33.1601 0.0406971 -0.552054
  2939 33.1619 0.0407045 0.552225
  2940 37.6365 -0.105282 1.05622
  2941 37.6369 -0.106057 -1.05645
  2942 39.7960 -0.837524 -0.271132
  2943 39.7950 -0.836312 0.272248
  2944 34.4578 1.56834 5.61103
  2945 34.4560 1.56895 -5.61027
  2946 40.5735 -0.941453 2.30107
  2947 40.5724 -0.942128 -2.29812
  2948 38.6018 -1.07027 1.05658
  2949 38.6035 -1.07217 -1.05630
  2950 33.2411 0.149105 0.474975
  2951 42.2009 4.81663 1.50589
  2952 58.6126 1.18236 6.23838
  2953 33.3274 0.122450 -0.976288
  2954 33.3291 0.122470 0.976588
  2955 39.6289 1.29236 -2.70818
  2956 33.6693 0.224084 1.38893
  2957 33.6677 0.224054 -1.38853
  2958 38.7836 -0.127985 -0.768551
  2959 38.7831 -0.127397 0.768613
  2960 29.7041 2.26049 -0.812183
  2961 29.7058 2.26062 0.811770
  2962 111.168 3.41183 6.77573
  2963 43.6475 0.262751 3.12352
  2964 43.6443 0.262959 -3.12362
  2965 35.5121 0.195178 -1.56392
  2966 35.5143 0.195188 1.56428
  2967 40.1161 -0.00169764 3.02569
  2968 34.0598 1.06415 3.44461
  2969 34.0585 1.06414 -3.44388
  2970 32.8940 1.11464 2.95507
  2971 32.8931 1.11454 -2.95434
  2972 35.6889 -1.18452 -2.92216
  2973 35.6890 -1.18213 2.92013
  2974 30.8350 1.81016 1.83608
  2975 30.8354 1.80988 -1.83554
  2976 50.7297 10.3655 0.0795507
  2977 18.0651 1.08826 -4.01150
  2978 18.0767 1.08431 4.00703
  2979 38.0175 0.268483 -2.29971
  2980 29.9438 2.51800 5.93209
  2981 29.9430 2.51883 -5.93063
  2982 35.9407 0.189214 1.36916
  2983 35.9406 0.188520 -1.36980
  2984 49.9416 4.47711 12.7260
  2985 35.2125 1.09108 4.09830
  2986 35.2108 1.09121 -4.09762
  2987 22.1937 -2.47041 -8.25400
  2988 51.9753 1.13175 5.68870
  2989 33.3573 -1.74084 5.01049
  2990 33.3532 -1.74302 -5.01344
  2991 39.6610 -0.254762 -1.37515
  2992 39.6580 -0.254758 1.37728
  2993 41.0024 0.663960 -3.25735
  2994 58.3265 1.26520 -6.09178
  2995 34.1614 1.54802 5.01450
  2996 34.1599 1.54835 -5.01368
  2997 82.2641 5.17874 4.68771
  2998 60.8912 10.6163 0.283626
  2999 6.53687 -12.3524 -1.31488
  3000 6.56343 -12.3923 1.31059
  3001 41.2593 -2.97438 -0.0529365
  3002 41.2626 -2.97531 0.0568970
  3003 35.0174 0.274028 -1.85441
  3004 35.0194 0.274041 1.85486
  3005 65.0356 4.41635 3.80672
  3006 21.9010 -0.347471 6.82201
  3007 21.8969 -0.343269 -6.81799
  3008 22.7115 3.62966 1.55950
  3009 22.7159 3.62857 -1.55866
  3010 38.8824 2.44355 -0.881096
  3011 46.9989 -0.0137927 -4.41674
  3012 47.0019 -0.0146136 4.41535
  3013 28.0657 2.78727 5.62904
  3014 28.0655 2.78802 -5.62725
  3015 45.8599 0.101050 3.39138
  3016 71.1268 6.93028 -17.9189
  3017 38.3660 0.638546 -4.03002
  3018 38.3685 0.638310 4.03039
  3019 38.5632 0.803495 4.84424
  3020 38.5606 0.803961 -4.84397
  3021 37.2806 0.179159 1.77085
  3022 37.2780 0.179169 -1.77052
  3023 39.6799 -0.505543 0.445810
  3024 39.6806 -0.506459 -0.445091
  3025 29.7785 2.44031 -0.687433
  3026 29.7772 2.44053 0.687553
  3027 74.8880 4.22311 -6.23221
  3028 32.5186 0.0883227 0.761531
  3029 32.5172 0.0883067 -0.761276
  3030 41.1065 -0.0664998 -0.201502
  3031 41.1061 -0.0663550 0.201845
  3032 35.5191 0.0290099 0.354185
  3033 35.5165 0.0290046 -0.354093
  3034 21.9953 0.937226 5.20749
  3035 21.9902 0.938850 -5.21297
  3036 40.8568 -0.346496 -3.12858
  3037 40.8705 -0.346338 3.12929
  3038 42.7734 0.0736347 3.47973
  3039 42.9764 0.0503978 -0.653284
  3040 42.9802 0.0503920 0.653317
  3041 56.2958 -3.06082 -4.28095
  3042 56.3137 -3.06259 4.29338
  3043 32.0217 1.54891 3.13055
  3044 32.0213 1.54877 -3.12976
  3045 32.2438 -0.158993 -3.80825
  3046 32.2459 -0.157007 3.80668
  3047 36.4788 -0.150512 1.51332
  3048 36.4791 -0.151604 -1.51400
  3049 65.2586 10.8356 -1.14128
  3050 38.6301 -0.298886 -0.843265
  3051 38.6295 -0.298008 0.843391
  3052 34.9467 1.37755 4.72993
  3053 34.9451 1.37781 -4.72920
  3054 70.6146 5.00274 2.43138
  3055 19.8452 1.68876 -3.68750
  3056 19.8538 1.68632 3.68366
  3057 29.6225 2.12791 -1.29907
  3058 29.6242 2.12822 1.29847
  3059 42.3866 -4.24984 0.695148
  3060 42.3635 -4.25256 -0.707595
  3061 32.4809 0.256452 -1.23124
  3062 32.4821 0.256501 1.23164
  3063 20.0320 2.66841 3.56795
  3064 20.0361 2.66858 -3.56396
  3065 40.6281 -0.590095 0.825091
  3066 40.6284 -0.589368 -0.823140
  3067 50.8615 2.91598 1.16410
  3068 30.7306 -6.81869 10.0762
  3069 38.1269 -2.83598 -2.82714
  3070 38.1264 -2.83028 2.82957
  3071 38.9728 -6.36503 -6.38217
  3072 34.5160 0.266805 1.88754
  3073 34.5153 0.265966 -1.88857
  3074 40.5402 -1.85988 -0.429248
  3075 40.5420 -1.86114 0.431285
  3076 16.6866 -2.68693 -7.63408
  3077 16.6944 -2.68876 7.62892
  3078 46.6278 0.0331190 2.53028
  3079 33.7357 0.499775 0.0297112
  3080 29.1968 2.39354 -0.538728
  3081 29.1985 2.39361 0.538369
  3082 23.4309 -3.99243 -7.96025
  3083 23.4412 -3.99658 7.95925
  3084 37.4006 1.32093 -1.16118
  3085 40.5876 7.45447 -15.3943
  3086 36.8181 -7.45712 9.03691
  3087 62.4276 -0.145481 -0.241219
  3088 62.4375 -0.146103 0.241148
  3089 36.7255 0.0544612 1.53948
  3090 32.1783 1.48070 -0.784019
  3091 32.1795 1.48067 0.783651
  3092 44.5073 -0.223895 5.54979
  3093 44.5037 -0.222587 -5.55123
  3094 44.2690 0.269118 -4.16878
  3095 44.2721 0.268615 4.16828
  3096 44.7890 0.00104427 -0.729556
  3097 44.7929 0.00103057 0.729572
  3098 41.4023 -0.00721125 -0.115871
  3099 41.4015 -0.00719763 0.115890
  3100 4.02864 -26.5710 2.05452
  3101 4.09626 -26.5613 -2.16629
  3102 33.8936 -0.00372103 -0.324817
  3103 33.8957 -0.00372344 0.324916
  3104 41.1872 -1.91653 6.57238
  3105 41.1816 -1.91472 -6.57309
  3106 44.6388 0.245456 3.47695
  3107 40.5382 1.39705 3.01743
  3108 31.6281 1.02352 1.74628
  3109 31.6279 1.02332 -1.74571
  3110 66.4314 5.97222 -0.171784
  3111 30.6380 2.00993 2.12286
  3112 30.6384 2.00966 -2.12227
  3113 11.9562 -3.94792 -3.65744
  3114 11.9574 -3.95557 3.66923
  3115 39.1020 -0.0256452 -0.656594
  3116 39.1016 -0.0252951 0.656607
  3117 36.7042 0.834419 4.06161
  3118 36.7020 0.834609 -4.06106
  3119 39.4257 0.679007 2.82745
  3120 33.3043 0.439349 -0.405117
  3121 41.0268 -0.0421646 -0.227359
  3122 41.0264 -0.0420446 0.227596
  3123 41.1862 -0.163201 0.0382912
  3124 41.1864 -0.162963 -0.0374849
  3125 36.6690 0.325966 2.26146
  3126 36.6667 0.325977 -2.26103
  3127 38.8969 -0.206753 1.60236
  3128 38.9000 -0.208330 -1.60077
  3129 34.6698 -0.701161 -2.99897
  3130 34.6708 -0.699336 2.99715
  3131 47.8594 -1.97031 -1.81498
  3132 38.1282 1.04215 -2.08107
  3133 47.8179 5.86097 -3.00134
  3134 23.0491 2.97198 -1.68565
  3135 23.0539 2.97092 1.68365
  3136 32.0948 0.484137 1.47155
  3137 32.0940 0.484038 -1.47105
  3138 33.7606 -3.82913 -6.85483
  3139 33.7816 -3.82187 6.80615
  3140 38.0655 0.299909 2.35113
  3141 32.1915 0.293360 -1.21517
  3142 32.1925 0.293424 1.21558
  3143 52.6795 1.31394 -5.76877
  3144 35.5133 1.01384 -6.86495
  3145 35.5163 1.01229 6.86522
  3146 59.3020 -0.408744 -0.625571
  3147 59.2976 -0.408372 0.623095
  3148 19.3213 1.34850 4.92869
  3149 19.3226 1.35065 -4.92318
  3150 9.91593 -3.32135 0.0510027
  3151 9.89343 -3.31997 -0.0365939
  3152 51.2119 -1.62461 1.77100
  3153 59.6648 -1.18145 -2.30073
  3154 37.8915 -6.71351 7.59019
  3155 26.5372 0.284901 -5.48203
  3156 26.5384 0.286704 5.47694
  3157 58.8522 -0.231713 -1.15921
  3158 58.8493 -0.231874 1.15669
  3159 42.9075 0.0743196 1.78345
  3160 42.9040 0.0743705 -1.78340
  3161 32.7222 0.0146583 -0.262298
  3162 32.7239 0.0146631 0.262388
  3163 38.1718 -0.343365 0.995315
  3164 38.1726 -0.344412 -0.995337
  3165 53.7548 -0.350203 3.98041
  3166 40.2339 -0.335268 0.272926
  3167 40.2343 -0.335864 -0.272191
  3168 48.6740 -4.28392 2.47386
  3169 40.1663 -0.997374 -0.100781
  3170 40.1673 -0.998568 0.102337
  3171 30.8961 1.63866 1.71966
  3172 30.8945 1.63826 -1.72036
  3173 30.9911 2.36836 4.69867
  3174 30.9908 2.36849 -4.69762
  3175 38.8442 0.280451 2.58854
  3176 38.8414 0.280520 -2.58822
  3177 40.8981 -7.34100 -7.18136
  3178 33.8009 0.623644 7.46131
  3179 33.7973 0.625731 -7.46093
  3180 44.9461 -1.18498 5.55450
  3181 44.9409 -1.18312 -5.55629
  3182 41.8032 -0.00308475 -0.0807323
  3183 41.8026 -0.00306468 0.0808384
  3184 34.4289 0.0942003 -0.889359
  3185 34.4310 0.0942155 0.889608
  3186 46.3216 8.38300 0.478156
  3187 39.4681 -7.37968 -5.61394
  3188 39.4694 -7.36722 5.66619
  3189 41.8049 0.0939877 3.38041
  3190 49.5850 -3.88839 2.32526
  3191 49.5726 -3.88911 -2.33092
  3192 46.1967 7.55509 1.68321
  3193 41.3579 -1.81189 1.83849
  3194 41.3564 -1.81131 -1.83678
  3195 31.1862 1.79515 0.435846
  3196 31.1871 1.79488 -0.435727
  3197 55.6728 -0.513565 3.32941
  3198 55.7109 -0.496753 -3.32010
  3199 45.1180 -1.96015 -2.56287
  3200 26.9741 3.47108 -1.90241
  3201 26.9722 3.47150 1.90276
  3202 41.8791 1.80705 -3.31514
  3203 36.5554 0.150618 -1.53553
  3204 36.5579 0.150616 1.53584
  3205 42.4845 1.27365 1.32787
  3206 54.1747 0.962967 -6.25260
  3207 37.8485 0.642442 3.61025
  3208 37.8461 0.642584 -3.60981
  3209 45.4216 6.87512 14.3244
  3210 39.1610 0.100212 1.42468
  3211 39.1579 0.100223 -1.42447
  3212 49.7422 8.86234 1.94421
  3213 39.6629 1.19282 2.77875
  3214 41.4831 2.99312 -2.61020
  3215 41.1487 -1.85141 -1.36084
  3216 41.1501 -1.85217 1.36278
  3217 29.4096 2.74771 2.49431
  3218 29.4105 2.74743 -2.49370
  3219 54.4234 2.38678 4.69544
  3220 44.8468 -1.73149 2.68081
  3221 30.9817 -8.17376 -6.76050
  3222 31.2288 -8.14245 6.60658
  3223 60.5251 -1.45459 -3.35198
  3224 56.4647 -1.35444 6.04628
  3225 56.4605 -1.39682 -6.06216
  3226 38.4988 -1.28502 1.20240
  3227 38.5006 -1.28717 -1.20221
  3228 13.7838 -0.749216 -2.47665
  3229 13.7766 -0.750511 2.48679
  3230 40.8155 -0.0586352 0.417899
  3231 40.8191 -0.0585331 -0.416913
  3232 32.0221 1.10222 -2.32563
  3233 32.0226 1.10238 2.32630
  3234 46.6387 -4.06470 0.197458
  3235 39.8032 -3.47526 2.03956
  3236 39.8056 -3.47642 -2.06244
  3237 30.9250 1.97228 0.444350
  3238 30.9260 1.97201 -0.444234
  3239 35.0409 -1.46930 -7.87795
  3240 35.0458 -1.47081 7.87766
  3241 40.5993 -0.00189721 -6.50243
  3242 40.6031 -0.00347652 6.50160
  3243 35.1550 0.481754 0.763706
  3244 40.5155 -0.579433 -0.210993
  3245 40.5157 -0.580192 0.212404
  3246 40.4122 0.101490 1.59151
  3247 40.4089 0.101521 -1.59133
  3248 50.2771 2.68201 2.79775
  3249 36.2498 -0.406472 1.83336
  3250 36.2501 -0.407925 -1.83431
  3251 20.1459 -7.20301 -6.96303
  3252 20.1627 -7.20049 6.96046
  3253 31.1080 1.58130 1.67783
  3254 31.1083 1.58102 -1.67730
  3255 39.6118 -0.425310 -2.29419
  3256 39.6103 -0.422358 2.29576
  3257 32.9132 0.574414 -1.96858
  3258 32.9143 0.574498 1.96914
  3259 42.9504 -2.33727 -6.00807
  3260 42.9570 -2.33930 6.00729
  3261 40.5003 -0.979706 0.615029
  3262 40.4996 -0.978707 -0.613159
  3263 36.9400 0.447082 2.67800
  3264 36.9377 0.447113 -2.67754
  3265 38.8835 -3.36701 2.76412
  3266 38.8701 -3.35188 -2.75712
  3267 40.6748 -0.427371 0.167722
  3268 40.6747 -0.426792 -0.166451
  3269 58.7037 1.84043 5.88298
  3270 43.4240 0.302987 3.57152
  3271 43.4209 0.303274 -3.57169
  3272 41.4376 -0.0754645 -0.0746704
  3273 41.4375 -0.0753210 0.0751266
  3274 55.1604 9.18595 -1.18396
  3275 45.9867 -5.70596 2.48699
  3276 41.0241 -0.193369 -0.481608
  3277 41.0227 -0.193662 0.482958
  3278 34.3982 -1.18775 -3.67075
  3279 34.4000 -1.18500 3.66890
  3280 47.2117 -2.08475 -7.15633
  3281 29.4549 2.76489 -3.32552
  3282 29.4543 2.76510 3.32634
  3283 7.15988 -19.5849 -1.02969
  3284 8.13155 -17.2451 2.46046
  3285 30.3907 -0.876945 -5.60555
  3286 30.3892 -0.871204 5.60466
  3287 60.6273 -1.37567 3.35883
  3288 32.3847 0.0360172 -0.431674
  3289 32.3863 0.0360275 0.431823
  3290 24.3835 2.99693 -1.48256
  3291 24.3872 2.99645 1.48082
  3292 6.59382 -9.32662 -0.454419
  3293 6.59619 -9.34651 0.488782
  3294 50.7366 0.00840728 -2.68581
  3295 50.7391 0.00810642 2.68480
  3296 40.4244 -5.01983 -3.60987
  3297 45.9360 -0.153290 -3.26137
  3298 54.0782 3.80320 0.929682
  3299 31.4012 1.76452 -0.201379
  3300 31.4002 1.76478 0.201418
  3301 34.5996 -0.00383652 -0.246617
  3302 34.6020 -0.00384286 0.246690
  3303 40.0476 -0.00984687 -0.459941
  3304 40.0471 -0.00967929 0.459992
  3305 34.8679 0.689543 2.95718
  3306 34.8662 0.689541 -2.95657
  3307 40.5636 -2.43053 -0.123880
  3308 40.5604 -2.42871 0.126259
  3309 52.5867 2.33855 -1.28137
  3310 37.1094 -0.144473 -1.26124
  3311 37.1090 -0.143503 1.26083
  3312 34.8567 0.280009 1.06727
  3313 57.8156 -0.173482 -1.43482
  3314 57.8141 -0.173760 1.43269
  3315 22.0054 -2.96694 8.87905
  3316 22.0138 -2.94664 -8.90245
  3317 38.3353 2.00806 0.791652
  3318 41.2094 -1.02553 2.80617
  3319 41.2061 -1.02742 -2.80196
  3320 41.8708 -2.23361 1.72629
  3321 41.8710 -2.23358 -1.72439
  3322 55.1684 -4.10229 2.72347
  3323 55.1524 -4.07885 -2.72465
  3324 26.2799 -1.80864 6.04632
  3325 62.7547 0.480777 -4.68482
  3326 52.8454 4.71209 -2.13337
  3327 26.1596 2.45619 6.18723
  3328 26.1590 2.45761 -6.18474
  3329 65.6356 3.36927 4.23974
  3330 25.6516 3.68488 2.16979
  3331 25.6541 3.68431 -2.16923
  3332 32.3680 1.22574 -2.77521
  3333 32.3686 1.22588 2.77593
  3334 53.3028 -1.45089 -1.98157
  3335 53.3056 -1.45086 1.97726
  3336 30.8033 1.92598 -2.37082
  3337 30.8031 1.92624 2.37147
  3338 27.2760 1.61391 -3.48030
  3339 27.2778 1.61545 3.47803
  3340 31.1848 1.90784 2.96735
  3341 31.1847 1.90764 -2.96659
  3342 46.4139 -0.0623339 -2.55368
  3343 34.7669 0.887987 3.34371
  3344 34.7653 0.888001 -3.34305
  3345 38.7177 -0.686296 0.874621
  3346 38.7188 -0.687687 -0.874302
  3347 49.9176 0.0135141 -2.27794
  3348 74.8981 4.59705 -0.00900134
  3349 12.7129 -7.87601 -4.85946
  3350 12.7251 -7.88347 4.85841
  3351 22.3574 1.52296 -6.04214
  3352 22.3580 1.52047 6.04626
  3353 39.0169 0.533695 -6.56837
  3354 39.0203 0.532261 6.56796
  3355 55.6809 -1.39693 -0.651420
  3356 55.6802 -1.39466 0.647729
  3357 37.9296 0.737811 2.16867
  3358 40.9144 -3.24141 -0.607904
  3359 40.9061 -3.23804 0.613019
  3360 50.2356 2.82080 0.252566
  3361 22.4967 3.29831 3.53437
  3362 22.5000 3.29808 -3.53176
  3363 55.1088 -2.15903 0.231623
  3364 55.1072 -2.15238 -0.234950
  3365 41.1879 -5.51914 3.59351
  3366 50.1592 9.00893 -1.76973
  3367 28.8423 2.89677 1.41099
  3368 28.8436 2.89649 -1.41072
  3369 31.2231 1.99472 -3.35401
  3370 31.2232 1.99488 3.35483
  3371 32.8748 -2.53133 6.19118
  3372 32.8851 -2.55666 -6.19221
  3373 59.8298 -0.465838 -0.224434
  3374 59.8242 -0.464882 0.222572
  3375 45.0256 0.0358936 -4.99952
  3376 45.0288 0.0349292 4.99836
  3377 51.0970 -2.59719 -2.34893
  3378 51.1037 -2.59660 2.34375
  3379 40.4044 -0.151403 -0.341673
  3380 40.4039 -0.151078 0.342054
  3381 29.2916 2.04486 -6.81592
  3382 29.2934 2.04320 6.81757
  3383 48.1202 -1.87829 4.35593
  3384 48.1143 -1.87640 -4.35868
  3385 11.4888 -12.9175 -3.09825
  3386 11.4853 -12.9012 3.08643
  3387 32.0351 0.0186747 -0.339589
  3388 32.0365 0.0186742 0.339713
  3389 49.4942 3.18882 -3.17379
  3390 31.3482 1.32430 1.64520
  3391 31.3483 1.32404 -1.64466
  3392 31.8814 0.679741 -1.62726
  3393 31.8819 0.679883 1.62781
  3394 27.2822 1.64848 -7.03819
  3395 27.2843 1.64616 7.04038
  3396 40.9960 0.00125670 -0.234364
  3397 41.5908 -0.00301988 0.0910086
  3398 40.9954 0.00129567 0.234392
  3399 41.5916 -0.00303430 -0.0909740
  3400 43.8197 -4.53894 0.429049
  3401 43.7853 -4.54868 -0.389939
  3402 28.5116 1.24645 -3.67135
  3403 28.5133 1.24831 3.66958
  3404 30.0070 -5.24275 7.96949
  3405 30.0044 -5.24574 -7.97590
  3406 45.5703 0.0727493 2.81903
  3407 45.5671 0.0729415 -2.81933
  3408 32.6732 0.0410080 0.333337
  3409 40.1381 -2.64307 0.722953
  3410 40.1429 -2.64600 -0.721161
  3411 36.5031 0.692454 3.51731
  3412 36.5010 0.692552 -3.51676
  3413 40.6489 -0.539161 0.417862
  3414 40.6489 -0.538489 -0.416265
  3415 103.336 4.15887 12.7132
  3416 33.1158 0.286182 -1.46676
  3417 33.1172 0.286228 1.46720
  3418 34.0207 1.29594 3.98827
  3419 34.0194 1.29599 -3.98749
  3420 11.4679 -2.76582 -1.97848
  3421 11.4592 -2.76952 1.99255
  3422 31.8462 1.30547 1.62949
  3423 31.8448 1.30512 -1.63021
  3424 18.1640 2.35568 -0.973992
  3425 18.1741 2.35269 0.974503
  3426 63.4370 1.41181 4.78205
  3427 43.3583 0.933930 -3.02751
  3428 39.4397 -0.816018 0.519002
  3429 39.4408 -0.817348 -0.518191
  3430 34.1076 -2.72082 5.59117
  3431 34.1256 -2.76747 -5.59046
  3432 32.1292 1.74283 3.64031
  3433 32.1286 1.74274 -3.63946
  3434 41.1468 0.393971 3.88843
  3435 41.1438 0.394268 -3.88837
  3436 56.4940 -1.77781 1.56885
  3437 56.4874 -1.76841 -1.56729
  3438 32.5968 1.05873 -1.74532
  3439 32.5981 1.05915 1.74452
  3440 28.0656 -0.615220 -6.19538
  3441 28.0669 -0.611883 6.18781
  3442 27.6893 0.475557 -4.91830
  3443 27.6901 0.478492 4.91488
  3444 79.9086 7.36385 -0.0414620
  3445 12.4610 -11.2018 7.04386
  3446 61.9642 -0.102504 0.549629
  3447 61.9553 -0.101760 -0.547909
  3448 69.7847 2.67614 1.21203
  3449 36.7286 -0.529976 1.67519
  3450 36.7293 -0.531515 -1.67596
  3451 32.8716 0.0887330 -0.803961
  3452 32.8732 0.0887483 0.804221
  3453 32.1792 0.611450 -1.71649
  3454 32.1799 0.611566 1.71704
  3455 14.2601 -0.364802 -3.37179
  3456 14.2788 -0.368028 3.37115
  3457 50.7504 -0.468179 3.68640
  3458 50.7478 -0.467214 -3.68883
  3459 24.0611 -1.05181 -7.42872
  3460 24.0595 -1.05421 7.42668
  3461 36.8667 0.542576 1.77805
  3462 29.3776 2.86172 4.82915
  3463 29.3777 2.86190 -4.82791
  3464 35.3051 0.136342 1.15509
  3465 39.1232 -0.207146 -2.31605
  3466 39.1220 -0.204971 2.31668
  3467 44.3485 -0.330244 -3.40053
  3468 39.5613 0.00557645 0.499428
  3469 39.5578 0.00557761 -0.499346
  3470 30.7292 1.92897 1.40670
  3471 30.7299 1.92867 -1.40628
  3472 55.2684 -2.67476 1.83441
  3473 55.2607 -2.66116 -1.83481
  3474 35.4435 0.592301 -0.761688
  3475 29.9747 2.44576 2.27676
  3476 29.9754 2.44547 -2.27617
  3477 53.1323 -0.0430666 -2.14910
  3478 53.1341 -0.0433526 2.14791
  3479 26.5907 -0.349588 -7.90282
  3480 26.5956 -0.352836 7.90416
  3481 25.6039 -0.747081 6.89546
  3482 25.6016 -0.743962 -6.90012
  3483 36.9383 1.05691 5.11335
  3484 36.9360 1.05741 -5.11291
  3485 33.1360 0.342528 0.790588
  3486 40.6448 3.04752 2.03779
  3487 32.9022 1.27361 0.784250
  3488 32.9012 1.27365 -0.784628
  3489 32.1649 0.0922299 0.731878
  3490 32.1636 0.0922066 -0.731617
  3491 16.6741 -4.06919 6.24745
  3492 35.5443 0.124858 -1.15931
  3493 35.5466 0.124871 1.15958
  3494 30.1453 2.41461 -2.74106
  3495 30.1448 2.41487 2.74175
  3496 34.9182 0.467062 1.44831
  3497 34.9178 0.466533 -1.44905
  3498 36.3488 0.258619 1.15041
  3499 36.3488 0.258134 -1.15089
  3500 36.2213 -0.00359824 0.660796
  3501 36.2056 -0.00352480 -0.664365
  3502 47.1193 -3.65683 -0.495708
  3503 48.1348 -6.41858 -2.36197
  3504 48.2998 -6.45830 2.26824
  3505 39.7193 3.16689 0.563714
  3506 31.2619 1.50725 2.06047
  3507 31.2620 1.50701 -2.05985
  3508 17.5298 -3.16387 6.66610
  3509 17.5218 -3.15722 -6.66142
  3510 39.1657 1.37583 2.43484
  3511 36.1927 0.923774 3.91319
  3512 36.1907 0.923907 -3.91260
  3513 40.0058 -0.0668976 0.453819
  3514 40.0062 -0.0671658 -0.453633
  3515 24.9591 2.53903 -2.53969
  3516 24.9622 2.53908 2.53721
  3517 27.4100 3.38743 3.54531
  3518 27.4114 3.38719 -3.54427
  3519 34.5852 1.39962 -6.52390
  3520 34.5877 1.39834 6.52447
  3521 45.2751 -6.13934 -3.35345
  3522 31.0702 1.62342 1.81310
  3523 31.0705 1.62314 -1.81254
  3524 13.3927 -10.3404 -7.72017
  3525 33.3760 1.14412 3.24895
  3526 33.3749 1.14406 -3.24821
  3527 31.3702 1.34038 -1.84910
  3528 31.3702 1.34062 1.84968
  3529 93.2506 6.79156 -1.07803
  3530 29.4508 1.62972 7.15303
  3531 29.4484 1.63177 -7.15142
  3532 44.7718 6.39181 1.96367
  3533 62.7555 0.428389 4.76313
  3534 31.0886 -0.260430 -4.52790
  3535 31.0910 -0.257470 4.52675
  3536 35.8655 0.598219 -2.98509
  3537 35.8675 0.598191 2.98565
  3538 57.1601 -2.20168 5.37238
  3539 57.1510 -2.23627 -5.35653
  3540 38.7050 0.00282374 -0.729272
  3541 38.7046 0.00321971 0.729229
  3542 71.7888 3.32005 -0.449971
  3543 31.4222 1.66059 2.78250
  3544 31.4221 1.66039 -2.78177
  3545 34.0146 0.316451 1.73285
  3546 34.0129 0.316412 -1.73239
  3547 37.6852 -3.23887 -7.19745
  3548 37.6900 -3.23897 7.19860
  3549 39.3635 -0.0669334 -0.603345
  3550 39.3630 -0.0665534 0.603454
  3551 31.7122 1.63507 -0.749714
  3552 31.7134 1.63504 0.749369
  3553 38.6305 0.00572879 -0.570294
  3554 38.6222 0.00619661 0.571254
  3555 113.900 2.69264 -2.62082
  3556 40.5289 -0.969493 -2.01457
  3557 40.5297 -0.969605 2.01714
  3558 40.8891 0.166988 2.09877
  3559 34.2874 -0.0271388 2.46822
  3560 34.2865 -0.0283430 -2.46960
  3561 31.4364 1.46351 -2.30301
  3562 31.4365 1.46373 2.30367
  3563 34.8627 -7.46713 -6.78626
  3564 34.8309 -7.43006 6.79194
  3565 24.4178 3.36102 -0.325118
  3566 24.4214 3.36033 0.324241
  3567 32.4501 0.341475 -1.39972
  3568 32.4512 0.341540 1.40017
  3569 43.1405 0.00765611 -5.69682
  3570 43.1440 0.00641537 5.69570
  3571 36.0051 -5.77788 -7.65983
  3572 29.6915 2.56848 1.96807
  3573 29.6924 2.56817 -1.96758
  3574 57.0921 -0.520013 -1.56641
  3575 57.0908 -0.520126 1.56322
  3576 46.9623 4.15286 -3.43040
  3577 23.5182 -7.81581 10.3020
  3578 30.2619 2.53998 -3.59919
  3579 30.2617 2.54015 3.60007
  3580 37.1115 0.297555 1.88159
  3581 40.5330 -5.97015 4.85093
  3582 40.6548 2.38554 -2.65935
  3583 24.7375 0.301144 -5.91363
  3584 24.7402 0.300413 5.90775
  3585 40.9616 -0.0272307 -0.257360
  3586 40.9610 -0.0271424 0.257499
  3587 40.2355 3.11992 -1.59423
  3588 33.3678 0.551407 -2.10375
  3589 33.3691 0.551475 2.10432
  3590 45.0437 2.38601 -3.64672
  3591 39.9102 2.23773 -2.11638
  3592 37.9919 0.738590 -2.21476
  3593 30.0403 2.65051 4.13932
  3594 30.0405 2.65044 -4.13831
  3595 32.4522 1.35460 -1.00471
  3596 32.4534 1.35465 1.00424
  3597 44.7147 5.25412 -2.86732
  3598 32.1495 0.0108731 0.154307
  3599 32.1479 0.0108743 -0.154252
  3600 40.5706 -0.762666 -1.20225
  3601 40.5707 -0.763456 1.20446
  3602 25.8250 3.45070 -0.407144
  3603 25.8222 3.45114 0.406764
  3604 37.7073 1.05866 5.50487
  3605 37.7048 1.05936 -5.50460
  3606 23.6251 3.73360 -1.39816
  3607 23.6212 3.73462 1.39862
  3608 39.5713 -0.365305 -0.503743
  3609 39.5706 -0.364519 0.504281
  3610 38.3875 0.0925984 6.93527
  3611 38.3835 0.0943660 -6.93582
  3612 40.6342 -0.438714 0.882392
  3613 40.6351 -0.438129 -0.880420
  3614 48.1187 0.381221 2.93061
  3615 25.8994 3.07488 -1.11720
  3616 25.9022 3.07477 1.11596
  3617 39.7925 -0.281173 -0.459538
  3618 39.7920 -0.280550 0.460033
  3619 41.7413 -2.97251 -0.470651
  3620 41.7429 -2.97292 0.474560
  3621 33.6194 0.770524 1.66400
  3622 33.6185 0.770063 -1.66484
  3623 39.0927 -6.08956 -6.18499
  3624 39.0963 -6.08372 6.19766
  3625 44.2697 -0.730338 3.23822
  3626 33.9257 0.0300436 -0.624555
  3627 33.9277 0.0300487 0.624737
  3628 29.0991 1.87145 -2.22652
  3629 29.1010 1.87225 2.22552
  3630 42.7464 4.53672 -2.21683
  3631 66.3780 10.0318 -3.28586
  3632 42.5628 0.241195 3.21783
  3633 42.5597 0.241396 -3.21784
  3634 19.7133 -10.4443 5.12456
  3635 19.6657 -10.4670 -5.12224
  3636 40.4822 -0.0457197 -0.356418
  3637 40.4817 -0.0455501 0.356582
  3638 39.7826 0.363879 -3.09454
  3639 39.7854 0.363746 3.09481
  3640 35.0747 0.0638013 0.787042
  3641 35.0724 0.0637945 -0.786837
  3642 33.4848 0.0284233 -0.531381
  3643 33.4868 0.0284253 0.531547
  3644 32.4019 0.0667836 0.615668
  3645 32.4004 0.0667679 -0.615458
  3646 33.5095 0.281202 -1.00927
  3647 40.7800 0.111128 -2.16243
  3648 57.5743 2.77956 -5.25790
  3649 24.7313 3.61805 3.30615
  3650 24.7338 3.61766 -3.30470
  3651 60.0166 4.56959 2.78289
  3652 27.5557 3.29659 4.10032
  3653 27.5568 3.29652 -4.09909
  3654 60.4782 5.90938 -6.89913
  3655 34.6921 0.268188 1.72088
  3656 34.6902 0.268167 -1.72046
  3657 34.5032 0.133072 1.20394
  3658 34.5012 0.133060 -1.20362
  3659 41.1528 -3.66347 -0.956173
  3660 41.1445 -3.66008 0.970255
  3661 31.5698 1.72866 0.255549
  3662 31.5687 1.72883 -0.255691
  3663 42.2913 -6.12254 -4.09075
  3664 57.7858 6.58304 16.5386
  3665 30.1013 1.58040 -2.34373
  3666 30.1031 1.58120 2.34282
  3667 18.7338 -4.55092 -7.11364
  3668 18.7451 -4.55663 7.11566
  3669 37.9808 -4.72402 -5.20205
  3670 30.7196 1.77663 -1.36055
  3671 30.7212 1.77690 1.35998
  3672 24.4733 -5.35503 -8.04091
  3673 24.4860 -5.35677 8.03603
  3674 31.3215 1.09788 2.39794
  3675 31.3198 1.09709 -2.39891
  3676 53.6844 -4.31772 -1.98550
  3677 53.6448 -4.17126 1.84780
  3678 40.0345 -0.436490 -2.75253
  3679 40.0315 -0.429895 2.75422
  3680 39.8202 -3.13935 -1.57972
  3681 39.8141 -3.13392 1.57654
  3682 35.2268 0.381794 2.26185
  3683 35.2249 0.381784 -2.26135
  3684 56.0928 10.4786 0.997396
  3685 40.3511 -3.00917 -0.955132
  3686 40.3431 -3.00440 0.957068
  3687 32.1110 0.458841 3.05676
  3688 32.1091 0.457573 -3.05802
  3689 52.1620 0.0173431 -1.88428
  3690 52.1644 0.0171834 1.88356
  3691 39.7541 -1.09118 0.301635
  3692 39.7554 -1.09265 -0.300441
  3693 40.7609 -1.20652 -1.76429
  3694 40.7621 -1.20718 1.76653
  3695 39.4847 3.07446 -0.552723
  3696 27.3204 2.64871 -1.54286
  3697 27.3226 2.64909 1.54177
  3698 30.9543 1.95229 -0.621363
  3699 30.9557 1.95226 0.621080
  3700 40.5530 -7.26927 7.25697
  3701 33.9566 -6.84885 9.45377
  3702 49.4233 0.0171871 0.781231
  3703 49.4197 0.0172083 -0.781363
  3704 47.0245 6.91510 -2.58837
  3705 53.2257 -0.261252 6.07110
  3706 51.8513 0.0415379 0.810829
  3707 51.8483 0.0415672 -0.811046
  3708 35.7801 -5.09487 -6.96098
  3709 35.3401 -1.43476 -3.39706
  3710 35.3414 -1.43202 3.39471
  3711 31.2899 1.82224 -0.00772708
  3712 31.2888 1.82245 0.00768774
  3713 51.0993 -0.0210908 -2.91698
  3714 51.1016 -0.0215213 2.91568
  3715 33.0373 -7.46353 10.2367
  3716 21.2698 2.41785 -2.80749
  3717 21.2766 2.41577 2.80447
  3718 26.1326 -1.16845 -8.03517
  3719 26.1384 -1.17209 8.03595
  3720 39.2886 -2.72669 -1.72304
  3721 39.2838 -2.72510 1.72225
  3722 37.6615 -0.786480 1.40127
  3723 37.6626 -0.788229 -1.40158
  3724 38.4769 -2.05660 -1.77855
  3725 38.4738 -2.05353 1.77814
  3726 22.2975 3.31753 -0.762674
  3727 22.3029 3.31601 0.761585
  3728 56.5638 -1.58708 0.784693
  3729 56.5595 -1.58072 -0.785471
  3730 40.0103 -0.297819 1.33066
  3731 40.0125 -0.297559 -1.32844
  3732 47.2518 1.66236 3.08736
  3733 28.7615 2.88130 5.21266
  3734 28.7616 2.88170 -5.21122
  3735 61.5648 -0.231817 -0.688038
  3736 61.5717 -0.232787 0.690667
  3737 32.6889 0.0291296 -0.481665
  3738 32.6905 0.0291364 0.481829
  3739 47.0056 0.0286381 -3.86482
  3740 47.0086 0.0281233 3.86391
  3741 80.0285 5.04321 -2.71018
  3742 30.4027 2.17903 -0.385924
  3743 30.4015 2.17925 0.385985
  3744 36.2418 0.303112 2.02117
  3745 36.2395 0.303106 -2.02076
  3746 32.2886 -6.72963 -9.94982
  3747 32.2818 -0.542315 -4.21754
  3748 32.2842 -0.540001 4.21577
  3749 52.8167 10.0374 -1.32532
  3750 41.6272 -0.0308528 0.182942
  3751 41.6291 -0.0307964 -0.182397
  3752 35.5757 -4.97777 6.91583
  3753 42.1831 3.47921 2.75425
  3754 30.3981 2.21305 0.668032
  3755 30.3991 2.21278 -0.667870
  3756 34.7648 0.220010 7.57098
  3757 34.7608 0.222096 -7.57087
  3758 32.7240 1.07156 1.55242
  3759 32.7228 1.07123 -1.55316
  3760 34.0477 0.864548 1.10197
  3761 34.0470 0.864386 -1.10251
  3762 39.5496 -4.24552 3.30862
  3763 39.4808 -4.20072 -3.27834
  3764 40.7487 1.02089 0.533353
  3765 30.1053 2.31226 0.888838
  3766 30.1064 2.31199 -0.888625
  3767 22.8330 -0.613948 -5.79572
  3768 30.0796 2.35202 -0.337413
  3769 30.0783 2.35222 0.337437
  3770 38.3779 -2.64393 2.34890
  3771 38.3812 -2.64684 -2.35010
  3772 33.9378 0.664370 2.53339
  3773 33.9364 0.664315 -2.53277
  3774 40.6683 -1.08590 -1.53966
  3775 40.6691 -1.08670 1.54190
  3776 39.4058 -0.618842 0.558706
  3777 39.4068 -0.619956 -0.558040
  3778 23.6313 -7.98157 -10.2422
  3779 48.9840 0.0150319 2.00258
  3780 48.9809 0.0151434 -2.00300
  3781 40.0476 0.639780 5.51085
  3782 40.0447 0.640575 -5.51102
  3783 38.2558 -1.66824 1.63907
  3784 38.2583 -1.67097 -1.63940
  3785 37.9430 -0.0243162 -0.546255
  3786 37.9333 -0.0229903 0.546402
  3787 67.0838 6.03342 -1.02104
  3788 31.5735 -3.41598 -7.53705
  3789 31.6350 -3.35810 7.46449
  3790 43.8137 0.0735250 -1.87267
  3791 43.8171 0.0734689 1.87268
  3792 34.9108 0.0162161 -0.274752
  3793 34.9133 0.0162164 0.274827
  3794 51.0748 -1.90195 -3.05488
  3795 51.0798 -1.90271 3.05073
  3796 31.5092 1.12166 -1.72188
  3797 31.5093 1.12188 1.72244
  3798 40.6361 -0.0810253 -0.318683
  3799 40.6356 -0.0808175 0.318971
  3800 28.9896 2.79745 0.957729
  3801 28.9910 2.79722 -0.957594
  3802 31.3178 1.65839 -2.58793
  3803 31.3179 1.65861 2.58864
  3804 29.8967 2.43365 -1.75618
  3805 29.8958 2.43394 1.75663
  3806 15.3483 -0.652909 4.10885
  3807 15.3501 -0.649350 -4.10002
  3808 39.8866 0.612429 -5.93720
  3809 39.8897 0.611370 5.93694
  3810 49.2302 -2.13402 0.702111
  3811 77.3963 3.79218 5.23751
  3812 35.7994 0.814454 3.52493
  3813 35.7975 0.814532 -3.52432
  3814 30.4814 0.581105 7.78328
  3815 30.4776 0.583633 -7.78232
  3816 27.8138 -7.41910 7.33380
  3817 27.7951 -7.43255 -7.35619
  3818 52.0710 -0.691940 -3.31322
  3819 52.0733 -0.693018 3.31017
  3820 37.3851 -0.337801 1.28572
  3821 37.3857 -0.338996 -1.28608
  3822 29.3105 2.92928 4.28001
  3823 29.3109 2.92925 -4.27890
  3824 37.4244 -4.17569 -7.33056
  3825 37.4284 -4.17371 7.33333
  3826 42.0690 1.18615 3.44319
  3827 39.1265 -0.270083 -0.694044
  3828 39.1259 -0.269348 0.694295
  3829 52.9481 0.435043 6.13287
  3830 43.2971 -1.90312 2.57466
  3831 43.2524 -1.90941 -2.55033
  3832 41.8697 2.49013 3.10716
  3833 32.7775 0.290033 -1.38774
  3834 32.7787 0.290084 1.38818
  3835 47.0912 0.463199 8.85862
  3836 33.5850 0.897811 1.31302
  3837 33.5842 0.897548 -1.31368
  3838 33.6423 1.27330 3.64045
  3839 33.6411 1.27329 -3.63968
  3840 40.7810 -0.142514 0.653162
  3841 40.7834 -0.142260 -0.651640
  3842 40.2966 2.37919 2.38856
  3843 46.2293 1.10872 4.02153
  3844 41.1147 -3.31363 9.71931
  3845 42.8847 0.891890 3.56353
  3846 37.0265 0.128650 -1.05184
  3847 37.0263 0.129184 1.05148
  3848 44.4507 -1.29690 -2.99197
  3849 48.1235 -4.19976 1.11209
  3850 32.5145 0.917787 2.35984
  3851 32.5137 0.917660 -2.35918
  3852 32.6722 0.616769 1.96323
  3853 32.6712 0.616674 -1.96265
  3854 32.1038 1.41854 1.21429
  3855 32.1025 1.41840 -1.21484
  3856 50.5052 -0.664030 -6.96904
  3857 30.8106 1.45054 -2.10497
  3858 30.8123 1.45117 2.10414
  3859 31.8100 1.46656 2.77532
  3860 31.8097 1.46638 -2.77458
  3861 30.4643 2.08535 1.16002
  3862 30.4652 2.08506 -1.15969
  3863 49.9153 -2.63459 -3.09790
  3864 49.9228 -2.63540 3.09380
  3865 103.237 5.29896 -2.62409
  3866 40.8953 -0.308204 -0.221278
  3867 40.8951 -0.308644 0.222522
  3868 31.1148 1.70680 2.15211
  3869 31.1149 1.70654 -2.15149
  3870 34.1987 0.150461 1.25392
  3871 34.1968 0.150446 -1.25358
  3872 6.40649 -0.130499 -0.000119200
  3873 6.60000 -0.501235 0.0150740
  3874 6.44926 -0.164773 -0.299129
  3875 6.40965 -0.112412 0.317784
  3876 6.27573 0.0748048 -0.155513
  3877 6.25732 0.0820276 0.149046
  3878 6.58871 -0.539199 -0.323854
  3879 6.23628 0.0678526 -0.0101074
  3880 6.57334 -0.466182 0.355036
  3881 6.71244 -0.854012 -0.00100192
  3882 6.68019 -0.739404 0.259777
  3883 6.50211 -0.278700 -0.0998857
  3884 6.49311 -0.267428 0.109398
  3885 6.44208 -0.201084 -0.466000
  3886 6.26478 0.150809 -0.295591
  3887 6.26156 0.150150 0.294118
  3888 6.38406 -0.0785610 -0.151244
  3889 6.67981 -0.802430 -0.265579
  3890 6.17448 0.128740 0.0722872
  3891 6.18589 0.128358 -0.0807363
  3892 6.42924 -0.150884 0.470665
  3893 6.37386 -0.0722003 0.152125
  3894 6.31570 -0.00233344 -0.0579132
  3895 6.31247 -0.00139048 0.0694583
  3896 6.33078 0.0482531 -0.415796
  3897 6.29975 0.108542 0.419180
  3898 6.57787 -0.440544 -0.176179
  3899 6.73916 -0.970624 0.124337
  3900 6.56210 -0.414982 0.200823
  3901 6.75134 -0.979229 -0.178437
  3902 6.65026 -0.625674 -0.117222
  3903 6.64752 -0.701246 0.0933665
  3904 6.54794 -0.521129 -0.518638
  3905 6.62656 -0.591871 0.462246
  3906 6.18665 0.231840 0.210376
  3907 6.18593 0.230616 -0.221716
  3908 6.16421 0.122692 -0.0275859
  3909 6.49261 -0.340659 0.538598
  3910 6.15286 0.190487 0.127880
  3911 6.15290 0.125453 0.0118606
  3912 6.17251 0.188737 -0.136300
  3913 6.51630 -0.334259 -0.329212
  3914 6.48847 -0.285171 0.335434
  3915 6.54161 -0.351695 0.0174714
  3916 6.34938 -0.00544417 -0.254215
  3917 6.34788 0.00157745 0.253369
  3918 6.49544 -0.277889 -0.220063
  3919 6.47101 -0.232568 0.00446977
  3920 6.45503 -0.246429 -0.564092
  3921 6.35717 -0.0144658 -0.538797
  3922 6.24071 0.0645736 0.0556116
  3923 6.43043 -0.164456 -0.0882533
  3924 6.42806 -0.159263 0.0921210
  3925 6.24918 0.230787 -0.385231
  3926 6.26331 0.0746080 -0.0982122
  3927 6.69786 -0.913197 0.333530
  3928 6.64842 -0.716169 -0.465277
  3929 6.32047 0.0889800 0.514996
  3930 6.43117 -0.150583 0.194577
  3931 6.62060 -0.614824 0.280160
  3932 6.23176 0.233074 0.364284
  3933 6.76318 -1.04615 0.0186288
  3934 6.53743 -0.403201 -0.402348
  3935 6.37479 -0.0722817 -0.0746350
  3936 6.69703 -0.790874 0.132116
  3937 6.49541 -0.246702 0.224273
  3938 6.43559 -0.162645 -0.192916
  3939 6.35029 -0.0402921 -0.00521299
  3940 6.37446 -0.0971163 0.602705
  3941 6.37582 -0.0843865 0.0651716
  3942 6.67067 -0.729917 -0.178868
  3943 6.19285 0.284874 -0.301075
  3944 6.32006 -0.00124341 -0.129625
  3945 6.15293 0.206726 -0.101343
  3946 6.29071 0.0832025 -0.239739
  3947 6.13373 0.155897 0.0303962
  3948 6.27547 0.0865052 0.212001
  3949 6.13449 0.164054 -0.0445894
  3950 6.18896 0.254519 0.280028
  3951 6.40099 -0.0766725 -0.423712
  3952 6.14363 0.181527 0.0819272
  3953 6.29939 0.0129631 0.00996914
  3954 6.30979 0.0121096 0.119265
  3955 6.71733 -0.907920 -0.297364
  3956 6.34574 0.00473845 -0.324887
  3957 6.49884 -0.299947 0.428743
  3958 6.60256 -0.505696 0.129476
  3959 6.23281 0.103416 0.0922821
  3960 6.37744 -0.0489861 0.386550
  3961 6.22191 0.0844680 -0.0418067
  3962 6.65284 -0.670386 -0.0109221
  3963 6.35080 0.00933418 0.327602
  3964 6.65073 -0.733989 0.479795
  3965 6.54320 -0.471718 0.546521
  3966 6.14542 0.257758 0.167268
  3967 6.57295 -0.435301 -0.0729952
  3968 6.64465 -0.663003 -0.359858
  3969 6.15186 0.248798 -0.167158
  3970 6.56311 -0.413327 0.0875756
  3971 6.12949 0.133148 -0.0183209
  3972 6.73502 -1.00457 0.244079
  3973 6.39547 -0.0761595 -0.599037
  3974 6.25985 0.190711 -0.475648
  3975 6.75000 -0.920671 0.0306896
  3976 6.24650 0.224450 0.488016
  3977 6.61326 -0.531570 -0.206282
  3978 6.59366 -0.494291 0.242555
  3979 6.63617 -0.661915 0.358076
  3980 6.68771 -0.870900 -0.421401
  3981 6.55671 -0.455922 0.459692
  3982 6.21228 0.0920597 0.0237202
  3983 6.20456 0.172879 0.164033
  3984 6.18644 0.104897 -0.00992004
  3985 6.77521 -1.09746 0.139088
  3986 6.21017 0.164539 -0.173818
  3987 6.22091 0.120518 -0.124078
  3988 6.27228 0.0438554 -0.0473335
  3989 6.49575 -0.374854 -0.612711
  3990 6.34525 -0.00926796 -0.180507
  3991 6.60674 -0.523978 -0.0921808
  3992 6.70446 -0.855193 -0.146009
  3993 6.78029 -1.10259 -0.155808
  3994 6.12414 0.243826 -0.123314
  3995 6.30553 0.155806 -0.549185
  3996 6.64494 -0.634251 -0.240027
  3997 6.33425 0.0124640 0.185182
  3998 6.33291 0.0653937 0.591001
  3999 6.45070 -0.205605 0.609472
  4000 6.28112 0.0482674 0.0901858
  4001 6.46372 -0.198709 -0.359707
  4002 6.57407 -0.597637 -0.563009
  4003 6.18485 0.265637 -0.358552
  4004 6.11116 0.262971 0.126325
  4005 6.70802 -0.880979 0.226738
  4006 6.53225 -0.340713 -0.150041
  4007 6.14253 0.153412 0.0226972
  4008 6.24772 0.158820 0.246649
  4009 6.11222 0.281203 -0.244447
  4010 6.61924 -0.611311 0.558254
  4011 6.25310 0.178564 -0.260199
  4012 6.52378 -0.315629 0.162476
  4013 6.13251 0.136847 -0.0225365
  4014 6.28456 0.133839 0.338534
  4015 6.66580 -0.692249 0.190005
  4016 6.53752 -0.384266 0.311962
  4017 6.43038 -0.172061 0.387393
  4018 6.13786 0.300400 0.201509
  4019 6.18334 0.120362 -0.0576243
  4020 6.20804 0.286299 0.421269
  4021 6.28998 0.128613 -0.357614
  4022 6.56597 -0.439763 -0.286403
  4023 6.63292 -0.595045 0.0592786
  4024 6.19416 0.331770 0.340401
  4025 6.39602 -0.0871389 0.257702
  4026 6.57764 -0.524501 -0.431755
  4027 6.08624 0.173562 -0.0633944
  4028 6.66559 -0.779486 0.366643
  4029 6.18783 0.144642 0.102944
  4030 6.39291 -0.103343 -0.478172
  4031 6.52975 -0.359733 -0.245956
  4032 6.17333 0.129602 0.0426603
  4033 6.76094 -1.15841 -0.0587829
  4034 6.40820 -0.100037 -0.268020
  4035 6.50935 -0.324544 0.258282
  4036 6.71754 -0.891748 -0.226146
  4037 6.18931 0.149849 -0.0985310
  4038 6.10220 0.182186 0.0520720
  4039 6.50495 -0.293528 -0.0282203
  4040 6.49930 -0.288314 0.0422133
  4041 6.67965 -0.753820 0.0222514
  4042 6.45977 -0.203222 -0.127906
  4043 6.47283 -0.212127 0.293302
  4044 6.43699 -0.199137 0.527660
  4045 6.29581 0.0244088 -0.0968405
  4046 6.49169 -0.268794 -0.411373
  4047 6.46914 -0.225711 -0.0625822
  4048 6.46567 -0.220718 0.0700884
  4049 6.65938 -0.714291 -0.262776
  4050 6.30760 0.0684919 -0.295251
  4051 6.52322 -0.394577 -0.509024
  4052 6.29729 0.0648692 0.293697
  4053 6.45410 -0.195980 0.134336
  4054 6.44510 -0.175975 -0.628484
  4055 6.43592 -0.177879 0.0324763
  4056 6.43705 -0.177292 -0.0279000
  4057 6.38300 -0.0291388 0.456439
  4058 6.20949 0.136594 0.128762
  4059 6.68202 -0.750747 -0.0756331
  4060 6.23715 0.140377 0.195754
  4061 6.28093 0.0374407 0.0481392
  4062 6.23631 0.133153 -0.211603
  4063 6.20228 0.0957724 -0.0306776
  4064 6.63618 -0.575350 -0.0286640
  4065 6.56236 -0.426423 0.00239038
  4066 6.76836 -1.03570 -0.274030
  4067 6.13555 0.310797 -0.206164
  4068 6.63699 -0.596711 0.165679
  4069 6.65707 -0.854041 0.444102
  4070 6.40643 -0.123477 -0.0541411
  4071 6.20902 0.274876 -0.419106
  4072 6.34550 0.0432978 -0.486042
  4073 6.39588 -0.100780 0.105731
  4074 6.39585 -0.0799157 -0.200512
  4075 6.40734 -0.132008 0.148519
  4076 6.12277 0.290477 0.228447
  4077 6.45270 -0.202934 -0.236128
  4078 6.81525 -1.15781 0.0394679
  4079 6.74491 -0.948098 -0.0608443
  4080 6.47949 -0.280189 -0.484722
  4081 6.28985 0.211366 0.552169
  4082 6.41803 -0.153947 -0.523440
  4083 6.38415 -0.0714789 0.200303
  4084 6.07137 0.139022 0.0111781
  4085 6.39788 -0.106062 -0.107307
  4086 6.48273 -0.367527 0.627489
  4087 6.41478 -0.141516 -0.146091
  4088 6.23408 0.212972 -0.340073
  4089 6.37961 -0.0828298 -0.0277939
  4090 6.47776 -0.245358 -0.170338
  4091 6.37321 -0.0698939 0.529607
  4092 6.43738 -0.182680 -0.429638
  4093 6.60884 -0.592488 -0.461409
  4094 6.40386 -0.127182 0.0531362
  4095 6.34068 0.0650046 -0.604612
  4096 6.71203 -0.967354 -0.366798
  4097 6.21240 0.103248 0.0558683
  4098 6.09430 0.218392 0.0885055
  4099 6.65792 -0.776554 -0.527512
  4100 6.60487 -0.559327 0.387361
  4101 6.47578 -0.232270 0.175865
  4102 6.49122 -0.252602 -0.281244
  4103 6.36027 -0.0514509 -0.124800
  4104 6.44889 -0.173623 0.243495
  4105 6.37377 -0.0846029 0.0214441
  4106 6.26968 0.170476 -0.420251
  4107 6.34720 -0.0413607 -0.0452082
  4108 6.15613 0.154793 -0.0833603
  4109 6.70085 -0.993651 0.351963
  4110 6.26007 0.220356 0.320776
  4111 6.24942 0.0490899 0.0249318
  4112 6.39341 -0.0965834 -0.352565
  4113 6.53872 -0.357730 -0.0579457
  4114 6.31546 -0.0113089 -0.0273563
  4115 6.22672 0.103996 -0.0754954
  4116 6.35280 -0.0458561 0.107000
  4117 6.53079 -0.497162 0.617729
  4118 6.15596 0.285054 0.366883
  4119 6.68348 -0.793764 -0.375060
  4120 6.33750 -0.0213050 -0.0897883
  4121 6.72268 -0.891290 0.102182
  4122 6.34874 -0.0377665 0.0424440
  4123 6.76235 -1.06400 -0.0853064
  4124 6.14374 0.155137 0.0601458
  4125 6.29827 0.0779788 0.250266
  4126 6.52410 -0.329044 0.0818930
  4127 6.04305 0.161054 -0.0168579
  4128 6.80269 -1.20336 -0.0176339
  4129 6.17743 0.388729 0.371327
  4130 6.19884 0.383825 -0.339235
  4131 6.15089 0.384479 0.294554
  4132 6.11853 0.321899 0.223415
  4133 6.13989 0.338533 0.191089
  4134 6.10437 0.290387 0.148989
  4135 6.07932 0.260924 0.0907347
  4136 6.10828 0.216362 0.0647029
  4137 6.05510 0.201610 0.0500214
  4138 6.10513 0.165000 0.0283046
  4139 6.07715 0.149681 0.0333947
  4140 6.12098 0.132564 -0.0337036
  4141 6.13150 0.166471 -0.0246216
  4142 6.07750 0.177951 -0.0330904
  4143 6.08566 0.201861 -0.0756743
  4144 6.14432 0.266331 -0.107992
  4145 6.09780 0.257995 -0.138357
  4146 6.14180 0.339382 -0.188398
  4147 6.10956 0.318402 -0.239097
  4148 6.14115 0.370235 -0.287173
  4149 6.18333 0.340285 -0.384554
  4150 6.21769 0.335152 -0.458864
  4151 6.24368 0.254099 -0.521215
  4152 6.29756 0.159140 -0.602584
  4153 6.34247 0.00431301 -0.630802
  4154 6.38803 -0.131141 -0.639673
  4155 6.41562 -0.294980 -0.661881
  4156 6.48973 -0.507782 -0.649973
  4157 6.52617 -0.635946 -0.610623
  4158 6.62283 -0.691563 -0.578969
  4159 6.68379 -0.919573 -0.471937
  4160 6.75571 -1.02969 -0.355901
  4161 6.80726 -1.10940 -0.230352
  4162 6.76870 -1.15748 -0.119260
  4163 6.85857 -1.15598 0.115295
  4164 6.73057 -1.08972 0.251769
  4165 6.68751 -1.05228 0.342878
  4166 6.67549 -0.947423 0.456368
  4167 6.63894 -0.772953 0.536035
  4168 6.59162 -0.591516 0.625083
  4169 6.47565 -0.448613 0.672192
  4170 6.43634 -0.269934 0.663452
  4171 6.38101 -0.148913 0.645003
  4172 6.31573 -0.0156836 0.638125
  4173 6.29911 0.193182 0.596446
  4174 6.23195 0.266927 0.521553
  4175 6.20721 0.327952 0.461086
  4176 6.17151 0.331829 0.388966
</Section>

newXOutput 6

<Section columns = "stress_xx | stress_yy | stress_xy">
  1 37.3976 0.0498641 -0.112867
  2 37.3978 0.0498830 0.112889
  3 49.7049 -0.0146216 0.0281291
  4 49.7046 -0.0146431 -0.0281487
  5 122.814 7.64345 1.44819
  6 155.078 2.09453 0.201619
  7 39.7034 -0.00333638 -0.129247
  8 39.7053 -0.00333159 0.129294
  9 51.7848 -0.00334816 0.0975979
  10 51.7859 -0.00335480 -0.0976020
  11 5.47150 -38.1067 1.57152
  12 5.61436 -38.3853 -1.73077
  13 43.2587 0.596992 -0.0600526
  14 43.2584 0.597323 0.0600427
  15 50.3737 -0.0888027 0.0762869
  16 37.4324 0.0609686 -0.183856
  17 37.4330 0.0609752 0.183950
  18 50.3743 -0.0888129 -0.0763487
  19 41.5608 1.46364 -0.944146
  20 41.5619 1.46358 0.943688
  21 39.6354 0.117855 0.0722934
  22 36.0142 0.481215 0.0190136
  23 39.9833 0.0121227 -0.124972
  24 40.2168 0.0169621 -0.137226
  25 40.5791 0.0165330 -0.197905
  26 40.8810 0.0127499 -0.173606
  27 41.2213 0.0148626 -0.203820
  28 41.6635 0.00453830 -0.222064
  29 42.0505 -0.0127230 -0.192486
  30 42.4960 -0.00178318 -0.181684
  31 42.9992 -0.00697044 -0.189019
  32 43.4385 0.00484885 -0.195913
  33 44.0145 0.0236017 -0.294391
  34 44.5939 0.0287290 -0.303027
  35 45.1968 0.0268644 -0.372715
  36 46.0023 0.00875725 -0.403879
  37 46.5777 -0.0135224 -0.394227
  38 47.4801 0.00218422 -0.392008
  39 48.1456 -0.00590730 -0.402894
  40 49.2216 -0.00663755 -0.395011
  41 50.0129 0.0255910 -0.490270
  42 50.9668 0.0462182 -0.571832
  43 52.1297 -0.0398933 -0.611661
  44 53.4231 -0.0469330 -0.570993
  45 54.4284 -0.0199560 -0.559786
  46 55.8770 -0.0103540 -0.566188
  47 56.9375 -0.00512348 -0.739343
  48 58.0787 0.0272794 -0.792790
  49 59.8682 -0.0919023 -0.715902
  50 61.5608 -0.0953933 -0.611889
  51 62.9168 -0.0746411 -0.653930
  52 64.7720 -0.0795716 -0.573968
  53 66.1225 -0.0479994 -0.772603
  54 67.9230 -0.0498727 -0.729114
  55 69.4995 -0.0408215 -0.854575
  56 70.6975 -0.0928092 -0.910351
  57 73.3157 -0.313966 -0.734742
  58 73.8438 -0.0640031 -0.668597
  59 75.6343 -0.0155368 -0.529220
  60 76.8720 -0.102181 -0.595652
  61 77.9490 -0.127923 -0.416687
  62 78.9038 -0.137134 -0.321763
  63 79.4442 -0.146399 -0.177442
  64 79.8113 -0.168426 -0.00952673
  65 79.8207 -0.212088 0.220900
  66 79.0055 -0.227997 0.419719
  67 78.6714 -0.222848 0.505004
  68 77.3662 -0.321856 0.720506
  69 75.0824 -0.241248 1.09632
  70 72.5421 -0.214381 1.43841
  71 69.8990 -0.147419 1.67138
  72 66.2346 -0.116875 1.89601
  73 62.8519 0.0178806 2.03614
  74 58.3414 0.0662163 2.02659
  75 55.1620 0.150966 2.06346
  76 50.1052 0.289404 1.70270
  77 46.8072 0.419567 1.87640
  78 43.2779 0.271676 1.23141
  79 41.4571 0.435527 1.43388
  80 37.5399 0.564693 0.696243
  81 37.4595 0.492173 0.655004
  82 36.4832 0.426107 -0.389855
  83 37.3158 0.546092 -0.838209
  84 39.4033 0.747632 -0.872231
  85 43.8951 0.358725 -1.59286
  86 46.8064 0.379623 -2.10699
  87 50.0101 0.295412 -1.88853
  88 55.2776 0.112715 -2.18757
  89 58.8793 -0.0507972 -2.27269
  90 62.5909 0.0315858 -1.78782
  91 66.3429 -0.0310110 -1.79387
  92 69.9161 -0.138639 -1.61797
  93 72.5677 -0.201990 -1.41550
  94 75.0861 -0.237099 -1.08791
  95 77.3596 -0.320620 -0.716823
  96 78.6595 -0.222138 -0.503222
  97 78.9918 -0.227147 -0.418887
  98 79.8060 -0.211581 -0.221016
  99 79.7979 -0.168102 0.00877312
  100 79.4329 -0.146232 0.176390
  101 78.8948 -0.137063 0.320614
  102 77.9423 -0.127930 0.415577
  103 76.8675 -0.102232 0.594615
  104 75.6316 -0.0156443 0.528371
  105 73.8430 -0.0641246 0.667862
  106 73.3160 -0.314000 0.734147
  107 70.6989 -0.0928201 0.909781
  108 69.5019 -0.0408832 0.854184
  109 67.9261 -0.0499270 0.728830
  110 66.1262 -0.0480503 0.772405
  111 64.7761 -0.0796090 0.573810
  112 62.9213 -0.0746699 0.653826
  113 61.5655 -0.0954221 0.611787
  114 59.8731 -0.0919316 0.715823
  115 58.0836 0.0272548 0.792761
  116 56.9425 -0.00516239 0.739358
  117 55.8821 -0.0103779 0.566200
  118 54.4334 -0.0199720 0.559827
  119 53.4280 -0.0469660 0.571026
  120 52.1344 -0.0399126 0.611725
  121 50.9714 0.0462188 0.571916
  122 50.0174 0.0255768 0.490358
  123 49.2260 -0.00665133 0.395071
  124 48.1498 -0.00591594 0.402971
  125 47.4841 0.00217397 0.392077
  126 46.5815 -0.0135336 0.394316
  127 46.0060 0.00875037 0.403966
  128 45.2003 0.0268625 0.372813
  129 44.5973 0.0287299 0.303114
  130 44.0178 0.0236034 0.294472
  131 43.4416 0.00484270 0.195972
  132 43.0022 -0.00697835 0.189070
  133 42.4989 -0.00178944 0.181735
  134 42.0532 -0.0127310 0.192542
  135 41.6661 0.00453408 0.222130
  136 41.2237 0.0148627 0.203890
  137 40.8833 0.0127507 0.173670
  138 40.5813 0.0165377 0.197977
  139 40.2189 0.0169606 0.137278
  140 39.9853 0.0121191 0.125014
  141 38.5780 0.186656 0.170818
  142 40.1223 0.357485 0.139909
  143 41.4976 0.562172 0.121997
  144 44.9545 0.448734 -0.0192260
  145 46.7131 0.294611 -0.0192134
  146 48.4195 0.105496 0.0130293
  147 52.1215 -0.0243270 -0.0721589
  148 52.2340 -0.0300475 -0.113772
  149 52.4443 -0.0396219 -0.0569870
  150 52.5653 -0.0345613 -0.100231
  151 52.6221 -0.0413879 -0.0384122
  152 52.7486 -0.0182364 -0.0182113
  153 52.6398 -0.0710840 -0.00920631
  154 52.4921 -0.0510080 0.110537
  155 52.4116 -0.0625321 0.155528
  156 52.0854 -0.0746279 0.174415
  157 51.4694 -0.0624581 0.287662
  158 50.8796 -0.0470076 0.342446
  159 49.9830 -0.0631301 0.442027
  160 49.0309 -0.0196941 0.601761
  161 47.8431 -0.00953783 0.468130
  162 46.7951 -0.00127082 0.507748
  163 45.3438 0.0295579 0.498820
  164 44.2077 0.0489445 0.610762
  165 42.8591 0.0675636 0.532510
  166 41.7340 0.0794937 0.488273
  167 40.6729 0.125384 0.362260
  168 39.8359 0.112684 0.228343
  169 39.8215 0.0703592 0.224911
  170 39.5203 0.221412 -0.225672
  171 39.8094 0.161217 -0.251327
  172 40.8930 0.129204 -0.422591
  173 41.8583 0.135976 -0.660375
  174 42.7398 0.0474192 -0.549956
  175 44.1924 0.0489814 -0.603682
  176 45.3443 0.0336956 -0.502564
  177 46.8062 -0.00362680 -0.511018
  178 47.8555 -0.0104601 -0.468161
  179 49.0408 -0.0199820 -0.600462
  180 49.9912 -0.0630845 -0.441024
  181 50.8856 -0.0469605 -0.341576
  182 51.4739 -0.0624013 -0.286956
  183 52.0884 -0.0745783 -0.173808
  184 52.4137 -0.0625032 -0.155090
  185 52.4934 -0.0509956 -0.110137
  186 52.6403 -0.0710409 0.00954360
  187 52.7486 -0.0181913 0.0184398
  188 52.6217 -0.0413490 0.0385871
  189 52.5646 -0.0345241 0.100336
  190 52.4434 -0.0395896 0.0570687
  191 52.2329 -0.0300209 0.113802
  192 52.1204 -0.0243066 0.0721788
  193 48.4193 0.105431 -0.0130533
  194 46.7131 0.294432 0.0191828
  195 44.9547 0.448458 0.0192010
  196 41.4979 0.561867 -0.121971
  197 40.1223 0.357286 -0.139870
  198 38.5778 0.186570 -0.170782
  199 37.0653 0.166812 -0.170467
  200 37.5671 0.0407352 -0.206308
  201 38.0090 0.0246252 -0.194789
  202 38.3835 0.0197828 -0.167008
  203 38.8339 0.00243527 -0.192517
  204 39.1121 -0.00163480 -0.165816
  205 39.3489 -0.00102457 -0.121114
  206 39.8090 0.0122320 -0.280888
  207 39.8542 0.0374483 -0.493015
  208 39.9857 0.0918903 -0.768119
  209 40.0480 0.154930 -0.999917
  210 40.0798 0.237157 -1.24558
  211 40.0131 0.350356 -1.41886
  212 40.0151 0.465269 -1.62030
  213 39.9232 0.613503 -1.77720
  214 39.8128 0.762712 -1.90021
  215 39.6926 0.931480 -1.99634
  216 39.5435 1.10432 -2.02728
  217 39.4284 1.25442 -2.02333
  218 39.2848 1.44847 -2.00029
  219 39.1556 1.61101 -1.89649
  220 39.0452 1.76099 -1.77482
  221 38.9935 1.90055 -1.59016
  222 38.9627 1.98402 -1.36511
  223 38.9994 2.09227 -1.10546
  224 39.0726 2.12467 -0.809773
  225 39.3190 2.07728 -0.480403
  226 39.6119 2.03567 -0.175221
  227 39.9481 1.93855 0.138884
  228 40.4013 1.82410 0.440388
  229 40.8931 1.62295 0.720281
  230 42.2109 1.20367 1.13994
  231 42.9353 1.00534 1.27096
  232 43.6287 0.811241 1.34569
  233 44.3898 0.637008 1.34652
  234 45.0437 0.450742 1.34339
  235 45.8016 0.320075 1.29111
  236 46.4673 0.202570 1.21309
  237 47.1036 0.134721 1.12491
  238 47.7961 0.0797174 1.00100
  239 48.3845 0.0490205 0.873955
  240 49.0010 0.00343934 0.758903
  241 49.6113 0.0310901 0.630460
  242 50.2195 0.0104485 0.497726
  243 50.7984 0.00585005 0.357212
  244 51.3504 0.0177187 0.200655
  245 51.6051 -0.0206375 0.0752558
  246 51.2547 -0.0259980 0.0876631
  247 50.8078 -0.0489614 0.133147
  248 49.7591 -0.0240814 0.117293
  249 51.3513 0.0177004 -0.200654
  250 50.7992 0.00578191 -0.357204
  251 50.2202 0.0103076 -0.497714
  252 49.6119 0.0308736 -0.630460
  253 49.0015 0.00312265 -0.758945
  254 48.3849 0.0486386 -0.874057
  255 47.7965 0.0792474 -1.00117
  256 47.1039 0.134203 -1.12520
  257 46.4675 0.202043 -1.21348
  258 45.8016 0.319560 -1.29161
  259 45.0435 0.450288 -1.34397
  260 44.3894 0.636646 -1.34714
  261 43.6281 0.810956 -1.34634
  262 42.9345 1.00516 -1.27159
  263 42.2100 1.20361 -1.14050
  264 40.8920 1.62309 -0.720635
  265 40.4001 1.82432 -0.440609
  266 39.9469 1.93883 -0.138979
  267 39.6107 2.03599 0.175255
  268 39.3179 2.07763 0.480550
  269 39.0716 2.12504 0.810038
  270 38.9986 2.09265 1.10583
  271 38.9620 1.98440 1.36557
  272 38.9930 1.90092 1.59069
  273 39.0448 1.76134 1.77542
  274 39.1554 1.61134 1.89713
  275 39.2848 1.44877 2.00096
  276 39.4286 1.25467 2.02402
  277 39.5439 1.10455 2.02797
  278 39.6932 0.931677 1.99701
  279 39.8135 0.762869 1.90086
  280 39.9241 0.613635 1.77781
  281 40.0162 0.465367 1.62086
  282 40.0143 0.350436 1.41935
  283 40.0811 0.237210 1.24602
  284 40.0495 0.154968 1.00027
  285 39.9873 0.0919153 0.768399
  286 39.8559 0.0374561 0.493197
  287 39.8109 0.0122332 0.280993
  288 39.3506 -0.00103341 0.121159
  289 39.1138 -0.00164931 0.165871
  290 38.8353 0.00242515 0.192587
  291 38.3848 0.0197787 0.167085
  292 38.0100 0.0246245 0.194873
  293 37.5679 0.0407303 0.206388
  294 37.0658 0.166822 0.170516
  295 49.7595 -0.0240734 -0.117350
  296 50.8086 -0.0489807 -0.133209
  297 51.2557 -0.0260102 -0.0876962
  298 51.6061 -0.0206503 -0.0752715
  299 7.45108 -34.2730 -0.820893
  300 9.27568 -24.7944 -1.31333
  301 15.2669 -10.6904 3.71791
  302 25.0519 -0.568335 9.01672
  303 43.3946 9.03961 17.8272
  304 62.2935 14.2711 24.6604
  305 83.2803 14.2920 25.5496
  306 104.636 12.2919 22.4757
  307 118.207 9.20435 12.8834
  308 115.133 10.4022 -11.5406
  309 103.555 11.7820 -23.3854
  310 83.0168 14.7587 -26.3677
  311 60.5183 14.1055 -23.7001
  312 41.9581 11.1828 -19.5759
  313 25.5297 1.52239 -10.0545
  314 16.7580 -9.44907 -5.00342
  315 9.63851 -26.0653 1.78261
  316 8.19091 -35.6804 0.869153
  317 5.80976 -41.8129 -6.00419
  318 5.64493 -34.6678 -6.95460
  319 6.86775 -26.6082 -6.66406
  320 11.6242 -15.0722 -2.00788
  321 18.9625 -5.70175 2.80617
  322 30.4424 2.87905 8.97396
  323 46.9510 6.23541 15.5771
  324 63.8448 10.7008 22.6050
  325 79.5718 10.5329 25.4721
  326 97.5957 10.2538 27.3366
  327 114.502 8.86625 23.8872
  328 134.111 5.73441 22.6569
  329 143.714 4.48133 14.7970
  330 151.461 2.07424 7.08177
  331 154.036 2.54537 -8.42596
  332 144.761 3.74448 -15.5103
  333 133.291 6.27847 -20.5000
  334 118.917 8.79903 -25.2434
  335 100.006 9.93430 -26.3250
  336 83.1977 11.3357 -26.6208
  337 62.5159 10.0109 -21.7309
  338 45.3877 6.82974 -15.1853
  339 28.1014 3.05326 -8.64571
  340 19.1205 -5.81646 -2.43274
  341 11.7919 -15.0188 1.98086
  342 6.89825 -26.5968 6.62046
  343 5.63872 -34.7238 6.91105
  344 5.79880 -42.0212 5.90751
  345 39.4168 0.568913 -0.838078
  346 41.7098 0.956177 -0.0755356
  347 45.6967 0.488715 0.482238
  348 39.1355 0.202629 -0.906528
  349 40.1122 1.14035 -0.719026
  350 47.9026 0.215495 0.577877
  351 39.4110 0.735696 -1.31228
  352 43.2673 0.952116 0.513295
  353 41.1607 1.43843 0.0527167
  354 39.5370 1.32166 -1.21458
  355 39.3224 0.0716354 -0.637179
  356 46.1187 0.476368 0.827984
  357 39.5519 0.357528 -1.24669
  358 39.5268 0.611964 -1.50563
  359 39.6979 1.57677 -0.864554
  360 49.4366 0.0848545 0.482357
  361 44.1694 0.798817 0.883102
  362 40.4141 0.694266 -0.413480
  363 47.7060 0.211999 0.790362
  364 39.3937 1.24374 -1.55999
  365 42.2719 1.24710 0.617488
  366 38.6909 0.155356 -0.606779
  367 47.6369 0.205008 0.276981
  368 43.3007 0.807949 0.189344
  369 45.3059 0.516192 1.07235
  370 39.9349 1.78544 -0.423456
  371 40.7211 1.66260 0.108651
  372 39.0702 0.250156 -0.318312
  373 46.7126 0.311689 1.02287
  374 39.4773 0.970262 -1.71558
  375 39.3295 1.67385 -1.28397
  376 39.5188 0.0211620 -0.392464
  377 50.5140 0.0229423 0.330613
  378 38.8217 0.0730931 -0.597359
  379 39.1422 0.387561 -0.969345
  380 39.6664 0.163731 -0.953784
  381 42.1375 0.630316 -0.0311296
  382 39.5644 0.863846 -1.03807
  383 44.6413 0.689525 0.630063
  384 49.2507 0.0742733 0.626234
  385 49.5867 0.0522492 0.359332
  386 39.6670 0.578829 -1.58835
  387 45.0655 0.504016 0.225706
  388 40.0494 0.883752 -0.689630
  389 43.3247 0.959346 1.01853
  390 41.5792 1.42716 0.542204
  391 38.4430 0.0864378 -0.512971
  392 42.1235 1.09634 0.147334
  393 38.1223 0.0853142 -0.220127
  394 46.7301 0.375656 0.620551
  395 40.3989 1.45281 -0.451303
  396 41.0354 1.12203 -0.278531
  397 39.3346 0.539846 -1.23205
  398 39.5868 0.0844400 -0.707991
  399 39.2814 1.46561 -1.62978
  400 39.4771 1.82941 -0.897466
  401 47.9229 0.134917 0.893966
  402 39.7278 0.357165 -1.35350
  403 48.5280 0.156344 0.336696
  404 40.7206 0.525537 -0.171355
  405 40.5411 0.981362 -0.495600
  406 39.4751 0.947164 -1.31474
  407 39.1855 0.0129739 -0.311607
  408 44.7113 0.616445 1.16098
  409 39.5483 0.920567 -1.84127
  410 39.7954 1.01660 -0.915266
  411 40.0852 1.83125 -0.118843
  412 49.9843 0.0392380 0.466208
  413 42.0453 1.31685 0.824505
  414 50.2210 0.0519673 0.285789
  415 46.0701 0.365511 1.10417
  416 39.3971 1.20114 -1.80036
  417 39.2240 0.178610 -0.859365
  418 39.6257 0.470887 -0.417603
  419 43.2700 0.992439 0.762457
  420 38.8658 0.0277436 -0.356241
  421 41.7609 1.34214 0.327935
  422 39.3650 0.420870 -1.20698
  423 47.1122 0.324823 0.757675
  424 41.4658 0.748715 -0.152828
  425 45.0872 0.648668 0.858877
  426 46.6041 0.324777 0.425770
  427 43.9455 0.811366 0.444105
  428 38.9911 0.304425 -0.536390
  429 39.1994 1.85834 -1.15316
  430 39.8823 0.275582 -1.23430
  431 39.4653 1.91151 -0.664732
  432 43.5547 0.650688 0.122126
  433 48.6482 0.141181 0.678888
  434 39.1784 1.67191 -1.55951
  435 39.7579 1.30153 -0.966453
  436 47.2745 0.212969 1.00161
  437 48.6738 0.0758426 0.768033
  438 38.8445 0.198009 -0.746999
  439 39.8278 0.495008 -1.57066
  440 39.6563 0.757534 -1.75469
  441 37.9189 0.0221465 -0.322703
  442 42.7702 1.09112 1.04078
  443 43.9135 0.803399 1.15825
  444 39.4784 1.09588 -1.88291
  445 40.4608 1.59735 -0.237376
  446 45.3919 0.461466 1.19016
  447 39.2768 1.41413 -1.78207
  448 39.6525 1.93490 -0.378079
  449 39.3642 0.624284 -1.07778
  450 45.6087 0.557088 0.662018
  451 46.4169 0.339593 0.256968
  452 39.1217 1.81772 -1.39261
  453 40.9040 1.60877 0.419094
  454 46.7386 0.240260 1.09332
  455 48.7877 0.101560 0.167398
  456 42.4774 0.894616 0.100546
  457 43.9769 0.823066 0.720037
  458 39.8993 0.427311 -0.289922
  459 50.9750 0.0134440 0.266918
  460 42.4587 1.14601 0.424911
  461 40.3793 1.78475 0.181785
  462 39.4244 0.201489 -0.953972
  463 39.3744 1.41911 -1.40695
  464 39.4493 1.67889 -1.07214
  465 47.7062 0.235194 0.461956
  466 39.4724 0.772115 -1.51215
  467 39.4357 0.970017 -1.55141
  468 39.1384 0.360295 -0.784101
  469 48.8953 0.117345 0.507790
  470 47.2944 0.249238 0.938895
  471 42.4375 0.791381 0.00512847
  472 44.5621 0.627359 0.347111
  473 46.7634 0.335326 0.913400
  474 39.7233 0.0554285 -0.618114
  475 40.0793 1.39146 -0.686954
  476 39.7250 1.74691 -0.675222
  477 38.0056 0.106200 -0.176415
  478 41.3580 1.49253 0.683256
  479 48.3954 0.129511 0.767082
  480 39.9164 0.184138 -1.05861
  481 39.3756 0.309279 -0.119404
  482 38.7887 0.147502 -0.703820
  483 39.6729 0.462874 -1.46174
  484 46.0071 0.436054 0.948817
  485 39.8372 0.127651 -0.850182
  486 50.3992 0.0175207 0.436636
  487 42.7507 1.15241 0.860622
  488 49.5291 0.0390910 0.200407
  489 49.2512 0.0516827 0.690774
  490 39.5624 0.00511636 -0.221443
  491 38.4152 0.0270465 -0.382154
  492 45.6641 0.450345 0.383186
  493 47.6129 0.197715 0.123585
  494 48.0628 0.209777 0.655654
  495 39.5696 0.519267 -1.43440
  496 39.6202 1.12595 -1.14234
  497 39.6532 0.264216 -1.15146
  498 39.7868 0.643545 -1.71913
  499 40.8255 1.35979 -0.242965
  500 41.4353 1.21855 -0.0356627
  501 39.4947 0.0385927 -0.520600
  502 42.8955 0.974401 0.299530
  503 39.5368 1.51940 -1.12976
  504 51.1666 -0.00920005 0.147630
  505 39.4776 1.19665 -1.33320
  506 41.0647 0.855289 -0.299539
  507 39.7206 0.596580 -0.648298
  508 44.6632 0.697672 1.01564
  509 41.2174 1.50572 0.288105
  510 43.2935 0.932776 1.16362
  511 39.1168 0.0907214 -0.674853
  512 39.3453 0.273761 -1.04043
  513 49.7442 0.0500410 0.561869
  514 38.1816 0.0445882 -0.368919
  515 45.7763 0.398161 0.140156
  516 39.3236 0.00635298 -0.191432
  517 39.5361 0.782656 -1.67541
  518 38.4321 0.0195216 -0.279509
  519 49.1523 0.0573583 0.0713557
  520 37.4210 0.127639 -0.188987
  521 40.0492 1.60548 -0.546444
  522 39.1484 0.301445 -0.981522
  523 44.9114 0.646468 0.540049
  524 50.9168 -0.00140132 0.132882
  525 51.4603 0.0158284 0.133007
  526 39.2211 1.96765 -0.928239
  527 39.7090 0.778165 -0.827994
  528 49.9438 0.0303127 0.464217
  529 50.2181 0.0123116 0.128650
  530 48.7294 0.125346 0.395917
  531 41.7597 1.26622 0.184522
  532 49.5918 0.0805195 0.430239
  533 40.5067 1.26683 -0.478763
  534 39.1645 1.57585 -1.73889
  535 39.3192 0.587699 -1.17135
  536 44.4012 0.536924 0.0696814
  537 39.9085 0.385713 -1.44199
  538 46.4092 0.449915 0.713584
  539 43.9930 0.800724 1.01143
  540 37.9909 0.0239620 -0.263357
  541 39.4169 0.569113 0.838462
  542 41.7093 0.956534 0.0755803
  543 45.6965 0.488885 -0.482467
  544 39.1363 0.202691 0.906907
  545 40.1118 1.14070 0.719341
  546 47.9028 0.215500 -0.578124
  547 39.4113 0.735899 1.31281
  548 43.2668 0.952348 -0.513537
  549 41.1599 1.43878 -0.0527555
  550 39.5367 1.32199 1.21506
  551 39.3237 0.0716556 0.637434
  552 46.1186 0.476339 -0.828326
  553 39.5528 0.357617 1.24717
  554 39.5274 0.612117 1.50620
  555 39.6973 1.57714 0.864883
  556 49.4371 0.0848090 -0.482514
  557 44.1689 0.798834 -0.883510
  558 40.4139 0.694559 0.413689
  559 47.7062 0.211865 -0.790620
  560 39.3937 1.24403 1.56057
  561 42.2711 1.24728 -0.617793
  562 38.6914 0.155421 0.607060
  563 47.6370 0.205112 -0.277136
  564 43.3003 0.808273 -0.189441
  565 45.3057 0.515995 -1.07280
  566 39.9340 1.78581 0.423610
  567 40.7202 1.66293 -0.108716
  568 39.0704 0.250275 0.318495
  569 46.7127 0.311425 -1.02321
  570 39.4776 0.970487 1.71621
  571 39.3290 1.67421 1.28444
  572 39.5204 0.0211692 0.392611
  573 50.5147 0.0229125 -0.330691
  574 38.8227 0.0731196 0.597617
  575 39.1427 0.387691 0.969763
  576 39.6677 0.163768 0.954147
  577 42.1373 0.630655 0.0311613
  578 39.5644 0.864108 1.03852
  579 44.6409 0.689668 -0.630356
  580 49.2511 0.0741425 -0.626368
  581 49.5872 0.0522428 -0.359491
  582 39.6678 0.578961 1.58893
  583 45.0653 0.504281 -0.225808
  584 40.0492 0.884054 0.689949
  585 43.3241 0.959308 -1.01902
  586 41.5783 1.42737 -0.542468
  587 38.4438 0.0864707 0.513201
  588 42.1229 1.09667 -0.147401
  589 38.1227 0.0853581 0.220271
  590 46.7301 0.375727 -0.620821
  591 40.3982 1.45320 0.451485
  592 41.0348 1.12240 0.278660
  593 39.3351 0.539993 1.23255
  594 39.5882 0.0844583 0.708264
  595 39.2812 1.46594 1.63037
  596 39.4764 1.82980 0.897796
  597 47.9232 0.134629 -0.894180
  598 39.7288 0.357247 1.35401
  599 48.5282 0.156397 -0.336866
  600 40.7205 0.525812 0.171446
  601 40.5407 0.981712 0.495831
  602 39.4752 0.947419 1.31527
  603 39.1871 0.0129752 0.311728
  604 44.7110 0.616207 -1.16150
  605 39.5487 0.920775 1.84192
  606 39.7952 1.01691 0.915666
  607 40.0841 1.83159 0.118861
  608 49.9849 0.0391604 -0.466292
  609 42.0444 1.31695 -0.824913
  610 50.2216 0.0519549 -0.285896
  611 46.0701 0.365181 -1.10459
  612 39.3972 1.20141 1.80100
  613 39.2251 0.178665 0.859711
  614 39.6257 0.471088 0.417855
  615 43.2693 0.992550 -0.762820
  616 38.8671 0.0277528 0.356385
  617 41.7600 1.34242 -0.328103
  618 39.3658 0.420977 1.20746
  619 47.1123 0.324789 -0.757973
  620 41.4654 0.749056 0.152927
  621 45.0869 0.648671 -0.859251
  622 46.6041 0.324911 -0.425975
  623 43.9450 0.811616 -0.444314
  624 38.9913 0.304549 0.536673
  625 39.1987 1.85872 1.15356
  626 39.8835 0.275651 1.23475
  627 39.4644 1.91189 0.664962
  628 43.5544 0.651015 -0.122175
  629 48.6485 0.141082 -0.679097
  630 39.1780 1.67227 1.56006
  631 39.7575 1.30188 0.966846
  632 47.2747 0.212625 -1.00188
  633 48.6742 0.0755919 -0.768166
  634 38.8452 0.198078 0.747334
  635 39.8287 0.495121 1.57122
  636 39.6569 0.757701 1.75531
  637 37.9196 0.0221592 0.322854
  638 42.7694 1.09109 -1.04129
  639 43.9130 0.803220 -1.15880
  640 39.4787 1.09611 1.88357
  641 40.4600 1.59772 0.237459
  642 45.3917 0.461123 -1.19065
  643 39.2767 1.41443 1.78270
  644 39.6515 1.93526 0.378197
  645 39.3644 0.624479 1.07824
  646 45.6085 0.557177 -0.662318
  647 46.4168 0.339777 -0.257099
  648 39.1211 1.81810 1.39310
  649 40.9029 1.60901 -0.419308
  650 46.7387 0.239864 -1.09367
  651 48.7879 0.101612 -0.167500
  652 42.4769 0.894957 -0.100594
  653 43.9764 0.823191 -0.720363
  654 39.8992 0.427521 0.290098
  655 50.9758 0.0134143 -0.266947
  656 42.4580 1.14627 -0.425109
  657 40.3782 1.78504 -0.181898
  658 39.4256 0.201540 0.954346
  659 39.3741 1.41945 1.40748
  660 39.4486 1.67927 1.07254
  661 47.7064 0.235260 -0.462175
  662 39.4728 0.772308 1.51273
  663 39.4358 0.970260 1.55200
  664 39.1387 0.360431 0.784473
  665 48.8957 0.117319 -0.507991
  666 47.2946 0.249014 -0.939187
  667 42.4371 0.791734 -0.00512589
  668 44.5618 0.627620 -0.347271
  669 46.7634 0.335191 -0.913729
  670 39.7249 0.0554409 0.618347
  671 40.0787 1.39183 0.687234
  672 39.7242 1.74730 0.675471
  673 38.0059 0.106253 0.176488
  674 41.3570 1.49268 -0.683595
  675 48.3958 0.129331 -0.767277
  676 39.9178 0.184180 1.05900
  677 39.3756 0.309434 0.119502
  678 38.7896 0.147548 0.704126
  679 39.6738 0.462987 1.46228
  680 46.0070 0.435911 -0.949196
  681 39.8387 0.127682 0.850494
  682 50.3999 0.0174404 -0.436679
  683 42.7500 1.15249 -0.861039
  684 49.5295 0.0391075 -0.200520
  685 49.2517 0.0514715 -0.690852
  686 39.5641 0.00512210 0.221529
  687 38.4162 0.0270658 0.382322
  688 45.6640 0.450553 -0.383360
  689 47.6130 0.197837 -0.123659
  690 48.0630 0.209726 -0.655902
  691 39.5704 0.519391 1.43495
  692 39.6200 1.12626 1.14282
  693 39.6543 0.264282 1.15189
  694 39.7876 0.643687 1.71973
  695 40.8248 1.36017 0.243065
  696 41.4346 1.21891 0.0356793
  697 39.4962 0.0386095 0.520798
  698 42.8950 0.974703 -0.299673
  699 39.5363 1.51976 1.13020
  700 51.1675 -0.00921338 -0.147668
  701 39.4774 1.19695 1.33372
  702 41.0643 0.855638 0.299685
  703 39.7206 0.596814 0.648613
  704 44.6628 0.697583 -1.01609
  705 41.2164 1.50601 -0.288252
  706 43.2929 0.932638 -1.16418
  707 39.1180 0.0907448 0.675133
  708 39.3462 0.273830 1.04086
  709 49.7448 0.0499074 -0.561925
  710 38.1821 0.0446265 0.369102
  711 45.7761 0.398389 -0.140217
  712 39.3252 0.00635160 0.191504
  713 39.5366 0.782841 1.67603
  714 38.4332 0.0195318 0.279627
  715 49.1526 0.0573956 -0.0713988
  716 37.4214 0.127654 0.189060
  717 40.0484 1.60587 0.546658
  718 39.1491 0.301536 0.981923
  719 44.9111 0.646661 -0.540292
  720 50.9176 -0.00141162 -0.132932
  721 51.4613 0.0158261 -0.133025
  722 39.2202 1.96803 0.928560
  723 39.7090 0.778433 0.828373
  724 49.9444 0.0302522 -0.464340
  725 50.2188 0.0123150 -0.128733
  726 48.7297 0.125367 -0.396109
  727 41.7590 1.26656 -0.184613
  728 49.5923 0.0805038 -0.430406
  729 40.5061 1.26720 0.478974
  730 39.1643 1.57618 1.73949
  731 39.3196 0.587870 1.17184
  732 44.4010 0.537223 -0.0697213
  733 39.9096 0.385797 1.44251
  734 46.4091 0.449950 -0.713895
  735 43.9925 0.800652 -1.01190
  736 37.9918 0.0239669 0.263476
  737 30.8737 4.64272 2.03882
  738 30.8776 4.64179 -2.03834
  739 47.0760 -3.89862 4.28556
  740 47.0884 -3.91755 -4.28083
  741 39.8234 2.11242 4.21347
  742 39.8228 2.11226 -4.21246
  743 35.3942 0.274943 -9.74932
  744 35.3993 0.271287 9.75105
  745 54.5865 0.233697 4.42189
  746 54.5902 0.793740 -4.46767
  747 42.3174 2.07094 -6.69714
  748 42.3192 2.07035 6.69819
  749 53.0286 -6.38547 6.51147
  750 53.0121 -6.38279 -6.50402
  751 38.5225 1.65732 -3.04607
  752 38.5247 1.65837 3.04492
  753 49.3032 -1.21668 0.596469
  754 49.3049 -1.21850 -0.595259
  755 33.1893 -2.55723 9.91106
  756 33.1821 -2.55373 -9.90831
  757 36.5961 3.36040 1.71947
  758 36.5976 3.36006 -1.71910
  759 41.4110 0.629286 -2.40735
  760 41.4126 0.629374 2.40803
  761 49.7360 4.04871 -0.126520
  762 51.2305 -1.96804 2.12239
  763 51.2287 -1.96705 -2.11993
  764 49.0884 0.726477 -7.90139
  765 49.0924 0.724880 7.90095
  766 44.2423 0.951757 4.18685
  767 44.2400 0.951815 -4.18606
  768 55.1467 -7.59763 -3.98029
  769 54.9341 -7.76515 4.23350
  770 69.8369 -5.11489 3.27523
  771 69.8312 -5.08618 -3.28010
  772 55.8243 -1.07977 -7.05382
  773 55.8298 -1.08193 7.05160
  774 44.6427 -0.499941 2.57960
  775 44.6428 -0.501791 -2.58107
  776 60.3996 11.1954 1.51329
  777 20.1139 2.00637 -0.370665
  778 20.1284 2.00306 0.374342
  779 78.1763 2.61973 -6.40276
  780 77.4794 2.52929 6.58434
  781 78.8460 6.77511 0.850444
  782 49.5652 0.752351 -5.51055
  783 49.5686 0.751878 5.51076
  784 38.5876 2.30026 -2.77334
  785 38.5873 2.30059 2.77412
  786 63.5380 3.45966 -2.96725
  787 43.2311 0.422930 2.50006
  788 43.2288 0.422904 -2.49946
  789 48.4039 1.15775 -3.04769
  790 48.4567 1.19146 3.10208
  791 36.5762 3.61495 4.97913
  792 36.5768 3.61482 -4.97787
  793 33.3706 3.60164 6.98293
  794 33.3709 3.60269 -6.98032
  795 53.1744 -4.65186 -0.236688
  796 53.1721 -4.65857 0.236514
  797 66.6478 -3.78833 -0.241435
  798 66.6505 -3.77817 0.233904
  799 32.5083 2.70844 -3.81894
  800 32.5113 2.70936 3.81579
  801 26.0118 -6.88189 -9.32823
  802 26.0297 -6.88614 9.32726
  803 64.7702 2.16953 1.77983
  804 38.1216 2.62654 -0.584390
  805 38.1234 2.62648 0.584091
  806 50.1588 -0.285245 -0.437794
  807 50.1582 -0.284647 0.438467
  808 50.6837 -0.816100 0.808024
  809 50.6836 -0.815109 -0.805759
  810 49.5669 -0.481822 3.19217
  811 49.5709 -0.486585 -3.19136
  812 50.0620 -2.85505 0.616113
  813 50.0663 -2.85791 -0.613979
  814 48.7007 0.474660 3.69129
  815 48.6972 0.474787 -3.69088
  816 66.2247 -1.54284 -3.23370
  817 66.2279 -1.54360 3.22871
  818 40.3765 -1.12525 -5.77142
  819 40.3806 -1.12190 5.76923
  820 41.1401 0.198630 -1.29494
  821 41.1419 0.198666 1.29535
  822 47.2233 -0.538437 1.45576
  823 47.2242 -0.539965 -1.45599
  824 39.9120 1.29892 2.69554
  825 39.9114 1.29872 -2.69473
  826 39.0624 -9.05779 -12.9022
  827 38.0621 -8.91083 13.0233
  828 54.6795 7.00831 -2.70068
  829 41.4140 1.06008 2.17353
  830 41.4126 1.05950 -2.17460
  831 58.4872 -0.0210171 -5.25299
  832 58.4909 -0.0218248 5.25158
  833 45.4880 -5.55553 -7.54545
  834 45.4073 -5.55109 7.53874
  835 34.0332 3.81680 -0.161958
  836 34.0359 3.81670 0.161360
  837 68.5160 -0.937061 -7.74653
  838 68.5338 -0.789811 7.71494
  839 18.4281 -6.15840 9.87442
  840 18.4321 -6.13814 -9.93767
  841 65.7104 3.60156 -4.06447
  842 51.3770 -8.97761 -6.03744
  843 51.3905 -8.89755 6.24299
  844 37.2126 3.21005 3.44009
  845 37.2134 3.20971 -3.43923
  846 40.6042 2.30630 5.44239
  847 40.6032 2.30638 -5.44127
  848 53.3827 5.62626 2.94797
  849 42.2446 0.187846 -1.48979
  850 42.2468 0.187874 1.49021
  851 55.0426 0.270708 4.65217
  852 55.0387 0.271147 -4.65256
  853 44.4494 -3.11942 -9.68393
  854 44.4552 -3.11987 9.68386
  855 94.4574 7.87679 -1.34240
  856 11.7549 -6.71394 -1.55383
  857 11.7464 -6.72153 1.57885
  858 45.8685 0.266123 2.25913
  859 45.8653 0.266122 -2.25868
  860 38.0809 2.60358 1.72539
  861 38.0819 2.60320 -1.72489
  862 45.5934 1.38279 -0.837599
  863 40.7520 2.17454 8.28370
  864 40.7494 2.17617 -8.28249
  865 70.2662 -2.12846 -4.80815
  866 70.2858 -2.14742 4.82595
  867 47.5918 -1.70040 1.86262
  868 47.5942 -1.70337 -1.86291
  869 53.1934 -2.19929 -3.24462
  870 53.1927 -2.20382 3.25033
  871 50.2764 -0.627617 1.74493
  872 50.2778 -0.627032 -1.74209
  873 62.3098 2.50578 5.00585
  874 26.1470 2.72887 6.05264
  875 26.1491 2.73047 -6.04704
  876 27.1008 3.63696 -2.16714
  877 27.1085 3.63476 2.16476
  878 60.0276 -5.13696 6.03722
  879 41.4262 1.15674 3.40655
  880 41.4248 1.15663 -3.40570
  881 71.6315 13.7587 -0.692525
  882 42.1377 -0.248821 3.73309
  883 42.1360 -0.250670 -3.73501
  884 78.1828 -0.620300 0.210639
  885 78.1595 -0.531451 -0.319627
  886 56.8148 -3.66785 -2.11805
  887 56.6628 -3.48414 2.27478
  888 95.9136 7.31297 0.764553
  889 46.0446 -0.198686 9.18499
  890 46.0392 -0.196235 -9.18546
  891 57.2184 -5.91061 -7.95348
  892 50.9913 -0.371539 0.0916093
  893 50.9913 -0.370994 -0.0903197
  894 65.8368 -0.630173 -3.94913
  895 65.8389 -0.631240 3.94586
  896 40.5554 0.519249 -1.94468
  897 40.5567 0.519344 1.94530
  898 34.4918 4.14740 -2.65492
  899 34.4898 4.14785 2.65547
  900 45.2366 1.13070 1.14505
  901 75.0075 12.8027 -0.235955
  902 44.5649 1.38483 5.38336
  903 44.5626 1.38507 -5.38255
  904 51.0849 0.110553 -4.05813
  905 51.1499 0.0874206 4.06012
  906 45.0012 0.0659291 1.84080
  907 45.0012 0.0648396 -1.84167
  908 48.5116 -0.261214 -0.939657
  909 48.5109 -0.260358 0.939824
  910 58.1396 4.65585 4.38115
  911 36.9143 3.52691 6.33394
  912 36.9142 3.52730 -6.33229
  913 38.2285 2.60096 0.587417
  914 38.2298 2.60065 -0.587285
  915 27.9044 4.40855 3.00626
  916 27.9096 4.40752 -3.00409
  917 51.7014 2.79867 -3.73202
  918 45.7697 -1.94480 -3.28050
  919 45.7684 -1.94138 3.27836
  920 62.2056 0.874226 -6.67125
  921 56.9596 -3.31173 -6.29440
  922 56.9693 -3.31458 6.29253
  923 24.1465 -1.90720 -8.39894
  924 24.1532 -1.91397 8.40471
  925 62.9442 0.816444 6.97417
  926 51.7141 -6.26811 3.37466
  927 52.0727 -6.47040 -3.40029
  928 52.0723 0.248600 -3.20440
  929 52.0763 0.248468 3.20454
  930 47.1011 0.140900 -2.58750
  931 47.0800 0.176766 2.58827
  932 38.4390 -9.50510 -9.09259
  933 38.4756 -9.50416 8.99587
  934 40.1082 1.58375 3.38712
  935 40.1076 1.58356 -3.38622
  936 50.6383 -1.90535 -0.761995
  937 50.6401 -1.90677 0.764482
  938 62.0026 -7.23969 -1.73859
  939 62.0446 -7.23737 1.71517
  940 40.0416 1.82233 1.27545
  941 40.0400 1.82225 -1.27603
  942 57.9584 2.47872 1.03790
  943 41.7065 1.50238 4.29872
  944 41.7052 1.50233 -4.29777
  945 45.9215 1.43246 7.46238
  946 45.9184 1.43356 -7.46194
  947 36.5121 2.95032 -1.11025
  948 36.5143 2.95054 1.10964
  949 106.556 9.07689 -0.271934
  950 24.4053 0.762659 -6.60458
  951 24.4158 0.760716 6.59663
  952 47.7811 0.235748 2.44942
  953 47.7776 0.235778 -2.44904
  954 61.6998 -4.45514 -5.93284
  955 62.0909 -4.32160 5.28378
  956 39.2500 1.69033 2.45902
  957 39.2500 1.69004 -2.45826
  958 40.6403 0.0715426 -0.707721
  959 40.6422 0.0715598 0.707962
  960 64.1217 -0.165852 -3.88322
  961 64.1243 -0.166565 3.88114
  962 94.6782 4.56543 2.17580
  963 43.4420 0.121026 1.23125
  964 43.4393 0.121010 -1.23092
  965 44.8146 0.129679 -1.50482
  966 44.8176 0.129684 1.50517
  967 71.4935 -1.05736 -0.964477
  968 71.4906 -1.05593 0.960506
  969 57.5880 3.54797 -4.40576
  970 35.9901 -0.332586 -7.02775
  971 35.9893 -0.327061 7.02235
  972 92.5157 4.76745 -2.53588
  973 49.6112 3.23064 2.18512
  974 50.8690 -0.0654054 -0.393420
  975 50.8684 -0.0652007 0.393690
  976 38.7827 2.35004 3.40680
  977 38.7828 2.34976 -3.40590
  978 72.7234 -1.19100 1.48092
  979 72.7154 -1.18482 -1.47816
  980 50.5354 -4.28065 1.63812
  981 50.5556 -4.29511 -1.63649
  982 51.7568 -3.24776 -0.888186
  983 51.7586 -3.24847 0.891829
  984 54.3890 7.94302 0.315374
  985 34.5629 2.58936 8.40964
  986 34.5611 2.59166 -8.40698
  987 38.7417 2.80313 4.72072
  988 38.7416 2.80299 -4.71960
  989 44.7580 0.506199 -1.61930
  990 60.7554 -3.29324 -0.673194
  991 74.3016 7.74584 4.57738
  992 61.2951 9.59386 -3.06320
  993 38.6338 2.16220 2.09374
  994 38.6343 2.16183 -2.09309
  995 49.2380 -0.326084 -1.95044
  996 49.2348 -0.325518 1.95281
  997 37.0087 1.26598 -4.38897
  998 37.0110 1.26814 4.38733
  999 37.5187 2.96245 2.54956
  1000 37.5196 2.96209 -2.54890
  1001 49.0822 3.01851 -1.95412
  1002 33.2958 4.34036 4.48924
  1003 33.2978 4.34006 -4.48779
  1004 42.8333 0.833233 1.77712
  1005 42.8325 0.832718 -1.77803
  1006 43.9313 0.658651 -3.21401
  1007 43.9336 0.658665 3.21470
  1008 39.0178 2.01785 -1.80651
  1009 39.0197 2.01818 1.80575
  1010 42.5807 1.22814 8.95739
  1011 42.5767 1.23043 -8.95684
  1012 59.2178 0.146848 3.46298
  1013 59.2140 0.147132 -3.46361
  1014 51.7606 2.12577 4.03785
  1015 31.5421 4.10451 -0.845075
  1016 31.5460 4.10401 0.843758
  1017 68.6707 -1.01335 -5.47834
  1018 68.7188 -0.993713 5.46298
  1019 53.1183 -0.296347 7.68701
  1020 53.1135 -0.294415 -7.68853
  1021 39.9210 -5.89253 10.5601
  1022 39.8727 -5.89933 -10.6411
  1023 61.6437 -4.26230 3.67595
  1024 61.6315 -4.26215 -3.68183
  1025 48.2697 -2.96148 2.35531
  1026 48.2746 -2.96533 -2.35582
  1027 49.1380 -0.628154 -0.740613
  1028 49.1370 -0.626933 0.741291
  1029 40.0551 0.931872 2.29372
  1030 40.0543 0.931701 -2.29300
  1031 59.8470 -4.06627 0.668837
  1032 35.0596 2.81532 -2.51443
  1033 35.0621 2.81621 2.51302
  1034 34.3224 -3.19535 10.2972
  1035 34.3142 -3.19212 -10.2985
  1036 41.6635 0.0693215 -0.864018
  1037 41.6657 0.0693291 0.864280
  1038 44.9295 0.392566 1.80924
  1039 29.9797 1.72291 -5.66794
  1040 29.9841 1.72265 5.66207
  1041 50.2107 -0.923239 -0.0551694
  1042 50.2116 -0.924489 0.0568681
  1043 50.9110 -0.275564 0.865056
  1044 50.9130 -0.275096 -0.863063
  1045 37.0361 3.12834 0.387042
  1046 37.0379 3.12812 -0.387059
  1047 46.0920 -6.74312 12.0934
  1048 51.1302 -1.35913 -3.16966
  1049 51.1333 -1.35795 3.17377
  1050 22.5131 -10.7065 11.6649
  1051 22.4076 -10.3161 -11.8745
  1052 68.4038 3.33470 -6.57646
  1053 44.1152 -3.33839 -5.99916
  1054 44.0895 -3.34051 6.01546
  1055 51.3984 -0.0909408 -0.152967
  1056 51.3981 -0.0907364 0.153537
  1057 38.9852 2.31908 -0.232176
  1058 38.9867 2.31887 0.232033
  1059 40.5315 0.199181 1.22777
  1060 40.5299 0.199140 -1.22736
  1061 46.0965 1.30811 6.00894
  1062 46.0938 1.30857 -6.00832
  1063 44.1909 -2.23832 4.73644
  1064 44.1884 -2.24303 -4.73915
  1065 40.5162 0.930003 2.55079
  1066 40.5152 0.929856 -2.55004
  1067 70.2245 -2.45939 6.63344
  1068 70.2065 -2.48056 -6.62485
  1069 46.4314 -0.909675 2.01789
  1070 46.4325 -0.911842 -2.01867
  1071 42.2017 0.549739 2.46680
  1072 42.1998 0.549674 -2.46615
  1073 42.8899 -5.95807 -9.63383
  1074 42.8878 -5.95249 9.63428
  1075 46.3723 0.600451 3.74369
  1076 46.3694 0.600533 -3.74310
  1077 49.5265 -0.137569 -0.691358
  1078 49.5259 -0.137088 0.691583
  1079 75.1679 -0.873173 -6.53931
  1080 75.2363 -0.833414 6.53954
  1081 11.6344 -15.4610 -3.42344
  1082 11.6499 -15.4653 3.40520
  1083 70.7738 -0.510094 -2.16878
  1084 70.7727 -0.510546 2.16525
  1085 30.1266 -5.59196 12.2332
  1086 30.3366 -5.57390 -12.1475
  1087 55.3124 0.128433 2.85464
  1088 55.3082 0.128563 -2.85472
  1089 51.3742 -0.248950 0.390579
  1090 51.3752 -0.248587 -0.389164
  1091 8.33921 -14.3037 -4.33097
  1092 8.46134 -14.1937 4.48557
  1093 50.9206 0.147476 -2.32039
  1094 50.9246 0.147421 2.32061
  1095 40.3924 0.995006 2.97885
  1096 40.3905 0.994016 -2.98017
  1097 13.9170 -2.80448 -3.08471
  1098 13.9501 -2.81420 3.08737
  1099 20.6301 -12.7951 6.50137
  1100 20.6175 -12.8190 -6.50177
  1101 49.7874 -2.00438 0.356447
  1102 49.7899 -2.00660 -0.354601
  1103 35.6862 3.51540 0.386041
  1104 35.6883 3.51524 -0.386198
  1105 50.6745 0.722877 -6.17051
  1106 50.6780 0.722135 6.17042
  1107 67.5992 -4.45148 1.93602
  1108 67.5923 -4.42903 -1.94248
  1109 39.4179 -3.27801 -8.58822
  1110 39.3985 -3.25862 8.57391
  1111 52.2136 -8.68536 8.92664
  1112 53.9520 0.374951 -6.11409
  1113 53.9559 0.374062 6.11335
  1114 50.7467 -1.32053 -1.59206
  1115 50.7475 -1.32166 1.59477
  1116 47.8283 -1.03700 1.40132
  1117 47.8299 -1.03907 -1.40123
  1118 46.2958 0.0112346 1.42996
  1119 46.2961 0.0103193 -1.43043
  1120 62.7202 8.93834 3.25733
  1121 31.1367 -10.8009 -6.83563
  1122 31.1644 -10.5721 6.68529
  1123 38.9494 -7.41685 -12.4880
  1124 78.4611 5.87370 3.96692
  1125 51.7649 4.97544 -2.23578
  1126 48.7400 -8.79633 -9.09746
  1127 20.3390 0.914441 4.31045
  1128 20.3453 0.916255 -4.30129
  1129 39.7630 2.78189 6.33920
  1130 39.7620 2.78223 -6.33790
  1131 46.7173 2.01165 0.516178
  1132 47.7048 -0.0874359 -2.13467
  1133 47.7019 -0.0783570 2.13583
  1134 58.7360 -0.713260 3.56509
  1135 63.0522 0.0756948 -2.88403
  1136 63.0556 0.0754397 2.88311
  1137 79.2395 6.89433 -2.50690
  1138 49.2792 -7.79752 7.72751
  1139 39.3988 1.84474 -3.08741
  1140 39.3990 1.84500 3.08827
  1141 54.6452 -2.15462 -3.39229
  1142 54.8654 -2.02655 3.48948
  1143 40.9732 1.06272 3.03836
  1144 40.9720 1.06259 -3.03753
  1145 50.8937 1.40750 -1.74798
  1146 42.6926 0.215634 -2.73072
  1147 42.6936 0.216877 2.72922
  1148 77.5770 4.75718 -5.39003
  1149 41.1498 1.45695 -1.43916
  1150 41.1511 1.45711 1.43847
  1151 62.2448 0.0361319 6.12769
  1152 61.9458 -1.51930 -5.07147
  1153 61.9509 -1.52117 5.06777
  1154 55.3416 1.12373 -4.69943
  1155 62.0376 0.0875971 -6.07570
  1156 41.6778 0.312022 -1.77871
  1157 41.6797 0.312072 1.77922
  1158 50.1285 -0.786934 -2.64381
  1159 50.1281 -0.785508 2.64700
  1160 42.8571 0.579609 0.0780049
  1161 42.7737 1.64849 5.22715
  1162 42.7719 1.64862 -5.22619
  1163 58.8848 -0.567919 -3.55281
  1164 35.9139 3.65475 2.49572
  1165 35.9155 3.65437 -2.49517
  1166 48.1060 -5.22129 5.17144
  1167 48.4931 -5.44166 -5.08997
  1168 39.4092 2.77397 7.36228
  1169 39.4077 2.77490 -7.36084
  1170 39.6154 1.26190 2.34169
  1171 39.6150 1.26166 -2.34095
  1172 50.0349 -0.590012 0.313513
  1173 50.0356 -0.590996 -0.312397
  1174 33.0732 4.37218 1.60242
  1175 33.0760 4.37163 -1.60232
  1176 39.4274 0.390405 4.28175
  1177 39.4249 0.388435 -4.28341
  1178 47.3291 0.111695 1.44958
  1179 47.3255 0.111700 -1.44932
  1180 55.2622 -6.20271 1.18631
  1181 55.5770 -6.14002 -1.00548
  1182 42.6975 0.859570 3.31945
  1183 42.6956 0.859515 -3.31868
  1184 41.1005 0.0460569 0.682266
  1185 41.0984 0.0460508 -0.682046
  1186 72.8414 -0.902766 -2.69834
  1187 72.8480 -0.909674 2.70867
  1188 42.7468 0.0567114 -0.763549
  1189 42.7495 0.0567152 0.763766
  1190 49.7246 -1.48747 8.61676
  1191 49.7184 -1.48524 -8.61776
  1192 86.9267 14.1790 -0.425330
  1193 35.9898 3.77563 3.62340
  1194 35.9910 3.77527 -3.62252
  1195 49.1692 0.601448 4.59296
  1196 49.1659 0.601709 -4.59261
  1197 48.8812 0.397160 -3.43377
  1198 48.9476 0.385926 3.47172
  1199 120.302 7.30208 3.57642
  1200 57.0950 7.66485 3.23775
  1201 24.7938 3.82947 0.187967
  1202 24.8030 3.82676 -0.186984
  1203 38.3764 2.44212 1.18633
  1204 38.3774 2.44176 -1.18599
  1205 117.208 7.85686 -3.54795
  1206 47.4465 -0.0901304 -1.16809
  1207 47.4460 -0.0893230 1.16791
  1208 54.8082 -8.30309 -5.17400
  1209 54.8733 -8.30790 5.19309
  1210 38.5601 2.65378 -3.94975
  1211 38.5601 2.65404 3.95073
  1212 54.1112 0.808226 4.36909
  1213 51.2596 1.11765 2.74395
  1214 50.6020 -7.42568 -6.30053
  1215 34.6816 3.99990 -1.36819
  1216 34.6794 4.00026 1.36828
  1217 52.9279 -3.33673 1.88511
  1218 52.9288 -3.33709 -1.88006
  1219 40.1142 2.24551 4.82730
  1220 40.1135 2.24545 -4.82621
  1221 58.3651 -0.320671 6.09760
  1222 58.3611 -0.319227 -6.09972
  1223 60.7141 -5.90088 -3.09835
  1224 60.7352 -5.89945 3.09051
  1225 54.3808 3.77437 -4.21043
  1226 42.1188 2.03248 5.96419
  1227 42.1171 2.03279 -5.96314
  1228 57.4846 9.95015 -0.933874
  1229 54.7132 3.55844 4.33982
  1230 49.8769 0.130372 -1.86331
  1231 49.8810 0.130340 1.86354
  1232 64.6510 -7.12751 -0.866595
  1233 64.7279 -7.06025 0.776385
  1234 45.9788 0.0567760 -1.27109
  1235 45.9822 0.0567686 1.27136
  1236 43.9652 0.133098 -2.23409
  1237 43.9655 0.134263 2.23289
  1238 17.8131 -6.31446 7.12611
  1239 17.8022 -6.30333 -7.11921
  1240 31.2136 4.40032 4.96319
  1241 31.2161 4.40017 -4.96092
  1242 69.8590 0.468746 -8.11555
  1243 58.2900 0.138794 2.50352
  1244 58.2858 0.138925 -2.50379
  1245 51.6893 5.56680 1.46329
  1246 68.0601 13.9242 0.712983
  1247 41.2028 -1.15119 -10.0016
  1248 41.2086 -1.15380 10.0015
  1249 53.0129 -0.652473 -4.13844
  1250 53.0117 -0.720354 4.10940
  1251 43.3246 -3.86025 -8.48150
  1252 44.5336 -4.76699 8.53169
  1253 38.5630 2.23680 1.67016
  1254 38.5638 2.23642 -1.66964
  1255 37.2853 3.01284 1.31466
  1256 37.2867 3.01252 -1.31435
  1257 38.1910 2.50436 2.31387
  1258 38.1916 2.50400 -2.31321
  1259 69.0043 -0.214987 -2.48593
  1260 69.0051 -0.215376 2.48390
  1261 46.0561 -1.36232 2.57526
  1262 46.0575 -1.36512 -2.57667
  1263 91.7924 4.84777 9.49234
  1264 69.9319 0.411138 8.03992
  1265 47.6052 1.89030 2.01316
  1266 83.2851 2.23347 -2.75575
  1267 42.6386 0.331559 -0.637490
  1268 31.1715 1.95115 8.36003
  1269 31.1692 1.95424 -8.35633
  1270 74.8182 3.16357 11.3649
  1271 65.9716 4.00035 -1.16440
  1272 28.2833 4.47642 0.544715
  1273 28.2893 4.47472 -0.544823
  1274 44.5148 1.50535 -8.37598
  1275 44.5182 1.50362 8.37643
  1276 66.3345 4.14472 10.9975
  1277 30.7812 3.18118 7.24731
  1278 30.7813 3.18288 -7.24358
  1279 46.9138 0.917563 5.08673
  1280 46.9109 0.917843 -5.08616
  1281 93.2696 8.45636 1.12097
  1282 68.1547 4.21402 2.69634
  1283 85.0146 12.7093 3.83789
  1284 71.4167 1.08333 -9.20187
  1285 54.6309 -3.93587 -1.89584
  1286 54.6289 -3.91585 1.90620
  1287 73.5446 -3.02936 4.25722
  1288 73.5174 -3.08608 -4.22558
  1289 48.9240 -2.35074 -1.28151
  1290 48.9205 -2.34768 1.28248
  1291 41.0949 0.387231 1.83049
  1292 41.0933 0.387162 -1.82993
  1293 44.1407 -0.914978 3.27996
  1294 44.1404 -0.917298 -3.28206
  1295 49.4645 -4.80250 -8.34612
  1296 49.4720 -4.80284 8.34901
  1297 34.5392 4.15277 4.00260
  1298 34.5409 4.15241 -4.00152
  1299 63.0067 -2.93980 -1.27304
  1300 47.0559 1.55561 -2.05775
  1301 87.9299 5.03544 -11.2101
  1302 80.9963 10.3583 -6.98434
  1303 52.2602 1.31240 -4.29635
  1304 109.038 6.95465 -7.50197
  1305 49.7506 -0.207227 -1.25883
  1306 49.7458 -0.207488 1.26114
  1307 50.3144 -1.40448 -0.351810
  1308 50.3157 -1.40596 0.353951
  1309 64.7517 -0.416653 -4.97401
  1310 40.7158 0.462194 9.58321
  1311 40.7110 0.465041 -9.58260
  1312 48.2431 -0.565411 -1.08150
  1313 48.2421 -0.564038 1.08176
  1314 75.1468 -0.542200 0.283512
  1315 75.1383 -0.540292 -0.284376
  1316 48.6171 -1.60574 1.13200
  1317 48.6194 -1.60824 -1.13124
  1318 40.3633 0.396574 -1.63765
  1319 40.3646 0.396655 1.63819
  1320 69.7495 2.46682 7.11589
  1321 66.4211 -2.54538 -1.99273
  1322 66.4252 -2.54337 1.98654
  1323 42.8848 1.99646 7.40867
  1324 42.8824 1.99743 -7.40774
  1325 49.6351 -9.32853 -10.3896
  1326 24.8820 -2.46859 9.74073
  1327 24.8777 -2.46534 -9.75452
  1328 66.9664 2.35703 -6.56270
  1329 52.0291 -2.32671 -2.68528
  1330 52.0309 -2.32752 2.68666
  1331 38.4985 3.03336 5.40516
  1332 38.4983 3.03337 -5.40392
  1333 51.8014 -5.22076 -1.82021
  1334 51.7899 -5.22339 1.78581
  1335 52.7614 0.448673 4.74383
  1336 52.7576 0.449054 -4.74392
  1337 5.99817 -19.9514 1.15534
  1338 6.05642 -20.0962 -1.13189
  1339 113.779 7.48803 8.13347
  1340 66.1438 1.37278 0.184649
  1341 44.5134 0.126738 -1.54608
  1342 68.0177 8.36812 -2.12595
  1343 40.2053 0.644985 -1.95434
  1344 40.2064 0.645111 1.95497
  1345 58.3979 -6.75902 3.36179
  1346 51.7279 -1.02850 -3.74867
  1347 51.7290 -1.02380 3.74928
  1348 73.7702 -0.469740 -1.23808
  1349 73.7657 -0.469705 1.23479
  1350 42.8494 0.300279 1.93848
  1351 42.8471 0.300250 -1.93796
  1352 36.7568 3.08302 7.73540
  1353 36.7555 3.08438 -7.73343
  1354 83.5396 5.24929 4.16256
  1355 56.8361 1.51953 -12.9389
  1356 51.8192 -0.123304 0.0330801
  1357 51.8194 -0.123119 -0.0324007
  1358 23.2132 3.22014 2.82253
  1359 23.2210 3.21924 -2.81760
  1360 50.8512 -2.67346 -0.506805
  1361 50.8538 -2.67489 0.509653
  1362 65.3530 -0.409734 5.24529
  1363 40.5383 1.60689 3.68729
  1364 40.5374 1.60673 -3.68636
  1365 42.7788 0.289082 0.836041
  1366 48.3585 0.399425 8.44523
  1367 48.3540 0.401439 -8.44581
  1368 29.8743 3.12307 -3.18320
  1369 29.8793 3.12269 3.17983
  1370 70.9516 -0.682157 3.71224
  1371 70.9813 -0.680232 -3.69625
  1372 44.2724 0.0638186 0.932558
  1373 44.2694 0.0638123 -0.932324
  1374 45.3561 0.565993 3.41513
  1375 45.3534 0.566029 -3.41450
  1376 19.7414 0.0765974 -5.32769
  1377 19.7637 0.0713821 5.32282
  1378 43.0040 1.09380 3.94324
  1379 43.0021 1.09378 -3.94240
  1380 51.7399 -0.0341629 -0.181857
  1381 51.7393 -0.0340702 0.182113
  1382 45.3726 -0.359440 2.09716
  1383 45.3730 -0.361047 -2.09817
  1384 12.6093 -16.2974 -7.10352
  1385 11.7091 -15.8037 7.08377
  1386 57.7094 -7.28042 -4.30864
  1387 37.8225 2.84945 -3.18807
  1388 37.8219 2.84978 3.18890
  1389 44.1701 0.520857 1.64485
  1390 44.1698 0.520236 -1.64565
  1391 50.8361 -0.545336 0.355506
  1392 50.8361 -0.544609 -0.353764
  1393 53.7992 0.246627 -6.88003
  1394 53.8033 0.245309 6.87890
  1395 81.8644 1.75514 3.73412
  1396 50.2683 1.15543 -3.81763
  1397 40.2890 1.30098 -2.96555
  1398 40.2898 1.30117 2.96639
  1399 41.4634 -0.829049 -4.76929
  1400 41.4657 -0.826173 4.76706
  1401 41.5557 0.887886 2.91535
  1402 41.5542 0.887778 -2.91458
  1403 71.2507 -0.236175 -2.10965
  1404 71.2499 -0.236509 2.10716
  1405 39.0144 1.78653 2.18871
  1406 39.0146 1.78621 -2.18801
  1407 70.3028 -2.44509 -2.90114
  1408 70.3154 -2.45937 2.90660
  1409 88.8414 5.54041 -3.01489
  1410 40.1927 0.0199807 0.393853
  1411 40.1908 0.0199787 -0.393716
  1412 44.2161 0.373653 2.48066
  1413 44.2135 0.373642 -2.48010
  1414 34.6085 3.89711 6.28150
  1415 34.6091 3.89754 -6.27949
  1416 37.0178 2.98351 0.521318
  1417 37.0158 2.98352 -0.521657
  1418 62.8894 12.4188 -1.17395
  1419 69.5369 -4.03921 4.48823
  1420 69.5119 -4.02016 -4.48405
  1421 40.0108 -2.15302 -7.11688
  1422 40.0146 -2.14007 7.11942
  1423 47.1518 1.14926 6.59431
  1424 47.1487 1.15001 -6.59390
  1425 23.0457 2.45530 3.10025
  1426 23.0326 2.45966 -3.10246
  1427 50.1450 1.09018 3.77598
  1428 89.6919 8.42112 -0.445028
  1429 33.1391 3.49268 -1.70566
  1430 33.1422 3.49298 1.70414
  1431 39.8062 2.01597 -0.654982
  1432 39.8076 2.01583 0.654669
  1433 69.8805 7.76338 0.886717
  1434 48.6838 -0.0870090 -0.864142
  1435 48.6832 -0.0864327 0.864197
  1436 37.8285 2.53030 -1.38652
  1437 37.8305 2.53054 1.38593
  1438 46.7839 0.578405 -2.57983
  1439 70.2387 -1.83220 0.0778613
  1440 70.2354 -1.82715 -0.0811238
  1441 28.9912 -7.73724 11.1957
  1442 44.6654 0.129719 1.57912
  1443 56.2427 -0.969868 3.92178
  1444 44.5537 1.11291 4.70516
  1445 44.5514 1.11303 -4.70438
  1446 56.2736 -1.10524 -3.87950
  1447 50.6568 -0.808419 1.26735
  1448 50.6572 -0.807473 -1.26476
  1449 49.6141 -4.78743 3.29366
  1450 49.5593 -4.82292 -3.32075
  1451 49.6855 -6.78457 5.95706
  1452 37.4429 3.18164 4.08666
  1453 37.4434 3.18138 -4.08566
  1454 55.1571 0.115925 1.65362
  1455 55.1525 0.115960 -1.65360
  1456 38.8645 2.33965 0.308842
  1457 38.8658 2.33935 -0.308780
  1458 61.0544 2.17312 3.81358
  1459 41.7855 1.77108 4.86714
  1460 41.7841 1.77108 -4.86613
  1461 35.1816 1.07502 -5.38442
  1462 35.1832 1.07820 5.38140
  1463 50.6285 -1.20974 -2.17739
  1464 50.6293 -1.21046 2.18038
  1465 40.8973 0.635766 -2.25605
  1466 40.8986 0.635867 2.25672
  1467 65.8348 0.0454757 -2.46728
  1468 65.8374 0.0452247 2.46615
  1469 40.2581 1.63860 1.77270
  1470 40.2565 1.63831 -1.77350
  1471 49.2840 -0.340375 -0.725615
  1472 49.2833 -0.339553 0.726073
  1473 32.9423 4.47791 -2.54950
  1474 32.9396 4.47851 2.55005
  1475 51.4496 -0.0140986 -0.234979
  1476 51.4488 -0.0140409 0.235060
  1477 47.3720 2.14988 -0.939697
  1478 30.1332 4.09393 -5.36954
  1479 30.1307 4.09368 5.37248
  1480 47.1755 -2.16721 2.49348
  1481 47.1782 -2.17090 -2.49469
  1482 51.8989 -4.19641 0.198878
  1483 51.9017 -4.19678 -0.190748
  1484 35.8917 3.74377 5.54832
  1485 35.8923 3.74381 -5.54680
  1486 61.1531 -0.723075 5.34806
  1487 61.1490 -0.721438 -5.35102
  1488 50.5616 -0.198314 0.935572
  1489 50.5654 -0.197978 -0.933574
  1490 49.8794 2.22356 -3.22781
  1491 15.2583 -1.47965 -0.418211
  1492 15.2381 -1.47664 0.429804
  1493 39.5349 2.06296 3.71694
  1494 39.5345 2.06274 -3.71599
  1495 39.0104 2.21602 -0.873322
  1496 39.0120 2.21601 0.872923
  1497 66.1721 -1.02097 -3.51980
  1498 66.1746 -1.02209 3.51551
  1499 40.3773 0.119725 0.947416
  1500 40.3756 0.119699 -0.947091
  1501 50.3149 -0.404201 -3.69103
  1502 50.3096 -0.395947 3.69690
  1503 36.8966 2.44792 2.25936
  1504 36.8943 2.44726 -2.26034
  1505 45.4140 0.214157 1.53698
  1506 45.4140 0.213382 -1.53762
  1507 54.3231 -2.15220 7.55565
  1508 54.3161 -2.14969 -7.55732
  1509 60.8723 -2.86749 -4.78773
  1510 60.8811 -2.86956 4.78370
  1511 53.5148 -5.76046 1.06730
  1512 53.5629 -5.70830 -0.998840
  1513 46.9993 0.562319 2.67979
  1514 46.0920 -0.255342 1.72011
  1515 46.0925 -0.256701 -1.72075
  1516 60.4173 5.66151 -4.13595
  1517 43.4144 -1.32263 -4.07655
  1518 43.4161 -1.31991 4.07405
  1519 46.7632 -8.94577 10.1837
  1520 51.9896 5.92731 -0.786661
  1521 46.8058 -2.94445 -3.51761
  1522 46.8046 -2.93926 3.51608
  1523 57.6448 -6.27461 1.34431
  1524 30.6166 -0.689121 -9.48817
  1525 30.6232 -0.693943 9.49073
  1526 38.7848 2.07077 2.46502
  1527 38.7850 2.07044 -2.46429
  1528 50.1836 -0.0349154 -0.518676
  1529 50.1830 -0.0346818 0.518816
  1530 37.5381 2.90909 1.99672
  1531 37.5392 2.90872 -1.99620
  1532 66.8372 -6.15203 1.66079
  1533 66.8244 -6.11605 -1.67862
  1534 53.2431 0.0729245 -1.60964
  1535 53.2476 0.0729022 1.60973
  1536 56.5477 1.56746 4.47958
  1537 56.2452 0.317838 4.95938
  1538 47.1273 -8.54595 -7.80250
  1539 47.1128 -8.52363 7.83400
  1540 43.8599 0.234584 1.83481
  1541 43.8573 0.234563 -1.83436
  1542 41.2056 1.45964 3.91168
  1543 41.2045 1.45954 -3.91075
  1544 55.8113 0.367249 -4.91733
  1545 48.9686 3.29863 1.18992
  1546 71.0541 -4.32454 -0.549437
  1547 71.3214 -4.02285 0.866033
  1548 52.6444 0.755485 4.36205
  1549 46.1001 -0.0133079 -1.61711
  1550 46.0832 -0.0146092 1.59877
  1551 35.0087 3.33997 -1.35895
  1552 35.0112 3.34030 1.35802
  1553 51.5076 3.54923 3.22747
  1554 39.3463 1.68953 -2.66472
  1555 39.3465 1.68981 2.66552
  1556 48.7603 0.836587 -2.54016
  1557 42.1026 0.0320415 -0.653910
  1558 42.1051 0.0320419 0.654107
  1559 25.5384 -7.64281 12.3544
  1560 25.6701 -7.57204 -12.3263
  1561 46.6736 -7.37600 -8.51867
  1562 33.3473 -8.38199 -9.86463
  1563 33.3635 -8.37752 9.85147
  1564 50.5923 -0.268116 -0.266226
  1565 50.5918 -0.267601 0.267082
  1566 39.2672 2.00314 8.88877
  1567 39.2643 2.00532 -8.88733
  1568 57.4941 6.90613 -3.72898
  1569 16.6564 -2.44245 -4.63470
  1570 16.6534 -2.44835 4.64828
  1571 49.8432 2.18447 3.28410
  1572 48.1670 1.01374 7.47155
  1573 48.1635 1.01500 -7.47158
  1574 50.9198 -0.121365 0.328588
  1575 50.9203 -0.121632 -0.328140
  1576 43.6671 1.76079 6.25048
  1577 43.6650 1.76124 -6.24958
  1578 25.5077 -3.77350 -9.30058
  1579 25.5189 -3.78037 9.30353
  1580 72.4140 -1.81599 7.39522
  1581 72.4033 -1.84712 -7.37756
  1582 55.6915 1.04766 11.2244
  1583 37.9755 2.70480 0.0160699
  1584 37.9772 2.70460 -0.0161586
  1585 49.9922 1.90612 13.8143
  1586 55.3989 -4.87815 -6.31213
  1587 55.4121 -4.88149 6.31292
  1588 52.2002 -0.852753 -8.07355
  1589 52.2057 -0.854974 8.07202
  1590 48.9723 0.0742088 1.17494
  1591 48.9683 0.0742077 -1.17476
  1592 40.8193 1.63708 -1.10300
  1593 40.8206 1.63708 1.10247
  1594 26.0674 1.00756 -7.76458
  1595 26.0691 1.00343 7.77035
  1596 29.0450 -0.221333 8.11557
  1597 29.0422 -0.219325 -8.12262
  1598 27.2850 2.30458 -4.87494
  1599 27.2924 2.30243 4.86956
  1600 36.7873 3.33466 2.72687
  1601 36.7885 3.33429 -2.72621
  1602 48.4319 1.21352 -0.380355
  1603 37.9842 2.71629 1.17942
  1604 37.9854 2.71593 -1.17909
  1605 42.4600 1.04511 1.49736
  1606 42.4591 1.04483 -1.49811
  1607 42.4310 0.683884 2.81360
  1608 42.4291 0.683821 -2.81290
  1609 46.2229 -9.88215 -7.29116
  1610 46.4180 -9.83559 7.38929
  1611 50.8610 -3.54209 -0.425342
  1612 50.8550 -3.53941 0.429348
  1613 48.7793 -3.81190 -2.77943
  1614 48.7759 -3.81746 2.77412
  1615 50.9437 -2.22120 -1.08896
  1616 50.9456 -2.22242 1.09153
  1617 51.9003 0.652806 -10.7503
  1618 50.6347 -1.34844 -0.957279
  1619 50.6357 -1.34974 0.959756
  1620 53.0202 4.62650 -3.40098
  1621 47.8824 -0.0418876 2.77299
  1622 47.8815 -0.0424959 -2.77370
  1623 128.677 7.44952 -0.556692
  1624 49.6394 -0.776816 0.438142
  1625 49.6404 -0.778090 -0.437015
  1626 51.5708 -0.128180 0.420857
  1627 51.5728 -0.127930 -0.419672
  1628 51.9566 -0.0832403 0.112737
  1629 51.9573 -0.0831209 -0.112025
  1630 42.6077 0.707562 2.09478
  1631 42.6067 0.706850 -2.09587
  1632 43.3082 0.0513581 0.718080
  1633 43.3053 0.0513522 -0.717884
  1634 26.4777 3.84831 4.48870
  1635 26.4824 3.84823 -4.48469
  1636 29.7869 4.55564 3.00319
  1637 29.7911 4.55480 -3.00176
  1638 53.5783 -7.17261 3.78135
  1639 57.2355 0.183682 -4.89976
  1640 57.2393 0.183085 4.89890
  1641 46.5322 0.986409 2.23075
  1642 48.8136 -0.918251 -0.874360
  1643 48.8122 -0.916579 0.875052
  1644 45.4382 0.0428045 -0.840960
  1645 45.4416 0.0428027 0.841148
  1646 65.6655 -5.15004 0.0493653
  1647 65.6707 -5.13449 -0.0611424
  1648 57.0382 -6.35661 -1.12938
  1649 46.7419 0.364381 2.73383
  1650 46.7387 0.364404 -2.73337
  1651 74.6804 -0.484246 1.52556
  1652 74.6724 -0.480843 -1.52038
  1653 33.4260 -0.639011 -7.98845
  1654 33.4280 -0.640519 7.98001
  1655 39.3513 1.47002 2.30156
  1656 39.3512 1.46975 -2.30083
  1657 90.9250 5.75701 1.48291
  1658 41.5156 0.0286194 0.444189
  1659 41.5132 0.0286135 -0.444045
  1660 47.9372 -0.0175045 1.32504
  1661 47.9443 -0.0200777 -1.32337
  1662 39.4975 -4.47999 10.0416
  1663 39.4928 -4.48150 -10.0442
  1664 24.5120 -7.95816 -9.75784
  1665 92.9617 11.7924 -5.57078
  1666 34.8531 2.25489 -3.66640
  1667 34.8555 2.25646 3.66436
  1668 47.6189 0.390187 3.18957
  1669 47.6156 0.390257 -3.18911
  1670 40.7043 0.387982 1.73555
  1671 40.7029 0.387911 -1.73499
  1672 61.3077 0.444170 -3.15194
  1673 39.9539 2.71151 6.80249
  1674 39.9527 2.71209 -6.80117
  1675 41.8504 0.216734 -1.46618
  1676 41.8525 0.216768 1.46661
  1677 40.6347 0.0257909 -0.411300
  1678 40.6368 0.0258020 0.411441
  1679 36.8531 -0.125104 -6.18290
  1680 36.8539 -0.120261 6.18056
  1681 70.0996 2.16732 -7.28202
  1682 68.7431 -0.0597063 -1.70862
  1683 68.7447 -0.0598665 1.70752
  1684 41.9970 0.401581 2.06330
  1685 41.9951 0.401529 -2.06273
  1686 43.3554 -4.35833 7.49455
  1687 43.3657 -4.42543 -7.53145
  1688 46.2121 0.885917 4.59998
  1689 46.2094 0.886082 -4.59934
  1690 39.3462 1.59326 2.45886
  1691 39.3442 1.59261 -2.45988
  1692 8.62829 -23.2052 2.19888
  1693 8.62127 -23.1869 -2.23163
  1694 55.9379 8.90722 1.33332
  1695 77.4596 -0.205418 -0.248397
  1696 77.4498 -0.205086 0.246798
  1697 63.1555 0.0425246 2.15923
  1698 63.1518 0.0426658 -2.15981
  1699 40.8377 0.159473 1.14065
  1700 40.8359 0.159442 -1.14027
  1701 61.1652 -0.0192796 -4.45987
  1702 61.1686 -0.0199396 4.45829
  1703 49.4869 -6.59743 -5.76734
  1704 40.3105 0.831466 -2.31465
  1705 40.3114 0.831612 2.31537
  1706 47.6452 -1.32441 1.64629
  1707 47.6472 -1.32689 -1.64643
  1708 104.198 8.64908 0.410280
  1709 40.8834 1.75692 4.24473
  1710 40.8824 1.75682 -4.24375
  1711 45.0813 1.21825 0.00280333
  1712 36.6414 -4.09126 -10.1933
  1713 36.6754 -4.11278 10.1781
  1714 39.8057 0.993955 2.18804
  1715 39.8051 0.993761 -2.18733
  1716 50.9269 -0.489711 0.763869
  1717 50.9278 -0.489065 -0.761808
  1718 56.1772 0.928878 -4.48111
  1719 44.2728 1.78066 -6.98684
  1720 44.2753 1.77985 6.98762
  1721 29.2167 4.21198 -0.646758
  1722 29.2221 4.21067 0.645512
  1723 37.3663 3.43204 5.81588
  1724 37.3663 3.43217 -5.81444
  1725 36.0709 1.30658 9.32812
  1726 36.0669 1.30964 -9.32621
  1727 49.7253 -3.51893 -1.56505
  1728 49.7189 -3.51406 1.56491
  1729 51.7919 -2.79458 1.62761
  1730 51.7907 -2.79396 -1.62493
  1731 53.6493 -3.16386 -2.50271
  1732 53.6542 -3.16468 2.50093
  1733 48.1111 0.958197 5.51178
  1734 48.1080 0.958619 -5.51136
  1735 53.7675 -7.01267 -3.32794
  1736 42.7209 1.46891 4.62204
  1737 42.7192 1.46894 -4.62112
  1738 32.9592 1.69349 -5.24799
  1739 32.9614 1.69528 5.24366
  1740 49.6744 -3.30766 -8.42627
  1741 49.6818 -3.30928 8.42656
  1742 38.7076 2.36559 0.832477
  1743 38.7087 2.36523 -0.832224
  1744 51.0247 0.324611 3.21351
  1745 51.0209 0.324732 -3.21328
  1746 100.701 7.49187 -18.0294
  1747 40.1641 1.05036 -2.52537
  1748 40.1649 1.05054 2.52614
  1749 51.8219 0.399788 4.06278
  1750 51.8181 0.400014 -4.06266
  1751 60.2763 0.0824242 2.23514
  1752 60.2722 0.0825256 -2.23549
  1753 37.1525 1.70999 -3.57939
  1754 37.1548 1.71146 3.57801
  1755 38.8053 0.324174 -4.88876
  1756 38.8080 0.326754 4.88713
  1757 48.7670 -0.297647 2.55913
  1758 48.7691 -0.300978 -2.55734
  1759 43.3740 -2.49940 5.57935
  1760 43.3758 -2.50477 -5.58294
  1761 37.6379 -7.09229 12.1169
  1762 37.2673 -6.92603 -12.0508
  1763 50.8148 3.70310 -2.76640
  1764 42.8243 0.137032 -1.33465
  1765 42.8268 0.137050 1.33502
  1766 42.1471 0.295287 0.472583
  1767 37.7618 2.30107 2.07282
  1768 37.7597 2.30056 -2.07367
  1769 57.6824 -8.53986 -3.92478
  1770 57.7816 -8.57715 3.91573
  1771 65.5578 -0.338672 -3.69650
  1772 65.5600 -0.339457 3.69396
  1773 47.5305 -0.251484 1.23723
  1774 47.5312 -0.252548 -1.23735
  1775 43.0940 0.165521 -1.03354
  1776 45.1455 -3.27382 5.07220
  1777 45.1356 -3.28465 -5.08058
  1778 69.4597 5.06262 0.860006
  1779 50.3091 -2.46560 -0.0395777
  1780 50.3061 -2.46352 0.0419708
  1781 42.3616 1.15673 -3.90234
  1782 42.3632 1.15677 3.90321
  1783 39.8101 0.930085 3.43328
  1784 39.8079 0.928830 -3.43470
  1785 37.9463 2.72155 2.84273
  1786 37.9469 2.72121 -2.84197
  1787 35.4206 3.73752 1.16454
  1788 35.4226 3.73723 -1.16444
  1789 38.8112 2.02979 1.85723
  1790 38.8117 2.02942 -1.85664
  1791 65.7368 11.8826 1.90041
  1792 69.1802 -1.52408 6.97251
  1793 69.1557 -1.53021 -6.98846
  1794 61.8618 -3.63849 0.765734
  1795 38.7365 2.30240 3.16775
  1796 38.7367 2.30210 -3.16688
  1797 54.9910 8.25696 -1.22193
  1798 102.480 6.42306 13.9532
  1799 43.4833 1.81581 7.84581
  1800 43.4805 1.81711 -7.84503
  1801 50.2862 0.566852 3.12016
  1802 36.1386 -9.37121 13.3684
  1803 36.5775 3.27975 0.691537
  1804 36.5792 3.27952 -0.691493
  1805 49.5807 3.71203 -1.34734
  1806 41.9784 0.240285 3.17806
  1807 41.9769 0.238928 -3.17969
  1808 49.9065 -1.22697 -0.124666
  1809 49.9051 -1.22537 0.126358
  1810 56.7037 -0.0993470 6.31777
  1811 56.6995 -0.0979740 -6.31950
  1812 37.0387 -9.38126 -13.1264
  1813 54.1600 7.19269 1.97027
  1814 44.9295 0.283842 2.11795
  1815 44.9266 0.283833 -2.11749
  1816 39.2652 2.48951 4.46511
  1817 39.2649 2.48936 -4.46404
  1818 46.1111 0.506921 1.11607
  1819 39.4575 2.60506 5.13944
  1820 39.4570 2.60504 -5.13829
  1821 42.4340 -5.66129 9.30783
  1822 42.2639 -5.81108 -9.52592
  1823 37.0866 3.42029 4.71927
  1824 37.0871 3.42011 -4.71811
  1825 64.1930 10.8945 -2.65412
  1826 73.8734 4.21985 5.64986
  1827 52.7496 0.543941 5.90799
  1828 52.7458 0.544685 -5.90840
  1829 68.8660 -2.89607 1.29381
  1830 68.8613 -2.88472 -1.29650
  1831 50.3539 -0.113992 -0.483007
  1832 50.3533 -0.113662 0.483334
  1833 36.2319 -1.27015 -10.2109
  1834 36.2384 -1.27337 10.2113
  1835 53.8114 -6.92207 9.46215
  1836 47.1603 -8.87917 11.8207
  1837 70.0644 -1.04188 -1.82988
  1838 70.0636 -1.04173 1.82538
  1839 58.2596 -3.25699 -2.15623
  1840 62.0067 0.303085 2.76385
  1841 57.0733 -7.31666 -5.21053
  1842 57.4557 -6.92387 5.19301
  1843 69.8255 -1.98921 5.96898
  1844 69.7899 -1.99087 -5.96646
  1845 51.3716 -8.57788 7.59481
  1846 10.2884 -8.18333 2.01275
  1847 10.2320 -8.15889 -1.98780
  1848 49.8484 -0.537753 -2.10795
  1849 49.8466 -0.537468 2.11080
  1850 57.8699 0.0213000 1.67689
  1851 57.8654 0.0213672 -1.67699
  1852 40.8166 0.910343 2.72794
  1853 40.8154 0.910215 -2.72717
  1854 83.8542 10.2681 15.5747
  1855 17.8574 -2.51166 6.67415
  1856 17.8329 -2.51845 -6.68470
  1857 38.5470 2.33112 -1.17066
  1858 38.5488 2.33124 1.17015
  1859 42.2084 0.989539 1.87700
  1860 42.2074 0.989057 -1.87795
  1861 44.8131 0.561165 -3.17973
  1862 44.8157 0.561158 3.18036
  1863 68.2078 -5.89254 -0.399200
  1864 68.0673 -5.91654 0.333691
  1865 18.0445 -12.1931 -6.58758
  1866 18.0568 -12.1868 6.58257
  1867 37.6609 2.88889 -0.747384
  1868 37.6594 2.88918 0.747535
  1869 49.6621 0.215363 2.71568
  1870 49.6583 0.215443 -2.71537
  1871 39.4594 1.86203 3.28334
  1872 39.4591 1.86179 -3.28245
  1873 34.8737 3.07961 7.73174
  1874 34.8727 3.08120 -7.72927
  1875 28.8855 -10.7049 8.66218
  1876 28.8467 -10.7185 -8.66889
  1877 36.1016 3.46972 6.86032
  1878 36.1013 3.47043 -6.85840
  1879 50.2520 -0.834737 -3.14938
  1880 50.2516 -0.830415 3.15324
  1881 51.1071 -1.64806 -2.61837
  1882 51.1094 -1.64851 2.62136
  1883 53.2855 2.43218 4.31549
  1884 58.3012 -3.19267 2.07626
  1885 49.8464 -0.439192 -0.456006
  1886 49.8457 -0.438321 0.456829
  1887 31.0843 4.36840 0.560108
  1888 31.0883 4.36764 -0.560570
  1889 17.7003 -12.1322 -2.45647
  1890 17.7119 -12.1178 2.45627
  1891 45.5170 0.962414 -1.49294
  1892 51.6012 0.578739 6.79724
  1893 51.5974 0.579777 -6.79776
  1894 47.9740 -0.0545397 -1.03422
  1895 47.9735 -0.0538899 1.03415
  1896 47.1735 -0.728291 1.55650
  1897 47.1746 -0.730095 -1.55677
  1898 43.4664 0.584368 -2.87670
  1899 43.4687 0.584402 2.87735
  1900 48.9937 -0.119063 1.23070
  1901 48.9998 -0.119353 -1.22873
  1902 39.8677 1.57154 3.16172
  1903 39.8671 1.57132 -3.16084
  1904 68.1246 -0.310297 -3.19805
  1905 68.1390 -0.308181 3.22922
  1906 46.5624 0.770409 8.49933
  1907 46.5583 0.772395 -8.49944
  1908 65.7477 0.0542599 7.65250
  1909 59.5206 2.77530 -4.09480
  1910 41.3739 0.106781 -0.991928
  1911 41.3760 0.106796 0.992237
  1912 41.3903 0.279288 -0.244338
  1913 32.7771 3.90938 -0.594997
  1914 32.7803 3.90923 0.594009
  1915 67.5860 8.29779 -16.4401
  1916 36.0930 3.65454 3.18128
  1917 36.0943 3.65417 -3.18053
  1918 12.8111 -6.78080 6.06051
  1919 12.7622 -6.78964 -6.09488
  1920 124.742 5.79895 -11.8300
  1921 54.1215 -8.53763 -6.34966
  1922 42.0466 0.0961831 -1.03210
  1923 42.0489 0.0961983 1.03240
  1924 85.2684 2.46975 -1.82025
  1925 51.8283 -0.0165356 -0.173178
  1926 51.8275 -0.0164938 0.173294
  1927 27.8236 -6.25965 5.96078
  1928 29.6027 -5.82891 -6.65363
  1929 29.5746 -2.92051 -10.4982
  1930 29.5604 -2.91049 10.4897
  1931 46.8508 0.0193277 1.27108
  1932 46.8512 0.0185844 -1.27142
  1933 51.0432 0.0766382 -1.20818
  1934 51.0475 0.0766252 1.20832
  1935 53.5811 1.97449 -4.40205
  1936 40.2683 1.30274 2.46366
  1937 40.2665 1.30208 -2.46476
  1938 50.4563 -1.00307 -0.419394
  1939 50.4570 -1.00424 0.421447
  1940 44.2655 0.288250 1.90326
  1941 44.2653 0.287329 -1.90422
  1942 39.9866 0.771549 2.02564
  1943 39.9857 0.771396 -2.02496
  1944 39.0879 1.91932 2.75641
  1945 39.0879 1.91902 -2.75561
  1946 75.6498 -0.382802 -0.797073
  1947 75.6595 -0.384950 0.798516
  1948 59.6901 9.24477 2.86434
  1949 42.3043 0.0860554 0.776636
  1950 56.9467 0.157041 4.25469
  1951 56.9428 0.157407 -4.25526
  1952 34.0338 -5.23758 10.3163
  1953 34.0244 -5.23568 -10.3210
  1954 49.1745 -2.89481 1.50707
  1955 49.1792 -2.89815 -1.50627
  1956 50.4437 -0.590502 -0.00456351
  1957 50.4442 -0.591388 0.00600627
  1958 34.6121 -4.75242 11.1447
  1959 34.5285 -4.76070 -11.1308
  1960 45.2292 0.576015 9.02880
  1961 45.2245 0.578332 -9.02893
  1962 58.6808 -5.43854 4.53718
  1963 58.6612 -5.43652 -4.53982
  1964 43.2467 0.807430 1.54679
  1965 43.2460 0.807027 -1.54756
  1966 100.691 10.3991 3.99466
  1967 41.1826 0.511597 -2.12257
  1968 41.1841 0.511676 2.12319
  1969 55.6195 -4.81402 0.943327
  1970 55.5560 -4.86818 -0.862716
  1971 35.9932 -2.21480 8.86564
  1972 35.9987 -2.21388 -8.88437
  1973 84.8382 3.66897 -3.85882
  1974 52.0253 -0.0245893 0.108119
  1975 52.0258 -0.0246702 -0.107825
  1976 63.2658 -2.15940 -5.21167
  1977 40.8909 1.31421 3.40557
  1978 40.8898 1.31407 -3.40469
  1979 56.2230 5.35996 4.05194
  1980 41.3197 0.850501 2.59976
  1981 41.3182 0.849654 -2.60104
  1982 74.4414 5.13204 -4.17174
  1983 56.0183 0.117670 3.60693
  1984 64.5400 -3.70051 1.98800
  1985 64.5317 -3.70396 -1.99550
  1986 40.1274 2.14804 -14.3704
  1987 56.8779 8.44426 -2.67149
  1988 50.4576 4.27500 1.55568
  1989 46.8275 1.79457 1.24568
  1990 6.60119 -26.4320 2.33353
  1991 6.63450 -26.4245 -2.38946
  1992 53.2867 6.62126 -1.77366
  1993 31.8550 4.55792 3.65113
  1994 31.8580 4.55735 -3.64984
  1995 55.7239 0.0457269 -3.53064
  1996 50.7340 -5.60688 -3.36997
  1997 50.8457 -5.58878 3.15931
  1998 57.2499 -7.15203 4.59896
  1999 57.2173 -7.14910 -4.59917
  2000 40.3042 -7.90021 6.79467
  2001 41.9903 -8.59329 -7.01050
  2002 32.1422 3.48467 -2.32076
  2003 32.1457 3.48482 2.31858
  2004 17.5991 -10.5758 10.4306
  2005 17.8081 -10.3917 -10.8228
  2006 36.9230 3.22713 2.07808
  2007 36.9243 3.22677 -2.07758
  2008 46.8403 0.0306826 0.823450
  2009 46.8365 0.0306901 -0.823285
  2010 66.5658 1.11728 -0.926031
  2011 44.1272 0.812022 -3.72278
  2012 44.1295 0.812003 3.72352
  2013 38.3124 2.42088 2.01117
  2014 38.3131 2.42051 -2.01057
  2015 71.3014 -0.703076 -8.02612
  2016 65.2987 6.16917 2.84200
  2017 45.4371 -4.76970 -6.51435
  2018 45.4471 -4.65496 6.45217
  2019 75.1246 0.770528 -7.27274
  2020 50.4568 0.260394 -3.17337
  2021 71.7513 -3.81237 -4.97957
  2022 71.7481 -3.80833 5.00069
  2023 38.5318 2.49842 0.165979
  2024 38.5333 2.49816 -0.165985
  2025 39.8699 1.15906 2.45264
  2026 39.8693 1.15885 -2.45189
  2027 83.1644 2.92263 4.68513
  2028 48.9007 0.954064 6.24229
  2029 48.8974 0.954748 -6.24210
  2030 64.7870 0.385151 -7.44992
  2031 40.3078 0.267201 1.38738
  2032 40.3064 0.267146 -1.38690
  2033 45.7379 -0.898757 2.35317
  2034 45.7388 -0.900995 -2.35437
  2035 36.7213 -1.68631 12.7371
  2036 74.9250 -0.195154 -1.10674
  2037 74.9210 -0.195284 1.10470
  2038 43.6559 -0.340178 2.93606
  2039 43.6553 -0.341923 -2.93781
  2040 40.1804 0.0576273 0.663499
  2041 40.1786 0.0576131 -0.663261
  2042 50.5873 -0.397866 -1.19769
  2043 50.5851 -0.398454 1.20011
  2044 17.1651 -12.9656 6.63769
  2045 75.7571 6.21127 -0.920379
  2046 64.5992 -2.74567 -3.08776
  2047 64.6055 -2.74571 3.08195
  2048 45.6377 -1.12795 -9.46710
  2049 45.6435 -1.13031 9.46662
  2050 51.3990 -0.116915 0.464526
  2051 51.4020 -0.116714 -0.463331
  2052 44.9803 0.618942 1.57855
  2053 137.212 4.49503 2.77854
  2054 83.1994 6.78842 -3.23116
  2055 49.2016 -0.189435 -3.34934
  2056 49.2120 -0.188020 3.35154
  2057 62.5608 1.67931 5.86484
  2058 45.4430 -2.29098 3.84589
  2059 45.4439 -2.29489 -3.84870
  2060 38.6985 2.23611 1.35633
  2061 38.6993 2.23572 -1.35589
  2062 75.2874 0.736536 7.30262
  2063 38.2307 2.69557 3.53547
  2064 38.2310 2.69527 -3.53456
  2065 52.0931 -1.77468 -3.24725
  2066 52.0972 -1.77443 3.25021
  2067 43.0309 -7.86866 -11.1910
  2068 15.7561 -14.4899 -6.23951
  2069 48.5150 -2.33340 -1.68891
  2070 48.5113 -2.33001 1.68925
  2071 49.3033 -1.59607 -0.652154
  2072 49.3012 -1.59391 0.653485
  2073 49.5343 -0.0469293 -0.675065
  2074 49.5337 -0.0465889 0.675159
  2075 69.1808 5.52926 -0.419103
  2076 40.5776 1.58268 -1.56313
  2077 40.5791 1.58289 1.56239
  2078 35.8187 3.25910 0.677860
  2079 35.8165 3.25899 -0.678386
  2080 46.4115 -4.27131 5.24086
  2081 46.4952 -4.28889 -5.22634
  2082 37.7422 -1.87416 7.81605
  2083 37.7518 -1.88796 -7.82057
  2084 71.4193 -0.712033 7.94775
  2085 34.7035 3.83244 0.496049
  2086 34.7059 3.83223 -0.496281
  2087 32.6390 -10.8508 -8.51449
  2088 32.7373 -10.8145 8.47644
  2089 47.8205 -6.41810 -8.51575
  2090 47.8243 -6.41418 8.52303
  2091 34.0403 4.16164 -1.81286
  2092 34.0379 4.16207 1.81307
  2093 12.2469 -9.69012 -3.70942
  2094 12.2581 -9.71349 3.72077
  2095 59.4119 2.73489 2.34342
  2096 61.7124 -0.0438555 -4.24893
  2097 48.4111 0.0355684 0.803466
  2098 48.4071 0.0355703 -0.803330
  2099 49.8254 -0.196485 -0.590710
  2100 49.8248 -0.195929 0.591127
  2101 47.7373 -0.674352 1.30456
  2102 47.7385 -0.675973 -1.30452
  2103 49.8751 -0.315472 8.48729
  2104 49.8699 -0.313229 -8.48833
  2105 98.5825 7.09583 0.565437
  2106 17.0806 0.263299 -1.40734
  2107 17.1013 0.258848 1.41136
  2108 51.1508 -0.200493 -0.121408
  2109 51.1506 -0.200151 0.122265
  2110 43.7347 0.731413 -0.437733
  2111 43.8783 0.0240805 -0.569249
  2112 43.8814 0.0240878 0.569400
  2113 39.5154 2.10336 -0.0651528
  2114 39.5167 2.10309 0.0650826
  2115 57.2078 1.99648 -3.41192
  2116 25.5487 3.92447 2.70113
  2117 25.5555 3.92327 -2.69795
  2118 69.5120 -3.37384 3.76747
  2119 69.4938 -3.35194 -3.76232
  2120 51.8366 4.86272 2.46590
  2121 46.7898 -1.26985 2.06949
  2122 46.7914 -1.27244 -2.07023
  2123 51.3406 -0.237177 0.216482
  2124 51.3410 -0.236804 -0.215266
  2125 52.0530 -0.0627289 0.210281
  2126 52.0546 -0.0626546 -0.209558
  2127 42.2676 1.72081 8.57349
  2128 42.2643 1.72275 -8.57269
  2129 5.60015 -23.5071 -2.35768
  2130 5.63996 -23.1116 2.39672
  2131 26.7187 4.34105 -1.34138
  2132 26.7117 4.34290 1.34250
  2133 49.0716 -0.188606 -0.795654
  2134 49.0710 -0.187944 0.795897
  2135 40.6094 2.48328 5.92980
  2136 40.6083 2.48352 -5.92862
  2137 53.3827 3.61626 3.99920
  2138 68.9119 1.37454 7.73399
  2139 39.3578 1.25390 9.27420
  2140 39.3537 1.25663 -9.27302
  2141 40.8319 0.266704 1.47390
  2142 40.8303 0.266654 -1.47342
  2143 55.9993 0.147964 3.35647
  2144 55.9952 0.148178 -3.35668
  2145 41.2287 2.32547 6.37598
  2146 41.2273 2.32590 -6.37481
  2147 60.5678 0.0715641 -3.56490
  2148 60.5715 0.0712162 3.56402
  2149 51.7726 -8.31998 -6.72747
  2150 82.2524 7.26494 2.19797
  2151 44.8644 -7.04381 9.35783
  2152 46.2856 0.894406 -2.20800
  2153 45.1935 1.33657 -5.69360
  2154 45.1960 1.33621 5.69432
  2155 28.6330 2.95727 -3.77345
  2156 28.6391 2.95594 3.76932
  2157 43.0768 1.66600 5.57208
  2158 43.0750 1.66622 -5.57113
  2159 60.8356 5.03421 3.95879
  2160 75.4448 3.14568 -6.68365
  2161 22.9534 2.48291 4.36605
  2162 22.9590 2.48350 -4.35942
  2163 32.5632 -7.90464 13.1902
  2164 34.2993 -7.92237 -13.0615
  2165 51.6240 -4.49333 -11.1304
  2166 43.2035 0.870876 3.52137
  2167 43.2015 0.870843 -3.52059
  2168 56.4405 0.0801194 -1.45885
  2169 56.4452 0.0800732 1.45883
  2170 41.6531 0.162901 -0.616548
  2171 49.3915 -0.446904 -2.43248
  2172 49.3893 -0.445103 2.43487
  2173 33.1940 4.37163 3.61691
  2174 33.1963 4.37118 -3.61586
  2175 50.2863 -1.92128 -0.266950
  2176 50.2883 -1.92301 0.269204
  2177 53.5439 0.209770 -3.13435
  2178 53.5480 0.209630 3.13437
  2179 39.2983 2.31789 -3.97099
  2180 39.2986 2.31811 3.97198
  2181 26.7150 -0.770074 8.53354
  2182 26.7116 -0.772355 -8.54233
  2183 79.2435 -0.0734698 -3.71336
  2184 34.9429 3.96707 -2.17257
  2185 34.9409 3.96747 2.17296
  2186 48.2743 2.97022 -0.0117449
  2187 104.890 8.99758 -0.529593
  2188 75.3280 14.2549 0.500884
  2189 46.9026 -0.284543 1.43865
  2190 46.9032 -0.285768 -1.43898
  2191 58.0059 -6.28467 -2.01348
  2192 88.2956 7.30252 2.45359
  2193 79.1931 -0.0864734 3.88984
  2194 63.7638 7.72527 -3.53162
  2195 50.6990 -0.00399816 -0.404341
  2196 50.6983 -0.00387957 0.404428
  2197 53.5549 -4.08172 -1.31221
  2198 53.5522 -4.08290 1.31900
  2199 41.7972 2.04031 5.59157
  2200 41.7958 2.04048 -5.59052
  2201 52.7003 -3.98411 -0.722028
  2202 52.7022 -3.98369 0.726788
  2203 43.9818 -9.31410 -12.2245
  2204 41.7380 0.559887 2.34479
  2205 41.7363 0.559811 -2.34414
  2206 53.6415 -1.62327 -3.69703
  2207 53.6391 -1.61630 3.71598
  2208 62.2658 -0.0115901 3.85071
  2209 39.5135 1.94791 1.43883
  2210 39.5118 1.94775 -1.43947
  2211 41.0597 2.32927 7.79238
  2212 41.0575 2.33046 -7.79117
  2213 55.6809 -0.482551 -7.01963
  2214 55.6857 -0.484417 7.01762
  2215 44.4543 -4.67308 9.66981
  2216 44.4510 -4.67474 -9.66878
  2217 36.5498 3.21593 0.0316338
  2218 36.5478 3.21604 -0.0318388
  2219 40.8207 0.0724396 0.870328
  2220 40.8187 0.0724285 -0.870039
  2221 54.3227 -0.814659 -4.09633
  2222 54.1912 -0.837931 4.11426
  2223 65.5615 0.0565463 -1.46246
  2224 65.5649 0.0564479 1.46198
  2225 48.8239 -0.467824 -0.864788
  2226 48.8230 -0.466725 0.865225
  2227 81.3632 14.3170 0.848162
  2228 58.4116 0.159856 3.22447
  2229 58.4076 0.160075 -3.22492
  2230 37.8736 2.65429 8.24669
  2231 37.8716 2.65603 -8.24488
  2232 68.5256 -0.484397 -2.89743
  2233 68.5263 -0.485178 2.89409
  2234 57.3872 -2.08028 -6.45559
  2235 57.3944 -2.08269 6.45311
  2236 41.7415 -8.01319 -8.98251
  2237 41.7230 -8.00442 8.97749
  2238 24.4305 -4.71283 11.2385
  2239 24.4164 -4.69431 -11.2433
  2240 50.9642 -1.78204 -1.72108
  2241 50.9657 -1.78317 1.72363
  2242 65.4408 -0.464442 6.50901
  2243 41.9744 0.254261 -1.21302
  2244 41.4550 0.262206 1.53354
  2245 41.4531 0.262163 -1.53308
  2246 90.1633 3.68649 2.77886
  2247 52.3784 0.0123389 1.20826
  2248 52.3739 0.0123665 -1.20817
  2249 50.5932 -1.00704 -1.84305
  2250 50.5934 -1.00792 1.84595
  2251 48.7148 -1.19956 0.948281
  2252 48.7166 -1.20159 -0.947545
  2253 61.4223 -0.0833544 -4.80050
  2254 61.4256 -0.0842717 4.79850
  2255 39.8808 -2.45560 10.1995
  2256 39.8746 -2.45380 -10.2003
  2257 22.5796 0.0417697 6.76294
  2258 22.5785 0.0464190 -6.75513
  2259 124.897 5.77658 8.91781
  2260 56.8107 2.53480 -0.498917
  2261 39.6391 1.40652 -2.59095
  2262 39.6395 1.40676 2.59174
  2263 90.3336 8.27587 -1.19977
  2264 38.5953 2.43071 -0.429197
  2265 38.5970 2.43058 0.428964
  2266 49.9780 -6.02049 4.65842
  2267 71.9215 -1.38266 2.48851
  2268 71.9118 -1.37413 -2.48156
  2269 65.5065 -0.449856 -6.68908
  2270 51.9967 0.431560 -7.09051
  2271 52.0007 0.430306 7.08975
  2272 55.5605 -3.18019 -2.67545
  2273 55.5172 -3.28328 2.59049
  2274 41.8614 0.896488 3.11782
  2275 41.8599 0.896398 -3.11703
  2276 62.7877 -0.884404 -4.85843
  2277 62.7917 -0.885899 4.85504
  2278 68.5456 3.09858 4.05341
  2279 74.4606 10.4536 0.644506
  2280 33.7248 2.92517 2.96042
  2281 33.7221 2.92424 -2.96250
  2282 63.4234 -0.415573 -0.967414
  2283 44.4241 0.0212418 -1.04766
  2284 45.7216 -9.19613 -11.2057
  2285 68.7501 10.5579 1.70687
  2286 48.7739 0.250854 2.54535
  2287 48.7702 0.250896 -2.54500
  2288 72.8386 -0.494657 -2.22890
  2289 72.8375 -0.501202 2.24210
  2290 50.8652 -0.834828 3.58891
  2291 50.8622 -0.841874 -3.58410
  2292 46.5758 0.00294481 -1.00336
  2293 46.5646 0.00652391 0.997867
  2294 45.2432 0.745598 3.92059
  2295 45.2406 0.745663 -3.91991
  2296 25.1319 3.31496 -2.10665
  2297 25.1417 3.31169 2.10493
  2298 50.7199 -1.61378 -1.16440
  2299 50.7212 -1.61506 1.16693
  2300 35.4087 3.94489 4.80134
  2301 35.4098 3.94471 -4.80003
  2302 20.8730 2.26025 2.11659
  2303 20.8833 2.25918 -2.11035
  2304 41.1532 0.0293366 0.354784
  2305 41.1509 0.0293307 -0.354667
  2306 52.2829 -8.02015 5.85933
  2307 50.9326 0.383600 7.84114
  2308 50.9283 0.385250 -7.84199
  2309 56.1309 1.73795 4.13288
  2310 36.5207 3.40845 2.21657
  2311 36.5221 3.40808 -2.21606
  2312 46.3647 0.121138 1.67019
  2313 46.3613 0.121142 -1.66986
  2314 43.7638 -0.0859405 2.55665
  2315 43.7633 -0.0873764 -2.55809
  2316 51.3497 -2.74286 1.08798
  2317 51.3478 -2.74188 -1.08514
  2318 42.7861 0.450179 2.39669
  2319 42.7839 0.450130 -2.39608
  2320 48.6376 2.00489 -2.66614
  2321 48.0355 0.707901 -3.09623
  2322 61.4848 2.25769 -5.10979
  2323 45.8350 0.198178 1.41259
  2324 45.8351 0.197470 -1.41312
  2325 69.8259 4.27622 4.39398
  2326 35.8671 3.81073 4.27464
  2327 35.8682 3.81045 -4.27355
  2328 59.0034 6.85633 3.94106
  2329 46.3385 -0.549999 1.82971
  2330 46.3394 -0.551728 -1.83037
  2331 45.6401 -0.0157983 1.67104
  2332 45.6404 -0.0168763 -1.67174
  2333 38.1653 3.08572 -4.96463
  2334 38.1652 3.08583 4.96581
  2335 41.3572 2.33938 7.25089
  2336 41.3553 2.34020 -7.24972
  2337 30.5688 0.632392 -8.93778
  2338 30.5729 0.628270 8.94134
  2339 77.2303 3.55532 6.23833
  2340 84.3933 10.1639 -17.3413
  2341 67.3984 -1.50308 6.37035
  2342 57.2638 0.691039 -5.28997
  2343 38.1895 1.02408 -4.17228
  2344 38.1920 1.02601 4.17083
  2345 52.2611 -0.0521359 -0.0305286
  2346 52.2610 -0.0520678 0.0308693
  2347 47.0544 0.531159 -2.45475
  2348 44.8171 0.0397446 0.555515
  2349 44.8138 0.0397409 -0.555382
  2350 40.9081 0.368441 3.58543
  2351 40.9061 0.366963 -3.58706
  2352 52.6768 0.454944 -5.33198
  2353 52.6806 0.454416 5.33178
  2354 53.3654 0.389400 -4.37602
  2355 50.3597 -0.888745 -2.22178
  2356 50.3597 -0.889054 2.22488
  2357 40.1996 0.499393 -1.74212
  2358 40.2007 0.499497 1.74271
  2359 117.568 6.77678 16.6368
  2360 38.3440 2.45796 1.52036
  2361 38.3449 2.45759 -1.51991
  2362 50.0083 -0.778607 -0.199335
  2363 50.0074 -0.777441 0.200725
  2364 30.9248 2.65840 4.27297
  2365 30.9209 2.65825 -4.27715
  2366 43.6402 1.27913 4.70247
  2367 43.6382 1.27922 -4.70161
  2368 84.3195 6.36945 18.4247
  2369 12.1269 -11.5909 7.71919
  2370 12.1587 -11.6773 -7.68164
  2371 48.3676 0.697882 4.46270
  2372 48.3644 0.698087 -4.46226
  2373 39.0151 1.82727 -1.98663
  2374 39.0148 1.82762 1.98728
  2375 49.6112 -2.49255 -0.775454
  2376 49.6078 -2.48981 0.777117
  2377 33.6193 4.10215 0.718363
  2378 33.6220 4.10181 -0.718631
  2379 47.2477 0.631683 -3.92825
  2380 47.2508 0.631569 3.92878
  2381 75.0877 6.77150 -17.8411
  2382 57.1100 -5.28456 -0.289984
  2383 57.1786 -4.86520 0.720061
  2384 50.2317 0.340661 3.10933
  2385 68.8828 -0.889805 -2.50251
  2386 68.8832 -0.890364 2.49812
  2387 54.1974 -4.89630 0.360087
  2388 54.1856 -4.88286 -0.370350
  2389 45.3054 -1.43329 -3.07042
  2390 45.3046 -1.43038 3.06844
  2391 56.9094 -3.28976 9.86289
  2392 57.3992 -1.93778 -3.29397
  2393 38.5244 2.30770 2.53715
  2394 38.5248 2.30736 -2.53642
  2395 62.9302 -1.97503 -4.42304
  2396 62.9360 -1.97670 4.41854
  2397 48.0933 1.11993 -7.06381
  2398 48.0967 1.11892 7.06393
  2399 41.8863 1.15736 3.59461
  2400 41.8848 1.15727 -3.59376
  2401 65.3735 -0.0165654 -3.01601
  2402 56.2335 4.97419 -4.19790
  2403 50.1252 0.573518 -3.83046
  2404 7.71115 -24.5703 -3.07037
  2405 8.00484 -23.6668 3.42994
  2406 50.9810 1.84890 -3.79664
  2407 76.3115 -0.151689 -0.778566
  2408 76.3053 -0.151730 0.776612
  2409 42.9853 -0.342753 -3.35758
  2410 42.9864 -0.340959 3.35563
  2411 61.7270 -0.425445 5.00751
  2412 61.7236 -0.424208 -5.01006
  2413 41.7268 1.33489 1.27394
  2414 41.7257 1.33479 -1.27456
  2415 41.2598 0.819960 -2.70492
  2416 41.2612 0.820071 2.70566
  2417 39.2213 1.58104 2.17449
  2418 39.2213 1.58074 -2.17378
  2419 70.3089 4.85116 -2.82313
  2420 44.1967 0.782754 0.548126
  2421 60.0497 11.5037 -0.325639
  2422 38.3430 2.54594 3.19970
  2423 38.3433 2.54563 -3.19886
  2424 108.029 7.56331 -3.48303
  2425 77.8139 -0.233698 0.0193164
  2426 77.8025 -0.233034 -0.0203080
  2427 58.6579 2.17192 4.33369
  2428 72.2609 -0.155375 -1.51991
  2429 72.2601 -0.155563 1.51837
  2430 55.9124 0.241113 -5.93702
  2431 55.9163 0.240146 5.93590
  2432 21.9971 -0.790012 -7.52728
  2433 22.0103 -0.792416 7.51630
  2434 43.3746 0.218004 -1.70066
  2435 43.3771 0.218024 1.70109
  2436 60.3514 0.313697 -6.09826
  2437 34.9962 4.07179 3.47512
  2438 34.9979 4.07138 -3.47427
  2439 71.2189 -1.15936 -3.82195
  2440 71.2153 -1.16058 3.84537
  2441 74.4460 14.8720 -0.208063
  2442 50.0349 0.0700732 -0.950864
  2443 50.0392 0.0700710 0.950993
  2444 96.5706 9.06220 0.234428
  2445 39.6313 1.11036 2.16325
  2446 39.6309 1.11015 -2.16254
  2447 50.3394 -0.0827074 -0.705383
  2448 50.3339 -0.0828463 0.706958
  2449 40.4500 1.36915 3.19225
  2450 40.4491 1.36897 -3.19139
  2451 48.1084 0.705297 3.15250
  2452 42.8096 0.00569145 -0.359884
  2453 42.8124 0.00569355 0.359986
  2454 44.7884 -0.0430841 2.04842
  2455 44.7884 -0.0443566 -2.04946
  2456 57.2691 -1.85962 3.34245
  2457 46.2088 0.0241432 -0.618603
  2458 46.2125 0.0241401 0.618736
  2459 40.8383 0.195779 0.0337278
  2460 61.5414 0.299086 6.47974
  2461 48.1471 0.131988 -3.07421
  2462 48.1783 0.140595 3.09374
  2463 51.1987 -3.16122 -0.351095
  2464 51.2018 -3.16253 0.354612
  2465 41.0240 -0.113630 4.19144
  2466 41.0217 -0.115694 -4.19328
  2467 29.8937 4.50936 0.681709
  2468 29.8985 4.50821 -0.682008
  2469 40.2409 0.180349 -1.12824
  2470 40.2424 0.180391 1.12863
  2471 32.1553 2.67056 8.07491
  2472 32.1540 2.67290 -8.07145
  2473 78.6784 1.74884 -6.79064
  2474 50.5200 4.59804 -0.947408
  2475 65.2656 -6.06642 -0.502114
  2476 65.2563 -6.09114 0.481673
  2477 38.7754 2.24545 1.06546
  2478 38.7764 2.24507 -1.06513
  2479 50.1537 0.550144 3.85769
  2480 107.464 9.76242 -3.13418
  2481 38.1759 3.14774 6.33815
  2482 38.1754 3.14811 -6.33668
  2483 47.8790 2.28959 -1.75676
  2484 42.4196 1.12346 11.0424
  2485 48.5508 -0.743992 8.86498
  2486 48.5451 -0.741642 -8.86592
  2487 81.1906 2.54346 6.50614
  2488 37.4216 3.13303 -11.2569
  2489 51.3835 0.984664 4.10225
  2490 52.7057 -2.62116 2.68786
  2491 52.7080 -2.61985 -2.68605
  2492 48.8932 2.30382 2.58013
  2493 67.6303 -3.82464 1.19133
  2494 67.6266 -3.80978 -1.19749
  2495 59.0533 -7.50541 -3.28363
  2496 59.1058 -7.50734 3.27789
  2497 53.2352 -1.62707 -7.82657
  2498 53.2415 -1.62941 7.82496
  2499 37.3992 2.91885 0.126221
  2500 37.3974 2.91897 -0.126396
  2501 22.7069 3.19532 0.857140
  2502 22.7173 3.19290 -0.853977
  2503 46.8534 0.452851 -3.14261
  2504 46.8565 0.452802 3.14311
  2505 54.9642 -8.26261 6.12458
  2506 137.626 3.94791 -8.51027
  2507 42.7004 -0.268697 9.62719
  2508 42.6950 -0.266018 -9.62715
  2509 81.9376 4.44375 -5.07474
  2510 50.5853 -0.380362 -0.145357
  2511 50.5850 -0.379705 0.146452
  2512 59.0657 -1.22795 -6.04938
  2513 59.0711 -1.23001 6.04646
  2514 35.3292 3.87132 5.92198
  2515 35.3299 3.87152 -5.92024
  2516 43.4058 -7.84174 10.9025
  2517 50.6022 0.419990 3.96459
  2518 50.5985 0.420197 -3.96436
  2519 46.0597 -3.04240 -4.16745
  2520 46.0565 -3.03697 4.16418
  2521 108.354 7.77706 2.60826
  2522 29.2069 2.65194 7.34659
  2523 29.2071 2.65413 -7.34215
  2524 47.5994 -6.90405 7.61219
  2525 40.3563 0.00893272 0.271095
  2526 40.3542 0.00893125 -0.270999
  2527 67.4074 -0.259838 -7.81652
  2528 39.6273 1.58399 -2.86677
  2529 39.6277 1.58423 2.86760
  2530 37.7383 3.05129 3.80922
  2531 37.7388 3.05100 -3.80827
  2532 54.6097 0.0228921 1.10993
  2533 54.6050 0.0229142 -1.10988
  2534 44.6173 -0.212040 2.31864
  2535 44.6174 -0.213547 -2.31989
  2536 61.2494 2.97893 -2.43395
  2537 76.9140 -0.169764 -0.535860
  2538 76.9061 -0.169672 0.533949
  2539 52.6056 -1.35703 -3.77052
  2540 52.6119 -1.36136 3.77073
  2541 47.3475 0.202716 2.11841
  2542 47.3440 0.202726 -2.11805
  2543 40.6239 1.71184 3.97203
  2544 40.6230 1.71170 -3.97107
  2545 71.9769 6.39361 -2.41592
  2546 48.3723 -1.97173 1.48986
  2547 48.3752 -1.97474 -1.48943
  2548 54.7749 -8.21805 -7.70512
  2549 57.7911 1.70592 -4.41523
  2550 57.0698 -7.30651 6.16367
  2551 52.2945 -4.73735 0.570495
  2552 52.2944 -4.72788 -0.561803
  2553 67.3460 -0.882657 -6.48269
  2554 44.7489 0.438125 1.50959
  2555 44.7487 0.437542 -1.51027
  2556 46.9470 0.00471054 -2.26668
  2557 46.9195 0.0379142 2.25989
  2558 20.7723 -8.06395 8.17370
  2559 20.7567 -8.05974 -8.17336
  2560 67.3234 13.8751 -0.567507
  2561 51.9595 -0.538889 -4.05974
  2562 51.9625 -0.546551 4.04712
  2563 7.39378 -14.6436 -2.12290
  2564 7.42280 -14.6252 2.25195
  2565 40.4501 1.80692 0.751820
  2566 40.4488 1.80705 -0.752181
  2567 42.4261 0.313043 1.84369
  2568 42.4239 0.312997 -1.84319
  2569 67.4055 -0.866944 6.40533
  2570 37.7322 3.18829 6.86274
  2571 37.7315 3.18895 -6.86109
  2572 58.9568 -5.86564 1.30816
  2573 32.9279 4.30372 5.06761
  2574 32.9297 4.30359 -5.06579
  2575 46.4961 1.23237 1.78909
  2576 43.4287 0.376987 1.66963
  2577 53.4155 -6.38588 2.32859
  2578 53.7247 -6.23048 -1.89163
  2579 41.8999 0.0158294 0.365741
  2580 41.8974 0.0158286 -0.365627
  2581 55.7319 -6.65910 2.05264
  2582 36.7852 3.19846 1.26619
  2583 36.7867 3.19815 -1.26594
  2584 41.0670 1.88701 4.61228
  2585 41.0659 1.88696 -4.61127
  2586 69.7659 3.83693 -5.42163
  2587 47.3125 -2.16371 9.17284
  2588 47.3061 -2.16189 -9.17330
  2589 39.0066 -0.120498 -9.87936
  2590 39.0121 -0.123559 9.87998
  2591 75.0876 -0.287532 -1.37930
  2592 75.0920 -0.289812 1.38577
  2593 56.0122 9.31037 0.0644415
  2594 40.7943 2.14710 5.07199
  2595 40.7933 2.14711 -5.07090
  2596 49.1617 -1.96876 0.927551
  2597 49.1646 -1.97134 -0.926342
  2598 44.9803 -0.893460 2.80798
  2599 44.9807 -0.895750 -2.80969
  2600 115.226 8.33727 0.791399
  2601 19.4809 -2.61513 6.59123
  2602 19.4771 -2.60743 -6.58162
  2603 48.0298 -0.198902 -1.08068
  2604 48.0292 -0.198015 1.08069
  2605 44.4281 0.00267507 1.03924
  2606 116.531 6.55828 -17.2874
  2607 52.2525 -3.33516 -1.34954
  2608 52.2532 -3.33555 1.35356
  2609 70.9415 -1.90920 -3.54266
  2610 70.9537 -1.91887 3.55433
  2611 62.7583 0.0267108 1.21020
  2612 62.7542 0.0267410 -1.21046
  2613 65.1957 -0.145877 3.19806
  2614 48.3304 2.48710 1.79459
  2615 45.8808 0.297853 2.19227
  2616 55.0476 2.15020 -4.52494
  2617 32.5756 4.02993 6.12235
  2618 32.5768 4.03037 -6.11990
  2619 39.4467 1.47744 2.47977
  2620 39.4465 1.47718 -2.47900
  2621 59.9705 -0.0327763 -1.25561
  2622 59.9751 -0.0328061 1.25546
  2623 37.8154 2.76999 2.36387
  2624 37.8162 2.76963 -2.36323
  2625 59.8104 10.3859 -2.00174
  2626 70.7222 -0.242386 -2.44200
  2627 70.7176 -0.252985 2.46310
  2628 70.0307 -1.29119 4.86969
  2629 70.0364 -1.28497 -4.84710
  2630 47.4441 0.00691453 1.12423
  2631 47.4445 0.00627886 -1.12444
  2632 68.8854 -1.62143 -1.61203
  2633 68.8859 -1.62022 1.60689
  2634 101.190 8.17885 -0.0110519
  2635 19.1263 -10.1064 -2.39079
  2636 18.8573 -10.3106 2.34429
  2637 73.4255 -2.49456 -5.99374
  2638 73.4876 -2.41749 5.99645
  2639 40.3699 0.536782 -1.86009
  2640 40.3711 0.536887 1.86070
  2641 41.4741 1.23475 1.81613
  2642 41.4728 1.23438 -1.81701
  2643 66.9324 -6.25928 1.36005
  2644 66.9109 -6.21690 -1.37757
  2645 70.1442 10.6403 19.7247
  2646 54.1207 -3.58454 8.49411
  2647 55.0461 6.52058 3.19508
  2648 44.5230 1.69978 -6.48220
  2649 44.5254 1.69920 6.48299
  2650 97.4914 9.87845 12.3387
  2651 26.5208 4.07151 -0.522167
  2652 26.5286 4.06911 0.521579
  2653 46.6217 1.98429 -0.320656
  2654 42.4457 -0.788955 4.17736
  2655 42.4437 -0.791432 -4.17945
  2656 68.4264 0.0161883 -1.50472
  2657 68.4286 0.0160796 1.50394
  2658 28.2604 3.53511 -5.87455
  2659 28.2580 3.53426 5.87870
  2660 35.3382 3.80792 1.78982
  2661 35.3401 3.80756 -1.78953
  2662 49.9052 -1.55209 0.101070
  2663 49.9070 -1.55391 -0.0992253
  2664 52.1814 0.250024 -4.27459
  2665 51.0271 0.625582 5.48411
  2666 51.0235 0.626100 -5.48411
  2667 71.6725 -4.42578 2.75023
  2668 71.7717 -4.31535 -2.71907
  2669 74.1865 -0.0868217 -1.11971
  2670 74.1839 -0.0869411 1.11814
  2671 51.6723 -7.98628 -6.71058
  2672 51.6944 -7.98997 6.73372
  2673 72.6871 -1.13661 0.617085
  2674 72.6805 -1.13233 -0.617636
  2675 41.5523 0.456769 2.10944
  2676 41.5506 0.456707 -2.10883
  2677 60.0044 -5.67941 -4.15240
  2678 50.2317 -0.296906 1.28998
  2679 50.2350 -0.296480 -1.28750
  2680 35.3689 3.89344 -2.95426
  2681 35.3673 3.89384 2.95493
  2682 48.7421 -0.703128 0.902678
  2683 48.7432 -0.704569 -0.902131
  2684 40.2362 1.16697 -2.74717
  2685 40.2370 1.16716 2.74797
  2686 34.0449 3.58008 -1.06053
  2687 34.0477 3.58025 1.05954
  2688 40.7500 0.163603 -0.351122
  2689 68.1870 -4.66672 2.98997
  2690 68.1719 -4.64102 -2.99526
  2691 46.9508 -1.73944 2.31629
  2692 46.9531 -1.74261 -2.31728
  2693 83.6008 1.96651 1.12278
  2694 50.8756 5.21446 0.392084
  2695 48.1895 -4.69470 4.25143
  2696 48.2404 -4.65557 -4.24872
  2697 38.2855 2.57223 0.868844
  2698 38.2867 2.57188 -0.868607
  2699 52.9274 -3.98448 -7.42048
  2700 52.9373 -3.98650 7.42131
  2701 63.9414 0.949762 -9.26425
  2702 36.8121 3.39566 3.64987
  2703 36.8130 3.39533 -3.64897
  2704 38.2994 2.83873 4.27042
  2705 38.2995 2.83851 -4.26938
  2706 50.1814 0.585631 4.75521
  2707 50.1779 0.585955 -4.75498
  2708 49.1970 0.936373 -3.51758
  2709 47.7025 -6.87342 -7.32094
  2710 58.8123 0.741204 5.82229
  2711 45.1767 1.56991 7.13437
  2712 45.1738 1.57083 -7.13377
  2713 86.6383 6.30559 -3.25125
  2714 63.6182 -7.34331 -0.677009
  2715 63.6614 -7.31665 0.628276
  2716 38.8160 2.08871 1.57505
  2717 38.8167 2.08834 -1.57453
  2718 55.0244 1.81514 4.56751
  2719 95.7131 10.7296 -13.0226
  2720 46.1213 0.225505 -2.28692
  2721 50.5523 -1.58179 -0.725059
  2722 50.5536 -1.58321 0.727407
  2723 67.0960 -0.173013 -2.79190
  2724 67.0978 -0.173394 2.79008
  2725 41.9623 0.723082 2.79845
  2726 41.9606 0.723008 -2.79771
  2727 45.5986 1.35997 0.676478
  2728 37.6488 2.81778 1.57836
  2729 37.6499 2.81742 -1.57794
  2730 63.6199 12.4094 1.44009
  2731 50.8672 -0.187008 -0.278228
  2732 50.8668 -0.186641 0.278861
  2733 41.1148 0.286934 1.61617
  2734 41.1130 0.286884 -1.61567
  2735 12.9757 -17.1656 0.0680477
  2736 12.9959 -17.1779 -0.0891883
  2737 31.8704 4.47797 1.64060
  2738 31.8738 4.47729 -1.64047
  2739 44.5469 0.443280 2.73019
  2740 44.5443 0.443270 -2.72960
  2741 52.8203 3.31007 -4.00816
  2742 47.7183 -5.96810 6.29969
  2743 56.4919 3.16517 4.41158
  2744 59.1702 -3.96585 -4.96058
  2745 59.1831 -3.96829 4.95720
  2746 63.4893 -0.761888 1.07189
  2747 49.9495 0.322942 3.19077
  2748 49.9458 0.323047 -3.19047
  2749 54.3782 -5.29169 -7.20096
  2750 46.9574 1.11815 -5.50461
  2751 46.9603 1.11779 5.50516
  2752 51.8903 -9.28833 -5.89773
  2753 52.0271 -9.29456 5.98502
  2754 63.4453 -5.05013 -1.74599
  2755 63.4591 -5.04349 1.73528
  2756 68.6375 -0.190433 -2.74353
  2757 68.6382 -0.190994 2.74094
  2758 35.9043 2.09106 3.54606
  2759 35.9020 2.08957 -3.54770
  2760 47.6491 0.0279831 0.658713
  2761 47.6452 0.0279868 -0.658591
  2762 50.6704 -1.09935 -1.15696
  2763 50.6708 -1.10047 1.15951
  2764 51.5872 -7.05605 -4.75603
  2765 34.8773 3.58397 0.393315
  2766 34.8749 3.58396 -0.393880
  2767 43.8677 0.127245 1.36019
  2768 43.8649 0.127231 -1.35984
  2769 74.7378 -0.767494 3.27887
  2770 39.2499 -1.12318 6.36726
  2771 39.2461 -1.12815 -6.36788
  2772 52.2344 0.137014 -2.34333
  2773 52.2386 0.136946 2.34348
  2774 52.6750 6.47917 0.656262
  2775 68.3614 -3.20756 -4.54069
  2776 47.0341 -2.52947 -2.95995
  2777 47.0315 -2.52545 2.95821
  2778 69.9054 -2.96186 -5.36793
  2779 69.9332 -2.96845 5.37554
  2780 45.4126 0.124262 1.55378
  2781 45.4094 0.124263 -1.55344
  2782 37.9263 2.71614 2.00457
  2783 37.9272 2.71577 -2.00401
  2784 55.5318 -7.05625 -2.36878
  2785 54.4184 5.38184 -3.54337
  2786 79.9852 1.88351 -5.49112
  2787 38.9986 1.84266 -2.38203
  2788 38.9984 1.84298 2.38277
  2789 75.1305 10.5998 -1.03094
  2790 50.5336 -8.21608 -10.7440
  2791 67.3146 -0.0120699 -1.39286
  2792 67.3174 -0.0121555 1.39228
  2793 63.5152 3.40494 3.91894
  2794 39.9072 1.99271 -0.402933
  2795 39.9085 1.99250 0.402727
  2796 37.1651 3.10336 -1.74449
  2797 37.1638 3.10372 1.74492
  2798 40.8659 0.503643 -1.98535
  2799 40.8673 0.503729 1.98596
  2800 31.4005 -9.38762 -13.2552
  2801 71.2329 -0.147538 -1.31623
  2802 71.2334 -0.147669 1.31516
  2803 74.6306 5.98699 2.04868
  2804 41.3536 1.05302 3.20340
  2805 41.3522 1.05291 -3.20257
  2806 49.6661 -0.0410620 0.707164
  2807 49.6734 -0.0409897 -0.705624
  2808 30.6772 -9.33250 13.2886
  2809 51.8385 -5.36552 7.39713
  2810 51.8276 -5.36434 -7.39305
  2811 46.8779 1.04946 -8.07234
  2812 46.8816 1.04789 8.07236
  2813 54.1924 4.81184 3.78592
  2814 60.4631 -5.05309 -1.49629
  2815 33.9700 4.32104 -3.12312
  2816 33.9678 4.32153 3.12387
  2817 50.9788 -0.437146 -0.480926
  2818 50.9784 -0.437770 0.482705
  2819 41.6810 1.92765 5.25578
  2820 41.6796 1.92773 -5.25473
  2821 36.0405 2.89531 1.75019
  2822 36.0382 2.89484 -1.75110
  2823 29.5714 4.39366 4.19098
  2824 29.5750 4.39323 -4.18861
  2825 60.4052 5.76179 -15.5101
  2826 38.8759 2.72271 7.86022
  2827 38.8742 2.72405 -7.85864
  2828 60.8869 0.00515106 -4.15556
  2829 60.8904 0.00464122 4.15432
  2830 39.5571 2.67186 5.61082
  2831 39.5565 2.67197 -5.60960
  2832 43.2375 0.0701211 0.891670
  2833 37.2496 3.11006 -3.12107
  2834 37.2488 3.11039 3.12185
  2835 41.9507 -1.61899 -5.33868
  2836 41.9530 -1.61506 5.33584
  2837 43.6596 0.462287 -1.15702
  2838 51.6293 -1.84715 -2.85021
  2839 51.6323 -1.84775 2.85282
  2840 43.3490 0.477636 2.04398
  2841 43.3483 0.476802 -2.04506
  2842 40.0576 1.75618 3.63143
  2843 40.0569 1.75600 -3.63049
  2844 38.7223 1.26409 3.54999
  2845 38.7200 1.26271 -3.55132
  2846 45.8105 1.40746 -7.81695
  2847 45.8138 1.40611 7.81729
  2848 72.2199 -1.10641 -0.159793
  2849 72.2151 -1.10370 0.157090
  2850 39.2135 2.20302 0.582600
  2851 39.2120 2.20315 -0.582885
  2852 50.6574 -4.88308 -2.31935
  2853 50.6794 -4.85305 2.26753
  2854 44.7624 0.0685818 -1.06593
  2855 44.7656 0.0685850 1.06618
  2856 37.5028 3.35160 5.44898
  2857 37.5030 3.35160 -5.44765
  2858 50.7779 -7.28323 6.98563
  2859 50.2236 -7.50339 -6.78516
  2860 52.3448 -0.0366614 -0.00820375
  2861 52.3446 -0.0367168 0.00858510
  2862 40.5908 0.679844 -2.22737
  2863 40.5920 0.679961 2.22805
  2864 62.3292 -6.23889 -1.72478
  2865 62.3539 -6.23256 1.71172
  2866 37.0594 0.668808 -5.25853
  2867 37.0613 0.671976 5.25668
  2868 42.5234 0.112442 -1.15185
  2869 42.5258 0.112458 1.15218
  2870 20.3137 1.49356 -3.05837
  2871 20.3312 1.48873 3.05785
  2872 68.6278 -0.278978 8.07895
  2873 37.6045 2.71341 -0.791629
  2874 37.6064 2.71345 0.791223
  2875 42.2019 0.713362 -2.35990
  2876 42.2030 0.714172 2.35869
  2877 38.5348 2.23219 1.89340
  2878 38.5355 2.23182 -1.89281
  2879 41.9571 -10.2978 -7.84142
  2880 42.0538 -10.1640 7.58413
  2881 54.6032 -3.03154 2.80705
  2882 54.5744 -3.00114 -2.83090
  2883 29.0952 -2.29952 9.58577
  2884 29.0865 -2.29393 -9.58372
  2885 47.7177 1.54496 2.56047
  2886 50.5705 -0.725450 1.47185
  2887 50.5713 -0.724605 -1.46911
  2888 46.3722 -1.81023 2.77497
  2889 46.3740 -1.81352 -2.77657
  2890 17.9732 0.723831 -1.37467
  2891 17.9588 0.725210 1.38296
  2892 31.6030 3.64929 6.82969
  2893 31.6038 3.65043 -6.82661
  2894 48.1145 0.120315 1.62507
  2895 48.1107 0.120322 -1.62480
  2896 51.0109 2.60919 3.56981
  2897 66.8838 -0.547627 -4.95438
  2898 33.3389 1.23889 -9.18088
  2899 33.3426 1.23540 9.18362
  2900 40.4955 1.08927 -2.80015
  2901 40.4965 1.08943 2.80095
  2902 67.7320 -2.63392 -0.739573
  2903 67.7333 -2.62866 0.733731
  2904 50.0830 0.00571410 -3.77357
  2905 45.2811 0.379501 -1.98672
  2906 39.9635 0.00278848 0.228416
  2907 39.9616 0.00278892 -0.228335
  2908 74.4081 -2.78494 1.70573
  2909 74.3433 -2.75118 -1.60856
  2910 44.0331 0.643582 1.50327
  2911 44.0326 0.643131 -1.50399
  2912 40.3670 0.671048 -2.08182
  2913 40.3681 0.671171 2.08248
  2914 42.8649 0.631365 2.84142
  2915 42.8629 0.631318 -2.84074
  2916 52.4925 -5.80348 -2.08847
  2917 52.4180 -5.82841 2.13381
  2918 101.073 7.30725 -2.65273
  2919 61.6053 1.60443 -6.25220
  2920 45.8684 0.0599506 -1.94052
  2921 102.193 6.20676 -8.67547
  2922 53.3250 7.28337 -0.642881
  2923 86.9358 8.24439 0.514128
  2924 63.2481 -1.57303 6.84677
  2925 60.2148 -1.71891 2.55927
  2926 43.0956 0.0659481 -0.844307
  2927 38.9293 2.10068 2.95894
  2928 38.9293 2.10037 -2.95811
  2929 63.1084 -6.84965 -2.71215
  2930 63.5023 -6.73849 2.46143
  2931 98.7674 7.05114 20.5663
  2932 73.1546 7.05745 10.0973
  2933 39.5526 2.47667 -4.75675
  2934 39.5531 2.47677 4.75785
  2935 82.8630 10.2892 5.96511
  2936 58.4946 -0.628921 -6.09767
  2937 58.4992 -0.630673 6.09515
  2938 41.3967 0.0507836 -0.688583
  2939 41.3989 0.0507930 0.688796
  2940 46.9928 -0.129641 1.31923
  2941 46.9933 -0.130604 -1.31952
  2942 49.6890 -1.04517 -0.340870
  2943 49.6877 -1.04366 0.342257
  2944 43.0238 1.95992 7.00510
  2945 43.0216 1.96068 -7.00415
  2946 50.6626 -1.17823 2.87333
  2947 50.6612 -1.17906 -2.86965
  2948 48.1965 -1.33482 1.32103
  2949 48.1986 -1.33718 -1.32068
  2950 41.5036 0.186498 0.593918
  2951 52.6977 6.02090 1.88176
  2952 73.1873 1.47308 7.78418
  2953 41.6062 0.152797 -1.21776
  2954 41.6083 0.152823 1.21813
  2955 49.4839 1.61444 -3.38486
  2956 42.0334 0.279653 1.73261
  2957 42.0313 0.279615 -1.73212
  2958 48.4251 -0.158563 -0.960559
  2959 48.4245 -0.157832 0.960634
  2960 37.0951 2.82470 -1.01110
  2961 37.0971 2.82486 1.01059
  2962 138.662 4.25174 8.45317
  2963 54.4860 0.328397 3.89915
  2964 54.4820 0.328658 -3.89929
  2965 44.3320 0.243615 -1.95119
  2966 44.3348 0.243627 1.95164
  2967 50.0920 -0.00411020 3.78062
  2968 42.5243 1.32865 4.29863
  2969 42.5226 1.32863 -4.29773
  2970 41.0701 1.39146 3.68742
  2971 41.0689 1.39134 -3.68650
  2972 44.5587 -1.47604 -3.64820
  2973 44.5589 -1.47307 3.64567
  2974 38.5047 2.25973 2.29166
  2975 38.5052 2.25938 -2.29098
  2976 63.3506 12.9518 0.0990467
  2977 22.5673 1.36431 -5.00658
  2978 22.5817 1.35938 5.00099
  2979 47.4713 0.334786 -2.87438
  2980 37.3931 3.14744 7.40715
  2981 37.3922 3.14848 -7.40533
  2982 44.8760 0.238612 1.70886
  2983 44.8759 0.237749 -1.70965
  2984 62.3288 5.58531 15.8764
  2985 43.9629 1.36261 5.11510
  2986 43.9607 1.36278 -5.11425
  2987 27.7156 -3.09289 -10.3036
  2988 64.9121 1.41163 7.10236
  2989 41.6477 -2.17074 6.25484
  2990 41.6427 -2.17346 -6.25852
  2991 49.5251 -0.318786 -1.71712
  2992 49.5214 -0.318783 1.71978
  2993 51.1991 0.827682 -4.07022
  2994 72.8318 1.57664 -7.60125
  2995 42.6533 1.93388 6.25966
  2996 42.6514 1.93429 -6.25864
  2997 102.667 6.46291 5.85922
  2998 76.0286 13.2601 0.361088
  2999 8.17058 -15.4292 -1.64207
  3000 8.20378 -15.4792 1.63675
  3001 51.5138 -3.71727 -0.0630677
  3002 51.5179 -3.71843 0.0680034
  3003 43.7154 0.342039 -2.31361
  3004 43.7179 0.342055 2.31416
  3005 81.2080 5.51281 4.74711
  3006 27.3543 -0.426534 8.52050
  3007 27.3493 -0.421276 -8.51548
  3008 28.3695 4.53716 1.94980
  3009 28.3750 4.53581 -1.94874
  3010 48.5515 3.05508 -1.10142
  3011 58.6751 -0.0155811 -5.51670
  3012 58.6789 -0.0166059 5.51496
  3013 35.0501 3.48434 7.02922
  3014 35.0499 3.48528 -7.02700
  3015 57.2627 0.121893 4.23409
  3016 88.7477 8.64757 -22.3561
  3017 47.8968 0.797700 -5.03023
  3018 47.8999 0.797405 5.03071
  3019 48.1445 1.00411 6.04737
  3020 48.1413 1.00469 -6.04702
  3021 46.5385 0.223649 2.20959
  3022 46.5352 0.223661 -2.20918
  3023 49.5443 -0.630374 0.558590
  3024 49.5452 -0.631515 -0.557697
  3025 37.1883 3.04772 -0.859782
  3026 37.1867 3.04800 0.859934
  3027 93.4611 5.27264 -7.78580
  3028 40.5973 0.110204 0.949814
  3029 40.5956 0.110184 -0.949496
  3030 51.3261 -0.0828418 -0.252563
  3031 51.3257 -0.0826615 0.252988
  3032 44.3387 0.0362106 0.441808
  3033 44.3354 0.0362041 -0.441693
  3034 27.4718 1.17502 6.49897
  3035 27.4654 1.17705 -6.50583
  3036 51.0167 -0.435602 -3.90852
  3037 51.0338 -0.435415 3.90938
  3038 53.4101 0.0885090 4.34670
  3039 53.6435 0.0629999 -0.815204
  3040 53.6482 0.0629926 0.815246
  3041 70.2849 -3.82537 -5.33787
  3042 70.3072 -3.82769 5.35339
  3043 39.9832 1.93375 3.90675
  3044 39.9826 1.93357 -3.90577
  3045 40.2601 -0.194644 -4.75234
  3046 40.2627 -0.192166 4.75038
  3047 45.5470 -0.185365 1.88934
  3048 45.5474 -0.186724 -1.89018
  3049 81.4774 13.5311 -1.43126
  3050 48.2332 -0.371709 -1.05409
  3051 48.2324 -0.370616 1.05424
  3052 43.6324 1.72072 5.90407
  3053 43.6303 1.72105 -5.90315
  3054 88.1642 6.24419 3.02726
  3055 24.7896 2.11402 -4.60122
  3056 24.8004 2.11097 4.59643
  3057 36.9929 2.65963 -1.61867
  3058 36.9951 2.66002 1.61793
  3059 52.9197 -5.31210 0.871737
  3060 52.8910 -5.31550 -0.887297
  3061 40.5515 0.319993 -1.53575
  3062 40.5530 0.320055 1.53625
  3063 25.0242 3.33883 4.45705
  3064 25.0293 3.33904 -4.45206
  3065 50.7306 -0.737376 1.02847
  3066 50.7310 -0.736468 -1.02604
  3067 63.5285 3.64266 1.45336
  3068 38.3694 -8.52402 12.5818
  3069 47.6006 -3.54052 -3.53180
  3070 47.6001 -3.53341 3.53484
  3071 48.6537 -7.95278 -7.97207
  3072 43.0973 0.336142 2.35522
  3073 43.0965 0.335098 -2.35650
  3074 50.6177 -2.32387 -0.533324
  3075 50.6199 -2.32544 0.535858
  3076 20.8438 -3.35341 -9.53263
  3077 20.8535 -3.35570 9.52615
  3078 58.2458 0.0407173 3.15913
  3079 42.1437 0.624773 0.0370430
  3080 36.4623 2.99068 -0.669735
  3081 36.4645 2.99077 0.669291
  3082 29.2621 -4.98046 -9.94223
  3083 29.2750 -4.98564 9.94100
  3084 46.7001 1.65148 -1.45173
  3085 50.6645 9.30818 -19.2162
  3086 45.9643 -9.31952 11.2857
  3087 77.9474 -0.181566 -0.298137
  3088 77.9597 -0.182340 0.298037
  3089 45.8580 0.0677190 1.92424
  3090 40.1822 1.85035 -0.976747
  3091 40.1836 1.85032 0.976290
  3092 55.5672 -0.276873 6.93253
  3093 55.5627 -0.275240 -6.93433
  3094 55.2648 0.336858 -5.20513
  3095 55.2686 0.336229 5.20451
  3096 55.9055 0.00135869 -0.910463
  3097 55.9104 0.00134161 0.910482
  3098 51.6941 -0.00898335 -0.144851
  3099 51.6932 -0.00896641 0.144874
  3100 5.03682 -33.2135 2.56970
  3101 5.12129 -33.2014 -2.70947
  3102 42.3111 -0.00465273 -0.405134
  3103 42.3138 -0.00465574 0.405257
  3104 51.4249 -2.38811 8.21192
  3105 51.4179 -2.38586 -8.21282
  3106 55.7389 0.302616 4.34199
  3107 50.6197 1.74479 3.77101
  3108 39.4916 1.27734 2.17865
  3109 39.4914 1.27710 -2.17793
  3110 82.9584 7.45647 -0.214346
  3111 38.2590 2.50933 2.64974
  3112 38.2595 2.50898 -2.64900
  3113 14.9394 -4.92443 -4.56837
  3114 14.9410 -4.93398 4.58313
  3115 48.8229 -0.0311181 -0.820526
  3116 48.8223 -0.0306829 0.820538
  3117 45.8236 1.04219 5.06944
  3118 45.8209 1.04243 -5.06876
  3119 49.2301 0.847407 3.53376
  3120 41.6049 0.549326 -0.506357
  3121 51.2264 -0.0524338 -0.284666
  3122 51.2258 -0.0522846 0.284960
  3123 51.4269 -0.203720 0.0464160
  3124 51.4271 -0.203423 -0.0454138
  3125 45.7764 0.406928 2.82185
  3126 45.7735 0.406942 -2.82132
  3127 48.5709 -0.258922 2.00161
  3128 48.5747 -0.260891 -1.99963
  3129 43.2874 -0.872100 -3.74328
  3130 43.2886 -0.869826 3.74101
  3131 59.7550 -2.46659 -2.26273
  3132 47.6093 1.30236 -2.60149
  3133 59.7114 7.32287 -3.74682
  3134 28.7900 3.71581 -2.10098
  3135 28.7959 3.71448 2.09848
  3136 40.0713 0.604121 1.83552
  3137 40.0703 0.603998 -1.83490
  3138 42.1494 -4.78100 -8.55930
  3139 42.1757 -4.77191 8.49847
  3140 47.5312 0.374062 2.93865
  3141 40.1909 0.366029 -1.51566
  3142 40.1922 0.366109 1.51618
  3143 65.7910 1.63855 -7.20166
  3144 44.3425 1.26957 -8.57298
  3145 44.3462 1.26764 8.57330
  3146 74.0405 -0.509604 -0.785737
  3147 74.0351 -0.509144 0.782638
  3148 24.1359 1.69144 6.15606
  3149 24.1375 1.69412 -6.14918
  3150 12.3930 -4.14201 0.0635100
  3151 12.3649 -4.14027 -0.0455067
  3152 63.9322 -2.03155 2.21699
  3153 74.4699 -1.47778 -2.87457
  3154 47.3037 -8.38864 9.47998
  3155 33.1389 0.359966 -6.84138
  3156 33.1404 0.362225 6.83503
  3157 73.4750 -0.288520 -1.45081
  3158 73.4714 -0.288723 1.44767
  3159 53.5598 0.0928359 2.22589
  3160 53.5555 0.0928996 -2.22581
  3161 40.8501 0.0182823 -0.327125
  3162 40.8523 0.0182883 0.327237
  3163 47.6607 -0.426916 1.24375
  3164 47.6616 -0.428220 -1.24378
  3165 67.1350 -0.438490 4.96643
  3166 50.2365 -0.418111 0.342573
  3167 50.2371 -0.418854 -0.341660
  3168 60.7641 -5.35533 3.09393
  3169 50.1518 -1.24535 -0.123325
  3170 50.1530 -1.24684 0.125260
  3171 38.5815 2.04894 2.14394
  3172 38.5794 2.04844 -2.14481
  3173 38.6994 2.95848 5.86581
  3174 38.6989 2.95864 -5.86450
  3175 48.4905 0.350216 3.23041
  3176 48.4871 0.350302 -3.23000
  3177 51.0560 -9.17459 -8.96992
  3178 42.2061 0.783977 9.31871
  3179 42.2016 0.786589 -9.31825
  3180 56.1171 -1.47538 6.94088
  3181 56.1107 -1.47306 -6.94312
  3182 52.1956 -0.00379160 -0.101122
  3183 52.1949 -0.00376665 0.101253
  3184 42.9797 0.117558 -1.10940
  3185 42.9823 0.117577 1.10971
  3186 57.8456 10.4772 0.597112
  3187 49.2749 -9.21635 -7.01177
  3188 49.2764 -9.20072 7.07689
  3189 52.2009 0.114448 4.22317
  3190 61.9076 -4.85292 2.91151
  3191 61.8920 -4.85380 -2.91856
  3192 57.6891 9.44204 2.10201
  3193 51.6401 -2.26616 2.29424
  3194 51.6383 -2.26543 -2.29211
  3195 38.9444 2.24158 0.545163
  3196 38.9456 2.24124 -0.545012
  3197 69.5281 -0.641899 4.15248
  3198 69.5755 -0.620853 -4.14083
  3199 56.3347 -2.45432 -3.19862
  3200 33.6894 4.33634 -2.37703
  3201 33.6869 4.33687 2.37747
  3202 52.2945 2.25668 -4.14240
  3203 45.6334 0.188010 -1.91587
  3204 45.6365 0.188006 1.91626
  3205 53.0701 1.59158 1.65880
  3206 67.6543 1.19985 -7.80462
  3207 47.2503 0.802380 4.50590
  3208 47.2473 0.802557 -4.50535
  3209 56.6967 8.58659 17.8826
  3210 48.8841 0.125108 1.77773
  3211 48.8802 0.125121 -1.77746
  3212 62.1162 11.0735 2.42614
  3213 49.5264 1.48989 3.47304
  3214 51.8004 3.74059 -3.26195
  3215 51.3785 -2.31468 -1.69725
  3216 51.3802 -2.31562 1.69967
  3217 36.7274 3.43142 3.11437
  3218 36.7285 3.43106 -3.11361
  3219 67.9699 2.97954 5.86123
  3220 55.9964 -2.16851 3.34617
  3221 38.6834 -10.2115 -8.44027
  3222 38.9923 -10.1724 8.24800
  3223 75.5557 -1.81995 -4.17796
  3224 70.5028 -1.69510 7.54328
  3225 70.4976 -1.74803 -7.56301
  3226 48.0675 -1.60304 1.50312
  3227 48.0699 -1.60571 -1.50289
  3228 17.2229 -0.928379 -3.09387
  3229 17.2139 -0.929998 3.10655
  3230 50.9673 -0.0732806 0.521357
  3231 50.9718 -0.0731528 -0.520128
  3232 39.9828 1.37575 -2.90171
  3233 39.9834 1.37595 2.90254
  3234 58.2285 -5.08355 0.242334
  3235 49.6936 -4.34085 2.54956
  3236 49.6965 -4.34228 -2.57814
  3237 38.6187 2.46289 0.555923
  3238 38.6199 2.46256 -0.555776
  3239 43.7532 -1.82825 -9.84076
  3240 43.7593 -1.83016 9.84038
  3241 50.6900 0.00118379 -8.12174
  3242 50.6948 -0.000790225 8.12069
  3243 43.8945 0.602318 0.954954
  3244 50.5888 -0.723482 -0.261293
  3245 50.5891 -0.724430 0.263048
  3246 50.4454 0.126730 1.98602
  3247 50.4413 0.126768 -1.98580
  3248 62.7761 3.34828 3.48962
  3249 45.2605 -0.504677 2.28892
  3250 45.2609 -0.506486 -2.29011
  3251 25.1610 -8.99458 -8.69589
  3252 25.1821 -8.99140 8.69271
  3253 38.8449 1.97383 2.09390
  3254 38.8453 1.97348 -2.09324
  3255 49.4626 -0.532757 -2.86575
  3256 49.4608 -0.529073 2.86771
  3257 41.0921 0.716894 -2.45588
  3258 41.0935 0.716998 2.45658
  3259 53.6257 -2.91365 -7.50815
  3260 53.6339 -2.91619 7.50716
  3261 50.5696 -1.22392 0.765684
  3262 50.5688 -1.22267 -0.763356
  3263 46.1151 0.558219 3.34183
  3264 46.1122 0.558259 -3.34126
  3265 48.5448 -4.20472 3.45370
  3266 48.5281 -4.18577 -3.44496
  3267 50.7880 -0.533556 0.207434
  3268 50.7879 -0.532833 -0.205854
  3269 73.3040 2.29529 7.34103
  3270 54.2082 0.378826 4.45862
  3271 54.2044 0.379184 -4.45883
  3272 51.7402 -0.0940999 -0.0942149
  3273 51.7400 -0.0939212 0.0947814
  3274 68.8772 11.4757 -1.47290
  3275 57.4105 -7.13321 3.11008
  3276 51.2261 -0.241578 -0.600139
  3277 51.2244 -0.241943 0.601820
  3278 42.9477 -1.47979 -4.58212
  3279 42.9499 -1.47636 4.57982
  3280 58.9350 -2.60426 -8.93852
  3281 36.7836 3.45315 -4.15183
  3282 36.7828 3.45342 4.15286
  3283 8.94981 -24.4812 -1.28651
  3284 10.1632 -21.5555 3.07431
  3285 37.9463 -1.09137 -6.99647
  3286 37.9444 -1.08421 6.99536
  3287 75.6833 -1.72120 4.18668
  3288 40.4297 0.0449266 -0.538375
  3289 40.4316 0.0449394 0.538561
  3290 30.4554 3.74649 -1.84731
  3291 30.4600 3.74589 1.84515
  3292 8.24260 -11.6464 -0.566961
  3293 8.24555 -11.6712 0.609944
  3294 63.3361 0.0109964 -3.35427
  3295 63.3392 0.0106210 3.35301
  3296 50.4671 -6.27171 -4.51090
  3297 57.3576 -0.196017 -4.07155
  3298 67.5172 4.75036 1.15346
  3299 39.2128 2.20352 -0.252667
  3300 39.2116 2.20384 0.252718
  3301 43.1916 -0.00478457 -0.307597
  3302 43.1946 -0.00479248 0.307688
  3303 50.0034 -0.0118566 -0.574906
  3304 50.0028 -0.0116483 0.574968
  3305 43.5311 0.860858 3.69013
  3306 43.5290 0.860857 -3.68936
  3307 50.6455 -3.03660 -0.157567
  3308 50.6415 -3.03433 0.160526
  3309 65.6556 2.92033 -1.59405
  3310 46.3344 -0.178164 -1.57498
  3311 46.3339 -0.176956 1.57446
  3312 43.5224 0.350078 1.33444
  3313 72.1780 -0.216024 -1.79428
  3314 72.1763 -0.216372 1.79162
  3315 27.4811 -3.70435 11.0863
  3316 27.4915 -3.67906 -11.1155
  3317 47.8680 2.51070 0.989721
  3318 51.4564 -1.28426 3.50465
  3319 51.4523 -1.28661 -3.49939
  3320 52.2799 -2.79349 2.15378
  3321 52.2801 -2.79345 -2.15142
  3322 68.8742 -5.12530 3.39345
  3323 68.8543 -5.09593 -3.39496
  3324 32.8097 -2.27062 7.53753
  3325 78.3442 0.596456 -5.84106
  3326 65.9827 5.88589 -2.65809
  3327 32.6711 3.07271 7.72700
  3328 32.6704 3.07449 -7.72389
  3329 81.9492 4.20419 5.28521
  3330 32.0391 4.60429 2.71113
  3331 32.0422 4.60359 -2.71043
  3332 40.4142 1.53009 -3.46294
  3333 40.4150 1.53027 3.46384
  3334 66.5513 -1.80924 -2.48173
  3335 66.5548 -1.80920 2.47635
  3336 38.4649 2.40448 -2.95903
  3337 38.4646 2.40480 2.95984
  3338 34.0630 2.01944 -4.34137
  3339 34.0652 2.02137 4.33854
  3340 38.9402 2.38197 3.70346
  3341 38.9401 2.38172 -3.70251
  3342 57.9786 -0.0785033 -3.18832
  3343 43.4059 1.10873 4.17271
  3344 43.4039 1.10875 -4.17188
  3345 48.3420 -0.855390 1.09370
  3346 48.3434 -0.857121 -1.09331
  3347 62.3528 0.0165430 -2.84314
  3348 93.4941 5.73738 -0.000999833
  3349 15.8826 -9.83473 -6.06965
  3350 15.8980 -9.84406 6.06834
  3351 27.9253 1.90904 -7.54641
  3352 27.9259 1.90592 7.55156
  3353 48.7146 0.669713 -8.20309
  3354 48.7188 0.667920 8.20257
  3355 69.5220 -1.74262 -0.821349
  3356 69.5212 -1.73979 0.816730
  3357 47.3612 0.921756 2.71097
  3358 51.0823 -4.05025 -0.762300
  3359 51.0719 -4.04603 0.768674
  3360 62.7478 3.52398 0.315563
  3361 28.1010 4.12437 4.41510
  3362 28.1051 4.12409 -4.41183
  3363 68.8083 -2.69490 0.280169
  3364 68.8063 -2.68661 -0.284337
  3365 51.4202 -6.89671 4.49101
  3366 62.6370 11.2567 -2.20811
  3367 36.0202 3.61797 1.76295
  3368 36.0219 3.61762 -1.76261
  3369 38.9881 2.49067 -4.18621
  3370 38.9882 2.49087 4.18724
  3371 41.0446 -3.15864 7.72943
  3372 41.0575 -3.19029 -7.73072
  3373 74.7018 -0.581175 -0.285368
  3374 74.6947 -0.579986 0.283031
  3375 56.2124 0.0465799 -6.24417
  3376 56.2164 0.0453756 6.24273
  3377 63.7969 -3.24020 -2.94140
  3378 63.8052 -3.23948 2.93494
  3379 50.4493 -0.188631 -0.427856
  3380 50.4487 -0.188226 0.428328
  3381 36.5793 2.55846 -8.51180
  3382 36.5815 2.55638 8.51385
  3383 60.0799 -2.34173 5.44571
  3384 60.0726 -2.33937 -5.44915
  3385 14.3539 -16.1422 -3.86793
  3386 14.3494 -16.1218 3.85313
  3387 39.9934 0.0233211 -0.423508
  3388 39.9953 0.0233205 0.423662
  3389 61.8005 3.98184 -3.96018
  3390 39.1439 1.65284 2.05287
  3391 39.1440 1.65252 -2.05219
  3392 39.8062 0.848186 -2.02989
  3393 39.8069 0.848363 2.03057
  3394 34.0714 2.06482 -8.78996
  3395 34.0741 2.06192 8.79270
  3396 51.1871 0.00167504 -0.292934
  3397 51.9296 -0.00371746 0.113818
  3398 51.1863 0.00172345 0.292967
  3399 51.9306 -0.00373537 -0.113775
  3400 54.7086 -5.67456 0.539753
  3401 54.6658 -5.68687 -0.490967
  3402 35.6044 1.56058 -4.58001
  3403 35.6065 1.56289 4.57780
  3404 37.4690 -6.54329 9.95392
  3405 37.4657 -6.54700 -9.96193
  3406 56.8860 0.0910573 3.51932
  3407 56.8820 0.0912973 -3.51969
  3408 40.7937 0.0512652 0.416872
  3409 50.1134 -3.30160 0.905618
  3410 50.1194 -3.30526 -0.903394
  3411 45.5717 0.864699 4.38964
  3412 45.5691 0.864822 -4.38895
  3413 50.7559 -0.673358 0.519708
  3414 50.7560 -0.672519 -0.517720
  3415 128.901 5.18443 15.8599
  3416 41.3435 0.357124 -1.82967
  3417 41.3452 0.357180 1.83022
  3418 42.4763 1.61829 4.97758
  3419 42.4747 1.61836 -4.97661
  3420 14.3308 -3.44753 -2.47146
  3421 14.3198 -3.45215 2.48905
  3422 39.7669 1.63272 2.03169
  3423 39.7651 1.63229 -2.03259
  3424 22.6924 2.94780 -1.21356
  3425 22.7049 2.94407 1.21421
  3426 79.1997 1.75964 5.96230
  3427 54.1606 1.16616 -3.78207
  3428 49.2437 -1.01796 0.650155
  3429 49.2451 -1.01961 -0.649149
  3430 42.5832 -3.39550 6.98079
  3431 42.6057 -3.45379 -6.97992
  3432 40.1176 2.17617 4.54336
  3433 40.1169 2.17605 -4.54230
  3434 51.3666 0.492335 4.85396
  3435 51.3630 0.492705 -4.85388
  3436 70.5403 -2.21963 1.94998
  3437 70.5321 -2.20789 -1.94806
  3438 40.7032 1.32477 -2.17656
  3439 40.7048 1.32529 2.17555
  3440 35.0450 -0.764441 -7.73267
  3441 35.0466 -0.760263 7.72322
  3442 34.5770 0.598106 -6.13734
  3443 34.5780 0.601774 6.13307
  3444 99.7613 9.19015 -0.0493736
  3445 15.5686 -14.0001 8.80005
  3446 77.3740 -0.127908 0.683396
  3447 77.3629 -0.126981 -0.681261
  3448 87.1120 3.33900 1.50310
  3449 45.8581 -0.659129 2.09181
  3450 45.8589 -0.661045 -2.09277
  3451 41.0375 0.110721 -1.00276
  3452 41.0395 0.110740 1.00308
  3453 40.1770 0.763022 -2.14122
  3454 40.1780 0.763166 2.14191
  3455 17.8172 -0.450186 -4.20923
  3456 17.8405 -0.454220 4.20844
  3457 63.3601 -0.582781 4.60668
  3458 63.3569 -0.581577 -4.60972
  3459 30.0476 -1.31028 -9.27336
  3460 30.0456 -1.31329 9.27082
  3461 46.0334 0.678014 2.22283
  3462 36.6870 3.57545 6.02949
  3463 36.6871 3.57568 -6.02794
  3464 44.0829 0.170239 1.44408
  3465 48.8526 -0.259941 -2.89364
  3466 48.8511 -0.257229 2.89443
  3467 55.3761 -0.416936 -4.24648
  3468 49.3818 0.00695186 0.623108
  3469 49.3775 0.00695330 -0.623005
  3470 38.3735 2.40820 1.75618
  3471 38.3743 2.40782 -1.75565
  3472 69.0073 -3.34002 2.28127
  3473 68.9977 -3.32304 -2.28179
  3474 44.2550 0.740657 -0.952400
  3475 37.4322 3.05393 2.84239
  3476 37.4330 3.05357 -2.84166
  3477 66.3268 -0.0532550 -2.68441
  3478 66.3290 -0.0536117 2.68293
  3479 33.2071 -0.429166 -9.87045
  3480 33.2132 -0.433235 9.87213
  3481 31.9730 -0.929380 8.60706
  3482 31.9702 -0.925482 -8.61288
  3483 46.1177 1.32073 6.38342
  3484 46.1149 1.32135 -6.38287
  3485 41.3950 0.428181 0.988092
  3486 50.7533 3.80930 2.54690
  3487 41.0854 1.59163 0.977312
  3488 41.0842 1.59168 -0.977782
  3489 40.1562 0.115052 0.912771
  3490 40.1546 0.115023 -0.912445
  3491 20.8265 -5.09051 7.79888
  3492 44.3714 0.155831 -1.44631
  3493 44.3743 0.155847 1.44666
  3494 37.6446 3.01507 -3.42175
  3495 37.6440 3.01540 3.42262
  3496 43.6001 0.585632 1.80700
  3497 43.5995 0.584975 -1.80792
  3498 45.3858 0.324823 1.43589
  3499 45.3857 0.324220 -1.43649
  3500 45.2295 -0.00460843 0.825816
  3501 45.2098 -0.00451035 -0.830274
  3502 58.8287 -4.57390 -0.614856
  3503 60.0873 -8.01840 -2.94992
  3504 60.2930 -8.06806 2.83299
  3505 49.5973 3.95940 0.704687
  3506 39.0362 1.88139 2.57120
  3507 39.0362 1.88109 -2.57043
  3508 21.8971 -3.94513 8.32599
  3509 21.8871 -3.93682 -8.32014
  3510 48.9053 1.71914 3.04347
  3511 45.1852 1.15368 4.88401
  3512 45.1828 1.15385 -4.88328
  3513 49.9513 -0.0829764 0.567581
  3514 49.9519 -0.0833100 -0.567352
  3515 31.1729 3.17485 -3.16697
  3516 31.1768 3.17491 3.16388
  3517 34.2328 4.23215 4.42742
  3518 34.2345 4.23186 -4.42612
  3519 43.1842 1.75089 -8.14645
  3520 43.1873 1.74929 8.14716
  3521 56.5216 -7.67429 -4.19177
  3522 38.7977 2.02644 2.26271
  3523 38.7980 2.02610 -2.26201
  3524 16.7320 -12.9231 -9.64478
  3525 41.6713 1.42838 4.05433
  3526 41.6700 1.42831 -4.05340
  3527 39.1710 1.67296 -2.30728
  3528 39.1710 1.67326 2.30800
  3529 116.380 8.47070 -1.34718
  3530 36.7777 2.04069 8.93314
  3531 36.7747 2.04325 -8.93114
  3532 55.9092 7.98854 2.45285
  3533 78.3452 0.531421 5.93908
  3534 38.8180 -0.321213 -5.65064
  3535 38.8211 -0.317518 5.64921
  3536 44.7753 0.746905 -3.72505
  3537 44.7778 0.746871 3.72574
  3538 71.3652 -2.75326 6.70103
  3539 71.3538 -2.79642 -6.68116
  3540 48.3272 0.00462053 -0.911168
  3541 48.3267 0.00511257 0.911111
  3542 89.6116 4.14291 -0.551405
  3543 39.2360 2.07307 3.47248
  3544 39.2358 2.07282 -3.47156
  3545 42.4646 0.394936 2.16180
  3546 42.4625 0.394887 -2.16122
  3547 47.0530 -4.03874 -8.99212
  3548 47.0590 -4.03886 8.99352
  3549 49.1493 -0.0827039 -0.754230
  3550 49.1487 -0.0822314 0.754362
  3551 39.6006 2.04315 -0.933764
  3552 39.6022 2.04311 0.933336
  3553 48.2396 0.00709395 -0.712329
  3554 48.2292 0.00767728 0.713528
  3555 142.067 3.35371 -3.26921
  3556 50.6068 -1.21287 -2.51501
  3557 50.6078 -1.21301 2.51822
  3558 51.0805 0.208200 2.62158
  3559 42.8112 -0.0304372 3.08015
  3560 42.8102 -0.0319369 -3.08188
  3561 39.2534 1.82680 -2.87379
  3562 39.2535 1.82708 2.87462
  3563 43.5275 -9.32555 -8.47482
  3564 43.4879 -9.27931 8.48177
  3565 30.4989 4.20087 -0.402544
  3566 30.5033 4.20001 0.401452
  3567 40.5136 0.426091 -1.74595
  3568 40.5150 0.426172 1.74652
  3569 53.8609 0.0122248 -7.11542
  3570 53.8653 0.0106749 7.11402
  3571 44.9496 -7.21798 -9.56612
  3572 37.0792 3.20731 2.45743
  3573 37.0803 3.20693 -2.45682
  3574 71.2796 -0.648423 -1.96076
  3575 71.2778 -0.648567 1.95677
  3576 58.6422 5.18760 -4.28324
  3577 29.3695 -9.77091 12.8652
  3578 37.7899 3.17211 -4.49303
  3579 37.7896 3.17232 4.49412
  3580 46.3614 0.371670 2.35094
  3581 50.6019 -7.45983 6.06073
  3582 50.7657 2.98122 -3.32367
  3583 30.8930 0.380267 -7.38049
  3584 30.8963 0.379356 7.37314
  3585 51.1446 -0.0338262 -0.321949
  3586 51.1439 -0.0337164 0.322122
  3587 50.2421 3.90024 -1.99264
  3588 41.6590 0.688205 -2.62461
  3589 41.6606 0.688290 2.62532
  3590 56.2458 2.97904 -4.55460
  3591 49.8355 2.79688 -2.64534
  3592 47.4392 0.922699 -2.76853
  3593 37.5135 3.31060 5.16757
  3594 37.5137 3.31051 -5.16632
  3595 40.5238 1.69320 -1.25222
  3596 40.5252 1.69326 1.25163
  3597 55.8371 6.56589 -3.58171
  3598 40.1356 0.0135829 0.192429
  3599 40.1336 0.0135843 -0.192361
  3600 50.6588 -0.953320 -1.49965
  3601 50.6589 -0.954309 1.50239
  3602 32.2552 4.31196 -0.511262
  3603 32.2518 4.31251 0.510791
  3604 47.0780 1.32344 6.87282
  3605 47.0749 1.32431 -6.87249
  3606 29.5098 4.66648 -1.74837
  3607 29.5050 4.66775 1.74895
  3608 49.4086 -0.455133 -0.630649
  3609 49.4078 -0.454155 0.631316
  3610 47.9299 0.120046 8.66238
  3611 47.9250 0.122257 -8.66307
  3612 50.7389 -0.548308 1.10033
  3613 50.7399 -0.547576 -1.09787
  3614 60.0814 0.472221 3.65679
  3615 32.3476 3.84313 -1.39119
  3616 32.3510 3.84299 1.38965
  3617 49.6851 -0.350271 -0.575349
  3618 49.6844 -0.349496 0.575962
  3619 52.1160 -3.71569 -0.584756
  3620 52.1180 -3.71621 0.589629
  3621 41.9792 0.964800 2.07558
  3622 41.9780 0.964228 -2.07663
  3623 48.8079 -7.60203 -7.72656
  3624 48.8124 -7.59472 7.74231
  3625 55.2773 -0.917130 4.04348
  3626 42.3518 0.0374677 -0.779044
  3627 42.3543 0.0374741 0.779272
  3628 36.3390 2.34022 -2.77617
  3629 36.3414 2.34122 2.77493
  3630 53.3790 5.67032 -2.76994
  3631 82.8659 12.5281 -4.11081
  3632 53.1325 0.301433 4.01672
  3633 53.1286 0.301684 -4.01673
  3634 24.6200 -13.0538 6.39607
  3635 24.5607 -13.0822 -6.39316
  3636 50.5462 -0.0567582 -0.445807
  3637 50.5455 -0.0565471 0.446009
  3638 49.6625 0.454492 -3.86227
  3639 49.6661 0.454325 3.86261
  3640 43.7851 0.0796150 0.981817
  3641 43.7822 0.0796064 -0.981561
  3642 41.8017 0.0354741 -0.662788
  3643 41.8041 0.0354766 0.662995
  3644 40.4514 0.0833150 0.767863
  3645 40.4496 0.0832954 -0.767600
  3646 41.8623 0.351293 -1.26113
  3647 50.9445 0.138337 -2.70101
  3648 71.8992 3.46968 -6.56200
  3649 30.8903 4.52182 4.12974
  3650 30.8934 4.52134 -4.12793
  3651 74.9527 5.70641 3.47225
  3652 34.4143 4.11892 5.12021
  3653 34.4157 4.11883 -5.11867
  3654 75.4909 7.38375 -8.62171
  3655 43.3094 0.334738 2.14694
  3656 43.3070 0.334712 -2.14641
  3657 43.0730 0.166080 1.50191
  3658 43.0704 0.166065 -1.50151
  3659 51.3793 -4.57782 -1.19738
  3660 51.3689 -4.57358 1.21495
  3661 39.4232 2.15932 0.317259
  3662 39.4218 2.15953 -0.317433
  3663 52.7969 -7.65145 -5.11206
  3664 72.1107 8.21461 20.6328
  3665 37.5892 1.97678 -2.92271
  3666 37.5914 1.97779 2.92157
  3667 23.3994 -5.67842 -8.88499
  3668 23.4137 -5.68555 8.88753
  3669 47.4162 -5.90042 -6.49766
  3670 38.3617 2.22087 -1.69567
  3671 38.3636 2.22120 1.69497
  3672 30.5628 -6.68363 -10.0428
  3673 30.5787 -6.68580 10.0367
  3674 39.1113 1.37429 2.99080
  3675 39.1091 1.37331 -2.99201
  3676 67.0089 -5.39509 -2.47952
  3677 66.9598 -5.21177 2.30810
  3678 49.9901 -0.547396 -3.43865
  3679 49.9864 -0.539159 3.44076
  3680 49.7152 -3.92115 -1.97536
  3681 49.7076 -3.91438 1.97139
  3682 43.9775 0.476575 2.82215
  3683 43.9750 0.476562 -2.82152
  3684 70.0434 13.0897 1.24119
  3685 50.3788 -3.75917 -1.19569
  3686 50.3689 -3.75321 1.19808
  3687 40.0953 0.576693 3.81372
  3688 40.0930 0.575112 -3.81528
  3689 65.1129 0.0219267 -2.35301
  3690 65.1159 0.0217275 2.35211
  3691 49.6362 -1.36197 0.379073
  3692 49.6379 -1.36382 -0.377589
  3693 50.8957 -1.50888 -2.20185
  3694 50.8972 -1.50971 2.20465
  3695 49.3041 3.84405 -0.690910
  3696 34.1203 3.31072 -1.92259
  3697 34.1231 3.31119 1.92123
  3698 38.6550 2.43926 -0.773337
  3699 38.6567 2.43922 0.772987
  3700 50.6257 -9.08479 9.06435
  3701 42.3934 -8.55804 11.8061
  3702 61.6900 0.0215546 0.975178
  3703 61.6855 0.0215811 -0.975343
  3704 58.7221 8.64112 -3.23187
  3705 66.4695 -0.329004 7.57763
  3706 64.7211 0.0519965 1.01221
  3707 64.7172 0.0520330 -1.01248
  3708 44.6691 -6.36374 -8.69338
  3709 44.1231 -1.78856 -4.24102
  3710 44.1246 -1.78515 4.23809
  3711 39.0740 2.27592 -0.0112172
  3712 39.0726 2.27618 0.0111699
  3713 63.7904 -0.0255661 -3.64347
  3714 63.7932 -0.0261034 3.64184
  3715 41.2467 -9.32858 12.7832
  3716 26.5684 3.02447 -3.50195
  3717 26.5768 3.02186 3.49818
  3718 32.6349 -1.45201 -10.0358
  3719 32.6421 -1.45656 10.0367
  3720 49.0516 -3.40479 -2.15389
  3721 49.0457 -3.40283 2.15290
  3722 47.0226 -0.979842 1.75066
  3723 47.0240 -0.982020 -1.75106
  3724 48.0389 -2.56688 -2.22261
  3725 48.0351 -2.56304 2.22210
  3726 27.8525 4.14747 -0.948876
  3727 27.8592 4.14558 0.947519
  3728 70.6265 -1.98102 0.971138
  3729 70.6212 -1.97309 -0.972130
  3730 49.9610 -0.372514 1.66126
  3731 49.9638 -0.372188 -1.65850
  3732 59.0212 2.07612 3.85604
  3733 35.9183 3.60068 6.50877
  3734 35.9184 3.60118 -6.50696
  3735 76.8780 -0.289809 -0.856227
  3736 76.8867 -0.291021 0.859496
  3737 40.8090 0.0363346 -0.600731
  3738 40.8110 0.0363430 0.600934
  3739 58.6809 0.0365529 -4.82637
  3740 58.6845 0.0359101 4.82524
  3741 99.8832 6.29376 -3.39246
  3742 37.9671 2.72140 -0.483384
  3743 37.9656 2.72168 0.483462
  3744 45.2431 0.378391 2.52188
  3745 45.2402 0.378384 -2.52137
  3746 40.3117 -8.40907 -12.4253
  3747 40.3069 -0.673385 -5.26360
  3748 40.3099 -0.670497 5.26140
  3749 65.9549 12.5404 -1.65200
  3750 51.9797 -0.0385030 0.227911
  3751 51.9821 -0.0384326 -0.227233
  3752 44.4141 -6.21726 8.63679
  3753 52.6749 4.34794 3.44166
  3754 37.9612 2.76362 0.835226
  3755 37.9626 2.76329 -0.835021
  3756 43.4088 0.280178 9.45612
  3757 43.4038 0.282788 -9.45600
  3758 40.8621 1.34050 1.93583
  3759 40.8606 1.34010 -1.93674
  3760 42.5145 1.08133 1.37425
  3761 42.5136 1.08113 -1.37493
  3762 49.3755 -5.30320 4.13420
  3763 49.2897 -5.24709 -4.09630
  3764 50.9029 1.27545 0.666421
  3765 37.5959 2.88746 1.11082
  3766 37.5973 2.88712 -1.11055
  3767 28.5066 -0.778642 -7.22348
  3768 37.5640 2.93767 -0.423044
  3769 37.5624 2.93791 0.423077
  3770 47.9145 -3.30074 2.93483
  3771 47.9186 -3.30436 -2.93633
  3772 42.3704 0.829297 3.16092
  3773 42.3686 0.829228 -3.16015
  3774 50.7802 -1.35779 -1.92115
  3775 50.7813 -1.35879 1.92394
  3776 49.2017 -0.771661 0.699561
  3777 49.2028 -0.773048 -0.698736
  3778 29.5109 -9.97841 -12.7904
  3779 61.1454 0.0188318 2.50026
  3780 61.1416 0.0189710 -2.50078
  3781 49.9987 0.800482 6.88092
  3782 49.9950 0.801475 -6.88114
  3783 47.7632 -2.08156 2.04822
  3784 47.7664 -2.08496 -2.04864
  3785 47.3809 -0.0305239 -0.682408
  3786 47.3689 -0.0288679 0.682592
  3787 83.7713 7.53292 -1.27295
  3788 39.4201 -4.26465 -9.41033
  3789 39.4969 -4.19230 9.31970
  3790 54.6909 0.0918718 -2.33736
  3791 54.6952 0.0918018 2.33737
  3792 43.5798 0.0202461 -0.342716
  3793 43.5829 0.0202465 0.342809
  3794 63.7692 -2.37210 -3.82216
  3795 63.7754 -2.37306 3.81698
  3796 39.3439 1.39983 -2.14831
  3797 39.3440 1.40011 2.14902
  3798 50.7385 -0.100831 -0.398934
  3799 50.7379 -0.100573 0.399291
  3800 36.2041 3.49405 1.19740
  3801 36.2058 3.49376 -1.19723
  3802 39.1058 2.07028 -3.22961
  3803 39.1059 2.07055 3.23049
  3804 37.3352 3.03887 -2.19292
  3805 37.3341 3.03923 2.19348
  3806 19.1757 -0.807918 5.13223
  3807 19.1779 -0.803470 -5.12118
  3808 49.7986 0.766817 -7.41388
  3809 49.8024 0.765494 7.41355
  3810 61.4639 -2.67022 0.872004
  3811 96.5925 4.73239 6.54567
  3812 44.6939 1.01701 4.39909
  3813 44.6915 1.01710 -4.39833
  3814 38.0635 0.731935 9.72092
  3815 38.0587 0.735102 -9.71973
  3816 34.7309 -9.26506 9.15813
  3817 34.7073 -9.28190 -9.18604
  3818 65.0103 -0.862048 -4.14188
  3819 65.0132 -0.863395 4.13807
  3820 46.6783 -0.419558 1.60586
  3821 46.6791 -0.421045 -1.60631
  3822 36.6033 3.65934 5.34374
  3823 36.6038 3.65931 -5.34236
  3824 46.7268 -5.20953 -9.15787
  3825 46.7318 -5.20706 9.16128
  3826 52.5313 1.48006 4.30210
  3827 48.8532 -0.336042 -0.867897
  3828 48.8525 -0.335127 0.868207
  3829 66.1240 0.540559 7.65590
  3830 54.0616 -2.38227 3.21400
  3831 54.0058 -2.39012 -3.18362
  3832 52.2830 3.11103 3.88274
  3833 40.9215 0.361913 -1.73103
  3834 40.9231 0.361977 1.73157
  3835 58.7839 0.580253 11.0635
  3836 41.9368 1.12325 1.63744
  3837 41.9357 1.12292 -1.63826
  3838 42.0040 1.58987 4.54326
  3839 42.0025 1.58986 -4.54230
  3840 50.9234 -0.178134 0.814755
  3841 50.9264 -0.177816 -0.812859
  3842 50.3182 2.97353 2.98541
  3843 57.7441 1.38425 5.02275
  3844 51.3250 -4.14297 12.1347
  3845 53.5496 1.11158 4.45176
  3846 46.2316 0.162412 -1.31323
  3847 46.2314 0.163075 1.31278
  3848 55.5024 -1.62523 -3.73535
  3849 60.0796 -5.25107 1.39369
  3850 40.5961 1.14553 2.94429
  3851 40.5951 1.14537 -2.94348
  3852 40.7917 0.769735 2.44917
  3853 40.7904 0.769617 -2.44845
  3854 40.0888 1.77341 1.51360
  3855 40.0872 1.77323 -1.51428
  3856 63.0375 -0.831903 -8.69628
  3857 38.4743 1.81438 -2.62486
  3858 38.4764 1.81516 2.62382
  3859 39.7191 1.83078 3.46328
  3860 39.7186 1.83056 -3.46236
  3861 38.0435 2.60373 1.44876
  3862 38.0446 2.60336 -1.44835
  3863 62.3213 -3.28668 -3.87611
  3864 62.3305 -3.28770 3.87100
  3865 128.807 6.60658 -3.27776
  3866 51.0639 -0.384771 -0.274501
  3867 51.0636 -0.385318 0.276049
  3868 38.8530 2.13062 2.68577
  3869 38.8531 2.13030 -2.68499
  3870 42.6932 0.187775 1.56424
  3871 42.6909 0.187755 -1.56382
  3872 8.01079 -0.160784 -0.000149257
  3873 8.25372 -0.624657 0.0188709
  3874 8.06445 -0.203921 -0.374323
  3875 8.01480 -0.138455 0.397667
  3876 7.84718 0.0957028 -0.194383
  3877 7.82418 0.104722 0.186271
  3878 8.23992 -0.672543 -0.405563
  3879 7.79843 0.0871860 -0.0126121
  3880 8.22053 -0.581196 0.444586
  3881 8.39619 -1.06639 -0.00126888
  3882 8.35541 -0.923088 0.325453
  3883 8.13064 -0.346212 -0.124977
  3884 8.11935 -0.332121 0.136877
  3885 8.05561 -0.249651 -0.583512
  3886 7.83324 0.190724 -0.369657
  3887 7.82921 0.189891 0.367789
  3888 7.98269 -0.0959403 -0.189179
  3889 8.35519 -1.00204 -0.332799
  3890 7.72129 0.163004 0.0900845
  3891 7.73546 0.162484 -0.100653
  3892 8.03947 -0.186821 0.589325
  3893 7.96992 -0.0879856 0.190277
  3894 7.89729 -0.000531416 -0.0724072
  3895 7.89325 0.000625155 0.0868412
  3896 7.91589 0.0624247 -0.520392
  3897 7.87699 0.137869 0.524600
  3898 8.22592 -0.548801 -0.220510
  3899 8.43064 -1.21259 0.155825
  3900 8.20610 -0.516840 0.251359
  3901 8.44591 -1.22348 -0.223677
  3902 8.31721 -0.780477 -0.146767
  3903 8.31396 -0.875089 0.116926
  3904 8.18907 -0.650444 -0.649889
  3905 8.28796 -0.738785 0.579201
  3906 7.73549 0.291817 0.262675
  3907 7.73458 0.290336 -0.276892
  3908 7.70919 0.155518 -0.0342682
  3909 8.11927 -0.424529 0.674769
  3910 7.69376 0.239851 0.159353
  3911 7.69524 0.158921 0.0146913
  3912 7.71816 0.237720 -0.169940
  3913 8.14869 -0.416036 -0.412127
  3914 8.11374 -0.354614 0.419870
  3915 8.18021 -0.437511 0.0218658
  3916 7.93926 -0.00462557 -0.317999
  3917 7.93738 0.00415710 0.316938
  3918 8.12236 -0.345325 -0.275384
  3919 8.09161 -0.288466 0.00559154
  3920 8.07200 -0.306653 -0.706712
  3921 7.94894 -0.0162277 -0.674787
  3922 7.80380 0.0830382 0.0694630
  3923 8.04077 -0.203293 -0.110398
  3924 8.03779 -0.196800 0.115238
  3925 7.81362 0.290889 -0.481942
  3926 7.83182 0.0955194 -0.122707
  3927 8.37878 -1.14089 0.418182
  3928 8.31581 -0.894468 -0.583124
  3929 7.90290 0.113306 0.644803
  3930 8.04172 -0.186048 0.243432
  3931 8.28008 -0.767139 0.350864
  3932 7.79178 0.293709 0.455673
  3933 8.46111 -1.30719 0.0233205
  3934 8.17543 -0.502465 -0.503840
  3935 7.97112 -0.0880040 -0.0933432
  3936 8.37662 -0.987380 0.165510
  3937 8.12228 -0.306309 0.280646
  3938 8.04726 -0.201139 -0.241354
  3939 7.94051 -0.0479652 -0.00651837
  3940 7.97072 -0.119787 0.755097
  3941 7.97240 -0.103135 0.0815092
  3942 8.34328 -0.911097 -0.224035
  3943 7.74303 0.358367 -0.376299
  3944 7.90265 0.000736350 -0.162088
  3945 7.69410 0.259948 -0.125916
  3946 7.86579 0.106176 -0.299784
  3947 7.67130 0.196688 0.0375838
  3948 7.84674 0.110280 0.265041
  3949 7.67212 0.206821 -0.0552269
  3950 7.73823 0.320356 0.349924
  3951 8.00396 -0.0938781 -0.530395
  3952 7.68275 0.228581 0.101803
  3953 7.87699 0.0186034 0.0124721
  3954 7.88983 0.0174363 0.149115
  3955 8.40306 -1.13432 -0.372811
  3956 7.93469 0.00805105 -0.406490
  3957 8.12688 -0.373292 0.536866
  3958 8.25700 -0.630296 0.162073
  3959 7.79381 0.131449 0.115216
  3960 7.97442 -0.0592148 0.483779
  3961 7.78049 0.107901 -0.0521815
  3962 8.32053 -0.836418 -0.0136751
  3963 7.94102 0.0138104 0.409893
  3964 8.31893 -0.916864 0.601526
  3965 8.18314 -0.588637 0.684897
  3966 7.68403 0.323872 0.208401
  3967 8.21967 -0.542147 -0.0913499
  3968 8.31063 -0.827630 -0.450842
  3969 7.69206 0.312745 -0.208329
  3970 8.20729 -0.514654 0.109597
  3971 7.66664 0.168439 -0.0227698
  3972 8.42585 -1.25536 0.306032
  3973 7.99703 -0.0935866 -0.750543
  3974 7.82687 0.240687 -0.595421
  3975 8.44388 -1.14991 0.0384377
  3976 7.81011 0.282928 0.610934
  3977 8.27057 -0.662775 -0.258253
  3978 8.24592 -0.616157 0.303673
  3979 8.29997 -0.826208 0.448576
  3980 8.36580 -1.08811 -0.528405
  3981 8.19985 -0.568600 0.575828
  3982 7.76861 0.117373 0.0295864
  3983 7.75812 0.218081 0.204793
  3984 7.73672 0.133413 -0.0123410
  3985 8.47673 -1.37164 0.174331
  3986 7.76510 0.207691 -0.217069
  3987 7.77876 0.152748 -0.154944
  3988 7.84316 0.0571907 -0.0591414
  3989 8.12346 -0.467506 -0.767894
  3990 7.93411 -0.00935082 -0.225747
  3991 8.26225 -0.653156 -0.115385
  3992 8.38625 -1.06795 -0.182944
  3993 8.48324 -1.37810 -0.195455
  3994 7.65771 0.306327 -0.153301
  3995 7.88406 0.196908 -0.687733
  3996 8.31068 -0.791389 -0.300593
  3997 7.92034 0.0178105 0.231581
  3998 7.91841 0.0836736 0.740247
  3999 8.06652 -0.255673 0.763766
  4000 7.85408 0.0626354 0.112713
  4001 8.08264 -0.246460 -0.450241
  4002 8.22235 -0.746395 -0.705816
  4003 7.73293 0.334514 -0.448421
  4004 7.64153 0.330152 0.156975
  4005 8.39102 -1.10041 0.284170
  4006 8.16852 -0.423843 -0.187755
  4007 7.68304 0.193590 0.0280392
  4008 7.81194 0.200649 0.308305
  4009 7.64217 0.353644 -0.305168
  4010 8.27888 -0.763502 0.699865
  4011 7.81863 0.225354 -0.325249
  4012 8.15789 -0.392467 0.203314
  4013 7.67032 0.172943 -0.0278162
  4014 7.85799 0.169516 0.423486
  4015 8.33699 -0.863919 0.237968
  4016 8.17535 -0.478562 0.390536
  4017 8.04084 -0.213188 0.484912
  4018 7.67427 0.377370 0.251267
  4019 7.73254 0.152582 -0.0717960
  4020 7.76194 0.360387 0.527135
  4021 7.86478 0.162990 -0.447402
  4022 8.21111 -0.547993 -0.358553
  4023 8.29529 -0.742103 0.0742103
  4024 7.74458 0.417106 0.425538
  4025 7.99769 -0.106779 0.322415
  4026 8.22624 -0.654394 -0.540839
  4027 7.61142 0.218471 -0.0784441
  4028 8.33748 -0.973527 0.459542
  4029 7.73763 0.182774 0.128363
  4030 7.99384 -0.127359 -0.598723
  4031 8.16548 -0.447771 -0.307848
  4032 7.72016 0.164087 0.0531119
  4033 8.45923 -1.44797 -0.0736855
  4034 8.01296 -0.122928 -0.335338
  4035 8.13987 -0.403756 0.323265
  4036 8.40303 -1.11387 -0.283433
  4037 7.73950 0.189237 -0.122838
  4038 7.63170 0.229268 0.0643688
  4039 8.13418 -0.364734 -0.0353105
  4040 8.12710 -0.358217 0.0528149
  4041 8.35453 -0.940894 0.0278577
  4042 8.07754 -0.251815 -0.160016
  4043 8.09402 -0.263140 0.367051
  4044 8.04927 -0.247375 0.660928
  4045 7.87239 0.0328307 -0.121063
  4046 8.11786 -0.334256 -0.515046
  4047 8.08928 -0.279900 -0.0782932
  4048 8.08492 -0.273660 0.0876837
  4049 8.32909 -0.891641 -0.329154
  4050 7.88690 0.0877870 -0.369318
  4051 8.15776 -0.491942 -0.637685
  4052 7.87399 0.0832557 0.367375
  4053 8.07043 -0.242761 0.168061
  4054 8.05949 -0.218659 -0.787692
  4055 8.04764 -0.220055 0.0406256
  4056 8.04906 -0.219319 -0.0349012
  4057 7.98139 -0.0344503 0.571412
  4058 7.76453 0.172804 0.160751
  4059 8.35750 -0.937072 -0.0947372
  4060 7.79879 0.177566 0.244608
  4061 7.85393 0.0491663 0.0601664
  4062 7.79772 0.168552 -0.264448
  4063 7.75621 0.122021 -0.0382388
  4064 8.29933 -0.717430 -0.0358761
  4065 8.20633 -0.531019 0.00299271
  4066 8.46789 -1.29443 -0.343663
  4067 7.67141 0.390382 -0.257118
  4068 8.30048 -0.744256 0.207440
  4069 8.32760 -1.06714 0.556837
  4070 8.01071 -0.152016 -0.0677200
  4071 7.76314 0.346050 -0.524429
  4072 7.93431 0.0561590 -0.608520
  4073 7.99750 -0.123668 0.132248
  4074 7.99746 -0.0976924 -0.250827
  4075 8.01186 -0.162766 0.185788
  4076 7.65538 0.365240 0.285136
  4077 8.06876 -0.251591 -0.295467
  4078 8.52722 -1.44722 0.0495016
  4079 8.43756 -1.18430 -0.0762437
  4080 8.10266 -0.348691 -0.607063
  4081 7.86438 0.266452 0.691463
  4082 8.02544 -0.190784 -0.655576
  4083 7.98280 -0.0871413 0.250560
  4084 7.59435 0.175571 0.0138268
  4085 8.00001 -0.130277 -0.134221
  4086 8.10715 -0.458360 0.786494
  4087 8.02117 -0.174661 -0.182750
  4088 7.79472 0.268511 -0.425328
  4089 7.97716 -0.101167 -0.0347600
  4090 8.10014 -0.304569 -0.213125
  4091 7.96912 -0.0855791 0.663247
  4092 8.04965 -0.226534 -0.537879
  4093 8.26574 -0.739606 -0.578168
  4094 8.00749 -0.156649 0.0664635
  4095 7.92812 0.0831847 -0.757371
  4096 8.39712 -1.20897 -0.460054
  4097 7.76862 0.131294 0.0696960
  4098 7.62077 0.274404 0.109732
  4099 8.32816 -0.970275 -0.661384
  4100 8.26039 -0.697865 0.485198
  4101 8.09764 -0.288200 0.220039
  4102 8.11710 -0.313767 -0.351986
  4103 7.95293 -0.0620096 -0.156079
  4104 8.06396 -0.214918 0.304674
  4105 7.96985 -0.103383 0.0268200
  4106 7.83926 0.215381 -0.525897
  4107 7.93664 -0.0493162 -0.0565348
  4108 7.69845 0.195274 -0.103725
  4109 8.38330 -1.24185 0.441441
  4110 7.82722 0.277706 0.401102
  4111 7.81471 0.0637393 0.0311485
  4112 7.99444 -0.118710 -0.441211
  4113 8.17661 -0.445076 -0.0725077
  4114 7.89701 -0.0117254 -0.0341950
  4115 7.78629 0.132208 -0.0942343
  4116 7.94360 -0.0549975 0.133810
  4117 8.16780 -0.620668 0.774421
  4118 7.69676 0.358921 0.458854
  4119 8.36000 -0.991403 -0.470057
  4120 7.92449 -0.0242861 -0.112278
  4121 8.40932 -1.11314 0.128031
  4122 7.93856 -0.0448251 0.0530763
  4123 8.46017 -1.32958 -0.106950
  4124 7.68325 0.195746 0.0747397
  4125 7.87526 0.0996455 0.312972
  4126 8.15824 -0.409185 0.102471
  4127 7.55960 0.203115 -0.0210127
  4128 8.51215 -1.50427 -0.0220407
  4129 7.72356 0.488576 0.464219
  4130 7.75041 0.482418 -0.424054
  4131 7.69043 0.482934 0.367933
  4132 7.64996 0.404393 0.278665
  4133 7.67678 0.424748 0.237983
  4134 7.63263 0.364271 0.185137
  4135 7.60182 0.327439 0.112272
  4136 7.63859 0.271732 0.0799081
  4137 7.57300 0.253424 0.0616718
  4138 7.63625 0.207928 0.0348217
  4139 7.60197 0.188797 0.0415054
  4140 7.65666 0.167642 -0.0418410
  4141 7.66924 0.209802 -0.0302856
  4142 7.60086 0.223872 -0.0405555
  4143 7.61033 0.253636 -0.0935570
  4144 7.68293 0.334113 -0.133881
  4145 7.62441 0.323851 -0.171936
  4146 7.67921 0.425845 -0.234671
  4147 7.63880 0.399982 -0.298275
  4148 7.67826 0.465106 -0.358670
  4149 7.73098 0.428082 -0.481059
  4150 7.77398 0.421568 -0.574336
  4151 7.80652 0.319995 -0.652656
  4152 7.87395 0.200976 -0.754797
  4153 7.93039 0.00709634 -0.790408
  4154 7.98764 -0.162649 -0.801792
  4155 8.02270 -0.367824 -0.829730
  4156 8.11612 -0.634176 -0.814904
  4157 8.16235 -0.794615 -0.765804
  4158 8.28423 -0.863993 -0.725964
  4159 8.36142 -1.14919 -0.591865
  4160 8.45227 -1.28716 -0.446332
  4161 8.51728 -1.38668 -0.288981
  4162 8.46958 -1.44692 -0.149596
  4163 8.58194 -1.44492 0.144521
  4164 8.42128 -1.36206 0.315744
  4165 8.36730 -1.31525 0.430160
  4166 8.35112 -1.18427 0.572297
  4167 8.30442 -0.965852 0.672204
  4168 8.24410 -0.738924 0.783789
  4169 8.09850 -0.559995 0.842717
  4170 8.04861 -0.336402 0.831689
  4171 7.97884 -0.184835 0.808394
  4172 7.89687 -0.0179342 0.799520
  4173 7.87592 0.243595 0.747094
  4174 7.79181 0.336052 0.653102
  4175 7.76083 0.412545 0.577133
  4176 7.71616 0.417547 0.486596
</Section>

newXOutput 7

<Section columns = "stress_xx | stress_yy | stress_xy">
  1 44.8262 0.0597233 -0.135284
  2 44.8265 0.0597460 0.135311
  3 59.5788 -0.0177020 0.0338909
  4 59.5784 -0.0177277 -0.0339144
  5 147.072 9.15548 1.73453
  6 185.634 2.49874 0.242992
  7 47.5839 -0.00402003 -0.154723
  8 47.5862 -0.00401430 0.154779
  9 62.0708 -0.00402321 0.117086
  10 62.0721 -0.00403116 -0.117091
  11 6.56642 -45.7350 1.88824
  12 6.73778 -46.0696 -2.07941
  13 51.8553 0.714562 -0.0721696
  14 51.8550 0.714960 0.0721577
  15 60.3798 -0.106552 0.0912499
  16 44.8668 0.0731280 -0.220019
  17 44.8674 0.0731359 0.220132
  18 60.3805 -0.106565 -0.0913241
  19 49.8213 1.75592 -1.12964
  20 49.8226 1.75585 1.12909
  21 47.5053 0.141571 0.0868181
  22 43.1906 0.578182 0.0230659
  23 47.9189 0.0145578 -0.149618
  24 48.1984 0.0203476 -0.164263
  25 48.6323 0.0198093 -0.236922
  26 48.9937 0.0152882 -0.207820
  27 49.4013 0.0178271 -0.244017
  28 49.9307 0.00546163 -0.265912
  29 50.3940 -0.0152196 -0.230502
  30 50.9275 -0.00211646 -0.217566
  31 51.5299 -0.00834436 -0.226343
  32 52.0560 0.00582349 -0.234560
  33 52.7459 0.0282852 -0.352511
  34 53.4396 0.0344386 -0.362830
  35 54.1619 0.0322180 -0.446311
  36 55.1264 0.0104971 -0.483711
  37 55.8156 -0.0161856 -0.472130
  38 56.8963 0.00262904 -0.469530
  39 57.6936 -0.00707196 -0.482546
  40 58.9821 -0.00796821 -0.473131
  41 59.9300 0.0306917 -0.587199
  42 61.0729 0.0553604 -0.684932
  43 62.4660 -0.0478643 -0.732748
  44 64.0150 -0.0562278 -0.684040
  45 65.2195 -0.0239453 -0.670570
  46 66.9547 -0.0124412 -0.678287
  47 68.2255 -0.00611566 -0.885797
  48 69.5936 0.0327155 -0.949875
  49 71.7372 -0.110269 -0.857888
  50 73.7648 -0.114461 -0.733317
  51 75.3902 -0.0895807 -0.783591
  52 77.6130 -0.0955089 -0.687898
  53 79.2318 -0.0576116 -0.925883
  54 81.3901 -0.0599524 -0.873889
  55 83.2801 -0.0490719 -1.02438
  56 84.7181 -0.111352 -1.09149
  57 87.8544 -0.376414 -0.881002
  58 88.4902 -0.0765772 -0.801830
  59 90.6376 -0.0188992 -0.635073
  60 92.1232 -0.122841 -0.715133
  61 93.4168 -0.153658 -0.500776
  62 94.5640 -0.164795 -0.387246
  63 95.2154 -0.175917 -0.214492
  64 95.6594 -0.202305 -0.0135016
  65 95.6752 -0.254487 0.262479
  66 94.7028 -0.273794 0.500084
  67 94.3074 -0.267493 0.602867
  68 92.7473 -0.386572 0.860870
  69 90.0151 -0.289527 1.31158
  70 86.9762 -0.257394 1.72201
  71 83.8116 -0.177242 2.00120
  72 79.4235 -0.140468 2.27116
  73 75.3708 0.0211351 2.43967
  74 69.9666 0.0791827 2.42910
  75 66.1546 0.180902 2.47371
  76 60.0933 0.347277 2.04184
  77 56.1378 0.503514 2.25061
  78 51.9046 0.326150 1.47705
  79 49.7201 0.522905 1.72019
  80 45.0213 0.677874 0.835409
  81 44.9243 0.591029 0.786300
  82 43.7531 0.511965 -0.467702
  83 44.7531 0.655804 -1.00579
  84 47.2578 0.897810 -1.04659
  85 52.6444 0.430702 -1.91092
  86 56.1369 0.455581 -2.52695
  87 59.9793 0.354406 -2.26444
  88 66.2928 0.134954 -2.62223
  89 70.6106 -0.0611322 -2.72372
  90 75.0591 0.0375847 -2.14212
  91 79.5532 -0.0375352 -2.14877
  92 83.8320 -0.166699 -1.93728
  93 87.0067 -0.242566 -1.69460
  94 90.0194 -0.284565 -1.30153
  95 92.7392 -0.385089 -0.856474
  96 94.2931 -0.266642 -0.600744
  97 94.6862 -0.272776 -0.499100
  98 95.6575 -0.253880 -0.262626
  99 95.6433 -0.201916 0.0125930
  100 95.2018 -0.175717 0.213228
  101 94.5532 -0.164710 0.385869
  102 93.4088 -0.153667 0.499445
  103 92.1178 -0.122903 0.713890
  104 90.6344 -0.0190280 0.634056
  105 88.4892 -0.0767230 0.800948
  106 87.8546 -0.376454 0.880290
  107 84.7198 -0.111365 1.09081
  108 83.2830 -0.0491458 1.02391
  109 81.3938 -0.0600175 0.873548
  110 79.2363 -0.0576727 0.925646
  111 77.6179 -0.0955537 0.687708
  112 75.3956 -0.0896152 0.783466
  113 73.7705 -0.114495 0.733195
  114 71.7430 -0.110304 0.857792
  115 69.5995 0.0326860 0.949841
  116 68.2315 -0.00616235 0.885814
  117 66.9607 -0.0124699 0.678301
  118 65.2254 -0.0239646 0.670619
  119 64.0209 -0.0562674 0.684080
  120 62.4716 -0.0478874 0.732824
  121 61.0784 0.0553611 0.685033
  122 59.9354 0.0306747 0.587304
  123 58.9874 -0.00798476 0.473202
  124 57.6985 -0.00708233 0.482638
  125 56.9011 0.00261674 0.469612
  126 55.8203 -0.0161991 0.472236
  127 55.1308 0.0104888 0.483815
  128 54.1661 0.0322157 0.446428
  129 53.4437 0.0344397 0.362934
  130 52.7498 0.0282872 0.352608
  131 52.0597 0.00581612 0.234631
  132 51.5335 -0.00835384 0.226405
  133 50.9309 -0.00212397 0.217627
  134 50.3972 -0.0152292 0.230568
  135 49.9338 0.00545657 0.265991
  136 49.4042 0.0178272 0.244101
  137 48.9965 0.0152891 0.207897
  138 48.6349 0.0198150 0.237008
  139 48.2009 0.0203458 0.164325
  140 47.9213 0.0145535 0.149669
  141 46.2418 0.223501 0.204784
  142 48.0943 0.427772 0.167686
  143 49.7440 0.672865 0.146293
  144 53.8876 0.537036 -0.0228602
  145 55.9946 0.352663 -0.0228622
  146 58.0389 0.126329 0.0157771
  147 62.4745 -0.0291708 -0.0866106
  148 62.6097 -0.0360387 -0.136566
  149 62.8624 -0.0475548 -0.0685295
  150 63.0079 -0.0414603 -0.120480
  151 63.0769 -0.0496797 -0.0464212
  152 63.2293 -0.0218837 -0.0222664
  153 63.0996 -0.0853006 -0.0116428
  154 62.9238 -0.0612746 0.131983
  155 62.8282 -0.0751062 0.186005
  156 62.4379 -0.0896296 0.208551
  157 61.7005 -0.0750358 0.344480
  158 60.9941 -0.0565006 0.410213
  159 59.9199 -0.0758162 0.529763
  160 58.7784 -0.0237521 0.721405
  161 57.3545 -0.0115702 0.561302
  162 56.0976 -0.00163538 0.608954
  163 54.3569 0.0354486 0.598442
  164 52.9936 0.0587183 0.732858
  165 51.3752 0.0811560 0.639080
  166 50.0249 0.0955083 0.586103
  167 48.7512 0.150650 0.434895
  168 47.7466 0.135365 0.274139
  169 47.7288 0.0845711 0.270076
  170 47.3675 0.265948 -0.270952
  171 47.7148 0.193670 -0.301753
  172 49.0151 0.155221 -0.507298
  173 50.1739 0.163287 -0.792638
  174 51.2322 0.0569660 -0.660001
  175 52.9752 0.0587886 -0.724342
  176 54.3574 0.0404228 -0.602933
  177 56.1109 -0.00446420 -0.612877
  178 57.3694 -0.0126758 -0.561339
  179 58.7903 -0.0240968 -0.719848
  180 59.9296 -0.0757612 -0.528562
  181 61.0013 -0.0564441 -0.409172
  182 61.7059 -0.0749675 -0.343636
  183 62.4415 -0.0895699 -0.207825
  184 62.8307 -0.0750713 -0.185481
  185 62.9253 -0.0612596 -0.131506
  186 63.1002 -0.0852489 0.0120452
  187 63.2293 -0.0218297 0.0225389
  188 63.0764 -0.0496331 0.0466296
  189 63.0070 -0.0414157 0.120605
  190 62.8613 -0.0475162 0.0686265
  191 62.6085 -0.0360068 0.136602
  192 62.4732 -0.0291463 0.0866339
  193 58.0387 0.126251 -0.0158059
  194 55.9946 0.352448 0.0228254
  195 53.8879 0.536706 0.0228303
  196 49.7443 0.672499 -0.146263
  197 48.0943 0.427533 -0.167639
  198 46.2415 0.223397 -0.204740
  199 44.4275 0.200110 -0.204254
  200 45.0272 0.0488908 -0.247018
  201 45.5560 0.0295582 -0.233164
  202 46.0042 0.0237591 -0.199872
  203 46.5431 0.00297728 -0.230486
  204 46.8760 -0.00188929 -0.198539
  205 47.1594 -0.00118809 -0.144986
  206 47.7107 0.0146621 -0.336268
  207 47.7652 0.0448642 -0.590245
  208 47.9233 0.110044 -0.919626
  209 47.9986 0.185554 -1.19718
  210 48.0373 0.284047 -1.49135
  211 47.9581 0.419655 -1.69888
  212 47.9612 0.557324 -1.94012
  213 47.8519 0.734893 -2.12808
  214 47.7205 0.913667 -2.27547
  215 47.5773 1.11586 -2.39071
  216 47.3996 1.32298 -2.42787
  217 47.2625 1.50282 -2.42328
  218 47.0913 1.73542 -2.39589
  219 46.9373 1.93022 -2.27175
  220 46.8057 2.11003 -2.12623
  221 46.7445 2.27741 -1.90529
  222 46.7082 2.37755 -1.63595
  223 46.7526 2.50752 -1.32516
  224 46.8407 2.54656 -0.971218
  225 47.1360 2.48997 -0.576844
  226 47.4870 2.44036 -0.211385
  227 47.8897 2.32429 0.164801
  228 48.4326 2.18740 0.525957
  229 49.0217 1.94663 0.861302
  230 50.5999 1.44459 1.36440
  231 51.4675 1.20707 1.52167
  232 52.2981 0.974545 1.61153
  233 53.2098 0.765690 1.61284
  234 53.9932 0.542412 1.60944
  235 54.9012 0.385701 1.54716
  236 55.6990 0.244665 1.45398
  237 56.4615 0.163172 1.34856
  238 57.2914 0.0969724 1.20028
  239 57.9967 0.0598994 1.04812
  240 58.7355 0.00498402 0.910299
  241 59.4669 0.0379185 0.756321
  242 60.1958 0.0129218 0.597143
  243 60.8894 0.00722217 0.428541
  244 61.5506 0.0213445 0.240712
  245 61.8552 -0.0247394 0.0902413
  246 61.4353 -0.0311728 0.105051
  247 60.8998 -0.0587782 0.159529
  248 59.6437 -0.0289596 0.140498
  249 61.5517 0.0213228 -0.240712
  250 60.8903 0.00714096 -0.428533
  251 60.1965 0.0127539 -0.597131
  252 59.4676 0.0376604 -0.756324
  253 58.7361 0.00460633 -0.910352
  254 57.9972 0.0594441 -1.04825
  255 57.2919 0.0964120 -1.20049
  256 56.4618 0.162554 -1.34891
  257 55.6992 0.244038 -1.45445
  258 54.9012 0.385088 -1.54775
  259 53.9930 0.541871 -1.61013
  260 53.2094 0.765260 -1.61359
  261 52.2974 0.974207 -1.61231
  262 51.4665 1.20687 -1.52242
  263 50.5987 1.44452 -1.36507
  264 49.0203 1.94680 -0.861723
  265 48.4311 2.18767 -0.526221
  266 47.8883 2.32462 -0.164913
  267 47.4856 2.44075 0.211428
  268 47.1347 2.49040 0.577022
  269 46.8395 2.54701 0.971537
  270 46.7515 2.50798 1.32560
  271 46.7073 2.37800 1.63650
  272 46.7438 2.27786 1.90593
  273 46.8053 2.11044 2.12695
  274 46.9371 1.93061 2.27252
  275 47.0913 1.73577 2.39669
  276 47.2627 1.50313 2.42411
  277 47.4000 1.32325 2.42870
  278 47.5780 1.11610 2.39152
  279 47.7213 0.913855 2.27625
  280 47.8530 0.735051 2.12881
  281 47.9625 0.557441 1.94080
  282 47.9596 0.419750 1.69947
  283 48.0389 0.284111 1.49187
  284 48.0003 0.185600 1.19761
  285 47.9252 0.110074 0.919961
  286 47.7673 0.0448735 0.590462
  287 47.7129 0.0146635 0.336394
  288 47.1615 -0.00119868 0.145039
  289 46.8780 -0.00190668 0.198605
  290 46.5449 0.00296514 0.230569
  291 46.0057 0.0237543 0.199965
  292 45.5573 0.0295574 0.233265
  293 45.0282 0.0488850 0.247113
  294 44.4280 0.200123 0.204312
  295 59.6442 -0.0289500 -0.140567
  296 60.9007 -0.0588013 -0.159604
  297 61.4364 -0.0311874 -0.105091
  298 61.8564 -0.0247546 -0.0902606
  299 8.94141 -41.1346 -0.984509
  300 11.1298 -29.7591 -1.57758
  301 18.3103 -12.8354 4.45269
  302 30.0329 -0.690695 10.8020
  303 52.0041 10.8340 21.3615
  304 74.6328 17.1053 29.5463
  305 99.7587 17.1289 30.6093
  306 125.315 14.7292 26.9234
  307 141.559 11.0267 15.4308
  308 137.887 12.4622 -13.8262
  309 124.021 14.1166 -28.0128
  310 99.4418 17.6881 -31.5878
  311 72.5083 16.9064 -28.3951
  312 50.2824 13.4014 -23.4545
  313 30.6070 1.81883 -12.0472
  314 20.0969 -11.3440 -5.99496
  315 11.5644 -31.2848 2.14124
  316 9.82874 -42.8254 1.04293
  317 6.97133 -50.1898 -7.20849
  318 6.77247 -41.6137 -8.35016
  319 8.23724 -31.9426 -8.00435
  320 13.9373 -18.0997 -2.42214
  321 22.7289 -6.85691 3.34624
  322 36.4809 3.43699 10.7371
  323 56.2555 7.46450 18.6518
  324 76.4831 12.8178 27.0683
  325 95.3124 12.6159 30.5030
  326 116.883 12.2800 32.7346
  327 137.118 10.6181 28.6033
  328 160.562 6.86079 27.1242
  329 172.052 5.35876 17.7152
  330 181.313 2.47573 8.47803
  331 184.384 3.03831 -10.0852
  332 173.301 4.47585 -18.5667
  333 159.590 7.51285 -24.5426
  334 142.392 10.5344 -30.2247
  335 119.767 11.8971 -31.5223
  336 99.6486 13.5759 -31.8770
  337 74.8951 11.9903 -26.0237
  338 54.3829 8.17614 -18.1814
  339 33.6760 3.64545 -10.3432
  340 22.9179 -6.99482 -2.89753
  341 14.1384 -18.0357 2.38973
  342 8.27382 -31.9290 7.95203
  343 6.76497 -41.6811 8.29788
  344 6.95820 -50.4401 7.09240
  345 47.2480 0.681237 -1.00329
  346 49.9995 1.14536 -0.0907683
  347 54.7768 0.585725 0.577419
  348 46.9073 0.242603 -1.08519
  349 48.0843 1.36599 -0.861286
  350 57.4195 0.258585 0.692361
  351 47.2406 0.881149 -1.57123
  352 51.8661 1.14143 0.614260
  353 49.3422 1.72411 0.0622505
  354 47.3945 1.58335 -1.45478
  355 47.1293 0.0857750 -0.762775
  356 55.2821 0.571821 0.991886
  357 47.4063 0.428230 -1.49262
  358 47.3779 0.732941 -1.80277
  359 47.5888 1.88931 -1.03612
  360 59.2573 0.102029 0.578131
  361 52.9466 0.958562 1.05741
  362 48.4450 0.831273 -0.495017
  363 57.1838 0.254900 0.947248
  364 47.2217 1.48996 -1.86831
  365 50.6735 1.49562 0.738710
  366 46.3757 0.185922 -0.726306
  367 57.1013 0.245550 0.331640
  368 51.9061 0.967902 0.226468
  369 54.3078 0.620176 1.28461
  370 47.8735 2.13990 -0.508226
  371 48.8157 1.99311 0.129009
  372 46.8320 0.299395 -0.380864
  373 55.9933 0.374907 1.22583
  374 47.3203 1.16226 -2.05440
  375 47.1468 2.00560 -1.53830
  376 47.3635 0.0253402 -0.469858
  377 60.5481 0.0276514 0.396403
  378 46.5302 0.0874867 -0.715038
  379 46.9170 0.464055 -1.16043
  380 47.5418 0.196112 -1.14187
  381 50.5114 0.754459 -0.0372889
  382 47.4257 1.03466 -1.24293
  383 53.5123 0.826865 0.754364
  384 59.0346 0.0895475 0.750867
  385 59.4371 0.0626885 0.430548
  386 47.5454 0.693328 -1.90183
  387 54.0206 0.603481 0.270221
  388 48.0080 1.05842 -0.825777
  389 51.9344 1.15140 1.21939
  390 49.8436 1.71149 0.648361
  391 46.0774 0.103487 -0.614015
  392 50.4957 1.31378 0.175961
  393 45.6947 0.102093 -0.263246
  394 56.0148 0.450528 0.743309
  395 48.4290 1.74088 -0.541173
  396 49.1912 1.34423 -0.333920
  397 47.1478 0.646566 -1.47503
  398 47.4458 0.101142 -0.847582
  399 47.0880 1.75590 -1.95216
  400 47.3246 2.19228 -1.07576
  401 57.4435 0.162785 1.07176
  402 47.6169 0.427789 -1.62053
  403 58.1687 0.187411 0.403240
  404 48.8122 0.629024 -0.205136
  405 48.5981 1.17538 -0.593638
  406 47.3186 1.13450 -1.57437
  407 46.9645 0.0155343 -0.373037
  408 53.5953 0.740615 1.39058
  409 47.4049 1.10272 -2.20495
  410 47.7037 1.21761 -1.09605
  411 48.0539 2.19521 -0.143611
  412 59.9137 0.0473515 0.559052
  413 50.4018 1.57972 0.986544
  414 60.1969 0.0624115 0.342492
  415 55.2233 0.439721 1.32310
  416 47.2252 1.43896 -2.15617
  417 47.0126 0.213878 -1.02876
  418 47.4986 0.563763 -0.499631
  419 51.8691 1.19043 0.912628
  420 46.5821 0.0332093 -0.426450
  421 50.0612 1.60903 0.391849
  422 47.1832 0.504106 -1.44499
  423 56.4724 0.389953 0.907801
  424 49.7063 0.896411 -0.183007
  425 54.0462 0.778428 1.02865
  426 55.8640 0.389176 0.509864
  427 52.6786 0.972449 0.531529
  428 46.7367 0.364432 -0.641897
  429 46.9917 2.22692 -1.38198
  430 47.8011 0.330055 -1.47783
  431 47.3110 2.29093 -0.797316
  432 52.2102 0.779112 0.146201
  433 58.3127 0.169767 0.813742
  434 46.9654 2.00324 -1.86826
  435 47.6598 1.55920 -1.15771
  436 56.6664 0.256647 1.20063
  437 58.3433 0.0917560 0.920977
  438 46.5592 0.237073 -0.894139
  439 47.7372 0.592910 -1.88064
  440 47.5333 0.907430 -2.10114
  441 45.4494 0.0264591 -0.386276
  442 51.2700 1.30944 1.24581
  443 52.6395 0.964780 1.38701
  444 47.3218 1.31284 -2.25495
  445 48.5036 1.91443 -0.285240
  446 54.4106 0.554957 1.42590
  447 47.0819 1.69419 -2.13449
  448 47.5356 2.31930 -0.454130
  449 47.1846 0.747613 -1.29033
  450 54.6713 0.668216 0.792834
  451 55.6396 0.406641 0.307644
  452 46.8981 2.17811 -1.66862
  453 49.0348 1.92908 0.500671
  454 56.0242 0.289552 1.31041
  455 58.4799 0.121657 0.200401
  456 50.9195 1.07175 0.120061
  457 52.7162 0.987204 0.862080
  458 47.8269 0.511458 -0.346888
  459 61.1006 0.0162456 0.320130
  460 50.8973 1.37388 0.508294
  461 48.4063 2.13981 0.216350
  462 47.2525 0.241339 -1.14206
  463 47.1998 1.70014 -1.68529
  464 47.2907 2.01172 -1.28476
  465 57.1843 0.281986 0.553329
  466 47.3138 0.924819 -1.81063
  467 47.2709 1.16192 -1.85779
  468 46.9133 0.431307 -0.938532
  469 58.6088 0.140931 0.608510
  470 56.6905 0.299857 1.12531
  471 50.8714 0.947793 0.00595573
  472 53.4175 0.751567 0.415519
  473 56.0544 0.402916 1.09452
  474 47.6089 0.0663882 -0.740000
  475 48.0456 1.66715 -0.823244
  476 47.6218 2.09344 -0.809641
  477 45.5551 0.127121 -0.211264
  478 49.5786 1.79013 0.817133
  479 58.0099 0.156005 0.919618
  480 47.8412 0.220549 -1.26743
  481 47.1985 0.370210 -0.142737
  482 46.4916 0.176635 -0.842487
  483 47.5517 0.554393 -1.75015
  484 55.1482 0.523803 1.13673
  485 47.7460 0.152895 -1.01787
  486 60.4109 0.0212599 0.523700
  487 51.2469 1.38252 1.03003
  488 59.3680 0.0468739 0.239957
  489 59.0353 0.0626330 0.828473
  490 47.4153 0.00610360 -0.265083
  491 46.0432 0.0323103 -0.457432
  492 54.7378 0.539452 0.458806
  493 57.0724 0.236675 0.147941
  494 57.6113 0.251963 0.785697
  495 47.4284 0.621991 -1.71740
  496 47.4935 1.34876 -1.36803
  497 47.5268 0.316461 -1.37858
  498 47.6889 0.770874 -2.05851
  499 48.9402 1.62949 -0.291620
  500 49.6709 1.46017 -0.0432672
  501 47.3351 0.0461720 -0.623264
  502 51.4207 1.16779 0.358301
  503 47.3950 1.82043 -1.35345
  504 61.3299 -0.0109771 0.177013
  505 47.3227 1.43348 -1.59668
  506 49.2259 1.02416 -0.358856
  507 47.6129 0.714298 -0.776079
  508 53.5380 0.837582 1.21639
  509 49.4102 1.80523 0.343987
  510 51.8968 1.11988 1.39320
  511 46.8836 0.108641 -0.807823
  512 47.1585 0.327894 -1.24554
  513 59.6261 0.0604770 0.673903
  514 45.7651 0.0531872 -0.441527
  515 54.8722 0.476682 0.167828
  516 47.1293 0.00761727 -0.229178
  517 47.3900 0.937431 -2.00621
  518 46.0628 0.0233622 -0.334586
  519 58.9168 0.0686622 0.0854198
  520 44.8537 0.153104 -0.226368
  521 48.0101 1.92392 -0.655254
  522 46.9236 0.360983 -1.17506
  523 53.8359 0.774943 0.646636
  524 61.0305 -0.00167626 0.159263
  525 61.6819 0.0190511 0.159524
  526 47.0182 2.35813 -1.11283
  527 47.5993 0.931883 -0.991324
  528 59.8651 0.0365626 0.556527
  529 60.1934 0.0148126 0.154007
  530 58.4100 0.150330 0.474245
  531 50.0599 1.51764 0.220303
  532 59.4431 0.0967189 0.515603
  533 48.5577 1.51781 -0.573761
  534 46.9482 1.88807 -2.08298
  535 47.1300 0.703891 -1.40239
  536 53.2247 0.642770 0.0833754
  537 47.8332 0.462015 -1.72655
  538 55.6302 0.539800 0.854737
  539 52.7350 0.961181 1.21111
  540 45.5350 0.0286821 -0.315223
  541 47.2481 0.681477 1.00375
  542 49.9989 1.14579 0.0908222
  543 54.7766 0.585929 -0.577693
  544 46.9083 0.242677 1.08564
  545 48.0838 1.36641 0.861664
  546 57.4197 0.258593 -0.692658
  547 47.2410 0.881392 1.57186
  548 51.8654 1.14171 -0.614550
  549 49.3412 1.72453 -0.0622959
  550 47.3941 1.58376 1.45535
  551 47.1309 0.0857991 0.763080
  552 55.2819 0.571788 -0.992297
  553 47.4074 0.428337 1.49319
  554 47.3786 0.733125 1.80344
  555 47.5880 1.88976 1.03651
  556 59.2579 0.101975 -0.578321
  557 52.9460 0.958585 -1.05790
  558 48.4448 0.831624 0.495268
  559 57.1840 0.254741 -0.947559
  560 47.2217 1.49032 1.86901
  561 50.6725 1.49585 -0.739075
  562 46.3764 0.185999 0.726642
  563 57.1014 0.245675 -0.331825
  564 51.9056 0.968291 -0.226584
  565 54.3076 0.619943 -1.28515
  566 47.8724 2.14035 0.508412
  567 48.8145 1.99350 -0.129085
  568 46.8322 0.299538 0.381084
  569 55.9934 0.374594 -1.22625
  570 47.3207 1.16253 2.05515
  571 47.1462 2.00604 1.53887
  572 47.3654 0.0253488 0.470035
  573 60.5490 0.0276158 -0.396498
  574 46.5315 0.0875185 0.715347
  575 46.9176 0.464212 1.16093
  576 47.5434 0.196157 1.14230
  577 50.5111 0.754865 0.0373270
  578 47.4257 1.03497 1.24347
  579 53.5118 0.827039 -0.754716
  580 59.0352 0.0893917 -0.751030
  581 59.4377 0.0626812 -0.430738
  582 47.5463 0.693486 1.90252
  583 54.0204 0.603799 -0.270343
  584 48.0078 1.05878 0.826159
  585 51.9336 1.15135 -1.21997
  586 49.8425 1.71174 -0.648676
  587 46.0783 0.103527 0.614292
  588 50.4949 1.31419 -0.176040
  589 45.6951 0.102146 0.263418
  590 56.0148 0.450614 -0.743633
  591 48.4282 1.74134 0.541393
  592 49.1906 1.34467 0.334076
  593 47.1484 0.646743 1.47564
  594 47.4476 0.101164 0.847910
  595 47.0877 1.75629 1.95286
  596 47.3237 2.19275 1.07616
  597 57.4439 0.162442 -1.07202
  598 47.6181 0.427887 1.62113
  599 58.1691 0.187475 -0.403444
  600 48.8120 0.629354 0.205245
  601 48.5976 1.17580 0.593915
  602 47.3187 1.13480 1.57500
  603 46.9663 0.0155358 0.373182
  604 53.5949 0.740333 -1.39120
  605 47.4054 1.10297 2.20572
  606 47.7034 1.21798 1.09653
  607 48.0526 2.19562 0.143634
  608 59.9144 0.0472591 -0.559154
  609 50.4007 1.57984 -0.987031
  610 60.1977 0.0623969 -0.342620
  611 55.2233 0.439330 -1.32360
  612 47.2253 1.43928 2.15693
  613 47.0138 0.213944 1.02917
  614 47.4987 0.564005 0.499932
  615 51.8683 1.19057 -0.913062
  616 46.5837 0.0332203 0.426623
  617 50.0602 1.60937 -0.392048
  618 47.1841 0.504234 1.44556
  619 56.4725 0.389914 -0.908159
  620 49.7059 0.896821 0.183127
  621 54.0459 0.778433 -1.02910
  622 55.8639 0.389337 -0.510110
  623 52.6781 0.972750 -0.531780
  624 46.7370 0.364581 0.642236
  625 46.9908 2.22737 1.38247
  626 47.8025 0.330137 1.47836
  627 47.3099 2.29139 0.797593
  628 52.2099 0.779505 -0.146260
  629 58.3132 0.169650 -0.813994
  630 46.9649 2.00367 1.86892
  631 47.6593 1.55962 1.15818
  632 56.6667 0.256238 -1.20097
  633 58.3438 0.0914573 -0.921138
  634 46.5600 0.237155 0.894541
  635 47.7383 0.593046 1.88131
  636 47.5340 0.907630 2.10189
  637 45.4502 0.0264743 0.386456
  638 51.2691 1.30941 -1.24642
  639 52.6389 0.964568 -1.38767
  640 47.3222 1.31312 2.25574
  641 48.5026 1.91488 0.285340
  642 54.4104 0.554550 -1.42649
  643 47.0818 1.69456 2.13524
  644 47.5343 2.31973 0.454273
  645 47.1849 0.747847 1.29089
  646 54.6710 0.668325 -0.793194
  647 55.6396 0.406861 -0.307802
  648 46.8974 2.17855 1.66921
  649 49.0335 1.92936 -0.500926
  650 56.0244 0.289081 -1.31083
  651 58.4802 0.121719 -0.200523
  652 50.9189 1.07216 -0.120118
  653 52.7156 0.987355 -0.862470
  654 47.8269 0.511710 0.347099
  655 61.1016 0.0162103 -0.320166
  656 50.8965 1.37419 -0.508530
  657 48.4050 2.14016 -0.216484
  658 47.2539 0.241400 1.14251
  659 47.1994 1.70054 1.68592
  660 47.2900 2.01217 1.28524
  661 57.1845 0.282065 -0.553592
  662 47.3143 0.925050 1.81132
  663 47.2711 1.16221 1.85850
  664 46.9136 0.431469 0.938978
  665 58.6093 0.140900 -0.608752
  666 56.6907 0.299590 -1.12566
  667 50.8709 0.948217 -0.00595238
  668 53.4171 0.751880 -0.415712
  669 56.0545 0.402756 -1.09491
  670 47.6108 0.0664030 0.740279
  671 48.0449 1.66760 0.823580
  672 47.6208 2.09390 0.809942
  673 45.5554 0.127184 0.211352
  674 49.5774 1.79032 -0.817538
  675 58.0103 0.155792 -0.919854
  676 47.8429 0.220600 1.26789
  677 47.1986 0.370396 0.142854
  678 46.4926 0.176690 0.842854
  679 47.5528 0.554528 1.75080
  680 55.1481 0.523634 -1.13718
  681 47.7477 0.152933 1.01824
  682 60.4117 0.0211642 -0.523753
  683 51.2460 1.38262 -1.03053
  684 59.3685 0.0468939 -0.240093
  685 59.0359 0.0623813 -0.828569
  686 47.4174 0.00611048 0.265185
  687 46.0444 0.0323335 0.457633
  688 54.7376 0.539701 -0.459015
  689 57.0725 0.236821 -0.148030
  690 57.6116 0.251904 -0.785995
  691 47.4293 0.622140 1.71805
  692 47.4933 1.34913 1.36860
  693 47.5282 0.316540 1.37910
  694 47.6898 0.771044 2.05924
  695 48.9393 1.62994 0.291741
  696 49.6701 1.46061 0.0432878
  697 47.3369 0.0461921 0.623501
  698 51.4200 1.16815 -0.358472
  699 47.3944 1.82086 1.35397
  700 61.3310 -0.0109930 -0.177058
  701 47.3225 1.43385 1.59731
  702 49.2254 1.02458 0.359031
  703 47.6129 0.714579 0.776456
  704 53.5375 0.837479 -1.21693
  705 49.4091 1.80558 -0.344162
  706 51.8960 1.11972 -1.39387
  707 46.8850 0.108669 0.808158
  708 47.1596 0.327977 1.24604
  709 59.6268 0.0603178 -0.673971
  710 45.7657 0.0532330 0.441746
  711 54.8720 0.476956 -0.167900
  712 47.1314 0.00761561 0.229263
  713 47.3905 0.937653 2.00695
  714 46.0642 0.0233744 0.334727
  715 58.9171 0.0687070 -0.0854715
  716 44.8542 0.153123 0.226455
  717 48.0092 1.92438 0.655511
  718 46.9244 0.361093 1.17554
  719 53.8355 0.775176 -0.646926
  720 61.0315 -0.00168853 -0.159323
  721 61.6831 0.0190484 -0.159546
  722 47.0172 2.35858 1.11321
  723 47.5992 0.932204 0.991778
  724 59.8658 0.0364906 -0.556675
  725 60.1941 0.0148167 -0.154106
  726 58.4104 0.150356 -0.474476
  727 50.0591 1.51804 -0.220410
  728 59.4437 0.0967006 -0.515804
  729 48.5570 1.51826 0.574015
  730 46.9479 1.88847 2.08370
  731 47.1305 0.704095 1.40298
  732 53.2244 0.643129 -0.0834231
  733 47.8345 0.462115 1.72717
  734 55.6301 0.539843 -0.855110
  735 52.7344 0.961097 -1.21168
  736 45.5361 0.0286881 0.315367
  737 37.0203 5.56980 2.44673
  738 37.0249 5.56869 -2.44615
  739 56.4222 -4.67264 5.13891
  740 56.4370 -4.69534 -5.13323
  741 47.7362 2.53197 5.04818
  742 47.7356 2.53178 -5.04696
  743 42.4322 0.337834 -11.6895
  744 42.4383 0.333437 11.6916
  745 65.4343 0.275761 5.30201
  746 65.4390 0.948015 -5.35711
  747 50.7242 2.48404 -8.02624
  748 50.7265 2.48334 8.02751
  749 63.5585 -7.65085 7.81184
  750 63.5388 -7.64766 -7.80293
  751 46.1798 1.99084 -3.64700
  752 46.1825 1.99209 3.64563
  753 59.0966 -1.45741 0.717714
  754 59.0986 -1.45959 -0.716271
  755 39.7851 -3.06290 11.8780
  756 39.7765 -3.05869 -11.8747
  757 43.8749 4.02884 2.06221
  758 43.8767 4.02843 -2.06176
  759 49.6328 0.753959 -2.88313
  760 49.6347 0.754064 2.88394
  761 59.6210 4.85945 -0.151812
  762 61.4091 -2.36265 2.54243
  763 61.4069 -2.36146 -2.53949
  764 58.8371 0.874234 -9.47266
  765 58.8419 0.872318 9.47212
  766 53.0252 1.14082 5.01592
  767 53.0224 1.14089 -5.01497
  768 66.0927 -9.11693 -4.77663
  769 65.8377 -9.31788 5.08014
  770 83.6953 -6.13606 3.91849
  771 83.6884 -6.10141 -3.92441
  772 66.9106 -1.28990 -8.46083
  773 66.9172 -1.29249 8.45817
  774 53.5102 -0.595650 3.09137
  775 53.5103 -0.597862 -3.09313
  776 72.4090 13.4305 1.81360
  777 24.1254 2.41324 -0.441920
  778 24.1427 2.40928 0.446337
  779 93.7044 3.13650 -7.66573
  780 92.8707 3.02819 7.88393
  781 94.5273 8.12157 1.01823
  782 59.4031 0.902592 -6.60385
  783 59.4072 0.902024 6.60410
  784 46.2577 2.75673 -3.32284
  785 46.2573 2.75713 3.32378
  786 76.1600 4.14701 -3.55143
  787 51.8116 0.506776 2.99441
  788 51.8089 0.506746 -2.99369
  789 58.0230 1.38836 -3.65711
  790 58.0864 1.42878 3.72236
  791 43.8499 4.33489 5.96784
  792 43.8506 4.33474 -5.96632
  793 40.0099 4.32295 8.37155
  794 40.0103 4.32422 -8.36841
  795 63.7342 -5.58301 -0.279674
  796 63.7315 -5.59107 0.279437
  797 79.8848 -4.53977 -0.300404
  798 79.8881 -4.52763 0.291373
  799 38.9756 3.25190 -4.57261
  800 38.9792 3.25300 4.56883
  801 31.1880 -8.24619 -11.1845
  802 31.2095 -8.25129 11.1833
  803 77.6333 2.59957 2.12692
  804 45.7020 3.15018 -0.697538
  805 45.7041 3.15011 0.697183
  806 60.1237 -0.341213 -0.526597
  807 60.1230 -0.340498 0.527398
  808 60.7545 -0.978690 0.966170
  809 60.7543 -0.977502 -0.963464
  810 59.4174 -0.579841 3.82840
  811 59.4222 -0.585550 -3.82743
  812 60.0042 -3.42340 0.741846
  813 60.0093 -3.42682 -0.739300
  814 58.3639 0.569104 4.42259
  815 58.3598 0.569256 -4.42210
  816 79.3767 -1.84679 -3.88435
  817 79.3805 -1.84771 3.87837
  818 48.3968 -1.34445 -6.91535
  819 48.4017 -1.34044 6.91273
  820 49.3061 0.237940 -1.55060
  821 49.3084 0.237984 1.55109
  822 56.6036 -0.643003 1.74598
  823 56.6047 -0.644829 -1.74625
  824 47.8406 1.55635 3.22857
  825 47.8399 1.55610 -3.22761
  826 46.8193 -10.8673 -15.4677
  827 45.6210 -10.6907 15.6129
  828 65.5497 8.40909 -3.23902
  829 49.6440 1.27404 2.60249
  830 49.6423 1.27335 -2.60377
  831 70.0954 -0.0238725 -6.29804
  832 70.0998 -0.0248404 6.29635
  833 54.5175 -6.66049 -9.04623
  834 54.4208 -6.65517 9.03814
  835 40.8049 4.57830 -0.190453
  836 40.8081 4.57818 0.189740
  837 82.1361 -1.12739 -9.27990
  838 82.1574 -0.950787 9.24223
  839 22.0996 -7.38361 11.8392
  840 22.1044 -7.35933 -11.9151
  841 78.7886 4.31849 -4.87129
  842 61.5727 -10.7679 -7.23468
  843 61.5885 -10.6721 7.48107
  844 44.6122 3.84820 4.12291
  845 44.6131 3.84779 -4.12188
  846 48.6719 2.76517 6.52157
  847 48.6707 2.76528 -6.52022
  848 63.9943 6.75064 3.53618
  849 50.6287 0.225032 -1.78406
  850 50.6314 0.225065 1.78456
  851 65.9643 0.325116 5.57576
  852 65.9596 0.325643 -5.57622
  853 53.2803 -3.73204 -11.6136
  854 53.2873 -3.73259 11.6135
  855 113.209 9.43711 -1.60025
  856 14.1033 -8.04354 -1.86316
  857 14.0931 -8.05264 1.89319
  858 54.9693 0.318898 2.70602
  859 54.9656 0.318897 -2.70549
  860 45.6526 3.12061 2.06817
  861 45.6537 3.12016 -2.06757
  862 54.6521 1.65992 -1.00536
  863 48.8510 2.61097 9.93017
  864 48.8478 2.61294 -9.92872
  865 84.2302 -2.55334 -5.75410
  866 84.2536 -2.57616 5.77542
  867 57.0435 -2.03619 2.23445
  868 57.0464 -2.03973 -2.23481
  869 63.7621 -2.64276 -3.88875
  870 63.7612 -2.64822 3.89558
  871 60.2684 -0.753494 2.09085
  872 60.2700 -0.752791 -2.08745
  873 74.7126 3.00406 6.00096
  874 31.3546 3.27981 7.25752
  875 31.3572 3.28174 -7.25080
  876 32.4984 4.36599 -2.59345
  877 32.5075 4.36334 2.59061
  878 71.9376 -6.16311 7.24122
  879 49.6529 1.38618 4.08054
  880 49.6513 1.38605 -4.07952
  881 85.8684 16.4990 -0.825322
  882 50.5084 -0.293893 4.47237
  883 50.5063 -0.296104 -4.47466
  884 93.6854 -0.746259 0.245641
  885 93.6578 -0.639656 -0.375533
  886 68.0997 -4.40580 -2.53560
  887 67.9176 -4.18548 2.72358
  888 114.947 8.76169 0.905356
  889 55.1920 -0.231992 11.0138
  890 55.1857 -0.229049 -11.0144
  891 68.5713 -7.09119 -9.53716
  892 61.1230 -0.445166 0.107733
  893 61.1230 -0.444514 -0.106194
  894 78.9067 -0.753780 -4.73847
  895 78.9092 -0.755060 4.73455
  896 48.6081 0.622015 -2.32877
  897 48.6096 0.622128 2.32951
  898 41.3545 4.97356 -3.18385
  899 41.3521 4.97411 3.18451
  900 54.2243 1.35729 1.37443
  901 89.9085 15.3516 -0.291272
  902 53.4138 1.66047 6.45053
  903 53.4110 1.66075 -6.44957
  904 61.2372 0.129715 -4.86756
  905 61.3151 0.101912 4.86991
  906 53.9410 0.0820598 2.20580
  907 53.9411 0.0807592 -2.20684
  908 58.1486 -0.311594 -1.12766
  909 58.1477 -0.310571 1.12785
  910 69.6953 5.58274 5.25180
  911 44.2546 4.23068 7.59217
  912 44.2545 4.23115 -7.59019
  913 45.8301 3.11819 0.705620
  914 45.8317 3.11782 -0.705460
  915 33.4622 5.29107 3.60627
  916 33.4684 5.28984 -3.60367
  917 61.9774 3.35666 -4.47718
  918 54.8587 -2.32825 -3.93267
  919 54.8571 -2.32415 3.93010
  920 74.5846 1.04596 -7.99645
  921 68.2719 -3.96471 -7.55348
  922 68.2835 -3.96813 7.55123
  923 28.9545 -2.27793 -10.0704
  924 28.9626 -2.28606 10.0773
  925 75.4690 0.976642 8.35926
  926 61.9800 -7.51921 4.04988
  927 62.4096 -7.76228 -4.08066
  928 62.4022 0.298161 -3.83950
  929 62.4070 0.298003 3.83967
  930 56.4613 0.168303 -3.10457
  931 56.4360 0.211358 3.10553
  932 46.0756 -11.3974 -10.8995
  933 46.1199 -11.3963 10.7836
  934 48.0762 1.89790 4.05746
  935 48.0754 1.89767 -4.05639
  936 60.6978 -2.28544 -0.910362
  937 60.6999 -2.28714 0.913333
  938 74.3086 -8.67975 -2.09061
  939 74.3589 -8.67702 2.06260
  940 48.0012 2.18666 1.52592
  941 47.9994 2.18657 -1.52662
  942 69.5010 2.97264 1.24450
  943 49.9899 1.80075 5.15000
  944 49.9882 1.80070 -5.14887
  945 55.0419 1.71944 8.94460
  946 55.0381 1.72077 -8.94408
  947 43.7737 3.53937 -1.32700
  948 43.7763 3.53963 1.32628
  949 127.692 10.8721 -0.325473
  950 29.2652 0.919850 -7.91378
  951 29.2778 0.917524 7.90425
  952 57.2602 0.282561 2.93422
  953 57.2560 0.282597 -2.93376
  954 73.9336 -5.34559 -7.10727
  955 74.4030 -5.18477 6.33016
  956 47.0496 2.02541 2.94558
  957 47.0495 2.02506 -2.94467
  958 48.7067 0.0856861 -0.847366
  959 48.7090 0.0857066 0.847654
  960 76.8473 -0.197655 -4.65696
  961 76.8504 -0.198510 4.65447
  962 113.446 5.46799 2.61886
  963 52.0619 0.144989 1.47453
  964 52.0587 0.144970 -1.47414
  965 53.7060 0.155377 -1.80231
  966 53.7097 0.155383 1.80273
  967 85.6940 -1.26602 -1.16405
  968 85.6905 -1.26432 1.15928
  969 69.0334 4.25321 -5.28148
  970 43.1424 -0.393871 -8.42007
  971 43.1415 -0.387241 8.41361
  972 110.856 5.71221 -3.04985
  973 59.4712 3.87696 2.62207
  974 60.9746 -0.0780603 -0.472610
  975 60.9739 -0.0778158 0.472930
  976 46.4909 2.81658 4.08180
  977 46.4910 2.81624 -4.08072
  978 87.1745 -1.42723 1.76612
  979 87.1649 -1.41983 -1.76285
  980 60.5696 -5.13396 1.96745
  981 60.5937 -5.15133 -1.96552
  982 62.0369 -3.89729 -1.06144
  983 62.0391 -3.89815 1.06580
  984 65.2020 9.53146 0.378308
  985 41.4373 3.11081 10.0823
  986 41.4352 3.11357 -10.0791
  987 46.4422 3.36054 5.65688
  988 46.4420 3.36037 -5.65554
  989 53.6506 0.607320 -1.94359
  990 72.8188 -3.95515 -0.801633
  991 89.0466 9.29021 5.49749
  992 73.4803 11.5082 -3.67023
  993 46.3135 2.59113 2.50866
  994 46.3141 2.59069 -2.50788
  995 59.0244 -0.391818 -2.33847
  996 59.0206 -0.391142 2.34131
  997 44.3653 1.52241 -5.25636
  998 44.3680 1.52499 5.25440
  999 44.9789 3.55105 3.05575
  1000 44.9800 3.55061 -3.05495
  1001 58.8367 3.62267 -2.34499
  1002 39.9214 5.20631 5.38226
  1003 39.9238 5.20595 -5.38053
  1004 51.3444 1.00168 2.12812
  1005 51.3435 1.00106 -2.12921
  1006 52.6512 0.789337 -3.84998
  1007 52.6540 0.789353 3.85080
  1008 46.7744 2.42181 -2.16180
  1009 46.7766 2.42221 2.16089
  1010 51.0421 1.47762 10.7391
  1011 51.0373 1.48038 -10.7385
  1012 70.9654 0.176509 4.15072
  1013 70.9607 0.176850 -4.15148
  1014 62.0481 2.54859 4.84389
  1015 37.8203 4.92468 -1.00872
  1016 37.8249 4.92408 1.00715
  1017 82.3270 -1.21657 -6.56068
  1018 82.3846 -1.19300 6.54229
  1019 63.6669 -0.351129 9.21807
  1020 63.6611 -0.348812 -9.21990
  1021 47.8476 -7.06526 12.6588
  1022 47.7898 -7.07338 -12.7557
  1023 73.8857 -5.10600 4.41622
  1024 73.8711 -5.10581 -4.42326
  1025 57.8543 -3.54912 2.82577
  1026 57.8601 -3.55372 -2.82639
  1027 58.8993 -0.751666 -0.889882
  1028 58.8981 -0.750205 0.890688
  1029 48.0109 1.11641 2.74696
  1030 48.0099 1.11621 -2.74609
  1031 71.7301 -4.88296 0.796531
  1032 42.0328 3.37897 -3.00928
  1033 42.0358 3.38003 3.00759
  1034 41.1463 -3.82293 12.3470
  1035 41.1365 -3.81903 -12.3485
  1036 49.9318 0.0830610 -1.03462
  1037 49.9345 0.0830701 1.03493
  1038 53.8565 0.470868 2.17147
  1039 35.9446 2.07090 -6.78943
  1040 35.9499 2.07059 6.78239
  1041 60.1859 -1.10636 -0.0633553
  1042 60.1870 -1.10786 0.0653830
  1043 61.0292 -0.330493 1.03561
  1044 61.0316 -0.329931 -1.03323
  1045 44.4021 3.75118 0.466272
  1046 44.4042 3.75091 -0.466290
  1047 55.2414 -8.09186 14.4962
  1048 61.2902 -1.63329 -3.79983
  1049 61.2939 -1.63188 3.80475
  1050 26.9945 -12.8464 13.9868
  1051 26.8681 -12.3782 -14.2382
  1052 81.9737 4.00109 -7.89073
  1053 52.8741 -3.99962 -7.19109
  1054 52.8434 -4.00216 7.21065
  1055 61.6102 -0.108730 -0.184640
  1056 61.6099 -0.108486 0.185318
  1057 46.7365 2.78089 -0.276052
  1058 46.7382 2.78065 0.275883
  1059 48.5777 0.238574 1.47009
  1060 48.5757 0.238525 -1.46960
  1061 55.2490 1.56892 7.20091
  1062 55.2457 1.56947 -7.20017
  1063 52.9660 -2.67988 5.67694
  1064 52.9629 -2.68551 -5.68018
  1065 48.5627 1.11425 3.05498
  1066 48.5614 1.11408 -3.05408
  1067 84.1753 -2.95189 7.94290
  1068 84.1537 -2.97721 -7.93253
  1069 55.6535 -1.08750 2.41947
  1070 55.6549 -1.09009 -2.42042
  1071 50.5793 0.658675 2.95444
  1072 50.5770 0.658598 -2.95367
  1073 51.4103 -7.13706 -11.5528
  1074 51.4078 -7.13038 11.5533
  1075 55.5752 0.719789 4.48504
  1076 55.5717 0.719888 -4.48434
  1077 59.3654 -0.164018 -0.829940
  1078 59.3647 -0.163443 0.830205
  1079 90.0900 -1.05159 -7.82965
  1080 90.1719 -1.00376 7.83009
  1081 13.9565 -18.5428 -4.10433
  1082 13.9751 -18.5480 4.08244
  1083 84.8248 -0.610346 -2.60447
  1084 84.8235 -0.610890 2.60024
  1085 36.1148 -6.70547 14.6644
  1086 36.3666 -6.68385 -14.5616
  1087 66.2833 0.154112 3.42074
  1088 66.2783 0.154268 -3.42084
  1089 61.5834 -0.298472 0.466584
  1090 61.5846 -0.298037 -0.464894
  1091 10.0070 -17.1530 -5.19584
  1092 10.1535 -17.0210 5.38133
  1093 61.0207 0.176786 -2.77991
  1094 61.0255 0.176720 2.78017
  1095 48.4193 1.19675 3.56723
  1096 48.4170 1.19557 -3.56881
  1097 16.6962 -3.35608 -3.69787
  1098 16.7359 -3.36774 3.70106
  1099 24.7379 -15.3478 7.79308
  1100 24.7227 -15.3765 -7.79357
  1101 59.6763 -2.40275 0.430436
  1102 59.6793 -2.40540 -0.428232
  1103 42.7852 4.21585 0.465544
  1104 42.7877 4.21566 -0.465729
  1105 60.7336 0.867813 -7.39577
  1106 60.7379 0.866923 7.39565
  1107 81.0231 -5.33643 2.30999
  1108 81.0150 -5.30951 -2.31775
  1109 47.2463 -3.92710 -10.2930
  1110 47.2231 -3.90382 10.2759
  1111 62.5744 -10.4209 10.7034
  1112 64.6613 0.451024 -7.32925
  1113 64.6659 0.449958 7.32836
  1114 60.8299 -1.58476 -1.90638
  1115 60.8309 -1.58611 1.90961
  1116 57.3281 -1.24089 1.68149
  1117 57.3300 -1.24337 -1.68137
  1118 55.4928 0.0158689 1.71408
  1119 55.4932 0.0147765 -1.71465
  1120 75.1869 10.7206 3.90158
  1121 37.3246 -12.9610 -8.18762
  1122 37.3579 -12.6865 8.00770
  1123 46.6851 -8.90153 -14.9684
  1124 94.0614 7.04041 4.74992
  1125 62.0542 5.97057 -2.68234
  1126 58.4127 -10.5524 -10.9087
  1127 24.3942 1.10525 5.16907
  1128 24.4017 1.10743 -5.15808
  1129 47.6655 3.33632 7.59729
  1130 47.6643 3.33672 -7.59573
  1131 56.0002 2.41480 0.619564
  1132 57.1862 -0.105516 -2.56056
  1133 57.1827 -0.0946195 2.56195
  1134 70.4048 -0.861129 4.27111
  1135 75.5601 0.0911958 -3.45729
  1136 75.5640 0.0908902 3.45619
  1137 94.9965 8.26480 -3.00137
  1138 59.0592 -9.35308 9.26662
  1139 47.2276 2.21067 -3.69856
  1140 47.2278 2.21097 3.69959
  1141 65.5021 -2.59006 -4.06552
  1142 65.7661 -2.43647 4.18204
  1143 49.1103 1.27340 3.63924
  1144 49.1088 1.27325 -3.63825
  1145 61.0325 1.68844 -2.09663
  1146 51.1744 0.262389 -3.27107
  1147 51.1756 0.263874 3.26928
  1148 92.9980 5.70087 -6.45503
  1149 49.3285 1.74880 -1.72245
  1150 49.3300 1.74899 1.72162
  1151 74.6331 0.0414825 7.34372
  1152 74.2470 -1.81778 -6.08621
  1153 74.2531 -1.82002 6.08176
  1154 66.3627 1.34700 -5.63515
  1155 74.3847 0.103171 -7.28173
  1156 49.9508 0.373791 -2.13008
  1157 49.9531 0.373851 2.13070
  1158 60.0905 -0.945504 -3.16944
  1159 60.0901 -0.943800 3.17326
  1160 51.3700 0.695864 0.0936466
  1161 51.2687 1.97634 6.26310
  1162 51.2666 1.97650 -6.26195
  1163 70.5832 -0.686614 -4.25626
  1164 43.0577 4.38196 2.99236
  1165 43.0596 4.38150 -2.99170
  1166 57.6552 -6.26020 6.20163
  1167 58.1191 -6.52496 -6.10434
  1168 47.2424 3.32833 8.82471
  1169 47.2406 3.32946 -8.82298
  1170 47.4859 1.51187 2.80467
  1171 47.4854 1.51159 -2.80378
  1172 59.9751 -0.706537 0.378210
  1173 59.9760 -0.707713 -0.376879
  1174 39.6553 5.24409 1.92344
  1175 39.6587 5.24343 -1.92332
  1176 47.2620 0.472624 5.12871
  1177 47.2589 0.470265 -5.13070
  1178 56.7172 0.133870 1.73632
  1179 56.7128 0.133876 -1.73600
  1180 66.2339 -7.44427 1.42711
  1181 66.6112 -7.36935 -1.21040
  1182 51.1743 1.03009 3.97618
  1183 51.1720 1.03002 -3.97526
  1184 49.2575 0.0551723 0.816927
  1185 49.2550 0.0551650 -0.816663
  1186 87.3223 -1.08263 -3.22682
  1187 87.3302 -1.09092 3.23918
  1188 51.2287 0.0679531 -0.914347
  1189 51.2319 0.0679575 0.914607
  1190 59.6017 -1.77683 10.3343
  1191 59.5943 -1.77415 -10.3355
  1192 104.181 16.9957 -0.511329
  1193 43.1481 4.52709 4.34339
  1194 43.1496 4.52666 -4.34233
  1195 58.9269 0.721282 5.50351
  1196 58.9229 0.721596 -5.50309
  1197 58.5954 0.475019 -4.11964
  1198 58.6750 0.461499 4.16515
  1199 144.116 8.74168 4.28950
  1200 68.4455 9.19527 3.88192
  1201 29.7345 4.59774 0.228656
  1202 29.7456 4.59449 -0.227471
  1203 46.0067 2.92718 1.42255
  1204 46.0080 2.92673 -1.42213
  1205 140.420 9.40802 -4.25746
  1206 56.8720 -0.106136 -1.40079
  1207 56.8714 -0.105172 1.40058
  1208 65.6874 -9.95371 -6.20570
  1209 65.7652 -9.95942 6.22861
  1210 46.2247 3.18104 -4.73274
  1211 46.2246 3.18134 4.73392
  1212 64.8884 0.968629 5.23873
  1213 61.4706 1.34065 3.29096
  1214 60.6448 -8.90723 -7.55663
  1215 41.5820 4.79679 -1.64230
  1216 41.5793 4.79722 1.64241
  1217 63.4415 -4.00608 2.25711
  1218 63.4426 -4.00650 -2.25107
  1219 48.0848 2.69188 5.78404
  1220 48.0840 2.69181 -5.78274
  1221 69.9524 -0.381799 7.31256
  1222 69.9476 -0.380068 -7.31510
  1223 72.7690 -7.07141 -3.72299
  1224 72.7943 -7.06972 3.71362
  1225 65.1898 4.52645 -5.04964
  1226 50.4856 2.43725 7.14709
  1227 50.4836 2.43761 -7.14583
  1228 68.9143 11.9383 -1.11954
  1229 65.5882 4.26693 5.20463
  1230 59.7696 0.156278 -2.23217
  1231 59.7744 0.156239 2.23245
  1232 77.4757 -8.54799 -1.04200
  1233 77.5679 -8.46731 0.933886
  1234 55.0997 0.0680219 -1.52242
  1235 55.1038 0.0680130 1.52275
  1236 52.6994 0.162980 -2.67656
  1237 52.6998 0.164371 2.67512
  1238 21.3635 -7.56486 8.54477
  1239 21.3504 -7.55150 -8.53648
  1240 37.4268 5.27999 5.95098
  1241 37.4298 5.27980 -5.94825
  1242 83.7450 0.557857 -9.72298
  1243 69.8509 0.166520 3.00018
  1244 69.8458 0.166677 -3.00050
  1245 61.9639 6.68091 1.75568
  1246 81.5906 16.6994 0.852900
  1247 49.3908 -1.37222 -11.9930
  1248 49.3979 -1.37536 11.9929
  1249 63.5476 -0.787082 -4.96236
  1250 63.5461 -0.868576 4.92746
  1251 51.9212 -4.63839 -10.1556
  1252 53.3704 -5.72458 10.2166
  1253 46.2295 2.68066 2.00157
  1254 46.2304 2.68021 -2.00095
  1255 44.7003 3.61192 1.57698
  1256 44.7020 3.61152 -1.57662
  1257 45.7836 3.00151 2.77283
  1258 45.7844 3.00108 -2.77204
  1259 82.6968 -0.257239 -2.98202
  1260 82.6978 -0.257705 2.97959
  1261 55.2029 -1.62994 3.08741
  1262 55.2045 -1.63329 -3.08910
  1263 109.970 5.80850 11.3790
  1264 83.8325 0.488736 9.63240
  1265 57.0651 2.26853 2.41607
  1266 99.8082 2.67444 -3.29170
  1267 51.1080 0.397963 -0.765254
  1268 37.3739 2.34719 10.0234
  1269 37.3712 2.35091 -10.0190
  1270 89.6388 3.78944 13.6157
  1271 79.1044 4.79664 -1.39544
  1272 33.9163 5.37181 0.656543
  1273 33.9235 5.36977 -0.656668
  1274 53.3582 1.80835 -10.0410
  1275 53.3623 1.80628 10.0415
  1276 79.4890 4.97239 13.1865
  1277 36.9072 3.82076 8.68917
  1278 36.9074 3.82281 -8.68470
  1279 56.2262 1.10029 6.09511
  1280 56.2227 1.10063 -6.09442
  1281 111.793 10.1327 1.33816
  1282 81.7186 5.05227 3.23107
  1283 101.884 15.2366 4.60868
  1284 85.5660 1.29588 -11.0248
  1285 65.4821 -4.72625 -2.26956
  1286 65.4797 -4.70221 2.28199
  1287 88.1364 -3.63628 5.09506
  1288 88.1035 -3.70417 -5.05697
  1289 58.6401 -2.81725 -1.53901
  1290 58.6359 -2.81359 1.54017
  1291 49.2534 0.463864 2.19204
  1292 49.2515 0.463780 -2.19137
  1293 52.9077 -1.09296 3.93061
  1294 52.9073 -1.09574 -3.93313
  1295 59.2890 -5.75116 -10.0112
  1296 59.2979 -5.75156 10.0146
  1297 41.4109 4.98031 4.79856
  1298 41.4130 4.97988 -4.79726
  1299 75.5124 -3.52912 -1.53259
  1300 56.4063 1.86687 -2.46961
  1301 105.341 6.03386 -13.4348
  1302 97.0616 12.4211 -8.38186
  1303 62.6466 1.57174 -5.15336
  1304 130.627 8.33058 -8.99676
  1305 59.6398 -0.248838 -1.50879
  1306 59.6340 -0.249152 1.51155
  1307 60.3099 -1.68394 -0.418697
  1308 60.3115 -1.68571 0.421255
  1309 77.6383 -0.500906 -5.95940
  1310 48.8079 0.561106 11.4904
  1311 48.8021 0.564529 -11.4897
  1312 57.8262 -0.675845 -1.29802
  1313 57.8249 -0.674205 1.29832
  1314 90.0760 -0.649431 0.333556
  1315 90.0659 -0.647151 -0.334611
  1316 58.2731 -1.92340 1.35941
  1317 58.2759 -1.92640 -1.35851
  1318 48.3776 0.475029 -1.96098
  1319 48.3791 0.475127 1.96163
  1320 83.6205 2.95452 8.52653
  1321 79.6136 -3.04866 -2.39878
  1322 79.6185 -3.04627 2.39135
  1323 51.4047 2.39563 8.87991
  1324 51.4019 2.39680 -8.87881
  1325 59.4848 -11.1923 -12.4565
  1326 29.8337 -2.95666 11.6751
  1327 29.8286 -2.95280 -11.6916
  1328 80.2887 2.82353 -7.86511
  1329 62.3661 -2.79437 -3.21769
  1330 62.3682 -2.79534 3.21934
  1331 46.1513 3.63722 6.47766
  1332 46.1510 3.63722 -6.47616
  1333 62.0863 -6.26304 -2.18625
  1334 62.0725 -6.26625 2.14501
  1335 63.2309 0.538415 5.68512
  1336 63.2264 0.538872 -5.68522
  1337 7.19849 -23.9294 1.38727
  1338 7.26835 -24.1032 -1.35909
  1339 136.301 8.96876 9.75215
  1340 79.2746 1.64532 0.229207
  1341 53.3582 0.151859 -1.85549
  1342 81.5307 10.0353 -2.54054
  1343 48.1896 0.772661 -2.34030
  1344 48.1908 0.772812 2.34107
  1345 69.9882 -8.11131 4.03540
  1346 62.0071 -1.23735 -4.49487
  1347 62.0084 -1.23172 4.49561
  1348 88.4176 -0.562290 -1.48898
  1349 88.4123 -0.562253 1.48502
  1350 51.3536 0.359792 2.32157
  1351 51.3508 0.359757 -2.32096
  1352 44.0658 3.70047 9.27300
  1353 44.0643 3.70211 -9.27064
  1354 100.134 6.29004 4.97975
  1355 68.1089 1.82232 -15.5095
  1356 62.1156 -0.147748 0.0384967
  1357 62.1158 -0.147526 -0.0376862
  1358 27.8401 3.86851 3.38597
  1359 27.8495 3.86743 -3.38005
  1360 60.9516 -3.20707 -0.604206
  1361 60.9547 -3.20879 0.607609
  1362 78.3580 -0.492764 6.28413
  1363 48.5910 1.92577 4.41718
  1364 48.5899 1.92557 -4.41606
  1365 51.2763 0.346986 1.00357
  1366 57.9636 0.483284 10.1257
  1367 57.9582 0.485703 -10.1264
  1368 35.8208 3.74920 -3.81076
  1369 35.8267 3.74875 3.80673
  1370 85.0619 -0.818515 4.44344
  1371 85.0974 -0.816246 -4.42424
  1372 53.0558 0.0764569 1.11684
  1373 53.0521 0.0764494 -1.11656
  1374 54.3577 0.678349 4.09115
  1375 54.3544 0.678391 -4.09039
  1376 23.6769 0.0979685 -6.38462
  1377 23.7037 0.0917137 6.37878
  1378 51.5423 1.31100 4.72384
  1379 51.5400 1.31097 -4.72285
  1380 62.0188 -0.0408516 -0.218732
  1381 62.0181 -0.0407408 0.219036
  1382 54.3853 -0.427580 2.51354
  1383 54.3858 -0.429500 -2.51476
  1384 15.1260 -19.5516 -8.52129
  1385 14.0470 -18.9581 8.49754
  1386 69.1618 -8.73663 -5.17007
  1387 45.3421 3.41551 -3.82045
  1388 45.3414 3.41591 3.82144
  1389 52.9460 0.627032 1.97031
  1390 52.9456 0.626293 -1.97127
  1391 60.9371 -0.653656 0.423739
  1392 60.9372 -0.652785 -0.421658
  1393 64.4803 0.298191 -8.24874
  1394 64.4853 0.296611 8.24738
  1395 98.1086 2.10109 4.46479
  1396 60.2585 1.38456 -4.58013
  1397 48.2918 1.55889 -3.55209
  1398 48.2928 1.55912 3.55309
  1399 49.6996 -0.989418 -5.71434
  1400 49.7023 -0.985973 5.71168
  1401 49.8071 1.06390 3.49186
  1402 49.8053 1.06377 -3.49094
  1403 85.3912 -0.282491 -2.53149
  1404 85.3903 -0.282892 2.52851
  1405 46.7682 2.14068 2.62196
  1406 46.7685 2.14029 -2.62113
  1407 84.2712 -2.93140 -3.46685
  1408 84.2863 -2.94852 3.47338
  1409 106.477 6.63763 -3.60237
  1410 48.1703 0.0239372 0.471553
  1411 48.1680 0.0239349 -0.471389
  1412 52.9909 0.447756 2.97126
  1413 52.9878 0.447743 -2.97060
  1414 41.4931 4.67571 7.53016
  1415 41.4938 4.67623 -7.52774
  1416 44.3799 3.57844 0.621653
  1417 44.3775 3.57845 -0.622055
  1418 75.3939 14.8969 -1.40608
  1419 83.3454 -4.84503 5.37014
  1420 83.3154 -4.82210 -5.36515
  1421 47.9576 -2.57724 -8.52869
  1422 47.9621 -2.56172 8.53174
  1423 56.5140 1.37894 7.90326
  1424 56.5103 1.37984 -7.90277
  1425 27.6384 2.95030 3.71295
  1426 27.6227 2.95553 -3.71559
  1427 60.1108 1.30619 4.53019
  1428 107.515 10.0918 -0.532477
  1429 39.7330 4.19092 -2.03996
  1430 39.7367 4.19127 2.03814
  1431 47.7197 2.41791 -0.782660
  1432 47.7214 2.41774 0.782287
  1433 83.7586 9.31018 1.05379
  1434 58.3552 -0.103027 -1.03679
  1435 58.3545 -0.102340 1.03685
  1436 45.3503 3.03580 -1.65827
  1437 45.3527 3.03608 1.65757
  1438 56.0805 0.693481 -3.09589
  1439 84.1920 -2.19471 0.0833558
  1440 84.1881 -2.18868 -0.0872850
  1441 34.7560 -9.28790 13.4199
  1442 53.5407 0.155417 1.89505
  1443 67.4179 -1.16908 4.70042
  1444 53.3991 1.33418 5.63736
  1445 53.3963 1.33434 -5.63642
  1446 67.4548 -1.33147 -4.64972
  1447 60.7232 -0.969973 1.51726
  1448 60.7237 -0.968838 -1.51416
  1449 59.4638 -5.74074 3.95154
  1450 59.3979 -5.78328 -3.98402
  1451 59.5470 -8.13727 7.14455
  1452 44.8876 3.81436 4.89760
  1453 44.8882 3.81405 -4.89640
  1454 66.0948 0.139044 1.98126
  1455 66.0893 0.139086 -1.98124
  1456 46.5919 2.80494 0.371749
  1457 46.5935 2.80457 -0.371674
  1458 73.1844 2.60263 4.56816
  1459 50.0852 2.12308 5.83148
  1460 50.0835 2.12310 -5.83027
  1461 42.1759 1.29382 -6.44941
  1462 42.1779 1.29763 6.44581
  1463 60.6889 -1.45242 -2.60893
  1464 60.6898 -1.45329 2.61250
  1465 49.0178 0.761685 -2.70181
  1466 49.0195 0.761806 2.70262
  1467 78.8945 0.0549796 -2.95816
  1468 78.8976 0.0546789 2.95682
  1469 48.2600 1.96706 2.12169
  1470 48.2581 1.96672 -2.12265
  1471 59.0746 -0.406816 -0.871508
  1472 59.0737 -0.405834 0.872051
  1473 39.4985 5.37084 -3.05810
  1474 39.4952 5.37156 3.05876
  1475 61.6700 -0.0168120 -0.282098
  1476 61.6690 -0.0167431 0.282194
  1477 56.7854 2.58041 -1.12781
  1478 36.1320 4.91371 -6.43827
  1479 36.1291 4.91341 6.44179
  1480 56.5436 -2.59571 2.99047
  1481 56.5468 -2.60013 -2.99191
  1482 62.2053 -5.03493 0.242259
  1483 62.2087 -5.03538 -0.232520
  1484 43.0302 4.49022 6.65053
  1485 43.0309 4.49026 -6.64871
  1486 73.2951 -0.863985 6.41554
  1487 73.2902 -0.862023 -6.41909
  1488 60.6117 -0.238029 1.12073
  1489 60.6162 -0.237626 -1.11833
  1490 59.7925 2.66733 -3.87303
  1491 18.3045 -1.76590 -0.502282
  1492 18.2803 -1.76228 0.516195
  1493 47.3907 2.47246 4.45309
  1494 47.3903 2.47219 -4.45195
  1495 46.7663 2.65823 -1.04386
  1496 46.7683 2.65821 1.04339
  1497 79.3118 -1.22139 -4.22571
  1498 79.3149 -1.22274 4.22056
  1499 48.3924 0.143392 1.13436
  1500 48.3904 0.143360 -1.13397
  1501 60.3139 -0.487450 -4.42693
  1502 60.3075 -0.477557 4.43396
  1503 44.2334 2.93796 2.70382
  1504 44.2307 2.93716 -2.70498
  1505 54.4363 0.259228 1.84180
  1506 54.4363 0.258303 -1.84257
  1507 65.1123 -2.57435 9.06382
  1508 65.1039 -2.57133 -9.06583
  1509 72.9615 -3.43312 -5.74785
  1510 72.9721 -3.43561 5.74302
  1511 64.1405 -6.91272 1.28416
  1512 64.1982 -6.85016 -1.20212
  1513 56.3388 0.674081 3.21579
  1514 55.2478 -0.303206 2.06196
  1515 55.2485 -0.304829 -2.06273
  1516 72.4246 6.78906 -4.95594
  1517 52.0369 -1.58149 -4.88519
  1518 52.0388 -1.57824 4.88220
  1519 56.0443 -10.7315 12.2103
  1520 62.3241 7.11342 -0.943739
  1521 56.0993 -3.52776 -4.21797
  1522 56.0979 -3.52154 4.21614
  1523 69.0882 -7.53142 1.61691
  1524 36.7072 -0.817277 -11.3764
  1525 36.7152 -0.823073 11.3795
  1526 46.4936 2.48152 2.95326
  1527 46.4939 2.48112 -2.95237
  1528 60.1530 -0.0413202 -0.622581
  1529 60.1523 -0.0410414 0.622746
  1530 45.0026 3.48709 2.39357
  1531 45.0039 3.48665 -2.39294
  1532 80.1030 -7.37728 1.98275
  1533 80.0878 -7.33412 -2.00415
  1534 63.8017 0.0873735 -1.92845
  1535 63.8070 0.0873467 1.92856
  1536 67.7854 1.87604 5.37024
  1537 67.4459 0.380123 5.94579
  1538 56.4857 -10.2437 -9.35607
  1539 56.4682 -10.2168 9.39369
  1540 52.5633 0.281063 2.19751
  1541 52.5601 0.281037 -2.19698
  1542 49.3899 1.74935 4.68607
  1543 49.3885 1.74923 -4.68497
  1544 66.9264 0.439440 -5.89567
  1545 58.7005 3.95914 1.42798
  1546 85.1426 -5.18843 -0.661929
  1547 85.4627 -4.82643 1.04152
  1548 63.1069 0.902962 5.23177
  1549 55.2621 -0.0162561 -1.94018
  1550 55.2419 -0.0178332 1.91816
  1551 41.9727 4.00716 -1.62466
  1552 41.9757 4.00757 1.62355
  1553 61.7454 4.25804 3.87216
  1554 47.1647 2.02449 -3.19200
  1555 47.1649 2.02482 3.19295
  1556 58.4752 1.00340 -3.04676
  1557 50.4571 0.0383997 -0.783016
  1558 50.4601 0.0384001 0.783251
  1559 30.6185 -9.16746 14.8116
  1560 30.7764 -9.08255 -14.7779
  1561 55.9373 -8.84598 -10.2141
  1562 39.9762 -10.0469 -11.8272
  1563 39.9957 -10.0416 11.8114
  1564 60.6437 -0.320835 -0.321068
  1565 60.6432 -0.320220 0.322088
  1566 47.0727 2.40685 10.6563
  1567 47.0691 2.40947 -10.6546
  1568 68.9234 8.28442 -4.47059
  1569 19.9794 -2.91969 -5.55749
  1570 19.9758 -2.92677 5.57379
  1571 59.7492 2.62040 3.94056
  1572 57.7321 1.21768 8.95624
  1573 57.7278 1.21919 -8.95628
  1574 61.0359 -0.145116 0.395163
  1575 61.0365 -0.145434 -0.394630
  1576 52.3399 2.11171 7.49036
  1577 52.3373 2.11224 -7.48928
  1578 30.5847 -4.51646 -11.1517
  1579 30.5982 -4.52470 11.1553
  1580 86.7943 -2.18209 8.85647
  1581 86.7815 -2.21952 -8.83524
  1582 66.7326 1.24929 13.4427
  1583 45.5272 3.24341 0.0216327
  1584 45.5291 3.24317 -0.0217363
  1585 59.9109 2.28397 16.5568
  1586 66.4007 -5.84297 -7.57455
  1587 66.4165 -5.84697 7.57548
  1588 62.5677 -1.01711 -9.68263
  1589 62.5743 -1.01977 9.68079
  1590 58.6851 0.0889219 1.40741
  1591 58.6802 0.0889206 -1.40719
  1592 48.9330 1.96423 -1.31962
  1593 48.9345 1.96423 1.31898
  1594 31.2578 1.21697 -9.30982
  1595 31.2599 1.21201 9.31674
  1596 34.8227 -0.260642 9.72456
  1597 34.8193 -0.258226 -9.73302
  1598 32.7171 2.76864 -5.83914
  1599 32.7260 2.76606 5.83269
  1600 44.1034 3.99767 3.26869
  1601 44.1048 3.99722 -3.26789
  1602 58.0818 1.45604 -0.456326
  1603 45.5373 3.25610 1.41456
  1604 45.5387 3.25567 -1.41418
  1605 50.8978 1.25520 1.79271
  1606 50.8967 1.25486 -1.79361
  1607 50.8543 0.819483 3.36999
  1608 50.8520 0.819408 -3.36915
  1609 55.3999 -11.8511 -8.73928
  1610 55.6336 -11.7953 8.85656
  1611 60.9615 -4.24868 -0.513511
  1612 60.9543 -4.24546 0.518298
  1613 58.4642 -4.56970 -3.33454
  1614 58.4601 -4.57639 3.32819
  1615 61.0639 -2.66500 -1.30246
  1616 61.0661 -2.66648 1.30553
  1617 62.1910 0.775867 -12.8743
  1618 60.6947 -1.61742 -1.14478
  1619 60.6959 -1.61898 1.14774
  1620 63.5592 5.55059 -4.07965
  1621 57.3983 -0.0513061 3.32661
  1622 57.3973 -0.0520204 -3.32746
  1623 154.129 8.91762 -0.666465
  1624 59.5004 -0.930224 0.527725
  1625 59.5017 -0.931748 -0.526382
  1626 61.8202 -0.153661 0.503440
  1627 61.8226 -0.153361 -0.502024
  1628 62.2810 -0.0997206 0.134094
  1629 62.2819 -0.0995777 -0.133243
  1630 51.0738 0.851481 2.50877
  1631 51.0726 0.850633 -2.51007
  1632 51.9009 0.0615304 0.859924
  1633 51.8974 0.0615233 -0.859689
  1634 31.7520 4.62077 5.38295
  1635 31.7577 4.62069 -5.37814
  1636 35.7180 5.46624 3.60244
  1637 35.7230 5.46524 -3.60071
  1638 64.2132 -8.60605 4.53795
  1639 68.5934 0.221112 -5.87350
  1640 68.5979 0.220397 5.87246
  1641 55.7784 1.18344 2.67730
  1642 58.5098 -1.09919 -1.05036
  1643 58.5081 -1.09719 1.05119
  1644 54.4518 0.0512937 -1.00719
  1645 54.4559 0.0512915 1.00741
  1646 78.7043 -6.17319 0.0490155
  1647 78.7106 -6.15458 -0.0631215
  1648 68.3620 -7.62981 -1.35916
  1649 56.0160 0.436722 3.27490
  1650 56.0122 0.436749 -3.27434
  1651 89.5242 -0.580448 1.82229
  1652 89.5145 -0.576371 -1.81611
  1653 40.0704 -0.761529 -9.57185
  1654 40.0729 -0.763323 9.56174
  1655 47.1705 1.76128 2.75677
  1656 47.1703 1.76095 -2.75589
  1657 108.966 6.89805 1.76543
  1658 49.7541 0.0342783 0.531840
  1659 49.7512 0.0342712 -0.531667
  1660 57.4659 -0.0212164 1.58911
  1661 57.4745 -0.0243023 -1.58711
  1662 47.3464 -5.36390 12.0414
  1663 47.3408 -5.36569 -12.0445
  1664 29.3904 -9.55261 -11.6966
  1665 111.396 14.1332 -6.68201
  1666 41.7843 2.70772 -4.38982
  1667 41.7872 2.70961 4.38738
  1668 57.0672 0.467735 3.82113
  1669 57.0633 0.467819 -3.82058
  1670 48.7857 0.464762 2.07826
  1671 48.7840 0.464676 -2.07760
  1672 73.4857 0.528296 -3.77412
  1673 47.8944 3.25249 8.15300
  1674 47.8929 3.25318 -8.15141
  1675 50.1568 0.259651 -1.75577
  1676 50.1593 0.259691 1.75629
  1677 48.6994 0.0308699 -0.492442
  1678 48.7019 0.0308832 0.492611
  1679 44.1768 -0.145158 -7.40727
  1680 44.1777 -0.139354 7.40447
  1681 84.0390 2.59537 -8.72494
  1682 82.3798 -0.0713108 -2.04882
  1683 82.3817 -0.0715025 2.04750
  1684 50.3335 0.481134 2.47102
  1685 50.3312 0.481072 -2.47033
  1686 51.9629 -5.22342 8.98385
  1687 51.9753 -5.30394 -9.02813
  1688 55.3850 1.06213 5.51143
  1689 55.3816 1.06233 -5.51066
  1690 47.1671 1.91347 2.94361
  1691 47.1647 1.91269 -2.94483
  1692 10.3514 -27.8467 2.64277
  1693 10.3431 -27.8246 -2.68211
  1694 67.0594 10.6877 1.59889
  1695 92.8413 -0.245899 -0.301037
  1696 92.8295 -0.245505 0.299113
  1697 75.6809 0.0510846 2.58812
  1698 75.6765 0.0512538 -2.58882
  1699 48.9440 0.191024 1.36579
  1700 48.9418 0.190986 -1.36534
  1701 73.3035 -0.0219181 -5.34746
  1702 73.3075 -0.0227088 5.34557
  1703 59.3092 -7.91248 -6.91698
  1704 48.3162 0.996125 -2.77202
  1705 48.3173 0.996299 2.77287
  1706 57.1080 -1.58534 1.97505
  1707 57.1104 -1.58830 -1.97522
  1708 124.868 10.3600 0.497726
  1709 49.0048 2.10582 5.08540
  1710 49.0036 2.10570 -5.08423
  1711 54.0378 1.46246 0.00339356
  1712 43.9197 -4.90335 -12.2174
  1713 43.9603 -4.92917 12.1992
  1714 47.7128 1.19075 2.62039
  1715 47.7121 1.19051 -2.61953
  1716 61.0472 -0.587315 0.913696
  1717 61.0482 -0.586540 -0.911233
  1718 67.3409 1.10978 -5.37218
  1719 53.0664 2.13629 -8.37381
  1720 53.0694 2.13532 8.37473
  1721 35.0344 5.05442 -0.771138
  1722 35.0409 5.05285 0.769648
  1723 44.7958 4.11606 6.97069
  1724 44.7959 4.11623 -6.96897
  1725 43.2433 1.57382 11.1840
  1726 43.2385 1.57750 -11.1817
  1727 59.5992 -4.21927 -1.87939
  1728 59.5916 -4.21344 1.87920
  1729 62.0803 -3.35433 1.94840
  1730 62.0789 -3.35358 -1.94520
  1731 64.3070 -3.79994 -2.99806
  1732 64.3130 -3.80093 2.99592
  1733 57.6611 1.14931 6.60501
  1734 57.6574 1.14981 -6.60452
  1735 64.4404 -8.41433 -3.99455
  1736 51.2045 1.76081 5.53757
  1737 51.2024 1.76084 -5.53646
  1738 39.5141 2.03540 -6.28574
  1739 39.5167 2.03755 6.28056
  1740 59.5412 -3.95845 -10.1071
  1741 59.5500 -3.96039 10.1075
  1742 46.4036 2.83556 0.998689
  1743 46.4049 2.83512 -0.998385
  1744 61.1469 0.389214 3.85024
  1745 61.1423 0.389359 -3.84996
  1746 120.623 8.97597 -21.5986
  1747 48.1417 1.25844 -3.02454
  1748 48.1426 1.25865 3.02546
  1749 62.1038 0.479509 4.86834
  1750 62.0992 0.479780 -4.86820
  1751 72.2303 0.0988830 2.67869
  1752 72.2253 0.0990045 -2.67911
  1753 44.5384 2.05429 -4.28592
  1754 44.5412 2.05606 4.28427
  1755 46.5162 0.393435 -5.85616
  1756 46.5194 0.396526 5.85422
  1757 58.4593 -0.358144 3.06909
  1758 58.4618 -0.362136 -3.06695
  1759 51.9869 -2.99291 6.68708
  1760 51.9891 -2.99934 -6.69137
  1761 45.1124 -8.50617 14.5254
  1762 44.6686 -8.30633 -14.4461
  1763 60.9146 4.44348 -3.31928
  1764 51.3224 0.164163 -1.59832
  1765 51.3254 0.164184 1.59876
  1766 50.5184 0.354424 0.567365
  1767 45.2699 2.76167 2.48053
  1768 45.2673 2.76106 -2.48154
  1769 69.1295 -10.2401 -4.70789
  1770 69.2481 -10.2848 4.69715
  1771 78.5699 -0.404732 -4.43411
  1772 78.5725 -0.405673 4.43105
  1773 56.9724 -0.299358 1.48395
  1774 56.9732 -0.300629 -1.48409
  1775 51.6552 0.198518 -1.24054
  1776 54.1090 -3.92231 6.08050
  1777 54.0971 -3.93530 -6.09053
  1778 83.2836 6.07076 1.03078
  1779 60.3014 -2.95671 -0.0507392
  1780 60.2978 -2.95422 0.0535963
  1781 50.7732 1.38635 -4.67478
  1782 50.7752 1.38640 4.67583
  1783 47.7214 1.11928 4.11168
  1784 47.7188 1.11778 -4.11337
  1785 45.4904 3.26207 3.40657
  1786 45.4912 3.26165 -3.40567
  1787 42.4672 4.48187 1.39808
  1788 42.4696 4.48152 -1.39797
  1789 46.5259 2.43236 2.22527
  1790 46.5266 2.43192 -2.22455
  1791 78.8048 14.2520 2.27445
  1792 82.9306 -1.83055 8.35078
  1793 82.9012 -1.83790 -8.36981
  1794 74.1419 -4.36813 0.924235
  1795 46.4356 2.75940 3.79530
  1796 46.4358 2.75904 -3.79426
  1797 65.9238 9.90792 -1.46537
  1798 122.762 7.69564 16.7205
  1799 52.1220 2.17974 9.40459
  1800 52.1187 2.18131 -9.40365
  1801 60.3041 0.679064 3.74203
  1802 43.3179 -11.2456 16.0261
  1803 43.8527 3.93269 0.831123
  1804 43.8549 3.93241 -0.831067
  1805 59.4347 4.45522 -1.61675
  1806 50.3184 0.292155 3.80682
  1807 50.3166 0.290532 -3.80876
  1808 59.8204 -1.47039 -0.152406
  1809 59.8187 -1.46848 0.154424
  1810 67.9612 -0.116485 7.57572
  1811 67.9563 -0.114839 -7.57780
  1812 44.3963 -11.2574 -15.7356
  1813 64.9270 8.63076 2.36319
  1814 53.8445 0.340141 2.53681
  1815 53.8410 0.340131 -2.53626
  1816 47.0686 2.98428 5.35017
  1817 47.0682 2.98410 -5.34890
  1818 55.2987 0.607680 1.33877
  1819 47.2990 3.12325 6.15860
  1820 47.2984 3.12322 -6.15722
  1821 50.8583 -6.78738 11.1579
  1822 50.6544 -6.96714 -11.4193
  1823 44.4610 4.10106 5.65607
  1824 44.4616 4.10084 -5.65467
  1825 76.9537 13.0672 -3.17805
  1826 88.5634 5.05744 6.76789
  1827 63.2197 0.653405 7.08150
  1828 63.2152 0.654297 -7.08200
  1829 82.5459 -3.47053 1.54010
  1830 82.5403 -3.45694 -1.54334
  1831 60.3573 -0.136106 -0.580216
  1832 60.3566 -0.135712 0.580603
  1833 43.4350 -1.51423 -12.2436
  1834 43.4427 -1.51810 12.2440
  1835 64.4885 -8.30536 11.3442
  1836 56.5203 -10.6545 14.1706
  1837 83.9791 -1.24720 -2.20079
  1838 83.9782 -1.24702 2.19540
  1839 69.8309 -3.91288 -2.58090
  1840 74.3222 0.359190 3.30825
  1841 68.3946 -8.77686 -6.24225
  1842 68.8522 -8.30570 6.22162
  1843 83.7026 -2.38754 7.14641
  1844 83.6599 -2.38947 -7.14334
  1845 61.5665 -10.2910 9.10808
  1846 12.3452 -9.80738 2.41418
  1847 12.2776 -9.77800 -2.38426
  1848 59.7554 -0.645995 -2.52680
  1849 59.7533 -0.645656 2.53020
  1850 69.3454 0.0255929 2.00935
  1851 69.3400 0.0256735 -2.00947
  1852 48.9223 1.09073 3.26724
  1853 48.9209 1.09058 -3.26631
  1854 100.468 12.3108 18.6690
  1855 21.4180 -3.00669 8.00051
  1856 21.3886 -3.01483 -8.01317
  1857 46.2111 2.79670 -1.39989
  1858 46.2133 2.79684 1.39928
  1859 50.5959 1.18916 2.24751
  1860 50.5946 1.18858 -2.24864
  1861 53.7070 0.672533 -3.80899
  1862 53.7101 0.672525 3.80974
  1863 81.7356 -7.06785 -0.474541
  1864 81.5674 -7.09681 0.395927
  1865 21.6393 -14.6221 -7.89818
  1866 21.6542 -14.6145 7.89216
  1867 45.1503 3.46352 -0.897496
  1868 45.1486 3.46387 0.897680
  1869 59.5136 0.258191 3.25350
  1870 59.5091 0.258287 -3.25313
  1871 47.3002 2.23144 3.93337
  1872 47.2999 2.23116 -3.93231
  1873 41.8101 3.69744 9.26922
  1874 41.8089 3.69935 -9.26625
  1875 34.6298 -12.8371 10.3836
  1876 34.5834 -12.8534 -10.3916
  1877 43.2812 4.16309 8.22365
  1878 43.2809 4.16395 -8.22134
  1879 60.2383 -1.00357 -3.77630
  1880 60.2379 -0.998389 3.78092
  1881 61.2620 -1.97924 -3.13788
  1882 61.2647 -1.97978 3.14145
  1883 63.8763 2.91558 5.17613
  1884 69.8808 -3.83571 2.48493
  1885 59.7490 -0.525537 -0.548690
  1886 59.7482 -0.524496 0.549671
  1887 37.2724 5.24085 0.674966
  1888 37.2772 5.23995 -0.675516
  1889 21.2240 -14.5619 -2.93616
  1890 21.2377 -14.5446 2.93599
  1891 54.5606 1.15502 -1.79191
  1892 61.8456 0.695701 8.14806
  1893 61.8410 0.696946 -8.14867
  1894 57.5045 -0.0638016 -1.24046
  1895 57.5039 -0.0630261 1.24037
  1896 56.5435 -0.870491 1.86684
  1897 56.5449 -0.872648 -1.86716
  1898 52.0941 0.700277 -3.44571
  1899 52.0968 0.700318 3.44650
  1900 58.7326 -0.143069 1.47550
  1901 58.7399 -0.143416 -1.47314
  1902 47.7882 1.88318 3.78737
  1903 47.7876 1.88293 -3.78632
  1904 81.6819 -0.372655 -3.82987
  1905 81.6990 -0.370175 3.86723
  1906 55.8117 0.927790 10.1900
  1907 55.8067 0.930175 -10.1901
  1908 78.8247 0.0618500 9.17022
  1909 71.3482 3.32551 -4.90675
  1910 49.5853 0.127936 -1.18776
  1911 49.5878 0.127953 1.18813
  1912 49.6105 0.335258 -0.293354
  1913 39.3001 4.68998 -0.709159
  1914 39.3039 4.68981 0.707979
  1915 80.9828 9.95029 -19.7052
  1916 43.2719 4.38167 3.81355
  1917 43.2735 4.38122 -3.81265
  1918 15.3689 -8.12730 7.26750
  1919 15.3102 -8.13794 -7.30874
  1920 149.400 6.94245 -14.1717
  1921 64.8615 -10.2437 -7.61612
  1922 50.3909 0.115218 -1.23591
  1923 50.3936 0.115236 1.23627
  1924 102.172 2.95843 -2.19045
  1925 62.1242 -0.0197506 -0.208027
  1926 62.1232 -0.0197006 0.208164
  1927 33.3527 -7.51979 7.13432
  1928 35.4836 -7.00278 -7.96462
  1929 35.4549 -3.49906 -12.5825
  1930 35.4379 -3.48702 12.5722
  1931 56.1583 0.0251645 1.52386
  1932 56.1587 0.0242776 -1.52427
  1933 61.1657 0.0918632 -1.44730
  1934 61.1709 0.0918476 1.44746
  1935 64.2304 2.36595 -5.27962
  1936 48.2714 1.56523 2.94970
  1937 48.2692 1.56444 -2.95102
  1938 60.4809 -1.20260 -0.499941
  1939 60.4818 -1.20399 0.502392
  1940 53.0598 0.348626 2.28014
  1941 53.0595 0.347526 -2.28130
  1942 47.9283 0.924273 2.42572
  1943 47.9273 0.924090 -2.42491
  1944 46.8559 2.29996 3.30210
  1945 46.8559 2.29960 -3.30114
  1946 90.6823 -0.458346 -0.949856
  1947 90.6939 -0.460915 0.951564
  1948 71.5570 11.0900 3.43285
  1949 50.7083 0.103190 0.932204
  1950 68.2454 0.188812 5.09956
  1951 68.2407 0.189252 -5.10025
  1952 40.7998 -6.27278 12.3698
  1953 40.7885 -6.27048 -12.3754
  1954 58.9395 -3.47006 1.80954
  1955 58.9451 -3.47406 -1.80858
  1956 60.4657 -0.707451 -0.00300607
  1957 60.4663 -0.708512 0.00472786
  1958 41.4885 -5.69719 13.3584
  1959 41.3885 -5.70710 -13.3417
  1960 54.2150 0.696148 10.8255
  1961 54.2094 0.698932 -10.8257
  1962 70.3328 -6.51586 5.44728
  1963 70.3093 -6.51345 -5.45044
  1964 51.8402 0.970355 1.85236
  1965 51.8393 0.969875 -1.85328
  1966 120.638 12.4625 4.78899
  1967 49.3589 0.612907 -2.54193
  1968 49.3607 0.613001 2.54268
  1969 66.6652 -5.77982 1.12669
  1970 66.5889 -5.84473 -1.02999
  1971 43.1443 -2.65175 10.6245
  1972 43.1509 -2.65066 -10.6470
  1973 101.678 4.39422 -4.61362
  1974 62.3614 -0.0293322 0.130310
  1975 62.3619 -0.0294288 -0.129960
  1976 75.8180 -2.59074 -6.25286
  1977 49.0124 1.57489 4.07939
  1978 49.0111 1.57471 -4.07833
  1979 67.3989 6.42887 4.85858
  1980 49.5304 1.02328 3.11332
  1981 49.5286 1.02227 -3.11485
  1982 89.2475 6.15184 -4.99720
  1983 67.1766 0.140256 4.32394
  1984 77.3579 -4.43302 2.39343
  1985 77.3479 -4.43713 -2.40242
  1986 48.0949 2.57147 -17.2221
  1987 68.1859 10.1311 -3.20313
  1988 60.4865 5.13058 1.86666
  1989 56.1323 2.15397 1.49507
  1990 7.92172 -31.7144 2.80201
  1991 7.96171 -31.7053 -2.86914
  1992 63.8798 7.94563 -2.12753
  1993 38.1957 5.46786 4.37845
  1994 38.1992 5.46718 -4.37690
  1995 66.8240 0.0539254 -4.23255
  1996 60.8055 -6.72486 -4.04361
  1997 60.9397 -6.70342 3.79124
  1998 68.6159 -8.57197 5.51985
  1999 68.5769 -8.56847 -5.52007
  2000 48.3062 -9.48042 8.13655
  2001 50.3265 -10.3113 -8.39597
  2002 38.5383 4.18201 -2.77702
  2003 38.5425 4.18218 2.77441
  2004 21.1058 -12.6864 12.5085
  2005 21.3563 -12.4657 -12.9791
  2006 44.2661 3.86875 2.49148
  2007 44.2677 3.86831 -2.49088
  2008 56.1309 0.0367831 0.986258
  2009 56.1264 0.0367921 -0.986061
  2010 79.7782 1.33884 -1.11835
  2011 52.8866 0.973275 -4.45971
  2012 52.8894 0.973252 4.46060
  2013 45.9292 2.90141 2.41017
  2014 45.9300 2.90097 -2.40945
  2015 85.4676 -0.847702 -9.61398
  2016 78.2714 7.39755 3.40083
  2017 54.4571 -5.71745 -7.81000
  2018 54.4691 -5.57975 7.73536
  2019 90.0456 0.918957 -8.70950
  2020 60.5097 0.311529 -3.80540
  2021 85.9921 -4.57500 -5.96089
  2022 85.9884 -4.57037 5.98628
  2023 46.1934 2.99558 0.200880
  2024 46.1952 2.99527 -0.200884
  2025 47.7900 1.38867 2.93749
  2026 47.7892 1.38842 -2.93658
  2027 99.6726 3.49894 5.60459
  2028 58.6086 1.14486 7.48137
  2029 58.6046 1.14568 -7.48115
  2030 77.6749 0.458948 -8.92819
  2031 48.3104 0.320044 1.66118
  2032 48.3087 0.319979 -1.66061
  2033 54.8222 -1.07410 2.82086
  2034 54.8233 -1.07677 -2.82230
  2035 44.0146 -2.02846 15.2653
  2036 89.7951 -0.233635 -1.32904
  2037 89.7903 -0.233792 1.32660
  2038 52.3277 -0.403840 3.51795
  2039 52.3270 -0.405926 -3.52005
  2040 48.1561 0.0690077 0.794381
  2041 48.1540 0.0689907 -0.794097
  2042 60.6413 -0.477500 -1.43454
  2043 60.6388 -0.478206 1.43744
  2044 20.5862 -15.5600 7.95782
  2045 90.8274 7.44629 -1.10220
  2046 77.4292 -3.28832 -3.71103
  2047 77.4367 -3.28838 3.70406
  2048 54.7046 -1.34512 -11.3529
  2049 54.7116 -1.34796 11.3523
  2050 61.6151 -0.140240 0.556005
  2051 61.6186 -0.139999 -0.554576
  2052 53.9170 0.742619 1.89468
  2053 164.316 5.37789 3.32948
  2054 99.7355 8.13594 -3.86667
  2055 58.9795 -0.229067 -4.01762
  2056 58.9921 -0.227384 4.02025
  2057 75.0120 2.01245 7.02991
  2058 54.4666 -2.74336 4.61037
  2059 54.4677 -2.74804 -4.61372
  2060 46.3920 2.67993 1.62575
  2061 46.3931 2.67947 -1.62523
  2062 90.2404 0.878295 8.74523
  2063 45.8305 3.23102 4.23644
  2064 45.8309 3.23067 -4.23535
  2065 62.4438 -2.13253 -3.89245
  2066 62.4487 -2.13225 3.89598
  2067 51.5727 -9.43794 -13.4164
  2068 18.8974 -17.3880 -7.48128
  2069 58.1493 -2.79591 -2.02699
  2070 58.1448 -2.79185 2.02739
  2071 59.0962 -1.91244 -0.784630
  2072 59.0937 -1.90986 0.786218
  2073 59.3747 -0.0554686 -0.810082
  2074 59.3740 -0.0550623 0.810191
  2075 82.9170 6.63112 -0.493125
  2076 48.6430 1.89973 -1.87073
  2077 48.6447 1.89998 1.86985
  2078 42.9436 3.90937 0.808884
  2079 42.9409 3.90923 -0.809511
  2080 55.6253 -5.11957 6.28373
  2081 55.7255 -5.14067 -6.26634
  2082 45.2400 -2.24286 9.36625
  2083 45.2515 -2.25941 -9.37165
  2084 85.6087 -0.858396 9.52007
  2085 41.6082 4.59638 0.597613
  2086 41.6110 4.59613 -0.597887
  2087 39.1267 -13.0146 -10.2049
  2088 39.2445 -12.9708 10.1594
  2089 57.3179 -7.68957 -10.2134
  2090 57.3226 -7.68486 10.2221
  2091 40.8138 4.99098 -2.17523
  2092 40.8109 4.99149 2.17549
  2093 14.6920 -11.6147 -4.44784
  2094 14.7054 -11.6427 4.46149
  2095 71.2427 3.28015 2.80933
  2096 73.9994 -0.0535562 -5.09177
  2097 58.0123 0.0426194 0.962374
  2098 58.0075 0.0426217 -0.962210
  2099 59.7238 -0.234654 -0.709592
  2100 59.7230 -0.233989 0.710086
  2101 57.2195 -0.806124 1.56519
  2102 57.2209 -0.808061 -1.56514
  2103 59.7814 -0.373026 10.1776
  2104 59.7752 -0.370333 -10.1789
  2105 118.135 8.50084 0.689006
  2106 20.4892 0.323380 -1.68552
  2107 20.5141 0.318042 1.69034
  2108 61.3137 -0.240050 -0.147245
  2109 61.3135 -0.239640 0.148267
  2110 52.4227 0.878122 -0.525463
  2111 52.5834 0.0288159 -0.681679
  2112 52.5871 0.0288246 0.681860
  2113 47.3716 2.52190 -0.0763037
  2114 47.3731 2.52157 0.0762216
  2115 68.6002 2.39408 -4.09117
  2116 30.6392 4.71192 3.24063
  2117 30.6473 4.71050 -3.23681
  2118 83.3201 -4.04602 4.50559
  2119 83.2983 -4.01971 -4.49942
  2120 62.1403 5.83517 2.95838
  2121 56.0825 -1.51944 2.48172
  2122 56.0845 -1.52254 -2.48262
  2123 61.5424 -0.284171 0.257786
  2124 61.5429 -0.283725 -0.256334
  2125 62.3978 -0.0752190 0.251268
  2126 62.3997 -0.0751299 -0.250404
  2127 50.6666 2.06741 10.2781
  2128 50.6627 2.06974 -10.2771
  2129 6.72181 -28.1982 -2.83032
  2130 6.76958 -27.7235 2.87712
  2131 32.0415 5.21035 -1.61115
  2132 32.0332 5.21257 1.61249
  2133 58.8201 -0.224855 -0.955076
  2134 58.8193 -0.224065 0.955363
  2135 48.6785 2.97782 7.10612
  2136 48.6772 2.97810 -7.10469
  2137 63.9935 4.33721 4.79696
  2138 82.6142 1.64449 9.26722
  2139 47.1811 1.50972 11.1192
  2140 47.1762 1.51300 -11.1178
  2141 48.9378 0.319476 1.76488
  2142 48.9358 0.319416 -1.76432
  2143 67.1078 0.177593 4.02242
  2144 67.1029 0.177850 -4.02268
  2145 49.4204 2.78896 7.64115
  2146 49.4187 2.78947 -7.63976
  2147 72.5841 0.0862810 -4.27334
  2148 72.5884 0.0858641 4.27230
  2149 62.0476 -9.98158 -8.06891
  2150 98.6049 8.70818 2.63041
  2151 53.7695 -8.44730 11.2194
  2152 55.4826 1.07308 -2.64994
  2153 54.1671 1.60283 -6.82269
  2154 54.1701 1.60240 6.82355
  2155 34.3330 3.55088 -4.51850
  2156 34.3403 3.54928 4.51355
  2157 51.6321 1.99756 6.67672
  2158 51.6299 1.99782 -6.67558
  2159 72.9253 6.03610 4.74299
  2160 90.4395 3.76815 -8.00487
  2161 27.5280 2.98519 5.23589
  2162 27.5347 2.98590 -5.22794
  2163 39.0332 -9.48202 15.8129
  2164 41.1130 -9.50339 -15.6584
  2165 61.8671 -5.39126 -13.3423
  2166 51.7803 1.04368 4.21823
  2167 51.7779 1.04364 -4.21730
  2168 67.6321 0.0961619 -1.74795
  2169 67.6376 0.0961065 1.74793
  2170 49.9264 0.195495 -0.740107
  2171 59.2078 -0.537199 -2.91661
  2172 59.2053 -0.535042 2.91947
  2173 39.7997 5.24347 4.33696
  2174 39.8025 5.24292 -4.33571
  2175 60.2753 -2.30390 -0.316844
  2176 60.2777 -2.30598 0.319536
  2177 64.1651 0.251639 -3.75579
  2178 64.1700 0.251471 3.75583
  2179 47.1079 2.77821 -4.75776
  2180 47.1082 2.77847 4.75895
  2181 32.0309 -0.918913 10.2264
  2182 32.0267 -0.921655 -10.2369
  2183 94.9637 -0.0918615 -4.44108
  2184 41.8949 4.75708 -2.60576
  2185 41.8925 4.75755 2.60623
  2186 57.8677 3.56513 -0.0140760
  2187 125.697 10.7776 -0.639063
  2188 90.2964 17.0916 0.596038
  2189 56.2196 -0.338670 1.72511
  2190 56.2203 -0.340133 -1.72550
  2191 69.5206 -7.54336 -2.41923
  2192 105.835 8.75103 2.93303
  2193 94.9036 -0.107178 4.65278
  2194 76.4354 9.26474 -4.22929
  2195 60.7706 -0.00448127 -0.485287
  2196 60.7697 -0.00433981 0.485389
  2197 64.1920 -4.90019 -1.56967
  2198 64.1888 -4.90162 1.57781
  2199 50.1002 2.44633 6.70021
  2200 50.0985 2.44654 -6.69895
  2201 63.1670 -4.78156 -0.861970
  2202 63.1693 -4.78107 0.867662
  2203 52.7127 -11.1756 -14.6550
  2204 50.0240 0.670822 2.80820
  2205 50.0219 0.670731 -2.80742
  2206 64.2999 -1.95216 -4.43180
  2207 64.2970 -1.94385 4.45450
  2208 74.6635 -0.0148157 4.61428
  2209 47.3685 2.33746 1.72146
  2210 47.3665 2.33728 -1.72222
  2211 49.2191 2.79542 9.34040
  2212 49.2166 2.79685 -9.33895
  2213 66.7376 -0.574444 -8.41865
  2214 66.7435 -0.576681 8.41624
  2215 53.2854 -5.59569 11.5965
  2216 53.2815 -5.59766 -11.5953
  2217 43.8195 3.85674 0.0349926
  2218 43.8171 3.85688 -0.0352350
  2219 48.9229 0.0867664 1.04209
  2220 48.9206 0.0867531 -1.04174
  2221 65.1172 -0.982235 -4.91106
  2222 64.9595 -1.01018 4.93260
  2223 78.5628 0.0680266 -1.75289
  2224 78.5668 0.0679086 1.75231
  2225 58.5227 -0.559264 -1.03840
  2226 58.5217 -0.557950 1.03892
  2227 97.5223 17.1638 1.02200
  2228 69.9982 0.191920 3.86450
  2229 69.9934 0.192184 -3.86505
  2230 45.4035 3.18693 9.88616
  2231 45.4010 3.18902 -9.88399
  2232 82.1292 -0.579374 -3.47759
  2233 82.1300 -0.580311 3.47358
  2234 68.7843 -2.48875 -7.74559
  2235 68.7929 -2.49165 7.74260
  2236 50.0331 -9.60413 -10.7701
  2237 50.0110 -9.59366 10.7641
  2238 29.2916 -5.65004 13.4723
  2239 29.2748 -5.62785 -13.4781
  2240 61.0898 -2.13881 -2.06098
  2241 61.0916 -2.14016 2.06402
  2242 78.4595 -0.559208 7.79887
  2243 50.3387 0.304769 -1.45522
  2244 49.6836 0.314121 1.83641
  2245 49.6814 0.314069 -1.83585
  2246 108.036 4.41674 3.34071
  2247 62.7653 0.0147939 1.44750
  2248 62.7599 0.0148270 -1.44739
  2249 60.6468 -1.20878 -2.20788
  2250 60.6470 -1.20983 2.21135
  2251 58.3909 -1.43641 1.13904
  2252 58.3930 -1.43884 -1.13817
  2253 73.6134 -0.0981921 -5.75666
  2254 73.6173 -0.0992911 5.75427
  2255 47.8065 -2.93581 12.2305
  2256 47.7990 -2.93364 -12.2315
  2257 27.0782 0.0592222 8.10904
  2258 27.0768 0.0648048 -8.09966
  2259 149.597 6.91463 10.6863
  2260 68.1258 3.04067 -0.598037
  2261 47.5144 1.68525 -3.10336
  2262 47.5149 1.68553 3.10431
  2263 108.280 9.91744 -1.43334
  2264 46.2695 2.91509 -0.511827
  2265 46.2714 2.91493 0.511550
  2266 59.8984 -7.22052 5.58794
  2267 86.2151 -1.65739 2.97361
  2268 86.2034 -1.64716 -2.96531
  2269 78.5374 -0.541933 -8.01488
  2270 62.3204 0.519691 -8.50037
  2271 62.3251 0.518186 8.49947
  2272 66.5974 -3.82054 -3.20479
  2273 66.5453 -3.94415 3.10282
  2274 50.1733 1.07424 3.73450
  2275 50.1714 1.07413 -3.73356
  2276 75.2546 -1.05734 -5.82944
  2277 75.2593 -1.05913 5.82537
  2278 82.1463 3.71709 4.86722
  2279 89.2462 12.5356 0.782774
  2280 40.4336 3.51110 3.54365
  2281 40.4303 3.50999 -3.54614
  2282 76.0168 -0.501759 -1.15345
  2283 53.2520 0.0253401 -1.25717
  2284 54.7965 -11.0325 -13.4346
  2285 82.4110 12.6617 2.03918
  2286 58.4495 0.300703 3.04926
  2287 58.4451 0.300754 -3.04885
  2288 87.3249 -0.593492 -2.66692
  2289 87.3236 -0.601332 2.68274
  2290 60.9731 -1.00436 4.30359
  2291 60.9697 -1.01281 -4.29782
  2292 55.8337 0.00338716 -1.20356
  2293 55.8203 0.00768164 1.19696
  2294 54.2233 0.893734 4.69692
  2295 54.2202 0.893812 -4.69611
  2296 30.1389 3.98061 -2.52141
  2297 30.1506 3.97669 2.51936
  2298 60.7967 -1.93611 -1.39312
  2299 60.7982 -1.93764 1.39615
  2300 42.4519 4.73105 5.75542
  2301 42.4532 4.73084 -5.75385
  2302 25.0352 2.71811 2.53950
  2303 25.0475 2.71683 -2.53202
  2304 49.3200 0.0351462 0.424785
  2305 49.3173 0.0351392 -0.424646
  2306 62.6593 -9.62182 7.02842
  2307 61.0467 0.463295 9.40111
  2308 61.0416 0.465274 -9.40214
  2309 67.3093 2.08417 4.95580
  2310 43.7843 4.08633 2.65762
  2311 43.7860 4.08590 -2.65701
  2312 55.5626 0.145154 2.00053
  2313 55.5586 0.145160 -2.00013
  2314 52.4576 -0.0993495 3.06311
  2315 52.4570 -0.101065 -3.06485
  2316 61.5497 -3.29121 1.30115
  2317 61.5474 -3.29004 -1.29776
  2318 51.2787 0.539381 2.87051
  2319 51.2761 0.539322 -2.86979
  2320 58.3033 2.40556 -3.19940
  2321 57.5814 0.848402 -3.71523
  2322 73.7240 2.70655 -6.12568
  2323 54.9410 0.239866 1.69290
  2324 54.9411 0.239022 -1.69354
  2325 83.7183 5.12673 5.26494
  2326 43.0010 4.56955 5.12389
  2327 43.0023 4.56922 -5.12258
  2328 70.7319 8.22362 4.72382
  2329 55.5428 -0.656351 2.19366
  2330 55.5438 -0.658418 -2.19446
  2331 54.7067 -0.0161695 2.00272
  2332 54.7070 -0.0174565 -2.00355
  2333 45.7523 3.69971 -5.94962
  2334 45.7522 3.69984 5.95103
  2335 49.5750 2.80664 8.69065
  2336 49.5728 2.80763 -8.68925
  2337 36.6510 0.766850 -10.7164
  2338 36.6560 0.761896 10.7207
  2339 92.5783 4.25872 7.47072
  2340 101.109 12.1848 -20.7845
  2341 80.7583 -1.80501 7.63305
  2342 68.6657 0.827338 -6.34232
  2343 45.7797 1.23233 -4.99696
  2344 45.7826 1.23464 4.99522
  2345 62.6447 -0.0624915 -0.0372525
  2346 62.6446 -0.0624100 0.0376587
  2347 56.4303 0.636791 -2.94439
  2348 53.7075 0.0476414 0.665272
  2349 53.7036 0.0476370 -0.665112
  2350 49.0361 0.445979 4.29457
  2351 49.0337 0.444211 -4.29652
  2352 63.1308 0.546162 -6.39045
  2353 63.1353 0.545528 6.39021
  2354 63.9709 0.463219 -5.24787
  2355 60.3675 -1.06723 -2.66262
  2356 60.3674 -1.06761 2.66633
  2357 48.1821 0.598202 -2.08607
  2358 48.1834 0.598327 2.08677
  2359 140.807 8.11597 19.9281
  2360 45.9676 2.94602 1.82245
  2361 45.9687 2.94556 -1.82191
  2362 59.9431 -0.932687 -0.241596
  2363 59.9421 -0.931292 0.243255
  2364 37.0783 3.19226 5.11693
  2365 37.0735 3.19207 -5.12194
  2366 52.3052 1.53338 5.63405
  2367 52.3028 1.53349 -5.63301
  2368 101.009 7.62971 22.0704
  2369 14.5475 -13.9006 9.25862
  2370 14.5854 -14.0043 -9.21355
  2371 57.9664 0.836842 5.34718
  2372 57.9625 0.837089 -5.34665
  2373 46.7694 2.18950 -2.37994
  2374 46.7690 2.18991 2.38072
  2375 59.4643 -2.98810 -0.932717
  2376 59.4602 -2.98482 0.934700
  2377 40.3094 4.92021 0.864192
  2378 40.3127 4.91981 -0.864510
  2379 56.6240 0.757286 -4.70639
  2380 56.6277 0.757149 4.70703
  2381 89.9565 8.11179 -21.3707
  2382 68.4501 -6.34438 -0.342829
  2383 68.5329 -5.84154 0.858514
  2384 60.2401 0.408076 3.72875
  2385 82.5614 -1.06468 -3.00632
  2386 82.5619 -1.06536 3.00106
  2387 64.9601 -5.87716 0.427417
  2388 64.9460 -5.86103 -0.439714
  2389 54.3029 -1.71471 -3.68041
  2390 54.3020 -1.71123 3.67805
  2391 68.2001 -3.94597 11.8245
  2392 68.8021 -2.33044 -3.94634
  2393 46.1822 2.76565 3.03996
  2394 46.1827 2.76524 -3.03908
  2395 75.4278 -2.36410 -5.31011
  2396 75.4347 -2.36610 5.30471
  2397 57.6429 1.34448 -8.46681
  2398 57.6470 1.34325 8.46696
  2399 50.2039 1.38700 4.30593
  2400 50.2021 1.38690 -4.30491
  2401 78.3878 -0.0203878 -3.61280
  2402 67.4112 5.96583 -5.03353
  2403 60.0868 0.686023 -4.59521
  2404 9.25394 -29.4796 -3.68474
  2405 9.60592 -28.3948 4.11616
  2406 61.1132 2.21672 -4.55483
  2407 91.4588 -0.181435 -0.935714
  2408 91.4514 -0.181485 0.933370
  2409 51.5241 -0.406723 -4.02277
  2410 51.5254 -0.404578 4.02044
  2411 73.9808 -0.507914 6.00600
  2412 73.9768 -0.506431 -6.00906
  2413 50.0198 1.60218 1.52474
  2414 50.0185 1.60206 -1.52548
  2415 49.4525 0.982452 -3.23969
  2416 49.4541 0.982585 3.24058
  2417 47.0154 1.89432 2.60466
  2418 47.0154 1.89396 -2.60381
  2419 84.2994 5.81627 -3.38283
  2420 52.9768 0.939566 0.657985
  2421 71.9900 13.8007 -0.390248
  2422 45.9649 3.05148 3.83396
  2423 45.9653 3.05111 -3.83295
  2424 129.438 9.05864 -4.18291
  2425 93.2692 -0.280051 0.0195339
  2426 93.2555 -0.279258 -0.0207327
  2427 70.3140 2.60121 5.19383
  2428 86.5977 -0.186027 -1.82335
  2429 86.5968 -0.186252 1.82151
  2430 67.0107 0.290759 -7.11769
  2431 67.0153 0.289599 7.11635
  2432 26.3788 -0.942412 -9.02128
  2433 26.3946 -0.945285 9.00811
  2434 51.9820 0.261217 -2.03678
  2435 51.9850 0.261241 2.03730
  2436 72.3646 0.374349 -7.31008
  2437 41.9584 4.88271 4.16627
  2438 41.9604 4.88222 -4.16525
  2439 85.3779 -1.39062 -4.57339
  2440 85.3736 -1.39207 4.60148
  2441 89.2410 17.8323 -0.248550
  2442 59.9575 0.0840111 -1.13901
  2443 59.9626 0.0840084 1.13916
  2444 115.747 10.8576 0.279444
  2445 47.5046 1.33025 2.59077
  2446 47.5041 1.32999 -2.58992
  2447 60.3460 -0.0993238 -0.845179
  2448 60.3395 -0.0994908 0.847064
  2449 48.4847 1.64065 3.82380
  2450 48.4837 1.64044 -3.82277
  2451 57.6688 0.845225 3.78274
  2452 51.3033 0.00679997 -0.430934
  2453 51.3067 0.00680248 0.431057
  2454 53.6857 -0.0483757 2.45458
  2455 53.6857 -0.0498955 -2.45581
  2456 68.6464 -2.23666 4.00459
  2457 55.3743 0.0289485 -0.740870
  2458 55.3787 0.0289449 0.741030
  2459 48.9484 0.235032 0.0404658
  2460 73.7892 0.356570 7.76662
  2461 57.7154 0.157167 -3.68826
  2462 57.7528 0.167470 3.71168
  2463 61.3674 -3.79246 -0.417430
  2464 61.3711 -3.79403 0.421633
  2465 49.1740 -0.131669 5.02116
  2466 49.1713 -0.134139 -5.02337
  2467 35.8460 5.41046 0.820725
  2468 35.8517 5.40908 -0.821080
  2469 48.2297 0.216002 -1.35085
  2470 48.2315 0.216052 1.35133
  2471 38.5531 3.20889 9.68130
  2472 38.5515 3.21171 -9.67715
  2473 94.2691 2.09453 -8.14035
  2474 60.5614 5.51854 -1.13675
  2475 78.2220 -7.27325 -0.592897
  2476 78.2108 -7.30285 0.568402
  2477 46.4846 2.69128 1.27753
  2478 46.4857 2.69082 -1.27713
  2479 60.1210 0.657904 4.62787
  2480 128.736 11.6968 -3.75614
  2481 45.7652 3.77545 7.59665
  2482 45.7647 3.77590 -7.59488
  2483 57.3935 2.74802 -2.10835
  2484 50.8338 1.33612 13.2212
  2485 58.1951 -0.885758 10.6310
  2486 58.1883 -0.882936 -10.6322
  2487 97.2784 3.04765 7.80054
  2488 44.8460 3.74405 -13.4767
  2489 61.5955 1.17881 4.92089
  2490 63.1767 -3.14818 3.22052
  2491 63.1795 -3.14660 -3.21835
  2492 58.6099 2.76438 3.09618
  2493 81.0622 -4.58363 1.41716
  2494 81.0577 -4.56583 -1.42456
  2495 70.7744 -8.99685 -3.94211
  2496 70.8371 -8.99919 3.93530
  2497 63.8084 -1.94503 -9.38771
  2498 63.8160 -1.94784 9.38576
  2499 44.8368 3.50042 0.148545
  2500 44.8347 3.50057 -0.148751
  2501 27.2334 3.83834 1.03032
  2502 27.2459 3.83544 -1.02652
  2503 56.1503 0.542828 -3.76476
  2504 56.1541 0.542769 3.76536
  2505 65.8718 -9.91429 7.34627
  2506 164.802 4.72174 -10.1934
  2507 51.1854 -0.314920 11.5438
  2508 51.1789 -0.311699 -11.5438
  2509 98.2131 5.32359 -6.07384
  2510 60.6356 -0.455433 -0.176416
  2511 60.6351 -0.454648 0.177721
  2512 70.7950 -1.46815 -7.25748
  2513 70.8014 -1.47062 7.25397
  2514 42.3564 4.64391 7.09877
  2515 42.3572 4.64415 -7.09669
  2516 52.0217 -9.40551 13.0707
  2517 60.6424 0.503681 4.75048
  2518 60.6380 0.503929 -4.75020
  2519 55.2049 -3.64491 -4.99645
  2520 55.2011 -3.63841 4.99254
  2521 129.830 9.31443 3.13459
  2522 35.0207 3.18707 8.80843
  2523 35.0209 3.18970 -8.80311
  2524 57.0468 -8.27983 9.12773
  2525 48.3658 0.0106928 0.324557
  2526 48.3633 0.0106910 -0.324443
  2527 80.8104 -0.315216 -9.36569
  2528 47.5006 1.89804 -3.43396
  2529 47.5011 1.89833 3.43495
  2530 45.2412 3.65781 4.56489
  2531 45.2418 3.65746 -4.56374
  2532 65.4379 0.0274478 1.32972
  2533 65.4322 0.0274744 -1.32967
  2534 53.4803 -0.250700 2.77843
  2535 53.4803 -0.252501 -2.77993
  2536 73.4445 3.57239 -2.91783
  2537 92.1841 -0.203137 -0.645184
  2538 92.1746 -0.203029 0.642889
  2539 63.0587 -1.63219 -4.52056
  2540 63.0662 -1.63742 4.52080
  2541 56.7402 0.242955 2.53758
  2542 56.7360 0.242967 -2.53714
  2543 48.6938 2.05167 4.75850
  2544 48.6927 2.05150 -4.75735
  2545 86.2625 7.66824 -2.90643
  2546 57.9790 -2.36215 1.78828
  2547 57.9825 -2.36575 -1.78777
  2548 65.6437 -9.86049 -9.23991
  2549 69.2751 2.04217 -5.29220
  2550 68.3945 -8.76707 7.39276
  2551 62.6787 -5.68428 0.688071
  2552 62.6786 -5.67290 -0.677671
  2553 80.7397 -1.06073 -7.76570
  2554 53.6397 0.527611 1.80852
  2555 53.6394 0.526916 -1.80934
  2556 56.2770 0.00506272 -2.71946
  2557 56.2441 0.0449312 2.71133
  2558 24.9089 -9.66455 9.80055
  2559 24.8902 -9.65950 -9.80014
  2560 80.7084 16.6411 -0.678842
  2561 62.2850 -0.650185 -4.86854
  2562 62.2886 -0.659392 4.85338
  2563 8.87334 -17.5585 -2.54758
  2564 8.90818 -17.5365 2.70247
  2565 48.4909 2.16732 0.898878
  2566 48.4894 2.16747 -0.899309
  2567 50.8466 0.375046 2.20798
  2568 50.8440 0.374992 -2.20738
  2569 80.8112 -1.04182 7.67296
  2570 45.2340 3.82493 8.22600
  2571 45.2332 3.82573 -8.22402
  2572 70.6608 -7.04075 1.57374
  2573 39.4805 5.16310 6.07561
  2574 39.4827 5.16294 -6.07344
  2575 55.7350 1.47885 2.14728
  2576 52.0828 0.452115 2.00285
  2577 64.0198 -7.66233 2.79633
  2578 64.3908 -7.47625 -2.27255
  2579 50.2141 0.0189774 0.437921
  2580 50.2110 0.0189765 -0.437785
  2581 66.7960 -7.99188 2.46599
  2582 44.1014 3.83473 1.51921
  2583 44.1033 3.83437 -1.51892
  2584 49.2250 2.26195 5.52607
  2585 49.2237 2.26189 -5.52486
  2586 83.6446 4.59957 -6.49656
  2587 56.7114 -2.58665 11.0011
  2588 56.7038 -2.58447 -11.0017
  2589 46.7600 -0.136598 -11.8458
  2590 46.7666 -0.140280 11.8465
  2591 90.0168 -0.344668 -1.64896
  2592 90.0221 -0.347398 1.65671
  2593 67.1488 11.1716 0.0773638
  2594 48.8991 2.57401 6.07731
  2595 48.8978 2.57402 -6.07601
  2596 58.9257 -2.35925 1.11472
  2597 58.9291 -2.36234 -1.11328
  2598 53.9140 -1.06741 3.36543
  2599 53.9145 -1.07015 -3.36747
  2600 138.057 9.98354 0.951087
  2601 23.3638 -3.12701 7.90324
  2602 23.3591 -3.11778 -7.89170
  2603 57.5711 -0.236646 -1.29645
  2604 57.5704 -0.235588 1.29646
  2605 53.2569 0.00301907 1.24704
  2606 139.565 7.85354 -20.7075
  2607 62.6316 -4.00314 -1.61471
  2608 62.6324 -4.00363 1.61952
  2609 85.0404 -2.28972 -4.23680
  2610 85.0551 -2.30132 4.25076
  2611 75.2027 0.0321189 1.45031
  2612 75.1977 0.0321552 -1.45063
  2613 78.1746 -0.175613 3.83102
  2614 57.9350 2.98484 2.15370
  2615 54.9978 0.356964 2.63083
  2616 65.9881 2.57618 -5.42604
  2617 39.0579 4.83598 7.34000
  2618 39.0594 4.83651 -7.33706
  2619 47.2845 1.77021 2.97026
  2620 47.2842 1.76990 -2.96934
  2621 71.8615 -0.0392499 -1.50461
  2622 71.8670 -0.0392856 1.50444
  2623 45.3341 3.32016 2.83310
  2624 45.3351 3.31972 -2.83233
  2625 71.7022 12.4595 -2.39895
  2626 84.7931 -0.290796 -2.92325
  2627 84.7875 -0.303510 2.94851
  2628 83.9545 -1.54929 5.82968
  2629 83.9613 -1.54181 -5.80260
  2630 56.8693 0.00998469 1.34801
  2631 56.8698 0.00922636 -1.34827
  2632 82.5676 -1.94150 -1.94127
  2633 82.5682 -1.94006 1.93511
  2634 121.267 9.79765 -0.0218654
  2635 22.9289 -12.1378 -2.85291
  2636 22.6064 -12.3828 2.79731
  2637 88.0001 -2.99530 -7.17602
  2638 88.0746 -2.90284 7.17945
  2639 48.3861 0.643023 -2.22742
  2640 48.3876 0.643148 2.22814
  2641 49.7164 1.48293 2.17421
  2642 49.7149 1.48249 -2.17526
  2643 80.2131 -7.50654 1.62384
  2644 80.1874 -7.45566 -1.64489
  2645 84.0445 12.7575 23.6392
  2646 64.8533 -4.30481 10.1726
  2647 65.9889 7.82309 3.83178
  2648 53.3652 2.03882 -7.76844
  2649 53.3681 2.03813 7.76939
  2650 116.796 11.8396 14.7889
  2651 31.8041 4.88713 -0.622100
  2652 31.8134 4.88424 0.621400
  2653 55.8855 2.38197 -0.384835
  2654 50.8766 -0.941445 5.00524
  2655 50.8742 -0.944409 -5.00775
  2656 81.9978 0.0195734 -1.80404
  2657 82.0004 0.0194432 1.80311
  2658 33.8876 4.24522 -7.04386
  2659 33.8847 4.24420 7.04884
  2660 42.3684 4.56605 2.14706
  2661 42.3707 4.56561 -2.14671
  2662 59.8184 -1.86040 0.124217
  2663 59.8206 -1.86258 -0.122016
  2664 62.5517 0.296506 -5.12678
  2665 61.1546 0.750720 6.57254
  2666 61.1503 0.751342 -6.57253
  2667 85.8900 -5.31043 3.29011
  2668 86.0087 -5.17762 -3.25272
  2669 88.9071 -0.103752 -1.34376
  2670 88.9040 -0.103895 1.34187
  2671 61.9317 -9.57233 -8.04875
  2672 61.9580 -9.57667 8.07643
  2673 87.1288 -1.36152 0.730941
  2674 87.1209 -1.35640 -0.731627
  2675 49.8013 0.547248 2.52623
  2676 49.7992 0.547173 -2.52550
  2677 71.9111 -6.81489 -4.98276
  2678 60.2158 -0.356439 1.54568
  2679 60.2197 -0.355926 -1.54271
  2680 42.4049 4.66851 -3.54199
  2681 42.4030 4.66900 3.54280
  2682 58.4244 -0.841245 1.08405
  2683 58.4257 -0.842968 -1.08340
  2684 48.2283 1.39823 -3.29036
  2685 48.2293 1.39845 3.29132
  2686 40.8185 4.29508 -1.26700
  2687 40.8218 4.29529 1.26582
  2688 48.8426 0.196328 -0.421543
  2689 81.7250 -5.59552 3.57442
  2690 81.7070 -5.56465 -3.58079
  2691 56.2749 -2.08256 2.77779
  2692 56.2775 -2.08636 -2.77898
  2693 100.175 2.35512 1.35467
  2694 60.9880 6.25846 0.470506
  2695 57.7561 -5.62848 5.09887
  2696 57.8170 -5.58154 -5.09565
  2697 45.8982 3.08347 1.04251
  2698 45.8997 3.08305 -1.04222
  2699 63.4392 -4.77044 -8.90243
  2700 63.4510 -4.77286 8.90340
  2701 76.6227 1.14068 -11.1091
  2702 44.1326 4.07102 4.37456
  2703 44.1337 4.07063 -4.37349
  2704 45.9127 3.40303 5.11728
  2705 45.9129 3.40277 -5.11603
  2706 60.1398 0.702425 5.69821
  2707 60.1356 0.702814 -5.69795
  2708 58.9740 1.12214 -4.22048
  2709 57.1704 -8.24302 -8.77860
  2710 70.5206 0.887275 6.98019
  2711 54.1493 1.88387 8.55099
  2712 54.1459 1.88498 -8.55028
  2713 103.846 7.55562 -3.88796
  2714 76.2426 -8.80566 -0.816875
  2715 76.2944 -8.77374 0.758500
  2716 46.5322 2.50307 1.88744
  2717 46.5331 2.50261 -1.88682
  2718 65.9602 2.17393 5.47702
  2719 114.667 12.8602 -15.6099
  2720 55.2861 0.270052 -2.74433
  2721 60.5952 -1.89714 -0.866255
  2722 60.5968 -1.89884 0.869059
  2723 80.4097 -0.206793 -3.34823
  2724 80.4118 -0.207251 3.34606
  2725 50.2933 0.866428 3.35176
  2726 50.2913 0.866340 -3.35088
  2727 54.6584 1.63254 0.811997
  2728 45.1354 3.37771 1.89248
  2729 45.1368 3.37728 -1.89198
  2730 76.2693 14.8850 1.72466
  2731 60.9731 -0.223765 -0.335076
  2732 60.9727 -0.223326 0.335829
  2733 49.2766 0.343712 1.93533
  2734 49.2745 0.343652 -1.93473
  2735 15.5620 -20.6006 0.0739565
  2736 15.5862 -20.6154 -0.0993193
  2737 38.2145 5.37156 1.96940
  2738 38.2186 5.37073 -1.96923
  2739 53.3874 0.531199 3.27028
  2740 53.3843 0.531187 -3.26958
  2741 63.3190 3.96998 -4.80797
  2742 57.1900 -7.15643 7.55426
  2743 67.7198 3.79402 5.28930
  2744 70.9208 -4.74947 -5.95533
  2745 70.9363 -4.75239 5.95128
  2746 76.0950 -0.917326 1.27828
  2747 59.8590 0.387195 3.82286
  2748 59.8545 0.387320 -3.82250
  2749 65.1628 -6.35029 -8.62434
  2750 56.2791 1.34098 -6.59619
  2751 56.2826 1.34055 6.59685
  2752 62.1897 -11.1373 -7.07072
  2753 62.3533 -11.1447 7.17529
  2754 76.0437 -6.05206 -2.10330
  2755 76.0603 -6.04413 2.09049
  2756 82.2603 -0.227145 -3.29168
  2757 82.2611 -0.227818 3.28858
  2758 43.0434 2.51119 4.24574
  2759 43.0407 2.50940 -4.24769
  2760 57.0994 0.0335618 0.788960
  2761 57.0946 0.0335663 -0.788813
  2762 60.7384 -1.31885 -1.38451
  2763 60.7389 -1.32020 1.38756
  2764 61.8265 -8.46434 -5.70571
  2765 41.8160 4.29897 0.467787
  2766 41.8130 4.29896 -0.468461
  2767 52.5719 0.152436 1.62900
  2768 52.5686 0.152419 -1.62858
  2769 89.5530 -0.922312 3.93304
  2770 47.0470 -1.34197 7.62930
  2771 47.0424 -1.34793 -7.63003
  2772 62.5946 0.164251 -2.80758
  2773 62.5996 0.164169 2.80775
  2774 63.1462 7.77550 0.787312
  2775 81.9124 -3.84863 -5.44146
  2776 56.3736 -3.03008 -3.54951
  2777 56.3704 -3.02528 3.54744
  2778 83.7922 -3.55332 -6.42476
  2779 83.8255 -3.56130 6.43392
  2780 54.4221 0.148897 1.86101
  2781 54.4183 0.148899 -1.86061
  2782 45.4672 3.25562 2.40266
  2783 45.4683 3.25517 -2.40199
  2784 66.5557 -8.46811 -2.84499
  2785 65.2359 6.45644 -4.24977
  2786 95.8645 2.25370 -6.57170
  2787 46.7492 2.20800 -2.85357
  2788 46.7490 2.20838 2.85445
  2789 90.0476 12.7109 -1.24629
  2790 60.5612 -9.85833 -12.8800
  2791 80.6640 -0.0143295 -1.66965
  2792 80.6673 -0.0144321 1.66896
  2793 76.1587 4.08317 4.69800
  2794 47.8407 2.38962 -0.480903
  2795 47.8423 2.38936 0.480658
  2796 44.5561 3.72032 -2.09178
  2797 44.5545 3.72074 2.09230
  2798 48.9796 0.603361 -2.37752
  2799 48.9813 0.603464 2.37825
  2800 37.6416 -11.2634 -15.8911
  2801 85.3627 -0.176630 -1.57856
  2802 85.3632 -0.176786 1.57728
  2803 89.4777 7.17787 2.45389
  2804 49.5656 1.26182 3.83703
  2805 49.5640 1.26168 -3.83603
  2806 59.5395 -0.0493245 0.847588
  2807 59.5481 -0.0492373 -0.845743
  2808 36.7750 -11.1973 15.9313
  2809 62.1334 -6.42689 8.87385
  2810 62.1203 -6.42548 -8.86899
  2811 56.1887 1.26133 -9.67709
  2812 56.1932 1.25945 9.67712
  2813 64.9647 5.77215 4.54081
  2814 72.4648 -6.06555 -1.79947
  2815 40.7294 5.18214 -3.74502
  2816 40.7268 5.18273 3.74593
  2817 61.1088 -0.524023 -0.574352
  2818 61.1082 -0.524771 0.576477
  2819 49.9605 2.31100 6.29749
  2820 49.9589 2.31109 -6.29623
  2821 43.2084 3.47403 2.09361
  2822 43.2056 3.47346 -2.09469
  2823 35.4594 5.27260 5.02582
  2824 35.4638 5.27209 -5.02298
  2825 72.3739 6.90104 -18.5761
  2826 46.6039 3.26788 9.42224
  2827 46.6018 3.26949 -9.42035
  2828 72.9683 0.00692247 -4.98199
  2829 72.9725 0.00631164 4.98051
  2830 47.4185 3.20373 6.72382
  2831 47.4178 3.20386 -6.72235
  2832 51.8283 0.0840350 1.07012
  2833 44.6566 3.72823 -3.74063
  2834 44.6556 3.72863 3.74157
  2835 50.2825 -1.93676 -6.39749
  2836 50.2852 -1.93205 6.39409
  2837 52.3330 0.554876 -1.38881
  2838 61.8876 -2.21867 -3.41589
  2839 61.8912 -2.21941 3.41901
  2840 51.9617 0.575786 2.44829
  2841 51.9609 0.574792 -2.44958
  2842 48.0159 2.10469 4.35032
  2843 48.0151 2.10446 -4.34920
  2844 46.4185 1.51978 4.25116
  2845 46.4157 1.51813 -4.25275
  2846 54.9097 1.69017 -9.37028
  2847 54.9137 1.68854 9.37067
  2848 86.5667 -1.32506 -0.199958
  2849 86.5609 -1.32183 0.196699
  2850 47.0099 2.64218 0.695782
  2851 47.0080 2.64233 -0.696120
  2852 60.7150 -5.85670 -2.78419
  2853 60.7414 -5.82070 2.72205
  2854 53.6428 0.0821722 -1.27661
  2855 53.6466 0.0821760 1.27691
  2856 44.9593 4.01915 6.53066
  2857 44.9595 4.01915 -6.52907
  2858 60.8515 -8.73977 8.36605
  2859 60.1893 -9.00239 -8.12715
  2860 62.7457 -0.0438894 -0.00915489
  2861 62.7454 -0.0439556 0.00960983
  2862 48.6512 0.814454 -2.66743
  2863 48.6527 0.814593 2.66825
  2864 74.7029 -7.47777 -2.07572
  2865 74.7325 -7.47021 2.06011
  2866 44.4249 0.806705 -6.29887
  2867 44.4273 0.810502 6.29665
  2868 50.9619 0.134692 -1.37935
  2869 50.9648 0.134712 1.37975
  2870 24.3641 1.79762 -3.66366
  2871 24.3851 1.79183 3.66305
  2872 82.2706 -0.338597 9.67956
  2873 45.0824 3.25470 -0.945584
  2874 45.0847 3.25474 0.945100
  2875 50.5873 0.858713 -2.82629
  2876 50.5887 0.859680 2.82483
  2877 46.1954 2.67512 2.26889
  2878 46.1962 2.67468 -2.26819
  2879 50.2886 -12.3536 -9.39587
  2880 50.4051 -12.1928 9.08718
  2881 65.4505 -3.64187 3.36297
  2882 65.4160 -3.60541 -3.39157
  2883 34.8837 -2.74844 11.4935
  2884 34.8733 -2.74172 -11.4910
  2885 57.2001 1.85374 3.07279
  2886 60.6202 -0.870659 1.76280
  2887 60.6211 -0.869644 -1.75952
  2888 55.5809 -2.16714 3.32713
  2889 55.5831 -2.17107 -3.32905
  2890 21.5592 0.876335 -1.64961
  2891 21.5420 0.877988 1.65957
  2892 37.8923 4.38098 8.18827
  2893 37.8932 4.38236 -8.18457
  2894 57.6583 0.144190 1.94659
  2895 57.6538 0.144198 -1.94627
  2896 61.1494 3.12960 4.28292
  2897 80.1913 -0.657853 -5.93451
  2898 39.9701 1.49325 -11.0077
  2899 39.9746 1.48905 11.0110
  2900 48.5385 1.30515 -3.35381
  2901 48.5396 1.30534 3.35477
  2902 81.1856 -3.15503 -0.897160
  2903 81.1872 -3.14875 0.890149
  2904 60.0360 0.00450892 -4.52652
  2905 54.2783 0.455115 -2.38439
  2906 47.8955 0.00333712 0.273463
  2907 47.8932 0.00333765 -0.273366
  2908 89.1646 -3.34258 2.03808
  2909 89.0875 -3.30168 -1.92130
  2910 52.7822 0.773861 1.80057
  2911 52.7817 0.773325 -1.80143
  2912 48.3832 0.803897 -2.49304
  2913 48.3845 0.804044 2.49383
  2914 51.3739 0.756567 3.40339
  2915 51.3714 0.756511 -3.40257
  2916 62.9141 -6.96279 -2.50814
  2917 62.8248 -6.99267 2.56246
  2918 121.111 8.75506 -3.19036
  2919 73.8667 1.92210 -7.49481
  2920 54.9835 0.0715368 -2.32849
  2921 122.428 7.43693 -10.4027
  2922 63.9259 8.74055 -0.771141
  2923 104.214 9.88070 0.614039
  2924 75.7946 -1.88590 8.21234
  2925 72.1743 -2.06736 3.06366
  2926 51.6581 0.0790414 -1.01333
  2927 46.6662 2.51744 3.54492
  2928 46.6662 2.51707 -3.54391
  2929 75.6248 -8.21557 -3.25169
  2930 76.0967 -8.08199 2.95132
  2931 118.300 8.44501 24.6339
  2932 87.6618 8.46559 12.1099
  2933 47.4126 2.96905 -5.69970
  2934 47.4132 2.96917 5.70102
  2935 99.2998 12.3370 7.16020
  2936 70.1095 -0.750513 -7.31381
  2937 70.1150 -0.752613 7.31077
  2938 49.6121 0.0608353 -0.824523
  2939 49.6148 0.0608465 0.824778
  2940 56.3280 -0.153220 1.58182
  2941 56.3286 -0.154370 -1.58217
  2942 59.5597 -1.25212 -0.411382
  2943 59.5582 -1.25031 0.413036
  2944 51.5706 2.35128 8.39571
  2945 51.5679 2.35219 -8.39457
  2946 60.7300 -1.41556 3.44439
  2947 60.7284 -1.41655 -3.43998
  2948 57.7691 -1.59816 1.58559
  2949 57.7715 -1.60098 -1.58518
  2950 49.7472 0.223937 0.712941
  2951 63.1732 7.22521 2.25740
  2952 87.7309 1.76185 9.32449
  2953 49.8639 0.183039 -1.45819
  2954 49.8664 0.183069 1.45864
  2955 59.3182 1.93612 -4.06139
  2956 50.3763 0.335043 2.07489
  2957 50.3738 0.334997 -2.07430
  2958 58.0451 -0.188578 -1.15251
  2959 58.0444 -0.187706 1.15260
  2960 44.4721 3.38853 -1.20838
  2961 44.4746 3.38873 1.20777
  2962 166.038 5.08647 10.1240
  2963 65.2952 0.394026 4.67270
  2964 65.2904 0.394339 -4.67286
  2965 53.1288 0.291909 -2.33698
  2966 53.1321 0.291923 2.33752
  2967 60.0469 -0.00731677 4.53496
  2968 50.9686 1.59253 5.14982
  2969 50.9666 1.59250 -5.14874
  2970 49.2272 1.66755 4.41721
  2971 49.2259 1.66741 -4.41612
  2972 53.4078 -1.76573 -4.37245
  2973 53.4080 -1.76217 4.36942
  2974 46.1589 2.70811 2.74587
  2975 46.1595 2.70769 -2.74506
  2976 75.9472 15.5360 0.118386
  2977 27.0638 1.64194 -5.99854
  2978 27.0812 1.63603 5.99184
  2979 56.9049 0.400762 -3.44896
  2980 44.8279 3.77685 8.87904
  2981 44.8268 3.77810 -8.87686
  2982 53.7915 0.288839 2.04753
  2983 53.7914 0.287809 -2.04847
  2984 74.6771 6.68912 19.0145
  2985 52.6923 1.63365 6.12880
  2986 52.6897 1.63385 -6.12778
  2987 33.2268 -3.71731 -12.3476
  2988 77.8261 1.69029 8.51261
  2989 49.9187 -2.59853 7.49589
  2990 49.9127 -2.60178 -7.50030
  2991 59.3689 -0.382943 -2.05836
  2992 59.3645 -0.382941 2.06154
  2993 61.3744 0.990496 -4.88251
  2994 87.3066 1.88615 -9.10535
  2995 51.1259 2.31927 7.50144
  2996 51.1237 2.31977 -7.50022
  2997 123.004 7.74290 7.03051
  2998 91.1319 15.8997 0.441144
  2999 9.80409 -18.5014 -1.96866
  3000 9.84395 -18.5615 1.96231
  3001 61.7443 -4.45986 -0.0719684
  3002 61.7493 -4.46125 0.0778736
  3003 52.3910 0.409853 -2.77105
  3004 52.3940 0.409872 2.77171
  3005 97.3460 6.60622 5.68300
  3006 32.7990 -0.502495 10.2162
  3007 32.7930 -0.496179 -10.2102
  3008 34.0197 5.44469 2.34026
  3009 34.0263 5.44307 -2.33899
  3010 58.2002 3.66687 -1.32177
  3011 70.3221 -0.0167154 -6.61496
  3012 70.3266 -0.0179435 6.61287
  3013 42.0217 4.18151 8.42659
  3014 42.0214 4.18264 -8.42392
  3015 68.6408 0.140975 5.07475
  3016 106.305 10.3588 -26.7765
  3017 57.4035 0.956660 -6.02755
  3018 57.4072 0.956304 6.02812
  3019 57.7022 1.20462 7.24733
  3020 57.6984 1.20532 -7.24692
  3021 55.7716 0.268019 2.64675
  3022 55.7676 0.268035 -2.64625
  3023 59.3866 -0.754584 0.671892
  3024 59.3877 -0.755949 -0.670829
  3025 44.5843 3.65406 -1.03232
  3026 44.5825 3.65440 1.03250
  3027 111.975 6.31967 -9.33757
  3028 48.6558 0.132006 1.13726
  3029 48.6537 0.131983 -1.13688
  3030 61.5232 -0.0990712 -0.303894
  3031 61.5226 -0.0988557 0.304400
  3032 53.1344 0.0433908 0.529065
  3033 53.1305 0.0433829 -0.528927
  3034 32.9394 1.41419 7.78633
  3035 32.9317 1.41663 -7.79454
  3036 61.1550 -0.525697 -4.68757
  3037 61.1755 -0.525487 4.68858
  3038 64.0243 0.101973 5.21249
  3039 64.2800 0.0756028 -0.976568
  3040 64.2857 0.0755940 0.976618
  3041 84.2402 -4.58963 -6.38950
  3042 84.2670 -4.59254 6.40811
  3043 47.9272 2.31763 4.68039
  3044 47.9265 2.31741 -4.67922
  3045 48.2586 -0.228665 -5.69325
  3046 48.2618 -0.225698 5.69091
  3047 54.5947 -0.219117 2.26442
  3048 54.5952 -0.220740 -2.26543
  3049 97.6579 16.2211 -1.72308
  3050 57.8147 -0.443777 -1.26491
  3051 57.8137 -0.442470 1.26509
  3052 52.2978 2.06340 7.07487
  3053 52.2953 2.06379 -7.07377
  3054 105.672 7.48196 3.61838
  3055 29.7273 2.54049 -5.51169
  3056 29.7402 2.53684 5.50594
  3057 44.3494 3.19125 -1.93622
  3058 44.3520 3.19171 1.93534
  3059 63.4276 -6.37425 1.04943
  3060 63.3932 -6.37834 -1.06811
  3061 48.6024 0.383307 -1.83894
  3062 48.6042 0.383381 1.83954
  3063 30.0100 4.01055 5.34500
  3064 30.0161 4.01081 -5.33902
  3065 60.8115 -0.884557 1.23070
  3066 60.8120 -0.883468 -1.22779
  3067 76.1763 4.36842 1.74192
  3068 45.9908 -10.2296 15.0821
  3069 57.0514 -4.24329 -4.23561
  3070 57.0507 -4.23477 4.23926
  3071 58.3099 -9.53911 -9.55972
  3072 51.6597 0.406524 2.82123
  3073 51.6587 0.405277 -2.82275
  3074 60.6723 -2.78746 -0.636113
  3075 60.6749 -2.78934 0.639141
  3076 24.9953 -4.01780 -11.4272
  3077 25.0070 -4.02054 11.4194
  3078 69.8482 0.0480443 3.78649
  3079 50.5415 0.749790 0.0443363
  3080 43.7145 3.58732 -0.799289
  3081 43.7171 3.58742 0.798760
  3082 35.0829 -5.96447 -11.9210
  3083 35.0983 -5.97069 11.9195
  3084 55.9796 1.98215 -1.74239
  3085 60.7136 11.1579 -23.0275
  3086 55.0873 -11.1812 13.5304
  3087 93.4324 -0.217536 -0.353715
  3088 93.4472 -0.218462 0.353582
  3089 54.9711 0.0808337 2.30896
  3090 48.1699 2.21980 -1.16818
  3091 48.1716 2.21976 1.16763
  3092 66.6005 -0.328668 8.31336
  3093 66.5952 -0.326710 -8.31553
  3094 66.2323 0.404776 -6.23916
  3095 66.2368 0.404022 6.23841
  3096 66.9900 0.00169417 -1.09078
  3097 66.9958 0.00167372 1.09080
  3098 61.9626 -0.0107433 -0.173834
  3099 61.9615 -0.0107231 0.173861
  3100 6.04541 -39.8560 3.08550
  3101 6.14670 -39.8415 -3.25329
  3102 50.7065 -0.00558498 -0.485098
  3103 50.7097 -0.00558860 0.485245
  3104 61.6391 -2.85671 9.85003
  3105 61.6307 -2.85400 -9.85113
  3106 66.8154 0.358101 5.20536
  3107 60.6801 2.09193 4.52426
  3108 47.3379 1.53035 2.60934
  3109 47.3376 1.53005 -2.60848
  3110 99.4530 8.93719 -0.256754
  3111 45.8647 3.00749 3.17510
  3112 45.8653 3.00708 -3.17422
  3113 17.9204 -5.89676 -5.47795
  3114 17.9222 -5.90822 5.49567
  3115 58.5220 -0.0362189 -0.984366
  3116 58.5214 -0.0356998 0.984378
  3117 54.9205 1.24963 6.07425
  3118 54.9174 1.24991 -6.07344
  3119 59.0137 1.01527 4.23985
  3120 49.8954 0.659359 -0.607579
  3121 61.4032 -0.0625950 -0.342156
  3122 61.4025 -0.0624167 0.342505
  3123 61.6454 -0.244125 0.0539672
  3124 61.6456 -0.243770 -0.0527712
  3125 54.8601 0.487679 3.38026
  3126 54.8565 0.487695 -3.37963
  3127 58.2248 -0.311282 2.40032
  3128 58.2294 -0.313642 -2.39794
  3129 51.8853 -1.04131 -4.48543
  3130 51.8867 -1.03859 4.48272
  3131 71.6230 -2.96435 -2.70811
  3132 57.0701 1.56244 -3.12198
  3133 71.5807 8.78343 -4.49036
  3134 34.5224 4.45996 -2.51389
  3135 34.5295 4.45837 2.51090
  3136 48.0289 0.723688 2.19793
  3137 48.0277 0.723541 -2.19719
  3138 50.5177 -5.73071 -10.2601
  3139 50.5494 -5.71978 10.1871
  3140 56.9768 0.447884 3.52607
  3141 48.1710 0.438433 -1.81485
  3142 48.1725 0.438528 1.81547
  3143 78.8793 1.96161 -8.63084
  3144 53.1521 1.52620 -10.2777
  3145 53.1566 1.52388 10.2781
  3146 88.7445 -0.609936 -0.947385
  3147 88.7379 -0.609390 0.943662
  3148 28.9443 2.03667 7.38153
  3149 28.9461 2.03990 -7.37327
  3150 14.8693 -4.95880 0.0759131
  3151 14.8356 -4.95671 -0.0543184
  3152 76.6196 -2.43880 2.66425
  3153 89.2310 -1.77448 -3.44786
  3154 56.6919 -10.0625 11.3667
  3155 39.7277 0.436557 -8.19629
  3156 39.7294 0.439274 8.18869
  3157 88.0618 -0.344880 -1.74311
  3158 88.0574 -0.345127 1.73934
  3159 64.1825 0.111326 2.66695
  3160 64.1773 0.111403 -2.66687
  3161 48.9571 0.0218902 -0.391656
  3162 48.9597 0.0218973 0.391791
  3163 57.1281 -0.509557 1.49202
  3164 57.1292 -0.511114 -1.49206
  3165 80.4918 -0.527066 5.94882
  3166 60.2170 -0.500566 0.412778
  3167 60.2177 -0.501454 -0.411691
  3168 72.8230 -6.42692 3.71462
  3169 60.1149 -1.49279 -0.144818
  3170 60.1164 -1.49457 0.147127
  3171 46.2515 2.45946 2.56599
  3172 46.2491 2.45887 -2.56702
  3173 46.3919 3.54780 7.02994
  3174 46.3914 3.54800 -7.02837
  3175 58.1112 0.419841 3.87017
  3176 58.1071 0.419945 -3.86968
  3177 61.1875 -11.0075 -10.7558
  3178 50.5934 0.946053 11.1730
  3179 50.5880 0.949192 -11.1724
  3180 67.2621 -1.76347 8.32633
  3181 67.2544 -1.76068 -8.32904
  3182 62.5647 -0.00447287 -0.121591
  3183 62.5639 -0.00444309 0.121748
  3184 51.5081 0.140840 -1.32853
  3185 51.5113 0.140863 1.32890
  3186 69.3473 12.5708 0.715835
  3187 59.0578 -11.0497 -8.40734
  3188 59.0594 -11.0309 8.48526
  3189 62.5748 0.133696 5.06500
  3190 74.2008 -5.81444 3.49970
  3191 74.1822 -5.81548 -3.50813
  3192 69.1590 11.3282 2.52001
  3193 61.8997 -2.72095 2.74845
  3194 61.8975 -2.72006 -2.74590
  3195 46.6875 2.68707 0.654615
  3196 46.6889 2.68666 -0.654433
  3197 83.3583 -0.770204 4.97185
  3198 83.4150 -0.744913 -4.95785
  3199 67.5264 -2.95013 -3.83239
  3200 40.3934 5.20060 -2.85126
  3201 40.3904 5.20123 2.85179
  3202 62.6882 2.70546 -4.96904
  3203 54.6872 0.225296 -2.29479
  3204 54.6910 0.225292 2.29527
  3205 63.6416 1.90931 1.98931
  3206 81.1084 1.43519 -9.35220
  3207 56.6282 0.962047 5.39880
  3208 56.6246 0.962261 -5.39815
  3209 67.9399 10.2951 21.4318
  3210 58.5804 0.149941 2.12953
  3211 58.5757 0.149957 -2.12921
  3212 74.4658 13.2829 2.90643
  3213 59.3691 1.78651 4.16718
  3214 62.0965 4.48775 -3.91337
  3215 61.5854 -2.77810 -2.03215
  3216 61.5875 -2.77924 2.03504
  3217 44.0315 4.11384 3.73303
  3218 44.0328 4.11341 -3.73212
  3219 81.4928 3.57073 7.02379
  3220 67.1212 -2.60718 4.00961
  3221 46.3678 -12.2469 -10.1159
  3222 46.7386 -12.2000 9.88537
  3223 90.5461 -2.18596 -4.99919
  3224 84.5098 -2.03657 9.03448
  3225 84.5036 -2.10002 -9.05801
  3226 57.6141 -1.91976 1.80388
  3227 57.6169 -1.92296 -1.80361
  3228 20.6592 -1.10430 -3.71033
  3229 20.6484 -1.10624 3.72554
  3230 61.0985 -0.0879202 0.624410
  3231 61.1038 -0.0877668 -0.622938
  3232 47.9256 1.64847 -3.47566
  3233 47.9263 1.64872 3.47666
  3234 69.7906 -6.10345 0.285434
  3235 59.5598 -5.20515 3.05959
  3236 59.5633 -5.20685 -3.09388
  3237 46.2973 2.95253 0.667683
  3238 46.2988 2.95214 -0.667505
  3239 52.4465 -2.18389 -11.8009
  3240 52.4537 -2.18619 11.8004
  3241 60.7573 0.00566753 -9.73852
  3242 60.7629 0.00329885 9.73725
  3243 52.6145 0.722932 1.14633
  3244 60.6400 -0.867207 -0.310621
  3245 60.6404 -0.868342 0.312717
  3246 60.4508 0.151915 2.37920
  3247 60.4460 0.151961 -2.37894
  3248 75.2471 4.01287 4.17848
  3249 54.2506 -0.601525 2.74338
  3250 54.2512 -0.603687 -2.74481
  3251 30.1677 -10.7825 -10.4256
  3252 30.1930 -10.7786 10.4218
  3253 46.5659 2.36524 2.50862
  3254 46.5663 2.36482 -2.50783
  3255 59.2927 -0.640649 -3.43651
  3256 59.2905 -0.636235 3.43886
  3257 49.2513 0.858927 -2.94126
  3258 49.2530 0.859052 2.94210
  3259 64.2763 -3.48687 -9.00743
  3260 64.2861 -3.48992 9.00623
  3261 60.6168 -1.46784 0.915105
  3262 60.6158 -1.46635 -0.912324
  3263 55.2665 0.669104 4.00341
  3264 55.2630 0.669152 -4.00273
  3265 58.1826 -5.04082 4.14270
  3266 58.1625 -5.01802 -4.13221
  3267 60.8791 -0.639477 0.246266
  3268 60.8790 -0.638612 -0.244379
  3269 87.8741 2.74805 8.79402
  3270 64.9639 0.454698 5.34341
  3271 64.9593 0.455128 -5.34366
  3272 62.0201 -0.112643 -0.114106
  3273 62.0199 -0.112430 0.114781
  3274 82.5648 13.7628 -1.75904
  3275 68.8054 -8.56075 3.73369
  3276 61.4066 -0.289731 -0.717926
  3277 61.4046 -0.290169 0.719934
  3278 51.4772 -1.76989 -5.49097
  3279 51.4800 -1.76578 5.48822
  3280 70.6267 -3.12310 -10.7180
  3281 44.0983 4.14023 -4.97612
  3282 44.0974 4.14055 4.97735
  3283 10.7397 -29.3776 -1.54308
  3284 12.1943 -25.8654 3.68765
  3285 45.4853 -1.30388 -8.38321
  3286 45.4830 -1.29530 8.38191
  3287 90.6991 -2.06736 5.00984
  3288 48.4542 0.0537983 -0.644595
  3289 48.4565 0.0538137 0.644817
  3290 36.5178 4.49617 -2.20973
  3291 36.5233 4.49545 2.20714
  3292 9.89152 -13.9614 -0.679087
  3293 9.89504 -13.9911 0.730701
  3294 75.9020 0.0137771 -4.02153
  3295 75.9057 0.0133274 4.02002
  3296 60.4846 -7.52237 -5.41134
  3297 68.7543 -0.240499 -4.87967
  3298 80.9243 5.69606 1.37382
  3299 47.0090 2.64166 -0.304323
  3300 47.0075 2.64204 0.304386
  3301 51.7606 -0.00572818 -0.368310
  3302 51.7642 -0.00573768 0.368419
  3303 59.9369 -0.0136871 -0.689860
  3304 59.9362 -0.0134386 0.689930
  3305 52.1729 1.03175 4.42055
  3306 52.1704 1.03175 -4.41963
  3307 60.7039 -3.64204 -0.192330
  3308 60.6992 -3.63931 0.195864
  3309 78.6938 3.50098 -1.90369
  3310 55.5386 -0.210890 -1.88809
  3311 55.5380 -0.209448 1.88746
  3312 52.1688 0.420172 1.60175
  3313 86.5041 -0.258239 -2.15402
  3314 86.5020 -0.258657 2.15084
  3315 32.9464 -4.44003 13.2887
  3316 32.9590 -4.40979 -13.3236
  3317 57.3804 3.01359 1.18785
  3318 61.6814 -1.54392 4.20190
  3319 61.6765 -1.54674 -4.19559
  3320 62.6657 -3.35396 2.57965
  3321 62.6659 -3.35390 -2.57683
  3322 82.5457 -6.14727 4.05910
  3323 82.5218 -6.11195 -4.06097
  3324 39.3236 -2.73652 9.02065
  3325 93.8942 0.710346 -6.99135
  3326 79.0905 7.05801 -3.17939
  3327 39.1714 3.69019 9.26396
  3328 39.1706 3.69233 -9.26024
  3329 98.2249 5.03617 6.32493
  3330 38.4166 5.52298 3.25202
  3331 38.4203 5.52214 -3.25117
  3332 48.4422 1.83362 -4.14825
  3333 48.4432 1.83383 4.14934
  3334 79.7692 -2.16584 -2.98376
  3335 79.7733 -2.16581 2.97730
  3336 46.1108 2.88178 -3.54545
  3337 46.1104 2.88217 3.54642
  3338 40.8372 2.42579 -5.19886
  3339 40.8399 2.42810 5.19547
  3340 46.6793 2.85497 4.43729
  3341 46.6793 2.85467 -4.43615
  3342 69.5279 -0.0949059 -3.82145
  3343 52.0239 1.32897 4.99895
  3344 52.0215 1.32899 -4.99796
  3345 57.9444 -1.02349 1.31295
  3346 57.9460 -1.02556 -1.31248
  3347 74.7704 0.0194332 -3.40662
  3348 112.039 6.87415 0.0110452
  3349 19.0490 -11.7893 -7.27798
  3350 19.0674 -11.8005 7.27641
  3351 33.4846 2.29722 -9.04819
  3352 33.4854 2.29347 9.05436
  3353 58.3897 0.806752 -9.83485
  3354 58.3949 0.804600 9.83423
  3355 83.3317 -2.08689 -0.994070
  3356 83.3307 -2.08353 0.988520
  3357 56.7726 1.10550 3.25332
  3358 61.2261 -4.85847 -0.917654
  3359 61.2137 -4.85340 0.925277
  3360 75.2414 4.22635 0.378500
  3361 33.6973 4.95101 5.29469
  3362 33.7022 4.95067 -5.29077
  3363 82.4769 -3.22922 0.325011
  3364 82.4744 -3.21931 -0.330022
  3365 61.6269 -8.27338 5.38814
  3366 75.0902 13.5027 -2.64489
  3367 43.1852 4.33797 2.11459
  3368 43.1872 4.33755 -2.11418
  3369 46.7368 2.98553 -5.01591
  3370 46.7370 2.98577 5.01714
  3371 49.1951 -3.78374 9.26388
  3372 49.2105 -3.82171 -9.26543
  3373 89.5396 -0.696064 -0.348204
  3374 89.5311 -0.694646 0.345390
  3375 67.3715 0.0579401 -7.48674
  3376 67.3763 0.0564964 7.48501
  3377 76.4673 -3.88070 -3.53594
  3378 76.4773 -3.87985 3.52819
  3379 60.4718 -0.225612 -0.514340
  3380 60.4712 -0.225128 0.514901
  3381 43.8530 3.07298 -10.2044
  3382 43.8556 3.07049 10.2069
  3383 72.0116 -2.80273 6.53578
  3384 72.0029 -2.79990 -6.53992
  3385 17.2160 -19.3651 -4.63567
  3386 17.2107 -19.3406 4.61789
  3387 47.9318 0.0279588 -0.507038
  3388 47.9340 0.0279580 0.507223
  3389 74.0801 4.77320 -4.74376
  3390 46.9231 1.98038 2.45910
  3391 46.9233 1.98000 -2.45829
  3392 47.7129 1.01604 -2.43085
  3393 47.7137 1.01625 2.43167
  3394 40.8482 2.48282 -10.5386
  3395 40.8514 2.47933 10.5419
  3396 61.3552 0.00213461 -0.351492
  3397 62.2450 -0.00439222 0.136649
  3398 61.3542 0.00219234 0.351531
  3399 62.2462 -0.00441356 -0.136598
  3400 65.5712 -6.81053 0.651819
  3401 65.5201 -6.82547 -0.593396
  3402 42.6833 1.87569 -5.48501
  3403 42.6858 1.87847 5.48238
  3404 44.9152 -7.83978 11.9352
  3405 44.9112 -7.84421 -11.9448
  3406 68.1711 0.109411 4.21783
  3407 68.1663 0.109699 -4.21827
  3408 48.8952 0.0615244 0.500486
  3409 60.0651 -3.95924 1.08904
  3410 60.0723 -3.96362 -1.08639
  3411 54.6175 1.03660 5.25918
  3412 54.6144 1.03674 -5.25835
  3413 60.8411 -0.807315 0.620514
  3414 60.8411 -0.806310 -0.618139
  3415 154.358 6.20437 18.9941
  3416 49.5508 0.427824 -2.19108
  3417 49.5529 0.427892 2.19174
  3418 50.9123 1.93999 5.96381
  3419 50.9103 1.94007 -5.96264
  3420 17.1920 -4.12534 -2.96379
  3421 17.1789 -4.13088 2.98490
  3422 47.6714 1.96031 2.43184
  3423 47.6692 1.95979 -2.43291
  3424 27.2157 3.54118 -1.45156
  3425 27.2307 3.53671 1.45234
  3426 94.9241 2.10544 7.13650
  3427 64.9480 1.39790 -4.53569
  3428 59.0256 -1.21907 0.781862
  3429 59.0273 -1.22105 -0.780662
  3430 51.0384 -4.06796 8.36715
  3431 51.0654 -4.13789 -8.36612
  3432 48.0886 2.60855 5.44361
  3433 48.0877 2.60842 -5.44234
  3434 61.5600 0.590643 5.81687
  3435 61.5556 0.591088 -5.81678
  3436 84.5558 -2.66039 2.32672
  3437 84.5460 -2.64632 -2.32445
  3438 48.7926 1.59135 -2.60576
  3439 48.7945 1.59197 2.60456
  3440 42.0097 -0.911837 -9.26536
  3441 42.0116 -0.906816 9.25405
  3442 41.4509 0.722108 -7.35218
  3443 41.4520 0.726510 7.34708
  3444 119.564 11.0106 -0.0563125
  3445 18.6732 -16.7976 10.5543
  3446 92.7515 -0.153223 0.815720
  3447 92.7381 -0.152113 -0.813177
  3448 104.392 3.99942 1.78944
  3449 54.9667 -0.786952 2.50755
  3450 54.9677 -0.789242 -2.50870
  3451 49.1828 0.132632 -1.20069
  3452 49.1852 0.132655 1.20108
  3453 48.1562 0.914080 -2.56421
  3454 48.1573 0.914253 2.56503
  3455 21.3711 -0.533254 -5.04447
  3456 21.3991 -0.538095 5.04353
  3457 75.9389 -0.696417 5.52641
  3458 75.9351 -0.694973 -5.53006
  3459 36.0226 -1.56695 -11.1130
  3460 36.0202 -1.57057 11.1100
  3461 55.1803 0.813370 2.66772
  3462 43.9824 4.28850 7.22706
  3463 43.9826 4.28877 -7.22520
  3464 52.8416 0.204061 1.73315
  3465 58.5616 -0.313138 -3.47067
  3466 58.5597 -0.309891 3.47162
  3467 66.3800 -0.505272 -5.09076
  3468 59.1745 0.00831981 0.746320
  3469 59.1694 0.00832153 -0.746197
  3470 46.0026 2.88622 2.10477
  3471 46.0035 2.88577 -2.10414
  3472 82.7150 -4.00391 2.72348
  3473 82.7035 -3.98355 -2.72412
  3474 53.0469 0.889126 -1.14323
  3475 44.8752 3.66079 3.40661
  3476 44.8762 3.66036 -3.40574
  3477 79.4861 -0.0632151 -3.21893
  3478 79.4887 -0.0636424 3.21716
  3479 39.8111 -0.505642 -11.8349
  3480 39.8184 -0.510535 11.8369
  3481 38.3295 -1.10990 10.3138
  3482 38.3261 -1.10522 -10.3208
  3483 55.2752 1.58438 7.65019
  3484 55.2718 1.58513 -7.64953
  3485 49.6440 0.513841 1.18554
  3486 60.8410 4.57104 3.05587
  3487 49.2518 1.90948 1.16919
  3488 49.2504 1.90955 -1.16975
  3489 48.1278 0.137781 1.09284
  3490 48.1259 0.137746 -1.09245
  3491 24.9725 -6.11341 9.34617
  3492 53.1752 0.186707 -1.73220
  3493 53.1787 0.186726 1.73261
  3494 45.1292 3.61425 -4.10063
  3495 45.1285 3.61465 4.10166
  3496 52.2629 0.704916 2.16435
  3497 52.2622 0.704133 -2.16545
  3498 54.4028 0.391638 1.72053
  3499 54.4027 0.390920 -1.72125
  3500 54.2190 -0.00566282 0.990763
  3501 54.1952 -0.00553763 -0.996109
  3502 70.5100 -5.49209 -0.732111
  3503 72.0074 -9.61627 -3.53684
  3504 72.2538 -9.67589 3.39682
  3505 59.4546 4.75222 0.845678
  3506 46.7940 2.25447 3.08019
  3507 46.7941 2.25410 -3.07926
  3508 26.2583 -4.72252 9.98325
  3509 26.2463 -4.71254 -9.97622
  3510 58.6244 2.06220 3.65208
  3511 54.1557 1.38318 5.85186
  3512 54.1527 1.38338 -5.85098
  3513 59.8746 -0.0987988 0.681461
  3514 59.8753 -0.0991971 -0.681191
  3515 37.3764 3.81109 -3.79121
  3516 37.3811 3.81116 3.78752
  3517 41.0438 5.07602 5.30785
  3518 41.0458 5.07568 -5.30629
  3519 51.7643 2.10270 -9.76563
  3520 51.7680 2.10077 9.76649
  3521 67.7394 -9.20928 -5.03007
  3522 46.5092 2.42835 2.71087
  3523 46.5096 2.42794 -2.71003
  3524 20.0678 -15.5050 -11.5672
  3525 49.9473 1.71194 4.85698
  3526 49.9456 1.71185 -4.85586
  3527 46.9553 2.00455 -2.76383
  3528 46.9552 2.00491 2.76470
  3529 139.436 10.1424 -1.61617
  3530 44.0903 2.45305 10.7100
  3531 44.0867 2.45613 -10.7076
  3532 67.0244 9.58479 2.94133
  3533 93.8956 0.632845 7.10913
  3534 46.5305 -0.380275 -6.76971
  3535 46.5342 -0.375850 6.76800
  3536 53.6627 0.895244 -4.46249
  3537 53.6657 0.895203 4.46333
  3538 85.5366 -3.30530 8.02395
  3539 85.5228 -3.35700 -8.00002
  3540 57.9279 0.00684959 -1.09289
  3541 57.9273 0.00743655 1.09282
  3542 107.385 4.96293 -0.648474
  3543 47.0331 2.48448 4.16021
  3544 47.0328 2.48418 -4.15911
  3545 50.8933 0.473171 2.58905
  3546 50.8908 0.473112 -2.58836
  3547 56.3996 -4.83468 -10.7849
  3548 56.4068 -4.83483 10.7866
  3549 58.9132 -0.0980922 -0.905129
  3550 58.9125 -0.0975282 0.905284
  3551 47.4733 2.45094 -1.11648
  3552 47.4751 2.45089 1.11597
  3553 57.8295 0.00843244 -0.854149
  3554 57.8170 0.00913068 0.855586
  3555 170.112 4.00997 -3.91491
  3556 60.6630 -1.45664 -3.01418
  3557 60.6642 -1.45682 3.01802
  3558 61.2596 0.249198 3.14363
  3559 51.3160 -0.0323514 3.69005
  3560 51.3147 -0.0341442 -3.69212
  3561 47.0536 2.18907 -3.44261
  3562 47.0538 2.18941 3.44360
  3563 52.1720 -11.1806 -10.1602
  3564 52.1247 -11.1252 10.1684
  3565 36.5706 5.04055 -0.478442
  3566 36.5760 5.03952 0.477136
  3567 48.5577 0.510407 -2.09072
  3568 48.5593 0.510504 2.09139
  3569 64.5556 0.0178402 -8.53177
  3570 64.5609 0.0159815 8.53008
  3571 53.8716 -8.65633 -11.4689
  3572 44.4529 3.84483 2.94573
  3573 44.4543 3.84438 -2.94499
  3574 85.4329 -0.776200 -2.35619
  3575 85.4308 -0.776377 2.35140
  3576 70.2979 6.22095 -5.13420
  3577 35.2095 -11.7265 15.4235
  3578 45.3029 3.80309 -5.38450
  3579 45.3026 3.80334 5.38581
  3580 55.6000 0.445675 2.81988
  3581 60.6453 -8.94835 7.26935
  3582 60.8555 3.57662 -3.98780
  3583 37.0371 0.460916 -8.84274
  3584 37.0410 0.459826 8.83393
  3585 61.3048 -0.0403373 -0.386635
  3586 61.3039 -0.0402063 0.386839
  3587 60.2279 4.68068 -2.39099
  3588 49.9300 0.824584 -3.14345
  3589 49.9320 0.824686 3.14430
  3590 67.4246 3.57069 -5.46097
  3591 59.7401 3.35592 -3.17423
  3592 56.8662 1.10659 -3.32234
  3593 44.9720 3.96967 6.19321
  3594 44.9723 3.96957 -6.19170
  3595 48.5788 2.03178 -1.49828
  3596 48.5805 2.03185 1.49758
  3597 66.9372 7.87696 -4.29511
  3598 48.1014 0.0162892 0.230371
  3599 48.0990 0.0162910 -0.230290
  3600 60.7252 -1.14397 -1.79578
  3601 60.7253 -1.14515 1.79906
  3602 38.6752 5.17263 -0.616301
  3603 38.6711 5.17329 0.615741
  3604 56.4265 1.58826 8.23748
  3605 56.4227 1.58930 -8.23709
  3606 35.3860 5.59915 -2.09883
  3607 35.3802 5.60067 2.09953
  3608 59.2239 -0.544363 -0.757937
  3609 59.2229 -0.543194 0.758731
  3610 57.4508 0.149191 10.3868
  3611 57.4448 0.151845 -10.3876
  3612 60.8221 -0.657865 1.31720
  3613 60.8234 -0.656987 -1.31427
  3614 72.0175 0.561510 4.38039
  3615 38.7850 4.61119 -1.66308
  3616 38.7891 4.61102 1.66123
  3617 59.5556 -0.418893 -0.691523
  3618 59.5547 -0.417966 0.692253
  3619 62.4667 -4.45887 -0.697450
  3620 62.4690 -4.45950 0.703281
  3621 50.3211 1.15972 2.48541
  3622 50.3196 1.15904 -2.48666
  3623 58.5001 -9.11053 -9.26627
  3624 58.5055 -9.10175 9.28506
  3625 66.2610 -1.10560 4.84702
  3626 50.7558 0.0448574 -0.932879
  3627 50.7588 0.0448649 0.933151
  3628 43.5650 2.80934 -3.32305
  3629 43.5679 2.81054 3.32157
  3630 63.9900 6.80368 -3.32260
  3631 99.3114 15.0198 -4.93712
  3632 63.6739 0.361644 4.81339
  3633 63.6692 0.361946 -4.81340
  3634 29.5181 -15.6625 7.66376
  3635 29.4472 -15.6967 -7.66025
  3636 60.5876 -0.0676412 -0.535305
  3637 60.5868 -0.0673892 0.535544
  3638 59.5164 0.544960 -4.62766
  3639 59.5207 0.544760 4.62805
  3640 52.4724 0.0953743 1.17580
  3641 52.4689 0.0953641 -1.17550
  3642 50.0971 0.0425030 -0.793625
  3643 50.1000 0.0425061 0.793873
  3644 48.4808 0.0997811 0.919375
  3645 48.4786 0.0997576 -0.919060
  3646 50.2053 0.421299 -1.51281
  3647 61.0967 0.165316 -3.23877
  3648 86.1967 4.15790 -7.86194
  3649 37.0398 5.42530 4.95215
  3650 37.0435 5.42472 -4.94998
  3651 89.8616 6.84099 4.15906
  3652 41.2610 4.94051 6.13803
  3653 41.2626 4.94040 -6.13617
  3654 90.4612 8.85694 -10.3434
  3655 51.9047 0.401091 2.57135
  3656 51.9018 0.401059 -2.57071
  3657 51.6204 0.198984 1.79869
  3658 51.6174 0.198966 -1.79821
  3659 61.5812 -5.49155 -1.43944
  3660 61.5688 -5.48645 1.46050
  3661 47.2610 2.58937 0.378109
  3662 47.2594 2.58962 -0.378316
  3663 63.2757 -9.17965 -6.13281
  3664 86.3874 9.84055 24.7109
  3665 45.0622 2.37368 -3.49892
  3666 45.0649 2.37488 3.49757
  3667 28.0581 -6.80182 -10.6535
  3668 28.0751 -6.81038 10.6566
  3669 56.8278 -7.07498 -7.79132
  3670 45.9887 2.66514 -2.02881
  3671 45.9910 2.66553 2.02797
  3672 36.6408 -8.00816 -12.0413
  3673 36.6599 -8.01077 12.0340
  3674 46.8849 1.65148 3.58103
  3675 46.8823 1.65030 -3.58247
  3676 80.2951 -6.47162 -2.97259
  3677 80.2366 -6.25134 2.76773
  3678 59.9246 -0.659014 -4.12397
  3679 59.9201 -0.649138 4.12649
  3680 59.5864 -4.70174 -2.37129
  3681 59.5774 -4.69363 2.36650
  3682 52.7058 0.571089 3.38040
  3683 52.7029 0.571074 -3.37965
  3684 83.9651 15.6974 1.48278
  3685 60.3826 -4.50826 -1.43694
  3686 60.3707 -4.50111 1.43979
  3687 48.0623 0.695791 4.56780
  3688 48.0596 0.693899 -4.56967
  3689 78.0282 0.0266078 -2.82079
  3690 78.0318 0.0263692 2.81971
  3691 59.4960 -1.63197 0.457313
  3692 59.4979 -1.63418 -0.455544
  3693 61.0086 -1.81153 -2.63802
  3694 61.0104 -1.81254 2.64137
  3695 59.1030 4.61403 -0.829097
  3696 40.9083 3.97265 -2.29994
  3697 40.9116 3.97321 2.29832
  3698 46.3407 2.92579 -0.923979
  3699 46.3428 2.92575 0.923562
  3700 60.6723 -10.8996 10.8690
  3701 50.8094 -10.2660 14.1540
  3702 73.9213 0.0259499 1.16858
  3703 73.9159 0.0259817 -1.16878
  3704 70.3963 10.3660 -3.87394
  3705 79.6883 -0.397724 9.07967
  3706 77.5538 0.0624843 1.21307
  3707 77.5492 0.0625281 -1.21339
  3708 53.5358 -7.63067 -10.4227
  3709 52.8853 -2.14041 -5.08287
  3710 52.8872 -2.13633 5.07937
  3711 46.8428 2.72884 -0.0153207
  3712 46.8412 2.72916 0.0152662
  3713 76.4480 -0.0297273 -4.36885
  3714 76.4514 -0.0303709 4.36689
  3715 49.4363 -11.1933 15.3245
  3716 31.8595 3.63193 -4.19346
  3717 31.8696 3.62880 4.18895
  3718 39.1248 -1.73217 -12.0331
  3719 39.1335 -1.73764 12.0343
  3720 58.7912 -4.08147 -2.58477
  3721 58.7841 -4.07914 2.58358
  3722 56.3622 -1.17191 2.09968
  3723 56.3639 -1.17451 -2.10016
  3724 57.5782 -3.07560 -2.66644
  3725 57.5736 -3.07101 2.66583
  3726 33.3997 4.97762 -1.13330
  3727 33.4077 4.97536 1.13168
  3728 84.6582 -2.37383 1.15373
  3729 84.6518 -2.36434 -1.15494
  3730 59.8910 -0.447303 1.99104
  3731 59.8943 -0.446910 -1.98773
  3732 70.7732 2.48913 4.62346
  3733 43.0617 4.31966 7.80206
  3734 43.0619 4.32027 -7.79990
  3735 92.1602 -0.347815 -1.02290
  3736 92.1708 -0.349269 1.02680
  3737 48.9084 0.0435089 -0.719260
  3738 48.9109 0.0435190 0.719504
  3739 70.3259 0.0447638 -5.78607
  3740 70.3302 0.0439935 5.78470
  3741 119.677 7.54022 -4.07657
  3742 45.5171 3.26281 -0.581227
  3743 45.5153 3.26314 0.581323
  3744 54.2208 0.453470 3.02078
  3745 54.2173 0.453462 -3.02017
  3746 48.3153 -10.0873 -14.8959
  3747 48.3141 -0.802662 -6.30636
  3748 48.3176 -0.799201 6.30373
  3749 79.0669 15.0410 -1.97683
  3750 62.3107 -0.0461278 0.272575
  3751 62.3136 -0.0460434 -0.271764
  3752 53.2305 -7.45476 10.3546
  3753 63.1451 5.21624 4.12862
  3754 45.5099 3.31312 1.00249
  3755 45.5115 3.31272 -1.00224
  3756 52.0341 0.342386 11.3382
  3757 52.0281 0.345523 -11.3381
  3758 48.9833 1.60986 2.31737
  3759 48.9815 1.60938 -2.31846
  3760 50.9633 1.29836 1.64526
  3761 50.9622 1.29813 -1.64607
  3762 59.1770 -6.35940 4.95913
  3763 59.0744 -6.29194 -4.91361
  3764 61.0439 1.52973 0.799381
  3765 45.0723 3.46152 1.33270
  3766 45.0740 3.46112 -1.33237
  3767 34.1665 -0.947790 -8.64281
  3768 45.0343 3.52236 -0.509178
  3769 45.0324 3.52266 0.509220
  3770 57.4281 -3.95588 3.52024
  3771 57.4330 -3.96020 -3.52202
  3772 50.7825 0.993758 3.78614
  3773 50.7803 0.993676 -3.78521
  3774 60.8703 -1.62984 -2.30128
  3775 60.8716 -1.63104 2.30461
  3776 58.9754 -0.923725 0.840881
  3777 58.9768 -0.925384 -0.839898
  3778 35.3792 -11.9758 -15.3336
  3779 73.2733 0.0226475 2.99675
  3780 73.2686 0.0228142 -2.99738
  3781 59.9256 0.961476 8.24793
  3782 59.9212 0.962668 -8.24820
  3783 57.2482 -2.49338 2.45713
  3784 57.2520 -2.49745 -2.45762
  3785 56.7999 -0.0367828 -0.818397
  3786 56.7855 -0.0347973 0.818617
  3787 100.425 9.02889 -1.52351
  3788 47.2482 -5.11119 -11.2792
  3789 47.3402 -5.02437 11.1706
  3790 65.5378 0.110204 -2.80066
  3791 65.5430 0.110120 2.80067
  3792 52.2256 0.0242666 -0.410393
  3793 52.2293 0.0242670 0.410505
  3794 76.4340 -2.84013 -4.59084
  3795 76.4414 -2.84129 4.58462
  3796 47.1616 1.67711 -2.57314
  3797 47.1617 1.67744 2.57399
  3798 60.8185 -0.120458 -0.479412
  3799 60.8178 -0.120149 0.479835
  3800 43.4055 4.18954 1.43715
  3801 43.4076 4.18919 -1.43694
  3802 46.8773 2.48108 -3.86918
  3803 46.8774 2.48141 3.87024
  3804 44.7595 3.64280 -2.62874
  3805 44.7582 3.64324 2.62941
  3806 22.9992 -0.959658 6.15409
  3807 23.0019 -0.954319 -6.14083
  3808 59.6867 0.921705 -8.88752
  3809 59.6913 0.920117 8.88712
  3810 73.6682 -3.20749 1.03966
  3811 115.728 5.66949 7.85331
  3812 53.5663 1.21914 5.27044
  3813 53.5635 1.21925 -5.26952
  3814 45.6304 0.884960 11.6553
  3815 45.6247 0.888768 -11.6539
  3816 41.6334 -11.1075 10.9788
  3817 41.6051 -11.1277 -11.0122
  3818 77.9185 -1.03102 -4.97066
  3819 77.9219 -1.03263 4.96609
  3820 55.9504 -0.500243 1.92548
  3821 55.9514 -0.502021 -1.92603
  3822 43.8823 4.38850 6.40497
  3823 43.8828 4.38846 -6.40331
  3824 56.0079 -6.23935 -10.9830
  3825 56.0138 -6.23640 10.9871
  3826 62.9717 1.77293 5.16026
  3827 58.5581 -0.401380 -1.04188
  3828 58.5572 -0.400287 1.04225
  3829 79.2756 0.644784 9.17485
  3830 64.8023 -2.86276 3.85160
  3831 64.7355 -2.87217 -3.81521
  3832 62.6748 3.73129 4.65783
  3833 49.0456 0.433544 -2.07287
  3834 49.0475 0.433621 2.07352
  3835 70.4447 0.697804 13.2644
  3836 50.2709 1.34907 1.96034
  3837 50.2696 1.34868 -1.96131
  3838 50.3463 1.90575 5.44317
  3839 50.3445 1.90573 -5.44201
  3840 61.0448 -0.213750 0.975671
  3841 61.0484 -0.213369 -0.973403
  3842 60.3190 3.56769 3.58212
  3843 69.2419 1.65912 6.02231
  3844 61.5083 -4.97267 14.5443
  3845 64.1921 1.32996 5.33894
  3846 55.4163 0.196807 -1.57399
  3847 55.4160 0.197598 1.57346
  3848 66.5299 -1.95519 -4.47689
  3849 72.0061 -6.30293 1.67670
  3850 48.6591 1.37259 3.52657
  3851 48.6579 1.37240 -3.52559
  3852 48.8919 0.922214 2.93319
  3853 48.8904 0.922072 -2.93232
  3854 48.0575 2.12836 1.81121
  3855 48.0556 2.12816 -1.81202
  3856 75.5325 -1.00052 -10.4175
  3857 46.1225 2.17869 -3.14222
  3858 46.1251 2.17962 3.14099
  3859 47.6108 2.19403 4.14891
  3860 47.6103 2.19378 -4.14781
  3861 45.6081 3.12093 1.73698
  3862 45.6094 3.12049 -1.73649
  3863 74.6982 -3.93616 -4.65579
  3864 74.7093 -3.93740 4.64965
  3865 154.282 7.90739 -3.93047
  3866 61.2104 -0.461142 -0.326892
  3867 61.2101 -0.461798 0.328740
  3868 46.5750 2.55330 3.21770
  3869 46.5752 2.55291 -3.21676
  3870 51.1659 0.224968 1.87332
  3871 51.1631 0.224945 -1.87281
  3872 9.61616 -0.190134 -0.000179418
  3873 9.90892 -0.747325 0.0226791
  3874 9.68077 -0.242252 -0.449681
  3875 9.62104 -0.163676 0.477724
  3876 9.41964 0.117478 -0.233249
  3877 9.39206 0.128290 0.223480
  3878 9.89274 -0.805306 -0.487570
  3879 9.36180 0.107466 -0.0151080
  3880 9.86925 -0.695597 0.534453
  3881 10.0822 -1.27833 -0.00154240
  3882 10.0327 -1.10631 0.391423
  3883 9.76036 -0.412860 -0.150115
  3884 9.74677 -0.395948 0.164408
  3885 9.67034 -0.297538 -0.701428
  3886 9.40260 0.231522 -0.443790
  3887 9.39778 0.230513 0.441516
  3888 9.58237 -0.112417 -0.227163
  3889 10.0327 -1.20126 -0.400349
  3890 9.26936 0.198098 0.107772
  3891 9.28628 0.197423 -0.120462
  3892 9.65085 -0.222044 0.708383
  3893 9.56702 -0.102867 0.228477
  3894 9.47993 0.00222303 -0.0869076
  3895 9.47508 0.00358440 0.104231
  3896 9.50197 0.0774384 -0.625247
  3897 9.45514 0.168070 0.630269
  3898 9.87541 -0.656308 -0.264955
  3899 10.1248 -1.45428 0.187475
  3900 9.85149 -0.617944 0.302028
  3901 10.1432 -1.46752 -0.269168
  3902 9.98592 -0.934635 -0.176407
  3903 9.98222 -1.04835 0.140573
  3904 9.83184 -0.779374 -0.781776
  3905 9.95126 -0.885276 0.696713
  3906 9.28521 0.352598 0.314855
  3907 9.28410 0.350881 -0.331966
  3908 9.25574 0.189202 -0.0408649
  3909 9.74733 -0.507882 0.811546
  3910 9.23573 0.289912 0.190628
  3911 9.23922 0.193231 0.0174683
  3912 9.26482 0.287422 -0.203406
  3913 9.78240 -0.497099 -0.495286
  3914 9.74026 -0.423316 0.504536
  3915 9.82008 -0.522486 0.0262707
  3916 9.53016 -0.00293654 -0.381875
  3917 9.52788 0.00760942 0.380596
  3918 9.75050 -0.411948 -0.330827
  3919 9.71336 -0.343469 0.00671504
  3920 9.69025 -0.366324 -0.849969
  3921 9.54171 -0.0172479 -0.811293
  3922 9.36807 0.102430 0.0832939
  3923 9.65219 -0.241220 -0.132576
  3924 9.64861 -0.233426 0.138390
  3925 9.37892 0.351952 -0.578812
  3926 9.40139 0.117333 -0.147179
  3927 10.0623 -1.36834 0.503341
  3928 9.98530 -1.07247 -0.701581
  3929 9.48625 0.138463 0.775032
  3930 9.65336 -0.220642 0.292372
  3931 9.94129 -0.918897 0.421833
  3932 9.35263 0.355290 0.547188
  3933 10.1619 -1.56803 0.0280262
  3934 9.81488 -0.601114 -0.605695
  3935 9.56850 -0.102789 -0.112071
  3936 10.0583 -1.18340 0.199049
  3937 9.75037 -0.365089 0.337140
  3938 9.66004 -0.238766 -0.289875
  3939 9.53179 -0.0546801 -0.00782461
  3940 9.56804 -0.141815 0.908174
  3941 9.57004 -0.120947 0.0978644
  3942 10.0179 -1.09176 -0.269383
  3943 9.29401 0.432769 -0.451504
  3944 9.48627 0.00363072 -0.194573
  3945 9.23646 0.313785 -0.150184
  3946 9.44182 0.130018 -0.359873
  3947 9.21051 0.238203 0.0446069
  3948 9.41897 0.134912 0.318098
  3949 9.21135 0.250290 -0.0656606
  3950 9.28831 0.387075 0.419774
  3951 9.60801 -0.110300 -0.637379
  3952 9.22315 0.276303 0.121436
  3953 9.45567 0.0252018 0.0149794
  3954 9.47091 0.0236811 0.178980
  3955 10.0913 -1.36049 -0.448702
  3956 9.52464 0.0122136 -0.488245
  3957 9.75624 -0.445980 0.645362
  3958 9.91294 -0.754168 0.194761
  3959 9.35594 0.160352 0.138095
  3960 9.57244 -0.0686374 0.581244
  3961 9.34031 0.132259 -0.0625256
  3962 9.99002 -1.00183 -0.0164371
  3963 9.53224 0.0191425 0.492339
  3964 9.98933 -1.09949 0.723969
  3965 9.82475 -0.705151 0.823972
  3966 9.22353 0.390655 0.249261
  3967 9.86777 -0.648203 -0.109747
  3968 9.97854 -0.991807 -0.542233
  3969 9.23314 0.377390 -0.249253
  3970 9.85283 -0.615178 0.131670
  3971 9.20570 0.204531 -0.0271662
  3972 10.1195 -1.50602 0.368358
  3973 9.59966 -0.110368 -0.902745
  3974 9.39470 0.291583 -0.715537
  3975 10.1403 -1.37879 0.0462161
  3976 9.37452 0.342350 0.734214
  3977 9.92948 -0.793306 -0.310383
  3978 9.89971 -0.737341 0.364982
  3979 9.96568 -0.990026 0.539467
  3980 10.0463 -1.30512 -0.636071
  3981 9.84457 -0.680756 0.692448
  3982 9.32624 0.143605 0.0354270
  3983 9.31264 0.264074 0.245454
  3984 9.28845 0.162844 -0.0147384
  3985 10.1813 -1.64574 0.209763
  3986 9.32098 0.251648 -0.260240
  3987 9.33765 0.185816 -0.185749
  3988 9.41515 0.0714728 -0.0709392
  3989 9.75267 -0.559732 -0.923877
  3990 9.52399 -0.00854159 -0.271033
  3991 9.91930 -0.781607 -0.138653
  3992 10.0703 -1.28030 -0.220052
  3993 10.1893 -1.65355 -0.235380
  3994 9.19229 0.369445 -0.182952
  3995 9.46344 0.238869 -0.826779
  3996 9.97822 -0.947959 -0.361382
  3997 9.50744 0.0240477 0.278020
  3998 9.50482 0.102726 0.890090
  3999 9.68358 -0.305207 0.918828
  4000 9.42811 0.0779221 0.135233
  4001 9.70276 -0.293440 -0.541017
  4002 9.87253 -0.894893 -0.849444
  4003 9.28177 0.404375 -0.538381
  4004 9.17293 0.397909 0.187253
  4005 10.0764 -1.31951 0.341901
  4006 9.80608 -0.506155 -0.225549
  4007 9.22548 0.234497 0.0332482
  4008 9.37707 0.243327 0.369958
  4009 9.17287 0.426940 -0.365734
  4010 9.94046 -0.915438 0.842294
  4011 9.38505 0.273002 -0.390298
  4012 9.79325 -0.468479 0.244239
  4013 9.21000 0.209791 -0.0329543
  4014 9.43234 0.206080 0.508565
  4015 10.0101 -1.03503 0.286116
  4016 9.81456 -0.572152 0.469343
  4017 9.65244 -0.253561 0.582698
  4018 9.21147 0.455088 0.300778
  4019 9.28308 0.185652 -0.0858741
  4020 9.31660 0.435478 0.633218
  4021 9.44049 0.198255 -0.537343
  4022 9.85771 -0.655539 -0.430922
  4023 9.95931 -0.888480 0.0891869
  4024 9.29575 0.503397 0.510689
  4025 9.60042 -0.125561 0.387241
  4026 9.87651 -0.783795 -0.650380
  4027 9.13805 0.263987 -0.0931747
  4028 10.0116 -1.16724 0.552936
  4029 9.28857 0.221692 0.153655
  4030 9.59586 -0.150648 -0.719677
  4031 9.80252 -0.535052 -0.369901
  4032 9.26838 0.199405 0.0634782
  4033 10.1608 -1.73751 -0.0886710
  4034 9.61879 -0.144972 -0.402780
  4035 9.77166 -0.482200 0.388412
  4036 10.0910 -1.33566 -0.341020
  4037 9.29082 0.229392 -0.147015
  4038 9.16279 0.276962 0.0763775
  4039 9.76462 -0.435070 -0.0424148
  4040 9.75609 -0.427252 0.0634358
  4041 10.0314 -1.12742 0.0334815
  4042 9.69644 -0.299525 -0.192179
  4043 9.71639 -0.313348 0.440969
  4044 9.66275 -0.294995 0.794735
  4045 9.45003 0.0421788 -0.145290
  4046 9.74532 -0.399024 -0.619051
  4047 9.71055 -0.333194 -0.0940302
  4048 9.70531 -0.325707 0.105308
  4049 10.0007 -1.06850 -0.395807
  4050 9.46717 0.107950 -0.443487
  4051 9.79380 -0.588795 -0.766908
  4052 9.45165 0.102508 0.441154
  4053 9.68789 -0.288658 0.201842
  4054 9.67514 -0.260818 -0.947733
  4055 9.66045 -0.261315 0.0487869
  4056 9.66216 -0.260429 -0.0419129
  4057 9.58084 -0.0389733 0.686728
  4058 9.32065 0.209838 0.192661
  4059 10.0350 -1.12285 -0.113919
  4060 9.36137 0.215591 0.293430
  4061 9.42803 0.0618364 0.0721904
  4062 9.36005 0.204795 -0.317271
  4063 9.31148 0.149189 -0.0457568
  4064 9.96414 -0.858807 -0.0431067
  4065 9.85165 -0.634812 0.00359693
  4066 10.1704 -1.55308 -0.413746
  4067 9.20806 0.470721 -0.307837
  4068 9.96566 -0.891148 0.249338
  4069 10.0006 -1.28009 0.670256
  4070 9.61605 -0.179624 -0.0813163
  4071 9.31801 0.418203 -0.629970
  4072 9.52409 0.0698343 -0.731384
  4073 9.60017 -0.145634 0.158799
  4074 9.60012 -0.114590 -0.301216
  4075 9.61744 -0.192627 0.223112
  4076 9.18874 0.440859 0.341657
  4077 9.68596 -0.299418 -0.354928
  4078 10.2424 -1.73661 0.0596024
  4079 10.1328 -1.42017 -0.0917184
  4080 9.72715 -0.416576 -0.729868
  4081 9.43974 0.322435 0.831255
  4082 9.63400 -0.226963 -0.788222
  4083 9.58249 -0.101922 0.300888
  4084 9.11939 0.212837 0.0164171
  4085 9.60320 -0.153572 -0.161168
  4086 9.73305 -0.548775 0.946352
  4087 9.62864 -0.206913 -0.219464
  4088 9.35622 0.324965 -0.510677
  4089 9.57576 -0.118557 -0.0417332
  4090 9.72370 -0.362930 -0.255994
  4091 9.56608 -0.100549 0.797379
  4092 9.66309 -0.269664 -0.646451
  4093 9.92451 -0.886322 -0.695490
  4094 9.61219 -0.185186 0.0798080
  4095 9.51647 0.102137 -0.910770
  4096 10.0850 -1.45050 -0.553934
  4097 9.32608 0.160232 0.0834682
  4098 9.14839 0.330980 0.130600
  4099 10.0007 -1.16383 -0.796053
  4100 9.91762 -0.835885 0.583434
  4101 9.72067 -0.343277 0.264296
  4102 9.74420 -0.374140 -0.422899
  4103 9.54664 -0.0716482 -0.187389
  4104 9.68016 -0.255369 0.365974
  4105 9.56700 -0.121217 0.0322019
  4106 9.40970 0.261199 -0.631774
  4107 9.52713 -0.0563195 -0.0678711
  4108 9.24207 0.236465 -0.123899
  4109 10.0686 -1.48996 0.531514
  4110 9.39521 0.335958 0.481481
  4111 9.38117 0.0793378 0.0373587
  4112 9.59653 -0.140029 -0.530057
  4113 9.81577 -0.531589 -0.0870998
  4114 9.47964 -0.0111793 -0.0410335
  4115 9.34701 0.161303 -0.112919
  4116 9.53543 -0.0632116 0.160645
  4117 9.80654 -0.743860 0.932015
  4118 9.23829 0.433827 0.550923
  4119 10.0388 -1.18872 -0.565547
  4120 9.51253 -0.0263307 -0.134784
  4121 10.0984 -1.33461 0.154001
  4122 9.52944 -0.0509322 0.0637171
  4123 10.1609 -1.59499 -0.128721
  4124 9.22418 0.237083 0.0891568
  4125 9.45320 0.122180 0.375733
  4126 9.79363 -0.488478 0.123092
  4127 9.07846 0.245895 -0.0251437
  4128 10.2251 -1.80522 -0.0264464
  4129 9.27040 0.589486 0.557135
  4130 9.30271 0.582063 -0.508876
  4131 9.23069 0.582320 0.441209
  4132 9.18212 0.487693 0.333674
  4133 9.21443 0.511596 0.284527
  4134 9.16176 0.438669 0.220848
  4135 9.12540 0.394468 0.133353
  4136 9.17019 0.327611 0.0947255
  4137 9.09255 0.305800 0.0729804
  4138 9.16930 0.251527 0.0411151
  4139 9.12899 0.228589 0.0495205
  4140 9.19451 0.203494 -0.0498630
  4141 9.20893 0.253817 -0.0357529
  4142 9.12580 0.270364 -0.0476978
  4143 9.13629 0.305935 -0.111026
  4144 9.22256 0.402373 -0.159327
  4145 9.15187 0.390249 -0.205111
  4146 9.21740 0.512955 -0.280614
  4147 9.16877 0.482352 -0.357214
  4148 9.21610 0.560901 -0.430050
  4149 9.27936 0.516966 -0.577711
  4150 9.33102 0.509035 -0.690108
  4151 9.37012 0.386839 -0.784549
  4152 9.45113 0.243634 -0.907634
  4153 9.51922 0.0105627 -0.950774
  4154 9.58828 -0.193646 -0.964790
  4155 9.63104 -0.440305 -0.998530
  4156 9.74409 -0.760349 -0.980810
  4157 9.80039 -0.953157 -0.921996
  4158 9.94791 -1.03624 -0.873859
  4159 10.0417 -1.37870 -0.712572
  4160 10.1519 -1.54465 -0.537347
  4161 10.2306 -1.66393 -0.348027
  4162 10.1739 -1.73639 -0.180141
  4163 10.3088 -1.73383 0.173909
  4164 10.1152 -1.63436 0.380132
  4165 10.0502 -1.57818 0.518068
  4166 10.0295 -1.42111 0.688962
  4167 9.97218 -1.15861 0.809238
  4168 9.89840 -0.886143 0.943468
  4169 9.72293 -0.671068 1.01423
  4170 9.66214 -0.402464 1.00087
  4171 9.57772 -0.220233 0.972639
  4172 9.47890 -0.0195158 0.961657
  4173 9.45355 0.294856 0.898354
  4174 9.35241 0.406134 0.785113
  4175 9.31516 0.498180 0.693489
  4176 9.26151 0.504368 0.584379
</Section>

newXOutput 8

<Section columns = "stress_xx | stress_yy | stress_xy">
  1 52.2379 0.0695451 -0.157649
  2 52.2383 0.0695715 0.157681
  3 69.4305 -0.0208342 0.0396978
  4 69.4301 -0.0208642 -0.0397252
  5 171.231 10.6620 2.01978
  6 216.039 2.89810 0.284697
  7 55.4446 -0.00470905 -0.180075
  8 55.4472 -0.00470238 0.180141
  9 72.3334 -0.00470010 0.136563
  10 72.3349 -0.00470935 -0.136570
  11 7.66153 -53.3656 2.20575
  12 7.86138 -53.7565 -2.42888
  13 60.4337 0.831528 -0.0843215
  14 60.4333 0.831991 0.0843076
  15 70.3631 -0.124299 0.106115
  16 52.2839 0.0852761 -0.255982
  17 52.2847 0.0852853 0.256114
  18 70.3639 -0.124313 -0.106202
  19 58.0647 2.04805 -1.31403
  20 58.0662 2.04796 1.31340
  21 55.3564 0.165336 0.101365
  22 50.3582 0.675390 0.0272014
  23 55.8342 0.0169964 -0.174149
  24 56.1596 0.0237309 -0.191166
  25 56.6648 0.0230756 -0.275753
  26 57.0855 0.0178225 -0.241866
  27 57.5600 0.0207889 -0.284026
  28 58.1762 0.00639016 -0.309573
  29 58.7155 -0.0177003 -0.268358
  30 59.3366 -0.00244192 -0.253297
  31 60.0379 -0.00971151 -0.263509
  32 60.6503 0.00679979 -0.273032
  33 61.4536 0.0329566 -0.410380
  34 62.2613 0.0401363 -0.422368
  35 63.1024 0.0375652 -0.519595
  36 64.2253 0.0122331 -0.563230
  37 65.0280 -0.0188352 -0.549721
  38 66.2861 0.00307659 -0.546760
  39 67.2147 -0.00823097 -0.561892
  40 68.7149 -0.00929975 -0.550958
  41 69.8188 0.0357868 -0.683757
  42 71.1503 0.0644691 -0.797613
  43 72.7727 -0.0558327 -0.853422
  44 74.5762 -0.0654921 -0.796707
  45 75.9793 -0.0279338 -0.780966
  46 78.0001 -0.0145337 -0.790009
  47 79.4806 -0.00709696 -1.03178
  48 81.0752 0.0381449 -1.10647
  49 83.5716 -0.128632 -0.999477
  50 85.9332 -0.133524 -0.854429
  51 87.8271 -0.104524 -0.912878
  52 90.4164 -0.111454 -0.801541
  53 92.3031 -0.0672277 -1.07875
  54 94.8183 -0.0700670 -1.01831
  55 97.0213 -0.0573508 -1.19381
  56 98.6994 -0.129889 -1.27232
  57 102.352 -0.438745 -1.02703
  58 103.096 -0.0890764 -0.934897
  59 105.600 -0.0223472 -0.740924
  60 107.334 -0.143576 -0.834724
  61 108.844 -0.179444 -0.585107
  62 110.184 -0.192535 -0.453098
  63 110.948 -0.205515 -0.252052
  64 111.470 -0.236248 -0.0181548
  65 111.493 -0.296881 0.303203
  66 110.366 -0.319658 0.579271
  67 109.911 -0.312163 0.699696
  68 108.098 -0.451401 1.00000
  69 104.920 -0.337816 1.52551
  70 101.386 -0.300453 2.00425
  71 97.7019 -0.207178 2.32953
  72 92.5932 -0.164134 2.64497
  73 87.8725 0.0242827 2.84197
  74 81.5775 0.0920568 2.83067
  75 77.1340 0.210753 2.88316
  76 70.0704 0.405147 2.38050
  77 65.4582 0.587472 2.62446
  78 60.5217 0.380670 1.72247
  79 57.9736 0.610373 2.00633
  80 52.4939 0.791136 0.974546
  81 52.3802 0.690025 0.917694
  82 51.0143 0.598036 -0.545506
  83 52.1819 0.765681 -1.17335
  84 55.1037 1.04820 -1.22092
  85 61.3837 0.502756 -2.22881
  86 65.4571 0.531551 -2.94642
  87 69.9374 0.413370 -2.63976
  88 77.2947 0.157091 -3.05593
  89 82.3271 -0.0715252 -3.17358
  90 87.5107 0.0434778 -2.49534
  91 92.7441 -0.0441665 -2.50239
  92 97.7255 -0.194869 -2.25517
  93 101.421 -0.283202 -1.97238
  94 104.925 -0.332045 -1.51383
  95 108.088 -0.449671 -0.994897
  96 109.894 -0.311169 -0.697236
  97 110.346 -0.318472 -0.578139
  98 111.473 -0.296175 -0.303383
  99 111.451 -0.235796 0.0170898
  100 110.932 -0.205282 0.250576
  101 110.172 -0.192437 0.451491
  102 108.835 -0.179454 0.583555
  103 107.327 -0.143648 0.833276
  104 105.596 -0.0224973 0.739740
  105 103.095 -0.0892464 0.933870
  106 102.352 -0.438792 1.02620
  107 98.7014 -0.129904 1.27153
  108 97.0247 -0.0574370 1.19326
  109 94.8227 -0.0701429 1.01792
  110 92.3083 -0.0672989 1.07847
  111 90.4222 -0.111506 0.801320
  112 87.8334 -0.104564 0.912732
  113 85.9398 -0.133564 0.854287
  114 83.5783 -0.128673 0.999366
  115 81.0820 0.0381105 1.10643
  116 79.4876 -0.00715145 1.03180
  117 78.0071 -0.0145673 0.790026
  118 75.9862 -0.0279563 0.781022
  119 74.5830 -0.0655382 0.796752
  120 72.7792 -0.0558596 0.853510
  121 71.1567 0.0644699 0.797730
  122 69.8251 0.0357669 0.683879
  123 68.7210 -0.00931907 0.551042
  124 67.2205 -0.00824309 0.561999
  125 66.2917 0.00306223 0.546856
  126 65.0333 -0.0188508 0.549845
  127 64.2304 0.0122235 0.563351
  128 63.1073 0.0375625 0.519731
  129 62.2661 0.0401375 0.422489
  130 61.4581 0.0329589 0.410493
  131 60.6546 0.00679119 0.273113
  132 60.0420 -0.00972258 0.263581
  133 59.3406 -0.00245069 0.253368
  134 58.7193 -0.0177115 0.268436
  135 58.1798 0.00638425 0.309665
  136 57.5634 0.0207891 0.284124
  137 57.0888 0.0178236 0.241956
  138 56.6679 0.0230822 0.275853
  139 56.1625 0.0237288 0.191238
  140 55.8370 0.0169914 0.174208
  141 53.8884 0.260186 0.238685
  142 56.0490 0.497659 0.195394
  143 57.9728 0.782982 0.170556
  144 62.8017 0.624859 -0.0264247
  145 65.2558 0.410426 -0.0264467
  146 67.6369 0.147074 0.0185720
  147 72.8040 -0.0340073 -0.101068
  148 72.9620 -0.0420237 -0.159373
  149 73.2570 -0.0554906 -0.0801190
  150 73.4272 -0.0483549 -0.140794
  151 73.5086 -0.0579762 -0.0545372
  152 73.6871 -0.0255312 -0.0264572
  153 73.5369 -0.0995170 -0.0142754
  154 73.3333 -0.0715628 0.153211
  155 73.2230 -0.0877026 0.216273
  156 72.7690 -0.104656 0.242439
  157 71.9109 -0.0876422 0.401061
  158 71.0884 -0.0660242 0.477740
  159 69.8371 -0.0885221 0.617276
  160 68.5066 -0.0278498 0.840812
  161 66.8471 -0.0136441 0.654324
  162 65.3815 -0.00203680 0.710045
  163 63.3515 0.0413323 0.698017
  164 61.7611 0.0684871 0.854933
  165 59.8728 0.0947748 0.745672
  166 58.2972 0.111561 0.683990
  167 56.8109 0.175979 0.507592
  168 55.6385 0.158094 0.319977
  169 55.6173 0.0988298 0.315301
  170 55.1960 0.310570 -0.316281
  171 55.6014 0.226193 -0.352233
  172 57.1186 0.181296 -0.592068
  173 58.4710 0.190636 -0.924964
  174 59.7061 0.0665336 -0.770064
  175 61.7396 0.0685993 -0.844975
  176 63.3520 0.0471459 -0.703253
  177 65.3969 -0.00533900 -0.714622
  178 66.8643 -0.0149326 -0.654367
  179 68.5204 -0.0282511 -0.838998
  180 69.8483 -0.0884579 -0.615878
  181 71.0967 -0.0659581 -0.476528
  182 71.9171 -0.0875624 -0.400079
  183 72.7732 -0.104587 -0.241596
  184 73.2260 -0.0876618 -0.215665
  185 73.3350 -0.0715452 -0.152657
  186 73.5375 -0.0994567 0.0147421
  187 73.6871 -0.0254684 0.0267730
  188 73.5080 -0.0579220 0.0547787
  189 73.4261 -0.0483030 0.140939
  190 73.2558 -0.0554456 0.0802311
  191 72.9605 -0.0419866 0.159414
  192 72.8025 -0.0339789 0.101095
  193 67.6366 0.146984 -0.0186056
  194 65.2558 0.410175 0.0264039
  195 62.8020 0.624474 0.0263898
  196 57.9731 0.782556 -0.170520
  197 56.0490 0.497381 -0.195340
  198 53.8882 0.260065 -0.238633
  199 51.7728 0.233387 -0.237940
  200 52.4697 0.0570493 -0.287546
  201 53.0849 0.0344940 -0.271347
  202 53.6064 0.0277420 -0.232560
  203 54.2334 0.00353752 -0.268278
  204 54.6206 -0.00211982 -0.231117
  205 54.9504 -0.00133793 -0.168741
  206 55.5925 0.0170868 -0.391385
  207 55.6565 0.0522557 -0.687021
  208 55.8412 0.128123 -1.07043
  209 55.9295 0.216059 -1.39354
  210 55.9755 0.330759 -1.73601
  211 55.8841 0.488697 -1.97765
  212 55.8884 0.649049 -2.25855
  213 55.7621 0.855849 -2.47745
  214 55.6100 1.06410 -2.64914
  215 55.4443 1.29961 -2.78346
  216 55.2383 1.54090 -2.82686
  217 55.0794 1.75041 -2.82167
  218 54.8811 2.02144 -2.79001
  219 54.7026 2.24843 -2.64568
  220 54.5502 2.45801 -2.47647
  221 54.4796 2.65319 -2.21946
  222 54.4380 2.77000 -1.90607
  223 54.4902 2.92171 -1.54439
  224 54.5934 2.96744 -1.13249
  225 54.9376 2.90175 -0.673399
  226 55.3465 2.84423 -0.247914
  227 55.8156 2.70936 0.190109
  228 56.4477 2.55019 0.610703
  229 57.1337 2.27001 1.00132
  230 58.9712 1.68557 1.58771
  231 59.9815 1.40903 1.77123
  232 60.9488 1.13819 1.87628
  233 62.0106 0.894791 1.87818
  234 62.9231 0.634581 1.87461
  235 63.9808 0.451857 1.80248
  236 64.9102 0.287280 1.69428
  237 65.7985 0.192119 1.57176
  238 66.7656 0.114659 1.39924
  239 67.5874 0.0711322 1.22208
  240 68.4483 0.00681097 1.06156
  241 69.3005 0.0449479 0.882101
  242 70.1496 0.0155215 0.696513
  243 70.9575 0.00866087 0.499830
  244 71.7276 0.0249973 0.280744
  245 72.0818 -0.0288327 0.105205
  246 71.5925 -0.0363394 0.122390
  247 70.9688 -0.0686033 0.185829
  248 69.5061 -0.0338583 0.163620
  249 71.7289 0.0249722 -0.280745
  250 70.9586 0.00856676 -0.499823
  251 70.1505 0.0153268 -0.696502
  252 69.3013 0.0446487 -0.882108
  253 68.4489 0.00637307 -1.06163
  254 67.5880 0.0706044 -1.22222
  255 66.7661 0.114010 -1.39950
  256 65.7989 0.191403 -1.57217
  257 64.9104 0.286553 -1.69483
  258 63.9808 0.451147 -1.80317
  259 62.9228 0.633954 -1.87542
  260 62.0101 0.894294 -1.87904
  261 60.9480 1.13780 -1.87719
  262 59.9804 1.40879 -1.77209
  263 58.9699 1.68549 -1.58849
  264 57.1321 2.27021 -1.00181
  265 56.4460 2.55050 -0.611008
  266 55.8139 2.70975 -0.190237
  267 55.3449 2.84469 0.247965
  268 54.9361 2.90225 0.673608
  269 54.5920 2.96796 1.13286
  270 54.4890 2.92225 1.54491
  271 54.4370 2.77053 1.90671
  272 54.4788 2.65371 2.22021
  273 54.5497 2.45850 2.47731
  274 54.7024 2.24889 2.64658
  275 54.8811 2.02186 2.79095
  276 55.0797 1.75077 2.82263
  277 55.2388 1.54122 2.82782
  278 55.4450 1.29988 2.78440
  279 55.6110 1.06432 2.65005
  280 55.7633 0.856033 2.47830
  281 55.8899 0.649185 2.25933
  282 55.8858 0.488808 1.97835
  283 55.9774 0.330833 1.73662
  284 55.9316 0.216112 1.39404
  285 55.8434 0.128158 1.07082
  286 55.6589 0.0522665 0.687274
  287 55.5950 0.0170885 0.391532
  288 54.9528 -0.00135027 0.168802
  289 54.6229 -0.00214008 0.231193
  290 54.2354 0.00352337 0.268375
  291 53.6082 0.0277364 0.232667
  292 53.0864 0.0344930 0.271464
  293 52.4708 0.0570424 0.287656
  294 51.7733 0.233402 0.238008
  295 69.5066 -0.0338471 -0.163701
  296 70.9699 -0.0686301 -0.185917
  297 71.5939 -0.0363563 -0.122437
  298 72.0833 -0.0288505 -0.105227
  299 10.4318 -47.9985 -1.14794
  300 12.9836 -34.7258 -1.84234
  301 21.3503 -14.9828 5.18455
  302 35.0043 -0.815931 12.5812
  303 60.5906 12.6240 24.8855
  304 86.9327 19.9330 34.4169
  305 116.178 19.9587 35.6523
  306 145.912 17.1594 31.3555
  307 164.816 12.8430 17.9685
  308 160.550 14.5155 -16.1043
  309 144.406 16.4441 -32.6238
  310 115.808 20.6101 -36.7903
  311 84.4607 19.7006 -33.0752
  312 58.5844 15.6140 -27.3212
  313 35.6747 2.11261 -14.0340
  314 23.4317 -13.2406 -6.98347
  315 13.4897 -36.5065 2.50056
  316 11.4664 -49.9733 1.21669
  317 8.13276 -58.5714 -8.41393
  318 7.89954 -48.5635 -9.74726
  319 9.60539 -37.2812 -9.34711
  320 16.2465 -21.1317 -2.84059
  321 26.4868 -8.01699 3.87930
  322 42.5028 3.98900 12.4897
  323 65.5318 8.68764 21.7130
  324 89.0783 14.9271 31.5126
  325 110.996 14.6910 35.5130
  326 136.094 14.2980 38.1097
  327 159.639 12.3629 33.2990
  328 186.892 7.98042 31.5703
  329 200.257 6.22998 20.6199
  330 211.020 2.87283 9.86767
  331 214.581 3.52593 -11.7358
  332 201.707 5.20144 -21.6080
  333 185.770 8.74019 -28.5663
  334 165.766 12.2617 -35.1838
  335 139.449 13.8520 -36.6973
  336 116.037 15.8071 -37.1109
  337 87.2335 13.9623 -30.2988
  338 63.3510 9.51607 -21.1639
  339 39.2356 4.23154 -12.0303
  340 26.7065 -8.17817 -3.35513
  341 16.4810 -21.0570 2.80279
  342 9.64805 -37.2655 9.28607
  343 7.89072 -48.6425 9.68623
  344 8.11749 -58.8639 8.27842
  345 55.0619 0.793079 -1.16772
  346 58.2718 1.33387 -0.106040
  347 63.8373 0.682489 0.672181
  348 54.6609 0.282394 -1.26297
  349 56.0396 1.59082 -1.00303
  350 66.9153 0.301670 0.806483
  351 55.0529 1.02604 -1.82901
  352 60.4467 1.33037 0.714668
  353 57.5069 2.00913 0.0714551
  354 55.2355 1.84418 -1.69408
  355 54.9172 0.0998525 -0.887764
  356 64.4254 0.667330 1.15523
  357 55.2422 0.498666 -1.73742
  358 55.2111 0.853451 -2.09858
  359 55.4636 2.20092 -1.20723
  360 69.0559 0.119270 0.673672
  361 61.7050 1.11830 1.23095
  362 56.4587 0.967669 -0.576171
  363 66.6406 0.297964 1.10374
  364 55.0329 1.73536 -2.17542
  365 59.0576 1.74385 0.859183
  366 54.0429 0.216320 -0.845229
  367 66.5449 0.285939 0.386053
  368 60.4934 1.12731 0.263348
  369 63.2902 0.724401 1.49612
  370 55.7962 2.49349 -0.593017
  371 56.8938 2.32295 0.148919
  372 54.5765 0.348373 -0.443050
  373 65.2536 0.438414 1.42826
  374 55.1459 1.35358 -2.39180
  375 54.9481 2.33634 -1.79181
  376 55.1887 0.0295005 -0.546890
  377 70.5596 0.0324001 0.462082
  378 54.2203 0.101806 -0.832126
  379 54.6742 0.540214 -1.35060
  380 55.3982 0.228372 -1.32906
  381 58.8676 0.877966 -0.0434254
  382 55.2699 1.20482 -1.44687
  383 62.3642 0.964016 0.878101
  384 68.7967 0.104959 0.875294
  385 69.2652 0.0731236 0.501547
  386 55.4055 0.807409 -2.21391
  387 62.9565 0.702503 0.314529
  388 55.9497 1.23239 -0.961335
  389 60.5258 1.34350 1.41931
  390 58.0910 1.99544 0.753767
  391 53.6938 0.120459 -0.714549
  392 58.8505 1.53063 0.204312
  393 53.2497 0.118779 -0.306066
  394 65.2793 0.525311 0.865618
  395 56.4427 2.02812 -0.630910
  396 57.3302 1.56569 -0.389201
  397 54.9433 0.752874 -1.71689
  398 55.2856 0.117782 -0.986511
  399 54.8781 2.04525 -2.27335
  400 55.1563 2.55416 -1.25365
  401 66.9430 0.190943 1.24923
  402 55.4872 0.498145 -1.88634
  403 67.7881 0.218410 0.469520
  404 56.8863 0.731976 -0.238755
  405 56.6382 1.36866 -0.691316
  406 55.1451 1.32113 -1.83291
  407 54.7242 0.0180833 -0.434173
  408 62.4600 0.865072 1.61933
  409 55.2439 1.28422 -2.56712
  410 55.5952 1.41785 -1.27608
  411 56.0065 2.55841 -0.168704
  412 69.8207 0.0555523 0.651761
  413 58.7409 1.84243 1.14764
  414 70.1503 0.0728721 0.399042
  415 64.3563 0.514295 1.54138
  416 55.0362 1.67597 -2.51057
  417 54.7826 0.248995 -1.19733
  418 55.3543 0.656210 -0.581165
  419 60.4500 1.38826 1.06203
  420 54.2797 0.0386476 -0.496317
  421 58.3444 1.87540 0.455213
  422 54.9831 0.587032 -1.68188
  423 65.8120 0.455136 1.05746
  424 57.9294 1.04343 -0.213058
  425 62.9859 0.908192 1.19776
  426 65.1037 0.453390 0.593608
  427 61.3932 1.13314 0.618493
  428 54.4650 0.424150 -0.746819
  429 54.7682 2.59447 -1.61021
  430 55.7008 0.384315 -1.72025
  431 55.1410 2.66941 -0.929774
  432 60.8474 0.906970 0.170161
  433 67.9557 0.198468 0.948287
  434 54.7362 2.33355 -2.17596
  435 55.5451 1.81600 -1.34830
  436 66.0376 0.300680 1.39923
  437 67.9913 0.107914 1.07370
  438 54.2559 0.275959 -1.04053
  439 55.6280 0.690449 -2.18926
  440 55.3923 1.05679 -2.44612
  441 52.9623 0.0307332 -0.449530
  442 59.7518 1.52780 1.44981
  443 61.3468 1.12639 1.61481
  444 55.1480 1.52906 -2.62548
  445 56.5301 2.23073 -0.333228
  446 63.4096 0.648841 1.66087
  447 54.8705 1.97334 -2.48558
  448 55.4029 2.70284 -0.530318
  449 54.9876 0.870436 -1.50188
  450 63.7142 0.779245 0.923124
  451 64.8423 0.473400 0.358083
  452 54.6587 2.53744 -1.94379
  453 57.1490 2.24890 0.581512
  454 65.2893 0.339250 1.52697
  455 68.1505 0.141683 0.233245
  456 59.3439 1.24829 0.139382
  457 61.4369 1.15118 1.00347
  458 55.7373 0.595172 -0.403518
  459 71.2033 0.0190843 0.373283
  460 59.3183 1.60130 0.591151
  461 56.4171 2.49424 0.250328
  462 55.0619 0.281041 -1.32926
  463 55.0088 1.98023 -1.96261
  464 55.1162 2.34357 -1.49678
  465 66.6414 0.328693 0.644364
  466 55.1377 1.07696 -2.10780
  467 55.0889 1.35312 -2.16289
  468 54.6706 0.501972 -1.09217
  469 68.3006 0.164555 0.708950
  470 66.0659 0.350728 1.31127
  471 59.2875 1.10359 0.00671907
  472 62.2539 0.875355 0.483592
  473 65.3250 0.470675 1.27511
  474 55.4750 0.0773061 -0.861313
  475 55.9955 1.94199 -0.959167
  476 55.5026 2.43902 -0.943850
  477 53.0875 0.147937 -0.245970
  478 57.7823 2.08744 0.950098
  479 67.6029 0.182694 1.07186
  480 55.7468 0.256823 -1.47529
  481 55.0041 0.430837 -0.165889
  482 54.1763 0.205648 -0.980463
  483 55.4121 0.645563 -2.03727
  484 64.2692 0.611727 1.32403
  485 55.6352 0.178045 -1.18478
  486 70.4000 0.0250764 0.610673
  487 59.7252 1.61252 1.19854
  488 69.1848 0.0546449 0.279330
  489 68.7976 0.0737851 0.966016
  490 55.2486 0.00707896 -0.308508
  491 53.6530 0.0375260 -0.532330
  492 63.7920 0.628238 0.534090
  493 66.5112 0.275441 0.172177
  494 67.1386 0.294224 0.915378
  495 55.2689 0.724343 -1.99913
  496 55.3500 1.57078 -1.59280
  497 55.3816 0.368509 -1.60465
  498 55.5726 0.897745 -2.39643
  499 57.0382 1.89844 -0.340292
  500 57.8896 1.70110 -0.0510240
  501 55.1562 0.0537052 -0.725448
  502 59.9280 1.36068 0.416699
  503 55.2369 2.12051 -1.57638
  504 71.4700 -0.0127333 0.206347
  505 55.1510 1.66948 -1.85912
  506 57.3699 1.19231 -0.417976
  507 55.4879 0.831488 -0.903239
  508 62.3936 0.977611 1.41635
  509 57.5862 2.10420 0.399299
  510 60.4818 1.30717 1.62174
  511 54.6316 0.126486 -0.940132
  512 54.9533 0.381822 -1.44966
  513 69.4859 0.0710536 0.785819
  514 53.3311 0.0616810 -0.513747
  515 63.9485 0.554836 0.195381
  516 54.9157 0.00887944 -0.266744
  517 55.2262 1.09163 -2.33560
  518 53.6751 0.0271817 -0.389392
  519 68.6594 0.0799106 0.0994153
  520 52.2695 0.178550 -0.263610
  521 55.9549 2.24146 -0.763900
  522 54.6808 0.420274 -1.36769
  523 62.7412 0.903145 0.752752
  524 71.1211 -0.00194962 0.185578
  525 71.8802 0.0222926 0.186012
  526 54.7997 2.74759 -1.29706
  527 55.4726 1.08497 -1.15390
  528 69.7640 0.0428738 0.648658
  529 70.1460 0.0173262 0.179239
  530 68.0689 0.175285 0.552288
  531 58.3430 1.76844 0.255715
  532 69.2723 0.112949 0.600737
  533 56.5920 1.76800 -0.668507
  534 54.7156 2.19932 -2.42584
  535 54.9233 0.819638 -1.63237
  536 62.0294 0.748107 0.0969895
  537 55.7390 0.538038 -2.00984
  538 64.8311 0.629649 0.995371
  539 61.4583 1.12174 1.40994
  540 53.0612 0.0333783 -0.366825
  541 55.0620 0.793358 1.16825
  542 58.2711 1.33437 0.106103
  543 63.8370 0.682728 -0.672500
  544 54.6621 0.282481 1.26350
  545 56.0390 1.59131 1.00347
  546 66.9156 0.301680 -0.806830
  547 55.0532 1.02633 1.82975
  548 60.4460 1.33070 -0.715005
  549 57.5058 2.00961 -0.0715067
  550 55.2351 1.84465 1.69475
  551 54.9191 0.0998806 0.888119
  552 64.4253 0.667294 -1.15570
  553 55.2436 0.498791 1.73808
  554 55.2119 0.853665 2.09937
  555 55.4627 2.20145 1.20769
  556 69.0566 0.119208 -0.673894
  557 61.7043 1.11833 -1.23152
  558 56.4585 0.968078 0.576463
  559 66.6409 0.297781 -1.10410
  560 55.0329 1.73577 2.17623
  561 59.0564 1.74411 -0.859607
  562 54.0437 0.216410 0.845621
  563 66.5450 0.286085 -0.386269
  564 60.4928 1.12777 -0.263483
  565 63.2899 0.724133 -1.49675
  566 55.7949 2.49401 0.593235
  567 56.8925 2.32340 -0.149006
  568 54.5768 0.348539 0.443306
  569 65.2537 0.438052 -1.42875
  570 55.1464 1.35390 2.39268
  571 54.9474 2.33685 1.79248
  572 55.1910 0.0295105 0.547096
  573 70.5606 0.0323590 -0.462194
  574 54.2218 0.101843 0.832486
  575 54.6748 0.540396 1.35118
  576 55.4000 0.228425 1.32957
  577 58.8672 0.878439 0.0434699
  578 55.2699 1.20518 1.44750
  579 62.3637 0.964219 -0.878510
  580 68.7974 0.104779 -0.875485
  581 69.2659 0.0731154 -0.501769
  582 55.4065 0.807593 2.21473
  583 62.9562 0.702873 -0.314672
  584 55.9494 1.23281 0.961781
  585 60.5249 1.34346 -1.41999
  586 58.0897 1.99574 -0.754132
  587 53.6949 0.120505 0.714871
  588 58.8496 1.53110 -0.204404
  589 53.2503 0.118840 0.306267
  590 65.2793 0.525412 -0.865996
  591 56.4417 2.02866 0.631167
  592 57.3294 1.56620 0.389383
  593 54.9440 0.753080 1.71759
  594 55.2876 0.117807 0.986893
  595 54.8778 2.04570 2.27417
  596 55.1552 2.55471 1.25412
  597 66.9434 0.190546 -1.24953
  598 55.4886 0.498260 1.88704
  599 67.7885 0.218486 -0.469758
  600 56.8861 0.732360 0.238883
  601 56.6377 1.36915 0.691638
  602 55.1452 1.32149 1.83364
  603 54.7264 0.0180851 0.434342
  604 62.4596 0.864747 -1.62006
  605 55.2445 1.28451 2.56802
  606 55.5949 1.41829 1.27663
  607 56.0051 2.55889 0.168732
  608 69.8216 0.0554454 -0.651882
  609 58.7396 1.84257 -1.14820
  610 70.1512 0.0728553 -0.399193
  611 64.3563 0.513842 -1.54197
  612 55.0363 1.67635 2.51146
  613 54.7840 0.249072 1.19781
  614 55.3544 0.656492 0.581516
  615 60.4492 1.38842 -1.06254
  616 54.2815 0.0386605 0.496517
  617 58.3433 1.87580 -0.455444
  618 54.9842 0.587181 1.68256
  619 65.8121 0.455092 -1.05788
  620 57.9290 1.04391 0.213197
  621 62.9855 0.908201 -1.19828
  622 65.1036 0.453578 -0.593895
  623 61.3926 1.13349 -0.618785
  624 54.4654 0.424323 0.747214
  625 54.7673 2.59500 1.61078
  626 55.7025 0.384411 1.72087
  627 55.1397 2.66993 0.930098
  628 60.8470 0.907427 -0.170229
  629 67.9562 0.198333 -0.948582
  630 54.7357 2.33405 2.17673
  631 55.5445 1.81650 1.34885
  632 66.0379 0.300207 -1.39962
  633 67.9919 0.107568 -1.07389
  634 54.2569 0.276055 1.04100
  635 55.6293 0.690607 2.19004
  636 55.3932 1.05703 2.44699
  637 52.9633 0.0307508 0.449739
  638 59.7507 1.52776 -1.45052
  639 61.3460 1.12614 -1.61558
  640 55.1484 1.52939 2.62640
  641 56.5289 2.23125 0.333346
  642 63.4094 0.648370 -1.66156
  643 54.8704 1.97377 2.48645
  644 55.4015 2.70334 0.530486
  645 54.9879 0.870709 1.50253
  646 63.7140 0.779373 -0.923544
  647 64.8423 0.473656 -0.358266
  648 54.6579 2.53796 1.94448
  649 57.1475 2.24924 -0.581807
  650 65.2895 0.338706 -1.52746
  651 68.1509 0.141755 -0.233389
  652 59.3432 1.24877 -0.139448
  653 61.4362 1.15136 -1.00393
  654 55.7373 0.595465 0.403764
  655 71.2045 0.0190434 -0.373327
  656 59.3174 1.60167 -0.591425
  657 56.4155 2.49465 -0.250482
  658 55.0635 0.281112 1.32978
  659 55.0083 1.98071 1.96334
  660 55.1153 2.34410 1.49733
  661 66.6416 0.328787 -0.644671
  662 55.1382 1.07722 2.10861
  663 55.0891 1.35346 2.16371
  664 54.6711 0.502162 1.09269
  665 68.3011 0.164520 -0.709234
  666 66.0661 0.350420 -1.31168
  667 59.2870 1.10408 -0.00671487
  668 62.2535 0.875720 -0.483817
  669 65.3251 0.470491 -1.27557
  670 55.4772 0.0773234 0.861638
  671 55.9947 1.94251 0.959559
  672 55.5015 2.43957 0.944201
  673 53.0879 0.148011 0.246072
  674 57.7809 2.08766 -0.950567
  675 67.6034 0.182447 -1.07214
  676 55.7487 0.256883 1.47583
  677 55.0043 0.431053 0.166025
  678 54.1775 0.205711 0.980891
  679 55.4134 0.645721 2.03802
  680 64.2691 0.611533 -1.32456
  681 55.6373 0.178088 1.18522
  682 70.4010 0.0249655 -0.610738
  683 59.7242 1.61264 -1.19912
  684 69.1854 0.0546683 -0.279488
  685 68.7983 0.0734936 -0.966131
  686 55.2510 0.00708696 0.308628
  687 53.6543 0.0375531 0.532564
  688 63.7917 0.628530 -0.534334
  689 66.5113 0.275611 -0.172281
  690 67.1390 0.294156 -0.915726
  691 55.2700 0.724515 1.99988
  692 55.3497 1.57121 1.59346
  693 55.3832 0.368601 1.60525
  694 55.5737 0.897944 2.39727
  695 57.0372 1.89896 0.340433
  696 57.8887 1.70160 0.0510489
  697 55.1583 0.0537286 0.725723
  698 59.9272 1.36110 -0.416897
  699 55.2362 2.12102 1.57699
  700 71.4713 -0.0127518 -0.206400
  701 55.1508 1.66991 1.85985
  702 57.3693 1.19280 0.418181
  703 55.4879 0.831815 0.903679
  704 62.3931 0.977494 -1.41698
  705 57.5849 2.10460 -0.399502
  706 60.4808 1.30698 -1.62253
  707 54.6332 0.126519 0.940522
  708 54.9546 0.381919 1.45024
  709 69.4867 0.0708692 -0.785902
  710 53.3319 0.0617344 0.514002
  711 63.9483 0.555155 -0.195465
  712 54.9180 0.00887751 0.266844
  713 55.2268 1.09188 2.33645
  714 53.6767 0.0271959 0.389556
  715 68.6597 0.0799627 -0.0994756
  716 52.2700 0.178571 0.263712
  717 55.9538 2.24200 0.764201
  718 54.6818 0.420401 1.36825
  719 62.7408 0.903417 -0.753090
  720 71.1223 -0.00196383 -0.185649
  721 71.8816 0.0222895 -0.186039
  722 54.7985 2.74812 1.29751
  723 55.4725 1.08534 1.15443
  724 69.7649 0.0427906 -0.648832
  725 70.1469 0.0173311 -0.179355
  726 68.0694 0.175315 -0.552558
  727 58.3420 1.76891 -0.255839
  728 69.2730 0.112928 -0.600973
  729 56.5912 1.76852 0.668803
  730 54.7152 2.19978 2.42668
  731 54.9238 0.819876 1.63305
  732 62.0290 0.748526 -0.0970450
  733 55.7405 0.538155 2.01056
  734 64.8310 0.629701 -0.995806
  735 61.4576 1.12164 -1.41060
  736 53.0625 0.0333852 0.366992
  737 43.1574 6.49639 2.85469
  738 43.1629 6.49509 -2.85401
  739 65.7455 -5.44476 5.99100
  740 65.7628 -5.47122 -5.98436
  741 55.6319 2.95055 5.88025
  742 55.6312 2.95033 -5.87882
  743 49.4566 0.403329 -13.6265
  744 49.4637 0.398188 13.6290
  745 76.2591 0.316272 6.18072
  746 76.2649 1.10080 -6.24517
  747 59.1123 2.89677 -9.35192
  748 59.1150 2.89595 9.35339
  749 74.0633 -8.91233 9.11155
  750 74.0404 -8.90865 -9.10121
  751 53.8214 2.32504 -4.24519
  752 53.8246 2.32650 4.24360
  753 68.8677 -1.69727 0.839599
  754 68.8701 -1.69981 -0.837927
  755 46.3670 -3.56666 13.8399
  756 46.3571 -3.56173 -13.8361
  757 51.1402 4.69606 2.40456
  758 51.1423 4.69559 -2.40403
  759 57.8346 0.878239 -3.35702
  760 57.8368 0.878362 3.35797
  761 69.4855 5.67051 -0.177099
  762 71.5653 -2.75759 2.96099
  763 71.5627 -2.75619 -2.95757
  764 68.5630 1.02279 -11.0409
  765 68.5686 1.02056 11.0403
  766 61.7864 1.32946 5.84223
  767 61.7832 1.32954 -5.84113
  768 77.0112 -10.6361 -5.57305
  769 76.7138 -10.8705 5.92675
  770 97.5177 -7.15660 4.55786
  771 97.5095 -7.11595 -4.56486
  772 77.9708 -1.49811 -9.86658
  773 77.9786 -1.50113 9.86346
  774 62.3575 -0.689943 3.60176
  775 62.3577 -0.692513 -3.60381
  776 84.3950 15.6643 2.11314
  777 28.1332 2.82196 -0.512216
  778 28.1533 2.81734 0.517374
  779 109.197 3.65090 -8.92289
  780 108.227 3.52479 9.17779
  781 110.179 9.46517 1.18526
  782 69.2162 1.05275 -7.69423
  783 69.2210 1.05209 7.69452
  784 53.9121 3.21202 -3.87064
  785 53.9116 3.21249 3.87174
  786 88.7537 4.83283 -4.13255
  787 60.3703 0.590378 3.48689
  788 60.3672 0.590343 -3.48605
  789 67.6218 1.61865 -4.26650
  790 67.6957 1.66576 4.34259
  791 51.1098 5.05382 6.95419
  792 51.1107 5.05364 -6.95242
  793 46.6377 5.04458 9.75752
  794 46.6381 5.04606 -9.75386
  795 74.2692 -6.51439 -0.321225
  796 74.2660 -6.52381 0.320915
  797 93.0913 -5.28915 -0.362889
  798 93.0951 -5.27502 0.352362
  799 45.4315 3.79593 -5.32293
  800 45.4356 3.79722 5.31853
  801 36.3555 -9.60647 -13.0376
  802 36.3806 -9.61241 13.0363
  803 90.4662 3.02833 2.47108
  804 53.2678 3.67327 -0.809459
  805 53.2703 3.67318 0.809050
  806 70.0664 -0.396822 -0.615806
  807 70.0656 -0.395992 0.616733
  808 70.8033 -1.14107 1.12317
  809 70.8031 -1.13968 -1.12003
  810 69.2473 -0.678409 4.46389
  811 69.2528 -0.685061 -4.46277
  812 69.9231 -3.99085 0.868403
  813 69.9291 -3.99484 -0.865451
  814 68.0018 0.663384 5.15158
  815 67.9970 0.663562 -5.15101
  816 92.4979 -2.14922 -4.53627
  817 92.5023 -2.15030 4.52930
  818 56.3989 -1.56171 -8.05585
  819 56.4046 -1.55704 8.05281
  820 57.4518 0.277114 -1.80515
  821 57.4544 0.277165 1.80572
  822 65.9626 -0.746535 2.03588
  823 65.9639 -0.748657 -2.03620
  824 55.7515 1.81299 3.75959
  825 55.7506 1.81270 -3.75847
  826 54.5579 -12.6761 -18.0281
  827 53.1623 -12.4699 18.1974
  828 76.3982 9.80957 -3.77676
  829 57.8565 1.48864 3.02955
  830 57.8545 1.48784 -3.03103
  831 81.6741 -0.0262874 -7.34123
  832 81.6793 -0.0274150 7.33926
  833 63.5245 -7.76341 -10.5442
  834 63.4119 -7.75720 10.5348
  835 47.5651 5.33918 -0.217665
  836 47.5688 5.33904 0.216838
  837 95.7286 -1.31867 -10.8080
  838 95.7534 -1.11275 10.7643
  839 25.7665 -8.60666 13.8005
  840 25.7720 -8.57838 -13.8891
  841 91.8455 5.03429 -5.67609
  842 71.7420 -12.5564 -8.42853
  843 71.7601 -12.4450 8.71567
  844 51.9975 4.48507 4.80400
  845 51.9985 4.48460 -4.80280
  846 56.7220 3.22325 7.59766
  847 56.7206 3.22337 -7.59609
  848 74.5845 7.87473 4.12392
  849 58.9914 0.262091 -2.07711
  850 58.9945 0.262129 2.07770
  851 76.8572 0.379608 6.49707
  852 76.8518 0.380222 -6.49761
  853 62.0918 -4.34092 -13.5408
  854 62.1000 -4.34158 13.5407
  855 131.915 10.9924 -1.85459
  856 16.4509 -9.36876 -2.17203
  857 16.4390 -9.37935 2.20707
  858 64.0461 0.371523 3.15129
  859 64.0418 0.371522 -3.15067
  860 53.2094 3.63642 2.41018
  861 53.2108 3.63589 -2.40948
  862 63.6909 1.93724 -1.17319
  863 56.9330 3.04790 11.5732
  864 56.9293 3.05019 -11.5715
  865 98.1647 -2.97795 -6.69485
  866 98.1919 -3.00464 6.71970
  867 66.4731 -2.37054 2.60606
  868 66.4765 -2.37467 -2.60647
  869 74.3076 -3.08742 -4.53130
  870 74.3066 -3.09381 4.53924
  871 70.2393 -0.879487 2.43575
  872 70.2412 -0.878664 -2.43179
  873 87.0958 3.50139 6.99405
  874 36.5551 3.83245 8.46052
  875 36.5581 3.83471 -8.45268
  876 37.8884 5.09554 -3.01741
  877 37.8991 5.09245 3.01410
  878 83.8160 -7.18885 8.44405
  879 57.8603 1.61499 4.75211
  880 57.8585 1.61483 -4.75092
  881 100.076 19.2355 -0.956231
  882 58.8603 -0.337411 5.20923
  883 58.8579 -0.339983 -5.21189
  884 109.144 -0.872839 0.278317
  885 109.112 -0.748488 -0.428821
  886 79.3586 -5.14520 -2.95116
  887 79.1466 -4.88831 3.17034
  888 133.931 10.2058 1.04218
  889 64.3192 -0.263184 12.8399
  890 64.3118 -0.259746 -12.8406
  891 79.8941 -8.27127 -11.1185
  892 71.2325 -0.518566 0.123132
  893 71.2325 -0.517807 -0.121346
  894 91.9443 -0.876586 -5.52762
  895 91.9472 -0.878078 5.52305
  896 56.6416 0.724421 -2.71126
  897 56.6433 0.724554 2.71211
  898 48.2054 5.79862 -3.71209
  899 48.2026 5.79926 3.71286
  900 63.1922 1.58403 1.60393
  901 104.776 17.8966 -0.349269
  902 62.2413 1.93566 7.51456
  903 62.2381 1.93599 -7.51344
  904 71.3681 0.147897 -5.67626
  905 71.4589 0.115408 5.67894
  906 62.8608 0.0991623 2.56975
  907 62.8609 0.0976527 -2.57097
  908 67.7640 -0.361358 -1.31567
  909 67.7630 -0.360169 1.31590
  910 81.2270 6.50821 6.12059
  911 51.5808 4.93391 8.84755
  912 51.5807 4.93446 -8.84525
  913 53.4170 3.63443 0.824054
  914 53.4189 3.63400 -0.823865
  915 39.0124 6.17384 4.20586
  916 39.0196 6.17241 -4.20283
  917 72.2322 3.91408 -5.22191
  918 63.9261 -2.70987 -4.58352
  919 63.9243 -2.70510 4.58053
  920 86.9430 1.21667 -9.31863
  921 79.5577 -4.61458 -8.81260
  922 79.5712 -4.61857 8.80996
  923 33.7555 -2.64510 -11.7391
  924 33.7649 -2.65459 11.7472
  925 87.9725 1.13581 9.74109
  926 72.2205 -8.76946 4.72518
  927 72.7209 -9.05342 -4.76111
  928 72.7041 0.347668 -4.47269
  929 72.7097 0.347483 4.47288
  930 65.8017 0.195446 -3.62149
  931 65.7722 0.245695 3.62265
  932 53.6953 -13.2867 -12.7027
  933 53.7473 -13.2855 12.5676
  934 56.0265 2.21119 4.72546
  935 56.0256 2.21092 -4.72421
  936 70.7346 -2.66519 -1.05740
  937 70.7371 -2.66718 1.06085
  938 86.5833 -10.1172 -2.44404
  939 86.6419 -10.1141 2.41149
  940 55.9447 2.55095 1.77487
  941 55.9426 2.55084 -1.77568
  942 81.0274 3.46595 1.45076
  943 58.2540 2.09842 5.99848
  944 58.2521 2.09836 -5.99716
  945 64.1411 2.00658 10.4234
  946 64.1367 2.00813 -10.4228
  947 51.0219 4.12806 -1.54200
  948 51.0249 4.12836 1.54116
  949 148.770 12.6606 -0.378724
  950 34.1182 1.07858 -9.21908
  951 34.1328 1.07588 9.20798
  952 66.7139 0.329261 3.41733
  953 66.7091 0.329303 -3.41680
  954 86.1324 -6.23583 -8.27768
  955 86.6799 -6.04754 7.37310
  956 54.8325 2.35950 3.43040
  957 54.8324 2.35910 -3.42934
  958 56.7527 0.0997749 -0.986383
  959 56.7554 0.0997989 0.986719
  960 89.5402 -0.229010 -5.42972
  961 89.5439 -0.230006 5.42682
  962 132.158 6.36706 3.06449
  963 60.6592 0.168872 1.71683
  964 60.6554 0.168851 -1.71638
  965 62.5739 0.180996 -2.09865
  966 62.5781 0.181002 2.09914
  967 99.8620 -1.47375 -1.36581
  968 99.8578 -1.47177 1.36023
  969 80.4550 4.95700 -6.15540
  970 50.2797 -0.453421 -9.80801
  971 50.2786 -0.445686 9.80050
  972 129.141 6.65409 -3.56603
  973 69.3105 4.52333 3.05899
  974 71.0578 -0.0905742 -0.551962
  975 71.0569 -0.0902903 0.552332
  976 54.1831 3.28196 4.75468
  977 54.1832 3.28157 -4.75342
  978 101.595 -1.66279 2.04771
  979 101.583 -1.65418 -2.04393
  980 70.5796 -5.98633 2.29732
  981 70.6077 -6.00660 -2.29511
  982 72.2934 -4.54681 -1.23325
  983 72.2959 -4.54782 1.23831
  984 75.9935 11.1198 0.441194
  985 48.2992 3.63342 11.7520
  986 48.2966 3.63665 -11.7482
  987 54.1267 3.91688 6.59040
  988 54.1266 3.91668 -6.58883
  989 62.5237 0.708401 -2.26803
  990 84.8533 -4.61812 -0.928031
  991 103.753 10.8330 6.41910
  992 85.6412 13.4211 -4.27541
  993 53.9776 3.01889 2.92231
  994 53.9784 3.01839 -2.92140
  995 68.7907 -0.457723 -2.72582
  996 68.7862 -0.456937 2.72912
  997 51.7069 1.77990 -6.12030
  998 51.7101 1.78291 6.11803
  999 52.4248 4.13835 3.56070
  1000 52.4260 4.13783 -3.55977
  1001 68.5707 4.22698 -2.73586
  1002 46.5360 6.07155 6.27369
  1003 46.5387 6.07112 -6.27167
  1004 59.8372 1.17071 2.47767
  1005 59.8361 1.17000 -2.47893
  1006 61.3492 0.919676 -4.48367
  1007 61.3524 0.919695 4.48463
  1008 54.5154 2.82590 -2.51509
  1009 54.5180 2.82637 2.51404
  1010 59.4853 1.72837 12.5176
  1011 59.4798 1.73159 -12.5169
  1012 82.6811 0.206264 4.83684
  1013 82.6757 0.206662 -4.83774
  1014 72.3142 2.97063 5.64941
  1015 44.0885 5.74460 -1.17060
  1016 44.0939 5.74390 1.16877
  1017 95.9575 -1.41997 -7.63861
  1018 96.0247 -1.39246 7.61718
  1019 74.1907 -0.404437 10.7470
  1020 74.1839 -0.401735 -10.7491
  1021 55.7552 -8.23606 14.7530
  1022 55.6879 -8.24549 -14.8658
  1023 86.0990 -5.94679 5.15815
  1024 86.0820 -5.94655 -5.16634
  1025 67.4160 -4.13520 3.29604
  1026 67.4227 -4.14056 -3.29675
  1027 68.6386 -0.874475 -1.03952
  1028 68.6372 -0.872777 1.04046
  1029 55.9484 1.30035 3.19837
  1030 55.9473 1.30011 -3.19736
  1031 83.5847 -5.70078 0.922224
  1032 48.9931 3.94280 -3.50147
  1033 48.9966 3.94403 3.49951
  1034 47.9569 -4.44670 14.3936
  1035 47.9454 -4.44214 -14.3954
  1036 58.1790 0.0967591 -1.20449
  1037 58.1821 0.0967698 1.20485
  1038 62.7641 0.549100 2.53383
  1039 41.8993 2.42001 -7.90691
  1040 41.9055 2.41965 7.89871
  1041 70.1390 -1.28898 -0.0706018
  1042 70.1403 -1.29072 0.0729550
  1043 71.1262 -0.385359 1.20535
  1044 71.1289 -0.384704 -1.20258
  1045 51.7544 4.37307 0.546098
  1046 51.7569 4.37276 -0.546116
  1047 64.3681 -9.44064 16.8939
  1048 71.4284 -1.90821 -4.42874
  1049 71.4327 -1.90659 4.43448
  1050 31.4688 -14.9858 16.3050
  1051 31.3217 -14.4400 -16.5982
  1052 95.5070 4.66729 -9.20463
  1053 61.6119 -4.65871 -8.38040
  1054 61.5760 -4.66167 8.40321
  1055 71.7996 -0.126387 -0.216666
  1056 71.7992 -0.126103 0.217453
  1057 54.4726 3.24205 -0.319087
  1058 54.4746 3.24176 0.318893
  1059 56.6039 0.277821 1.71134
  1060 56.6017 0.277764 -1.71077
  1061 64.3793 1.82944 8.38962
  1062 64.3755 1.83009 -8.38876
  1063 61.7202 -3.11940 6.61519
  1064 61.7166 -3.12596 -6.61895
  1065 56.5904 1.29792 3.55719
  1066 56.5890 1.29772 -3.55614
  1067 98.0949 -3.44458 9.24665
  1068 98.0696 -3.47401 -9.23447
  1069 64.8545 -1.26396 2.82039
  1070 64.8561 -1.26697 -2.82149
  1071 58.9360 0.767277 3.44020
  1072 58.9334 0.767187 -3.43930
  1073 59.9116 -8.31186 -13.4691
  1074 59.9088 -8.30410 13.4696
  1075 64.7544 0.838876 5.22395
  1076 64.7504 0.838991 -5.22313
  1077 69.1823 -0.190114 -0.968619
  1078 69.1815 -0.189447 0.968923
  1079 104.975 -1.23124 -9.11419
  1080 105.070 -1.17530 9.11488
  1081 16.2771 -21.6212 -4.78397
  1082 16.2988 -21.6273 4.75842
  1083 98.8415 -0.710014 -3.04079
  1084 98.8399 -0.710651 3.03586
  1085 42.0908 -7.81736 17.0905
  1086 42.3842 -7.79219 -16.9706
  1087 77.2240 0.179787 3.98524
  1088 77.2181 0.179969 -3.98535
  1089 71.7709 -0.347904 0.541892
  1090 71.7722 -0.347398 -0.539929
  1091 11.6749 -19.9985 -6.06026
  1092 11.8456 -19.8445 6.27665
  1093 71.0929 0.206033 -3.23791
  1094 71.0986 0.205957 3.23822
  1095 56.4292 1.39941 4.15316
  1096 56.4265 1.39803 -4.15500
  1097 19.4739 -3.90459 -4.30975
  1098 19.5202 -3.91819 4.31348
  1099 28.8397 -17.8983 9.08196
  1100 28.8220 -17.9318 -9.08256
  1101 69.5425 -2.80027 0.505314
  1102 69.5460 -2.80337 -0.502757
  1103 49.8715 4.91542 0.545799
  1104 49.8744 4.91520 -0.546011
  1105 70.7676 1.01286 -8.61809
  1106 70.7726 1.01182 8.61795
  1107 94.4154 -6.21958 2.67960
  1108 94.4059 -6.18820 -2.68866
  1109 55.0563 -4.57401 -11.9936
  1110 55.0294 -4.54686 11.9736
  1111 72.9081 -12.1559 12.4774
  1112 75.3436 0.527449 -8.54187
  1113 75.3490 0.526206 8.54082
  1114 70.8912 -1.84902 -2.21933
  1115 70.8923 -1.85060 2.22309
  1116 66.8062 -1.44362 1.96161
  1117 66.8083 -1.44650 -1.96148
  1118 64.6693 0.0212907 1.99758
  1119 64.6697 0.0200232 -1.99825
  1120 87.6280 12.5010 4.54343
  1121 43.4996 -15.1211 -9.53461
  1122 43.5384 -14.8010 9.32526
  1123 54.4028 -10.3866 -17.4432
  1124 109.631 8.20445 5.52947
  1125 72.3226 6.96570 -3.12868
  1126 68.0604 -12.3074 -12.7173
  1127 28.4453 1.29869 6.02655
  1128 28.4540 1.30123 -6.01373
  1129 55.5514 3.89008 8.85214
  1130 55.5501 3.89056 -8.85032
  1131 65.2630 2.81822 0.723000
  1132 66.6479 -0.123794 -2.98609
  1133 66.6438 -0.111079 2.98771
  1134 82.0477 -1.01072 4.97480
  1135 88.0339 0.106815 -4.02936
  1136 88.0386 0.106459 4.02807
  1137 110.723 9.63248 -3.49353
  1138 68.8141 -10.9073 10.8036
  1139 55.0395 2.57559 -4.30760
  1140 55.0398 2.57594 4.30881
  1141 76.3352 -3.02699 -4.73701
  1142 76.6427 -2.84791 4.87283
  1143 57.2282 1.48346 4.23787
  1144 57.2266 1.48328 -4.23672
  1145 71.1581 1.96921 -2.44497
  1146 59.6373 0.310342 -3.80951
  1147 59.6388 0.312066 3.80743
  1148 108.388 6.64199 -7.51571
  1149 57.4902 2.04080 -2.00423
  1150 57.4920 2.04102 2.00327
  1151 87.0013 0.0462127 8.55659
  1152 86.5190 -2.11449 -7.10106
  1153 86.5261 -2.11710 7.09587
  1154 77.3680 1.56977 -6.56948
  1155 86.7119 0.118101 -8.48472
  1156 58.2032 0.435350 -2.48001
  1157 58.2058 0.435419 2.48073
  1158 70.0314 -1.10447 -3.69402
  1159 70.0310 -1.10249 3.69848
  1160 59.8635 0.812230 0.109302
  1161 59.7439 2.30358 7.29591
  1162 59.7414 2.30376 -7.29457
  1163 82.2555 -0.807001 -4.95734
  1164 50.1886 5.10791 3.48815
  1165 50.1907 5.10738 -3.48738
  1166 67.1807 -7.29734 7.23044
  1167 67.7211 -7.60658 -7.11750
  1168 55.0595 3.88254 10.2838
  1169 55.0574 3.88386 -10.2818
  1170 55.3390 1.76105 3.26586
  1171 55.3384 1.76072 -3.26482
  1172 69.8933 -0.822569 0.443563
  1173 69.8943 -0.823937 -0.442020
  1174 46.2265 6.11514 2.24463
  1175 46.2305 6.11438 -2.24448
  1176 55.0797 0.556210 5.97256
  1177 55.0761 0.553464 -5.97487
  1178 66.0796 0.155990 2.02201
  1179 66.0745 0.155997 -2.02164
  1180 77.1789 -8.68614 1.66907
  1181 77.6185 -8.59911 -1.41658
  1182 59.6304 1.20014 4.63055
  1183 59.6277 1.20006 -4.62947
  1184 57.3937 0.0642559 0.950996
  1185 57.3907 0.0642475 -0.950689
  1186 101.774 -1.26225 -3.75159
  1187 101.783 -1.27192 3.76597
  1188 59.6882 0.0791615 -1.06451
  1189 59.6919 0.0791667 1.06482
  1190 69.4564 -2.06350 12.0499
  1191 69.4478 -2.06037 -12.0513
  1192 121.392 19.8061 -0.597634
  1193 50.2934 5.27734 5.06182
  1194 50.2951 5.27683 -5.06058
  1195 68.6594 0.840962 6.41138
  1196 68.6547 0.841329 -6.41089
  1197 68.2890 0.552354 -4.80521
  1198 68.3818 0.536534 4.85826
  1199 167.849 10.1744 5.00181
  1200 79.7733 10.7248 4.52494
  1201 34.6692 5.36678 0.270369
  1202 34.6821 5.36299 -0.268982
  1203 53.6222 3.41111 1.65840
  1204 53.6237 3.41059 -1.65791
  1205 163.554 10.9525 -4.96691
  1206 66.2764 -0.121474 -1.63319
  1207 66.2757 -0.120355 1.63294
  1208 76.5394 -11.6010 -7.23636
  1209 76.6297 -11.6076 7.26310
  1210 53.8735 3.70714 -5.51343
  1211 53.8734 3.70749 5.51480
  1212 75.6505 1.12862 6.10698
  1213 71.6681 1.56347 3.83737
  1214 70.6621 -10.3876 -8.81139
  1215 48.4705 5.59264 -1.91656
  1216 48.4674 5.59314 1.91669
  1217 73.9313 -4.67608 2.62746
  1218 73.9326 -4.67656 -2.62042
  1219 56.0382 3.13733 6.73791
  1220 56.0372 3.13725 -6.73639
  1221 81.5114 -0.441940 8.52598
  1222 81.5058 -0.439922 -8.52895
  1223 84.7949 -8.23874 -4.34926
  1224 84.8243 -8.23677 4.33838
  1225 75.9767 5.27760 -5.88790
  1226 58.8336 2.84144 8.32669
  1227 58.8313 2.84186 -8.32523
  1228 80.3217 13.9259 -1.30483
  1229 76.4409 4.97436 6.06839
  1230 69.6349 0.182127 -2.59977
  1231 69.6406 0.182082 2.60010
  1232 90.2656 -9.96678 -1.21808
  1233 90.3730 -9.87271 1.09211
  1234 64.1959 0.0792316 -1.77280
  1235 64.2007 0.0792212 1.77318
  1236 61.4142 0.193938 -3.11758
  1237 61.4147 0.195553 3.11591
  1238 24.9099 -8.81109 9.96127
  1239 24.8945 -8.79550 -9.95157
  1240 43.6302 6.15950 6.93715
  1241 43.6338 6.15928 -6.93397
  1242 97.6027 0.645435 -11.3252
  1243 81.3796 0.194233 3.49550
  1244 81.3737 0.194417 -3.49587
  1245 72.2175 7.79526 2.04798
  1246 95.0942 19.4714 0.991929
  1247 57.5616 -1.59021 -13.9815
  1248 57.5698 -1.59388 13.9813
  1249 74.0598 -0.923059 -5.78502
  1250 74.0580 -1.01818 5.74425
  1251 60.4954 -5.41855 -11.8225
  1252 62.1841 -6.68354 11.8945
  1253 53.8807 3.12337 2.33211
  1254 53.8817 3.12284 -2.33138
  1255 52.1014 4.20983 1.83910
  1256 52.1033 4.20937 -1.83867
  1257 53.3611 3.49744 3.23052
  1258 53.3621 3.49693 -3.22960
  1259 96.3535 -0.299247 -3.47773
  1260 96.3546 -0.299790 3.47490
  1261 64.3282 -1.89595 3.59859
  1262 64.3301 -1.89984 -3.60056
  1263 128.088 6.76632 13.2617
  1264 97.7046 0.564805 11.2197
  1265 66.5048 2.64681 2.81906
  1266 116.287 3.11351 -3.82265
  1267 59.5582 0.464398 -0.893106
  1268 43.5657 2.74514 11.6839
  1269 43.5625 2.74948 -11.6787
  1270 104.412 4.41304 15.8591
  1271 92.2166 5.59168 -1.62587
  1272 39.5414 6.26721 0.769323
  1273 39.5498 6.26483 -0.769465
  1274 62.1818 2.11198 -11.7027
  1275 62.1866 2.10956 11.7033
  1276 92.6063 5.79962 15.3719
  1277 43.0233 4.46143 10.1285
  1278 43.0235 4.46383 -10.1233
  1279 65.5153 1.28276 7.10052
  1280 65.5113 1.28315 -7.09972
  1281 130.274 11.8041 1.55305
  1282 95.2602 5.88899 3.76428
  1283 118.710 17.7590 5.38052
  1284 99.6709 1.50706 -12.8419
  1285 76.3085 -5.51767 -2.64149
  1286 76.3057 -5.48963 2.65598
  1287 102.690 -4.24353 5.92841
  1288 102.651 -4.32253 -5.88384
  1289 68.3334 -3.28256 -1.79691
  1290 68.3286 -3.27830 1.79825
  1291 57.3918 0.540227 2.55209
  1292 57.3896 0.540130 -2.55131
  1293 61.6546 -1.26929 4.57949
  1294 61.6541 -1.27251 -4.58242
  1295 69.0908 -6.69590 -11.6748
  1296 69.1012 -6.69637 11.6788
  1297 48.2706 5.80684 5.59300
  1298 48.2730 5.80635 -5.59148
  1299 87.9866 -4.11888 -1.79376
  1300 65.7367 2.17818 -2.88157
  1301 122.696 7.02940 -15.6538
  1302 113.083 14.4809 -9.77955
  1303 73.0112 1.83002 -6.00961
  1304 152.144 9.70155 -10.4896
  1305 69.5087 -0.290502 -1.75815
  1306 69.5020 -0.290870 1.76137
  1307 70.2830 -1.96292 -0.484437
  1308 70.2849 -1.96499 0.487406
  1309 90.5038 -0.585462 -6.94165
  1310 56.8831 0.662146 13.3945
  1311 56.8763 0.666147 -13.3936
  1312 67.3876 -0.785403 -1.51461
  1313 67.3861 -0.783496 1.51495
  1314 104.972 -0.756261 0.381411
  1315 104.960 -0.753612 -0.382662
  1316 67.9068 -2.23990 1.58714
  1317 67.9101 -2.24339 -1.58611
  1318 56.3725 0.553201 -2.28292
  1319 56.3743 0.553314 2.28368
  1320 97.4654 3.44032 9.93300
  1321 92.7758 -3.55001 -2.80729
  1322 92.7815 -3.54725 2.79863
  1323 59.9057 2.79475 10.3477
  1324 59.9024 2.79611 -10.3464
  1325 69.3091 -13.0555 -14.5197
  1326 34.7773 -3.44286 13.6049
  1327 34.7714 -3.43840 -13.6242
  1328 93.5875 3.28839 -9.16416
  1329 72.6804 -3.26278 -3.74857
  1330 72.6829 -3.26392 3.75047
  1331 53.7885 4.24013 7.54731
  1332 53.7882 4.24014 -7.54557
  1333 72.3463 -7.30467 -2.55294
  1334 72.3303 -7.30848 2.50488
  1335 73.6730 0.628155 6.62391
  1336 73.6677 0.628688 -6.62404
  1337 8.39905 -27.9032 1.61948
  1338 8.48051 -28.1061 -1.58656
  1339 158.745 10.4439 11.3681
  1340 92.3730 1.91721 0.276275
  1341 62.1837 0.176904 -2.16496
  1342 95.0138 11.7003 -2.95163
  1343 56.1551 0.899900 -2.72465
  1344 56.1565 0.900076 2.72554
  1345 81.5490 -9.46375 4.70941
  1346 72.2642 -1.44723 -5.23991
  1347 72.2658 -1.44068 5.24075
  1348 103.030 -0.654378 -1.74094
  1349 103.023 -0.654340 1.73632
  1350 59.8361 0.419124 2.70314
  1351 59.8328 0.419084 -2.70243
  1352 51.3609 4.31819 10.8074
  1353 51.3591 4.32010 -10.8047
  1354 116.691 7.32778 5.79188
  1355 79.3505 2.12473 -18.0743
  1356 72.3896 -0.172120 0.0435183
  1357 72.3899 -0.171862 -0.0425782
  1358 32.4618 4.51832 3.94906
  1359 32.4728 4.51705 -3.94215
  1360 71.0289 -3.74032 -0.700299
  1361 71.0325 -3.74232 0.704252
  1362 91.3412 -0.576150 7.31957
  1363 56.6255 2.24381 5.14456
  1364 56.6243 2.24358 -5.14326
  1365 59.7547 0.404919 1.17120
  1366 67.5467 0.568446 11.8034
  1367 67.5403 0.571268 -11.8042
  1368 41.7578 4.37583 -4.43533
  1369 41.7647 4.37530 4.43063
  1370 99.1456 -0.954843 5.17091
  1371 99.1869 -0.952243 -5.14849
  1372 61.8157 0.0890537 1.30039
  1373 61.8114 0.0890450 -1.30006
  1374 63.3362 0.790424 4.76484
  1375 63.3324 0.790473 -4.76397
  1376 27.6083 0.121346 -7.43869
  1377 27.6395 0.114053 7.43189
  1378 60.0600 1.52768 5.50179
  1379 60.0573 1.52765 -5.50063
  1380 72.2749 -0.0474927 -0.255770
  1381 72.2741 -0.0473641 0.256122
  1382 63.3776 -0.494479 2.92891
  1383 63.3781 -0.496710 -2.93033
  1384 17.6408 -22.8040 -9.93807
  1385 16.3838 -22.1104 9.91033
  1386 80.5847 -10.1929 -6.03137
  1387 52.8469 3.98031 -4.45108
  1388 52.8461 3.98077 4.45224
  1389 61.7027 0.733867 2.29461
  1390 61.7021 0.733009 -2.29574
  1391 71.0162 -0.761726 0.491023
  1392 71.0163 -0.760711 -0.488607
  1393 75.1355 0.350486 -9.61500
  1394 75.1412 0.348644 9.61341
  1395 114.310 2.44537 5.19014
  1396 70.2277 1.61304 -5.34229
  1397 56.2764 1.81605 -4.13644
  1398 56.2775 1.81631 4.13761
  1399 57.9170 -1.14798 -6.65648
  1400 57.9202 -1.14397 6.65338
  1401 58.0386 1.23939 4.06620
  1402 58.0365 1.23924 -4.06514
  1403 99.4955 -0.328505 -2.95329
  1404 99.4944 -0.328972 2.94982
  1405 54.5059 2.49378 3.05373
  1406 54.5062 2.49333 -3.05276
  1407 98.2090 -3.41681 -4.02778
  1408 98.2266 -3.43677 4.03534
  1409 124.068 7.73125 -4.18475
  1410 56.1276 0.0278807 0.548900
  1411 56.1249 0.0278780 -0.548709
  1412 61.7431 0.521650 3.46005
  1413 61.7394 0.521636 -3.45928
  1414 48.3654 5.45402 8.77627
  1415 48.3662 5.45463 -8.77345
  1416 51.7282 4.17277 0.720695
  1417 51.7255 4.17278 -0.721159
  1418 87.8742 17.3732 -1.63731
  1419 97.1210 -5.65017 6.24685
  1420 97.0861 -5.62333 -6.24105
  1421 55.8860 -2.99934 -9.93666
  1422 55.8913 -2.98126 9.94022
  1423 65.8536 1.60856 9.20892
  1424 65.8493 1.60960 -9.20835
  1425 32.2256 3.44659 4.32321
  1426 32.2073 3.45269 -4.32629
  1427 70.0556 1.52152 5.28406
  1428 125.299 11.7579 -0.619410
  1429 46.3157 4.88904 -2.37199
  1430 46.3200 4.88946 2.36988
  1431 55.6174 2.81942 -0.909247
  1432 55.6193 2.81923 0.908815
  1433 97.6043 10.8550 1.21748
  1434 68.0050 -0.118589 -1.20937
  1435 68.0042 -0.117791 1.20944
  1436 52.8577 3.54111 -1.92819
  1437 52.8605 3.54143 1.92737
  1438 65.3572 0.808355 -3.61198
  1439 98.1141 -2.55593 0.0855359
  1440 98.1096 -2.54892 -0.0901366
  1441 40.5098 -10.8396 15.6392
  1442 62.3968 0.181031 2.21101
  1443 78.5687 -1.37002 5.47716
  1444 62.2229 1.55503 6.56663
  1445 62.2197 1.55521 -6.56554
  1446 78.6117 -1.55941 -5.41805
  1447 70.7682 -1.13148 1.76598
  1448 70.7687 -1.13016 -1.76238
  1449 69.2893 -6.69267 4.60912
  1450 69.2123 -6.74224 -4.64697
  1451 69.3836 -9.48856 8.33072
  1452 52.3178 4.44587 5.70642
  1453 52.3185 4.44551 -5.70501
  1454 77.0016 0.162141 2.30787
  1455 76.9952 0.162190 -2.30785
  1456 54.3042 3.26934 0.435026
  1457 54.3060 3.26891 -0.434936
  1458 85.2877 3.03043 5.32005
  1459 58.3659 2.47436 6.79280
  1460 58.3639 2.47437 -6.79140
  1461 49.1563 1.51386 -7.51048
  1462 49.1586 1.51830 7.50628
  1463 70.7277 -1.69533 -3.03915
  1464 70.7288 -1.69635 3.04330
  1465 57.1189 0.887195 -3.14578
  1466 57.1208 0.887336 3.14671
  1467 91.9187 0.0646169 -3.44818
  1468 91.9224 0.0642668 3.44662
  1469 56.2454 2.29577 2.46885
  1470 56.2432 2.29537 -2.46996
  1471 68.8433 -0.472716 -1.01765
  1472 68.8423 -0.471575 1.01828
  1473 46.0440 6.26288 -3.56627
  1474 46.0402 6.26372 3.56704
  1475 71.8674 -0.0194903 -0.329256
  1476 71.8662 -0.0194104 0.329366
  1477 66.1786 3.01112 -1.31597
  1478 42.1216 5.73380 -7.50527
  1479 42.1182 5.73345 7.50938
  1480 65.8895 -3.02256 3.48689
  1481 65.8932 -3.02770 -3.48856
  1482 72.4875 -5.87318 0.286828
  1483 72.4913 -5.87371 -0.275487
  1484 50.1555 5.23588 7.75026
  1485 50.1563 5.23594 -7.74814
  1486 85.4077 -1.00367 7.48228
  1487 85.4021 -1.00139 -7.48643
  1488 70.6411 -0.277761 1.30523
  1489 70.6464 -0.277290 -1.30245
  1490 69.6849 3.11078 -4.51813
  1491 21.3490 -2.04893 -0.586504
  1492 21.3207 -2.04471 0.602737
  1493 55.2296 2.88093 5.18684
  1494 55.2291 2.88062 -5.18551
  1495 54.5070 3.10010 -1.21304
  1496 54.5093 3.10007 1.21249
  1497 92.4203 -1.42056 -4.93223
  1498 92.4238 -1.42214 4.92623
  1499 56.3877 0.166967 1.32047
  1500 56.3853 0.166930 -1.32002
  1501 70.2918 -0.571500 -5.16206
  1502 70.2843 -0.559971 5.17025
  1503 51.5561 3.42814 3.14582
  1504 51.5530 3.42721 -3.14718
  1505 63.4386 0.305036 2.14577
  1506 63.4387 0.303964 -2.14667
  1507 75.8764 -2.99376 10.5710
  1508 75.8667 -2.99024 -10.5733
  1509 85.0225 -3.99615 -6.70880
  1510 85.0348 -3.99905 6.70317
  1511 74.7407 -8.06502 1.50214
  1512 74.8078 -7.99207 -1.40655
  1513 65.6583 0.785609 3.75180
  1514 64.3830 -0.350010 2.40309
  1515 64.3837 -0.351895 -2.40399
  1516 84.4067 7.91504 -5.77352
  1517 60.6393 -1.83849 -5.69162
  1518 60.6416 -1.83471 5.68814
  1519 65.3018 -12.5161 14.2336
  1520 72.6376 8.29975 -1.10073
  1521 65.3705 -4.10921 -4.91727
  1522 65.3689 -4.10197 4.91515
  1523 80.5033 -8.78884 1.89072
  1524 42.7871 -0.942237 -13.2616
  1525 42.7964 -0.949010 13.2651
  1526 54.1865 2.89114 3.43991
  1527 54.1869 2.89068 -3.43888
  1528 70.1001 -0.0475342 -0.726538
  1529 70.0992 -0.0472106 0.726726
  1530 52.4528 4.06383 2.78959
  1531 52.4543 4.06331 -2.78885
  1532 93.3352 -8.60080 2.30134
  1533 93.3176 -8.55046 -2.32633
  1534 74.3305 0.101777 -2.24622
  1535 74.3367 0.101746 2.24635
  1536 78.9993 2.18298 6.25915
  1537 78.6306 0.441983 6.93036
  1538 65.8219 -11.9375 -10.9073
  1539 65.8015 -11.9062 10.9510
  1540 61.2440 0.327397 2.55881
  1541 61.2403 0.327367 -2.55819
  1542 57.5553 2.03832 5.45784
  1543 57.5537 2.03819 -5.45655
  1544 78.0257 0.511213 -6.87230
  1545 68.4120 4.61991 1.66607
  1546 99.1906 -6.05198 -0.775259
  1547 99.5633 -5.62966 1.21775
  1548 73.5474 1.04923 6.10059
  1549 64.4049 -0.0192997 -2.26312
  1550 64.3814 -0.0211579 2.23743
  1551 48.9243 4.67409 -1.88837
  1552 48.9278 4.67456 1.88708
  1553 71.9621 4.96650 4.51657
  1554 54.9662 2.35847 -3.71740
  1555 54.9664 2.35885 3.71851
  1556 68.1776 1.17004 -3.55287
  1557 58.7899 0.0447412 -0.911567
  1558 58.7934 0.0447417 0.911842
  1559 35.6894 -10.6908 17.2642
  1560 35.8735 -10.5917 -17.2249
  1561 65.1776 -10.3142 -11.9067
  1562 46.5916 -11.7081 -13.7862
  1563 46.6144 -11.7018 13.7679
  1564 70.6729 -0.373254 -0.376434
  1565 70.6723 -0.372539 0.377616
  1566 54.8622 2.81157 12.4205
  1567 54.8580 2.81462 -12.4185
  1568 80.3296 9.66173 -5.21079
  1569 23.2997 -3.39321 -6.47891
  1570 23.2955 -3.40146 6.49793
  1571 69.6344 3.05602 4.59690
  1572 67.2746 1.42201 10.4377
  1573 67.2696 1.42377 -10.4378
  1574 71.1296 -0.168694 0.462018
  1575 71.1303 -0.169064 -0.461402
  1576 60.9926 2.46221 8.72685
  1577 60.9896 2.46283 -8.72559
  1578 35.6536 -5.25552 -12.9998
  1579 35.6693 -5.26514 13.0040
  1580 101.141 -2.54915 10.3118
  1581 101.126 -2.59288 -10.2870
  1582 77.7417 1.44830 15.6522
  1583 53.0645 3.78123 0.0279651
  1584 53.0667 3.78096 -0.0280827
  1585 69.8033 2.66071 19.2926
  1586 77.3767 -6.80421 -8.83694
  1587 77.3950 -6.80886 8.83802
  1588 72.9112 -1.17942 -11.2898
  1589 72.9189 -1.18253 11.2877
  1590 68.3708 0.103592 1.63904
  1591 68.3651 0.103591 -1.63879
  1592 57.0300 2.29129 -1.53493
  1593 57.0318 2.29129 1.53419
  1594 36.4407 1.42899 -10.8525
  1595 36.4430 1.42320 10.8606
  1596 40.5900 -0.298307 11.3289
  1597 40.5860 -0.295481 -11.3387
  1598 38.1410 3.23374 -6.79977
  1599 38.1513 3.23074 6.79225
  1600 51.4057 4.65937 3.80932
  1601 51.4073 4.65885 -3.80839
  1602 67.7196 1.69849 -0.532262
  1603 53.0758 3.79478 1.64946
  1604 53.0775 3.79428 -1.64901
  1605 59.3176 1.46563 2.08670
  1606 59.3163 1.46523 -2.08775
  1607 59.2568 0.954691 3.92429
  1608 59.2542 0.954604 -3.92330
  1609 64.5547 -13.8175 -10.1841
  1610 64.8268 -13.7526 10.3203
  1611 71.0383 -4.95464 -0.602702
  1612 71.0300 -4.95089 0.608261
  1613 68.1257 -5.32596 -3.88939
  1614 68.1209 -5.33381 3.88200
  1615 71.1613 -3.10866 -1.51453
  1616 71.1638 -3.11038 1.51810
  1617 72.4523 0.896449 -14.9896
  1618 70.7326 -1.88616 -1.33098
  1619 70.7340 -1.88798 1.33442
  1620 74.0767 6.47428 -4.75780
  1621 66.8943 -0.0610710 3.87990
  1622 66.8930 -0.0618862 -3.88089
  1623 179.488 10.3785 -0.775714
  1624 69.3394 -1.08298 0.617949
  1625 69.3409 -1.08475 -0.616392
  1626 72.0481 -0.179090 0.585497
  1627 72.0509 -0.178741 -0.583851
  1628 72.5834 -0.116145 0.155058
  1629 72.5843 -0.115979 -0.154070
  1630 59.5215 0.996192 2.92112
  1631 59.5202 0.995208 -2.92263
  1632 60.4707 0.0716698 1.00118
  1633 60.4667 0.0716616 -1.00091
  1634 37.0194 5.39416 6.27604
  1635 37.0259 5.39406 -6.27043
  1636 41.6403 6.37665 4.20122
  1637 41.6462 6.37549 -4.19920
  1638 74.8215 -10.0391 5.29465
  1639 79.9217 0.258768 -6.84517
  1640 79.9270 0.257934 6.84396
  1641 65.0046 1.38039 3.12397
  1642 68.1840 -1.27924 -1.22673
  1643 68.1821 -1.27691 1.22768
  1644 63.4409 0.0597592 -1.17276
  1645 63.4456 0.0597566 1.17303
  1646 91.7119 -7.19404 0.0452974
  1647 91.7193 -7.17238 -0.0617234
  1648 79.6580 -8.90364 -1.59022
  1649 65.2656 0.508884 3.81409
  1650 65.2611 0.508916 -3.81343
  1651 104.337 -0.676432 2.11625
  1652 104.326 -0.671684 -2.10908
  1653 46.7014 -0.882295 -11.1505
  1654 46.7042 -0.884370 11.1387
  1655 54.9728 2.05163 3.21029
  1656 54.9726 2.05125 -3.20926
  1657 126.960 8.03565 2.04333
  1658 57.9712 0.0399157 0.619099
  1659 57.9679 0.0399075 -0.618897
  1660 66.9753 -0.0249983 1.85287
  1661 66.9852 -0.0285964 -1.85054
  1662 55.1787 -6.24380 14.0383
  1663 55.1721 -6.24586 -14.0419
  1664 34.2609 -11.1480 -13.6310
  1665 129.779 16.4682 -7.79224
  1666 48.7026 3.16117 -5.10998
  1667 48.7059 3.16336 5.10714
  1668 66.4907 0.545120 4.45059
  1669 66.4861 0.545217 -4.44996
  1670 56.8475 0.541272 2.41952
  1671 56.8455 0.541172 -2.41874
  1672 85.6361 0.610867 -4.39358
  1673 55.8182 3.79302 9.50019
  1674 55.8165 3.79382 -9.49835
  1675 58.4421 0.302425 -2.04416
  1676 58.4450 0.302471 2.04476
  1677 56.7435 0.0359226 -0.573215
  1678 56.7464 0.0359382 0.573412
  1679 51.4851 -0.163568 -8.62760
  1680 51.4861 -0.156805 8.62434
  1681 97.9517 3.02162 -10.1634
  1682 95.9793 -0.0828049 -2.38851
  1683 95.9816 -0.0830280 2.38698
  1684 58.6491 0.560435 2.87709
  1685 58.6464 0.560362 -2.87629
  1686 60.5494 -6.08633 10.4700
  1687 60.5638 -6.18025 -10.5216
  1688 64.5348 1.23802 6.42005
  1689 64.5309 1.23825 -6.41916
  1690 54.9719 2.23419 3.42603
  1691 54.9691 2.23329 -3.42745
  1692 12.0737 -32.4883 3.08803
  1693 12.0640 -32.4625 -3.13395
  1694 78.1591 12.4679 1.86409
  1695 108.186 -0.286181 -0.354644
  1696 108.173 -0.285724 0.352394
  1697 88.1714 0.0596619 3.01603
  1698 88.1663 0.0598590 -3.01684
  1699 57.0300 0.222461 1.58994
  1700 57.0275 0.222417 -1.58942
  1701 85.4105 -0.0241579 -6.23358
  1702 85.4151 -0.0250789 6.23137
  1703 69.1066 -9.22606 -8.06534
  1704 56.3032 1.16024 -3.22755
  1705 56.3046 1.16045 3.22854
  1706 66.5489 -1.84495 2.30364
  1707 66.5517 -1.84839 -2.30383
  1708 145.481 12.0647 0.586937
  1709 57.1078 2.45389 5.92333
  1710 57.1064 2.45375 -5.92196
  1711 62.9746 1.70686 0.00399357
  1712 51.1814 -5.71340 -14.2367
  1713 51.2286 -5.74351 14.2156
  1714 55.6020 1.38688 3.05099
  1715 55.6012 1.38661 -3.04999
  1716 71.1458 -0.684803 1.06255
  1717 71.1470 -0.683900 -1.05969
  1718 78.4809 1.28906 -6.26153
  1719 61.8398 2.49175 -9.75731
  1720 61.8433 2.49062 9.75839
  1721 40.8436 5.89686 -0.893877
  1722 40.8512 5.89503 0.892145
  1723 52.2109 4.79929 8.12273
  1724 52.2109 4.79948 -8.12072
  1725 50.4019 1.84301 13.0367
  1726 50.3963 1.84731 -13.0340
  1727 69.4495 -4.91845 -2.19416
  1728 69.4407 -4.91167 2.19392
  1729 72.3455 -3.91434 2.26763
  1730 72.3438 -3.91346 -2.26391
  1731 74.9409 -4.43711 -3.49168
  1732 74.9478 -4.43827 3.48918
  1733 67.1872 1.34024 7.69523
  1734 67.1828 1.34083 -7.69465
  1735 75.0867 -9.81569 -4.66150
  1736 59.6680 2.05207 6.45016
  1737 59.6656 2.05211 -6.44887
  1738 46.0567 2.37837 -7.31958
  1739 46.0598 2.38088 7.31355
  1740 69.3854 -4.60569 -11.7865
  1741 69.3957 -4.60795 11.7869
  1742 54.0845 3.30448 1.16480
  1743 54.0861 3.30397 -1.16445
  1744 71.2417 0.453710 4.48499
  1745 71.2363 0.453879 -4.48467
  1746 140.471 10.4554 -25.1555
  1747 56.1010 1.46586 -3.52176
  1748 56.1021 1.46610 3.52283
  1749 72.3584 0.559148 5.67158
  1750 72.3531 0.559464 -5.67142
  1751 84.1507 0.115332 3.12110
  1752 84.1449 0.115474 -3.12158
  1753 51.9095 2.39935 -4.98936
  1754 51.9127 2.40140 4.98745
  1755 54.2106 0.464159 -6.82014
  1756 54.2143 0.467759 6.81789
  1757 68.1313 -0.418961 3.57844
  1758 68.1343 -0.423613 -3.57594
  1759 60.5793 -3.48430 7.79211
  1760 60.5818 -3.49179 -7.79709
  1761 52.5694 -9.91854 16.9290
  1762 52.0527 -9.68501 -16.8366
  1763 70.9935 5.18378 -3.87204
  1764 59.7986 0.191201 -1.86091
  1765 59.8020 0.191226 1.86142
  1766 58.8705 0.413589 0.662235
  1767 52.7633 3.22238 2.88596
  1768 52.7603 3.22168 -2.88713
  1769 80.5470 -11.9377 -5.49039
  1770 80.6850 -11.9899 5.47799
  1771 91.5491 -0.470242 -5.17113
  1772 91.5520 -0.471337 5.16756
  1773 66.3931 -0.346431 1.73042
  1774 66.3940 -0.347906 -1.73059
  1775 60.1974 0.231481 -1.44762
  1776 63.0509 -4.56870 7.08676
  1777 63.0370 -4.58385 -7.09842
  1778 97.0848 7.07742 1.20116
  1779 70.2707 -3.44716 -0.0629713
  1780 70.2666 -3.44425 0.0662877
  1781 59.1647 1.61539 -5.44456
  1782 59.1670 1.61545 5.44578
  1783 55.6159 1.30953 4.78735
  1784 55.6129 1.30778 -4.78931
  1785 53.0197 3.80131 3.96886
  1786 53.0205 3.80083 -3.96780
  1787 49.5013 5.22516 1.63183
  1788 49.5041 5.22475 -1.63170
  1789 54.2250 2.83381 2.59218
  1790 54.2257 2.83330 -2.59134
  1791 91.8465 16.6189 2.64649
  1792 96.6527 -2.13757 9.72367
  1793 96.6184 -2.14612 -9.74575
  1794 86.3915 -5.09840 1.08449
  1795 54.1188 3.21524 4.42086
  1796 54.1190 3.21482 -4.41966
  1797 76.8349 11.5587 -1.70849
  1798 142.973 8.96423 19.4801
  1799 60.7416 2.54392 10.9599
  1800 60.7377 2.54575 -10.9588
  1801 70.3089 0.790888 4.36316
  1802 50.4812 -13.1200 18.6785
  1803 51.1147 4.58463 0.971124
  1804 51.1172 4.58431 -0.971056
  1805 69.2681 5.19866 -1.88613
  1806 58.6400 0.345284 4.43331
  1807 58.6379 0.343397 -4.43557
  1808 69.7121 -1.71316 -0.181069
  1809 69.7101 -1.71094 0.183411
  1810 79.1912 -0.132729 8.83179
  1811 79.1854 -0.130810 -8.83422
  1812 51.7375 -13.1335 -18.3395
  1813 75.6725 10.0687 2.75573
  1814 62.7361 0.396285 2.95411
  1815 62.7320 0.396274 -2.95346
  1816 54.8554 3.47802 6.23260
  1817 54.8550 3.47781 -6.23112
  1818 64.4749 0.708229 1.56130
  1819 55.1240 3.64049 7.17487
  1820 55.1233 3.64046 -7.17326
  1821 59.2619 -7.91143 13.0041
  1822 59.0242 -8.12116 -13.3088
  1823 51.8212 4.78073 6.59052
  1824 51.8219 4.78047 -6.58889
  1825 89.6886 15.2379 -3.69969
  1826 103.225 5.89289 7.88194
  1827 73.6634 0.763086 8.25232
  1828 73.6582 0.764127 -8.25290
  1829 96.1950 -4.04340 1.78228
  1830 96.1885 -4.02759 -1.78609
  1831 70.3384 -0.157994 -0.677620
  1832 70.3376 -0.157536 0.678067
  1833 50.6237 -1.75502 -14.2731
  1834 50.6328 -1.75954 14.2735
  1835 75.1375 -9.68827 13.2229
  1836 65.8565 -12.4297 16.5159
  1837 97.8613 -1.45151 -2.57331
  1838 97.8601 -1.45131 2.56701
  1839 81.3755 -4.57024 -3.00340
  1840 86.6094 0.413806 3.84987
  1841 79.6851 -10.2360 -7.27054
  1842 80.2174 -9.68655 7.24690
  1843 97.5506 -2.78602 8.31842
  1844 97.5009 -2.78820 -8.31479
  1845 71.7351 -12.0034 10.6195
  1846 14.4017 -11.4272 2.81523
  1847 14.3229 -11.3929 -2.78035
  1848 69.6418 -0.754465 -2.94473
  1849 69.6394 -0.754074 2.94869
  1850 80.7884 0.0298963 2.34084
  1851 80.7821 0.0299902 -2.34098
  1852 57.0090 1.27056 3.80445
  1853 57.0074 1.27038 -3.80337
  1854 117.030 14.3499 21.7565
  1855 24.9749 -3.49928 9.32406
  1856 24.9407 -3.50878 -9.33883
  1857 53.8602 3.26205 -1.62750
  1858 53.8627 3.26221 1.62680
  1859 58.9654 1.38933 2.61640
  1860 58.9639 1.38867 -2.61772
  1861 62.5781 0.783614 -4.43603
  1862 62.5818 0.783604 4.43691
  1863 95.2260 -8.24209 -0.548412
  1864 95.0302 -8.27605 0.456692
  1865 25.2295 -17.0479 -9.20651
  1866 25.2469 -17.0389 9.19947
  1867 52.6256 4.03710 -1.04781
  1868 52.6235 4.03752 1.04803
  1869 69.3384 0.300939 3.78955
  1870 69.3331 0.301051 -3.78912
  1871 55.1241 2.59987 4.58122
  1872 55.1237 2.59954 -4.57997
  1873 48.7338 4.31587 10.8037
  1874 48.7324 4.31811 -10.8003
  1875 40.3633 -14.9662 12.1014
  1876 40.3091 -14.9854 -12.1107
  1877 50.4474 4.85626 9.58408
  1878 50.4470 4.85726 -9.58139
  1879 70.2034 -1.17302 -4.40223
  1880 70.2030 -1.16699 4.40761
  1881 71.3949 -2.31093 -3.65601
  1882 71.3981 -2.31157 3.66016
  1883 74.4451 3.39798 6.03595
  1884 81.4335 -4.48024 2.89144
  1885 69.6296 -0.611387 -0.641860
  1886 69.6286 -0.610177 0.642996
  1887 43.4510 6.11289 0.790757
  1888 43.4566 6.11183 -0.791395
  1889 24.7422 -16.9927 -3.41203
  1890 24.7580 -16.9725 3.41188
  1891 63.5845 1.34766 -2.09101
  1892 72.0648 0.813056 9.49599
  1893 72.0595 0.814507 -9.49672
  1894 67.0136 -0.0725203 -1.44649
  1895 67.0129 -0.0716205 1.44638
  1896 65.8921 -1.01155 2.17686
  1897 65.8937 -1.01405 -2.17724
  1898 60.7000 0.815868 -4.01264
  1899 60.7031 0.815915 4.01356
  1900 68.4517 -0.167139 1.71987
  1901 68.4602 -0.167543 -1.71712
  1902 55.6913 2.19395 4.41081
  1903 55.6906 2.19365 -4.40959
  1904 95.2166 -0.435109 -4.45911
  1905 95.2365 -0.432285 4.50264
  1906 65.0400 1.08625 11.8775
  1907 65.0342 1.08903 -11.8777
  1908 91.8775 0.0683621 10.6837
  1909 83.1504 3.87410 -5.71638
  1910 57.7758 0.149023 -1.38276
  1911 57.7787 0.149043 1.38319
  1912 57.8116 0.391265 -0.342421
  1913 45.8123 5.47016 -0.821726
  1914 45.8168 5.46995 0.820355
  1915 94.3399 11.6004 -22.9626
  1916 50.4377 5.10753 4.44450
  1917 50.4395 5.10701 -4.44344
  1918 17.9252 -9.47058 8.47277
  1919 17.8568 -9.48302 -8.52090
  1920 173.963 8.08057 -16.5054
  1921 75.5736 -11.9493 -8.88142
  1922 58.7136 0.134186 -1.43886
  1923 58.7169 0.134207 1.43929
  1924 119.026 3.44536 -2.56263
  1925 72.3969 -0.0229350 -0.242945
  1926 72.3958 -0.0228770 0.243103
  1927 38.8700 -8.78263 8.30171
  1928 41.3514 -8.17934 -9.26908
  1929 41.3237 -4.07576 -14.6616
  1930 41.3039 -4.06170 14.6497
  1931 65.4450 0.0316513 1.77617
  1932 65.4455 0.0306225 -1.77663
  1933 71.2598 0.107054 -1.68558
  1934 71.2659 0.107036 1.68577
  1935 74.8575 2.75626 -6.15625
  1936 56.2577 1.82836 3.43352
  1937 56.2552 1.82744 -3.43506
  1938 70.4835 -1.40175 -0.579385
  1939 70.4844 -1.40338 0.582231
  1940 61.8345 0.409899 2.65579
  1941 61.8342 0.408624 -2.65713
  1942 55.8517 1.07647 2.82413
  1943 55.8505 1.07626 -2.82319
  1944 54.6075 2.67952 3.84595
  1945 54.6075 2.67910 -3.84483
  1946 105.682 -0.533550 -1.10046
  1947 105.696 -0.536539 1.10242
  1948 83.4004 12.9340 3.99989
  1949 59.0933 0.120300 1.08785
  1950 79.5141 0.220701 5.94241
  1951 79.5087 0.221213 -5.94322
  1952 47.5523 -7.30389 14.4201
  1953 47.5391 -7.30118 -14.4266
  1954 68.6814 -4.04408 2.11234
  1955 68.6879 -4.04872 -2.11124
  1956 70.4657 -0.824015 -0.000634316
  1957 70.4664 -0.825250 0.00263202
  1958 48.3498 -6.64006 15.5671
  1959 48.2334 -6.65158 -15.5476
  1960 63.1810 0.817899 12.6192
  1961 63.1744 0.821149 -12.6194
  1962 81.9570 -7.58974 6.35825
  1963 81.9297 -7.58693 -6.36192
  1964 60.4151 1.13375 2.15667
  1965 60.4142 1.13320 -2.15774
  1966 140.522 14.5204 5.58179
  1967 57.5152 0.713881 -2.95959
  1968 57.5174 0.713991 2.96046
  1969 77.6849 -6.74660 1.30829
  1970 77.5960 -6.82224 -1.19552
  1971 50.2797 -3.08669 12.3787
  1972 50.2875 -3.08545 -12.4048
  1973 118.475 5.11665 -5.36283
  1974 72.6746 -0.0340170 0.152688
  1975 72.6752 -0.0341291 -0.152282
  1976 88.3370 -3.02191 -7.29364
  1977 57.1152 1.83484 4.75078
  1978 57.1136 1.83464 -4.74955
  1979 78.5521 7.49675 5.66397
  1980 57.7235 1.19695 3.62477
  1981 57.7214 1.19578 -3.62654
  1982 104.026 7.16944 -5.81972
  1983 78.3198 0.162527 5.03948
  1984 90.1460 -5.16301 2.80144
  1985 90.1344 -5.16778 -2.81190
  1986 56.0431 2.99285 -20.0665
  1987 79.4715 11.8173 -3.73389
  1988 70.4946 5.98635 2.17759
  1989 65.4171 2.51353 1.74456
  1990 9.24236 -36.9953 3.27106
  1991 9.28904 -36.9847 -3.34941
  1992 74.4515 9.27004 -2.48112
  1993 44.5263 6.37725 5.10479
  1994 44.5304 6.37646 -5.10298
  1995 77.9092 0.0618095 -4.93306
  1996 70.8520 -7.84170 -4.71713
  1997 71.0088 -7.81700 4.42318
  1998 79.9541 -9.98843 6.44109
  1999 79.9088 -9.98437 -6.44132
  2000 56.2889 -11.0607 9.47280
  2001 58.6423 -12.0291 -9.77594
  2002 44.9237 4.87946 -3.23068
  2003 44.9286 4.87966 3.22765
  2004 24.6081 -14.7954 14.5837
  2005 24.9001 -14.5382 -15.1326
  2006 51.5955 4.50910 2.90415
  2007 51.5973 4.50859 -2.90345
  2008 65.3959 0.0428717 1.14844
  2009 65.3906 0.0428821 -1.14821
  2010 92.9574 1.55979 -1.31299
  2011 61.6242 1.13415 -5.19412
  2012 61.6274 1.13412 5.19516
  2013 53.5308 3.38073 2.80809
  2014 53.5318 3.38021 -2.80725
  2015 99.6026 -0.993648 -11.1961
  2016 91.2154 8.62412 3.95650
  2017 63.4548 -6.66315 -9.10323
  2018 63.4688 -6.50247 9.01614
  2019 104.932 1.06551 -10.1404
  2020 70.5497 0.362348 -4.43655
  2021 100.197 -5.33766 -6.93741
  2022 100.193 -5.33250 6.96705
  2023 53.8403 3.49191 0.236337
  2024 53.8422 3.49155 -0.236340
  2025 55.6922 1.61754 3.42046
  2026 55.6914 1.61726 -3.41940
  2027 116.140 4.07253 6.51824
  2028 68.2925 1.33564 8.71735
  2029 68.2879 1.33660 -8.71709
  2030 90.5397 0.531675 -10.4025
  2031 56.2936 0.372691 1.93377
  2032 56.2916 0.372615 -1.93311
  2033 63.8856 -1.24798 3.28757
  2034 63.8868 -1.25109 -3.28925
  2035 51.2910 -2.37223 17.7870
  2036 104.627 -0.271934 -1.55164
  2037 104.621 -0.272119 1.54879
  2038 60.9799 -0.466056 4.09808
  2039 60.9791 -0.468480 -4.10052
  2040 56.1119 0.0803402 0.924664
  2041 56.1094 0.0803203 -0.924333
  2042 70.6744 -0.557153 -1.67051
  2043 70.6715 -0.557977 1.67388
  2044 24.0033 -18.1549 9.27549
  2045 105.871 8.67888 -1.28327
  2046 90.2294 -3.82882 -4.33616
  2047 90.2381 -3.82891 4.32805
  2048 63.7514 -1.55951 -13.2361
  2049 63.7596 -1.56284 13.2353
  2050 71.8100 -0.163545 0.647011
  2051 71.8141 -0.163264 -0.645350
  2052 62.8342 0.866259 2.21096
  2053 191.309 6.25543 3.87884
  2054 116.237 9.48006 -4.49864
  2055 68.7368 -0.269281 -4.68536
  2056 68.7515 -0.267332 4.68842
  2057 87.4428 2.34467 8.19234
  2058 63.4688 -3.19382 5.37328
  2059 63.4700 -3.19926 -5.37718
  2060 54.0703 3.12262 1.89457
  2061 54.0715 3.12208 -1.89396
  2062 105.159 1.01822 10.1819
  2063 53.4149 3.76526 4.93538
  2064 53.4154 3.76485 -4.93412
  2065 72.7720 -2.49135 -4.53623
  2066 72.7777 -2.49103 4.54034
  2067 60.0933 -11.0057 -15.6375
  2068 22.0354 -20.2860 -8.72103
  2069 67.7609 -3.25702 -2.36517
  2070 67.7557 -3.25230 2.36563
  2071 68.8667 -2.22787 -0.917778
  2072 68.8637 -2.22486 0.919619
  2073 69.1931 -0.0637284 -0.945094
  2074 69.1923 -0.0632570 0.945218
  2075 96.6201 7.73167 -0.563917
  2076 56.6917 2.21695 -2.17667
  2077 56.6937 2.21723 2.17565
  2078 50.0555 4.55911 0.938411
  2079 50.0523 4.55895 -0.939136
  2080 64.8164 -5.96584 7.32484
  2081 64.9332 -5.99046 -7.30458
  2082 52.7210 -2.60953 10.9121
  2083 52.7344 -2.62883 -10.9184
  2084 99.7668 -1.00606 11.0867
  2085 48.5009 5.35946 0.699948
  2086 48.5042 5.35917 -0.700263
  2087 45.6011 -15.1762 -11.8911
  2088 45.7384 -15.1250 11.8382
  2089 66.7934 -8.95700 -11.9093
  2090 66.7989 -8.95152 11.9194
  2091 47.5758 5.81931 -2.53754
  2092 47.5725 5.81991 2.53784
  2093 17.1357 -13.5347 -5.18511
  2094 17.1513 -13.5674 5.20107
  2095 83.0563 3.82484 3.27431
  2096 86.2679 -0.0635639 -5.93230
  2097 67.5868 0.0496496 1.12069
  2098 67.5811 0.0496523 -1.12050
  2099 69.6001 -0.272449 -0.828712
  2100 69.5992 -0.271676 0.829282
  2101 66.6801 -0.936869 1.82573
  2102 66.6818 -0.939119 -1.82568
  2103 69.6650 -0.428758 11.8655
  2104 69.6578 -0.425616 -11.8670
  2105 137.633 9.90116 0.816008
  2106 23.8954 0.385919 -1.96259
  2107 23.9243 0.379695 1.96823
  2108 71.4544 -0.279426 -0.173594
  2109 71.4541 -0.278950 0.174779
  2110 61.0911 1.02497 -0.613253
  2111 61.2652 0.0335245 -0.793642
  2112 61.2694 0.0335346 0.793852
  2113 55.2121 2.93973 -0.0868395
  2114 55.2139 2.93934 0.0867462
  2115 79.9764 2.79112 -4.76936
  2116 35.7233 5.50022 3.77988
  2117 35.7328 5.49856 -3.77542
  2118 97.0969 -4.71731 5.23861
  2119 97.0716 -4.68660 -5.23144
  2120 72.4230 6.80758 3.45063
  2121 65.3537 -1.76757 2.89341
  2122 65.3560 -1.77119 -2.89445
  2123 71.7222 -0.331019 0.298432
  2124 71.7229 -0.330500 -0.296746
  2125 72.7207 -0.0876903 0.291901
  2126 72.7229 -0.0875865 -0.290898
  2127 59.0476 2.41479 11.9793
  2128 59.0430 2.41751 -11.9782
  2129 7.84403 -32.8860 -3.30333
  2130 7.89974 -32.3318 3.35788
  2131 37.3573 6.08000 -1.88141
  2132 37.3477 6.08260 1.88298
  2133 68.5467 -0.260617 -1.11459
  2134 68.5458 -0.259700 1.11492
  2135 56.7302 3.47165 8.27923
  2136 56.7287 3.47198 -8.27758
  2137 74.5824 5.05740 5.59404
  2138 96.2899 1.91278 10.7959
  2139 54.9885 1.76718 12.9610
  2140 54.9828 1.77102 -12.9594
  2141 57.0236 0.372060 2.05462
  2142 57.0213 0.371991 -2.05396
  2143 78.1861 0.207232 4.68660
  2144 78.1804 0.207531 -4.68691
  2145 57.5942 3.25190 8.90301
  2146 57.5922 3.25250 -8.90138
  2147 84.5681 0.101129 -4.98028
  2148 84.5732 0.100643 4.97906
  2149 72.2962 -11.6424 -9.40901
  2150 114.925 10.1482 3.06048
  2151 62.6522 -9.84904 13.0776
  2152 64.6598 1.25168 -3.09199
  2153 63.1192 1.86874 -7.94858
  2154 63.1227 1.86824 7.94958
  2155 40.0242 4.14519 -5.26035
  2156 40.0326 4.14333 5.25459
  2157 60.1675 2.32856 7.77812
  2158 60.1649 2.32887 -7.77680
  2159 84.9894 7.03634 5.52467
  2160 105.403 4.38841 -9.32094
  2161 32.0974 3.48933 6.10462
  2162 32.1052 3.49017 -6.09535
  2163 45.4892 -11.0582 18.4304
  2164 47.9116 -11.0833 -18.2501
  2165 72.0833 -6.28895 -15.5494
  2166 60.3360 1.21602 4.91263
  2167 60.3332 1.21598 -4.91155
  2168 78.7917 0.112210 -2.03618
  2169 78.7982 0.112145 2.03615
  2170 58.1806 0.228092 -0.863748
  2171 69.0037 -0.627796 -3.39995
  2172 69.0007 -0.625285 3.40328
  2173 46.3945 6.11448 5.05591
  2174 46.3978 6.11384 -5.05444
  2175 70.2416 -2.68598 -0.365582
  2176 70.2445 -2.68840 0.368708
  2177 74.7573 0.293478 -4.37544
  2178 74.7631 0.293282 4.37548
  2179 54.9008 3.23745 -5.54207
  2180 54.9012 3.23776 5.54346
  2181 37.3377 -1.06603 11.9147
  2182 37.3329 -1.06924 -11.9270
  2183 110.641 -0.111467 -5.16387
  2184 48.8347 5.54595 -3.03851
  2185 48.8320 5.54650 3.03906
  2186 67.4408 4.16034 -0.0164012
  2187 146.448 12.5511 -0.749693
  2188 105.233 19.9236 0.689533
  2189 65.5156 -0.391877 2.01113
  2190 65.5165 -0.393576 -2.01159
  2191 81.0067 -8.80261 -2.82598
  2192 123.335 10.1956 3.40875
  2193 110.572 -0.129000 5.41077
  2194 89.0801 10.8024 -4.92410
  2195 70.8195 -0.00485999 -0.566255
  2196 70.8185 -0.00469592 0.566371
  2197 74.8047 -5.71936 -1.82549
  2198 74.8010 -5.72103 1.83497
  2199 58.3845 2.85168 7.80564
  2200 58.3824 2.85192 -7.80417
  2201 73.6094 -5.57921 -1.00044
  2202 73.6120 -5.57864 1.00705
  2203 61.4221 -13.0367 -17.0806
  2204 58.2896 0.781412 3.26977
  2205 58.2872 0.781306 -3.26887
  2206 74.9352 -2.28246 -5.16503
  2207 74.9318 -2.27283 5.19147
  2208 87.0428 -0.0183411 5.37566
  2209 55.2077 2.72700 2.00239
  2210 55.2054 2.72678 -2.00327
  2211 57.3612 3.26165 10.8850
  2212 57.3582 3.26331 -10.8833
  2213 77.7682 -0.664820 -9.81603
  2214 77.7749 -0.667427 9.81320
  2215 62.0968 -6.51431 13.5207
  2216 62.0923 -6.51660 -13.5194
  2217 51.0758 4.49677 0.0373771
  2218 51.0731 4.49693 -0.0376560
  2219 57.0047 0.101040 1.21309
  2220 57.0020 0.101024 -1.21269
  2221 75.8885 -1.15135 -5.72429
  2222 75.7047 -1.18398 5.74945
  2223 91.5274 0.0795628 -2.04264
  2224 91.5320 0.0794254 2.04196
  2225 68.1998 -0.649999 -1.21222
  2226 68.1985 -0.648473 1.21282
  2227 113.644 20.0051 1.19721
  2228 81.5532 0.224014 4.50293
  2229 81.5476 0.224321 -4.50356
  2230 52.9185 3.72015 11.5224
  2231 52.9156 3.72258 -11.5198
  2232 95.6991 -0.673725 -4.05795
  2233 95.7000 -0.674819 4.05327
  2234 80.1547 -2.89473 -9.03518
  2235 80.1647 -2.89810 9.03169
  2236 58.3060 -11.1912 -12.5548
  2237 58.2804 -11.1790 12.5477
  2238 34.1444 -6.58547 15.7016
  2239 34.1250 -6.55962 -15.7084
  2240 71.1931 -2.49568 -2.39944
  2241 71.1952 -2.49727 2.40298
  2242 91.4550 -0.654592 9.08475
  2243 58.6930 0.355161 -1.69728
  2244 57.8916 0.365861 2.13800
  2245 57.8890 0.365801 -2.13736
  2246 125.855 5.14467 3.90452
  2247 73.1228 0.0172445 1.68595
  2248 73.1165 0.0172830 -1.68582
  2249 70.6789 -1.41062 -2.57147
  2250 70.6792 -1.41185 2.57550
  2251 68.0448 -1.67223 1.33016
  2252 68.0473 -1.67506 -1.32915
  2253 85.7736 -0.112428 -6.71150
  2254 85.7782 -0.113709 6.70870
  2255 55.7155 -3.41241 14.2585
  2256 55.7067 -3.40986 -14.2597
  2257 31.5710 0.0796847 9.45299
  2258 31.5694 0.0862020 -9.44205
  2259 174.204 8.04699 12.4497
  2260 79.4253 3.54617 -0.696934
  2261 55.3724 1.96313 -3.61386
  2262 55.3729 1.96346 3.61496
  2263 126.186 11.5545 -1.66480
  2264 53.9287 3.39887 -0.593402
  2265 53.9309 3.39868 0.593083
  2266 69.7940 -8.41919 6.51673
  2267 100.479 -1.93151 3.45456
  2268 100.465 -1.91959 -3.44492
  2269 91.5451 -0.634704 -9.33668
  2270 72.6189 0.608414 -9.90749
  2271 72.6245 0.606659 9.90643
  2272 77.6094 -4.46232 -3.73223
  2273 77.5485 -4.60643 3.61323
  2274 58.4651 1.25148 4.34890
  2275 58.4629 1.25135 -4.34781
  2276 87.6914 -1.22897 -6.80020
  2277 87.6968 -1.23106 6.79545
  2278 95.7111 4.33521 5.68204
  2279 103.997 14.6146 0.924124
  2280 47.1303 4.09733 4.12396
  2281 47.1265 4.09604 -4.12686
  2282 88.5800 -0.588956 -1.33704
  2283 62.0611 0.0293883 -1.46666
  2284 63.8485 -12.8680 -15.6594
  2285 96.0423 14.7629 2.36849
  2286 68.0990 0.350446 3.55145
  2287 68.0939 0.350505 -3.55098
  2288 101.784 -0.692293 -3.10238
  2289 101.783 -0.701424 3.12080
  2290 71.0596 -1.17475 5.01723
  2291 71.0555 -1.18459 -5.01052
  2292 65.0726 0.00378077 -1.40360
  2293 65.0570 0.00879047 1.39590
  2294 63.1808 1.04154 5.47068
  2295 63.1772 1.04163 -5.46973
  2296 35.1394 4.64714 -2.93399
  2297 35.1531 4.64257 2.93161
  2298 70.8511 -2.25829 -1.62047
  2299 70.8530 -2.26008 1.62398
  2300 49.4824 5.51626 6.70744
  2301 49.4839 5.51601 -6.70561
  2302 29.1933 3.17790 2.96229
  2303 29.2076 3.17641 -2.95355
  2304 57.4658 0.0409367 0.494472
  2305 57.4626 0.0409285 -0.494309
  2306 73.0093 -11.2227 8.19657
  2307 71.1369 0.543962 10.9583
  2308 71.1310 0.546271 -10.9595
  2309 78.4719 2.42994 5.77748
  2310 51.0346 4.76295 3.09792
  2311 51.0365 4.76244 -3.09721
  2312 64.7358 0.169100 2.32964
  2313 64.7311 0.169107 -2.32918
  2314 61.1319 -0.111510 3.56797
  2315 61.1312 -0.113503 -3.56999
  2316 71.7265 -3.83949 1.51286
  2317 71.7239 -3.83811 -1.50892
  2318 59.7499 0.628306 3.34252
  2319 59.7469 0.628238 -3.34168
  2320 67.9486 2.80613 -3.73268
  2321 67.1069 0.988544 -4.33415
  2322 85.9439 3.15452 -7.13954
  2323 64.0267 0.282230 1.97249
  2324 64.0269 0.281251 -1.97323
  2325 97.5866 5.97565 6.13330
  2326 50.1219 5.32726 5.97124
  2327 50.1234 5.32687 -5.96972
  2328 82.4365 9.58959 5.50477
  2329 64.7260 -0.761496 2.55696
  2330 64.7272 -0.763898 -2.55788
  2331 63.7530 -0.0156203 2.33355
  2332 63.7533 -0.0171141 -2.33452
  2333 53.3240 4.31264 -6.93198
  2334 53.3240 4.31280 6.93362
  2335 57.7751 3.27370 10.1269
  2336 57.7725 3.27485 -10.1253
  2337 42.7228 0.903940 -12.4921
  2338 42.7286 0.898151 12.4971
  2339 107.894 4.95958 8.69804
  2340 117.771 14.2019 -24.2194
  2341 94.0786 -2.10738 8.89196
  2342 80.0506 0.963002 -7.39278
  2343 53.3540 1.44171 -5.81841
  2344 53.3575 1.44440 5.81639
  2345 73.0056 -0.0728232 -0.0441796
  2346 73.0054 -0.0727285 0.0446504
  2347 65.7946 0.742222 -3.43358
  2348 62.5739 0.0555209 0.774585
  2349 62.5692 0.0555157 -0.774399
  2350 57.1463 0.524788 5.00108
  2351 57.1435 0.522732 -5.00335
  2352 73.5579 0.637450 -7.44628
  2353 73.5631 0.636711 7.44600
  2354 74.5541 0.535690 -6.11861
  2355 70.3539 -1.24597 -3.10230
  2356 70.3539 -1.24641 3.10661
  2357 56.1456 0.696658 -2.42853
  2358 56.1472 0.696803 2.42935
  2359 163.956 9.44980 23.2074
  2360 53.5762 3.43289 2.12389
  2361 53.5775 3.43236 -2.12325
  2362 69.8559 -1.08622 -0.284646
  2363 69.8546 -1.08460 0.286570
  2364 43.2213 3.72682 5.95737
  2365 43.2157 3.72660 -5.96321
  2366 60.9494 1.78711 6.56268
  2367 60.9466 1.78723 -6.56147
  2368 117.642 8.88547 25.7030
  2369 16.9665 -16.2073 10.7966
  2370 17.0105 -16.3285 -10.7440
  2371 67.5404 0.975596 6.22899
  2372 67.5359 0.975884 -6.22838
  2373 54.5076 2.55066 -2.77191
  2374 54.5072 2.55114 2.77283
  2375 69.2944 -3.48266 -1.09069
  2376 69.2897 -3.47884 1.09299
  2377 46.9883 5.73748 1.01073
  2378 46.9921 5.73702 -1.01109
  2379 65.9761 0.882644 -5.48205
  2380 65.9804 0.882485 5.48278
  2381 104.776 9.44743 -24.8875
  2382 79.7631 -7.40517 -0.393975
  2383 79.8603 -6.81896 0.995133
  2384 70.2359 0.475250 4.34735
  2385 96.2075 -1.23854 -3.51120
  2386 96.2081 -1.23933 3.50507
  2387 75.6974 -6.85854 0.493201
  2388 75.6809 -6.83972 -0.507525
  2389 63.2795 -1.99440 -4.28905
  2390 63.2784 -1.99035 4.28630
  2391 79.4607 -4.60160 13.7824
  2392 80.1796 -2.72480 -4.59659
  2393 53.8245 3.22241 3.54124
  2394 53.8251 3.22193 -3.54022
  2395 87.8962 -2.75121 -6.19796
  2396 87.9042 -2.75355 6.19166
  2397 67.1697 1.56920 -9.86657
  2398 67.1744 1.56777 9.86674
  2399 58.5017 1.61603 5.01474
  2400 58.4996 1.61591 -5.01355
  2401 91.3820 -0.0243771 -4.20746
  2402 78.5661 6.95639 -5.86783
  2403 70.0274 0.797794 -5.35952
  2404 10.7969 -34.3873 -4.29921
  2405 11.2070 -33.1210 4.80246
  2406 71.2243 2.58388 -5.31263
  2407 106.568 -0.210985 -1.09332
  2408 106.559 -0.211045 1.09059
  2409 60.0435 -0.469179 -4.68587
  2410 60.0451 -0.466684 4.68315
  2411 86.2044 -0.589521 7.00346
  2412 86.1996 -0.587794 -7.00703
  2413 58.2955 1.86955 1.77422
  2414 58.2940 1.86942 -1.77508
  2415 57.6256 1.14445 -3.77240
  2416 57.6276 1.14460 3.77343
  2417 54.7928 2.20662 3.03326
  2418 54.7928 2.20620 -3.03227
  2419 98.2661 6.77966 -3.94090
  2420 61.7373 1.09646 0.767921
  2421 83.9072 16.0966 -0.454684
  2422 53.5714 3.55581 4.46634
  2423 53.5719 3.55538 -4.46516
  2424 150.782 10.5482 -4.88383
  2425 108.689 -0.326276 0.0185550
  2426 108.673 -0.325355 -0.0199639
  2427 81.9450 3.02881 6.05177
  2428 100.896 -0.216538 -2.12660
  2429 100.895 -0.216801 2.12446
  2430 78.0811 0.340868 -8.29613
  2431 78.0865 0.339517 8.29456
  2432 30.7546 -1.09295 -10.5115
  2433 30.7731 -1.09629 10.4961
  2434 60.5671 0.304301 -2.37157
  2435 60.5706 0.304329 2.37217
  2436 84.3588 0.434309 -8.51928
  2437 48.9083 5.69249 4.85613
  2438 48.9106 5.69192 -4.85494
  2439 99.5088 -1.62167 -5.32055
  2440 99.5038 -1.62335 5.35329
  2441 104.005 20.7879 -0.288665
  2442 69.8521 0.0979233 -1.32648
  2443 69.8581 0.0979202 1.32666
  2444 134.877 12.6474 0.323845
  2445 55.3603 1.54940 3.01660
  2446 55.3597 1.54910 -3.01560
  2447 70.3324 -0.115965 -0.984548
  2448 70.3248 -0.116160 0.986742
  2449 56.5012 1.91138 4.45306
  2450 56.5000 1.91113 -4.45186
  2451 67.2088 0.984775 4.41289
  2452 59.7745 0.00789863 -0.501677
  2453 59.7784 0.00790156 0.501821
  2454 62.5630 -0.0525690 2.85955
  2455 62.5631 -0.0543337 -2.86100
  2456 79.9984 -2.61541 4.66463
  2457 64.5146 0.0337462 -0.862657
  2458 64.5197 0.0337419 0.862843
  2459 57.0394 0.274316 0.0472012
  2460 86.0170 0.413281 9.05048
  2461 67.2634 0.181939 -4.30204
  2462 67.3070 0.193931 4.32935
  2463 71.5126 -4.42336 -0.482481
  2464 71.5170 -4.42519 0.487365
  2465 57.3060 -0.148158 5.84806
  2466 57.3029 -0.151033 -5.85062
  2467 41.7895 6.31130 0.960621
  2468 41.7961 6.30969 -0.961031
  2469 56.1988 0.251517 -1.57247
  2470 56.2010 0.251575 1.57302
  2471 44.9398 3.74861 11.2848
  2472 44.9379 3.75191 -11.2800
  2473 109.812 2.43887 -9.48725
  2474 70.5821 6.43934 -1.32604
  2475 91.1465 -8.47791 -0.680502
  2476 91.1334 -8.51239 0.651964
  2477 54.1785 3.13602 1.48926
  2478 54.1799 3.13549 -1.48878
  2479 70.0673 0.764908 5.39759
  2480 149.934 13.6252 -4.37649
  2481 53.3394 4.40254 8.85212
  2482 53.3387 4.40306 -8.85006
  2483 66.8879 3.20662 -2.46002
  2484 59.2250 1.54480 15.3902
  2485 67.8176 -1.02521 12.3947
  2486 67.8097 -1.02191 -12.3961
  2487 113.316 3.55035 9.09264
  2488 52.2507 4.34993 -15.6861
  2489 71.7861 1.37202 5.73894
  2490 73.6245 -3.67612 3.75153
  2491 73.6277 -3.67427 -3.74902
  2492 68.3061 3.22488 3.61224
  2493 94.4628 -5.34064 1.63890
  2494 94.4576 -5.31992 -1.64753
  2495 82.4657 -10.4851 -4.60115
  2496 82.5387 -10.4878 4.59330
  2497 74.3572 -2.26054 -10.9474
  2498 74.3660 -2.26381 10.9451
  2499 52.2605 4.08125 0.169909
  2500 52.2580 4.08142 -0.170146
  2501 31.7551 4.48266 1.20408
  2502 31.7696 4.47928 -1.19964
  2503 65.4229 0.632607 -4.38481
  2504 65.4273 0.632538 4.38551
  2505 76.7514 -11.5657 8.56686
  2506 191.864 5.49037 -11.8703
  2507 59.6523 -0.358668 13.4575
  2508 59.6446 -0.354902 -13.4575
  2509 114.451 6.20047 -7.06768
  2510 70.6637 -0.530171 -0.208128
  2511 70.6631 -0.529258 0.209641
  2512 82.4965 -1.70658 -8.46497
  2513 82.5040 -1.70946 8.46087
  2514 49.3708 5.41594 8.27304
  2515 49.3717 5.41622 -8.27061
  2516 60.6161 -10.9678 15.2348
  2517 70.6562 0.587268 5.53403
  2518 70.6511 0.587557 -5.53371
  2519 64.3280 -4.24543 -5.82395
  2520 64.3237 -4.23787 5.81941
  2521 151.242 10.8458 3.66242
  2522 40.8254 3.72375 10.2678
  2523 40.8256 3.72682 -10.2616
  2524 66.4702 -9.65392 10.6410
  2525 56.3549 0.0124441 0.377770
  2526 56.3520 0.0124420 -0.377636
  2527 94.1874 -0.371721 -10.9102
  2528 55.3567 2.21118 -3.99911
  2529 55.3572 2.21152 4.00027
  2530 52.7293 4.26309 5.31850
  2531 52.7300 4.26268 -5.31716
  2532 76.2351 0.0319959 1.54880
  2533 76.2285 0.0320269 -1.54874
  2534 62.3233 -0.288121 3.23692
  2535 62.3233 -0.290213 -3.23867
  2536 85.6214 4.16506 -3.40073
  2537 107.417 -0.236318 -0.755208
  2538 107.406 -0.236195 0.752529
  2539 73.4893 -1.90861 -5.26925
  2540 73.4980 -1.91473 5.26951
  2541 66.1076 0.283093 2.95525
  2542 66.1027 0.283107 -2.95474
  2543 56.7456 2.39065 5.54235
  2544 56.7443 2.39046 -5.54101
  2545 100.512 8.94150 -3.39934
  2546 67.5633 -2.75125 2.08684
  2547 67.5673 -2.75544 -2.08626
  2548 76.4841 -11.5025 -10.7726
  2549 80.7346 2.37677 -6.16714
  2550 79.6897 -10.2274 8.62062
  2551 73.0383 -6.63101 0.806792
  2552 73.0381 -6.61772 -0.794694
  2553 94.1083 -1.23930 -9.04421
  2554 62.5109 0.617709 2.10646
  2555 62.5106 0.616904 -2.10742
  2556 65.5874 0.00521835 -3.17204
  2557 65.5491 0.0517595 3.16259
  2558 29.0397 -11.2611 11.4248
  2559 29.0178 -11.2552 -11.4243
  2560 94.0669 19.4040 -0.789459
  2561 72.5887 -0.762650 -5.67629
  2562 72.5928 -0.773405 5.65858
  2563 10.3532 -20.4687 -2.97229
  2564 10.3938 -20.4431 3.15302
  2565 56.5155 2.52739 1.04485
  2566 56.5137 2.52757 -1.04535
  2567 59.2457 0.436848 2.57080
  2568 59.2427 0.436785 -2.57009
  2569 94.1918 -1.21717 8.93612
  2570 52.7210 4.46123 9.58617
  2571 52.7201 4.46215 -9.58387
  2572 82.3360 -8.21650 1.84061
  2573 46.0222 6.02201 7.08179
  2574 46.0247 6.02183 -7.07925
  2575 64.9539 1.72533 2.50560
  2576 60.7265 0.527151 2.33583
  2577 74.5981 -8.93852 3.26473
  2578 75.0308 -8.72191 -2.65433
  2579 58.5065 0.0221196 0.509782
  2580 58.5029 0.0221185 -0.509623
  2581 77.8328 -9.32496 2.88026
  2582 51.4042 4.46987 1.77216
  2583 51.4064 4.46945 -1.77181
  2584 57.3646 2.63607 6.43699
  2585 57.3631 2.63600 -6.43558
  2586 97.4986 5.36062 -7.56837
  2587 66.0893 -3.00636 12.8273
  2588 66.0803 -3.00381 -12.8280
  2589 54.4976 -0.150061 -13.8091
  2590 54.5053 -0.154367 13.8100
  2591 104.917 -0.401678 -1.91659
  2592 104.923 -0.404857 1.92559
  2593 78.2635 13.0326 0.0902970
  2594 56.9858 3.00008 7.07962
  2595 56.9844 3.00009 -7.07810
  2596 68.6670 -2.74866 1.30244
  2597 68.6710 -2.75226 -1.30077
  2598 62.8271 -1.23979 3.92149
  2599 62.8277 -1.24298 -3.92387
  2600 160.817 11.6228 1.11123
  2601 27.2422 -3.63520 9.21318
  2602 27.2368 -3.62442 -9.19971
  2603 67.0910 -0.273718 -1.51208
  2604 67.0902 -0.272489 1.51209
  2605 62.0669 0.00329939 1.45482
  2606 162.509 9.14337 -24.1152
  2607 72.9869 -4.67144 -1.87831
  2608 72.9879 -4.67202 1.88390
  2609 99.1098 -2.66977 -4.92619
  2610 99.1268 -2.68332 4.94242
  2611 87.6115 0.0375486 1.68979
  2612 87.6058 0.0375907 -1.69016
  2613 91.1334 -0.205534 4.46177
  2614 67.5192 3.48268 2.51288
  2615 64.0951 0.415921 3.06943
  2616 76.9058 3.00081 -6.32585
  2617 45.5294 5.64204 8.55539
  2618 45.5311 5.64266 -8.55195
  2619 55.1053 2.06208 3.45894
  2620 55.1050 2.06172 -3.45787
  2621 83.7185 -0.0456966 -1.75291
  2622 83.7248 -0.0457382 1.75271
  2623 52.8382 3.86906 3.30115
  2624 52.8394 3.86855 -3.30025
  2625 83.5708 14.5319 -2.79511
  2626 98.8394 -0.339180 -3.40213
  2627 98.8330 -0.354008 3.43154
  2628 97.8510 -1.80734 6.78504
  2629 97.8588 -1.79859 -6.75349
  2630 66.2735 0.0136111 1.57145
  2631 66.2741 0.0127316 -1.57175
  2632 96.2183 -2.26017 -2.27275
  2633 96.2190 -2.25851 2.26555
  2634 141.290 11.4108 -0.0355046
  2635 26.7241 -14.1724 -3.30972
  2636 26.3480 -14.4583 3.24510
  2637 102.538 -3.49664 -8.35287
  2638 102.625 -3.38878 8.35706
  2639 56.3832 0.748895 -2.59319
  2640 56.3849 0.749041 2.59404
  2641 57.9413 1.73152 2.53058
  2642 57.9396 1.73101 -2.53181
  2643 93.4588 -8.75225 1.88493
  2644 93.4291 -8.69286 -1.90952
  2645 97.9023 14.8710 27.5435
  2646 75.5556 -5.02618 11.8444
  2647 76.9097 9.12507 4.46771
  2648 62.1868 2.37756 -9.05130
  2649 62.1902 2.37675 9.05240
  2650 136.036 13.7959 17.2332
  2651 37.0804 5.70316 -0.720544
  2652 37.0913 5.69980 0.719734
  2653 65.1292 2.77991 -0.449031
  2654 59.2882 -1.09218 5.83062
  2655 59.2854 -1.09563 -5.83352
  2656 95.5315 0.0230063 -2.10281
  2657 95.5345 0.0228548 2.10172
  2658 39.5065 4.95633 -8.21131
  2659 39.5031 4.95514 8.21712
  2660 49.3862 5.32302 2.50406
  2661 49.3889 5.32252 -2.50364
  2662 69.7091 -2.16800 0.148332
  2663 69.7117 -2.17054 -0.145777
  2664 72.9000 0.341816 -5.97805
  2665 71.2565 0.875860 7.65818
  2666 71.2514 0.876586 -7.65818
  2667 100.069 -6.19490 3.82665
  2668 100.207 -6.03960 -3.78303
  2669 103.589 -0.120538 -1.56783
  2670 103.585 -0.120706 1.56563
  2671 72.1663 -11.1546 -9.38560
  2672 72.1969 -11.1596 9.41781
  2673 101.539 -1.58562 0.841651
  2674 101.530 -1.57967 -0.842479
  2675 58.0299 0.637437 2.94134
  2676 58.0274 0.637350 -2.94049
  2677 83.7866 -7.95023 -5.81307
  2678 70.1794 -0.416021 1.80062
  2679 70.1839 -0.415422 -1.79716
  2680 49.4284 5.44239 -4.12869
  2681 49.4261 5.44295 4.12963
  2682 68.0848 -0.978530 1.26570
  2683 68.0864 -0.980533 -1.26495
  2684 56.2021 1.62877 -3.83148
  2685 56.2033 1.62903 3.83260
  2686 47.5804 5.00974 -1.47161
  2687 47.5843 5.00998 1.47025
  2688 56.9164 0.229055 -0.492030
  2689 95.2301 -6.52278 4.15439
  2690 95.2091 -6.48675 -4.16186
  2691 65.5770 -2.42411 3.23870
  2692 65.5801 -2.42853 -3.24009
  2693 116.700 2.74218 1.58894
  2694 71.0796 7.30283 0.548929
  2695 67.2992 -6.56053 5.94535
  2696 67.3699 -6.50579 -5.94164
  2697 53.4962 3.59364 1.21614
  2698 53.4979 3.59315 -1.21580
  2699 73.9265 -5.55278 -10.3837
  2700 73.9402 -5.55559 10.3848
  2701 89.2687 1.33191 -12.9513
  2702 51.4393 4.74514 5.09750
  2703 51.4405 4.74469 -5.09625
  2704 53.5106 3.96619 5.96174
  2705 53.5108 3.96589 -5.96029
  2706 70.0724 0.819104 6.63855
  2707 70.0675 0.819558 -6.63824
  2708 68.7303 1.30740 -4.92316
  2709 66.6143 -9.61093 -10.2341
  2710 82.2109 1.03262 8.13590
  2711 63.1012 2.19781 9.96421
  2712 63.0972 2.19910 -9.96338
  2713 121.015 8.80197 -4.52021
  2714 88.8341 -10.2659 -0.958205
  2715 88.8945 -10.2287 0.890223
  2716 54.2330 2.91629 2.19897
  2717 54.2339 2.91577 -2.19824
  2718 76.8730 2.53132 6.38521
  2719 133.558 14.9857 -18.1915
  2720 64.4314 0.314413 -3.20174
  2721 70.6158 -2.21214 -1.00619
  2722 70.6177 -2.21413 1.00944
  2723 93.6885 -0.240304 -3.90388
  2724 93.6910 -0.240836 3.90134
  2725 58.6040 1.00935 3.90297
  2726 58.6017 1.00925 -3.90195
  2727 63.6982 1.90531 0.947590
  2728 52.6077 3.93644 2.20608
  2729 52.6093 3.93594 -2.20549
  2730 88.8939 17.3585 2.00807
  2731 71.0568 -0.260308 -0.392318
  2732 71.0562 -0.259798 0.393190
  2733 57.4182 0.400288 2.25314
  2734 57.4158 0.400219 -2.25244
  2735 18.1453 -24.0362 0.0773240
  2736 18.1736 -24.0536 -0.106907
  2737 44.5486 6.26446 2.29842
  2738 44.5534 6.26350 -2.29822
  2739 62.2052 0.618874 3.80841
  2740 62.2015 0.618861 -3.80760
  2741 73.7961 4.62918 -5.60716
  2742 66.6379 -8.34300 8.80705
  2743 78.9243 4.42148 6.16549
  2744 82.6438 -5.52992 -6.95092
  2745 82.6618 -5.53333 6.94620
  2746 88.6701 -1.07377 1.48204
  2747 69.7419 0.451335 4.45295
  2748 69.7367 0.451481 -4.45252
  2749 75.9173 -7.40896 -10.0422
  2750 65.5778 1.56355 -7.68468
  2751 65.5818 1.56305 7.68545
  2752 72.4633 -12.9833 -8.24155
  2753 72.6533 -12.9919 8.36332
  2754 88.6121 -7.05129 -2.46328
  2755 88.6314 -7.04209 2.44838
  2756 95.8483 -0.263404 -3.83962
  2757 95.8493 -0.264188 3.83601
  2758 50.1688 2.93194 4.94226
  2759 50.1656 2.92986 -4.94453
  2760 66.5233 0.0391345 0.918712
  2761 66.5178 0.0391398 -0.918541
  2762 70.7846 -1.53823 -1.61078
  2763 70.7852 -1.53980 1.61432
  2764 72.0399 -9.87166 -6.65487
  2765 48.7424 5.01337 0.540879
  2766 48.7390 5.01336 -0.541660
  2767 61.2532 0.177541 1.89674
  2768 61.2493 0.177521 -1.89626
  2769 104.324 -1.07756 4.58665
  2770 54.8266 -1.55882 8.88756
  2771 54.8213 -1.56577 -8.88841
  2772 72.9262 0.191431 -3.27036
  2773 72.9320 0.191335 3.27055
  2774 73.5963 9.07199 0.918293
  2775 95.4234 -4.48955 -6.33977
  2776 65.6907 -3.52894 -4.13826
  2777 65.6870 -3.52335 4.13585
  2778 97.6478 -4.14445 -7.47605
  2779 97.6866 -4.15386 7.48676
  2780 63.4075 0.173460 2.16709
  2781 63.4031 0.173462 -2.16661
  2782 52.9934 3.79384 2.79981
  2783 52.9946 3.79332 -2.79903
  2784 77.5524 -9.88017 -3.32201
  2785 76.0315 7.53043 -4.95541
  2786 111.705 2.62173 -7.64645
  2787 54.4836 2.57229 -3.32350
  2788 54.4834 2.57273 3.32452
  2789 104.929 14.8190 -1.46465
  2790 70.5626 -11.5003 -15.0118
  2791 93.9758 -0.0165385 -1.94584
  2792 93.9797 -0.0166580 1.94504
  2793 88.7825 4.76048 5.47548
  2794 55.7585 2.78599 -0.558014
  2795 55.7603 2.78568 0.557731
  2796 51.9333 4.33604 -2.43854
  2797 51.9314 4.33653 2.43914
  2798 57.0737 0.702745 -2.76807
  2799 57.0757 0.702865 2.76892
  2800 43.8698 -13.1386 -18.5219
  2801 99.4538 -0.205583 -1.84057
  2802 99.4545 -0.205765 1.83908
  2803 104.298 8.36658 2.85758
  2804 57.7583 1.47001 4.46833
  2805 57.7564 1.46985 -4.46717
  2806 69.3930 -0.0576032 0.987675
  2807 69.4030 -0.0575010 -0.985527
  2808 42.8604 -13.0616 18.5690
  2809 72.4043 -7.48436 10.3497
  2810 72.3891 -7.48274 -10.3440
  2811 65.4781 1.47385 -11.2786
  2812 65.4833 1.47165 11.2786
  2813 75.7150 6.73177 5.29495
  2814 84.4363 -7.07861 -2.10393
  2815 47.4773 6.04220 -4.36601
  2816 47.4743 6.04289 4.36707
  2817 71.2170 -0.610715 -0.666865
  2818 71.2164 -0.611585 0.669333
  2819 58.2213 2.69362 7.33607
  2820 58.2194 2.69374 -7.33460
  2821 50.3630 4.05263 2.43485
  2822 50.3598 4.05197 -2.43610
  2823 41.3388 6.15160 5.85955
  2824 41.3439 6.15101 -5.85623
  2825 84.3056 8.03596 -21.6302
  2826 54.3162 3.81325 10.9809
  2827 54.3137 3.81513 -10.9787
  2828 85.0180 0.00893565 -5.80686
  2829 85.0228 0.00822414 5.80513
  2830 55.2635 3.73475 7.83377
  2831 55.2625 3.73491 -7.83206
  2832 60.4003 0.0979119 1.24861
  2833 52.0493 4.34512 -4.35864
  2834 52.0481 4.34559 4.35974
  2835 58.5950 -2.25254 -7.45334
  2836 58.5981 -2.24705 7.44939
  2837 60.9871 0.647508 -1.62073
  2838 72.1235 -2.59089 -3.98013
  2839 72.1277 -2.59175 3.98376
  2840 60.5555 0.674801 2.85111
  2841 60.5546 0.673647 -2.85261
  2842 55.9565 2.45228 5.06676
  2843 55.9557 2.45202 -5.06545
  2844 54.0987 1.77641 4.94942
  2845 54.0955 1.77449 -4.95127
  2846 63.9880 1.97327 -10.9203
  2847 63.9927 1.97137 10.9207
  2848 100.881 -1.54284 -0.242817
  2849 100.875 -1.53908 0.238997
  2850 54.7908 3.08085 0.807865
  2851 54.7887 3.08103 -0.808256
  2852 70.7480 -6.82932 -3.24934
  2853 70.7789 -6.78734 3.17691
  2854 62.4993 0.0957209 -1.48647
  2855 62.5037 0.0957254 1.48682
  2856 52.4012 4.68577 7.60966
  2857 52.4014 4.68577 -7.60780
  2858 70.8981 -10.1963 9.74094
  2859 70.1290 -10.5008 -9.46416
  2860 73.1241 -0.0510826 -0.00987887
  2861 73.1238 -0.0511596 0.0104065
  2862 56.6925 0.948613 -3.10570
  2863 56.6942 0.948776 3.10666
  2864 87.0462 -8.71368 -2.42862
  2865 87.0807 -8.70491 2.41049
  2866 51.7752 0.945970 -7.33543
  2867 51.7779 0.950393 7.33286
  2868 59.3785 0.156865 -1.60591
  2869 59.3820 0.156888 1.60637
  2870 28.4104 2.10345 -4.26684
  2871 28.4349 2.09669 4.26613
  2872 95.8858 -0.399478 11.2751
  2873 52.5462 3.79552 -1.09810
  2874 52.5489 3.79556 1.09754
  2875 58.9546 1.00495 -3.29082
  2876 58.9562 1.00607 3.28913
  2877 53.8407 3.11688 2.64332
  2878 53.8416 3.11637 -2.64250
  2879 58.6003 -14.4081 -10.9457
  2880 58.7366 -14.2203 10.5857
  2881 76.2735 -4.25353 3.91709
  2882 76.2333 -4.21102 -3.95041
  2883 40.6622 -3.19371 13.3980
  2884 40.6500 -3.18586 -13.3952
  2885 66.6623 2.16244 3.58518
  2886 70.6486 -1.01591 2.05262
  2887 70.6497 -1.01472 -2.04880
  2888 64.7680 -2.52234 3.87836
  2889 64.7705 -2.52692 -3.88059
  2890 25.1424 1.03140 -1.92456
  2891 25.1224 1.03333 1.93618
  2892 44.1712 5.11327 9.54440
  2893 44.1723 5.11488 -9.54008
  2894 67.1759 0.168002 2.26695
  2895 67.1707 0.168012 -2.26658
  2896 71.2669 3.64953 4.99574
  2897 93.4758 -0.768306 -6.91107
  2898 46.5893 1.74977 -12.8314
  2899 46.5945 1.74486 12.8352
  2900 56.5628 1.52037 -3.90537
  2901 56.5642 1.52059 3.90648
  2902 94.6085 -3.67425 -1.05793
  2903 94.6104 -3.66696 1.04975
  2904 69.9680 0.00252240 -5.27889
  2905 63.2559 0.530633 -2.78217
  2906 55.8074 0.00388280 0.318299
  2907 55.8047 0.00388342 -0.318186
  2908 103.880 -3.90041 2.36754
  2909 103.791 -3.85227 -2.23108
  2910 61.5123 0.904653 2.09675
  2911 61.5117 0.904032 -2.09776
  2912 56.3805 0.936295 -2.90256
  2913 56.3820 0.936467 2.90349
  2914 59.8616 0.881415 3.96326
  2915 59.8587 0.881349 -3.96231
  2916 73.3101 -8.12162 -2.92845
  2917 73.2062 -8.15645 2.99172
  2918 141.091 10.1983 -3.73028
  2919 86.1082 2.23869 -8.73481
  2920 64.0793 0.0829884 -2.71641
  2921 142.596 8.66340 -12.1272
  2922 74.5056 10.1979 -0.899294
  2923 121.457 11.5128 0.712987
  2924 88.3071 -2.19820 9.57664
  2925 84.1063 -2.41735 3.56557
  2926 60.2019 0.0921025 -1.18240
  2927 54.3869 2.93308 4.12896
  2928 54.3870 2.93266 -4.12779
  2929 88.1065 -9.58016 -3.79026
  2930 88.6561 -9.42407 3.44040
  2931 137.759 9.83348 28.6865
  2932 102.128 9.87261 14.1202
  2933 55.2560 3.46045 -6.63986
  2934 55.2566 3.46059 6.64140
  2935 115.692 14.3813 8.35595
  2936 81.6965 -0.870726 -8.52878
  2937 81.7029 -0.873173 8.52524
  2938 57.8064 0.0708522 -0.959877
  2939 57.8095 0.0708653 0.960173
  2940 65.6423 -0.176025 1.84399
  2941 65.6430 -0.177359 -1.84440
  2942 69.4083 -1.45837 -0.482663
  2943 69.4065 -1.45627 0.484581
  2944 60.0982 2.74243 9.78287
  2945 60.0951 2.74349 -9.78154
  2946 70.7759 -1.65345 4.01425
  2947 70.7740 -1.65460 -4.00912
  2948 67.3195 -1.86029 1.85027
  2949 67.3224 -1.86357 -1.84979
  2950 57.9718 0.261422 0.832044
  2951 73.6276 8.42956 2.63279
  2952 102.243 2.04868 10.8593
  2953 58.1006 0.213176 -1.69760
  2954 58.1035 0.213211 1.69812
  2955 69.1317 2.25739 -4.73776
  2956 58.6981 0.390253 2.41576
  2957 58.6952 0.390200 -2.41507
  2958 67.6435 -0.218033 -1.34440
  2959 67.6427 -0.217020 1.34450
  2960 51.8353 3.95200 -1.40404
  2961 51.8381 3.95223 1.40334
  2962 193.296 5.91605 11.7884
  2963 76.0753 0.459635 5.44416
  2964 76.0698 0.460000 -5.44434
  2965 61.9026 0.340061 -2.72130
  2966 61.9065 0.340077 2.72193
  2967 69.9807 -0.0113167 5.28869
  2968 59.3929 1.85579 5.99819
  2969 59.3906 1.85576 -5.99692
  2970 57.3656 1.94291 5.14447
  2971 57.3640 1.94275 -5.14319
  2972 62.2361 -2.05359 -5.09491
  2973 62.2363 -2.04945 5.09139
  2974 53.7976 3.15532 3.19872
  2975 53.7983 3.15482 -3.19777
  2976 88.5193 18.1182 0.137570
  2977 31.5548 1.92116 -6.98740
  2978 31.5750 1.91427 6.97959
  2979 66.3185 0.466409 -4.02343
  2980 52.2481 4.40622 10.3478
  2981 52.2468 4.40767 -10.3452
  2982 62.6873 0.339891 2.38516
  2983 62.6871 0.338697 -2.38626
  2984 86.9867 7.78855 22.1403
  2985 61.4008 1.90419 7.13941
  2986 61.3978 1.90442 -7.13822
  2987 38.7276 -4.34366 -14.3862
  2988 90.7175 1.96772 9.91946
  2989 58.1704 -3.02420 8.73365
  2990 58.1634 -3.02799 -8.73878
  2991 69.1924 -0.447231 -2.39887
  2992 69.1873 -0.447231 2.40258
  2993 71.5283 1.15240 -5.69420
  2994 101.751 2.19373 -10.6041
  2995 59.5794 2.70420 8.73986
  2996 59.5768 2.70478 -8.73844
  2997 143.277 9.01871 8.20156
  2998 106.201 18.5353 0.523781
  2999 11.4374 -21.5692 -2.29465
  3000 11.4839 -21.6393 2.28729
  3001 71.9510 -5.20215 -0.0796440
  3002 71.9567 -5.20379 0.0865128
  3003 61.0444 0.477470 -3.22674
  3004 61.0478 0.477492 3.22752
  3005 113.450 7.69659 6.61441
  3006 38.2351 -0.575367 11.9091
  3007 38.2280 -0.567990 -11.9021
  3008 39.6621 6.35224 2.73088
  3009 39.6697 6.35035 -2.72940
  3010 67.8285 4.27891 -1.54214
  3011 81.9400 -0.0172004 -7.71152
  3012 81.9452 -0.0186313 7.70908
  3013 48.9806 4.87876 9.82115
  3014 48.9803 4.88008 -9.81803
  3015 79.9942 0.158302 5.91337
  3016 123.799 12.0640 -31.1800
  3017 66.8862 1.11542 -7.02198
  3018 66.8905 1.11501 7.02263
  3019 67.2363 1.40502 8.44413
  3020 67.2319 1.40583 -8.44365
  3021 64.9800 0.312271 3.08233
  3022 64.9754 0.312288 -3.08176
  3023 69.2068 -0.878175 0.785713
  3024 69.2081 -0.879762 -0.784482
  3025 51.9666 4.25934 -1.20504
  3026 51.9644 4.25974 1.20526
  3027 130.430 7.36423 -10.8875
  3028 56.6941 0.153730 1.32388
  3029 56.6916 0.153702 -1.32344
  3030 71.6976 -0.115188 -0.355493
  3031 71.6969 -0.114938 0.356079
  3032 61.9064 0.0505503 0.615957
  3033 61.9018 0.0505411 -0.615796
  3034 38.3982 1.65475 9.06956
  3035 38.3892 1.65759 -9.07913
  3036 71.2718 -0.616781 -5.46573
  3037 71.2957 -0.616551 5.46688
  3038 74.6160 0.114030 6.07710
  3039 74.8860 0.0882063 -1.13738
  3040 74.8926 0.0881961 1.13744
  3041 98.1618 -5.35360 -7.43586
  3042 98.1931 -5.35715 7.45754
  3043 55.8537 2.70056 5.45148
  3044 55.8529 2.70031 -5.45012
  3045 56.2395 -0.261064 -6.63100
  3046 56.2432 -0.257609 6.62828
  3047 63.6221 -0.251771 2.63859
  3048 63.6226 -0.253656 -2.63976
  3049 113.800 18.9058 -2.01673
  3050 67.3746 -0.515092 -1.47573
  3051 67.3735 -0.513574 1.47593
  3052 60.9429 2.40559 8.24236
  3053 60.9400 2.40605 -8.24108
  3054 123.139 8.71605 4.20477
  3055 34.6584 2.96818 -6.41892
  3056 34.6734 2.96392 6.41222
  3057 51.6919 3.72275 -2.25174
  3058 51.6949 3.72328 2.25072
  3059 73.9103 -7.43631 1.22823
  3060 73.8703 -7.44108 -1.25002
  3061 56.6337 0.446394 -2.14082
  3062 56.6357 0.446480 2.14152
  3063 34.9896 4.68358 6.23181
  3064 34.9967 4.68388 -6.22482
  3065 70.8708 -1.03164 1.43177
  3066 70.8714 -1.03037 -1.42840
  3067 88.8048 5.09325 2.02977
  3068 53.5948 -11.9354 17.5770
  3069 66.4791 -4.94427 -4.93856
  3070 66.4783 -4.93435 4.94282
  3071 67.9414 -11.1240 -11.1451
  3072 60.2032 0.477945 3.28556
  3073 60.2021 0.476498 -3.28734
  3074 70.7041 -3.25065 -0.737622
  3075 70.7072 -3.25284 0.741138
  3076 29.1411 -4.68010 -13.3178
  3077 29.1546 -4.68328 13.3086
  3078 81.4350 0.0551004 4.41235
  3079 58.9291 0.874827 0.0515909
  3080 50.9534 4.18345 -0.927396
  3081 50.9563 4.18357 0.926784
  3082 40.8931 -6.94446 -13.8966
  3083 40.9111 -6.95173 13.8949
  3084 65.2391 2.31295 -2.03315
  3085 70.7351 13.0038 -26.8283
  3086 64.1872 -13.0420 15.7710
  3087 108.883 -0.253392 -0.407960
  3088 108.900 -0.254468 0.407791
  3089 64.0648 0.0938051 2.69364
  3090 56.1414 2.58904 -1.35832
  3091 56.1434 2.58898 1.35769
  3092 77.6073 -0.379287 9.69229
  3093 77.6011 -0.377005 -9.69483
  3094 77.1714 0.472870 -7.27085
  3095 77.1767 0.471991 7.26997
  3096 78.0425 0.00205058 -1.27051
  3097 78.0493 0.00202678 1.27054
  3098 72.2078 -0.0124911 -0.202821
  3099 72.2065 -0.0124676 0.202851
  3100 7.05441 -46.4985 3.60192
  3101 7.17249 -46.4815 -3.79775
  3102 59.0798 -0.00651780 -0.564712
  3103 59.0835 -0.00652201 0.564883
  3104 71.8299 -3.32231 11.4867
  3105 71.8202 -3.31916 -11.4880
  3106 77.8683 0.411914 6.06706
  3107 70.7195 2.43845 5.27720
  3108 55.1670 1.78253 3.03836
  3109 55.1666 1.78218 -3.03736
  3110 115.915 10.4144 -0.299009
  3111 53.4552 3.50442 3.69894
  3112 53.4559 3.50394 -3.69791
  3113 20.8991 -6.86492 -6.38617
  3114 20.9012 -6.87828 6.40687
  3115 68.1995 -0.0409494 -1.14811
  3116 68.1987 -0.0403472 1.14812
  3117 63.9950 1.45673 7.07606
  3118 63.9913 1.45706 -7.07512
  3119 68.7766 1.18258 4.94571
  3120 58.1757 0.769446 -0.708783
  3121 71.5573 -0.0726484 -0.399827
  3122 71.5565 -0.0724414 0.400230
  3123 71.8417 -0.284418 0.0609472
  3124 71.8420 -0.284005 -0.0595597
  3125 63.9200 0.568219 3.93670
  3126 63.9159 0.568238 -3.93597
  3127 67.8588 -0.363834 2.79849
  3128 67.8641 -0.366584 -2.79572
  3129 60.4634 -1.20879 -5.22542
  3130 60.4650 -1.20562 5.22227
  3131 83.4636 -3.46357 -3.15112
  3132 66.5106 1.82240 -3.64253
  3133 83.4258 10.2427 -5.23196
  3134 40.2462 5.20443 -2.92439
  3135 40.2545 5.20257 2.92091
  3136 55.9679 0.842840 2.55880
  3137 55.9665 0.842668 -2.55793
  3138 58.8657 -6.67825 -11.9572
  3139 58.9028 -6.66549 11.8721
  3140 66.4024 0.521377 4.11339
  3141 56.1320 0.510571 -2.11273
  3142 56.1337 0.510682 2.11345
  3143 91.9443 2.28313 -10.0563
  3144 61.9423 1.78371 -11.9792
  3145 61.9475 1.78100 11.9796
  3146 103.414 -0.709740 -1.11050
  3147 103.406 -0.709111 1.10615
  3148 33.7464 2.38420 8.60510
  3149 33.7486 2.38797 -8.59546
  3150 17.3449 -5.77174 0.0882087
  3151 17.3056 -5.76928 -0.0630256
  3152 89.2742 -2.84635 3.11278
  3153 103.948 -2.07155 -4.02058
  3154 66.0561 -11.7350 13.2503
  3155 46.3036 0.514671 -9.54677
  3156 46.3056 0.517848 9.53792
  3157 102.613 -0.400796 -2.03610
  3158 102.608 -0.401087 2.03170
  3159 74.7757 0.129791 3.10666
  3160 74.7697 0.129880 -3.10656
  3161 57.0432 0.0254821 -0.455892
  3162 57.0463 0.0254904 0.456049
  3163 66.5740 -0.591289 1.74012
  3164 66.5753 -0.593098 -1.74017
  3165 93.8254 -0.615927 6.92760
  3166 70.1754 -0.582633 0.483539
  3167 70.1762 -0.583665 -0.482278
  3168 84.8509 -7.49866 4.33592
  3169 70.0559 -1.73967 -0.165262
  3170 70.0575 -1.74175 0.167943
  3171 53.9063 2.87021 2.98581
  3172 53.9034 2.86953 -2.98700
  3173 54.0688 4.13633 8.19108
  3174 54.0682 4.13656 -8.18925
  3175 67.7063 0.489327 4.50784
  3176 67.7015 0.489447 -4.50727
  3177 71.2926 -12.8398 -12.5389
  3178 58.9629 1.10986 13.0240
  3179 58.9566 1.11353 -13.0234
  3180 78.3811 -2.04925 9.71086
  3181 78.3721 -2.04600 -9.71403
  3182 72.9107 -0.00512862 -0.142141
  3183 72.9097 -0.00509408 0.142322
  3184 60.0143 0.164046 -1.54675
  3185 60.0179 0.164072 1.54718
  3186 80.8266 14.6638 0.834324
  3187 68.8169 -12.8798 -9.80068
  3188 68.8186 -12.8577 9.89132
  3189 72.9269 0.151733 5.90588
  3190 86.4648 -6.77293 4.08982
  3191 86.4432 -6.77413 -4.09962
  3192 80.6063 13.2137 2.93721
  3193 72.1365 -3.17625 3.20113
  3194 72.1340 -3.17520 -3.19816
  3195 54.4153 3.13162 0.764200
  3196 54.4170 3.13115 -0.763986
  3197 97.1635 -0.898478 5.78752
  3198 97.2293 -0.868929 -5.77118
  3199 78.6932 -3.44757 -4.46420
  3200 47.0862 6.06385 -3.32509
  3201 47.0828 6.06458 3.32571
  3202 73.0604 3.15340 -5.79506
  3203 63.7169 0.262478 -2.67232
  3204 63.7213 0.262473 2.67287
  3205 74.1990 2.22685 2.31940
  3206 94.5370 1.66899 -10.8953
  3207 65.9823 1.12144 6.28896
  3208 65.9781 1.12169 -6.28820
  3209 79.1515 12.0008 24.9719
  3210 68.2500 0.174711 2.48010
  3211 68.2447 0.174730 -2.47973
  3212 86.7909 15.4905 3.38507
  3213 69.1911 2.08267 4.86116
  3214 72.3714 5.23457 -4.56447
  3215 71.7696 -3.24168 -2.36554
  3216 71.7720 -3.24301 2.36890
  3217 51.3218 4.79497 4.35030
  3218 51.3233 4.79447 -4.34923
  3219 94.9920 4.16034 8.18312
  3220 78.2214 -3.04749 4.67112
  3221 54.0349 -14.2800 -11.7875
  3222 54.4675 -14.2253 11.5187
  3223 105.497 -2.55264 -5.81568
  3224 98.4859 -2.37883 10.5199
  3225 98.4786 -2.45279 -10.5472
  3226 67.1385 -2.23520 2.10468
  3227 67.1418 -2.23892 -2.10437
  3228 24.0927 -1.27699 -4.32602
  3229 24.0802 -1.27926 4.34377
  3230 71.2090 -0.102554 0.727058
  3231 71.2152 -0.102375 -0.725346
  3232 55.8505 1.92039 -4.04750
  3233 55.8514 1.92068 4.04866
  3234 81.3249 -7.12440 0.326766
  3235 69.4021 -6.06815 3.56965
  3236 69.4061 -6.07011 -3.60963
  3237 53.9611 3.44119 0.779627
  3238 53.9628 3.44073 -0.779417
  3239 61.1207 -2.53621 -13.7584
  3240 61.1292 -2.53891 13.7578
  3241 70.8010 0.0115444 -11.3528
  3242 70.8076 0.00878107 11.3513
  3243 61.3150 0.843596 1.33783
  3244 70.6692 -1.01061 -0.358982
  3245 70.6697 -1.01193 0.361415
  3246 70.4287 0.177048 2.77105
  3247 70.4230 0.177101 -2.77074
  3248 87.6902 4.67578 4.86434
  3249 63.2203 -0.697021 3.19674
  3250 63.2209 -0.699533 -3.19839
  3251 35.1660 -12.5667 -12.1522
  3252 35.1955 -12.5622 12.1478
  3253 54.2710 2.75553 2.92199
  3254 54.2715 2.75504 -2.92107
  3255 69.1020 -0.748987 -4.00648
  3256 69.0995 -0.743844 4.00921
  3257 57.3910 1.00051 -3.42473
  3258 57.3929 1.00066 3.42571
  3259 74.9022 -4.05696 -10.5059
  3260 74.9136 -4.06050 10.5045
  3261 70.6418 -1.71148 1.06330
  3262 70.6407 -1.70974 -1.06007
  3263 64.3941 0.779737 4.66275
  3264 64.3900 0.779793 -4.66195
  3265 67.7967 -5.87529 4.83111
  3266 67.7733 -5.84863 -4.81888
  3267 70.9483 -0.745133 0.284221
  3268 70.9481 -0.744126 -0.282031
  3269 102.414 3.19872 10.2420
  3270 75.6912 0.530602 6.22589
  3271 75.6857 0.531103 -6.22619
  3272 72.2776 -0.131095 -0.134341
  3273 72.2774 -0.130846 0.135124
  3274 96.2234 16.0473 -2.04239
  3275 80.1714 -9.98857 4.35781
  3276 71.5657 -0.337830 -0.834969
  3277 71.5634 -0.338341 0.837303
  3278 59.9870 -2.05804 -6.39732
  3279 59.9902 -2.05326 6.39412
  3280 82.2869 -3.64127 -12.4946
  3281 51.3992 4.82613 -5.79839
  3282 51.3981 4.82650 5.79983
  3283 12.5296 -34.2740 -1.79941
  3284 14.2249 -30.1750 4.30050
  3285 53.0076 -1.51448 -9.76580
  3286 53.0050 -1.50448 9.76429
  3287 105.675 -2.41413 5.82831
  3288 56.4585 0.0626325 -0.750333
  3289 56.4611 0.0626504 0.750593
  3290 42.5706 5.24597 -2.56981
  3291 42.5770 5.24513 2.56680
  3292 11.5406 -16.2716 -0.790801
  3293 11.5447 -16.3063 0.851056
  3294 88.4344 0.0167478 -4.68759
  3295 88.4386 0.0162241 4.68583
  3296 70.4771 -8.77178 -6.31120
  3297 80.1262 -0.286729 -5.68573
  3298 94.2994 6.64032 1.59076
  3299 54.7898 3.07894 -0.356345
  3300 54.7881 3.07939 0.356421
  3301 60.3067 -0.00666736 -0.428756
  3302 60.3109 -0.00667843 0.428883
  3303 69.8481 -0.0153393 -0.804799
  3304 69.8473 -0.0150511 0.804878
  3305 60.7935 1.20221 5.14846
  3306 60.7905 1.20221 -5.14738
  3307 70.7390 -4.24683 -0.228166
  3308 70.7335 -4.24365 0.232269
  3309 91.7011 4.08050 -2.21030
  3310 64.7220 -0.242656 -2.20057
  3311 64.7213 -0.240982 2.19984
  3312 60.7960 0.490293 1.86921
  3313 100.794 -0.300128 -2.51404
  3314 100.791 -0.300616 2.51033
  3315 38.4016 -5.17399 15.4860
  3316 38.4163 -5.13882 -15.5267
  3317 66.8726 3.51673 1.38604
  3318 71.8845 -1.80452 4.89792
  3319 71.8788 -1.80779 -4.89058
  3320 73.0283 -3.91501 3.00390
  3321 73.0285 -3.91493 -3.00062
  3322 96.1830 -7.16819 4.72044
  3323 96.1553 -7.12689 -4.72268
  3324 45.8216 -3.20630 10.4957
  3325 109.405 0.822458 -8.13573
  3326 92.1691 8.22845 -3.69727
  3327 45.6605 4.30863 10.7981
  3328 45.6594 4.31113 -10.7938
  3329 114.463 5.86520 7.35892
  3330 44.7839 6.44094 3.79246
  3331 44.7883 6.43995 -3.79148
  3332 56.4522 2.13632 -4.83116
  3333 56.4533 2.13656 4.83242
  3334 92.9564 -2.52071 -3.48764
  3335 92.9612 -2.52069 3.48012
  3336 53.7412 3.35789 -4.13008
  3337 53.7407 3.35834 4.13121
  3338 47.5988 2.83294 -6.05278
  3339 47.6019 2.83563 6.04884
  3340 54.4023 3.32685 5.16885
  3341 54.4023 3.32650 -5.16752
  3342 81.0617 -0.111541 -4.45306
  3343 60.6210 1.54871 5.82245
  3344 60.6182 1.54874 -5.82129
  3345 67.5249 -1.19061 1.53236
  3346 67.5268 -1.19302 -1.53182
  3347 87.1703 0.0221855 -3.96838
  3348 130.533 8.00738 0.0271055
  3349 22.2121 -13.7398 -8.48446
  3350 22.2336 -13.7529 8.48264
  3351 39.0353 2.68750 -10.5475
  3352 39.0363 2.68313 10.5547
  3353 68.0425 0.944801 -11.4637
  3354 68.0485 0.942290 11.4629
  3355 97.1100 -2.42975 -1.16956
  3356 97.1088 -2.42585 1.16308
  3357 66.1639 1.28903 3.79573
  3358 71.3458 -5.66609 -1.07396
  3359 71.3314 -5.66016 1.08282
  3360 87.7165 4.92790 0.441379
  3361 39.2858 5.77822 6.17314
  3362 39.2915 5.77783 -6.16857
  3363 96.1146 -3.76198 0.366169
  3364 96.1118 -3.75045 -0.372028
  3365 71.8080 -9.64915 6.28491
  3366 87.5188 15.7469 -3.08005
  3367 50.3372 5.05677 2.46591
  3368 50.3395 5.05628 -2.46543
  3369 54.4693 3.47931 -5.84312
  3370 54.4695 3.47958 5.84455
  3371 57.3262 -4.40663 10.7945
  3372 57.3442 -4.45093 -10.7963
  3373 104.343 -0.810506 -0.412930
  3374 104.334 -0.808861 0.409634
  3375 78.5030 0.0699687 -8.72720
  3376 78.5085 0.0682860 8.72518
  3377 89.1083 -4.51870 -4.13251
  3378 89.1199 -4.51773 4.12348
  3379 70.4721 -0.262344 -0.601122
  3380 70.4714 -0.261782 0.601770
  3381 51.1126 3.58843 -11.8939
  3382 51.1157 3.58552 11.8967
  3383 83.9155 -3.26130 7.62614
  3384 83.9053 -3.25800 -7.63096
  3385 20.0754 -22.5860 -5.40150
  3386 20.0692 -22.5574 5.38072
  3387 55.8502 0.0325877 -0.590183
  3388 55.8527 0.0325868 0.590398
  3389 86.3330 5.56290 -5.52454
  3390 54.6859 2.30691 2.86389
  3391 54.6861 2.30646 -2.86294
  3392 55.6016 1.18330 -2.83016
  3393 55.6026 1.18355 2.83111
  3394 47.6125 2.90247 -12.2842
  3395 47.6163 2.89839 12.2880
  3396 71.5003 0.00263520 -0.410038
  3397 72.5370 -0.00504421 0.159500
  3398 71.4992 0.00270212 0.410081
  3399 72.5384 -0.00506895 -0.159443
  3400 76.4077 -7.94684 0.765240
  3401 76.3484 -7.96447 -0.697220
  3402 49.7483 2.19180 -6.38638
  3403 49.7512 2.19503 6.38332
  3404 52.3457 -9.13223 13.9133
  3405 52.3409 -9.13737 -13.9245
  3406 79.4258 0.127811 4.91455
  3407 79.4201 0.128146 -4.91508
  3408 56.9778 0.0717858 0.584181
  3409 69.9934 -4.61597 1.27322
  3410 70.0017 -4.62108 -1.27016
  3411 63.6407 1.20815 6.12595
  3412 63.6370 1.20832 -6.12499
  3413 70.9043 -0.941033 0.720282
  3414 70.9043 -0.939863 -0.717524
  3415 179.709 7.21872 22.1157
  3416 57.7378 0.498286 -2.55099
  3417 57.7402 0.498365 2.55176
  3418 59.3285 2.26104 6.94696
  3419 59.3262 2.26112 -6.94560
  3420 20.0516 -4.79928 -3.45547
  3421 20.0363 -4.80573 3.48010
  3422 55.5596 2.28824 2.82995
  3423 55.5571 2.28765 -2.83119
  3424 31.7339 4.13582 -1.68801
  3425 31.7515 4.13061 1.68892
  3426 110.610 2.44921 8.30466
  3427 75.7206 1.62913 -5.28837
  3428 68.7854 -1.41935 0.914117
  3429 68.7873 -1.42166 -0.912727
  3430 59.4733 -4.73822 9.75026
  3431 59.5047 -4.81978 -9.74908
  3432 56.0422 3.03999 6.34107
  3433 56.0412 3.03983 -6.33960
  3434 71.7268 0.688896 6.77716
  3435 71.7218 0.689414 -6.77706
  3436 98.5407 -3.10008 2.69909
  3437 98.5292 -3.08370 -2.69648
  3438 56.8651 1.85845 -3.03295
  3439 56.8673 1.85917 3.03156
  3440 48.9597 -1.05741 -10.7935
  3441 48.9620 -1.05154 10.7803
  3442 48.3110 0.847559 -8.56284
  3443 48.3123 0.852694 8.55690
  3444 139.318 12.8252 -0.0622827
  3445 21.7747 -19.5942 12.3067
  3446 108.097 -0.178449 0.946609
  3447 108.081 -0.177157 -0.943664
  3448 121.625 4.65738 2.07110
  3449 64.0545 -0.913450 2.92242
  3450 64.0556 -0.916111 -2.92377
  3451 57.3076 0.154466 -1.39775
  3452 57.3103 0.154493 1.39820
  3453 56.1168 1.06463 -2.98545
  3454 56.1181 1.06483 2.98641
  3455 24.9218 -0.614009 -5.87751
  3456 24.9545 -0.619659 5.87642
  3457 88.4867 -0.809091 6.44560
  3458 88.4824 -0.807409 -6.44985
  3459 41.9861 -1.82183 -12.9477
  3460 41.9834 -1.82607 12.9441
  3461 64.3074 0.948642 3.11271
  3462 51.2639 5.00086 8.42187
  3463 51.2642 5.00118 -8.41970
  3464 61.5811 0.237807 2.02231
  3465 68.2501 -0.366737 -4.04713
  3466 68.2480 -0.362958 4.04823
  3467 77.3603 -0.595251 -5.93337
  3468 68.9397 0.00968033 0.869066
  3469 68.9337 0.00968232 -0.868923
  3470 53.6166 3.36305 2.45249
  3471 53.6177 3.36252 -2.45175
  3472 96.3917 -4.66641 3.16105
  3473 96.3784 -4.64269 -3.16182
  3474 61.8191 1.03771 -1.33417
  3475 52.3038 4.26635 3.96942
  3476 52.3050 4.26585 -3.96840
  3477 92.6102 -0.0729485 -3.75266
  3478 92.6133 -0.0734461 3.75059
  3479 46.4026 -0.579026 -13.7961
  3480 46.4112 -0.584748 13.7984
  3481 44.6734 -1.28863 12.0156
  3482 44.6694 -1.28318 -12.0238
  3483 64.4109 1.84786 8.91367
  3484 64.4069 1.84873 -8.91291
  3485 57.8830 0.599509 1.38292
  3486 70.9077 5.33274 3.56470
  3487 57.4014 2.22718 1.35988
  3488 57.3998 2.22726 -1.36053
  3489 56.0797 0.160417 1.27209
  3490 56.0774 0.160376 -1.27163
  3491 29.1122 -7.13791 10.8893
  3492 61.9556 0.217488 -2.01697
  3493 61.9597 0.217510 2.01745
  3494 52.5991 4.21216 -4.77768
  3495 52.5983 4.21262 4.77889
  3496 60.9068 0.824909 2.52035
  3497 60.9060 0.824001 -2.52163
  3498 63.3998 0.459061 2.00433
  3499 63.3998 0.458229 -2.00516
  3500 63.1898 -0.00676140 1.15564
  3501 63.1620 -0.00660659 -1.16187
  3502 82.1635 -6.41140 -0.847481
  3503 83.8955 -11.2122 -4.12274
  3504 84.1822 -11.2818 3.95972
  3505 69.2914 5.54535 0.986685
  3506 54.5356 2.62648 3.58744
  3507 54.5357 2.62606 -3.58636
  3508 30.6136 -5.49604 11.6379
  3509 30.5995 -5.48439 -11.6297
  3510 68.3230 2.40500 4.26064
  3511 63.1041 1.61226 6.81673
  3512 63.1007 1.61250 -6.81571
  3513 69.7757 -0.114366 0.795456
  3514 69.7766 -0.114828 -0.795145
  3515 43.5696 4.44773 -4.41243
  3516 43.5751 4.44782 4.40813
  3517 47.8430 5.91903 6.18660
  3518 47.8453 5.91862 -6.18478
  3519 60.3256 2.45502 -11.3815
  3520 60.3300 2.45277 11.3824
  3521 78.9286 -10.7443 -5.86832
  3522 54.2048 2.82913 3.15757
  3523 54.2053 2.82865 -3.15660
  3524 23.4001 -18.0859 -13.4875
  3525 58.2039 1.99479 5.65691
  3526 58.2020 1.99469 -5.65561
  3527 54.7230 2.33515 -3.21876
  3528 54.7229 2.33556 3.21978
  3529 162.420 11.8066 -1.88501
  3530 51.3888 2.86679 12.4836
  3531 51.3846 2.87038 -12.4808
  3532 78.1176 11.1805 3.42910
  3533 109.407 0.732669 8.27332
  3534 54.2260 -0.437623 -7.88512
  3535 54.2303 -0.432469 7.88314
  3536 62.5276 1.04324 -5.19743
  3537 62.5311 1.04319 5.19840
  3538 99.6742 -3.85778 9.34113
  3539 99.6581 -3.91798 -9.31313
  3540 67.5071 0.00950891 -1.27444
  3541 67.5065 0.0101897 1.27435
  3542 125.109 5.78011 -0.741209
  3543 54.8136 2.89483 4.84570
  3544 54.8133 2.89448 -4.84442
  3545 59.3009 0.551156 3.01461
  3546 59.2980 0.551087 -3.01381
  3547 65.7251 -5.62671 -12.5758
  3548 65.7335 -5.62689 12.5777
  3549 68.6553 -0.113100 -1.05604
  3550 68.6545 -0.112445 1.05622
  3551 55.3302 2.85845 -1.29786
  3552 55.3324 2.85839 1.29727
  3553 67.4001 0.00974431 -0.995753
  3554 67.3856 0.0105569 0.997427
  3555 198.036 4.66147 -4.55791
  3556 70.6977 -1.70080 -3.51207
  3557 70.6991 -1.70102 3.51653
  3558 71.4265 0.289982 3.66493
  3559 59.8018 -0.0328864 4.29792
  3560 59.8002 -0.0349702 -4.30032
  3561 54.8372 2.55031 -4.00945
  3562 54.8374 2.55070 4.01061
  3563 60.7965 -13.0323 -11.8424
  3564 60.7416 -12.9679 11.8517
  3565 42.6331 5.88005 -0.552817
  3566 42.6393 5.87886 0.551300
  3567 56.5823 0.594425 -2.43403
  3568 56.5842 0.594538 2.43481
  3569 75.2246 0.0244946 -9.94586
  3570 75.2308 0.0223276 9.94389
  3571 62.7711 -10.0929 -13.3683
  3572 51.8127 4.48105 3.43296
  3573 51.8142 4.48052 -3.43210
  3574 99.5523 -0.903347 -2.75267
  3575 99.5498 -0.903558 2.74708
  3576 81.9295 7.25292 -5.98325
  3577 41.0382 -13.6825 17.9770
  3578 52.8011 4.43292 -6.27359
  3579 52.8007 4.43321 6.27512
  3580 64.8275 0.519569 3.28839
  3581 70.6632 -10.4357 8.47680
  3582 70.9243 4.17173 -4.65171
  3583 43.1697 0.543089 -10.3004
  3584 43.1742 0.541819 10.2901
  3585 71.4422 -0.0467645 -0.451416
  3586 71.4412 -0.0466124 0.451650
  3587 70.1930 5.46125 -2.78928
  3588 58.1810 0.960545 -3.66028
  3589 58.1832 0.960663 3.66127
  3590 78.5802 4.16095 -6.36582
  3591 69.6241 3.91485 -3.70306
  3592 66.2731 1.29027 -3.87618
  3593 52.4159 4.62772 7.21624
  3594 52.4162 4.62761 -7.21448
  3595 56.6175 2.37033 -1.74289
  3596 56.6194 2.37041 1.74207
  3597 78.0150 9.18733 -5.00753
  3598 56.0470 0.0189922 0.268134
  3599 56.0442 0.0189942 -0.268040
  3600 70.7700 -1.33460 -2.09065
  3601 70.7702 -1.33599 2.09447
  3602 45.0849 6.03273 -0.722257
  3603 45.0801 6.03349 0.721608
  3604 65.7528 1.85311 9.59885
  3605 65.7483 1.85432 -9.59839
  3606 41.2537 6.53158 -2.44956
  3607 41.2469 6.53336 2.45038
  3608 69.0173 -0.632999 -0.885602
  3609 69.0161 -0.631640 0.886520
  3610 66.9501 0.180021 12.1085
  3611 66.9432 0.183119 -12.1095
  3612 70.8840 -0.767386 1.53302
  3613 70.8855 -0.766361 -1.52960
  3614 83.9270 0.649092 5.10141
  3615 45.2119 5.37905 -1.93287
  3616 45.2167 5.37886 1.93073
  3617 69.4040 -0.487041 -0.808058
  3618 69.4031 -0.485963 0.808902
  3619 72.7934 -5.20206 -0.808736
  3620 72.7961 -5.20280 0.815520
  3621 58.6451 1.35529 2.89348
  3622 58.6434 1.35450 -2.89494
  3623 68.1693 -10.6151 -10.8041
  3624 68.1757 -10.6048 10.8259
  3625 77.2210 -1.29574 5.64886
  3626 59.1380 0.0522126 -1.08606
  3627 59.1415 0.0522215 1.08638
  3628 50.7772 3.27882 -3.86717
  3629 50.7805 3.28021 3.86546
  3630 74.5796 7.93680 -3.87481
  3631 115.715 17.5068 -5.76478
  3632 74.1871 0.421829 5.60784
  3633 74.1817 0.422181 -5.60786
  3634 34.4076 -18.2706 8.92764
  3635 34.3252 -18.3105 -8.92353
  3636 70.6065 -0.0783693 -0.624910
  3637 70.6057 -0.0780769 0.625185
  3638 69.3443 0.635284 -5.39070
  3639 69.3492 0.635051 5.39116
  3640 61.1366 0.111079 1.36901
  3641 61.1325 0.111068 -1.36865
  3642 58.3709 0.0495102 -0.923893
  3643 58.3743 0.0495138 0.924182
  3644 56.4900 0.116182 1.07021
  3645 56.4874 0.116155 -1.06984
  3646 58.5386 0.491219 -1.76430
  3647 71.2367 0.192066 -3.77572
  3648 100.467 4.84421 -9.15775
  3649 43.1798 6.32846 5.77339
  3650 43.1842 6.32779 -5.77086
  3651 104.743 7.97334 4.84333
  3652 48.0956 5.76135 7.15378
  3653 48.0974 5.76123 -7.15162
  3654 105.389 10.3289 -12.0641
  3655 60.4779 0.467246 2.99412
  3656 60.4746 0.467210 -2.99337
  3657 60.1458 0.231785 2.09427
  3658 60.1422 0.231764 -2.09372
  3659 71.7586 -6.40467 -1.68234
  3660 71.7443 -6.39869 1.70688
  3661 55.0834 3.01881 0.438106
  3662 55.0815 3.01911 -0.438344
  3663 73.7279 -10.7072 -7.15300
  3664 100.616 11.4609 28.7731
  3665 52.5205 2.77107 -4.07239
  3666 52.5236 2.77247 4.07082
  3667 32.7097 -7.92115 -12.4193
  3668 32.7296 -7.93113 12.4229
  3669 66.2158 -8.24769 -9.08301
  3670 53.6007 3.10943 -2.35997
  3671 53.6034 3.10989 2.35899
  3672 42.7073 -9.32864 -14.0365
  3673 42.7297 -9.33169 14.0280
  3674 54.6425 1.92943 4.16863
  3675 54.6394 1.92806 -4.17031
  3676 93.5431 -7.54732 -3.46469
  3677 93.4753 -7.28998 3.22668
  3678 69.8380 -0.771341 -4.80848
  3679 69.8329 -0.759829 4.81142
  3680 69.4339 -5.48110 -2.76749
  3681 69.4234 -5.47167 2.76188
  3682 61.4120 0.665338 3.93661
  3683 61.4087 0.665321 -3.93574
  3684 97.8579 18.3017 1.72217
  3685 70.3626 -5.25642 -1.67888
  3686 70.3488 -5.24808 1.68218
  3687 56.0121 0.816130 5.31902
  3688 56.0090 0.813928 -5.32119
  3689 90.9081 0.0313856 -3.28764
  3690 90.9123 0.0311077 3.28638
  3691 69.3334 -1.90117 0.536352
  3692 69.3357 -1.90374 -0.534300
  3693 71.0995 -2.11447 -3.07279
  3694 71.1016 -2.11565 3.07668
  3695 68.8815 5.38440 -0.967286
  3696 47.6843 4.63450 -2.67493
  3697 47.6881 4.63516 2.67305
  3698 54.0114 3.41188 -1.07330
  3699 54.0138 3.41183 1.07281
  3700 70.6930 -12.7137 12.6709
  3701 59.2047 -11.9728 16.4974
  3702 86.1173 0.0303730 1.36144
  3703 86.1111 0.0304100 -1.36167
  3704 82.0474 12.0899 -4.51458
  3705 92.8822 -0.467407 10.5772
  3706 90.3497 0.0730011 1.41339
  3707 90.3443 0.0730521 -1.41377
  3708 62.3803 -8.89566 -12.1488
  3709 61.6269 -2.49032 -5.92261
  3710 61.6291 -2.48556 5.91854
  3711 54.5964 3.18101 -0.0200325
  3712 54.5946 3.18138 0.0199715
  3713 89.0725 -0.0335767 -5.09311
  3714 89.0764 -0.0343263 5.09083
  3715 57.6062 -13.0577 17.8608
  3716 37.1431 4.24023 -4.88203
  3717 37.1548 4.23659 4.87678
  3718 45.6025 -2.00893 -14.0272
  3719 45.6128 -2.01533 14.0285
  3720 68.5073 -4.75672 -3.01568
  3721 68.4992 -4.75403 3.01429
  3722 65.6803 -1.36267 2.44833
  3723 65.6823 -1.36570 -2.44889
  3724 67.0949 -3.58277 -3.11004
  3725 67.0896 -3.57744 3.10932
  3726 38.9392 5.80799 -1.31596
  3727 38.9486 5.80534 1.31408
  3728 98.6589 -2.76550 1.33249
  3729 98.6514 -2.75445 -1.33393
  3730 69.8005 -0.522186 2.31999
  3731 69.8043 -0.521726 -2.31613
  3732 82.5079 2.90141 5.38962
  3733 50.1919 5.03825 9.09254
  3734 50.1921 5.03896 -9.09002
  3735 107.411 -0.405835 -1.18806
  3736 107.424 -0.407530 1.19259
  3737 56.9873 0.0506526 -0.837256
  3738 56.9901 0.0506643 0.837541
  3739 81.9407 0.0532682 -6.74390
  3740 81.9458 0.0523706 6.74231
  3741 139.411 8.78261 -4.76248
  3742 53.0527 3.80327 -0.679449
  3743 53.0506 3.80365 0.679564
  3744 63.1750 0.528351 3.51787
  3745 63.1710 0.528342 -3.51716
  3746 56.2995 -11.7644 -17.3618
  3747 56.3033 -0.930150 -7.34581
  3748 56.3074 -0.926119 7.34275
  3749 92.1528 17.5390 -2.29982
  3750 72.6202 -0.0537270 0.316936
  3751 72.6235 -0.0536287 -0.315993
  3752 62.0249 -8.69028 12.0691
  3753 73.5940 6.08411 4.81511
  3754 53.0442 3.86154 1.16981
  3755 53.0461 3.86108 -1.16952
  3756 60.6407 0.406622 13.2173
  3757 60.6337 0.410287 -13.2171
  3758 57.0874 1.87962 2.69706
  3759 57.0854 1.87907 -2.69833
  3760 59.3942 1.51565 1.91500
  3761 59.3930 1.51537 -1.91593
  3762 68.9543 -7.41411 5.78342
  3763 68.8347 -7.33526 -5.73026
  3764 71.1718 1.78374 0.932230
  3765 52.5346 4.03444 1.55447
  3766 52.5366 4.03397 -1.55410
  3767 39.8127 -1.12138 -10.0538
  3768 52.4905 4.10612 -0.595808
  3769 52.4882 4.10646 0.595860
  3770 66.9188 -4.60934 4.10512
  3771 66.9245 -4.61437 -4.10719
  3772 59.1740 1.15776 4.40905
  3773 59.1715 1.15766 -4.40797
  3774 70.9385 -1.90205 -2.68004
  3775 70.9400 -1.90346 2.68391
  3776 68.7271 -1.07503 0.982661
  3777 68.7288 -1.07696 -0.981523
  3778 41.2363 -13.9738 -17.8720
  3779 85.3677 0.0264783 3.49206
  3780 85.3623 0.0266724 -3.49279
  3781 69.8284 1.12276 9.61189
  3782 69.8233 1.12415 -9.61221
  3783 66.7109 -2.90371 2.86577
  3784 66.7152 -2.90844 -2.86635
  3785 66.1999 -0.0430929 -0.954220
  3786 66.1832 -0.0407785 0.954478
  3787 117.046 10.5213 -1.77275
  3788 55.0578 -5.95560 -13.1438
  3789 55.1649 -5.85433 13.0171
  3790 76.3546 0.128522 -3.26259
  3791 76.3606 0.128424 3.26260
  3792 60.8481 0.0282776 -0.477784
  3793 60.8524 0.0282781 0.477914
  3794 89.0693 -3.30604 -5.36088
  3795 89.0779 -3.30740 5.35364
  3796 54.9625 1.95350 -2.99637
  3797 54.9626 1.95389 2.99736
  3798 70.8760 -0.139906 -0.560113
  3799 70.8752 -0.139547 0.560602
  3800 50.5938 4.88392 1.67699
  3801 50.5963 4.88351 -1.67674
  3802 54.6324 2.89081 -4.50665
  3803 54.6325 2.89119 4.50788
  3804 52.1697 4.24547 -3.06363
  3805 52.1682 4.24598 3.06442
  3806 26.8189 -1.10814 7.17443
  3807 26.8220 -1.10191 -7.15895
  3808 69.5512 1.07709 -10.3581
  3809 69.5565 1.07523 10.3576
  3810 85.8433 -3.74582 1.20510
  3811 134.803 6.60349 9.16040
  3812 62.4169 1.42084 6.13897
  3813 62.4135 1.42098 -6.13791
  3814 53.1821 1.04017 13.5864
  3815 53.1755 1.04462 -13.5848
  3816 48.5216 -12.9464 12.7959
  3817 48.4885 -12.9700 -12.8348
  3818 90.7955 -1.19885 -5.79953
  3819 90.7995 -1.20073 5.79421
  3820 65.2015 -0.579861 2.24459
  3821 65.2026 -0.581926 -2.24523
  3822 51.1474 5.11675 7.46371
  3823 51.1481 5.11670 -7.46177
  3824 65.2677 -7.26517 -12.8061
  3825 65.2746 -7.26174 12.8107
  3826 73.3904 2.06475 6.01766
  3827 68.2412 -0.466099 -1.21600
  3828 68.2402 -0.464829 1.21642
  3829 92.4029 0.747721 10.6897
  3830 75.5192 -3.34459 4.48748
  3831 75.4414 -3.35554 -4.44509
  3832 73.0452 4.35089 5.43243
  3833 57.1497 0.504927 -2.41327
  3834 57.1519 0.505016 2.41403
  3835 82.0738 0.815848 15.4613
  3836 58.5874 1.57528 2.28172
  3837 58.5859 1.57483 -2.28285
  3838 58.6692 2.22092 6.34017
  3839 58.6671 2.22090 -6.33883
  3840 71.1453 -0.249361 1.13591
  3841 71.1495 -0.248917 -1.13327
  3842 70.2990 4.16166 4.17872
  3843 80.7227 1.93332 7.02018
  3844 71.6645 -5.80274 16.9481
  3845 74.8124 1.54702 6.22505
  3846 64.5805 0.231832 -1.83413
  3847 64.5803 0.232749 1.83350
  3848 77.5333 -2.28678 -5.21660
  3849 83.9029 -7.35533 1.96112
  3850 56.7034 1.59897 4.10666
  3851 56.7020 1.59875 -4.10553
  3852 56.9729 1.07421 3.41528
  3853 56.9712 1.07404 -3.41427
  3854 56.0100 2.48340 2.10714
  3855 56.0078 2.48316 -2.10808
  3856 87.9904 -1.16988 -12.1328
  3857 53.7553 2.54347 -3.65707
  3858 53.7583 2.54455 3.65564
  3859 55.4854 2.55633 4.83222
  3860 55.4848 2.55603 -4.83094
  3861 53.1580 3.63695 2.02470
  3862 53.1595 3.63644 -2.02412
  3863 87.0463 -4.58304 -5.43691
  3864 87.0591 -4.58449 5.42976
  3865 179.663 9.20142 -4.58222
  3866 71.3351 -0.537319 -0.378454
  3867 71.3347 -0.538082 0.380599
  3868 54.2810 2.97483 3.74789
  3869 54.2813 2.97438 -3.74680
  3870 59.6168 0.262041 2.18114
  3871 59.6135 0.262014 -2.18055
  3872 11.2226 -0.218551 -0.000209684
  3873 11.5656 -0.869240 0.0264986
  3874 11.2982 -0.279768 -0.525202
  3875 11.2284 -0.188075 0.557955
  3876 10.9931 0.140129 -0.272111
  3877 10.9609 0.152731 0.260675
  3878 11.5472 -0.937487 -0.569875
  3879 10.9264 0.128691 -0.0175950
  3880 11.5195 -0.809387 0.624636
  3881 11.7705 -1.48981 -0.00182248
  3882 11.7120 -1.28906 0.457685
  3883 11.3913 -0.478645 -0.175302
  3884 11.3754 -0.458912 0.191990
  3885 11.2863 -0.344745 -0.819747
  3886 10.9729 0.273202 -0.517989
  3887 10.9672 0.272015 0.515298
  3888 11.1831 -0.127991 -0.265196
  3889 11.7124 -1.40008 -0.468229
  3890 10.8187 0.234021 0.125350
  3891 10.8383 0.233174 -0.140165
  3892 11.2634 -0.256555 0.827836
  3893 11.1652 -0.116844 0.266724
  3894 11.0636 0.00592902 -0.101414
  3895 11.0580 0.00748639 0.121629
  3896 11.0890 0.0932937 -0.730358
  3897 11.0342 0.199147 0.736186
  3898 11.5263 -0.763064 -0.309514
  3899 11.8216 -1.69569 0.219287
  3900 11.4983 -0.718294 0.352829
  3901 11.8431 -1.71134 -0.314912
  3902 11.6564 -1.08815 -0.206143
  3903 11.6523 -1.22102 0.164307
  3904 11.4763 -0.907917 -0.914299
  3905 11.6165 -1.03135 0.814781
  3906 10.8358 0.414184 0.366918
  3907 10.8345 0.412251 -0.386940
  3908 10.8039 0.223744 -0.0473763
  3909 11.3768 -0.590717 0.948930
  3910 10.7788 0.340668 0.221704
  3911 10.7848 0.228380 0.0201915
  3912 10.8125 0.337841 -0.236698
  3913 11.4174 -0.577448 -0.578688
  3914 11.3680 -0.491281 0.589432
  3915 11.4612 -0.606620 0.0306863
  3916 11.1221 -0.000377818 -0.445842
  3917 11.1194 0.0119337 0.444344
  3918 11.3799 -0.477758 -0.386391
  3919 11.3362 -0.397576 0.00784025
  3920 11.3098 -0.425442 -0.993863
  3921 11.1355 -0.0175265 -0.948312
  3922 10.9335 0.122747 0.0971042
  3923 11.2647 -0.278239 -0.154786
  3924 11.2605 -0.269143 0.161576
  3925 10.9451 0.413974 -0.675842
  3926 10.9720 0.140048 -0.171627
  3927 11.7484 -1.59555 0.589010
  3928 11.6569 -1.25017 -0.820650
  3929 11.0705 0.164452 0.905683
  3930 11.2661 -0.254367 0.341395
  3931 11.6042 -1.07010 0.493067
  3932 10.9143 0.417814 0.638829
  3933 11.8656 -1.82867 0.0327459
  3934 11.4558 -0.699151 -0.707910
  3935 11.1669 -0.116637 -0.130819
  3936 11.7422 -1.37894 0.232734
  3937 11.3797 -0.423044 0.393755
  3938 11.2739 -0.275529 -0.338479
  3939 11.1241 -0.0604375 -0.00913170
  3940 11.1664 -0.163199 1.06193
  3941 11.1687 -0.137822 0.114237
  3942 11.6944 -1.27190 -0.314910
  3943 10.8458 0.508077 -0.526691
  3944 11.0709 0.00743887 -0.227082
  3945 10.7800 0.368236 -0.174147
  3946 11.0188 0.154726 -0.420005
  3947 10.7514 0.280444 0.0514657
  3948 10.9922 0.160401 0.371170
  3949 10.7522 0.294457 -0.0758906
  3950 10.8392 0.454674 0.489580
  3951 11.2131 -0.125937 -0.744663
  3952 10.7648 0.324692 0.140828
  3953 11.0355 0.0327575 0.0174909
  3954 11.0530 0.0308431 0.208858
  3955 11.7822 -1.58642 -0.525035
  3956 11.1156 0.0172253 -0.570152
  3957 11.3869 -0.518013 0.754231
  3958 11.5704 -0.877312 0.227539
  3959 10.9192 0.190125 0.160920
  3960 11.1715 -0.0772545 0.678945
  3961 10.9014 0.157541 -0.0728391
  3962 11.6613 -1.16661 -0.0192081
  3963 11.1245 0.0253297 0.574939
  3964 11.6619 -1.28187 0.847125
  3965 11.4680 -0.821261 0.963745
  3966 10.7639 0.458106 0.289849
  3967 11.5173 -0.753469 -0.128186
  3968 11.6484 -1.15554 -0.634031
  3969 10.7751 0.442734 -0.289931
  3970 11.4997 -0.714903 0.153794
  3971 10.7467 0.241422 -0.0315103
  3972 11.8160 -1.75655 0.431058
  3973 11.2034 -0.126504 -1.05564
  3974 10.9634 0.343396 -0.835994
  3975 11.8393 -1.60729 0.0540248
  3976 10.9397 0.402717 0.857858
  3977 11.5900 -0.923163 -0.362673
  3978 11.5550 -0.857843 0.426482
  3979 11.6333 -1.15337 0.630749
  3980 11.7293 -1.52193 -0.744399
  3981 11.4909 -0.792392 0.809552
  3982 10.8852 0.170753 0.0412422
  3983 10.8681 0.310859 0.286016
  3984 10.8416 0.193190 -0.0171124
  3985 11.8890 -1.91977 0.245383
  3986 10.8778 0.296410 -0.303329
  3987 10.8976 0.219723 -0.216492
  3988 10.9883 0.0867009 -0.0827268
  3989 11.3834 -0.651534 -1.08066
  3990 11.1149 -0.00684103 -0.316364
  3991 11.5779 -0.909333 -0.161983
  3992 11.7566 -1.49224 -0.257333
  3993 11.8986 -1.92895 -0.275584
  3994 10.7279 0.433179 -0.212268
  3995 11.0437 0.281691 -0.966323
  3996 11.6476 -1.10396 -0.422395
  3997 11.0955 0.0311748 0.324500
  3998 11.0921 0.122551 1.04053
  3999 11.3019 -0.354208 1.07466
  4000 11.0032 0.0941269 0.157745
  4001 11.3241 -0.339652 -0.632036
  4002 11.5246 -1.04313 -0.993895
  4003 10.8313 0.475221 -0.628433
  4004 10.7054 0.466239 0.217160
  4005 11.7642 -1.53829 0.399931
  4006 11.4449 -0.587649 -0.263425
  4007 10.7699 0.276133 0.0383240
  4008 10.9431 0.286852 0.431608
  4009 10.7043 0.501089 -0.426144
  4010 11.6040 -1.06712 0.985543
  4011 10.9524 0.321507 -0.455348
  4012 11.4299 -0.543666 0.285252
  4013 10.7515 0.247390 -0.0379506
  4014 11.0076 0.243528 0.593771
  4015 11.6851 -1.20559 0.334447
  4016 11.4551 -0.665036 0.548382
  4017 11.2652 -0.293180 0.680752
  4018 10.7494 0.533553 0.350042
  4019 10.8350 0.219571 -0.0998586
  4020 10.8720 0.511572 0.739520
  4021 11.0171 0.234407 -0.627437
  4022 11.5058 -0.762403 -0.503511
  4023 11.6250 -1.03418 0.104208
  4024 10.8477 0.590642 0.595854
  4025 11.2042 -0.143488 0.452182
  4026 11.5284 -0.912704 -0.760378
  4027 10.6661 0.310109 -0.107586
  4028 11.6878 -1.36061 0.646825
  4029 10.8406 0.261396 0.178820
  4030 11.1990 -0.173209 -0.841032
  4031 11.4409 -0.621578 -0.432114
  4032 10.8180 0.235554 0.0737594
  4033 11.8655 -2.02703 -0.103739
  4034 11.2257 -0.166170 -0.470346
  4035 11.4047 -0.559876 0.453723
  4036 11.7813 -1.55713 -0.398907
  4037 10.8433 0.270316 -0.171063
  4038 10.6955 0.325269 0.0880982
  4039 11.3963 -0.504537 -0.0495330
  4040 11.3863 -0.495419 0.0740759
  4041 11.7102 -1.31339 0.0391227
  4042 11.3165 -0.346352 -0.224395
  4043 11.3400 -0.362749 0.515057
  4044 11.2775 -0.341996 0.929081
  4045 11.0287 0.0524522 -0.169523
  4046 11.3741 -0.463099 -0.723387
  4047 11.3330 -0.385595 -0.109793
  4048 11.3268 -0.376862 0.122962
  4049 11.6743 -1.24488 -0.462733
  4050 11.0484 0.128979 -0.517757
  4051 11.4313 -0.685136 -0.896690
  4052 11.0303 0.122627 0.515034
  4053 11.3065 -0.333671 0.235680
  4054 11.2920 -0.302452 -1.10861
  4055 11.2744 -0.301660 0.0569602
  4056 11.2764 -0.300623 -0.0489351
  4057 11.1813 -0.0427083 0.802387
  4058 10.8778 0.247695 0.224490
  4059 11.7144 -1.30809 -0.133180
  4060 10.9249 0.254452 0.342218
  4061 11.0032 0.0754501 0.0842114
  4062 10.9233 0.241880 -0.370072
  4063 10.8681 0.177277 -0.0532316
  4064 11.6306 -0.999482 -0.0503558
  4065 11.4983 -0.737803 0.00420303
  4066 11.8759 -1.81167 -0.484281
  4067 10.7455 0.551813 -0.358323
  4068 11.6325 -1.03739 0.291372
  4069 11.6762 -1.49286 0.784361
  4070 11.2225 -0.206303 -0.0949298
  4071 10.8736 0.491336 -0.735728
  4072 11.1148 0.0843233 -0.854633
  4073 11.2039 -0.166680 0.185383
  4074 11.2038 -0.130608 -0.351678
  4075 11.2241 -0.221593 0.260492
  4076 10.7229 0.517333 0.398009
  4077 11.3043 -0.346417 -0.414511
  4078 11.9609 -2.02598 0.0697704
  4079 11.8306 -1.65571 -0.107268
  4080 11.3530 -0.483843 -0.853135
  4081 11.0159 0.379314 0.971544
  4082 11.2437 -0.262482 -0.921377
  4083 11.1832 -0.115822 0.351289
  4084 10.6465 0.250819 0.0189488
  4085 11.2074 -0.175949 -0.188151
  4086 11.3604 -0.638769 1.10706
  4087 11.2372 -0.238274 -0.256232
  4088 10.9186 0.382336 -0.596120
  4089 11.1754 -0.135002 -0.0487134
  4090 11.3484 -0.420441 -0.298943
  4091 11.1641 -0.114805 0.932005
  4092 11.2777 -0.312068 -0.755354
  4093 11.5852 -1.03264 -0.813374
  4094 11.2180 -0.212794 0.0931698
  4095 11.1057 0.121861 -1.06481
  4096 11.7758 -1.69193 -0.648438
  4097 10.8848 0.190062 0.0971848
  4098 10.6772 0.388120 0.151110
  4099 11.6755 -1.35722 -0.931521
  4100 11.5766 -0.973390 0.682068
  4101 11.3449 -0.397501 0.308636
  4102 11.3725 -0.433720 -0.493985
  4103 11.1414 -0.0803677 -0.218732
  4104 11.2975 -0.294978 0.427395
  4105 11.1652 -0.138105 0.0375897
  4106 10.9810 0.307929 -0.737883
  4107 11.1187 -0.0623714 -0.0792171
  4108 10.7870 0.278368 -0.143884
  4109 11.7569 -1.73799 0.622184
  4110 10.9641 0.395111 0.561912
  4111 10.9488 0.0958845 0.0435624
  4112 11.1997 -0.160542 -0.619104
  4113 11.4562 -0.617269 -0.101722
  4114 11.0633 -0.00967154 -0.0478719
  4115 10.9089 0.191281 -0.131550
  4116 11.1283 -0.0704991 0.187504
  4117 11.4470 -0.866737 1.09051
  4118 10.7805 0.509772 0.643091
  4119 11.7198 -1.38572 -0.661530
  4120 11.1016 -0.0274397 -0.157307
  4121 11.7898 -1.55569 0.180092
  4122 11.1214 -0.0560886 0.0743664
  4123 11.8645 -1.86025 -0.150619
  4124 10.7665 0.279148 0.103397
  4125 11.0321 0.145580 0.438550
  4126 11.4303 -0.566925 0.143754
  4127 10.5996 0.289392 -0.0292509
  4128 11.9416 -2.10619 -0.0308509
  4129 10.8179 0.691457 0.650074
  4130 10.8558 0.682759 -0.593700
  4131 10.7717 0.682637 0.514381
  4132 10.7150 0.571798 0.388443
  4133 10.7529 0.599077 0.330722
  4134 10.6918 0.513581 0.256120
  4135 10.6500 0.462010 0.153976
  4136 10.7031 0.384001 0.109155
  4137 10.6137 0.358739 0.0839472
  4138 10.7043 0.295795 0.0471848
  4139 10.6582 0.269057 0.0574399
  4140 10.7345 0.240118 -0.0577695
  4141 10.7506 0.298514 -0.0410235
  4142 10.6523 0.317428 -0.0545173
  4143 10.6635 0.358756 -0.128081
  4144 10.7632 0.471112 -0.184331
  4145 10.6802 0.457188 -0.237883
  4146 10.7564 0.600710 -0.326229
  4147 10.6995 0.565512 -0.415915
  4148 10.7547 0.657617 -0.501311
  4149 10.8285 0.606936 -0.674508
  4150 10.8888 0.597550 -0.806181
  4151 10.9345 0.454631 -0.916893
  4152 11.0291 0.287113 -1.06109
  4153 11.1090 0.0147125 -1.11190
  4154 11.1900 -0.224130 -1.12867
  4155 11.2406 -0.512425 -1.16828
  4156 11.3736 -0.886300 -1.14769
  4157 11.4403 -1.11157 -1.07920
  4158 11.6139 -1.20830 -1.02266
  4159 11.7247 -1.60810 -0.834058
  4160 11.8545 -1.80217 -0.628947
  4161 11.9472 -1.94117 -0.407491
  4162 11.8818 -2.02589 -0.210895
  4163 12.0392 -2.02271 0.203458
  4164 11.8124 -1.90663 0.444935
  4165 11.7363 -1.84107 0.606603
  4166 11.7105 -1.65796 0.806364
  4167 11.6422 -1.35124 0.947138
  4168 11.5545 -1.03317 1.10412
  4169 11.3489 -0.781831 1.18674
  4170 11.2769 -0.468118 1.17101
  4171 11.1776 -0.255108 1.13774
  4172 11.0618 -0.0204279 1.12454
  4173 11.0320 0.346964 1.05023
  4174 10.9138 0.477172 0.917585
  4175 10.8702 0.584854 0.810151
  4176 10.8076 0.592290 0.682315
</Section>

newXOutput 9

<Section columns = "stress_xx | stress_yy | stress_xy">
  1 59.6329 0.0793298 -0.179963
  2 59.6334 0.0793599 0.179999
  3 79.2601 -0.0240181 0.0455497
  4 79.2596 -0.0240524 -0.0455810
  5 195.289 12.1631 2.30393
  6 246.293 3.29263 0.326727
  7 63.2854 -0.00540343 -0.205305
  8 63.2884 -0.00539582 0.205379
  9 82.5726 -0.00537883 0.156028
  10 82.5743 -0.00538938 -0.156036
  11 8.75686 -60.9986 2.52407
  12 8.98516 -61.4457 -2.77916
  13 68.9940 0.947891 -0.0965078
  14 68.9935 0.948420 0.0964921
  15 80.3238 -0.142042 0.120882
  16 59.6839 0.0974130 -0.291746
  17 59.6848 0.0974235 0.291896
  18 80.3247 -0.142058 -0.120981
  19 66.2911 2.34002 -1.49733
  20 66.2928 2.33991 1.49661
  21 63.1886 0.189150 0.115933
  22 57.5171 0.772840 0.0314202
  23 63.7294 0.0194385 -0.198566
  24 64.1005 0.0271119 -0.217935
  25 64.6767 0.0263320 -0.314398
  26 65.1565 0.0203530 -0.275746
  27 65.6976 0.0237481 -0.323849
  28 66.4002 0.00732385 -0.353049
  29 67.0151 -0.0201651 -0.306057
  30 67.7235 -0.00275957 -0.288878
  31 68.5231 -0.0110719 -0.300518
  32 69.2215 0.00777775 -0.311327
  33 70.1377 0.0376159 -0.468000
  34 71.0590 0.0458220 -0.481642
  35 72.0184 0.0429060 -0.592567
  36 73.2990 0.0139654 -0.642438
  37 74.2148 -0.0214710 -0.627003
  38 75.6497 0.00352686 -0.623702
  39 76.7091 -0.00938432 -0.640932
  40 78.4201 -0.0106321 -0.628496
  41 79.6796 0.0408762 -0.779944
  42 81.1989 0.0735445 -0.909877
  43 83.0499 -0.0637983 -0.973685
  44 85.1069 -0.0747257 -0.908993
  45 86.7079 -0.0319216 -0.890975
  46 89.0134 -0.0166315 -0.901355
  47 90.7029 -0.00806738 -1.17730
  48 92.5235 0.0435675 -1.26258
  49 95.3715 -0.146989 -1.14067
  50 98.0659 -0.152583 -0.975227
  51 100.228 -0.119471 -1.04179
  52 103.183 -0.127406 -0.914898
  53 105.336 -0.0768476 -1.23121
  54 108.208 -0.0802165 -1.16239
  55 110.723 -0.0656584 -1.36287
  56 112.641 -0.148421 -1.45284
  57 116.808 -0.500960 -1.17283
  58 117.662 -0.101501 -1.06780
  59 120.522 -0.0258810 -0.846772
  60 122.503 -0.164387 -0.954422
  61 124.231 -0.205281 -0.669677
  62 125.765 -0.220354 -0.519313
  63 126.641 -0.235193 -0.290118
  64 127.242 -0.270257 -0.0234812
  65 127.275 -0.339269 0.343077
  66 125.994 -0.365588 0.657286
  67 125.482 -0.356856 0.795497
  68 123.418 -0.516343 1.13791
  69 119.797 -0.386113 1.73812
  70 115.770 -0.343558 2.28513
  71 111.570 -0.237226 2.65639
  72 105.744 -0.187872 3.01743
  73 100.357 0.0273235 3.24303
  74 93.1742 0.104839 3.23130
  75 88.1002 0.240518 3.29179
  76 80.0366 0.463015 2.71869
  77 74.7684 0.671440 2.99795
  78 69.1293 0.435236 1.96767
  79 66.2177 0.697931 2.29231
  80 59.9577 0.904476 1.11365
  81 59.8272 0.789161 1.04918
  82 58.2666 0.684319 -0.623268
  83 59.6021 0.875721 -1.34089
  84 62.9409 1.19882 -1.39521
  85 70.1133 0.574887 -2.54652
  86 74.7671 0.607531 -3.36541
  87 79.8847 0.472304 -3.01448
  88 88.2832 0.179128 -3.48867
  89 94.0289 -0.0819762 -3.62227
  90 99.9457 0.0492653 -2.84747
  91 105.916 -0.0509046 -2.85471
  92 111.597 -0.223150 -2.57163
  93 115.810 -0.323898 -2.24884
  94 119.802 -0.379539 -1.72482
  95 123.407 -0.514366 -1.13210
  96 125.462 -0.355721 -0.792705
  97 125.972 -0.364234 -0.656011
  98 127.251 -0.338463 -0.343293
  99 127.221 -0.269741 0.0222585
  100 126.623 -0.234928 0.288428
  101 125.750 -0.220242 0.517477
  102 124.220 -0.205293 0.667905
  103 122.496 -0.164468 0.952770
  104 120.518 -0.0260524 0.845420
  105 117.660 -0.101695 1.06663
  106 116.808 -0.501014 1.17188
  107 112.644 -0.148437 1.45194
  108 110.727 -0.0657566 1.36224
  109 108.213 -0.0803032 1.16194
  110 105.342 -0.0769290 1.23089
  111 103.189 -0.127465 0.914646
  112 100.235 -0.119517 1.04163
  113 98.0734 -0.152630 0.975064
  114 95.3792 -0.147036 1.14054
  115 92.5313 0.0435281 1.26254
  116 90.7109 -0.00812966 1.17732
  117 89.0214 -0.0166698 0.901374
  118 86.7158 -0.0319474 0.891039
  119 85.1147 -0.0747785 0.909045
  120 83.0573 -0.0638291 0.973786
  121 81.2062 0.0735453 0.910011
  122 79.6867 0.0408534 0.780083
  123 78.4270 -0.0106542 0.628590
  124 76.7157 -0.00939818 0.641054
  125 75.6561 0.00351045 0.623811
  126 74.2209 -0.0214889 0.627144
  127 73.3049 0.0139544 0.642576
  128 72.0240 0.0429029 0.592723
  129 71.0644 0.0458234 0.481780
  130 70.1429 0.0376186 0.468128
  131 69.2265 0.00776792 0.311420
  132 68.5278 -0.0110845 0.300600
  133 67.7279 -0.00276959 0.288960
  134 67.0194 -0.0201779 0.306145
  135 66.4042 0.00731711 0.353153
  136 65.7014 0.0237483 0.323961
  137 65.1601 0.0203543 0.275848
  138 64.6802 0.0263395 0.314512
  139 64.1038 0.0271095 0.218018
  140 63.7326 0.0194328 0.198634
  141 61.5180 0.296711 0.272520
  142 63.9863 0.567148 0.223036
  143 66.1841 0.892527 0.194784
  144 71.6967 0.712206 -0.0299197
  145 74.4968 0.467900 -0.0299672
  146 77.2136 0.167731 0.0214138
  147 83.1101 -0.0388367 -0.115531
  148 83.2908 -0.0480027 -0.182192
  149 83.6283 -0.0634293 -0.0917550
  150 83.8232 -0.0552450 -0.161175
  151 83.9173 -0.0662775 -0.0627597
  152 84.1222 -0.0291788 -0.0307829
  153 83.9516 -0.113733 -0.0171031
  154 83.7208 -0.0818725 0.174221
  155 83.5961 -0.100321 0.246334
  156 83.0788 -0.119708 0.276081
  157 82.1006 -0.100277 0.457406
  158 81.1623 -0.0755783 0.545027
  159 79.7345 -0.101248 0.704567
  160 78.2153 -0.0319872 0.959983
  161 76.3207 -0.0157595 0.747193
  162 74.6466 -0.00247514 0.811021
  163 72.3278 0.0472088 0.797544
  164 70.5102 0.0782505 0.976988
  165 68.3521 0.108420 0.852287
  166 66.5510 0.127653 0.781934
  167 64.8520 0.201371 0.580349
  168 63.5119 0.180871 0.365857
  169 63.4870 0.113135 0.360586
  170 63.0057 0.355275 -0.361659
  171 63.4694 0.258787 -0.402766
  172 65.2034 0.207430 -0.676900
  173 66.7496 0.218023 -1.05735
  174 68.1616 0.0761221 -0.880145
  175 70.4857 0.0784135 -0.965582
  176 72.3283 0.0538648 -0.803525
  177 74.6642 -0.00625126 -0.816251
  178 76.3404 -0.0172306 -0.747243
  179 78.2311 -0.0324448 -0.957913
  180 79.7473 -0.101174 -0.702972
  181 81.1718 -0.0755026 -0.543646
  182 82.1077 -0.100186 -0.456287
  183 83.0835 -0.119628 -0.275121
  184 83.5995 -0.100275 -0.245643
  185 83.7228 -0.0818523 -0.173591
  186 83.9523 -0.113664 0.0176334
  187 84.1221 -0.0291073 0.0311416
  188 83.9166 -0.0662156 0.0630336
  189 83.8220 -0.0551858 0.161338
  190 83.6269 -0.0633780 0.0918819
  191 83.2891 -0.0479604 0.182237
  192 83.1083 -0.0388044 0.115561
  193 77.2133 0.167628 -0.0214523
  194 74.4968 0.467614 0.0299182
  195 71.6970 0.711766 0.0298799
  196 66.1844 0.892040 -0.194744
  197 63.9864 0.566831 -0.222974
  198 61.5177 0.296573 -0.272461
  199 59.1013 0.266643 -0.271525
  200 59.8946 0.0652105 -0.327892
  201 60.5958 0.0394325 -0.309339
  202 61.1901 0.0317314 -0.265071
  203 61.9047 0.00411596 -0.305894
  204 62.3458 -0.00232648 -0.263549
  205 62.7218 -0.00147415 -0.192380
  206 63.4544 0.0195063 -0.446241
  207 63.5281 0.0596230 -0.783345
  208 63.7395 0.146128 -1.22055
  209 63.8411 0.246445 -1.58901
  210 63.8944 0.377292 -1.97956
  211 63.7910 0.557486 -2.25520
  212 63.7969 0.740445 -2.57558
  213 63.6539 0.976373 -2.82532
  214 63.4814 1.21400 -3.02125
  215 63.2935 1.48272 -3.17460
  216 63.0596 1.75809 -3.22424
  217 62.8794 1.99718 -3.21849
  218 62.6542 2.30657 -3.18267
  219 62.4516 2.56566 -3.01828
  220 62.2787 2.80495 -2.82553
  221 62.1989 3.02790 -2.53268
  222 62.1523 3.16136 -2.17546
  223 62.2125 3.33485 -1.76316
  224 62.3307 3.38731 -1.29358
  225 62.7238 3.31261 -0.770064
  226 63.1904 3.24730 -0.284802
  227 63.7256 3.09377 0.214813
  228 64.4466 2.91247 0.694631
  229 65.2292 2.59308 1.14035
  230 67.3251 1.92660 1.80985
  231 68.4775 1.61119 2.01964
  232 69.5809 1.30218 2.13995
  233 70.7923 1.02431 2.14253
  234 71.8335 0.727245 2.13891
  235 73.0403 0.518539 2.05708
  236 74.1011 0.330412 1.93401
  237 75.1149 0.221560 1.79451
  238 76.2187 0.132775 1.59790
  239 77.1568 0.0827170 1.39582
  240 78.1394 0.00891879 1.21269
  241 79.1121 0.0521774 1.00780
  242 80.0812 0.0182469 0.795835
  243 81.0031 0.0101658 0.571077
  244 81.8816 0.0286770 0.320750
  245 82.2850 -0.0329176 0.120145
  246 81.7266 -0.0414978 0.139681
  247 81.0148 -0.0784368 0.212047
  248 79.3462 -0.0387777 0.186658
  249 81.8831 0.0286486 -0.320752
  250 81.0043 0.0100590 -0.571071
  251 80.0822 0.0180258 -0.795826
  252 79.1130 0.0518376 -1.00781
  253 78.1401 0.00842143 -1.21277
  254 77.1575 0.0821177 -1.39599
  255 76.2193 0.132038 -1.59819
  256 75.1153 0.220747 -1.79499
  257 74.1013 0.329587 -1.93464
  258 73.0403 0.517733 -2.05787
  259 71.8332 0.726535 -2.13984
  260 70.7917 1.02374 -2.14352
  261 69.5800 1.30174 -2.14097
  262 68.4762 1.61093 -2.02063
  263 67.3236 1.92652 -1.81074
  264 65.2274 2.59331 -1.14091
  265 64.4447 2.91283 -0.694976
  266 63.7237 3.09421 -0.214957
  267 63.1885 3.24782 0.284863
  268 62.7220 3.31318 0.770304
  269 62.3291 3.38790 1.29401
  270 62.2111 3.33546 1.76376
  271 62.1512 3.16197 2.17620
  272 62.1981 3.02849 2.53353
  273 62.2781 2.80550 2.82649
  274 62.4513 2.56617 3.01930
  275 62.6542 2.30703 3.18374
  276 62.8797 1.99759 3.21959
  277 63.0602 1.75845 3.22534
  278 63.2943 1.48304 3.17567
  279 63.4826 1.21425 3.02228
  280 63.6553 0.976583 2.82629
  281 63.7986 0.740600 2.57648
  282 63.7930 0.557612 2.25599
  283 63.8966 0.377377 1.98027
  284 63.8434 0.246505 1.58958
  285 63.7421 0.146168 1.22099
  286 63.5308 0.0596353 0.783634
  287 63.4573 0.0195082 0.446408
  288 62.7246 -0.00148823 0.192451
  289 62.3485 -0.00234960 0.263636
  290 61.9070 0.00409982 0.306004
  291 61.1921 0.0317251 0.265194
  292 60.5975 0.0394313 0.309473
  293 59.8959 0.0652027 0.328018
  294 59.1019 0.266660 0.271603
  295 79.3468 -0.0387648 -0.186750
  296 81.0161 -0.0784673 -0.212147
  297 81.7281 -0.0415171 -0.139735
  298 82.2867 -0.0329378 -0.120172
  299 11.9222 -54.8647 -1.31117
  300 14.8371 -39.6943 -2.10763
  301 24.3871 -17.1324 5.91352
  302 39.9660 -0.944035 14.3546
  303 69.1544 14.4095 28.3992
  304 99.1935 22.7540 39.2723
  305 132.540 22.7814 40.6788
  306 166.428 19.5827 35.7719
  307 187.977 14.6532 20.4966
  308 183.125 16.5621 -18.3750
  309 164.711 18.7644 -37.2185
  310 132.116 23.5247 -41.9751
  311 96.3758 22.4882 -37.7406
  312 66.8642 17.8207 -31.1758
  313 40.7331 2.40374 -16.0147
  314 26.7623 -15.1388 -7.96897
  315 15.4143 -41.7304 2.86058
  316 13.1040 -57.1242 1.39043
  317 9.29407 -66.9578 -9.62053
  318 9.02614 -55.5174 -11.1459
  319 10.9722 -42.6240 -10.6923
  320 18.5518 -24.1679 -3.26321
  321 30.2361 -9.18196 4.40539
  322 48.5082 4.53513 14.2319
  323 74.7799 9.90486 24.7608
  324 101.631 17.0288 35.9380
  325 126.622 16.7583 40.5021
  326 155.228 16.3080 43.4619
  327 182.067 14.1007 37.9746
  328 213.101 9.09333 35.9953
  329 228.330 7.09501 23.5110
  330 240.582 3.26555 11.2507
  331 244.627 4.00824 -13.3779
  332 229.977 5.92126 -24.6344
  333 211.832 9.96052 -32.5711
  334 189.039 13.9809 -40.1208
  335 159.053 15.7990 -41.8501
  336 132.364 18.0295 -42.3225
  337 99.5313 15.9268 -34.5563
  338 72.2922 10.8496 -24.1329
  339 44.7801 4.81154 -13.7069
  340 30.4864 -9.36649 -3.80555
  341 18.8198 -24.0826 3.22003
  342 11.0209 -42.6063 10.6226
  343 9.01598 -55.6080 11.0761
  344 9.27666 -67.2925 9.46556
  345 62.8585 0.904441 -1.33135
  346 66.5269 1.52170 -0.121349
  347 72.8782 0.779008 0.766524
  348 62.3962 0.322003 -1.43989
  349 63.9783 1.81486 -1.14427
  350 76.3901 0.344749 0.920241
  351 62.8477 1.17038 -2.08564
  352 69.0094 1.51894 0.814521
  353 65.6550 2.29348 0.0803335
  354 63.0601 2.10414 -1.93248
  355 62.6861 0.113868 -1.01215
  356 73.5489 0.762893 1.31800
  357 63.0597 0.568838 -1.98109
  358 63.0263 0.973494 -2.39308
  359 63.3222 2.51160 -1.37790
  360 78.8326 0.136577 0.768978
  361 70.4447 1.27802 1.40373
  362 64.4553 1.10346 -0.656943
  363 76.0765 0.341190 1.25983
  364 62.8274 1.97992 -2.48131
  365 67.4242 1.99178 0.978911
  366 61.6925 0.246553 -0.963552
  367 75.9676 0.326175 0.440221
  368 69.0625 1.28618 0.299984
  369 72.2531 0.828866 1.70691
  370 63.7029 2.84620 -0.677827
  371 64.9555 2.65212 0.168384
  372 62.3038 0.397091 -0.504872
  373 74.4935 0.502206 1.63015
  374 62.9543 1.54423 -2.72779
  375 62.7332 2.66609 -2.04451
  376 62.9945 0.0336430 -0.623562
  377 80.5484 0.0371883 0.527648
  378 61.8920 0.116051 -0.948625
  379 62.4136 0.616038 -1.53985
  380 63.2355 0.260512 -1.51538
  381 67.2060 1.00084 -0.0495390
  382 63.0972 1.37433 -1.64990
  383 71.1973 1.10097 1.00127
  384 78.5369 0.120508 0.999513
  385 79.0713 0.0835542 0.572328
  386 63.2474 0.921072 -2.52462
  387 71.8733 0.801081 0.358631
  388 63.8744 1.40568 -1.09631
  389 69.0989 1.53566 1.61830
  390 66.3214 2.27902 0.858427
  391 61.2923 0.137352 -0.814574
  392 67.1879 1.74686 0.232391
  393 60.7876 0.135371 -0.348589
  394 74.5236 0.600005 0.987479
  395 64.4399 2.31454 -0.720513
  396 65.4522 1.78641 -0.444373
  397 62.7210 0.858772 -1.95762
  398 63.1062 0.134360 -1.12478
  399 62.6519 2.33366 -2.59335
  400 62.9721 2.91504 -1.43115
  401 76.4214 0.219389 1.42636
  402 63.3389 0.568235 -2.15094
  403 77.3861 0.249342 0.535535
  404 64.9432 0.834394 -0.272212
  405 64.6614 1.56120 -0.788634
  406 62.9546 1.50708 -2.09035
  407 62.4648 0.0206209 -0.495016
  408 71.3055 0.989812 1.84722
  409 63.0654 1.46507 -2.92778
  410 63.4700 1.61733 -1.45535
  411 63.9433 2.92086 -0.194117
  412 79.7055 0.0638398 0.744334
  413 67.0627 2.10497 1.30780
  414 80.0812 0.0833488 0.455440
  415 73.4693 0.589228 1.75904
  416 62.8303 1.91219 -2.86356
  417 62.5340 0.283963 -1.36508
  418 63.1928 0.748230 -0.662208
  419 69.0129 1.58592 1.21068
  420 61.9585 0.0440586 -0.565841
  421 66.6106 2.14126 0.518032
  422 62.7650 0.669649 -1.91767
  423 75.1311 0.520368 1.20665
  424 66.1352 1.18978 -0.242979
  425 71.9062 1.03796 1.36621
  426 74.3233 0.517417 0.677002
  427 70.0893 1.29343 0.704998
  428 62.1759 0.483578 -0.851159
  429 62.5291 2.96101 -1.83784
  430 63.5815 0.438363 -1.96158
  431 62.9554 3.04692 -1.06210
  432 69.4663 1.03426 0.194007
  433 77.5773 0.227282 1.08252
  434 62.4910 2.66286 -2.48262
  435 63.4140 2.07193 -1.53821
  436 75.3880 0.345067 1.59739
  437 77.6178 0.124315 1.22619
  438 61.9348 0.314668 -1.18619
  439 63.5004 0.787625 -2.49651
  440 63.2335 1.20563 -2.78961
  441 60.4577 0.0349689 -0.512466
  442 68.2157 1.74618 1.65277
  443 70.0353 1.28822 1.84166
  444 62.9569 1.74456 -2.99452
  445 64.5402 2.54623 -0.381337
  446 72.3889 0.743113 1.89509
  447 62.6425 2.25158 -2.83535
  448 63.2546 3.08552 -0.606641
  449 62.7733 0.992756 -1.71245
  450 72.7377 0.890174 1.05289
  451 74.0251 0.539869 0.408284
  452 62.4035 2.89573 -2.21813
  453 65.2468 2.56825 0.661621
  454 74.5339 0.389353 1.74301
  455 77.7996 0.161637 0.265932
  456 67.7508 1.42423 0.158511
  457 70.1390 1.31499 1.14422
  458 63.6305 0.678453 -0.459813
  459 81.2832 0.0219599 0.426376
  460 67.7219 1.82827 0.673485
  461 64.4117 2.84804 0.283725
  462 62.8525 0.320596 -1.51557
  463 62.8014 2.25941 -2.23892
  464 62.9257 2.67445 -1.70819
  465 76.0778 0.375317 0.735061
  466 62.9440 1.22853 -2.40367
  467 62.8897 1.54363 -2.46670
  468 62.4106 0.572294 -1.24503
  469 77.9707 0.188216 0.809110
  470 75.4206 0.401850 1.49677
  471 67.6860 1.25877 0.00741942
  472 71.0716 0.998723 0.551333
  473 74.5753 0.538603 1.45519
  474 63.3216 0.0881827 -0.982056
  475 63.9291 2.21597 -1.09472
  476 63.3676 2.78367 -1.07785
  477 60.6030 0.168648 -0.280533
  478 65.9692 2.38444 1.08215
  479 77.1746 0.209575 1.22380
  480 63.6330 0.292961 -1.68220
  481 62.7926 0.491159 -0.188860
  482 61.8429 0.234539 -1.11775
  483 63.2541 0.736385 -2.32309
  484 73.3704 0.699824 1.51072
  485 63.5052 0.203100 -1.35093
  486 80.3667 0.0289698 0.697555
  487 68.1857 1.84238 1.36616
  488 78.9796 0.0624038 0.318527
  489 78.5380 0.0851378 1.10340
  490 63.0622 0.00804248 -0.351721
  491 61.2446 0.0426939 -0.606849
  492 72.8266 0.716704 0.609039
  493 75.9291 0.314014 0.196293
  494 76.6448 0.336558 1.04469
  495 63.0913 0.826322 -2.27957
  496 63.1898 1.79202 -1.81665
  497 63.2176 0.420360 -1.82967
  498 63.4382 1.02416 -2.73288
  499 65.1196 2.16663 -0.388978
  500 66.0913 1.94133 -0.0589311
  501 62.9580 0.0611925 -0.827153
  502 68.4175 1.55307 0.474726
  503 63.0625 2.41965 -1.79857
  504 81.5870 -0.0144688 0.235632
  505 62.9627 1.90466 -2.12052
  506 65.4968 1.35974 -0.476899
  507 63.3459 0.948152 -1.02978
  508 71.2302 1.11776 1.61553
  509 65.7455 2.40262 0.454045
  510 69.0484 1.49463 1.84925
  511 62.3610 0.144258 -1.07178
  512 62.7297 0.435546 -1.65280
  513 79.3235 0.0817700 0.897617
  514 60.8797 0.0700702 -0.585581
  515 73.0052 0.632623 0.222815
  516 62.6826 0.0101395 -0.304134
  517 63.0448 1.24524 -2.66357
  518 61.2690 0.0309801 -0.443926
  519 78.3802 0.0911035 0.113342
  520 59.6682 0.203974 -0.300716
  521 63.8834 2.55813 -0.872382
  522 62.4201 0.479317 -1.55941
  523 71.6275 1.03107 0.858400
  524 81.1888 -0.00222149 0.211827
  525 82.0553 0.0255530 0.212472
  526 62.5657 3.13605 -1.48093
  527 63.3289 1.23742 -1.31574
  528 79.6407 0.0492460 0.740608
  529 80.0761 0.0198523 0.204346
  530 77.7064 0.200209 0.630047
  531 66.6090 2.01863 0.290762
  532 79.0794 0.129210 0.685643
  533 64.6096 2.01740 -0.762999
  534 62.4668 2.50959 -2.76748
  535 62.6990 0.934941 -1.86128
  536 70.8153 0.852937 0.110524
  537 63.6261 0.613785 -2.29187
  538 74.0119 0.719460 1.13549
  539 70.1630 1.28239 1.60790
  540 60.5696 0.0380506 -0.418162
  541 62.8587 0.904760 1.33196
  542 66.5262 1.52227 0.121422
  543 72.8779 0.779282 -0.766889
  544 62.3976 0.322103 1.44050
  545 63.9777 1.81541 1.14477
  546 76.3904 0.344762 -0.920638
  547 62.8482 1.17071 2.08649
  548 69.0085 1.51932 -0.814905
  549 65.6537 2.29403 -0.0803909
  550 63.0596 2.10468 1.93324
  551 62.6883 0.113900 1.01255
  552 73.5488 0.762855 -1.31855
  553 63.0612 0.568980 1.98185
  554 63.0273 0.973738 2.39399
  555 63.3212 2.51220 1.37843
  556 78.8334 0.136507 -0.769234
  557 70.4440 1.27805 -1.40438
  558 64.4550 1.10392 0.657276
  559 76.0768 0.340983 -1.26025
  560 62.8273 1.98039 2.48223
  561 67.4229 1.99208 -0.979393
  562 61.6934 0.246656 0.963999
  563 75.9678 0.326342 -0.440468
  564 69.0618 1.28670 -0.300138
  565 72.2527 0.828564 -1.70763
  566 63.7014 2.84680 0.678077
  567 64.9540 2.65264 -0.168481
  568 62.3041 0.397280 0.505163
  569 74.4937 0.501796 -1.63071
  570 62.9547 1.54458 2.72880
  571 62.7324 2.66668 2.04527
  572 62.9971 0.0336545 0.623796
  573 80.5496 0.0371416 -0.527777
  574 61.8937 0.116094 0.949035
  575 62.4144 0.616246 1.54052
  576 63.2375 0.260572 1.51596
  577 67.2055 1.00138 0.0495900
  578 63.0972 1.37475 1.65062
  579 71.1968 1.10121 -1.00174
  580 78.5377 0.120303 -0.999733
  581 79.0721 0.0835453 -0.572582
  582 63.2486 0.921282 2.52555
  583 71.8730 0.801504 -0.358795
  584 63.8741 1.40616 1.09682
  585 69.0979 1.53561 -1.61907
  586 66.3199 2.27936 -0.858841
  587 61.2936 0.137404 0.814942
  588 67.1870 1.74741 -0.232495
  589 60.7883 0.135441 0.348818
  590 74.5235 0.600122 -0.987912
  591 64.4388 2.31516 0.720808
  592 65.4513 1.78700 0.444582
  593 62.7218 0.859007 1.95842
  594 63.1085 0.134389 1.12522
  595 62.6515 2.33418 2.59429
  596 62.9709 2.91567 1.43168
  597 76.4219 0.218940 -1.42671
  598 63.3406 0.568367 2.15174
  599 77.3865 0.249429 -0.535807
  600 64.9429 0.834832 0.272358
  601 64.6608 1.56175 0.789003
  602 62.9546 1.50748 2.09119
  603 62.4673 0.0206230 0.495209
  604 71.3050 0.989446 -1.84805
  605 63.0661 1.46540 2.92881
  606 63.4696 1.61783 1.45599
  607 63.9416 2.92140 0.194152
  608 79.7065 0.0637187 -0.744474
  609 67.0613 2.10513 -1.30844
  610 80.0823 0.0833299 -0.455612
  611 73.4693 0.588716 -1.75970
  612 62.8304 1.91262 2.86458
  613 62.5357 0.284050 1.36564
  614 63.1929 0.748552 0.662609
  615 69.0119 1.58610 -1.21125
  616 61.9605 0.0440733 0.566070
  617 66.6093 2.14172 -0.518294
  618 62.7662 0.669819 1.91843
  619 75.1312 0.520320 -1.20712
  620 66.1347 1.19032 0.243139
  621 71.9058 1.03797 -1.36680
  622 74.3232 0.517633 -0.677329
  623 70.0887 1.29383 -0.705331
  624 62.1763 0.483776 0.851609
  625 62.5280 2.96161 1.83849
  626 63.5834 0.438473 1.96229
  627 62.9539 3.04753 1.06248
  628 69.4658 1.03478 -0.194084
  629 77.5778 0.227129 -1.08286
  630 62.4904 2.66342 2.48350
  631 63.4133 2.07250 1.53884
  632 75.3884 0.344530 -1.59784
  633 77.6185 0.123923 -1.22641
  634 61.9359 0.314777 1.18672
  635 63.5019 0.787805 2.49740
  636 63.2345 1.20589 2.79061
  637 60.4588 0.0349891 0.512705
  638 68.2145 1.74614 -1.65358
  639 70.0345 1.28794 -1.84254
  640 62.9574 1.74493 2.99557
  641 64.5389 2.54683 0.381473
  642 72.3887 0.742580 -1.89587
  643 62.6424 2.25207 2.83635
  644 63.2529 3.08609 0.606835
  645 62.7737 0.993067 1.71319
  646 72.7374 0.890322 -1.05337
  647 74.0250 0.540163 -0.408494
  648 62.4026 2.89633 2.21891
  649 65.2451 2.56863 -0.661955
  650 74.5341 0.388736 -1.74357
  651 77.8000 0.161719 -0.266096
  652 67.7500 1.42478 -0.158586
  653 70.1383 1.31520 -1.14474
  654 63.6305 0.678787 0.460094
  655 81.2845 0.0219136 -0.426428
  656 67.7208 1.82870 -0.673797
  657 64.4100 2.84851 -0.283898
  658 62.8543 0.320677 1.51617
  659 62.8009 2.25995 2.23976
  660 62.9247 2.67505 1.70883
  661 76.0780 0.375425 -0.735412
  662 62.9446 1.22883 2.40459
  663 62.8900 1.54402 2.46763
  664 62.4111 0.572510 1.24562
  665 77.9713 0.188176 -0.809435
  666 75.4208 0.401501 -1.49724
  667 67.6853 1.25933 -0.00741428
  668 71.0711 0.999140 -0.551589
  669 74.5754 0.538396 -1.45572
  670 63.3241 0.0882024 0.982427
  671 63.9281 2.21656 1.09517
  672 63.3663 2.78429 1.07825
  673 60.6035 0.168732 0.280649
  674 65.9675 2.38469 -1.08269
  675 77.1751 0.209295 -1.22412
  676 63.6352 0.293028 1.68282
  677 62.7927 0.491406 0.189016
  678 61.8442 0.234611 1.11824
  679 63.2555 0.736565 2.32395
  680 73.3703 0.699606 -1.51132
  681 63.5075 0.203150 1.35142
  682 80.3678 0.0288439 -0.697631
  683 68.1845 1.84252 -1.36682
  684 78.9803 0.0624307 -0.318707
  685 78.5388 0.0848070 -1.10354
  686 63.0650 0.00805161 0.351857
  687 61.2462 0.0427247 0.607116
  688 72.8263 0.717038 -0.609317
  689 75.9293 0.314208 -0.196412
  690 76.6452 0.336482 -1.04509
  691 63.0926 0.826519 2.28044
  692 63.1895 1.79252 1.81741
  693 63.2194 0.420465 1.83037
  694 63.4395 1.02439 2.73385
  695 65.1185 2.16723 0.389141
  696 66.0903 1.94191 0.0589606
  697 62.9604 0.0612193 0.827468
  698 68.4166 1.55355 -0.474952
  699 63.0618 2.42023 1.79927
  700 81.5884 -0.0144897 -0.235694
  701 62.9625 1.90515 2.12135
  702 65.4962 1.36029 0.477133
  703 63.3459 0.948526 1.03028
  704 71.2297 1.11763 -1.61625
  705 65.7440 2.40308 -0.454275
  706 69.0474 1.49442 -1.85015
  707 62.3628 0.144295 1.07223
  708 62.7312 0.435657 1.65347
  709 79.3244 0.0815609 -0.897714
  710 60.8806 0.0701311 0.585872
  711 73.0050 0.632987 -0.222912
  712 62.6852 0.0101373 0.304247
  713 63.0455 1.24553 2.66455
  714 61.2709 0.0309964 0.444114
  715 78.3806 0.0911631 -0.113411
  716 59.6689 0.203998 0.300832
  717 63.8823 2.55875 0.872727
  718 62.4212 0.479463 1.56005
  719 71.6271 1.03138 -0.858785
  720 81.1902 -0.00223761 -0.211909
  721 82.0569 0.0255495 -0.212503
  722 62.5643 3.13665 1.48145
  723 63.3288 1.23785 1.31634
  724 79.6416 0.0491516 -0.740809
  725 80.0771 0.0198581 -0.204479
  726 77.7069 0.200245 -0.630356
  727 66.6079 2.01917 -0.290902
  728 79.0803 0.129187 -0.685913
  729 64.6087 2.01800 0.763339
  730 62.4664 2.51012 2.76845
  731 62.6996 0.935213 1.86205
  732 70.8149 0.853415 -0.110587
  733 63.6278 0.613918 2.29269
  734 74.0118 0.719522 -1.13598
  735 70.1622 1.28228 -1.60866
  736 60.5710 0.0380585 0.418353
  737 49.2853 7.42247 3.26268
  738 49.2915 7.42098 -3.26190
  739 75.0461 -6.21498 6.84184
  740 75.0658 -6.24519 -6.83424
  741 63.5105 3.36815 6.70967
  742 63.5097 3.36790 -6.70805
  743 56.4675 0.471416 -15.5603
  744 56.4757 0.465528 15.5631
  745 87.0609 0.355233 7.05802
  746 87.0680 1.25211 -7.13188
  747 67.4818 3.30913 -10.6742
  748 67.4848 3.30818 10.6759
  749 84.5431 -10.1699 10.4106
  750 84.5171 -10.1658 -10.3988
  751 61.4475 2.65990 -4.84065
  752 61.4511 2.66157 4.83885
  753 78.6166 -1.93627 0.962121
  754 78.6193 -1.93916 -0.960222
  755 52.9351 -4.06850 15.7968
  756 52.9238 -4.06284 -15.7925
  757 58.3922 5.36208 2.74651
  758 58.3946 5.36153 -2.74591
  759 66.0166 1.00213 -3.82904
  760 66.0191 1.00227 3.83012
  761 79.3294 6.48190 -0.202383
  762 81.6992 -3.15285 3.37808
  763 81.6963 -3.15125 -3.37419
  764 78.2661 1.17215 -12.6062
  765 78.2725 1.16959 12.6055
  766 70.5259 1.51768 6.66581
  767 70.5223 1.51777 -6.66455
  768 87.9022 -12.1553 -6.36954
  769 87.5625 -12.4230 6.77331
  770 111.304 -8.17651 5.19336
  771 111.295 -8.12981 -5.20147
  772 89.0052 -1.70441 -11.2711
  773 89.0140 -1.70786 11.2675
  774 71.1848 -0.782825 4.11077
  775 71.1849 -0.785750 -4.11312
  776 96.3577 17.8968 2.41190
  777 32.1372 3.23253 -0.581553
  778 32.1602 3.22724 0.587455
  779 124.654 4.16294 -10.1742
  780 123.549 4.01909 10.4660
  781 125.802 10.8059 1.35152
  782 79.0046 1.20283 -8.78168
  783 79.0100 1.20207 8.78201
  784 61.5508 3.66613 -4.41674
  785 61.5503 3.66666 4.41799
  786 101.319 5.51715 -4.71061
  787 68.9075 0.673735 3.97751
  788 68.9038 0.673695 -3.97654
  789 77.2003 1.84862 -4.87584
  790 77.2846 1.90242 4.96278
  791 58.3560 5.77172 7.93818
  792 58.3570 5.77152 -7.93616
  793 53.2540 5.76650 11.1408
  794 53.2544 5.76820 -11.1367
  795 84.7795 -7.44602 -0.361345
  796 84.7758 -7.45680 0.360954
  797 106.267 -6.03645 -0.428872
  798 106.272 -6.02036 0.416850
  799 51.8760 4.34054 -6.06991
  800 51.8807 4.34201 6.06489
  801 41.5144 -10.9627 -14.8876
  802 41.5431 -10.9695 14.8861
  803 103.269 3.45583 2.81231
  804 60.8191 4.19579 -0.920161
  805 60.8219 4.19569 0.919698
  806 79.9871 -0.452073 -0.705418
  807 79.9862 -0.451128 0.706469
  808 80.8304 -1.30323 1.27903
  809 80.8301 -1.30165 -1.27545
  810 79.0564 -0.777525 5.09864
  811 79.0627 -0.785118 -5.09737
  812 79.8189 -4.55741 0.995781
  813 79.8257 -4.56196 -0.992428
  814 77.6143 0.757500 5.87827
  815 77.6088 0.757704 -5.87763
  816 105.588 -2.45013 -5.18944
  817 105.593 -2.45137 5.18147
  818 64.3828 -1.77703 -9.19292
  819 64.3893 -1.77171 9.18946
  820 65.5770 0.316150 -2.05862
  821 65.5799 0.316208 2.05927
  822 75.3004 -0.849036 2.32546
  823 75.3018 -0.851451 -2.32584
  824 63.6446 2.06886 4.28861
  825 63.6436 2.06853 -4.28734
  826 62.2783 -14.4842 -20.5836
  827 60.6860 -14.2482 20.7769
  828 87.2250 11.2098 -4.31391
  829 66.0515 1.70388 3.45472
  830 66.0493 1.70296 -3.45641
  831 93.2234 -0.0282654 -8.38257
  832 93.2292 -0.0295523 8.38032
  833 72.5090 -8.86429 -12.0395
  834 72.3806 -8.85719 12.0286
  835 54.3137 6.09943 -0.243601
  836 54.3180 6.09927 0.242663
  837 109.294 -1.51091 -12.3308
  838 109.322 -1.27570 12.2812
  839 29.4287 -9.82755 15.7585
  840 29.4350 -9.79528 -15.8598
  841 104.881 5.74895 -6.47886
  842 81.8851 -14.3432 -9.61899
  843 81.9054 -14.2163 9.94681
  844 59.3685 5.12065 5.48337
  845 59.3698 5.12011 -5.48200
  846 64.7545 3.68052 8.67068
  847 64.7529 3.68066 -8.66889
  848 85.1533 8.99851 4.71119
  849 67.3327 0.299024 -2.36895
  850 67.3363 0.299067 2.36962
  851 87.7215 0.434183 7.41610
  852 87.7153 0.434884 -7.41672
  853 70.8839 -4.94610 -15.4657
  854 70.8932 -4.94686 15.4655
  855 150.575 12.5428 -2.10545
  856 18.7977 -10.6896 -2.48043
  857 18.7841 -10.7017 2.52048
  858 73.0989 0.423999 3.59493
  859 73.0939 0.423999 -3.59422
  860 60.7516 4.15101 2.75143
  861 60.7531 4.15040 -2.75062
  862 72.7099 2.21474 -1.34111
  863 64.9980 3.48531 13.2129
  864 64.9938 3.48793 -13.2109
  865 112.070 -3.40227 -7.63043
  866 112.101 -3.43286 7.65879
  867 75.8808 -2.70347 2.97742
  868 75.8846 -2.70817 -2.97790
  869 84.8300 -3.53327 -5.17226
  870 84.8288 -3.54060 5.18130
  871 80.1894 -1.00559 2.77964
  872 80.1916 -1.00465 -2.77512
  873 99.4594 3.99775 7.98510
  874 41.7484 4.38679 9.66167
  875 41.7518 4.38937 -9.65271
  876 43.2710 5.82562 -3.43902
  877 43.2832 5.82209 3.43525
  878 95.6629 -8.21417 9.64572
  879 66.0485 1.84316 5.42127
  880 66.0464 1.84299 -5.41992
  881 114.253 21.9681 -1.08526
  882 67.1935 -0.379383 5.94365
  883 67.1908 -0.382313 -5.94668
  884 124.558 -1.00004 0.308688
  885 124.522 -0.857939 -0.479513
  886 90.5917 -5.88603 -3.36473
  887 90.3500 -5.59263 3.61507
  888 152.865 11.6453 1.17504
  889 73.4261 -0.292273 14.6632
  890 73.4177 -0.288340 -14.6640
  891 91.1870 -9.45084 -12.6975
  892 81.3201 -0.591739 0.137809
  893 81.3201 -0.590873 -0.135779
  894 104.950 -0.998597 -6.31657
  895 104.953 -1.00030 6.31135
  896 64.6558 0.826471 -3.09214
  897 64.6578 0.826621 3.09312
  898 55.0445 6.62257 -4.23964
  899 55.0412 6.62329 4.24052
  900 72.1405 1.81093 1.83355
  901 119.611 20.4377 -0.409931
  902 71.0477 2.21040 8.57544
  903 71.0441 2.21078 -8.57416
  904 81.4776 0.165098 -6.48423
  905 81.5812 0.127909 6.48723
  906 71.7608 0.117233 2.93266
  907 71.7608 0.115516 -2.93404
  908 77.3578 -0.410507 -1.50370
  909 77.3567 -0.409155 1.50395
  910 92.7349 7.43226 6.98753
  911 58.8930 5.63660 10.1001
  912 58.8928 5.63723 -10.0975
  913 60.9895 4.14969 0.942716
  914 60.9916 4.14920 -0.942497
  915 44.5549 7.05686 4.80504
  916 44.5632 7.05522 -4.80157
  917 82.4657 4.47091 -5.96622
  918 72.9721 -3.08966 -5.23306
  919 72.9701 -3.08422 5.22966
  920 99.2808 1.38634 -10.6378
  921 90.8173 -5.26137 -10.0717
  922 90.8327 -5.26592 10.0687
  923 38.5495 -3.00873 -13.4051
  924 38.5603 -3.01958 13.4144
  925 100.455 1.29396 11.1197
  926 82.4356 -10.0189 5.40057
  927 83.0066 -10.3438 -5.44165
  928 82.9782 0.397120 -5.10396
  929 82.9845 0.396909 5.10418
  930 75.1222 0.222329 -4.13827
  931 75.0886 0.279778 4.13963
  932 61.2982 -15.1732 -14.5020
  933 61.3579 -15.1718 14.3478
  934 63.9590 2.52362 5.39112
  935 63.9580 2.52332 -5.38969
  936 80.7490 -3.04462 -1.20310
  937 80.7518 -3.04689 1.20702
  938 98.8269 -11.5520 -2.79887
  939 98.8937 -11.5485 2.76181
  940 63.8721 2.91518 2.02230
  941 63.8697 2.91506 -2.02322
  942 92.5375 3.95863 1.65670
  943 66.4991 2.39540 6.84416
  944 66.4969 2.39533 -6.84265
  945 73.2192 2.29387 11.8988
  946 73.2142 2.29564 -11.8981
  947 58.2566 4.71641 -1.75526
  948 58.2600 4.71675 1.75432
  949 169.791 14.4424 -0.431686
  950 38.9641 1.23886 -10.5205
  951 38.9809 1.23577 10.5078
  952 76.1423 0.375850 3.89877
  953 76.1367 0.375898 -3.89816
  954 98.2963 -7.12587 -9.44406
  955 98.9220 -6.90993 8.41259
  956 62.5988 2.69260 3.91350
  957 62.5986 2.69214 -3.91229
  958 64.7784 0.113809 -1.12478
  959 64.7814 0.113837 1.12516
  960 102.201 -0.259919 -6.20150
  961 102.205 -0.261056 6.19818
  962 150.814 7.26265 3.51265
  963 69.2339 0.192676 1.95815
  964 69.2296 0.192651 -1.95764
  965 71.4181 0.206536 -2.39385
  966 71.4230 0.206543 2.39440
  967 113.997 -1.68054 -1.56974
  968 113.993 -1.67830 1.56335
  969 91.8528 5.65935 -7.02751
  970 57.4019 -0.511243 -11.1916
  971 57.4007 -0.502403 11.1830
  972 147.373 7.59309 -4.08439
  973 79.1293 5.16977 3.49589
  974 81.1184 -0.102948 -0.631476
  975 81.1174 -0.102625 0.631893
  976 61.8594 3.74620 5.42547
  977 61.8595 3.74575 -5.42403
  978 115.984 -1.89770 2.32570
  979 115.971 -1.88787 -2.32142
  980 80.5656 -6.83775 2.62775
  981 80.5976 -6.86092 -2.62526
  982 82.5264 -5.19630 -1.40361
  983 82.5293 -5.19747 1.40938
  984 86.7637 12.7081 0.504033
  985 55.1484 4.15718 13.4185
  986 55.1455 4.16088 -13.4143
  987 61.7955 4.47215 7.52127
  988 61.7953 4.47193 -7.51948
  989 71.3773 0.809441 -2.59261
  990 96.8589 -5.28216 -1.05240
  991 118.422 12.3742 7.34220
  992 97.7776 15.3326 -4.87872
  993 61.6262 3.44550 3.33470
  994 61.6271 3.44492 -3.33366
  995 78.5367 -0.523797 -3.11248
  996 78.5317 -0.522903 3.11624
  997 59.0337 2.03844 -6.98081
  998 59.0372 2.04188 6.97823
  999 59.8562 4.72435 4.06441
  1000 59.8577 4.72377 -4.06335
  1001 78.2842 4.83143 -3.12674
  1002 53.1395 6.93606 7.16351
  1003 53.1426 6.93557 -7.16120
  1004 68.3117 1.34033 2.82576
  1005 68.3104 1.33953 -2.82720
  1006 70.0253 1.04967 -5.11511
  1007 70.0290 1.04969 5.11621
  1008 62.2409 3.23011 -2.86641
  1009 62.2439 3.23064 2.86521
  1010 67.9106 1.98037 14.2929
  1011 67.9042 1.98405 -14.2920
  1012 94.3652 0.236113 5.52136
  1013 94.3591 0.236567 -5.52238
  1014 82.5589 3.39190 6.45441
  1015 50.3467 6.56426 -1.33072
  1016 50.3529 6.56346 1.32864
  1017 109.562 -1.62355 -8.71212
  1018 109.639 -1.59208 8.68767
  1019 84.6897 -0.456281 12.2738
  1020 84.6819 -0.453194 -12.2763
  1021 63.6438 -9.40494 16.8428
  1022 63.5671 -9.41567 -16.9714
  1023 98.2837 -6.78467 5.90172
  1024 98.2643 -6.78439 -5.91106
  1025 76.9548 -4.71973 3.76609
  1026 76.9624 -4.72584 -3.76690
  1027 78.3561 -0.996581 -1.18954
  1028 78.3545 -0.994648 1.19059
  1029 63.8677 1.48368 3.64797
  1030 63.8664 1.48341 -3.64682
  1031 95.4108 -6.51973 1.04592
  1032 55.9407 4.50681 -3.99102
  1033 55.9446 4.50821 3.98878
  1034 54.7541 -5.06667 16.4370
  1035 54.7409 -5.06144 -16.4390
  1036 66.4049 0.110416 -1.37363
  1037 66.4085 0.110428 1.37405
  1038 71.6522 0.627261 2.89632
  1039 47.8438 2.77025 -9.02039
  1040 47.8508 2.76983 9.01103
  1041 80.0700 -1.47109 -0.0769130
  1042 80.0715 -1.47308 0.0795882
  1043 81.2021 -0.440162 1.37427
  1044 81.2052 -0.439414 -1.37111
  1045 59.0931 4.99402 0.626514
  1046 59.0959 4.99367 -0.626530
  1047 73.4720 -10.7895 19.2863
  1048 81.5448 -2.18391 -5.05641
  1049 81.5497 -2.18207 5.06295
  1050 35.9362 -17.1248 18.6195
  1051 35.7684 -16.5014 -18.9544
  1052 109.004 5.33331 -10.5182
  1053 70.3285 -5.31566 -9.56708
  1054 70.2876 -5.31904 9.59314
  1055 81.9665 -0.143912 -0.249044
  1056 81.9660 -0.143589 0.249937
  1057 62.1935 3.70253 -0.361288
  1058 62.1959 3.70220 0.361070
  1059 64.6104 0.316922 1.95153
  1060 64.6079 0.316857 -1.95088
  1061 73.4876 2.08969 9.57508
  1062 73.4832 2.09043 -9.57409
  1063 70.4536 -3.55690 7.55119
  1064 70.4495 -3.56438 -7.55546
  1065 64.5995 1.48102 4.05743
  1066 64.5978 1.48078 -4.05623
  1067 111.983 -3.93745 10.5447
  1068 111.954 -3.97097 -10.5307
  1069 74.0343 -1.43906 3.22064
  1070 74.0362 -1.44249 -3.22190
  1071 67.2721 0.875544 3.92408
  1072 67.2691 0.875441 -3.92304
  1073 68.3939 -9.48247 -15.3828
  1074 68.3908 -9.47363 15.3834
  1075 73.9101 0.957712 5.96042
  1076 73.9054 0.957844 -5.95949
  1077 78.9773 -0.215859 -1.10739
  1078 78.9764 -0.215100 1.10773
  1079 119.824 -1.41212 -10.3930
  1080 119.932 -1.34803 10.3940
  1081 18.5960 -24.6962 -5.46236
  1082 18.6210 -24.7031 5.43316
  1083 112.824 -0.809102 -3.47771
  1084 112.822 -0.809832 3.47208
  1085 48.0547 -8.92762 19.5115
  1086 48.3895 -8.89891 -19.3745
  1087 88.1344 0.205457 4.54813
  1088 88.1277 0.205666 -4.54826
  1089 81.9367 -0.397245 0.616504
  1090 81.9382 -0.396669 -0.614270
  1091 13.3427 -22.8401 -6.92424
  1092 13.5377 -22.6641 7.17150
  1093 81.1376 0.235219 -3.69441
  1094 81.1440 0.235132 3.69476
  1095 64.4221 1.60296 4.73665
  1096 64.4191 1.60139 -4.73875
  1097 22.2502 -4.45002 -4.92038
  1098 22.3031 -4.46555 4.92465
  1099 32.9354 -20.4467 10.3680
  1100 32.9153 -20.4851 -10.3687
  1101 79.3861 -3.19696 0.581076
  1102 79.3901 -3.20049 -0.578170
  1103 56.9451 5.61411 0.626799
  1104 56.9485 5.61386 -0.627037
  1105 80.7767 1.15802 -9.83748
  1106 80.7824 1.15683 9.83731
  1107 107.776 -7.10094 3.04486
  1108 107.765 -7.06510 -3.05522
  1109 62.8483 -5.21877 -13.6898
  1110 62.8175 -5.18773 13.6671
  1111 83.2147 -13.8905 14.2485
  1112 85.9992 0.604222 -9.75193
  1113 86.0054 0.602802 9.75074
  1114 80.9307 -2.11332 -2.53093
  1115 80.9319 -2.11512 2.53521
  1116 76.2625 -1.64518 2.24169
  1117 76.2649 -1.64846 -2.24155
  1118 73.8252 0.0274967 2.28046
  1119 73.8258 0.0260560 -2.28122
  1120 100.044 14.2796 5.18289
  1121 49.6615 -17.2811 -10.8766
  1122 49.7060 -16.9154 10.6380
  1123 62.1026 -11.8722 -19.9124
  1124 125.170 9.36580 6.30558
  1125 82.5699 7.96085 -3.57482
  1126 77.6834 -14.0614 -14.5230
  1127 32.4922 1.49473 6.88289
  1128 32.5022 1.49765 -6.86823
  1129 63.4208 4.44319 10.1038
  1130 63.4193 4.44373 -10.1017
  1131 74.5058 3.22191 0.826485
  1132 76.0899 -0.142270 -3.41127
  1133 76.0853 -0.127734 3.41313
  1134 93.6647 -1.16204 5.67617
  1135 100.474 0.122550 -4.60024
  1136 100.479 0.122144 4.59877
  1137 126.420 10.9974 -3.98340
  1138 78.5440 -12.4603 12.3385
  1139 62.8346 2.93951 -4.91456
  1140 62.8350 2.93992 4.91594
  1141 87.1444 -3.46542 -5.40676
  1142 87.4955 -3.26086 5.56186
  1143 65.3272 1.69291 4.83426
  1144 65.3254 1.69270 -4.83295
  1145 81.2704 2.24978 -2.79299
  1146 68.0816 0.359487 -4.34603
  1147 68.0832 0.361450 4.34367
  1148 123.746 7.58053 -8.57208
  1149 65.6350 2.33295 -2.28452
  1150 65.6370 2.33319 2.28343
  1151 99.3493 0.0503244 9.76629
  1152 98.7621 -2.40943 -8.11602
  1153 98.7701 -2.41241 8.11009
  1154 88.3577 1.79205 -7.50240
  1155 99.0189 0.132388 -9.68468
  1156 66.4349 0.496699 -2.82850
  1157 66.4379 0.496778 2.82932
  1158 79.9513 -1.26382 -4.21757
  1159 79.9509 -1.26156 4.22264
  1160 68.3376 0.928707 0.124970
  1161 68.1993 2.63021 8.32559
  1162 68.1966 2.63041 -8.32406
  1163 93.9018 -0.929074 -5.65607
  1164 57.3065 5.83263 3.98311
  1165 57.3090 5.83202 -3.98223
  1166 76.6824 -8.33269 8.25789
  1167 77.2992 -8.68653 -8.12945
  1168 62.8605 4.43659 11.7396
  1169 62.8582 4.43809 -11.7373
  1170 63.1747 2.00943 3.72529
  1171 63.1740 2.00906 -3.72411
  1172 79.7894 -0.938111 0.509566
  1173 79.7906 -0.939669 -0.507815
  1174 52.7870 6.98535 2.56599
  1175 52.7916 6.98447 -2.56582
  1176 62.8806 0.641157 6.81332
  1177 62.8766 0.638026 -6.81594
  1178 75.4164 0.178055 2.30665
  1179 75.4106 0.178063 -2.30623
  1180 88.0973 -9.92833 1.91219
  1181 88.5990 -9.82929 -1.62401
  1182 68.0658 1.36973 5.28256
  1183 68.0628 1.36964 -5.28133
  1184 65.5091 0.0733080 1.08448
  1185 65.5057 0.0732984 -1.08413
  1186 116.197 -1.44164 -4.27268
  1187 116.208 -1.45270 4.28907
  1188 68.1255 0.0903368 -1.21405
  1189 68.1297 0.0903427 1.21440
  1190 79.2888 -2.34751 13.7635
  1191 79.2789 -2.34393 -13.7651
  1192 138.559 22.6101 -0.684239
  1193 57.4255 6.02636 5.77869
  1194 57.4275 6.02578 -5.77728
  1195 78.3668 0.960488 7.31660
  1196 78.3614 0.960906 -7.31604
  1197 77.9621 0.629164 -5.49048
  1198 78.0681 0.611030 5.55106
  1199 191.501 11.6002 5.71336
  1200 91.0785 12.2535 5.16684
  1201 39.5979 6.13659 0.313106
  1202 39.6126 6.13226 -0.311515
  1203 61.2229 3.89392 1.89390
  1204 61.2246 3.89333 -1.89334
  1205 186.613 12.4903 -5.67629
  1206 75.6597 -0.136147 -1.86528
  1207 75.6589 -0.134876 1.86499
  1208 87.3642 -13.2449 -8.26600
  1209 87.4670 -13.2524 8.29657
  1210 61.5067 4.23207 -6.29181
  1211 61.5065 4.23247 6.29338
  1212 86.3977 1.28819 6.97383
  1213 81.8521 1.78610 4.38318
  1214 80.6538 -11.8667 -10.0648
  1215 55.3471 6.38745 -2.19096
  1216 55.3435 6.38802 2.19112
  1217 84.3974 -5.34672 2.99614
  1218 84.3989 -5.34727 -2.98812
  1219 63.9743 3.58187 7.68889
  1220 63.9731 3.58178 -7.68715
  1221 93.0421 -0.501100 9.73785
  1222 93.0357 -0.498797 -9.74125
  1223 96.7918 -9.40285 -4.97715
  1224 96.8254 -9.40063 4.96477
  1225 86.7413 6.02782 -6.72520
  1226 67.1628 3.24504 9.50301
  1227 67.1602 3.24553 -9.50134
  1228 91.7068 15.9128 -1.48974
  1229 87.2713 5.68073 6.93110
  1230 79.4730 0.207920 -2.96612
  1231 79.4794 0.207868 2.96650
  1232 103.021 -11.3839 -1.39482
  1233 103.143 -11.2764 1.25105
  1234 73.2675 0.0904052 -2.02223
  1235 73.2730 0.0903933 2.02266
  1236 70.1096 0.225969 -3.55717
  1237 70.1101 0.227806 3.55527
  1238 28.4522 -10.0532 11.3756
  1239 28.4346 -10.0353 -11.3645
  1240 49.8239 7.03885 7.92171
  1241 49.8279 7.03861 -7.91808
  1242 111.432 0.731486 -12.9222
  1243 92.8764 0.221934 3.98947
  1244 92.8696 0.222144 -3.98990
  1245 82.4503 8.90984 2.34018
  1246 108.571 22.2401 1.13007
  1247 65.7150 -1.80517 -15.9670
  1248 65.7244 -1.80938 15.9668
  1249 84.5496 -1.06040 -6.60643
  1250 84.5475 -1.16915 6.55976
  1251 69.0472 -6.20071 -13.4820
  1252 70.9749 -7.64388 13.5653
  1253 61.5166 3.56491 2.66178
  1254 61.5178 3.56431 -2.66095
  1255 59.4886 4.80658 2.10102
  1256 59.4908 4.80605 -2.10052
  1257 60.9236 3.99213 3.68695
  1258 60.9247 3.99155 -3.68589
  1259 109.974 -0.341011 -3.97306
  1260 109.976 -0.341631 3.96983
  1261 73.4324 -2.16036 4.10881
  1262 73.4345 -2.16479 -4.11105
  1263 146.147 7.72122 15.1404
  1264 111.548 0.639350 12.8019
  1265 75.9244 3.02515 3.22214
  1266 132.721 3.55070 -4.34862
  1267 67.9892 0.530863 -1.02105
  1268 49.7471 3.14499 13.3415
  1269 49.7434 3.14996 -13.3356
  1270 119.139 5.03439 18.0951
  1271 105.308 6.38544 -1.85568
  1272 45.1587 7.16263 0.883051
  1273 45.1683 7.15992 -0.883208
  1274 70.9858 2.41622 -13.3609
  1275 70.9912 2.41346 13.3616
  1276 105.687 6.62643 17.5539
  1277 49.1294 5.10319 11.5653
  1278 49.1296 5.10593 -11.5594
  1279 74.7812 1.46496 8.10297
  1280 74.7766 1.46541 -8.10206
  1281 148.711 13.4705 1.76563
  1282 108.780 6.72418 4.29598
  1283 135.492 20.2766 6.15337
  1284 113.732 1.71688 -14.6532
  1285 87.1102 -6.31015 -3.01162
  1286 87.1070 -6.27809 3.02816
  1287 117.204 -4.85111 6.75730
  1288 117.160 -4.94116 -6.70620
  1289 78.0041 -3.74665 -2.05519
  1290 77.9986 -3.74180 2.05671
  1291 65.5103 0.616321 2.91064
  1292 65.5077 0.616211 -2.90976
  1293 70.3813 -1.44396 5.22661
  1294 70.3808 -1.44763 -5.22995
  1295 78.8701 -7.63672 -13.3371
  1296 78.8820 -7.63725 13.3415
  1297 55.1184 6.63236 6.38592
  1298 55.1211 6.63179 -6.38419
  1299 100.429 -4.70908 -2.05654
  1300 75.0470 2.48953 -3.29363
  1301 139.992 8.02209 -17.8670
  1302 129.059 16.5377 -11.1774
  1303 83.3542 2.08726 -6.86511
  1304 173.590 11.0676 -11.9806
  1305 79.3576 -0.332220 -2.00691
  1306 79.3500 -0.332641 2.01058
  1307 80.2339 -2.24142 -0.549032
  1308 80.2361 -2.24378 0.552409
  1309 103.348 -0.670317 -7.92077
  1310 64.9415 0.765300 15.2954
  1311 64.9337 0.769881 -15.2944
  1312 76.9273 -0.894084 -1.73126
  1313 76.9257 -0.891914 1.73164
  1314 119.835 -0.862691 0.427091
  1315 119.821 -0.859676 -0.428544
  1316 77.5184 -2.55525 1.81521
  1317 77.5221 -2.55922 -1.81403
  1318 64.3482 0.631089 -2.60348
  1319 64.3503 0.631218 2.60434
  1320 111.284 3.92424 11.3353
  1321 105.908 -4.04945 -3.21824
  1322 105.914 -4.04632 3.20835
  1323 68.3879 3.19381 11.8120
  1324 68.3841 3.19536 -11.8105
  1325 79.1079 -14.9180 -16.5793
  1326 39.7128 -3.92718 15.5302
  1327 39.7061 -3.92213 -15.5522
  1328 106.863 3.75162 -10.4598
  1329 82.9720 -3.73196 -4.27790
  1330 82.9748 -3.73327 4.28007
  1331 61.4103 4.84209 8.61414
  1332 61.4099 4.84211 -8.61215
  1333 82.5813 -8.34567 -2.92027
  1334 82.5632 -8.35009 2.86541
  1335 84.0878 0.717893 7.56023
  1336 84.0818 0.718501 -7.56037
  1337 9.59984 -31.8728 1.85197
  1338 9.69289 -32.1049 -1.81430
  1339 181.112 11.9135 12.9814
  1340 105.439 2.18843 0.325839
  1341 70.9902 0.201873 -2.47449
  1342 108.467 13.3631 -3.35923
  1343 64.1018 1.02670 -3.10738
  1344 64.1035 1.02690 3.10840
  1345 93.0804 -10.8163 5.38381
  1346 82.4995 -1.65816 -5.98376
  1347 82.5012 -1.65069 5.98472
  1348 117.607 -0.746005 -1.99395
  1349 117.599 -0.745966 1.98867
  1350 68.2969 0.478278 3.08320
  1351 68.2932 0.478232 -3.08239
  1352 58.6419 4.93617 12.3388
  1353 58.6399 4.93835 -12.3356
  1354 133.210 8.36250 6.59896
  1355 90.5610 2.42676 -20.6334
  1356 82.6414 -0.196419 0.0481468
  1357 82.6416 -0.196125 -0.0470785
  1358 37.0783 5.16954 4.51180
  1359 37.0909 5.16810 -4.50390
  1360 81.0832 -4.27319 -0.795088
  1361 81.0873 -4.27548 0.799586
  1362 104.303 -0.659890 8.35161
  1363 64.6419 2.56102 5.86944
  1364 64.6405 2.56076 -5.86796
  1365 68.2138 0.462881 1.33894
  1366 77.1077 0.654899 13.4782
  1367 77.1005 0.658125 -13.4792
  1368 47.6854 5.00294 -5.05690
  1369 47.6933 5.00234 5.05154
  1370 113.203 -1.09114 5.89465
  1371 113.250 -1.08822 -5.86903
  1372 70.5522 0.101609 1.48320
  1373 70.5473 0.101599 -1.48283
  1374 72.2918 0.902218 5.43623
  1375 72.2874 0.902275 -5.43523
  1376 31.5354 0.146725 -8.48991
  1377 31.5711 0.138394 8.48213
  1378 68.5570 1.74384 6.27709
  1379 68.5540 1.74382 -6.27576
  1380 82.5082 -0.0540865 -0.292971
  1381 82.5072 -0.0539401 0.293369
  1382 72.3496 -0.560143 3.34327
  1383 72.3502 -0.562681 -3.34488
  1384 20.1540 -26.0547 -11.3539
  1385 18.7192 -25.2605 11.3221
  1386 91.9781 -11.6491 -6.89256
  1387 60.3369 4.54383 -5.07998
  1388 60.3360 4.54437 5.08131
  1389 70.4401 0.841356 2.61776
  1390 70.4395 0.840383 -2.61904
  1391 81.0735 -0.869545 0.557363
  1392 81.0736 -0.868388 -0.554615
  1393 85.7647 0.403506 -10.9788
  1394 85.7713 0.401402 10.9770
  1395 130.469 2.78798 5.91020
  1396 80.1760 1.84086 -6.10410
  1397 64.2429 2.07244 -4.71864
  1398 64.2441 2.07274 4.71997
  1399 66.1159 -1.30475 -7.59570
  1400 66.1195 -1.30018 7.59218
  1401 66.2504 1.41436 4.63839
  1402 66.2480 1.41419 -4.63717
  1403 113.564 -0.374218 -3.37503
  1404 113.562 -0.374752 3.37107
  1405 62.2274 2.84584 3.48401
  1406 62.2277 2.84532 -3.48290
  1407 112.116 -3.90129 -4.58392
  1408 112.136 -3.92409 4.59252
  1409 141.615 8.82128 -4.76205
  1410 64.0649 0.0318113 0.625896
  1411 64.0618 0.0318082 -0.625677
  1412 70.4727 0.595337 3.94701
  1413 70.4686 0.595321 -3.94613
  1414 55.2255 6.23203 10.0198
  1415 55.2264 6.23273 -10.0166
  1416 59.0629 4.76650 0.818452
  1417 59.0598 4.76651 -0.818978
  1418 100.330 19.8476 -1.86767
  1419 110.864 -6.45461 7.11838
  1420 110.824 -6.42383 -7.11178
  1421 63.7962 -3.41932 -11.3408
  1422 63.8022 -3.39868 11.3449
  1423 75.1707 1.83810 10.5113
  1424 75.1659 1.83930 -10.5106
  1425 36.8074 3.94418 4.93104
  1426 36.7865 3.95115 -4.93455
  1427 79.9795 1.73618 6.03760
  1428 143.044 13.4194 -0.705829
  1429 52.8873 5.58706 -2.70178
  1430 52.8922 5.58754 2.69937
  1431 63.4993 3.22052 -1.03475
  1432 63.5015 3.22030 1.03426
  1433 111.418 12.3979 1.37779
  1434 77.6332 -0.133696 -1.38188
  1435 77.6324 -0.132789 1.38196
  1436 60.3505 4.04622 -2.19629
  1437 60.3537 4.04659 2.19536
  1438 74.6141 0.923026 -4.12810
  1439 112.005 -2.91583 0.0844209
  1440 112.000 -2.90786 -0.0896977
  1441 46.2526 -12.3924 17.8535
  1442 71.2339 0.206564 2.52700
  1443 89.6953 -1.57270 6.25201
  1444 71.0252 1.77544 7.49298
  1445 71.0215 1.77564 -7.49174
  1446 89.7444 -1.78907 -6.18449
  1447 80.7917 -1.29294 2.01352
  1448 80.7923 -1.29143 -2.00942
  1449 79.0907 -7.64319 5.26640
  1450 79.0026 -7.69978 -5.30962
  1451 79.1952 -10.8385 9.51558
  1452 59.7335 5.07618 6.51311
  1453 59.7343 5.07577 -6.51151
  1454 87.8774 0.185215 2.63346
  1455 87.8702 0.185271 -2.63344
  1456 62.0015 3.73287 0.498670
  1457 62.0036 3.73238 -0.498564
  1458 97.3643 3.45655 6.06925
  1459 66.6276 2.82490 7.75113
  1460 66.6254 2.82491 -7.74953
  1461 56.1229 1.73515 -8.56762
  1462 56.1255 1.74022 8.56284
  1463 80.7449 -1.93848 -3.46806
  1464 80.7462 -1.93966 3.47279
  1465 65.2006 1.01230 -3.58795
  1466 65.2027 1.01246 3.58902
  1467 104.908 0.0743865 -3.93735
  1468 104.912 0.0739871 3.93556
  1469 64.2145 2.62472 2.81418
  1470 64.2119 2.62426 -2.81544
  1471 78.5902 -0.538076 -1.16404
  1472 78.5890 -0.536777 1.16475
  1473 52.5788 7.15403 -4.07400
  1474 52.5745 7.15498 4.07488
  1475 82.0418 -0.0221338 -0.376451
  1476 82.0404 -0.0220430 0.376575
  1477 75.5517 3.44201 -1.50419
  1478 48.1021 6.55420 -8.57055
  1479 48.0982 6.55379 8.57525
  1480 75.2133 -3.44777 3.98272
  1481 75.2176 -3.45363 -3.98464
  1482 82.7454 -6.71117 0.332581
  1483 82.7498 -6.71178 -0.319641
  1484 57.2676 5.98076 8.84752
  1485 57.2686 5.98083 -8.84510
  1486 97.4911 -1.14215 8.54828
  1487 97.4847 -1.13954 -8.55302
  1488 80.6501 -0.317508 1.48908
  1489 80.6560 -0.316970 -1.48591
  1490 79.5566 3.55391 -5.16311
  1491 24.3916 -2.32875 -0.670879
  1492 24.3593 -2.32394 0.689431
  1493 63.0517 3.28837 5.91820
  1494 63.0511 3.28802 -5.91667
  1495 62.2324 3.54163 -1.38087
  1496 62.2350 3.54159 1.38025
  1497 105.497 -1.61850 -5.63936
  1498 105.501 -1.62030 5.63251
  1499 64.3630 0.190450 1.50575
  1500 64.3603 0.190407 -1.50523
  1501 80.2485 -0.656349 -5.89643
  1502 80.2400 -0.643188 5.90576
  1503 58.8649 3.91846 3.58539
  1504 58.8612 3.91740 -3.58693
  1505 72.4210 0.351579 2.44889
  1506 72.4210 0.350361 -2.44991
  1507 86.6157 -3.41044 12.0771
  1508 86.6046 -3.40643 -12.0798
  1509 97.0554 -4.55658 -7.67055
  1510 97.0694 -4.55990 7.66412
  1511 85.3154 -9.21736 1.72123
  1512 85.3919 -9.13403 -1.61213
  1513 74.9579 0.896901 4.28782
  1514 73.4975 -0.395759 2.74351
  1515 73.4984 -0.397903 -2.74453
  1516 96.3637 9.03943 -6.58872
  1517 69.2218 -2.09361 -6.49584
  1518 69.2244 -2.08930 6.49188
  1519 74.5357 -14.2996 16.2536
  1520 82.9303 9.48629 -1.25764
  1521 74.6194 -4.68880 -5.61552
  1522 74.6175 -4.68055 5.61310
  1523 91.8901 -10.0469 2.16575
  1524 48.8562 -1.06401 -15.1436
  1525 48.8668 -1.07177 15.1477
  1526 61.8635 3.29964 3.92499
  1527 61.8640 3.29911 -3.92382
  1528 80.0249 -0.0535580 -0.830545
  1529 80.0240 -0.0531903 0.830755
  1530 59.8888 4.63930 3.18477
  1531 59.8905 4.63871 -3.18393
  1532 106.534 -9.82258 2.61658
  1533 106.514 -9.76507 -2.64516
  1534 84.8296 0.116136 -2.56297
  1535 84.8368 0.116100 2.56311
  1536 90.1896 2.48829 7.14632
  1537 89.7992 0.503418 7.91311
  1538 75.1359 -13.6276 -12.4563
  1539 75.1127 -13.5918 12.5060
  1540 69.9021 0.373586 2.91871
  1541 69.8979 0.373552 -2.91800
  1542 65.7020 2.32656 6.22699
  1543 65.7001 2.32641 -6.22552
  1544 89.1095 0.582568 -7.84722
  1545 78.1031 5.28093 1.90419
  1546 113.198 -6.91517 -0.889413
  1547 113.624 -6.43255 1.39468
  1548 83.9661 1.19430 6.96851
  1549 73.5286 -0.0224387 -2.58595
  1550 73.5019 -0.0245831 2.55657
  1551 55.8635 5.34073 -2.15009
  1552 55.8674 5.34127 2.14863
  1553 82.1577 5.67461 5.16071
  1554 62.7509 2.69147 -4.24093
  1555 62.7512 2.69191 4.24219
  1556 77.8678 1.33652 -4.05849
  1557 67.1010 0.0510663 -1.03957
  1558 67.1050 0.0510668 1.03988
  1559 40.7512 -12.2128 19.7123
  1560 40.9615 -12.0996 -19.6674
  1561 74.3945 -11.7807 -13.5966
  1562 53.1937 -13.3654 -15.7419
  1563 53.2198 -13.3583 15.7210
  1564 80.6800 -0.425373 -0.432321
  1565 80.6793 -0.424559 0.433663
  1566 62.6358 3.21727 14.1813
  1567 62.6311 3.22076 -14.1790
  1568 91.7129 11.0381 -5.94960
  1569 26.6172 -3.86301 -7.39896
  1570 26.6125 -3.87243 7.42071
  1571 79.4989 3.49131 5.25312
  1572 76.7946 1.62672 11.9160
  1573 76.7889 1.62873 -11.9161
  1574 81.2010 -0.192099 0.529150
  1575 81.2018 -0.192520 -0.528452
  1576 69.6253 2.81229 9.95995
  1577 69.6219 2.81301 -9.95852
  1578 40.7144 -5.99068 -14.8450
  1579 40.7323 -6.00169 14.8498
  1580 115.453 -2.91715 11.7613
  1581 115.436 -2.96720 -11.7329
  1582 88.7188 1.64471 17.8529
  1583 60.5874 4.31828 0.0350612
  1584 60.5900 4.31796 -0.0351920
  1585 79.6695 3.03633 22.0217
  1586 88.3269 -7.76186 -10.0993
  1587 88.3479 -7.76716 10.1005
  1588 83.2308 -1.33970 -12.8951
  1589 83.2396 -1.34325 12.8926
  1590 78.0296 0.118220 1.86985
  1591 78.0232 0.118219 -1.86956
  1592 65.1104 2.61826 -1.74893
  1593 65.1125 2.61825 1.74809
  1594 41.6159 1.64360 -12.3927
  1595 41.6186 1.63697 12.4019
  1596 46.3470 -0.334331 12.9285
  1597 46.3425 -0.331092 -12.9398
  1598 43.5566 3.69987 -7.75683
  1599 43.5685 3.69644 7.74825
  1600 58.6944 5.31977 4.34877
  1601 58.6962 5.31917 -4.34771
  1602 77.3454 1.94088 -0.608164
  1603 60.5999 4.33231 1.88411
  1604 60.6018 4.33174 -1.88359
  1605 67.7195 1.67640 2.37934
  1606 67.7181 1.67595 -2.38053
  1607 67.6386 1.08951 4.47650
  1608 67.6356 1.08941 -4.47537
  1609 73.6871 -15.7813 -11.6255
  1610 73.9976 -15.7075 11.7806
  1611 81.0914 -5.65999 -0.692908
  1612 81.0819 -5.65569 0.699234
  1613 77.7638 -6.08070 -4.44397
  1614 77.7584 -6.08971 4.43555
  1615 81.2360 -3.55216 -1.72519
  1616 81.2389 -3.55413 1.72925
  1617 82.6843 1.01456 -17.0963
  1618 80.7484 -2.15467 -1.51587
  1619 80.7499 -2.15674 1.51978
  1620 84.5727 7.39756 -5.43544
  1621 76.3703 -0.0711822 4.43285
  1622 76.3688 -0.0720932 -4.43399
  1623 204.754 11.8322 -0.884438
  1624 79.1564 -1.23509 0.708811
  1625 79.1581 -1.23711 -0.707043
  1626 82.2547 -0.204468 0.667029
  1627 82.2578 -0.204070 -0.665156
  1628 82.8636 -0.132513 0.175629
  1629 82.8647 -0.132324 -0.174507
  1630 67.9509 1.14169 3.33183
  1631 67.9494 1.14057 -3.33355
  1632 69.0179 0.0817765 1.14186
  1633 69.0133 0.0817671 -1.14154
  1634 42.2797 6.16844 7.16798
  1635 42.2871 6.16834 -7.16156
  1636 47.5539 7.28688 4.79954
  1637 47.5606 7.28554 -4.79723
  1638 85.4031 -11.4718 6.05145
  1639 91.2206 0.296645 -7.81476
  1640 91.2266 0.295693 7.81338
  1641 74.2109 1.57725 3.57077
  1642 77.8362 -1.45838 -1.40346
  1643 77.8340 -1.45574 1.40454
  1644 72.4055 0.0682009 -1.33769
  1645 72.4109 0.0681979 1.33799
  1646 104.688 -8.21261 0.0382276
  1647 104.697 -8.18792 -0.0569650
  1648 90.9264 -10.1781 -1.82254
  1649 74.4906 0.580869 4.35139
  1650 74.4855 0.580905 -4.35065
  1651 119.120 -0.772199 2.40746
  1652 119.107 -0.766781 -2.39930
  1653 53.3189 -1.00131 -12.7245
  1654 53.3222 -1.00366 12.7110
  1655 62.7583 2.34107 3.66212
  1656 62.7580 2.34063 -3.66095
  1657 144.906 9.16982 2.31662
  1658 66.1670 0.0455317 0.705967
  1659 66.1632 0.0455223 -0.705737
  1660 76.4652 -0.0288501 2.11632
  1661 76.4765 -0.0329599 -2.11366
  1662 62.9943 -7.11970 16.0323
  1663 62.9867 -7.12203 -16.0365
  1664 39.1234 -12.7443 -15.5612
  1665 148.109 18.7974 -8.90147
  1666 55.6078 3.61521 -5.82689
  1667 55.6116 3.61772 5.82366
  1668 75.8893 0.622342 5.07796
  1669 75.8841 0.622453 -5.07724
  1670 64.8897 0.617512 2.75933
  1671 64.8874 0.617399 -2.75845
  1672 97.7588 0.691886 -5.01033
  1673 63.7255 4.33309 10.8441
  1674 63.7235 4.33401 -10.8420
  1675 66.7064 0.345057 -2.33135
  1676 66.7097 0.345110 2.33203
  1677 64.7671 0.0409493 -0.653621
  1678 64.7704 0.0409670 0.653846
  1679 58.7778 -0.180339 -9.84388
  1680 58.7790 -0.172619 9.84018
  1681 111.838 3.44607 -11.5973
  1682 109.542 -0.0941895 -2.72769
  1683 109.545 -0.0944438 2.72594
  1684 66.9440 0.639483 3.28154
  1685 66.9409 0.639401 -3.28063
  1686 69.1149 -6.94706 11.9529
  1687 69.1313 -7.05438 -12.0119
  1688 73.6616 1.41358 7.32585
  1689 73.6572 1.41385 -7.32483
  1690 62.7608 2.55542 3.90615
  1691 62.7576 2.55439 -3.90776
  1692 13.7952 -37.1301 3.53463
  1693 13.7842 -37.1004 -3.58715
  1694 89.2370 14.2478 2.12893
  1695 123.495 -0.326264 -0.409212
  1696 123.479 -0.325746 0.406635
  1697 100.627 0.0682560 3.44295
  1698 100.621 0.0684810 -3.44388
  1699 65.0957 0.253784 1.81311
  1700 65.0929 0.253735 -1.81252
  1701 97.4861 -0.0260021 -7.11823
  1702 97.4914 -0.0270530 7.11571
  1703 78.8793 -10.5382 -9.21241
  1704 64.2717 1.32382 -3.68124
  1705 64.2732 1.32405 3.68238
  1706 75.9680 -2.10325 2.63205
  1707 75.9711 -2.10717 -2.63227
  1708 166.038 13.7631 0.677901
  1709 65.1926 2.80114 6.75853
  1710 65.1909 2.80098 -6.75697
  1711 71.8916 1.95144 0.00460334
  1712 58.4266 -6.52141 -16.2512
  1713 58.4804 -6.55580 16.2271
  1714 63.4734 1.58235 3.47986
  1715 63.4724 1.58204 -3.47872
  1716 81.2230 -0.782176 1.21043
  1717 81.2244 -0.781145 -1.20717
  1718 89.5972 1.46672 -7.14917
  1719 70.5931 2.84704 -11.1374
  1720 70.5971 2.84574 11.1386
  1721 46.6443 6.73930 -1.01498
  1722 46.6530 6.73721 1.01301
  1723 59.6115 5.48170 9.27199
  1724 59.6116 5.48192 -9.26970
  1725 57.5468 2.11412 14.8862
  1726 57.5403 2.11905 -14.8831
  1727 79.2763 -5.61648 -2.50936
  1728 79.2664 -5.60875 2.50907
  1729 82.5876 -4.47463 2.58529
  1730 82.5857 -4.47361 -2.58106
  1731 85.5510 -5.07536 -3.98359
  1732 85.5588 -5.07670 3.98071
  1733 76.6895 1.53098 8.78242
  1734 76.6845 1.53166 -8.78177
  1735 85.7064 -11.2168 -5.32877
  1736 68.1115 2.34271 7.35982
  1737 68.1088 2.34275 -7.35834
  1738 52.5872 2.72239 -8.34950
  1739 52.5908 2.72526 8.34263
  1740 79.2072 -5.24939 -13.4645
  1741 79.2190 -5.25197 13.4648
  1742 61.7505 3.77236 1.33081
  1743 61.7522 3.77178 -1.33041
  1744 81.3093 0.518098 5.11777
  1745 81.3031 0.518292 -5.11740
  1746 160.248 11.9300 -28.7003
  1747 64.0420 1.67262 -4.01704
  1748 64.0433 1.67290 4.01826
  1749 82.5858 0.638706 6.47250
  1750 82.5798 0.639067 -6.47232
  1751 96.0377 0.131772 3.56235
  1752 96.0311 0.131933 -3.56290
  1753 59.2659 2.74516 -5.68973
  1754 59.2696 2.74750 5.68754
  1755 61.8885 0.536341 -7.78070
  1756 61.8927 0.540448 7.77814
  1757 77.7833 -0.480100 4.08717
  1758 77.7866 -0.485409 -4.08431
  1759 69.1512 -3.97357 8.89444
  1760 69.1541 -3.98213 -8.90012
  1761 60.0089 -11.3294 19.3276
  1762 59.4196 -11.0620 -19.2221
  1763 81.0516 5.92400 -4.42465
  1764 68.2527 0.218149 -2.12243
  1765 68.2567 0.218177 2.12301
  1766 67.2034 0.472780 0.757193
  1767 60.2421 3.68322 3.28914
  1768 60.2387 3.68241 -3.29047
  1769 91.9350 -13.6327 -6.27227
  1770 92.0923 -13.6924 6.25825
  1771 104.495 -0.535204 -5.90755
  1772 104.499 -0.536454 5.90348
  1773 75.7926 -0.392705 1.97665
  1774 75.7937 -0.394384 -1.97685
  1775 68.7206 0.264407 -1.65480
  1776 71.9712 -5.21302 8.09097
  1777 71.9553 -5.23032 -8.10427
  1778 110.863 8.08262 1.37112
  1779 80.2172 -3.93692 -0.0762695
  1780 80.2124 -3.93361 0.0800403
  1781 67.5362 1.84385 -6.21170
  1782 67.5388 1.84392 6.21309
  1783 63.4938 1.50081 5.46029
  1784 63.4903 1.49882 -5.46253
  1785 60.5341 4.33930 4.52959
  1786 60.5350 4.33874 -4.52838
  1787 56.5230 5.96740 1.86578
  1788 56.5262 5.96693 -1.86562
  1789 61.9084 3.23414 2.95796
  1790 61.9092 3.23356 -2.95700
  1791 104.862 18.9835 3.01652
  1792 110.346 -2.44513 11.0912
  1793 110.307 -2.45486 -11.1163
  1794 98.6106 -5.82930 1.24650
  1795 61.7861 3.66992 5.04445
  1796 61.7863 3.66945 -5.04307
  1797 87.7245 13.2094 -1.95130
  1798 163.113 10.2288 22.2318
  1799 69.3420 2.90833 12.5118
  1800 69.3376 2.91043 -12.5106
  1801 80.3008 0.902323 4.98356
  1802 57.6286 -14.9944 21.3256
  1803 58.3634 5.23557 1.11154
  1804 58.3662 5.23520 -1.11145
  1805 79.0809 5.94236 -2.15549
  1806 66.9432 0.399666 5.05754
  1807 66.9409 0.397518 -5.06011
  1808 79.5815 -1.95527 -0.210654
  1809 79.5792 -1.95273 0.213316
  1810 90.3938 -0.148083 10.0860
  1811 90.3872 -0.145892 -10.0888
  1812 59.0622 -15.0096 -20.9380
  1813 86.3965 11.5064 3.14788
  1814 71.6043 0.452274 3.36984
  1815 71.5997 0.452261 -3.36911
  1816 62.6259 3.97072 7.11241
  1817 62.6254 3.97047 -7.11071
  1818 73.6396 0.808567 1.78365
  1819 62.9325 4.15680 8.18826
  1820 62.9317 4.15676 -8.18641
  1821 67.6450 -9.03342 14.8466
  1822 67.3735 -9.27313 -15.1944
  1823 59.1672 5.45930 7.52264
  1824 59.1680 5.45901 -7.52078
  1825 102.398 17.4065 -4.21904
  1826 117.859 6.72623 8.99203
  1827 84.0808 0.872981 9.42045
  1828 84.0748 0.874170 -9.42112
  1829 109.813 -4.61469 2.02038
  1830 109.806 -4.59665 -2.02474
  1831 80.2973 -0.179656 -0.775218
  1832 80.2963 -0.179135 0.775723
  1833 57.7982 -1.99253 -16.2994
  1834 57.8085 -1.99772 16.2999
  1835 85.7584 -11.0708 15.0980
  1836 75.1689 -14.2047 18.8565
  1837 111.711 -1.65480 -2.94742
  1838 111.710 -1.65459 2.94022
  1839 92.8936 -5.22908 -3.42373
  1840 98.8681 0.466937 4.38874
  1841 90.9449 -11.6941 -8.29539
  1842 91.5515 -11.0664 8.26887
  1843 111.369 -3.18464 9.48502
  1844 111.313 -3.18705 -9.48081
  1845 81.8775 -13.7149 12.1289
  1846 16.4580 -13.0429 3.21590
  1847 16.3679 -13.0036 -3.17606
  1848 79.5076 -0.863161 -3.36174
  1849 79.5048 -0.862720 3.36627
  1850 92.1989 0.0342098 2.67137
  1851 92.1917 0.0343170 -2.67153
  1852 65.0767 1.44984 4.33959
  1853 65.0748 1.44964 -4.33836
  1854 133.540 16.3854 24.8372
  1855 28.5282 -3.98944 10.6448
  1856 28.4891 -4.00031 -10.6617
  1857 61.4943 3.72718 -1.85351
  1858 61.4972 3.72735 1.85271
  1859 67.3170 1.59006 2.98368
  1860 67.3154 1.58931 -2.98518
  1861 71.4266 0.894408 -5.06088
  1862 71.4308 0.894397 5.06188
  1863 108.679 -9.41524 -0.620824
  1864 108.456 -9.45427 0.515998
  1865 28.8152 -19.4704 -10.5126
  1866 28.8350 -19.4602 10.5045
  1867 60.0867 4.60963 -1.19833
  1868 60.0844 4.61011 1.19858
  1869 79.1366 0.343604 4.32385
  1870 79.1305 0.343732 -4.32336
  1871 62.9311 2.96730 5.22687
  1872 62.9306 2.96692 -5.22545
  1873 55.6449 4.93491 12.3353
  1874 55.6433 4.93747 -12.3314
  1875 46.0860 -17.0924 13.8156
  1876 46.0242 -17.1144 -13.8261
  1877 57.6001 5.54921 10.9416
  1878 57.5997 5.55036 -10.9385
  1879 80.1474 -1.34309 -5.02717
  1880 80.1469 -1.33622 5.03331
  1881 81.5059 -2.64313 -4.17276
  1882 81.5095 -2.64387 4.17748
  1883 84.9920 3.87937 6.89495
  1884 92.9597 -5.12624 3.29578
  1885 79.4881 -0.696742 -0.735512
  1886 79.4870 -0.695364 0.736800
  1887 49.6202 6.98450 0.907477
  1888 49.6265 6.98330 -0.908200
  1889 28.2551 -19.4245 -3.88408
  1890 28.2729 -19.4015 3.88399
  1891 72.5887 1.54035 -2.39023
  1892 82.2590 0.930798 10.8411
  1893 82.2529 0.932457 -10.8419
  1894 76.5015 -0.0806981 -1.65232
  1895 76.5007 -0.0796754 1.65218
  1896 75.2194 -1.15146 2.48655
  1897 75.2212 -1.15431 -2.48698
  1898 69.2843 0.931139 -4.57748
  1899 69.2879 0.931193 4.57853
  1900 78.1511 -0.191273 1.96379
  1901 78.1608 -0.191733 -1.96065
  1902 63.5769 2.50383 5.03204
  1903 63.5761 2.50349 -5.03065
  1904 108.729 -0.497657 -5.08577
  1905 108.752 -0.494508 5.13545
  1906 74.2475 1.24578 13.5620
  1907 74.2408 1.24896 -13.5622
  1908 104.906 0.0737999 12.1929
  1909 94.9273 4.42109 -6.52369
  1910 65.9454 0.170044 -1.57691
  1911 65.9487 0.170067 1.57740
  1912 65.9936 0.447309 -0.391537
  1913 52.3138 6.24990 -0.932706
  1914 52.3189 6.24966 0.931146
  1915 107.657 13.2482 -26.2123
  1916 57.5903 5.83213 5.07412
  1917 57.5923 5.83154 -5.07291
  1918 20.4801 -10.8107 9.67635
  1919 20.4018 -10.8249 -9.73135
  1920 198.431 9.21331 -18.8310
  1921 86.2580 -13.6544 -10.1455
  1922 67.0150 0.153087 -1.64096
  1923 67.0187 0.153111 1.64145
  1924 135.831 3.93056 -2.93678
  1925 82.6466 -0.0260891 -0.277930
  1926 82.6453 -0.0260231 0.278109
  1927 44.3757 -10.0482 9.46297
  1928 47.2062 -9.35854 -10.5670
  1929 47.1811 -4.65062 -16.7357
  1930 47.1585 -4.63454 16.7220
  1931 74.7111 0.0387850 2.02799
  1932 74.7116 0.0376160 -2.02852
  1933 81.3255 0.122211 -1.92304
  1934 81.3325 0.122190 1.92325
  1935 85.4625 3.14542 -7.03192
  1936 64.2274 2.09212 3.91515
  1937 64.2246 2.09107 -3.91689
  1938 80.4640 -1.60055 -0.657732
  1939 80.4651 -1.60241 0.660969
  1940 70.5899 0.472067 3.03018
  1941 70.5895 0.470617 -3.03172
  1942 63.7568 1.22815 3.22089
  1943 63.7554 1.22791 -3.21982
  1944 62.3426 3.05802 4.38794
  1945 62.3426 3.05754 -4.38666
  1946 120.650 -0.608416 -1.24888
  1947 120.666 -0.611821 1.25110
  1948 95.2202 14.7768 4.56548
  1949 67.4596 0.137384 1.24358
  1950 90.7530 0.252705 6.78325
  1951 90.7468 0.253290 -6.78417
  1952 54.2914 -8.33092 16.4671
  1953 54.2763 -8.32780 -16.4746
  1954 78.4002 -4.61685 2.41547
  1955 78.4077 -4.62214 -2.41422
  1956 80.4436 -0.940196 0.00254791
  1957 80.4444 -0.941602 -0.000277391
  1958 55.1959 -7.58103 17.7707
  1959 55.0633 -7.59414 -17.7485
  1960 72.1272 0.941255 14.4099
  1961 72.1197 0.944973 -14.4101
  1962 93.5534 -8.66017 7.27007
  1963 93.5224 -8.65696 -7.27425
  1964 68.9716 1.29761 2.45974
  1965 68.9705 1.29699 -2.46095
  1966 160.343 16.5728 6.37305
  1967 65.6518 0.814523 -3.37555
  1968 65.6542 0.814648 3.37655
  1969 88.6788 -7.71437 1.48815
  1970 88.5772 -7.80070 -1.35932
  1971 57.3995 -3.51964 14.1282
  1972 57.4083 -3.51825 -14.1580
  1973 135.230 5.83626 -6.10647
  1974 82.9650 -0.0386439 0.175249
  1975 82.9657 -0.0387715 -0.174789
  1976 100.823 -3.45289 -8.33400
  1977 65.1992 2.09407 5.41977
  1978 65.1975 2.09385 -5.41837
  1979 89.6825 8.56359 6.46811
  1980 65.8991 1.37149 4.13410
  1981 65.8967 1.37016 -4.13612
  1982 118.778 8.18483 -6.63928
  1983 89.4480 0.184483 5.75356
  1984 102.904 -5.89047 3.21199
  1985 102.891 -5.89589 -3.22393
  1986 63.9722 3.41219 -22.9036
  1987 90.7347 13.5028 -4.26375
  1988 80.4821 6.84230 2.48847
  1989 74.6820 2.87325 1.99412
  1990 10.5631 -42.2749 3.74068
  1991 10.6165 -42.2627 -3.83025
  1992 85.0020 10.5945 -2.83442
  1993 50.8468 7.28608 5.83016
  1994 50.8515 7.28517 -5.82809
  1995 88.9796 0.0693798 -5.63215
  1996 80.8737 -8.95740 -5.39052
  1997 81.0532 -8.92954 5.05512
  1998 91.2647 -11.4014 7.36268
  1999 91.2131 -11.3968 -7.36290
  2000 64.2522 -12.6409 10.8034
  2001 66.9378 -13.7466 -11.1504
  2002 51.2984 5.57703 -3.68174
  2003 51.3039 5.57726 3.67829
  2004 28.1062 -16.9029 16.6562
  2005 28.4394 -16.6093 -17.2833
  2006 58.9112 5.14818 3.31609
  2007 58.9132 5.14760 -3.31528
  2008 74.6353 0.0489482 1.31001
  2009 74.6294 0.0489601 -1.30975
  2010 106.103 1.78012 -1.50996
  2011 70.3400 1.29463 -5.92602
  2012 70.3437 1.29460 5.92720
  2013 61.1174 3.85884 3.20493
  2014 61.1185 3.85825 -3.20398
  2015 113.707 -1.14090 -12.7724
  2016 104.131 9.84888 4.50901
  2017 72.4304 -7.60678 -10.3941
  2018 72.4464 -7.42312 10.2945
  2019 119.785 1.21020 -11.5654
  2020 80.5771 0.412853 -5.06681
  2021 114.365 -6.10035 -7.90912
  2022 114.361 -6.09473 7.94304
  2023 61.4723 3.98740 0.272347
  2024 61.4746 3.98698 -0.272346
  2025 63.5767 1.84569 3.90155
  2026 63.5757 1.84536 -3.90034
  2027 132.565 4.64342 7.42611
  2028 77.9526 1.52640 9.95021
  2029 77.9473 1.52750 -9.94993
  2030 103.382 0.603335 -11.8730
  2031 64.2573 0.425141 2.20516
  2032 64.2550 0.425054 -2.20440
  2033 72.9282 -1.42040 3.75330
  2034 72.9295 -1.42394 -3.75522
  2035 58.5506 -2.71761 20.3024
  2036 119.421 -0.310054 -1.77454
  2037 119.415 -0.310266 1.77128
  2038 69.6125 -0.526830 4.67645
  2039 69.6117 -0.529590 -4.67923
  2040 64.0478 0.0916249 1.05435
  2041 64.0450 0.0916023 -1.05397
  2042 80.6865 -0.636824 -1.90558
  2043 80.6832 -0.637766 1.90943
  2044 27.4165 -20.7503 10.5907
  2045 120.887 9.90905 -1.46359
  2046 103.000 -4.36717 -4.96315
  2047 103.010 -4.36729 4.95388
  2048 72.7783 -1.77115 -15.1167
  2049 72.7877 -1.77495 15.1159
  2050 81.9839 -0.186830 0.737545
  2051 81.9885 -0.186509 -0.735654
  2052 71.7317 0.989861 2.52738
  2053 218.190 7.12765 4.42661
  2054 132.704 10.8208 -5.12705
  2055 78.4736 -0.310074 -5.35258
  2056 78.4904 -0.307864 5.35605
  2057 99.8535 2.67599 9.35214
  2058 72.4496 -3.64235 6.13463
  2059 72.4509 -3.64855 -6.13907
  2060 61.7334 3.56418 2.16276
  2061 61.7348 3.56357 -2.16207
  2062 120.043 1.15633 11.6126
  2063 60.9841 4.29828 5.63230
  2064 60.9846 4.29781 -5.63086
  2065 83.0779 -2.85112 -5.17861
  2066 83.0843 -2.85078 5.18329
  2067 68.5928 -12.5721 -17.8544
  2068 25.1702 -23.1840 -9.95874
  2069 77.3498 -3.71675 -2.70343
  2070 77.3439 -3.71136 2.70395
  2071 78.6148 -2.54235 -1.05159
  2072 78.6115 -2.53892 1.05368
  2073 78.9896 -0.0717100 -1.08010
  2074 78.9887 -0.0711742 1.08024
  2075 110.290 8.83090 -0.631495
  2076 64.7238 2.53433 -2.48096
  2077 64.7262 2.53465 2.47981
  2078 57.1545 5.20832 1.06645
  2079 57.1509 5.20815 -1.06727
  2080 73.9850 -6.81010 8.36419
  2081 74.1182 -6.83825 -8.34107
  2082 60.1853 -2.97416 12.4537
  2083 60.2006 -2.99622 -12.4608
  2084 113.894 -1.15501 12.6476
  2085 55.3816 6.12168 0.803048
  2086 55.3854 6.12135 -0.803404
  2087 52.0623 -17.3356 -13.5733
  2088 52.2191 -17.2771 13.5130
  2089 76.2470 -10.2204 -13.6034
  2090 76.2532 -10.2141 13.6148
  2091 54.3265 6.64664 -2.89977
  2092 54.3227 6.64733 2.90012
  2093 19.5779 -15.4503 -5.92125
  2094 19.5958 -15.4877 5.93952
  2095 94.8528 4.36895 3.73835
  2096 98.5180 -0.0738774 -6.77052
  2097 77.1345 0.0566591 1.27842
  2098 77.1280 0.0566622 -1.27820
  2099 79.4545 -0.309871 -0.948068
  2100 79.4535 -0.308992 0.948712
  2101 76.1193 -1.06659 2.08616
  2102 76.1211 -1.06915 -2.08611
  2103 79.5260 -0.482681 13.5510
  2104 79.5177 -0.479088 -13.5528
  2105 157.078 11.2968 0.946417
  2106 27.2990 0.450911 -2.23857
  2107 27.3321 0.443802 2.24502
  2108 81.5728 -0.318622 -0.200452
  2109 81.5725 -0.318080 0.201797
  2110 69.7400 1.17197 -0.701104
  2111 69.9237 0.0382064 -0.905137
  2112 69.9286 0.0382181 0.905378
  2113 63.0372 3.35685 -0.0967650
  2114 63.0392 3.35640 0.0966612
  2115 91.3362 3.18759 -5.44651
  2116 40.8011 6.28934 4.31889
  2117 40.8119 6.28745 -4.31379
  2118 110.843 -5.38773 5.96658
  2119 110.814 -5.35259 -5.95841
  2120 82.6846 7.77995 3.94264
  2121 74.6035 -2.01426 3.30453
  2122 74.6061 -2.01838 -3.30573
  2123 81.8802 -0.377720 0.338423
  2124 81.8809 -0.377128 -0.336506
  2125 83.0219 -0.100143 0.332182
  2126 83.0244 -0.100024 -0.331040
  2127 67.4107 2.76296 13.6772
  2128 67.4054 2.76607 -13.6759
  2129 8.96679 -37.5703 -3.77669
  2130 9.03044 -36.9366 3.83898
  2131 42.6663 6.95000 -2.15216
  2132 42.6553 6.95296 2.15396
  2133 78.2516 -0.295894 -1.27419
  2134 78.2506 -0.294850 1.27456
  2135 64.7644 3.96477 9.44916
  2136 64.7627 3.96515 -9.44726
  2137 85.1496 5.77681 6.39042
  2138 109.939 2.17943 12.3201
  2139 62.7800 2.02629 14.7995
  2140 62.7735 2.03068 -14.7977
  2141 65.0894 0.424456 2.34311
  2142 65.0868 0.424377 -2.34235
  2143 89.2343 0.236879 5.34902
  2144 89.2278 0.237221 -5.34937
  2145 65.7502 3.71429 10.1615
  2146 65.7479 3.71498 -10.1597
  2147 96.5201 0.116107 -5.68570
  2148 96.5258 0.115552 5.68431
  2149 82.5186 -13.3024 -10.7477
  2150 131.212 11.5849 3.48818
  2151 71.5127 -11.2490 14.9325
  2152 73.8172 1.43022 -3.53415
  2153 72.0498 2.13430 -9.07128
  2154 72.0538 2.13373 9.07243
  2155 45.7065 4.74020 -5.99902
  2156 45.7162 4.73808 5.99244
  2157 68.6831 2.65901 8.87630
  2158 68.6801 2.65936 -8.87478
  2159 97.0280 8.03494 6.30385
  2160 120.335 5.00647 -10.6319
  2161 36.6615 3.99535 6.97225
  2162 36.6704 3.99630 -6.96165
  2163 51.9311 -12.6332 21.0428
  2164 54.6949 -12.6620 -20.8368
  2165 82.2725 -7.18640 -17.7518
  2166 68.8707 1.38791 5.60459
  2167 68.8675 1.38786 -5.60336
  2168 89.9196 0.128264 -2.32352
  2169 89.9270 0.128190 2.32349
  2170 66.4160 0.260694 -0.987471
  2171 78.7790 -0.718694 -3.88250
  2172 78.7757 -0.715831 3.88630
  2173 52.9784 6.98464 5.77374
  2174 52.9821 6.98391 -5.77207
  2175 80.1855 -3.06750 -0.413171
  2176 80.1887 -3.07026 0.416726
  2177 85.3207 0.335287 -4.99329
  2178 85.3272 0.335063 4.99333
  2179 62.6773 3.69562 -6.32394
  2180 62.6777 3.69597 6.32552
  2181 42.6356 -1.21144 13.5984
  2182 42.6301 -1.21511 -13.6124
  2183 126.276 -0.132278 -5.88176
  2184 55.7625 6.33368 -3.47081
  2185 55.7594 6.33432 3.47145
  2186 76.9936 4.75584 -0.0187205
  2187 167.142 14.3182 -0.861474
  2188 120.137 22.7508 0.781377
  2189 74.7907 -0.444167 2.29672
  2190 74.7917 -0.446100 -2.29725
  2191 92.4644 -10.0624 -3.23372
  2192 140.795 11.6361 3.88075
  2193 126.197 -0.151932 6.16382
  2194 101.698 12.3381 -5.61604
  2195 80.8459 -0.00513478 -0.647244
  2196 80.8448 -0.00494838 0.647373
  2197 85.3930 -6.53921 -2.07968
  2198 85.3888 -6.54114 2.09048
  2199 66.6501 3.25634 8.90787
  2200 66.6478 3.25662 -8.90619
  2201 84.0276 -6.37706 -1.13743
  2202 84.0305 -6.37641 1.14497
  2203 70.1099 -14.8973 -19.5014
  2204 66.5350 0.891657 3.72952
  2205 66.5322 0.891536 -3.72849
  2206 85.5474 -2.61415 -5.89673
  2207 85.5436 -2.60324 5.92689
  2208 99.4036 -0.0221652 6.13485
  2209 63.0313 3.11652 2.28163
  2210 63.0286 3.11627 -2.28263
  2211 65.4860 3.72795 12.4260
  2212 65.4826 3.72985 -12.4241
  2213 88.7725 -0.753686 -11.2117
  2214 88.7802 -0.756663 11.2085
  2215 70.8886 -7.42896 15.4426
  2216 70.8834 -7.43156 -15.4411
  2217 58.3189 5.13600 0.0387939
  2218 58.3158 5.13618 -0.0391080
  2219 65.0661 0.115260 1.38333
  2220 65.0630 0.115243 -1.38287
  2221 86.6366 -1.32201 -6.53601
  2222 86.4269 -1.35932 6.56480
  2223 104.455 0.0911545 -2.33169
  2224 104.461 0.0909978 2.33092
  2225 77.8551 -0.740032 -1.38625
  2226 77.8536 -0.738294 1.38693
  2227 129.727 22.8409 1.37380
  2228 93.0765 0.256135 5.13974
  2229 93.0701 0.256486 -5.14046
  2230 60.4187 4.25392 13.1553
  2231 60.4154 4.25670 -13.1524
  2232 109.236 -0.767452 -4.63849
  2233 109.237 -0.768702 4.63315
  2234 91.4986 -3.29820 -10.3244
  2235 91.5100 -3.30205 10.3204
  2236 66.5603 -12.7743 -14.3366
  2237 66.5312 -12.7605 14.3284
  2238 38.9890 -7.51911 17.9262
  2239 38.9670 -7.48961 -17.9340
  2240 81.2742 -2.85267 -2.73646
  2241 81.2766 -2.85449 2.74049
  2242 104.428 -0.750590 10.3667
  2243 67.0372 0.405437 -1.93920
  2244 66.0790 0.417427 2.43833
  2245 66.0760 0.417359 -2.43760
  2246 143.622 5.87027 4.47027
  2247 83.4511 0.0196906 1.92359
  2248 83.4439 0.0197347 -1.92344
  2249 80.6896 -1.61257 -2.93380
  2250 80.6899 -1.61398 2.93840
  2251 77.6767 -1.90704 1.52164
  2252 77.6795 -1.91026 -1.52049
  2253 97.9030 -0.126068 -7.66501
  2254 97.9083 -0.127528 7.66181
  2255 63.6079 -3.88541 16.2836
  2256 63.5979 -3.88247 -16.2849
  2257 36.0582 0.103148 10.7948
  2258 36.0564 0.110601 -10.7823
  2259 198.719 9.17365 14.2082
  2260 90.7091 4.05130 -0.795608
  2261 63.2130 2.24016 -4.12245
  2262 63.2137 2.24054 4.12371
  2263 144.052 13.1870 -1.89415
  2264 61.5731 3.88205 -0.673928
  2265 61.5756 3.88184 0.673568
  2266 79.6648 -9.61650 7.44479
  2267 114.712 -2.20502 3.93137
  2268 114.696 -2.19140 -3.92040
  2269 104.529 -0.728164 -10.6545
  2270 82.8925 0.697723 -11.3119
  2271 82.8988 0.695718 11.3106
  2272 88.5967 -5.10552 -4.25776
  2273 88.5268 -5.27009 4.12173
  2274 66.7371 1.42821 4.96104
  2275 66.7346 1.42806 -4.95979
  2276 100.098 -1.39931 -7.77069
  2277 100.104 -1.40169 7.76527
  2278 109.240 4.95294 6.49786
  2279 118.712 16.6908 1.06854
  2280 53.8152 4.68385 4.70135
  2281 53.8108 4.68237 -4.70466
  2282 101.113 -0.677157 -1.51819
  2283 70.8515 0.0333863 -1.67614
  2284 72.8777 -14.7025 -17.8802
  2285 109.644 16.8616 2.69480
  2286 77.7224 0.400081 4.05195
  2287 77.7165 0.400149 -4.05141
  2288 116.216 -0.791058 -3.53527
  2289 116.215 -0.801474 3.55628
  2290 81.1246 -1.34599 5.72983
  2291 81.1200 -1.35722 -5.72218
  2292 74.2926 0.00412569 -1.60348
  2293 74.2749 0.00985047 1.59468
  2294 72.1158 1.18902 6.24187
  2295 72.1117 1.18913 -6.24079
  2296 40.1336 5.31453 -3.34440
  2297 40.1492 5.30932 3.34169
  2298 80.8834 -2.58032 -1.84644
  2299 80.8855 -2.58236 1.85043
  2300 56.5001 6.30052 7.65741
  2301 56.5019 6.30024 -7.65532
  2302 33.3473 3.63959 3.38494
  2303 33.3636 3.63789 -3.37496
  2304 65.5905 0.0467082 0.563844
  2305 65.5869 0.0466988 -0.563659
  2306 83.3328 -12.8228 9.36378
  2307 81.2033 0.625593 12.5128
  2308 81.1965 0.628231 -12.5142
  2309 89.6186 2.77525 6.59793
  2310 58.2715 5.43831 3.53746
  2311 58.2737 5.43773 -3.53664
  2312 73.8842 0.192977 2.65754
  2313 73.8788 0.192984 -2.65702
  2314 69.7867 -0.122426 4.07122
  2315 69.7860 -0.124695 -4.07352
  2316 81.8803 -4.38767 1.72311
  2317 81.8773 -4.38610 -1.71863
  2318 68.1998 0.716956 3.81271
  2319 68.1964 0.716879 -3.81175
  2320 77.5735 3.20659 -4.26596
  2321 76.6122 1.12832 -4.95298
  2322 98.1448 3.60160 -8.15137
  2323 73.0924 0.325266 2.25134
  2324 73.0925 0.324154 -2.25219
  2325 111.431 6.82299 6.99905
  2326 57.2296 6.08385 6.81672
  2327 57.2314 6.08341 -6.81498
  2328 94.1173 10.9542 6.28390
  2329 73.8884 -0.865438 2.91959
  2330 73.8898 -0.868171 -2.92065
  2331 72.7791 -0.0141544 2.66355
  2332 72.7794 -0.0158528 -2.66466
  2333 60.8805 4.92453 -7.91171
  2334 60.8805 4.92470 7.91359
  2335 65.9575 3.74053 11.5598
  2336 65.9545 3.74185 -11.5579
  2337 48.7841 1.04365 -14.2648
  2338 48.7908 1.03702 14.2705
  2339 123.177 5.65790 9.92031
  2340 134.380 16.2150 -27.6459
  2341 107.359 -2.41018 10.1471
  2342 91.4187 1.09803 -8.44134
  2343 60.9127 1.65222 -6.63663
  2344 60.9166 1.65528 6.63434
  2345 83.3438 -0.0831313 -0.0513087
  2346 83.3436 -0.0830233 0.0518433
  2347 75.1474 0.847450 -3.92233
  2348 71.4162 0.0633830 0.883455
  2349 71.4109 0.0633772 -0.883243
  2350 65.2388 0.604863 5.70497
  2351 65.2356 0.602521 -5.70755
  2352 83.9582 0.728807 -8.49948
  2353 83.9641 0.727962 8.49916
  2354 85.1149 0.606811 -6.98822
  2355 80.3192 -1.42494 -3.54080
  2356 80.3191 -1.42545 3.54572
  2357 64.0902 0.794761 -2.76951
  2358 64.0920 0.794927 2.77045
  2359 187.015 10.7783 26.4749
  2360 61.1699 3.91859 2.42466
  2361 61.1714 3.91799 -2.42393
  2362 79.7465 -1.23921 -0.328481
  2363 79.7451 -1.23736 0.330667
  2364 49.3538 4.26209 6.79431
  2365 49.3476 4.26184 -6.80097
  2366 69.5728 2.04031 7.48836
  2367 69.5696 2.04045 -7.48698
  2368 134.217 10.1367 29.3227
  2369 19.3840 -18.5112 12.3331
  2370 19.4339 -18.6498 -12.2730
  2371 77.0898 1.11414 7.10814
  2372 77.0846 1.11447 -7.10744
  2373 62.2297 2.91075 -3.16256
  2374 62.2293 2.91130 3.16360
  2375 79.1017 -3.97622 -1.24938
  2376 79.0963 -3.97186 1.25199
  2377 53.6560 6.55396 1.15796
  2378 53.6604 6.55343 -1.15838
  2379 75.3040 1.00776 -6.25522
  2380 75.3089 1.00758 6.25606
  2381 119.547 10.7784 -28.3915
  2382 91.0490 -8.46690 -0.443431
  2383 91.1608 -7.79747 1.12993
  2384 80.2191 0.542184 4.96513
  2385 109.821 -1.41138 -4.01714
  2386 109.822 -1.41229 4.01013
  2387 86.4094 -7.84043 0.557445
  2388 86.3906 -7.81893 -0.573790
  2389 72.2350 -2.27235 -4.89632
  2390 72.2339 -2.26774 4.89319
  2391 90.6912 -5.25666 15.7367
  2392 91.5316 -3.12084 -5.24471
  2393 61.4513 3.67798 4.04099
  2394 61.4519 3.67743 -4.03982
  2395 100.335 -3.13636 -7.08657
  2396 100.344 -3.13904 7.07938
  2397 76.6737 1.79408 -11.2631
  2398 76.6791 1.79245 11.2633
  2399 66.7798 1.84446 5.72104
  2400 66.7774 1.84432 -5.71968
  2401 104.356 -0.0285322 -4.79999
  2402 89.6981 7.94589 -6.70082
  2403 79.9470 0.908832 -6.12338
  2404 12.3401 -39.2934 -4.91378
  2405 12.8082 -37.8454 5.48883
  2406 81.3143 2.95039 -6.07005
  2407 121.639 -0.240340 -1.25139
  2408 121.629 -0.240410 1.24827
  2409 68.5438 -0.530124 -5.34687
  2410 68.5455 -0.527282 5.34378
  2411 98.3976 -0.670272 7.99990
  2412 98.3923 -0.668301 -8.00397
  2413 66.5539 2.13702 2.02238
  2414 66.5522 2.13687 -2.02337
  2415 65.7792 1.30595 -4.30307
  2416 65.7814 1.30612 4.30425
  2417 62.5537 2.51796 3.46030
  2418 62.5537 2.51748 -3.45917
  2419 112.209 7.74133 -4.49732
  2420 70.4783 1.25345 0.877935
  2421 95.8014 18.3912 -0.518948
  2422 61.1625 4.05893 5.09685
  2423 61.1630 4.05844 -5.09550
  2424 172.061 12.0321 -5.58576
  2425 124.073 -0.372373 0.0163877
  2426 124.055 -0.371325 -0.0180094
  2427 93.5511 3.45472 6.90752
  2428 115.157 -0.246911 -2.42966
  2429 115.156 -0.247211 2.42721
  2430 89.1236 0.391437 -9.47231
  2431 89.1298 0.389894 9.47052
  2432 35.1246 -1.24164 -11.9979
  2433 35.1457 -1.24543 11.9803
  2434 69.1299 0.347257 -2.70504
  2435 69.1340 0.347290 2.70573
  2436 96.3342 0.493579 -9.72585
  2437 55.8460 6.50112 5.54471
  2438 55.8486 6.50046 -5.54335
  2439 113.612 -1.85251 -6.06343
  2440 113.606 -1.85440 6.10082
  2441 118.737 23.7388 -0.328409
  2442 79.7189 0.111810 -1.51328
  2443 79.7257 0.111806 1.51348
  2444 153.961 14.4315 0.367636
  2445 63.1985 1.76783 3.44073
  2446 63.1978 1.76749 -3.43959
  2447 80.2987 -0.132630 -1.12349
  2448 80.2900 -0.132854 1.12599
  2449 64.4994 2.18134 5.08005
  2450 64.4980 2.18106 -5.07867
  2451 76.7287 1.12395 5.04295
  2452 68.2232 0.00898746 -0.572117
  2453 68.2277 0.00899080 0.572280
  2454 71.4205 -0.0556684 3.26336
  2455 71.4205 -0.0576757 -3.26501
  2456 91.3251 -2.99584 5.32257
  2457 73.6297 0.0385360 -0.983966
  2458 73.6355 0.0385311 0.984178
  2459 65.1114 0.313633 0.0539340
  2460 98.2248 0.469220 10.3313
  2461 76.7912 0.206306 -4.91556
  2462 76.8411 0.219976 4.94675
  2463 81.6344 -5.05391 -0.546254
  2464 81.6394 -5.05601 0.551814
  2465 65.4199 -0.163103 6.67212
  2466 65.4163 -0.166380 -6.67504
  2467 47.7242 7.21186 1.10139
  2468 47.7318 7.21003 -1.10186
  2469 64.1484 0.286894 -1.79309
  2470 64.1508 0.286961 1.79372
  2471 51.3155 4.28971 12.8855
  2472 51.3133 4.29347 -12.8800
  2473 125.307 2.78186 -10.8313
  2474 80.5821 7.36042 -1.51528
  2475 104.039 -9.68041 -0.764944
  2476 104.024 -9.71974 0.732375
  2477 61.8573 3.57969 1.70064
  2478 61.8588 3.57908 -1.70009
  2479 79.9927 0.871156 6.16685
  2480 171.059 15.5476 -4.99522
  2481 60.8984 5.02901 10.1046
  2482 60.8977 5.02960 -10.1022
  2483 76.3620 3.66540 -2.81176
  2484 67.5932 1.74951 17.5494
  2485 77.4184 -1.16236 14.1561
  2486 77.4094 -1.15859 -14.1576
  2487 129.305 4.05156 10.3824
  2488 59.6356 4.95067 -17.8851
  2489 81.9554 1.56430 6.55637
  2490 84.0490 -4.20497 4.28092
  2491 84.0527 -4.20284 -4.27807
  2492 77.9819 3.68530 4.12830
  2493 107.832 -6.09566 1.85655
  2494 107.827 -6.07203 -1.86642
  2495 94.1276 -11.9701 -5.26075
  2496 94.2108 -11.9732 5.25189
  2497 84.8817 -2.57360 -12.5057
  2498 84.8917 -2.57734 12.5031
  2499 59.6702 4.66134 0.190322
  2500 59.6674 4.66154 -0.190588
  2501 36.2718 5.12828 1.37842
  2502 36.2884 5.12441 -1.37335
  2503 74.6712 0.722188 -5.00275
  2504 74.6762 0.722109 5.00355
  2505 87.6028 -13.2168 9.78637
  2506 218.811 6.25381 -13.5410
  2507 68.1009 -0.399954 15.3682
  2508 68.0922 -0.395642 -15.3682
  2509 130.653 7.07439 -8.05630
  2510 80.6697 -0.604576 -0.240490
  2511 80.6691 -0.603536 0.242209
  2512 94.1704 -1.94324 -9.67183
  2513 94.1789 -1.94653 9.66714
  2514 56.3724 6.18739 9.44479
  2515 56.3734 6.18772 -9.44201
  2516 69.1891 -12.5285 17.3949
  2517 80.6435 0.670750 6.31526
  2518 80.6377 0.671080 -6.31490
  2519 73.4292 -4.84397 -6.64996
  2520 73.4242 -4.83535 6.64478
  2521 172.588 12.3713 4.19174
  2522 46.6210 4.26197 11.7247
  2523 46.6211 4.26549 -11.7176
  2524 75.8697 -11.0263 12.1519
  2525 64.3236 0.0141866 0.430734
  2526 64.3204 0.0141843 -0.430582
  2527 107.538 -0.429346 -12.4499
  2528 63.1955 2.52341 -4.56224
  2529 63.1961 2.52379 4.56356
  2530 60.2027 4.86713 6.07006
  2531 60.2034 4.86666 -6.06854
  2532 87.0015 0.0365363 1.76715
  2533 86.9940 0.0365717 -1.76708
  2534 71.1463 -0.324308 3.69410
  2535 71.1463 -0.326688 -3.69610
  2536 97.7802 4.75695 -3.88266
  2537 122.612 -0.269308 -0.865925
  2538 122.600 -0.269169 0.862861
  2539 83.8974 -2.18627 -6.01659
  2540 83.9074 -2.19330 6.01686
  2541 75.4496 0.323129 3.37143
  2542 75.4440 0.323145 -3.37085
  2543 64.7792 2.72880 6.32358
  2544 64.7778 2.72858 -6.32204
  2545 114.725 10.2134 -3.89463
  2546 77.1253 -3.13904 2.38554
  2547 77.1298 -3.14382 -2.38488
  2548 87.2961 -13.1442 -12.3032
  2549 92.1695 2.70974 -7.04006
  2550 90.9555 -11.6874 9.84725
  2551 83.3732 -7.57754 0.926651
  2552 83.3730 -7.56234 -0.912865
  2553 107.452 -1.41837 -10.3182
  2554 71.3627 0.708415 2.40342
  2555 71.3623 0.707501 -2.40451
  2556 74.8783 0.00517748 -3.62444
  2557 74.8345 0.0583993 3.61367
  2558 33.1647 -12.8536 13.0465
  2559 33.1396 -12.8468 -13.0459
  2560 107.399 22.1640 -0.899359
  2561 82.8704 -0.876281 -6.48298
  2562 82.8751 -0.888589 6.46271
  2563 11.8333 -23.3743 -3.39702
  2564 11.8798 -23.3451 3.60361
  2565 64.5238 2.88712 1.18974
  2566 64.5218 2.88732 -1.19030
  2567 67.6235 0.498451 2.93215
  2568 67.6200 0.498379 -2.93135
  2569 107.547 -1.39301 10.1948
  2570 60.1933 5.09716 10.9433
  2571 60.1923 5.09823 -10.9406
  2572 93.9824 -9.39290 2.10877
  2573 52.5530 6.88044 8.08613
  2574 52.5558 6.88024 -8.08323
  2575 74.1529 1.97181 2.86404
  2576 69.3597 0.602096 2.66857
  2577 85.1504 -10.2145 3.73377
  2578 85.6448 -9.96743 -3.03694
  2579 66.7772 0.0252558 0.581325
  2580 66.7731 0.0252546 -0.581143
  2581 88.8425 -10.6584 3.29544
  2582 58.6936 5.10388 2.02503
  2583 58.6960 5.10339 -2.02463
  2584 65.4859 3.00937 7.34504
  2585 65.4842 3.00929 -7.34343
  2586 111.328 6.12010 -8.63706
  2587 75.4461 -3.42284 14.6514
  2588 75.4359 -3.41992 -14.6522
  2589 62.2194 -0.160901 -15.7693
  2590 62.2282 -0.165835 15.7703
  2591 119.787 -0.458562 -2.18217
  2592 119.795 -0.462187 2.19243
  2593 89.3565 14.8933 0.103241
  2594 65.0548 3.42532 8.07893
  2595 65.0532 3.42533 -8.07720
  2596 78.3859 -3.13699 1.49069
  2597 78.3903 -3.14108 -1.48879
  2598 71.7197 -1.41061 4.47618
  2599 71.7203 -1.41423 -4.47889
  2600 183.505 13.2550 1.27184
  2601 31.1162 -4.13969 10.5211
  2602 31.1100 -4.12738 -10.5057
  2603 76.5896 -0.310119 -1.72759
  2604 76.5886 -0.308721 1.72759
  2605 70.8582 0.00351603 1.66257
  2606 185.363 10.4278 -27.5105
  2607 83.3188 -5.34004 -2.14035
  2608 83.3199 -5.34071 2.14672
  2609 113.149 -3.04938 -5.61083
  2610 113.169 -3.06486 5.62932
  2611 99.9851 0.0429995 1.92863
  2612 99.9785 0.0430475 -1.92905
  2613 104.072 -0.235637 5.09030
  2614 77.0831 3.98063 2.87213
  2615 73.1729 0.474724 3.50806
  2616 87.8008 3.42409 -7.22437
  2617 51.9900 6.44809 9.76851
  2618 51.9919 6.44881 -9.76458
  2619 62.9090 2.35305 3.94581
  2620 62.9087 2.35264 -3.94459
  2621 95.5415 -0.0521166 -2.00051
  2622 95.5487 -0.0521640 2.00028
  2623 60.3276 4.41669 3.76802
  2624 60.3290 4.41610 -3.76699
  2625 95.4161 16.6031 -3.19023
  2626 112.861 -0.387537 -3.87865
  2627 112.854 -0.404476 3.91218
  2628 111.720 -2.06533 7.73580
  2629 111.729 -2.05531 -7.69978
  2630 75.6567 0.0177912 1.79452
  2631 75.6574 0.0167918 -1.79487
  2632 109.838 -2.57744 -2.60644
  2633 109.838 -2.57557 2.59822
  2634 161.260 13.0184 -0.0519513
  2635 30.5119 -16.2104 -3.76125
  2636 30.0822 -16.5371 3.68766
  2637 117.040 -3.99855 -9.52428
  2638 117.139 -3.87531 9.52930
  2639 64.3612 0.854399 -2.95742
  2640 64.3631 0.854565 2.95838
  2641 66.1490 1.98051 2.88527
  2642 66.1469 1.97993 -2.88666
  2643 106.670 -9.99641 2.14333
  2644 106.636 -9.92851 -2.17147
  2645 111.718 16.9810 31.4378
  2646 86.2279 -5.74865 13.5095
  2647 87.8086 10.4265 5.10286
  2648 70.9879 2.71598 -10.3308
  2649 70.9917 2.71505 10.3320
  2650 155.212 15.7474 19.6717
  2651 42.3498 6.51961 -0.817504
  2652 42.3623 6.51577 0.816584
  2653 74.3530 3.17813 -0.513242
  2654 67.6806 -1.24116 6.65348
  2655 67.6775 -1.24510 -6.65679
  2656 109.028 0.0264864 -2.40104
  2657 109.031 0.0263138 2.39979
  2658 45.1172 5.66844 -9.37691
  2659 45.1133 5.66708 9.38355
  2660 56.3917 6.07885 2.86080
  2661 56.3947 6.07827 -2.86032
  2662 79.5775 -2.47490 0.173410
  2663 79.5804 -2.47780 -0.170506
  2664 83.2266 0.385955 -6.82841
  2665 81.3326 1.00100 8.74103
  2666 81.3269 1.00183 -8.74103
  2667 114.209 -7.07917 4.35986
  2668 114.366 -6.90130 -4.31001
  2669 118.232 -0.137182 -1.79192
  2670 118.228 -0.137374 1.78941
  2671 82.3763 -12.7332 -10.7211
  2672 82.4110 -12.7388 10.7578
  2673 115.917 -1.80892 0.949231
  2674 115.907 -1.80214 -0.950210
  2675 66.2382 0.727338 3.35477
  2676 66.2354 0.727239 -3.35381
  2677 95.6310 -9.08542 -6.64331
  2678 80.1224 -0.475651 2.05479
  2679 80.1276 -0.474965 -2.05085
  2680 56.4393 6.21506 -4.71434
  2681 56.4367 6.21570 4.71542
  2682 77.7235 -1.11498 1.44761
  2683 77.7252 -1.11726 -1.44676
  2684 64.1578 1.85861 -4.37055
  2685 64.1591 1.85890 4.37182
  2686 54.3307 5.72406 -1.67437
  2687 54.3351 5.72433 1.67282
  2688 64.9712 0.261782 -0.562582
  2689 108.702 -7.44850 4.72991
  2690 108.678 -7.40730 -4.73849
  2691 74.8573 -2.76407 3.69902
  2692 74.8608 -2.76911 -3.70060
  2693 133.177 3.12770 1.82557
  2694 81.1505 8.34756 0.627352
  2695 76.8187 -7.49086 6.79087
  2696 76.8993 -7.42834 -6.78668
  2697 61.0796 4.10275 1.38972
  2698 61.0815 4.10219 -1.38933
  2699 84.3896 -6.33150 -11.8641
  2700 84.4052 -6.33471 11.8654
  2701 101.879 1.52345 -14.7909
  2702 58.7321 5.41800 5.81870
  2703 58.7335 5.41748 -5.81727
  2704 61.0931 4.52820 6.80381
  2705 61.0933 4.52785 -6.80215
  2706 79.9794 0.935669 7.57623
  2707 79.9738 0.936187 -7.57588
  2708 78.4661 1.49216 -5.62562
  2709 76.0343 -10.9771 -11.6874
  2710 93.8832 1.17725 9.28940
  2711 72.0324 2.51173 11.3740
  2712 72.0279 2.51320 -11.3731
  2713 138.144 10.0446 -5.14799
  2714 101.393 -11.7240 -1.10099
  2715 101.462 -11.6817 1.02344
  2716 61.9182 3.32840 2.50962
  2717 61.9193 3.32780 -2.50879
  2718 87.7631 2.88729 7.29207
  2719 152.387 17.1061 -20.7674
  2720 73.5570 0.358589 -3.65916
  2721 80.6141 -2.52681 -1.14486
  2722 80.6163 -2.52908 1.14857
  2723 106.932 -0.273546 -4.45883
  2724 106.935 -0.274153 4.45593
  2725 66.8945 1.15186 4.45208
  2726 66.8918 1.15174 -4.45091
  2727 72.7183 2.17826 1.08326
  2728 60.0657 4.49397 2.51916
  2729 60.0676 4.49340 -2.51849
  2730 101.494 19.8299 2.29035
  2731 81.1182 -0.296637 -0.449950
  2732 81.1175 -0.296057 0.450939
  2733 65.5396 0.456664 2.56961
  2734 65.5369 0.456585 -2.56881
  2735 20.7258 -27.4725 0.0781614
  2736 20.7581 -27.4923 -0.111963
  2737 50.8728 7.15669 2.62765
  2738 50.8783 7.15559 -2.62742
  2739 71.0002 0.706304 4.34458
  2740 70.9960 0.706290 -4.34366
  2741 84.2516 5.28767 -6.40573
  2742 76.0621 -9.52780 10.0580
  2743 90.1057 5.04755 7.04016
  2744 94.3394 -6.30720 -7.94735
  2745 94.3598 -6.31110 7.94196
  2746 101.215 -1.23121 1.68318
  2747 79.5983 0.515363 5.08103
  2748 79.5923 0.515530 -5.08054
  2749 86.6418 -8.46771 -11.4544
  2750 74.8534 1.78585 -8.77007
  2751 74.8581 1.78527 8.77095
  2752 82.7109 -14.8265 -9.41021
  2753 82.9272 -14.8362 9.54913
  2754 101.151 -8.04784 -2.82591
  2755 101.173 -8.03737 2.80893
  2756 109.402 -0.299213 -4.38735
  2757 109.403 -0.300108 4.38323
  2758 57.2804 3.35332 5.63563
  2759 57.2767 3.35094 -5.63822
  2760 75.9211 0.0447012 1.04797
  2761 75.9148 0.0447072 -1.04778
  2762 80.8090 -1.75749 -1.83578
  2763 80.8097 -1.75927 1.83981
  2764 82.2276 -11.2780 -7.60350
  2765 55.6568 5.72717 0.612600
  2766 55.6529 5.72715 -0.613485
  2767 69.9116 0.202561 2.16341
  2768 69.9072 0.202539 -2.16287
  2769 119.052 -1.23324 5.23968
  2770 62.5888 -1.77375 10.1420
  2771 62.5827 -1.78167 -10.1430
  2772 83.2292 0.218555 -3.73167
  2773 83.2359 0.218446 3.73190
  2774 84.0254 10.3686 1.04921
  2775 108.894 -5.13032 -7.23561
  2776 74.9857 -4.02604 -4.72619
  2777 74.9815 -4.01967 4.72345
  2778 111.472 -4.73525 -8.52182
  2779 111.517 -4.74612 8.53408
  2780 72.3689 0.197951 2.47200
  2781 72.3638 0.197954 -2.47146
  2782 60.5049 4.33081 3.19602
  2783 60.5063 4.33022 -3.19513
  2784 88.5218 -11.2924 -3.79981
  2785 86.8052 8.60384 -5.66030
  2786 127.506 2.98761 -8.71540
  2787 62.2017 2.93552 -3.79181
  2788 62.2015 2.93602 3.79298
  2789 119.774 16.9242 -1.68601
  2790 80.5380 -13.1419 -17.1394
  2791 107.250 -0.0186974 -2.22144
  2792 107.255 -0.0188336 2.22053
  2793 101.386 5.43687 6.25138
  2794 63.6604 3.18180 -0.634271
  2795 63.6624 3.18145 0.633951
  2796 59.2965 4.95052 -2.78476
  2797 59.2945 4.95109 2.78544
  2798 65.1482 0.801796 -3.15700
  2799 65.1505 0.801932 3.15797
  2800 50.0852 -15.0132 -21.1478
  2801 113.506 -0.234399 -2.10227
  2802 113.507 -0.234607 2.10057
  2803 119.093 9.55310 3.25977
  2804 65.9315 1.67761 5.09730
  2805 65.9294 1.67743 -5.09598
  2806 79.2267 -0.0658980 1.12743
  2807 79.2381 -0.0657807 -1.12498
  2808 48.9333 -14.9253 21.2017
  2809 82.6513 -8.53795 11.8246
  2810 82.6339 -8.53611 -11.8182
  2811 74.7461 1.68700 -12.8769
  2812 74.7521 1.68449 12.8769
  2813 86.4435 7.69071 6.04832
  2814 96.3778 -8.09226 -2.40966
  2815 54.2138 6.90122 -4.98610
  2816 54.2104 6.90200 4.98730
  2817 81.3034 -0.697221 -0.758468
  2818 81.3027 -0.698214 0.761275
  2819 66.4635 3.07552 8.37152
  2820 66.4613 3.07565 -8.36985
  2821 57.5044 4.63110 2.77391
  2822 57.5007 4.63035 -2.77533
  2823 47.2095 7.03064 6.69216
  2824 47.2153 7.02997 -6.68837
  2825 96.2005 9.16656 -24.6724
  2826 62.0129 4.35880 12.5363
  2827 62.0101 4.36096 -12.5338
  2828 97.0361 0.0111883 -6.63017
  2829 97.0415 0.0103765 6.62820
  2830 63.0919 4.26494 8.94069
  2831 63.0908 4.26511 -8.93874
  2832 68.9535 0.111752 1.42714
  2833 59.4278 4.96074 -4.97512
  2834 59.4265 4.96128 4.97637
  2835 66.8883 -2.56632 -8.50624
  2836 66.8919 -2.56005 8.50174
  2837 69.6218 0.740184 -1.85278
  2838 82.3372 -2.96379 -4.54291
  2839 82.3420 -2.96479 4.54705
  2840 69.1305 0.774674 3.25244
  2841 69.1295 0.773363 -3.25415
  2842 63.8797 2.79897 5.78076
  2843 63.8787 2.79868 -5.77926
  2844 61.7630 2.03398 5.64477
  2845 61.7593 2.03179 -5.64687
  2846 73.0457 2.25675 -12.4669
  2847 73.0510 2.25458 12.4674
  2848 115.164 -1.75974 -0.288354
  2849 115.156 -1.75547 0.283968
  2850 62.5565 3.51904 0.918857
  2851 62.5541 3.51925 -0.919300
  2852 80.7567 -7.80093 -3.71479
  2853 80.7921 -7.75299 3.63208
  2854 71.3321 0.109228 -1.69550
  2855 71.3371 0.109233 1.69590
  2856 59.8285 5.35146 8.68596
  2857 59.8287 5.35146 -8.68385
  2858 80.9178 -11.6527 11.1103
  2859 80.0427 -11.9987 -10.7962
  2860 83.4800 -0.0582410 -0.0103768
  2861 83.4796 -0.0583287 0.0109763
  2862 64.7148 1.08232 -3.54219
  2863 64.7167 1.08251 3.54328
  2864 99.3592 -9.94662 -2.78347
  2865 99.3985 -9.93665 2.76284
  2866 59.1101 1.08660 -8.36824
  2867 59.1133 1.09164 8.36531
  2868 67.7734 0.178959 -1.83152
  2869 67.7773 0.178985 1.83204
  2870 32.4526 2.41104 -4.86789
  2871 32.4805 2.40332 4.86709
  2872 109.474 -0.461614 12.8657
  2873 59.9957 4.33587 -1.24918
  2874 59.9988 4.33591 1.24855
  2875 67.3037 1.15205 -3.75351
  2876 67.3055 1.15333 3.75158
  2877 61.4706 3.55748 3.01669
  2878 61.4717 3.55689 -3.01576
  2879 66.8923 -16.4614 -12.4911
  2880 67.0486 -16.2464 12.0796
  2881 87.0722 -4.86650 4.46938
  2882 87.0265 -4.81795 -4.50743
  2883 46.4306 -3.63535 15.2995
  2884 46.4167 -3.62637 -15.2962
  2885 76.1044 2.47107 4.09764
  2886 80.6558 -1.16119 2.34131
  2887 80.6570 -1.15983 -2.33696
  2888 73.9334 -2.87584 4.42864
  2889 73.9363 -2.88105 -4.43119
  2890 28.7228 1.18902 -2.19952
  2891 28.6999 1.19122 2.21281
  2892 50.4398 5.84614 10.8981
  2893 50.4411 5.84799 -10.8932
  2894 76.6675 0.191752 2.58617
  2895 76.6615 0.191764 -2.58574
  2896 81.3633 4.16897 5.70828
  2897 106.737 -0.878983 -7.88407
  2898 53.1965 2.00845 -14.6520
  2899 53.2025 2.00283 14.6563
  2900 64.5687 1.73493 -4.45483
  2901 64.5702 1.73518 4.45610
  2902 108.001 -4.19159 -1.22185
  2903 108.003 -4.18329 1.21250
  2904 79.8791 -0.000244889 -6.03066
  2905 72.2141 0.606056 -3.18005
  2906 63.6993 0.00442552 0.362926
  2907 63.6962 0.00442624 -0.362797
  2908 118.554 -4.45845 2.69414
  2909 118.453 -4.40292 -2.53795
  2910 70.2235 1.03595 2.39184
  2911 70.2228 1.03525 -2.39298
  2912 64.3589 1.06824 -3.31040
  2913 64.3607 1.06844 3.31145
  2914 68.3283 1.00591 4.52106
  2915 68.3250 1.00583 -4.51997
  2916 83.6808 -9.27997 -3.34940
  2917 83.5623 -9.31974 3.42159
  2918 161.013 11.6371 -4.27248
  2919 98.3299 2.55421 -9.97219
  2920 73.1557 0.0943051 -3.10429
  2921 162.697 9.88617 -13.8491
  2922 85.0641 11.6554 -1.02734
  2923 138.663 13.1407 0.810973
  2924 100.785 -2.50993 10.9396
  2925 96.0107 -2.76889 4.06503
  2926 68.7270 0.105131 -1.35153
  2927 62.0914 3.34761 4.71108
  2928 62.0915 3.34713 -4.70975
  2929 100.553 -10.9434 -4.32786
  2930 101.180 -10.7647 3.92867
  2931 157.145 11.2166 32.7240
  2932 116.553 11.2785 16.1281
  2933 63.0826 3.95086 -7.57725
  2934 63.0834 3.95102 7.57901
  2935 132.039 16.4224 9.55232
  2936 93.2558 -0.989566 -9.74260
  2937 93.2631 -0.992360 9.73854
  2938 65.9796 0.0808345 -1.09465
  2939 65.9832 0.0808493 1.09498
  2940 74.9358 -0.198056 2.10573
  2941 74.9366 -0.199574 -2.10621
  2942 79.2347 -1.66393 -0.554708
  2943 79.2327 -1.66154 0.556888
  2944 68.6066 3.13335 11.1666
  2945 68.6031 3.13457 -11.1651
  2946 80.8004 -1.89189 4.58290
  2947 80.7982 -1.89319 -4.57706
  2948 76.8479 -2.12122 2.11505
  2949 76.8512 -2.12496 -2.11451
  2950 66.1776 0.298955 0.951226
  2951 84.0609 9.63394 3.00794
  2952 116.724 2.33359 12.3887
  2953 66.3163 0.243208 -1.93599
  2954 66.3197 0.243248 1.93658
  2955 78.9246 2.57825 -5.41399
  2956 66.9989 0.445285 2.75523
  2957 66.9956 0.445224 -2.75445
  2958 77.2205 -0.246928 -1.53624
  2959 77.2195 -0.245776 1.53634
  2960 59.1846 4.51509 -1.59808
  2961 59.1879 4.51535 1.59728
  2962 220.437 6.74050 13.4462
  2963 86.8265 0.525223 6.21353
  2964 86.8202 0.525641 -6.21375
  2965 70.6535 0.388071 -3.10416
  2966 70.6579 0.388090 3.10487
  2967 79.8936 -0.0161095 6.04182
  2968 67.7973 2.11843 6.84373
  2969 67.7946 2.11840 -6.84229
  2970 65.4852 2.21754 5.86919
  2971 65.4834 2.21735 -5.86773
  2972 71.0438 -2.33962 -5.81558
  2973 71.0441 -2.33490 5.81157
  2974 61.4208 3.60134 3.65020
  2975 61.4216 3.60078 -3.64911
  2976 101.067 20.6984 0.156597
  2977 36.0402 2.20195 -7.97316
  2978 36.0633 2.19408 7.96425
  2979 75.7121 0.531728 -4.59779
  2980 59.6539 5.03554 11.8133
  2981 59.6524 5.03720 -11.8104
  2982 71.5633 0.391764 2.72177
  2983 71.5632 0.390407 -2.72303
  2984 99.2576 8.88361 25.2539
  2985 70.0885 2.17423 8.14694
  2986 70.0851 2.17449 -8.14558
  2987 44.2178 -4.97194 -16.4192
  2988 103.586 2.24394 11.3229
  2989 66.4028 -3.44777 9.96813
  2990 66.3948 -3.45209 -9.97398
  2991 78.9957 -0.511650 -2.73866
  2992 78.9899 -0.511653 2.74289
  2993 81.6610 1.31340 -6.50531
  2994 116.165 2.49939 -12.0975
  2995 68.0137 3.08865 9.97492
  2996 68.0108 3.08932 -9.97330
  2997 163.485 10.2904 9.37235
  2998 121.237 21.1668 0.608985
  2999 13.0706 -24.6324 -2.62005
  3000 13.1237 -24.7126 2.61169
  3001 82.1338 -5.94414 -0.0860998
  3002 82.1404 -5.94602 0.0939264
  3003 69.6755 0.544891 -3.68070
  3004 69.6795 0.544916 3.68158
  3005 129.519 8.78392 7.54135
  3006 43.6625 -0.645159 13.5993
  3007 43.6543 -0.636718 -13.5913
  3008 45.2966 7.25980 3.12167
  3009 45.3053 7.25765 -3.11997
  3010 77.4365 4.89120 -1.76252
  3011 93.5288 -0.0170409 -8.80636
  3012 93.5347 -0.0186739 8.80358
  3013 55.9268 5.57608 11.2129
  3014 55.9264 5.57760 -11.2093
  3015 91.3230 0.173878 6.74995
  3016 141.229 13.7631 -35.5668
  3017 76.3449 1.27399 -8.01351
  3018 76.3498 1.27351 8.01426
  3019 76.7469 1.60530 9.63778
  3020 76.7419 1.60623 -9.63724
  3021 74.1639 0.356403 3.51634
  3022 74.1586 0.356423 -3.51569
  3023 79.0051 -1.00115 0.900050
  3024 79.0066 -1.00295 -0.898653
  3025 59.3350 4.86355 -1.37795
  3026 59.3326 4.86401 1.37820
  3027 148.826 8.40630 -12.4356
  3028 64.7123 0.175375 1.50968
  3029 64.7095 0.175343 -1.50917
  3030 81.8495 -0.131193 -0.407357
  3031 81.8487 -0.130908 0.408021
  3032 70.6546 0.0576894 0.702486
  3033 70.6494 0.0576789 -0.702303
  3034 43.8481 1.89668 10.3487
  3035 43.8379 1.89993 -10.3596
  3036 81.3672 -0.708852 -6.24301
  3037 81.3945 -0.708608 6.24429
  3038 85.1854 0.124680 6.94052
  3039 85.4617 0.100810 -1.29763
  3040 85.4693 0.100799 1.29770
  3041 112.050 -6.11728 -8.47696
  3042 112.086 -6.12151 8.50172
  3043 63.7629 3.08254 6.22003
  3044 63.7619 3.08225 -6.21847
  3045 64.2028 -0.291844 -7.56559
  3046 64.2070 -0.287903 7.56250
  3047 72.6291 -0.283332 3.01183
  3048 72.6296 -0.285477 -3.01317
  3049 129.905 21.5851 -2.31219
  3050 76.9130 -0.585656 -1.68654
  3051 76.9118 -0.583929 1.68676
  3052 69.5679 2.74729 9.40653
  3053 69.5646 2.74782 -9.40507
  3054 140.565 9.94648 4.78645
  3055 39.5827 3.39707 -7.32292
  3056 39.5999 3.39221 7.31528
  3057 59.0205 4.25413 -2.56523
  3058 59.0240 4.25474 2.56407
  3059 84.3680 -8.49826 1.40813
  3060 84.3223 -8.50372 -1.43303
  3061 64.6453 0.509255 -2.44141
  3062 64.6477 0.509354 2.44221
  3063 39.9630 5.35789 7.11747
  3064 39.9710 5.35824 -7.10949
  3065 80.9086 -1.17862 1.63170
  3066 80.9092 -1.17716 -1.62786
  3067 101.414 5.81714 2.31691
  3068 61.1815 -13.6415 20.0665
  3069 75.8840 -5.64348 -5.64065
  3070 75.8831 -5.63216 5.64553
  3071 77.5484 -12.7075 -12.7282
  3072 68.7279 0.550402 3.74824
  3073 68.7266 0.548756 -3.75026
  3074 80.7131 -3.71343 -0.837854
  3075 80.7167 -3.71594 0.841854
  3076 33.2812 -5.34030 -15.2044
  3077 33.2966 -5.34393 15.1939
  3078 93.0063 0.0618862 5.03672
  3079 67.3064 0.999883 0.0588068
  3080 58.1790 4.77907 -1.05407
  3081 58.1823 4.77921 1.05337
  3082 46.6929 -7.92044 -15.8690
  3083 46.7135 -7.92876 15.8670
  3084 74.4785 2.64387 -2.32401
  3085 80.7290 14.8457 -30.6184
  3086 73.2641 -14.9022 18.0075
  3087 124.299 -0.289134 -0.460881
  3088 124.318 -0.290360 0.460671
  3089 73.1392 0.106633 3.07828
  3090 64.0969 2.95806 -1.54717
  3091 64.0991 2.95799 1.54646
  3092 88.5876 -0.428740 11.0693
  3093 88.5805 -0.426134 -11.0722
  3094 88.0824 0.541137 -8.30022
  3095 88.0884 0.540133 8.29921
  3096 89.0632 0.00242778 -1.44965
  3097 89.0709 0.00240065 1.44968
  3098 82.4298 -0.0142269 -0.231810
  3099 82.4283 -0.0142001 0.231843
  3100 8.06382 -53.1408 4.11894
  3101 8.19868 -53.1214 -4.34283
  3102 67.4311 -0.00745117 -0.643976
  3103 67.4353 -0.00745598 0.644172
  3104 81.9973 -3.78495 13.1219
  3105 81.9863 -3.78135 -13.1234
  3106 88.8977 0.464058 6.92708
  3107 80.7379 2.78436 6.02982
  3108 62.9789 2.03390 3.46572
  3109 62.9785 2.03351 -3.46458
  3110 132.345 11.8880 -0.341110
  3111 61.0304 4.00013 4.22126
  3112 61.0312 3.99958 -4.22008
  3113 23.8755 -7.82892 -7.29305
  3114 23.8779 -7.84418 7.31672
  3115 77.8553 -0.0453112 -1.31177
  3116 77.8545 -0.0446269 1.31177
  3117 73.0472 1.66349 8.07487
  3118 73.0430 1.66387 -8.07379
  3119 78.5190 1.34936 5.65134
  3120 66.4460 0.879588 -0.809970
  3121 81.6889 -0.0825943 -0.457677
  3122 81.6879 -0.0823588 0.458133
  3123 82.0160 -0.324599 0.0673589
  3124 82.0163 -0.324128 -0.0657819
  3125 72.9563 0.648548 4.49118
  3126 72.9516 0.648570 -4.49034
  3127 77.4730 -0.416576 3.19612
  3128 77.4790 -0.419715 -3.19296
  3129 69.0218 -1.37455 -5.96326
  3130 69.0237 -1.37094 5.95967
  3131 95.2768 -3.96425 -3.59177
  3132 75.9310 2.08221 -4.16314
  3133 95.2468 11.7006 -5.97163
  3134 45.9616 5.94922 -3.33249
  3135 45.9711 5.94710 3.32852
  3136 63.8882 0.961577 2.91812
  3137 63.8866 0.961382 -2.91713
  3138 67.1935 -7.62364 -13.6506
  3139 67.2360 -7.60903 13.5534
  3140 75.8079 0.594538 4.70059
  3141 64.0737 0.582444 -2.40932
  3142 64.0757 0.582571 2.41014
  3143 104.986 2.60310 -11.4780
  3144 70.7130 2.04209 -13.6774
  3145 70.7190 2.03899 13.6779
  3146 118.049 -0.809019 -1.27508
  3147 118.040 -0.808309 1.27010
  3148 38.5424 2.73401 9.82677
  3149 38.5448 2.73832 -9.81575
  3150 19.8197 -6.58083 0.100393
  3151 19.7748 -6.57800 -0.0716250
  3152 101.896 -3.25420 3.56255
  3153 118.621 -2.36899 -4.59272
  3154 75.3964 -13.4062 15.1308
  3155 52.8667 0.594302 -10.8928
  3156 52.8689 0.597941 10.8827
  3157 117.128 -0.456269 -2.32976
  3158 117.122 -0.456604 2.32474
  3159 85.3394 0.148229 3.54500
  3160 85.3326 0.148331 -3.54489
  3161 65.1087 0.0290580 -0.519835
  3162 65.1122 0.0290675 0.520014
  3163 75.9986 -0.672116 1.98806
  3164 76.0001 -0.674175 -1.98812
  3165 107.136 -0.705072 7.90276
  3166 80.1117 -0.664313 0.554850
  3167 80.1126 -0.665488 -0.553420
  3168 96.8479 -8.57056 4.95782
  3169 79.9746 -1.98601 -0.184664
  3170 79.9765 -1.98838 0.187712
  3171 61.5457 3.28120 3.40341
  3172 61.5425 3.28042 -3.40477
  3173 61.7300 4.72406 9.34923
  3174 61.7293 4.72433 -9.34714
  3175 77.2759 0.558673 5.14343
  3176 77.2703 0.558811 -5.14278
  3177 81.3715 -14.6714 -14.3194
  3178 67.3146 1.27539 14.8720
  3179 67.3074 1.27959 -14.8712
  3180 89.4742 -2.33273 11.0945
  3181 89.4640 -2.32902 -11.0981
  3182 83.2336 -0.00575893 -0.162770
  3183 83.2324 -0.00571967 0.162974
  3184 68.4982 0.187175 -1.76407
  3185 68.5024 0.187205 1.76456
  3186 92.2837 16.7562 0.952579
  3187 78.5523 -14.7065 -11.1918
  3188 78.5541 -14.6812 11.2951
  3189 83.2572 0.168561 6.74583
  3190 98.6997 -7.72841 4.68185
  3191 98.6751 -7.72976 -4.69302
  3192 92.0312 15.0984 3.35360
  3193 82.3508 -3.63205 3.65226
  3194 82.3478 -3.63085 -3.64889
  3195 62.1281 3.57524 0.873914
  3196 62.1299 3.57469 -0.873667
  3197 110.944 -1.02672 6.59952
  3198 111.019 -0.992900 -6.58083
  3199 89.8351 -3.94665 -5.09403
  3200 53.7678 6.92609 -3.79852
  3201 53.7639 6.92693 3.79923
  3202 83.4111 3.60047 -6.62046
  3203 72.7226 0.299555 -3.04845
  3204 72.7276 0.299549 3.04908
  3205 84.7422 2.54419 2.64906
  3206 107.940 1.90126 -12.4340
  3207 75.3125 1.28057 7.17638
  3208 75.3077 1.28085 -7.17552
  3209 90.3314 13.7035 28.5030
  3210 77.8932 0.199418 2.82943
  3211 77.8871 0.199440 -2.82901
  3212 99.0917 17.6964 3.86208
  3213 78.9925 2.37838 5.55497
  3214 82.6251 5.98107 -5.21524
  3215 81.9311 -3.70541 -2.69743
  3216 81.9338 -3.70694 2.70125
  3217 58.5985 5.47481 4.96616
  3218 58.6001 5.47425 -4.96494
  3219 108.468 4.74837 9.33923
  3220 89.2971 -3.48943 5.33072
  3221 61.6847 -16.3108 -13.4550
  3222 62.1793 -16.2483 13.1480
  3223 120.407 -2.91996 -6.62746
  3224 112.431 -2.72187 11.9995
  3225 112.423 -2.80633 -12.0305
  3226 76.6409 -2.54934 2.40551
  3227 76.6445 -2.55359 -2.40516
  3228 27.5235 -1.44646 -4.94095
  3229 27.5092 -1.44905 4.96124
  3230 81.2990 -0.117181 0.829301
  3231 81.3060 -0.116977 -0.827351
  3232 63.7578 2.19151 -4.61724
  3233 63.7588 2.19183 4.61856
  3234 92.8317 -8.14639 0.366338
  3235 79.2206 -6.92985 4.07973
  3236 79.2250 -6.93207 -4.12541
  3237 61.6099 3.92887 0.891751
  3238 61.6119 3.92834 -0.891509
  3239 69.7761 -2.88524 -15.7132
  3240 69.7858 -2.88833 15.7125
  3241 80.8214 0.0188048 -12.9645
  3242 80.8290 0.0156469 12.9628
  3243 69.9961 0.964309 1.52946
  3244 80.6765 -1.15368 -0.406378
  3245 80.6771 -1.15519 0.409146
  3246 80.3789 0.202127 3.16157
  3247 80.3725 0.202188 -3.16121
  3248 100.106 5.33702 5.54721
  3249 72.1696 -0.791168 3.64898
  3250 72.1702 -0.794028 -3.65087
  3251 40.1559 -14.3472 -13.8757
  3252 40.1896 -14.3420 13.8707
  3253 61.9602 3.14472 3.33402
  3254 61.9608 3.14416 -3.33296
  3255 78.8908 -0.857767 -4.57565
  3256 78.8879 -0.851899 4.57877
  3257 65.5112 1.14166 -3.90628
  3258 65.5134 1.14182 3.90740
  3259 85.5036 -4.62391 -12.0036
  3260 85.5166 -4.62796 12.0019
  3261 80.6449 -1.95482 1.21026
  3262 80.6436 -1.95283 -1.20659
  3263 73.4981 0.890117 5.31984
  3264 73.4934 0.890181 -5.31894
  3265 77.3874 -6.70815 5.51894
  3266 77.3607 -6.67760 -5.50496
  3267 80.9955 -0.850525 0.321303
  3268 80.9952 -0.849377 -0.318813
  3269 116.924 3.64731 11.6848
  3270 86.3901 0.606536 7.10607
  3271 86.3839 0.607109 -7.10642
  3272 82.5126 -0.149454 -0.154918
  3273 82.5123 -0.149171 0.155807
  3274 109.853 18.3290 -2.32296
  3275 91.5087 -11.4167 4.98244
  3276 81.7035 -0.385874 -0.951272
  3277 81.7008 -0.386457 0.953929
  3278 68.4770 -2.34425 -7.30115
  3279 68.4806 -2.33880 7.29752
  3280 93.9157 -4.15878 -14.2685
  3281 58.6862 5.51083 -6.61865
  3282 58.6850 5.51126 6.62029
  3283 14.3195 -39.1704 -2.05550
  3284 16.2550 -34.4842 4.91284
  3285 60.5134 -1.72318 -11.1442
  3286 60.5104 -1.71176 11.1425
  3287 120.611 -2.76152 6.64214
  3288 64.4425 0.0714293 -0.855594
  3289 64.4456 0.0714498 0.855890
  3290 48.6140 5.99588 -2.92758
  3291 48.6213 5.99493 2.92415
  3292 13.1898 -18.5771 -0.902105
  3293 13.1944 -18.6167 0.971015
  3294 100.933 0.0199069 -5.35245
  3295 100.938 0.0193094 5.35043
  3296 80.4445 -10.0200 -7.21046
  3297 91.4734 -0.334705 -6.48975
  3298 107.643 7.58315 1.80431
  3299 62.5554 3.51537 -0.408729
  3300 62.5535 3.51588 0.408817
  3301 68.8301 -0.00760210 -0.488937
  3302 68.8348 -0.00761475 0.489082
  3303 79.7372 -0.0168140 -0.919723
  3304 79.7362 -0.0164866 0.919809
  3305 69.3928 1.37225 5.87385
  3306 69.3894 1.37224 -5.87263
  3307 80.7508 -4.85099 -0.265068
  3308 80.7445 -4.84736 0.269734
  3309 104.678 4.65889 -2.51390
  3310 73.8848 -0.273466 -2.51242
  3311 73.8840 -0.271562 2.51158
  3312 69.4040 0.560440 2.13681
  3313 115.048 -0.341692 -2.87433
  3314 115.045 -0.342250 2.87009
  3315 43.8467 -5.90621 17.6784
  3316 43.8634 -5.86617 -17.7248
  3317 76.3446 4.02011 1.58429
  3318 82.0657 -2.06605 5.59272
  3319 82.0592 -2.06978 -5.58434
  3320 83.3677 -4.47663 3.42654
  3321 83.3680 -4.47653 -3.42280
  3322 109.786 -8.18806 5.37750
  3323 109.755 -8.14076 -5.38012
  3324 52.3039 -3.67997 11.9627
  3325 124.876 0.932798 -9.27421
  3326 105.218 9.39722 -4.21175
  3327 52.1383 4.92801 12.3295
  3328 52.1371 4.93087 -12.3246
  3329 130.663 6.69130 8.38719
  3330 51.1413 7.35816 4.33245
  3331 51.1462 7.35703 -4.33133
  3332 64.4440 2.43820 -5.51167
  3333 64.4454 2.43848 5.51311
  3334 106.113 -2.87384 -3.99337
  3335 106.119 -2.87384 3.98477
  3336 61.3560 3.83281 -4.71294
  3337 61.3555 3.83332 4.71423
  3338 54.3477 3.24090 -6.90315
  3339 54.3513 3.24397 6.89865
  3340 62.1092 3.79760 5.89814
  3341 62.1091 3.79720 -5.89663
  3342 92.5800 -0.128408 -5.08315
  3343 69.1972 1.76796 6.64321
  3344 69.1940 1.76799 -6.64189
  3345 77.0836 -1.35674 1.75193
  3346 77.0858 -1.35948 -1.75132
  3347 99.5526 0.0248006 -4.52844
  3348 148.976 9.13707 0.0471526
  3349 25.3718 -15.6862 -9.68910
  3350 25.3964 -15.7011 9.68704
  3351 44.5776 3.07988 -12.0443
  3352 44.5787 3.07487 12.0525
  3353 77.6729 1.08385 -13.0895
  3354 77.6797 1.08098 13.0887
  3355 110.857 -2.77121 -1.34781
  3356 110.856 -2.76677 1.34039
  3357 75.5351 1.47237 4.33818
  3358 81.4416 -6.47308 -1.23121
  3359 81.4252 -6.46629 1.24131
  3360 100.173 5.62862 0.504199
  3361 44.8663 6.60598 7.05046
  3362 44.8728 6.60554 -7.04523
  3363 109.722 -4.29319 0.403662
  3364 109.718 -4.28006 -0.410372
  3365 81.9635 -11.0240 7.18131
  3366 99.9229 17.9894 -3.51360
  3367 57.4763 5.77438 2.81690
  3368 57.4790 5.77382 -2.81636
  3369 62.1857 3.97199 -6.66783
  3370 62.1859 3.97231 6.66946
  3371 65.4380 -5.02733 12.3214
  3372 65.4586 -5.07794 -12.3235
  3373 119.113 -0.924503 -0.479532
  3374 119.102 -0.922635 0.475750
  3375 89.6070 0.0826600 -9.96557
  3376 89.6133 0.0807388 9.96325
  3377 101.720 -5.15420 -4.73111
  3378 101.733 -5.15311 4.72080
  3379 80.4502 -0.298831 -0.688197
  3380 80.4493 -0.298191 0.688932
  3381 58.3584 4.10479 -13.5800
  3382 58.3619 4.10146 13.5833
  3383 95.7915 -3.71746 8.71676
  3384 95.7799 -3.71369 -8.72227
  3385 22.9319 -25.8051 -6.16541
  3386 22.9249 -25.7723 6.14162
  3387 63.7487 0.0372079 -0.672942
  3388 63.7516 0.0372069 0.673188
  3389 98.5593 6.35094 -6.30253
  3390 62.4324 2.63244 3.26724
  3391 62.4326 2.63193 -3.26616
  3392 63.4724 1.34997 -3.22781
  3393 63.4734 1.35026 3.22889
  3394 54.3645 3.32376 -14.0267
  3395 54.3689 3.31909 14.0311
  3396 81.6226 0.00317660 -0.468572
  3397 82.8058 -0.00567349 0.182372
  3398 81.6213 0.00325260 0.468619
  3399 82.8073 -0.00570159 -0.182308
  3400 87.2181 -9.08348 0.880007
  3401 87.1506 -9.10385 -0.802431
  3402 56.7994 2.50889 -7.28412
  3403 56.8028 2.51258 7.28063
  3404 59.7605 -10.4206 15.8883
  3405 59.7550 -10.4265 -15.9011
  3406 90.6500 0.146255 5.60950
  3407 90.6436 0.146638 -5.61010
  3408 65.0416 0.0820491 0.667955
  3409 79.8983 -5.27179 1.45816
  3410 79.9078 -5.27763 -1.45467
  3411 72.6412 1.37935 6.98995
  3412 72.6370 1.37955 -6.98885
  3413 80.9458 -1.07451 0.819017
  3414 80.9458 -1.07318 -0.815879
  3415 204.955 8.22750 25.2249
  3416 65.9045 0.568508 -2.90942
  3417 65.9073 0.568598 2.91029
  3418 67.7252 2.58143 7.92704
  3419 67.7226 2.58153 -7.92548
  3420 22.9095 -5.46934 -3.94652
  3421 22.8921 -5.47671 3.97467
  3422 63.4318 2.61651 3.22602
  3423 63.4289 2.61584 -3.22743
  3424 36.2472 4.73172 -1.92289
  3425 36.2672 4.72576 1.92394
  3426 126.258 2.79097 9.46680
  3427 86.4784 1.85986 -6.04012
  3428 78.5231 -1.61882 1.04692
  3429 78.5253 -1.62144 -1.04534
  3430 67.8880 -5.40627 11.1301
  3431 67.9239 -5.49946 -11.1288
  3432 63.9784 3.47048 7.23575
  3433 63.9773 3.47030 -7.23407
  3434 81.8674 0.787091 7.73484
  3435 81.8615 0.787683 -7.73472
  3436 112.495 -3.53872 3.06710
  3437 112.482 -3.52002 -3.06416
  3438 64.9206 2.12608 -3.45814
  3439 64.9231 2.12689 3.45655
  3440 55.8952 -1.20117 -12.3170
  3441 55.8977 -1.19445 12.3020
  3442 55.1574 0.974454 -9.76933
  3443 55.1590 0.980322 9.76257
  3444 159.022 14.6340 -0.0672888
  3445 24.8731 -22.3900 14.0572
  3446 123.410 -0.203585 1.07607
  3447 123.392 -0.202113 -1.07273
  3448 138.810 5.31292 2.34809
  3449 73.1215 -1.03863 3.33642
  3450 73.1227 -1.04166 -3.33796
  3451 65.4118 0.176223 -1.59395
  3452 65.4149 0.176253 1.59447
  3453 64.0589 1.21466 -3.40497
  3454 64.0604 1.21489 3.40606
  3455 28.4695 -0.692458 -6.70835
  3456 28.5068 -0.698916 6.70712
  3457 101.004 -0.920808 7.36421
  3458 100.999 -0.918888 -7.36907
  3459 47.9384 -2.07492 -14.7774
  3460 47.9352 -2.07979 14.7733
  3461 73.4148 1.08383 3.55781
  3462 58.5316 5.71252 9.61392
  3463 58.5319 5.71289 -9.61144
  3464 70.3015 0.271477 2.31156
  3465 77.9184 -0.420737 -4.62302
  3466 77.9160 -0.416428 4.62428
  3467 88.3170 -0.686869 -6.77431
  3468 78.6774 0.0110334 0.991348
  3469 78.6706 0.0110357 -0.991185
  3470 61.2155 3.83867 2.79933
  3471 61.2168 3.83807 -2.79848
  3472 110.037 -5.32753 3.59400
  3473 110.022 -5.30044 -3.59491
  3474 70.5719 1.18640 -1.52523
  3475 59.7181 4.87061 4.53081
  3476 59.7195 4.87003 -4.52964
  3477 105.699 -0.0824568 -4.28558
  3478 105.703 -0.0830244 4.28322
  3479 52.9819 -0.649333 -15.7541
  3480 52.9917 -0.655887 15.7568
  3481 51.0046 -1.46560 13.7126
  3482 51.0002 -1.45937 -13.7219
  3483 73.5248 2.11117 10.1739
  3484 73.5203 2.11217 -10.1730
  3485 66.1122 0.685184 1.58025
  3486 80.9537 6.09440 4.07339
  3487 65.5343 2.54471 1.54940
  3488 65.5324 2.54480 -1.55014
  3489 64.0119 0.182960 1.45052
  3490 64.0093 0.182914 -1.45000
  3491 33.2455 -8.16400 12.4284
  3492 70.7128 0.248172 -2.30063
  3493 70.7175 0.248197 2.30118
  3494 60.0544 4.80881 -5.45292
  3495 60.0534 4.80933 5.45430
  3496 69.5319 0.945607 2.87501
  3497 69.5310 0.944577 -2.87647
  3498 72.3771 0.527090 2.28729
  3499 72.3770 0.526145 -2.28824
  3500 72.1420 -0.00790414 1.32044
  3501 72.1102 -0.00771724 -1.32755
  3502 93.7891 -7.33184 -0.960977
  3503 95.7515 -12.8062 -4.70761
  3504 96.0785 -12.8857 4.52169
  3505 79.1077 6.33880 1.12771
  3506 62.2608 2.99744 4.09295
  3507 62.2609 2.99695 -4.09172
  3508 34.9628 -6.26570 13.2899
  3509 34.9467 -6.25239 -13.2805
  3510 78.0012 2.74754 4.86918
  3511 72.0306 1.84093 7.77865
  3512 72.0266 1.84120 -7.77748
  3513 79.6548 -0.129678 0.909564
  3514 79.6558 -0.130204 -0.909214
  3515 49.7526 5.08478 -5.03063
  3516 49.7589 5.08488 5.02573
  3517 54.6304 6.76116 7.06367
  3518 54.6330 6.76071 -7.06159
  3519 68.8683 2.80786 -12.9939
  3520 68.8733 2.80529 12.9951
  3521 90.0893 -12.2793 -6.70653
  3522 61.8846 3.22878 3.60282
  3523 61.8851 3.22824 -3.60171
  3524 26.7290 -20.6659 -15.4056
  3525 66.4413 2.27695 6.45412
  3526 66.4391 2.27683 -6.45264
  3527 62.4742 2.66474 -3.67208
  3528 62.4741 2.66522 3.67324
  3529 185.331 13.4634 -2.15367
  3530 58.6731 3.28189 14.2540
  3531 58.6683 3.28601 -14.2508
  3532 89.1888 12.7758 3.91618
  3533 124.878 0.830901 9.43165
  3534 61.9047 -0.493262 -8.99688
  3535 61.9097 -0.487381 8.99462
  3536 71.3702 1.19088 -5.92987
  3537 71.3742 1.19083 5.93098
  3538 113.778 -4.41069 10.6526
  3539 113.760 -4.47936 -10.6205
  3540 77.0650 0.0125964 -1.45581
  3541 77.0643 0.0133698 1.45571
  3542 142.784 6.59447 -0.829639
  3543 62.5776 3.30412 5.52896
  3544 62.5773 3.30373 -5.52750
  3545 67.6873 0.628892 3.43849
  3546 67.6839 0.628814 -3.43758
  3547 75.0294 -6.41485 -14.3648
  3548 75.0390 -6.41505 14.3669
  3549 78.3756 -0.127729 -1.20696
  3550 78.3747 -0.126984 1.20716
  3551 63.1716 3.26568 -1.47792
  3552 63.1740 3.26561 1.47725
  3553 76.9515 0.0110296 -1.13714
  3554 76.9351 0.0119560 1.13905
  3555 225.839 5.30821 -5.19823
  3556 80.7109 -1.94536 -4.00869
  3557 80.7125 -1.94561 4.01378
  3558 81.5810 0.330552 4.18546
  3559 68.2686 -0.0320475 4.90376
  3560 68.2669 -0.0344200 -4.90650
  3561 62.6042 2.91053 -4.57433
  3562 62.6044 2.91097 4.57565
  3563 69.4009 -14.8807 -13.5215
  3564 69.3384 -14.8072 13.5319
  3565 48.6863 6.71938 -0.625678
  3566 48.6934 6.71801 0.623950
  3567 64.5876 0.678145 -2.77588
  3568 64.5897 0.678275 2.77677
  3569 85.8681 0.0321807 -11.3577
  3570 85.8751 0.0297057 11.3554
  3571 71.6482 -11.5278 -15.2642
  3572 59.1585 5.11595 3.91913
  3573 59.1603 5.11535 -3.91815
  3574 113.638 -1.02987 -3.15020
  3575 113.635 -1.03011 3.14382
  3576 93.5371 8.28349 -6.83041
  3577 46.8558 -15.6389 20.5256
  3578 60.2844 5.06160 -7.16033
  3579 60.2840 5.06193 7.16207
  3580 74.0438 0.593352 3.75647
  3581 80.6557 -11.9219 9.68306
  3582 80.9723 4.76655 -5.31541
  3583 49.2908 0.626780 -11.7535
  3584 49.2960 0.625331 11.7418
  3585 81.5569 -0.0531081 -0.516289
  3586 81.5558 -0.0529351 0.516553
  3587 80.1373 6.24195 -3.18751
  3588 66.4119 1.09609 -4.17511
  3589 66.4144 1.09622 4.17624
  3590 89.7124 4.74982 -7.26916
  3591 79.4874 4.47366 -4.23184
  3592 75.6600 1.47373 -4.43005
  3593 59.8452 5.28476 8.23665
  3594 59.8456 5.28463 -8.23465
  3595 64.6397 2.70885 -1.98607
  3596 64.6419 2.70894 1.98513
  3597 89.0705 10.4970 -5.71898
  3598 63.9724 0.0216918 0.305719
  3599 63.9692 0.0216941 -0.305611
  3600 80.7933 -1.52523 -2.38427
  3601 80.7935 -1.52681 2.38862
  3602 51.4843 6.89224 -0.829124
  3603 51.4789 6.89311 0.828387
  3604 75.0569 2.11798 10.9569
  3605 75.0518 2.11937 -10.9564
  3606 47.1129 7.46379 -2.80055
  3607 47.1052 7.46581 2.80149
  3608 78.7887 -0.721039 -1.01364
  3609 78.7874 -0.719492 1.01468
  3610 76.4279 0.212526 13.8276
  3611 76.4200 0.216069 -13.8287
  3612 80.9246 -0.876869 1.74778
  3613 80.9263 -0.875697 -1.74389
  3614 95.8100 0.734974 5.81987
  3615 51.6282 6.14670 -2.20057
  3616 51.6336 6.14649 2.19813
  3617 79.2306 -0.554714 -0.924949
  3618 79.2295 -0.553488 0.925905
  3619 83.0961 -5.94524 -0.918620
  3620 83.0992 -5.94611 0.926352
  3621 66.9513 1.55150 3.29981
  3622 66.9494 1.55061 -3.30147
  3623 77.8158 -12.1157 -12.3401
  3624 77.8230 -12.1039 12.3649
  3625 88.1573 -1.48755 6.44898
  3626 67.4983 0.0595336 -1.23859
  3627 67.5023 0.0595437 1.23896
  3628 57.9756 3.74864 -4.40854
  3629 57.9793 3.75022 4.40660
  3630 85.1478 9.06969 -4.42658
  3631 132.076 19.9892 -6.59375
  3632 84.6724 0.481986 6.40008
  3633 84.6661 0.482388 -6.40010
  3634 39.2887 -20.8780 10.1877
  3635 39.1947 -20.9236 -10.1830
  3636 80.6031 -0.0889433 -0.714620
  3637 80.6021 -0.0886107 0.714929
  3638 79.1462 0.725464 -6.15140
  3639 79.1519 0.725197 6.15193
  3640 69.7778 0.126731 1.56143
  3641 69.7731 0.126717 -1.56102
  3642 66.6234 0.0564957 -1.05360
  3643 66.6272 0.0564998 1.05393
  3644 64.4791 0.132518 1.22036
  3645 64.4762 0.132487 -1.21994
  3646 66.8622 0.561054 -2.01560
  3647 81.3646 0.218586 -4.31185
  3648 114.710 5.52863 -10.4494
  3649 49.3104 7.23131 6.59346
  3650 49.3154 7.23054 -6.59056
  3651 119.598 9.10345 5.52506
  3652 54.9182 6.58145 8.16746
  3653 54.9203 6.58132 -8.16499
  3654 120.275 11.7998 -13.7839
  3655 69.0292 0.533205 3.41524
  3656 69.0254 0.533163 -3.41439
  3657 68.6490 0.264483 2.38867
  3658 68.6450 0.264459 -2.38804
  3659 81.9116 -7.31716 -1.92609
  3660 81.8953 -7.31031 1.95409
  3661 62.8903 3.44765 0.497254
  3662 62.8881 3.44799 -0.497523
  3663 84.1535 -12.2340 -8.17262
  3664 114.797 13.0756 32.8193
  3665 59.9639 3.16897 -4.64312
  3666 59.9676 3.17056 4.64133
  3667 37.3542 -9.03639 -14.1822
  3668 37.3770 -9.04781 14.1863
  3669 75.5802 -9.41856 -10.3727
  3670 61.1978 3.55374 -2.68915
  3671 61.2009 3.55426 2.68805
  3672 48.7625 -10.6451 -16.0284
  3673 48.7881 -10.6486 16.0187
  3674 62.3840 2.20814 4.75363
  3675 62.3805 2.20658 -4.75553
  3676 106.753 -8.62218 -3.95583
  3677 106.676 -8.32769 3.68494
  3678 79.7305 -0.884376 -5.49219
  3679 79.7247 -0.871232 5.49553
  3680 79.2576 -6.25924 -3.16395
  3681 79.2457 -6.24850 3.15753
  3682 70.0961 0.759322 4.49078
  3683 70.0923 0.759303 -4.48979
  3684 111.722 20.9026 1.95936
  3685 80.3189 -6.00365 -1.92151
  3686 80.3032 -5.99412 1.92525
  3687 63.9448 0.937704 6.06738
  3688 63.9412 0.935195 -6.06984
  3689 103.753 0.0362592 -3.75355
  3690 103.757 0.0359422 3.75211
  3691 79.1485 -2.16957 0.616185
  3692 79.1512 -2.17249 -0.613853
  3693 81.1685 -2.41769 -3.50617
  3694 81.1709 -2.41904 3.51060
  3695 78.6395 6.15515 -1.10548
  3696 54.4484 5.29627 -3.04757
  3697 54.4527 5.29702 3.04542
  3698 61.6672 3.89752 -1.22130
  3699 61.6699 3.89746 1.22075
  3700 80.6879 -14.5270 14.4700
  3701 67.5793 -13.6783 18.8365
  3702 98.2782 0.0348236 1.55377
  3703 98.2711 0.0348658 -1.55403
  3704 93.6752 13.8126 -5.15378
  3705 106.051 -0.538048 12.0703
  3706 103.109 0.0835467 1.61319
  3707 103.103 0.0836049 -1.61363
  3708 71.2027 -10.1587 -13.8718
  3709 70.3480 -2.83829 -6.76025
  3710 70.3505 -2.83286 6.75561
  3711 62.3349 3.63243 -0.0253476
  3712 62.3327 3.63285 0.0252809
  3713 101.664 -0.0371166 -5.81625
  3714 101.668 -0.0379718 5.81365
  3715 65.7564 -14.9217 20.3921
  3716 42.4192 4.84937 -5.56767
  3717 42.4326 4.84522 5.56167
  3718 52.0681 -2.28232 -16.0180
  3719 52.0798 -2.28964 16.0196
  3720 78.2001 -5.43054 -3.44661
  3721 78.1909 -5.42750 3.44502
  3722 74.9771 -1.55215 2.79660
  3723 74.9793 -1.55560 -2.79724
  3724 76.5890 -4.08839 -3.55340
  3725 76.5830 -4.08232 3.55258
  3726 44.4711 6.63855 -1.49686
  3727 44.4817 6.63553 1.49471
  3728 112.629 -3.15603 1.50743
  3729 112.620 -3.14344 -1.50911
  3730 79.6894 -0.597163 2.64811
  3731 79.6937 -0.596634 -2.64372
  3732 94.2252 3.31294 6.15450
  3733 57.3088 5.75644 10.3802
  3734 57.3090 5.75725 -10.3773
  3735 122.632 -0.463868 -1.35172
  3736 122.646 -0.465803 1.35687
  3737 65.0456 0.0577657 -0.954721
  3738 65.0488 0.0577791 0.955046
  3739 93.5254 0.0620630 -7.69987
  3740 93.5312 0.0610385 7.69805
  3741 159.085 10.0209 -5.45018
  3742 60.5739 4.34277 -0.778044
  3743 60.5715 4.34321 0.778179
  3744 72.1060 0.603034 4.01315
  3745 72.1014 0.603024 -4.01234
  3746 64.2644 -13.4403 -19.8229
  3747 64.2746 -1.05585 -8.38197
  3748 64.2794 -1.05126 8.37849
  3749 105.212 20.0345 -2.62096
  3750 82.9082 -0.0613006 0.360993
  3751 82.9119 -0.0611884 -0.359920
  3752 70.7974 -9.92382 13.7805
  3753 84.0215 6.95154 5.50114
  3754 60.5641 4.40890 1.33720
  3755 60.5663 4.40837 -1.33686
  3756 69.2287 0.472873 15.0933
  3757 69.2207 0.477068 -15.0932
  3758 65.1747 2.14980 3.07490
  3759 65.1724 2.14916 -3.07634
  3760 67.8073 1.73317 2.18347
  3761 67.8059 1.73287 -2.18454
  3762 78.7072 -8.46734 6.60706
  3763 78.5709 -8.37706 -6.54624
  3764 81.2865 2.03747 1.06497
  3765 59.9828 4.60622 1.77615
  3766 59.9850 4.60568 -1.77572
  3767 45.4453 -1.29939 -11.4564
  3768 59.9326 4.68893 -0.682930
  3769 59.9301 4.68932 0.682993
  3770 76.3866 -5.26114 4.68948
  3771 76.3932 -5.26687 -4.69182
  3772 67.5450 1.32129 5.02967
  3773 67.5422 1.32118 -5.02844
  3774 80.9849 -2.17441 -3.05744
  3775 80.9866 -2.17603 3.06185
  3776 78.4569 -1.22559 1.12490
  3777 78.4588 -1.22779 -1.12361
  3778 47.0822 -15.9724 -20.4054
  3779 97.4287 0.0303237 3.98618
  3780 97.4225 0.0305452 -3.98702
  3781 79.7071 1.28432 10.9728
  3782 79.7013 1.28591 -10.9732
  3783 76.1513 -3.31254 3.27417
  3784 76.1562 -3.31793 -3.27483
  3785 75.5811 -0.0494542 -1.08988
  3786 75.5621 -0.0468115 1.09017
  3787 133.634 12.0102 -2.02065
  3788 62.8490 -6.79789 -15.0040
  3789 62.9713 -6.68216 14.8593
  3790 87.1413 0.146825 -3.72313
  3791 87.1482 0.146714 3.72314
  3792 69.4475 0.0322791 -0.544891
  3793 69.4524 0.0322797 0.545039
  3794 101.675 -3.76983 -6.13229
  3795 101.685 -3.77140 6.12401
  3796 62.7465 2.22900 -3.41801
  3797 62.7467 2.22945 3.41914
  3798 80.9112 -0.159176 -0.641037
  3799 80.9102 -0.158768 0.641590
  3800 57.7692 5.57719 1.91691
  3801 57.7720 5.57672 -1.91662
  3802 62.3710 3.29946 -5.14202
  3803 62.3712 3.29989 5.14343
  3804 59.5658 4.84686 -3.49761
  3805 59.5641 4.84744 3.49850
  3806 30.6347 -1.25336 8.19326
  3807 30.6383 -1.24624 -8.17557
  3808 79.3921 1.23296 -11.8257
  3809 79.3982 1.23084 11.8251
  3810 97.9891 -4.28520 1.36833
  3811 153.817 7.53438 10.4669
  3812 71.2455 1.62212 7.00471
  3813 71.2417 1.62228 -7.00350
  3814 60.7187 1.19755 15.5143
  3815 60.7112 1.20264 -15.5124
  3816 55.3954 -14.7817 14.6094
  3817 55.3574 -14.8088 -14.6537
  3818 103.642 -1.36555 -6.62850
  3819 103.646 -1.36770 6.62241
  3820 74.4317 -0.658416 2.56318
  3821 74.4329 -0.660765 -2.56391
  3822 58.3988 5.84409 8.51996
  3823 58.3996 5.84403 -8.51774
  3824 74.5063 -8.28698 -14.6270
  3825 74.5143 -8.28308 14.6323
  3826 83.7873 2.35553 6.87430
  3827 77.9026 -0.530200 -1.39023
  3828 77.9014 -0.528756 1.39071
  3829 105.506 0.849373 12.2006
  3830 86.2125 -3.82775 5.12165
  3831 86.1238 -3.84024 -5.07326
  3832 83.3942 4.96984 6.20654
  3833 65.2340 0.576061 -2.75224
  3834 65.2365 0.576163 2.75310
  3835 93.6713 0.934383 17.6544
  3836 66.8863 1.80186 2.60159
  3837 66.8846 1.80135 -2.60289
  3838 66.9727 2.53539 7.23429
  3839 66.9704 2.53537 -7.23276
  3840 81.2250 -0.284968 1.29548
  3841 81.2297 -0.284460 -1.29247
  3842 80.2582 4.75545 4.77519
  3843 92.1866 2.20685 8.01638
  3844 81.7938 -6.63317 19.3462
  3845 85.4104 1.76278 7.11010
  3846 73.7244 0.267484 -2.09364
  3847 73.7242 0.268525 2.09293
  3848 88.5125 -2.61999 -5.95447
  3849 95.7702 -8.40825 2.24693
  3850 64.7292 1.82468 4.68459
  3851 64.7276 1.82443 -4.68329
  3852 65.0348 1.22571 3.89546
  3853 65.0328 1.22553 -3.89431
  3854 63.9463 2.83852 2.40139
  3855 63.9438 2.83825 -2.40246
  3856 100.411 -1.33998 -13.8421
  3857 61.3728 2.90871 -4.16942
  3858 61.3762 2.90994 4.16779
  3859 63.3428 2.91767 5.51321
  3860 63.3420 2.91732 -5.51174
  3861 60.6934 4.15180 2.31190
  3862 60.6951 4.15121 -2.31124
  3863 99.3655 -5.22732 -6.21946
  3864 99.3802 -5.22899 6.21130
  3865 204.950 10.4887 -5.23301
  3866 81.4379 -0.613300 -0.429190
  3867 81.4375 -0.614171 0.431629
  3868 61.9710 3.39523 4.27636
  3869 61.9713 3.39471 -4.27511
  3870 68.0460 0.298995 2.48773
  3871 68.0422 0.298964 -2.48706
  3872 12.8301 -0.246035 -0.000240057
  3873 13.2238 -0.990402 0.0303294
  3874 12.9169 -0.316468 -0.600887
  3875 12.8368 -0.211652 0.638361
  3876 12.5676 0.163656 -0.310970
  3877 12.5308 0.178043 0.297854
  3878 13.2032 -1.06909 -0.652477
  3879 12.4922 0.150861 -0.0200733
  3880 13.1713 -0.922565 0.715135
  3881 13.4610 -1.70085 -0.00210909
  3882 13.3934 -1.47135 0.524240
  3883 13.0234 -0.543567 -0.200535
  3884 13.0052 -0.521012 0.219624
  3885 12.9034 -0.391272 -0.938470
  3886 12.5440 0.315765 -0.592254
  3887 12.5376 0.314395 0.589136
  3888 12.7849 -0.142665 -0.303278
  3889 13.3943 -1.59850 -0.536440
  3890 12.3693 0.270773 0.142819
  3891 12.3916 0.269736 -0.159762
  3892 12.8771 -0.290354 0.947685
  3893 12.7643 -0.129919 0.305020
  3894 12.6484 0.0105857 -0.115927
  3895 12.6419 0.0123303 0.139033
  3896 12.6770 0.109990 -0.835727
  3897 12.6142 0.231097 0.842351
  3898 13.1787 -0.869072 -0.354187
  3899 13.5211 -1.93683 0.251261
  3900 13.1464 -0.817892 0.403761
  3901 13.5458 -1.95494 -0.360908
  3902 13.3286 -1.24102 -0.235974
  3903 13.3242 -1.39310 0.188127
  3904 13.1223 -1.03607 -1.04746
  3905 13.2835 -1.17700 0.933406
  3906 12.3873 0.476574 0.418862
  3907 12.3857 0.474444 -0.441812
  3908 12.3535 0.259144 -0.0538022
  3909 13.0076 -0.673034 1.08692
  3910 12.3229 0.392118 0.252583
  3911 12.3321 0.264369 0.0228609
  3912 12.3612 0.388978 -0.269818
  3913 13.0538 -0.657084 -0.662334
  3914 12.9971 -0.558506 0.674559
  3915 13.1036 -0.689914 0.0351124
  3916 12.7150 0.00304989 -0.509900
  3917 12.7119 0.0171292 0.508181
  3918 13.0104 -0.542756 -0.442078
  3919 12.9602 -0.450788 0.00896718
  3920 12.9306 -0.484006 -1.13839
  3921 12.7302 -0.0170636 -1.08584
  3922 12.5001 0.143989 0.110894
  3923 12.8783 -0.314350 -0.177029
  3924 12.8735 -0.303950 0.184797
  3925 12.5121 0.476954 -0.773031
  3926 12.5438 0.163663 -0.196052
  3927 13.4370 -1.82252 0.675186
  3928 13.3306 -1.42758 -0.940329
  3929 12.6557 0.191273 1.03675
  3930 12.8799 -0.287221 0.390502
  3931 13.2689 -1.22075 0.564566
  3932 12.4768 0.481282 0.730596
  3933 13.5721 -2.08911 0.0374795
  3934 13.0981 -0.796574 -0.810486
  3935 12.7664 -0.129549 -0.149586
  3936 13.4281 -1.57399 0.266564
  3937 13.0101 -0.480175 0.450492
  3938 12.8889 -0.311428 -0.387166
  3939 12.7175 -0.0652384 -0.0104396
  3940 12.7658 -0.183938 1.21638
  3941 12.7685 -0.153760 0.130628
  3942 13.3730 -1.45152 -0.360616
  3943 12.3983 0.584292 -0.601859
  3944 12.6566 0.0121600 -0.259612
  3945 12.3247 0.423302 -0.197806
  3946 12.5968 0.180301 -0.480181
  3947 12.2939 0.323408 0.0581601
  3948 12.5663 0.186746 0.424258
  3949 12.2946 0.339324 -0.0859169
  3950 12.3909 0.523152 0.559340
  3951 12.8194 -0.140792 -0.852247
  3952 12.3078 0.373748 0.159978
  3953 12.6163 0.0412695 0.0200066
  3954 12.6361 0.0389215 0.238750
  3955 13.4756 -1.81213 -0.601812
  3956 12.7075 0.0230857 -0.652211
  3957 13.0189 -0.589390 0.863474
  3958 13.2294 -0.999728 0.260408
  3959 12.4836 0.220766 0.183690
  3960 12.7716 -0.0850665 0.776880
  3961 12.4637 0.183745 -0.0831221
  3962 13.3344 -1.33077 -0.0219879
  3963 12.7177 0.0323714 0.657695
  3964 13.3367 -1.46400 0.970994
  3965 13.1129 -0.936968 1.10421
  3966 12.3052 0.526225 0.330164
  3967 13.1681 -0.857946 -0.146667
  3968 13.3201 -1.31882 -0.726236
  3969 12.3180 0.508774 -0.330362
  3970 13.1480 -0.813827 0.175968
  3971 12.2895 0.279111 -0.0358021
  3972 13.5153 -2.00694 0.494132
  3973 12.8081 -0.141994 -1.20924
  3974 12.5328 0.396127 -0.956793
  3975 13.5408 -1.83543 0.0618639
  3976 12.5057 0.464028 0.981863
  3977 13.2521 -1.05235 -0.415123
  3978 13.2119 -0.977665 0.488172
  3979 13.3028 -1.31624 0.722423
  3980 13.4148 -1.73853 -0.853390
  3981 13.1387 -0.903507 0.927139
  3982 12.4454 0.198818 0.0470318
  3983 12.4246 0.358433 0.326479
  3984 12.3963 0.224449 -0.0194630
  3985 13.5998 -2.19373 0.281193
  3986 12.4356 0.341975 -0.346338
  3987 12.4586 0.254466 -0.247174
  3988 12.5625 0.102874 -0.0945043
  3989 13.0156 -0.742910 -1.23825
  3990 12.7068 -0.00424993 -0.361740
  3991 13.2380 -1.03633 -0.185377
  3992 13.4452 -1.70376 -0.294787
  3993 13.6110 -2.20429 -0.316067
  3994 12.2645 0.497530 -0.241249
  3995 12.6248 0.325372 -1.10636
  3996 13.3187 -1.25939 -0.483631
  3997 12.6847 0.0391911 0.371020
  3998 12.6804 0.143149 1.19156
  3999 12.9215 -0.402674 1.23126
  4000 12.5794 0.111249 0.180250
  4001 12.9466 -0.385094 -0.723295
  4002 13.1786 -1.19111 -1.13917
  4003 12.3817 0.547049 -0.718575
  4004 12.2388 0.535144 0.246695
  4005 13.4544 -1.75674 0.458260
  4006 13.0850 -0.668327 -0.301381
  4007 12.3162 0.318495 0.0432667
  4008 12.5101 0.331223 0.493255
  4009 12.2365 0.576092 -0.486398
  4010 13.2694 -1.21855 1.12961
  4011 12.5206 0.370869 -0.520396
  4012 13.0678 -0.618027 0.326351
  4013 12.2949 0.285740 -0.0428052
  4014 12.5838 0.281861 0.679103
  4015 13.3619 -1.37560 0.382963
  4016 13.0971 -0.757213 0.627654
  4017 12.8791 -0.332046 0.779072
  4018 12.2882 0.612763 0.399059
  4019 12.3882 0.254338 -0.113750
  4020 12.4282 0.588668 0.846037
  4021 12.5947 0.271446 -0.717684
  4022 13.1553 -0.868583 -0.576317
  4023 13.2923 -1.17920 0.119274
  4024 12.4003 0.678840 0.681033
  4025 12.8091 -0.160560 0.517236
  4026 13.1820 -1.04112 -0.870834
  4027 12.1956 0.356837 -0.121679
  4028 13.3663 -1.55366 0.741210
  4029 12.3938 0.301886 0.203859
  4030 12.8031 -0.195044 -0.962788
  4031 13.0805 -0.707347 -0.494488
  4032 12.3690 0.272534 0.0839555
  4033 13.5735 -2.31654 -0.118890
  4034 12.8337 -0.186523 -0.538037
  4035 13.0390 -0.636785 0.519199
  4036 13.4742 -1.77827 -0.457095
  4037 12.3969 0.312007 -0.194980
  4038 12.2297 0.374187 0.0995309
  4039 13.0291 -0.573136 -0.0566652
  4040 13.0176 -0.562719 0.0847351
  4041 13.3911 -1.49881 0.0447813
  4042 12.9376 -0.392298 -0.256663
  4043 12.9647 -0.411345 0.589313
  4044 12.8934 -0.388380 1.06397
  4045 12.6084 0.0636502 -0.193760
  4046 13.0041 -0.526481 -0.828053
  4047 12.9565 -0.437104 -0.125582
  4048 12.9495 -0.427124 0.140645
  4049 13.3498 -1.42076 -0.529932
  4050 12.6306 0.150874 -0.592128
  4051 13.0703 -0.780967 -1.02703
  4052 12.6098 0.143610 0.589015
  4053 12.9261 -0.377802 0.269573
  4054 12.9102 -0.343561 -1.27031
  4055 12.8894 -0.341091 0.0651455
  4056 12.8917 -0.339902 -0.0559677
  4057 12.7829 -0.0456557 0.918389
  4058 12.4361 0.286373 0.256239
  4059 13.3959 -1.49278 -0.152519
  4060 12.4893 0.294148 0.390972
  4061 12.5796 0.0900065 0.0962293
  4062 12.4875 0.279807 -0.422850
  4063 12.4260 0.206284 -0.0606635
  4064 13.2987 -1.13946 -0.0576231
  4065 13.1463 -0.839992 0.00481102
  4066 13.5843 -2.07017 -0.555268
  4067 12.2837 0.633658 -0.408575
  4068 13.3011 -1.18298 0.333542
  4069 13.3542 -1.70548 0.899150
  4070 12.8299 -0.232053 -0.108561
  4071 12.4300 0.565447 -0.841701
  4072 12.7066 0.0996256 -0.978265
  4073 12.8087 -0.186806 0.212000
  4074 12.8086 -0.145749 -0.402215
  4075 12.8318 -0.249664 0.297926
  4076 12.2577 0.594662 0.454192
  4077 12.9238 -0.392588 -0.474216
  4078 13.6827 -2.31533 0.0800057
  4079 13.5309 -1.89093 -0.122894
  4080 12.9801 -0.550493 -0.976865
  4081 12.5929 0.437091 1.11233
  4082 12.8546 -0.297342 -1.05504
  4083 12.7850 -0.128842 0.401761
  4084 12.1756 0.289516 0.0214221
  4085 12.8127 -0.197409 -0.215167
  4086 12.9893 -0.728343 1.26862
  4087 12.8468 -0.268744 -0.293055
  4088 12.4818 0.440621 -0.681656
  4089 12.7761 -0.150501 -0.0557007
  4090 12.9743 -0.477104 -0.341973
  4091 12.7631 -0.128345 1.06712
  4092 12.8935 -0.353748 -0.864589
  4093 13.2477 -1.17855 -0.931820
  4094 12.8248 -0.239474 0.106549
  4095 12.6959 0.142356 -1.21948
  4096 13.4694 -1.93328 -0.743566
  4097 12.4447 0.220782 0.110846
  4098 12.2071 0.445824 0.171260
  4099 13.3526 -1.55044 -1.06779
  4100 13.2372 -1.11038 0.781100
  4101 12.9702 -0.450872 0.353058
  4102 13.0021 -0.492508 -0.565242
  4103 12.7372 -0.0881688 -0.250105
  4104 12.9160 -0.333744 0.488938
  4105 12.7644 -0.154049 0.0429833
  4106 12.5532 0.355571 -0.844224
  4107 12.7113 -0.0674729 -0.0905728
  4108 12.3332 0.320980 -0.163678
  4109 13.4480 -1.98594 0.713451
  4110 12.5337 0.455165 0.642395
  4111 12.5176 0.113379 0.0497596
  4112 12.8039 -0.180250 -0.708352
  4113 13.0979 -0.702117 -0.116374
  4114 12.6481 -0.00720297 -0.0547101
  4115 12.4719 0.222140 -0.150128
  4116 12.7222 -0.0768609 0.214386
  4117 13.0892 -0.989299 1.24991
  4118 12.3235 0.586753 0.735357
  4119 13.4031 -1.58240 -0.758007
  4120 12.6918 -0.0276141 -0.179847
  4121 13.4836 -1.77638 0.206305
  4122 12.7144 -0.0602951 0.0850241
  4123 13.5710 -2.12533 -0.172644
  4124 12.3103 0.321940 0.117461
  4125 12.6120 0.169847 0.501421
  4126 13.0681 -0.644526 0.164458
  4127 12.1231 0.333605 -0.0333344
  4128 13.6616 -2.40720 -0.0352541
  4129 12.3662 0.794490 0.743036
  4130 12.4095 0.784504 -0.678528
  4131 12.3134 0.783883 0.587450
  4132 12.2486 0.656709 0.442971
  4133 12.2920 0.687189 0.376567
  4134 12.2226 0.589008 0.290956
  4135 12.1757 0.530065 0.174142
  4136 12.2373 0.440901 0.123198
  4137 12.1366 0.412239 0.0945722
  4138 12.2412 0.340732 0.0530309
  4139 12.1896 0.310201 0.0652634
  4140 12.2767 0.277514 -0.0655604
  4141 12.2941 0.343893 -0.0460973
  4142 12.1804 0.365062 -0.0610141
  4143 12.1921 0.412099 -0.144723
  4144 12.3049 0.540328 -0.208893
  4145 12.2094 0.524669 -0.270252
  4146 12.2961 0.689112 -0.371514
  4147 12.2309 0.649462 -0.474379
  4148 12.2940 0.755255 -0.572454
  4149 12.3783 0.697991 -0.771449
  4150 12.4473 0.687113 -0.922553
  4151 12.4996 0.523370 -1.04969
  4152 12.6079 0.331413 -1.21518
  4153 12.6996 0.0195462 -1.27378
  4154 12.7927 -0.254101 -1.29342
  4155 12.8515 -0.584181 -1.33898
  4156 13.0047 -1.01203 -1.31555
  4157 13.0820 -1.26986 -1.23741
  4158 13.2821 -1.38018 -1.17236
  4159 13.4103 -1.83739 -0.956324
  4160 13.5602 -2.05971 -0.721132
  4161 13.6670 -2.21838 -0.467374
  4162 13.5931 -2.31542 -0.241858
  4163 13.7730 -2.31157 0.233170
  4164 13.5127 -2.17885 0.510152
  4165 13.4256 -2.10392 0.695765
  4166 13.3942 -1.89480 0.924502
  4167 13.3146 -1.54374 1.08590
  4168 13.2124 -1.18001 1.26575
  4169 12.9765 -0.892284 1.36023
  4170 12.8930 -0.533364 1.34209
  4171 12.7785 -0.289458 1.30368
  4172 12.6456 -0.0206699 1.28816
  4173 12.6112 0.399920 1.20271
  4174 12.4759 0.549167 1.05052
  4175 12.4260 0.672567 0.927121
  4176 12.3543 0.681311 0.780404
</Section>

newXOutput 10

<Section columns = "stress_xx | stress_yy | stress_xy">
  1 67.0112 0.0890774 -0.202226
  2 67.0117 0.0891112 0.202266
  3 89.0677 -0.0272537 0.0514466
  4 89.0671 -0.0272922 -0.0514817
  5 219.249 13.6587 2.58700
  6 276.398 3.68235 0.369075
  7 71.1065 -0.00610311 -0.230413
  8 71.1098 -0.00609457 0.230496
  9 92.7884 -0.00605943 0.175481
  10 92.7904 -0.00607128 -0.175491
  11 9.85239 -68.6338 2.84318
  12 10.1091 -69.1374 -3.13028
  13 77.5361 1.06365 -0.108729
  14 77.5356 1.06425 0.108711
  15 90.2619 -0.159782 0.135552
  16 67.0667 0.109539 -0.327312
  17 67.0677 0.109551 0.327480
  18 90.2630 -0.159799 -0.135664
  19 74.5006 2.63183 -1.67954
  20 74.5024 2.63171 1.67873
  21 71.0020 0.213012 0.130524
  22 64.6674 0.870531 0.0357223
  23 71.6046 0.0218841 -0.222869
  24 72.0211 0.0304906 -0.244571
  25 72.6681 0.0295785 -0.352859
  26 73.2066 0.0228797 -0.309460
  27 73.8141 0.0267046 -0.363486
  28 74.6026 0.00826272 -0.396339
  29 75.2928 -0.0226140 -0.343597
  30 76.0881 -0.00306939 -0.324311
  31 76.9856 -0.0124255 -0.337370
  32 77.7697 0.00875737 -0.349447
  33 78.7984 0.0422633 -0.525371
  34 79.8327 0.0514959 -0.540653
  35 80.9101 0.0482404 -0.665230
  36 82.3477 0.0156941 -0.721337
  37 83.3761 -0.0240932 -0.703975
  38 84.9871 0.00397990 -0.700354
  39 86.1769 -0.0105320 -0.719669
  40 88.0978 -0.0119651 -0.705743
  41 89.5122 0.0459600 -0.875762
  42 91.2189 0.0825865 -1.02173
  43 93.2977 -0.0717611 -1.09354
  44 95.6072 -0.0839288 -1.02090
  45 97.4055 -0.0359086 -1.00060
  46 99.9946 -0.0187344 -1.01233
  47 101.893 -0.00902689 -1.32235
  48 103.939 0.0489832 -1.41821
  49 107.137 -0.165342 -1.28147
  50 110.163 -0.171639 -1.09571
  51 112.592 -0.134421 -1.17034
  52 115.911 -0.143365 -1.02797
  53 118.332 -0.0864713 -1.38325
  54 121.559 -0.0904008 -1.30612
  55 124.386 -0.0739944 -1.53155
  56 126.544 -0.166946 -1.63305
  57 131.224 -0.563058 -1.31839
  58 132.187 -0.113851 -1.20053
  59 135.403 -0.0295011 -0.952613
  60 137.633 -0.185272 -1.07422
  61 139.578 -0.231168 -0.754482
  62 141.305 -0.248252 -0.585888
  63 142.295 -0.264952 -0.328684
  64 142.977 -0.304332 -0.0294760
  65 143.020 -0.381651 0.382107
  66 141.588 -0.411583 0.734137
  67 141.020 -0.401572 0.890275
  68 138.707 -0.581398 1.27459
  69 134.646 -0.434420 1.94942
  70 130.130 -0.386711 2.56467
  71 125.415 -0.267388 2.98178
  72 118.875 -0.211682 3.38855
  73 112.824 0.0302576 3.64286
  74 104.757 0.117528 3.63099
  75 99.0533 0.270199 3.69960
  76 89.9919 0.520879 3.05640
  77 84.0684 0.755418 3.37107
  78 77.7274 0.489847 2.21265
  79 74.4524 0.785578 2.57813
  80 67.4128 1.01790 1.25273
  81 67.2654 0.888436 1.18077
  82 65.5101 0.770815 -0.700987
  83 67.0138 0.985925 -1.50840
  84 70.7695 1.34964 -1.56947
  85 78.8330 0.647096 -2.86406
  86 84.0670 0.683522 -3.78391
  87 89.8211 0.531208 -3.38860
  88 99.2584 0.201065 -3.92046
  89 105.716 -0.0924849 -4.06979
  90 112.364 0.0549472 -3.19851
  91 119.068 -0.0577495 -3.20575
  92 125.445 -0.251542 -2.88667
  93 130.175 -0.364655 -2.52398
  94 134.652 -0.427048 -1.93451
  95 138.694 -0.579173 -1.26809
  96 140.998 -0.400295 -0.887156
  97 141.563 -0.410062 -0.732723
  98 142.994 -0.380747 -0.382362
  99 142.953 -0.303752 0.0280942
  100 142.275 -0.264654 0.326781
  101 141.289 -0.248126 0.583823
  102 139.566 -0.231182 0.752490
  103 137.625 -0.185364 1.07237
  104 135.398 -0.0296936 0.951095
  105 132.185 -0.114070 1.19921
  106 131.224 -0.563119 1.31733
  107 126.547 -0.166965 1.63203
  108 124.390 -0.0741048 1.53085
  109 121.564 -0.0904981 1.30561
  110 118.339 -0.0865628 1.38290
  111 115.919 -0.143432 1.02768
  112 112.600 -0.134472 1.17015
  113 110.172 -0.171690 1.09553
  114 107.146 -0.165394 1.28133
  115 103.947 0.0489390 1.41816
  116 101.902 -0.00909697 1.32238
  117 100.004 -0.0187775 1.01235
  118 97.4144 -0.0359375 1.00067
  119 95.6159 -0.0839881 1.02096
  120 93.3061 -0.0717958 1.09365
  121 91.2271 0.0825874 1.02188
  122 89.5203 0.0459344 0.875918
  123 88.1056 -0.0119900 0.705850
  124 86.1844 -0.0105476 0.719806
  125 84.9943 0.00396143 0.700477
  126 83.3830 -0.0241133 0.704134
  127 82.3543 0.0156816 0.721492
  128 80.9164 0.0482369 0.665405
  129 79.8388 0.0514974 0.540808
  130 78.8042 0.0422662 0.525516
  131 77.7752 0.00874632 0.349552
  132 76.9909 -0.0124397 0.337462
  133 76.0931 -0.00308067 0.324403
  134 75.2976 -0.0226284 0.343697
  135 74.6072 0.00825514 0.396456
  136 73.8184 0.0267048 0.363612
  137 73.2107 0.0228811 0.309575
  138 72.6720 0.0295870 0.352987
  139 72.0248 0.0304879 0.244663
  140 71.6082 0.0218777 0.222945
  141 69.1306 0.333077 0.306291
  142 71.9065 0.636241 0.250609
  143 74.3779 1.00150 0.218978
  144 80.5727 0.799077 -0.0333454
  145 83.7178 0.525088 -0.0334237
  146 86.7691 0.188301 0.0243026
  147 93.3927 -0.0436590 -0.129999
  148 93.5963 -0.0539755 -0.205023
  149 93.9763 -0.0713708 -0.103437
  150 94.1961 -0.0621307 -0.181620
  151 94.3031 -0.0745835 -0.0710878
  152 94.5345 -0.0328266 -0.0352428
  153 94.3439 -0.127948 -0.0201250
  154 94.0863 -0.0922039 0.195014
  155 93.9476 -0.112962 0.276189
  156 93.3674 -0.134785 0.309476
  157 92.2696 -0.112941 0.513514
  158 91.2161 -0.0851629 0.612075
  159 89.6123 -0.113994 0.791635
  160 87.9048 -0.0361643 1.07892
  161 85.7756 -0.0179164 0.839912
  162 83.8933 -0.00295041 0.911883
  163 81.2858 0.0530780 0.897023
  164 79.2411 0.0880086 1.09902
  165 76.8131 0.122092 0.958923
  166 74.7865 0.143783 0.879936
  167 72.8747 0.226826 0.653166
  168 71.3666 0.203695 0.411779
  169 71.3380 0.127487 0.405932
  170 70.7967 0.400066 -0.407085
  171 71.3188 0.291450 -0.453353
  172 73.2696 0.233624 -0.761795
  173 75.0098 0.245449 -1.18980
  174 76.5989 0.0857314 -0.990243
  175 79.2134 0.0882309 -1.08616
  176 81.2862 0.0605795 -0.903747
  177 83.9129 -0.00720100 -0.917765
  178 85.7976 -0.0195696 -0.839967
  179 87.9224 -0.0366779 -1.07659
  180 89.6266 -0.113911 -0.789844
  181 91.2267 -0.0850775 -0.610525
  182 92.2775 -0.112838 -0.512260
  183 93.3726 -0.134695 -0.308400
  184 93.9514 -0.112909 -0.275414
  185 94.0885 -0.0921809 -0.194309
  186 94.3447 -0.127871 0.0207180
  187 94.5345 -0.0327464 0.0356438
  188 94.3023 -0.0745140 0.0713938
  189 94.1947 -0.0620643 0.181802
  190 93.9747 -0.0713132 0.103578
  191 93.5944 -0.0539281 0.205072
  192 93.3907 -0.0436227 0.130032
  193 86.7688 0.188185 -0.0243458
  194 83.7178 0.524766 0.0333687
  195 80.5731 0.798583 0.0333007
  196 74.3782 1.00095 -0.218933
  197 71.9065 0.635886 -0.250540
  198 69.1303 0.332922 -0.306225
  199 66.4130 0.299878 -0.305011
  200 67.3020 0.0733744 -0.368059
  201 68.0887 0.0443736 -0.347141
  202 68.7554 0.0357273 -0.297406
  203 69.5571 0.00471258 -0.343335
  204 70.0519 -0.00250933 -0.295838
  205 70.4738 -0.00159679 -0.215905
  206 71.2966 0.0219205 -0.500836
  207 71.3800 0.0669661 -0.879221
  208 71.6183 0.164059 -1.36996
  209 71.7332 0.276712 -1.78359
  210 71.7942 0.423648 -2.22203
  211 71.6791 0.626020 -2.53152
  212 71.6866 0.831512 -2.89123
  213 71.5273 1.09647 -3.17169
  214 71.3348 1.36339 -3.39178
  215 71.1250 1.66521 -3.56413
  216 70.8636 1.97456 -3.62002
  217 70.6623 2.24313 -3.61377
  218 70.4107 2.59078 -3.57386
  219 70.1844 2.88189 -3.38955
  220 69.9913 3.15084 -3.17342
  221 69.9026 3.40154 -2.84493
  222 69.8511 3.55165 -2.44413
  223 69.9193 3.74692 -1.98147
  224 70.0528 3.80617 -1.45450
  225 70.4945 3.72256 -0.866836
  226 71.0187 3.64955 -0.322047
  227 71.6198 3.47751 0.238918
  228 72.4295 3.27424 0.777746
  229 73.3082 2.91584 1.27839
  230 75.6614 2.16769 2.03085
  231 76.9554 1.81357 2.26691
  232 78.1946 1.46651 2.40253
  233 79.5549 1.15424 2.40590
  234 80.7243 0.820402 2.40235
  235 82.0799 0.585744 2.31096
  236 83.2716 0.374058 2.17317
  237 84.4106 0.251491 2.01682
  238 85.6507 0.151319 1.79625
  239 86.7049 0.0946520 1.56934
  240 87.8088 0.0113061 1.36368
  241 88.9018 0.0596057 1.13341
  242 89.9905 0.0210973 0.895108
  243 91.0260 0.0117366 0.642282
  244 92.0126 0.0323834 0.360728
  245 92.4649 -0.0369939 0.135063
  246 91.8375 -0.0466481 0.156923
  247 91.0380 -0.0882788 0.238182
  248 89.1643 -0.0437177 0.209613
  249 92.0143 0.0323517 -0.360732
  250 91.0273 0.0116173 -0.642278
  251 89.9916 0.0208502 -0.895100
  252 88.9028 0.0592260 -1.13343
  253 87.8097 0.0107500 -1.36378
  254 86.7057 0.0939822 -1.56954
  255 85.6514 0.150495 -1.79658
  256 84.4111 0.250583 -2.01736
  257 83.2719 0.373136 -2.17388
  258 82.0799 0.584844 -2.31185
  259 80.7240 0.819610 -2.40339
  260 79.5543 1.15361 -2.40701
  261 78.1935 1.46602 -2.40368
  262 76.9540 1.81328 -2.26801
  263 75.6597 2.16760 -2.03184
  264 73.3062 2.91610 -1.27901
  265 72.4273 3.27465 -0.778130
  266 71.6177 3.47802 -0.239076
  267 71.0167 3.65014 0.322118
  268 70.4926 3.72320 0.867109
  269 70.0510 3.80684 1.45499
  270 69.9178 3.74761 1.98214
  271 69.8498 3.55233 2.44496
  272 69.9016 3.40220 2.84589
  273 69.9906 3.15147 3.17450
  274 70.1840 2.88248 3.39070
  275 70.4107 2.59131 3.57506
  276 70.6626 2.24359 3.61501
  277 70.8642 1.97497 3.62126
  278 71.1260 1.66556 3.56534
  279 71.3361 1.36367 3.39294
  280 71.5289 1.09670 3.17278
  281 71.6886 0.831687 2.89223
  282 71.6812 0.626162 2.53240
  283 71.7966 0.423744 2.22281
  284 71.7359 0.276780 1.78423
  285 71.6212 0.164104 1.37047
  286 71.3831 0.0669799 0.879545
  287 71.2999 0.0219226 0.501024
  288 70.4769 -0.00161260 0.215984
  289 70.0549 -0.00253530 0.295936
  290 69.5598 0.00469443 0.343459
  291 68.7577 0.0357202 0.297544
  292 68.0906 0.0443724 0.347291
  293 67.3035 0.0733657 0.368200
  294 66.4137 0.299896 0.305098
  295 89.1650 -0.0437032 -0.209716
  296 91.0394 -0.0883129 -0.238295
  297 91.8392 -0.0466697 -0.156984
  298 92.4668 -0.0370166 -0.135094
  299 13.4126 -61.7332 -1.47422
  300 16.6902 -44.6648 -2.37342
  301 27.4205 -19.2844 6.63959
  302 44.9181 -1.07500 16.1219
  303 77.6954 16.1905 31.9028
  304 111.415 25.5685 44.1124
  305 148.843 25.5970 45.6888
  306 186.864 21.9991 40.1728
  307 211.044 16.4574 23.0152
  308 205.610 18.6021 -20.6382
  309 184.936 21.0776 -41.7969
  310 148.365 26.4319 -47.1425
  311 108.254 25.2691 -42.3912
  312 75.1221 20.0215 -35.0184
  313 45.7820 2.69222 -17.9895
  314 30.0888 -17.0388 -8.95146
  315 17.3384 -46.9564 3.22128
  316 14.7415 -64.2780 1.56414
  317 10.4553 -75.3489 -10.8283
  318 10.1523 -62.4754 -12.5460
  319 12.3377 -47.9711 -12.0400
  320 20.8533 -27.2085 -3.69001
  321 33.9769 -10.3518 4.92452
  322 54.4973 5.07538 15.9637
  323 84.0001 11.1162 27.7953
  324 114.140 19.1228 40.3445
  325 142.191 18.8179 45.4705
  326 174.287 18.3100 48.7915
  327 204.401 15.8314 42.6300
  328 239.189 10.1995 40.3994
  329 256.271 7.95388 26.3887
  330 270.001 3.65391 12.6272
  331 274.525 4.48528 -15.0115
  332 258.114 6.63535 -27.6458
  333 237.777 11.1739 -36.5573
  334 212.211 15.6922 -45.0357
  335 178.578 17.7381 -46.9808
  336 148.630 20.2431 -47.5118
  337 111.789 17.8839 -38.7963
  338 81.2064 12.1767 -27.0885
  339 50.3098 5.38548 -15.3731
  340 34.2575 -10.5598 -4.24883
  341 21.1546 -27.1126 3.64144
  342 12.3925 -47.9514 11.9616
  343 10.1408 -62.5777 12.4675
  344 10.4357 -75.7260 10.6538
  345 70.6380 1.01532 -1.49420
  346 74.7648 1.70885 -0.136696
  347 81.8997 0.875280 0.860452
  348 70.1134 0.361432 -1.61594
  349 71.9004 2.03809 -1.28499
  350 85.8440 0.387822 1.03364
  351 70.6253 1.31417 -2.34112
  352 77.5540 1.70714 0.913822
  353 73.7863 2.57716 0.0888888
  354 70.8682 2.36324 -2.16999
  355 70.4362 0.127823 -1.13593
  356 82.6525 0.858508 1.48022
  357 70.8588 0.638746 -2.22365
  358 70.8238 1.09307 -2.68628
  359 71.1649 2.82135 -1.54811
  360 88.5873 0.153949 0.864050
  361 79.1658 1.43773 1.57575
  362 72.4349 1.23864 -0.737333
  363 85.4916 0.384577 1.41553
  364 70.6051 2.22365 -2.78599
  365 75.7734 2.23940 1.09790
  366 69.3246 0.276619 -1.08128
  367 85.3697 0.366257 0.494145
  368 77.6137 1.44451 0.336380
  369 81.1965 0.933569 1.91696
  370 71.5937 3.19805 -0.762653
  371 73.0009 2.98062 0.187408
  372 70.0140 0.445549 -0.566330
  373 83.7131 0.566281 1.83151
  374 70.7453 1.73420 -3.06238
  375 70.5024 2.99484 -2.29640
  376 70.7810 0.0377677 -0.699874
  377 90.5147 0.0420157 0.593100
  378 69.5454 0.130223 -1.06454
  379 70.1355 0.691528 -1.72819
  380 71.0538 0.292533 -1.70083
  381 75.5268 1.12308 -0.0556295
  382 70.9075 1.54321 -1.85202
  383 80.0116 1.23774 1.12389
  384 88.2554 0.136191 1.12352
  385 88.8553 0.0939800 0.642892
  386 71.0713 1.03432 -2.83396
  387 80.7710 0.899217 0.402529
  388 71.7823 1.57828 -1.23069
  389 77.6539 1.72787 1.81635
  390 74.5349 2.56223 0.962345
  391 68.8730 0.154167 -0.914093
  392 75.5081 1.96250 0.260200
  393 68.3084 0.151871 -0.390816
  394 83.7477 0.674608 1.10889
  395 72.4208 2.60013 -0.809980
  396 73.5574 2.00641 -0.499436
  397 70.4811 0.964259 -2.19723
  398 70.9076 0.150878 -1.26239
  399 70.4093 2.62115 -2.91218
  400 70.7722 3.27493 -1.60824
  401 85.8789 0.248122 1.60315
  402 71.1721 0.638060 -2.41435
  403 86.9628 0.280206 0.601287
  404 72.9827 0.936282 -0.305508
  405 72.6678 1.75299 -0.885593
  406 70.7471 1.69233 -2.34671
  407 70.1864 0.0231473 -0.555568
  408 80.1318 1.11483 2.07427
  409 70.8695 1.64527 -3.28694
  410 71.3280 1.81605 -1.63388
  411 71.8641 3.28254 -0.219849
  412 89.5681 0.0722136 0.836769
  413 75.3672 2.36733 1.46702
  414 89.9897 0.0938414 0.511685
  415 82.5623 0.664519 1.97606
  416 70.6074 2.14762 -3.21515
  417 70.2670 0.318781 -1.53203
  418 71.0142 0.839824 -0.742762
  419 77.5577 1.78341 1.35856
  420 69.6186 0.0494424 -0.635027
  421 74.8597 2.40661 0.580310
  422 70.5289 0.751958 -2.15234
  423 84.4298 0.585650 1.35537
  424 74.3236 1.33545 -0.272772
  425 80.8074 1.16773 1.53399
  426 83.5228 0.581259 0.760046
  427 78.7671 1.45332 0.791048
  428 69.8696 0.542720 -0.954919
  429 70.2743 3.32652 -2.06486
  430 71.4432 0.492200 -2.20181
  431 70.7542 3.42349 -1.19431
  432 78.0670 1.16099 0.217739
  433 87.1774 0.256208 1.21645
  434 70.2298 2.99115 -2.78824
  435 71.2665 2.32700 -1.72746
  436 84.7177 0.389805 1.79512
  437 87.2228 0.140959 1.37846
  438 69.5959 0.353201 -1.33110
  439 71.3543 0.884440 -2.80240
  440 71.0568 1.35393 -3.13164
  441 67.9356 0.0391665 -0.575086
  442 76.6618 1.96458 1.85472
  443 78.7052 1.45027 2.06757
  444 70.7487 1.95932 -3.36207
  445 72.5341 2.86094 -0.429564
  446 81.3486 0.837771 2.12854
  447 70.3981 2.52891 -3.18380
  448 71.0906 3.46734 -0.683097
  449 70.5418 1.11458 -1.92203
  450 81.7417 1.00100 1.18213
  451 83.1878 0.606051 0.458250
  452 70.1326 3.25298 -2.49164
  453 73.3281 2.88710 0.741004
  454 83.7580 0.439858 1.95852
  455 87.4272 0.181519 0.298461
  456 76.1401 1.59958 0.177449
  457 78.8228 1.47864 1.28433
  458 71.5065 0.761304 -0.515775
  459 91.3402 0.0248723 0.479409
  460 76.1079 2.05480 0.755300
  461 72.3903 3.20121 0.316543
  462 70.6245 0.360004 -1.70100
  463 70.5777 2.53766 -2.51422
  464 70.7192 3.00435 -1.91900
  465 85.4933 0.421857 0.825420
  466 70.7329 1.37953 -2.69824
  467 70.6735 1.73345 -2.76922
  468 70.1331 0.642272 -1.39711
  469 87.6192 0.211912 0.908990
  470 84.7546 0.453219 1.68181
  471 76.0668 1.41333 0.00805770
  472 79.8704 1.12167 0.618742
  473 83.8054 0.606698 1.63474
  474 71.1489 0.0990179 -1.10223
  475 71.8464 2.48909 -1.22991
  476 71.2167 3.12736 -1.21163
  477 68.1015 0.189254 -0.314954
  478 74.1393 2.68113 1.21331
  479 86.7250 0.236647 1.37545
  480 71.5001 0.328961 -1.88816
  481 70.5639 0.551179 -0.211652
  482 69.4915 0.263310 -1.25435
  483 71.0779 0.826861 -2.60762
  484 82.4517 0.788090 1.69679
  485 71.3559 0.228062 -1.51630
  486 90.3109 0.0329395 0.784344
  487 76.6285 2.07212 1.53289
  488 88.7524 0.0701505 0.357547
  489 88.2567 0.0966900 1.24063
  490 70.8563 0.00899423 -0.394722
  491 68.8181 0.0478140 -0.680992
  492 81.8418 0.804851 0.683653
  493 85.3264 0.352395 0.220290
  494 86.1300 0.378964 1.17365
  495 70.8956 0.927932 -2.55875
  496 71.0129 2.01248 -2.03959
  497 71.0350 0.472014 -2.05366
  498 71.2856 1.15013 -3.06788
  499 73.1845 2.43408 -0.437678
  500 74.2762 2.18087 -0.0669866
  501 70.7406 0.0686341 -0.928382
  502 76.8893 1.74496 0.532385
  503 70.8720 2.71785 -2.02000
  504 91.6809 -0.0161835 0.264868
  505 70.7578 2.13902 -2.38087
  506 73.6067 1.52645 -0.535625
  507 71.1867 1.06429 -1.15571
  508 80.0478 1.25802 1.81393
  509 73.8881 2.70050 0.508229
  510 77.5969 1.68226 2.07574
  511 70.0718 0.161955 -1.20278
  512 70.4877 0.489068 -1.85496
  513 89.1392 0.0926255 1.00930
  514 68.4110 0.0783551 -0.657030
  515 82.0425 0.710043 0.250132
  516 70.4301 0.0113974 -0.341346
  517 70.8459 1.39828 -2.99014
  518 68.8447 0.0347576 -0.498192
  519 88.0793 0.102241 0.127201
  520 67.0501 0.229379 -0.337685
  521 71.7959 2.87392 -0.980699
  522 70.1414 0.538115 -1.75023
  523 80.4948 1.15872 0.963580
  524 91.2336 -0.00249194 0.238010
  525 92.2072 0.0288321 0.238901
  526 70.3162 3.52349 -1.66445
  527 71.1682 1.38925 -1.47682
  528 89.4951 0.0556786 0.832378
  529 89.9838 0.0223910 0.229329
  530 87.3223 0.225104 0.707521
  531 74.8580 2.26822 0.325448
  532 88.8645 0.145501 0.770319
  533 72.6107 2.26601 -0.857238
  534 70.2017 2.81890 -3.10791
  535 70.4573 1.04980 -2.08913
  536 79.5825 0.957259 0.123980
  537 71.4944 0.689255 -2.57263
  538 83.1727 0.809234 1.27509
  539 78.8491 1.44313 1.80502
  540 68.0603 0.0426991 -0.469237
  541 70.6383 1.01568 1.49488
  542 74.7640 1.70950 0.136778
  543 81.8994 0.875590 -0.860862
  544 70.1150 0.361543 1.61662
  545 71.8997 2.03872 1.28556
  546 85.8443 0.387838 -1.03408
  547 70.6258 1.31454 2.34207
  548 77.5530 1.70756 -0.914253
  549 73.7849 2.57778 -0.0889516
  550 70.8677 2.36384 2.17084
  551 70.4386 0.127859 1.13639
  552 82.6524 0.858468 -1.48084
  553 70.8605 0.638905 2.22450
  554 70.8249 1.09335 2.68729
  555 71.1637 2.82204 1.54871
  556 88.5883 0.153871 -0.864339
  557 79.1650 1.43777 -1.57648
  558 72.4345 1.23916 0.737708
  559 85.4919 0.384346 -1.41600
  560 70.6051 2.22417 2.78703
  561 75.7720 2.23974 -1.09844
  562 69.3255 0.276735 1.08178
  563 85.3699 0.366445 -0.494423
  564 77.6129 1.44509 -0.336552
  565 81.1961 0.933233 -1.91777
  566 71.5921 3.19873 0.762937
  567 72.9992 2.98120 -0.187515
  568 70.0143 0.445762 0.566658
  569 83.7133 0.565825 -1.83214
  570 70.7458 1.73460 3.06350
  571 70.5015 2.99550 2.29725
  572 70.7839 0.0377806 0.700137
  573 90.5161 0.0419636 -0.593247
  574 69.5473 0.130271 1.06500
  575 70.1364 0.691762 1.72894
  576 71.0561 0.292600 1.70148
  577 75.5263 1.12369 0.0556869
  578 70.9075 1.54368 1.85283
  579 80.0110 1.23801 -1.12441
  580 88.2563 0.135964 -1.12377
  581 88.8562 0.0939705 -0.643179
  582 71.0726 1.03456 2.83500
  583 80.7706 0.899693 -0.402712
  584 71.7820 1.57883 1.23126
  585 77.6527 1.72782 -1.81722
  586 74.5332 2.56261 -0.962809
  587 68.8744 0.154226 0.914506
  588 75.5070 1.96311 -0.260316
  589 68.3091 0.151950 0.391073
  590 83.7477 0.674742 -1.10938
  591 72.4196 2.60083 0.810313
  592 73.5564 2.00708 0.499672
  593 70.4820 0.964523 2.19813
  594 70.9102 0.150911 1.26288
  595 70.4089 2.62173 2.91324
  596 70.7708 3.27563 1.60883
  597 85.8794 0.247620 -1.60355
  598 71.1740 0.638208 2.41524
  599 86.9632 0.280304 -0.601593
  600 72.9824 0.936774 0.305672
  601 72.6671 1.75362 0.886008
  602 70.7472 1.69279 2.34764
  603 70.1891 0.0231496 0.555784
  604 80.1312 1.11443 -2.07520
  605 70.8703 1.64565 3.28810
  606 71.3276 1.81661 1.63460
  607 71.8623 3.28315 0.219890
  608 89.5692 0.0720784 -0.836930
  609 75.3656 2.36752 -1.46774
  610 89.9909 0.0938205 -0.511879
  611 82.5623 0.663948 -1.97681
  612 70.6076 2.14810 3.21630
  613 70.2689 0.318880 1.53265
  614 71.0143 0.840186 0.743212
  615 77.5566 1.78362 -1.35921
  616 69.6210 0.0494589 0.635284
  617 74.8582 2.40712 -0.580602
  618 70.5302 0.752150 2.15321
  619 84.4299 0.585598 -1.35591
  620 74.3230 1.33606 0.272951
  621 80.8069 1.16774 -1.53466
  622 83.5227 0.581503 -0.760414
  623 78.7663 1.45377 -0.791421
  624 69.8701 0.542943 0.955425
  625 70.2731 3.32720 2.06559
  626 71.4454 0.492324 2.20261
  627 70.7526 3.42417 1.19473
  628 78.0664 1.16158 -0.217826
  629 87.1781 0.256038 -1.21683
  630 70.2291 2.99179 2.78923
  631 71.2658 2.32763 1.72816
  632 84.7181 0.389206 -1.79563
  633 87.2236 0.140520 -1.37871
  634 69.5972 0.353324 1.33170
  635 71.3560 0.884643 2.80340
  636 71.0579 1.35423 3.13275
  637 67.9369 0.0391892 0.575355
  638 76.6604 1.96454 -1.85563
  639 78.7043 1.44997 -2.06855
  640 70.7492 1.95975 3.36325
  641 72.5326 2.86161 0.429719
  642 81.3484 0.837177 -2.12942
  643 70.3979 2.52946 3.18492
  644 71.0888 3.46798 0.683317
  645 70.5422 1.11492 1.92286
  646 81.7414 1.00117 -1.18267
  647 83.1877 0.606381 -0.458486
  648 70.1315 3.25365 2.49252
  649 73.3262 2.88754 -0.741377
  650 83.7583 0.439169 -1.95915
  651 87.4277 0.181612 -0.298645
  652 76.1392 1.60020 -0.177532
  653 78.8219 1.47888 -1.28491
  654 71.5065 0.761680 0.516090
  655 91.3417 0.0248206 -0.479469
  656 76.1067 2.05528 -0.755649
  657 72.3883 3.20173 -0.316735
  658 70.6265 0.360095 1.70167
  659 70.5771 2.53827 2.51516
  660 70.7181 3.00503 1.91972
  661 85.4936 0.421978 -0.825815
  662 70.7336 1.37988 2.69928
  663 70.6738 1.73388 2.77028
  664 70.1337 0.642515 1.39777
  665 87.6199 0.211869 -0.909356
  666 84.7549 0.452832 -1.68235
  667 76.0661 1.41397 -0.00805154
  668 79.8699 1.12214 -0.619029
  669 83.8055 0.606468 -1.63534
  670 71.1517 0.0990401 1.10265
  671 71.8453 2.48976 1.23042
  672 71.2153 3.12806 1.21208
  673 68.1020 0.189349 0.315085
  674 74.1374 2.68142 -1.21391
  675 86.7257 0.236336 -1.37581
  676 71.5026 0.329038 1.88885
  677 70.5641 0.551457 0.211828
  678 69.4930 0.263392 1.25490
  679 71.0794 0.827063 2.60859
  680 82.4516 0.787848 -1.69747
  681 71.3585 0.228118 1.51686
  682 90.3122 0.0327990 -0.784433
  683 76.6272 2.07228 -1.53363
  684 88.7531 0.0701810 -0.357750
  685 88.2576 0.0963204 -1.24078
  686 70.8595 0.00900448 0.394875
  687 68.8199 0.0478487 0.681291
  688 81.8415 0.805227 -0.683965
  689 85.3266 0.352612 -0.220423
  690 86.1305 0.378880 -1.17410
  691 70.8970 0.928153 2.55972
  692 71.0126 2.01303 2.04044
  693 71.0370 0.472132 2.05444
  694 71.2870 1.15038 3.06897
  695 73.1832 2.43475 0.437862
  696 74.2750 2.18153 0.0670208
  697 70.7433 0.0686642 0.928736
  698 76.8883 1.74551 -0.532638
  699 70.8712 2.71851 2.02079
  700 91.6826 -0.0162070 -0.264938
  701 70.7575 2.13957 2.38181
  702 73.6060 1.52707 0.535888
  703 71.1867 1.06471 1.15627
  704 80.0472 1.25788 -1.81474
  705 73.8865 2.70101 -0.508485
  706 77.5957 1.68203 -2.07674
  707 70.0739 0.161997 1.20328
  708 70.4894 0.489192 1.85571
  709 89.1402 0.0923920 -1.00941
  710 68.4120 0.0784235 0.657358
  711 82.0423 0.710453 -0.250240
  712 70.4331 0.0113950 0.341474
  713 70.8467 1.39861 2.99124
  714 68.8468 0.0347759 0.498403
  715 88.0798 0.102308 -0.127278
  716 67.0508 0.229406 0.337816
  717 71.7946 2.87461 0.981088
  718 70.1426 0.538279 1.75095
  719 80.4943 1.15908 -0.964014
  720 91.2351 -0.00250994 -0.238103
  721 92.2090 0.0288282 -0.238937
  722 70.3146 3.52418 1.66503
  723 71.1681 1.38973 1.47750
  724 89.4962 0.0555733 -0.832605
  725 89.9849 0.0223975 -0.229479
  726 87.3229 0.225145 -0.707869
  727 74.8567 2.26882 -0.325603
  728 88.8654 0.145476 -0.770624
  729 72.6097 2.26669 0.857620
  730 70.2013 2.81949 3.10899
  731 70.4580 1.05011 2.09000
  732 79.5821 0.957797 -0.124051
  733 71.4963 0.689405 2.57355
  734 83.1726 0.809305 -1.27565
  735 78.8482 1.44302 -1.80587
  736 68.0618 0.0427079 0.469451
  737 55.4039 8.34804 3.67072
  738 55.4108 8.34637 -3.66983
  739 84.3240 -6.98331 7.69142
  740 84.3461 -7.01726 -7.68285
  741 71.3721 3.78478 7.53647
  742 71.3711 3.78450 -7.53464
  743 63.4651 0.542081 -17.4910
  744 63.4743 0.535443 17.4940
  745 97.8398 0.392645 7.93390
  746 97.8483 1.40193 -8.01722
  747 75.8326 3.72111 -11.9930
  748 75.8360 3.72005 11.9949
  749 94.9981 -11.4236 11.7090
  750 94.9689 -11.4190 -11.6958
  751 69.0581 2.99544 -5.43340
  752 69.0621 2.99730 5.43138
  753 88.3434 -2.17440 1.08527
  754 88.3464 -2.17764 -1.08315
  755 59.4894 -4.56842 17.7487
  756 59.4768 -4.56203 -17.7438
  757 65.6308 6.02688 3.08807
  758 65.6335 6.02627 -3.08739
  759 74.1786 1.12563 -4.29919
  760 74.1814 1.12578 4.30040
  761 89.1530 7.29361 -0.227662
  762 91.8109 -3.54843 3.79370
  763 91.8076 -3.54663 -3.78934
  764 87.9466 1.32229 -14.1685
  765 87.9538 1.31941 14.1676
  766 79.2439 1.70546 7.48665
  767 79.2398 1.70557 -7.48523
  768 98.7659 -13.6743 -7.16609
  769 98.3839 -13.9754 7.61982
  770 125.055 -9.19579 5.82501
  771 125.044 -9.14296 -5.83424
  772 100.014 -1.90881 -12.6742
  773 100.024 -1.91269 12.6702
  774 79.9920 -0.874299 4.61842
  775 79.9921 -0.877577 -4.62104
  776 108.297 20.1279 2.70988
  777 36.1374 3.64492 -0.649932
  778 36.1633 3.63898 0.656579
  779 140.076 4.67261 -11.4198
  780 138.837 4.51110 11.7484
  781 141.396 12.1438 1.51702
  782 88.7682 1.35282 -9.86623
  783 88.7743 1.35197 9.86659
  784 69.1738 4.11906 -4.96113
  785 69.1733 4.11965 4.96254
  786 113.856 6.19995 -5.28562
  787 77.4230 0.756849 4.46626
  788 77.4189 0.756803 -4.46518
  789 86.7585 2.07828 -5.48514
  790 86.8533 2.13876 5.58291
  791 65.5885 6.48860 8.91981
  792 65.5896 6.48837 -8.91755
  793 59.8588 6.48872 12.5215
  794 59.8593 6.49063 -12.5168
  795 95.2651 -8.37788 -0.400043
  796 95.2609 -8.39002 0.399561
  797 119.413 -6.78169 -0.498332
  798 119.418 -6.76363 0.484818
  799 58.3091 4.88572 -6.81356
  800 58.3144 4.88737 6.80794
  801 46.6647 -12.3150 -16.7345
  802 46.6969 -12.3226 16.7329
  803 116.042 3.88206 3.15064
  804 68.3560 4.71776 -1.02965
  805 68.3591 4.71764 1.02914
  806 89.8858 -0.506967 -0.795431
  807 89.8847 -0.505908 0.796603
  808 90.8358 -1.46518 1.43375
  809 90.8355 -1.46340 -1.42974
  810 88.8448 -0.877187 5.73266
  811 88.8519 -0.885720 -5.73123
  812 89.6916 -5.12306 1.12398
  813 89.6992 -5.12817 -1.12023
  814 87.2015 0.851453 6.60268
  815 87.1954 0.851682 -6.60195
  816 118.648 -2.74952 -5.84384
  817 118.654 -2.75093 5.83488
  818 72.3486 -1.99043 -10.3266
  819 72.3560 -1.98445 10.3227
  820 73.6818 0.355051 -2.31099
  821 73.6852 0.355116 2.31172
  822 84.6170 -0.950510 2.61472
  823 84.6186 -0.953215 -2.61515
  824 71.5201 2.32394 4.81564
  825 71.5190 2.32357 -4.81420
  826 69.9804 -16.2916 -23.1341
  827 68.1921 -16.0259 23.3514
  828 98.0302 12.6096 -4.85045
  829 74.2292 1.91974 3.87801
  830 74.2268 1.91872 -3.87990
  831 104.743 -0.0298102 -9.42204
  832 104.750 -0.0312561 9.41951
  833 81.4713 -9.96312 -13.5320
  834 81.3270 -9.95514 13.5197
  835 61.0509 6.85906 -0.268269
  836 61.0557 6.85888 0.267220
  837 122.831 -1.70409 -13.8483
  838 122.863 -1.43964 13.7929
  839 33.0863 -11.0463 17.7131
  840 33.0933 -11.0100 -17.8272
  841 117.896 6.46248 -7.27960
  842 92.0020 -16.1282 -10.8061
  843 92.0245 -15.9859 11.1745
  844 66.7255 5.75495 6.16101
  845 66.7269 5.75435 -6.15947
  846 72.7696 4.13700 9.74063
  847 72.7678 4.13716 -9.73862
  848 95.7008 10.1220 5.29800
  849 75.6528 0.335830 -2.65958
  850 75.6568 0.335879 2.66034
  851 98.5572 0.488838 8.33287
  852 98.5503 0.489627 -8.33357
  853 79.6566 -5.54756 -17.3882
  854 79.6671 -5.54844 17.3879
  855 169.188 14.0881 -2.35284
  856 21.1436 -12.0061 -2.78838
  857 21.1283 -12.0196 2.83344
  858 82.1278 0.476327 4.03695
  859 82.1222 0.476326 -4.03616
  860 68.2790 4.66438 3.09190
  861 68.2807 4.66370 -3.09100
  862 81.7092 2.49244 -1.50910
  863 73.0461 3.92319 14.8491
  864 73.0414 3.92614 -14.8470
  865 125.945 -3.82630 -8.56085
  866 125.980 -3.86081 8.59271
  867 85.2665 -3.03498 3.34855
  868 85.2708 -3.04024 -3.34909
  869 95.3293 -3.98031 -5.81163
  870 95.3281 -3.98859 5.82177
  871 90.1186 -1.13181 3.12250
  872 90.1210 -1.13075 -3.11743
  873 111.803 4.49315 8.97413
  874 46.9346 4.94279 10.8609
  875 46.9384 4.94570 -10.8509
  876 48.6462 6.55622 -3.85829
  877 48.6598 6.55225 3.85406
  878 107.478 -9.23907 10.8462
  879 74.2174 2.07071 6.08803
  880 74.2150 2.07051 -6.08651
  881 128.402 24.6970 -1.21242
  882 75.5080 -0.419812 6.67566
  883 75.5050 -0.423099 -6.67905
  884 139.928 -1.12784 0.336777
  885 139.888 -0.968006 -0.527634
  886 101.799 -6.62830 -3.77630
  887 101.528 -6.29842 4.05777
  888 171.750 13.0803 1.30396
  889 82.5129 -0.319272 16.4839
  890 82.5034 -0.314843 -16.4848
  891 102.450 -10.6299 -14.2741
  892 91.3858 -0.664684 0.151767
  893 91.3858 -0.663713 -0.149496
  894 117.923 -1.11982 -7.10531
  895 117.927 -1.12173 7.09945
  896 72.6508 0.928163 -3.47144
  897 72.6531 0.928333 3.47254
  898 61.8718 7.44541 -4.76650
  899 61.8682 7.44622 4.76750
  900 81.0691 2.03797 2.06329
  901 134.412 22.9749 -0.473248
  902 79.8330 2.48469 9.63319
  903 79.8289 2.48512 -9.63176
  904 91.5658 0.181321 -7.29146
  905 91.6823 0.139416 7.29477
  906 80.6408 0.136266 3.29452
  907 80.6409 0.134345 -3.29607
  908 86.9302 -0.459044 -1.69175
  909 86.9289 -0.457530 1.69202
  910 104.219 8.35489 7.85260
  911 66.1912 6.33872 11.3498
  912 66.1910 6.33943 -11.3469
  913 68.5474 4.66397 1.06160
  914 68.5498 4.66341 -1.06135
  915 50.0899 7.94012 5.40381
  916 50.0992 7.93828 -5.39990
  917 92.6781 5.02717 -6.71011
  918 81.9968 -3.46762 -5.88129
  919 81.9946 -3.46153 5.87748
  920 111.598 1.55498 -11.9539
  921 102.051 -5.90507 -11.3309
  922 102.068 -5.91018 11.3275
  923 43.3364 -3.36882 -15.0684
  924 43.3486 -3.38104 15.0788
  925 112.916 1.45109 12.4950
  926 92.6255 -11.2674 6.07602
  927 93.2668 -11.6335 -6.12227
  928 93.2245 0.446517 -5.73333
  929 93.2316 0.446280 5.73357
  930 84.4231 0.248954 -4.65489
  931 84.3853 0.313607 4.65648
  932 68.8844 -17.0567 -16.2976
  933 68.9519 -17.0552 16.1242
  934 71.8739 2.83519 6.05446
  935 71.8727 2.83485 -6.05285
  936 90.7409 -3.42370 -1.34748
  937 90.7441 -3.42626 1.35187
  938 111.039 -12.9841 -3.15510
  939 111.115 -12.9803 3.11356
  940 71.7836 3.27936 2.26822
  941 71.7809 3.27923 -2.26925
  942 104.031 4.45070 1.86231
  943 74.7251 2.69167 7.68706
  944 74.7227 2.69159 -7.68536
  945 82.2763 2.58130 13.3708
  946 82.2707 2.58329 -13.3701
  947 65.4779 5.30440 -1.96680
  948 65.4817 5.30479 1.96574
  949 190.753 16.2175 -0.484358
  950 43.8031 1.40067 -11.8181
  951 43.8219 1.39720 11.8038
  952 85.5453 0.422326 4.37853
  953 85.5391 0.422380 -4.37785
  954 110.425 -8.01571 -10.6064
  955 111.129 -7.77192 9.44865
  956 70.3484 3.02472 4.39486
  957 70.3483 3.02420 -4.39350
  958 72.7838 0.127790 -1.26255
  959 72.7873 0.127821 1.26298
  960 114.828 -0.290386 -6.97228
  961 114.833 -0.291662 6.96855
  962 169.415 8.15478 3.96332
  963 77.7862 0.216400 2.19850
  964 77.7813 0.216372 -2.19793
  965 80.2390 0.231998 -2.68791
  966 80.2444 0.232006 2.68853
  967 128.101 -1.88641 -1.77582
  968 128.095 -1.88391 1.76862
  969 103.227 6.36026 -7.89782
  970 64.5091 -0.567341 -12.5708
  971 64.5077 -0.557396 12.5612
  972 165.552 8.52922 -4.60489
  973 88.9276 5.81627 3.93276
  974 91.1566 -0.115181 -0.711148
  975 91.1555 -0.114820 0.711612
  976 69.5197 4.20929 6.09415
  977 69.5198 4.20879 -6.09253
  978 130.342 -2.13194 2.60010
  979 130.328 -2.12091 -2.59533
  980 90.5276 -7.68822 2.95872
  981 90.5635 -7.71430 -2.95596
  982 92.7359 -5.84577 -1.57253
  983 92.7392 -5.84709 1.57900
  984 97.5125 14.2964 0.566823
  985 61.9852 4.68209 15.0820
  986 61.9819 4.68626 -15.0773
  987 69.4485 5.02634 8.44951
  988 69.4482 5.02610 -8.44750
  989 80.2116 0.910440 -2.91734
  990 108.836 -5.94725 -1.17474
  991 133.053 13.9138 8.26676
  992 109.890 17.2425 -5.48017
  993 69.2594 3.87094 3.74582
  994 69.2603 3.87030 -3.74465
  995 88.2627 -0.590041 -3.49845
  996 88.2570 -0.589039 3.50268
  997 66.3456 2.29804 -7.83790
  998 66.3496 2.30190 7.83501
  999 67.2734 5.30907 4.56689
  1000 67.2750 5.30841 -4.56569
  1001 87.9774 5.43603 -3.51762
  1002 59.7319 7.79984 8.05174
  1003 59.7354 7.79930 -8.04914
  1004 76.7680 1.51053 3.17239
  1005 76.7665 1.50963 -3.17401
  1006 78.6797 1.17932 -5.74431
  1007 78.6839 1.17934 5.74554
  1008 69.9510 3.63444 -3.21576
  1009 69.9543 3.63503 3.21442
  1010 76.3178 2.23360 16.0649
  1011 76.3107 2.23775 -16.0640
  1012 106.018 0.266053 6.20425
  1013 106.011 0.266563 -6.20541
  1014 92.7824 3.81239 7.25890
  1015 56.5950 7.38366 -1.48908
  1016 56.6019 7.38276 1.48674
  1017 123.141 -1.82729 -9.78122
  1018 123.227 -1.79187 9.75376
  1019 95.1640 -0.506669 13.7985
  1020 95.1553 -0.503198 -13.8013
  1021 71.5136 -10.5719 18.9283
  1022 71.4275 -10.5839 -19.0725
  1023 110.440 -7.61965 6.64692
  1024 110.418 -7.61932 -6.65740
  1025 86.4708 -5.30271 4.23593
  1026 86.4794 -5.30956 -4.23684
  1027 88.0518 -1.11799 -1.33991
  1028 88.0500 -1.11582 1.34109
  1029 71.7689 1.66641 4.09576
  1030 71.7674 1.66610 -4.09447
  1031 107.209 -7.33979 1.16764
  1032 62.8755 5.07099 -4.47793
  1033 62.8799 5.07257 4.47543
  1034 61.5380 -5.68285 18.4772
  1035 61.5232 -5.67694 -18.4795
  1036 74.6098 0.124032 -1.54205
  1037 74.6138 0.124046 1.54252
  1038 80.5210 0.705351 3.25894
  1039 53.7780 3.12159 -10.1299
  1040 53.7859 3.12113 10.1194
  1041 89.9790 -1.65269 -0.0822931
  1042 89.9806 -1.65492 0.0852869
  1043 91.2569 -0.494901 1.54238
  1044 91.2603 -0.494061 -1.53884
  1045 66.4182 5.61403 0.707515
  1046 66.4213 5.61363 -0.707529
  1047 82.5534 -12.1383 21.6735
  1048 91.6395 -2.46037 -5.68283
  1049 91.6449 -2.45831 5.69016
  1050 40.3966 -19.2632 20.9303
  1051 40.2082 -18.5624 -21.3070
  1052 122.464 5.99915 -11.8313
  1053 79.0241 -5.97046 -10.7511
  1054 78.9781 -5.97426 10.7805
  1055 92.1111 -0.161305 -0.281772
  1056 92.1106 -0.160943 0.282769
  1057 69.8995 4.16235 -0.402662
  1058 69.9021 4.16197 0.402420
  1059 72.5972 0.355877 2.19067
  1060 72.5943 0.355804 -2.18993
  1061 82.5739 2.34966 10.7573
  1062 82.5690 2.35049 -10.7562
  1063 79.1663 -3.99237 8.48494
  1064 79.1617 -4.00077 -8.48973
  1065 72.5898 1.66353 4.55572
  1066 72.5880 1.66327 -4.55437
  1067 125.841 -4.43049 11.8371
  1068 125.808 -4.46806 -11.8212
  1069 83.1931 -1.61280 3.62023
  1070 83.1952 -1.61665 -3.62164
  1071 75.5875 0.983478 4.40608
  1072 75.5841 0.983362 -4.40492
  1073 76.8574 -10.6489 -17.2939
  1074 76.8539 -10.6390 17.2945
  1075 83.0422 1.07630 6.69446
  1076 83.0370 1.07645 -6.69341
  1077 88.7505 -0.241254 -1.24626
  1078 88.7495 -0.240405 1.24663
  1079 134.635 -1.59423 -11.6660
  1080 134.757 -1.52194 11.6673
  1081 20.9135 -27.7677 -6.13951
  1082 20.9416 -27.7755 6.10666
  1083 126.772 -0.907610 -3.91523
  1084 126.770 -0.908435 3.90890
  1085 54.0063 -10.0362 21.9274
  1086 54.3826 -10.0040 -21.7733
  1087 99.0148 0.231124 5.10943
  1088 99.0072 0.231358 -5.10958
  1089 92.0808 -0.446497 0.690422
  1090 92.0825 -0.445849 -0.687920
  1091 15.0105 -25.6779 -7.78776
  1092 15.2297 -25.4800 8.06590
  1093 91.1546 0.264343 -4.14941
  1094 91.1618 0.264245 4.14979
  1095 72.3981 1.80741 5.31772
  1096 72.3946 1.80565 -5.32007
  1097 25.0252 -4.99237 -5.52973
  1098 25.0846 -5.00983 5.53455
  1099 37.0252 -22.9929 11.6513
  1100 37.0026 -23.0362 -11.6521
  1101 89.2072 -3.59280 0.657718
  1102 89.2117 -3.59676 -0.654467
  1103 64.0062 6.31192 0.708540
  1104 64.0100 6.31163 -0.708802
  1105 90.7608 1.30328 -11.0539
  1106 90.7672 1.30195 11.0537
  1107 121.105 -7.98050 3.40579
  1108 121.093 -7.94021 -3.41745
  1109 70.6220 -5.86137 -15.3819
  1110 70.5875 -5.82645 15.3563
  1111 93.4945 -15.6245 16.0167
  1112 96.6282 0.681337 -10.9594
  1113 96.6350 0.679740 10.9581
  1114 90.9484 -2.37764 -2.84117
  1115 90.9498 -2.37967 2.84597
  1116 85.6971 -1.84557 2.52172
  1117 85.6999 -1.84925 -2.52157
  1118 82.9608 0.0344834 2.56272
  1119 82.9614 0.0328713 -2.56357
  1120 112.434 16.0564 5.81995
  1121 55.8106 -19.4411 -12.2137
  1122 55.8606 -19.0298 11.9459
  1123 69.7847 -13.3582 -22.3759
  1124 140.679 10.5245 7.07825
  1125 92.7964 8.95599 -4.02076
  1126 87.2815 -15.8142 -16.3261
  1127 36.5350 1.69338 7.73809
  1128 36.5462 1.69666 -7.72160
  1129 71.2737 4.99563 11.3522
  1130 71.2720 4.99624 -11.3498
  1131 83.7287 3.62587 0.930018
  1132 85.5123 -0.160942 -3.83610
  1133 85.5071 -0.144586 3.83819
  1134 105.256 -1.31507 6.37524
  1135 112.880 0.138402 -5.16993
  1136 112.886 0.137946 5.16828
  1137 142.086 12.3594 -4.47098
  1138 88.2490 -14.0119 13.8712
  1139 70.6129 3.30244 -5.51943
  1140 70.6133 3.30289 5.52098
  1141 97.9300 -3.90533 -6.07479
  1142 98.3244 -3.67534 6.24912
  1143 73.4073 1.90174 5.42842
  1144 73.4052 1.90151 -5.42694
  1145 91.3696 2.53017 -3.14068
  1146 76.5072 0.409821 -4.88065
  1147 76.5090 0.412019 4.87800
  1148 139.073 8.51650 -9.62414
  1149 73.7630 2.62523 -2.56333
  1150 73.7653 2.62550 2.56210
  1151 111.677 0.0538199 10.9728
  1152 110.976 -2.70260 -9.13107
  1153 110.985 -2.70596 9.12439
  1154 99.3318 2.01383 -8.43393
  1155 111.306 0.146037 -10.8816
  1156 74.6461 0.557839 -3.17556
  1157 74.6495 0.557928 3.17648
  1158 89.8503 -1.42355 -4.74007
  1159 89.8498 -1.42103 4.74577
  1160 76.7926 1.04529 0.140652
  1161 76.6352 2.95622 9.35215
  1162 76.6321 2.95645 -9.35043
  1163 105.522 -1.05283 -6.35245
  1164 64.4117 6.55609 4.47723
  1165 64.4144 6.55541 -4.47624
  1166 86.1604 -9.36626 9.28396
  1167 86.8535 -9.76479 -9.14019
  1168 70.6455 4.99047 13.1920
  1169 70.6429 4.99216 -13.1894
  1170 70.9931 2.25702 4.18295
  1171 70.9924 2.25660 -4.18162
  1172 89.6636 -1.05316 0.576218
  1173 89.6649 -1.05491 -0.574260
  1174 59.3368 7.85470 2.88751
  1175 59.3419 7.85372 -2.88731
  1176 70.6648 0.727461 7.65098
  1177 70.6603 0.723947 -7.65392
  1178 84.7277 0.200066 2.59025
  1179 84.7212 0.200075 -2.58978
  1180 98.9892 -11.1708 2.15646
  1181 99.5528 -11.0599 -1.83268
  1182 76.4806 1.53886 5.93222
  1183 76.4772 1.53876 -5.93083
  1184 73.6038 0.0823285 1.21737
  1185 73.6000 0.0823178 -1.21698
  1186 130.591 -1.62079 -4.79008
  1187 130.603 -1.63323 4.80847
  1188 76.5406 0.101479 -1.36296
  1189 76.5454 0.101486 1.36335
  1190 89.0988 -2.62886 15.4751
  1191 89.0877 -2.62483 -15.4770
  1192 155.684 25.4078 -0.771143
  1193 64.5446 6.77415 6.49401
  1194 64.5468 6.77351 -6.49242
  1195 88.0491 1.07986 8.21916
  1196 88.0431 1.08033 -8.21853
  1197 87.6148 0.705449 -6.17545
  1198 87.7341 0.684989 6.24356
  1199 215.072 13.0192 6.42413
  1200 102.361 13.7814 5.80761
  1201 44.5207 6.90715 0.356863
  1202 44.5372 6.90229 -0.355066
  1203 68.8088 4.37561 2.12905
  1204 68.8107 4.37495 -2.12841
  1205 209.596 14.0214 -6.38559
  1206 85.0221 -0.150159 -2.09706
  1207 85.0211 -0.148736 2.09673
  1208 98.1620 -14.8855 -9.29460
  1209 98.2772 -14.8938 9.32899
  1210 69.1242 4.75585 -7.06790
  1211 69.1241 4.75630 7.06967
  1212 97.1300 1.44735 7.83927
  1213 92.0225 2.00856 4.92839
  1214 90.6200 -13.3447 -11.3169
  1215 62.2119 7.18122 -2.46551
  1216 62.2079 7.18187 2.46569
  1217 94.8399 -6.01802 3.36318
  1218 94.8416 -6.01862 -3.35417
  1219 71.8932 4.02551 8.63700
  1220 71.8919 4.02541 -8.63505
  1221 104.545 -0.559286 10.9482
  1222 104.537 -0.556698 -10.9520
  1223 108.760 -10.5638 -5.60664
  1224 108.798 -10.5613 5.59277
  1225 97.4838 6.77711 -7.56154
  1226 75.4732 3.64807 10.6761
  1227 75.4703 3.64861 -10.6742
  1228 103.070 17.8991 -1.67429
  1229 98.0794 6.38603 7.79276
  1230 89.2840 0.233657 -3.33123
  1231 89.2912 0.233599 3.33165
  1232 115.741 -12.7993 -1.57222
  1233 115.879 -12.6785 1.41069
  1234 82.3146 0.101543 -2.27072
  1235 82.3207 0.101529 2.27120
  1236 78.7856 0.259067 -3.99533
  1237 78.7863 0.261123 3.99319
  1238 31.9905 -11.2911 12.7878
  1239 31.9707 -11.2710 -12.7753
  1240 56.0078 7.91804 8.90467
  1241 56.0123 7.91777 -8.90058
  1242 125.233 0.816016 -14.5140
  1243 104.341 0.249623 4.48211
  1244 104.334 0.249858 -4.48259
  1245 92.6623 10.0247 2.63230
  1246 122.021 25.0056 1.26733
  1247 73.8512 -2.01712 -17.9496
  1248 73.8618 -2.02187 17.9493
  1249 95.0170 -1.19910 -7.42659
  1250 95.0146 -1.32150 7.37401
  1251 77.5766 -6.98487 -15.1342
  1252 79.7428 -8.60559 15.2290
  1253 69.1374 4.00531 2.99058
  1254 69.1387 4.00463 -2.98965
  1255 66.8619 5.40216 2.36272
  1256 66.8644 5.40157 -2.36216
  1257 68.4711 4.48559 4.14212
  1258 68.4723 4.48495 -4.14093
  1259 123.560 -0.382534 -4.46800
  1260 123.561 -0.383229 4.46437
  1261 82.5153 -2.42316 4.61805
  1262 82.5177 -2.42813 -4.62057
  1263 164.146 8.67322 17.0152
  1264 125.364 0.712377 14.3790
  1265 85.3239 3.40354 3.62531
  1266 149.111 3.98601 -4.86963
  1267 76.4010 0.597358 -1.14907
  1268 55.9179 3.54672 14.9963
  1269 55.9138 3.55232 -14.9897
  1270 133.818 5.65348 20.3238
  1271 118.380 7.17794 -2.08488
  1272 50.7682 8.05807 0.997723
  1273 50.7789 8.05501 -0.997893
  1274 79.7701 2.72107 -15.0158
  1275 79.7763 2.71796 15.0166
  1276 118.730 7.45282 19.7323
  1277 55.2256 5.74601 12.9996
  1278 55.2258 5.74911 -12.9929
  1279 84.0240 1.64690 9.10246
  1280 84.0188 1.64740 -9.10144
  1281 167.106 15.1320 1.97592
  1282 122.277 7.55783 4.82616
  1283 152.230 22.7894 6.92723
  1284 127.749 1.92535 -16.4587
  1285 97.8873 -7.10366 -3.37996
  1286 97.8836 -7.06759 3.39855
  1287 131.680 -5.45900 7.58174
  1288 131.630 -5.56005 -7.52409
  1289 87.6521 -4.20953 -2.31385
  1290 87.6460 -4.20408 2.31555
  1291 73.6089 0.692148 3.26770
  1292 73.6060 0.692024 -3.26671
  1293 79.0879 -1.61698 5.87196
  1294 79.0874 -1.62110 -5.87570
  1295 88.6270 -8.57364 -14.9979
  1296 88.6403 -8.57423 15.0029
  1297 61.9542 7.45686 7.17733
  1298 61.9572 7.45623 -7.17538
  1299 112.840 -5.29972 -2.32091
  1300 84.3373 2.80092 -3.70578
  1301 157.232 9.01191 -20.0745
  1302 144.992 18.5916 -12.5754
  1303 93.6755 2.34345 -7.71986
  1304 194.964 12.4286 -13.4696
  1305 89.1863 -0.373991 -2.25507
  1306 89.1778 -0.374466 2.25919
  1307 90.1627 -2.51944 -0.612488
  1308 90.1651 -2.52208 0.616269
  1309 116.171 -0.755470 -8.89675
  1310 72.9831 0.870556 17.1931
  1311 72.9743 0.875719 -17.1921
  1312 86.4456 -1.00189 -1.94797
  1313 86.4437 -0.999461 1.94839
  1314 134.665 -0.968720 0.470607
  1315 134.649 -0.965342 -0.472268
  1316 87.1078 -2.86943 2.04359
  1317 87.1119 -2.87389 -2.04228
  1318 72.3047 0.708694 -2.92266
  1319 72.3070 0.708840 2.92363
  1320 125.077 4.40628 12.7334
  1321 119.009 -4.54696 -3.63161
  1322 119.017 -4.54347 3.62048
  1323 76.8513 3.59281 13.2728
  1324 76.8470 3.59456 -13.2711
  1325 88.8813 -16.7799 -18.6353
  1326 44.6402 -4.40962 17.4509
  1327 44.6328 -4.40401 -17.4756
  1328 120.115 4.21321 -11.7521
  1329 93.2410 -4.20188 -4.80570
  1330 93.2441 -4.20337 4.80812
  1331 69.0166 5.44311 9.67815
  1332 69.0162 5.44313 -9.67592
  1333 92.7916 -9.38603 -3.28825
  1334 92.7713 -9.39108 3.22659
  1335 94.4755 0.807626 8.49407
  1336 94.4687 0.808310 -8.49423
  1337 10.8009 -35.8384 2.08473
  1338 10.9055 -36.0996 -2.04229
  1339 203.402 13.3775 14.5919
  1340 118.473 2.45901 0.377884
  1341 79.7777 0.226765 -2.78408
  1342 121.890 15.0239 -3.76335
  1343 72.0299 1.15307 -3.48851
  1344 72.0317 1.15330 3.48965
  1345 104.582 -12.1691 6.05859
  1346 92.7128 -1.87012 -6.72644
  1347 92.7148 -1.86174 6.72752
  1348 132.148 -0.837173 -2.24800
  1349 132.140 -0.837135 2.24206
  1350 76.7361 0.537252 3.46175
  1351 76.7320 0.537201 -3.46084
  1352 65.9091 5.55439 13.8669
  1353 65.9068 5.55685 -13.8634
  1354 149.691 9.39421 7.40100
  1355 101.741 2.72841 -23.1867
  1356 92.8709 -0.220647 0.0523841
  1357 92.8712 -0.220317 -0.0511893
  1358 41.6897 5.82217 5.07420
  1359 41.7037 5.82055 -5.06530
  1360 91.1145 -4.80569 -0.888578
  1361 91.1191 -4.80827 0.893615
  1362 117.243 -0.743979 9.38026
  1363 72.6402 2.87740 6.59184
  1364 72.6387 2.87711 -6.59017
  1365 76.6539 0.520872 1.50679
  1366 86.6469 0.742633 15.1502
  1367 86.6388 0.746265 -15.1513
  1368 53.6037 5.63054 -5.67548
  1369 53.6125 5.62986 5.66947
  1370 127.234 -1.22740 6.61469
  1371 127.286 -1.22418 -6.58585
  1372 79.2654 0.114123 1.66529
  1373 79.2599 0.114112 -1.66487
  1374 81.2244 1.01373 6.10531
  1375 81.2196 1.01380 -6.10419
  1376 35.4584 0.174100 -9.53827
  1377 35.4985 0.164734 9.52953
  1378 77.0336 1.95949 7.04974
  1379 77.0302 1.95946 -7.04825
  1380 92.7187 -0.0606331 -0.330333
  1381 92.7176 -0.0604691 0.330776
  1382 81.3012 -0.624574 3.75662
  1383 81.3019 -0.627418 -3.75843
  1384 22.6654 -29.3036 -12.7687
  1385 21.0534 -28.4085 12.7329
  1386 103.342 -13.1054 -7.75361
  1387 67.8122 5.10609 -5.70716
  1388 67.8111 5.10669 5.70864
  1389 79.1585 0.949495 2.93975
  1390 79.1578 0.948408 -2.94119
  1391 91.1090 -0.977113 0.622762
  1392 91.1091 -0.975814 -0.619686
  1393 96.3681 0.457245 -12.3402
  1394 96.3754 0.454879 12.3382
  1395 146.586 3.12894 6.62498
  1396 90.1035 2.06802 -6.86556
  1397 72.1912 2.32809 -5.29867
  1398 72.1927 2.32842 5.30016
  1399 74.2962 -1.45973 -8.53202
  1400 74.3003 -1.45460 8.52807
  1401 74.4426 1.58881 5.20842
  1402 74.4399 1.58862 -5.20705
  1403 127.596 -0.419630 -3.79672
  1404 127.594 -0.420231 3.79227
  1405 69.9327 3.19685 3.91282
  1406 69.9331 3.19627 -3.91157
  1407 125.993 -4.38486 -5.13531
  1408 126.016 -4.41049 5.14493
  1409 159.118 9.90772 -5.33428
  1410 71.9821 0.0357289 0.702541
  1411 71.9787 0.0357254 -0.702296
  1412 79.1798 0.668817 4.43217
  1413 79.1752 0.668799 -4.43118
  1414 62.0733 7.00974 11.2609
  1415 62.0743 7.01053 -11.2573
  1416 66.3839 5.35963 0.914931
  1417 66.3804 5.35965 -0.915517
  1418 112.762 22.3201 -2.09714
  1419 124.574 -7.25834 7.98474
  1420 124.530 -7.22360 -7.97736
  1421 71.6882 -3.83719 -12.7411
  1422 71.6949 -3.81401 12.7457
  1423 84.4654 2.06757 11.8104
  1424 84.4600 2.06892 -11.8096
  1425 41.3838 4.44306 5.53644
  1426 41.3603 4.45090 -5.54037
  1427 89.8826 1.95016 6.79081
  1428 160.752 15.0765 -0.791734
  1429 59.4476 6.28496 -3.02932
  1430 59.4531 6.28550 3.02663
  1431 71.3655 3.62119 -1.15917
  1432 71.3680 3.62094 1.15863
  1433 125.199 13.9389 1.53474
  1434 87.2400 -0.148350 -1.55432
  1435 87.2390 -0.147334 1.55440
  1436 67.8290 4.55114 -2.46257
  1437 67.8326 4.55155 2.46153
  1438 83.8512 1.03749 -4.64424
  1439 125.865 -3.27444 0.0800299
  1440 125.859 -3.26550 -0.0859874
  1441 51.9844 -13.9463 20.0630
  1442 80.0520 0.232013 2.84302
  1443 100.798 -1.77710 7.02497
  1444 79.8060 1.99542 8.41642
  1445 79.8019 1.99565 -8.41503
  1446 100.853 -2.02043 -6.94906
  1447 90.7939 -1.45435 2.25989
  1448 90.7945 -1.45265 -2.25529
  1449 88.8681 -8.59232 5.92338
  1450 88.7688 -8.65591 -5.97195
  1451 88.9821 -12.1869 10.6991
  1452 67.1348 5.70529 7.31770
  1453 67.1357 5.70483 -7.31590
  1454 98.7226 0.208267 2.95804
  1455 98.7144 0.208329 -2.95801
  1456 69.6838 4.19552 0.562675
  1457 69.6861 4.19496 -0.562553
  1458 109.414 3.88098 6.81577
  1459 74.8704 3.17470 8.70646
  1460 74.8679 3.17472 -8.70466
  1461 63.0757 1.95768 -9.62085
  1462 63.0787 1.96338 9.61550
  1463 90.7407 -2.18187 -3.89567
  1464 90.7421 -2.18319 3.90097
  1465 73.2629 1.13699 -4.02833
  1466 73.2653 1.13717 4.02953
  1467 117.861 0.0842872 -4.42564
  1468 117.866 0.0838387 4.42363
  1469 72.1671 2.95390 3.15769
  1470 72.1643 2.95339 -3.15911
  1471 88.3153 -0.602898 -1.31067
  1472 88.3140 -0.601442 1.31146
  1473 59.1030 8.04428 -4.58129
  1474 59.0981 8.04535 4.58229
  1475 92.1933 -0.0247426 -0.423683
  1476 92.1918 -0.0246410 0.423819
  1477 84.9048 3.87308 -1.69246
  1478 54.0734 7.37489 -9.63412
  1479 54.0690 7.37442 9.63940
  1480 84.5152 -3.87134 4.47798
  1481 84.5199 -3.87791 -4.48013
  1482 92.9792 -7.54888 0.379510
  1483 92.9841 -7.54958 -0.364979
  1484 64.3666 6.72486 9.94232
  1485 64.3677 6.72494 -9.93960
  1486 109.545 -1.27942 9.61352
  1487 109.538 -1.27649 -9.61886
  1488 90.6385 -0.357272 1.67228
  1489 90.6451 -0.356665 -1.66872
  1490 89.4076 3.99672 -5.80796
  1491 27.4325 -2.60537 -0.755410
  1492 27.3962 -2.59997 0.776283
  1493 70.8570 3.69479 6.64717
  1494 70.8563 3.69439 -6.64546
  1495 69.9427 3.98282 -1.54736
  1496 69.9456 3.98278 1.54666
  1497 118.543 -1.81519 -6.34708
  1498 118.548 -1.81722 6.33937
  1499 72.3186 0.213842 1.69020
  1500 72.3155 0.213794 -1.68962
  1501 90.1841 -0.741996 -6.63002
  1502 90.1746 -0.727207 6.64049
  1503 66.1596 4.40891 4.02253
  1504 66.1555 4.40773 -4.02425
  1505 81.3835 0.398851 2.75116
  1506 81.3835 0.397489 -2.75230
  1507 97.3301 -3.82440 13.5822
  1508 97.3176 -3.81989 -13.5853
  1509 109.060 -5.11442 -8.63310
  1510 109.076 -5.11815 8.62587
  1511 95.8646 -10.3697 1.94142
  1512 95.9505 -10.2760 -1.81885
  1513 84.2377 1.00796 4.82385
  1514 82.5915 -0.440455 3.08320
  1515 82.5925 -0.442856 -3.08435
  1516 108.296 10.1622 -7.40152
  1517 77.7845 -2.34687 -7.29786
  1518 77.7874 -2.34203 7.29341
  1519 83.7462 -16.0819 18.2702
  1520 93.2020 10.6730 -1.41446
  1521 83.8460 -5.26654 -6.31271
  1522 83.8439 -5.25729 6.31000
  1523 103.249 -11.3055 2.44198
  1524 54.9145 -1.18261 -17.0225
  1525 54.9265 -1.19135 17.0272
  1526 69.5247 3.70701 4.40850
  1527 69.5252 3.70642 -4.40718
  1528 89.9277 -0.0593925 -0.934599
  1529 89.9266 -0.0589811 0.934830
  1530 67.3106 5.21351 3.57913
  1531 67.3125 5.21284 -3.57818
  1532 119.699 -11.0426 2.92849
  1533 119.677 -10.9779 -2.96067
  1534 95.2992 0.130449 -2.87868
  1535 95.3072 0.130409 2.87885
  1536 101.356 2.79198 8.03175
  1537 100.952 0.564428 8.89401
  1538 84.4280 -15.3138 -14.0030
  1539 84.4020 -15.2735 14.0586
  1540 78.5377 0.419631 3.27721
  1541 78.5329 0.419593 -3.27641
  1542 73.8300 2.61406 6.99353
  1543 73.8279 2.61389 -6.99188
  1544 100.178 0.653506 -8.82041
  1545 87.7739 5.94221 2.14233
  1546 127.166 -7.77800 -1.00438
  1547 127.643 -7.23510 1.57232
  1548 94.3629 1.33817 7.83552
  1549 82.6332 -0.0256731 -2.90865
  1550 82.6032 -0.0281090 2.87559
  1551 62.7902 6.00710 -2.40983
  1552 62.7946 6.00770 2.40818
  1553 92.3323 6.38237 5.80457
  1554 70.5188 3.02350 -4.76259
  1555 70.5192 3.02399 4.76402
  1556 87.5456 1.50282 -4.56362
  1557 75.3904 0.0573749 -1.16702
  1558 75.3949 0.0573755 1.16737
  1559 45.8040 -13.7335 22.1558
  1560 46.0404 -13.6062 -22.1054
  1561 83.5882 -13.2455 -15.2838
  1562 59.7825 -15.0189 -17.6942
  1563 59.8120 -15.0109 17.6707
  1564 90.6651 -0.477192 -0.488725
  1565 90.6643 -0.476280 0.490224
  1566 70.3937 3.62396 15.9387
  1567 70.3884 3.62789 -15.9362
  1568 103.073 12.4134 -6.68701
  1569 29.9320 -4.32909 -8.31765
  1570 29.9267 -4.33969 8.34213
  1571 89.3428 3.92628 5.90921
  1572 86.2921 1.83179 13.3911
  1573 86.2857 1.83406 -13.3912
  1574 91.2500 -0.215332 0.596556
  1575 91.2510 -0.215804 -0.595778
  1576 78.2381 3.16195 11.1897
  1577 78.2342 3.16275 -11.1881
  1578 45.7671 -6.72196 -16.6872
  1579 45.7873 -6.73435 16.6926
  1580 129.732 -3.28608 13.2050
  1581 129.712 -3.34246 -13.1729
  1582 99.6641 1.83853 20.0449
  1583 68.0960 4.85453 0.0429155
  1584 68.0989 4.85418 -0.0430585
  1585 89.5096 3.41083 24.7441
  1586 99.2516 -8.71595 -11.3616
  1587 99.2751 -8.72189 11.3630
  1588 93.5265 -1.49797 -14.4985
  1589 93.5364 -1.50196 14.4957
  1590 87.6617 0.132806 2.09983
  1591 87.6544 0.132804 -2.09950
  1592 73.1743 2.94512 -1.96163
  1593 73.1767 2.94512 1.96070
  1594 46.7835 1.86080 -13.9303
  1595 46.7866 1.85334 13.9407
  1596 52.0937 -0.368718 14.5235
  1597 52.0886 -0.365065 -14.5362
  1598 48.9641 4.16703 -8.71034
  1599 48.9774 4.16317 8.70069
  1600 65.9694 5.97886 4.88704
  1601 65.9714 5.97819 -4.88584
  1602 86.9591 2.18320 -0.684030
  1603 68.1095 4.86870 2.11850
  1604 68.1117 4.86805 -2.11791
  1605 76.1036 1.88751 2.67062
  1606 76.1020 1.88701 -2.67196
  1607 75.9997 1.22394 5.02663
  1608 75.9964 1.22383 -5.02537
  1609 82.7975 -17.7427 -13.0636
  1610 83.1462 -17.6599 13.2374
  1611 91.1210 -6.36471 -0.784125
  1612 91.1104 -6.35986 0.791211
  1613 87.3785 -6.83390 -4.99827
  1614 87.3725 -6.84409 4.98883
  1615 91.2882 -3.99551 -1.93443
  1616 91.2915 -3.99773 1.93898
  1617 92.8869 1.13022 -19.1943
  1618 90.7421 -2.42293 -1.69946
  1619 90.7439 -2.42526 1.70384
  1620 95.0473 8.32044 -6.11256
  1621 85.8264 -0.0816394 4.98548
  1622 85.8247 -0.0826411 -4.98675
  1623 229.927 13.2788 -0.992636
  1624 88.9514 -1.38655 0.800306
  1625 88.9533 -1.38881 -0.798331
  1626 92.4399 -0.229793 0.748038
  1627 92.4434 -0.229346 -0.745939
  1628 93.1219 -0.148825 0.195812
  1629 93.1230 -0.148612 -0.194555
  1630 76.3621 1.28797 3.74090
  1631 76.3604 1.28672 -3.74283
  1632 77.5424 0.0918506 1.28195
  1633 77.5373 0.0918401 -1.28160
  1634 47.5331 6.94363 8.05876
  1635 47.5414 6.94352 -8.05154
  1636 53.4589 8.19690 5.39738
  1637 53.4664 8.19540 -5.39479
  1638 95.9581 -12.9041 6.80832
  1639 102.490 0.334743 -8.78229
  1640 102.497 0.333672 8.78073
  1641 83.3974 1.77403 4.01770
  1642 87.4666 -1.63663 -1.58056
  1643 87.4642 -1.63366 1.58176
  1644 81.3459 0.0766190 -1.50198
  1645 81.3520 0.0766156 1.50231
  1646 117.634 -9.22888 0.0278230
  1647 117.644 -9.20117 -0.0488627
  1648 102.167 -11.4531 -2.05614
  1649 83.6913 0.652675 4.88682
  1650 83.6856 0.652717 -4.88599
  1651 133.872 -0.867747 2.69592
  1652 133.857 -0.861662 -2.68679
  1653 59.9231 -1.11859 -14.2937
  1654 59.9267 -1.12121 14.2786
  1655 70.5269 2.62960 4.11227
  1656 70.5267 2.62911 -4.11096
  1657 162.805 10.3006 2.58535
  1658 74.3417 0.0511262 0.792447
  1659 74.3374 0.0511157 -0.792189
  1660 85.9359 -0.0327718 2.37945
  1661 85.9486 -0.0373926 -2.37647
  1662 70.7933 -7.99161 18.0235
  1663 70.7847 -7.99419 -18.0282
  1664 43.9781 -14.3415 -17.4872
  1665 166.387 21.1208 -10.0097
  1666 62.5001 4.06986 -6.54057
  1667 62.5043 4.07268 6.53694
  1668 85.2632 0.699400 5.70324
  1669 85.2573 0.699526 -5.70242
  1670 72.9123 0.693485 3.09770
  1671 72.9097 0.693357 -3.09671
  1672 109.854 0.771360 -5.62439
  1673 71.6162 4.87270 12.1847
  1674 71.6140 4.87374 -12.1823
  1675 74.9498 0.387547 -2.61735
  1676 74.9535 0.387607 2.61811
  1677 72.7703 0.0459500 -0.733661
  1678 72.7740 0.0459699 0.733914
  1679 66.0552 -0.195476 -11.0561
  1680 66.0565 -0.186802 11.0520
  1681 125.697 3.86873 -13.0268
  1682 123.068 -0.105465 -3.06635
  1683 123.071 -0.105751 3.06438
  1684 75.2182 0.718280 3.68437
  1685 75.2148 0.718188 -3.68335
  1686 77.6595 -7.80560 13.4326
  1687 77.6780 -7.92632 -13.4991
  1688 82.7656 1.58882 8.22884
  1689 82.7606 1.58912 -8.22769
  1690 70.5338 2.87715 4.38396
  1691 70.5302 2.87599 -4.38576
  1692 15.5159 -41.7719 3.98258
  1693 15.5036 -41.7384 -4.04170
  1694 100.293 16.0273 2.39340
  1695 138.767 -0.366147 -0.464732
  1696 138.750 -0.365569 0.461826
  1697 113.048 0.0768667 3.86888
  1698 113.041 0.0771193 -3.86993
  1699 73.1414 0.284995 2.03531
  1700 73.1382 0.284939 -2.03463
  1701 109.531 -0.0274536 -8.00141
  1702 109.537 -0.0286340 7.99857
  1703 88.6273 -11.8488 -10.3582
  1704 72.2216 1.48686 -4.13312
  1705 72.2234 1.48712 4.13439
  1706 85.3653 -2.36024 2.96028
  1707 85.3688 -2.36464 -2.96054
  1708 186.538 15.4553 0.770604
  1709 73.2591 3.14756 7.59101
  1710 73.2573 3.14739 -7.58925
  1711 80.7890 2.19621 0.00522283
  1712 65.6555 -7.32737 -18.2608
  1713 65.7158 -7.36605 18.2338
  1714 71.3270 1.77716 3.90700
  1715 71.3259 1.77681 -3.90572
  1716 91.2787 -0.879433 1.35733
  1717 91.2802 -0.878275 -1.35368
  1718 100.690 1.64277 -8.03510
  1719 79.3263 3.20214 -12.5140
  1720 79.3308 3.20068 12.5154
  1721 52.4366 7.58174 -1.13445
  1722 52.4463 7.57939 1.13224
  1723 66.9977 6.16331 10.4185
  1724 66.9978 6.16356 -10.4159
  1725 64.6779 2.38717 16.7324
  1726 64.6706 2.39272 -16.7290
  1727 89.0798 -6.31334 -2.82498
  1728 89.0686 -6.30467 2.82463
  1729 92.8067 -5.03517 2.90140
  1730 92.8046 -5.03401 -2.89665
  1731 96.1374 -5.71469 -4.47378
  1732 96.1461 -5.71622 4.47054
  1733 86.1681 1.72155 9.86661
  1734 86.1625 1.72231 -9.86587
  1735 96.2997 -12.6175 -5.99635
  1736 76.5352 2.63272 8.26655
  1737 76.5321 2.63277 -8.26489
  1738 59.1056 3.06746 -9.37553
  1739 59.1095 3.07070 9.36782
  1740 89.0067 -5.88955 -15.1409
  1741 89.0198 -5.89246 15.1413
  1742 69.4014 4.23919 1.49672
  1743 69.4034 4.23854 -1.49626
  1744 91.3496 0.582379 5.74858
  1745 91.3427 0.582597 -5.74817
  1746 179.953 13.4000 -32.2330
  1747 71.9649 1.87872 -4.51037
  1748 71.9664 1.87903 4.51174
  1749 92.7861 0.718180 7.27111
  1750 92.7793 0.718587 -7.27091
  1751 107.891 0.148201 4.00245
  1752 107.884 0.148382 -4.00307
  1753 66.6077 3.09172 -6.38702
  1754 66.6118 3.09435 6.38458
  1755 69.5499 0.609976 -8.73786
  1756 69.5547 0.614588 8.73498
  1757 87.4151 -0.541558 4.59527
  1758 87.4188 -0.547523 -4.59206
  1759 77.7029 -4.46074 9.99408
  1760 77.7062 -4.47035 -10.0004
  1761 67.4311 -12.7387 21.7214
  1762 66.7694 -12.4375 -21.6027
  1763 91.0890 6.66414 -4.97713
  1764 76.6850 0.245005 -2.38288
  1765 76.6895 0.245037 2.38354
  1766 75.5173 0.531997 0.852238
  1767 67.7063 4.14417 3.69007
  1768 67.7025 4.14327 -3.69156
  1769 103.294 -15.3251 -7.05354
  1770 103.470 -15.3923 7.03792
  1771 117.409 -0.599622 -6.64338
  1772 117.413 -0.601026 6.63881
  1773 85.1710 -0.438184 2.22263
  1774 85.1722 -0.440063 -2.22286
  1775 77.2249 0.297298 -1.86208
  1776 80.8699 -5.85525 9.09315
  1777 80.8521 -5.87470 -9.10806
  1778 124.620 9.08634 1.54068
  1779 90.1407 -4.42602 -0.0906288
  1780 90.1354 -4.42229 0.0948493
  1781 75.8877 2.07175 -6.97619
  1782 75.8907 2.07183 6.97775
  1783 71.3549 1.69314 6.13052
  1784 71.3511 1.69091 -6.13303
  1785 68.0336 4.87603 5.08877
  1786 68.0347 4.87540 -5.08741
  1787 63.5323 6.70858 2.09992
  1788 63.5359 6.70805 -2.09974
  1789 69.5762 3.63335 3.32261
  1790 69.5771 3.63269 -3.32154
  1791 117.851 21.3457 3.38455
  1792 124.012 -2.75320 12.4533
  1793 123.968 -2.76413 -12.4814
  1794 110.799 -6.56083 1.41024
  1795 69.4375 4.12346 5.66606
  1796 69.4377 4.12292 -5.66451
  1797 98.5926 14.8598 -2.19380
  1798 183.183 11.4895 24.9759
  1799 77.9234 3.27297 14.0603
  1800 77.9184 3.27533 -14.0589
  1801 90.2797 1.01337 5.60323
  1802 64.7600 -16.8689 23.9675
  1803 65.5989 5.88551 1.25235
  1804 65.6020 5.88509 -1.25226
  1805 88.8733 6.68632 -2.42483
  1806 75.2282 0.455297 5.67952
  1807 75.2255 0.452889 -5.68240
  1808 89.4287 -2.19672 -0.241154
  1809 89.4261 -2.19387 0.244132
  1810 101.569 -0.162554 11.3383
  1811 101.562 -0.160092 -11.3414
  1812 66.3704 -16.8856 -23.5313
  1813 97.0991 12.9440 3.53966
  1814 80.4493 0.508108 3.78403
  1815 80.4441 0.508093 -3.78320
  1816 70.3800 4.46237 7.98958
  1817 70.3794 4.46210 -7.98768
  1818 82.7929 0.908694 2.00582
  1819 70.7246 4.67215 9.19876
  1820 70.7237 4.67211 -9.19669
  1821 76.0076 -10.1534 16.6852
  1822 75.7024 -10.4231 -17.0761
  1823 66.4991 6.13676 8.45242
  1824 66.5000 6.13644 -8.45033
  1825 115.081 19.5730 -4.73611
  1826 132.465 7.55743 10.0982
  1827 94.4719 0.983086 10.5859
  1828 94.4652 0.984423 -10.5867
  1829 123.401 -5.18438 2.25440
  1830 123.392 -5.16414 -2.25933
  1831 90.2340 -0.201092 -0.873007
  1832 90.2330 -0.200509 0.873568
  1833 64.9584 -2.22677 -18.3226
  1834 64.9700 -2.23263 18.3232
  1835 96.3514 -12.4530 16.9698
  1836 84.4576 -15.9795 21.1924
  1837 125.528 -1.85709 -3.32310
  1838 125.527 -1.85686 3.31501
  1839 104.385 -5.88939 -3.84190
  1840 111.099 0.518591 4.92485
  1841 102.174 -13.1512 -9.31681
  1842 102.855 -12.4453 9.28753
  1843 125.159 -3.58340 10.6462
  1844 125.096 -3.58601 -10.6414
  1845 91.9938 -15.4256 13.6365
  1846 18.5139 -14.6543 3.61619
  1847 18.4127 -14.6101 -3.57139
  1848 89.3527 -0.972083 -3.77785
  1849 89.3496 -0.971592 3.78292
  1850 103.577 0.0385332 3.00093
  1851 103.569 0.0386538 -3.00112
  1852 73.1254 1.62856 4.87267
  1853 73.1233 1.62833 -4.87128
  1854 149.998 18.4172 27.9111
  1855 32.0780 -4.47719 11.9627
  1856 32.0340 -4.48941 -11.9817
  1857 69.1136 4.19207 -2.07792
  1858 69.1168 4.19227 2.07703
  1859 75.6508 1.79134 3.34936
  1860 75.6490 1.79050 -3.35104
  1861 80.2525 1.00492 -5.68353
  1862 80.2572 1.00490 5.68465
  1863 122.094 -10.5873 -0.691791
  1864 121.844 -10.6315 0.573857
  1865 32.3962 -21.8897 -11.8164
  1866 32.4185 -21.8782 11.8073
  1867 67.5337 5.18112 -1.34904
  1868 67.5311 5.18166 1.34932
  1869 88.9082 0.386189 4.85640
  1870 88.9014 0.386333 -4.85585
  1871 70.7213 3.33374 5.87034
  1872 70.7208 3.33332 -5.86875
  1873 62.5434 5.55455 13.8640
  1874 62.5416 5.55743 -13.8596
  1875 51.7979 -19.2156 15.5262
  1876 51.7285 -19.2404 -15.5380
  1877 64.7394 6.24194 12.2963
  1878 64.7389 6.24323 -12.2928
  1879 90.0704 -1.51379 -5.65113
  1880 90.0698 -1.50607 5.65802
  1881 91.5950 -2.97584 -4.68812
  1882 91.5990 -2.97669 4.69342
  1883 95.5171 4.35974 7.75313
  1884 104.459 -5.77372 3.69796
  1885 89.3248 -0.781603 -0.829642
  1886 89.3235 -0.780058 0.831080
  1887 55.7798 7.85569 1.02512
  1888 55.7870 7.85434 -1.02593
  1889 31.7626 -21.8573 -4.35233
  1890 31.7824 -21.8315 4.35231
  1891 81.5732 1.73307 -2.68957
  1892 92.4282 1.04892 12.1832
  1893 92.4214 1.05079 -12.1842
  1894 85.9683 -0.0883373 -1.85793
  1895 85.9674 -0.0871931 1.85778
  1896 84.5254 -1.29023 2.79591
  1897 84.5275 -1.29342 -2.79640
  1898 77.8470 1.04609 -5.14024
  1899 77.8511 1.04615 5.14142
  1900 87.8309 -0.215470 2.20726
  1901 87.8417 -0.215985 -2.20374
  1902 71.4451 2.81284 5.65107
  1903 71.4441 2.81246 -5.64951
  1904 122.219 -0.560298 -5.70984
  1905 122.244 -0.556844 5.76566
  1906 83.4342 1.40636 15.2434
  1907 83.4267 1.40995 -15.2437
  1908 117.911 0.0781675 13.6979
  1909 106.679 4.96647 -7.32867
  1910 74.0942 0.190999 -1.77023
  1911 74.0980 0.191025 1.77078
  1912 74.1566 0.503390 -0.440703
  1913 58.8046 7.02920 -1.04211
  1914 58.8104 7.02893 1.04036
  1915 120.935 14.8937 -29.4545
  1916 64.7298 6.55547 5.70242
  1917 64.7321 6.55480 -5.70106
  1918 23.0335 -12.1475 10.8782
  1919 22.9454 -12.1636 -10.9401
  1920 222.803 10.3407 -21.1486
  1921 96.9147 -15.3590 -11.4085
  1922 75.2950 0.171921 -1.84221
  1923 75.2992 0.171949 1.84275
  1924 152.586 4.41404 -3.31287
  1925 92.8733 -0.0292128 -0.312982
  1926 92.8718 -0.0291389 0.313180
  1927 49.8696 -11.3164 10.6181
  1928 53.0480 -10.5404 -11.8585
  1929 53.0271 -5.22363 -18.8046
  1930 53.0018 -5.20552 18.7893
  1931 83.9565 0.0465625 2.27933
  1932 83.9571 0.0452550 -2.27993
  1933 91.3630 0.137333 -2.15966
  1934 91.3708 0.137309 2.15991
  1935 96.0454 3.53344 -7.90665
  1936 72.1805 2.35650 4.39457
  1937 72.1773 2.35533 -4.39653
  1938 90.4226 -1.79897 -0.734984
  1939 90.4239 -1.80106 0.738609
  1940 79.3259 0.535124 3.40334
  1941 79.3254 0.533502 -3.40506
  1942 71.6436 1.37931 3.61599
  1943 71.6421 1.37903 -3.61479
  1944 70.0615 3.43545 4.92810
  1945 70.0615 3.43491 -4.92666
  1946 135.586 -0.682942 -1.39514
  1947 135.603 -0.686761 1.39760
  1948 107.017 16.6183 5.12962
  1949 75.8072 0.154442 1.39938
  1950 101.962 0.284823 7.62207
  1951 101.955 0.285480 -7.62310
  1952 61.0172 -9.35387 18.5110
  1953 61.0001 -9.35033 -18.5194
  1954 88.0961 -5.18838 2.71893
  1955 88.1045 -5.19431 -2.71754
  1956 90.3995 -1.05599 0.00653675
  1957 90.4005 -1.05757 -0.00399649
  1958 62.0269 -8.52009 19.9693
  1959 61.8781 -8.53480 -19.9443
  1960 81.0537 1.06620 16.1975
  1961 81.0453 1.07039 -16.1978
  1962 105.122 -9.72716 8.18274
  1963 105.087 -9.72356 -8.18742
  1964 77.5098 1.46194 2.76156
  1965 77.5086 1.46124 -2.76292
  1966 180.101 18.6199 7.16277
  1967 73.7685 0.914832 -3.78983
  1968 73.7713 0.914972 3.79094
  1969 99.6470 -8.68311 1.66628
  1970 99.5328 -8.78010 -1.52139
  1971 64.5036 -3.95061 15.8730
  1972 64.5136 -3.94907 -15.9064
  1973 151.942 6.55306 -6.84456
  1974 93.2327 -0.0432129 0.197994
  1975 93.2335 -0.0433558 -0.197480
  1976 113.275 -3.88368 -9.37394
  1977 73.2647 2.35259 6.08636
  1978 73.2627 2.35234 -6.08479
  1979 100.790 9.62941 7.27100
  1980 74.0572 1.54691 4.64134
  1981 74.0545 1.54542 -4.64360
  1982 133.502 9.19802 -7.45589
  1983 100.561 0.206124 6.46617
  1984 115.633 -6.61542 3.62509
  1985 115.618 -6.62147 -3.63850
  1986 71.8824 3.82949 -25.7332
  1987 101.976 15.1877 -4.79273
  1988 90.4490 7.69844 2.79929
  1989 83.9268 3.23312 2.24378
  1990 11.8839 -47.5531 4.21088
  1991 11.9440 -47.5393 -4.31168
  1992 95.5314 11.9189 -3.18742
  1993 57.1574 8.19433 6.55456
  1994 57.1626 8.19332 -6.55224
  1995 100.035 0.0766368 -6.32983
  1996 90.8707 -10.0719 -6.06378
  1997 91.0729 -10.0410 5.68707
  1998 102.548 -12.8109 8.28461
  1999 102.490 -12.8057 -8.28480
  2000 72.1963 -14.2212 12.1285
  2001 75.2131 -15.4639 -12.5195
  2002 57.6624 6.27472 -4.13021
  2003 57.6687 6.27498 4.12634
  2004 31.5999 -19.0089 18.7259
  2005 31.9744 -18.6789 -19.4313
  2006 66.2132 5.78599 3.72728
  2007 66.2155 5.78534 -3.72638
  2008 83.8494 0.0550127 1.47096
  2009 83.8428 0.0550261 -1.47066
  2010 119.216 1.99983 -1.70923
  2011 79.0342 1.45474 -6.65541
  2012 79.0383 1.45470 6.65673
  2013 68.6889 4.33575 3.60071
  2014 68.6902 4.33509 -3.59964
  2015 127.779 -1.28946 -14.3430
  2016 117.017 11.0718 5.05838
  2017 81.3838 -8.54836 -11.6825
  2018 81.4017 -8.34171 11.5705
  2019 134.603 1.35303 -12.9845
  2020 90.5916 0.463042 -5.69618
  2021 128.498 -6.86305 -8.87606
  2022 128.493 -6.85704 8.91426
  2023 69.0896 4.48204 0.308903
  2024 69.0922 4.48157 -0.308899
  2025 71.4434 2.07311 4.38078
  2026 71.4423 2.07274 -4.37942
  2027 148.950 5.21160 8.32822
  2028 87.5890 1.71715 11.1800
  2029 87.5830 1.71838 -11.1797
  2030 116.200 0.673932 -13.3396
  2031 72.2017 0.477395 2.47534
  2032 72.1991 0.477297 -2.47449
  2033 81.9500 -1.59137 4.21805
  2034 81.9515 -1.59534 -4.22020
  2035 65.7935 -3.06461 22.8114
  2036 134.177 -0.347993 -1.99772
  2037 134.170 -0.348232 1.99406
  2038 78.2257 -0.586166 5.25307
  2039 78.2247 -0.589260 -5.25619
  2040 71.9639 0.102862 1.18344
  2041 71.9608 0.102837 -1.18302
  2042 90.6778 -0.716512 -2.13977
  2043 90.6741 -0.717572 2.14408
  2044 30.8258 -23.3461 11.9035
  2045 135.877 11.1368 -1.64315
  2046 115.741 -4.90338 -5.59196
  2047 115.752 -4.90354 5.58154
  2048 81.7852 -1.98003 -16.9948
  2049 81.7958 -1.98432 16.9938
  2050 92.1368 -0.210095 0.827609
  2051 92.1420 -0.209734 -0.825488
  2052 80.6098 1.11342 2.84393
  2053 244.960 7.99458 4.97281
  2054 149.137 12.1582 -5.75194
  2055 88.1898 -0.351447 -6.01926
  2056 88.2087 -0.348981 6.02315
  2057 112.244 3.00640 10.5093
  2058 81.4090 -4.08895 6.89441
  2059 81.4105 -4.09591 -6.89939
  2060 69.3813 4.00462 2.43035
  2061 69.3828 4.00393 -2.42956
  2062 134.892 1.29262 13.0375
  2063 68.5380 4.83009 6.32720
  2064 68.5386 4.82957 -6.32557
  2065 93.3613 -3.21186 -5.81957
  2066 93.3686 -3.21149 5.82482
  2067 77.0711 -14.1369 -20.0671
  2068 28.3018 -26.0820 -11.1944
  2069 86.9161 -4.17508 -3.04178
  2070 86.9096 -4.16904 3.04236
  2071 88.3407 -2.85587 -1.18607
  2072 88.3370 -2.85203 1.18841
  2073 88.7643 -0.0794145 -1.21510
  2074 88.7633 -0.0788151 1.21525
  2075 123.927 9.92881 -0.695874
  2076 72.7395 2.85186 -2.78361
  2077 72.7421 2.85222 2.78232
  2078 64.2407 5.85701 1.19300
  2079 64.2367 5.85681 -1.19392
  2080 83.1312 -7.65238 9.40176
  2081 83.2808 -7.68404 -9.37580
  2082 67.6330 -3.33677 13.9910
  2083 67.6501 -3.36157 -13.9990
  2084 127.989 -1.30525 14.2028
  2085 62.2505 6.88305 0.906908
  2086 62.2548 6.88267 -0.907303
  2087 58.5103 -19.4929 -15.2513
  2088 58.6866 -19.4269 15.1838
  2089 85.6787 -11.4798 -15.2957
  2090 85.6857 -11.4727 15.3084
  2091 61.0657 7.47297 -3.26192
  2092 61.0614 7.47374 3.26232
  2093 22.0188 -17.3613 -6.65626
  2094 22.0389 -17.4034 6.67685
  2095 106.632 4.91249 4.20147
  2096 110.750 -0.0844954 -7.60643
  2097 86.6557 0.0636478 1.43556
  2098 86.6484 0.0636514 -1.43532
  2099 89.2869 -0.346922 -1.06766
  2100 89.2858 -0.345937 1.06837
  2101 85.5369 -1.19529 2.34649
  2102 85.5390 -1.19816 -2.34644
  2103 89.3644 -0.534804 15.2342
  2104 89.3551 -0.530761 -15.2361
  2105 176.468 12.6877 1.08021
  2106 30.7002 0.518348 -2.51345
  2107 30.7374 0.510354 2.52071
  2108 91.6691 -0.357639 -0.227816
  2109 91.6688 -0.357031 0.229320
  2110 78.3696 1.31910 -0.789016
  2111 78.5591 0.0428619 -1.01617
  2112 78.5646 0.0428749 1.01644
  2113 70.8468 3.77325 -0.106085
  2114 70.8491 3.77275 0.105971
  2115 102.680 3.58350 -6.12259
  2116 45.8725 7.07929 4.85766
  2117 45.8846 7.07716 -4.85192
  2118 124.557 -6.05726 6.68949
  2119 124.525 -6.01769 -6.68033
  2120 92.9253 8.75228 4.43441
  2121 83.8318 -2.25950 3.71510
  2122 83.8347 -2.26411 -3.71644
  2123 92.0163 -0.424273 0.377761
  2124 92.0171 -0.423609 -0.375615
  2125 93.3015 -0.112576 0.372111
  2126 93.3042 -0.112443 -0.370832
  2127 75.7558 3.11189 15.3717
  2128 75.7498 3.11539 -15.3703
  2129 10.0901 -42.2512 -4.25041
  2130 10.1617 -41.5380 4.32042
  2131 47.9683 7.82033 -2.42339
  2132 47.9560 7.82366 2.42542
  2133 87.9349 -0.330688 -1.43387
  2134 87.9337 -0.329519 1.43428
  2135 72.7813 4.45717 10.6159
  2136 72.7793 4.45760 -10.6138
  2137 95.6952 6.49546 7.18611
  2138 123.562 2.44444 13.8398
  2139 70.5556 2.28703 16.6348
  2140 70.5483 2.29198 -16.6327
  2141 73.1354 0.476666 2.63035
  2142 73.1325 0.476577 -2.62951
  2143 100.253 0.266536 6.00966
  2144 100.245 0.266920 -6.01006
  2145 73.8884 4.17614 11.4168
  2146 73.8858 4.17691 -11.4147
  2147 108.440 0.131212 -6.38961
  2148 108.446 0.130590 6.38804
  2149 92.7150 -14.9615 -12.0851
  2150 147.467 13.0184 3.91352
  2151 80.3509 -12.6472 16.7841
  2152 82.9549 1.60868 -3.97641
  2153 80.9590 2.39950 -10.1908
  2154 80.9635 2.39886 10.1921
  2155 51.3802 5.33592 -6.73451
  2156 51.3910 5.33353 6.72712
  2157 77.1789 2.98890 9.97124
  2158 77.1755 2.98930 -9.96955
  2159 109.041 9.03190 7.08053
  2160 135.236 5.62232 -11.9377
  2161 41.2203 4.50322 7.83877
  2162 41.2303 4.50430 -7.82684
  2163 58.3591 -14.2070 23.6501
  2164 61.4631 -14.2395 -23.4184
  2165 92.4350 -8.08360 -19.9495
  2166 77.3844 1.55934 6.29412
  2167 77.3808 1.55929 -6.29274
  2168 101.016 0.144323 -2.60999
  2169 101.024 0.144240 2.60995
  2170 74.6325 0.293300 -1.11128
  2171 88.5340 -0.809894 -4.36426
  2172 88.5303 -0.806680 4.36854
  2173 59.5514 7.85396 6.49047
  2174 59.5556 7.85314 -6.48859
  2175 90.1069 -3.44847 -0.459614
  2176 90.1105 -3.45158 0.463594
  2177 95.8553 0.377065 -5.60935
  2178 95.8626 0.376813 5.60940
  2179 70.4372 4.15270 -7.10335
  2180 70.4377 4.15310 7.10513
  2181 47.9246 -1.35513 15.2776
  2182 47.9184 -1.35926 -15.2933
  2183 141.869 -0.154287 -6.59477
  2184 62.6782 7.12028 -3.90267
  2185 62.6747 7.12099 3.90338
  2186 86.5262 5.35162 -0.0210340
  2187 187.780 16.0788 -0.974395
  2188 135.009 25.5733 0.871575
  2189 84.0449 -0.495543 2.58189
  2190 84.0460 -0.497709 -2.58249
  2191 103.894 -11.3228 -3.64243
  2192 158.215 13.0726 4.34905
  2193 141.781 -0.175966 6.91198
  2194 114.289 13.8720 -6.30513
  2195 90.8498 -0.00530611 -0.728251
  2196 90.8486 -0.00509765 0.728393
  2197 95.9570 -7.35975 -2.33222
  2198 95.9523 -7.36193 2.34435
  2199 74.8971 3.66032 10.0069
  2200 74.8945 3.66063 -10.0050
  2201 94.4216 -7.17508 -1.27296
  2202 94.4249 -7.17436 1.28142
  2203 78.7762 -16.7575 -21.9174
  2204 74.7601 1.00156 4.18745
  2205 74.7569 1.00142 -4.18629
  2206 96.1366 -2.94724 -6.62688
  2207 96.1323 -2.93505 6.66076
  2208 111.746 -0.0262867 6.89184
  2209 70.8391 3.50601 2.55919
  2210 70.8361 3.50574 -2.56031
  2211 73.5935 4.19432 13.9636
  2212 73.5897 4.19646 -13.9615
  2213 99.7506 -0.841051 -12.6058
  2214 99.7593 -0.844397 12.6022
  2215 79.6608 -8.33965 17.3620
  2216 79.6548 -8.34255 -17.3604
  2217 65.5488 5.77444 0.0392493
  2218 65.5453 5.77464 -0.0395976
  2219 73.1072 0.129428 1.55282
  2220 73.1038 0.129408 -1.55230
  2221 97.3618 -1.49420 -7.34623
  2222 97.1260 -1.53620 7.37865
  2223 117.347 0.102801 -2.62006
  2224 117.353 0.102625 2.61919
  2225 87.4887 -0.829364 -1.56048
  2226 87.4871 -0.827417 1.56124
  2227 145.774 25.6713 1.55175
  2228 104.568 0.288284 5.77494
  2229 104.561 0.288678 -5.77575
  2230 67.9041 4.78825 14.7849
  2231 67.9004 4.79138 -14.7817
  2232 122.739 -0.860559 -5.21922
  2233 122.740 -0.861966 5.21321
  2234 102.816 -3.69919 -11.6131
  2235 102.829 -3.70352 11.6086
  2236 74.7960 -14.3536 -16.1155
  2237 74.7635 -14.3381 16.1062
  2238 43.8254 -8.45097 20.1462
  2239 43.8008 -8.41784 -20.1551
  2240 91.3333 -3.20976 -3.07206
  2241 91.3359 -3.21181 3.07658
  2242 117.377 -0.847199 11.6446
  2243 75.3713 0.455596 -2.18099
  2244 74.2460 0.468821 2.73741
  2245 74.2426 0.468744 -2.73658
  2246 161.336 6.59355 5.03794
  2247 93.7502 0.0221323 2.16044
  2248 93.7421 0.0221819 -2.16028
  2249 90.6789 -1.81462 -3.29489
  2250 90.6793 -1.81620 3.30004
  2251 87.2866 -2.14083 1.71347
  2252 87.2897 -2.14444 -1.71218
  2253 110.002 -0.139113 -8.61718
  2254 110.008 -0.140754 8.61358
  2255 71.4838 -4.35482 18.3057
  2256 71.4724 -4.35150 -18.3072
  2257 40.5397 0.129601 12.1345
  2258 40.5376 0.137992 -12.1204
  2259 223.142 10.2946 15.9616
  2260 101.977 4.55606 -0.894059
  2261 71.0364 2.51634 -4.62915
  2262 71.0371 2.51677 4.63056
  2263 161.878 14.8150 -2.12141
  2264 69.2027 4.36465 -0.753414
  2265 69.2055 4.36440 0.753013
  2266 89.5109 -10.8124 8.37211
  2267 128.915 -2.47792 4.40404
  2268 128.898 -2.46261 -4.39177
  2269 117.490 -0.822311 -11.9683
  2270 93.1411 0.787612 -12.7135
  2271 93.1482 0.785358 12.7121
  2272 99.5591 -5.75013 -4.78140
  2273 99.4802 -5.93513 4.62833
  2274 74.9892 1.60443 5.57092
  2275 74.9863 1.60427 -5.56952
  2276 112.475 -1.56835 -8.74091
  2277 112.482 -1.57103 8.73481
  2278 122.734 5.57028 7.31466
  2279 133.392 18.7641 1.21600
  2280 60.4881 5.27065 5.27584
  2281 60.4832 5.26899 -5.27955
  2282 113.616 -0.766358 -1.69690
  2283 79.6232 0.0373343 -1.88561
  2284 81.8840 -16.5360 -20.0969
  2285 123.217 18.9576 3.01814
  2286 87.3198 0.449610 4.55075
  2287 87.3132 0.449686 -4.55014
  2288 130.621 -0.889786 -3.96561
  2289 130.620 -0.901483 3.98921
  2290 91.1682 -1.51807 6.44140
  2291 91.1630 -1.53069 -6.43281
  2292 83.4938 0.00442199 -1.80320
  2293 83.4739 0.0108617 1.79330
  2294 81.0283 1.33618 7.01050
  2295 81.0236 1.33630 -7.00928
  2296 45.1214 5.98279 -3.75265
  2297 45.1389 5.97693 3.74960
  2298 90.8936 -2.90220 -2.07103
  2299 90.8959 -2.90450 2.07551
  2300 63.5052 7.08383 8.60532
  2301 63.5071 7.08352 -8.60298
  2302 37.4972 4.10319 3.80747
  2303 37.5156 4.10128 -3.79623
  2304 73.6944 0.0524607 0.632904
  2305 73.6903 0.0524501 -0.632696
  2306 93.6301 -14.4220 10.5301
  2307 91.2458 0.708180 14.0645
  2308 91.2382 0.711148 -14.0660
  2309 100.750 3.12010 7.41715
  2310 65.4951 6.11240 3.97624
  2311 65.4976 6.11174 -3.97533
  2312 83.0080 0.216783 2.98422
  2313 83.0020 0.216792 -2.98363
  2314 78.4222 -0.132103 4.57287
  2315 78.4214 -0.134644 -4.57545
  2316 92.0111 -4.93577 1.93191
  2317 92.0078 -4.93400 -1.92688
  2318 76.6285 0.805331 4.28110
  2319 76.6247 0.805244 -4.28002
  2320 87.1780 3.60695 -4.79926
  2321 86.0974 1.26774 -5.57172
  2322 110.326 4.04777 -9.16117
  2323 82.1380 0.368970 2.52946
  2324 82.1382 0.367727 -2.53042
  2325 125.251 7.66875 7.86219
  2326 64.3244 6.83933 7.66031
  2327 64.3264 6.83883 -7.65835
  2328 105.774 12.3176 7.06122
  2329 83.0299 -0.968179 3.28156
  2330 83.0315 -0.971241 -3.28275
  2331 81.7849 -0.0117757 2.99270
  2332 81.7854 -0.0136767 -2.99395
  2333 68.4219 5.53535 -8.88882
  2334 68.4219 5.53555 8.89093
  2335 74.1223 4.20714 12.9892
  2336 74.1189 4.20863 -12.9871
  2337 54.8351 1.18597 -16.0345
  2338 54.8426 1.17850 16.0409
  2339 138.427 6.35369 11.1375
  2340 150.935 18.2243 -31.0642
  2341 120.601 -2.71341 11.3984
  2342 102.770 1.23242 -9.48801
  2343 68.4556 1.86385 -7.45164
  2344 68.4601 1.86729 7.44907
  2345 93.6595 -0.0934156 -0.0586385
  2346 93.6592 -0.0932945 0.0592360
  2347 84.4886 0.952476 -4.41063
  2348 80.2346 0.0712279 0.991884
  2349 80.2287 0.0712213 -0.991646
  2350 73.3137 0.686200 6.40625
  2351 73.3101 0.683572 -6.40914
  2352 94.3317 0.820231 -9.55006
  2353 94.3383 0.819281 9.54969
  2354 95.6535 0.676586 -7.85672
  2355 90.2634 -1.60415 -3.97814
  2356 90.2633 -1.60473 3.98366
  2357 72.0159 0.892513 -3.10903
  2358 72.0179 0.892699 3.11008
  2359 209.983 12.1015 29.7305
  2360 68.7488 4.40312 2.72477
  2361 68.7504 4.40244 -2.72395
  2362 89.6152 -1.39165 -0.373095
  2363 89.6136 -1.38957 0.375540
  2364 55.4761 4.79806 7.62775
  2365 55.4690 4.79778 -7.63523
  2366 78.1755 2.29299 8.41111
  2367 78.1718 2.29315 -8.40956
  2368 150.735 11.3835 32.9294
  2369 21.7999 -20.8122 13.8681
  2370 21.8557 -20.9684 -13.8005
  2371 86.6146 1.25248 7.98463
  2372 86.6088 1.25285 -7.98385
  2373 69.9359 3.26978 -3.55188
  2374 69.9353 3.27039 3.55306
  2375 88.8862 -4.46880 -1.40877
  2376 88.8802 -4.46390 1.41169
  2377 60.3126 7.36964 1.30590
  2378 60.3175 7.36904 -1.30636
  2379 84.6079 1.13263 -7.02592
  2380 84.6134 1.13242 7.02686
  2381 134.269 12.1049 -31.8828
  2382 102.308 -9.52958 -0.491206
  2383 102.435 -8.77704 1.26290
  2384 90.1897 0.608878 5.58208
  2385 123.403 -1.58320 -4.52411
  2386 123.403 -1.58424 4.51623
  2387 97.0961 -8.82283 0.620156
  2388 97.0750 -8.79865 -0.638516
  2389 81.1698 -2.54857 -5.50224
  2390 81.1685 -2.54340 5.49873
  2391 101.892 -5.91114 17.6873
  2392 102.858 -3.51856 -5.89072
  2393 69.0625 4.13236 4.53922
  2394 69.0633 4.13175 -4.53791
  2395 112.745 -3.51956 -7.97594
  2396 112.756 -3.52257 7.96785
  2397 86.1550 2.01913 -12.6564
  2398 86.1611 2.01730 12.6566
  2399 75.0383 2.07228 6.42484
  2400 75.0356 2.07213 -6.42331
  2401 117.310 -0.0328518 -5.39038
  2402 100.808 8.93432 -7.53248
  2403 89.8458 1.01914 -6.88679
  2404 13.8834 -44.1978 -5.52844
  2405 14.4094 -42.5680 6.17528
  2406 91.3833 3.31624 -6.82709
  2407 136.673 -0.269500 -1.40991
  2408 136.662 -0.269581 1.40640
  2409 77.0249 -0.589563 -6.00578
  2410 77.0268 -0.586377 6.00232
  2411 110.561 -0.750172 8.99529
  2412 110.555 -0.747958 -8.99988
  2413 74.7951 2.40458 2.26925
  2414 74.7932 2.40441 -2.27035
  2415 73.9133 1.46695 -4.83169
  2416 73.9159 1.46715 4.83302
  2417 70.2981 2.82833 3.88578
  2418 70.2981 2.82779 -3.88451
  2419 126.129 8.70128 -5.05210
  2420 79.1998 1.41052 0.988025
  2421 107.673 20.6846 -0.583040
  2422 68.7382 4.56085 5.72548
  2423 68.7388 4.56029 -5.72396
  2424 193.276 13.5102 -6.28869
  2425 139.422 -0.418342 0.0130399
  2426 139.401 -0.417167 -0.0148773
  2427 105.132 3.87895 7.76108
  2428 129.380 -0.277146 -2.73252
  2429 129.378 -0.277483 2.72977
  2430 100.138 0.442461 -10.6462
  2431 100.145 0.440726 10.6442
  2432 39.4888 -1.38846 -13.4805
  2433 39.5125 -1.39272 13.4608
  2434 77.6707 0.390086 -3.03720
  2435 77.6752 0.390122 3.03797
  2436 108.291 0.552159 -10.9298
  2437 62.7714 7.30860 6.23200
  2438 62.7743 7.30786 -6.23046
  2439 127.686 -2.08313 -6.80205
  2440 127.680 -2.08524 6.84409
  2441 133.439 26.6850 -0.367783
  2442 89.5580 0.125671 -1.69941
  2443 89.5657 0.125667 1.69964
  2444 173.000 16.2099 0.410820
  2445 71.0193 1.98554 3.86318
  2446 71.0185 1.98516 -3.86190
  2447 90.2447 -0.149319 -1.26201
  2448 90.2350 -0.149571 1.26482
  2449 72.4795 2.45053 5.70476
  2450 72.4779 2.45022 -5.70322
  2451 86.2284 1.26274 5.67292
  2452 76.6495 0.0100665 -0.642253
  2453 76.6546 0.0100703 0.642436
  2454 80.2581 -0.0576781 3.66601
  2455 80.2581 -0.0599256 -3.66785
  2456 102.627 -3.37796 5.97842
  2457 82.7198 0.0433180 -1.10480
  2458 82.7263 0.0433125 1.10504
  2459 73.1645 0.352982 0.0606643
  2460 110.412 0.524389 11.6091
  2461 86.2989 0.230266 -5.52880
  2462 86.3550 0.245608 5.56387
  2463 91.7329 -5.68411 -0.608753
  2464 91.7384 -5.68648 0.614984
  2465 73.5158 -0.176508 7.49337
  2466 73.5119 -0.180185 -7.49663
  2467 53.6502 8.11215 1.24304
  2468 53.6587 8.11009 -1.24355
  2469 72.0785 0.322135 -2.01272
  2470 72.0812 0.322209 2.01342
  2471 57.6803 4.83216 14.4834
  2472 57.6778 4.83640 -14.4772
  2473 140.754 3.12352 -12.1726
  2474 90.5615 8.28179 -1.70447
  2475 116.900 -10.8807 -0.846238
  2476 116.883 -10.9249 0.809650
  2477 69.5209 4.02227 1.91167
  2478 69.5227 4.02159 -1.91106
  2479 89.8971 0.976649 6.93565
  2480 192.112 17.4641 -5.61234
  2481 68.4424 5.65484 11.3540
  2482 68.4415 5.65552 -11.3514
  2483 85.8160 4.12434 -3.16359
  2484 75.9387 1.95027 19.6989
  2485 86.9975 -1.29721 15.9151
  2486 86.9874 -1.29297 -15.9169
  2487 145.244 4.55130 11.6699
  2488 67.0010 5.54629 -20.0737
  2489 92.1034 1.75565 7.37321
  2490 94.4505 -4.73473 4.80869
  2491 94.4547 -4.73233 -4.80550
  2492 87.6373 4.14565 4.64436
  2493 121.171 -6.84870 2.07014
  2494 121.164 -6.82216 -2.08125
  2495 105.760 -13.4519 -5.92091
  2496 105.853 -13.4554 5.91107
  2497 95.3819 -2.88423 -14.0626
  2498 95.3932 -2.88843 14.0596
  2499 67.0661 5.24070 0.209788
  2500 67.0628 5.24092 -0.210083
  2501 40.7837 5.77518 1.55335
  2502 40.8023 5.77083 -1.54763
  2503 83.8953 0.811572 -5.61861
  2504 83.9010 0.811483 5.61950
  2505 98.4264 -14.8676 11.0048
  2506 245.644 7.01210 -15.2055
  2507 76.5315 -0.438791 17.2760
  2508 76.5217 -0.433932 -17.2760
  2509 146.817 7.94537 -9.03970
  2510 90.6538 -0.678649 -0.273498
  2511 90.6531 -0.677482 0.275420
  2512 105.817 -2.17814 -10.8780
  2513 105.826 -2.18183 10.8728
  2514 63.3613 6.95827 10.6140
  2515 63.3624 6.95863 -10.6109
  2516 77.7406 -14.0877 19.5508
  2517 90.6045 0.754126 7.09417
  2518 90.5980 0.754498 -7.09377
  2519 82.5084 -5.44054 -7.47448
  2520 82.5029 -5.43085 7.46867
  2521 193.871 13.8908 4.72253
  2522 52.4075 4.80172 13.1791
  2523 52.4076 4.80569 -13.1711
  2524 85.2453 -12.3971 13.6606
  2525 72.2721 0.0159205 0.483451
  2526 72.2685 0.0159179 -0.483280
  2527 120.864 -0.488086 -13.9850
  2528 71.0172 2.83473 -5.12333
  2529 71.0179 2.83516 5.12482
  2530 67.6612 5.46992 6.81958
  2531 67.6621 5.46939 -6.81787
  2532 97.7371 0.0410691 1.98478
  2533 97.7287 0.0411089 -1.98470
  2534 79.9494 -0.359265 4.14999
  2535 79.9494 -0.361931 -4.15222
  2536 109.921 5.34805 -4.36361
  2537 137.770 -0.302107 -0.977328
  2538 137.756 -0.301954 0.973880
  2539 94.2832 -2.46517 -6.76258
  2540 94.2944 -2.47312 6.76286
  2541 84.7665 0.363065 3.78613
  2542 84.7602 0.363083 -3.78548
  2543 72.7949 3.06610 7.10219
  2544 72.7932 3.06586 -7.10047
  2545 128.901 11.4840 -4.39228
  2546 86.6650 -3.52553 2.68437
  2547 86.6701 -3.53088 -2.68364
  2548 98.0798 -14.7854 -13.8318
  2549 103.580 3.04108 -7.91097
  2550 102.192 -13.1472 11.0726
  2551 93.6836 -8.52387 1.04764
  2552 93.6833 -8.50676 -1.03218
  2553 120.771 -1.59793 -11.5878
  2554 80.1951 0.799724 2.69939
  2555 80.1947 0.798704 -2.70062
  2556 84.1497 0.00494016 -4.07664
  2557 84.1004 0.0648505 4.06457
  2558 37.2838 -14.4420 14.6655
  2559 37.2556 -14.4344 -14.6649
  2560 120.705 24.9210 -1.00854
  2561 93.1303 -0.991077 -7.28863
  2562 93.1356 -1.00494 7.26580
  2563 13.3136 -26.2752 -3.82178
  2564 13.3660 -26.2425 4.05423
  2565 72.5159 3.24651 1.33355
  2566 72.5136 3.24675 -1.33418
  2567 75.9801 0.559854 3.29204
  2568 75.9762 0.559774 -3.29114
  2569 120.878 -1.56932 11.4491
  2570 67.6510 5.73274 12.2973
  2571 67.6498 5.73394 -12.2943
  2572 105.600 -10.5699 2.37820
  2573 59.0729 7.73840 9.08865
  2574 59.0761 7.73818 -9.08539
  2575 83.3321 2.21828 3.22260
  2576 77.9825 0.676950 3.00107
  2577 95.6768 -11.4901 4.20346
  2578 96.2330 -11.2128 -3.42038
  2579 75.0263 0.0283861 0.652551
  2580 75.0218 0.0283847 -0.652347
  2581 99.8251 -11.9920 3.71152
  2582 65.9695 5.73675 2.27781
  2583 65.9723 5.73620 -2.27736
  2584 73.5890 3.38185 8.25025
  2585 73.5870 3.38176 -8.24844
  2586 125.132 6.87799 -9.70262
  2587 84.7821 -3.83611 16.4733
  2588 84.7706 -3.83282 -16.4743
  2589 69.9254 -0.169132 -17.7264
  2590 69.9353 -0.174695 17.7274
  2591 134.629 -0.515317 -2.44572
  2592 134.637 -0.519387 2.45722
  2593 100.428 16.7537 0.116196
  2594 73.1059 3.84972 9.07524
  2595 73.1041 3.84973 -9.07330
  2596 88.0822 -3.52422 1.67948
  2597 88.0872 -3.52882 -1.67736
  2598 80.5918 -1.57986 5.02950
  2599 80.5925 -1.58392 -5.03254
  2600 206.124 14.8803 1.43289
  2601 34.9859 -4.64050 11.8269
  2602 34.9789 -4.62665 -11.8096
  2603 86.0669 -0.345852 -1.94296
  2604 86.0658 -0.344287 1.94295
  2605 79.6309 0.00366900 1.87031
  2606 208.129 11.7068 -30.8935
  2607 93.6271 -6.00894 -2.40082
  2608 93.6283 -6.00970 2.40797
  2609 127.160 -3.42852 -6.29074
  2610 127.182 -3.44595 6.31148
  2611 112.323 0.0484714 2.16682
  2612 112.316 0.0485252 -2.16730
  2613 116.991 -0.265921 5.71663
  2614 86.6267 4.47867 3.23143
  2615 82.2313 0.533373 3.94672
  2616 98.6730 3.84603 -8.12159
  2617 58.4398 7.25414 10.9794
  2618 58.4420 7.25494 -10.9750
  2619 70.6959 2.64313 4.43089
  2620 70.6954 2.64266 -4.42952
  2621 107.331 -0.0585101 -2.24741
  2622 107.339 -0.0585633 2.24715
  2623 67.8025 4.96305 4.23372
  2624 67.8040 4.96239 -4.23256
  2625 107.238 18.6730 -3.58431
  2626 126.859 -0.435866 -4.35281
  2627 126.851 -0.454915 4.39044
  2628 125.562 -2.32326 8.68195
  2629 125.572 -2.31196 -8.64148
  2630 85.0191 0.0225222 2.01724
  2631 85.0198 0.0214046 -2.01764
  2632 123.426 -2.89332 -2.94234
  2633 123.427 -2.89124 2.93308
  2634 181.177 14.6203 -0.0711879
  2635 34.2923 -18.2517 -4.20751
  2636 33.8092 -18.6192 4.12503
  2637 131.505 -4.50103 -10.6903
  2638 131.616 -4.36241 10.6962
  2639 72.3202 0.959536 -3.32012
  2640 72.3224 0.959723 3.32120
  2641 74.3393 2.22989 3.23826
  2642 74.3371 2.22924 -3.23983
  2643 119.846 -11.2390 2.39904
  2644 119.808 -11.1626 -2.43074
  2645 125.491 19.0873 35.3221
  2646 96.8703 -6.47222 15.1679
  2647 98.6857 11.7274 5.73724
  2648 79.7684 3.05409 -11.6069
  2649 79.7728 3.05304 11.6083
  2650 174.324 17.6941 22.1044
  2651 47.6123 7.33647 -0.912984
  2652 47.6263 7.33216 0.911957
  2653 83.5568 3.57662 -0.577469
  2654 76.0540 -1.38840 7.47383
  2655 76.0504 -1.39282 -7.47754
  2656 122.486 0.0300132 -2.69872
  2657 122.490 0.0298195 2.69732
  2658 50.7197 6.38154 -10.5407
  2659 50.7154 6.38000 10.5481
  2660 63.3848 6.83351 3.21730
  2661 63.3882 6.83287 -3.21676
  2662 89.4236 -2.78110 0.199446
  2663 89.4269 -2.78435 -0.196196
  2664 93.5314 0.428926 -7.67786
  2665 91.3831 1.12614 9.82111
  2666 91.3767 1.12707 -9.82111
  2667 128.311 -7.96325 4.88976
  2668 128.487 -7.76270 -4.83368
  2669 132.837 -0.153685 -2.01603
  2670 132.832 -0.153900 2.01320
  2671 92.5616 -14.3081 -12.0554
  2672 92.6004 -14.3143 12.0965
  2673 130.264 -2.03141 1.05370
  2674 130.252 -2.02382 -1.05484
  2675 74.4263 0.816950 3.76653
  2676 74.4232 0.816839 -3.76545
  2677 107.445 -10.2205 -7.47347
  2678 90.0450 -0.535329 2.30820
  2679 90.0507 -0.534557 -2.30378
  2680 63.4378 6.98652 -5.29895
  2681 63.4349 6.98724 5.30016
  2682 87.3404 -1.25061 1.62979
  2683 87.3424 -1.25316 -1.62884
  2684 72.0954 2.08774 -4.90756
  2685 72.0968 2.08807 4.90899
  2686 61.0693 6.43802 -1.87529
  2687 61.0742 6.43833 1.87356
  2688 73.0072 0.294510 -0.633200
  2689 122.142 -8.37268 5.30099
  2690 122.115 -8.32630 -5.31068
  2691 84.1160 -3.10246 4.15875
  2692 84.1199 -3.10810 -4.16052
  2693 149.606 3.51167 2.06453
  2694 91.2007 9.39265 0.705777
  2695 86.3148 -8.41947 7.63543
  2696 86.4053 -8.34916 -7.63078
  2697 68.6483 4.61079 1.56326
  2698 68.6505 4.61016 -1.56282
  2699 94.8284 -7.10662 -13.3439
  2700 94.8459 -7.11022 13.3452
  2701 114.455 1.71531 -16.6278
  2702 66.0111 6.08960 6.53814
  2703 66.0127 6.08903 -6.53653
  2704 68.6603 5.08906 7.64350
  2705 68.6605 5.08868 -7.64164
  2706 89.8608 1.05212 8.51126
  2707 89.8545 1.05270 -8.51087
  2708 88.1814 1.67642 -6.32787
  2709 85.4305 -12.3417 -13.1385
  2710 105.538 1.32115 10.4407
  2711 80.9430 2.82562 12.7804
  2712 80.9379 2.82728 -12.7794
  2713 155.233 11.2836 -5.77134
  2714 113.919 -13.1800 -1.24522
  2715 113.997 -13.1325 1.15813
  2716 69.5880 3.73939 2.81941
  2717 69.5892 3.73871 -2.81848
  2718 98.6303 3.24186 8.19761
  2719 171.154 19.2215 -23.3376
  2720 82.6631 0.402579 -4.11659
  2721 90.5903 -2.84113 -1.28228
  2722 90.5927 -2.84368 1.28643
  2723 120.142 -0.306522 -5.01309
  2724 120.145 -0.307203 5.00983
  2725 75.1648 1.29395 4.99909
  2726 75.1618 1.29382 -4.99778
  2727 81.7187 2.45141 1.21899
  2728 67.5095 5.05029 2.83172
  2729 67.5116 5.04965 -2.83096
  2730 114.069 22.2992 2.57147
  2731 91.1574 -0.332754 -0.507970
  2732 91.1566 -0.332104 0.509074
  2733 73.6410 0.512840 2.88474
  2734 73.6379 0.512751 -2.88385
  2735 23.3033 -30.9092 0.0764796
  2736 23.3397 -30.9317 -0.114498
  2737 57.1871 8.04823 2.95709
  2738 57.1932 8.04700 -2.95684
  2739 79.7727 0.793492 4.87880
  2740 79.7680 0.793475 -4.87776
  2741 94.6857 5.94546 -7.20369
  2742 85.4627 -10.7108 11.3072
  2743 101.264 5.67222 7.91330
  2744 106.007 -7.08133 -8.94460
  2745 106.030 -7.08571 8.93855
  2746 113.729 -1.38965 1.88171
  2747 89.4282 0.579277 5.70711
  2748 89.4216 0.579465 -5.70657
  2749 97.3365 -9.52653 -12.8612
  2750 84.1062 2.00787 -9.85239
  2751 84.1114 2.00722 9.85337
  2752 92.9329 -16.6667 -10.5767
  2753 93.1752 -16.6775 10.7327
  2754 113.659 -9.04168 -3.19118
  2755 113.684 -9.02996 3.17212
  2756 122.921 -0.334573 -4.93486
  2757 122.922 -0.335579 4.93023
  2758 64.3783 3.77531 6.32588
  2759 64.3742 3.77264 -6.32877
  2760 85.2927 0.0502618 1.17674
  2761 85.2856 0.0502685 -1.17652
  2762 90.8116 -1.97661 -2.05951
  2763 90.8124 -1.97862 2.06402
  2764 92.3896 -12.6834 -8.55161
  2765 62.5590 6.44036 0.682955
  2766 62.5546 6.44034 -0.683945
  2767 78.5473 0.227496 2.42903
  2768 78.5423 0.227471 -2.42842
  2769 133.737 -1.38934 5.89212
  2770 70.3336 -1.98675 11.3928
  2771 70.3268 -1.99565 -11.3938
  2772 93.5038 0.245624 -4.19153
  2773 93.5113 0.245501 4.19178
  2774 94.4335 11.6654 1.18005
  2775 122.326 -5.77093 -8.12898
  2776 84.2585 -4.52139 -5.31331
  2777 84.2538 -4.51424 5.31023
  2778 125.266 -5.32571 -9.56207
  2779 125.315 -5.33806 9.57589
  2780 81.3063 0.222371 2.77576
  2781 81.3006 0.222374 -2.77516
  2782 68.0018 4.86655 3.59130
  2783 68.0034 4.86588 -3.59029
  2784 99.4642 -12.7048 -4.27840
  2785 97.5571 9.67664 -6.36442
  2786 143.268 3.35135 -9.77856
  2787 69.9037 3.29769 -4.25853
  2788 69.9035 3.29825 4.25984
  2789 134.583 19.0264 -1.91034
  2790 90.4875 -14.7832 -19.2628
  2791 120.487 -0.0208064 -2.49645
  2792 120.492 -0.0209592 2.49542
  2793 113.971 6.11233 7.02569
  2794 71.5466 3.57707 -0.709680
  2795 71.5489 3.57667 0.709323
  2796 66.6460 5.56377 -3.13043
  2797 66.6437 5.56441 3.13121
  2798 73.2032 0.900515 -3.54432
  2799 73.2057 0.900668 3.54541
  2800 56.2878 -16.8871 -23.7686
  2801 127.521 -0.263079 -2.36365
  2802 127.521 -0.263312 2.36174
  2803 133.861 10.7374 3.66045
  2804 74.0856 1.88460 5.72396
  2805 74.0832 1.88440 -5.72247
  2806 89.0407 -0.0742089 1.26684
  2807 89.0535 -0.0740762 -1.26409
  2808 54.9939 -16.7884 23.8295
  2809 92.8743 -9.58766 13.2985
  2810 92.8549 -9.58561 -13.2914
  2811 83.9928 1.90078 -14.4720
  2812 83.9995 1.89795 14.4720
  2813 97.1502 8.64896 6.80092
  2814 108.289 -9.10651 -2.71665
  2815 60.9389 7.75919 -5.60527
  2816 60.9350 7.76007 5.60663
  2817 91.3683 -0.783541 -0.849164
  2818 91.3675 -0.784656 0.852308
  2819 74.6869 3.45670 9.40386
  2820 74.6845 3.45684 -9.40198
  2821 64.6325 5.20945 3.11080
  2822 64.6283 5.20860 -3.11240
  2823 53.0716 7.90973 7.52366
  2824 53.0781 7.90898 -7.51940
  2825 108.059 10.2928 -27.7027
  2826 69.6941 4.90453 14.0884
  2827 69.6909 4.90696 -14.0856
  2828 109.023 0.0136783 -7.45192
  2829 109.029 0.0127664 7.44969
  2830 70.9038 4.79428 10.0446
  2831 70.9027 4.79448 -10.0424
  2832 77.4881 0.125555 1.60570
  2833 66.7922 5.57508 -5.59005
  2834 66.7907 5.57569 5.59146
  2835 75.1624 -2.87811 -9.55618
  2836 75.1664 -2.87107 9.55115
  2837 78.2374 0.832903 -2.08495
  2838 92.5286 -3.33738 -5.10426
  2839 92.5340 -3.33852 5.10889
  2840 77.6868 0.875403 3.65230
  2841 77.6856 0.873936 -3.65422
  2842 71.7853 3.14476 6.49232
  2843 71.7842 3.14443 -6.49064
  2844 69.4115 2.29249 6.33722
  2845 69.4073 2.29003 -6.33957
  2846 82.0826 2.54061 -14.0102
  2847 82.0886 2.53817 14.0108
  2848 129.414 -1.97578 -0.336550
  2849 129.405 -1.97100 0.331594
  2850 70.3070 3.95674 1.02877
  2851 70.3043 3.95698 -1.02926
  2852 90.7411 -8.77153 -4.18054
  2853 90.7809 -8.71764 4.08757
  2854 80.1412 0.122694 -1.90371
  2855 80.1469 0.122699 1.90416
  2856 67.2413 6.01621 9.75959
  2857 67.2415 6.01622 -9.75721
  2858 90.9106 -13.1091 12.4742
  2859 89.9305 -13.4960 -12.1233
  2860 93.8135 -0.0653645 -0.0106499
  2861 93.8131 -0.0654629 0.0113203
  2862 72.7181 1.21559 -3.97691
  2863 72.7202 1.21580 3.97813
  2864 111.642 -11.1766 -3.14027
  2865 111.686 -11.1654 3.11715
  2866 66.4299 1.22858 -9.39730
  2867 66.4334 1.23425 9.39403
  2868 76.1466 0.200975 -2.05619
  2869 76.1510 0.201004 2.05678
  2870 36.4907 2.72038 -5.46684
  2871 36.5221 2.71170 5.46594
  2872 123.034 -0.525000 14.4512
  2873 67.4312 4.87574 -1.39884
  2874 67.4346 4.87579 1.39814
  2875 75.6348 1.30004 -4.21436
  2876 75.6368 1.30146 4.21220
  2877 69.0853 3.99692 3.38901
  2878 69.0864 3.99626 -3.38796
  2879 75.1646 -18.5134 -14.0318
  2880 75.3411 -18.2712 13.5691
  2881 97.8469 -5.48080 5.01987
  2882 97.7955 -5.42622 -5.06263
  2883 52.1891 -4.07337 17.1978
  2884 52.1734 -4.06325 -17.1941
  2885 85.5263 2.77962 4.61017
  2886 90.6418 -1.30650 2.62886
  2887 90.6431 -1.30497 -2.62398
  2888 83.0773 -3.22764 4.97798
  2889 83.0804 -3.23348 -4.98084
  2890 32.3003 1.34918 -2.47449
  2891 32.2747 1.35165 2.48945
  2892 56.6982 6.57959 12.2493
  2893 56.6995 6.58167 -12.2438
  2894 86.1332 0.215440 2.90423
  2895 86.1264 0.215453 -2.90375
  2896 91.4389 4.68794 6.42053
  2897 119.976 -0.989882 -8.85350
  2898 59.7917 2.26926 -16.4695
  2899 59.7984 2.26293 16.4744
  2900 72.5560 1.94884 -5.00219
  2901 72.5578 1.94913 5.00362
  2902 121.363 -4.70704 -1.38891
  2903 121.365 -4.69775 1.37839
  2904 89.7693 -0.00379237 -6.78185
  2905 81.1529 0.681381 -3.57804
  2906 71.5713 0.00496532 0.407345
  2907 71.5679 0.00496613 -0.407200
  2908 133.187 -5.01667 3.01789
  2909 133.074 -4.95365 -2.84191
  2910 78.9158 1.16776 2.68581
  2911 78.9150 1.16697 -2.68709
  2912 72.3186 1.19975 -3.71655
  2913 72.3205 1.19997 3.71773
  2914 76.7739 1.13005 5.07678
  2915 76.7702 1.12996 -5.07556
  2916 94.0262 -10.4378 -3.77098
  2917 93.8931 -10.4825 3.85206
  2918 180.877 13.0713 -4.81691
  2919 110.532 2.86866 -11.2069
  2920 82.2129 0.105487 -3.49211
  2921 182.731 11.1053 -15.5683
  2922 95.6015 13.1131 -1.15528
  2923 155.833 14.7645 0.908003
  2924 113.230 -2.82108 12.3014
  2925 107.888 -3.12195 4.56203
  2926 77.2336 0.118127 -1.52071
  2927 69.7798 3.76102 5.29129
  2928 69.7800 3.76048 -5.28979
  2929 112.966 -12.3053 -4.86449
  2930 113.670 -12.1040 4.41612
  2931 176.459 12.5943 36.7466
  2932 130.938 12.6833 18.1337
  2933 70.8927 4.44029 -8.51187
  2934 70.8936 4.44047 8.51384
  2935 148.341 18.4600 10.7493
  2936 104.787 -1.10704 -10.9552
  2937 104.796 -1.11018 10.9507
  2938 74.1319 0.0907822 -1.22883
  2939 74.1359 0.0907988 1.22921
  2940 84.2085 -0.219318 2.36706
  2941 84.2093 -0.221017 -2.36760
  2942 89.0391 -1.86880 -0.627515
  2943 89.0369 -1.86611 0.629952
  2944 77.0960 3.52406 12.5468
  2945 77.0921 3.52543 -12.5451
  2946 90.8034 -2.13088 5.15036
  2947 90.8009 -2.13234 -5.14380
  2948 86.3544 -2.38094 2.37994
  2949 86.3580 -2.38514 -2.37935
  2950 74.3646 0.336533 1.07049
  2951 94.4732 10.8384 3.38285
  2952 131.175 2.61657 13.9125
  2953 74.5113 0.273135 -2.17335
  2954 74.5150 0.273180 2.17402
  2955 88.6969 2.89870 -6.09006
  2956 75.2788 0.500138 3.09332
  2957 75.2751 0.500070 -3.09244
  2958 86.7761 -0.275267 -1.72800
  2959 86.7750 -0.273977 1.72811
  2960 66.5201 5.07780 -1.79051
  2961 66.5237 5.07810 1.78962
  2962 247.461 7.55986 15.0976
  2963 97.5488 0.590791 6.98083
  2964 97.5417 0.591260 -6.98107
  2965 79.3816 0.435940 -3.48556
  2966 79.3865 0.435961 3.48636
  2967 89.7855 -0.0216943 6.79436
  2968 76.1817 2.38046 7.68647
  2969 76.1787 2.38043 -7.68484
  2970 73.5861 2.49145 6.59138
  2971 73.5841 2.49124 -6.58975
  2972 79.8309 -2.62383 -6.53446
  2973 79.8312 -2.61854 6.52996
  2974 69.0287 4.04619 4.10032
  2975 69.0296 4.04555 -4.09910
  2976 113.591 23.2766 0.175468
  2977 40.5200 2.48431 -8.95583
  2978 40.5459 2.47546 8.94582
  2979 85.0857 0.596719 -5.17205
  2980 67.0453 5.66480 13.2757
  2981 67.0436 5.66667 -13.2725
  2982 80.4198 0.444454 3.05735
  2983 80.4196 0.442937 -3.05876
  2984 111.490 9.97432 28.3552
  2985 78.7555 2.44377 9.15140
  2986 78.7517 2.44407 -9.14987
  2987 49.6976 -5.60214 -18.4467
  2988 116.432 2.51894 12.7229
  2989 74.6160 -3.86923 11.1993
  2990 74.6070 -3.87408 -11.2059
  2991 88.7789 -0.576199 -3.07772
  2992 88.7724 -0.576206 3.08247
  2993 91.7724 1.47350 -7.31583
  2994 130.549 2.80313 -13.5855
  2995 76.4290 3.47264 11.2066
  2996 76.4256 3.47339 -11.2048
  2997 183.628 11.5579 10.5429
  2998 136.238 23.7942 0.696742
  2999 14.7035 -27.6911 -2.94486
  3000 14.7634 -27.7813 2.93552
  3001 92.2929 -6.68582 -0.0913411
  3002 92.3002 -6.68795 0.100120
  3003 78.2845 0.612115 -4.13293
  3004 78.2889 0.612143 4.13392
  3005 145.554 9.86822 8.46382
  3006 49.0813 -0.711881 15.2867
  3007 49.0721 -0.702375 -15.2776
  3008 50.9232 8.16736 3.51261
  3009 50.9330 8.16495 -3.51070
  3010 87.0242 5.50375 -1.98293
  3011 105.089 -0.0162417 -9.89950
  3012 105.095 -0.0180763 9.89636
  3013 62.8604 6.27347 12.6018
  3014 62.8599 6.27518 -12.5978
  3015 102.627 0.187705 7.58449
  3016 158.597 15.4562 -39.9369
  3017 85.7797 1.43235 -9.00217
  3018 85.7853 1.43182 9.00300
  3019 86.2341 1.80547 10.8283
  3020 86.2285 1.80652 -10.8277
  3021 83.3233 0.400416 3.94879
  3022 83.3174 0.400440 -3.94806
  3023 88.7815 -1.12350 1.01490
  3024 88.7832 -1.12553 -1.01334
  3025 66.6898 5.46670 -1.55103
  3026 66.6870 5.46722 1.55132
  3027 167.164 9.44591 -13.9818
  3028 72.7105 0.196942 1.69465
  3029 72.7073 0.196906 -1.69408
  3030 91.9790 -0.147086 -0.459485
  3031 91.9781 -0.146766 0.460225
  3032 79.3792 0.0648080 0.788653
  3033 79.3734 0.0647962 -0.788447
  3034 49.2892 2.13999 11.6237
  3035 49.2777 2.14364 -11.6360
  3036 91.4412 -0.801908 -7.01940
  3037 91.4718 -0.801654 7.02081
  3038 95.7323 0.133926 7.80276
  3039 96.0072 0.113415 -1.45734
  3040 96.0157 0.113402 1.45741
  3041 125.904 -6.88065 -9.51283
  3042 125.945 -6.88560 9.54065
  3043 71.6547 3.46357 6.98604
  3044 71.6536 3.46324 -6.98429
  3045 72.1484 -0.321011 -8.49703
  3046 72.1532 -0.316587 8.49357
  3047 81.6159 -0.313803 3.38415
  3048 81.6165 -0.316205 -3.38565
  3049 145.971 24.2591 -2.60944
  3050 86.4300 -0.655472 -1.89733
  3051 86.4286 -0.653538 1.89758
  3052 78.1728 3.08850 10.5674
  3053 78.1691 3.08909 -10.5658
  3054 157.949 11.1732 5.36343
  3055 44.5004 3.82717 -8.22369
  3056 44.5197 3.82170 8.21510
  3057 66.3353 4.78540 -2.87669
  3058 66.3392 4.78608 2.87540
  3059 94.8006 -9.56010 1.58911
  3060 94.7494 -9.56625 -1.61712
  3061 72.6375 0.571892 -2.74070
  3062 72.6401 0.572002 2.74159
  3063 44.9300 6.03348 8.00199
  3064 44.9391 6.03388 -7.99301
  3065 90.9249 -1.32549 1.83049
  3066 90.9256 -1.32386 -1.82618
  3067 114.004 6.54009 2.60334
  3068 68.7509 -15.3478 22.5508
  3069 85.2661 -6.34091 -6.34188
  3070 85.2651 -6.32820 6.34738
  3071 87.1309 -14.2896 -14.3091
  3072 77.2339 0.623889 4.20925
  3073 77.2324 0.622047 -4.21151
  3074 90.6995 -4.17581 -0.936815
  3075 90.7035 -4.17863 0.941294
  3076 37.4155 -5.99842 -17.0871
  3077 37.4329 -6.00248 17.0753
  3078 104.562 0.0684024 5.65959
  3079 75.6736 1.12496 0.0659840
  3080 65.3913 5.37419 -1.17930
  3081 65.3950 5.37434 1.17853
  3082 52.4823 -8.89242 -17.8382
  3083 52.5056 -8.90179 17.8360
  3084 83.6981 2.97491 -2.61497
  3085 90.6954 16.6837 -34.3981
  3086 82.3182 -16.7615 20.2398
  3087 139.680 -0.324762 -0.512485
  3088 139.702 -0.326136 0.512230
  3089 82.1944 0.119318 3.46286
  3090 72.0363 3.32687 -1.73475
  3091 72.0388 3.32679 1.73395
  3092 99.5416 -0.477032 12.4444
  3093 99.5336 -0.474103 -12.4477
  3094 98.9652 0.609574 -9.32725
  3095 98.9720 0.608445 9.32612
  3096 100.052 0.00282562 -1.62821
  3097 100.061 0.00279518 1.62824
  3098 92.6287 -0.0159506 -0.260800
  3099 92.6269 -0.0159207 0.260836
  3100 9.07365 -59.7830 4.63658
  3101 9.22525 -59.7612 -4.88855
  3102 75.7604 -0.00838510 -0.722893
  3103 75.7652 -0.00839050 0.723113
  3104 92.1416 -4.24463 14.7557
  3105 92.1291 -4.24058 -14.7574
  3106 99.9035 0.514536 7.78544
  3107 90.7353 3.12966 6.78212
  3108 70.7737 2.28446 3.89143
  3109 70.7733 2.28402 -3.89015
  3110 148.743 13.3582 -0.383058
  3111 68.5905 4.49461 4.74207
  3112 68.5914 4.49399 -4.74073
  3113 26.8496 -8.78875 -8.19859
  3114 26.8524 -8.80591 8.22524
  3115 87.4897 -0.0493060 -1.47532
  3116 87.4888 -0.0485405 1.47532
  3117 82.0771 1.86992 9.07069
  3118 82.0723 1.87035 -9.06948
  3119 88.2408 1.51559 6.35675
  3120 74.7063 0.989785 -0.911137
  3121 91.7979 -0.0924330 -0.515704
  3122 91.7968 -0.0921694 0.516211
  3123 92.1682 -0.364666 0.0732048
  3124 92.1686 -0.364138 -0.0714406
  3125 81.9691 0.728666 5.04370
  3126 81.9638 0.728691 -5.04276
  3127 87.0674 -0.469507 3.59321
  3128 87.0741 -0.473035 -3.58966
  3129 77.5607 -1.53859 -6.69895
  3130 77.5628 -1.53455 6.69492
  3131 107.063 -4.46638 -4.03007
  3132 85.3314 2.34190 -4.68380
  3133 107.044 13.1571 -6.70936
  3134 51.6686 6.69431 -3.73819
  3135 51.6792 6.69193 3.73374
  3136 71.7900 1.07990 3.27591
  3137 71.7882 1.07968 -3.27480
  3138 75.5011 -8.56688 -15.3404
  3139 75.5490 -8.55041 15.2311
  3140 85.1935 0.667369 5.28769
  3141 71.9965 0.654054 -2.70461
  3142 71.9987 0.654197 2.70553
  3143 118.005 2.92153 -12.8961
  3144 79.4644 2.30134 -15.3723
  3145 79.4712 2.29785 15.3728
  3146 132.650 -0.907774 -1.44110
  3147 132.640 -0.906984 1.43549
  3148 43.3321 3.08609 11.0465
  3149 43.3348 3.09095 -11.0341
  3150 22.2937 -7.38607 0.112464
  3151 22.2433 -7.38288 -0.0801132
  3152 114.486 -3.66235 4.01355
  3153 133.251 -2.66679 -5.16427
  3154 84.7128 -15.0761 17.0082
  3155 59.4170 0.675446 -12.2345
  3156 59.4194 0.679549 12.2232
  3157 131.608 -0.511300 -2.62410
  3158 131.601 -0.511680 2.61845
  3159 95.8739 0.166641 3.98199
  3160 95.8662 0.166755 -3.98187
  3161 73.1534 0.0326180 -0.583485
  3162 73.1573 0.0326286 0.583686
  3163 85.4020 -0.752041 2.23583
  3164 85.4036 -0.754347 -2.23590
  3165 120.423 -0.794497 8.87432
  3166 90.0260 -0.745605 0.626709
  3167 90.0270 -0.746923 -0.625111
  3168 108.814 -9.64262 5.58031
  3169 89.8713 -2.23179 -0.203027
  3170 89.8734 -2.23445 0.206439
  3171 69.1700 3.69242 3.81880
  3172 69.1663 3.69154 -3.82032
  3173 69.3757 5.31099 10.5044
  3174 69.3749 5.31129 -10.5021
  3175 86.8200 0.627879 5.77694
  3176 86.8138 0.628035 -5.77621
  3177 91.4243 -16.5023 -16.0971
  3178 75.6486 1.44262 16.7167
  3179 75.6405 1.44735 -16.7159
  3180 100.542 -2.61393 12.4771
  3181 100.530 -2.60976 -12.4812
  3182 93.5335 -0.00636388 -0.183477
  3183 93.5322 -0.00631996 0.183705
  3184 76.9599 0.210229 -1.98048
  3185 76.9646 0.210263 1.98104
  3186 103.719 18.8479 1.07060
  3187 88.2641 -16.5300 -12.5806
  3188 88.2659 -16.5014 12.6965
  3189 93.5656 0.184181 7.58484
  3190 110.906 -8.68089 5.27578
  3191 110.878 -8.68238 -5.28831
  3192 103.434 16.9824 3.76919
  3193 92.5425 -4.08835 4.10186
  3194 92.5392 -4.08699 -4.09809
  3195 69.8257 4.01791 0.983754
  3196 69.8278 4.01730 -0.983474
  3197 124.699 -1.15492 7.40783
  3198 124.783 -1.11682 -7.38679
  3199 100.952 -4.44735 -5.72191
  3200 60.4382 7.78732 -4.27155
  3201 60.4338 7.78826 4.27236
  3202 93.7403 4.04670 -7.44525
  3203 81.7044 0.336528 -3.42318
  3204 81.7100 0.336521 3.42389
  3205 95.2714 2.86132 2.97831
  3206 121.318 2.13200 -13.9683
  3207 84.6190 1.43942 8.06108
  3208 84.6136 1.43974 -8.06010
  3209 101.480 15.4034 32.0250
  3210 87.5100 0.224063 3.17754
  3211 87.5031 0.224088 -3.17706
  3212 111.368 19.9005 4.33744
  3213 88.7733 2.67363 6.24862
  3214 92.8578 6.72724 -5.86568
  3215 92.0700 -4.16928 -3.02782
  3216 92.0730 -4.17101 3.03209
  3217 65.8614 6.15337 5.58063
  3218 65.8633 6.15273 -5.57926
  3219 121.920 5.33482 10.4921
  3220 100.348 -3.93302 5.98840
  3221 69.3175 -18.3392 -15.1184
  3222 69.8740 -18.2690 14.7733
  3223 135.278 -3.28793 -7.43455
  3224 126.345 -3.06570 13.4734
  3225 126.336 -3.16064 -13.5081
  3226 86.1212 -2.86220 2.70638
  3227 86.1253 -2.86696 -2.70600
  3228 30.9516 -1.61271 -5.55513
  3229 30.9355 -1.61562 5.57796
  3230 91.3685 -0.131803 0.931142
  3231 91.3763 -0.131572 -0.928954
  3232 71.6474 2.46182 -5.18488
  3233 71.6485 2.46219 5.18637
  3234 104.311 -9.16942 0.404161
  3235 89.0152 -7.79026 4.58983
  3236 89.0201 -7.79273 -4.64120
  3237 69.2440 4.41557 1.00405
  3238 69.2462 4.41498 -1.00378
  3239 78.4126 -3.23099 -17.6654
  3240 78.4235 -3.23448 17.6646
  3241 90.8186 0.0274391 -14.5737
  3242 90.8270 0.0238867 14.5717
  3243 78.6578 1.08507 1.72122
  3244 90.6619 -1.29643 -0.452814
  3245 90.6626 -1.29812 0.455912
  3246 90.3018 0.227152 3.55076
  3247 90.2945 0.227221 -3.55036
  3248 112.493 5.99660 6.22708
  3249 81.0985 -0.883972 4.10013
  3250 81.0992 -0.887176 -4.10225
  3251 45.1374 -16.1240 -15.5962
  3252 45.1753 -16.1182 15.5905
  3253 69.6336 3.53279 3.74471
  3254 69.6343 3.53217 -3.74352
  3255 88.6590 -0.966990 -5.14402
  3256 88.6558 -0.960399 5.14753
  3257 73.6119 1.28236 -4.38594
  3258 73.6144 1.28254 4.38720
  3259 96.0804 -5.18775 -13.5004
  3260 96.0950 -5.19229 13.4986
  3261 90.6260 -2.19787 1.35600
  3262 90.6245 -2.19564 -1.35189
  3263 82.5786 1.00024 5.97471
  3264 82.5733 1.00032 -5.97369
  3265 86.9547 -7.53939 6.20617
  3266 86.9247 -7.50493 -6.19044
  3267 91.0208 -0.955653 0.357516
  3268 91.0205 -0.954364 -0.354729
  3269 131.404 4.09381 13.1227
  3270 97.0607 0.682500 7.98396
  3271 97.0538 0.683144 -7.98435
  3272 92.7252 -0.167722 -0.175836
  3273 92.7249 -0.167405 0.176829
  3274 123.453 20.6081 -2.60076
  3275 102.817 -12.8451 5.60757
  3276 91.8199 -0.433863 -1.06684
  3277 91.8169 -0.434518 1.06981
  3278 76.9473 -2.62853 -8.20249
  3279 76.9514 -2.62241 8.19841
  3280 105.513 -4.67562 -16.0397
  3281 65.9594 6.19436 -7.43690
  3282 65.9581 6.19483 7.43875
  3283 16.1094 -44.0669 -2.31135
  3284 18.2846 -38.7930 5.52468
  3285 68.0026 -1.92997 -12.5185
  3286 67.9992 -1.91714 12.5166
  3287 135.507 -3.10951 7.45133
  3288 72.4064 0.0801889 -0.960379
  3289 72.4098 0.0802119 0.960711
  3290 54.6479 6.74589 -3.28304
  3291 54.6561 6.74483 3.27919
  3292 14.8391 -20.8778 -1.01301
  3293 14.8443 -20.9223 1.09058
  3294 113.399 0.0232526 -6.01610
  3295 113.404 0.0225817 6.01383
  3296 90.3870 -11.2669 -8.10912
  3297 102.796 -0.384422 -7.29172
  3298 120.954 8.52453 2.01448
  3299 70.3057 3.95095 -0.461469
  3300 70.3035 3.95153 0.461571
  3301 77.3306 -0.00853240 -0.548854
  3302 77.3360 -0.00854662 0.549017
  3303 89.6042 -0.0181120 -1.03463
  3304 89.6031 -0.0177458 1.03472
  3305 77.9710 1.54186 6.59675
  3306 77.9672 1.54186 -6.59537
  3307 90.7394 -5.45451 -0.303031
  3308 90.7323 -5.45042 0.308256
  3309 117.624 5.23616 -2.81449
  3310 83.0270 -0.303322 -2.82364
  3311 83.0262 -0.301191 2.82269
  3312 77.9930 0.630613 2.40455
  3313 129.265 -0.382934 -3.23487
  3314 129.262 -0.383562 3.23012
  3315 49.2816 -6.63671 19.8659
  3316 49.3005 -6.59182 -19.9179
  3317 85.7965 4.52374 1.78261
  3318 92.2251 -2.32850 6.28629
  3319 92.2177 -2.33268 -6.27688
  3320 93.6839 -5.03882 3.84756
  3321 93.6843 -5.03870 -3.84337
  3322 123.355 -9.20687 6.03028
  3323 123.320 -9.15353 -6.03330
  3324 58.7704 -4.15750 13.4217
  3325 140.309 1.04138 -10.4068
  3326 118.238 10.5643 -4.72283
  3327 58.6050 5.54833 13.8581
  3328 58.6037 5.55156 -13.8525
  3329 146.825 7.51448 9.40977
  3330 57.4886 8.27464 4.87199
  3331 57.4941 8.27338 -4.87072
  3332 72.4179 2.73925 -6.18978
  3333 72.4194 2.73956 6.19140
  3334 119.239 -3.22524 -4.50091
  3335 119.245 -3.22526 4.49124
  3336 68.9554 4.30654 -5.29402
  3337 68.9548 4.30712 5.29547
  3338 61.0840 3.64965 -7.74997
  3339 61.0880 3.65311 7.74493
  3340 69.8000 4.26723 6.62517
  3341 69.7999 4.26678 -6.62347
  3342 104.083 -0.145505 -5.71172
  3343 77.7527 1.98670 7.46124
  3344 77.7491 1.98673 -7.45975
  3345 86.6207 -1.52189 1.97165
  3346 86.6231 -1.52497 -1.97098
  3347 111.917 0.0272790 -5.08677
  3348 167.368 10.2632 0.0711585
  3349 28.5282 -17.6284 -10.8919
  3350 28.5559 -17.6453 10.8896
  3351 50.1114 3.47433 -13.5386
  3352 50.1126 3.46868 13.5479
  3353 87.2811 1.22390 -14.7124
  3354 87.2887 1.22067 14.7115
  3355 124.573 -3.11125 -1.52879
  3356 124.571 -3.10629 1.52044
  3357 84.8864 1.65549 4.88068
  3358 91.5135 -7.27945 -1.38940
  3359 91.4952 -7.27179 1.40072
  3360 112.611 6.32852 0.566961
  3361 50.4390 7.43430 7.92664
  3362 50.4463 7.43381 -7.92075
  3363 123.298 -4.82284 0.437511
  3364 123.294 -4.80811 -0.445074
  3365 92.0937 -12.3980 8.07734
  3366 112.302 20.2300 -3.94554
  3367 64.6025 6.49079 3.16757
  3368 64.6055 6.49016 -3.16696
  3369 69.8860 4.46359 -7.49005
  3370 69.8863 4.46395 7.49188
  3371 73.5307 -5.64583 13.8445
  3372 73.5538 -5.70276 -13.8468
  3373 133.849 -1.03806 -0.547996
  3374 133.837 -1.03597 0.543726
  3375 100.684 0.0960086 -11.2018
  3376 100.691 0.0938493 11.1992
  3377 114.302 -5.78721 -5.33172
  3378 114.317 -5.78601 5.32014
  3379 90.4062 -0.335071 -0.775565
  3380 90.4052 -0.334354 0.776383
  3381 65.5903 4.62204 -15.2630
  3382 65.5943 4.61829 15.2667
  3383 107.640 -4.17120 9.80763
  3384 107.627 -4.16696 -9.81384
  3385 25.7856 -29.0222 -6.92741
  3386 25.7778 -28.9852 6.90061
  3387 71.6274 0.0418195 -0.755319
  3388 71.6307 0.0418184 0.755595
  3389 110.759 7.13732 -7.07772
  3390 70.1625 2.95698 3.66917
  3391 70.1628 2.95640 -3.66795
  3392 71.3252 1.51606 -3.62382
  3393 71.3264 1.51638 3.62504
  3394 61.1042 3.74668 -15.7661
  3395 61.1091 3.74141 15.7710
  3396 91.7221 0.00375858 -0.527091
  3397 93.0513 -0.00628014 0.205264
  3398 91.7206 0.00384354 0.527142
  3399 93.0531 -0.00631155 -0.205193
  3400 98.0026 -10.2204 0.996114
  3401 97.9270 -10.2436 -0.909020
  3402 63.8368 2.82696 -8.17824
  3403 63.8406 2.83110 8.17433
  3404 67.1598 -11.7050 17.8601
  3405 67.1534 -11.7115 -17.8745
  3406 101.844 0.164742 6.30267
  3407 101.837 0.165172 -6.30334
  3408 73.0865 0.0923146 0.751808
  3409 89.7799 -5.92672 1.64383
  3410 89.7905 -5.93327 -1.63994
  3411 81.6193 1.55021 7.85118
  3412 81.6146 1.55043 -7.84995
  3413 90.9655 -1.20775 0.916721
  3414 90.9655 -1.20625 -0.913207
  3415 230.095 9.23072 28.3217
  3416 74.0511 0.638493 -3.26636
  3417 74.0542 0.638594 3.26733
  3418 76.1024 2.90117 8.90405
  3419 76.0994 2.90128 -8.90231
  3420 25.7659 -6.13554 -4.43694
  3421 25.7463 -6.14381 4.46860
  3422 71.2879 2.94511 3.62006
  3423 71.2846 2.94436 -3.62164
  3424 40.7554 5.32886 -2.15621
  3425 40.7779 5.32216 2.15740
  3426 141.868 3.13072 10.6229
  3427 97.2213 2.09008 -6.79092
  3428 88.2388 -1.81745 1.18026
  3429 88.2413 -1.82040 -1.17850
  3430 76.2826 -6.07213 12.5067
  3431 76.3229 -6.17694 -12.5053
  3432 71.8974 3.90002 8.12766
  3433 71.8962 3.89983 -8.12577
  3434 91.9816 0.885227 8.68991
  3435 91.9750 0.885893 -8.68978
  3436 126.419 -3.97628 3.43078
  3437 126.404 -3.95528 -3.42751
  3438 72.9593 2.39423 -3.88132
  3439 72.9621 2.39514 3.87954
  3440 62.8161 -1.34312 -13.8359
  3441 62.8189 -1.33555 13.8191
  3442 61.9902 1.10279 -10.9717
  3443 61.9919 1.10939 10.9641
  3444 178.677 16.4370 -0.0713349
  3445 27.9686 -25.1849 15.8058
  3446 138.690 -0.228631 1.20411
  3447 138.670 -0.226979 -1.20038
  3448 155.949 5.96602 2.62045
  3449 82.1678 -1.16248 3.74955
  3450 82.1692 -1.16588 -3.75127
  3451 73.4956 0.197903 -1.78929
  3452 73.4991 0.197937 1.78987
  3453 71.9825 1.36419 -3.82276
  3454 71.9842 1.36445 3.82398
  3455 32.0140 -0.768605 -7.53701
  3456 32.0559 -0.775872 7.53562
  3457 113.490 -1.03157 8.28225
  3458 113.485 -1.02942 -8.28772
  3459 53.8792 -2.32624 -16.6021
  3460 53.8757 -2.33172 16.5976
  3461 82.5026 1.21894 4.00301
  3462 65.7855 6.42348 10.8032
  3463 65.7858 6.42390 -10.8004
  3464 79.0028 0.305071 2.60088
  3465 87.5664 -0.475138 -5.19834
  3466 87.5637 -0.470301 5.19975
  3467 99.2502 -0.780122 -7.61359
  3468 88.3876 0.0123791 1.11317
  3469 88.3800 0.0123816 -1.11298
  3470 68.7994 4.31310 3.14529
  3471 68.8009 4.31242 -3.14434
  3472 123.652 -5.98726 4.02236
  3473 123.635 -5.95682 -4.02341
  3474 79.3053 1.33520 -1.71640
  3475 67.1182 5.47357 5.09079
  3476 67.1197 5.47291 -5.08948
  3477 118.754 -0.0917416 -4.81771
  3478 118.758 -0.0923789 4.81506
  3479 59.5488 -0.716574 -17.7089
  3480 59.5599 -0.723963 17.7119
  3481 57.3234 -1.64079 15.4047
  3482 57.3184 -1.63379 -15.4152
  3483 82.6170 2.37430 11.4308
  3484 82.6119 2.37542 -11.4298
  3485 74.3315 0.770866 1.77751
  3486 90.9789 6.85601 4.58194
  3487 73.6506 2.86208 1.73774
  3488 73.6484 2.86218 -1.73857
  3489 71.9245 0.205411 1.62814
  3490 71.9216 0.205359 -1.62755
  3491 37.3725 -9.19166 13.9633
  3492 79.4469 0.278762 -2.58319
  3493 79.4521 0.278790 2.58381
  3494 67.4951 5.40417 -6.12636
  3495 67.4940 5.40476 6.12791
  3496 78.1382 1.06701 3.22835
  3497 78.1371 1.06585 -3.22998
  3498 81.3346 0.595719 2.56941
  3499 81.3345 0.594664 -2.57047
  3500 81.0756 -0.00909102 1.48517
  3501 81.0398 -0.00886955 -1.49317
  3502 105.387 -8.25338 -1.07261
  3503 107.576 -14.3982 -5.29146
  3504 107.943 -14.4878 5.08273
  3505 88.9036 7.13255 1.26875
  3506 69.9698 3.36734 4.59673
  3507 69.9700 3.36679 -4.59535
  3508 39.3061 -7.03151 14.9393
  3509 39.2880 -7.01652 -14.9287
  3510 87.6590 3.08982 5.47767
  3511 80.9352 2.06918 8.73761
  3512 80.9307 2.06949 -8.73630
  3513 89.5119 -0.144737 1.02378
  3514 89.5129 -0.145325 -1.02339
  3515 55.9254 5.72223 -5.64583
  3516 55.9324 5.72234 5.64032
  3517 61.4061 7.60243 7.93907
  3518 61.4090 7.60192 -7.93672
  3519 77.3923 3.16121 -14.6030
  3520 77.3979 3.15831 14.6043
  3521 101.222 -13.8144 -7.54469
  3522 69.5486 3.62733 4.04663
  3523 69.5492 3.62672 -4.04538
  3524 30.0543 -23.2449 -17.3216
  3525 74.6595 2.55840 7.24864
  3526 74.6571 2.55827 -7.24697
  3527 70.2090 2.99335 -4.12378
  3528 70.2089 2.99389 4.12508
  3529 208.169 15.1128 -2.42216
  3530 65.9434 3.69836 16.0212
  3531 65.9379 3.70299 -16.0176
  3532 100.238 14.3705 4.40255
  3533 140.311 0.927552 10.5842
  3534 69.5667 -0.547196 -10.1050
  3535 69.5722 -0.540592 10.1025
  3536 80.1906 1.33818 -6.65983
  3537 80.1951 1.33812 6.66107
  3538 127.849 -4.96402 11.9584
  3539 127.828 -5.04113 -11.9222
  3540 86.6016 0.0161102 -1.63701
  3541 86.6008 0.0169751 1.63689
  3542 160.409 7.40600 -0.913792
  3543 70.3251 3.71236 6.20999
  3544 70.3248 3.71191 -6.20835
  3545 76.0526 0.706381 3.86070
  3546 76.0488 0.706293 -3.85967
  3547 84.3128 -7.19909 -16.1520
  3548 84.3236 -7.19932 16.1543
  3549 88.0742 -0.141980 -1.35789
  3550 88.0732 -0.141147 1.35810
  3551 70.9972 3.67262 -1.65666
  3552 71.0000 3.67254 1.65591
  3553 86.4839 0.0122885 -1.27831
  3554 86.4655 0.0133280 1.28046
  3555 253.522 5.95022 -5.83588
  3556 90.7026 -2.19030 -4.50404
  3557 90.7045 -2.19060 4.50974
  3558 91.7233 0.370907 4.70523
  3559 76.7165 -0.0298396 5.50758
  3560 76.7146 -0.0324987 -5.51065
  3561 70.3545 3.26972 -5.13725
  3562 70.3548 3.27022 5.13874
  3563 77.9853 -16.7257 -15.1973
  3564 77.9154 -16.6432 15.2088
  3565 54.7303 7.55852 -0.697029
  3566 54.7383 7.55699 0.695093
  3567 72.5736 0.761570 -3.11628
  3568 72.5760 0.761715 3.11728
  3569 96.4861 0.0408909 -12.7673
  3570 96.4940 0.0381083 12.7647
  3571 80.5031 -12.9609 -17.1567
  3572 66.4905 5.74954 4.40425
  3573 66.4925 5.74887 -4.40314
  3574 127.689 -1.15576 -3.54876
  3575 127.686 -1.15604 3.54158
  3576 105.121 9.31268 -7.67568
  3577 52.6622 -17.5958 23.0693
  3578 67.7529 5.68914 -8.04470
  3579 67.7524 5.68950 8.04666
  3580 83.2491 0.667024 4.22413
  3581 90.6229 -13.4070 10.8881
  3582 90.9994 5.36108 -5.97891
  3583 55.4007 0.711985 -13.2020
  3584 55.4065 0.710359 13.1888
  3585 91.6491 -0.0593683 -0.581253
  3586 91.6478 -0.0591746 0.581546
  3587 90.0611 7.02277 -3.58568
  3588 74.6228 1.23122 -4.68794
  3589 74.6257 1.23137 4.68921
  3590 100.822 5.33732 -8.17098
  3591 89.3301 5.03235 -4.76054
  3592 85.0269 1.65697 -4.98394
  3593 67.2599 5.94077 9.25446
  3594 67.2604 5.94062 -9.25221
  3595 72.6455 3.04734 -2.22781
  3596 72.6481 3.04744 2.22676
  3597 100.104 11.8059 -6.42943
  3598 71.8776 0.0243880 0.343126
  3599 71.8740 0.0243906 -0.343005
  3600 90.7951 -1.71584 -2.67663
  3601 90.7953 -1.71762 2.68151
  3602 57.8734 7.75116 -0.936896
  3603 57.8673 7.75215 0.936073
  3604 84.3389 2.38288 12.3117
  3605 84.3332 2.38445 -12.3111
  3606 52.9635 8.39577 -3.15179
  3607 52.9549 8.39804 3.15285
  3608 88.5383 -0.808486 -1.14205
  3609 88.5368 -0.806753 1.14321
  3610 85.8843 0.246695 15.5439
  3611 85.8754 0.250682 -15.5452
  3612 90.9440 -0.986312 1.96149
  3613 90.9459 -0.984995 -1.95713
  3614 107.667 0.819161 6.53577
  3615 58.0340 6.91415 -2.46620
  3616 58.0400 6.91391 2.46346
  3617 89.0352 -0.621915 -1.04219
  3618 89.0340 -0.620541 1.04326
  3619 93.3750 -6.68843 -1.02711
  3620 93.3784 -6.68941 1.03578
  3621 75.2398 1.74835 3.70441
  3622 75.2377 1.74735 -3.70627
  3623 87.4395 -13.6123 -13.8742
  3624 87.4476 -13.5991 13.9019
  3625 99.0701 -1.68102 7.24740
  3626 75.8369 0.0668204 -1.39048
  3627 75.8414 0.0668318 1.39089
  3628 65.1602 4.21880 -4.94718
  3629 65.1644 4.22058 4.94500
  3630 95.6947 10.2023 -4.97790
  3631 148.395 22.4671 -7.42404
  3632 95.1296 0.542115 7.19012
  3633 95.1226 0.542566 -7.19014
  3634 44.1613 -23.4847 11.4441
  3635 44.0559 -23.5360 -11.4387
  3636 90.5774 -0.0993636 -0.804433
  3637 90.5763 -0.0989912 0.804776
  3638 88.9223 0.815498 -6.90977
  3639 88.9287 0.815197 6.91036
  3640 78.3961 0.142328 1.75307
  3641 78.3909 0.142313 -1.75261
  3642 74.8545 0.0634596 -1.18274
  3643 74.8588 0.0634642 1.18311
  3644 72.4482 0.148790 1.36984
  3645 72.4449 0.148755 -1.36937
  3646 75.1760 0.630802 -2.26672
  3647 91.4804 0.244878 -4.84715
  3648 128.925 6.21116 -11.7369
  3649 55.4316 8.13383 7.41235
  3650 55.4372 8.13297 -7.40910
  3651 134.426 10.2313 6.20425
  3652 61.7289 7.40080 9.17909
  3653 61.7313 7.40065 -9.17631
  3654 135.119 13.2694 -15.5027
  3655 77.5586 0.598968 3.83473
  3656 77.5543 0.598921 -3.83377
  3657 77.1302 0.297078 2.68188
  3658 77.1257 0.297052 -2.68117
  3659 92.0404 -8.22902 -2.17067
  3660 92.0221 -8.22130 2.20212
  3661 70.6819 3.87588 0.555561
  3662 70.6794 3.87626 -0.555859
  3663 94.5526 -13.7601 -9.19166
  3664 128.931 14.6848 36.8496
  3665 67.3927 3.56736 -5.21112
  3666 67.3968 3.56914 5.20912
  3667 41.9919 -10.1476 -15.9424
  3668 42.0175 -10.1604 15.9470
  3669 84.9210 -10.5876 -11.6605
  3670 68.7799 3.99806 -3.01638
  3671 68.7834 3.99865 3.01515
  3672 54.8064 -11.9574 -18.0170
  3673 54.8352 -11.9614 18.0061
  3674 70.1096 2.48761 5.33602
  3675 70.1057 2.48586 -5.33815
  3676 119.925 -9.69621 -4.44599
  3677 119.839 -9.36446 4.14250
  3678 89.6021 -0.998119 -6.17509
  3679 89.5955 -0.983345 6.17884
  3680 89.0578 -7.03616 -3.56069
  3681 89.0445 -7.02411 3.55343
  3682 78.7582 0.853042 5.04293
  3683 78.7538 0.853020 -5.04181
  3684 125.557 23.5001 2.19437
  3685 90.2515 -6.74996 -2.16482
  3686 90.2339 -6.73924 2.16899
  3687 71.8605 1.06051 6.81289
  3688 71.8564 1.05769 -6.81565
  3689 116.562 0.0412279 -4.21851
  3690 116.567 0.0408718 4.21689
  3691 88.9415 -2.43717 0.696808
  3692 88.9444 -2.44045 -0.694200
  3693 91.2157 -2.72119 -3.93816
  3694 91.2185 -2.72271 3.94312
  3695 88.3771 6.92628 -1.24367
  3696 61.2006 5.95795 -3.41785
  3697 61.2055 5.95879 3.41545
  3698 69.3080 4.38272 -1.36799
  3699 69.3110 4.38264 1.36738
  3700 90.6569 -16.3397 16.2665
  3701 75.9334 -15.3827 21.1711
  3702 110.404 0.0393015 1.74555
  3703 110.396 0.0393489 -1.74584
  3704 105.280 15.5342 -5.79155
  3705 119.195 -0.609645 13.5589
  3706 115.831 0.0941209 1.81247
  3707 115.824 0.0941863 -1.81295
  3708 80.0030 -11.4198 -15.5917
  3709 79.0486 -3.18432 -7.59578
  3710 79.0514 -3.17823 7.59058
  3711 70.0582 4.08309 -0.0312612
  3712 70.0558 4.08357 0.0311894
  3713 114.222 -0.0403493 -6.53827
  3714 114.227 -0.0413097 6.53535
  3715 73.8870 -16.7854 22.9183
  3716 47.6879 5.45935 -6.25038
  3717 47.7030 5.45467 6.24365
  3718 58.5215 -2.55234 -18.0056
  3719 58.5347 -2.56060 18.0074
  3720 87.8697 -6.10293 -3.87755
  3721 87.8594 -6.09954 3.87577
  3722 84.2525 -1.74034 3.14449
  3723 84.2550 -1.74420 -3.14521
  3724 86.0606 -4.59247 -3.99651
  3725 86.0539 -4.58566 3.99559
  3726 49.9952 7.46932 -1.67600
  3727 50.0072 7.46592 1.67359
  3728 126.567 -3.54543 1.67858
  3729 126.558 -3.53130 -1.68051
  3730 89.5579 -0.672231 2.97542
  3731 89.5627 -0.671634 -2.97048
  3732 105.925 3.72373 6.91810
  3733 64.4125 6.47422 11.6651
  3734 64.4127 6.47513 -11.6619
  3735 137.821 -0.521913 -1.51389
  3736 137.837 -0.524089 1.51965
  3737 73.0834 0.0648485 -1.07166
  3738 73.0871 0.0648635 1.07202
  3739 105.080 0.0711455 -8.65398
  3740 105.087 0.0699944 8.65193
  3741 178.698 11.2552 -6.13964
  3742 68.0808 4.88131 -0.877010
  3743 68.0782 4.88181 0.877164
  3744 81.0136 0.677519 4.50663
  3745 81.0085 0.677507 -4.50572
  3746 72.2100 -15.1149 -22.2792
  3747 72.2282 -1.17978 -9.41484
  3748 72.2335 -1.17462 9.41094
  3749 118.246 22.5275 -2.94026
  3750 93.1749 -0.0688484 0.404748
  3751 93.1790 -0.0687223 -0.403546
  3752 79.5481 -11.1554 15.4888
  3753 94.4277 7.81854 6.18670
  3754 68.0697 4.95518 1.50464
  3755 68.0721 4.95458 -1.50426
  3756 77.7981 0.541127 16.9663
  3757 77.7891 0.545853 -16.9662
  3758 73.2451 2.42037 3.45089
  3759 73.2425 2.41966 -3.45251
  3760 76.2026 1.95094 2.45068
  3761 76.2010 1.95060 -2.45188
  3762 88.4360 -9.51908 7.43005
  3763 88.2830 -9.41732 -7.36156
  3764 91.3882 2.29093 1.19760
  3765 67.4170 5.17685 1.99772
  3766 67.4194 5.17624 -1.99723
  3767 51.0644 -1.48181 -12.8506
  3768 67.3608 5.27079 -0.770540
  3769 67.3579 5.27123 0.770614
  3770 85.8318 -5.91127 5.27330
  3771 85.8391 -5.91769 -5.27592
  3772 75.8957 1.48437 5.64800
  3773 75.8925 1.48424 -5.64662
  3774 91.0097 -2.44693 -3.43349
  3775 91.0116 -2.44875 3.43843
  3776 88.1648 -1.37540 1.26758
  3777 88.1669 -1.37786 -1.26614
  3778 52.9171 -17.9715 -22.9340
  3779 109.456 0.0341832 4.47912
  3780 109.449 0.0344319 -4.48006
  3781 89.5619 1.44617 12.3307
  3782 89.5554 1.44795 -12.3311
  3783 85.5694 -3.71989 3.68230
  3784 85.5749 -3.72593 -3.68305
  3785 84.9434 -0.0558665 -1.22537
  3786 84.9221 -0.0528960 1.22570
  3787 150.188 13.4955 -2.26722
  3788 70.6218 -7.63806 -16.8598
  3789 70.7592 -7.50787 16.6972
  3790 97.8980 0.165113 -4.18230
  3791 97.9058 0.164988 4.18231
  3792 78.0239 0.0362712 -0.611714
  3793 78.0294 0.0362719 0.611880
  3794 114.252 -4.23152 -6.90503
  3795 114.263 -4.23329 6.89573
  3796 70.5137 2.50362 -3.83806
  3797 70.5139 2.50412 3.83933
  3798 90.9241 -0.178268 -0.722180
  3799 90.9230 -0.177811 0.722795
  3800 64.9316 6.26936 2.15690
  3801 64.9347 6.26883 -2.15658
  3802 70.0933 3.70703 -5.77530
  3803 70.0935 3.70751 5.77688
  3804 66.9478 5.44697 -3.93066
  3805 66.9459 5.44763 3.93167
  3806 34.4467 -1.39534 9.21059
  3807 34.4507 -1.38733 -9.19068
  3808 89.2095 1.38931 -13.2902
  3809 89.2163 1.38692 13.2896
  3810 110.106 -4.82563 1.52936
  3811 172.772 8.46218 11.7728
  3812 80.0524 1.82298 7.86766
  3813 80.0482 1.82316 -7.86630
  3814 68.2403 1.35708 17.4389
  3815 68.2318 1.36283 -17.4368
  3816 62.2549 -16.6135 16.4193
  3817 62.2121 -16.6440 -16.4691
  3818 116.457 -1.53113 -7.45755
  3819 116.462 -1.53355 7.45070
  3820 83.6410 -0.735909 2.88125
  3821 83.6423 -0.738541 -2.88207
  3822 65.6365 6.57051 9.57371
  3823 65.6373 6.57045 -9.57123
  3824 83.7239 -9.30480 -16.4458
  3825 83.7328 -9.30043 16.4516
  3826 94.1626 2.64526 7.73018
  3827 87.5424 -0.593685 -1.56459
  3828 87.5411 -0.592068 1.56512
  3829 118.585 0.949743 13.7073
  3830 96.8823 -4.31224 5.75409
  3831 96.7826 -4.32625 -5.69974
  3832 93.7218 5.58813 6.98017
  3833 73.2985 0.646949 -3.08977
  3834 73.3013 0.647063 3.09074
  3835 105.237 1.05341 19.8435
  3836 75.1677 2.02882 2.91996
  3837 75.1658 2.02826 -2.92141
  3838 75.2571 2.84917 8.12553
  3839 75.2545 2.84914 -8.12381
  3840 91.2838 -0.320569 1.45437
  3841 91.2891 -0.319997 -1.45100
  3842 90.1967 5.34905 5.37153
  3843 103.634 2.47972 9.01089
  3844 91.8964 -7.46396 21.7386
  3845 95.9862 1.97723 7.99409
  3846 82.8481 0.303758 -2.35253
  3847 82.8478 0.304922 2.35172
  3848 99.4678 -2.95482 -6.69052
  3849 107.608 -9.46170 2.53411
  3850 72.7365 2.04972 5.26035
  3851 72.7347 2.04943 -5.25889
  3852 73.0776 1.37674 4.37373
  3853 73.0753 1.37653 -4.37243
  3854 71.8665 3.19371 2.69397
  3855 71.8637 3.19342 -2.69517
  3856 112.795 -1.51082 -15.5454
  3857 68.9749 3.27441 -4.67927
  3858 68.9787 3.27580 4.67745
  3859 71.1830 3.27804 6.19188
  3860 71.1822 3.27766 -6.19024
  3861 68.2142 4.66546 2.59859
  3862 68.2161 4.66480 -2.59785
  3863 111.656 -5.86901 -7.00342
  3864 111.672 -5.87089 6.99426
  3865 230.143 11.7692 -5.88283
  3866 91.5190 -0.689086 -0.479103
  3867 91.5185 -0.690063 0.481834
  3868 69.6451 3.81448 4.80310
  3869 69.6454 3.81390 -4.80170
  3870 76.4535 0.335830 2.79308
  3871 76.4493 0.335796 -2.79232
  3872 14.4387 -0.272587 -0.000270536
  3873 14.8834 -1.11081 0.0341715
  3874 14.5366 -0.352353 -0.676735
  3875 14.4463 -0.234409 0.718939
  3876 14.1430 0.188058 -0.349825
  3877 14.1017 0.204227 0.335018
  3878 14.8608 -1.20011 -0.735376
  3879 14.0593 0.173974 -0.0225428
  3880 14.8246 -1.03513 0.805948
  3881 15.1537 -1.91143 -0.00240222
  3882 15.0769 -1.65317 0.591087
  3883 14.6567 -0.607628 -0.225817
  3884 14.6361 -0.582250 0.247309
  3885 14.5217 -0.437118 -1.05759
  3886 14.1161 0.359208 -0.666585
  3887 14.1089 0.357653 0.663029
  3888 14.3877 -0.156438 -0.341410
  3889 15.0784 -1.79652 -0.604980
  3890 13.9212 0.308352 0.160179
  3891 13.9462 0.307108 -0.179251
  3892 14.4919 -0.323440 1.06793
  3893 14.3645 -0.142091 0.343363
  3894 14.2342 0.0161922 -0.130446
  3895 14.2270 0.0181152 0.156445
  3896 14.2660 0.127527 -0.941352
  3897 14.1951 0.263920 0.948764
  3898 14.8324 -0.974330 -0.398974
  3899 15.2232 -2.17770 0.283397
  3900 14.7960 -0.916737 0.454825
  3901 15.2511 -2.19832 -0.407156
  3902 15.0026 -1.39324 -0.265900
  3903 14.9979 -1.56460 0.212035
  3904 14.7700 -1.16384 -1.18125
  3905 14.9525 -1.32222 1.05259
  3906 13.9396 0.539766 0.470689
  3907 13.9378 0.537460 -0.496584
  3908 13.9048 0.295401 -0.0601429
  3909 14.6399 -0.754835 1.22552
  3910 13.8681 0.444263 0.283264
  3911 13.8810 0.301197 0.0254766
  3912 13.9108 0.440830 -0.302763
  3913 14.6915 -0.736007 -0.746223
  3914 14.6274 -0.624994 0.759914
  3915 14.7473 -0.772368 0.0395490
  3916 14.3089 0.00734587 -0.574050
  3917 14.3054 0.0231953 0.572108
  3918 14.6422 -0.606942 -0.497885
  3919 14.5854 -0.503106 0.0100958
  3920 14.5527 -0.542017 -1.28356
  3921 14.3259 -0.0158594 -1.22389
  3922 14.0678 0.166156 0.124663
  3923 14.4930 -0.349553 -0.199304
  3924 14.4876 -0.337850 0.208053
  3925 14.0800 0.540893 -0.870378
  3926 14.1165 0.188177 -0.220454
  3927 15.1283 -2.04924 0.761872
  3928 15.0064 -1.60469 -1.06062
  3929 14.2418 0.218923 1.16824
  3930 14.4949 -0.319208 0.439693
  3931 14.9353 -1.37084 0.636330
  3932 14.0402 0.545692 0.822488
  3933 15.2814 -2.34935 0.0422271
  3934 14.7419 -0.893384 -0.913423
  3935 14.3669 -0.141526 -0.168372
  3936 15.1162 -1.76856 0.300540
  3937 14.6418 -0.536480 0.507350
  3938 14.5050 -0.346463 -0.435936
  3939 14.3120 -0.0690836 -0.0117484
  3940 14.3663 -0.204034 1.37150
  3941 14.3692 -0.168764 0.147036
  3942 15.0535 -1.63063 -0.406503
  3943 13.9516 0.661411 -0.677008
  3944 14.2433 0.0177932 -0.292165
  3945 13.8705 0.478981 -0.221161
  3946 14.1757 0.206741 -0.540400
  3947 13.8380 0.367095 0.0646903
  3948 14.1414 0.213946 0.477362
  3949 13.8386 0.384889 -0.0957396
  3950 13.9434 0.592510 0.629055
  3951 14.4266 -0.154864 -0.960132
  3952 13.8520 0.423469 0.178886
  3953 14.1983 0.0507369 0.0225265
  3954 14.2203 0.0479155 0.268656
  3955 15.1715 -2.03760 -0.679033
  3956 14.3005 0.0297941 -0.734421
  3957 14.6523 -0.660112 0.973088
  3958 14.8898 -1.12142 0.293368
  3959 14.0490 0.252274 0.206406
  3960 14.3728 -0.0920739 0.875050
  3961 14.0272 0.210872 -0.0933745
  3962 15.0092 -1.49430 -0.0247767
  3963 14.3119 0.0402669 0.740605
  3964 15.0137 -1.64588 1.09558
  3965 14.7595 -1.05227 1.24538
  3966 13.8474 0.595012 0.370207
  3967 14.8204 -0.961634 -0.165191
  3968 14.9938 -1.48165 -0.818848
  3969 13.8617 0.575511 -0.370547
  3970 14.7976 -0.911952 0.198194
  3971 13.8343 0.317599 -0.0400416
  3972 15.2174 -2.25719 0.557581
  3973 14.4140 -0.156837 -1.36352
  3974 14.1031 0.449775 -1.07793
  3975 15.2448 -2.06320 0.0697334
  3976 14.0725 0.526283 1.10623
  3977 14.9157 -1.18086 -0.467732
  3978 14.8703 -1.09681 0.550054
  3979 14.9742 -1.47864 0.814489
  3980 15.1027 -1.95492 -0.963043
  3981 14.7882 -1.01410 1.04521
  3982 14.0069 0.227798 0.0527960
  3983 13.9820 0.406797 0.366843
  3984 13.9524 0.256621 -0.0217902
  3985 15.3137 -2.46761 0.317192
  3986 13.9944 0.388344 -0.389265
  3987 14.0206 0.290045 -0.277794
  3988 14.1379 0.119991 -0.106272
  3989 14.6493 -0.833861 -1.39663
  3990 14.2997 -0.000769057 -0.407161
  3991 14.8996 -1.16261 -0.208835
  3992 15.1361 -1.91486 -0.332414
  3993 15.3265 -2.47958 -0.356829
  3994 13.8021 0.562496 -0.269895
  3995 14.2067 0.369912 -1.24690
  3996 14.9916 -1.41426 -0.545090
  3997 14.2748 0.0480956 0.417581
  3998 14.2695 0.164520 1.34318
  3999 14.5423 -0.450607 1.38862
  4000 14.1566 0.129287 0.202747
  4001 14.5703 -0.429769 -0.814796
  4002 14.8344 -1.33882 -1.28526
  4003 13.9328 0.619860 -0.808808
  4004 13.7733 0.604621 0.275861
  4005 15.1470 -1.97487 0.516889
  4006 14.7264 -0.748188 -0.339417
  4007 13.8645 0.361585 0.0480761
  4008 14.0779 0.376440 0.554899
  4009 13.7695 0.651948 -0.546496
  4010 14.9367 -1.36972 1.27450
  4011 14.0897 0.421087 -0.585445
  4012 14.7069 -0.691564 0.367537
  4013 13.8402 0.324839 -0.0475182
  4014 14.1609 0.321077 0.764560
  4015 15.0407 -1.54504 0.431664
  4016 14.7404 -0.848685 0.707157
  4017 14.4941 -0.370159 0.877658
  4018 13.8277 0.692720 0.447831
  4019 13.9427 0.289953 -0.127548
  4020 13.9851 0.666764 0.952771
  4021 14.1732 0.309371 -0.808082
  4022 14.8062 -0.974082 -0.649343
  4023 14.9613 -1.32353 0.134385
  4024 13.9537 0.767990 0.766226
  4025 14.4150 -0.176777 0.582404
  4026 14.8373 -1.16905 -0.981745
  4027 13.7266 0.404169 -0.135454
  4028 15.0469 -1.74637 0.836091
  4029 13.9482 0.343161 0.228772
  4030 14.4084 -0.216153 -1.08494
  4031 14.7215 -0.792361 -0.557022
  4032 13.9214 0.310345 0.0940665
  4033 15.2846 -2.60603 -0.134124
  4034 14.4427 -0.206033 -0.605851
  4035 14.6746 -0.712928 0.584838
  4036 15.1694 -1.99909 -0.515583
  4037 13.9516 0.354464 -0.218768
  4038 13.7655 0.423716 0.110676
  4039 14.6631 -0.640868 -0.0638114
  4040 14.6502 -0.629151 0.0954136
  4041 15.0739 -1.68368 0.0504573
  4042 14.5599 -0.437362 -0.288985
  4043 14.5907 -0.459137 0.663737
  4044 14.5105 -0.434145 1.19939
  4045 14.1892 0.0757718 -0.218002
  4046 14.6355 -0.589170 -0.933050
  4047 14.5812 -0.487720 -0.141397
  4048 14.5732 -0.476494 0.158356
  4049 15.0273 -1.59616 -0.597405
  4050 14.2137 0.173635 -0.666599
  4051 14.7108 -0.876286 -1.15794
  4052 14.1903 0.165457 0.663096
  4053 14.5470 -0.421050 0.303523
  4054 14.5295 -0.384144 -1.43285
  4055 14.5054 -0.379608 0.0733427
  4056 14.5080 -0.378267 -0.0630107
  4057 14.3855 -0.0478157 1.03473
  4058 13.9954 0.325872 0.287908
  4059 15.0793 -1.67694 -0.171935
  4060 14.0547 0.334677 0.439693
  4061 14.1570 0.105505 0.108244
  4062 14.0526 0.318575 -0.475606
  4063 13.9853 0.236208 -0.0680523
  4064 14.9684 -1.27873 -0.0649089
  4065 14.7957 -0.941380 0.00542089
  4066 15.2957 -2.32861 -0.626707
  4067 13.8227 0.716254 -0.458593
  4068 14.9714 -1.32792 0.375849
  4069 15.0347 -1.91794 1.01462
  4070 14.4385 -0.256875 -0.122209
  4071 13.9871 0.640536 -0.947890
  4072 14.2992 0.115741 -1.10228
  4073 14.4145 -0.206012 0.238651
  4074 14.4144 -0.160013 -0.452826
  4075 14.4406 -0.276841 0.335416
  4076 13.7934 0.672844 0.510208
  4077 14.5444 -0.437931 -0.534043
  4078 15.4077 -2.60467 0.0903084
  4079 15.2338 -2.12581 -0.138594
  4080 14.6085 -0.616527 -1.10106
  4081 14.1708 0.495763 1.25361
  4082 14.4666 -0.331543 -1.18921
  4083 14.3878 -0.140983 0.452305
  4084 13.7068 0.328928 0.0238367
  4085 14.4191 -0.217953 -0.242218
  4086 14.6197 -0.817497 1.43103
  4087 14.4575 -0.298324 -0.329931
  4088 14.0458 0.499820 -0.767286
  4089 14.3779 -0.165057 -0.0626949
  4090 14.6014 -0.532918 -0.385084
  4091 14.3632 -0.141172 1.20273
  4092 14.5104 -0.394703 -0.974153
  4093 14.9121 -1.32407 -1.05083
  4094 14.4327 -0.265226 0.119945
  4095 14.2870 0.163625 -1.37480
  4096 15.1658 -2.17455 -0.839320
  4097 14.0059 0.252392 0.124452
  4098 13.7382 0.504091 0.191053
  4099 15.0321 -1.74350 -1.20485
  4100 14.8996 -1.24685 0.880530
  4101 14.5967 -0.503393 0.397563
  4102 14.6328 -0.550505 -0.636670
  4103 14.3340 -0.0950523 -0.281510
  4104 14.5356 -0.371669 0.550602
  4105 14.3647 -0.169048 0.0483829
  4106 14.1262 0.404124 -0.950794
  4107 14.3049 -0.0716248 -0.101938
  4108 13.8808 0.364302 -0.183284
  4109 15.1420 -2.23379 0.805315
  4110 14.1043 0.516119 0.722930
  4111 14.0876 0.131819 0.0559503
  4112 14.4092 -0.199153 -0.797799
  4113 14.7409 -0.786133 -0.131056
  4114 14.2340 -0.00377446 -0.0615481
  4115 14.0361 0.253880 -0.168651
  4116 14.3171 -0.0822977 0.241293
  4117 14.7330 -1.11155 1.41022
  4118 13.8672 0.664771 0.827721
  4119 15.0886 -1.77876 -0.854976
  4120 14.2829 -0.0268545 -0.202404
  4121 15.1797 -1.99668 0.232639
  4122 14.3084 -0.0635527 0.0956902
  4123 15.2803 -2.39025 -0.194796
  4124 13.8555 0.365458 0.131349
  4125 14.1928 0.194978 0.564348
  4126 14.7073 -0.721283 0.185204
  4127 13.6489 0.378534 -0.0373942
  4128 15.3852 -2.70823 -0.0396557
  4129 13.9151 0.898581 0.836021
  4130 13.9641 0.887298 -0.763359
  4131 13.8558 0.886059 0.660415
  4132 13.7829 0.742423 0.497259
  4133 13.8320 0.775933 0.422064
  4134 13.7543 0.664948 0.325354
  4135 13.7025 0.598632 0.193853
  4136 13.7727 0.498309 0.136853
  4137 13.6610 0.466301 0.104855
  4138 13.7800 0.386338 0.0586534
  4139 13.7233 0.352020 0.0729908
  4140 13.8211 0.315680 -0.0732359
  4141 13.8396 0.389953 -0.0509744
  4142 13.7101 0.413266 -0.0671884
  4143 13.7219 0.465965 -0.160952
  4144 13.8475 0.610023 -0.233013
  4145 13.7394 0.592692 -0.302219
  4146 13.8367 0.778158 -0.416471
  4147 13.7631 0.734200 -0.532605
  4148 13.8340 0.853813 -0.643480
  4149 13.9288 0.790131 -0.868535
  4150 14.0066 0.777723 -1.03922
  4151 14.0655 0.593055 -1.18293
  4152 14.1875 0.376534 -1.36988
  4153 14.2912 0.0250644 -1.43642
  4154 14.3964 -0.283559 -1.45904
  4155 14.4636 -0.655575 -1.51062
  4156 14.6374 -1.13754 -1.48438
  4157 14.7256 -1.42802 -1.39664
  4158 14.9525 -1.55187 -1.32296
  4159 15.0986 -2.06657 -1.07937
  4160 15.2689 -2.31727 -0.813902
  4161 15.3902 -2.49557 -0.527676
  4162 15.3079 -2.60498 -0.273031
  4163 15.5104 -2.60041 0.263043
  4164 15.2163 -2.45105 0.575785
  4165 15.1180 -2.36673 0.785556
  4166 15.0807 -2.13164 1.04338
  4167 14.9892 -1.73609 1.22553
  4168 14.8722 -1.32667 1.42835
  4169 14.6056 -1.00243 1.53472
  4170 14.5103 -0.598202 1.51411
  4171 14.3805 -0.323283 1.47048
  4172 14.2303 -0.0202415 1.45251
  4173 14.1913 0.453723 1.35579
  4174 14.0387 0.622117 1.18391
  4175 13.9825 0.761318 1.04440
  4176 13.9018 0.771431 0.878645
</Section>

newXOutput 11

<Section columns = "stress_xx | stress_yy | stress_xy">
  1 74.3728 0.0987882 -0.224437
  2 74.3734 0.0988257 0.224483
  3 98.8533 -0.0305408 0.0573883
  4 98.8526 -0.0305836 -0.0574273
  5 243.109 15.1490 2.86898
  6 306.354 4.06728 0.411733
  7 78.9079 -0.00680807 -0.255399
  8 78.9116 -0.00679860 0.255492
  9 102.981 -0.00674191 0.194922
  10 102.983 -0.00675504 -0.194934
  11 10.9481 -76.2713 3.16310
  12 11.2333 -76.8315 -3.48221
  13 86.0602 1.17882 -0.120983
  14 86.0597 1.17948 0.120964
  15 100.178 -0.177518 0.150124
  16 74.4325 0.121654 -0.362680
  17 74.4336 0.121667 0.362867
  18 100.179 -0.177538 -0.150248
  19 82.6930 2.92349 -1.86067
  20 82.6951 2.92335 1.85977
  21 78.7967 0.236922 0.145136
  22 71.8090 0.968464 0.0401077
  23 79.4598 0.0243331 -0.247059
  24 79.9215 0.0338670 -0.271074
  25 80.6389 0.0328152 -0.391137
  26 81.2359 0.0254026 -0.343009
  27 81.9096 0.0296584 -0.402939
  28 82.7837 0.00920673 -0.439446
  29 83.5488 -0.0250470 -0.380981
  30 84.4305 -0.00337138 -0.359595
  31 85.4256 -0.0137723 -0.374066
  32 86.2949 0.00973868 -0.387394
  33 87.4357 0.0468987 -0.582496
  34 88.5826 0.0571580 -0.599403
  35 89.7775 0.0535685 -0.737584
  36 91.3714 0.0174190 -0.799928
  37 92.5121 -0.0267018 -0.780640
  38 94.2984 0.00443571 -0.776719
  39 95.6182 -0.0116740 -0.798103
  40 97.7481 -0.0132989 -0.782703
  41 99.3170 0.0510384 -0.971213
  42 101.210 0.0915953 -1.13316
  43 103.516 -0.0797211 -1.21298
  44 106.077 -0.0931013 -1.13243
  45 108.072 -0.0398946 -1.10984
  46 110.944 -0.0208423 -1.12293
  47 113.050 -0.00997550 -1.46694
  48 115.321 0.0543921 -1.57335
  49 118.868 -0.183689 -1.42188
  50 122.225 -0.190689 -1.21588
  51 124.921 -0.149374 -1.29851
  52 128.603 -0.159331 -1.14075
  53 131.290 -0.0960987 -1.53489
  54 134.871 -0.100620 -1.44950
  55 138.010 -0.0823589 -1.69987
  56 140.408 -0.185466 -1.81294
  57 145.598 -0.625040 -1.46372
  58 146.672 -0.126128 -1.33309
  59 150.243 -0.0332075 -1.05845
  60 152.721 -0.206233 -1.19413
  61 154.885 -0.257107 -0.839519
  62 156.806 -0.276229 -0.652819
  63 157.911 -0.294792 -0.367747
  64 158.674 -0.338472 -0.0361343
  65 158.730 -0.424028 0.420297
  66 157.147 -0.457644 0.809828
  67 156.526 -0.446311 0.984035
  68 153.966 -0.646565 1.41005
  69 149.468 -0.482735 2.15940
  70 144.466 -0.429910 2.84286
  71 139.239 -0.297661 3.30569
  72 131.987 -0.235565 3.75833
  73 125.275 0.0330852 4.04146
  74 116.325 0.130126 4.02973
  75 109.993 0.299794 4.10659
  76 99.9363 0.578739 3.39364
  77 93.3582 0.839406 3.74383
  78 86.3159 0.544504 2.45741
  79 82.6778 0.873315 2.86378
  80 74.8593 1.13139 1.39177
  81 74.6947 0.987851 1.31245
  82 72.7450 0.857523 -0.778662
  83 74.4171 1.09629 -1.67589
  84 78.5896 1.50068 -1.74370
  85 87.5428 0.719382 -3.18142
  86 93.3567 0.759524 -4.20192
  87 99.7466 0.590082 -3.76211
  88 110.220 0.222900 -4.35129
  89 117.388 -0.103051 -4.51613
  90 124.766 0.0605237 -3.54846
  91 132.201 -0.0647011 -3.55550
  92 139.272 -0.280044 -3.20030
  93 144.515 -0.405473 -2.79780
  94 149.474 -0.474570 -2.14291
  95 153.952 -0.644093 -1.40286
  96 156.502 -0.444892 -0.980595
  97 157.120 -0.455956 -0.808280
  98 158.700 -0.423026 -0.420594
  99 158.647 -0.337830 0.0345922
  100 157.888 -0.294463 0.365631
  101 156.788 -0.276090 0.650525
  102 154.871 -0.257123 0.837307
  103 152.712 -0.206335 1.19207
  104 150.238 -0.0334211 1.05676
  105 146.670 -0.126370 1.33163
  106 145.599 -0.625108 1.46254
  107 140.411 -0.185487 1.81181
  108 138.014 -0.0824814 1.69909
  109 134.877 -0.100728 1.44894
  110 131.297 -0.0962004 1.53449
  111 128.611 -0.159405 1.14044
  112 124.930 -0.149432 1.29830
  113 122.234 -0.190747 1.21568
  114 118.878 -0.183748 1.42172
  115 115.331 0.0543429 1.57329
  116 113.060 -0.0100534 1.46697
  117 110.954 -0.0208902 1.12295
  118 108.082 -0.0399269 1.10992
  119 106.087 -0.0931672 1.13250
  120 103.525 -0.0797596 1.21311
  121 101.219 0.0915962 1.13333
  122 99.3259 0.0510098 0.971386
  123 97.7567 -0.0133265 0.782821
  124 95.6265 -0.0116913 0.798254
  125 94.3064 0.00441518 0.776855
  126 92.5197 -0.0267241 0.780817
  127 91.3788 0.0174052 0.800100
  128 89.7845 0.0535646 0.737778
  129 88.5893 0.0571597 0.599576
  130 87.4421 0.0469019 0.582656
  131 86.3011 0.00972641 0.387510
  132 85.4315 -0.0137881 0.374167
  133 84.4361 -0.00338392 0.359697
  134 83.5541 -0.0250630 0.381092
  135 82.7887 0.00919832 0.439576
  136 81.9144 0.0296587 0.403078
  137 81.2405 0.0254041 0.343137
  138 80.6433 0.0328245 0.391279
  139 79.9257 0.0338640 0.271177
  140 79.4638 0.0243260 0.247144
  141 76.7263 0.369285 0.339997
  142 79.8095 0.704940 0.278116
  143 82.5542 1.10991 0.243138
  144 89.4298 0.885473 -0.0367021
  145 92.9186 0.581989 -0.0368165
  146 96.3034 0.208784 0.0272383
  147 103.652 -0.0484741 -0.144472
  148 103.878 -0.0599423 -0.227864
  149 104.301 -0.0793152 -0.115165
  150 104.546 -0.0690119 -0.202128
  151 104.666 -0.0828943 -0.0795208
  152 104.924 -0.0364748 -0.0398361
  153 104.714 -0.142163 -0.0233401
  154 104.430 -0.102557 0.215591
  155 104.278 -0.125625 0.305837
  156 103.635 -0.149886 0.342626
  157 102.418 -0.125632 0.569387
  158 101.250 -0.0947780 0.678884
  159 99.4705 -0.126759 0.878480
  160 97.5751 -0.0403811 1.19761
  161 95.2117 -0.0201147 0.932479
  162 93.1214 -0.00346265 1.01263
  163 90.2255 0.0589400 0.996454
  164 87.9537 0.0977614 1.22104
  165 85.2558 0.135790 1.06558
  166 83.0036 0.159952 0.977995
  167 80.8789 0.252344 0.726045
  168 79.2028 0.226568 0.457743
  169 79.1704 0.141886 0.451339
  170 78.5691 0.444941 -0.452560
  171 79.1496 0.324182 -0.503993
  172 81.3174 0.259876 -0.846752
  173 83.2517 0.272912 -1.32231
  174 85.0179 0.0953616 -1.10036
  175 87.9229 0.0980517 -1.20672
  176 90.2259 0.0672898 -1.00392
  177 93.1431 -0.00818826 -1.01916
  178 95.2361 -0.0219498 -0.932540
  179 97.5946 -0.0409504 -1.19504
  180 99.4863 -0.126667 -0.876494
  181 101.262 -0.0946829 -0.677166
  182 102.427 -0.125518 -0.567998
  183 103.641 -0.149786 -0.341436
  184 104.282 -0.125566 -0.304980
  185 104.432 -0.102531 -0.214812
  186 104.715 -0.142077 0.0239950
  187 104.924 -0.0363860 0.0402788
  188 104.665 -0.0828172 0.0798583
  189 104.544 -0.0689383 0.202329
  190 104.299 -0.0792513 0.115320
  191 103.876 -0.0598898 0.227918
  192 103.650 -0.0484339 0.144507
  193 96.3031 0.208655 -0.0272863
  194 92.9186 0.581632 0.0367554
  195 89.4302 0.884925 0.0366525
  196 82.5546 1.10930 -0.243088
  197 79.8095 0.704546 -0.278039
  198 76.7259 0.369113 -0.339924
  199 73.7081 0.333091 -0.338396
  200 74.6919 0.0815410 -0.408046
  201 75.5637 0.0493175 -0.384753
  202 76.3024 0.0397296 -0.329568
  203 77.1908 0.00532733 -0.380602
  204 77.7389 -0.00266847 -0.327983
  205 78.2064 -0.00170590 -0.239315
  206 79.1192 0.0243295 -0.555172
  207 79.2125 0.0742851 -0.974649
  208 79.4776 0.181918 -1.51869
  209 79.6060 0.306860 -1.97729
  210 79.6748 0.469827 -2.46339
  211 79.5483 0.694302 -2.80661
  212 79.5577 0.922253 -3.20549
  213 79.3824 1.21613 -3.51657
  214 79.1702 1.51225 -3.76074
  215 78.9389 1.84707 -3.95206
  216 78.6504 2.19030 -4.01421
  217 78.4283 2.48827 -4.00750
  218 78.1506 2.87409 -3.96358
  219 77.9009 3.19715 -3.75949
  220 77.6879 3.49569 -3.52014
  221 77.5905 3.77410 -3.15623
  222 77.5344 3.94085 -2.71208
  223 77.6108 4.15794 -2.19930
  224 77.7595 4.22403 -1.61524
  225 78.2499 4.13160 -0.963712
  226 78.8316 4.05099 -0.359645
  227 79.4983 3.86060 0.262427
  228 80.3963 3.63550 0.860053
  229 81.3709 3.23829 1.41545
  230 83.9803 2.40882 2.25070
  231 85.4153 2.01615 2.51305
  232 86.7897 1.63117 2.66403
  233 88.2986 1.28457 2.66829
  234 89.5958 0.914047 2.66492
  235 91.0996 0.653468 2.56412
  236 92.4219 0.418215 2.41174
  237 93.6857 0.281910 2.23868
  238 95.0619 0.170287 1.99428
  239 96.2318 0.106935 1.74265
  240 97.4568 0.0139714 1.51454
  241 98.6696 0.0672320 1.25894
  242 99.8776 0.0240721 0.994329
  243 101.026 0.0133730 0.713443
  244 102.121 0.0361164 0.400678
  245 102.622 -0.0410618 0.149959
  246 101.925 -0.0517904 0.174117
  247 101.038 -0.0981292 0.264235
  248 98.9603 -0.0486783 0.232484
  249 102.123 0.0360815 -0.400684
  250 101.028 0.0132413 -0.713441
  251 99.8789 0.0237993 -0.994325
  252 98.6707 0.0668129 -1.25896
  253 97.4578 0.0133574 -1.51465
  254 96.2326 0.106196 -1.74288
  255 95.0626 0.169377 -1.99465
  256 93.6862 0.280908 -2.23928
  257 92.4222 0.417197 -2.41253
  258 91.0996 0.652476 -2.56511
  259 89.5954 0.913174 -2.66607
  260 88.2979 1.28388 -2.66952
  261 86.7886 1.63063 -2.66531
  262 85.4138 2.01583 -2.51427
  263 83.9785 2.40872 -2.25180
  264 81.3686 3.23858 -1.41614
  265 80.3939 3.63596 -0.860476
  266 79.4960 3.86117 -0.262600
  267 78.8293 4.05165 0.359726
  268 78.2478 4.13231 0.964018
  269 77.7576 4.22477 1.61578
  270 77.6092 4.15871 2.20005
  271 77.5330 3.94161 2.71300
  272 77.5894 3.77484 3.15730
  273 77.6872 3.49639 3.52134
  274 77.9005 3.19779 3.76077
  275 78.1506 2.87467 3.96492
  276 78.4287 2.48879 4.00887
  277 78.6511 2.19075 4.01558
  278 78.9400 1.84746 3.95340
  279 79.1716 1.51256 3.76204
  280 79.3842 1.21639 3.51779
  281 79.5599 0.922447 3.20661
  282 79.5507 0.694460 2.80759
  283 79.6775 0.469933 2.46427
  284 79.6090 0.306936 1.97800
  285 79.4808 0.181967 1.51925
  286 79.2159 0.0743004 0.975009
  287 79.1228 0.0243319 0.555380
  288 78.2099 -0.00172345 0.239403
  289 77.7422 -0.00269729 0.328092
  290 77.1937 0.00530719 0.380740
  291 76.3049 0.0397217 0.329721
  292 75.5658 0.0493161 0.384920
  293 74.6936 0.0815314 0.408203
  294 73.7089 0.333112 0.338493
  295 98.9611 -0.0486621 -0.232599
  296 101.040 -0.0981669 -0.264361
  297 101.927 -0.0518142 -0.174184
  298 102.624 -0.0410869 -0.149993
  299 14.9031 -68.6041 -1.63707
  300 18.5430 -49.6372 -2.63973
  301 30.4507 -21.4386 7.36278
  302 49.8606 -1.20881 17.8834
  303 86.2138 17.9671 35.3961
  304 123.598 28.3764 48.9375
  305 165.089 28.4055 50.6823
  306 207.218 24.4086 44.5581
  307 234.018 18.2555 25.5241
  308 228.006 20.6353 -22.8940
  309 205.081 23.3837 -46.3591
  310 164.557 29.3319 -52.2923
  311 120.095 28.0434 -47.0270
  312 83.3580 22.2165 -38.8491
  313 50.8215 2.97805 -19.9584
  314 33.4111 -18.9404 -9.93095
  315 19.2619 -52.1845 3.58267
  316 16.3789 -71.4348 1.73784
  317 11.6163 -83.7447 -12.0371
  318 11.2779 -69.4374 -13.9477
  319 13.7019 -53.3224 -13.3901
  320 23.1509 -30.2535 -4.12095
  321 37.7091 -11.5265 5.43672
  322 60.4701 5.60979 17.6851
  323 93.1924 12.3216 30.8164
  324 126.608 21.2093 44.7322
  325 157.705 20.8698 50.4181
  326 193.271 20.3039 54.0984
  327 226.644 17.5552 47.2654
  328 265.157 11.2991 44.7825
  329 284.081 8.80661 29.2530
  330 299.278 4.03795 13.9971
  331 304.273 4.95706 -16.6367
  332 286.118 7.34373 -30.6423
  333 263.606 12.3803 -40.5247
  334 235.284 17.3955 -49.9287
  335 198.026 19.6694 -52.0894
  336 164.834 22.4478 -52.6791
  337 124.006 19.8335 -43.0189
  338 90.0939 13.4974 -30.0306
  339 55.8245 5.95338 -17.0291
  340 38.0199 -11.7580 -4.68497
  341 23.4856 -30.1469 4.06700
  342 13.7627 -53.3007 13.3030
  343 11.2650 -69.5515 13.8605
  344 11.5947 -84.1644 11.8432
  345 78.4004 1.12573 -1.65626
  346 82.9856 1.89533 -0.152077
  347 90.9018 0.971307 0.953963
  348 77.8125 0.400680 -1.79113
  349 79.8060 2.26053 -1.42520
  350 95.2770 0.430887 1.14667
  351 78.3856 1.45741 -2.59545
  352 86.0807 1.89496 1.01257
  353 81.9011 2.86018 0.0971240
  354 78.6600 2.62147 -2.40660
  355 78.1674 0.141716 -1.25912
  356 91.7364 0.954174 1.64188
  357 78.6396 0.708391 -2.46510
  358 78.6035 1.21219 -2.97817
  359 78.9915 3.13018 -1.71788
  360 98.3203 0.171386 0.958886
  361 87.8683 1.59742 1.74702
  362 80.3974 1.37322 -0.817342
  363 94.8859 0.428122 1.57083
  364 78.3663 2.46655 -3.08947
  365 84.1054 2.48672 1.21615
  366 76.9392 0.306522 -1.19841
  367 94.7511 0.406187 0.547826
  368 86.1469 1.60229 0.372535
  369 90.1205 1.03850 2.12629
  370 79.4686 3.54903 -0.847494
  371 81.0300 3.30844 0.205995
  372 77.7070 0.493750 -0.627427
  373 92.9125 0.630636 2.03233
  374 78.5191 1.92349 -3.39555
  375 78.2557 3.32260 -2.54747
  376 78.5481 0.0418748 -0.775829
  377 100.459 0.0468821 0.658439
  378 77.1806 0.144322 -1.17987
  379 77.8398 0.766686 -1.91563
  380 78.8532 0.324434 -1.88540
  381 83.8300 1.24470 -0.0616966
  382 78.7008 1.71144 -2.05325
  383 88.8071 1.37432 1.24594
  384 97.9523 0.152010 1.24732
  385 98.6174 0.104401 0.713239
  386 78.8771 1.14715 -3.14192
  387 89.6496 0.996913 0.446222
  388 79.6735 1.75020 -1.36449
  389 86.1907 1.92013 2.01347
  390 82.7315 2.84506 1.06553
  391 76.4359 0.170905 -1.01311
  392 83.8111 2.17753 0.287740
  393 75.8121 0.168279 -0.432748
  394 92.9517 0.749121 1.22986
  395 80.3854 2.88491 -0.899311
  396 81.6458 2.22568 -0.554389
  397 78.2236 1.06934 -2.43572
  398 78.6900 0.167335 -1.39935
  399 78.1503 2.90770 -3.22983
  400 78.5565 3.63383 -1.78492
  401 95.3153 0.277140 1.77961
  402 78.9868 0.707621 -2.67655
  403 96.5182 0.311002 0.666776
  404 81.0050 1.03764 -0.338643
  405 80.6573 1.94405 -0.982194
  406 78.5227 1.87690 -2.60197
  407 77.8889 0.0256623 -0.615830
  408 88.9391 1.24013 2.30046
  409 78.6562 1.82484 -3.64461
  410 79.1694 2.01402 -1.81167
  411 79.7691 3.64346 -0.245895
  412 99.4086 0.0806730 0.929067
  413 83.6545 2.62952 1.62532
  414 99.8758 0.104350 0.567776
  415 91.6354 0.740165 2.19245
  416 78.3677 2.38225 -3.56535
  417 77.9817 0.353451 -1.69816
  418 78.8184 0.930994 -0.822828
  419 86.0845 1.98072 1.50570
  420 77.2602 0.0547991 -0.703874
  421 83.0918 2.67144 0.642049
  422 78.2748 0.833962 -2.38592
  423 93.7081 0.650980 1.50362
  424 82.4948 1.48045 -0.302435
  425 89.6895 1.29749 1.70113
  426 92.7024 0.644915 0.842741
  427 87.4265 1.61281 0.876643
  428 77.5460 0.601576 -1.05810
  429 78.0039 3.69102 -2.29129
  430 79.2861 0.545827 -2.44096
  431 78.5375 3.79910 -1.32638
  432 86.6495 1.28715 0.241359
  433 96.7562 0.285245 1.35006
  434 77.9526 3.31844 -3.09282
  435 79.1028 2.58120 -1.91603
  436 94.0268 0.434891 1.99242
  437 96.8065 0.157842 1.53049
  438 77.2393 0.391558 -1.47528
  439 79.1899 0.980896 -3.10694
  440 78.8624 1.50170 -3.47220
  441 75.3961 0.0433261 -0.637392
  442 85.0901 2.18301 2.05565
  443 87.3566 1.61254 2.29253
  444 78.5234 2.17336 -3.72813
  445 80.5118 3.17486 -0.477909
  446 90.2888 0.932813 2.36124
  447 78.1371 2.80533 -3.53094
  448 78.9111 3.84830 -0.759682
  449 78.2931 1.23589 -2.13063
  450 90.7263 1.11173 1.31086
  451 92.3308 0.671944 0.507979
  452 77.8459 3.60919 -2.76431
  453 81.3930 3.20547 0.819665
  454 92.9619 0.490762 2.17350
  455 97.0335 0.201330 0.330832
  456 84.5118 1.77435 0.196198
  457 87.4881 1.64213 1.42379
  458 79.3654 0.843727 -0.571404
  459 101.375 0.0278212 0.532380
  460 84.4766 2.28088 0.836599
  461 80.3528 3.55375 0.348788
  462 78.3779 0.399267 -1.88555
  463 78.3378 2.81499 -2.78852
  464 78.4969 3.33329 -2.12922
  465 94.8882 0.468312 0.915442
  466 78.5044 1.52997 -2.99152
  467 78.4403 1.92258 -3.07048
  468 77.8384 0.711909 -1.54840
  469 97.2463 0.235645 1.00859
  470 94.0681 0.504836 1.86640
  471 84.4300 1.56729 0.00863483
  472 88.6505 1.24420 0.685820
  473 93.0152 0.674957 1.81378
  474 78.9568 0.109812 -1.22184
  475 79.7474 2.76137 -1.36473
  476 79.0500 3.47012 -1.34519
  477 75.5831 0.209757 -0.349234
  478 82.2926 2.97752 1.34357
  479 96.2543 0.263910 1.52680
  480 79.3481 0.364826 -2.09317
  481 78.3181 0.610899 -0.234266
  482 77.1221 0.291962 -1.39027
  483 78.8833 0.916991 -2.89087
  484 91.5133 0.876524 1.88226
  485 79.1873 0.252930 -1.68091
  486 100.233 0.0369852 0.871040
  487 85.0536 2.30172 1.69874
  488 98.5032 0.0778850 0.396391
  489 97.9538 0.108440 1.37770
  490 78.6310 0.00993424 -0.437511
  491 76.3737 0.0528866 -0.754760
  492 90.8376 0.892678 0.757935
  493 94.7030 0.390582 0.244168
  494 95.5942 0.421441 1.30224
  495 78.6818 1.02917 -2.83666
  496 78.8193 2.23216 -2.26161
  497 78.8336 0.523473 -2.27662
  498 79.1149 1.27564 -3.40143
  499 81.2328 2.70078 -0.486389
  500 82.4441 2.41972 -0.0751882
  501 78.5041 0.0760302 -1.02914
  502 85.3434 1.93636 0.589679
  503 78.6653 3.01512 -2.24069
  504 101.752 -0.0178777 0.294054
  505 78.5364 2.37256 -2.64020
  506 81.6996 1.69244 -0.594153
  507 79.0106 1.17991 -1.28102
  508 88.8465 1.39839 2.01155
  509 82.0141 2.99783 0.561856
  510 86.1272 1.87006 2.30119
  511 77.7641 0.179580 -1.33313
  512 78.2275 0.542387 -2.05615
  513 98.9329 0.103619 1.12085
  514 75.9250 0.0865362 -0.728097
  515 91.0603 0.787098 0.277330
  516 78.1584 0.0126533 -0.378382
  517 78.6295 1.55074 -3.31531
  518 76.4022 0.0385143 -0.552190
  519 97.7569 0.113324 0.140991
  520 74.4151 0.254763 -0.374519
  521 79.6924 3.18883 -1.08885
  522 77.8450 0.596667 -1.94015
  523 89.3432 1.28610 1.06830
  524 101.255 -0.00276107 0.264127
  525 102.336 0.0321299 0.265301
  526 78.0512 3.90993 -1.84760
  527 78.9907 1.54045 -1.63717
  528 99.3275 0.0621712 0.923966
  529 99.8690 0.0249420 0.254188
  530 96.9169 0.249969 0.784711
  531 83.0901 2.51719 0.359774
  532 98.6276 0.161822 0.854766
  533 80.5953 2.51384 -0.951223
  534 77.9206 3.12723 -3.44713
  535 78.1983 1.16422 -2.31593
  536 88.3311 1.06108 0.137356
  537 79.3441 0.764451 -2.85215
  538 92.3136 0.898968 1.41417
  539 87.5166 1.60397 2.00128
  540 75.5332 0.0473237 -0.520050
  541 78.4007 1.12613 1.65702
  542 82.9846 1.89605 0.152170
  543 90.9014 0.971653 -0.954419
  544 77.8142 0.400804 1.79188
  545 79.8052 2.26122 1.42583
  546 95.2774 0.430906 -1.14717
  547 78.3862 1.45781 2.59650
  548 86.0796 1.89544 -1.01305
  549 81.8994 2.86087 -0.0971919
  550 78.6594 2.62214 2.40755
  551 78.1700 0.141756 1.25962
  552 91.7362 0.954132 -1.64257
  553 78.6415 0.708568 2.46604
  554 78.6047 1.21249 2.97929
  555 78.9903 3.13094 1.71854
  556 98.3213 0.171301 -0.959209
  557 87.8674 1.59747 -1.74782
  558 80.3970 1.37380 0.817758
  559 94.8863 0.427869 -1.57135
  560 78.3662 2.46714 3.09062
  561 84.1038 2.48710 -1.21675
  562 76.9402 0.306650 1.19896
  563 94.7513 0.406396 -0.548135
  564 86.1460 1.60294 -0.372726
  565 90.1201 1.03814 -2.12719
  566 79.4669 3.54978 0.847810
  567 81.0281 3.30910 -0.206111
  568 77.7073 0.493986 0.627790
  569 92.9127 0.630135 -2.03303
  570 78.5197 1.92394 3.39680
  571 78.2547 3.32333 2.54842
  572 78.5513 0.0418891 0.776121
  573 100.460 0.0468248 -0.658603
  574 77.1827 0.144374 1.18038
  575 77.8408 0.766946 1.91646
  576 78.8558 0.324508 1.88612
  577 83.8295 1.24537 0.0617605
  578 78.7008 1.71196 2.05414
  579 88.8064 1.37461 -1.24652
  580 97.9532 0.151759 -1.24760
  581 98.6184 0.104391 -0.713558
  582 78.8786 1.14741 3.14307
  583 89.6492 0.997441 -0.446425
  584 79.6730 1.75081 1.36513
  585 86.1895 1.92008 -2.01444
  586 82.7297 2.84549 -1.06604
  587 76.4375 0.170970 1.01357
  588 83.8099 2.17821 -0.287868
  589 75.8129 0.168366 0.433033
  590 92.9517 0.749271 -1.23040
  591 80.3840 2.88568 0.899681
  592 81.6447 2.22642 0.554651
  593 78.2246 1.06963 2.43672
  594 78.6929 0.167371 1.39990
  595 78.1499 2.90834 3.23100
  596 78.5550 3.63461 1.78559
  597 95.3159 0.276586 -1.78005
  598 78.9888 0.707784 2.67754
  599 96.5187 0.311111 -0.667116
  600 81.0047 1.03819 0.338826
  601 80.6566 1.94475 0.982655
  602 78.5228 1.87741 2.60301
  603 77.8919 0.0256649 0.616069
  604 88.9384 1.23969 -2.30149
  605 78.6571 1.82525 3.64590
  606 79.1690 2.01464 1.81247
  607 79.7670 3.64414 0.245943
  608 99.4098 0.0805241 -0.929248
  609 83.6527 2.62973 -1.62612
  610 99.8771 0.104327 -0.567994
  611 91.6354 0.739536 -2.19328
  612 78.3680 2.38279 3.56662
  613 77.9837 0.353560 1.69885
  614 78.8186 0.931395 0.823328
  615 86.0832 1.98096 -1.50641
  616 77.2628 0.0548173 0.704159
  617 83.0901 2.67201 -0.642371
  618 78.2762 0.834174 2.38687
  619 93.7082 0.650925 -1.50422
  620 82.4942 1.48113 0.302634
  621 89.6889 1.29752 -1.70187
  622 92.7023 0.645186 -0.843150
  623 87.4256 1.61332 -0.877057
  624 77.5466 0.601823 1.05866
  625 78.0025 3.69177 2.29210
  626 79.2886 0.545964 2.44184
  627 78.5356 3.79986 1.32685
  628 86.6489 1.28781 -0.241455
  629 96.7569 0.285058 -1.35049
  630 77.9518 3.31915 3.09392
  631 79.1019 2.58190 1.91682
  632 94.0273 0.434231 -1.99299
  633 96.8073 0.157359 -1.53078
  634 77.2406 0.391694 1.47595
  635 79.1917 0.981121 3.10805
  636 78.8636 1.50204 3.47344
  637 75.3975 0.0433512 0.637690
  638 85.0885 2.18297 -2.05665
  639 87.3556 1.61221 -2.29361
  640 78.5239 2.17383 3.72944
  641 80.5102 3.17561 0.478082
  642 90.2885 0.932159 -2.36222
  643 78.1369 2.80594 3.53219
  644 78.9090 3.84902 0.759929
  645 78.2935 1.23628 2.13155
  646 90.7259 1.11192 -1.31145
  647 92.3307 0.672311 -0.508241
  648 77.8447 3.60993 2.76529
  649 81.3909 3.20596 -0.820076
  650 92.9622 0.490002 -2.17421
  651 97.0340 0.201433 -0.331037
  652 84.5109 1.77503 -0.196290
  653 87.4872 1.64239 -1.42444
  654 79.3654 0.844143 0.571753
  655 101.376 0.0277643 -0.532449
  656 84.4752 2.28141 -0.836985
  657 80.3506 3.55433 -0.348998
  658 78.3802 0.399367 1.88629
  659 78.3371 2.81566 2.78957
  660 78.4957 3.33403 2.13001
  661 94.8884 0.468448 -0.915881
  662 78.5052 1.53036 2.99267
  663 78.4406 1.92306 3.07165
  664 77.8390 0.712178 1.54914
  665 97.2471 0.235598 -1.00900
  666 94.0684 0.504409 -1.86700
  667 84.4292 1.56799 -0.00862757
  668 88.6499 1.24472 -0.686139
  669 93.0153 0.674705 -1.81444
  670 78.9599 0.109837 1.22230
  671 79.7462 2.76211 1.36529
  672 79.0484 3.47090 1.34570
  673 75.5837 0.209862 0.349379
  674 82.2906 2.97784 -1.34423
  675 96.2550 0.263566 -1.52720
  676 79.3508 0.364911 2.09394
  677 78.3183 0.611206 0.234461
  678 77.1238 0.292052 1.39088
  679 78.8851 0.917216 2.89195
  680 91.5131 0.876260 -1.88301
  681 79.1902 0.252992 1.68153
  682 100.234 0.0368301 -0.871141
  683 85.0521 2.30190 -1.69956
  684 98.5041 0.0779190 -0.396617
  685 97.9548 0.108033 -1.37787
  686 78.6345 0.00994561 0.437681
  687 76.3756 0.0529250 0.755092
  688 90.8373 0.893096 -0.758281
  689 94.7032 0.390824 -0.244316
  690 95.5947 0.421350 -1.30274
  691 78.6834 1.02942 2.83774
  692 78.8190 2.23277 2.26255
  693 78.8359 0.523604 2.27748
  694 79.1164 1.27592 3.40264
  695 81.2314 2.70153 0.486594
  696 82.4428 2.42045 0.0752274
  697 78.5071 0.0760635 1.02953
  698 85.3423 1.93697 -0.589958
  699 78.6644 3.01584 2.24157
  700 101.754 -0.0179036 -0.294132
  701 78.5361 2.37317 2.64124
  702 81.6989 1.69313 0.594446
  703 79.0106 1.18038 1.28164
  704 88.8458 1.39824 -2.01244
  705 82.0123 2.99840 -0.562137
  706 86.1258 1.86982 -2.30230
  707 77.7664 0.179626 1.33368
  708 78.2294 0.542525 2.05698
  709 98.9341 0.103362 -1.12098
  710 75.9260 0.0866121 0.728461
  711 91.0600 0.787553 -0.277451
  712 78.1618 0.0126505 0.378524
  713 78.6304 1.55111 3.31653
  714 76.4045 0.0385346 0.552424
  715 97.7574 0.113398 -0.141077
  716 74.4159 0.254793 0.374664
  717 79.6909 3.18960 1.08928
  718 77.8463 0.596849 1.94095
  719 89.3426 1.28649 -1.06878
  720 101.257 -0.00278091 -0.264231
  721 102.338 0.0321257 -0.265341
  722 78.0495 3.91069 1.84825
  723 78.9905 1.54098 1.63792
  724 99.3287 0.0620552 -0.924220
  725 99.8702 0.0249494 -0.254355
  726 96.9175 0.250015 -0.785098
  727 83.0886 2.51786 -0.359945
  728 98.6287 0.161794 -0.855105
  729 80.5942 2.51459 0.951648
  730 77.9201 3.12788 3.44833
  731 78.1990 1.16456 2.31690
  732 88.3307 1.06167 -0.137435
  733 79.3462 0.764617 2.85317
  734 92.3135 0.899049 -1.41479
  735 87.5157 1.60384 -2.00222
  736 75.5350 0.0473336 0.520287
  737 61.5132 9.27310 4.07879
  738 61.5209 9.27125 -4.07780
  739 93.5793 -7.74974 8.53975
  740 93.6038 -7.78742 -8.53020
  741 79.2166 4.20043 8.36064
  742 79.2155 4.20013 -8.35861
  743 70.4492 0.615311 -19.4184
  744 70.4594 0.607921 19.4218
  745 108.596 0.428512 8.80836
  746 108.606 1.55027 -8.90119
  747 84.1649 4.13271 -13.3085
  748 84.1686 4.13153 13.3106
  749 105.428 -12.6735 13.0068
  750 105.396 -12.6684 -12.9922
  751 76.6532 3.33163 -6.02345
  752 76.6577 3.33370 6.02121
  753 98.0482 -2.41167 1.20906
  754 98.0515 -2.41526 -1.20671
  755 66.0299 -5.06643 19.6955
  756 66.0161 -5.05931 -19.6901
  757 72.8562 6.69047 3.42923
  758 72.8591 6.68979 -3.42848
  759 82.3210 1.24874 -4.76748
  760 82.3241 1.24891 4.76883
  761 98.9561 8.10564 -0.252937
  762 101.900 -3.94433 4.20785
  763 101.897 -3.94232 -4.20303
  764 97.6044 1.47321 -15.7277
  765 97.6124 1.47002 15.7268
  766 87.9404 1.89282 8.30476
  767 87.9359 1.89294 -8.30320
  768 109.602 -15.1932 -7.96271
  769 109.178 -15.5277 8.46628
  770 138.770 -10.2144 6.45282
  771 138.758 -10.1554 -6.46321
  772 110.996 -2.11132 -14.0761
  773 111.007 -2.11563 14.0716
  774 88.7792 -0.964370 5.12469
  775 88.7794 -0.967999 -5.12760
  776 120.213 22.3577 3.00707
  777 40.1340 4.05915 -0.717354
  778 40.1627 4.05255 0.724748
  779 155.463 5.17993 -12.6596
  780 154.090 5.00082 13.0252
  781 156.961 13.4788 1.68176
  782 98.5073 1.50272 -10.9479
  783 98.5140 1.50178 10.9483
  784 76.7813 4.57080 -5.50383
  785 76.7807 4.57146 5.50539
  786 126.365 6.88125 -5.85759
  787 85.9170 0.839718 4.95316
  788 85.9125 0.839668 -4.95196
  789 96.2965 2.30762 -6.09439
  790 96.4017 2.37476 6.20299
  791 72.8073 7.20446 9.89910
  792 72.8085 7.20421 -9.89658
  793 66.4522 7.21122 13.8996
  794 66.4527 7.21335 -13.8944
  795 105.726 -9.30997 -0.437323
  796 105.721 -9.32347 0.436741
  797 132.528 -7.52484 -0.571253
  798 132.533 -7.50485 0.556249
  799 64.7310 5.43146 -7.55390
  800 64.7369 5.43330 7.54767
  801 51.8064 -13.6632 -18.5783
  802 51.8423 -13.6717 18.5765
  803 128.785 4.30702 3.48607
  804 75.8784 5.23916 -1.13794
  805 75.8819 5.23902 1.13737
  806 99.7626 -0.561505 -0.885839
  807 99.7614 -0.560332 0.887131
  808 100.820 -1.62691 1.58734
  809 100.819 -1.62494 -1.58290
  810 98.6127 -0.977396 6.36593
  811 98.6205 -0.986865 -6.36435
  812 99.5413 -5.68782 1.25298
  813 99.5497 -5.69349 -1.24884
  814 96.7636 0.945241 7.32479
  815 96.7568 0.945495 -7.32399
  816 131.678 -3.04739 -6.49946
  817 131.684 -3.04897 6.48950
  818 80.2965 -2.20190 -11.4568
  819 80.3046 -2.19526 11.4525
  820 81.7665 0.393815 -2.56228
  821 81.7702 0.393887 2.56309
  822 93.9125 -1.05096 2.90367
  823 93.9143 -1.05395 -2.90415
  824 79.3779 2.57825 5.34067
  825 79.3767 2.57784 -5.33908
  826 77.6643 -18.0983 -25.6797
  827 75.6807 -17.8027 25.9210
  828 108.814 14.0092 -5.38639
  829 82.3896 2.13623 4.29941
  830 82.3869 2.13510 -4.30151
  831 116.234 -0.0309255 -10.4597
  832 116.241 -0.0325298 10.4568
  833 90.4112 -11.0599 -15.0217
  834 90.2512 -11.0510 15.0080
  835 67.7765 7.61805 -0.291676
  836 67.7818 7.61785 0.290518
  837 136.341 -1.89821 -15.3606
  838 136.376 -1.60454 15.2994
  839 36.7393 -12.2629 19.6644
  840 36.7469 -12.2227 -19.7911
  841 130.889 7.17488 -8.07832
  842 102.093 -17.9114 -11.9898
  843 102.117 -17.7538 12.3987
  844 74.0683 6.38797 6.83695
  845 74.0698 6.38730 -6.83523
  846 80.7672 4.59268 10.8075
  847 80.7652 4.59286 -10.8053
  848 106.227 11.2452 5.88433
  849 83.9516 0.372511 -2.94900
  850 83.9561 0.372565 2.94985
  851 109.364 0.543572 9.24736
  852 109.357 0.544448 -9.24815
  853 88.4101 -6.14533 -19.3083
  854 88.4218 -6.14633 19.3079
  855 187.755 15.6285 -2.59678
  856 23.4886 -13.3182 -3.09586
  857 23.4716 -13.3332 3.14594
  858 91.1328 0.528505 4.47736
  859 91.1267 0.528505 -4.47648
  860 75.7919 5.17653 3.43162
  861 75.7938 5.17577 -3.43061
  862 90.6889 2.77032 -1.67717
  863 81.0773 4.36153 16.4819
  864 81.0721 4.36482 -16.4796
  865 139.791 -4.25004 -9.48612
  866 139.830 -4.28848 9.52147
  867 94.6305 -3.36506 3.71944
  868 94.6351 -3.37089 -3.72004
  869 105.806 -4.42853 -6.44942
  870 105.804 -4.43776 6.46064
  871 100.027 -1.25814 3.46435
  872 100.030 -1.25696 -3.45874
  873 124.128 4.98758 9.96112
  874 52.1136 5.50047 12.0584
  875 52.1179 5.50371 -12.0472
  876 54.0139 7.28733 -4.27522
  877 54.0290 7.28293 4.27053
  878 119.263 -10.2636 12.0455
  879 82.3672 2.29763 6.75239
  880 82.3645 2.29741 -6.75070
  881 142.520 27.4221 -1.33770
  882 83.8040 -0.458705 7.40525
  883 83.8006 -0.462347 -7.40901
  884 155.254 -1.25625 0.362604
  885 155.211 -1.07868 -0.573206
  886 112.981 -7.37200 -4.18590
  887 112.680 -7.00568 4.49845
  888 190.586 14.5107 1.42898
  889 91.5795 -0.344193 18.3017
  890 91.5689 -0.339266 -18.3028
  891 113.683 -11.8084 -15.8484
  892 101.430 -0.737402 0.165011
  893 101.430 -0.736325 -0.162501
  894 130.864 -1.24025 -7.89384
  895 130.868 -1.24237 7.88732
  896 80.6268 1.02950 -3.84916
  897 80.6294 1.02969 3.85038
  898 68.6874 8.26714 -5.29267
  899 68.6834 8.26803 5.29378
  900 89.9782 2.26516 2.29316
  901 149.181 25.5083 -0.539205
  902 88.5973 2.75854 10.6878
  903 88.5928 2.75902 -10.6862
  904 101.633 0.196564 -8.09795
  905 101.762 0.149930 8.10156
  906 89.5011 0.156259 3.65533
  907 89.5012 0.154136 -3.65706
  908 96.4811 -0.506970 -1.87980
  909 96.4798 -0.505295 1.88009
  910 115.679 9.27609 8.71583
  911 73.4754 7.04029 12.5967
  912 73.4752 7.04108 -12.5934
  913 76.0908 5.17727 1.18071
  914 76.0935 5.17664 -1.18043
  915 55.6172 8.82361 6.00216
  916 55.6275 8.82157 -5.99781
  917 102.869 5.58284 -7.45357
  918 91.0002 -3.84377 -6.52822
  919 90.9977 -3.83702 6.52399
  920 123.895 1.72259 -13.2670
  921 113.258 -6.54569 -12.5901
  922 113.277 -6.55136 12.5863
  923 48.1165 -3.72539 -16.7289
  924 48.1300 -3.73897 16.7405
  925 125.356 1.60719 13.8670
  926 102.790 -12.5151 6.75154
  927 103.502 -12.9223 -6.80296
  928 103.443 0.495859 -6.36079
  929 103.451 0.495595 6.36106
  930 93.7042 0.275318 -5.17137
  931 93.6624 0.347181 5.17319
  932 76.4538 -18.9372 -18.0893
  933 76.5293 -18.9356 17.8969
  934 79.7713 3.14591 6.71547
  935 79.7699 3.14553 -6.71368
  936 100.710 -3.80245 -1.49053
  937 100.714 -3.80529 1.49540
  938 123.221 -14.4137 -3.51271
  939 123.304 -14.4095 3.46672
  940 79.6791 3.64348 2.51264
  941 79.6760 3.64333 -2.51378
  942 115.509 4.94215 2.06758
  943 82.9321 2.98725 8.52718
  944 82.9294 2.98716 -8.52530
  945 91.3124 2.86886 14.8394
  946 91.3062 2.87108 -14.8386
  947 72.6858 5.89204 -2.17661
  948 72.6901 5.89247 2.17544
  949 211.658 17.9860 -0.536737
  950 48.6352 1.56401 -13.1118
  951 48.6561 1.56017 13.0960
  952 94.9232 0.468691 4.85663
  953 94.9162 0.468751 -4.85587
  954 122.520 -8.90535 -11.7648
  955 123.302 -8.63352 10.4813
  956 78.0816 3.35586 4.87451
  957 78.0814 3.35528 -4.87300
  958 80.7691 0.141716 -1.39970
  959 80.7729 0.141750 1.40018
  960 127.424 -0.320413 -7.74207
  961 127.429 -0.321829 7.73793
  962 187.961 9.04344 4.41646
  963 86.3160 0.240045 2.43788
  964 86.3106 0.240014 -2.43724
  965 89.0364 0.257381 -2.98083
  966 89.0424 0.257390 2.98152
  967 142.171 -2.09134 -1.98403
  968 142.165 -2.08859 1.97603
  969 114.577 7.05972 -8.76632
  970 71.6013 -0.621719 -13.9457
  971 71.5999 -0.610670 13.9350
  972 183.676 9.46249 -5.12752
  973 98.7055 6.46282 4.36960
  974 101.173 -0.127275 -0.790977
  975 101.171 -0.126875 0.791486
  976 77.1642 4.67123 6.76074
  977 77.1643 4.67067 -6.75895
  978 144.670 -2.36552 2.87093
  979 144.653 -2.35329 -2.86569
  980 100.466 -8.53774 3.29022
  981 100.506 -8.56672 -3.28721
  982 102.922 -6.49522 -1.74002
  983 102.926 -6.49669 1.74718
  984 108.240 15.8845 0.629564
  985 68.8094 5.20813 16.7425
  986 68.8057 5.21277 -16.7372
  987 77.0857 5.57947 9.37513
  988 77.0855 5.57920 -9.37290
  989 89.0265 1.01140 -3.24220
  990 120.784 -6.61340 -1.29507
  991 147.646 15.4518 9.19277
  992 121.978 19.1510 -6.07977
  993 76.8770 4.29524 4.15568
  994 76.8781 4.29452 -4.15439
  995 97.9686 -0.656453 -3.88374
  996 97.9623 -0.655345 3.88843
  997 73.6427 2.55869 -8.69159
  998 73.6471 2.56297 8.68839
  999 74.6763 5.89249 5.06814
  1000 74.6780 5.89176 -5.06681
  1001 97.6503 6.04078 -3.90852
  1002 66.3133 8.66289 8.93837
  1003 66.3173 8.66229 -8.93549
  1004 85.2061 1.68131 3.51758
  1005 85.2044 1.68032 -3.51937
  1006 87.3123 1.30862 -6.37126
  1007 87.3170 1.30864 6.37262
  1008 77.6456 4.03888 -3.56315
  1009 77.6494 4.03953 3.56167
  1010 84.7071 2.48807 17.8337
  1011 84.6992 2.49268 -17.8327
  1012 117.639 0.296084 6.88554
  1013 117.631 0.296650 -6.88682
  1014 102.985 4.23209 8.06287
  1015 62.8333 8.20279 -1.64569
  1016 62.8410 8.20180 1.64311
  1017 136.694 -2.03120 -10.8459
  1018 136.790 -1.99182 10.8155
  1019 105.614 -0.555612 15.3210
  1020 105.604 -0.551757 -15.3241
  1021 79.3644 -11.7369 21.0093
  1022 79.2691 -11.7502 -21.1690
  1023 122.568 -8.45174 7.39373
  1024 122.543 -8.45135 -7.40535
  1025 95.9641 -5.88414 4.70556
  1026 95.9736 -5.89172 -4.70657
  1027 97.7257 -1.23869 -1.49066
  1028 97.7237 -1.23629 1.49195
  1029 79.6519 1.84854 4.54175
  1030 79.6504 1.84820 -4.54032
  1031 118.978 -8.16097 1.28739
  1032 69.7975 5.63535 -4.96222
  1033 69.8025 5.63710 4.95945
  1034 68.3087 -6.29526 20.5142
  1035 68.2922 -6.28866 -20.5168
  1036 82.7936 0.137607 -1.70976
  1037 82.7981 0.137622 1.71028
  1038 89.3704 0.783369 3.62168
  1039 59.7021 3.47405 -11.2354
  1040 59.7109 3.47354 11.2237
  1041 99.8661 -1.83378 -0.0867463
  1042 99.8679 -1.83625 0.0900552
  1043 101.291 -0.549577 1.70968
  1044 101.294 -0.548643 -1.70577
  1045 73.7298 6.23309 0.789095
  1046 73.7332 6.23265 -0.789106
  1047 91.6122 -13.4872 24.0555
  1048 101.712 -2.73759 -6.30799
  1049 101.719 -2.73533 6.31613
  1050 44.8501 -21.4012 23.2374
  1051 44.6411 -20.6230 -23.6558
  1052 135.888 6.66481 -13.1440
  1053 87.6987 -6.62314 -11.9326
  1054 87.6477 -6.62736 11.9651
  1055 102.233 -0.178566 -0.314846
  1056 102.233 -0.178165 0.315946
  1057 77.5904 4.62150 -0.443212
  1058 77.5933 4.62108 0.442948
  1059 80.5642 0.394687 2.42874
  1060 80.5610 0.394606 -2.42793
  1061 91.6383 2.60934 11.9363
  1062 91.6328 2.61027 -11.9350
  1063 87.8583 -4.42583 9.41645
  1064 87.8533 -4.43514 -9.42174
  1065 80.5616 1.84547 5.05205
  1066 80.5596 1.84518 -5.05055
  1067 139.667 -4.92369 13.1238
  1068 139.631 -4.96529 -13.1061
  1069 92.3309 -1.78519 4.01915
  1070 92.3332 -1.78945 -4.02072
  1071 83.8824 1.09108 4.88621
  1072 83.8786 1.09095 -4.88493
  1073 85.3020 -11.8112 -19.2025
  1074 85.2983 -11.8002 19.2030
  1075 92.1509 1.19463 7.42608
  1076 92.1451 1.19480 -7.42492
  1077 98.5020 -0.266301 -1.38521
  1078 98.5008 -0.265362 1.38562
  1079 149.410 -1.77755 -12.9333
  1080 149.545 -1.69703 12.9350
  1081 23.2293 -30.8356 -6.81543
  1082 23.2607 -30.8443 6.77892
  1083 140.686 -1.00554 -4.35334
  1084 140.684 -1.00646 4.34630
  1085 59.9458 -11.1433 24.3381
  1086 60.3634 -11.1075 -24.1670
  1087 109.865 0.256785 5.66914
  1088 109.857 0.257045 -5.66931
  1089 102.203 -0.495657 0.763649
  1090 102.205 -0.494939 -0.760882
  1091 16.6783 -28.5119 -8.65083
  1092 16.9217 -28.2920 8.95984
  1093 101.144 0.293405 -4.60291
  1094 101.152 0.293296 4.60333
  1095 80.3572 2.01274 5.89637
  1096 80.3534 2.01080 -5.89897
  1097 27.7987 -5.53165 -6.13782
  1098 27.8647 -5.55104 6.14318
  1099 41.1091 -25.5369 12.9318
  1100 41.0840 -25.5851 -12.9327
  1101 99.0058 -3.98780 0.735235
  1102 99.0107 -3.99219 -0.731642
  1103 71.0548 7.00885 0.791015
  1104 71.0589 7.00853 -0.791301
  1105 100.720 1.44865 -12.2675
  1106 100.727 1.44716 12.2672
  1107 134.403 -8.85825 3.76241
  1108 134.389 -8.81352 -3.77538
  1109 78.3778 -6.50180 -17.0697
  1110 78.3395 -6.46300 17.0413
  1111 103.747 -17.3580 17.7822
  1112 107.230 0.758791 -12.1644
  1113 107.238 0.757018 12.1629
  1114 100.944 -2.64200 -3.15006
  1115 100.946 -2.64426 3.15537
  1116 95.1102 -2.04481 2.80171
  1117 95.1133 -2.04888 -2.80155
  1118 92.0760 0.0422472 2.84436
  1119 92.0766 0.0404658 -2.84531
  1120 124.798 17.8314 6.45463
  1121 61.9468 -21.6010 -13.5458
  1122 62.0024 -21.1442 13.2491
  1123 77.4490 -14.8446 -24.8337
  1124 156.158 11.6805 7.84748
  1125 103.002 9.95114 -4.46649
  1126 96.8551 -17.5660 -18.1264
  1127 40.5737 1.89462 8.59217
  1128 40.5861 1.89827 -8.57383
  1129 79.1102 5.54741 12.5974
  1130 79.1083 5.54809 -12.5948
  1131 92.9318 4.03009 1.03360
  1132 94.9151 -0.179810 -4.26058
  1133 94.9095 -0.161633 4.26289
  1134 116.821 -1.46982 7.07200
  1135 125.253 0.154368 -5.73844
  1136 125.259 0.153862 5.73660
  1137 157.723 13.7187 -4.95627
  1138 97.9292 -15.5622 15.4018
  1139 78.3745 3.66436 -6.12223
  1140 78.3750 3.66487 6.12395
  1141 108.692 -4.34672 -6.74109
  1142 109.130 -4.09133 6.93462
  1143 81.4685 2.10996 6.02036
  1144 81.4661 2.10970 -6.01872
  1145 101.456 2.81036 -3.48806
  1146 84.9142 0.461337 -5.41337
  1147 84.9163 0.463769 5.41044
  1148 154.369 9.44991 -10.6719
  1149 81.8741 2.91765 -2.84065
  1150 81.8767 2.91794 2.83929
  1151 123.985 0.0567011 12.1762
  1152 123.161 -2.99403 -10.1462
  1153 123.171 -2.99775 10.1388
  1154 110.290 2.23512 -9.36404
  1155 123.573 0.159047 -12.0755
  1156 82.8368 0.618771 -3.52120
  1157 82.8406 0.618869 3.52222
  1158 99.7284 -1.58368 -5.26152
  1159 99.7279 -1.58088 5.26784
  1160 85.2283 1.16199 0.156348
  1161 85.0514 3.28161 10.3756
  1162 85.0480 3.28187 -10.3737
  1163 117.117 -1.17826 -7.04649
  1164 71.5040 7.27831 4.97052
  1165 71.5070 7.27755 -4.96941
  1166 95.6150 -10.3981 10.3087
  1167 96.3841 -10.8414 -10.1497
  1168 78.4146 5.54417 14.6412
  1169 78.4117 5.54606 -14.6383
  1170 78.7942 2.50382 4.63886
  1171 78.7935 2.50336 -4.63739
  1172 99.5159 -1.16772 0.643513
  1173 99.5174 -1.16966 -0.641351
  1174 65.8759 8.72319 3.20919
  1175 65.8815 8.72210 -3.20897
  1176 78.4323 0.815116 8.48556
  1177 78.4273 0.811220 -8.48882
  1178 94.0136 0.222023 2.87281
  1179 94.0063 0.222033 -2.87228
  1180 109.855 -12.4136 2.40186
  1181 110.480 -12.2909 -2.04259
  1182 84.8749 1.70752 6.57953
  1183 84.8712 1.70741 -6.57800
  1184 81.6779 0.0913177 1.34968
  1185 81.6737 0.0913058 -1.34924
  1186 144.956 -1.79970 -5.30383
  1187 144.970 -1.81352 5.32421
  1188 84.9337 0.112588 -1.51125
  1189 84.9390 0.112596 1.51168
  1190 98.8866 -2.90755 17.1848
  1191 98.8743 -2.90308 -17.1869
  1192 172.765 28.1991 -0.858343
  1193 71.6507 7.52073 7.20777
  1194 71.6531 7.52002 -7.20600
  1195 97.7065 1.19907 9.11907
  1196 97.6998 1.19959 -9.11838
  1197 97.2472 0.781209 -6.86012
  1198 97.3796 0.758411 6.93573
  1199 238.563 14.4314 7.13412
  1200 113.621 15.3084 6.44724
  1201 49.4375 7.67848 0.401637
  1202 49.4558 7.67308 -0.399634
  1203 76.3800 4.85619 2.36383
  1204 76.3821 4.85545 -2.36313
  1205 232.503 15.5458 -7.09478
  1206 94.3635 -0.163512 -2.32853
  1207 94.3625 -0.161940 2.32816
  1208 108.933 -16.5228 -10.3222
  1209 109.060 -16.5319 10.3604
  1210 76.7261 5.27846 -7.84171
  1211 76.7260 5.27896 7.84367
  1212 107.847 1.60610 8.70330
  1213 102.180 2.23083 5.47299
  1214 100.561 -14.8214 -12.5676
  1215 69.0648 7.97396 -2.74019
  1216 69.0604 7.97468 2.74041
  1217 105.259 -6.68995 3.72856
  1218 105.261 -6.69061 -3.71858
  1219 79.7950 4.46823 9.58224
  1220 79.7935 4.46812 -9.58008
  1221 116.019 -0.616504 12.1569
  1222 116.011 -0.613632 -12.1612
  1223 120.699 -11.7215 -6.23772
  1224 120.741 -11.7187 6.22238
  1225 108.204 7.52547 -8.39692
  1226 83.7650 4.05050 11.8458
  1227 83.7618 4.05111 -11.8437
  1228 114.411 19.8848 -1.85847
  1229 108.865 7.09027 8.65336
  1230 99.0679 0.259338 -3.69508
  1231 99.0759 0.259273 3.69555
  1232 128.427 -14.2130 -1.75028
  1233 128.580 -14.0788 1.57103
  1234 91.3371 0.112645 -2.51826
  1235 91.3439 0.112630 2.51879
  1236 87.4424 0.293228 -4.43205
  1237 87.4432 0.295502 4.42968
  1238 35.5248 -12.5249 14.1978
  1239 35.5028 -12.5026 -14.1839
  1240 62.1821 8.79706 9.88602
  1241 62.1871 8.79677 -9.88148
  1242 139.005 0.899030 -16.1006
  1243 115.774 0.277297 4.97341
  1244 115.766 0.277558 -4.97395
  1245 102.854 11.1397 2.92432
  1246 135.443 27.7679 1.40370
  1247 81.9702 -2.22607 -19.9292
  1248 81.9820 -2.23136 19.9289
  1249 105.462 -1.33916 -8.24550
  1250 105.459 -1.47522 8.18699
  1251 86.0838 -7.77101 -16.7792
  1252 88.4879 -9.56865 16.8857
  1253 76.7430 4.44455 3.31852
  1254 76.7444 4.44379 -3.31747
  1255 74.2215 5.99659 2.62420
  1256 74.2242 5.99593 -2.62358
  1257 76.0037 4.97783 4.59603
  1258 76.0050 4.97711 -4.59470
  1259 137.109 -0.423816 -4.96254
  1260 137.111 -0.424588 4.95852
  1261 91.5771 -2.68437 5.12634
  1262 91.5797 -2.68987 -5.12912
  1263 182.086 9.62231 18.8860
  1264 139.151 0.783892 15.9509
  1265 94.7033 3.78199 4.02856
  1266 165.458 4.41946 -5.38573
  1267 84.7937 0.663883 -1.27719
  1268 62.0783 3.95033 16.6483
  1269 62.0737 3.95656 -16.6409
  1270 148.451 6.27034 22.5452
  1271 131.431 7.96915 -2.31346
  1272 56.3699 8.95350 1.11333
  1273 56.3818 8.95011 -1.11352
  1274 88.5350 3.02653 -16.6673
  1275 88.5418 3.02307 16.6682
  1276 131.737 8.27877 21.9072
  1277 61.3118 6.38989 14.4314
  1278 61.3120 6.39334 -14.4240
  1279 93.2437 1.82857 10.0990
  1280 93.2379 1.82913 -10.0979
  1281 185.457 16.7885 2.18393
  1282 135.752 8.38995 5.35482
  1283 168.925 25.2973 7.70207
  1284 141.722 2.13246 -18.2584
  1285 108.640 -7.89822 -3.74652
  1286 108.636 -7.85812 3.76716
  1287 146.117 -6.06719 8.40177
  1288 146.061 -6.17918 -8.33751
  1289 97.2777 -4.67120 -2.57289
  1290 97.2709 -4.66516 2.57477
  1291 81.6877 0.767708 3.62328
  1292 81.6845 0.767570 -3.62218
  1293 87.7746 -1.78835 6.51555
  1294 87.7740 -1.79291 -6.51969
  1295 98.3615 -9.50666 -16.6574
  1296 98.3763 -9.50731 16.6628
  1297 68.7781 8.28035 7.96722
  1298 68.7815 8.27965 -7.96506
  1299 125.220 -5.89079 -2.58687
  1300 93.6077 3.11236 -4.11804
  1301 174.414 9.99889 -22.2762
  1302 160.881 20.6426 -13.9735
  1303 103.975 2.59860 -8.57384
  1304 216.266 13.7847 -14.9567
  1305 98.9951 -0.415814 -2.50263
  1306 98.9857 -0.416344 2.50720
  1307 100.069 -2.79697 -0.674808
  1308 100.072 -2.79990 0.678990
  1309 128.973 -0.840918 -9.86961
  1310 81.0079 0.977901 19.0878
  1311 80.9982 0.983648 -19.0866
  1312 95.9423 -1.10883 -2.16473
  1313 95.9403 -1.10614 2.16520
  1314 149.462 -1.07435 0.511973
  1315 149.444 -1.07061 -0.513847
  1316 96.6751 -3.18245 2.27229
  1317 96.6797 -3.18739 -2.27085
  1318 80.2421 0.786019 -3.24047
  1319 80.2447 0.786180 3.24155
  1320 138.843 4.88644 14.1274
  1321 132.081 -5.04256 -4.04737
  1322 132.089 -5.03872 4.03502
  1323 85.2959 3.99174 14.7301
  1324 85.2912 3.99368 -14.7283
  1325 98.6295 -18.6412 -20.6876
  1326 49.5595 -4.89020 19.3670
  1327 49.5513 -4.88403 -19.3945
  1328 133.343 4.67317 -13.0411
  1329 103.487 -4.67256 -5.33197
  1330 103.491 -4.67422 5.33464
  1331 76.6075 6.04319 10.7393
  1332 76.6071 6.04321 -10.7369
  1333 102.977 -10.4257 -3.65686
  1334 102.955 -10.4314 3.58842
  1335 104.836 0.897353 9.42543
  1336 104.828 0.898113 -9.42561
  1337 12.0022 -39.7998 2.31776
  1338 12.1183 -40.0902 -2.27054
  1339 225.615 14.8360 16.1997
  1340 131.474 2.72894 0.432397
  1341 88.5462 0.251582 -3.09374
  1342 135.284 16.6824 -4.16399
  1343 79.9394 1.27901 -3.86803
  1344 79.9414 1.27926 3.86930
  1345 116.055 -13.5219 6.73375
  1346 102.904 -2.08312 -7.46795
  1347 102.907 -2.07383 7.46913
  1348 146.655 -0.927882 -2.50309
  1349 146.646 -0.927846 2.49649
  1350 85.1539 0.596048 3.83880
  1351 85.1493 0.595991 -3.83779
  1352 73.1624 6.17284 15.3919
  1353 73.1598 6.17559 -15.3880
  1354 166.135 10.4229 8.19802
  1355 112.889 3.02969 -25.7344
  1356 103.078 -0.244802 0.0562322
  1357 103.079 -0.244436 -0.0549123
  1358 46.2959 6.47620 5.63624
  1359 46.3115 6.47441 -5.62635
  1360 101.123 -5.33781 -0.980773
  1361 101.128 -5.34068 0.986345
  1362 130.161 -0.828417 10.4055
  1363 80.6206 3.19295 7.31175
  1364 80.6188 3.19264 -7.30990
  1365 85.0749 0.578891 1.67474
  1366 96.1643 0.831640 16.8193
  1367 96.1553 0.835677 -16.8205
  1368 59.5126 6.25861 -6.29109
  1369 59.5224 6.25786 6.28442
  1370 141.238 -1.36362 7.33102
  1371 141.296 -1.36011 -7.29897
  1372 87.9553 0.126597 1.84665
  1373 87.9493 0.126584 -1.84618
  1374 90.1343 1.12497 6.77210
  1375 90.1289 1.12504 -6.77085
  1376 39.3772 0.203468 -10.5838
  1377 39.4217 0.193067 10.5741
  1378 85.4896 2.17463 7.81975
  1379 85.4859 2.17459 -7.81810
  1380 102.907 -0.0671326 -0.367854
  1381 102.905 -0.0669512 0.368342
  1382 90.2327 -0.687779 4.16895
  1383 90.2334 -0.690924 -4.17096
  1384 25.1751 -32.5507 -14.1826
  1385 23.3864 -31.5544 14.1428
  1386 114.677 -14.5618 -8.61452
  1387 75.2727 5.66708 -6.33260
  1388 75.2716 5.66774 6.33425
  1389 87.8578 1.05828 3.26059
  1390 87.8571 1.05708 -3.26218
  1391 101.123 -1.08443 0.687224
  1392 101.123 -1.08299 -0.683822
  1393 106.946 0.511696 -13.6992
  1394 106.954 0.509069 13.6969
  1395 162.661 3.46824 7.33451
  1396 100.010 2.29454 -7.62668
  1397 80.1216 2.58298 -5.87654
  1398 80.1232 2.58335 5.87820
  1399 82.4580 -1.61292 -9.46544
  1400 82.4626 -1.60723 9.46108
  1401 82.6151 1.76275 5.77630
  1402 82.6122 1.76254 -5.77479
  1403 141.592 -0.464745 -4.21834
  1404 141.590 -0.465412 4.21340
  1405 77.6220 3.54682 4.34015
  1406 77.6224 3.54618 -4.33877
  1407 139.840 -4.86751 -5.68196
  1408 139.865 -4.89597 5.69259
  1409 176.577 10.9906 -5.90147
  1410 79.8794 0.0396337 0.778838
  1411 79.8756 0.0396299 -0.778565
  1412 87.8646 0.742090 4.91551
  1413 87.8595 0.742070 -4.91441
  1414 68.9089 7.78715 12.4994
  1415 68.9100 7.78802 -12.4954
  1416 73.6913 5.95216 1.01014
  1417 73.6874 5.95218 -1.01079
  1418 125.170 24.7907 -2.32572
  1419 138.252 -8.06136 8.84596
  1420 138.203 -8.02263 -8.83780
  1421 79.5620 -4.25296 -14.1376
  1422 79.5695 -4.22723 14.1427
  1423 93.7378 2.29697 13.1062
  1424 93.7318 2.29846 -13.1054
  1425 45.9547 4.94321 6.13942
  1426 45.9287 4.95192 -6.14377
  1427 99.7650 2.16346 7.54368
  1428 178.421 16.7291 -0.877128
  1429 65.9968 6.98275 -3.35464
  1430 66.0029 6.98334 3.35166
  1431 79.2160 4.02143 -1.28252
  1432 79.2188 4.02115 1.28192
  1433 138.947 15.4779 1.68835
  1434 96.8254 -0.162553 -1.72669
  1435 96.8243 -0.161430 1.72677
  1436 75.2931 5.05585 -2.72704
  1437 75.2970 5.05630 2.72590
  1438 93.0686 1.15176 -5.16041
  1439 139.694 -3.63174 0.0723819
  1440 139.687 -3.62185 -0.0790247
  1441 57.7053 -15.5012 22.2676
  1442 88.8511 0.257380 3.15908
  1443 111.876 -1.98323 7.79605
  1444 88.5655 2.21496 9.33697
  1445 88.5609 2.21521 -9.33542
  1446 111.937 -2.25350 -7.71174
  1447 100.775 -1.61571 2.50508
  1448 100.775 -1.61382 -2.49999
  1449 98.6216 -9.54006 6.58005
  1450 98.5110 -9.61062 -6.63396
  1451 98.7442 -13.5340 11.8813
  1452 74.5217 6.33320 8.12017
  1453 74.5227 6.33269 -8.11817
  1454 109.537 0.231295 3.28160
  1455 109.528 0.231365 -3.28157
  1456 77.3512 4.65729 0.627037
  1457 77.3538 4.65667 -0.626899
  1458 121.438 4.30372 7.55961
  1459 83.0944 3.52377 9.65881
  1460 83.0917 3.52380 -9.65681
  1461 70.0148 2.18145 -10.6702
  1462 70.0181 2.18778 10.6643
  1463 100.715 -2.42548 -4.32197
  1464 100.717 -2.42696 4.32785
  1465 81.3059 1.26128 -4.46694
  1466 81.3086 1.26148 4.46827
  1467 130.780 0.0943178 -4.91307
  1468 130.785 0.0938205 4.91084
  1469 80.1035 3.28331 3.49940
  1470 80.1003 3.28275 -3.50097
  1471 98.0187 -0.667182 -1.45754
  1472 98.0172 -0.665572 1.45840
  1473 65.6165 8.93363 -5.08814
  1474 65.6111 8.93482 5.08925
  1475 102.322 -0.0273169 -0.470950
  1476 102.320 -0.0272046 0.471098
  1477 94.2378 4.30432 -1.88079
  1478 60.0355 8.19587 -10.6960
  1479 60.0307 8.19535 10.7018
  1480 93.7951 -4.29328 4.97267
  1481 93.8004 -4.30055 -4.97505
  1482 103.189 -8.38631 0.427610
  1483 103.194 -8.38710 -0.411493
  1484 71.4525 7.46817 11.0346
  1485 71.4537 7.46826 -11.0316
  1486 121.571 -1.41549 10.6780
  1487 121.563 -1.41224 -10.6839
  1488 100.607 -0.397050 1.85483
  1489 100.614 -0.396376 -1.85089
  1490 99.2381 4.43921 -6.45269
  1491 30.4715 -2.87880 -0.840101
  1492 30.4312 -2.87280 0.863293
  1493 78.6454 4.10018 7.37376
  1494 78.6447 4.09975 -7.37187
  1495 77.6378 4.42367 -1.71251
  1496 77.6411 4.42361 1.71174
  1497 131.558 -2.01065 -7.05537
  1498 131.563 -2.01290 7.04681
  1499 80.2544 0.237143 1.87382
  1500 80.2510 0.237090 -1.87318
  1501 100.099 -0.828441 -7.36284
  1502 100.088 -0.812026 7.37445
  1503 73.4404 4.89949 4.45724
  1504 73.4359 4.89818 -4.45915
  1505 90.3262 0.446850 3.05258
  1506 90.3263 0.445346 -3.05385
  1507 108.020 -4.23566 15.0863
  1508 108.006 -4.23065 -15.0897
  1509 121.037 -5.66967 -9.59644
  1510 121.054 -5.67382 9.58840
  1511 106.389 -11.5221 2.16272
  1512 106.484 -11.4181 -2.02671
  1513 93.4977 1.11878 5.35988
  1514 91.6650 -0.484103 3.42217
  1515 91.6661 -0.486758 -3.42345
  1516 120.202 11.2835 -8.21195
  1517 86.3274 -2.59826 -8.09767
  1518 86.3307 -2.59290 8.09275
  1519 92.9333 -17.8631 20.2834
  1520 103.453 11.8600 -1.57119
  1521 93.0505 -5.84243 -7.00884
  1522 93.0483 -5.83217 7.00584
  1523 114.580 -12.5648 2.71941
  1524 60.9622 -1.29805 -18.8984
  1525 60.9756 -1.30778 18.9035
  1526 77.1701 4.11326 4.89044
  1527 77.1707 4.11261 -4.88897
  1528 99.8083 -0.0650385 -1.03870
  1529 99.8071 -0.0645839 1.03895
  1530 74.7181 5.78646 3.97265
  1531 74.7203 5.78572 -3.97159
  1532 132.831 -12.2609 3.23708
  1533 132.807 -12.1891 -3.27286
  1534 105.739 0.144717 -3.19338
  1535 105.748 0.144673 3.19356
  1536 112.499 3.09405 8.91543
  1537 112.089 0.625013 9.87308
  1538 93.6982 -16.9962 -15.5474
  1539 93.6693 -16.9514 15.6089
  1540 87.1509 0.465532 3.63432
  1541 87.1456 0.465490 -3.63344
  1542 81.9394 2.90084 7.75747
  1543 81.9370 2.90065 -7.75563
  1544 111.230 0.724028 -9.79188
  1545 97.4244 6.60374 2.38050
  1546 141.094 -8.64048 -1.12014
  1547 141.623 -8.03729 1.75066
  1548 104.738 1.48083 8.70164
  1549 91.7189 -0.0290028 -3.23123
  1550 91.6856 -0.0317354 3.19448
  1551 69.7046 6.67318 -2.66758
  1552 69.7095 6.67385 2.66577
  1553 102.486 7.08977 6.44815
  1554 78.2701 3.35456 -5.28240
  1555 78.2705 3.35511 5.28398
  1556 97.2112 1.66895 -5.06825
  1557 83.6582 0.0636671 -1.29393
  1558 83.6632 0.0636678 1.29432
  1559 50.8477 -15.2529 24.5948
  1560 51.1102 -15.1115 -24.5389
  1561 92.7586 -14.7085 -16.9681
  1562 66.3581 -16.6686 -19.6430
  1563 66.3909 -16.6597 19.6170
  1564 100.628 -0.528712 -0.545643
  1565 100.627 -0.527702 0.547296
  1566 78.1358 4.03162 17.6928
  1567 78.1299 4.03599 -17.6899
  1568 114.411 13.7878 -7.42303
  1569 33.2441 -4.79146 -9.23499
  1570 33.2383 -4.80323 9.26220
  1571 99.1662 4.36093 6.56517
  1572 95.7672 2.03724 14.8630
  1573 95.7600 2.03976 -14.8631
  1574 101.277 -0.238394 0.664234
  1575 101.278 -0.238916 -0.663378
  1576 86.8309 3.51118 12.4160
  1577 86.8267 3.51208 -12.4143
  1578 50.8118 -7.44936 -18.5265
  1579 50.8343 -7.46314 18.5325
  1580 143.976 -3.65593 14.6428
  1581 143.955 -3.71867 -14.6070
  1582 110.578 2.02976 22.2282
  1583 75.5903 5.39000 0.0515222
  1584 75.5935 5.38961 -0.0516767
  1585 99.3237 3.78422 27.4598
  1586 110.151 -9.66647 -12.6239
  1587 110.177 -9.67305 12.6254
  1588 103.798 -1.65423 -16.1000
  1589 103.809 -1.65866 16.0968
  1590 97.2670 0.147348 2.32898
  1591 97.2589 0.147347 -2.32862
  1592 81.2218 3.27189 -2.17305
  1593 81.2244 3.27188 2.17201
  1594 51.9436 2.08057 -15.4654
  1595 51.9471 2.07227 15.4769
  1596 57.8301 -0.401471 16.1138
  1597 57.8245 -0.397402 -16.1279
  1598 54.3634 4.63522 -9.66030
  1599 54.3781 4.63093 9.64960
  1600 73.2308 6.63665 5.42413
  1601 73.2331 6.63591 -5.42280
  1602 96.5609 2.42545 -0.759860
  1603 75.6048 5.40394 2.35264
  1604 75.6071 5.40323 -2.35199
  1605 84.4700 2.09895 2.96056
  1606 84.4681 2.09840 -2.96204
  1607 84.3403 1.35798 5.57469
  1608 84.3365 1.35786 -5.57329
  1609 91.8858 -19.7015 -14.4985
  1610 92.2726 -19.6097 14.6908
  1611 101.127 -7.06879 -0.876347
  1612 101.115 -7.06340 0.884186
  1613 96.9701 -7.58557 -5.55230
  1614 96.9634 -7.59694 5.54184
  1615 101.318 -4.43869 -2.14226
  1616 101.321 -4.44116 2.14729
  1617 103.061 1.24342 -21.2839
  1618 100.714 -2.69095 -1.88175
  1619 100.716 -2.69354 1.88660
  1620 105.501 9.24290 -6.78917
  1621 95.2626 -0.0924425 5.53778
  1622 95.2607 -0.0935297 -5.53919
  1623 255.008 14.7181 -1.10031
  1624 98.7245 -1.53736 0.892431
  1625 98.7266 -1.53986 -0.890250
  1626 102.604 -0.255065 0.828525
  1627 102.608 -0.254570 -0.826202
  1628 103.358 -0.165081 0.215606
  1629 103.359 -0.164845 -0.214217
  1630 84.7552 1.43503 4.14836
  1631 84.7533 1.43365 -4.15049
  1632 86.0444 0.101892 1.42147
  1633 86.0387 0.101881 -1.42108
  1634 52.7795 7.71970 8.94840
  1635 52.7887 7.71958 -8.94037
  1636 59.3552 9.10671 5.99476
  1637 59.3635 9.10505 -5.99188
  1638 106.487 -14.3361 7.56528
  1639 113.730 0.373057 -9.74774
  1640 113.738 0.371869 9.74600
  1641 92.5642 1.97072 4.46475
  1642 97.0752 -1.81398 -1.75801
  1643 97.0725 -1.81070 1.75933
  1644 90.2620 0.0850134 -1.66562
  1645 90.2688 0.0850096 1.66599
  1646 130.549 -10.2429 0.0141001
  1647 130.559 -10.2121 -0.0374334
  1648 113.381 -12.7287 -2.29098
  1649 92.8677 0.724305 5.42039
  1650 92.8613 0.724351 -5.41946
  1651 148.594 -0.963075 2.98164
  1652 148.577 -0.956326 -2.97156
  1653 66.5140 -1.23412 -15.8582
  1654 66.5179 -1.23701 15.8415
  1655 78.2788 2.91723 4.56076
  1656 78.2786 2.91669 -4.55929
  1657 180.657 11.4279 2.84952
  1658 82.4952 0.0566995 0.878541
  1659 82.4904 0.0566878 -0.878254
  1660 95.3874 -0.0367632 2.64227
  1661 95.4014 -0.0418945 -2.63896
  1662 78.5759 -8.85953 20.0119
  1663 78.5662 -8.86237 -20.0171
  1664 48.8250 -15.9396 -19.4090
  1665 184.614 23.4384 -11.1169
  1666 69.3794 4.52510 -7.25102
  1667 69.3842 4.52822 7.24701
  1668 94.6124 0.776296 6.32643
  1669 94.6058 0.776435 -6.32553
  1670 80.9155 0.769190 3.43463
  1671 80.9126 0.769048 -3.43354
  1672 121.922 0.849293 -6.23575
  1673 79.4904 5.41185 13.5219
  1674 79.4879 5.41300 -13.5193
  1675 83.1724 0.429897 -2.90215
  1676 83.1765 0.429962 2.90300
  1677 80.7532 0.0509248 -0.813338
  1678 80.7573 0.0509468 0.813618
  1679 73.3173 -0.208984 -12.2644
  1680 73.3187 -0.199358 12.2598
  1681 139.530 4.28959 -14.4518
  1682 136.557 -0.116633 -3.40449
  1683 136.560 -0.116950 3.40231
  1684 83.4719 0.796827 4.08558
  1685 83.4680 0.796724 -4.08444
  1686 86.1834 -8.66196 14.9092
  1687 86.2039 -8.79609 -14.9830
  1688 91.8468 1.76374 9.12901
  1689 91.8413 1.76407 -9.12775
  1690 78.2909 3.19937 4.85947
  1691 78.2869 3.19810 -4.86147
  1692 17.2358 -46.4138 4.43186
  1693 17.2221 -46.3765 -4.49760
  1694 111.328 17.8065 2.65750
  1695 154.003 -0.405833 -0.521197
  1696 153.984 -0.405195 0.517960
  1697 125.434 0.0854933 4.29384
  1698 125.427 0.0857736 -4.29500
  1699 81.1670 0.316093 2.25652
  1700 81.1634 0.316032 -2.25578
  1701 121.544 -0.0285156 -8.88311
  1702 121.551 -0.0298250 8.87995
  1703 98.3508 -13.1579 -11.5027
  1704 80.1531 1.64936 -4.58317
  1705 80.1550 1.64965 4.58459
  1706 94.7409 -2.61592 3.28834
  1707 94.7448 -2.62079 -3.28863
  1708 206.983 17.1412 0.865034
  1709 81.3075 3.49316 8.42076
  1710 81.3055 3.49297 -8.41881
  1711 89.6668 2.44117 0.00585203
  1712 72.8680 -8.13128 -20.2657
  1713 72.9347 -8.17425 20.2358
  1714 79.1629 1.97131 4.33242
  1715 79.1617 1.97093 -4.33100
  1716 101.313 -0.976573 1.50327
  1717 101.315 -0.975287 -1.49923
  1718 111.759 1.81721 -8.91933
  1719 88.0395 3.55705 -13.8872
  1720 88.0445 3.55543 13.8887
  1721 58.2205 8.42416 -1.25230
  1722 58.2312 8.42155 1.24985
  1723 74.3696 6.84411 11.5622
  1724 74.3697 6.84439 -11.5594
  1725 71.7953 2.66211 18.5754
  1726 71.7872 2.66829 -18.5716
  1727 98.8600 -7.00905 -3.14101
  1728 98.8476 -6.99944 3.14060
  1729 103.003 -5.59596 3.21595
  1730 103.001 -5.59467 -3.21070
  1731 106.700 -6.35510 -4.96227
  1732 106.710 -6.35681 4.95865
  1733 95.6230 1.91193 10.9478
  1734 95.6167 1.91277 -10.9470
  1735 106.867 -14.0179 -6.66424
  1736 84.9389 2.92211 9.17037
  1737 84.9355 2.92216 -9.16853
  1738 65.6118 3.41357 -10.3977
  1739 65.6162 3.41717 10.3891
  1740 98.7838 -6.52619 -16.8158
  1741 98.7984 -6.52942 16.8162
  1742 77.0375 4.70498 1.66252
  1743 77.0397 4.70425 -1.66201
  1744 101.363 0.646552 6.37743
  1745 101.355 0.646795 -6.37697
  1746 199.587 14.8654 -35.7535
  1747 79.8697 2.08417 -5.00178
  1748 79.8714 2.08452 5.00330
  1749 102.959 0.797572 8.06742
  1750 102.952 0.798023 -8.06720
  1751 119.712 0.164619 4.44140
  1752 119.704 0.164821 -4.44210
  1753 73.9348 3.43902 -7.08126
  1754 73.9394 3.44194 7.07855
  1755 77.1949 0.685057 -9.69161
  1756 77.2002 0.690172 9.68844
  1757 97.0269 -0.603335 5.10275
  1758 97.0310 -0.609954 -5.09919
  1759 86.2343 -4.94580 11.0910
  1760 86.2379 -4.95647 -11.0981
  1761 74.8359 -14.1465 24.1103
  1762 74.1021 -13.8112 -23.9784
  1763 101.106 7.40419 -5.52947
  1764 85.0955 0.271771 -2.64227
  1765 85.1005 0.271806 2.64299
  1766 83.8121 0.591241 0.947372
  1767 75.1560 4.60522 4.08877
  1768 75.1518 4.60423 -4.09042
  1769 114.623 -17.0150 -7.83418
  1770 114.819 -17.0896 7.81701
  1771 130.290 -0.663498 -7.37861
  1772 130.294 -0.665056 7.37353
  1773 94.5284 -0.482870 2.46835
  1774 94.5297 -0.484948 -2.46862
  1775 85.7103 0.330152 -2.06944
  1776 89.7472 -6.49540 10.0933
  1777 89.7275 -6.51700 -10.1098
  1778 138.353 10.0886 1.70982
  1779 100.042 -4.91443 -0.106044
  1780 100.036 -4.91029 0.110710
  1781 84.2193 2.29907 -7.73806
  1782 84.2226 2.29916 7.73979
  1783 79.1995 1.88649 6.79805
  1784 79.1952 1.88402 -6.80082
  1785 75.5183 5.41150 5.64640
  1786 75.5195 5.41080 -5.64488
  1787 70.5293 7.44871 2.33426
  1788 70.5333 7.44811 -2.33406
  1789 77.2284 4.03144 3.68614
  1790 77.2294 4.03072 -3.68495
  1791 130.814 23.7055 3.75059
  1792 137.649 -3.06181 13.8101
  1793 137.600 -3.07391 -13.8412
  1794 122.958 -7.29298 1.57570
  1795 77.0731 4.57584 6.28569
  1796 77.0734 4.57525 -6.28397
  1797 109.439 16.5102 -2.43597
  1798 203.183 12.7462 27.7121
  1799 86.4858 3.63784 15.6053
  1800 86.4803 3.64046 -15.6037
  1801 100.246 1.12402 6.22216
  1802 71.8757 -18.7434 26.6041
  1803 72.8211 6.53444 1.39357
  1804 72.8246 6.53398 -1.39346
  1805 98.6454 7.43052 -2.69415
  1806 83.4950 0.512172 6.29924
  1807 83.4920 0.509507 -6.30244
  1808 99.2538 -2.43751 -0.272566
  1809 99.2510 -2.43436 0.275857
  1810 112.717 -0.176149 12.5887
  1811 112.709 -0.173417 -12.5922
  1812 73.6623 -18.7616 -26.1193
  1813 107.780 14.3814 3.93106
  1814 89.2710 0.563787 4.19666
  1815 89.2653 0.563771 -4.19575
  1816 78.1178 4.95299 8.86414
  1817 78.1172 4.95269 -8.86203
  1818 91.9348 1.00861 2.22782
  1819 78.5003 5.18657 10.2064
  1820 78.4993 5.18652 -10.2041
  1821 84.3497 -11.2713 18.5200
  1822 84.0109 -11.5709 -18.9539
  1823 73.8169 6.81313 9.37988
  1824 73.8179 6.81277 -9.37755
  1825 127.739 21.7375 -5.25090
  1826 147.042 8.38652 11.2003
  1827 104.837 1.09340 11.7487
  1828 104.829 1.09488 -11.7495
  1829 136.958 -5.75248 2.48437
  1830 136.949 -5.73004 -2.48988
  1831 100.149 -0.222305 -0.970984
  1832 100.147 -0.221660 0.971600
  1833 72.1044 -2.45777 -20.3426
  1834 72.1174 -2.46429 20.3432
  1835 106.917 -13.8347 18.8381
  1836 93.7229 -17.7542 23.5236
  1837 139.313 -2.05838 -3.70035
  1838 139.312 -2.05813 3.69135
  1839 115.850 -6.55116 -4.25792
  1840 123.301 0.568772 5.45822
  1841 113.373 -14.6072 -10.3348
  1842 114.127 -13.8232 10.3029
  1843 138.920 -3.98228 11.8020
  1844 138.849 -3.98508 -11.7966
  1845 102.084 -17.1355 15.1422
  1846 20.5696 -16.2616 4.01609
  1847 20.4572 -16.2123 -3.96634
  1848 99.1773 -1.08123 -4.19303
  1849 99.1739 -1.08069 4.19866
  1850 114.923 0.0428663 3.32953
  1851 114.914 0.0430002 -3.32974
  1852 81.1553 1.80673 5.40368
  1853 81.1530 1.80648 -5.40215
  1854 166.405 20.4455 30.9781
  1855 35.6241 -4.96251 13.2778
  1856 35.5753 -4.97610 -13.2990
  1857 76.7180 4.65674 -2.30074
  1858 76.7216 4.65696 2.29975
  1859 83.9669 1.99317 3.71344
  1860 83.9648 1.99225 -3.71530
  1861 89.0560 1.11514 -6.30398
  1862 89.0612 1.11512 6.30523
  1863 135.473 -11.7583 -0.761324
  1864 135.195 -11.8076 0.630281
  1865 35.9726 -24.3057 -13.1179
  1866 35.9975 -24.2929 13.1078
  1867 74.9667 5.75156 -1.49994
  1868 74.9638 5.75216 1.50026
  1869 98.6533 0.428691 5.38720
  1870 98.6458 0.428851 -5.38659
  1871 78.4948 3.69920 6.51164
  1872 78.4942 3.69874 -6.50987
  1873 69.4293 6.17477 15.3897
  1874 69.4273 6.17797 -15.3848
  1875 57.4992 -21.3359 17.2332
  1876 57.4221 -21.3635 -17.2462
  1877 71.8654 6.93445 13.6480
  1878 71.8648 6.93589 -13.6442
  1879 99.9723 -1.68510 -6.27410
  1880 99.9717 -1.67654 6.28174
  1881 101.662 -3.30905 -5.20211
  1882 101.667 -3.31000 5.20797
  1883 106.020 4.83911 8.61048
  1884 115.932 -6.42268 4.09800
  1885 99.1396 -0.865971 -0.924247
  1886 99.1382 -0.864261 0.925833
  1887 61.9300 8.72645 1.14368
  1888 61.9380 8.72495 -1.14457
  1889 35.2648 -24.2912 -4.81680
  1890 35.2865 -24.2625 4.81687
  1891 90.5381 1.92583 -2.98904
  1892 102.573 1.16743 13.5226
  1893 102.565 1.16950 -13.5236
  1894 95.4139 -0.0954403 -2.06333
  1895 95.4129 -0.0941759 2.06316
  1896 93.8103 -1.42786 3.10495
  1897 93.8126 -1.43140 -3.10550
  1898 86.3883 1.16073 -5.70094
  1899 86.3927 1.16079 5.70224
  1900 97.4910 -0.239730 2.45029
  1901 97.5029 -0.240301 -2.44639
  1902 79.2959 3.12097 6.26792
  1903 79.2949 3.12055 -6.26618
  1904 135.686 -0.623030 -6.33135
  1905 135.714 -0.619290 6.39328
  1906 92.6001 1.56800 16.9218
  1907 92.5918 1.57198 -16.9220
  1908 130.892 0.0814688 15.1986
  1909 118.406 5.51026 -8.13134
  1910 82.2223 0.211888 -1.96272
  1911 82.2265 0.211916 1.96333
  1912 82.3006 0.559508 -0.489918
  1913 65.2848 7.80805 -1.14993
  1914 65.2912 7.80776 1.14800
  1915 134.174 16.5368 -32.6891
  1916 71.8564 7.27754 6.32940
  1917 71.8589 7.27680 -6.32789
  1918 25.5855 -13.4812 12.0784
  1919 25.4876 -13.4990 -12.1471
  1920 247.082 11.4628 -23.4581
  1921 107.544 -17.0631 -12.6703
  1922 83.5538 0.190690 -2.04260
  1923 83.5584 0.190720 2.04320
  1924 169.292 4.89578 -3.69087
  1925 103.077 -0.0323064 -0.348100
  1926 103.075 -0.0322247 0.348317
  1927 55.3520 -12.5873 11.7672
  1928 58.8769 -11.7249 -13.1435
  1929 58.8618 -5.79480 -20.8685
  1930 58.8337 -5.77466 20.8516
  1931 93.1814 0.0549810 2.53019
  1932 93.1820 0.0535365 -2.53086
  1933 101.372 0.152421 -2.39547
  1934 101.381 0.152395 2.39574
  1935 106.606 3.92031 -8.78042
  1936 80.1170 2.62151 4.87182
  1937 80.1135 2.62022 -4.87397
  1938 100.359 -1.99703 -0.811147
  1939 100.361 -1.99934 0.815156
  1940 88.0427 0.599066 3.77527
  1941 88.0421 0.597274 -3.77717
  1942 79.5122 1.52994 4.00944
  1943 79.5105 1.52964 -4.00811
  1944 77.7641 3.81182 5.46642
  1945 77.7641 3.81123 -5.46483
  1946 150.489 -0.757129 -1.53926
  1947 150.509 -0.761360 1.54195
  1948 118.790 18.4585 5.69231
  1949 84.1361 0.171475 1.55527
  1950 113.141 0.317053 8.45888
  1951 113.134 0.317783 -8.46003
  1952 67.7296 -10.3727 20.5516
  1953 67.7106 -10.3688 -20.5609
  1954 97.7691 -5.75867 3.02272
  1955 97.7783 -5.76524 -3.02119
  1956 100.334 -1.17140 0.0113284
  1957 100.335 -1.17315 -0.00852143
  1958 68.8428 -9.45726 22.1629
  1959 68.6780 -9.47354 -22.1351
  1960 89.9606 1.19274 17.9822
  1961 89.9512 1.19739 -17.9825
  1962 116.664 -10.7907 9.09623
  1963 116.625 -10.7867 -9.10141
  1964 86.0297 1.62673 3.06213
  1965 86.0283 1.62596 -3.06365
  1966 199.796 20.6615 7.95095
  1967 81.8655 1.01481 -4.20242
  1968 81.8686 1.01497 4.20366
  1969 110.590 -9.65281 1.84267
  1970 110.463 -9.76045 -1.68175
  1971 71.5922 -4.37958 17.6130
  1972 71.6033 -4.37791 -17.6502
  1973 168.613 7.26705 -7.57713
  1974 103.478 -0.0477243 0.220921
  1975 103.479 -0.0478824 -0.220354
  1976 125.695 -4.31429 -10.4135
  1977 81.3115 2.61040 6.75056
  1978 81.3094 2.61011 -6.74881
  1979 111.876 10.6942 8.07263
  1980 82.1979 1.72320 5.14648
  1981 82.1949 1.72155 -5.14899
  1982 148.199 10.2090 -8.26956
  1983 111.659 0.227452 7.17730
  1984 128.332 -7.33785 4.04070
  1985 128.316 -7.34453 -4.05557
  1986 79.7735 4.24475 -28.5556
  1987 113.195 16.8719 -5.32082
  1988 100.395 8.55476 3.11005
  1989 93.1519 3.59316 2.49351
  1990 13.2049 -52.8298 4.68165
  1991 13.2717 -52.8144 -4.79367
  1992 106.040 13.2434 -3.54014
  1993 63.4580 9.10202 7.27800
  1994 63.4638 9.10090 -7.27541
  1995 111.076 0.0835810 -7.02609
  1996 100.843 -11.1854 -6.73689
  1997 101.068 -11.1514 6.31901
  1998 113.803 -14.2169 9.20687
  1999 113.739 -14.2112 -9.20704
  2000 80.1213 -15.8016 13.4479
  2001 83.4682 -17.1810 -13.8830
  2002 64.0159 6.97252 -4.57611
  2003 64.0228 6.97281 4.57182
  2004 35.0893 -21.1133 20.7930
  2005 35.5050 -20.7470 -21.5765
  2006 73.5016 6.42254 4.13774
  2007 73.5041 6.42182 -4.13673
  2008 93.0382 0.0610652 1.63129
  2009 93.0308 0.0610801 -1.63097
  2010 132.296 2.21894 -1.91080
  2011 87.7067 1.61446 -7.38230
  2012 87.7112 1.61442 7.38377
  2013 76.2454 4.81146 3.99542
  2014 76.2468 4.81072 -3.99422
  2015 141.821 -1.43932 -15.9079
  2016 129.875 12.2930 5.60460
  2017 90.3152 -9.48788 -12.9685
  2018 90.3351 -9.25824 12.8440
  2019 149.387 1.49401 -14.3978
  2020 100.593 0.512915 -6.32465
  2021 142.594 -7.62576 -9.83824
  2022 142.589 -7.61943 9.88072
  2023 76.6922 4.97585 0.346001
  2024 76.6951 4.97533 -0.345994
  2025 79.2925 2.29981 4.85815
  2026 79.2913 2.29940 -4.85665
  2027 165.293 5.77708 9.22460
  2028 97.2016 1.90787 12.4066
  2029 97.1950 1.90924 -12.4063
  2030 128.996 0.743469 -14.8022
  2031 80.1268 0.529453 2.74433
  2032 80.1240 0.529346 -2.74339
  2033 90.9510 -1.76088 4.68182
  2034 90.9527 -1.76528 -4.68421
  2035 73.0197 -3.41321 25.3141
  2036 148.896 -0.385752 -2.22119
  2037 148.888 -0.386020 2.21713
  2038 86.8194 -0.644071 5.82794
  2039 86.8183 -0.647496 -5.83139
  2040 79.8603 0.114052 1.31194
  2041 79.8568 0.114024 -1.31147
  2042 100.648 -0.796216 -2.37307
  2043 100.644 -0.797395 2.37785
  2044 34.2312 -25.9423 13.2138
  2045 150.839 12.3621 -1.82197
  2046 128.453 -5.43746 -6.22258
  2047 128.465 -5.43765 6.21102
  2048 90.7723 -2.18617 -18.8703
  2049 90.7840 -2.19095 18.8692
  2050 102.269 -0.233339 0.917203
  2051 102.274 -0.232939 -0.914855
  2052 89.4684 1.23695 3.16063
  2053 271.621 8.85625 5.51743
  2054 165.535 13.4921 -6.37329
  2055 97.8856 -0.393399 -6.68540
  2056 97.9066 -0.390680 6.68970
  2057 124.614 3.33590 11.6638
  2058 90.3472 -4.53363 7.65263
  2059 90.3489 -4.54134 -7.65815
  2060 77.0140 4.44393 2.69732
  2061 77.0157 4.44317 -2.69645
  2062 149.707 1.42710 14.4564
  2063 76.0767 5.36069 7.02008
  2064 76.0774 5.36011 -7.01828
  2065 103.623 -3.57354 -6.45912
  2066 103.631 -3.57315 6.46493
  2067 85.5284 -15.7002 -22.2755
  2068 31.4301 -28.9801 -12.4281
  2069 96.4600 -4.63203 -3.38021
  2070 96.4527 -4.62534 3.38085
  2071 98.0444 -3.16846 -1.32121
  2072 98.0403 -3.16420 1.32379
  2073 98.5171 -0.0868432 -1.35009
  2074 98.5160 -0.0861809 1.35025
  2075 137.532 11.0254 -0.757070
  2076 80.7387 3.16955 -3.08462
  2077 80.7416 3.16994 3.08319
  2078 71.3142 6.50517 1.31808
  2079 71.3097 6.50495 -1.31910
  2080 92.2549 -8.49265 10.4376
  2081 92.4208 -8.52785 -10.4088
  2082 75.0641 -3.69735 15.5240
  2083 75.0831 -3.72490 -15.5328
  2084 142.054 -1.45677 15.7524
  2085 69.1076 7.64355 1.01152
  2086 69.1123 7.64314 -1.01196
  2087 64.9453 -21.6479 -16.9252
  2088 65.1409 -21.5745 16.8505
  2089 95.0886 -12.7351 -16.9861
  2090 95.0964 -12.7273 17.0002
  2091 67.7936 8.29829 -3.62399
  2092 67.7889 8.29914 3.62444
  2093 24.4582 -19.2679 -7.39014
  2094 24.4806 -19.3147 7.41306
  2095 118.395 5.45544 4.66365
  2096 122.963 -0.0954166 -8.44002
  2097 96.1504 0.0706160 1.59212
  2098 96.1423 0.0706199 -1.59185
  2099 99.0974 -0.383602 -1.18748
  2100 99.0962 -0.382513 1.18826
  2101 94.9332 -1.32296 2.60672
  2102 94.9355 -1.32614 -2.60667
  2103 99.1803 -0.585140 16.9149
  2104 99.1699 -0.580646 -16.9171
  2105 195.804 14.0740 1.21735
  2106 34.0989 0.588223 -2.78722
  2107 34.1402 0.579346 2.79531
  2108 101.743 -0.396475 -0.255682
  2109 101.743 -0.395802 0.257342
  2110 86.9798 1.46638 -0.876988
  2111 87.1715 0.0474909 -1.12674
  2112 87.1775 0.0475053 1.12704
  2113 78.6410 4.18895 -0.114804
  2114 78.6435 4.18839 0.114682
  2115 114.007 3.97883 -6.79762
  2116 50.9376 7.87005 5.39618
  2117 50.9510 7.86769 -5.38980
  2118 138.241 -6.72589 7.40737
  2119 138.205 -6.68189 -7.39722
  2120 103.145 9.72457 4.92594
  2121 93.0388 -2.50329 4.12510
  2122 93.0420 -2.50840 -4.12660
  2123 102.131 -0.470679 0.416449
  2124 102.132 -0.469943 -0.414077
  2125 103.559 -0.124991 0.411690
  2126 103.562 -0.124843 -0.410275
  2127 84.0830 3.46158 17.0629
  2128 84.0764 3.46548 -17.0613
  2129 11.2140 -46.9286 -4.72449
  2130 11.2935 -46.1357 4.80221
  2131 53.2635 8.69100 -2.69512
  2132 53.2498 8.69469 2.69737
  2133 97.5965 -0.364999 -1.59364
  2134 97.5952 -0.363706 1.59409
  2135 80.7809 4.94886 11.7795
  2136 80.7787 4.94934 -11.7771
  2137 106.219 7.21334 7.98110
  2138 137.158 2.70782 15.3550
  2139 78.3155 2.54938 18.4668
  2140 78.3074 2.55488 -18.4645
  2141 81.1616 0.528689 2.91636
  2142 81.1583 0.528591 -2.91543
  2143 111.241 0.296200 6.66854
  2144 111.233 0.296626 -6.66899
  2145 82.0088 4.63743 12.6687
  2146 82.0060 4.63830 -12.6664
  2147 120.328 0.146445 -7.09201
  2148 120.335 0.145754 7.09027
  2149 102.885 -16.6199 -13.4211
  2150 163.690 14.4486 4.33651
  2151 89.1670 -14.0437 18.6323
  2152 92.0729 1.78707 -4.41879
  2153 89.8469 2.66434 -11.3072
  2154 89.8519 2.66363 11.3086
  2155 57.0451 5.93232 -7.46684
  2156 57.0571 5.92967 7.45864
  2157 85.6550 3.31825 11.0630
  2158 85.6513 3.31869 -11.0611
  2159 121.029 10.0272 7.85470
  2160 150.106 6.23598 -13.2383
  2161 45.7739 5.01293 8.70419
  2162 45.7849 5.01414 -8.69093
  2163 64.7731 -15.7797 26.2523
  2164 68.2163 -15.8159 -25.9949
  2165 102.571 -8.98057 -22.1425
  2166 85.8772 1.73032 6.98122
  2167 85.8732 1.73026 -6.97968
  2168 112.080 0.160386 -2.89558
  2169 112.090 0.160294 2.89554
  2170 82.8302 0.325910 -1.23516
  2171 98.2687 -0.901392 -4.84523
  2172 98.2646 -0.897829 4.84997
  2173 66.1135 8.72243 7.20610
  2174 66.1182 8.72152 -7.20400
  2175 100.006 -3.82889 -0.504915
  2176 100.010 -3.83234 0.509316
  2177 106.361 0.418811 -6.22363
  2178 106.369 0.418532 6.22367
  2179 78.1808 4.60871 -7.88032
  2180 78.1813 4.60915 7.88230
  2181 53.2047 -1.49711 16.9521
  2182 53.1979 -1.50171 -16.9696
  2183 157.420 -0.177485 -7.30294
  2184 69.5819 7.90573 -4.33408
  2185 69.5780 7.90652 4.33487
  2186 96.0387 5.94769 -0.0233417
  2187 208.361 17.8329 -1.08845
  2188 149.849 28.3910 0.960134
  2189 93.2783 -0.546010 2.86662
  2190 93.2795 -0.548404 -2.86729
  2191 115.295 -12.5837 -4.05212
  2192 175.596 14.5052 4.81366
  2193 157.322 -0.201094 7.65526
  2194 126.854 15.4041 -6.99136
  2195 100.831 -0.00537446 -0.809276
  2196 100.830 -0.00514421 0.809429
  2197 106.497 -8.18097 -2.58314
  2198 106.492 -8.18340 2.59658
  2199 83.1257 4.06362 11.1028
  2200 83.1228 4.06396 -11.1007
  2201 104.792 -7.97330 -1.40704
  2202 104.795 -7.97250 1.41640
  2203 87.4212 -18.6172 -24.3286
  2204 82.9650 1.11112 4.64356
  2205 82.9615 1.11097 -4.64227
  2206 106.703 -3.28172 -7.35550
  2207 106.698 -3.26828 7.39308
  2208 124.070 -0.0307045 7.64665
  2209 78.6313 3.89548 2.83508
  2210 78.6280 3.89519 -2.83632
  2211 81.6838 4.66075 15.4978
  2212 81.6795 4.66314 -15.4954
  2213 110.703 -0.926924 -13.9982
  2214 110.712 -0.930638 13.9941
  2215 88.4134 -9.24638 19.2790
  2216 88.4068 -9.24958 -19.2773
  2217 72.7654 6.41208 0.0387498
  2218 72.7615 6.41231 -0.0391311
  2219 81.1281 0.143543 1.72156
  2220 81.1243 0.143521 -1.72098
  2221 108.064 -1.66792 -8.15495
  2222 107.802 -1.71462 8.19101
  2223 130.202 0.114503 -2.90774
  2224 130.208 0.114307 2.90677
  2225 97.1007 -0.917996 -1.73492
  2226 97.0989 -0.915841 1.73574
  2227 161.783 28.4961 1.73104
  2228 116.029 0.320460 6.40853
  2229 116.021 0.320897 -6.40943
  2230 75.3748 5.32312 16.4113
  2231 75.3707 5.32661 -16.4077
  2232 136.208 -0.953049 -5.80011
  2233 136.209 -0.954612 5.79344
  2234 114.107 -4.09770 -12.9014
  2235 114.121 -4.10251 12.8964
  2236 83.0131 -15.9289 -17.8914
  2237 82.9773 -15.9119 17.8810
  2238 48.6536 -9.38104 22.3617
  2239 48.6264 -9.34429 -22.3716
  2240 101.370 -3.56696 -3.40623
  2241 101.373 -3.56924 3.41123
  2242 130.304 -0.944415 12.9186
  2243 83.6954 0.505638 -2.42263
  2244 82.3925 0.520042 3.03523
  2245 82.3887 0.519956 -3.03431
  2246 178.998 7.31452 5.60748
  2247 104.020 0.0245695 2.39650
  2248 104.011 0.0246245 -2.39632
  2249 100.647 -2.01676 -3.65472
  2250 100.647 -2.01853 3.66043
  2251 96.8746 -2.37360 1.90564
  2252 96.8781 -2.37760 -1.90423
  2253 122.070 -0.151570 -9.56801
  2254 122.076 -0.153391 9.56402
  2255 79.3431 -4.82066 20.3248
  2256 79.3305 -4.81695 -20.3265
  2257 45.0155 0.159036 13.4720
  2258 45.0131 0.168364 -13.4564
  2259 247.475 11.4100 17.7100
  2260 113.230 5.06044 -0.992285
  2261 78.8426 2.79168 -5.13395
  2262 78.8434 2.79215 5.13552
  2263 179.665 16.4385 -2.34658
  2264 76.8175 4.84664 -0.831864
  2265 76.8207 4.84637 0.831423
  2266 99.3325 -12.0070 9.29869
  2267 143.089 -2.75021 4.87261
  2268 143.070 -2.73321 -4.85904
  2269 130.428 -0.917140 -13.2781
  2270 103.365 0.878076 -14.1124
  2271 103.373 0.875571 14.1108
  2272 110.497 -6.39615 -5.30314
  2273 110.409 -6.60155 5.13303
  2274 83.2215 1.78013 6.17854
  2275 83.2183 1.77996 -6.17699
  2276 124.822 -1.73611 -9.71084
  2277 124.830 -1.73909 9.70406
  2278 136.192 6.18722 8.13244
  2279 148.037 20.8344 1.36649
  2280 67.1491 5.85773 5.84744
  2281 67.1437 5.85588 -5.85154
  2282 126.089 -0.856553 -1.87319
  2283 88.3762 0.0412322 -2.09506
  2284 90.8678 -18.3686 -22.3096
  2285 136.760 21.0511 3.33850
  2286 96.8913 0.499032 5.04786
  2287 96.8840 0.499116 -5.04718
  2288 145.000 -0.988476 -4.39341
  2289 144.998 -1.00145 4.41958
  2290 101.190 -1.69101 7.15194
  2291 101.185 -1.70501 -7.14241
  2292 92.6762 0.00466971 -2.00276
  2293 92.6542 0.0118242 1.99175
  2294 89.9183 1.48300 7.77657
  2295 89.9131 1.48314 -7.77522
  2296 50.1028 6.65191 -4.15874
  2297 50.1223 6.64539 4.15536
  2298 100.882 -3.22393 -2.29426
  2299 100.884 -3.22648 2.29921
  2300 70.4976 7.86619 9.55119
  2301 70.4997 7.86585 -9.54859
  2302 41.6430 4.56868 4.22988
  2303 41.6634 4.56656 -4.21738
  2304 81.7773 0.0581942 0.701653
  2305 81.7728 0.0581825 -0.701422
  2306 103.901 -16.0205 11.6954
  2307 101.265 0.791716 15.6134
  2308 101.256 0.795013 -15.6152
  2309 111.865 3.46449 8.23513
  2310 72.7054 6.78522 4.41427
  2311 72.7081 6.78450 -4.41325
  2312 92.1073 0.240520 3.30969
  2313 92.1006 0.240529 -3.30904
  2314 87.0384 -0.140546 5.07292
  2315 87.0375 -0.143357 -5.07577
  2316 102.119 -5.48378 2.13926
  2317 102.115 -5.48180 -2.13369
  2318 85.0361 0.893431 4.74768
  2319 85.0318 0.893335 -4.74649
  2320 96.7624 4.00720 -5.33256
  2321 95.5625 1.40680 -6.19037
  2322 122.489 4.49306 -10.1689
  2323 91.1636 0.413340 2.80685
  2324 91.1638 0.411968 -2.80792
  2325 139.046 8.51291 8.72273
  2326 71.4062 7.59368 8.50202
  2327 71.4084 7.59313 -8.49985
  2328 117.408 13.6796 7.83674
  2329 92.1507 -1.06972 3.64287
  2330 92.1524 -1.07311 -3.64419
  2331 90.7707 -0.00848803 3.32102
  2332 90.7712 -0.0105894 -3.32240
  2333 75.9482 6.14513 -9.86332
  2334 75.9481 6.14535 9.86566
  2335 82.2695 4.67352 14.4151
  2336 82.2657 4.67517 -14.4128
  2337 60.8758 1.33088 -17.8013
  2338 60.8841 1.32257 17.8085
  2339 153.646 7.04694 12.3497
  2340 167.436 20.2297 -34.4741
  2341 133.804 -3.01706 12.6460
  2342 114.104 1.36618 -10.5328
  2343 75.9830 2.07659 -8.26344
  2344 75.9879 2.08041 8.26060
  2345 103.953 -0.103676 -0.0661679
  2346 103.952 -0.103542 0.0668276
  2347 93.8183 1.05730 -4.89848
  2348 89.0291 0.0790555 1.09987
  2349 89.0225 0.0790482 -1.09961
  2350 81.3711 0.768791 7.10492
  2351 81.3670 0.765881 -7.10812
  2352 104.679 0.911718 -10.5980
  2353 104.686 0.910663 10.5976
  2354 106.170 0.745016 -8.72410
  2355 100.186 -1.78360 -4.41431
  2356 100.186 -1.78425 4.42043
  2357 79.9228 0.989915 -3.44708
  2358 79.9251 0.990121 3.44825
  2359 232.863 13.4194 32.9742
  2360 76.3128 4.88648 3.02423
  2361 76.3146 4.88572 -3.02331
  2362 99.4620 -1.54354 -0.418485
  2363 99.4603 -1.54124 0.421186
  2364 61.5879 5.33474 8.45770
  2365 61.5801 5.33442 -8.46600
  2366 86.7575 2.54514 9.33092
  2367 86.7535 2.54532 -9.32921
  2368 167.196 12.6258 36.5232
  2369 24.2142 -23.1104 15.4017
  2370 24.2758 -23.2841 -15.3265
  2371 96.1149 1.39061 8.85848
  2372 96.1084 1.39102 -8.85761
  2373 77.6260 3.62774 -3.93988
  2374 77.6254 3.62842 3.94119
  2375 98.6480 -4.96037 -1.56885
  2376 98.6414 -4.95495 1.57208
  2377 66.9582 8.18451 1.45452
  2378 66.9636 8.18385 -1.45503
  2379 93.8878 1.25725 -7.79415
  2380 93.8940 1.25702 7.79519
  2381 148.943 13.4267 -35.3614
  2382 113.540 -10.5932 -0.537307
  2383 113.682 -9.75768 1.39407
  2384 100.148 0.675332 6.19821
  2385 136.952 -1.75402 -5.03212
  2386 136.953 -1.75518 5.02336
  2387 107.758 -9.80573 0.681340
  2388 107.734 -9.77887 -0.701709
  2389 90.0837 -2.82307 -6.10680
  2390 90.0823 -2.81734 6.10291
  2391 113.063 -6.56505 19.6343
  2392 114.160 -3.91796 -6.53461
  2393 76.6583 4.58556 5.03593
  2394 76.6592 4.58488 -5.03447
  2395 125.126 -3.90081 -8.86604
  2396 125.138 -3.90417 8.85706
  2397 95.6137 2.24435 -14.0464
  2398 95.6204 2.24230 14.0466
  2399 83.2772 2.29949 7.12615
  2400 83.2742 2.29932 -7.12445
  2401 130.245 -0.0373349 -5.97865
  2402 111.894 9.92168 -8.36283
  2403 99.7238 1.12871 -7.64974
  2404 15.4269 -49.1006 -6.14320
  2405 16.0106 -47.2887 6.86180
  2406 101.431 3.68144 -7.58374
  2407 151.668 -0.298466 -1.56887
  2408 151.656 -0.298558 1.56497
  2409 85.4869 -0.647503 -6.66262
  2410 85.4891 -0.643975 6.65878
  2411 122.694 -0.829227 9.98964
  2412 122.687 -0.826770 -9.99473
  2413 83.0192 2.67222 2.51481
  2414 83.0170 2.67204 -2.51603
  2415 82.0281 1.62746 -5.35828
  2416 82.0309 1.62768 5.35975
  2417 78.0260 3.13773 4.30971
  2418 78.0260 3.13713 -4.30829
  2419 140.025 9.65951 -5.60524
  2420 87.9018 1.56767 1.09819
  2421 119.521 22.9767 -0.646959
  2422 76.2986 5.06156 6.35224
  2423 76.2992 5.06094 -6.35055
  2424 214.426 14.9826 -6.99259
  2425 154.735 -0.464184 0.00851953
  2426 154.712 -0.462884 -0.0105755
  2427 116.689 4.30150 8.61246
  2428 143.564 -0.307244 -3.03518
  2429 143.563 -0.307617 3.03212
  2430 111.126 0.493934 -11.8179
  2431 111.133 0.492009 11.8157
  2432 43.8472 -1.53344 -14.9594
  2433 43.8734 -1.53815 14.9374
  2434 86.1893 0.432787 -3.36805
  2435 86.1943 0.432827 3.36891
  2436 120.228 0.610051 -12.1311
  2437 69.6847 8.11492 6.91800
  2438 69.6879 8.11411 -6.91630
  2439 141.733 -2.31354 -7.53642
  2440 141.726 -2.31585 7.58309
  2441 148.109 29.6266 -0.406788
  2442 99.3696 0.139506 -1.88488
  2443 99.3780 0.139502 1.88514
  2444 191.992 17.9827 0.453400
  2445 78.8227 2.20253 4.28395
  2446 78.8219 2.20211 -4.28253
  2447 100.171 -0.166033 -1.40010
  2448 100.160 -0.166313 1.40322
  2449 80.4414 2.71895 6.32721
  2450 80.4397 2.71861 -6.32550
  2451 95.7080 1.40115 6.30279
  2452 85.0536 0.0111358 -0.712087
  2453 85.0592 0.0111399 0.712290
  2454 89.0760 -0.0586024 4.06748
  2455 89.0760 -0.0610879 -4.06953
  2456 113.903 -3.76176 6.63218
  2457 91.7850 0.0480922 -1.22516
  2458 91.7922 0.0480861 1.22542
  2459 81.1988 0.392362 0.0673919
  2460 122.580 0.578790 12.8839
  2461 95.7866 0.253820 -6.14177
  2462 95.8489 0.270824 6.18071
  2463 101.808 -6.31395 -0.669985
  2464 101.814 -6.31659 0.676880
  2465 81.5939 -0.188378 8.31180
  2466 81.5895 -0.192455 -8.31541
  2467 59.5675 9.01216 1.38555
  2468 59.5769 9.00987 -1.38612
  2469 79.9892 0.357239 -2.23136
  2470 79.9922 0.357321 2.23214
  2471 64.0341 5.37596 16.0784
  2472 64.0313 5.38068 -16.0715
  2473 156.154 3.46384 -13.5110
  2474 100.520 9.20345 -1.89362
  2475 129.729 -12.0789 -0.924399
  2476 129.710 -12.1279 0.883803
  2477 77.1695 4.46378 2.12235
  2478 77.1715 4.46302 -2.12167
  2479 99.7808 1.08139 7.70399
  2480 213.092 19.3747 -6.22786
  2481 75.9713 6.28005 12.6004
  2482 75.9703 6.28080 -12.5975
  2483 95.2499 4.58345 -3.51548
  2484 84.2614 2.14710 21.8386
  2485 96.5551 -1.42979 17.6718
  2486 96.5438 -1.42507 -17.6738
  2487 161.135 5.04955 12.9550
  2488 74.3468 6.13682 -22.2521
  2489 102.230 1.94608 8.18943
  2490 104.829 -5.26539 5.33483
  2491 104.834 -5.26272 -5.33131
  2492 97.2725 4.60593 5.16043
  2493 134.479 -7.59974 2.27970
  2494 134.471 -7.57032 -2.29204
  2495 117.363 -14.9305 -6.58162
  2496 117.467 -14.9344 6.57082
  2497 105.858 -3.19243 -15.6181
  2498 105.870 -3.19709 15.6147
  2499 74.4480 5.81931 0.228315
  2500 74.4445 5.81956 -0.228637
  2501 45.2906 6.42335 1.72885
  2502 45.3113 6.41853 -1.72249
  2503 93.0953 0.900759 -6.23237
  2504 93.1015 0.900660 6.23336
  2505 109.222 -16.5181 12.2221
  2506 272.363 7.76524 -16.8637
  2507 84.9440 -0.475193 19.1809
  2508 84.9331 -0.469784 -19.1809
  2509 162.944 8.81341 -10.0179
  2510 100.616 -0.752389 -0.307149
  2511 100.615 -0.751096 0.309271
  2512 117.435 -2.41129 -12.0836
  2513 117.446 -2.41539 12.0777
  2514 70.3375 7.72856 11.7807
  2515 70.3387 7.72897 -11.7773
  2516 86.2708 -15.6453 21.7027
  2517 100.539 0.837397 7.87077
  2518 100.532 0.837810 -7.87032
  2519 91.5659 -6.03512 -8.29750
  2520 91.5597 -6.02438 8.29106
  2521 215.089 15.4043 5.25476
  2522 58.1849 5.34299 14.6311
  2523 58.1851 5.34741 -14.6222
  2524 94.5973 -13.7661 15.1669
  2525 80.2004 0.0176458 0.535921
  2526 80.1964 0.0176429 -0.535731
  2527 134.163 -0.547938 -15.5154
  2528 78.8218 3.14515 -5.68241
  2529 78.8226 3.14563 5.68406
  2530 75.1051 6.07147 7.56707
  2531 75.1061 6.07089 -7.56517
  2532 108.442 0.0455941 2.20169
  2533 108.433 0.0456383 -2.20160
  2534 88.7328 -0.392996 4.60457
  2535 88.7328 -0.395946 -4.60705
  2536 122.043 5.93836 -4.84359
  2537 152.892 -0.334715 -1.08941
  2538 152.876 -0.334549 1.08558
  2539 104.647 -2.74531 -7.50722
  2540 104.659 -2.75418 7.50750
  2541 94.0583 0.402900 4.19935
  2542 94.0513 0.402920 -4.19863
  2543 80.7925 3.40256 7.87821
  2544 80.7907 3.40230 -7.87629
  2545 143.042 12.7532 -4.89228
  2546 96.1826 -3.91071 2.98334
  2547 96.1882 -3.91664 -2.98253
  2548 108.835 -16.4263 -15.3582
  2549 114.966 3.37078 -8.77986
  2550 113.399 -14.6067 12.2968
  2551 103.970 -9.46999 1.16976
  2552 103.969 -9.45096 -1.15263
  2553 134.064 -1.77798 -12.8528
  2554 89.0081 0.891635 2.99438
  2555 89.0077 0.890509 -2.99574
  2556 93.4016 0.00450643 -4.52865
  2557 93.3469 0.0711132 4.51528
  2558 41.3971 -16.0263 16.2820
  2559 41.3657 -16.0179 -16.2813
  2560 133.985 27.6749 -1.11701
  2561 103.369 -1.10704 -8.09322
  2562 103.374 -1.12246 8.06782
  2563 14.7943 -29.1716 -4.24655
  2564 14.8524 -29.1353 4.50487
  2565 80.4919 3.60557 1.47630
  2566 80.4894 3.60584 -1.47699
  2567 84.3155 0.621059 3.65048
  2568 84.3112 0.620969 -3.64948
  2569 134.184 -1.74610 12.6989
  2570 75.0939 6.36796 13.6482
  2571 75.0926 6.36929 -13.6450
  2572 117.189 -11.7476 2.64890
  2573 65.5819 8.59588 10.0893
  2574 65.5855 8.59563 -10.0857
  2575 92.4915 2.46476 3.58128
  2576 86.5950 0.751712 3.33332
  2577 106.177 -12.7655 4.67379
  2578 106.795 -12.4581 -3.80466
  2579 83.2539 0.0315105 0.723462
  2580 83.2489 0.0315090 -0.723236
  2581 110.781 -13.3260 4.12850
  2582 73.2320 6.36848 2.53051
  2583 73.2351 6.36787 -2.53000
  2584 81.6739 3.75352 9.15260
  2585 81.6717 3.75342 -9.15059
  2586 138.912 7.63430 -10.7651
  2587 94.0972 -4.24618 18.2932
  2588 94.0845 -4.24252 -18.2942
  2589 77.6158 -0.174766 -19.6803
  2590 77.6268 -0.180962 19.6815
  2591 149.441 -0.571943 -2.70725
  2592 149.450 -0.576456 2.71998
  2593 111.477 18.6139 0.129161
  2594 81.1393 4.27328 10.0686
  2595 81.1372 4.27330 -10.0664
  2596 97.7562 -3.91037 1.86880
  2597 97.7617 -3.91547 -1.86646
  2598 89.4435 -1.74755 5.58145
  2599 89.4442 -1.75205 -5.58481
  2600 228.671 16.4986 1.59439
  2601 38.8512 -5.13763 13.1307
  2602 38.8433 -5.12224 -13.1114
  2603 95.5230 -0.380919 -2.15819
  2604 95.5218 -0.379189 2.15818
  2605 88.3849 0.00375831 2.07803
  2606 230.805 12.9805 -34.2643
  2607 103.912 -6.67813 -2.65974
  2608 103.913 -6.67899 2.66766
  2609 141.141 -3.80720 -6.96594
  2610 141.165 -3.82657 6.98892
  2611 124.626 0.0539641 2.40439
  2612 124.618 0.0540237 -2.40492
  2613 129.890 -0.296384 6.34075
  2614 96.1503 4.97682 3.59080
  2615 91.2702 0.591867 4.38541
  2616 109.523 4.26662 -9.01752
  2617 64.8789 8.06016 12.1880
  2618 64.8812 8.06106 -12.1831
  2619 78.4658 2.93231 4.91418
  2620 78.4653 2.93179 -4.91265
  2621 119.086 -0.0648773 -2.49361
  2622 119.095 -0.0649362 2.49332
  2623 75.2628 5.50814 4.69824
  2624 75.2644 5.50741 -4.69696
  2625 119.038 20.7417 -3.97734
  2626 140.832 -0.484166 -4.82462
  2627 140.823 -0.505323 4.86633
  2628 139.377 -2.58112 9.62351
  2629 139.388 -2.56855 -9.57859
  2630 94.3606 0.0278016 2.23960
  2631 94.3614 0.0265671 -2.24005
  2632 136.983 -3.20781 -3.28041
  2633 136.984 -3.20552 3.27013
  2634 201.040 16.2166 -0.0931965
  2635 38.0653 -20.2963 -4.64852
  2636 37.5288 -20.7046 4.55721
  2637 145.933 -5.00407 -11.8509
  2638 146.057 -4.85008 11.8578
  2639 80.2603 1.06431 -3.68128
  2640 80.2627 1.06452 3.68247
  2641 82.5125 2.47966 3.58958
  2642 82.5100 2.47895 -3.59131
  2643 132.987 -12.4800 2.65210
  2644 132.946 -12.3951 -2.68737
  2645 139.223 21.1901 39.1963
  2646 107.483 -7.19687 16.8196
  2647 109.541 13.0278 6.37083
  2648 88.5285 3.39188 -12.8796
  2649 88.5334 3.39071 12.8812
  2650 193.373 19.6360 24.5312
  2651 52.8680 8.15374 -1.00699
  2652 52.8835 8.14895 1.00586
  2653 92.7408 3.97537 -0.641711
  2654 84.4082 -1.53390 8.29169
  2655 84.4043 -1.53879 -8.29580
  2656 135.907 0.0335861 -2.99585
  2657 135.912 0.0333714 2.99429
  2658 56.3140 7.09562 -11.7026
  2659 56.3092 7.09390 11.7109
  2660 70.3657 7.58703 3.57354
  2661 70.3694 7.58631 -3.57293
  2662 99.2475 -3.08659 0.226436
  2663 99.2511 -3.09019 -0.222844
  2664 103.814 0.470727 -8.52639
  2665 101.408 1.25127 10.8984
  2666 101.401 1.25230 -10.8984
  2667 142.374 -8.84712 5.41637
  2668 142.570 -8.62380 -5.35407
  2669 147.404 -0.170045 -2.24014
  2670 147.398 -0.170284 2.23701
  2671 102.722 -15.8792 -13.3883
  2672 102.765 -15.8859 13.4339
  2673 144.579 -2.25310 1.15507
  2674 144.566 -2.24469 -1.15638
  2675 82.5943 0.906276 4.17663
  2676 82.5908 0.906152 -4.17542
  2677 119.227 -11.3554 -8.30355
  2678 99.9471 -0.595054 2.56085
  2679 99.9535 -0.594195 -2.55595
  2680 70.4239 7.75678 -5.88253
  2681 70.4207 7.75757 5.88388
  2682 96.9356 -1.38540 1.81222
  2683 96.9378 -1.38823 -1.81119
  2684 80.0149 2.31617 -5.44253
  2685 80.0165 2.31654 5.44412
  2686 67.7962 7.15163 -2.07438
  2687 67.8017 7.15197 2.07246
  2688 81.0245 0.327239 -0.703883
  2689 135.549 -9.29531 5.86765
  2690 135.519 -9.24374 -5.87846
  2691 93.3529 -3.43927 4.61789
  2692 93.3572 -3.44552 -4.61985
  2693 165.987 3.89412 2.30581
  2694 101.230 10.4381 0.784201
  2695 95.7876 -9.34635 8.47903
  2696 95.8878 -9.26827 -8.47393
  2697 76.2025 5.11777 1.73674
  2698 76.2049 5.11707 -1.73626
  2699 105.243 -7.87815 -14.8228
  2700 105.262 -7.88214 14.8243
  2701 126.996 1.90748 -18.4620
  2702 73.2764 6.75996 7.25585
  2703 73.2782 6.75932 -7.25406
  2704 76.2122 5.64878 8.48081
  2705 76.2124 5.64836 -8.47874
  2706 99.7166 1.16845 9.44364
  2707 99.7097 1.16910 -9.44320
  2708 97.8762 1.86017 -7.02991
  2709 94.8029 -13.7045 -14.5875
  2710 117.174 1.46434 11.5898
  2711 89.8330 3.13947 14.1835
  2712 89.8274 3.14132 -14.1823
  2713 172.283 12.5190 -6.39026
  2714 126.413 -14.6339 -1.39089
  2715 126.499 -14.5812 1.29429
  2716 77.2423 4.14925 3.12833
  2717 77.2437 4.14850 -3.12730
  2718 109.475 3.59503 9.10181
  2719 189.860 21.3318 -25.9021
  2720 91.7498 0.446383 -4.57401
  2721 100.544 -3.15510 -1.41845
  2722 100.547 -3.15793 1.42304
  2723 133.316 -0.339232 -5.56663
  2724 133.320 -0.339987 5.56302
  2725 83.4150 1.43562 5.54403
  2726 83.4116 1.43547 -5.54257
  2727 90.6994 2.72474 1.35481
  2728 74.9392 5.60542 3.14375
  2729 74.9415 5.60470 -3.14291
  2730 126.620 24.7664 2.85145
  2731 101.175 -0.368658 -0.566375
  2732 101.174 -0.367938 0.567592
  2733 81.7224 0.568817 3.19855
  2734 81.7190 0.568718 -3.19756
  2735 25.8779 -34.3466 0.0722897
  2736 25.9184 -34.3717 -0.114523
  2737 63.4916 8.93907 3.28674
  2738 63.4983 8.93771 -3.28646
  2739 88.5226 0.880436 5.41108
  2740 88.5174 0.880418 -5.40992
  2741 105.098 6.60253 -8.00103
  2742 94.8397 -11.8921 12.5547
  2743 112.399 6.29551 8.78491
  2744 117.648 -7.85231 -9.94266
  2745 117.674 -7.85718 9.93594
  2746 126.213 -1.54908 2.07764
  2747 99.2319 0.643078 6.33120
  2748 99.2245 0.643288 -6.33060
  2749 108.001 -10.5854 -14.2624
  2750 93.3361 2.22962 -10.9316
  2751 93.3418 2.22890 10.9327
  2752 103.129 -18.5040 -11.7411
  2753 103.397 -18.5160 11.9141
  2754 126.138 -10.0328 -3.55906
  2755 126.166 -10.0199 3.53795
  2756 136.405 -0.369488 -5.48215
  2757 136.407 -0.370605 5.47700
  2758 71.4625 4.19792 7.01300
  2759 71.4580 4.19496 -7.01620
  2760 94.6384 0.0558163 1.30502
  2761 94.6305 0.0558238 -1.30478
  2762 100.793 -2.19560 -2.28197
  2763 100.794 -2.19784 2.28697
  2764 102.526 -14.0877 -9.49919
  2765 69.4491 7.15293 0.751953
  2766 69.4443 7.15291 -0.753045
  2767 87.1603 0.252346 2.69359
  2768 87.1548 0.252318 -2.69291
  2769 148.378 -1.54587 6.54395
  2770 78.0612 -2.19782 12.6397
  2771 78.0536 -2.20770 -12.6409
  2772 103.750 0.272636 -4.64994
  2773 103.758 0.272500 4.65022
  2774 104.821 12.9624 1.31082
  2775 135.717 -6.41138 -9.01988
  2776 93.5092 -5.01498 -5.89962
  2777 93.5040 -5.00706 5.89621
  2778 139.028 -5.91583 -10.5968
  2779 139.083 -5.92968 10.6122
  2780 90.2199 0.246719 3.07837
  2781 90.2135 0.246723 -3.07770
  2782 75.4842 5.40104 3.98564
  2783 75.4860 5.40030 -3.98452
  2784 110.380 -14.1174 -4.75777
  2785 108.287 10.7488 -7.06777
  2786 158.992 3.71296 -10.8360
  2787 77.5897 3.65882 -4.72364
  2788 77.5894 3.65944 4.72510
  2789 149.356 21.1257 -2.13764
  2790 100.411 -16.4241 -21.3820
  2791 133.687 -0.0228659 -2.77086
  2792 133.693 -0.0230353 2.76972
  2793 126.535 6.78686 7.79842
  2794 79.4170 3.97179 -0.784247
  2795 79.4196 3.97135 0.783854
  2796 73.9817 6.17579 -3.47557
  2797 73.9791 6.17650 3.47643
  2798 81.2387 0.998902 -3.93005
  2799 81.2415 0.999072 3.93126
  2800 62.4777 -18.7605 -26.3845
  2801 141.496 -0.291623 -2.62472
  2802 141.497 -0.291881 2.62259
  2803 148.603 11.9196 4.05963
  2804 82.2204 2.09100 6.34831
  2805 82.2177 2.09078 -6.34666
  2806 98.8351 -0.0825355 1.40592
  2807 98.8492 -0.0823874 -1.40287
  2808 61.0422 -18.6509 26.4523
  2809 103.074 -10.6335 14.7716
  2810 103.052 -10.6312 -14.7637
  2811 93.2183 2.11518 -16.0638
  2812 93.2258 2.11204 16.0638
  2813 107.835 9.60651 7.55275
  2814 120.171 -10.1213 -3.02490
  2815 67.6526 8.61611 -6.22353
  2816 67.6483 8.61709 6.22504
  2817 101.412 -0.869675 -0.938957
  2818 101.411 -0.870911 0.942435
  2819 82.8918 3.83714 10.4331
  2820 82.8891 3.83730 -10.4310
  2821 71.7475 5.78766 3.44554
  2822 71.7428 5.78673 -3.44730
  2823 58.9250 8.78885 8.35405
  2824 58.9322 8.78802 -8.34932
  2825 119.880 11.4148 -30.7213
  2826 77.3598 5.45043 15.6371
  2827 77.3563 5.45313 -15.6340
  2828 120.978 0.0164033 -8.27209
  2829 120.984 0.0153917 8.26962
  2830 78.6994 5.32278 11.1455
  2831 78.6981 5.32300 -11.1430
  2832 86.0041 0.139321 1.78431
  2833 74.1425 6.18815 -6.20344
  2834 74.1408 6.18882 6.20501
  2835 83.4174 -3.18792 -10.6032
  2836 83.4219 -3.18010 10.5976
  2837 86.8338 0.925664 -2.31725
  2838 102.698 -3.71165 -5.66416
  2839 102.704 -3.71293 5.66928
  2840 86.2244 0.976982 4.05068
  2841 86.2231 0.975362 -4.05281
  2842 79.6735 3.48964 7.20146
  2843 79.6722 3.48927 -7.19959
  2844 77.0441 2.55193 7.02678
  2845 77.0395 2.54920 -7.02938
  2846 91.0990 2.82484 -15.5501
  2847 91.1056 2.82213 15.5508
  2848 143.632 -2.19094 -0.387389
  2849 143.623 -2.18565 0.381857
  2850 78.0422 4.39396 1.13759
  2851 78.0392 4.39422 -1.13814
  2852 100.701 -9.74111 -4.64659
  2853 100.746 -9.68128 4.54338
  2854 88.9268 0.136118 -2.11110
  2855 88.9331 0.136124 2.11160
  2856 74.6396 6.68004 10.8305
  2857 74.6398 6.68004 -10.8279
  2858 100.877 -14.5654 13.8326
  2859 99.7925 -14.9927 -13.4454
  2860 104.125 -0.0724532 -0.0106992
  2861 104.124 -0.0725622 0.0114397
  2862 80.7024 1.34840 -4.40985
  2863 80.7048 1.34864 4.41121
  2864 123.895 -12.4036 -3.49899
  2865 123.943 -12.3913 3.47341
  2866 73.7345 1.37191 -10.4226
  2867 73.7384 1.37820 10.4190
  2868 84.4981 0.222913 -2.27993
  2869 84.5030 0.222945 2.28058
  2870 40.5248 3.03148 -6.06367
  2871 40.5596 3.02184 6.06268
  2872 136.567 -0.589630 16.0316
  2873 74.8525 5.41514 -1.54709
  2874 74.8563 5.41519 1.54631
  2875 83.9479 1.44889 -4.67337
  2876 83.9501 1.45046 4.67098
  2877 76.6847 4.43521 3.76028
  2878 76.6860 4.43448 -3.75911
  2879 83.4173 -20.5641 -15.5681
  2880 83.6142 -20.2946 15.0540
  2881 108.597 -6.09641 5.56856
  2882 108.540 -6.03580 -5.61601
  2883 57.9376 -4.50778 19.0931
  2884 57.9201 -4.49652 -19.0889
  2885 94.9283 3.08810 5.12277
  2886 100.607 -1.45185 2.91528
  2887 100.608 -1.45015 -2.90988
  2888 92.1996 -3.57774 5.52638
  2889 92.2031 -3.58421 -5.52954
  2890 35.8751 1.51188 -2.74948
  2891 35.8466 1.51462 2.76611
  2892 62.9462 7.31359 13.5982
  2893 62.9477 7.31591 -13.5920
  2894 95.5729 0.239066 3.22115
  2895 95.5655 0.239080 -3.22062
  2896 101.493 5.20643 7.13248
  2897 133.192 -1.10100 -9.81938
  2898 66.3749 2.53220 -18.2838
  2899 66.3824 2.52515 18.2893
  2900 80.5250 2.16210 -5.54748
  2901 80.5269 2.16242 5.54906
  2902 134.694 -5.22061 -1.55910
  2903 134.696 -5.21033 1.54741
  2904 99.6386 -0.00811945 -7.53244
  2905 90.0723 0.756610 -3.97614
  2906 79.4234 0.00550221 0.451557
  2907 79.4196 0.00550311 -0.451396
  2908 147.779 -5.57508 3.33882
  2909 147.654 -5.50444 -3.14299
  2910 87.5892 1.30007 2.97869
  2911 87.5883 1.29920 -2.98011
  2912 80.2595 1.33080 -4.12101
  2913 80.2617 1.33105 4.12232
  2914 85.1985 1.25384 5.63043
  2915 85.1944 1.25374 -5.62908
  2916 104.346 -11.5952 -4.19319
  2917 104.199 -11.6448 4.28313
  2918 200.683 14.5011 -5.36357
  2919 122.714 3.18203 -12.4391
  2920 91.2509 0.116534 -3.87989
  2921 202.699 12.3207 -17.2847
  2922 106.118 14.5709 -1.28311
  2923 172.967 16.3840 1.00408
  2924 125.641 -3.13165 13.6618
  2925 119.737 -3.47653 5.05659
  2926 85.7216 0.131091 -1.68994
  2927 77.4522 4.17332 5.86959
  2928 77.4523 4.17272 -5.86792
  2929 125.344 -13.6658 -5.40013
  2930 126.125 -13.4419 4.90275
  2931 195.702 13.9666 40.7542
  2932 145.283 14.0870 20.1370
  2933 78.6862 4.92874 -9.44373
  2934 78.6872 4.92894 9.44592
  2935 164.599 20.4944 11.9469
  2936 116.291 -1.22316 -12.1667
  2937 116.300 -1.22665 12.1616
  2938 82.2633 0.100695 -1.36244
  2939 82.2677 0.100714 1.36286
  2940 93.4604 -0.239814 2.62796
  2941 93.4614 -0.241692 -2.62857
  2942 98.8216 -2.07297 -0.701077
  2943 98.8190 -2.06999 0.703769
  2944 85.5664 3.91453 13.9237
  2945 85.5620 3.91605 -13.9218
  2946 100.785 -2.37043 5.71662
  2947 100.782 -2.37203 -5.70935
  2948 95.8390 -2.63947 2.64494
  2949 95.8431 -2.64411 -2.64428
  2950 82.5329 0.374158 1.18983
  2951 104.864 12.0428 3.75751
  2952 145.594 2.89764 15.4310
  2953 82.6854 0.302959 -2.40970
  2954 82.6896 0.303009 2.41044
  2955 98.4488 3.21875 -6.76597
  2956 83.5378 0.554814 3.43002
  2957 83.5337 0.554739 -3.42904
  2958 96.3104 -0.303051 -1.91971
  2959 96.3092 -0.301625 1.91982
  2960 73.8418 5.64014 -1.98134
  2961 73.8459 5.64046 1.98036
  2962 274.369 8.37413 16.7424
  2963 108.242 0.656335 7.74605
  2964 108.234 0.656857 -7.74632
  2965 88.0869 0.483667 -3.86550
  2966 88.0924 0.483690 3.86639
  2967 99.6566 -0.0280707 7.54629
  2968 84.5464 2.64188 8.52640
  2969 84.5431 2.64185 -8.52460
  2970 81.6684 2.76462 7.31105
  2971 81.6662 2.76439 -7.30924
  2972 88.5975 -2.90622 -7.25156
  2973 88.5979 -2.90036 7.24658
  2974 76.6212 4.48986 4.54908
  2975 76.6222 4.48916 -4.54772
  2976 126.090 25.8527 0.194184
  2977 44.9943 2.76824 -9.93541
  2978 45.0231 2.75841 9.92430
  2979 94.4395 0.661382 -5.74620
  2980 74.4223 6.29399 14.7350
  2981 74.4204 6.29608 -14.7314
  2982 89.2567 0.497958 3.39191
  2983 89.2564 0.496282 -3.39347
  2984 123.684 11.0607 31.4443
  2985 87.4017 2.71282 10.1528
  2986 87.3975 2.71315 -10.1511
  2987 55.1670 -6.23426 -20.4688
  2988 129.256 2.79273 14.1195
  2989 82.8101 -4.28859 12.4273
  2990 82.8001 -4.29397 -12.4345
  2991 98.5419 -0.640879 -3.41605
  2992 98.5348 -0.640890 3.42132
  2993 101.863 1.63269 -8.12575
  2994 144.902 3.10496 -15.0682
  2995 84.8252 3.85615 12.4350
  2996 84.8215 3.85699 -12.4330
  2997 203.708 12.8212 11.7131
  2998 151.206 26.4176 0.787040
  2999 16.3363 -30.7452 -3.26908
  3000 16.4028 -30.8456 3.25877
  3001 102.428 -7.42720 -0.0953733
  3002 102.436 -7.42958 0.105098
  3003 86.8714 0.679145 -4.58343
  3004 86.8764 0.679175 4.58452
  3005 161.555 10.9495 9.38184
  3006 54.4915 -0.775545 16.9713
  3007 54.4813 -0.764971 -16.9613
  3008 56.5421 9.07493 3.90372
  3009 56.5529 9.07225 -3.90159
  3010 96.5917 6.11654 -2.20335
  3011 116.620 -0.0148075 -10.9909
  3012 116.627 -0.0168432 10.9874
  3013 69.7814 6.97092 13.9880
  3014 69.7809 6.97282 -13.9835
  3015 113.907 0.199789 8.41700
  3016 175.902 17.1434 -44.2903
  3017 95.1907 1.59052 -9.98795
  3018 95.1969 1.58993 9.98887
  3019 95.6980 2.00552 12.0157
  3020 95.6917 2.00669 -12.0150
  3021 92.4582 0.444311 4.37968
  3022 92.4517 0.444337 -4.37887
  3023 98.5361 -1.24524 1.13025
  3024 98.5379 -1.24748 -1.12853
  3025 74.0309 6.06879 -1.72429
  3026 74.0278 6.06936 1.72461
  3027 185.443 10.4831 -15.5261
  3028 80.6888 0.218430 1.87881
  3029 80.6852 0.218391 -1.87817
  3030 102.086 -0.162867 -0.511872
  3031 102.085 -0.162514 0.512688
  3032 88.0804 0.0719063 0.874460
  3033 88.0739 0.0718932 -0.874232
  3034 54.7215 2.38466 12.8946
  3035 54.7088 2.38872 -12.9082
  3036 101.494 -0.895950 -7.79490
  3037 101.528 -0.895689 7.79643
  3038 106.257 0.141769 8.66382
  3039 106.523 0.126020 -1.61649
  3040 106.532 0.126005 1.61658
  3041 139.726 -7.64371 -10.5435
  3042 139.771 -7.64942 10.5744
  3043 79.5293 3.84365 7.74952
  3044 79.5281 3.84329 -7.74757
  3045 80.0766 -0.348571 -9.42533
  3046 80.0819 -0.343665 9.42150
  3047 90.5824 -0.343188 3.75555
  3048 90.5831 -0.345845 -3.75722
  3049 162.000 26.9277 -2.90848
  3050 95.9257 -0.724542 -2.10812
  3051 95.9241 -0.722402 2.10839
  3052 86.7577 3.42921 11.7250
  3053 86.7536 3.42986 -11.7232
  3054 175.292 12.3963 5.93573
  3055 49.4115 4.25846 -9.12124
  3056 49.4329 4.25238 9.11172
  3057 73.6362 5.31655 -3.18615
  3058 73.6405 5.31730 3.18472
  3059 105.208 -10.6218 1.77117
  3060 105.152 -10.6287 -1.80230
  3061 80.6103 0.634304 -3.03869
  3062 80.6132 0.634427 3.03969
  3063 49.8909 6.71034 8.88538
  3064 49.9009 6.71079 -8.87540
  3065 100.920 -1.47226 2.02813
  3066 100.921 -1.47045 -2.02336
  3067 126.575 7.26209 2.88905
  3068 76.3033 -17.0544 25.0297
  3069 94.6254 -7.03656 -7.04225
  3070 94.6243 -7.02247 7.04837
  3071 96.6890 -15.8703 -15.8877
  3072 85.7211 0.698402 4.66861
  3073 85.7196 0.696365 -4.67112
  3074 100.663 -4.63777 -1.03451
  3075 100.668 -4.64090 1.03946
  3076 41.5443 -6.65444 -18.9659
  3077 41.5635 -6.65895 18.9526
  3078 116.102 0.0746495 6.28097
  3079 84.0306 1.25005 0.0731223
  3080 72.5903 5.96879 -1.30312
  3081 72.5945 5.96896 1.30227
  3082 58.2614 -9.86039 -19.8042
  3083 58.2872 -9.87082 19.8018
  3084 92.8978 3.30608 -2.90604
  3085 100.635 18.5178 -38.1673
  3086 91.3494 -18.6201 22.4680
  3087 155.027 -0.360276 -0.562780
  3088 155.051 -0.361797 0.562475
  3089 91.2304 0.131859 3.84740
  3090 79.9598 3.69546 -1.92106
  3091 79.9626 3.69536 1.92018
  3092 110.469 -0.524171 13.8176
  3093 110.460 -0.520920 -13.8213
  3094 109.820 0.678178 -10.3520
  3095 109.828 0.676925 10.3507
  3096 111.010 0.00324399 -1.80619
  3097 111.019 0.00321024 1.80622
  3098 102.805 -0.0176624 -0.289792
  3099 102.803 -0.0176294 0.289831
  3100 10.0839 -66.4251 5.15483
  3101 10.2522 -66.4009 -5.43490
  3102 84.0679 -0.00931956 -0.801464
  3103 84.0732 -0.00932557 0.801708
  3104 102.263 -4.70135 16.3880
  3105 102.249 -4.69686 -16.3900
  3106 110.886 0.563351 8.64213
  3107 100.712 3.47435 7.53410
  3108 78.5515 2.53421 4.31549
  3109 78.5509 2.53372 -4.31406
  3110 165.109 14.8248 -0.424853
  3111 76.1354 4.98787 5.26136
  3112 76.1365 4.98718 -5.25988
  3113 29.8214 -9.74442 -9.10280
  3114 29.8246 -9.76348 9.13243
  3115 97.1027 -0.0529354 -1.63878
  3116 97.1016 -0.0520897 1.63877
  3117 91.0848 2.07601 10.0635
  3118 91.0795 2.07649 -10.0622
  3119 97.9422 1.68128 7.06193
  3120 82.9565 1.10004 -1.01229
  3121 101.885 -0.102165 -0.573905
  3122 101.883 -0.101873 0.574463
  3123 102.299 -0.404621 0.0784877
  3124 102.299 -0.404036 -0.0765384
  3125 90.9585 0.808575 5.59427
  3126 90.9526 0.808603 -5.59323
  3127 96.6420 -0.522629 3.98976
  3128 96.6494 -0.526544 -3.98582
  3129 86.0801 -1.70092 -7.43249
  3130 86.0824 -1.69644 7.42803
  3131 118.821 -4.96995 -4.46603
  3132 94.7117 2.60145 -5.20452
  3133 118.817 14.6123 -7.44516
  3134 57.3671 7.43971 -4.14151
  3135 57.3789 7.43706 4.13658
  3136 79.6732 1.19781 3.63217
  3137 79.6712 1.19757 -3.63093
  3138 83.7886 -9.50796 -17.0265
  3139 83.8420 -9.48964 16.9051
  3140 94.5593 0.739868 5.87468
  3141 79.9002 0.725402 -2.99862
  3142 79.9027 0.725559 2.99964
  3143 131.000 3.23842 -14.3104
  3144 88.1965 2.56144 -17.0639
  3145 88.2040 2.55756 17.0645
  3146 147.216 -1.00601 -1.60855
  3147 147.205 -1.00514 1.60232
  3148 48.1157 3.44043 12.2644
  3149 48.1187 3.44584 -12.2507
  3150 24.7670 -8.18747 0.124416
  3151 24.7111 -8.18391 -0.0884869
  3152 127.043 -4.07079 4.46578
  3153 147.837 -2.96496 -5.73523
  3154 94.0056 -16.7448 18.8825
  3155 65.9544 0.758099 -13.5718
  3156 65.9572 0.762667 13.5592
  3157 146.052 -0.565890 -2.91909
  3158 146.044 -0.566316 2.91282
  3159 106.379 0.185026 4.41763
  3160 106.371 0.185153 -4.41749
  3161 81.1776 0.0361622 -0.646844
  3162 81.1819 0.0361740 0.647067
  3163 94.7841 -0.831065 2.48343
  3164 94.7859 -0.833616 -2.48352
  3165 133.687 -0.884199 9.84226
  3166 99.9185 -0.826511 0.699112
  3167 99.9196 -0.827970 -0.697349
  3168 120.749 -10.7148 6.20339
  3169 99.7459 -2.47703 -0.220356
  3170 99.7483 -2.47998 0.224127
  3171 76.7791 4.10386 4.23200
  3172 76.7750 4.10289 -4.23368
  3173 77.0058 5.89712 11.6566
  3174 77.0049 5.89746 -11.6540
  3175 96.3388 0.696946 6.40838
  3176 96.3320 0.697119 -6.40757
  3177 101.451 -18.3326 -17.8722
  3178 83.9650 1.61155 18.5583
  3179 83.9559 1.61681 -18.5575
  3180 111.583 -2.89285 13.8588
  3181 111.570 -2.88822 -13.8634
  3182 103.810 -0.00694354 -0.204261
  3183 103.809 -0.00689501 0.204512
  3184 85.3996 0.233208 -2.19600
  3185 85.4048 0.233246 2.19661
  3186 115.131 20.9390 1.18839
  3187 97.9523 -18.3501 -13.9673
  3188 97.9541 -18.3183 14.0956
  3189 103.852 0.198594 8.42291
  3190 123.083 -9.63035 5.87160
  3191 123.052 -9.63198 -5.88547
  3192 114.814 18.8656 4.18398
  3193 102.712 -4.54515 4.54993
  3194 102.708 -4.54363 -4.54576
  3195 77.5083 4.45966 1.09372
  3196 77.5106 4.45898 -1.09340
  3197 138.429 -1.28309 8.21247
  3198 138.522 -1.24069 -8.18907
  3199 112.045 -4.94967 -6.34782
  3200 67.0975 8.64753 -4.74418
  3201 67.0926 8.64857 4.74508
  3202 104.048 4.49207 -8.26941
  3203 90.6624 0.373397 -3.79653
  3204 90.6686 0.373389 3.79731
  3205 105.787 3.17826 3.30713
  3206 134.670 2.36122 -15.4981
  3207 93.9019 1.59801 8.94305
  3208 93.8959 1.59836 -8.94197
  3209 112.597 17.1003 35.5381
  3210 97.1004 0.248645 3.52441
  3211 97.0928 0.248673 -3.52389
  3212 123.621 22.1028 4.81117
  3213 98.5335 2.96842 6.94210
  3214 103.069 7.47308 -6.51580
  3215 102.186 -4.63330 -3.35670
  3216 102.190 -4.63522 3.36143
  3217 73.1108 6.83064 6.19371
  3218 73.1129 6.82994 -6.19219
  3219 135.348 5.91970 11.6417
  3220 111.375 -4.37823 6.64418
  3221 76.9331 -20.3654 -16.7778
  3222 77.5517 -20.2874 16.3945
  3223 150.110 -3.65653 -8.23698
  3224 140.229 -3.41030 14.9416
  3225 140.219 -3.51569 -14.9798
  3226 95.5796 -3.17377 3.00727
  3227 95.5842 -3.17904 -3.00686
  3228 34.3770 -1.77575 -6.16856
  3229 34.3592 -1.77898 6.19393
  3230 101.417 -0.146417 1.03258
  3231 101.426 -0.146161 -1.03016
  3232 79.5193 2.73134 -5.75043
  3233 79.5206 2.73175 5.75208
  3234 115.763 -10.1935 0.440242
  3235 98.7861 -8.64936 5.09995
  3236 98.7914 -8.65208 -5.15700
  3237 76.8632 4.90130 1.11653
  3238 76.8657 4.90064 -1.11622
  3239 87.0303 -3.57347 -19.6148
  3240 87.0425 -3.57736 19.6139
  3241 100.792 0.0374380 -16.1803
  3242 100.802 0.0334910 16.1782
  3243 87.3002 1.20588 1.91310
  3244 100.626 -1.43885 -0.498294
  3245 100.626 -1.44073 0.501719
  3246 100.197 0.252125 3.93863
  3247 100.189 0.252201 -3.93819
  3248 124.853 6.65450 6.90398
  3249 90.0071 -0.975435 4.55017
  3250 90.0079 -0.978981 -4.55252
  3251 50.1107 -17.8972 -17.3135
  3252 50.1527 -17.8906 17.3072
  3253 77.2913 3.91977 4.15406
  3254 77.2921 3.91907 -4.15274
  3255 98.4067 -1.07665 -5.71160
  3256 98.4032 -1.06934 5.71549
  3257 81.6932 1.42262 -4.86370
  3258 81.6960 1.42282 4.86510
  3259 106.633 -5.74847 -14.9965
  3260 106.649 -5.75351 14.9943
  3261 100.585 -2.44063 1.50053
  3262 100.583 -2.43815 -1.49597
  3263 91.6356 1.11012 6.62735
  3264 91.6298 1.11020 -6.62622
  3265 96.4987 -8.36900 6.89280
  3266 96.4654 -8.33063 -6.87533
  3267 101.024 -1.06051 0.392864
  3268 101.024 -1.05909 -0.389783
  3269 145.854 4.53824 14.5555
  3270 107.703 0.758491 8.85955
  3271 107.695 0.759206 -8.85999
  3272 102.915 -0.185898 -0.197091
  3273 102.915 -0.185547 0.198187
  3274 137.025 22.8845 -2.87579
  3275 114.097 -14.2737 6.23319
  3276 101.915 -0.481796 -1.18166
  3277 101.912 -0.482522 1.18496
  3278 85.3980 -2.91087 -9.10132
  3279 85.4025 -2.90409 9.09682
  3280 117.080 -5.19181 -17.8081
  3281 73.2189 6.87669 -8.25314
  3282 73.2173 6.87722 8.25519
  3283 17.8993 -48.9633 -2.56697
  3284 20.3138 -43.1014 6.13603
  3285 75.4754 -2.13487 -13.8887
  3286 75.4717 -2.12064 13.8866
  3287 150.364 -3.45810 8.25592
  3288 80.3502 0.0889114 -1.06469
  3289 80.3540 0.0889369 1.06506
  3290 60.6723 7.49602 -3.63619
  3291 60.6814 7.49483 3.63192
  3292 16.4886 -23.1738 -1.12351
  3293 16.4943 -23.2232 1.20976
  3294 125.831 0.0267836 -6.67855
  3295 125.837 0.0260393 6.67603
  3296 100.305 -12.5126 -9.00718
  3297 114.094 -0.435876 -8.09165
  3298 134.234 9.46450 2.22128
  3299 78.0408 4.38568 -0.514562
  3300 78.0384 4.38632 0.514679
  3301 85.8086 -0.00945827 -0.608508
  3302 85.8145 -0.00947406 0.608689
  3303 99.4491 -0.0192341 -1.14951
  3304 99.4479 -0.0188297 1.14961
  3305 86.5281 1.71104 7.31715
  3306 86.5239 1.71104 -7.31563
  3307 100.705 -6.05739 -0.342052
  3308 100.697 -6.05284 0.347829
  3309 130.539 5.81232 -3.11210
  3310 92.1487 -0.332229 -3.13422
  3311 92.1478 -0.329872 3.13318
  3312 86.5629 0.700811 2.67243
  3313 143.447 -0.423854 -3.59567
  3314 143.443 -0.424552 3.59039
  3315 54.7064 -7.36549 22.0484
  3316 54.7274 -7.31578 -22.1061
  3317 95.2283 5.02762 1.98098
  3318 102.363 -2.59188 6.97864
  3319 102.355 -2.59650 -6.96820
  3320 103.977 -5.60158 4.26697
  3321 103.978 -5.60143 -4.26233
  3322 136.891 -10.2246 6.67881
  3323 136.852 -10.1652 -6.68225
  3324 65.2212 -4.63890 14.8727
  3325 155.702 1.14820 -11.5336
  3326 131.229 11.7297 -5.23054
  3327 65.0605 6.16958 15.3839
  3328 65.0591 6.17316 -15.3777
  3329 162.950 8.33473 10.4267
  3330 63.8259 9.19038 5.41108
  3331 63.8320 9.18898 -5.40967
  3332 80.3738 3.03949 -6.86552
  3333 80.3754 3.03983 6.86731
  3334 132.335 -3.57492 -5.01025
  3335 132.342 -3.57496 4.99951
  3336 76.5393 4.77909 -5.87332
  3337 76.5386 4.77973 5.87493
  3338 67.8077 4.05920 -8.59325
  3339 67.8122 4.06304 8.58767
  3340 77.4747 4.73574 7.34995
  3341 77.4746 4.73524 -7.34806
  3342 115.571 -0.162834 -6.33878
  3343 86.2875 2.20494 8.27654
  3344 86.2835 2.20498 -8.27489
  3345 96.1361 -1.68606 2.19152
  3346 96.1387 -1.68946 -2.19078
  3347 124.264 0.0296214 -5.64339
  3348 185.710 11.3859 0.0990952
  3349 31.6813 -19.5666 -12.0929
  3350 31.7122 -19.5853 12.0903
  3351 55.6367 3.87085 -15.0305
  3352 55.6381 3.86456 15.0408
  3353 96.8670 1.36493 -16.3324
  3354 96.8755 1.36134 16.3313
  3355 138.257 -3.44989 -1.71249
  3356 138.256 -3.44442 1.70320
  3357 94.2177 1.83841 5.42323
  3358 101.562 -8.08519 -1.54852
  3359 101.541 -8.07666 1.56106
  3360 125.030 7.02759 0.629663
  3361 56.0038 8.26316 8.80168
  3362 56.0119 8.26262 -8.79514
  3363 136.844 -5.35094 0.467735
  3364 136.840 -5.33463 -0.476155
  3365 102.199 -13.7711 8.97298
  3366 124.658 22.4689 -4.37588
  3367 71.7159 7.20600 3.51792
  3368 71.7192 7.20530 -3.51723
  3369 77.5702 4.95411 -8.30979
  3370 77.5705 4.95450 8.31183
  3371 81.6043 -6.26214 15.3638
  3372 81.6298 -6.32538 -15.3664
  3373 148.552 -1.15116 -0.618310
  3374 148.538 -1.14886 0.613547
  3375 111.733 0.110009 -12.4360
  3376 111.741 0.107612 12.4331
  3377 126.855 -6.41773 -5.93432
  3378 126.872 -6.41642 5.92147
  3379 100.340 -0.371066 -0.863220
  3380 100.339 -0.370272 0.864121
  3381 72.8083 5.14019 -16.9428
  3382 72.8127 5.13602 16.9468
  3383 119.460 -4.62254 10.8987
  3384 119.446 -4.61783 -10.9056
  3385 28.6366 -32.2374 -7.68751
  3386 28.6280 -32.1962 7.65769
  3387 79.4864 0.0464225 -0.837315
  3388 79.4900 0.0464212 0.837621
  3389 122.933 7.92205 -7.85013
  3390 77.8764 3.28051 4.06966
  3391 77.8767 3.27988 -4.06832
  3392 79.1602 1.68156 -4.01818
  3393 79.1615 1.68192 4.01954
  3394 67.8315 4.17121 -17.5024
  3395 67.8370 4.16535 17.5079
  3396 101.799 0.00438094 -0.585595
  3397 103.274 -0.00686422 0.228176
  3398 101.797 0.00447475 0.585649
  3399 103.276 -0.00689890 -0.228098
  3400 108.761 -11.3577 1.11355
  3401 108.677 -11.3838 -1.01698
  3402 70.8604 3.14600 -9.06876
  3403 70.8646 3.15060 9.06443
  3404 74.5435 -12.9854 19.8288
  3405 74.5363 -12.9926 -19.8448
  3406 113.008 0.183271 6.99407
  3407 113.000 0.183749 -6.99482
  3408 81.1127 0.102582 0.835741
  3409 99.6383 -6.58073 1.83025
  3410 99.6500 -6.58800 -1.82596
  3411 90.5749 1.72071 8.70967
  3412 90.5697 1.72096 -8.70830
  3413 100.964 -1.34074 1.01340
  3414 100.964 -1.33908 -1.00951
  3415 255.130 10.2284 31.4060
  3416 82.1776 0.708240 -3.62182
  3417 82.1810 0.708352 3.62290
  3418 84.4601 3.22025 9.87802
  3419 84.4568 3.22038 -9.87608
  3420 28.6206 -6.79787 -4.92672
  3421 28.5989 -6.80705 4.96191
  3422 79.1279 3.27405 4.01208
  3423 79.1243 3.27321 -4.01383
  3424 45.2587 5.92724 -2.38798
  3425 45.2836 5.91980 2.38931
  3426 157.439 3.46847 11.7731
  3427 107.950 2.31980 -7.54077
  3428 97.9327 -2.01527 1.31414
  3429 97.9354 -2.01853 -1.31219
  3430 84.6570 -6.73579 13.8801
  3431 84.7018 -6.85221 -13.8785
  3432 79.7992 4.32862 9.01680
  3433 79.7978 4.32841 -9.01470
  3434 102.070 0.983303 9.64238
  3435 102.062 0.984043 -9.64224
  3436 140.312 -4.41278 3.79014
  3437 140.296 -4.38948 -3.78656
  3438 80.9812 2.66289 -4.30251
  3439 80.9843 2.66390 4.30054
  3440 69.7225 -1.48326 -15.3504
  3441 69.7256 -1.47483 15.3317
  3442 68.8094 1.23256 -12.1698
  3443 68.8113 1.23989 12.1614
  3444 198.283 18.2341 -0.0744255
  3445 31.0610 -27.9789 17.5525
  3446 153.939 -0.253587 1.33073
  3447 153.916 -0.251756 -1.32662
  3448 173.041 6.61670 2.88820
  3449 91.1935 -1.28503 4.16181
  3450 91.1950 -1.28879 -4.16372
  3451 81.5591 0.219507 -1.98378
  3452 81.5630 0.219544 1.98442
  3453 79.8878 1.51321 -4.23883
  3454 79.8896 1.51350 4.24019
  3455 35.5553 -0.842456 -8.36347
  3456 35.6019 -0.850532 8.36194
  3457 125.946 -1.14139 9.19971
  3458 125.940 -1.13900 -9.20578
  3459 59.8088 -2.57577 -18.4219
  3460 59.8049 -2.58189 18.4169
  3461 91.5708 1.35396 4.44831
  3462 73.0256 7.13375 11.9898
  3463 73.0259 7.13422 -11.9867
  3464 87.6852 0.338588 2.89029
  3465 97.1942 -0.529939 -5.77308
  3466 97.1913 -0.524577 5.77466
  3467 110.160 -0.875007 -8.45120
  3468 98.0706 0.0137174 1.23453
  3469 98.0621 0.0137202 -1.23432
  3470 76.3684 4.78634 3.49038
  3471 76.3700 4.78558 -3.48932
  3472 137.236 -6.64560 4.44613
  3473 137.218 -6.61181 -4.44734
  3474 88.0192 1.48412 -1.90768
  3475 74.5039 6.07522 5.64936
  3476 74.5056 6.07450 -5.64791
  3477 131.773 -0.100804 -5.34903
  3478 131.777 -0.101511 5.34609
  3479 66.1035 -0.780761 -19.6605
  3480 66.1159 -0.788990 19.6639
  3481 63.6297 -1.81421 17.0920
  3482 63.6242 -1.80644 -17.1037
  3483 91.6876 2.63725 12.6844
  3484 91.6819 2.63849 -12.6834
  3485 82.5409 0.856555 1.97471
  3486 100.983 7.61757 5.09034
  3487 81.7502 3.17927 1.92493
  3488 81.7479 3.17940 -1.92584
  3489 79.8175 0.227769 1.80495
  3490 79.8144 0.227712 -1.80430
  3491 41.4932 -10.2209 15.4941
  3492 88.1579 0.309256 -2.86464
  3493 88.1637 0.309286 2.86532
  3494 74.9212 5.99827 -6.79798
  3495 74.9201 5.99893 6.79971
  3496 86.7257 1.18910 3.58035
  3497 86.7246 1.18783 -3.58216
  3498 90.2724 0.664947 2.85068
  3499 90.2723 0.663783 -2.85187
  3500 89.9908 -0.0103220 1.64982
  3501 89.9508 -0.0100635 -1.65870
  3502 116.957 -9.17603 -1.18238
  3503 119.368 -15.9883 -5.87428
  3504 119.775 -16.0879 5.64284
  3505 98.6791 7.92660 1.40980
  3506 77.6626 3.73618 5.09879
  3507 77.6628 3.73558 -5.09726
  3508 43.6434 -7.79347 16.5861
  3509 43.6232 -7.77681 -16.5743
  3510 97.2964 3.43184 6.08613
  3511 89.8179 2.29702 9.69363
  3512 89.8130 2.29736 -9.69218
  3513 99.3470 -0.159542 1.13811
  3514 99.3482 -0.160193 -1.13768
  3515 62.0879 6.36008 -6.25803
  3516 62.0957 6.36020 6.25192
  3517 68.1700 8.44283 8.81279
  3518 68.1733 8.44227 -8.81018
  3519 85.8977 3.51505 -16.2088
  3520 85.9040 3.51183 16.2102
  3521 112.326 -15.3495 -8.38280
  3522 77.1968 4.02475 4.48900
  3523 77.1975 4.02408 -4.48761
  3524 33.3762 -25.8230 -19.2354
  3525 82.8586 2.83915 8.04045
  3526 82.8559 2.83900 -8.03860
  3527 77.9274 3.32097 -4.57387
  3528 77.9273 3.32157 4.57532
  3529 230.936 16.7547 -2.69048
  3530 73.1995 4.11616 17.7851
  3531 73.1935 4.12133 -17.7811
  3532 111.266 15.9648 4.88822
  3533 155.705 1.02263 11.7309
  3534 77.2119 -0.599431 -11.2095
  3535 77.2180 -0.592105 11.2067
  3536 88.9888 1.48514 -7.38730
  3537 88.9938 1.48507 7.38868
  3538 141.886 -5.51776 13.2585
  3539 141.863 -5.60328 -13.2181
  3540 96.1171 0.0200482 -1.81802
  3541 96.1161 0.0210035 1.81788
  3542 177.986 8.21473 -0.993699
  3543 78.0562 4.11953 6.88880
  3544 78.0558 4.11904 -6.88697
  3545 84.3969 0.783623 4.28124
  3546 84.3928 0.783525 -4.28010
  3547 93.5753 -7.97945 -17.9372
  3548 93.5872 -7.97972 17.9397
  3549 97.7513 -0.155854 -1.50882
  3550 97.7501 -0.154934 1.50905
  3551 78.8074 4.07926 -1.83410
  3552 78.8104 4.07917 1.83327
  3553 95.9972 0.0135209 -1.41927
  3554 95.9768 0.0146731 1.42165
  3555 281.085 6.58752 -6.47087
  3556 100.673 -2.43563 -4.99811
  3557 100.675 -2.43597 5.00443
  3558 101.853 0.411047 5.22424
  3559 85.1457 -0.0262679 6.10939
  3560 85.1435 -0.0292114 -6.11279
  3561 78.0884 3.62790 -5.69823
  3562 78.0886 3.62845 5.69988
  3563 86.5499 -18.5673 -16.8701
  3564 86.4725 -18.4759 16.8826
  3565 60.7651 8.39748 -0.766878
  3566 60.7739 8.39577 0.764735
  3567 80.5404 0.844698 -3.45523
  3568 80.5430 0.844860 3.45635
  3569 107.079 0.0506179 -14.1746
  3570 107.087 0.0475280 14.1718
  3571 89.3358 -14.3922 -19.0458
  3572 73.8087 6.38183 4.88830
  3573 73.8109 6.38108 -4.88707
  3574 141.707 -1.28103 -3.94835
  3575 141.704 -1.28135 3.94037
  3576 116.680 10.3405 -8.51906
  3577 58.4576 -19.5531 25.6082
  3578 75.2067 6.31552 -8.92673
  3579 75.2062 6.31593 8.92890
  3580 92.4433 0.740585 4.69135
  3581 100.565 -14.8909 12.0920
  3582 101.006 5.95532 -6.64219
  3583 61.4992 0.798701 -14.6460
  3584 61.5056 0.796898 14.6313
  3585 101.719 -0.0655454 -0.646306
  3586 101.717 -0.0653313 0.646627
  3587 99.9644 7.80371 -3.98379
  3588 82.8138 1.36593 -5.19879
  3589 82.8170 1.36610 5.20020
  3590 111.908 5.92343 -9.07129
  3591 99.1524 5.59092 -5.28918
  3592 94.3739 1.83999 -5.53787
  3593 74.6602 6.59576 10.2697
  3594 74.6607 6.59560 -10.2672
  3595 80.6351 3.38579 -2.46812
  3596 80.6379 3.38590 2.46697
  3597 111.115 13.1141 -7.13891
  3598 79.7628 0.0270809 0.380357
  3599 79.7588 0.0270837 -0.380222
  3600 100.775 -1.90643 -2.96774
  3601 100.776 -1.90841 2.97314
  3602 64.2523 8.60950 -1.04557
  3603 64.2456 8.61059 1.04466
  3604 93.5989 2.64780 13.6632
  3605 93.5926 2.64954 -13.6626
  3606 58.8057 9.32750 -3.50328
  3607 58.7961 9.33002 3.50447
  3608 98.2662 -0.895341 -1.27083
  3609 98.2645 -0.893423 1.27210
  3610 95.3194 0.282516 17.2576
  3611 95.3095 0.286949 -17.2591
  3612 100.942 -1.09572 2.17414
  3613 100.944 -1.09425 -2.16931
  3614 119.497 0.901658 7.24913
  3615 64.4292 7.68139 -2.72975
  3616 64.4359 7.68113 2.72672
  3617 98.8181 -0.688644 -1.15979
  3618 98.8167 -0.687123 1.16096
  3619 103.630 -7.43160 -1.13421
  3620 103.634 -7.43270 1.14382
  3621 83.5106 1.94583 4.10728
  3622 83.5083 1.94472 -4.10933
  3623 97.0406 -15.1050 -15.4065
  3624 97.0495 -15.0903 15.4371
  3625 109.959 -1.87616 8.04412
  3626 84.1538 0.0740732 -1.54173
  3627 84.1588 0.0740858 1.54218
  3628 72.3311 4.68930 -5.48308
  3629 72.3358 4.69127 5.48067
  3630 106.220 11.3347 -5.52877
  3631 164.672 24.9403 -8.25561
  3632 105.559 0.602213 7.97795
  3633 105.551 0.602715 -7.97798
  3634 49.0254 -26.0906 12.6966
  3635 48.9087 -26.1477 -12.6907
  3636 100.530 -0.109631 -0.894346
  3637 100.528 -0.109219 0.894721
  3638 98.6727 0.905386 -7.66582
  3639 98.6798 0.905052 7.66647
  3640 86.9916 0.157872 1.94393
  3641 86.9859 0.157856 -1.94342
  3642 83.0644 0.0704020 -1.31132
  3643 83.0691 0.0704070 1.31173
  3644 80.3973 0.164998 1.51865
  3645 80.3937 0.164959 -1.51813
  3646 83.4803 0.700463 -2.51764
  3647 101.584 0.270939 -5.38163
  3648 143.114 6.89178 -13.0204
  3649 61.5434 9.03602 8.23007
  3650 61.5496 9.03508 -8.22645
  3651 149.226 11.3569 6.88090
  3652 68.5277 8.21939 10.1887
  3653 68.5303 8.21923 -10.1856
  3654 149.921 14.7378 -17.2206
  3655 86.0662 0.664535 4.25259
  3656 86.0615 0.664483 -4.25153
  3657 85.5894 0.329571 2.97392
  3658 85.5844 0.329542 -2.97313
  3659 102.145 -9.14025 -2.41609
  3660 102.125 -9.13165 2.45097
  3661 78.4581 4.30350 0.613030
  3662 78.4553 4.30393 -0.613357
  3663 104.925 -15.2855 -10.2101
  3664 143.017 16.2884 40.8642
  3665 74.8068 3.96623 -5.77640
  3666 74.8113 3.96821 5.77419
  3667 46.6225 -11.2547 -17.6998
  3668 46.6511 -11.2689 17.7050
  3669 94.2385 -11.7548 -12.9463
  3670 76.3472 4.44240 -3.34166
  3671 76.3511 4.44305 3.34029
  3672 60.8390 -13.2658 -20.0023
  3673 60.8711 -13.2701 19.9903
  3674 77.8192 2.76782 5.91582
  3675 77.8149 2.76589 -5.91818
  3676 133.059 -10.7694 -4.93518
  3677 132.965 -10.4003 4.59935
  3678 99.4529 -1.11257 -6.85718
  3679 99.4456 -1.09617 6.86134
  3680 98.8344 -7.81185 -3.95768
  3681 98.8198 -7.79849 3.94959
  3682 87.3983 0.946497 5.59305
  3683 87.3934 0.946473 -5.59181
  3684 139.364 26.0941 2.42719
  3685 100.161 -7.49533 -2.40881
  3686 100.141 -7.48342 2.41340
  3687 79.7591 1.18454 7.55556
  3688 79.7545 1.18142 -7.55862
  3689 129.336 0.0462909 -4.68253
  3690 129.342 0.0458959 4.68073
  3691 98.7123 -2.70397 0.778215
  3692 98.7156 -2.70760 -0.775334
  3693 101.241 -3.02497 -4.36876
  3694 101.244 -3.02667 4.37425
  3695 98.0945 7.69780 -1.38186
  3696 67.9409 6.61954 -3.78581
  3697 67.9463 6.62048 3.78315
  3698 76.9340 4.86746 -1.51337
  3699 76.9373 4.86738 1.51270
  3700 100.600 -18.1516 18.0601
  3701 84.2670 -17.0858 23.5014
  3702 122.495 0.0438066 1.93679
  3703 122.486 0.0438591 -1.93712
  3704 116.862 17.2547 -6.42788
  3705 132.315 -0.682191 15.0430
  3706 128.517 0.104723 2.01121
  3707 128.510 0.104796 -2.01175
  3708 88.7815 -12.6790 -17.3085
  3709 87.7288 -3.52841 -8.42921
  3710 87.7319 -3.52167 8.42346
  3711 77.7664 4.53300 -0.0377683
  3712 77.7638 4.53353 0.0376922
  3713 126.748 -0.0432772 -7.25917
  3714 126.753 -0.0443426 7.25592
  3715 81.9982 -18.6487 25.4395
  3716 52.9492 6.07015 -6.93018
  3717 52.9659 6.06496 6.92270
  3718 64.9628 -2.81900 -19.9900
  3719 64.9775 -2.82820 19.9919
  3720 97.5162 -6.77389 -4.30851
  3721 97.5047 -6.77017 4.30653
  3722 93.5067 -1.92724 3.49200
  3723 93.5094 -1.93151 -3.49280
  3724 95.5098 -5.09500 -4.43938
  3725 95.5023 -5.08745 4.43835
  3726 55.5117 8.30027 -1.85339
  3727 55.5250 8.29650 1.85072
  3728 140.475 -3.93369 1.84595
  3729 140.465 -3.91803 -1.84813
  3730 99.4060 -0.747390 3.30190
  3731 99.4113 -0.746724 -3.29643
  3732 117.608 4.13377 7.68043
  3733 71.5030 7.19159 12.9472
  3734 71.5032 7.19261 -12.9436
  3735 152.979 -0.579970 -1.67456
  3736 152.997 -0.582385 1.68092
  3737 81.1009 0.0719009 -1.18807
  3738 81.1050 0.0719176 1.18847
  3739 116.605 0.0805128 -9.60621
  3740 116.612 0.0792353 9.60393
  3741 198.252 12.4854 -6.83082
  3742 75.5735 5.41890 -0.976341
  3743 75.5705 5.41946 0.976516
  3744 89.8981 0.751806 4.99832
  3745 89.8923 0.751793 -4.99731
  3746 80.1364 -16.7884 -24.7308
  3747 80.1640 -1.30193 -10.4444
  3748 80.1699 -1.29621 10.4401
  3749 131.254 25.0180 -3.25772
  3750 103.420 -0.0763702 0.448201
  3751 103.425 -0.0762304 -0.446872
  3752 88.2771 -12.3850 17.1938
  3753 104.813 8.68510 6.87179
  3754 75.5610 5.50039 1.67214
  3755 75.5636 5.49973 -1.67172
  3756 86.3490 0.611371 18.8363
  3757 86.3391 0.616630 -18.8361
  3758 81.2988 2.69134 3.82506
  3759 81.2958 2.69056 -3.82684
  3760 84.5801 2.16895 2.71665
  3761 84.5784 2.16858 -2.71797
  3762 98.1408 -10.5693 8.25239
  3763 97.9711 -10.4561 -8.17621
  3764 101.477 2.54411 1.33012
  3765 74.8370 5.74635 2.21918
  3766 74.8398 5.74567 -2.21864
  3767 56.6699 -1.66862 -14.2366
  3768 74.7749 5.85171 -0.858631
  3769 74.7718 5.85220 0.858717
  3770 95.2542 -6.55973 5.85659
  3771 95.2623 -6.56684 -5.85949
  3772 84.2261 1.64698 6.26405
  3773 84.2225 1.64684 -6.26251
  3774 101.013 -2.71960 -3.80818
  3775 101.015 -2.72163 3.81365
  3776 97.8509 -1.52445 1.41072
  3777 97.8532 -1.52718 -1.40913
  3778 58.7408 -19.9712 -25.4577
  3779 121.451 0.0380563 4.97087
  3780 121.443 0.0383321 -4.97192
  3781 99.3929 1.60828 13.6855
  3782 99.3856 1.61027 -13.6860
  3783 94.9655 -4.12574 4.09017
  3784 94.9716 -4.13244 -4.09100
  3785 94.2870 -0.0623298 -1.36070
  3786 94.2635 -0.0590322 1.36107
  3787 166.710 14.9773 -2.51246
  3788 78.3763 -8.47611 -18.7113
  3789 78.5288 -8.33147 18.5308
  3790 108.625 0.183386 -4.64010
  3791 108.634 0.183246 4.64011
  3792 86.5773 0.0402539 -0.678254
  3793 86.5834 0.0402546 0.678438
  3794 126.799 -4.69111 -7.67910
  3795 126.811 -4.69309 7.66877
  3796 78.2642 2.77736 -4.25653
  3797 78.2644 2.77792 4.25793
  3798 100.915 -0.197184 -0.803539
  3799 100.914 -0.196678 0.804215
  3800 72.0810 6.96042 2.39697
  3801 72.0845 6.95983 -2.39660
  3802 77.7994 4.11353 -6.40649
  3803 77.7995 4.11407 6.40825
  3804 74.3158 6.04582 -4.36279
  3805 74.3137 6.04655 4.36391
  3806 38.2550 -1.53409 10.2264
  3807 38.2594 -1.52519 -10.2043
  3808 99.0034 1.54613 -14.7517
  3809 99.0110 1.54349 14.7510
  3810 122.194 -5.36710 1.68821
  3811 191.666 9.38690 13.0781
  3812 88.8376 2.02341 8.72783
  3813 88.8329 2.02361 -8.72632
  3814 75.7469 1.51876 19.3603
  3815 75.7374 1.52516 -19.3579
  3816 69.1002 -18.4418 18.2257
  3817 69.0525 -18.4757 -18.2808
  3818 129.241 -1.69558 -8.28666
  3819 129.246 -1.69828 8.27905
  3820 92.8294 -0.812345 3.19880
  3821 92.8309 -0.815256 -3.19971
  3822 72.8604 7.29602 10.6250
  3823 72.8613 7.29596 -10.6222
  3824 92.9204 -10.3186 -18.2624
  3825 92.9304 -10.3138 18.2689
  3826 104.516 2.93394 8.58529
  3827 97.1607 -0.656557 -1.73907
  3828 97.1592 -0.654767 1.73965
  3829 131.639 1.04884 15.2100
  3830 107.529 -4.79805 6.38482
  3831 107.418 -4.81359 -6.32452
  3832 104.028 6.20577 7.75329
  3833 81.3432 0.717590 -3.42588
  3834 81.3464 0.717717 3.42695
  3835 116.772 1.17292 22.0287
  3836 83.4317 2.25615 3.23684
  3837 83.4295 2.25553 -3.23844
  3838 83.5222 3.16224 9.01390
  3839 83.5193 3.16222 -9.01199
  3840 101.322 -0.356165 1.61259
  3841 101.328 -0.355530 -1.60886
  3842 100.115 5.94246 5.96774
  3843 115.064 2.75193 10.0037
  3844 101.972 -8.29512 24.1253
  3845 106.540 2.19038 8.87702
  3846 91.9516 0.340653 -2.61079
  3847 91.9513 0.341938 2.60989
  3848 110.399 -3.29127 -7.42474
  3849 119.417 -10.5157 2.82267
  3850 80.7253 2.27408 5.83396
  3851 80.7234 2.27377 -5.83234
  3852 81.1013 1.52728 4.85009
  3853 81.0989 1.52704 -4.84866
  3854 79.7706 3.54898 2.98489
  3855 79.7675 3.54866 -2.98622
  3856 125.143 -1.68239 -17.2428
  3857 76.5617 3.64057 -5.18664
  3858 76.5660 3.64210 5.18462
  3859 79.0062 3.63747 6.86826
  3860 79.0053 3.63704 -6.86643
  3861 75.7205 5.17796 2.88477
  3862 75.7226 5.17722 -2.88394
  3863 123.918 -6.50811 -7.78879
  3864 123.936 -6.51022 7.77862
  3865 255.242 13.0430 -6.53167
  3866 101.578 -0.764676 -0.528196
  3867 101.578 -0.765759 0.531216
  3868 77.3032 4.23260 5.32813
  3869 77.3035 4.23195 -5.32657
  3870 84.8395 0.372546 3.09719
  3871 84.8348 0.372508 -3.09635
  3872 16.0483 -0.298208 -0.000301122
  3873 16.5445 -1.23047 0.0380249
  3874 16.1575 -0.387423 -0.752746
  3875 16.0569 -0.256345 0.799691
  3876 15.7195 0.213333 -0.388676
  3877 15.6736 0.231281 0.372168
  3878 16.5201 -1.33055 -0.818572
  3879 15.6276 0.198031 -0.0250037
  3880 16.4795 -1.14709 0.897077
  3881 16.8487 -2.12158 -0.00270187
  3882 16.7624 -1.83452 0.658227
  3883 16.2912 -0.670827 -0.251145
  3884 16.2683 -0.642625 0.275046
  3885 16.1412 -0.482285 -1.17712
  3886 15.6891 0.403532 -0.740982
  3887 15.6811 0.401788 0.736978
  3888 15.9915 -0.169311 -0.379590
  3889 16.7646 -1.99415 -0.673850
  3890 15.4743 0.346759 0.177429
  3891 15.5019 0.345291 -0.198635
  3892 16.1080 -0.355815 1.18857
  3893 15.9658 -0.153363 0.381754
  3894 15.8211 0.0227477 -0.144971
  3895 15.8130 0.0248404 0.173864
  3896 15.8559 0.145904 -1.04723
  3897 15.7769 0.297617 1.05542
  3898 16.4876 -1.07884 -0.443875
  3899 16.9281 -2.41829 0.315695
  3900 16.4469 -1.01483 0.506020
  3901 16.9591 -2.44148 -0.453657
  3902 16.6783 -1.54482 -0.295922
  3903 16.6734 -1.73551 0.236030
  3904 16.4194 -1.29123 -1.31568
  3905 16.6234 -1.46703 1.17233
  3906 15.4928 0.603761 0.522398
  3907 15.4908 0.601297 -0.551254
  3908 15.4576 0.332514 -0.0663984
  3909 16.2735 -0.836118 1.36472
  3910 15.4143 0.497102 0.313748
  3911 15.4315 0.338862 0.0280385
  3912 15.4615 0.493399 -0.335536
  3913 16.3304 -0.814218 -0.830355
  3914 16.2589 -0.690745 0.845499
  3915 16.3923 -0.853983 0.0439961
  3916 15.9039 0.0125094 -0.638290
  3917 15.9000 0.0301312 0.636123
  3918 16.2752 -0.670318 -0.553814
  3919 16.2117 -0.554531 0.0112262
  3920 16.1760 -0.599474 -1.42936
  3921 15.9227 -0.0139138 -1.36245
  3922 15.6367 0.189246 0.138412
  3923 16.1088 -0.383851 -0.221612
  3924 16.1027 -0.370843 0.231342
  3925 15.6487 0.605789 -0.967884
  3926 15.6904 0.213591 -0.244833
  3927 16.8221 -2.27573 0.849067
  3928 16.6843 -1.78151 -1.18152
  3929 15.8288 0.247405 1.30015
  3930 16.1109 -0.350326 0.488967
  3931 16.6034 -1.52038 0.708359
  3932 15.6043 0.611043 0.914504
  3933 16.9936 -2.60940 0.0469888
  3934 16.3872 -0.989582 -1.01672
  3935 15.9685 -0.152568 -0.187179
  3936 16.8064 -1.96264 0.334662
  3937 16.2747 -0.591962 0.564328
  3938 16.1222 -0.380635 -0.484788
  3939 15.9075 -0.0719740 -0.0130581
  3940 15.9678 -0.223485 1.52730
  3941 15.9711 -0.182834 0.163462
  3942 16.7360 -1.80921 -0.452569
  3943 15.5058 0.739436 -0.752139
  3944 15.8310 0.0243378 -0.324740
  3945 15.4176 0.535272 -0.244213
  3946 15.7555 0.234045 -0.600662
  3947 15.3838 0.411505 0.0710564
  3948 15.7174 0.242002 0.530482
  3949 15.3842 0.431151 -0.105359
  3950 15.4967 0.662745 0.698726
  3951 16.0350 -0.168154 -1.06831
  3952 15.3975 0.473856 0.197553
  3953 15.7814 0.0611591 0.0250506
  3954 15.8055 0.0578243 0.298575
  3955 16.8700 -2.26285 -0.756697
  3956 15.8945 0.0373498 -0.816781
  3957 16.2869 -0.730179 1.08308
  3958 16.5518 -1.24238 0.326418
  3959 15.6156 0.284650 0.229068
  3960 15.9749 -0.0982774 0.973455
  3961 15.5919 0.238920 -0.103596
  3962 16.6858 -1.65721 -0.0275744
  3963 15.9072 0.0490156 0.823669
  3964 16.6929 -1.82751 1.22087
  3965 16.4077 -1.16717 1.38725
  3966 15.3905 0.664466 0.409978
  3967 16.4741 -1.06453 -0.183756
  3968 16.6694 -1.64403 -0.911867
  3969 15.4063 0.642944 -0.410487
  3970 16.4485 -1.00928 0.220470
  3971 15.3810 0.356883 -0.0442289
  3972 16.9224 -2.50730 0.621404
  3973 16.0209 -0.171035 -1.51850
  3974 15.6742 0.504339 -1.19941
  3975 16.9514 -2.29060 0.0776333
  3976 15.6400 0.589480 1.23095
  3977 16.5810 -1.30869 -0.520499
  3978 16.5302 -1.21527 0.612126
  3979 16.6474 -1.64057 0.906945
  3980 16.7931 -2.17111 -1.07336
  3981 16.4392 -1.12418 1.16376
  3982 15.5698 0.257693 0.0585347
  3983 15.5403 0.455949 0.407108
  3984 15.5100 0.289705 -0.0240942
  3985 17.0306 -2.74142 0.353381
  3986 15.5540 0.435516 -0.432112
  3987 15.5837 0.326460 -0.308353
  3988 15.7143 0.138052 -0.118029
  3989 16.2845 -0.924386 -1.55581
  3990 15.8937 0.00360081 -0.452626
  3991 16.5628 -1.28816 -0.232355
  3992 16.8292 -2.12556 -0.370214
  3993 17.0452 -2.75482 -0.397870
  3994 15.3407 0.628077 -0.298206
  3995 15.7895 0.415311 -1.38793
  3996 16.6663 -1.56856 -0.606771
  3997 15.8659 0.0578878 0.464182
  3998 15.8595 0.186663 1.49540
  3999 16.1643 -0.498004 1.54675
  4000 15.7349 0.148241 0.225237
  4001 16.1951 -0.473676 -0.906538
  4002 16.4922 -1.48628 -1.43218
  4003 15.4846 0.693651 -0.899131
  4004 15.3088 0.674672 0.304656
  4005 16.8419 -2.19267 0.575817
  4006 16.3691 -0.827233 -0.377535
  4007 15.4147 0.405400 0.0527523
  4008 15.6467 0.422503 0.616540
  4009 15.3032 0.728655 -0.606440
  4010 16.6060 -1.52064 1.42020
  4011 15.6597 0.472159 -0.650492
  4012 16.3473 -0.764277 0.408810
  4013 15.3873 0.364687 -0.0520896
  4014 15.7389 0.361176 0.850144
  4015 16.7213 -1.71394 0.480548
  4016 16.3851 -0.939452 0.786892
  4017 16.1103 -0.407519 0.976510
  4018 15.3680 0.773421 0.496356
  4019 15.4986 0.326415 -0.141252
  4020 15.5428 0.745860 1.05972
  4021 15.7525 0.348181 -0.898632
  4022 16.4586 -1.07890 -0.722586
  4023 16.6319 -1.46719 0.149540
  4024 15.5079 0.858092 0.851431
  4025 16.0219 -0.192140 0.647685
  4026 16.4942 -1.29648 -1.09311
  4027 15.2590 0.452106 -0.148909
  4028 16.7298 -1.93876 0.931467
  4029 15.5036 0.385219 0.253558
  4030 16.0147 -0.236535 -1.20750
  4031 16.3638 -0.876621 -0.619715
  4032 15.4751 0.348985 0.104093
  4033 16.9990 -2.89550 -0.149440
  4034 16.0529 -0.224698 -0.673789
  4035 16.3115 -0.788304 0.650641
  4036 16.8671 -2.21958 -0.574371
  4037 15.5075 0.397687 -0.242427
  4038 15.3029 0.473855 0.121533
  4039 16.2983 -0.707734 -0.0709715
  4040 16.2839 -0.694718 0.106111
  4041 16.7586 -1.86800 0.0561507
  4042 16.1833 -0.481545 -0.321359
  4043 16.2178 -0.506126 0.738329
  4044 16.1288 -0.479292 1.33535
  4045 15.7710 0.0888161 -0.242248
  4046 16.2681 -0.651167 -1.03838
  4047 16.2070 -0.537445 -0.157238
  4048 16.1981 -0.524973 0.176097
  4049 16.7067 -1.77108 -0.665151
  4050 15.7978 0.197260 -0.741171
  4051 16.3528 -0.971094 -1.28940
  4052 15.7718 0.188168 0.737277
  4053 16.1689 -0.463417 0.337528
  4054 16.1501 -0.424201 -1.59621
  4055 16.1226 -0.417212 0.0815519
  4056 16.1255 -0.415718 -0.0700641
  4057 15.9891 -0.0491889 1.15142
  4058 15.5558 0.366191 0.319497
  4059 16.7647 -1.86054 -0.191430
  4060 15.6211 0.376040 0.488380
  4061 15.7355 0.121944 0.120256
  4062 15.6187 0.358182 -0.528339
  4063 15.5459 0.267050 -0.0753982
  4064 16.6397 -1.41730 -0.0722129
  4065 16.4464 -1.04197 0.00603265
  4066 17.0101 -2.58697 -0.698598
  4067 15.3625 0.799601 -0.508378
  4068 16.6433 -1.47220 0.418291
  4069 16.7178 -2.13023 1.13079
  4070 16.0481 -0.280770 -0.135874
  4071 15.5449 0.716601 -1.05429
  4072 15.8929 0.132669 -1.22668
  4073 16.0214 -0.224301 0.265335
  4074 16.0213 -0.173400 -0.503510
  4075 16.0504 -0.303125 0.372961
  4076 15.3298 0.751878 0.566055
  4077 16.1662 -0.482447 -0.593992
  4078 17.1359 -2.89399 0.100679
  4079 16.9393 -2.36037 -0.154370
  4080 16.2382 -0.681943 -1.22571
  4081 15.7494 0.555332 1.39538
  4082 16.0798 -0.365085 -1.32389
  4083 15.9917 -0.152246 0.502921
  4084 15.2400 0.369054 0.0261927
  4085 16.0265 -0.237580 -0.269303
  4086 16.2515 -0.906230 1.59429
  4087 16.0692 -0.327014 -0.366861
  4088 15.6107 0.559932 -0.853007
  4089 15.9807 -0.178670 -0.0696961
  4090 16.2296 -0.587885 -0.428274
  4091 15.9643 -0.153284 1.33883
  4092 16.1285 -0.434935 -1.08405
  4093 16.5783 -1.46918 -1.17040
  4094 16.0416 -0.290051 0.133358
  4095 15.8789 0.185665 -1.53074
  4096 16.8650 -2.41572 -0.935700
  4097 15.5683 0.284891 0.138002
  4098 15.2704 0.562920 0.210488
  4099 16.7138 -1.93639 -1.34272
  4100 16.5637 -1.38280 0.980357
  4101 16.2244 -0.555062 0.442150
  4102 16.2648 -0.607711 -0.708269
  4103 15.9318 -0.101019 -0.312946
  4104 16.1563 -0.408754 0.612386
  4105 15.9661 -0.183105 0.0537883
  4106 15.7000 0.453587 -1.05759
  4107 15.8996 -0.0748279 -0.113313
  4108 15.4296 0.408332 -0.202700
  4109 16.8389 -2.48157 0.897777
  4110 15.6757 0.577972 0.803516
  4111 15.6587 0.151205 0.0621344
  4112 16.0156 -0.217251 -0.887446
  4113 16.3852 -0.869319 -0.145769
  4114 15.8209 0.000613087 -0.0683860
  4115 15.6014 0.286501 -0.187121
  4116 15.9131 -0.0868104 0.268223
  4117 16.3786 -1.23348 1.57142
  4118 15.4116 0.743823 0.920182
  4119 16.7764 -1.97480 -0.952439
  4120 15.8751 -0.0251619 -0.224978
  4121 16.8783 -2.21660 0.259095
  4122 15.9035 -0.0658621 0.106365
  4123 16.9926 -2.65501 -0.217075
  4124 15.4021 0.409701 0.145061
  4125 15.7746 0.220975 0.627329
  4126 16.3476 -0.797194 0.205991
  4127 15.1770 0.424179 -0.0414304
  4128 17.1122 -3.00930 -0.0440557
  4129 15.4648 1.00373 0.929028
  4130 15.5193 0.991138 -0.848192
  4131 15.3990 0.989162 0.733277
  4132 15.3179 0.828942 0.551308
  4133 15.3727 0.865308 0.467213
  4134 15.2869 0.741401 0.359317
  4135 15.2303 0.667710 0.213107
  4136 15.3095 0.556227 0.150121
  4137 15.1871 0.520923 0.114797
  4138 15.3207 0.432611 0.0640521
  4139 15.2591 0.394513 0.0806220
  4140 15.3676 0.354615 -0.0807959
  4141 15.3871 0.436694 -0.0556546
  4142 15.2414 0.462040 -0.0730401
  4143 15.2530 0.520351 -0.176768
  4144 15.3912 0.680195 -0.256692
  4145 15.2703 0.661255 -0.333785
  4146 15.3780 0.867850 -0.461101
  4147 15.2960 0.819726 -0.590595
  4148 15.3747 0.953289 -0.714388
  4149 15.4801 0.883353 -0.965764
  4150 15.5666 0.869379 -1.15619
  4151 15.6322 0.663688 -1.31662
  4152 15.7678 0.422477 -1.52520
  4153 15.8837 0.0312675 -1.59981
  4154 16.0012 -0.312504 -1.62554
  4155 16.0770 -0.726605 -1.68322
  4156 16.2717 -1.26282 -1.65418
  4157 16.3710 -1.58605 -1.55687
  4158 16.6253 -1.72338 -1.47446
  4159 16.7896 -2.29564 -1.20320
  4160 16.9807 -2.57485 -0.907260
  4161 17.1166 -2.77273 -0.588397
  4162 17.0262 -2.89457 -0.304413
  4163 17.2512 -2.88923 0.293079
  4164 16.9231 -2.72320 0.641832
  4165 16.8136 -2.62951 0.875977
  4166 16.7698 -2.36848 1.16299
  4167 16.6661 -1.92832 1.36603
  4168 16.5337 -1.47313 1.59193
  4169 16.2363 -1.11226 1.71019
  4170 16.1289 -0.662632 1.68708
  4171 15.9835 -0.356582 1.63813
  4172 15.8158 -0.0191422 1.61761
  4173 15.7722 0.508374 1.50949
  4174 15.6023 0.696023 1.31775
  4175 15.5397 0.851106 1.16198
  4176 15.4500 0.862647 0.977038
</Section>

newXOutput 12

<Section columns = "stress_xx | stress_yy | stress_xy">
  1 81.7178 0.108462 -0.246598
  2 81.7184 0.108504 0.246648
  3 108.617 -0.0338794 0.0633747
  4 108.616 -0.0339264 -0.0634176
  5 266.872 16.6338 3.14987
  6 336.162 4.44743 0.454695
  7 86.6897 -0.00751828 -0.280264
  8 86.6938 -0.00750788 0.280366
  9 113.150 -0.00742627 0.214350
  10 113.153 -0.00744069 -0.214365
  11 12.0441 -83.9112 3.48382
  12 12.3576 -84.5280 -3.83497
  13 94.5663 1.29338 -0.133272
  14 94.5657 1.29411 0.133250
  15 110.071 -0.195252 0.164599
  16 81.7813 0.133758 -0.397851
  17 81.7825 0.133772 0.398056
  18 110.072 -0.195273 -0.164736
  19 90.8686 3.21498 -2.04072
  20 90.8710 3.21482 2.03974
  21 86.5728 0.260881 0.159770
  22 78.9420 1.06664 0.0445764
  23 87.2951 0.0267856 -0.271137
  24 87.8019 0.0372412 -0.297445
  25 88.5894 0.0360421 -0.429231
  26 89.2446 0.0279216 -0.376394
  27 89.9842 0.0326095 -0.442208
  28 90.9434 0.0101559 -0.482369
  29 91.7831 -0.0274642 -0.418209
  30 92.7510 -0.00366552 -0.394732
  31 93.8430 -0.0151122 -0.410606
  32 94.7973 0.0107217 -0.425167
  33 96.0497 0.0515222 -0.639374
  34 97.3087 0.0628083 -0.657893
  35 98.6208 0.0588903 -0.809630
  36 100.370 0.0191404 -0.878211
  37 101.623 -0.0292968 -0.856999
  38 103.584 0.00489432 -0.852798
  39 105.033 -0.0128102 -0.876235
  40 107.371 -0.0146332 -0.859375
  41 109.094 0.0561113 -1.06630
  42 111.174 0.100571 -1.24418
  43 113.706 -0.0876782 -1.33202
  44 116.517 -0.102243 -1.24359
  45 118.708 -0.0438798 -1.21869
  46 121.861 -0.0229551 -1.23315
  47 124.174 -0.0109132 -1.61106
  48 126.670 0.0597941 -1.72801
  49 130.566 -0.202032 -1.56189
  50 134.252 -0.209736 -1.33574
  51 137.214 -0.164331 -1.42631
  52 141.258 -0.175304 -1.25325
  53 144.210 -0.105730 -1.68611
  54 148.145 -0.110873 -1.59253
  55 151.594 -0.0907519 -1.86781
  56 154.234 -0.203981 -1.99252
  57 159.932 -0.686906 -1.60881
  58 161.117 -0.138330 -1.46548
  59 165.043 -0.0370005 -1.16427
  60 167.770 -0.227270 -1.31413
  61 170.151 -0.283098 -0.924784
  62 172.268 -0.304286 -0.720102
  63 173.488 -0.324713 -0.407302
  64 174.334 -0.372679 -0.0434513
  65 174.403 -0.466400 0.457654
  66 172.673 -0.503771 0.884368
  67 171.999 -0.491071 1.07678
  68 169.194 -0.711843 1.54430
  69 164.261 -0.531059 2.36808
  70 158.776 -0.473157 3.11971
  71 153.040 -0.328048 3.62813
  72 145.079 -0.259520 4.12676
  73 137.708 0.0358062 4.43882
  74 127.878 0.142631 4.42753
  75 120.920 0.329304 4.51277
  76 109.870 0.636597 3.73040
  77 102.638 0.923403 4.11622
  78 94.8950 0.599206 2.70195
  79 90.8938 0.961142 3.14926
  80 82.2970 1.24497 1.53079
  81 82.1152 1.08740 1.44423
  82 79.9711 0.944444 -0.856294
  83 81.8120 1.20682 -1.84336
  84 86.4012 1.65194 -1.91789
  85 96.2430 0.791745 -3.49860
  86 102.636 0.835536 -4.61944
  87 109.661 0.648927 -4.13502
  88 121.169 0.244636 -4.78116
  89 129.045 -0.113675 -4.96131
  90 137.151 0.0659949 -3.89733
  91 145.314 -0.0717591 -3.90396
  92 153.076 -0.308657 -3.51251
  93 158.831 -0.446352 -3.07032
  94 164.268 -0.522105 -2.35001
  95 169.178 -0.709124 -1.53643
  96 171.972 -0.489511 -1.07303
  97 172.642 -0.501916 -0.882690
  98 174.370 -0.465299 -0.457994
  99 174.304 -0.371974 0.0417474
  100 173.463 -0.324352 0.404972
  101 172.248 -0.304134 0.717579
  102 170.137 -0.283115 0.922354
  103 167.760 -0.227382 1.31186
  104 165.037 -0.0372352 1.16242
  105 161.115 -0.138597 1.46388
  106 159.932 -0.686980 1.60751
  107 154.237 -0.204003 1.99127
  108 151.600 -0.0908864 1.86696
  109 148.152 -0.110992 1.59191
  110 144.218 -0.105842 1.68568
  111 141.267 -0.175386 1.25291
  112 137.223 -0.164394 1.42608
  113 134.262 -0.209799 1.33551
  114 130.576 -0.202096 1.56171
  115 126.681 0.0597399 1.72795
  116 124.185 -0.0109989 1.61109
  117 121.872 -0.0230079 1.23318
  118 118.719 -0.0439153 1.21878
  119 116.528 -0.102316 1.24366
  120 113.716 -0.0877206 1.33216
  121 111.184 0.100572 1.24436
  122 109.104 0.0560798 1.06649
  123 107.381 -0.0146636 0.859504
  124 105.042 -0.0128294 0.876401
  125 103.593 0.00487173 0.852947
  126 101.631 -0.0293214 0.857192
  127 100.378 0.0191252 0.878400
  128 98.6284 0.0588859 0.809843
  129 97.3161 0.0628101 0.658082
  130 96.0568 0.0515258 0.639550
  131 94.8041 0.0107082 0.425295
  132 93.8495 -0.0151296 0.410717
  133 92.7571 -0.00367932 0.394843
  134 91.7889 -0.0274818 0.418330
  135 90.9489 0.0101466 0.482512
  136 89.9894 0.0326098 0.442360
  137 89.2496 0.0279233 0.376534
  138 88.5942 0.0360523 0.429387
  139 87.8064 0.0372379 0.297558
  140 87.2994 0.0267778 0.271229
  141 84.3050 0.405336 0.373639
  142 87.6953 0.773247 0.305556
  143 90.7132 1.21775 0.267264
  144 98.2680 0.971396 -0.0399901
  145 102.100 0.638604 -0.0401458
  146 105.817 0.229179 0.0302206
  147 113.888 -0.0532821 -0.158949
  148 114.137 -0.0659031 -0.250716
  149 114.603 -0.0872625 -0.126937
  150 114.873 -0.0758887 -0.222700
  151 115.006 -0.0912098 -0.0880580
  152 115.291 -0.0401232 -0.0445621
  153 115.062 -0.156377 -0.0267473
  154 114.752 -0.112931 0.235953
  155 114.586 -0.138310 0.335280
  156 113.881 -0.165013 0.375532
  157 112.546 -0.138353 0.625025
  158 111.263 -0.104424 0.745453
  159 109.309 -0.139545 0.965103
  160 107.226 -0.0446375 1.31608
  161 104.629 -0.0223545 1.02489
  162 102.331 -0.00401189 1.11326
  163 99.1470 0.0647947 1.09584
  164 96.6482 0.107509 1.34303
  165 93.6804 0.149514 1.17226
  166 91.2025 0.176160 1.07611
  167 88.8647 0.277926 0.798983
  168 87.0206 0.249489 0.503750
  169 86.9841 0.156332 0.496805
  170 86.3229 0.489900 -0.498083
  171 86.9621 0.356985 -0.554687
  172 89.3467 0.286186 -0.931772
  173 91.4753 0.300414 -1.45488
  174 93.4188 0.105012 -1.21049
  175 96.6143 0.107876 -1.32724
  176 99.1474 0.0739957 -1.10405
  177 102.355 -0.00921306 -1.12045
  178 104.656 -0.0243709 -1.02496
  179 107.248 -0.0452623 -1.31324
  180 109.326 -0.139442 -0.962923
  181 111.276 -0.104319 -0.743569
  182 112.556 -0.138227 -0.623501
  183 113.887 -0.164902 -0.374227
  184 114.590 -0.138245 -0.334341
  185 114.754 -0.112903 -0.235100
  186 115.062 -0.156283 0.0274635
  187 115.291 -0.0400259 0.0450459
  188 115.005 -0.0911252 0.0884266
  189 114.871 -0.0758079 0.222919
  190 114.601 -0.0871923 0.127107
  191 114.135 -0.0658455 0.250774
  192 113.885 -0.0532381 0.158987
  193 105.816 0.229038 -0.0302734
  194 102.100 0.638211 0.0400786
  195 98.2685 0.970794 0.0399356
  196 90.7137 1.21708 -0.267209
  197 87.6954 0.772813 -0.305471
  198 84.3046 0.405147 -0.373559
  199 80.9866 0.366283 -0.371683
  200 82.0645 0.0897104 -0.447854
  201 83.0208 0.0542641 -0.422177
  202 83.8311 0.0437384 -0.361555
  203 84.8057 0.00596019 -0.417696
  204 85.4068 -0.00280397 -0.359986
  205 85.9198 -0.00180153 -0.262612
  206 86.9222 0.0267334 -0.609249
  207 87.0254 0.0815801 -1.06963
  208 87.3176 0.199702 -1.66674
  209 87.4596 0.336891 -2.17010
  210 87.5364 0.515830 -2.70368
  211 87.3987 0.762332 -3.08048
  212 87.4103 1.01267 -3.51838
  213 87.2192 1.33537 -3.85997
  214 86.9877 1.66060 -4.12815
  215 86.7352 2.02830 -4.33839
  216 86.4199 2.40532 -4.40681
  217 86.1774 2.73260 -4.39970
  218 85.8740 3.15650 -4.35186
  219 85.6013 3.51142 -4.12812
  220 85.3687 3.83951 -3.86570
  221 85.2628 4.14560 -3.46657
  222 85.2023 4.32899 -2.97931
  223 85.2871 4.56791 -2.41667
  224 85.4511 4.64088 -1.77580
  225 85.9900 4.53972 -1.06069
  226 86.6289 4.45162 -0.397591
  227 87.3611 4.24303 0.285346
  228 88.3471 3.99625 0.941557
  229 89.4171 3.56043 1.55154
  230 92.2818 2.65000 2.46941
  231 93.8574 2.21894 2.75805
  232 95.3665 1.79616 2.92446
  233 97.0233 1.41532 2.92971
  234 98.4480 1.00818 2.92662
  235 100.100 0.721709 2.81657
  236 101.552 0.462879 2.64974
  237 102.940 0.312814 2.46009
  238 104.452 0.189678 2.19200
  239 105.738 0.119565 1.91574
  240 107.083 0.0169133 1.66525
  241 108.416 0.0750551 1.38437
  242 109.743 0.0271706 1.09350
  243 111.004 0.0150746 0.784558
  244 112.206 0.0398759 0.440599
  245 112.755 -0.0451212 0.164831
  246 111.990 -0.0569246 0.191261
  247 111.016 -0.107988 0.290206
  248 108.734 -0.0536595 0.255273
  249 112.208 0.0398378 -0.440608
  250 111.006 0.0149307 -0.784559
  251 109.744 0.0268724 -1.09350
  252 108.417 0.0745971 -1.38440
  253 107.084 0.0162421 -1.66538
  254 105.738 0.118757 -1.91600
  255 104.453 0.188684 -2.19241
  256 102.941 0.311719 -2.46075
  257 101.552 0.461768 -2.65061
  258 100.100 0.720626 -2.81765
  259 98.4475 1.00723 -2.92788
  260 97.0225 1.41456 -2.93106
  261 95.3652 1.79558 -2.92586
  262 93.8557 2.21859 -2.75939
  263 92.2798 2.64990 -2.47061
  264 89.4146 3.56075 -1.55229
  265 88.3445 3.99676 -0.942018
  266 87.3586 4.24366 -0.285533
  267 86.6265 4.45235 0.397684
  268 85.9877 4.54050 1.06103
  269 85.4490 4.64170 1.77639
  270 85.2852 4.56875 2.41749
  271 85.2008 4.32982 2.98032
  272 85.2617 4.14641 3.46775
  273 85.3679 3.84027 3.86701
  274 85.6008 3.51213 4.12953
  275 85.8740 3.15714 4.35333
  276 86.1779 2.73317 4.40120
  277 86.4207 2.40582 4.40832
  278 86.7364 2.02873 4.33987
  279 86.9893 1.66094 4.12957
  280 87.2212 1.33566 3.86131
  281 87.4126 1.01288 3.51960
  282 87.4013 0.762505 3.08156
  283 87.5394 0.515946 2.70464
  284 87.4628 0.336975 2.17088
  285 87.3211 0.199757 1.66735
  286 87.0291 0.0815970 1.07003
  287 86.9261 0.0267360 0.609478
  288 85.9236 -0.00182082 0.262708
  289 85.4104 -0.00283563 0.360105
  290 84.8089 0.00593806 0.417848
  291 83.8339 0.0437297 0.361723
  292 83.0231 0.0542626 0.422360
  293 82.0664 0.0896998 0.448027
  294 80.9875 0.366306 0.371789
  295 108.735 -0.0536416 -0.255398
  296 111.018 -0.108030 -0.290344
  297 111.992 -0.0569508 -0.191336
  298 112.757 -0.0451488 -0.164869
  299 16.3937 -75.4773 -1.79974
  300 20.3955 -54.6115 -2.90655
  301 33.4777 -23.5951 8.08310
  302 54.7936 -1.34546 19.6389
  303 94.7097 19.7393 38.8793
  304 135.742 31.1778 53.7475
  305 181.277 31.2070 55.6594
  306 227.493 26.8111 48.9280
  307 256.897 20.0476 28.0236
  308 250.314 22.6620 -25.1425
  309 225.148 25.6827 -50.9051
  310 180.691 32.2245 -57.4248
  311 131.899 30.8111 -51.6483
  312 91.5721 24.4055 -42.6679
  313 55.8518 3.26125 -21.9213
  314 36.7293 -20.8436 -10.9075
  315 21.1848 -57.4149 3.94475
  316 18.0161 -78.5945 1.91151
  317 12.7773 -92.1453 -13.2472
  318 12.4031 -76.4034 -15.3509
  319 15.0647 -58.6779 -14.7427
  320 25.4447 -33.3027 -4.55603
  321 41.4330 -12.7061 5.94200
  322 66.4267 6.13836 19.3962
  323 102.357 13.5212 33.8243
  324 139.033 23.2883 49.1012
  325 173.162 22.9140 55.3451
  326 212.180 22.2899 59.3829
  327 248.794 19.2720 51.8809
  328 291.005 12.3920 49.1449
  329 311.761 9.65325 32.1039
  330 328.413 4.41766 15.3606
  331 333.875 5.42362 -18.2536
  332 313.989 8.04643 -33.6240
  333 289.318 13.5798 -44.4735
  334 258.257 19.0908 -54.7999
  335 217.396 21.5928 -57.1760
  336 180.978 24.6438 -57.8243
  337 136.183 21.7758 -47.2241
  338 98.9548 14.8118 -32.9594
  339 61.3245 6.51526 -18.6746
  340 41.7737 -12.9612 -5.11402
  341 25.8127 -33.1855 4.49671
  342 15.1316 -58.6543 14.6468
  343 12.3889 -76.5294 15.2549
  344 12.7535 -92.6076 13.0337
  345 86.1458 1.23566 -1.81754
  346 91.1893 2.08114 -0.167493
  347 99.8845 1.06709 1.04706
  348 85.4936 0.439749 -1.96546
  349 87.6951 2.48217 -1.56491
  350 104.689 0.473944 1.25934
  351 86.1288 1.60009 -2.84864
  352 94.5895 2.08241 1.11078
  353 89.9992 3.14253 0.105042
  354 86.4355 2.87884 -2.64232
  355 85.8798 0.155548 -1.38170
  356 100.801 1.04989 1.80298
  357 86.4022 0.777775 -2.70543
  358 86.3655 1.33084 -3.26876
  359 86.8023 3.43809 -1.88720
  360 108.031 0.188888 1.05349
  361 96.5522 1.75709 1.91753
  362 88.3429 1.50720 -0.896972
  363 104.259 0.471824 1.72573
  364 86.1108 2.70863 -3.39174
  365 92.4200 2.73373 1.33367
  366 84.5364 0.336260 -1.31494
  367 104.112 0.445963 0.601263
  368 94.6622 1.75954 0.408453
  369 99.0252 1.14367 2.33489
  370 87.3278 3.89914 -0.932346
  371 89.0429 3.63561 0.224149
  372 85.3829 0.541694 -0.688164
  373 102.092 0.695270 2.23262
  374 86.2759 2.11212 -3.72733
  375 85.9930 3.64937 -2.79774
  376 86.2960 0.0459643 -0.851428
  377 110.380 0.0517874 0.723663
  378 84.7975 0.158347 -1.29462
  379 85.5266 0.841513 -2.10216
  380 86.6337 0.356216 -2.06911
  381 92.1157 1.36569 -0.0677403
  382 86.4774 1.87903 -2.25357
  383 97.5838 1.51070 1.36744
  384 107.627 0.167963 1.37091
  385 108.358 0.114816 0.783369
  386 86.6650 1.25957 -3.44852
  387 98.5094 1.09417 0.489711
  388 87.5478 1.92144 -1.49771
  389 94.7096 2.11243 2.20968
  390 90.9113 3.12752 1.16797
  391 83.9812 0.187566 -1.11162
  392 92.0969 2.39196 0.315015
  393 83.2988 0.184596 -0.474386
  394 102.136 0.823542 1.35038
  395 88.3337 3.16886 -0.988504
  396 89.7174 2.44423 -0.609230
  397 85.9486 1.17401 -2.67309
  398 86.4534 0.183731 -1.53566
  399 85.8752 3.19332 -3.54631
  400 86.3252 3.99173 -1.96121
  401 104.731 0.306440 1.95573
  402 86.7830 0.776918 -2.93756
  403 106.053 0.341730 0.732002
  404 89.0102 1.13847 -0.371618
  405 88.6302 2.13437 -1.07844
  406 86.2816 2.06078 -2.85616
  407 85.5724 0.0281662 -0.675802
  408 97.7273 1.36571 2.52580
  409 86.4256 2.00376 -4.00079
  410 86.9942 2.21123 -1.98871
  411 87.6582 4.00363 -0.272251
  412 109.227 0.0892176 1.02123
  413 91.9246 2.89153 1.78269
  414 109.740 0.114873 0.623715
  415 100.689 0.816162 2.40821
  416 86.1113 2.61610 -3.91416
  417 85.6779 0.387973 -1.86350
  418 86.6057 1.02174 -0.902409
  419 94.5934 2.17786 1.65208
  420 84.8833 0.0601287 -0.772384
  421 91.3069 2.93576 0.703254
  422 86.0027 0.915660 -2.61839
  423 102.966 0.716356 1.65141
  424 90.6488 1.62478 -0.331969
  425 98.5524 1.42726 1.86760
  426 101.862 0.708384 0.925089
  427 96.0676 1.77191 0.961787
  428 85.2053 0.660147 -1.16071
  429 85.7179 4.05450 -2.51711
  430 87.1102 0.599244 -2.67902
  431 86.3053 4.17377 -1.45832
  432 95.2139 1.41276 0.264866
  433 106.314 0.314391 1.48336
  434 85.6594 3.64473 -3.39637
  435 86.9227 2.83454 -2.10394
  436 103.315 0.480324 2.18928
  437 106.369 0.174964 1.68230
  438 84.8650 0.429741 -1.61873
  439 87.0071 1.07699 -3.41013
  440 86.6502 1.64896 -3.81130
  441 82.8392 0.0474479 -0.699384
  442 93.5007 2.40145 2.25556
  443 95.9894 1.77502 2.51654
  444 86.2809 2.38667 -4.09271
  445 88.4734 3.48800 -0.526367
  446 99.2095 1.02823 2.59319
  447 85.8598 3.08085 -3.87677
  448 86.7160 4.22841 -0.836393
  449 86.0272 1.35672 -2.33825
  450 99.6916 1.22235 1.43906
  451 101.454 0.737550 0.557474
  452 85.5435 3.96436 -3.03616
  453 89.4415 3.52336 0.897609
  454 102.145 0.542062 2.38796
  455 106.618 0.221069 0.363047
  456 92.8662 1.94852 0.214761
  457 96.1351 1.80544 1.56262
  458 87.2073 0.925723 -0.626701
  459 111.386 0.0308065 0.585290
  460 92.8279 2.50651 0.917384
  461 88.2993 3.90565 0.380464
  462 86.1128 0.438383 -2.06922
  463 86.0816 3.09141 -3.06181
  464 86.2588 3.66125 -2.33883
  465 104.262 0.514681 1.00513
  466 86.2586 1.67986 -3.28351
  467 86.1901 2.11102 -3.37046
  468 85.5264 0.781205 -1.69892
  469 106.852 0.259412 1.10791
  470 103.361 0.556696 2.05054
  471 92.7756 1.72063 0.00915171
  472 97.4120 1.36631 0.752570
  473 102.205 0.743378 1.99230
  474 86.7455 0.120565 -1.34089
  475 87.6322 3.03279 -1.49918
  476 86.8675 3.81195 -1.47855
  477 83.0479 0.230156 -0.383374
  478 90.4293 3.27360 1.47293
  479 105.762 0.291360 1.67785
  480 87.1770 0.400556 -2.29724
  481 86.0553 0.670319 -0.256703
  482 84.7348 0.320495 -1.52551
  483 86.6706 1.00678 -3.17285
  484 100.555 0.965123 2.06711
  485 86.9996 0.277705 -1.84476
  486 110.132 0.0411064 0.957641
  487 93.4611 2.53120 1.86371
  488 108.232 0.0856071 0.435060
  489 107.629 0.120388 1.51460
  490 86.3863 0.0108626 -0.480091
  491 83.9113 0.0579117 -0.828154
  492 99.8141 0.980187 0.831884
  493 104.059 0.428578 0.267928
  494 105.038 0.463988 1.43047
  495 86.4501 1.13004 -3.11331
  496 86.6092 2.45106 -2.48273
  497 86.6137 0.574738 -2.49854
  498 86.9261 1.40070 -3.73354
  499 89.2647 2.96673 -0.535109
  500 90.5953 2.65788 -0.0835341
  501 86.2485 0.0833808 -1.12942
  502 93.7799 2.12727 0.646609
  503 86.4426 3.31145 -2.46064
  504 111.800 -0.0195512 0.323190
  505 86.2985 2.60528 -2.89849
  506 89.7756 1.85772 -0.652484
  507 86.8175 1.29501 -1.40572
  508 97.6262 1.53887 2.20839
  509 90.1235 3.29461 0.614928
  510 94.6393 2.05803 2.52563
  511 85.4379 0.197131 -1.46283
  512 85.9491 0.595505 -2.25637
  513 108.705 0.114750 1.23229
  514 83.4217 0.0946140 -0.798784
  515 100.059 0.863789 0.304412
  516 85.8675 0.0139070 -0.415243
  517 86.3957 1.70263 -3.63909
  518 83.9415 0.0422500 -0.605921
  519 107.413 0.124352 0.154714
  520 81.7633 0.280127 -0.411218
  521 87.5729 3.50286 -1.19683
  522 85.5307 0.654976 -2.12917
  523 98.1727 1.41320 1.17255
  524 111.255 -0.00302894 0.290178
  525 112.442 0.0354463 0.291670
  526 85.7708 4.29536 -2.03040
  527 86.7963 1.69102 -1.79677
  528 109.138 0.0687234 1.01537
  529 109.732 0.0275053 0.278923
  530 106.490 0.274802 0.861617
  531 91.3052 2.76556 0.393744
  532 108.369 0.178171 0.938983
  533 88.5634 2.76089 -1.04495
  534 85.6233 3.43460 -3.78514
  535 85.9219 1.27821 -2.54168
  536 97.0612 1.16439 0.150655
  537 87.1751 0.839372 -3.13042
  538 101.435 0.988661 1.55274
  539 96.1657 1.76489 2.19670
  540 82.9885 0.0519247 -0.570603
  541 86.1461 1.23610 1.81838
  542 91.1882 2.08193 0.167596
  543 99.8841 1.06747 -1.04756
  544 85.4955 0.439885 1.96629
  545 87.6943 2.48293 1.56560
  546 104.690 0.473967 -1.25989
  547 86.1294 1.60054 2.84979
  548 94.5883 2.08294 -1.11130
  549 89.9975 3.14330 -0.105115
  550 86.4349 2.87957 2.64336
  551 85.8827 0.155592 1.38226
  552 100.800 1.04985 -1.80374
  553 86.4042 0.777970 2.70647
  554 86.3668 1.33118 3.26999
  555 86.8009 3.43892 1.88793
  556 108.033 0.188795 -1.05384
  557 96.5512 1.75715 -1.91841
  558 88.3425 1.50784 0.897430
  559 104.260 0.471549 -1.72631
  560 86.1107 2.70928 3.39302
  561 92.4183 2.73415 -1.33432
  562 84.5376 0.336401 1.31555
  563 104.112 0.446193 -0.601603
  564 94.6612 1.76025 -0.408662
  565 99.0247 1.14327 -2.33588
  566 87.3258 3.89997 0.932696
  567 89.0408 3.63633 -0.224274
  568 85.3833 0.541953 0.688563
  569 102.092 0.694724 -2.23339
  570 86.2765 2.11261 3.72870
  571 85.9919 3.65017 2.79878
  572 86.2995 0.0459800 0.851749
  573 110.382 0.0517248 -0.723845
  574 84.7998 0.158405 1.29518
  575 85.5277 0.841799 2.10307
  576 86.6366 0.356298 2.06990
  577 92.1151 1.36643 0.0678105
  578 86.4774 1.87960 2.25455
  579 97.5831 1.51103 -1.36808
  580 107.629 0.167689 -1.37122
  581 108.359 0.114806 -0.783721
  582 86.6666 1.25986 3.44979
  583 98.5089 1.09475 -0.489935
  584 87.5473 1.92211 1.49841
  585 94.7082 2.11238 -2.21073
  586 90.9093 3.12800 -1.16853
  587 83.9829 0.187637 1.11212
  588 92.0956 2.39271 -0.315154
  589 83.2996 0.184691 0.474699
  590 102.136 0.823709 -1.35098
  591 88.3322 3.16971 0.988912
  592 89.7162 2.44504 0.609520
  593 85.9497 1.17433 2.67419
  594 86.4565 0.183771 1.53626
  595 85.8747 3.19403 3.54760
  596 86.3236 3.99260 1.96194
  597 104.732 0.305836 -1.95622
  598 86.7853 0.777097 2.93865
  599 106.053 0.341850 -0.732375
  600 89.0099 1.13907 0.371818
  601 88.6293 2.13514 1.07894
  602 86.2817 2.06134 2.85730
  603 85.5757 0.0281690 0.676066
  604 97.7266 1.36522 -2.52694
  605 86.4265 2.00421 4.00220
  606 86.9938 2.21191 1.98959
  607 87.6560 4.00438 0.272307
  608 109.228 0.0890551 -1.02143
  609 91.9227 2.89177 -1.78356
  610 109.741 0.114849 -0.623955
  611 100.689 0.815476 -2.40912
  612 86.1115 2.61668 3.91555
  613 85.6802 0.388093 1.86425
  614 86.6058 1.02218 0.902958
  615 94.5920 2.17813 -1.65286
  616 84.8861 0.0601488 0.772697
  617 91.3052 2.93639 -0.703606
  618 86.0044 0.915893 2.61944
  619 102.966 0.716298 -1.65207
  620 90.6481 1.62553 0.332188
  621 98.5518 1.42729 -1.86842
  622 101.862 0.708683 -0.925539
  623 96.0666 1.77247 -0.962241
  624 85.2059 0.660418 1.16133
  625 85.7164 4.05533 2.51801
  626 87.1129 0.599394 2.67999
  627 86.3032 4.17460 1.45883
  628 95.2132 1.41347 -0.264972
  629 106.315 0.314188 -1.48383
  630 85.6586 3.64551 3.39758
  631 86.9218 2.83531 2.10480
  632 103.316 0.479604 -2.18991
  633 106.370 0.174437 -1.68262
  634 84.8665 0.429891 1.61946
  635 87.0091 1.07724 3.41135
  636 86.6516 1.64932 3.81266
  637 82.8408 0.0474755 0.699711
  638 93.4989 2.40141 -2.25666
  639 95.9883 1.77467 -2.51774
  640 86.2815 2.38719 4.09415
  641 88.4716 3.48882 0.526559
  642 99.2092 1.02752 -2.59426
  643 85.8596 3.08152 3.87815
  644 86.7138 4.22920 0.836667
  645 86.0277 1.35714 2.33927
  646 99.6912 1.22256 -1.43972
  647 101.454 0.737954 -0.557762
  648 85.5423 3.96518 3.03723
  649 89.4392 3.52390 -0.898057
  650 102.146 0.541232 -2.38874
  651 106.619 0.221183 -0.363272
  652 92.8651 1.94928 -0.214861
  653 96.1341 1.80574 -1.56333
  654 87.2073 0.926180 0.627085
  655 111.388 0.0307443 -0.585367
  656 92.8264 2.50710 -0.917807
  657 88.2970 3.90630 -0.380692
  658 86.1153 0.438494 2.07003
  659 86.0810 3.09215 3.06297
  660 86.2574 3.66207 2.33970
  661 104.263 0.514832 -1.00561
  662 86.2594 1.68028 3.28478
  663 86.1905 2.11155 3.37174
  664 85.5271 0.781501 1.69973
  665 106.853 0.259361 -1.10836
  666 103.361 0.556231 -2.05119
  667 92.7748 1.72141 -0.00914328
  668 97.4114 1.36689 -0.752920
  669 102.205 0.743106 -1.99303
  670 86.7489 0.120592 1.34140
  671 87.6309 3.03361 1.49980
  672 86.8658 3.81280 1.47910
  673 83.0485 0.230271 0.383533
  674 90.4271 3.27396 -1.47365
  675 105.763 0.290986 -1.67829
  676 87.1800 0.400649 2.29808
  677 86.0555 0.670656 0.256916
  678 84.7366 0.320594 1.52618
  679 86.6725 1.00702 3.17403
  680 100.555 0.964838 -2.06794
  681 87.0028 0.277773 1.84544
  682 110.134 0.0409370 -0.957754
  683 93.4594 2.53140 -1.86460
  684 108.233 0.0856446 -0.435308
  685 107.630 0.119943 -1.51480
  686 86.3901 0.0108751 0.480277
  687 83.9134 0.0579540 0.828519
  688 99.8137 0.980647 -0.832265
  689 104.059 0.428844 -0.268090
  690 105.038 0.463890 -1.43102
  691 86.4517 1.13031 3.11449
  692 86.6089 2.45174 2.48376
  693 86.6162 0.574882 2.49949
  694 86.9278 1.40101 3.73486
  695 89.2632 2.96756 0.535337
  696 90.5939 2.65869 0.0835784
  697 86.2518 0.0834174 1.12985
  698 93.7787 2.12794 -0.646915
  699 86.4416 3.31225 2.46160
  700 111.802 -0.0195796 -0.323277
  701 86.2981 2.60595 2.89963
  702 89.7748 1.85848 0.652806
  703 86.8175 1.29552 1.40640
  704 97.6254 1.53871 -2.20937
  705 90.1216 3.29525 -0.615235
  706 94.6379 2.05776 -2.52685
  707 85.4404 0.197182 1.46344
  708 85.9512 0.595656 2.25729
  709 108.706 0.114469 -1.23243
  710 83.4229 0.0946973 0.799182
  711 100.058 0.864289 -0.304544
  712 85.8712 0.0139040 0.415399
  713 86.3966 1.70303 3.64043
  714 83.9440 0.0422723 0.606177
  715 107.413 0.124433 -0.154808
  716 81.7642 0.280160 0.411377
  717 87.5712 3.50370 1.19731
  718 85.5322 0.655175 2.13004
  719 98.1720 1.41364 -1.17308
  720 111.257 -0.00305060 -0.290292
  721 112.444 0.0354417 -0.291715
  722 85.7689 4.29620 2.03111
  723 86.7962 1.69161 1.79760
  724 109.139 0.0685969 -1.01565
  725 109.733 0.0275137 -0.279106
  726 106.491 0.274854 -0.862043
  727 91.3036 2.76630 -0.393930
  728 108.370 0.178142 -0.939357
  729 88.5622 2.76171 1.04542
  730 85.6227 3.43532 3.78646
  731 85.9227 1.27858 2.54274
  732 97.0607 1.16505 -0.150741
  733 87.1775 0.839555 3.13154
  734 101.434 0.988753 -1.55342
  735 96.1646 1.76476 -2.19773
  736 82.9905 0.0519355 0.570864
  737 67.6132 10.1976 4.48689
  738 67.6217 10.1956 -4.48580
  739 102.812 -8.51427 9.38681
  740 102.839 -8.55568 -9.37628
  741 87.0442 4.61512 9.18219
  742 87.0430 4.61478 -9.17997
  743 77.4200 0.691095 -21.3426
  744 77.4313 0.682948 21.3464
  745 119.329 0.462835 9.68142
  746 119.341 1.69713 -9.78380
  747 92.4786 4.54393 -14.6205
  748 92.4828 4.54262 14.6228
  749 115.834 -13.9194 14.3038
  750 115.798 -13.9139 -14.2879
  751 84.2329 3.66849 -6.61079
  752 84.2378 3.67075 6.60834
  753 107.731 -2.64807 1.33346
  754 107.735 -2.65201 -1.33090
  755 72.5568 -5.56254 21.6373
  756 72.5417 -5.55467 -21.6313
  757 80.0683 7.35285 3.77000
  758 80.0715 7.35210 -3.76917
  759 90.4436 1.37146 -5.23392
  760 90.4470 1.37165 5.23539
  761 108.739 8.91799 -0.278208
  762 111.968 -4.34054 4.62055
  763 111.964 -4.33832 -4.61526
  764 107.240 1.62490 -17.2840
  765 107.249 1.62139 17.2830
  766 96.6155 2.07975 9.12016
  767 96.6106 2.07988 -9.11844
  768 120.412 -16.7121 -8.75937
  769 119.945 -17.0798 9.31268
  770 152.449 -11.2324 7.07681
  771 152.436 -11.1671 -7.08838
  772 121.954 -2.31195 -15.4767
  773 121.966 -2.31669 15.4718
  774 97.5465 -1.05304 5.62959
  775 97.5467 -1.05702 -5.63279
  776 132.107 24.5861 3.30349
  777 44.1268 4.47519 -0.783819
  778 44.1583 4.46794 0.791961
  779 170.814 5.68490 -13.8936
  780 169.309 5.48826 14.2963
  781 172.496 14.8109 1.84575
  782 108.222 1.65254 -12.0266
  783 108.229 1.65150 12.0270
  784 84.3733 5.02137 -6.04483
  785 84.3727 5.02209 6.04655
  786 138.846 7.56105 -6.42653
  787 94.3896 0.922345 5.43822
  788 94.3847 0.922290 -5.43690
  789 105.814 2.53664 -6.70360
  790 105.930 2.61043 6.82301
  791 80.0125 7.91929 10.8760
  792 80.0139 7.91901 -10.8733
  793 73.0342 7.93400 15.2750
  794 73.0348 7.93634 -15.2693
  795 116.163 -10.2423 -0.473192
  796 116.157 -10.2572 0.472501
  797 145.613 -8.26593 -0.647613
  798 145.619 -8.24400 0.631123
  799 71.1417 5.97776 -8.29094
  800 71.1481 5.97979 8.28410
  801 56.9396 -15.0074 -20.4191
  802 56.9790 -15.0167 20.4171
  803 141.498 4.73074 3.81861
  804 83.3865 5.76000 -1.24502
  805 83.3903 5.75984 1.24440
  806 109.617 -0.615686 -0.976641
  807 109.616 -0.614401 0.978050
  808 110.782 -1.78843 1.73979
  809 110.781 -1.78626 -1.73493
  810 108.360 -1.07815 6.99847
  811 108.369 -1.08855 -6.99673
  812 109.368 -6.25168 1.38279
  813 109.377 -6.25790 -1.37826
  814 106.301 1.03886 8.04462
  815 106.293 1.03914 -8.04375
  816 144.677 -3.34376 -7.15628
  817 144.683 -3.34551 7.14533
  818 88.2264 -2.41145 -12.5837
  819 88.2353 -2.40416 12.5790
  820 89.8309 0.432444 -2.81249
  821 89.8350 0.432523 2.81338
  822 103.187 -1.15038 3.19229
  823 103.189 -1.15366 -3.19282
  824 87.2182 2.83179 5.86373
  825 87.2169 2.83134 -5.86198
  826 85.3302 -19.9043 -28.2204
  827 83.1520 -19.5788 28.4856
  828 119.576 15.4085 -5.92172
  829 90.5328 2.35334 4.71895
  830 90.5298 2.35210 -4.72124
  831 127.695 -0.0316149 -11.4954
  832 127.703 -0.0333773 11.4923
  833 99.3290 -12.1547 -16.5087
  834 99.1533 -12.1449 16.4935
  835 74.4908 8.37640 -0.313828
  836 74.4966 8.37618 0.312562
  837 149.824 -2.09326 -16.8676
  838 149.863 -1.77041 16.8007
  839 40.3876 -13.4773 21.6123
  840 40.3960 -13.4331 -21.7518
  841 143.861 7.88613 -8.87500
  842 112.158 -19.6929 -13.1702
  843 112.184 -19.5201 13.6195
  844 81.3970 7.01971 7.51116
  845 81.3987 7.01898 -7.50928
  846 88.7474 5.04756 11.8714
  847 88.7452 5.04775 -11.8689
  848 116.732 12.3681 6.47020
  849 92.2294 0.409066 -3.23723
  850 92.2342 0.409125 3.23816
  851 120.143 0.598384 10.1596
  852 120.135 0.599346 -10.1605
  853 97.1444 -6.73942 -21.2260
  854 97.1572 -6.74053 21.2255
  855 206.276 17.1639 -2.83727
  856 25.8329 -14.6259 -3.40290
  857 25.8142 -14.6424 3.45799
  858 100.114 0.580536 4.91616
  859 100.107 0.580535 -4.91519
  860 83.2901 5.68746 3.77056
  861 83.2922 5.68663 -3.76946
  862 99.6490 3.04839 -1.84531
  863 89.0918 4.80034 18.1114
  864 89.0860 4.80395 -18.1088
  865 153.608 -4.67347 -10.4063
  866 153.650 -4.71587 10.4451
  867 103.973 -3.69371 4.09008
  868 103.978 -3.70011 -4.09075
  869 116.259 -4.87792 -7.08563
  870 116.258 -4.88811 7.09793
  871 109.915 -1.38458 3.80519
  872 109.918 -1.38328 -3.79902
  873 136.433 5.48105 10.9461
  874 57.2855 6.05981 13.2539
  875 57.2902 6.06338 -13.2416
  876 59.3741 8.01896 -4.68983
  877 59.3908 8.01412 4.68468
  878 131.016 -11.2876 13.2437
  879 90.4979 2.52392 7.41436
  880 90.4950 2.52368 -7.41250
  881 156.610 30.1433 -1.46113
  882 92.0814 -0.496066 8.13244
  883 92.0776 -0.500060 -8.13656
  884 170.537 -1.38526 0.386190
  885 170.490 -1.18996 -0.616252
  886 124.137 -8.11712 -4.59352
  887 123.807 -7.71441 4.93713
  888 209.373 15.9364 1.55009
  889 100.626 -0.367048 20.1169
  890 100.614 -0.361623 -20.1180
  891 124.887 -12.9865 -17.4204
  892 111.452 -0.809892 0.177543
  893 111.452 -0.808712 -0.174797
  894 143.774 -1.35990 -8.68213
  895 143.778 -1.36223 8.67497
  896 88.5838 1.13048 -4.22529
  897 88.5865 1.13069 4.22663
  898 75.4913 9.08775 -5.81814
  899 75.4869 9.08873 5.81937
  900 98.8678 2.49251 2.52314
  901 163.916 28.0377 -0.607791
  902 97.3406 3.03193 11.7393
  903 97.3356 3.03246 -11.7376
  904 111.679 0.210831 -8.90371
  905 111.821 0.159452 8.90760
  906 98.3417 0.177208 4.01511
  907 98.3418 0.174884 -4.01701
  908 106.011 -0.554288 -2.06785
  909 106.009 -0.552454 2.06817
  910 127.116 10.1959 9.57720
  911 80.7457 7.74129 13.8408
  912 80.7455 7.74217 -13.8372
  913 83.6198 5.68958 1.30003
  914 83.6227 5.68889 -1.29972
  915 61.1370 9.70732 6.60010
  916 61.1483 9.70508 -6.59531
  917 113.040 6.13792 -8.19661
  918 99.9824 -4.21810 -7.17383
  919 99.9797 -4.21069 7.16920
  920 136.171 1.88917 -14.5771
  921 124.439 -7.18325 -13.8492
  922 124.460 -7.18948 13.8450
  923 52.8895 -4.07844 -18.3867
  924 52.9045 -4.09339 18.3994
  925 137.775 1.76227 15.2359
  926 112.930 -13.7619 7.42712
  927 113.711 -14.2105 -7.48372
  928 113.634 0.545145 -6.98636
  929 113.643 0.544855 6.98665
  930 102.966 0.301424 -5.68769
  931 102.920 0.380501 5.68976
  932 84.0066 -20.8149 -19.8773
  933 84.0901 -20.8131 19.6659
  934 87.6510 3.45577 7.37417
  935 87.6496 3.45535 -7.37220
  936 110.658 -4.18085 -1.63227
  937 110.662 -4.18398 1.63760
  938 135.372 -15.8406 -3.87169
  939 135.463 -15.8361 3.82130
  940 87.5586 4.00754 2.75557
  941 87.5553 4.00738 -2.75682
  942 126.971 5.43296 2.27253
  943 91.1202 3.28213 9.36453
  944 91.1172 3.28204 -9.36246
  945 100.328 3.15656 16.3047
  946 100.321 3.15900 -16.3037
  947 79.8803 6.47933 -2.38472
  948 79.8851 6.47979 2.38344
  949 232.506 19.7478 -0.588822
  950 53.4604 1.72888 -14.4016
  951 53.4833 1.72466 14.3842
  952 104.276 0.514944 5.33306
  953 104.268 0.515010 -5.33223
  954 134.580 -9.79478 -12.9191
  955 135.440 -9.49473 11.5104
  956 85.7982 3.68602 5.35244
  957 85.7980 3.68538 -5.35078
  958 88.7343 0.155589 -1.53624
  959 88.7385 0.155626 1.53676
  960 139.987 -0.350004 -8.51086
  961 139.993 -0.351558 8.50630
  962 206.452 9.92865 4.87206
  963 94.8236 0.263611 2.67630
  964 94.8177 0.263577 -2.67560
  965 97.8106 0.282687 -3.27262
  966 97.8172 0.282696 3.27337
  967 156.210 -2.29535 -2.19436
  968 156.203 -2.29235 2.18555
  969 125.904 7.75774 -9.63303
  970 78.6787 -0.674382 -15.3162
  971 78.6771 -0.662228 15.3045
  972 201.748 10.3929 -5.65225
  973 108.463 7.10942 4.80641
  974 111.166 -0.139230 -0.870959
  975 111.165 -0.138793 0.871512
  976 84.7929 5.13203 7.42525
  977 84.7930 5.13142 -7.42328
  978 158.966 -2.59844 3.13821
  979 158.949 -2.58501 -3.13251
  980 110.380 -9.38630 3.62226
  981 110.424 -9.41819 -3.61901
  982 113.085 -7.14462 -1.90608
  983 113.089 -7.14626 1.91392
  984 118.946 17.4726 0.692258
  985 75.6212 5.73530 18.3999
  986 75.6171 5.74041 -18.3941
  987 84.7073 6.13152 10.2981
  988 84.7070 6.13122 -10.2957
  989 97.8221 1.11231 -3.56720
  990 132.703 -7.28060 -1.41340
  991 162.202 16.9883 10.1202
  992 134.041 21.0580 -6.67751
  993 84.4793 4.71837 4.56429
  994 84.4804 4.71758 -4.56286
  995 107.655 -0.723034 -4.26834
  996 107.648 -0.721819 4.27349
  997 80.9251 2.82039 -9.54187
  998 80.9300 2.82508 9.53837
  999 82.0649 6.47462 5.56815
  1000 82.0668 6.47382 -5.56669
  1001 107.303 6.64567 -4.29942
  1002 72.8838 9.52521 9.82341
  1003 72.8881 9.52456 -9.82023
  1004 93.6260 1.85266 3.86134
  1005 93.6242 1.85158 -3.86330
  1006 95.9233 1.43758 -6.99598
  1007 95.9284 1.43760 6.99747
  1008 85.3249 4.44343 -3.90859
  1009 85.3291 4.44414 3.90697
  1010 93.0785 2.74375 19.5993
  1011 93.0698 2.74883 -19.5981
  1012 129.228 0.326204 7.56522
  1013 129.220 0.326826 -7.56663
  1014 113.166 4.65102 8.86632
  1015 69.0618 9.02166 -1.80056
  1016 69.0702 9.02057 1.79773
  1017 150.222 -2.23527 -11.9062
  1018 150.327 -2.19192 11.8728
  1019 116.039 -0.603117 16.8414
  1020 116.028 -0.598879 -16.8448
  1021 87.1966 -12.9001 23.0859
  1022 87.0919 -12.9146 -23.2611
  1023 134.667 -9.28093 8.14213
  1024 134.641 -9.28049 -8.15488
  1025 105.435 -6.46402 5.17497
  1026 105.445 -6.47232 -5.17607
  1027 107.378 -1.35870 -1.64175
  1028 107.376 -1.35607 1.64317
  1029 87.5170 2.03006 4.98595
  1030 87.5152 2.02969 -4.98437
  1031 130.719 -8.98326 1.40518
  1032 76.7069 6.19987 -5.44389
  1033 76.7123 6.20180 5.44086
  1034 75.0662 -6.90390 22.5481
  1035 75.0479 -6.89661 -22.5509
  1036 90.9565 0.151141 -1.87675
  1037 90.9614 0.151157 1.87732
  1038 98.2007 0.861315 3.98454
  1039 65.6161 3.82761 -12.3370
  1040 65.6257 3.82706 12.3241
  1041 109.731 -2.01436 -0.0902767
  1042 109.733 -2.01707 0.0938974
  1043 111.304 -0.604187 1.87618
  1044 111.308 -0.603161 -1.87188
  1045 81.0278 6.85120 0.871249
  1046 81.0316 6.85072 -0.871257
  1047 100.649 -14.8361 26.4323
  1048 111.764 -3.01558 -6.93191
  1049 111.771 -3.01310 6.94083
  1050 49.2966 -23.5386 25.5409
  1051 49.0671 -22.6833 -26.0010
  1052 149.276 7.33028 -14.4563
  1053 96.3524 -7.27368 -13.1114
  1054 96.2965 -7.27832 13.1472
  1055 112.334 -0.195696 -0.348265
  1056 112.333 -0.195257 0.349466
  1057 85.2663 5.07998 -0.482946
  1058 85.2695 5.07952 0.482660
  1059 88.5117 0.433354 2.66577
  1060 88.5082 0.433265 -2.66488
  1061 100.681 2.86874 13.1120
  1062 100.675 2.86975 -13.1107
  1063 96.5298 -4.85727 10.3457
  1064 96.5243 -4.86749 -10.3515
  1065 88.5149 2.02684 5.54643
  1066 88.5126 2.02652 -5.54479
  1067 153.463 -5.41705 14.4049
  1068 153.423 -5.46264 -14.3853
  1069 101.448 -1.95624 4.41740
  1070 101.450 -1.96090 -4.41912
  1071 92.1567 1.19835 5.36449
  1072 92.1526 1.19821 -5.36307
  1073 93.7278 -12.9693 -21.1084
  1074 93.7238 -12.9572 21.1090
  1075 101.236 1.31272 8.15528
  1076 101.230 1.31290 -8.15401
  1077 108.232 -0.291001 -1.52425
  1078 108.230 -0.289973 1.52470
  1079 164.149 -1.96207 -14.1949
  1080 164.297 -1.87328 14.1971
  1081 25.5437 -33.9001 -7.49012
  1082 25.5782 -33.9097 7.44996
  1083 154.566 -1.10290 -4.79201
  1084 154.563 -1.10392 4.78428
  1085 65.8733 -12.2486 26.7439
  1086 66.3320 -12.2094 -26.5557
  1087 120.686 0.282440 6.22726
  1088 120.677 0.282726 -6.22745
  1089 112.305 -0.544727 0.836187
  1090 112.307 -0.543938 -0.833157
  1091 18.3462 -31.3420 -9.51344
  1092 18.6137 -31.1002 9.85332
  1093 111.106 0.322404 -5.05491
  1094 111.115 0.322284 5.05538
  1095 88.2994 2.21896 6.47261
  1096 88.2953 2.21683 -6.47545
  1097 30.5708 -6.06786 -6.74463
  1098 30.6434 -6.08918 6.75054
  1099 45.1870 -28.0788 14.2095
  1100 45.1595 -28.1320 -14.2105
  1101 108.782 -4.38196 0.813622
  1102 108.787 -4.38678 -0.809693
  1103 78.0907 7.70489 0.874220
  1104 78.0953 7.70453 -0.874528
  1105 110.655 1.59411 -13.4781
  1106 110.662 1.59248 13.4778
  1107 147.669 -9.73419 4.11473
  1108 147.655 -9.68502 -4.12902
  1109 86.1155 -7.14009 -18.7532
  1110 86.0735 -7.09741 18.7221
  1111 113.974 -19.0909 19.5448
  1112 117.806 0.836580 -13.3668
  1113 117.815 0.834631 13.3652
  1114 110.919 -2.90638 -3.45760
  1115 110.920 -2.90886 3.46342
  1116 104.502 -2.24289 3.08164
  1117 104.505 -2.24736 -3.08147
  1118 101.171 0.0507848 3.12537
  1119 101.172 0.0488359 -3.12642
  1120 137.138 19.6046 7.08693
  1121 68.0702 -23.7608 -14.8729
  1122 68.1314 -23.2586 14.5475
  1123 85.0956 -16.3314 -27.2860
  1124 171.606 12.8338 8.61329
  1125 113.187 10.9463 -4.91200
  1126 106.404 -19.3168 -19.9240
  1127 44.6083 2.09845 9.44511
  1128 44.6219 2.10246 -9.42494
  1129 86.9304 6.09852 13.8393
  1130 86.9283 6.09927 -13.8365
  1131 102.115 4.43459 1.13723
  1132 104.299 -0.198876 -4.68470
  1133 104.292 -0.178877 4.68724
  1134 128.361 -1.62627 7.76646
  1135 137.592 0.170447 -6.30576
  1136 137.599 0.169892 6.30374
  1137 173.329 15.0752 -5.43928
  1138 107.585 -17.1111 16.9303
  1139 86.1195 4.02530 -6.72295
  1140 86.1200 4.02585 6.72484
  1141 119.430 -4.78959 -7.40566
  1142 119.911 -4.50882 7.61837
  1143 89.5109 2.31756 6.61008
  1144 89.5083 2.31728 -6.60828
  1145 111.529 3.09037 -3.83510
  1146 93.3028 0.514031 -5.94420
  1147 93.3050 0.516695 5.94098
  1148 169.633 10.3807 -11.7154
  1149 89.9685 3.21021 -3.11650
  1150 89.9713 3.21052 3.11501
  1151 136.273 0.0589702 13.3764
  1152 135.318 -3.28370 -11.1614
  1153 135.329 -3.28780 11.1532
  1154 121.233 2.45591 -10.2927
  1155 135.820 0.171421 -13.2663
  1156 91.0071 0.679494 -3.86541
  1157 91.0113 0.679602 3.86653
  1158 109.586 -1.74419 -5.78194
  1159 109.585 -1.74113 5.78888
  1160 93.6449 1.27880 0.172057
  1161 93.4482 3.60639 11.3959
  1162 93.4444 3.60667 -11.3938
  1163 128.686 -1.30536 -7.73819
  1164 78.5835 7.99928 5.46296
  1165 78.5868 7.99845 -5.46174
  1166 105.046 -11.4281 11.3320
  1167 105.891 -11.9163 -11.1580
  1168 86.1678 6.09770 16.0870
  1169 86.1646 6.09977 -16.0838
  1170 86.5782 2.74983 5.09302
  1171 86.5773 2.74932 -5.09140
  1172 109.346 -1.28179 0.711447
  1173 109.348 -1.28391 -0.709085
  1174 72.4042 9.59083 3.53103
  1175 72.4104 9.58963 -3.53078
  1176 86.1833 0.904117 9.31707
  1177 86.1778 0.899841 -9.32064
  1178 103.274 0.243926 3.15433
  1179 103.266 0.243937 -3.15375
  1180 120.694 -13.6568 2.64839
  1181 121.381 -13.5223 -2.25372
  1182 93.2488 1.87573 7.22451
  1183 93.2447 1.87561 -7.22283
  1184 89.7314 0.100276 1.48141
  1185 89.7268 0.100262 -1.48093
  1186 159.293 -1.97837 -5.81392
  1187 159.307 -1.99357 5.83627
  1188 93.3048 0.123665 -1.65892
  1189 93.3106 0.123673 1.65939
  1190 108.652 -3.18362 18.8925
  1191 108.639 -3.17869 -18.8949
  1192 189.803 30.9842 -0.945836
  1193 78.7438 8.26608 7.91998
  1194 78.7464 8.26530 -7.91804
  1195 107.339 1.31813 10.0163
  1196 107.332 1.31870 -10.0156
  1197 106.859 0.856444 -7.54448
  1198 107.005 0.831294 7.62759
  1199 261.973 15.8367 7.84331
  1200 124.859 16.8345 7.08574
  1201 54.3484 8.45055 0.447427
  1202 54.3685 8.44461 -0.445215
  1203 83.9364 5.33566 2.59826
  1204 83.9387 5.33484 -2.59748
  1205 255.335 17.0637 -7.80386
  1206 103.684 -0.176209 -2.55968
  1207 103.683 -0.174488 2.55927
  1208 119.677 -18.1567 -11.3487
  1209 119.817 -18.1666 11.3908
  1210 84.3125 5.79992 -8.61322
  1211 84.3124 5.80046 8.61538
  1212 118.550 1.76443 9.56592
  1213 112.323 2.45292 6.01698
  1214 110.477 -16.2969 -13.8170
  1215 75.9060 8.76566 -3.01501
  1216 75.9012 8.76644 3.01525
  1217 115.654 -7.36251 4.09230
  1218 115.656 -7.36322 -4.08135
  1219 87.6797 4.91004 10.5246
  1220 87.6781 4.90992 -10.5223
  1221 127.465 -0.672760 13.3642
  1222 127.456 -0.669605 -13.3688
  1223 132.610 -12.8760 -6.87039
  1224 132.656 -12.8730 6.85359
  1225 118.903 8.27290 -9.23133
  1226 92.0382 4.45235 13.0123
  1227 92.0347 4.45302 -13.0100
  1228 125.730 21.8698 -2.04227
  1229 119.629 7.79345 9.51291
  1230 108.825 0.284963 -4.05770
  1231 108.834 0.284891 4.05821
  1232 141.079 -15.6250 -1.92897
  1233 141.247 -15.4775 1.73206
  1234 100.335 0.123711 -2.76486
  1235 100.343 0.123694 2.76544
  1236 96.0801 0.328447 -4.86734
  1237 96.0809 0.330937 4.86475
  1238 39.0551 -13.7545 15.6057
  1239 39.0309 -13.7300 -15.5904
  1240 68.3466 9.67591 10.8658
  1241 68.3521 9.67559 -10.8608
  1242 152.750 0.980534 -17.6821
  1243 127.176 0.304957 5.46337
  1244 127.166 0.305245 -5.46397
  1245 113.024 12.2550 3.21624
  1246 148.840 30.5270 1.53920
  1247 90.0721 -2.43203 -21.9059
  1248 90.0851 -2.43787 21.9055
  1249 115.885 -1.48058 -9.06315
  1250 115.882 -1.63031 8.99870
  1251 94.5688 -8.55914 -18.4169
  1252 97.2103 -10.5331 18.5355
  1253 84.3334 4.88264 3.64558
  1254 84.3351 4.88181 -3.64444
  1255 81.5672 6.58986 2.88548
  1256 81.5702 6.58914 -2.88479
  1257 83.5213 5.46884 5.04868
  1258 83.5227 5.46806 -5.04722
  1259 150.624 -0.464860 -5.45669
  1260 150.625 -0.465707 5.45226
  1261 100.618 -2.94398 5.63365
  1262 100.621 -2.95001 -5.63671
  1263 199.968 10.5685 20.7528
  1264 152.909 0.853901 17.5177
  1265 104.063 4.16048 4.43190
  1266 181.760 4.85105 -5.89693
  1267 93.1674 0.730439 -1.40539
  1268 68.2283 4.35579 18.2974
  1269 68.2232 4.36266 -18.2892
  1270 163.038 6.88495 24.7592
  1271 144.462 8.75909 -2.54142
  1272 61.9639 9.84894 1.22988
  1273 61.9769 9.84522 -1.23008
  1274 97.2803 3.33257 -18.3155
  1275 97.2878 3.32877 18.3164
  1276 144.707 9.10430 24.0786
  1277 67.3882 7.03483 15.8607
  1278 67.3885 7.03862 -15.8525
  1279 102.440 2.00998 11.0926
  1280 102.434 2.01059 -11.0913
  1281 203.766 18.4401 2.38967
  1282 149.204 9.22052 5.88197
  1283 185.576 27.8005 8.47789
  1284 155.652 2.33822 -20.0524
  1285 119.368 -8.69380 -4.11130
  1286 119.363 -8.64969 4.13398
  1287 160.517 -6.67569 9.21739
  1288 160.455 -6.79856 -9.14649
  1289 106.881 -5.13165 -2.83231
  1290 106.873 -5.12503 2.83436
  1291 89.7467 0.843002 3.97738
  1292 89.7432 0.842850 -3.97616
  1293 96.4414 -1.95808 7.15738
  1294 96.4407 -1.96308 -7.16192
  1295 108.074 -10.4358 -18.3154
  1296 108.090 -10.4365 18.3213
  1297 75.5902 9.10281 8.75560
  1298 75.5939 9.10205 -8.75322
  1299 137.569 -6.48228 -2.85439
  1300 102.858 3.42384 -4.53039
  1301 191.540 10.9830 -24.4721
  1302 176.726 22.6906 -15.3717
  1303 114.254 2.85270 -9.42707
  1304 237.497 15.1359 -16.4418
  1305 108.784 -0.457690 -2.74960
  1306 108.774 -0.458274 2.75461
  1307 109.954 -3.07402 -0.735997
  1308 109.957 -3.07723 0.740575
  1309 141.755 -0.926660 -10.8393
  1310 89.0161 1.08732 20.9793
  1311 89.0054 1.09365 -20.9780
  1312 105.418 -1.21490 -2.38155
  1313 105.415 -1.21195 2.38206
  1314 164.225 -1.17958 0.551203
  1315 164.207 -1.17549 -0.553296
  1316 106.220 -3.49432 2.50131
  1317 106.225 -3.49974 -2.49973
  1318 88.1604 0.863063 -3.55692
  1319 88.1633 0.863240 3.55810
  1320 152.584 5.36472 15.5172
  1321 145.123 -5.53625 -4.46553
  1322 145.131 -5.53206 4.45195
  1323 93.7220 4.39060 16.1840
  1324 93.7168 4.39274 -16.1820
  1325 108.353 -20.5018 -22.7362
  1326 54.4707 -5.36890 21.2786
  1327 54.4619 -5.36218 -21.3089
  1328 146.548 5.13150 -14.3266
  1329 113.711 -5.14398 -5.85670
  1330 113.715 -5.14582 5.85962
  1331 84.1831 6.64232 11.7977
  1332 84.1826 6.64234 -11.7950
  1333 113.138 -11.4648 -4.02609
  1334 113.114 -11.4712 3.95089
  1335 115.169 0.987072 10.3543
  1336 115.161 0.987909 -10.3545
  1337 13.2037 -43.7570 2.55106
  1338 13.3314 -44.0767 -2.49904
  1339 247.752 16.2889 17.8048
  1340 144.444 2.99823 0.489364
  1341 97.2958 0.276322 -3.40345
  1342 148.648 18.3389 -4.56118
  1343 87.8303 1.40451 -4.24597
  1344 87.8326 1.40479 4.24736
  1345 127.499 -14.8750 7.40927
  1346 113.074 -2.29715 -8.20828
  1347 113.077 -2.28695 8.20957
  1348 161.127 -1.01813 -2.75919
  1349 161.117 -1.01810 2.75193
  1350 93.5502 0.654666 4.21435
  1351 93.5452 0.654604 -4.21323
  1352 80.4018 6.79153 16.9138
  1353 80.3990 6.79456 -16.9095
  1354 182.541 11.4486 8.99005
  1355 124.007 3.33058 -28.2764
  1356 113.264 -0.268885 0.0596932
  1357 113.264 -0.268484 -0.0582497
  1358 50.8969 7.13162 6.19795
  1359 50.9140 7.12966 -6.18706
  1360 111.109 -5.86956 -1.07168
  1361 111.114 -5.87271 1.07778
  1362 143.057 -0.913201 11.4274
  1363 88.5829 3.50768 8.02918
  1364 88.5810 3.50734 -8.02716
  1365 93.4769 0.636939 1.84280
  1366 105.660 0.921910 18.4856
  1367 105.650 0.926351 -18.4870
  1368 65.4122 6.88716 -6.90374
  1369 65.4230 6.88634 6.89642
  1370 155.216 -1.49981 8.04366
  1371 155.280 -1.49602 -8.00840
  1372 96.6221 0.139029 2.02728
  1373 96.6155 0.139015 -2.02677
  1374 99.0214 1.23592 7.43659
  1375 99.0155 1.23600 -7.43523
  1376 43.2918 0.234823 -11.6265
  1377 43.3408 0.223389 11.6158
  1378 93.9253 2.38924 8.58714
  1379 93.9212 2.38920 -8.58532
  1380 113.072 -0.0735853 -0.405532
  1381 113.071 -0.0733865 0.406065
  1382 99.1440 -0.749759 4.58028
  1383 99.1448 -0.753205 -4.58248
  1384 27.6830 -35.7960 -15.5954
  1385 25.7181 -34.6982 15.5516
  1386 125.983 -16.0181 -9.47529
  1387 82.7185 6.22681 -6.95632
  1388 82.7173 6.22753 6.95813
  1389 96.5382 1.16771 3.58029
  1390 96.5374 1.16640 -3.58203
  1391 111.115 -1.19149 0.750752
  1392 111.115 -1.18991 -0.747027
  1393 117.497 0.566853 -15.0557
  1394 117.506 0.563964 15.0531
  1395 178.693 3.80591 8.03882
  1396 109.896 2.52039 -8.38744
  1397 88.0340 2.83712 -6.45227
  1398 88.0357 2.83753 6.45410
  1399 90.6014 -1.76433 -10.3960
  1400 90.6064 -1.75808 10.3912
  1401 90.7682 1.93617 6.34205
  1402 90.7649 1.93594 -6.34038
  1403 155.552 -0.509563 -4.63988
  1404 155.550 -0.510297 4.63445
  1405 85.2952 3.89576 4.76602
  1406 85.2956 3.89505 -4.76449
  1407 153.657 -5.34924 -6.22388
  1408 153.684 -5.38052 6.23551
  1409 193.992 12.0699 -6.46365
  1410 87.7568 0.0435257 0.854787
  1411 87.7526 0.0435216 -0.854488
  1412 96.5271 0.815157 5.39706
  1413 96.5214 0.815134 -5.39585
  1414 75.7324 8.56423 13.7354
  1415 75.7336 8.56520 -13.7310
  1416 80.9851 6.54408 1.10409
  1417 80.9808 6.54411 -1.10479
  1418 137.553 27.2594 -2.55343
  1419 151.898 -8.86366 9.70205
  1420 151.843 -8.82092 -9.69312
  1421 87.4178 -4.66662 -15.5303
  1422 87.4261 -4.63836 15.5360
  1423 102.988 2.52629 14.3987
  1424 102.981 2.52793 -14.3978
  1425 50.5203 5.44465 6.73997
  1426 50.4917 5.45422 -6.74475
  1427 109.627 2.37608 8.29620
  1428 196.052 18.3771 -0.962010
  1429 72.5350 7.68040 -3.67773
  1430 72.5417 7.68106 3.67447
  1431 87.0509 4.42125 -1.40481
  1432 87.0540 4.42094 1.40415
  1433 152.664 17.0150 1.83862
  1434 106.389 -0.176306 -1.89899
  1435 106.388 -0.175078 1.89907
  1436 82.7428 5.56036 -2.98972
  1437 82.7472 5.56085 2.98847
  1438 102.266 1.26582 -5.67660
  1439 153.491 -3.98774 0.0614960
  1440 153.484 -3.97690 -0.0688285
  1441 63.4153 -17.0571 24.4673
  1442 97.6313 0.282664 3.47516
  1443 122.930 -2.19107 8.56524
  1444 97.3036 2.43407 10.2546
  1445 97.2985 2.43435 -10.2529
  1446 122.998 -2.48827 -8.47256
  1447 110.734 -1.77701 2.74910
  1448 110.735 -1.77493 -2.74351
  1449 108.351 -10.4864 7.23641
  1450 108.229 -10.5639 -7.29565
  1451 108.482 -14.8796 13.0622
  1452 81.8942 6.95991 8.92055
  1453 81.8953 6.95935 -8.91835
  1454 120.321 0.254300 3.60415
  1455 120.311 0.254377 -3.60412
  1456 85.0037 5.11818 0.691754
  1457 85.0065 5.11750 -0.691598
  1458 133.435 4.72479 8.30078
  1459 91.2997 3.87211 10.6082
  1460 91.2967 3.87213 -10.6060
  1461 76.9402 2.40644 -11.7156
  1462 76.9437 2.41341 11.7091
  1463 110.668 -2.66933 -4.74697
  1464 110.670 -2.67096 4.75341
  1465 89.3298 1.38517 -4.90377
  1466 89.3327 1.38539 4.90524
  1467 143.663 0.104477 -5.39963
  1468 143.669 0.103931 5.39718
  1469 88.0236 3.61294 3.83931
  1470 88.0201 3.61233 -3.84102
  1471 107.700 -0.730931 -1.60464
  1472 107.699 -0.729166 1.60558
  1473 72.1195 9.82208 -5.59455
  1474 72.1136 9.82338 5.59578
  1475 112.428 -0.0298568 -0.518250
  1476 112.426 -0.0297339 0.518410
  1477 103.551 4.73575 -2.06917
  1478 65.9886 9.01712 -11.7561
  1479 65.9833 9.01655 11.7626
  1480 103.053 -4.71357 5.46677
  1481 103.059 -4.72155 -5.46938
  1482 113.375 -9.22346 0.476877
  1483 113.381 -9.22434 -0.459179
  1484 78.5253 8.21069 12.1245
  1485 78.5267 8.21078 -12.1212
  1486 133.567 -1.55036 11.7417
  1487 133.558 -1.54679 -11.7482
  1488 110.554 -0.436844 2.03674
  1489 110.562 -0.436102 -2.03242
  1490 109.048 4.88138 -7.09730
  1491 33.5088 -3.14905 -0.924953
  1492 33.4645 -3.14245 0.950466
  1493 86.4172 4.50456 8.09799
  1494 86.4164 4.50408 -8.09590
  1495 85.3179 4.86417 -1.87633
  1496 85.3215 4.86411 1.87549
  1497 144.542 -2.20488 -7.76423
  1498 144.548 -2.20736 7.75482
  1499 88.1706 0.260353 2.05662
  1500 88.1669 0.260295 -2.05591
  1501 109.993 -0.915681 -8.09488
  1502 109.981 -0.897645 8.10762
  1503 80.7073 5.39020 4.88955
  1504 80.7023 5.38877 -4.89164
  1505 99.2492 0.495572 3.35315
  1506 99.2492 0.493928 -3.35454
  1507 118.685 -4.64421 16.5894
  1508 118.670 -4.63872 -16.5931
  1509 132.986 -6.22235 -10.5605
  1510 133.005 -6.22692 10.5517
  1511 116.887 -12.6745 2.38510
  1512 116.992 -12.5602 -2.23569
  1513 102.738 1.22936 5.89593
  1514 100.718 -0.526706 3.76042
  1515 100.719 -0.529614 -3.76183
  1516 132.084 12.4032 -9.01999
  1517 94.8506 -2.84780 -8.89529
  1518 94.8542 -2.84192 8.88990
  1519 102.097 -19.6432 22.2934
  1520 113.683 13.0471 -1.72783
  1521 102.233 -6.41647 -7.70391
  1522 102.231 -6.40521 7.70063
  1523 125.882 -13.8246 2.99803
  1524 66.9992 -1.41034 -20.7711
  1525 67.0140 -1.42106 20.7768
  1526 84.7998 4.51840 5.37081
  1527 84.8004 4.51768 -5.36920
  1528 109.667 -0.0704968 -1.14284
  1529 109.666 -0.0699994 1.14311
  1530 82.1116 6.35814 4.36534
  1531 82.1139 6.35733 -4.36418
  1532 145.930 -13.4774 3.54237
  1533 145.903 -13.3984 -3.58176
  1534 116.150 0.158941 -3.50705
  1535 116.160 0.158891 3.50724
  1536 123.619 3.39449 9.79738
  1537 123.209 0.685176 10.8503
  1538 102.946 -18.6748 -17.0896
  1539 102.915 -18.6255 17.1569
  1540 95.7416 0.511290 3.99004
  1541 95.7358 0.511244 -3.98908
  1542 90.0301 3.18688 8.51881
  1543 90.0276 3.18667 -8.51679
  1544 122.267 0.794134 -10.7616
  1545 107.055 7.26553 2.61869
  1546 154.981 -9.50259 -1.23670
  1547 155.563 -8.83914 1.92966
  1548 115.091 1.62230 9.56686
  1549 100.786 -0.0324279 -3.55369
  1550 100.749 -0.0354622 3.51324
  1551 76.6066 7.33898 -2.92337
  1552 76.6120 7.33971 2.92139
  1553 112.619 7.79682 7.09145
  1554 86.0047 3.68465 -5.80035
  1555 86.0051 3.68525 5.80209
  1556 106.865 1.83490 -5.57239
  1557 91.9046 0.0699430 -1.42029
  1558 91.9101 0.0699437 1.42072
  1559 55.8824 -16.7710 27.0293
  1560 56.1710 -16.6155 -26.9679
  1561 101.906 -16.1698 -18.6497
  1562 72.9204 -18.3145 -21.5884
  1563 72.9566 -18.3047 21.5599
  1564 110.569 -0.579934 -0.603071
  1565 110.568 -0.578827 0.604877
  1566 85.8622 4.44023 19.4434
  1567 85.8557 4.44506 -19.4403
  1568 125.726 15.1611 -8.15764
  1569 36.5535 -5.25013 -10.1510
  1570 36.5471 -5.26307 10.1809
  1571 108.969 4.79525 7.22101
  1572 105.220 2.24304 16.3317
  1573 105.212 2.24582 -16.3319
  1574 111.281 -0.261284 0.732182
  1575 111.283 -0.261856 -0.731248
  1576 95.4040 3.85999 13.6390
  1577 95.3993 3.86097 -13.6371
  1578 55.8485 -8.17289 -20.3628
  1579 55.8733 -8.18805 20.3694
  1580 158.188 -4.02669 16.0747
  1581 158.165 -4.09581 -16.0353
  1582 121.460 2.21842 24.4027
  1583 83.0704 5.92469 0.0608758
  1584 83.0740 5.92425 -0.0610408
  1585 109.112 4.15650 30.1688
  1586 121.024 -10.6134 -13.8861
  1587 121.053 -10.6206 13.8877
  1588 114.047 -1.80849 -17.6995
  1589 114.059 -1.81337 17.6961
  1590 106.846 0.161849 2.55731
  1591 106.837 0.161847 -2.55692
  1592 89.2529 3.59856 -2.38317
  1593 89.2557 3.59854 2.38204
  1594 57.0962 2.30291 -16.9979
  1595 57.1000 2.29376 17.0106
  1596 63.5563 -0.432595 17.6995
  1597 63.5502 -0.428108 -17.7150
  1598 59.7545 5.10442 -10.6067
  1599 59.7708 5.09971 10.5950
  1600 80.4786 7.29314 5.96004
  1601 80.4811 7.29232 -5.95857
  1602 106.151 2.66763 -0.835653
  1603 83.0857 5.93806 2.58652
  1604 83.0883 5.93727 -2.58580
  1605 92.8186 2.31072 3.24916
  1606 92.8166 2.31013 -3.25078
  1607 92.6604 1.49164 6.12069
  1608 92.6562 1.49150 -6.11915
  1609 100.952 -21.6579 -15.9300
  1610 101.377 -21.5572 16.1406
  1611 111.110 -7.77225 -0.969570
  1612 111.097 -7.76631 0.978155
  1613 106.538 -8.33571 -6.10605
  1614 106.531 -8.34827 6.09457
  1615 111.325 -4.88172 -2.34869
  1616 111.329 -4.88443 2.35420
  1617 113.205 1.35418 -23.3648
  1618 110.664 -2.95871 -2.06275
  1619 110.666 -2.96156 2.06806
  1620 115.933 10.1649 -7.46525
  1621 104.679 -0.103591 6.08974
  1622 104.677 -0.104759 -6.09128
  1623 279.996 16.1504 -1.20745
  1624 108.476 -1.68752 0.985181
  1625 108.478 -1.69027 -0.982798
  1626 112.747 -0.280286 0.908492
  1627 112.751 -0.279742 -0.905947
  1628 113.573 -0.181281 0.235013
  1629 113.574 -0.181022 -0.233493
  1630 93.1302 1.58286 4.55419
  1631 93.1281 1.58135 -4.55653
  1632 94.5239 0.111902 1.56040
  1633 94.5177 0.111889 -1.55998
  1634 58.0189 8.49665 9.83688
  1635 58.0290 8.49652 -9.82805
  1636 65.2428 10.0163 6.59168
  1637 65.2520 10.0145 -6.58850
  1638 116.989 -15.7676 8.32230
  1639 124.942 0.411586 -10.7111
  1640 124.950 0.410280 10.7092
  1641 101.711 2.16733 4.91192
  1642 106.662 -1.99044 -1.93581
  1643 106.659 -1.98684 1.93725
  1644 99.1541 0.0933842 -1.82862
  1645 99.1615 0.0933801 1.82903
  1646 143.432 -11.2545 -0.00292447
  1647 143.444 -11.2208 -0.0226935
  1648 124.566 -14.0050 -2.52707
  1649 102.020 0.795757 5.95209
  1650 102.013 0.795808 -5.95107
  1651 163.285 -1.05818 3.26465
  1652 163.267 -1.05077 -3.25362
  1653 73.0915 -1.34792 -17.4181
  1654 73.0958 -1.35106 17.3997
  1655 86.0141 3.20396 5.00757
  1656 86.0138 3.20337 -5.00596
  1657 198.461 12.5518 3.10917
  1658 90.6276 0.0622515 0.964249
  1659 90.6224 0.0622386 -0.963934
  1660 104.820 -0.0408243 2.90477
  1661 104.835 -0.0464653 -2.90114
  1662 86.3419 -9.72349 21.9974
  1663 86.3312 -9.72657 -22.0032
  1664 53.6640 -17.5387 -21.3265
  1665 202.789 25.7501 -12.2230
  1666 76.2460 4.98093 -7.95825
  1667 76.2511 4.98436 7.95386
  1668 103.937 0.853028 6.94755
  1669 103.930 0.853181 -6.94656
  1670 88.8994 0.844628 3.77014
  1671 88.8962 0.844472 -3.76893
  1672 133.962 0.925692 -6.84443
  1673 87.3481 5.95053 14.8559
  1674 87.3454 5.95180 -14.8531
  1675 91.3742 0.472105 -3.18578
  1676 91.3787 0.472178 3.18671
  1677 88.7158 0.0558737 -0.892652
  1678 88.7203 0.0558980 0.892960
  1679 80.5640 -0.220868 -13.4687
  1680 80.5656 -0.210291 13.4636
  1681 153.336 4.70867 -15.8723
  1682 150.009 -0.127694 -3.74211
  1683 150.013 -0.128041 3.73971
  1684 91.7050 0.875124 4.48518
  1685 91.7008 0.875011 -4.48393
  1686 94.6865 -9.51615 16.3825
  1687 94.7090 -9.66367 -16.4638
  1688 100.905 1.93833 10.0264
  1689 100.899 1.93869 -10.0250
  1690 86.0322 3.52209 5.33271
  1691 86.0279 3.52069 -5.33489
  1692 18.9548 -51.0559 4.88248
  1693 18.9399 -51.0146 -4.95484
  1694 122.341 19.5853 2.92123
  1695 169.203 -0.445320 -0.578599
  1696 169.181 -0.444624 0.575031
  1697 137.786 0.0941354 4.71780
  1698 137.778 0.0944434 -4.71908
  1699 89.1726 0.347079 2.47677
  1700 89.1687 0.347012 -2.47595
  1701 133.526 -0.0291909 -9.76332
  1702 133.534 -0.0306290 9.75985
  1703 108.050 -14.4655 -12.6459
  1704 88.0661 1.81133 -5.03141
  1705 88.0683 1.81165 5.03297
  1706 104.095 -2.87029 3.61621
  1707 104.099 -2.87564 -3.61654
  1708 227.371 18.8209 0.961176
  1709 89.3378 3.83794 9.24781
  1710 89.3356 3.83773 -9.24567
  1711 98.5251 2.68631 0.00649091
  1712 80.0642 -8.93316 -22.2658
  1713 80.1373 -8.98041 22.2330
  1714 86.9811 2.16481 4.75612
  1715 86.9798 2.16439 -4.75456
  1716 111.326 -1.07359 1.64825
  1717 111.328 -1.07218 -1.64382
  1718 122.805 1.99003 -9.80184
  1719 96.7328 3.91178 -15.2569
  1720 96.7383 3.90999 15.2586
  1721 63.9959 9.26656 -1.36854
  1722 64.0077 9.26369 1.36585
  1723 81.7272 7.52410 12.7032
  1724 81.7272 7.52441 -12.7001
  1725 78.8990 2.93896 20.4152
  1726 78.8901 2.94577 -20.4111
  1727 108.617 -7.70359 -3.45746
  1728 108.603 -7.69305 3.45698
  1729 113.176 -6.15701 3.52895
  1730 113.174 -6.15558 -3.52320
  1731 117.239 -6.99657 -5.44904
  1732 117.250 -6.99848 5.44505
  1733 105.054 2.10212 12.0260
  1734 105.047 2.10305 -12.0251
  1735 117.407 -15.4181 -7.33243
  1736 93.3229 3.21086 10.0713
  1737 93.3192 3.21092 -10.0693
  1738 72.1060 3.76073 -11.4160
  1739 72.1108 3.76469 11.4066
  1740 108.539 -7.15933 -18.4893
  1741 108.555 -7.16288 18.4897
  1742 84.6586 5.16973 1.82821
  1743 84.6610 5.16893 -1.82765
  1744 111.349 0.710617 7.00431
  1745 111.341 0.710884 -7.00382
  1746 219.149 16.3260 -39.2620
  1747 87.7565 2.28896 -5.49126
  1748 87.7583 2.28934 5.49294
  1749 113.106 0.876879 8.86142
  1750 113.098 0.877375 -8.86118
  1751 131.500 0.181027 4.87920
  1752 131.490 0.181248 -4.87997
  1753 81.2474 3.78706 -7.77245
  1754 81.2525 3.79026 7.76949
  1755 84.8236 0.761581 -10.6420
  1756 84.8294 0.767197 10.6385
  1757 106.619 -0.665430 5.60961
  1758 106.623 -0.672703 -5.60569
  1759 94.7455 -5.42875 12.1853
  1760 94.7495 -5.44048 -12.1930
  1761 82.2234 -15.5527 26.4942
  1762 81.4178 -15.1834 -26.3493
  1763 111.102 8.14415 -6.08167
  1764 93.4843 0.298447 -2.90060
  1765 93.4897 0.298485 2.90139
  1766 92.0879 0.650510 1.04259
  1767 82.5913 5.06639 4.48523
  1768 82.5866 5.06529 -4.48704
  1769 125.924 -18.7022 -8.61420
  1770 126.138 -18.7842 8.59551
  1771 143.138 -0.726837 -8.11321
  1772 143.143 -0.728548 8.10763
  1773 103.865 -0.526765 2.71383
  1774 103.866 -0.529040 -2.71412
  1775 94.1770 0.362970 -2.27690
  1776 98.6032 -7.13347 11.0914
  1777 98.5815 -7.15721 -11.1095
  1778 152.064 11.0893 1.87856
  1779 109.920 -5.40215 -0.122512
  1780 109.913 -5.39761 0.127618
  1781 92.5312 2.52582 -8.49729
  1782 92.5348 2.52591 8.49919
  1783 87.0276 2.08088 7.46288
  1784 87.0229 2.07817 -7.46592
  1785 82.9882 5.94571 6.20248
  1786 82.9896 5.94495 -6.20081
  1787 77.5140 8.18777 2.56878
  1788 77.5184 8.18712 -2.56856
  1789 84.8651 4.42843 4.04855
  1790 84.8662 4.42763 -4.04723
  1791 143.751 26.0629 4.11464
  1792 151.258 -3.37092 15.1616
  1793 151.205 -3.38419 -15.1955
  1794 135.086 -8.02574 1.74288
  1795 84.6930 5.02707 6.90337
  1796 84.6933 5.02642 -6.90148
  1797 120.264 18.1603 -2.67783
  1798 223.114 13.9989 30.4407
  1799 95.0293 4.00292 17.1468
  1800 95.0232 4.00581 -17.1452
  1801 110.199 1.23429 6.84035
  1802 78.9756 -20.6179 29.2355
  1803 80.0302 7.18237 1.53519
  1804 80.0341 7.18186 -1.53506
  1805 108.397 8.17498 -2.96343
  1806 91.7436 0.570286 6.91673
  1807 91.7403 0.567364 -6.92023
  1808 109.057 -2.67765 -0.304884
  1809 109.054 -2.67418 0.308485
  1810 123.838 -0.188874 13.8372
  1811 123.829 -0.185871 -13.8411
  1812 80.9379 -20.6376 -28.7020
  1813 118.440 15.8186 4.32206
  1814 98.0697 0.619313 4.60776
  1815 98.0634 0.619295 -4.60676
  1816 85.8393 5.44257 9.73609
  1817 85.8386 5.44224 -9.73377
  1818 101.065 1.10831 2.44963
  1819 86.2596 5.70004 11.2112
  1820 86.2585 5.69999 -11.2086
  1821 92.6715 -12.3871 20.3510
  1822 92.2991 -12.7168 -20.8278
  1823 81.1206 7.48839 10.3050
  1824 81.1217 7.48800 -10.3025
  1825 140.371 23.9000 -5.76343
  1826 161.592 9.21348 12.2985
  1827 115.176 1.20391 12.9087
  1828 115.168 1.20555 -12.9097
  1829 150.484 -6.31898 2.71031
  1830 150.474 -6.29436 -2.71640
  1831 110.041 -0.243293 -1.06915
  1832 110.040 -0.242587 1.06982
  1833 79.2363 -2.68552 -22.3594
  1834 79.2506 -2.69273 22.3602
  1835 117.454 -15.2162 20.7030
  1836 102.965 -19.5287 25.8501
  1837 153.066 -2.25866 -4.07913
  1838 153.064 -2.25841 4.06924
  1839 127.289 -7.21438 -4.67180
  1840 135.475 0.617488 5.98886
  1841 124.541 -16.0621 -11.3494
  1842 125.368 -15.2000 11.3150
  1843 152.652 -4.38130 12.9525
  1844 152.575 -4.38426 -12.9465
  1845 112.149 -18.8446 16.6459
  1846 22.6249 -17.8646 4.41560
  1847 22.5014 -17.8104 -4.36091
  1848 108.982 -1.19060 -4.60731
  1849 108.978 -1.19001 4.61349
  1850 126.237 0.0472089 3.65717
  1851 126.227 0.0473561 -3.65740
  1852 89.1664 1.98435 5.93265
  1853 89.1639 1.98407 -5.93096
  1854 182.761 22.4702 34.0383
  1855 39.1667 -5.44542 14.5901
  1856 39.1130 -5.46037 -14.6134
  1857 84.3076 5.12118 -2.52198
  1858 84.3115 5.12141 2.52090
  1859 92.2652 2.19555 4.07593
  1860 92.2629 2.19453 -4.07797
  1861 97.8370 1.22507 -6.92225
  1862 97.8427 1.22506 6.92363
  1863 148.814 -12.9282 -0.829435
  1864 148.509 -12.9827 0.685283
  1865 39.5445 -26.7186 -14.4172
  1866 39.5719 -26.7044 14.4060
  1867 82.3857 6.32096 -1.65103
  1868 82.3825 6.32162 1.65138
  1869 108.372 0.471112 5.91626
  1870 108.364 0.471288 -5.91559
  1871 86.2515 4.06368 7.15076
  1872 86.2508 4.06317 -7.14882
  1873 76.3027 6.79556 16.9125
  1874 76.3005 6.79909 -16.9071
  1875 63.1897 -23.4531 18.9366
  1876 63.1051 -23.4837 -18.9508
  1877 78.9780 7.62673 14.9969
  1878 78.9774 7.62831 -14.9927
  1879 109.853 -1.85703 -6.89609
  1880 109.853 -1.84763 6.90447
  1881 111.708 -3.64277 -5.71471
  1882 111.713 -3.64383 5.72115
  1883 116.502 5.31747 9.46701
  1884 127.379 -7.07309 4.49589
  1885 108.933 -0.949847 -1.01932
  1886 108.931 -0.947973 1.02105
  1887 68.0708 9.59677 1.26315
  1888 68.0795 9.59513 -1.26413
  1889 38.7617 -26.7261 -5.27750
  1890 38.7852 -26.6946 5.27767
  1891 99.4835 2.11863 -3.28863
  1892 112.692 1.28631 14.8590
  1893 112.684 1.28859 -14.8602
  1894 104.839 -0.102009 -2.26852
  1895 104.837 -0.100626 2.26832
  1896 103.074 -1.56436 3.41365
  1897 103.077 -1.56824 -3.41426
  1898 94.9081 1.27504 -6.25957
  1899 94.9130 1.27512 6.26100
  1900 107.132 -0.264053 2.69288
  1901 107.145 -0.264678 -2.68859
  1902 87.1295 3.42822 6.88257
  1903 87.1283 3.42776 -6.88067
  1904 149.131 -0.685851 -6.95028
  1905 149.162 -0.681845 7.01832
  1906 101.745 1.73067 18.5971
  1907 101.736 1.73506 -18.5974
  1908 143.849 0.0837077 16.6951
  1909 130.107 6.05244 -8.93171
  1910 90.3298 0.232711 -2.15438
  1911 90.3344 0.232742 2.15505
  1912 90.4258 0.615663 -0.539182
  1913 71.7544 8.58647 -1.25620
  1914 71.7614 8.58615 1.25408
  1915 147.374 18.1776 -35.9161
  1916 78.9699 7.99836 6.95506
  1917 78.9726 7.99755 -6.95340
  1918 28.1360 -14.8116 13.2768
  1919 28.0283 -14.8313 -13.3525
  1920 271.266 12.5795 -25.7597
  1921 118.146 -18.7667 -13.9309
  1922 91.7914 0.209393 -2.24215
  1923 91.7964 0.209426 2.24281
  1924 185.950 5.37581 -4.07078
  1925 113.258 -0.0353699 -0.383282
  1926 113.256 -0.0352804 0.383518
  1927 60.8227 -13.8609 12.9102
  1928 64.6930 -12.9120 -14.4221
  1929 64.6852 -6.36413 -22.9274
  1930 64.6543 -6.34195 22.9087
  1931 102.386 0.0640372 2.78056
  1932 102.386 0.0624575 -2.78131
  1933 111.354 0.167475 -2.63045
  1934 111.363 0.167446 2.63075
  1935 117.146 4.30603 -9.65325
  1936 88.0370 2.88714 5.34688
  1937 88.0331 2.88572 -5.34924
  1938 110.274 -2.19471 -0.886224
  1939 110.276 -2.19726 0.890613
  1940 96.7402 0.663890 4.14595
  1941 96.7396 0.661929 -4.14804
  1942 87.3627 1.68006 4.40125
  1943 87.3609 1.67973 -4.39979
  1944 85.4504 4.18713 6.00292
  1945 85.4504 4.18647 -6.00116
  1946 165.361 -0.830976 -1.68123
  1947 165.382 -0.835616 1.68415
  1948 130.539 20.2975 6.25354
  1949 92.4464 0.188482 1.71123
  1950 124.291 0.349394 9.29367
  1951 124.283 0.350196 -9.29494
  1952 74.4288 -11.3876 22.5891
  1953 74.4078 -11.3832 -22.5993
  1954 107.419 -6.32772 3.32683
  1955 107.429 -6.33492 -3.32517
  1956 110.246 -1.28643 0.0169190
  1957 110.247 -1.28835 -0.0138484
  1958 75.6438 -10.3925 24.3515
  1959 75.4630 -10.4104 -24.3209
  1960 98.8478 1.32084 19.7638
  1961 98.8375 1.32597 -19.7642
  1962 128.177 -11.8508 10.0106
  1963 128.135 -11.8464 -10.0162
  1964 94.5313 1.79197 3.36148
  1965 94.5298 1.79113 -3.36314
  1966 219.429 22.6978 8.73760
  1967 89.9429 1.11446 -4.61333
  1968 89.9463 1.11463 4.61469
  1969 121.506 -10.6235 2.01734
  1970 121.367 -10.7417 -1.84039
  1971 78.6653 -4.80657 19.3484
  1972 78.6775 -4.80476 -19.3892
  1973 185.241 7.97825 -8.30420
  1974 113.700 -0.0521781 0.244028
  1975 113.701 -0.0523512 -0.243409
  1976 138.081 -4.74471 -11.4525
  1977 89.3399 2.86749 7.41237
  1978 89.3376 2.86717 -7.41045
  1979 122.938 11.7579 8.87301
  1980 90.3212 1.90035 5.64954
  1981 90.3179 1.89854 -5.65229
  1982 162.869 11.2178 -9.08029
  1983 122.743 0.248467 7.88697
  1984 141.002 -8.05776 4.45881
  1985 140.984 -8.06507 -4.47514
  1986 87.6458 4.65798 -31.3707
  1987 124.391 18.5553 -5.84802
  1988 110.321 9.41126 3.42076
  1989 102.357 3.95335 2.74333
  1990 14.5260 -58.1051 5.15298
  1991 14.5995 -58.0882 -5.27624
  1992 116.527 14.5679 -3.89257
  1993 69.7486 10.0091 8.00046
  1994 69.7550 10.0079 -7.99761
  1995 122.102 0.0902130 -7.72093
  1996 110.791 -12.2976 -7.40985
  1997 111.039 -12.2608 6.95094
  1998 125.032 -15.6194 10.1295
  1999 124.961 -15.6132 -10.1296
  2000 88.0271 -17.3819 14.7618
  2001 91.7033 -18.8978 -15.2412
  2002 70.3587 7.67042 -5.01944
  2003 70.3663 7.67074 5.01473
  2004 38.5745 -23.2161 22.8573
  2005 39.0312 -22.8137 -23.7190
  2006 80.7764 7.05783 4.54745
  2007 80.7791 7.05704 -4.54634
  2008 102.202 0.0671057 1.79101
  2009 102.194 0.0671221 -1.79066
  2010 145.343 2.43745 -2.11463
  2011 96.3576 1.77381 -8.10670
  2012 96.3627 1.77376 8.10831
  2013 83.7870 5.28596 4.38905
  2014 83.7885 5.28515 -4.38774
  2015 155.832 -1.59046 -17.4671
  2016 142.705 13.5124 6.14770
  2017 99.2246 -10.4253 -14.2521
  2018 99.2465 -10.1727 14.1152
  2019 164.136 1.63314 -15.8053
  2020 110.583 0.562474 -6.95222
  2021 156.655 -8.38847 -10.7957
  2022 156.649 -8.38188 10.8425
  2023 84.2802 5.46882 0.383637
  2024 84.2833 5.46824 -0.383625
  2025 87.1239 2.52578 5.33367
  2026 87.1226 2.52533 -5.33201
  2027 181.596 6.33988 10.1153
  2028 106.791 2.09857 13.6302
  2029 106.783 2.10008 -13.6298
  2030 141.769 0.811949 -16.2610
  2031 88.0326 0.581318 3.01213
  2032 88.0296 0.581199 -3.01109
  2033 99.9315 -1.92895 5.14462
  2034 99.9333 -1.93377 -5.14724
  2035 80.2294 -3.76341 27.8105
  2036 163.577 -0.423334 -2.44494
  2037 163.568 -0.423629 2.44047
  2038 95.3938 -0.700548 6.40106
  2039 95.3926 -0.704301 -6.40484
  2040 87.7370 0.125195 1.43985
  2041 87.7331 0.125164 -1.43934
  2042 110.598 -0.875936 -2.60548
  2043 110.594 -0.877233 2.61073
  2044 37.6328 -28.5389 14.5217
  2045 165.775 13.5850 -2.00004
  2046 141.135 -5.96940 -6.85500
  2047 141.148 -5.96964 6.84229
  2048 99.7396 -2.38959 -20.7433
  2049 99.7525 -2.39486 20.7421
  2050 112.380 -0.256563 1.00633
  2051 112.386 -0.256123 -1.00375
  2052 98.3077 1.36044 3.47746
  2053 298.171 9.71267 6.06048
  2054 181.899 14.8227 -6.99113
  2055 107.561 -0.435928 -7.35101
  2056 107.584 -0.432963 7.35572
  2057 136.964 3.66449 12.8157
  2058 99.2643 -4.97639 8.40930
  2059 99.2661 -4.98485 -8.41534
  2060 84.6317 4.88212 2.96368
  2061 84.6335 4.88128 -2.96272
  2062 164.488 1.55978 15.8695
  2063 83.6003 5.89008 7.71096
  2064 83.6010 5.88944 -7.70897
  2065 113.861 -3.93618 -7.09726
  2066 113.870 -3.93577 7.10363
  2067 93.9648 -17.2621 -24.4797
  2068 34.5553 -31.8781 -13.6598
  2069 105.981 -5.08758 -3.71872
  2070 105.973 -5.08025 3.71941
  2071 107.726 -3.48009 -1.45700
  2072 107.721 -3.47542 1.45982
  2073 108.248 -0.0939973 -1.48506
  2074 108.247 -0.0932727 1.48523
  2075 151.103 12.1207 -0.815097
  2076 88.7215 3.48740 -3.38401
  2077 88.7247 3.48782 3.38244
  2078 78.3749 7.15279 1.44170
  2079 78.3700 7.15256 -1.44281
  2080 101.356 -9.33094 11.4716
  2081 101.538 -9.36966 -11.4400
  2082 82.4787 -4.05591 17.0527
  2083 82.4996 -4.08621 -17.0624
  2084 156.088 -1.60955 17.2963
  2085 75.9528 8.40319 1.11689
  2086 75.9580 8.40274 -1.11736
  2087 71.3672 -23.8009 -18.5951
  2088 71.5822 -23.7199 18.5132
  2089 104.477 -13.9865 -18.6748
  2090 104.485 -13.9779 18.6901
  2091 74.5102 9.12260 -3.98598
  2092 74.5050 9.12353 3.98648
  2093 26.8963 -21.1700 -8.12290
  2094 26.9209 -21.2214 8.14816
  2095 130.140 5.99780 5.12490
  2096 135.158 -0.106640 -9.27130
  2097 105.619 0.0775635 1.74810
  2098 105.610 0.0775678 -1.74781
  2099 108.886 -0.419913 -1.30752
  2100 108.885 -0.418721 1.30838
  2101 104.308 -1.44962 2.86684
  2102 104.311 -1.45310 -2.86679
  2103 108.974 -0.633698 18.5932
  2104 108.962 -0.628753 -18.5956
  2105 215.086 15.4557 1.35782
  2106 37.4952 0.660530 -3.05990
  2107 37.5405 0.650771 3.06881
  2108 111.796 -0.435132 -0.284049
  2109 111.795 -0.434394 0.285863
  2110 95.5708 1.61380 -0.965020
  2111 95.7609 0.0520935 -1.23684
  2112 95.7675 0.0521094 1.23717
  2113 86.4198 4.60393 -0.122928
  2114 86.4226 4.60332 0.122797
  2115 125.318 4.37358 -7.47158
  2116 55.9963 8.66161 5.93447
  2117 56.0110 8.65902 -5.92745
  2118 151.894 -7.39362 8.12024
  2119 151.854 -7.34518 -8.10911
  2120 113.344 10.6968 5.41723
  2121 102.225 -2.74565 4.53455
  2122 102.228 -2.75125 -4.53619
  2123 112.223 -0.516937 0.454490
  2124 112.224 -0.516130 -0.451894
  2125 113.796 -0.137387 0.450920
  2126 113.799 -0.137224 -0.449371
  2127 92.3925 3.81203 18.7507
  2128 92.3852 3.81632 -18.7490
  2129 12.3384 -51.6026 -5.19893
  2130 12.4258 -50.7300 5.28434
  2131 58.5518 9.56198 -2.96732
  2132 58.5367 9.56604 2.96981
  2133 107.237 -0.398829 -1.75349
  2134 107.235 -0.397414 1.75397
  2135 88.7632 5.43983 12.9398
  2136 88.7608 5.44036 -12.9372
  2137 116.722 7.93045 8.77539
  2138 150.728 2.96955 16.8657
  2139 86.0596 2.81333 20.2956
  2140 86.0506 2.81940 -20.2930
  2141 89.1680 0.580527 3.20114
  2142 89.1644 0.580419 -3.20011
  2143 122.199 0.325870 7.32566
  2144 122.190 0.326339 -7.32615
  2145 90.1116 5.09817 13.9173
  2146 90.1085 5.09912 -13.9148
  2147 132.184 0.161802 -7.79290
  2148 132.192 0.161043 7.79099
  2149 113.030 -18.2775 -14.7558
  2150 179.880 15.8756 4.75713
  2151 97.9610 -15.4384 20.4773
  2152 101.171 1.96539 -4.86127
  2153 98.7135 2.92883 -12.4203
  2154 98.7190 2.92804 12.4219
  2155 62.7012 6.52941 -8.19601
  2156 62.7144 6.52649 8.18700
  2157 94.1114 3.64703 12.1515
  2158 94.1074 3.64752 -12.1494
  2159 132.991 11.0209 8.62639
  2160 164.945 6.84743 -14.5339
  2161 50.3222 5.52449 9.56851
  2162 50.3343 5.52582 -9.55392
  2163 71.1733 -17.3511 28.8495
  2164 74.9544 -17.3911 -28.5663
  2165 112.680 -9.87730 -24.3308
  2166 94.3491 1.90085 7.66589
  2167 94.3447 1.90078 -7.66421
  2168 123.113 0.176455 -3.18029
  2169 123.124 0.176354 3.18025
  2170 91.0092 0.358524 -1.35913
  2171 107.983 -0.993190 -5.32541
  2172 107.979 -0.989279 5.33062
  2173 72.6648 9.59005 7.92061
  2174 72.6699 9.58905 -7.91830
  2175 109.883 -4.20876 -0.549080
  2176 109.887 -4.21254 0.553897
  2177 116.839 0.460526 -6.83612
  2178 116.847 0.460219 6.83617
  2179 85.9079 5.06364 -8.65487
  2180 85.9085 5.06412 8.65704
  2181 58.4759 -1.63739 18.6222
  2182 58.4684 -1.64246 -18.6413
  2183 172.929 -0.201865 -8.00629
  2184 76.4735 8.69005 -4.76503
  2185 76.4693 8.69092 4.76591
  2186 105.531 6.54404 -0.0256435
  2187 228.887 19.5806 -1.20362
  2188 164.657 31.2040 1.04706
  2189 102.491 -0.595569 3.15092
  2190 102.492 -0.598190 -3.15166
  2191 126.667 -13.8452 -4.46277
  2192 192.938 15.9338 5.27460
  2193 172.822 -0.227308 8.39369
  2194 139.392 16.9343 -7.67475
  2195 110.791 -0.00534030 -0.890316
  2196 110.789 -0.00508853 0.890480
  2197 117.012 -9.00287 -2.83244
  2198 117.007 -9.00555 2.84719
  2199 91.3357 4.46623 12.1954
  2200 91.3325 4.46661 -12.1931
  2201 115.138 -8.77168 -1.53966
  2202 115.142 -8.77082 1.54992
  2203 96.0449 -20.4765 -26.7351
  2204 91.1499 1.22034 5.09786
  2205 91.1461 1.22017 -5.09645
  2206 117.246 -3.61758 -8.08259
  2207 117.241 -3.60292 8.12385
  2208 136.376 -0.0354173 8.39927
  2209 86.4080 4.28493 3.10931
  2210 86.4043 4.28460 -3.11066
  2211 89.7570 5.12724 17.0285
  2212 89.7523 5.12987 -17.0259
  2213 121.629 -1.01131 -15.3889
  2214 121.640 -1.01540 15.3844
  2215 97.1467 -10.1492 21.1936
  2216 97.1393 -10.1527 -21.1917
  2217 79.9688 7.04892 0.0373015
  2218 79.9646 7.04917 -0.0377148
  2219 89.1288 0.157605 1.88955
  2220 89.1246 0.157581 -1.88892
  2221 118.743 -1.84317 -8.96216
  2222 118.456 -1.89458 9.00188
  2223 143.021 0.126259 -3.19474
  2224 143.028 0.126044 3.19367
  2225 106.691 -1.00593 -1.90955
  2226 106.689 -1.00357 1.91045
  2227 177.754 31.3155 1.91168
  2228 127.458 0.352661 7.04051
  2229 127.450 0.353142 -7.04151
  2230 82.8309 5.85852 18.0344
  2231 82.8264 5.86237 -18.0305
  2232 149.644 -1.04492 -6.38115
  2233 149.646 -1.04664 6.37383
  2234 125.372 -4.49375 -14.1893
  2235 125.388 -4.49903 14.1838
  2236 91.2119 -17.5004 -19.6645
  2237 91.1727 -17.4817 19.6530
  2238 53.4736 -10.3093 24.5726
  2239 53.4439 -10.2690 -24.5835
  2240 111.385 -3.92425 -3.73898
  2241 111.388 -3.92677 3.74446
  2242 143.207 -1.04223 14.1886
  2243 92.0096 0.555563 -2.66413
  2244 90.5187 0.571090 3.33180
  2245 90.5145 0.570996 -3.33079
  2246 196.608 8.03319 6.17889
  2247 114.261 0.0270021 2.63178
  2248 114.252 0.0270626 -2.63157
  2249 110.594 -2.21900 -4.01332
  2250 110.594 -2.22095 4.01958
  2251 106.441 -2.60536 2.09816
  2252 106.445 -2.60974 -2.09662
  2253 134.107 -0.163442 -10.5175
  2254 134.114 -0.165441 10.5131
  2255 87.1860 -5.28293 22.3410
  2256 87.1721 -5.27882 -22.3429
  2257 49.4856 0.191441 14.8074
  2258 49.4830 0.201710 -14.7902
  2259 271.715 12.5197 19.4533
  2260 124.467 5.56444 -1.09029
  2261 86.6316 3.06618 -5.63687
  2262 86.6324 3.06669 5.63859
  2263 197.411 18.0574 -2.56967
  2264 84.4177 5.32805 -0.909285
  2265 84.4211 5.32774 0.908806
  2266 109.129 -13.2002 10.2245
  2267 157.233 -3.02189 5.33708
  2268 157.211 -3.00320 -5.32222
  2269 143.343 -1.01265 -14.5840
  2270 113.564 0.969107 -15.5085
  2271 113.573 0.966353 15.5068
  2272 121.410 -7.04358 -5.82301
  2273 121.313 -7.26934 5.63584
  2274 91.4340 1.95534 6.78393
  2275 91.4306 1.95514 -6.78221
  2276 137.140 -1.90260 -10.6805
  2277 137.148 -1.90587 10.6730
  2278 149.614 6.80377 8.95116
  2279 162.647 22.9019 1.52000
  2280 73.7983 6.44508 6.41615
  2281 73.7923 6.44306 -6.42065
  2282 138.533 -0.947737 -2.04707
  2283 97.1107 0.0450800 -2.30450
  2284 99.8289 -20.2003 -24.5182
  2285 150.274 23.1420 3.65591
  2286 106.437 0.548346 5.54327
  2287 106.429 0.548439 -5.54253
  2288 159.351 -1.08713 -4.81867
  2289 159.349 -1.10137 4.84741
  2290 111.192 -1.86478 7.86144
  2291 111.185 -1.88016 -7.85098
  2292 101.840 0.00486892 -2.20216
  2293 101.816 0.0127380 2.19004
  2294 98.7860 1.62950 8.54010
  2295 98.7803 1.62965 -8.53862
  2296 55.0778 7.32187 -4.56267
  2297 55.0992 7.31471 4.55897
  2298 110.848 -3.54549 -2.51613
  2299 110.851 -3.54830 2.52155
  2300 77.4774 8.64759 10.4950
  2301 77.4797 8.64722 -10.4922
  2302 45.7848 5.03605 4.65216
  2303 45.8071 5.03373 -4.63841
  2304 89.8395 0.0639088 0.770093
  2305 89.8345 0.0638959 -0.769839
  2306 114.146 -17.6182 12.8597
  2307 111.260 0.876191 17.1596
  2308 111.251 0.879818 -17.1615
  2309 122.964 3.80841 9.05186
  2310 79.9024 7.45678 4.85154
  2311 79.9054 7.45599 -4.85041
  2312 101.182 0.264187 3.63396
  2313 101.175 0.264198 -3.63324
  2314 95.6354 -0.147758 5.57137
  2315 95.6344 -0.150838 -5.57450
  2316 112.204 -6.03169 2.34516
  2317 112.200 -6.02950 -2.33907
  2318 93.4226 0.981258 5.21247
  2319 93.4179 0.981152 -5.21116
  2320 106.327 4.40734 -5.86586
  2321 105.008 1.54550 -6.80893
  2322 134.633 4.93744 -11.1747
  2323 100.169 0.458371 3.08352
  2324 100.170 0.456871 -3.08469
  2325 152.818 9.35550 9.58065
  2326 78.4750 8.34693 9.34186
  2327 78.4774 8.34632 -9.33947
  2328 129.017 15.0402 8.61044
  2329 101.251 -1.17007 4.00352
  2330 101.253 -1.17379 -4.00497
  2331 99.7365 -0.00429525 3.64850
  2332 99.7370 -0.00659493 -3.65002
  2333 83.4593 6.75384 -10.8352
  2334 83.4593 6.75408 10.8378
  2335 90.3991 5.13967 15.8377
  2336 90.3950 5.14149 -15.8351
  2337 66.9062 1.47838 -19.5652
  2338 66.9154 1.46922 19.5730
  2339 168.832 7.73766 13.5569
  2340 183.885 22.2311 -37.8758
  2341 146.967 -3.32114 13.8897
  2342 125.422 1.49930 -11.5756
  2343 83.4947 2.29045 -9.07206
  2344 83.5001 2.29465 9.06895
  2345 114.223 -0.113913 -0.0738957
  2346 114.223 -0.113766 0.0746166
  2347 103.136 1.16192 -5.38587
  2348 97.7999 0.0868659 1.20743
  2349 97.7927 0.0868579 -1.20714
  2350 89.4109 0.852634 7.80099
  2351 89.4065 0.849443 -7.80450
  2352 114.999 1.00327 -11.6433
  2353 115.007 1.00211 11.6429
  2354 116.664 0.812103 -9.59036
  2355 110.089 -1.96328 -4.84932
  2356 110.089 -1.96401 4.85603
  2357 87.8110 1.08697 -3.78368
  2358 87.8135 1.08719 3.78496
  2359 255.653 14.7320 36.2061
  2360 83.8620 5.36867 3.32302
  2361 83.8640 5.36784 -3.32201
  2362 109.287 -1.69489 -0.464647
  2363 109.285 -1.69237 0.467600
  2364 67.6895 5.87210 9.28418
  2365 67.6809 5.87175 -9.29329
  2366 95.3190 2.79677 10.2478
  2367 95.3145 2.79696 -10.2459
  2368 183.601 13.8637 40.1042
  2369 26.6269 -25.4057 16.9338
  2370 26.6943 -25.5970 -16.8511
  2371 105.591 1.52853 9.72967
  2372 105.584 1.52898 -9.72872
  2373 85.3002 3.98465 -4.32656
  2374 85.2996 3.98540 4.32800
  2375 108.387 -5.45095 -1.72964
  2376 108.380 -5.44500 1.73316
  2377 73.5926 8.99858 1.60383
  2378 73.5985 8.99785 -1.60438
  2379 103.144 1.38162 -8.55992
  2380 103.151 1.38137 8.56107
  2381 163.568 14.7439 -38.8274
  2382 124.746 -11.6578 -0.581743
  2383 124.902 -10.7394 1.52344
  2384 110.093 0.741545 6.81350
  2385 150.469 -1.92383 -5.54113
  2386 150.470 -1.92512 5.53150
  2387 118.394 -10.7891 0.741005
  2388 118.368 -10.7596 -0.763377
  2389 98.9769 -3.09584 -6.71001
  2390 98.9753 -3.08956 6.70574
  2391 124.204 -7.21838 21.5777
  2392 125.436 -4.31902 -7.17640
  2393 84.2388 5.03758 5.53112
  2394 84.2397 5.03683 -5.52951
  2395 137.479 -4.28013 -9.75687
  2396 137.491 -4.28383 9.74699
  2397 105.050 2.46971 -15.4332
  2398 105.057 2.46747 15.4335
  2399 91.4967 2.52611 7.82498
  2400 91.4934 2.52592 -7.82311
  2401 143.159 -0.0419802 -6.56479
  2402 122.958 10.9080 -9.19185
  2403 109.581 1.23755 -8.41224
  2404 16.9707 -54.0018 -6.75806
  2405 17.6119 -52.0077 7.54839
  2406 111.458 4.04598 -8.34000
  2407 166.626 -0.327238 -1.72827
  2408 166.613 -0.327341 1.72398
  2409 93.9298 -0.703947 -7.31738
  2410 93.9323 -0.700079 7.31317
  2411 134.797 -0.907440 10.9829
  2412 134.790 -0.904742 -10.9885
  2413 91.2261 2.93994 2.75908
  2414 91.2237 2.93975 -2.76042
  2415 90.1235 1.78748 -5.88285
  2416 90.1266 1.78773 5.88446
  2417 85.7375 3.44618 4.73209
  2418 85.7375 3.44552 -4.73054
  2419 153.897 10.6160 -6.15674
  2420 96.5846 1.72491 1.20844
  2421 131.346 25.2675 -0.710706
  2422 83.8437 5.56106 6.97713
  2423 83.8444 5.56038 -6.97528
  2424 235.511 16.4494 -7.69745
  2425 170.013 -0.509898 0.00283457
  2426 169.988 -0.508473 -0.00511175
  2427 128.220 4.72237 9.46166
  2428 157.711 -0.337205 -3.33763
  2429 157.709 -0.337615 3.33427
  2430 122.085 0.545854 -12.9874
  2431 122.094 0.543737 12.9849
  2432 48.1997 -1.67658 -16.4344
  2433 48.2286 -1.68173 16.4103
  2434 94.6859 0.475361 -3.69759
  2435 94.6915 0.475404 3.69853
  2436 132.147 0.667257 -13.3298
  2437 76.5858 8.92010 7.60272
  2438 76.5893 8.91920 -7.60085
  2439 155.752 -2.54371 -8.26656
  2440 155.745 -2.54623 8.31786
  2441 162.748 32.5634 -0.445425
  2442 109.154 0.153316 -2.06969
  2443 109.163 0.153311 2.06997
  2444 210.940 19.7498 0.495380
  2445 86.6088 2.41881 4.70305
  2446 86.6079 2.41834 -4.70149
  2447 110.077 -0.182770 -1.53777
  2448 110.065 -0.183079 1.54119
  2449 88.3853 2.98661 6.94741
  2450 88.3834 2.98623 -6.94553
  2451 105.168 1.53919 6.93256
  2452 93.4355 0.0121953 -0.781620
  2453 93.4416 0.0121999 0.781843
  2454 97.8741 -0.0584457 4.46780
  2455 97.8742 -0.0611669 -4.47004
  2456 125.154 -4.14723 7.28386
  2457 100.825 0.0528585 -1.34504
  2458 100.833 0.0528519 1.34533
  2459 89.2142 0.431774 0.0741169
  2460 134.728 0.632425 14.1557
  2461 105.254 0.276969 -6.75447
  2462 105.323 0.295627 6.79727
  2463 111.860 -6.94344 -0.729952
  2464 111.867 -6.94635 0.737508
  2465 89.6541 -0.198720 9.12743
  2466 89.6492 -0.203193 -9.13139
  2467 65.4761 9.91188 1.52892
  2468 65.4864 9.90936 -1.52954
  2469 87.8804 0.392207 -2.44902
  2470 87.8838 0.392298 2.44987
  2471 70.3770 5.92109 17.6706
  2472 70.3740 5.92630 -17.6630
  2473 171.507 3.80282 -14.8465
  2474 110.459 10.1254 -2.08271
  2475 142.527 -13.2749 -0.999442
  2476 142.506 -13.3287 0.954850
  2477 84.8031 4.90421 2.33269
  2478 84.8052 4.90338 -2.33194
  2479 109.644 1.18537 8.47186
  2480 234.000 21.2794 -6.84178
  2481 83.4851 6.90462 13.8438
  2482 83.4841 6.90545 -13.8406
  2483 104.664 5.04272 -3.86746
  2484 92.5615 2.34002 23.9687
  2485 106.091 -1.56010 19.4262
  2486 106.079 -1.55491 -19.4284
  2487 176.976 5.54634 14.2378
  2488 81.6732 6.72228 -24.4201
  2489 112.336 2.13557 9.00505
  2490 115.185 -5.79696 5.85934
  2491 115.190 -5.79400 -5.85550
  2492 106.887 5.06614 5.67650
  2493 147.755 -8.34879 2.48522
  2494 147.748 -8.31649 -2.49881
  2495 128.937 -16.4058 -7.24287
  2496 129.051 -16.4102 7.23115
  2497 116.310 -3.49821 -17.1721
  2498 116.324 -3.50334 17.1684
  2499 81.8162 6.39719 0.245909
  2500 81.8123 6.39746 -0.246257
  2501 49.7928 7.07280 1.90494
  2502 49.8155 7.06750 -1.89793
  2503 102.271 0.989748 -6.84405
  2504 102.278 0.989640 6.84514
  2505 119.990 -18.1683 13.4383
  2506 298.970 8.51327 -18.5158
  2507 93.3386 -0.509172 21.0828
  2508 93.3266 -0.503211 -21.0829
  2509 179.035 9.67851 -10.9909
  2510 110.556 -0.825797 -0.341439
  2511 110.555 -0.824380 0.343759
  2512 129.027 -2.64270 -13.2885
  2513 129.038 -2.64720 13.2821
  2514 77.3010 8.49826 12.9450
  2515 77.3024 8.49872 -12.9411
  2516 94.7798 -17.2014 23.8506
  2517 110.448 0.920561 8.64505
  2518 110.440 0.921015 -8.64456
  2519 100.602 -6.62773 -9.11902
  2520 100.595 -6.61594 9.11196
  2521 236.243 16.9120 5.78842
  2522 63.9534 5.88578 16.0806
  2523 63.9535 5.89065 -16.0709
  2524 103.926 -15.1335 16.6710
  2525 88.1086 0.0193625 0.588146
  2526 88.1042 0.0193593 -0.587938
  2527 147.436 -0.608895 -17.0411
  2528 86.6093 3.45467 -6.23947
  2529 86.6102 3.45520 6.24129
  2530 82.5344 6.67178 8.31252
  2531 82.5354 6.67114 -8.31043
  2532 119.117 0.0501114 2.41788
  2533 119.106 0.0501600 -2.41779
  2534 97.4964 -0.425506 5.05786
  2535 97.4964 -0.428737 -5.06058
  2536 134.148 6.52788 -5.32258
  2537 167.976 -0.367135 -1.20216
  2538 167.958 -0.366955 1.19794
  2539 114.988 -3.02668 -8.25052
  2540 115.001 -3.03649 8.25079
  2541 103.325 0.442635 4.61110
  2542 103.317 0.442657 -4.61030
  2543 88.7722 3.73819 8.65162
  2544 88.7702 3.73789 -8.64952
  2545 157.147 14.0211 -5.39461
  2546 105.678 -4.29457 3.28243
  2547 105.684 -4.30108 -3.28155
  2548 119.563 -18.0667 -16.8826
  2549 126.328 3.69886 -9.64675
  2550 124.577 -16.0660 13.5197
  2551 114.231 -10.4159 1.29300
  2552 114.231 -10.3950 -1.27420
  2553 147.333 -1.95852 -14.1134
  2554 97.8020 0.984141 3.28839
  2555 97.8015 0.982912 -3.28989
  2556 102.634 0.00387635 -4.98047
  2557 102.574 0.0771874 4.96581
  2558 45.5046 -17.6066 17.8959
  2559 45.4701 -17.5974 -17.8951
  2560 147.238 30.4259 -1.22477
  2561 113.585 -1.22416 -8.89677
  2562 113.591 -1.24115 8.86879
  2563 16.2752 -32.0632 -4.67133
  2564 16.3392 -32.0235 4.95553
  2565 88.4518 3.96429 1.61798
  2566 88.4490 3.96459 -1.61874
  2567 92.6298 0.682065 4.00748
  2568 92.6250 0.681967 -4.00638
  2569 147.465 -1.92335 13.9442
  2570 82.5223 7.00280 14.9961
  2571 82.5209 7.00427 -14.9925
  2572 128.750 -12.9259 2.92086
  2573 72.0802 9.45286 11.0882
  2574 72.0841 9.45260 -11.0842
  2575 101.631 2.71124 3.94008
  2576 95.1971 0.826381 3.66533
  2577 116.652 -14.0407 5.14475
  2578 117.332 -13.7032 -4.18975
  2579 91.4601 0.0346291 0.794059
  2580 91.4546 0.0346273 -0.793811
  2581 121.709 -14.6603 4.54637
  2582 80.4812 6.99907 2.78312
  2583 80.4845 6.99840 -2.78256
  2584 89.7406 4.12436 10.0521
  2585 89.7382 4.12426 -10.0499
  2586 152.668 8.38903 -11.8244
  2587 103.392 -4.65307 20.1109
  2588 103.378 -4.64903 -20.1121
  2589 85.2905 -0.177817 -21.6312
  2590 85.3026 -0.184649 21.6324
  2591 164.224 -0.628439 -2.96677
  2592 164.234 -0.633393 2.98072
  2593 122.506 20.4737 0.142137
  2594 89.1549 4.69601 11.0589
  2595 89.1527 4.69603 -11.0566
  2596 107.408 -4.29544 2.05865
  2597 107.414 -4.30102 -2.05609
  2598 98.2748 -1.91369 6.13202
  2599 98.2757 -1.91862 -6.13571
  2600 251.149 18.1099 1.75634
  2601 42.7121 -5.63110 14.4325
  2602 42.7035 -5.61417 -14.4113
  2603 104.958 -0.415323 -2.37329
  2604 104.957 -0.413429 2.37327
  2605 97.1204 0.00378394 2.28573
  2606 253.394 14.2488 -37.6227
  2607 114.173 -7.34761 -2.91711
  2608 114.175 -7.34857 2.92579
  2609 155.092 -4.18541 -7.63645
  2610 155.119 -4.20673 7.66165
  2611 136.895 0.0594774 2.64131
  2612 136.886 0.0595428 -2.64190
  2613 142.769 -0.327026 6.96266
  2614 105.654 5.47506 3.95023
  2615 100.290 0.650207 4.82414
  2616 120.350 4.68586 -9.91215
  2617 71.3072 8.86616 13.3943
  2618 71.3098 8.86716 -13.3890
  2619 86.2188 3.22060 5.39568
  2620 86.2183 3.22003 -5.39401
  2621 130.808 -0.0712182 -2.73911
  2622 130.818 -0.0712829 2.73879
  2623 82.7085 6.05197 5.16160
  2624 82.7103 6.05117 -5.16019
  2625 130.814 22.8092 -4.36933
  2626 154.781 -0.532434 -5.29407
  2627 154.771 -0.555698 5.33985
  2628 153.165 -2.83891 10.5605
  2629 153.176 -2.82505 -10.5111
  2630 103.681 0.0336268 2.46161
  2631 103.682 0.0322768 -2.46210
  2632 150.509 -3.52091 -3.62065
  2633 150.509 -3.51843 3.60933
  2634 220.851 17.8073 -0.117959
  2635 41.8310 -22.3441 -5.08431
  2636 41.2411 -22.7933 4.98424
  2637 160.326 -5.50767 -13.0062
  2638 160.462 -5.33831 13.0140
  2639 88.1816 1.16872 -4.04091
  2640 88.1842 1.16894 4.04223
  2641 90.6685 2.72982 3.93922
  2642 90.6658 2.72904 -3.94112
  2643 146.094 -13.7195 2.90251
  2644 146.049 -13.6260 -2.94135
  2645 152.913 23.2893 43.0605
  2646 118.065 -7.92259 18.4647
  2647 120.374 14.3276 7.00365
  2648 97.2683 3.72935 -14.1490
  2649 97.2736 3.72807 14.1507
  2650 212.359 21.5731 26.9523
  2651 58.1167 8.97140 -1.09952
  2652 58.1338 8.96614 1.09829
  2653 101.905 4.37439 -0.705968
  2654 92.7435 -1.67766 9.10706
  2655 92.7392 -1.68303 -9.11156
  2656 149.291 0.0372044 -3.29243
  2657 149.296 0.0369689 3.29072
  2658 61.9002 7.81066 -12.8626
  2659 61.8949 7.80877 12.8718
  2660 77.3342 8.33939 3.92952
  2661 77.3384 8.33860 -3.92886
  2662 109.049 -3.39137 0.254375
  2663 109.053 -3.39532 -0.250445
  2664 114.076 0.511362 -9.37400
  2665 111.408 1.37639 11.9729
  2666 111.400 1.37753 -11.9730
  2667 156.399 -9.73078 5.93971
  2668 156.614 -9.48459 -5.87120
  2669 161.932 -0.186265 -2.46427
  2670 161.926 -0.186528 2.46083
  2671 112.859 -17.4466 -14.7199
  2672 112.906 -17.4539 14.7699
  2673 158.863 -2.47398 1.25337
  2674 158.849 -2.46476 -1.25485
  2675 90.7422 0.995315 4.58506
  2676 90.7384 0.995180 -4.58374
  2677 130.979 -12.4901 -9.13354
  2678 109.829 -0.654826 2.81273
  2679 109.836 -0.653879 -2.80736
  2680 77.3976 8.52583 -6.46506
  2681 77.3941 8.52670 6.46655
  2682 106.509 -1.51937 1.99492
  2683 106.512 -1.52247 -1.99379
  2684 87.9163 2.54390 -5.97546
  2685 87.9181 2.54430 5.97721
  2686 74.5116 7.86488 -2.27165
  2687 74.5176 7.86526 2.26955
  2688 89.0230 0.359969 -0.774631
  2689 148.923 -10.2164 6.42990
  2690 148.891 -10.1596 -6.44186
  2691 102.568 -3.77451 5.07642
  2692 102.573 -3.78137 -5.07858
  2693 182.320 4.27505 2.54936
  2694 111.240 11.4839 0.862626
  2695 105.237 -10.2715 9.32166
  2696 105.347 -10.1857 -9.31612
  2697 83.7422 5.62369 1.91018
  2698 83.7448 5.62292 -1.90964
  2699 115.634 -8.64609 -16.3011
  2700 115.655 -8.65046 16.3026
  2701 139.501 2.09995 -20.2935
  2702 80.5280 7.42906 7.97181
  2703 80.5299 7.42835 -7.96984
  2704 83.7488 6.20736 9.31575
  2705 83.7491 6.20689 -9.31347
  2706 109.547 1.28466 10.3734
  2707 109.539 1.28537 -10.3729
  2708 107.551 2.04342 -7.73173
  2709 104.152 -15.0656 -16.0343
  2710 128.793 1.60680 12.7367
  2711 98.7026 3.45330 15.5831
  2712 98.6964 3.45533 -15.5818
  2713 189.294 13.7506 -7.00477
  2714 138.875 -16.0856 -1.53798
  2715 138.969 -16.0278 1.43192
  2716 84.8813 4.55801 3.43639
  2717 84.8828 4.55718 -3.43525
  2718 120.297 3.94679 10.0047
  2719 208.504 23.4371 -28.4608
  2720 100.817 0.490002 -5.03144
  2721 110.476 -3.46873 -1.55337
  2722 110.479 -3.47184 1.55840
  2723 146.456 -0.371678 -6.11947
  2724 146.460 -0.372508 6.11550
  2725 91.6451 1.57687 6.08688
  2726 91.6414 1.57671 -6.08528
  2727 99.6605 2.99827 1.49069
  2728 82.3547 6.15934 3.45526
  2729 82.3573 6.15856 -3.45434
  2730 139.146 27.2314 3.13029
  2731 111.170 -0.404349 -0.625162
  2732 111.169 -0.403561 0.626491
  2733 89.7838 0.624594 3.51103
  2734 89.7801 0.624486 -3.50994
  2735 28.4497 -37.7845 0.0656024
  2736 28.4943 -37.8122 -0.112048
  2737 69.7862 9.82923 3.61660
  2738 69.7936 9.82774 -3.61628
  2739 97.2501 0.967137 5.94141
  2740 97.2443 0.967118 -5.94015
  2741 115.489 7.25890 -8.79775
  2742 104.193 -13.0716 13.8003
  2743 123.511 6.91742 9.65499
  2744 129.262 -8.62014 -10.9415
  2745 129.289 -8.62550 10.9341
  2746 138.667 -1.70949 2.27099
  2747 109.009 0.706766 6.95330
  2748 109.001 0.706996 -6.95265
  2749 118.637 -11.6444 -15.6581
  2750 102.543 2.45110 -12.0078
  2751 102.550 2.45031 12.0090
  2752 113.300 -20.3384 -12.9033
  2753 113.594 -20.3514 13.0932
  2754 138.588 -11.0213 -3.92954
  2755 138.618 -11.0071 3.90639
  2756 149.856 -0.403959 -6.02920
  2757 149.857 -0.405186 6.02354
  2758 78.5332 4.62113 7.69702
  2759 78.5282 4.61788 -7.70052
  2760 103.958 0.0613647 1.43281
  2761 103.949 0.0613729 -1.43255
  2762 110.752 -2.41446 -2.50317
  2763 110.753 -2.41692 2.50865
  2764 112.637 -15.4911 -10.4462
  2765 76.3272 7.86490 0.819601
  2766 76.3219 7.86488 -0.820794
  2767 95.7508 0.277111 2.95711
  2768 95.7446 0.277080 -2.95636
  2769 162.976 -1.70282 7.19517
  2770 85.7715 -2.40698 13.8830
  2771 85.7632 -2.41782 -13.8843
  2772 113.968 0.299593 -5.10690
  2773 113.977 0.299443 5.10720
  2774 115.187 14.2595 1.44153
  2775 149.069 -7.05167 -9.90830
  2776 102.738 -5.50683 -6.48511
  2777 102.732 -5.49814 6.48137
  2778 152.759 -6.50560 -11.6261
  2779 152.820 -6.52098 11.6431
  2780 99.1096 0.270996 3.37984
  2781 99.1027 0.271000 -3.37910
  2782 82.9520 5.93428 4.37904
  2783 82.9540 5.93347 -4.37781
  2784 121.268 -15.5302 -5.23790
  2785 118.996 11.8204 -7.77036
  2786 174.676 4.07245 -11.8876
  2787 85.2595 4.01889 -5.18716
  2788 85.2592 4.01958 5.18877
  2789 164.094 23.2221 -2.36788
  2790 110.309 -18.0647 -23.4970
  2791 146.850 -0.0248763 -3.04467
  2792 146.856 -0.0250623 3.04342
  2793 139.080 7.46045 8.56956
  2794 87.2719 4.36596 -0.857976
  2795 87.2747 4.36547 0.857549
  2796 81.3036 6.78658 -3.82016
  2797 81.3008 6.78735 3.82112
  2798 89.2548 1.09696 -4.31418
  2799 89.2580 1.09715 4.31550
  2800 68.6548 -20.6333 -28.9954
  2801 155.434 -0.320030 -2.88546
  2802 155.435 -0.320314 2.88312
  2803 163.319 13.0995 4.45730
  2804 90.3360 2.29681 6.97036
  2805 90.3331 2.29657 -6.96855
  2806 108.610 -0.0908778 1.54467
  2807 108.625 -0.0907142 -1.54132
  2808 67.0782 -20.5129 29.0702
  2809 113.249 -11.6755 16.2437
  2810 113.225 -11.6730 -16.2351
  2811 102.423 2.33020 -17.6524
  2812 102.431 2.32674 17.6524
  2813 118.499 10.5634 8.30381
  2814 132.023 -11.1368 -3.33438
  2815 74.3550 9.47199 -6.84088
  2816 74.3503 9.47306 6.84255
  2817 111.433 -0.955621 -1.02785
  2818 111.432 -0.956978 1.03166
  2819 91.0782 4.21686 11.4592
  2820 91.0753 4.21704 -11.4569
  2821 78.8493 6.36574 3.77814
  2822 78.8442 6.36472 -3.78006
  2823 64.7698 9.66800 9.18333
  2824 64.7778 9.66709 -9.17812
  2825 131.665 12.5326 -33.7280
  2826 85.0101 5.99649 17.1826
  2827 85.0062 5.99947 -17.1791
  2828 132.901 0.0193612 -9.09070
  2829 132.909 0.0182501 9.08798
  2830 86.4786 5.85044 12.2433
  2831 86.4772 5.85068 -12.2407
  2832 94.5016 0.153049 1.96295
  2833 81.4786 6.79995 -6.81530
  2834 81.4768 6.80068 6.81702
  2835 91.6534 -3.49574 -11.6473
  2836 91.6584 -3.48716 11.6411
  2837 95.4111 1.01847 -2.54967
  2838 112.845 -4.08660 -6.22262
  2839 112.852 -4.08802 6.22823
  2840 94.7433 1.07941 4.44760
  2841 94.7419 1.07764 -4.44993
  2842 87.5443 3.83363 7.90818
  2843 87.5429 3.83322 -7.90613
  2844 84.6610 2.81229 7.71346
  2845 84.6560 2.80930 -7.71631
  2846 100.095 3.10943 -17.0868
  2847 100.102 3.10644 17.0875
  2848 157.819 -2.40523 -0.440854
  2849 157.808 -2.39945 0.434742
  2850 85.7623 4.83068 1.24535
  2851 85.7590 4.83097 -1.24594
  2852 110.637 -10.7097 -5.11293
  2853 110.686 -10.6439 4.99949
  2854 97.6889 0.149501 -2.31768
  2855 97.6957 0.149508 2.31823
  2856 82.0235 7.34292 11.8988
  2857 82.0237 7.34292 -11.8959
  2858 110.816 -16.0217 15.1856
  2859 109.629 -16.4888 -14.7627
  2860 114.414 -0.0795071 -0.0105260
  2861 114.413 -0.0796266 0.0113357
  2862 88.6680 1.48078 -4.84103
  2863 88.6706 1.48103 4.84252
  2864 136.117 -13.6276 -3.85963
  2865 136.171 -13.6141 3.83161
  2866 81.0240 1.51659 -11.4442
  2867 81.0283 1.52350 11.4403
  2868 92.8281 0.244774 -2.50274
  2869 92.8334 0.244809 2.50345
  2870 44.5548 3.34432 -6.65839
  2871 44.5931 3.33372 6.65732
  2872 150.073 -0.655499 17.6071
  2873 82.2598 5.95406 -1.69393
  2874 82.2640 5.95412 1.69308
  2875 92.2430 1.59860 -5.13056
  2876 92.2455 1.60032 5.12794
  2877 84.2690 4.87234 4.13049
  2878 84.2704 4.87153 -4.12921
  2879 91.6506 -22.6135 -17.0999
  2880 91.8679 -22.3167 16.5344
  2881 119.324 -6.71332 6.11544
  2882 119.261 -6.64670 -6.16759
  2883 63.6761 -4.93858 20.9852
  2884 63.6569 -4.92618 -20.9806
  2885 104.310 3.39650 5.63543
  2886 110.550 -1.59723 3.20058
  2887 110.552 -1.59536 -3.19466
  2888 101.301 -3.92614 6.07383
  2889 101.304 -3.93324 -6.07730
  2890 39.4470 1.67711 -3.02449
  2891 39.4157 1.68012 3.04279
  2892 69.1840 8.04815 14.9446
  2893 69.1856 8.05071 -14.9378
  2894 104.987 0.262629 3.53694
  2895 104.979 0.262645 -3.53635
  2896 111.527 5.72443 7.84414
  2897 146.385 -1.21233 -10.7817
  2898 72.9462 2.79725 -20.0951
  2899 72.9545 2.78949 20.1011
  2900 88.4757 2.37471 -6.09068
  2901 88.4778 2.37506 6.09243
  2902 147.995 -5.73229 -1.73238
  2903 147.998 -5.72104 1.71952
  2904 109.487 -0.0132255 -8.28244
  2905 98.9725 0.831741 -4.37433
  2906 87.2558 0.00603621 0.495563
  2907 87.2516 0.00603721 -0.495386
  2908 162.330 -6.13367 3.65694
  2909 162.194 -6.05528 -3.44121
  2910 96.2439 1.43287 3.27047
  2911 96.2429 1.43193 -3.27203
  2912 88.1817 1.46141 -4.52381
  2913 88.1841 1.46168 4.52525
  2914 93.6023 1.37727 6.18202
  2915 93.5978 1.37717 -6.18053
  2916 114.641 -12.7521 -4.61601
  2917 114.479 -12.8066 4.71479
  2918 220.431 15.9264 -5.91242
  2919 134.877 3.49433 -13.6686
  2920 100.270 0.127446 -4.26762
  2921 222.600 13.5324 -18.9985
  2922 116.613 16.0289 -1.41084
  2923 190.066 17.9993 1.09920
  2924 138.018 -3.44165 15.0209
  2925 131.559 -3.83264 5.54871
  2926 94.1912 0.144022 -1.85923
  2927 85.1086 4.58451 6.44598
  2928 85.1087 4.58385 -6.44415
  2929 137.688 -15.0250 -5.93480
  2930 138.546 -14.7783 5.38857
  2931 214.872 15.3336 44.7469
  2932 159.587 15.4896 22.1380
  2933 86.4632 5.41621 -10.3728
  2934 86.4642 5.41642 10.3752
  2935 180.813 22.5254 13.1450
  2936 127.768 -1.33793 -13.3770
  2937 127.778 -1.34176 13.3714
  2938 90.3738 0.110574 -1.49548
  2939 90.3787 0.110594 1.49594
  2940 102.692 -0.259547 2.88844
  2941 102.693 -0.261602 -2.88911
  2942 108.582 -2.27645 -0.775391
  2943 108.579 -2.27318 0.778335
  2944 94.0178 4.30477 15.2971
  2945 94.0130 4.30644 -15.2950
  2946 110.746 -2.61052 6.28169
  2947 110.742 -2.61227 -6.27371
  2948 105.302 -2.89679 2.91003
  2949 105.306 -2.90188 -2.90932
  2950 90.6825 0.411829 1.30924
  2951 115.235 13.2473 4.13192
  2952 159.982 3.17679 16.9439
  2953 90.8389 0.332679 -2.64503
  2954 90.8434 0.332734 2.64585
  2955 108.180 3.53838 -7.44173
  2956 91.7761 0.609313 3.76533
  2957 91.7716 0.609230 -3.76426
  2958 105.823 -0.330282 -2.11134
  2959 105.822 -0.328722 2.11146
  2960 81.1498 6.20209 -2.17058
  2961 81.1543 6.20244 2.16950
  2962 301.162 9.18334 18.3808
  2963 118.907 0.721857 8.50919
  2964 118.898 0.722430 -8.50949
  2965 96.7695 0.531254 -4.24400
  2966 96.7756 0.531279 4.24498
  2967 109.507 -0.0352378 8.29761
  2968 92.8913 2.90268 9.36354
  2969 92.8876 2.90264 -9.36156
  2970 89.7321 3.03708 8.02822
  2971 89.7297 3.03682 -8.02622
  2972 97.3437 -3.18679 -7.96688
  2973 97.3441 -3.18036 7.96142
  2974 84.1984 4.93236 4.99648
  2975 84.1995 4.93159 -4.99499
  2976 138.565 28.4267 0.212744
  2977 49.4630 3.05373 -10.9119
  2978 49.4946 3.04293 10.8997
  2979 103.773 0.725716 -6.32024
  2980 81.7849 6.92312 16.1911
  2981 81.7828 6.92542 -16.1871
  2982 98.0741 0.552270 3.72544
  2983 98.0738 0.550437 -3.72716
  2984 135.841 12.1428 34.5212
  2985 96.0273 2.98136 11.1511
  2986 96.0227 2.98173 -11.1493
  2987 60.6261 -6.86830 -22.4854
  2988 142.057 3.06530 15.5128
  2989 90.9851 -4.70586 13.6519
  2990 90.9741 -4.71177 -13.6599
  2991 108.285 -0.705687 -3.75366
  2992 108.277 -0.705703 3.75945
  2993 111.932 1.79097 -8.93508
  2994 159.226 3.40488 -16.5456
  2995 93.2025 4.23919 13.6600
  2996 93.1984 4.24011 -13.6578
  2997 223.723 14.0805 12.8829
  2998 166.141 29.0368 0.879864
  2999 17.9689 -33.7948 -3.59272
  3000 18.0421 -33.9053 3.58146
  3001 112.540 -8.16826 -0.0982015
  3002 112.549 -8.17089 0.108867
  3003 95.4364 0.745979 -5.03220
  3004 95.4418 0.746012 5.03341
  3005 177.521 12.0277 10.2954
  3006 59.8932 -0.836161 18.6532
  3007 59.8820 -0.824516 -18.6421
  3008 62.1532 9.98249 4.29497
  3009 62.1651 9.97955 -4.29263
  3010 106.139 6.72959 -2.42379
  3011 128.122 -0.0127430 -12.0806
  3012 128.130 -0.0149793 12.0768
  3013 76.6898 7.66842 15.3713
  3014 76.6892 7.67052 -15.3664
  3015 125.163 0.210133 9.24748
  3016 193.145 18.8246 -48.6271
  3017 104.578 1.74849 -10.9709
  3018 104.585 1.74784 10.9719
  3019 105.139 2.20545 13.1999
  3020 105.132 2.20673 -13.1991
  3021 101.569 0.488088 4.80902
  3022 101.562 0.488116 -4.80813
  3023 108.269 -1.36636 1.24611
  3024 108.271 -1.36882 -1.24423
  3025 81.3583 6.66981 -1.89771
  3026 81.3549 6.67044 1.89807
  3027 203.664 11.5178 -17.0685
  3028 88.6471 0.239842 2.06214
  3029 88.6432 0.239798 -2.06145
  3030 112.171 -0.178537 -0.564519
  3031 112.170 -0.178150 0.565409
  3032 96.7580 0.0789841 0.959908
  3033 96.7509 0.0789698 -0.959657
  3034 60.1451 2.63070 14.1614
  3035 60.1311 2.63516 -14.1764
  3036 111.525 -0.990974 -8.56951
  3037 111.563 -0.990712 8.57116
  3038 116.760 0.148213 9.52370
  3039 117.008 0.138625 -1.77510
  3040 117.018 0.138609 1.77519
  3041 153.514 -8.40644 -11.5689
  3042 153.563 -8.41296 11.6029
  3043 87.3866 4.22279 8.51048
  3044 87.3853 4.22239 -8.50834
  3045 87.9874 -0.374529 -10.3505
  3046 87.9932 -0.369143 10.3463
  3047 99.5289 -0.371492 4.12603
  3048 99.5296 -0.374401 -4.12786
  3049 177.991 29.5910 -3.20930
  3050 105.400 -0.792867 -2.31889
  3051 105.398 -0.790524 2.31918
  3052 95.3226 3.76942 12.8793
  3053 95.3181 3.77014 -12.8773
  3054 192.595 13.6158 6.50337
  3055 54.3160 4.69095 -10.0156
  3056 54.3395 4.68426 10.0051
  3057 80.9234 5.84757 -3.49360
  3058 80.9281 5.84839 3.49204
  3059 115.591 -11.6834 1.95431
  3060 115.529 -11.6910 -1.98855
  3061 88.5636 0.696493 -3.33540
  3062 88.5668 0.696628 3.33650
  3063 54.8455 7.38846 9.76764
  3064 54.8565 7.38896 -9.75665
  3065 110.893 -1.61893 2.22464
  3066 110.894 -1.61694 -2.21941
  3067 139.127 7.98315 3.17406
  3068 83.8385 -18.7612 27.5033
  3069 103.962 -7.73044 -7.74175
  3070 103.961 -7.71496 7.74850
  3071 106.223 -17.4496 -17.4641
  3072 94.1898 0.773936 5.12633
  3073 94.1881 0.771706 -5.12907
  3074 110.605 -5.09932 -1.13094
  3075 110.609 -5.10277 1.13636
  3076 45.6674 -7.30838 -20.8407
  3077 45.6885 -7.31332 20.8260
  3078 127.627 0.0806282 6.90084
  3079 92.3775 1.37516 0.0802217
  3080 79.7762 6.56288 -1.42552
  3081 79.7808 6.56307 1.42459
  3082 64.0301 -10.8244 -21.7671
  3083 64.0586 -10.8359 21.7645
  3084 102.078 3.63737 -3.19720
  3085 110.547 20.3480 -41.9260
  3086 100.358 -20.4780 24.6921
  3087 170.339 -0.395676 -0.611772
  3088 170.366 -0.397344 0.611415
  3089 100.247 0.144257 4.23190
  3090 87.8673 4.06382 -2.10611
  3091 87.8704 4.06371 2.10514
  3092 121.371 -0.570166 15.1889
  3093 121.361 -0.566593 -15.1929
  3094 120.647 0.746947 -11.3744
  3095 120.655 0.745569 11.3730
  3096 121.935 0.00368273 -1.98358
  3097 121.946 0.00364570 1.98362
  3098 112.957 -0.0193623 -0.318785
  3099 112.955 -0.0193261 0.318826
  3100 11.0945 -73.0670 5.67367
  3101 11.2796 -73.0405 -5.98187
  3102 92.3536 -0.0102546 -0.879690
  3103 92.3594 -0.0102612 0.879958
  3104 112.361 -5.15514 18.0189
  3105 112.345 -5.15020 -18.0210
  3106 121.845 0.610506 9.49716
  3107 110.668 3.81842 8.28575
  3108 86.3122 2.78315 4.73791
  3109 86.3116 2.78261 -4.73634
  3110 181.443 16.2878 -0.466494
  3111 83.6653 5.47990 5.77914
  3112 83.6664 5.47915 -5.77751
  3113 32.7910 -10.6959 -10.0057
  3114 32.7945 -10.7169 10.0383
  3115 106.694 -0.0562010 -1.80213
  3116 106.693 -0.0552761 1.80212
  3117 100.070 2.28176 11.0534
  3118 100.065 2.28228 -11.0519
  3119 107.623 1.84643 7.76688
  3120 91.1967 1.21034 -1.11341
  3121 111.949 -0.111790 -0.632279
  3122 111.947 -0.111471 0.632887
  3123 112.407 -0.444464 0.0832102
  3124 112.407 -0.443822 -0.0810780
  3125 99.9245 0.888273 6.14290
  3126 99.9180 0.888304 -6.14175
  3127 106.197 -0.575939 4.38576
  3128 106.205 -0.580241 -4.38144
  3129 94.5800 -1.86155 -8.16389
  3130 94.5826 -1.85663 8.15901
  3131 130.553 -5.47497 -4.89965
  3132 104.072 2.86087 -5.72530
  3133 130.566 16.0662 -8.17904
  3134 63.0573 8.18540 -4.54245
  3135 63.0702 8.18249 4.53704
  3136 87.5379 1.31532 3.98690
  3137 87.5357 1.31505 -3.98555
  3138 92.0560 -10.4469 -18.7090
  3139 92.1149 -10.4267 18.5755
  3140 103.905 0.812037 6.46155
  3141 87.7850 0.796487 -3.29135
  3142 87.7877 0.796661 3.29247
  3143 143.973 3.55377 -15.7210
  3144 96.9094 2.82239 -18.7523
  3145 96.9176 2.81811 18.7530
  3146 161.748 -1.10372 -1.77742
  3147 161.736 -1.10277 1.77055
  3148 52.8931 3.79703 13.4805
  3149 52.8964 3.80298 -13.4653
  3150 27.2396 -8.98504 0.136248
  3151 27.1781 -8.98110 -0.0967427
  3152 139.567 -4.47952 4.91923
  3153 162.380 -3.26348 -6.30556
  3154 103.275 -18.4121 20.7538
  3155 72.4792 0.842255 -14.9047
  3156 72.4822 0.847292 14.8908
  3157 160.460 -0.620041 -3.21473
  3158 160.452 -0.620513 3.20784
  3159 116.855 0.203385 4.85192
  3160 116.846 0.203524 -4.85177
  3161 89.1812 0.0396906 -0.709914
  3162 89.1860 0.0397035 0.710158
  3163 104.145 -0.909191 2.73085
  3164 104.147 -0.911986 -2.73096
  3165 146.928 -0.974175 10.8066
  3166 109.789 -0.907031 0.772054
  3167 109.790 -0.908631 -0.770129
  3168 132.654 -11.7872 6.82704
  3169 109.599 -2.72171 -0.236655
  3170 109.601 -2.72495 0.240782
  3171 84.3731 4.51551 4.64300
  3172 84.3686 4.51445 -4.64484
  3173 84.6205 6.48245 12.8058
  3174 84.6195 6.48282 -12.8029
  3175 105.832 0.765873 7.03774
  3176 105.825 0.766063 -7.03685
  3177 111.452 -20.1621 -19.6445
  3178 92.2637 1.78217 20.3968
  3179 92.2537 1.78796 -20.3958
  3180 122.599 -3.16950 15.2395
  3181 122.585 -3.16442 -15.2445
  3182 114.064 -0.00749798 -0.225122
  3183 114.063 -0.00744489 0.225395
  3184 93.8173 0.256112 -2.41062
  3185 93.8231 0.256153 2.41130
  3186 126.522 23.0295 1.30594
  3187 107.617 -20.1670 -15.3517
  3188 107.619 -20.1318 15.4925
  3189 114.117 0.211801 9.26003
  3190 135.231 -10.5768 6.46929
  3191 135.197 -10.5786 -6.48450
  3192 126.172 20.7481 4.59796
  3193 112.859 -5.00244 4.99648
  3194 112.855 -5.00076 -4.99190
  3195 85.1759 4.90047 1.20380
  3196 85.1784 4.89972 -1.20345
  3197 152.135 -1.41121 9.01345
  3198 152.236 -1.36451 -8.98769
  3199 123.113 -5.45361 -6.97178
  3200 73.7456 9.50672 -5.21641
  3201 73.7403 9.50787 5.21740
  3202 114.335 4.93658 -9.09296
  3203 99.5966 0.410162 -4.16850
  3204 99.6034 0.410154 4.16935
  3205 116.288 3.49499 3.63552
  3206 147.998 2.58891 -17.0235
  3207 103.161 1.75632 9.82230
  3208 103.155 1.75671 -9.82112
  3209 123.683 18.7944 39.0421
  3210 106.665 0.273165 3.87007
  3211 106.656 0.273195 -3.86949
  3212 135.849 24.3033 5.28326
  3213 108.273 3.26276 7.63542
  3214 113.260 8.21859 -7.16558
  3215 112.280 -5.09746 -3.68410
  3216 112.284 -5.09958 3.68928
  3217 80.3466 7.50663 6.80539
  3218 80.3489 7.50585 -6.80372
  3219 148.753 6.50301 12.7882
  3220 122.377 -4.82506 7.29805
  3221 84.5318 -22.3892 -18.4331
  3222 85.2124 -22.3034 18.0118
  3223 164.902 -4.02576 -9.03477
  3224 154.082 -3.75565 16.4040
  3225 154.070 -3.87149 -16.4458
  3226 105.016 -3.48405 3.30819
  3227 105.021 -3.48983 -3.30775
  3228 37.7996 -1.93558 -6.78125
  3229 37.7801 -1.93914 6.80915
  3230 111.446 -0.161025 1.13361
  3231 111.456 -0.160743 -1.13096
  3232 87.3737 3.00006 -6.31389
  3233 87.3751 3.00051 6.31570
  3234 127.187 -11.2186 0.474590
  3235 108.533 -9.50717 5.61008
  3236 108.539 -9.51012 -5.67281
  3237 84.4677 5.38605 1.22917
  3238 84.4704 5.38532 -1.22883
  3239 95.6293 -3.91268 -21.5617
  3240 95.6427 -3.91699 21.5606
  3241 110.743 0.0487919 -17.7844
  3242 110.754 0.0444503 17.7821
  3243 95.9234 1.32674 2.10511
  3244 110.567 -1.58095 -0.542821
  3245 110.568 -1.58301 0.546570
  3246 110.066 0.277043 4.32519
  3247 110.057 0.277127 -4.32470
  3248 137.185 7.31076 7.57792
  3249 98.8956 -1.06556 4.99912
  3250 98.8965 -1.06945 -5.00170
  3251 55.0756 -19.6666 -19.0277
  3252 55.1218 -19.6594 19.0209
  3253 84.9333 4.30564 4.56208
  3254 84.9341 4.30487 -4.56063
  3255 108.134 -1.18676 -6.27837
  3256 108.130 -1.17873 6.28265
  3257 89.7553 1.56243 -5.33958
  3258 89.7583 1.56266 5.34111
  3259 117.161 -6.30609 -16.4916
  3260 117.179 -6.31163 16.4893
  3261 110.523 -2.68309 1.64384
  3262 110.521 -2.68036 -1.63885
  3263 100.669 1.21975 7.27778
  3264 100.663 1.21983 -7.27654
  3265 106.019 -9.19700 7.57883
  3266 105.983 -9.15468 -7.55962
  3267 111.006 -1.16511 0.427349
  3268 111.006 -1.16354 -0.423977
  3269 160.275 4.98059 15.9833
  3270 118.318 0.834508 9.73285
  3271 118.309 0.835294 -9.73333
  3272 113.083 -0.203983 -0.218683
  3273 113.083 -0.203598 0.219880
  3274 150.568 25.1583 -3.14807
  3275 125.349 -15.7027 6.85928
  3276 111.989 -0.529672 -1.29575
  3277 111.986 -0.530471 1.29936
  3278 93.8292 -3.19129 -9.99767
  3279 93.8342 -3.18385 9.99273
  3280 128.615 -5.70734 -19.5737
  3281 80.4645 7.55784 -9.06738
  3282 80.4629 7.55842 9.06964
  3283 19.6892 -53.8598 -2.82235
  3284 22.3424 -47.4094 6.74688
  3285 82.9318 -2.33787 -15.2548
  3286 82.9277 -2.32224 15.2525
  3287 165.181 -3.80728 9.05592
  3288 88.2741 0.0975969 -1.16853
  3289 88.2783 0.0976249 1.16893
  3290 66.6874 8.24624 -3.98704
  3291 66.6973 8.24494 3.98236
  3292 18.1382 -25.4650 -1.23361
  3293 18.1445 -25.5192 1.32855
  3294 138.230 0.0304980 -7.33978
  3295 138.237 0.0296808 7.33701
  3296 110.198 -13.7571 -9.90464
  3297 125.368 -0.489062 -8.88954
  3298 147.482 10.4030 2.42474
  3299 85.7607 4.81955 -0.568005
  3300 85.7581 4.82026 0.568137
  3301 94.2640 -0.0103797 -0.667901
  3302 94.2704 -0.0103971 0.668099
  3303 109.272 -0.0201813 -1.26438
  3304 109.271 -0.0197390 1.26448
  3305 95.0642 1.87980 8.03507
  3306 95.0596 1.87980 -8.03339
  3307 110.647 -6.65961 -0.382124
  3308 110.639 -6.65461 0.388448
  3309 143.424 6.38738 -3.40672
  3310 101.250 -0.360190 -3.44418
  3311 101.249 -0.357610 3.44303
  3312 95.1138 0.771035 2.94044
  3313 157.592 -0.464454 -3.95671
  3314 157.588 -0.465223 3.95091
  3315 60.1212 -8.09253 24.2261
  3316 60.1443 -8.03804 -24.2893
  3317 104.640 5.53174 2.17940
  3318 112.479 -2.85618 7.66977
  3319 112.470 -2.86125 -7.65830
  3320 114.248 -6.16490 4.68477
  3321 114.248 -6.16472 -4.67970
  3322 150.393 -11.2413 7.32311
  3323 150.349 -11.1758 -7.32697
  3324 71.6565 -5.12413 16.3157
  3325 171.056 1.25329 -12.6545
  3326 144.191 12.8935 -5.73487
  3327 71.5050 6.79174 16.9069
  3328 71.5033 6.79569 -16.9001
  3329 179.037 9.15207 11.4379
  3330 70.1532 10.1054 5.94972
  3331 70.1599 10.1038 -5.94816
  3332 88.3118 3.33890 -7.53887
  3333 88.3136 3.33928 7.54084
  3334 145.401 -3.92288 -5.52138
  3335 145.408 -3.92294 5.50957
  3336 84.1077 5.25045 -6.45086
  3337 84.1071 5.25116 6.45263
  3338 74.5189 4.46954 -9.43302
  3339 74.5238 4.47375 9.42690
  3340 85.1335 5.20312 8.07247
  3341 85.1334 5.20257 -8.07040
  3342 127.043 -0.180392 -6.96432
  3343 94.8017 2.42269 9.08913
  3344 94.7973 2.42273 -9.08732
  3345 105.630 -1.84925 2.41155
  3346 105.633 -1.85298 -2.41074
  3347 136.594 0.0318285 -6.19830
  3348 204.001 12.5050 0.130935
  3349 34.8311 -21.5006 -13.2921
  3350 34.8651 -21.5212 13.2893
  3351 61.1536 4.26942 -16.5199
  3352 61.1552 4.26250 16.5312
  3353 106.431 1.50694 -17.9494
  3354 106.440 1.50299 17.9482
  3355 151.911 -3.78712 -1.89889
  3356 151.909 -3.78114 1.88865
  3357 103.529 2.02112 5.96582
  3358 111.586 -8.89030 -1.70857
  3359 111.564 -8.88090 1.72233
  3360 137.431 7.72583 0.692305
  3361 61.5608 9.09256 9.67560
  3362 61.5697 9.09197 -9.66840
  3363 150.359 -5.87749 0.494353
  3364 150.354 -5.85960 -0.503634
  3365 112.278 -15.1432 9.86823
  3366 136.989 24.7059 -4.80461
  3367 78.8165 7.92001 3.86793
  3368 78.8201 7.91924 -3.86717
  3369 85.2385 5.44354 -9.12706
  3370 85.2388 5.44397 9.12930
  3371 89.6588 -6.87626 16.8794
  3372 89.6868 -6.94581 -16.8822
  3373 163.220 -1.26383 -0.690459
  3374 163.205 -1.26131 0.685201
  3375 122.755 0.124656 -13.6680
  3376 122.763 0.122021 13.6648
  3377 139.379 -7.04576 -6.53889
  3378 139.397 -7.04435 6.52478
  3379 110.252 -0.406816 -0.951162
  3380 110.251 -0.405947 0.952143
  3381 80.0126 5.65922 -18.6193
  3382 80.0174 5.65462 18.6238
  3383 131.254 -5.07148 11.9901
  3384 131.238 -5.06631 -11.9977
  3385 31.4847 -35.4507 -8.44573
  3386 31.4753 -35.4053 8.41288
  3387 87.3257 0.0510169 -0.918931
  3388 87.3297 0.0510155 0.919267
  3389 135.079 8.70514 -8.61976
  3390 85.5741 3.60306 4.46874
  3391 85.5744 3.60236 -4.46726
  3392 86.9773 1.84648 -4.41092
  3393 86.9788 1.84687 4.41241
  3394 74.5466 4.59734 -19.2357
  3395 74.5527 4.59089 19.2417
  3396 111.853 0.00504347 -0.644083
  3397 113.473 -0.00742578 0.251105
  3398 111.851 0.00514600 0.644139
  3399 113.475 -0.00746368 -0.251022
  3400 119.494 -12.4953 1.23232
  3401 119.402 -12.5243 -1.12631
  3402 77.8703 3.46602 -9.95569
  3403 77.8750 3.47106 9.95095
  3404 81.9117 -14.2617 21.7945
  3405 81.9037 -14.2695 -21.8120
  3406 124.142 0.201842 7.68369
  3407 124.133 0.202367 -7.68452
  3408 89.1202 0.112852 0.919753
  3409 109.474 -7.23383 2.01741
  3410 109.486 -7.24182 -2.01272
  3411 99.5081 1.89087 9.56540
  3412 99.5024 1.89114 -9.56390
  3413 110.940 -1.47349 1.10905
  3414 110.940 -1.47167 -1.10480
  3415 280.061 11.2206 34.4780
  3416 90.2840 0.777750 -3.97581
  3417 90.2878 0.777873 3.97700
  3418 92.7984 3.53868 10.8489
  3419 92.7948 3.53882 -10.8468
  3420 31.4737 -7.45635 -5.41588
  3421 31.4498 -7.46643 5.45459
  3422 86.9520 3.60330 4.40210
  3423 86.9481 3.60239 -4.40401
  3424 49.7569 6.52685 -2.61820
  3425 49.7843 6.51867 2.61968
  3426 172.973 3.80423 12.9173
  3427 118.663 2.54901 -8.28968
  3428 107.605 -2.21226 1.44855
  3429 107.608 -2.21584 -1.44642
  3430 93.0115 -7.39725 15.2503
  3431 93.0606 -7.52529 -15.2485
  3432 87.6837 4.75628 9.90318
  3433 87.6822 4.75604 -9.90087
  3434 112.131 1.08132 10.5923
  3435 112.124 1.08213 -10.5921
  3436 154.175 -4.84821 4.14520
  3437 154.157 -4.82261 -4.14132
  3438 88.9863 2.93207 -4.72171
  3439 88.9898 2.93317 4.71956
  3440 76.6145 -1.62159 -16.8602
  3441 76.6178 -1.61231 16.8397
  3442 75.6150 1.36375 -13.3639
  3443 75.6171 1.37182 13.3547
  3444 217.839 20.0254 -0.0765647
  3445 34.1505 -30.7721 19.2973
  3446 169.155 -0.278453 1.45595
  3447 169.130 -0.276443 -1.45146
  3448 190.086 7.26496 3.15138
  3449 100.199 -1.40626 4.57320
  3450 100.200 -1.41038 -4.57530
  3451 89.6023 0.241034 -2.17741
  3452 89.6066 0.241076 2.17812
  3453 87.7746 1.66173 -4.65319
  3454 87.7767 1.66205 4.65468
  3455 39.0936 -0.914015 -9.18775
  3456 39.1447 -0.922900 9.18607
  3457 138.371 -1.25027 10.1166
  3458 138.364 -1.24764 -10.1232
  3459 65.7272 -2.82352 -20.2368
  3460 65.7229 -2.83028 20.2312
  3461 100.619 1.48889 4.89371
  3462 80.2520 7.84330 13.1736
  3463 80.2523 7.84382 -13.1702
  3464 96.3486 0.372030 3.17979
  3465 106.802 -0.585138 -6.34726
  3466 106.799 -0.579254 6.34898
  3467 121.046 -0.971521 -9.28715
  3468 107.726 0.0150483 1.35542
  3469 107.717 0.0150513 -1.35520
  3470 83.9224 5.25838 3.83459
  3471 83.9242 5.25755 -3.83343
  3472 150.790 -7.30254 4.86535
  3473 150.769 -7.26542 -4.86671
  3474 96.7139 1.63315 -2.09908
  3475 81.8755 6.67558 6.20653
  3476 81.8773 6.67478 -6.20493
  3477 144.758 -0.109646 -5.87955
  3478 144.763 -0.110422 5.87631
  3479 72.6460 -0.841908 -21.6090
  3480 72.6596 -0.850979 21.6127
  3481 69.9235 -1.98587 18.7745
  3482 69.9175 -1.97732 -18.7873
  3483 100.737 2.90001 13.9348
  3484 100.730 2.90139 -13.9336
  3485 90.7406 0.942250 2.17184
  3486 110.967 8.37908 5.59859
  3487 89.8333 3.49630 2.11095
  3488 89.8307 3.49644 -2.11195
  3489 87.6912 0.250037 1.98095
  3490 87.6877 0.249973 -1.98024
  3491 45.6076 -11.2517 17.0208
  3492 96.8459 0.339655 -3.14499
  3493 96.8523 0.339688 3.14575
  3494 82.3329 6.59111 -7.46781
  3495 82.3316 6.59182 7.46970
  3496 95.2946 1.31189 3.93103
  3497 95.2934 1.31050 -3.93302
  3498 99.1906 0.734768 3.13113
  3499 99.1904 0.733497 -3.13243
  3500 98.8875 -0.0115971 1.81440
  3501 98.8435 -0.0112991 -1.82416
  3502 128.500 -10.0998 -1.29030
  3503 131.129 -17.5765 -6.45607
  3504 131.575 -17.6860 6.20202
  3505 108.434 8.72096 1.55087
  3506 85.3393 4.10398 5.59913
  3507 85.3395 4.10331 -5.59744
  3508 47.9748 -8.55158 18.2303
  3509 47.9526 -8.53326 -18.2173
  3510 106.914 3.77360 6.69454
  3511 98.6790 2.52444 10.6467
  3512 98.6736 2.52481 -10.6451
  3513 109.160 -0.174096 1.25254
  3514 109.162 -0.174809 -1.25208
  3515 68.2403 6.99832 -6.86724
  3516 68.2489 6.99846 6.86054
  3517 74.9223 9.28235 9.68483
  3518 74.9259 9.28174 -9.68197
  3519 94.3846 3.86939 -17.8112
  3520 94.3915 3.86584 17.8128
  3521 123.401 -16.8846 -9.22084
  3522 84.8293 4.42107 4.92992
  3523 84.8300 4.42032 -4.92840
  3524 36.6946 -28.4001 -21.1470
  3525 91.0387 3.11920 8.82958
  3526 91.0357 3.11904 -8.82755
  3527 85.6294 3.64761 -5.02237
  3528 85.6294 3.64826 5.02396
  3529 253.630 18.3893 -2.95861
  3530 80.4417 4.53531 19.5458
  3531 80.4350 4.54099 -19.5414
  3532 122.271 17.5585 5.37319
  3533 171.059 1.11614 12.8718
  3534 84.8404 -0.649972 -12.3103
  3535 84.8471 -0.641927 12.3073
  3536 97.7649 1.63175 -8.11230
  3537 97.7704 1.63167 8.11382
  3538 155.890 -6.07191 14.5530
  3539 155.864 -6.16580 -14.5084
  3540 105.611 0.0244083 -1.99885
  3541 105.610 0.0254529 1.99870
  3542 195.514 9.02065 -1.06939
  3543 85.7709 4.52565 7.56539
  3544 85.7705 4.52511 -7.56339
  3545 92.7203 0.860617 4.70012
  3546 92.7158 0.860510 -4.69886
  3547 102.817 -8.75594 -19.7206
  3548 102.830 -8.75624 19.7233
  3549 107.407 -0.169355 -1.65975
  3550 107.406 -0.168348 1.66000
  3551 86.6020 4.48562 -2.01023
  3552 86.6054 4.48552 2.00933
  3553 105.491 0.0147270 -1.56001
  3554 105.469 0.0159912 1.56263
  3555 308.529 7.22012 -7.10320
  3556 110.622 -2.68135 -5.49091
  3557 110.624 -2.68173 5.49784
  3558 111.971 0.450973 5.74247
  3559 93.5561 -0.0213375 6.70919
  3560 93.5537 -0.0245632 -6.71291
  3561 85.8057 3.98506 -6.25725
  3562 85.8060 3.98567 6.25907
  3563 95.0946 -20.4056 -18.5397
  3564 95.0099 -20.3052 18.5531
  3565 66.7906 9.23624 -0.835230
  3566 66.8003 9.23437 0.832883
  3567 88.4880 0.927533 -3.79275
  3568 88.4909 0.927710 3.79397
  3569 117.646 0.0613541 -15.5797
  3570 117.656 0.0579573 15.5765
  3571 98.1463 -15.8218 -20.9314
  3572 81.1130 7.01281 5.37129
  3573 81.1154 7.01199 -5.36994
  3574 155.692 -1.40567 -4.34893
  3575 155.688 -1.40603 4.34016
  3576 128.216 11.3669 -9.36054
  3577 64.2419 -21.5108 28.1422
  3578 82.6458 6.94076 -9.80640
  3579 82.6452 6.94120 9.80879
  3580 101.626 0.814034 5.15815
  3581 110.482 -16.3737 13.2947
  3582 110.991 6.54927 -7.30525
  3583 67.5864 0.886923 -16.0854
  3584 67.5934 0.884944 16.0693
  3585 111.766 -0.0716398 -0.711448
  3586 111.764 -0.0714055 0.711796
  3587 109.847 8.58478 -4.38182
  3588 90.9850 1.50023 -5.70765
  3589 90.9886 1.50041 5.70920
  3590 122.971 6.50816 -9.97008
  3591 108.954 6.14938 -5.81776
  3592 103.701 2.02279 -6.09181
  3593 82.0460 7.24972 11.2823
  3594 82.0465 7.24955 -11.2796
  3595 88.6085 3.72421 -2.70702
  3596 88.6115 3.72432 2.70576
  3597 122.104 14.4217 -7.84740
  3598 87.6280 0.0297703 0.417411
  3599 87.6237 0.0297735 -0.417263
  3600 110.734 -2.09701 -3.25760
  3601 110.735 -2.09919 3.26352
  3602 70.6211 9.46724 -1.15513
  3603 70.6137 9.46844 1.15414
  3604 102.837 2.91273 15.0115
  3605 102.830 2.91465 -15.0108
  3606 64.6395 10.2590 -3.85502
  3607 64.6289 10.2618 3.85633
  3608 107.972 -0.981606 -1.39996
  3609 107.971 -0.979503 1.40136
  3610 104.733 0.319979 18.9686
  3611 104.722 0.324858 -18.9702
  3612 110.919 -1.20508 2.38575
  3613 110.922 -1.20347 -2.38045
  3614 131.301 0.982471 7.95994
  3615 70.8139 8.44842 -2.99125
  3616 70.8213 8.44813 2.98792
  3617 108.579 -0.754903 -1.27773
  3618 108.578 -0.753236 1.27901
  3619 113.861 -8.17476 -1.23992
  3620 113.866 -8.17598 1.25046
  3621 91.7638 2.14393 4.50842
  3622 91.7612 2.14272 -4.51067
  3623 106.619 -16.5937 -16.9369
  3624 106.629 -16.5775 16.9704
  3625 120.825 -2.07295 8.83913
  3626 92.4492 0.0812920 -1.69233
  3627 92.4546 0.0813058 1.69282
  3628 79.4884 5.16013 -6.01628
  3629 79.4936 5.16229 6.01364
  3630 116.725 12.4669 -6.07920
  3631 180.907 27.4089 -9.08845
  3632 115.961 0.662281 8.76359
  3633 115.952 0.662832 -8.76362
  3634 53.8812 -28.6958 13.9454
  3635 53.7531 -28.7587 -13.9389
  3636 110.459 -0.119746 -0.984358
  3637 110.458 -0.119295 0.984764
  3638 108.397 0.995129 -8.41955
  3639 108.405 0.994761 8.42026
  3640 95.5644 0.173363 2.13403
  3641 95.5581 0.173345 -2.13347
  3642 91.2531 0.0773228 -1.43934
  3643 91.2583 0.0773284 1.43979
  3644 88.3266 0.181141 1.66679
  3645 88.3227 0.181098 -1.66622
  3646 91.7748 0.770036 -2.76837
  3647 111.676 0.296772 -5.91529
  3648 157.275 7.57051 -14.2996
  3649 67.6459 9.93789 9.04662
  3650 67.6527 9.93685 -9.04264
  3651 164.000 12.4803 7.55502
  3652 75.3146 9.03723 11.1962
  3653 75.3175 9.03706 -11.1928
  3654 164.681 16.2051 -18.9375
  3655 94.5521 0.729907 4.66883
  3656 94.5469 0.729850 -4.66767
  3657 94.0268 0.361962 3.26478
  3658 94.0213 0.361930 -3.26392
  3659 112.225 -10.0508 -2.66232
  3660 112.203 -10.0414 2.70064
  3661 86.2190 4.73051 0.669668
  3662 86.2159 4.73099 -0.670024
  3663 115.272 -16.8101 -11.2280
  3664 157.056 17.8864 44.8629
  3665 82.2063 4.36560 -6.33898
  3666 82.2112 4.36777 6.33655
  3667 51.2463 -12.3577 -19.4545
  3668 51.2777 -12.3734 19.4602
  3669 103.533 -12.9201 -14.2302
  3670 83.8997 4.88676 -3.66499
  3671 83.9040 4.88746 3.66350
  3672 66.8604 -14.5701 -21.9843
  3673 66.8957 -14.5749 21.9712
  3674 85.5130 3.04878 6.49303
  3675 85.5082 3.04666 -6.49562
  3676 146.156 -11.8417 -5.42338
  3677 146.053 -11.4352 5.05550
  3678 109.283 -1.22772 -7.53846
  3679 109.275 -1.20970 7.54303
  3680 108.588 -8.58632 -4.35492
  3681 108.572 -8.57166 4.34600
  3682 96.0165 1.03969 6.14115
  3683 96.0112 1.03966 -6.13979
  3684 153.142 28.6848 2.65784
  3685 110.046 -8.23977 -2.65346
  3686 110.025 -8.22667 2.65847
  3687 87.6407 1.30979 8.29540
  3688 87.6357 1.30636 -8.29875
  3689 142.075 0.0514473 -5.14560
  3690 142.081 0.0510136 5.14363
  3691 108.461 -2.96996 0.860404
  3692 108.465 -2.97395 -0.857253
  3693 111.245 -3.32902 -4.79796
  3694 111.248 -3.33090 4.80399
  3695 107.792 8.46970 -1.52005
  3696 74.6695 7.28104 -4.15143
  3697 74.6754 7.28206 4.14852
  3698 84.5451 5.35176 -1.65747
  3699 84.5488 5.35166 1.65673
  3700 110.518 -19.9627 19.8511
  3701 92.5801 -18.7877 25.8272
  3702 134.551 0.0483387 2.12749
  3703 134.541 0.0483963 -2.12786
  3704 128.420 18.9740 -7.06278
  3705 145.410 -0.755683 16.5227
  3706 141.167 0.115354 2.20943
  3707 141.159 0.115434 -2.21003
  3708 97.5380 -13.9363 -19.0222
  3709 96.3887 -3.87058 -9.26054
  3710 96.3921 -3.86318 9.25424
  3711 85.4596 4.98215 -0.0448642
  3712 85.4567 4.98274 0.0447844
  3713 139.240 -0.0459026 -7.97893
  3714 139.246 -0.0470725 7.97537
  3715 90.0898 -20.5117 27.9556
  3716 58.2031 6.68178 -7.60706
  3717 58.2214 6.67607 7.59886
  3718 71.3920 -3.08232 -21.9711
  3719 71.4082 -3.09245 21.9733
  3720 107.139 -7.44342 -4.73948
  3721 107.127 -7.43937 4.73729
  3722 102.740 -2.11285 3.83914
  3723 102.743 -2.11754 -3.84002
  3724 104.937 -5.59598 -4.88200
  3725 104.929 -5.58770 4.88087
  3726 61.0206 9.13141 -2.02903
  3727 61.0351 9.12727 2.02611
  3728 154.353 -4.32081 2.00956
  3729 154.341 -4.30364 -2.01201
  3730 109.234 -0.822641 3.62756
  3731 109.240 -0.821904 -3.62155
  3732 129.274 4.54306 8.44147
  3733 78.5803 7.90854 14.2265
  3734 78.5805 7.90966 -14.2225
  3735 168.107 -0.638039 -1.83375
  3736 168.127 -0.640693 1.84071
  3737 89.0981 0.0789232 -1.30395
  3738 89.1025 0.0789415 1.30440
  3739 128.100 0.0901620 -10.5566
  3740 128.108 0.0887586 10.5541
  3741 217.746 13.7116 -7.52371
  3742 83.0519 5.95554 -1.07603
  3743 83.0487 5.95615 1.07623
  3744 98.7594 0.825896 5.48822
  3745 98.7531 0.825882 -5.48711
  3746 88.0437 -18.4607 -27.1777
  3747 88.0821 -1.42232 -11.4708
  3748 88.0886 -1.41603 11.4660
  3749 144.236 27.5060 -3.57336
  3750 113.644 -0.0838661 0.491355
  3751 113.649 -0.0837126 -0.489898
  3752 96.9844 -13.6126 18.8957
  3753 115.177 9.55122 7.55642
  3754 83.0380 6.04453 1.83969
  3755 83.0409 6.04380 -1.83923
  3756 94.8815 0.683594 20.7032
  3757 94.8706 0.689387 -20.7030
  3758 89.3356 2.96271 4.19739
  3759 89.3324 2.96186 -4.19934
  3760 92.9400 2.38719 2.98136
  3761 92.9381 2.38679 -2.98281
  3762 107.822 -11.6181 9.07407
  3763 107.635 -11.4933 -8.99019
  3764 111.552 2.79701 1.46252
  3765 82.2431 6.31471 2.44053
  3766 82.2461 6.31396 -2.43993
  3767 62.2620 -1.85982 -15.6143
  3768 82.1752 6.43168 -0.947200
  3769 82.1717 6.43222 0.947300
  3770 104.654 -7.20652 6.43935
  3771 104.663 -7.21431 -6.44251
  3772 92.5362 1.80913 6.87782
  3773 92.5323 1.80898 -6.87614
  3774 110.994 -2.99242 -4.18151
  3775 110.997 -2.99465 4.18751
  3776 107.515 -1.67276 1.55430
  3777 107.518 -1.67575 -1.55257
  3778 64.5535 -21.9714 -27.9765
  3779 133.412 0.0419424 5.46144
  3780 133.404 0.0422453 -5.46260
  3781 109.200 1.77067 15.0373
  3782 109.192 1.77286 -15.0378
  3783 104.339 -4.53011 4.49778
  3784 104.346 -4.53745 -4.49870
  3785 103.612 -0.0688440 -1.49586
  3786 103.586 -0.0652198 1.49626
  3787 183.198 16.4555 -2.75639
  3788 86.1125 -9.31205 -20.5585
  3789 86.2801 -9.15295 20.3600
  3790 119.322 0.201643 -5.09653
  3791 119.332 0.201489 5.09654
  3792 95.1079 0.0442272 -0.744514
  3793 95.1146 0.0442280 0.744716
  3794 139.317 -5.14861 -8.45447
  3795 139.331 -5.15080 8.44312
  3796 85.9980 3.05022 -4.67341
  3797 85.9983 3.05083 4.67496
  3798 110.883 -0.215923 -0.885112
  3799 110.882 -0.215369 0.885848
  3800 79.2175 7.65037 2.63710
  3801 79.2213 7.64972 -2.63670
  3802 85.4891 4.51896 -7.03561
  3803 85.4893 4.51955 7.03753
  3804 81.6698 6.64340 -4.79400
  3805 81.6675 6.64419 4.79524
  3806 42.0594 -1.66960 11.2408
  3807 42.0642 -1.65981 -11.2164
  3808 108.774 1.70343 -16.2101
  3809 108.782 1.70052 16.2093
  3810 134.252 -5.90961 1.84487
  3811 210.501 10.3085 14.3828
  3812 97.6011 2.22342 9.58522
  3813 97.5959 2.22364 -9.58356
  3814 83.2386 1.68257 21.2784
  3815 83.2281 1.68962 -21.2758
  3816 75.9313 -20.2665 20.0284
  3817 75.8787 -20.3039 -20.0889
  3818 141.994 -1.85893 -9.11582
  3819 142.000 -1.86189 9.10746
  3820 101.997 -0.887727 3.51583
  3821 101.999 -0.890916 -3.51684
  3822 80.0707 8.02060 11.6738
  3823 80.0717 8.02054 -11.6708
  3824 102.096 -11.3285 -20.0770
  3825 102.107 -11.3232 20.0839
  3826 114.848 3.22158 9.43965
  3827 106.757 -0.718816 -1.91367
  3828 106.756 -0.716856 1.91429
  3829 144.670 1.14665 16.7086
  3830 118.151 -5.28517 7.01384
  3831 118.030 -5.30223 -6.94760
  3832 114.314 6.82276 8.52593
  3833 89.3684 0.787985 -3.76057
  3834 89.3718 0.788125 3.76175
  3835 128.276 1.29291 24.2100
  3836 91.6783 2.48385 3.55222
  3837 91.6759 2.48317 -3.55398
  3838 91.7683 3.47462 9.89940
  3839 91.7651 3.47460 -9.89731
  3840 111.339 -0.391755 1.77014
  3841 111.346 -0.391056 -1.76605
  3842 110.012 6.53568 6.56382
  3843 126.477 3.02346 10.9949
  3844 112.021 -9.12664 26.5063
  3845 117.072 2.40222 9.75889
  3846 101.035 0.378165 -2.86842
  3847 101.035 0.379569 2.86744
  3848 121.306 -3.62932 -8.15714
  3849 131.196 -11.5702 3.11258
  3850 88.6958 2.49777 6.40542
  3851 88.6936 2.49743 -6.40364
  3852 89.1061 1.67734 5.32456
  3853 89.1034 1.67708 -5.32299
  3854 87.6587 3.90432 3.27415
  3855 87.6553 3.90397 -3.27561
  3856 137.453 -1.85470 -18.9343
  3857 84.1334 4.00718 -5.69154
  3858 84.1380 4.00886 5.68933
  3859 86.8124 3.99593 7.54233
  3860 86.8114 3.99547 -7.54032
  3861 83.2123 5.68929 3.17044
  3862 83.2146 5.68848 -3.16952
  3863 136.151 -7.14462 -8.57554
  3864 136.171 -7.14696 8.56436
  3865 280.249 14.3101 -7.17953
  3866 111.616 -0.840070 -0.576473
  3867 111.615 -0.841259 0.579779
  3868 84.9454 4.64958 5.85144
  3869 84.9458 4.64887 -5.84972
  3870 93.2040 0.409144 3.40008
  3871 93.1988 0.409102 -3.39916
  3872 17.6590 -0.322898 -0.000331817
  3873 18.2071 -1.34938 0.0418895
  3874 17.7795 -0.421680 -0.828919
  3875 17.6686 -0.277462 0.880615
  3876 17.2970 0.239482 -0.427524
  3877 17.2465 0.259205 0.409302
  3878 18.1809 -1.46041 -0.902065
  3879 17.1970 0.223029 -0.0274558
  3880 18.1359 -1.25844 0.988520
  3881 18.5460 -2.33127 -0.00300801
  3882 18.4500 -2.01541 0.725659
  3883 17.9269 -0.733166 -0.276521
  3884 17.9016 -0.702140 0.302833
  3885 17.7620 -0.526773 -1.29705
  3886 17.2629 0.448735 -0.815444
  3887 17.2542 0.446800 0.810981
  3888 17.5964 -0.181285 -0.417818
  3889 18.4529 -2.19138 -0.743050
  3890 17.0287 0.385992 0.194570
  3891 17.0589 0.384283 -0.217912
  3892 17.7251 -0.387478 1.30960
  3893 17.5680 -0.163734 0.420192
  3894 17.4090 0.0302512 -0.159503
  3895 17.4001 0.0325049 0.191290
  3896 17.4468 0.165120 -1.15337
  3897 17.3597 0.332185 1.16233
  3898 18.1442 -1.18260 -0.488889
  3899 18.6355 -2.65860 0.348155
  3900 18.0992 -1.11217 0.557346
  3901 18.6698 -2.68442 -0.500411
  3902 18.3557 -1.69576 -0.326038
  3903 18.3507 -1.90584 0.260111
  3904 18.0704 -1.41823 -1.45074
  3905 18.2961 -1.61142 1.29262
  3906 17.0469 0.668557 0.573989
  3907 17.0446 0.665957 -0.605823
  3908 17.0119 0.370481 -0.0725688
  3909 17.9085 -0.916883 1.50452
  3910 16.9616 0.550633 0.344034
  3911 16.9837 0.377365 0.0305467
  3912 17.0132 0.546683 -0.368136
  3913 17.9707 -0.891717 -0.914730
  3914 17.8917 -0.755759 0.931312
  3915 18.0385 -0.934759 0.0484538
  3916 17.4998 0.0185398 -0.702621
  3917 17.4955 0.0379361 0.700228
  3918 17.9095 -0.732883 -0.609863
  3919 17.8391 -0.605064 0.0123582
  3920 17.8006 -0.656378 -1.57579
  3921 17.5204 -0.0112271 -1.50151
  3922 17.2068 0.213259 0.152141
  3923 17.7256 -0.417243 -0.243951
  3924 17.7190 -0.402930 0.254666
  3925 17.2183 0.671640 -1.06555
  3926 17.2653 0.239902 -0.269189
  3927 18.5185 -2.50197 0.936771
  3928 18.3643 -1.95803 -1.30303
  3929 17.4168 0.276716 1.43248
  3930 17.7280 -0.380577 0.538324
  3931 18.2732 -1.66936 0.780651
  3932 17.1693 0.677335 1.00665
  3933 18.7086 -2.86924 0.0517646
  3934 18.0339 -1.08517 -1.12038
  3935 17.5711 -0.162677 -0.206004
  3936 18.4987 -2.15624 0.368929
  3937 17.9088 -0.646622 0.621426
  3938 17.7405 -0.413944 -0.533723
  3939 17.5040 -0.0739104 -0.0143686
  3940 17.5704 -0.242292 1.68379
  3941 17.5739 -0.195970 0.179906
  3942 18.4204 -1.98728 -0.498814
  3943 17.0607 0.818364 -0.827250
  3944 17.4198 0.0317929 -0.357338
  3945 16.9658 0.592176 -0.266960
  3946 17.3363 0.262214 -0.660966
  3947 16.9312 0.456637 0.0772584
  3948 17.2945 0.270911 0.583616
  3949 16.9314 0.478110 -0.114775
  3950 17.0508 0.733858 0.768351
  3951 17.6445 -0.180662 -1.17680
  3952 16.9443 0.524908 0.215979
  3953 17.3655 0.0725349 0.0275789
  3954 17.3917 0.0686471 0.328508
  3955 18.5710 -2.48786 -0.834806
  3956 17.4894 0.0457522 -0.899292
  3957 17.9229 -0.799592 1.19343
  3958 18.2153 -1.36262 0.359558
  3959 17.1833 0.317892 0.251675
  3960 17.5782 -0.103677 1.07209
  3961 17.1579 0.267888 -0.113788
  3962 18.3643 -1.81950 -0.0303809
  3963 17.5034 0.0586168 0.906887
  3964 18.3742 -2.00889 1.34688
  3965 18.0575 -1.28166 1.52981
  3966 16.9344 0.734587 0.449478
  3967 18.1291 -1.16665 -0.202363
  3968 18.3469 -1.80597 -1.00529
  3969 16.9518 0.711072 -0.450181
  3970 18.1008 -1.10581 0.242796
  3971 16.9295 0.396964 -0.0483640
  3972 18.6301 -2.75729 0.685602
  3973 17.6289 -0.184586 -1.67417
  3974 17.2461 0.559819 -1.32123
  3975 18.6606 -2.51763 0.0855637
  3976 17.2084 0.653619 1.35604
  3977 18.2479 -1.43586 -0.573426
  3978 18.1916 -1.33305 0.674388
  3979 18.3226 -1.80202 0.999793
  3980 18.4859 -2.38710 -1.18434
  3981 18.0918 -1.23373 1.28280
  3982 17.1339 0.288501 0.0642479
  3983 17.0997 0.505889 0.447273
  3984 17.0690 0.323700 -0.0263749
  3985 18.7506 -3.01515 0.389760
  3986 17.1147 0.483489 -0.474877
  3987 17.1478 0.363710 -0.338851
  3988 17.2919 0.157055 -0.129776
  3989 17.9212 -1.01449 -1.71579
  3990 17.4886 0.00885889 -0.498136
  3991 18.2274 -1.41299 -0.255938
  3992 18.5245 -2.33584 -0.408187
  3993 18.7671 -3.03001 -0.439191
  3994 16.8804 0.694273 -0.326183
  3995 17.3732 0.461569 -1.52945
  3996 18.3429 -1.72229 -0.668676
  3997 17.4580 0.0685668 0.510824
  3998 17.4505 0.209579 1.64821
  3999 17.7876 -0.544867 1.70565
  4000 17.3143 0.168109 0.247718
  4001 17.8212 -0.516816 -0.998520
  4002 18.1518 -1.63348 -1.57991
  4003 17.0371 0.768422 -0.989543
  4004 16.8453 0.745296 0.333081
  4005 18.5393 -2.41015 0.635044
  4006 18.0131 -0.905464 -0.415732
  4007 16.9668 0.449940 0.0572951
  4008 17.2164 0.469410 0.678178
  4009 16.8377 0.806213 -0.666228
  4010 18.2771 -1.67130 1.56673
  4011 17.2306 0.524086 -0.715539
  4012 17.9890 -0.836167 0.450169
  4013 16.9363 0.405282 -0.0565193
  4014 17.3178 0.402157 0.935852
  4015 18.4039 -1.88227 0.529616
  4016 18.0312 -1.02951 0.866859
  4017 17.7276 -0.444128 1.07563
  4018 16.9091 0.854866 0.544635
  4019 17.0558 0.363723 -0.154864
  4020 17.1012 0.825955 1.16688
  4021 17.3328 0.387875 -0.989333
  4022 18.1125 -1.18303 -0.796048
  4023 18.3042 -1.61017 0.164739
  4024 17.0628 0.949143 0.936650
  4025 17.6300 -0.206649 0.713080
  4026 18.1528 -1.42343 -1.20494
  4027 16.7928 0.500647 -0.162047
  4028 18.4148 -2.13081 1.02734
  4029 17.0602 0.428061 0.278219
  4030 17.6222 -0.256192 -1.33046
  4031 18.0073 -0.960127 -0.682568
  4032 17.0303 0.388454 0.114034
  4033 18.7167 -3.18496 -0.164839
  4034 17.6641 -0.242520 -0.741850
  4035 17.9496 -0.862914 0.716607
  4036 18.5672 -2.43975 -0.633460
  4037 17.0644 0.441674 -0.265956
  4038 16.8418 0.524604 0.132103
  4039 17.9347 -0.773733 -0.0781455
  4040 17.9189 -0.759420 0.116828
  4041 18.4454 -2.05177 0.0618615
  4042 17.8078 -0.524849 -0.353786
  4043 17.8461 -0.552310 0.813089
  4044 17.7483 -0.523821 1.47184
  4045 17.3539 0.102782 -0.266499
  4046 17.9020 -0.712473 -1.14403
  4047 17.8339 -0.586280 -0.173105
  4048 17.8242 -0.572562 0.193867
  4049 18.3880 -1.94550 -0.733170
  4050 17.3829 0.221749 -0.815843
  4051 17.9963 -1.06539 -1.42142
  4052 17.3542 0.211741 0.811558
  4053 17.7919 -0.504904 0.371589
  4054 17.7720 -0.463732 -1.76041
  4055 17.7409 -0.453904 0.0897729
  4056 17.7441 -0.452256 -0.0771278
  4057 17.5938 -0.0497756 1.26845
  4058 17.1172 0.407330 0.351006
  4059 18.4521 -2.04361 -0.211002
  4060 17.1883 0.418236 0.537034
  4061 17.3151 0.139324 0.132264
  4062 17.1856 0.398629 -0.581049
  4063 17.1079 0.298807 -0.0827012
  4064 18.3127 -1.55517 -0.0795353
  4065 18.0985 -1.14176 0.00664629
  4066 18.7274 -2.84525 -0.770944
  4067 16.9031 0.883699 -0.557930
  4068 18.3169 -1.61584 0.460869
  4069 18.4033 -2.34237 1.24763
  4070 17.6587 -0.303738 -0.149557
  4071 17.1035 0.793642 -1.16091
  4072 17.4875 0.150409 -1.35146
  4073 17.6293 -0.241672 0.292052
  4074 17.6292 -0.185911 -0.554267
  4075 17.6613 -0.328516 0.410561
  4076 16.8669 0.831765 0.621735
  4077 17.7891 -0.526138 -0.654062
  4078 18.8674 -3.18330 0.111117
  4079 18.6473 -2.59460 -0.170221
  4080 17.8693 -0.746743 -1.35082
  4081 17.3289 0.615797 1.53765
  4082 17.6941 -0.397969 -1.45907
  4083 17.5965 -0.162630 0.553608
  4084 16.7753 0.409893 0.0284900
  4085 17.6350 -0.256293 -0.296422
  4086 17.8848 -0.994542 1.75840
  4087 17.6821 -0.354816 -0.403845
  4088 17.1764 0.620957 -0.938822
  4089 17.5845 -0.191340 -0.0767043
  4090 17.8590 -0.642005 -0.471546
  4091 17.5665 -0.164682 1.47542
  4092 17.7478 -0.474444 -1.19427
  4093 18.2464 -1.61389 -1.29053
  4094 17.6516 -0.313951 0.146788
  4095 17.4718 0.208478 -1.68732
  4096 18.5670 -2.65681 -1.03271
  4097 17.1320 0.318278 0.151497
  4098 16.8037 0.622312 0.229565
  4099 18.3978 -2.12911 -1.48138
  4100 18.2295 -1.51824 1.08058
  4101 17.8532 -0.605881 0.486819
  4102 17.8980 -0.664127 -0.780039
  4103 17.5307 -0.106070 -0.344414
  4104 17.7781 -0.444999 0.674291
  4105 17.5685 -0.196219 0.0591996
  4106 17.2748 0.503960 -1.16462
  4107 17.4953 -0.0770830 -0.124698
  4108 16.9798 0.453070 -0.221926
  4109 18.5387 -2.72926 0.990837
  4110 17.2479 0.640724 0.884154
  4111 17.2310 0.171537 0.0683121
  4112 17.6230 -0.234545 -0.977292
  4113 18.0307 -0.951674 -0.160511
  4114 17.4089 0.00595881 -0.0752237
  4115 17.1678 0.320000 -0.205537
  4116 17.5101 -0.0903997 0.295177
  4117 18.0259 -1.35510 1.73353
  4118 16.9567 0.823909 1.01274
  4119 18.4664 -2.17052 -1.05040
  4120 17.4684 -0.0225371 -0.247568
  4121 18.5792 -2.43613 0.285672
  4122 17.4996 -0.0672243 0.117048
  4123 18.7077 -2.91960 -0.239481
  4124 16.9501 0.454670 0.158596
  4125 17.3573 0.247834 0.690364
  4126 17.9892 -0.872262 0.226820
  4127 16.7073 0.470537 -0.0454429
  4128 18.8427 -3.31040 -0.0484537
  4129 17.0152 1.10994 1.02206
  4130 17.0753 1.09602 -0.933028
  4131 16.9428 1.09319 0.806035
  4132 16.8537 0.916263 0.605117
  4133 16.9142 0.955314 0.512014
  4134 16.8204 0.818368 0.392844
  4135 16.7592 0.737300 0.231907
  4136 16.8475 0.614652 0.163002
  4137 16.7149 0.576105 0.124397
  4138 16.8634 0.479551 0.0692272
  4139 16.7971 0.437679 0.0881568
  4140 16.9162 0.394319 -0.0882403
  4141 16.9364 0.484115 -0.0601379
  4142 16.7742 0.511382 -0.0785694
  4143 16.7854 0.575258 -0.192172
  4144 16.9358 0.750845 -0.279931
  4145 16.8020 0.730360 -0.364949
  4146 16.9201 0.958187 -0.505403
  4147 16.8297 0.906040 -0.648348
  4148 16.9162 1.05368 -0.785177
  4149 17.0321 0.977656 -1.06314
  4150 17.1274 0.962081 -1.27345
  4151 17.1996 0.735267 -1.45076
  4152 17.3490 0.469241 -1.68113
  4153 17.4771 0.0381560 -1.76395
  4154 17.6070 -0.340934 -1.79292
  4155 17.6916 -0.797270 -1.85675
  4156 17.9075 -1.38788 -1.82495
  4157 18.0182 -1.74395 -1.71812
  4158 18.3003 -1.89470 -1.62687
  4159 18.4832 -2.52461 -1.32780
  4160 18.6955 -2.83246 -1.00120
  4161 18.8463 -3.04988 -0.649539
  4162 18.7479 -3.18420 -0.336005
  4163 18.9955 -3.17803 0.323278
  4164 18.6332 -2.99532 0.708296
  4165 18.5123 -2.89224 0.967027
  4166 18.4616 -2.60532 1.28335
  4167 18.3453 -2.12040 1.50739
  4168 18.1971 -1.61940 1.75648
  4169 17.8685 -1.22178 1.88665
  4170 17.7488 -0.726652 1.86099
  4171 17.5875 -0.389356 1.80663
  4172 17.4023 -0.0173714 1.78344
  4173 17.3538 0.563873 1.66379
  4174 17.1666 0.770883 1.45206
  4175 17.0977 0.941930 1.27986
  4176 16.9988 0.954960 1.07558
</Section>

newXOutput 13

<Section columns = "stress_xx | stress_yy | stress_xy">
  1 89.0462 0.118100 -0.268709
  2 89.0469 0.118145 0.268763
  3 118.359 -0.0372693 0.0694058
  4 118.358 -0.0373206 -0.0694526
  5 290.536 18.1133 3.42968
  6 365.824 4.82284 0.497954
  7 94.4521 -0.00823369 -0.305009
  8 94.4565 -0.00822238 0.305120
  9 123.297 -0.00811254 0.233766
  10 123.299 -0.00812823 -0.233782
  11 13.1402 -91.5532 3.80533
  12 13.4821 -92.2269 -4.18855
  13 103.054 1.40736 -0.145594
  14 103.054 1.40815 0.145570
  15 119.942 -0.212982 0.178977
  16 89.1131 0.145851 -0.432827
  17 89.1145 0.145867 0.433050
  18 119.943 -0.213005 -0.179126
  19 99.0274 3.50631 -2.21969
  20 99.0300 3.50613 2.21863
  21 94.3303 0.284889 0.174426
  22 86.0665 1.16505 0.0491285
  23 95.1105 0.0292415 -0.295102
  24 95.6622 0.0406131 -0.323685
  25 96.5196 0.0392592 -0.467144
  26 97.2327 0.0304368 -0.409615
  27 98.0379 0.0355579 -0.481293
  28 99.0818 0.0111102 -0.525109
  29 99.9957 -0.0298655 -0.455281
  30 101.049 -0.00395182 -0.429721
  31 102.238 -0.0164454 -0.446991
  32 103.277 0.0117064 -0.462767
  33 104.641 0.0561340 -0.696007
  34 106.011 0.0684468 -0.716124
  35 107.440 0.0642057 -0.881371
  36 109.344 0.0208582 -0.956189
  37 110.708 -0.0318783 -0.933052
  38 112.843 0.00535576 -0.928592
  39 114.422 -0.0139408 -0.954067
  40 116.967 -0.0159680 -0.935761
  41 118.843 0.0611788 -1.16102
  42 121.108 0.109514 -1.35479
  43 123.866 -0.0956324 -1.45065
  44 126.927 -0.111355 -1.35437
  45 129.313 -0.0478640 -1.32717
  46 132.747 -0.0250729 -1.34301
  47 135.267 -0.0118399 -1.75473
  48 137.987 0.0651890 -1.88219
  49 142.229 -0.220369 -1.70151
  50 146.243 -0.228777 -1.45528
  51 149.471 -0.179290 -1.55374
  52 153.876 -0.191284 -1.36547
  53 157.093 -0.115364 -1.83693
  54 161.381 -0.121162 -1.73522
  55 165.140 -0.0991732 -2.03538
  56 168.020 -0.222491 -2.17178
  57 174.225 -0.748654 -1.75366
  58 175.522 -0.150459 -1.59770
  59 179.803 -0.0408804 -1.27008
  60 182.778 -0.248383 -1.43422
  61 185.378 -0.309140 -1.01027
  62 187.690 -0.332423 -0.787732
  63 189.026 -0.354717 -0.447345
  64 189.956 -0.406953 -0.0514219
  65 190.040 -0.508766 0.494182
  66 188.164 -0.549963 0.957761
  67 187.440 -0.535853 1.16852
  68 184.392 -0.777232 1.67734
  69 179.027 -0.579390 2.57546
  70 173.063 -0.516452 3.39523
  71 166.818 -0.358547 3.94910
  72 158.153 -0.283547 4.49385
  73 150.124 0.0384210 4.83495
  74 139.418 0.155044 4.82439
  75 131.833 0.358728 4.91812
  76 119.792 0.694450 4.06668
  77 111.908 1.00741 4.48823
  78 103.465 0.653954 2.94627
  79 99.1006 1.04906 3.43457
  80 89.7261 1.35862 1.66977
  81 89.5269 1.18710 1.57610
  82 87.1886 1.03158 -0.933882
  83 89.1984 1.31752 -2.01080
  84 94.2042 1.80341 -2.09205
  85 104.933 0.864185 -3.81560
  86 111.906 0.911559 -5.03646
  87 119.565 0.707741 -4.50732
  88 132.104 0.266271 -5.21007
  89 140.688 -0.124355 -5.40530
  90 149.520 0.0713609 -4.24511
  91 158.408 -0.0789235 -4.25114
  92 166.858 -0.337381 -3.82331
  93 173.121 -0.487292 -3.34152
  94 179.034 -0.569654 -2.55582
  95 184.375 -0.774265 -1.66880
  96 187.411 -0.534151 -1.16445
  97 188.131 -0.547943 -0.955957
  98 190.004 -0.507568 -0.494569
  99 189.923 -0.406186 0.0495551
  100 188.999 -0.354324 0.444800
  101 187.668 -0.332258 0.784980
  102 185.362 -0.309160 1.00763
  103 182.767 -0.248505 1.43176
  104 179.797 -0.0411361 1.26807
  105 175.520 -0.150750 1.59596
  106 174.226 -0.748736 1.75225
  107 168.023 -0.222514 2.17042
  108 165.146 -0.0993197 2.03445
  109 161.388 -0.121291 1.73454
  110 157.102 -0.115486 1.83646
  111 153.886 -0.191373 1.36509
  112 149.481 -0.179359 1.55349
  113 146.254 -0.228846 1.45503
  114 142.240 -0.220439 1.70132
  115 137.999 0.0651299 1.88212
  116 135.279 -0.0119334 1.75476
  117 132.759 -0.0251305 1.34303
  118 129.325 -0.0479027 1.32726
  119 126.938 -0.111434 1.35444
  120 123.877 -0.0956786 1.45080
  121 121.119 0.109515 1.35499
  122 118.854 0.0611445 1.16122
  123 116.977 -0.0160012 0.935902
  124 114.431 -0.0139616 0.954248
  125 112.853 0.00533110 0.928754
  126 110.718 -0.0319050 0.933263
  127 109.353 0.0208416 0.956395
  128 107.448 0.0642009 0.881603
  129 106.019 0.0684488 0.716330
  130 104.648 0.0561378 0.696199
  131 103.284 0.0116916 0.462906
  132 102.245 -0.0164643 0.447113
  133 101.056 -0.00396687 0.429842
  134 100.002 -0.0298847 0.455413
  135 99.0878 0.0111001 0.525265
  136 98.0436 0.0355583 0.481459
  137 97.2382 0.0304387 0.409768
  138 96.5248 0.0392704 0.467314
  139 95.6671 0.0406096 0.323808
  140 95.1153 0.0292330 0.295203
  141 91.8669 0.441231 0.407218
  142 95.5641 0.841162 0.332929
  143 98.8549 1.32502 0.291356
  144 107.087 1.05685 -0.0432096
  145 111.260 0.694934 -0.0434117
  146 115.309 0.249488 0.0332496
  147 124.101 -0.0580830 -0.173430
  148 124.373 -0.0718578 -0.273577
  149 124.881 -0.0952126 -0.138754
  150 125.176 -0.0827610 -0.243335
  151 125.324 -0.0995301 -0.0966986
  152 125.636 -0.0437721 -0.0494198
  153 125.387 -0.170591 -0.0303457
  154 125.052 -0.123327 0.256101
  155 124.873 -0.151017 0.364518
  156 124.106 -0.180163 0.408193
  157 122.654 -0.151102 0.680428
  158 121.257 -0.114099 0.811785
  159 119.128 -0.152350 1.05150
  160 116.858 -0.0489335 1.43430
  161 114.028 -0.0246357 1.11716
  162 111.522 -0.00459816 1.21378
  163 108.050 0.0706419 1.19517
  164 105.325 0.117250 1.46500
  165 102.087 0.163264 1.27896
  166 99.3832 0.192406 1.17428
  167 96.8322 0.303570 0.871983
  168 94.8200 0.272457 0.549798
  169 94.7793 0.170825 0.542332
  170 94.0583 0.534944 -0.543655
  171 94.7561 0.389858 -0.605433
  172 97.3577 0.312556 -1.01685
  173 99.6807 0.327953 -1.58752
  174 101.802 0.114684 -1.32064
  175 105.287 0.117703 -1.44774
  176 108.051 0.0806971 -1.20412
  177 111.548 -0.0102754 -1.22161
  178 114.057 -0.0268331 -1.11723
  179 116.881 -0.0496136 -1.43122
  180 119.147 -0.152238 -1.04913
  181 121.271 -0.113985 -0.809734
  182 122.664 -0.150964 -0.678771
  183 124.113 -0.180042 -0.406776
  184 124.878 -0.150946 -0.363497
  185 125.054 -0.123296 -0.255175
  186 125.388 -0.170487 0.0311225
  187 125.636 -0.0436662 0.0499443
  188 125.323 -0.0994380 0.0970979
  189 125.174 -0.0826731 0.243571
  190 124.879 -0.0951362 0.138937
  191 124.371 -0.0717951 0.273639
  192 124.098 -0.0580351 0.173471
  193 115.309 0.249334 -0.0333072
  194 111.261 0.694506 0.0433384
  195 107.088 1.05619 0.0431503
  196 98.8554 1.32430 -0.291296
  197 95.5641 0.840690 -0.332837
  198 91.8664 0.441025 -0.407130
  199 88.2486 0.399454 -0.404870
  200 89.4198 0.0978824 -0.487485
  201 90.4602 0.0592134 -0.459414
  202 91.3416 0.0477536 -0.393370
  203 92.4019 0.00661111 -0.454618
  204 93.0557 -0.00291592 -0.391846
  205 93.6139 -0.00188374 -0.285795
  206 94.7056 0.0291322 -0.663069
  207 94.8189 0.0888513 -1.16417
  208 95.1381 0.217415 -1.81410
  209 95.2939 0.366805 -2.36203
  210 95.3790 0.561657 -2.94287
  211 95.2303 0.830111 -3.35314
  212 95.2443 1.10276 -3.82989
  213 95.0379 1.45418 -4.20189
  214 94.7873 1.80843 -4.49401
  215 94.5140 2.20891 -4.72314
  216 94.1724 2.61962 -4.79784
  217 93.9098 2.97612 -4.79035
  218 93.5810 3.43801 -4.73868
  219 93.2855 3.82471 -4.49543
  220 93.0336 4.18229 -4.21009
  221 92.9196 4.51603 -3.77597
  222 92.8549 4.71605 -3.24581
  223 92.9480 4.97683 -2.63357
  224 93.1275 5.05673 -1.93617
  225 93.7149 4.94693 -1.15777
  226 94.4109 4.85144 -0.435883
  227 95.2083 4.62480 0.307680
  228 96.2819 4.35648 1.02226
  229 97.4471 3.88225 1.68665
  230 100.566 2.89122 2.68698
  231 102.282 2.42192 3.00192
  232 103.925 1.96148 3.18382
  233 105.729 1.54646 3.19016
  234 107.281 1.10279 3.18746
  235 109.080 0.790463 3.06829
  236 110.662 0.508049 2.88717
  237 112.174 0.344201 2.68106
  238 113.822 0.209489 2.38940
  239 115.222 0.132540 2.08861
  240 116.688 0.0201305 1.81583
  241 118.140 0.0830741 1.50972
  242 119.586 0.0303923 1.19261
  243 120.960 0.0168410 0.855627
  244 122.269 0.0436616 0.480491
  245 122.865 -0.0491722 0.179679
  246 122.032 -0.0620508 0.208357
  247 120.971 -0.117856 0.316094
  248 118.487 -0.0586612 0.277978
  249 122.271 0.0436205 -0.480503
  250 120.962 0.0166851 -0.855632
  251 119.587 0.0300690 -1.19262
  252 118.141 0.0825777 -1.50976
  253 116.690 0.0194028 -1.81597
  254 115.223 0.131664 -2.08889
  255 113.822 0.208412 -2.38985
  256 112.175 0.343015 -2.68178
  257 110.662 0.506845 -2.88812
  258 109.080 0.789290 -3.06948
  259 107.280 1.10176 -3.18884
  260 105.728 1.54565 -3.19163
  261 103.924 1.96085 -3.18534
  262 102.280 2.42155 -3.00338
  263 100.564 2.89112 -2.68829
  264 97.4443 3.88261 -1.68746
  265 96.2791 4.35704 -1.02276
  266 95.2055 4.62548 -0.307880
  267 94.4082 4.85223 0.435987
  268 93.7124 4.94779 1.15814
  269 93.1252 5.05763 1.93682
  270 92.9460 4.97774 2.63447
  271 92.8532 4.71695 3.24692
  272 92.9183 4.51692 3.77725
  273 93.0328 4.18312 4.21153
  274 93.2850 3.82548 4.49696
  275 93.5810 3.43871 4.74028
  276 93.9102 2.97674 4.79199
  277 94.1732 2.62016 4.79948
  278 94.5153 2.20937 4.72474
  279 94.7890 1.80880 4.49556
  280 95.0400 1.45449 4.20335
  281 95.2468 1.10299 3.83123
  282 95.2332 0.830299 3.35432
  283 95.3822 0.561784 2.94392
  284 95.2975 0.366896 2.36288
  285 95.1420 0.217474 1.81476
  286 94.8230 0.0888696 1.16460
  287 94.7099 0.0291350 0.663318
  288 93.6180 -0.00190475 0.285900
  289 93.0596 -0.00295041 0.391976
  290 92.4054 0.00658700 0.454783
  291 91.3446 0.0477441 0.393553
  292 90.4627 0.0592118 0.459613
  293 89.4218 0.0978709 0.487673
  294 88.2495 0.399479 0.404986
  295 118.488 -0.0586417 -0.278115
  296 120.973 -0.117901 -0.316245
  297 122.034 -0.0620792 -0.208439
  298 122.868 -0.0492022 -0.179721
  299 17.8842 -82.3527 -1.96220
  300 22.2477 -59.5878 -3.17388
  301 36.5014 -25.7539 8.80055
  302 59.7171 -1.48495 21.3886
  303 103.183 21.5071 42.3523
  304 147.848 33.9727 58.5425
  305 197.409 34.0015 60.6202
  306 247.688 29.2068 53.2825
  307 279.684 21.8338 30.5135
  308 272.534 24.6820 -27.3836
  309 245.135 27.9747 -55.4350
  310 196.767 35.1099 -62.5399
  311 143.666 33.5722 -56.2549
  312 99.7644 26.5887 -46.4749
  313 60.8727 3.54183 -23.8783
  314 40.0434 -22.7486 -11.8810
  315 23.1071 -62.6473 4.30750
  316 19.6533 -85.7571 2.08515
  317 13.9381 -100.551 -14.4583
  318 13.5279 -83.3735 -16.7557
  319 16.4263 -64.0376 -16.0977
  320 27.7347 -36.3562 -4.99523
  321 45.1484 -13.8905 6.44040
  322 72.3671 6.66112 21.0971
  323 111.494 14.7150 36.8189
  324 151.416 25.3598 53.4515
  325 188.563 24.9505 60.2516
  326 231.015 24.2679 64.6449
  327 270.852 20.9819 56.4765
  328 316.736 13.4784 53.4866
  329 339.311 10.4938 34.9416
  330 357.407 4.79309 16.7175
  331 363.329 5.88496 -19.8620
  332 341.729 8.74346 -36.5910
  333 314.916 14.7723 -48.4038
  334 281.131 20.7783 -59.6493
  335 236.689 23.5086 -62.2408
  336 197.060 26.8311 -62.9476
  337 148.320 23.7107 -51.4119
  338 107.789 16.1198 -35.8749
  339 66.8098 7.07113 -20.3100
  340 45.5189 -14.1693 -5.53599
  341 28.1360 -36.2284 4.93054
  342 16.4992 -64.0121 15.9932
  343 13.5122 -83.5114 16.6508
  344 13.9122 -101.056 14.2253
  345 93.8741 1.34512 -1.97805
  346 99.3759 2.26628 -0.182943
  347 108.848 1.16262 1.13975
  348 93.1568 0.478639 -2.13894
  349 95.5678 2.70302 -1.70410
  350 114.081 0.516992 1.37165
  351 93.8549 1.74223 -3.10068
  352 103.081 2.26949 1.20844
  353 98.0809 3.42423 0.112646
  354 94.1948 3.13535 -2.87715
  355 93.5736 0.169319 -1.50370
  356 109.845 1.14565 1.96353
  357 94.1465 0.846898 -2.94467
  358 94.1099 1.44904 -3.55806
  359 94.5971 3.74508 -2.05607
  360 117.721 0.206453 1.14785
  361 105.218 1.91674 2.08729
  362 96.2716 1.64057 -0.976224
  363 113.612 0.515682 1.88024
  364 93.8388 2.94989 -3.69282
  365 100.718 2.98044 1.45046
  366 92.1163 0.365834 -1.43089
  367 113.452 0.485586 0.654458
  368 103.160 1.91625 0.444133
  369 107.911 1.24907 2.54276
  370 95.1712 4.24839 -1.01721
  371 97.0396 3.96210 0.241873
  372 93.0419 0.589383 -0.748543
  373 111.251 0.760180 2.43237
  374 94.0155 2.30008 -4.05772
  375 93.7145 3.97514 -3.04719
  376 94.0248 0.0500363 -0.926673
  377 120.279 0.0567313 0.788772
  378 92.3964 0.172299 -1.40879
  379 93.1960 0.916011 -2.28779
  380 94.3955 0.387880 -2.25195
  381 100.384 1.48606 -0.0737601
  382 94.2371 2.04599 -2.45299
  383 106.342 1.64688 1.48838
  384 117.281 0.184048 1.49429
  385 118.076 0.125226 0.853282
  386 94.4349 1.37158 -3.75376
  387 107.350 1.19098 0.532998
  388 95.4055 2.09201 -1.63035
  389 103.210 2.30478 2.40496
  390 99.0744 3.40960 1.26969
  391 91.5088 0.204150 -1.20963
  392 100.366 2.60579 0.342027
  393 90.7685 0.200821 -0.515733
  394 111.300 0.897870 1.47046
  395 96.2659 3.45200 -1.07756
  396 97.7724 2.66205 -0.663960
  397 93.6561 1.27828 -2.90936
  398 94.1978 0.200067 -1.67132
  399 93.5838 3.47802 -3.86162
  400 94.0783 4.34866 -2.13709
  401 114.126 0.336021 2.13151
  402 94.5609 0.845952 -3.19738
  403 115.566 0.372389 0.796965
  404 96.9982 1.23878 -0.404433
  405 96.5863 2.32396 -1.17432
  406 94.0236 2.24398 -3.10927
  407 93.2371 0.0306587 -0.735488
  408 106.497 1.49156 2.75031
  409 94.1777 2.18204 -4.35548
  410 94.8025 2.40769 -2.16501
  411 95.5316 4.36303 -0.298915
  412 119.023 0.0978467 1.11325
  413 100.178 3.15337 1.93915
  414 119.581 0.125412 0.679500
  415 109.722 0.892508 2.62333
  416 93.8380 2.84916 -4.26158
  417 93.3559 0.422348 -2.02803
  418 94.3759 1.11207 -0.981507
  419 103.084 2.37483 1.79771
  420 92.4879 0.0654313 -0.840560
  421 99.5052 3.19957 0.763927
  422 93.7129 0.997054 -2.84978
  423 112.204 0.781777 1.79873
  424 98.7856 1.76845 -0.361374
  425 107.396 1.55702 2.03343
  426 111.002 0.771668 1.00709
  427 104.690 1.93061 1.04648
  428 92.8475 0.718434 -1.26275
  429 93.4165 4.41697 -2.74234
  430 94.9156 0.652452 -2.91600
  431 94.0576 4.54749 -1.59012
  432 103.760 1.53780 0.288263
  433 115.850 0.343646 1.61635
  434 93.3504 3.97002 -3.69889
  435 94.7264 3.08702 -2.29118
  436 112.584 0.526101 2.38571
  437 115.910 0.192324 1.83388
  438 92.4730 0.467750 -1.76144
  439 94.8061 1.17273 -3.71198
  440 94.4204 1.79568 -4.14895
  441 90.2651 0.0515321 -0.761065
  442 101.894 2.61991 2.45447
  443 104.604 1.93772 2.73962
  444 94.0215 2.59927 -4.45582
  445 96.4189 3.80035 -0.574936
  446 108.111 1.12403 2.82438
  447 93.5661 3.35547 -4.22130
  448 94.5055 4.60767 -0.913228
  449 93.7443 1.47704 -2.54490
  450 108.638 1.33286 1.56674
  451 110.557 0.802869 0.606735
  452 93.2256 4.31850 -3.30717
  453 97.4738 3.84076 0.974840
  454 111.309 0.593755 2.60190
  455 116.182 0.240738 0.395104
  456 101.203 2.12211 0.233137
  457 104.764 1.96859 1.70082
  458 95.0322 1.00729 -0.681670
  459 121.375 0.0338278 0.638137
  460 101.162 2.73170 0.997660
  461 96.2299 4.25693 0.411575
  462 93.8293 0.477355 -2.25201
  463 93.8093 3.36691 -3.33411
  464 94.0049 3.98825 -2.54784
  465 113.616 0.560965 1.09448
  466 93.9955 1.82918 -3.57422
  467 93.9230 2.29878 -3.66917
  468 93.1972 0.850162 -1.84867
  469 116.436 0.283213 1.20695
  470 112.634 0.608799 2.23421
  471 101.104 1.87337 0.00960924
  472 106.155 1.48800 0.818992
  473 111.375 0.811960 2.17030
  474 94.5150 0.131278 -1.45937
  475 95.5008 3.30336 -1.63327
  476 94.6693 4.15283 -1.61168
  477 90.4959 0.250453 -0.417373
  478 98.5494 3.56937 1.60141
  479 115.250 0.318998 1.82860
  480 94.9870 0.436151 -2.50038
  481 93.7755 0.729440 -0.278962
  482 92.3296 0.348909 -1.66008
  483 94.4397 1.09622 -3.45355
  484 109.577 1.05389 2.25136
  485 94.7928 0.302387 -2.00785
  486 120.010 0.0453026 1.04415
  487 101.851 2.76053 2.02780
  488 117.940 0.0933167 0.473552
  489 117.283 0.132532 1.65134
  490 94.1222 0.0117793 -0.522461
  491 91.4310 0.0628897 -0.901178
  492 108.771 1.06738 0.905502
  493 113.395 0.466382 0.291568
  494 114.460 0.506603 1.55833
  495 94.2004 1.23055 -3.38871
  496 94.3826 2.66919 -2.70294
  497 94.3753 0.625808 -2.71944
  498 94.7193 1.52531 -4.06421
  499 97.2801 3.23195 -0.583838
  500 98.7298 2.89536 -0.0920221
  501 93.9739 0.0906862 -1.22924
  502 102.199 2.31767 0.703177
  503 94.2038 3.60684 -2.67984
  504 121.825 -0.0212043 0.352275
  505 94.0441 2.83719 -3.15574
  506 97.8348 2.02228 -0.710618
  507 94.6075 1.40959 -1.52981
  508 106.387 1.67946 2.40445
  509 98.2165 3.59085 0.667450
  510 103.133 2.24616 2.74905
  511 93.0933 0.214610 -1.59188
  512 93.6526 0.648422 -2.45563
  513 118.455 0.126018 1.34360
  514 90.9013 0.102589 -0.869091
  515 109.038 0.940116 0.331376
  516 93.5575 0.0151586 -0.451930
  517 94.1445 1.85395 -3.96147
  518 91.4627 0.0459651 -0.659386
  519 117.047 0.135324 0.168368
  520 89.0948 0.305471 -0.447783
  521 95.4373 3.81602 -1.30464
  522 93.1988 0.713041 -2.31730
  523 106.983 1.54003 1.27634
  524 121.231 -0.00329565 0.316161
  525 122.525 0.0387812 0.318008
  526 93.4750 4.67979 -2.21284
  527 94.5852 1.84098 -1.95564
  528 118.926 0.0753348 1.10659
  529 119.573 0.0300809 0.303533
  530 116.042 0.299605 0.938238
  531 99.5034 3.01332 0.427360
  532 118.088 0.194550 1.02297
  533 96.5151 3.00716 -1.13843
  534 93.3100 3.74100 -4.12194
  535 93.6283 1.39175 -2.76639
  536 105.773 1.26720 0.163875
  537 94.9877 0.914021 -3.40744
  538 110.536 1.07831 1.69079
  539 104.796 1.92590 2.39128
  540 90.4263 0.0565019 -0.620897
  541 93.8745 1.34560 1.97896
  542 99.3747 2.26714 0.183055
  543 108.848 1.16304 -1.14029
  544 93.1588 0.478787 2.13984
  545 95.5669 2.70385 1.70486
  546 114.081 0.517019 -1.37224
  547 93.8555 1.74272 3.10194
  548 103.079 2.27006 -1.20901
  549 98.0790 3.42506 -0.112723
  550 94.1941 3.13615 2.87829
  551 93.5767 0.169367 1.50430
  552 109.845 1.14561 -1.96435
  553 94.1488 0.847110 2.94579
  554 94.1113 1.44940 3.55940
  555 94.5956 3.74599 2.05686
  556 117.722 0.206353 -1.14824
  557 105.217 1.91681 -2.08826
  558 96.2711 1.64127 0.976723
  559 113.613 0.515386 -1.88087
  560 93.8387 2.95059 3.69421
  561 100.716 2.98091 -1.45117
  562 92.1175 0.365988 1.43155
  563 113.453 0.485838 -0.654828
  564 103.159 1.91703 -0.444360
  565 107.910 1.24864 -2.54384
  566 95.1690 4.24930 1.01759
  567 97.0373 3.96289 -0.242006
  568 93.0423 0.589665 0.748977
  569 111.251 0.759590 -2.43322
  570 94.0162 2.30061 4.05921
  571 93.7133 3.97602 3.04833
  572 94.0286 0.0500534 0.927022
  573 120.281 0.0566636 -0.788972
  574 92.3989 0.172362 1.40940
  575 93.1972 0.916322 2.28879
  576 94.3986 0.387969 2.25281
  577 100.383 1.48686 0.0738369
  578 94.2371 2.04661 2.45406
  579 106.341 1.64724 -1.48907
  580 117.282 0.183752 -1.49463
  581 118.077 0.125215 -0.853666
  582 94.4367 1.37190 3.75514
  583 107.350 1.19162 -0.533241
  584 95.4050 2.09273 1.63111
  585 103.209 2.30473 -2.40611
  586 99.0722 3.41012 -1.27030
  587 91.5107 0.204228 1.21018
  588 100.364 2.60661 -0.342177
  589 90.7694 0.200925 0.516074
  590 111.300 0.898054 -1.47111
  591 96.2642 3.45292 1.07800
  592 97.7711 2.66294 0.664276
  593 93.6573 1.27863 2.91056
  594 94.2012 0.200110 1.67197
  595 93.5833 3.47879 3.86302
  596 94.0765 4.34959 2.13789
  597 114.126 0.335368 -2.13205
  598 94.5634 0.846148 3.19857
  599 115.566 0.372521 -0.797373
  600 96.9978 1.23943 0.404652
  601 96.5854 2.32479 1.17487
  602 94.0237 2.24459 3.11051
  603 93.2407 0.0306618 0.735775
  604 106.496 1.49103 -2.75154
  605 94.1787 2.18254 4.35702
  606 94.8020 2.40843 2.16596
  607 95.5292 4.36385 0.298979
  608 119.025 0.0976709 -1.11347
  609 100.175 3.15363 -1.94009
  610 119.583 0.125386 -0.679762
  611 109.722 0.891767 -2.62433
  612 93.8383 2.84979 4.26309
  613 93.3584 0.422479 2.02885
  614 94.3760 1.11255 0.982105
  615 103.083 2.37512 -1.79856
  616 92.4909 0.0654532 0.840901
  617 99.5033 3.20026 -0.764309
  618 93.7146 0.997308 2.85092
  619 112.204 0.781717 -1.79945
  620 98.7849 1.76927 0.361613
  621 107.396 1.55705 -2.03432
  622 111.002 0.771995 -1.00758
  623 104.689 1.93123 -1.04698
  624 92.8482 0.718729 1.26342
  625 93.4148 4.41787 2.74332
  626 94.9185 0.652616 2.91706
  627 94.0554 4.54840 1.59068
  628 103.759 1.53858 -0.288377
  629 115.851 0.343428 -1.61687
  630 93.3495 3.97087 3.70020
  631 94.7254 3.08787 2.29212
  632 112.584 0.525322 -2.38640
  633 115.911 0.191753 -1.83423
  634 92.4746 0.467913 1.76224
  635 94.8083 1.17300 3.71331
  636 94.4219 1.79608 4.15043
  637 90.2667 0.0515621 0.761421
  638 101.892 2.61988 -2.45566
  639 104.603 1.93734 -2.74092
  640 94.0222 2.59983 4.45738
  641 96.4169 3.80125 0.575149
  642 108.110 1.12326 -2.82555
  643 93.5659 3.35620 4.22280
  644 94.5030 4.60853 0.913529
  645 93.7448 1.47751 2.54600
  646 108.637 1.33310 -1.56746
  647 110.557 0.803309 -0.607049
  648 93.2242 4.31939 3.30834
  649 97.4713 3.84135 -0.975325
  650 111.309 0.592858 -2.60275
  651 116.183 0.240862 -0.395350
  652 101.202 2.12293 -0.233245
  653 104.763 1.96892 -1.70159
  654 95.0322 1.00779 0.682088
  655 121.377 0.0337606 -0.638223
  656 101.160 2.73235 -0.998119
  657 96.2273 4.25764 -0.411820
  658 93.8320 0.477475 2.25290
  659 93.8086 3.36772 3.33537
  660 94.0034 3.98915 2.54880
  661 113.616 0.561130 -1.09500
  662 93.9964 1.82964 3.57560
  663 93.9234 2.29936 3.67057
  664 93.1980 0.850485 1.84955
  665 116.437 0.283160 -1.20744
  666 112.634 0.608297 -2.23493
  667 101.103 1.87421 -0.00959957
  668 106.154 1.48863 -0.819373
  669 111.375 0.811667 -2.17110
  670 94.5188 0.131307 1.45993
  671 95.4994 3.30425 1.63394
  672 94.6674 4.15377 1.61229
  673 90.4966 0.250578 0.417547
  674 98.5469 3.56976 -1.60219
  675 115.250 0.318593 -1.82909
  676 94.9902 0.436252 2.50129
  677 93.7757 0.729808 0.279195
  678 92.3317 0.349016 1.66080
  679 94.4418 1.09649 3.45483
  680 109.577 1.05358 -2.25227
  681 94.7963 0.302461 2.00859
  682 120.012 0.0451191 -1.04427
  683 101.849 2.76076 -2.02877
  684 117.941 0.0933579 -0.473823
  685 117.284 0.132049 -1.65156
  686 94.1263 0.0117929 0.522664
  687 91.4333 0.0629357 0.901575
  688 108.771 1.06788 -0.905917
  689 113.395 0.466672 -0.291745
  690 114.461 0.506499 -1.55893
  691 94.2022 1.23085 3.39000
  692 94.3822 2.66992 2.70407
  693 94.3780 0.625965 2.72048
  694 94.7212 1.52565 4.06564
  695 97.2785 3.23285 0.584087
  696 98.7282 2.89623 0.0920719
  697 93.9775 0.0907260 1.22970
  698 102.197 2.31841 -0.703510
  699 94.2027 3.60772 2.68089
  700 121.828 -0.0212350 -0.352372
  701 94.0437 2.83792 3.15699
  702 97.8338 2.02311 0.710969
  703 94.6075 1.41015 1.53056
  704 106.386 1.67929 -2.40553
  705 98.2143 3.59155 -0.667782
  706 103.132 2.24588 -2.75038
  707 93.0961 0.214665 1.59254
  708 93.6548 0.648587 2.45663
  709 118.456 0.125714 -1.34376
  710 90.9025 0.102680 0.869525
  711 109.038 0.940661 -0.331521
  712 93.5615 0.0151553 0.452100
  713 94.1455 1.85439 3.96293
  714 91.4654 0.0459894 0.659666
  715 117.048 0.135413 -0.168471
  716 89.0958 0.305507 0.447956
  717 95.4356 3.81694 1.30517
  718 93.2004 0.713259 2.31825
  719 106.983 1.54050 -1.27691
  720 121.233 -0.00331910 -0.316287
  721 122.527 0.0387764 -0.318059
  722 93.4730 4.68071 2.21362
  723 94.5850 1.84162 1.95654
  724 118.928 0.0751979 -1.10690
  725 119.574 0.0300902 -0.303734
  726 116.043 0.299662 -0.938704
  727 99.5017 3.01413 -0.427562
  728 118.090 0.194519 -1.02338
  729 96.5138 3.00806 1.13894
  730 93.3094 3.74179 4.12338
  731 93.6292 1.39216 2.76754
  732 105.772 1.26792 -0.163969
  733 94.9903 0.914219 3.40866
  734 110.536 1.07842 -1.69154
  735 104.795 1.92576 -2.39240
  736 90.4284 0.0565137 0.621181
  737 73.7040 11.1217 4.89503
  738 73.7132 11.1195 -4.89383
  739 112.022 -9.27691 10.2326
  740 112.052 -9.32204 -10.2211
  741 94.8549 5.02884 10.0011
  742 94.8536 5.02847 -9.99871
  743 84.3775 0.769419 -23.2637
  744 84.3898 0.760513 23.2678
  745 130.040 0.495618 10.5531
  746 130.053 1.84252 -10.6651
  747 100.774 4.95476 -15.9292
  748 100.778 4.95334 15.9317
  749 126.215 -15.1615 15.6003
  750 126.176 -15.1555 -15.5829
  751 91.7973 4.00599 -7.19545
  752 91.8026 4.00845 7.19279
  753 117.392 -2.88360 1.45849
  754 117.396 -2.88789 -1.45571
  755 79.0699 -6.05673 23.5741
  756 79.0536 -6.04811 -23.5676
  757 87.2671 8.01402 4.11036
  758 87.2706 8.01321 -4.10945
  759 98.5465 1.49379 -5.69850
  760 98.5503 1.49400 5.70011
  761 118.502 9.73065 -0.303474
  762 122.013 -4.73707 5.03178
  763 122.009 -4.73463 -5.02604
  764 116.853 1.77736 -18.8373
  765 116.862 1.77352 18.8361
  766 105.269 2.26626 9.93285
  767 105.264 2.26640 -9.93098
  768 131.194 -18.2308 -9.55608
  769 130.685 -18.6318 10.1590
  770 166.093 -12.2497 7.69701
  771 166.078 -12.1782 -7.70978
  772 132.885 -2.51071 -16.8760
  773 132.898 -2.51587 16.8706
  774 106.294 -1.14032 6.13313
  775 106.294 -1.14464 -6.13661
  776 143.977 26.8132 3.59913
  777 48.1159 4.89304 -0.849327
  778 48.1503 4.88514 0.858219
  779 186.130 6.18753 -15.1219
  780 184.493 5.97344 15.5618
  781 188.003 16.1401 2.00897
  782 117.912 1.80226 -13.1024
  783 117.920 1.80113 13.1029
  784 91.9498 5.47076 -6.58414
  785 91.9491 5.47155 6.58602
  786 151.299 8.23936 -6.99246
  787 102.841 1.00473 5.92144
  788 102.835 1.00467 -5.92001
  789 115.312 2.76534 -7.31276
  790 115.438 2.84578 7.44298
  791 87.2042 8.63309 11.8506
  792 87.2056 8.63279 -11.8476
  793 79.6048 8.65704 16.6478
  794 79.6054 8.65960 -16.6416
  795 126.575 -11.1748 -0.507656
  796 126.569 -11.1911 0.506848
  797 158.668 -9.00494 -0.727396
  798 158.674 -8.98109 0.709421
  799 77.5411 6.52462 -9.02468
  800 77.5481 6.52683 9.01723
  801 62.0642 -16.3476 -22.2568
  802 62.1073 -16.3578 22.2547
  803 154.182 5.15320 4.14828
  804 90.8802 6.28027 -1.35092
  805 90.8843 6.28010 1.35025
  806 119.451 -0.669513 -1.06783
  807 119.449 -0.668117 1.06936
  808 120.722 -1.94973 1.89111
  809 120.722 -1.94737 -1.88583
  810 118.087 -1.17945 7.63026
  811 118.096 -1.19078 -7.62838
  812 119.172 -6.81463 1.51340
  813 119.182 -6.82141 -1.50850
  814 115.813 1.13232 8.76218
  815 115.805 1.13263 -8.76123
  816 157.645 -3.63863 -7.81428
  817 157.652 -3.64055 7.80234
  818 96.1384 -2.61909 -13.7072
  819 96.1481 -2.61115 13.7020
  820 97.8753 0.470938 -3.06162
  821 97.8797 0.471024 3.06259
  822 112.441 -1.24879 3.48059
  823 112.443 -1.25235 -3.48117
  824 95.0410 3.08455 6.38481
  825 95.0395 3.08406 -6.38290
  826 92.9780 -21.7095 -30.7561
  827 90.6058 -21.3541 31.0452
  828 130.317 16.8074 -6.45645
  829 98.6587 2.57107 5.13663
  830 98.6555 2.56973 -5.13912
  831 139.128 -0.0318820 -12.5293
  832 139.136 -0.0338021 12.5259
  833 108.225 -13.2474 -17.9929
  834 108.033 -13.2367 17.9762
  835 81.1936 9.13412 -0.334732
  836 81.1999 9.13388 0.333361
  837 163.279 -2.28923 -18.3693
  838 163.322 -1.93724 18.2969
  839 44.0314 -14.6896 23.5569
  840 44.0404 -14.6414 -23.7091
  841 156.812 8.59625 -9.66965
  842 122.197 -21.4726 -14.3472
  843 122.225 -21.2847 14.8368
  844 88.7117 7.65017 8.18367
  845 88.7135 7.64937 -8.18162
  846 96.7103 5.50163 12.9321
  847 96.7079 5.50185 -12.9295
  848 127.216 13.4906 7.05559
  849 100.486 0.445496 -3.52427
  850 100.491 0.445560 3.52528
  851 130.894 0.653271 11.0696
  852 130.885 0.654320 -11.0705
  853 105.860 -7.32984 -23.1413
  854 105.874 -7.33107 23.1408
  855 224.752 18.6943 -3.07435
  856 28.1763 -15.9292 -3.70950
  857 28.1559 -15.9472 3.76960
  858 109.072 0.632418 5.35336
  859 109.064 0.632418 -5.35230
  860 90.7738 6.19718 4.10874
  861 90.7761 6.19628 -4.10754
  862 108.590 3.32665 -2.01353
  863 97.0895 5.23958 19.7374
  864 97.0832 5.24354 -19.7346
  865 167.395 -5.09660 -11.3213
  866 167.442 -5.14298 11.3636
  867 113.293 -4.02095 4.46048
  868 113.299 -4.02791 -4.46121
  869 126.690 -5.32849 -7.72026
  870 126.688 -5.33964 7.73363
  871 119.782 -1.51113 4.14500
  872 119.785 -1.50970 -4.13830
  873 148.718 5.97355 11.9290
  874 62.4504 6.62079 14.4477
  875 62.4554 6.62469 -14.4342
  876 64.7270 8.75109 -5.10212
  877 64.7451 8.74581 5.09651
  878 142.738 -12.3113 14.4406
  879 98.6095 2.74958 8.07395
  880 98.6064 2.74932 -8.07193
  881 170.670 32.8608 -1.58271
  882 100.340 -0.531901 8.85724
  883 100.336 -0.536245 -8.86171
  884 185.775 -1.51486 0.407555
  885 185.725 -1.30184 -0.656795
  886 135.268 -8.86365 -4.99917
  887 134.909 -8.42460 5.37379
  888 228.111 17.3577 1.66734
  889 109.653 -0.387849 21.9293
  890 109.640 -0.381925 -21.9306
  891 136.062 -14.1640 -18.9900
  892 121.452 -0.882155 0.189366
  893 121.452 -0.880871 -0.186387
  894 156.651 -1.47877 -9.47019
  895 156.656 -1.48131 9.46238
  896 96.5217 1.23111 -4.59986
  897 96.5248 1.23134 4.60132
  898 82.2835 9.90724 -6.34293
  899 82.2787 9.90832 6.34427
  900 107.738 2.72000 2.75324
  901 178.619 30.5633 -0.678993
  902 106.063 3.30488 12.7877
  903 106.058 3.30546 -12.7858
  904 121.703 0.224120 -9.70873
  905 121.858 0.167983 9.71288
  906 107.163 0.199107 4.37385
  907 107.163 0.196585 -4.37591
  908 115.519 -0.601000 -2.25591
  909 115.518 -0.599009 2.25625
  910 138.529 11.1143 10.4367
  911 88.0021 8.44173 15.0820
  912 88.0018 8.44269 -15.0781
  913 91.1344 6.20091 1.41956
  914 91.1376 6.20016 -1.41922
  915 66.6492 10.5913 7.19762
  916 66.6615 10.5888 -7.19240
  917 123.189 6.69242 -8.93922
  918 108.944 -4.59061 -7.81814
  919 108.941 -4.58255 7.81310
  920 148.427 2.05473 -15.8842
  921 135.595 -7.81775 -15.1084
  922 135.617 -7.82454 15.1038
  923 57.6557 -4.42798 -20.0417
  924 57.6720 -4.44430 20.0557
  925 150.173 1.91634 16.6014
  926 123.044 -15.0078 8.10275
  927 123.895 -15.4978 -8.16454
  928 123.798 0.594374 -7.61003
  929 123.807 0.594058 7.61035
  930 112.208 0.327269 -6.20387
  931 112.158 0.413567 6.20619
  932 91.5429 -22.6895 -21.6616
  933 91.6345 -22.6877 21.4311
  934 95.5133 3.76477 8.03056
  935 95.5117 3.76433 -8.02842
  936 120.583 -4.55891 -1.77270
  937 120.587 -4.56232 1.77848
  938 147.492 -17.2648 -4.23204
  939 147.592 -17.2601 4.17727
  940 95.4223 4.37153 2.99702
  941 95.4187 4.37137 -2.99837
  942 138.416 5.92315 2.47714
  943 99.2894 3.57632 10.1991
  944 99.2861 3.57622 -10.1969
  945 109.322 3.44438 17.7665
  946 109.315 3.44704 -17.7655
  947 87.0616 7.06625 -2.59111
  948 87.0668 7.06675 2.58973
  949 253.296 21.5029 -0.640611
  950 58.2786 1.89527 -15.6876
  951 58.3036 1.89068 15.6687
  952 113.604 0.561085 5.80784
  953 113.595 0.561157 -5.80693
  954 146.605 -10.6840 -14.0695
  955 147.543 -10.3555 12.5362
  956 93.4984 4.01520 5.82866
  957 93.4982 4.01451 -5.82685
  958 96.6795 0.169408 -1.67216
  959 96.6841 0.169449 1.67273
  960 152.518 -0.379160 -9.27864
  961 152.524 -0.380853 9.27367
  962 224.889 10.8104 5.33008
  963 103.309 0.287098 2.91376
  964 103.302 0.287061 -2.91299
  965 106.562 0.307914 -3.56328
  966 106.569 0.307924 3.56410
  967 170.216 -2.49844 -2.40680
  968 170.209 -2.49519 2.39717
  969 137.207 8.45432 -10.4979
  970 85.7413 -0.725335 -16.6824
  971 85.7395 -0.712077 16.6697
  972 219.766 11.3205 -6.17904
  973 118.200 7.75608 5.24319
  974 121.138 -0.151047 -0.951094
  975 121.136 -0.150572 0.951690
  976 92.4058 5.59169 8.08768
  977 92.4059 5.59102 -8.08553
  978 173.232 -2.83069 3.40196
  979 173.213 -2.81606 -3.39580
  980 120.271 -10.2339 3.95483
  981 120.318 -10.2687 -3.95134
  982 123.225 -7.79399 -2.07071
  983 123.229 -7.79579 2.07924
  984 129.632 19.0606 0.754902
  985 82.4205 6.26357 20.0543
  986 82.4161 6.26915 -20.0479
  987 92.3133 6.68251 11.2185
  988 92.3129 6.68218 -11.2158
  989 106.599 1.21319 -3.89235
  990 144.594 -7.94884 -1.52973
  991 176.719 18.5231 11.0490
  992 146.081 22.9635 -7.27339
  993 92.0662 5.14036 4.97163
  994 92.0675 5.13950 -4.97008
  995 117.321 -0.789781 -4.65226
  996 117.313 -0.788462 4.65786
  997 88.1928 3.08312 -10.3888
  998 88.1981 3.08823 10.3850
  999 89.4393 7.05547 6.06694
  1000 89.4414 7.05459 -6.06534
  1001 116.935 7.25070 -4.69032
  1002 79.4433 10.3868 10.7069
  1003 79.4479 10.3861 -10.7034
  1004 102.028 2.02458 4.20365
  1005 102.026 2.02341 -4.20579
  1006 104.513 1.56619 -7.61847
  1007 104.518 1.56622 7.62010
  1008 92.9890 4.84809 -4.25208
  1009 92.9934 4.84886 4.25032
  1010 101.432 3.00063 21.3616
  1011 101.423 3.00619 -21.3604
  1012 140.787 0.356412 8.24328
  1013 140.778 0.357090 -8.24482
  1014 123.326 5.06916 9.66924
  1015 75.2804 9.84025 -1.95370
  1016 75.2895 9.83907 1.95062
  1017 163.724 -2.43949 -12.9622
  1018 163.839 -2.39217 12.9257
  1019 126.439 -0.649195 18.3597
  1020 126.428 -0.644573 -18.3634
  1021 95.0100 -14.0612 25.1581
  1022 94.8962 -14.0770 -25.3487
  1023 146.738 -10.1072 8.89212
  1024 146.709 -10.1067 -8.90600
  1025 114.883 -7.04234 5.64416
  1026 114.894 -7.05137 -5.64536
  1027 117.009 -1.47801 -1.79321
  1028 117.006 -1.47515 1.79474
  1029 95.3640 2.21099 5.42836
  1030 95.3621 2.21059 -5.42664
  1031 142.432 -9.80664 1.52101
  1032 83.6037 6.76456 -5.92296
  1033 83.6096 6.76665 5.91967
  1034 81.8106 -7.50877 24.5788
  1035 81.7906 -7.50079 -24.5818
  1036 99.0985 0.164634 -2.04302
  1037 99.1039 0.164652 2.04364
  1038 107.012 0.939190 4.34753
  1039 71.5200 4.18227 -13.4346
  1040 71.5304 4.18167 13.4206
  1041 119.575 -2.19443 -0.0928886
  1042 119.577 -2.19738 0.0968175
  1043 121.296 -0.658733 2.04186
  1044 121.300 -0.657614 -2.03720
  1045 88.3124 7.46837 0.953973
  1046 88.3165 7.46784 -0.953976
  1047 109.663 -16.1850 28.8039
  1048 121.794 -3.29432 -7.55458
  1049 121.801 -3.29164 7.56429
  1050 53.7363 -25.6756 27.8407
  1051 53.4863 -24.7431 -28.3424
  1052 162.628 7.99557 -15.7682
  1053 104.985 -7.92209 -14.2877
  1054 104.924 -7.92714 14.3267
  1055 122.412 -0.212694 -0.382026
  1056 122.411 -0.212217 0.383327
  1057 92.9273 5.53779 -0.521868
  1058 92.9307 5.53728 0.521562
  1059 96.4397 0.471876 2.90176
  1060 96.4358 0.471779 -2.90078
  1061 109.702 3.12784 14.2845
  1062 109.695 3.12896 -14.2831
  1063 105.181 -5.28670 11.2727
  1064 105.175 -5.29783 -11.2790
  1065 96.4497 2.20763 6.03888
  1066 96.4473 2.20729 -6.03709
  1067 167.228 -5.91055 15.6803
  1068 167.184 -5.96012 -15.6588
  1069 110.544 -2.12593 4.81498
  1070 110.547 -2.13100 -4.81686
  1071 100.411 1.30529 5.84091
  1072 100.406 1.30514 -5.83937
  1073 102.135 -14.1232 -23.0118
  1074 102.131 -14.1101 23.0123
  1075 110.298 1.43055 8.88207
  1076 110.291 1.43075 -8.88069
  1077 117.940 -0.315355 -1.66337
  1078 117.938 -0.314239 1.66385
  1079 178.851 -2.14779 -15.4507
  1080 179.012 -2.05068 15.4534
  1081 27.8565 -36.9612 -8.16359
  1082 27.8943 -36.9716 8.11977
  1083 168.412 -1.19969 -5.23126
  1084 168.409 -1.20080 5.22283
  1085 71.7887 -13.3524 29.1445
  1086 72.2886 -13.3097 -28.9393
  1087 131.476 0.308089 6.78380
  1088 131.466 0.308401 -6.78400
  1089 122.384 -0.593705 0.908039
  1090 122.387 -0.592847 -0.904747
  1091 20.0140 -34.1683 -10.3756
  1092 20.3056 -33.9045 10.7463
  1093 121.041 0.351341 -5.50543
  1094 121.051 0.351210 5.50594
  1095 96.2250 2.42607 7.04644
  1096 96.2204 2.42375 -7.04953
  1097 33.3416 -6.60101 -7.35018
  1098 33.4206 -6.62425 7.35664
  1099 49.2590 -30.6185 15.4844
  1100 49.2291 -30.6766 -15.4856
  1101 118.536 -4.77527 0.892876
  1102 118.542 -4.78052 -0.888613
  1103 85.1142 8.40004 0.958147
  1104 85.1192 8.39966 -0.958477
  1105 120.565 1.73967 -14.6857
  1106 120.573 1.73789 14.6855
  1107 160.904 -10.6083 4.46278
  1108 160.888 -10.5547 -4.47838
  1109 93.8353 -7.77622 -20.4326
  1110 93.7896 -7.72966 20.3987
  1111 124.173 -20.8234 21.3046
  1112 128.356 0.914700 -14.5667
  1113 128.365 0.912575 14.5649
  1114 120.872 -3.17078 -3.76380
  1115 120.873 -3.17350 3.77012
  1116 113.872 -2.43982 3.36152
  1117 113.876 -2.44467 -3.36134
  1118 110.246 0.0600927 3.40576
  1119 110.246 0.0579782 -3.40690
  1120 149.452 21.3759 7.71684
  1121 74.1809 -25.9205 -16.1952
  1122 74.2477 -25.3729 15.8411
  1123 92.7247 -17.8186 -29.7326
  1124 187.023 13.9845 9.37568
  1125 123.351 11.9414 -5.35731
  1126 115.929 -21.0664 -21.7189
  1127 48.6388 2.30485 10.2969
  1128 48.6536 2.30923 -10.2749
  1129 94.7341 6.64896 15.0781
  1130 94.7318 6.64978 -15.0750
  1131 111.279 4.83935 1.24091
  1132 113.662 -0.218138 -5.10847
  1133 113.656 -0.196316 5.11124
  1134 139.875 -1.78441 8.45863
  1135 149.898 0.186639 -6.87189
  1136 149.905 0.186034 6.86968
  1137 188.905 16.4288 -5.92001
  1138 117.216 -18.6588 18.4566
  1139 93.8478 4.38524 -7.32161
  1140 93.8484 4.38584 7.32366
  1141 130.145 -5.23393 -8.06851
  1142 130.669 -4.92781 8.30036
  1143 97.5345 2.52455 7.19759
  1144 97.5317 2.52425 -7.19563
  1145 121.588 3.37018 -4.18183
  1146 101.673 0.567898 -6.47313
  1147 101.675 0.570793 6.46964
  1148 184.867 11.3090 -12.7546
  1149 98.0462 3.50290 -3.39088
  1150 98.0493 3.50324 3.38927
  1151 148.541 0.0606293 14.5734
  1152 147.446 -3.57163 -12.1766
  1153 147.457 -3.57610 12.1677
  1154 132.160 2.67620 -11.2200
  1155 148.048 0.183162 -14.4541
  1156 99.1572 0.740011 -4.20821
  1157 99.1617 0.740128 4.20943
  1158 119.422 -1.90508 -6.30131
  1159 119.422 -1.90175 6.30886
  1160 102.043 1.39572 0.187779
  1161 101.825 3.93055 12.4131
  1162 101.821 3.93085 -12.4109
  1163 140.229 -1.43413 -8.42757
  1164 85.6502 8.71900 5.95456
  1165 85.6538 8.71810 -5.95324
  1166 114.454 -12.4563 12.3539
  1167 115.374 -12.9895 -12.1651
  1168 93.9051 6.65104 17.5295
  1169 93.9016 6.65331 -17.5261
  1170 94.3450 2.99505 5.54543
  1171 94.3441 2.99450 -5.54366
  1172 119.155 -1.39537 0.780018
  1173 119.157 -1.39768 -0.777457
  1174 78.9220 10.4576 3.85302
  1175 78.9287 10.4563 -3.85274
  1176 93.9177 0.994459 10.1455
  1177 93.9116 0.989804 -10.1494
  1178 112.510 0.265774 3.43482
  1179 112.501 0.265786 -3.43419
  1180 131.507 -14.9002 2.89605
  1181 132.255 -14.7541 -2.46607
  1182 101.602 2.04348 7.86716
  1183 101.598 2.04335 -7.86533
  1184 97.7645 0.109202 1.61256
  1185 97.7595 0.109188 -1.61204
  1186 173.600 -2.15680 -6.32038
  1187 173.616 -2.17338 6.34469
  1188 101.654 0.134709 -1.80597
  1189 101.660 0.134718 1.80648
  1190 118.396 -3.45706 20.5983
  1191 118.381 -3.45168 -20.6009
  1192 206.798 33.7630 -1.03362
  1193 85.8240 9.01021 8.63065
  1194 85.8268 9.00935 -8.62853
  1195 116.947 1.43702 10.9110
  1196 116.939 1.43765 -10.9101
  1197 116.451 0.931155 -8.22854
  1198 116.610 0.903639 8.31914
  1199 285.303 17.2353 8.55170
  1200 136.074 18.3597 7.72310
  1201 59.2534 9.22336 0.494229
  1202 59.2753 9.21689 -0.491808
  1203 91.4782 5.81401 2.83232
  1204 91.4807 5.81312 -2.83147
  1205 278.091 18.5749 -8.51282
  1206 112.984 -0.188252 -2.79052
  1207 112.983 -0.186385 2.79008
  1208 130.394 -19.7873 -12.3742
  1209 130.546 -19.7980 12.4201
  1210 91.8834 6.32021 -9.38247
  1211 91.8833 6.32081 9.38481
  1212 129.237 1.92234 10.4271
  1213 122.453 2.67483 6.56037
  1214 120.367 -17.7713 -15.0650
  1215 82.7355 9.55631 -3.28997
  1216 82.7302 9.55717 3.29023
  1217 126.026 -8.03571 4.45441
  1218 126.028 -8.03647 -4.44248
  1219 95.5474 5.35094 11.4642
  1220 95.5457 5.35081 -11.4616
  1221 138.884 -0.728061 14.5698
  1222 138.874 -0.724623 -14.5749
  1223 144.492 -14.0273 -7.50462
  1224 144.542 -14.0241 7.48637
  1225 129.580 9.01939 -10.0648
  1226 100.293 4.85361 14.1756
  1227 100.289 4.85435 -14.1731
  1228 137.027 23.8542 -2.22570
  1229 130.371 8.49556 10.3714
  1230 118.555 0.310532 -4.41908
  1231 118.564 0.310453 4.41963
  1232 153.697 -17.0353 -2.10831
  1233 153.880 -16.8745 1.89376
  1234 109.309 0.134741 -3.01052
  1235 109.317 0.134723 3.01116
  1236 104.699 0.364721 -5.30122
  1237 104.699 0.367423 5.29839
  1238 42.5815 -14.9800 17.0115
  1239 42.5551 -14.9532 -16.9947
  1240 74.5015 10.5546 11.8439
  1241 74.5075 10.5542 -11.8385
  1242 166.466 1.06053 -19.2584
  1243 138.545 0.332603 5.95200
  1244 138.535 0.332917 -5.95266
  1245 123.174 13.3705 3.50807
  1246 162.209 33.2828 1.67382
  1247 98.1569 -2.63502 -23.8797
  1248 98.1711 -2.64140 23.8792
  1249 126.286 -1.62335 -9.87955
  1250 126.282 -1.78676 9.80914
  1251 103.032 -9.34923 -20.0474
  1252 105.910 -11.4988 20.1783
  1253 91.9089 5.31958 3.97178
  1254 91.9106 5.31868 -3.97053
  1255 88.8992 7.18196 3.14653
  1256 88.9025 7.18118 -3.14578
  1257 91.0240 5.95864 5.50007
  1258 91.0256 5.95778 -5.49849
  1259 164.103 -0.505666 -5.95042
  1260 164.104 -0.506588 5.94560
  1261 109.638 -3.20200 6.14000
  1262 109.641 -3.20856 -6.14333
  1263 217.791 11.5118 22.6157
  1264 166.640 0.922409 19.0794
  1265 113.402 4.53903 4.83532
  1266 198.018 5.28079 -6.40325
  1267 101.522 0.797024 -1.53368
  1268 74.3679 4.76311 19.9436
  1269 74.3623 4.77062 -19.9348
  1270 177.578 7.49734 26.9660
  1271 157.472 9.54775 -2.76877
  1272 67.5501 10.7444 1.34736
  1273 67.5643 10.7403 -1.34757
  1274 106.006 3.63920 -19.9603
  1275 106.014 3.63504 19.9613
  1276 157.641 9.92939 26.2465
  1277 73.4548 7.68080 17.2875
  1278 73.4550 7.68495 -17.2786
  1279 111.614 2.19111 12.0833
  1280 111.607 2.19179 -12.0819
  1281 222.031 20.0867 2.59314
  1282 162.635 10.0496 6.40760
  1283 202.183 30.2988 9.25466
  1284 169.538 2.54265 -21.8406
  1285 130.071 -9.49041 -4.47430
  1286 130.066 -9.44227 4.49902
  1287 174.878 -7.28448 10.0286
  1288 174.810 -7.41817 -9.95106
  1289 116.462 -5.59089 -3.09210
  1290 116.454 -5.58369 3.09432
  1291 97.7861 0.918030 4.33000
  1292 97.7823 0.917866 -4.32868
  1293 105.088 -2.12617 7.79745
  1294 105.087 -2.13161 -7.80240
  1295 117.764 -11.3610 -19.9720
  1296 117.781 -11.3618 19.9784
  1297 82.3905 9.92426 9.54248
  1298 82.3945 9.92342 -9.53988
  1299 149.886 -7.07419 -3.12347
  1300 112.089 3.73536 -4.94284
  1301 208.610 11.9643 -26.6623
  1302 192.527 24.7356 -16.7700
  1303 124.511 3.10575 -10.2795
  1304 258.658 16.4822 -17.9249
  1305 118.553 -0.499618 -2.99596
  1306 118.542 -0.500256 3.00141
  1307 119.817 -3.35058 -0.796060
  1308 119.820 -3.35408 0.801030
  1309 154.515 -1.01269 -11.8059
  1310 97.0077 1.19881 22.8676
  1311 96.9960 1.20573 -22.8663
  1312 114.872 -1.32010 -2.59843
  1313 114.869 -1.31689 2.59897
  1314 178.956 -1.28441 0.588308
  1315 178.936 -1.27997 -0.590625
  1316 115.744 -3.80503 2.73063
  1317 115.749 -3.81092 -2.72893
  1318 96.0598 0.939827 -3.87201
  1319 96.0629 0.940020 3.87329
  1320 166.299 5.84112 16.9029
  1321 158.134 -6.02803 -4.88604
  1322 158.144 -6.02350 4.87123
  1323 102.129 4.78938 17.6345
  1324 102.124 4.79171 -17.6323
  1325 118.050 -22.3618 -24.7813
  1326 59.3740 -5.84573 23.1857
  1327 59.3644 -5.83849 -23.2187
  1328 159.730 5.58819 -15.6088
  1329 123.913 -5.61614 -6.37991
  1330 123.917 -5.61816 6.38308
  1331 91.7433 7.24049 12.8533
  1332 91.7428 7.24052 -12.8503
  1333 123.275 -12.5032 -4.39595
  1334 123.248 -12.5102 4.31400
  1335 125.476 1.07678 11.2808
  1336 125.467 1.07769 -11.2810
  1337 14.4055 -47.7100 2.78462
  1338 14.5447 -48.0591 -2.72779
  1339 269.813 17.7363 19.4071
  1340 157.382 3.26688 0.548769
  1341 106.027 0.300985 -3.71322
  1342 161.982 19.9932 -4.95492
  1343 95.7028 1.52959 -4.62231
  1344 95.7052 1.52989 4.62383
  1345 138.914 -16.2281 8.08514
  1346 123.222 -2.51221 -8.94744
  1347 123.225 -2.50111 8.94884
  1348 175.564 -1.10793 -3.01630
  1349 175.553 -1.10790 3.00838
  1350 101.925 0.713107 4.58841
  1351 101.920 0.713039 -4.58719
  1352 87.6274 7.41045 18.4326
  1353 87.6244 7.41375 -18.4279
  1354 198.911 12.4713 9.77708
  1355 135.095 3.63109 -30.8127
  1356 123.427 -0.292896 0.0627689
  1357 123.427 -0.292460 -0.0612033
  1358 55.4928 7.78843 6.75931
  1359 55.5114 7.78630 -6.74743
  1360 121.071 -6.40091 -1.16130
  1361 121.078 -6.40436 1.16793
  1362 155.932 -0.998328 12.4458
  1363 96.5274 3.82159 8.74415
  1364 96.5254 3.82121 -8.74194
  1365 101.860 0.695016 2.01096
  1366 115.134 1.01343 20.1491
  1367 115.123 1.01828 -20.1505
  1368 71.3025 7.51618 -7.51344
  1369 71.3143 7.51529 7.50546
  1370 169.168 -1.63595 8.75261
  1371 169.237 -1.63190 -8.71414
  1372 105.266 0.151420 2.20719
  1373 105.259 0.151405 -2.20664
  1374 107.886 1.34660 8.09880
  1375 107.879 1.34669 -8.09732
  1376 47.2023 0.268161 -12.6663
  1377 47.2557 0.255695 12.6547
  1378 102.341 2.60334 9.35191
  1379 102.336 2.60330 -9.34993
  1380 123.215 -0.0799912 -0.443368
  1381 123.213 -0.0797754 0.443943
  1382 108.035 -0.810520 4.99060
  1383 108.036 -0.814263 -4.99300
  1384 30.1893 -39.0395 -17.0074
  1385 28.0485 -37.8398 16.9594
  1386 137.259 -17.4745 -10.3359
  1387 90.1497 6.78527 -7.57831
  1388 90.1484 6.78606 7.58030
  1389 105.200 1.27778 3.89884
  1390 105.199 1.27636 -3.90074
  1391 121.086 -1.29831 0.813349
  1392 121.086 -1.29658 -0.809305
  1393 128.024 0.622710 -16.4097
  1394 128.033 0.619560 16.4070
  1395 194.684 4.14194 8.73793
  1396 119.761 2.74560 -9.14785
  1397 95.9285 3.09051 -7.02587
  1398 95.9304 3.09095 7.02785
  1399 98.7265 -1.91396 -11.3236
  1400 98.7319 -1.90716 11.3184
  1401 98.9018 2.10908 6.90567
  1402 98.8982 2.10883 -6.90385
  1403 169.476 -0.554086 -5.06134
  1404 169.474 -0.554886 5.05543
  1405 92.9525 4.24366 5.19041
  1406 92.9529 4.24289 -5.18875
  1407 167.443 -5.83004 -6.76110
  1408 167.473 -5.86414 6.77372
  1409 211.364 13.1456 -7.02083
  1410 95.6144 0.0474051 0.930392
  1411 95.6098 0.0474005 -0.930066
  1412 105.167 0.888018 5.87681
  1413 105.161 0.887993 -5.87550
  1414 82.5438 9.34100 14.9688
  1415 82.5451 9.34206 -14.9640
  1416 88.2654 7.13541 1.19678
  1417 88.2607 7.13544 -1.19754
  1418 149.913 29.7262 -2.78025
  1419 165.511 -9.66523 10.5530
  1420 165.452 -9.61845 -10.5433
  1421 95.2557 -5.07818 -16.9192
  1422 95.2646 -5.04740 16.9254
  1423 112.216 2.75553 15.6880
  1424 112.209 2.75732 -15.6870
  1425 55.0805 5.94736 7.33812
  1426 55.0493 5.95779 -7.34332
  1427 119.468 2.58802 9.04839
  1428 213.644 20.0206 -1.04638
  1429 79.0620 8.37794 -3.99862
  1430 79.0693 8.37865 3.99506
  1431 94.8703 4.82064 -1.52603
  1432 94.8736 4.82030 1.52532
  1433 166.349 18.5502 1.98558
  1434 115.932 -0.189613 -2.07121
  1435 115.931 -0.188280 2.07129
  1436 90.1783 6.06466 -3.25061
  1437 90.1830 6.06519 3.24926
  1438 111.444 1.37967 -6.19281
  1439 167.258 -4.34244 0.0473911
  1440 167.251 -4.33066 -0.0554178
  1441 69.1145 -18.6141 26.6621
  1442 106.393 0.307864 3.79127
  1443 133.961 -2.40063 9.33254
  1444 106.020 2.65274 11.1694
  1445 106.015 2.65305 -11.1675
  1446 134.034 -2.72473 -9.23150
  1447 120.673 -1.93827 2.99194
  1448 120.674 -1.93600 -2.98587
  1449 118.057 -11.4313 7.89246
  1450 117.924 -11.5158 -7.95701
  1451 118.195 -16.2239 14.2418
  1452 89.2524 7.58541 9.71882
  1453 89.2536 7.58480 -9.71642
  1454 131.075 0.277283 3.92569
  1455 131.064 0.277366 -3.92565
  1456 92.6413 5.57820 0.756820
  1457 92.6443 5.57745 -0.756646
  1458 145.405 5.14419 9.03929
  1459 99.4863 4.21971 11.5546
  1460 99.4830 4.21974 -11.5522
  1461 83.8519 2.63267 -12.7572
  1462 83.8558 2.64026 12.7501
  1463 120.600 -2.91340 -5.17066
  1464 120.602 -2.91519 5.17766
  1465 97.3344 1.50865 -5.33884
  1466 97.3376 1.50889 5.34044
  1467 156.512 0.114764 -5.88532
  1468 156.518 0.114170 5.88265
  1469 95.9275 3.94280 4.17742
  1470 95.9237 3.94214 -4.17928
  1471 117.361 -0.794145 -1.75198
  1472 117.359 -0.792228 1.75299
  1473 78.6119 10.7096 -6.10052
  1474 78.6055 10.7110 6.10186
  1475 122.511 -0.0323626 -0.565584
  1476 122.509 -0.0322292 0.565755
  1477 112.844 5.16735 -2.25761
  1478 71.9326 9.83865 -12.8145
  1479 71.9268 9.83802 12.8216
  1480 112.289 -5.13223 5.96029
  1481 112.296 -5.14091 -5.96313
  1482 123.537 -10.0603 0.527303
  1483 123.543 -10.0613 -0.508030
  1484 85.5852 8.95241 13.2119
  1485 85.5866 8.95252 -13.2083
  1486 145.534 -1.68405 12.8046
  1487 145.524 -1.68016 -12.8118
  1488 120.482 -0.476652 2.21800
  1489 120.490 -0.475842 -2.21329
  1490 118.838 5.32322 -7.74178
  1491 36.5443 -3.41612 -1.00997
  1492 36.4961 -3.40892 1.03780
  1493 94.1723 4.90791 8.81985
  1494 94.1714 4.90739 -8.81758
  1495 92.9829 5.30432 -2.03883
  1496 92.9868 5.30425 2.03792
  1497 157.495 -2.39789 -8.47363
  1498 157.501 -2.40060 8.46337
  1499 96.0671 0.283473 2.23860
  1500 96.0632 0.283409 -2.23783
  1501 119.865 -1.00372 -8.82615
  1502 119.853 -0.984062 8.84002
  1503 87.9603 5.88103 5.31946
  1504 87.9549 5.87947 -5.32173
  1505 108.152 0.545013 3.65287
  1506 108.153 0.543230 -3.65439
  1507 129.325 -5.05009 18.0913
  1508 129.309 -5.04410 -18.0955
  1509 144.907 -6.77245 -11.5254
  1510 144.928 -6.77745 11.5158
  1511 127.361 -13.8270 2.60857
  1512 127.475 -13.7023 -2.44578
  1513 111.959 1.33971 6.43198
  1514 109.751 -0.568268 4.09794
  1515 109.752 -0.571426 -4.09948
  1516 143.941 13.5213 -9.82565
  1517 103.354 -3.09548 -9.69072
  1518 103.358 -3.08909 9.68486
  1519 111.238 -21.4221 24.2999
  1520 123.893 14.2345 -1.88439
  1521 111.393 -6.98865 -8.39791
  1522 111.391 -6.97640 8.39435
  1523 137.157 -15.0850 3.27783
  1524 73.0256 -1.51949 -22.6408
  1525 73.0417 -1.53120 22.6470
  1526 92.4138 4.92242 5.84963
  1527 92.4144 4.92163 -5.84787
  1528 119.504 -0.0757681 -1.24702
  1529 119.502 -0.0752285 1.24731
  1530 89.4910 6.92857 4.75721
  1531 89.4935 6.92768 -4.75593
  1532 158.996 -14.6922 3.84437
  1533 158.967 -14.6060 -3.88737
  1534 126.532 0.173119 -3.81970
  1535 126.542 0.173065 3.81991
  1536 134.715 3.69332 10.6776
  1537 134.314 0.744915 11.8257
  1538 112.173 -20.3496 -18.6295
  1539 112.139 -20.2957 18.7025
  1540 104.310 0.556904 4.34439
  1541 104.304 0.556854 -4.34333
  1542 98.1024 3.47219 9.27756
  1543 98.0996 3.47196 -9.27536
  1544 133.288 0.863826 -11.7296
  1545 116.665 7.92756 2.85690
  1546 168.829 -10.3643 -1.35402
  1547 169.462 -9.64063 2.10934
  1548 125.423 1.76256 10.4312
  1549 109.833 -0.0359483 -3.87602
  1550 109.794 -0.0392896 3.83188
  1551 83.4963 8.00449 -3.17721
  1552 83.5022 8.00528 3.17505
  1553 122.731 8.50352 7.73447
  1554 93.7228 4.01378 -6.31646
  1555 93.7232 4.01443 6.31835
  1556 116.506 2.00068 -6.07604
  1557 100.130 0.0762027 -1.54611
  1558 100.136 0.0762034 1.54657
  1559 60.9081 -18.2877 29.4592
  1560 61.2228 -18.1181 -29.3924
  1561 111.030 -17.6294 -20.3286
  1562 79.4696 -19.9565 -23.5305
  1563 79.5092 -19.9459 23.4995
  1564 120.489 -0.630858 -0.661006
  1565 120.488 -0.629655 0.662963
  1566 93.5730 4.84980 21.1908
  1567 93.5659 4.85507 -21.1874
  1568 137.018 16.5335 -8.89086
  1569 39.8603 -5.70511 -11.0656
  1570 39.8533 -5.71922 11.0983
  1571 118.751 5.22924 7.87671
  1572 114.650 2.44921 17.7973
  1573 114.642 2.45223 -17.7974
  1574 121.264 -0.284003 0.800396
  1575 121.265 -0.284625 -0.799387
  1576 103.957 4.20836 14.8587
  1577 103.952 4.20944 -14.8566
  1578 60.8772 -8.89256 -22.1962
  1579 60.9043 -8.90911 22.2034
  1580 172.365 -4.39836 17.5009
  1581 172.340 -4.47387 -17.4578
  1582 132.310 2.40452 26.5686
  1583 90.5364 6.45859 0.0709708
  1584 90.5402 6.45811 -0.0711455
  1585 118.874 4.52767 32.8712
  1586 131.873 -11.5569 -15.1483
  1587 131.904 -11.5647 15.1500
  1588 124.271 -1.96076 -19.2972
  1589 124.284 -1.96608 19.2934
  1590 116.398 0.176308 2.78483
  1591 116.388 0.176305 -2.78440
  1592 97.2676 3.92512 -2.59202
  1593 97.2706 3.92509 2.59079
  1594 62.2413 2.52779 -18.5280
  1595 62.2455 2.51781 18.5418
  1596 69.2723 -0.462093 19.2806
  1597 69.2656 -0.457185 -19.2975
  1598 65.1376 5.57464 -11.5496
  1599 65.1552 5.56950 11.5368
  1600 87.7129 7.94832 6.49478
  1601 87.7156 7.94744 -6.49317
  1602 115.728 2.90974 -0.911410
  1603 90.5523 6.47103 2.82014
  1604 90.5551 6.47017 -2.81935
  1605 101.150 2.52283 3.53643
  1606 101.147 2.52219 -3.53819
  1607 100.960 1.62491 6.66462
  1608 100.955 1.62476 -6.66295
  1609 109.997 -23.6116 -17.3582
  1610 110.459 -23.5021 17.5871
  1611 121.069 -8.47507 -1.06379
  1612 121.055 -8.46859 1.07311
  1613 116.084 -9.08431 -6.65951
  1614 116.076 -9.09808 6.64703
  1615 121.310 -5.32457 -2.55372
  1616 121.314 -5.32754 2.55970
  1617 123.321 1.46251 -25.4373
  1618 120.592 -3.22624 -2.24246
  1619 120.594 -3.22934 2.24823
  1620 126.343 11.0866 -8.14082
  1621 114.076 -0.115085 6.64136
  1622 114.073 -0.116328 -6.64305
  1623 304.892 17.5755 -1.31406
  1624 118.205 -1.83703 1.07855
  1625 118.208 -1.84002 -1.07597
  1626 122.868 -0.305453 0.987940
  1627 122.873 -0.304861 -0.985175
  1628 123.765 -0.197424 0.254035
  1629 123.767 -0.197143 -0.252386
  1630 101.487 1.73146 4.95840
  1631 101.485 1.72983 -4.96095
  1632 102.981 0.121879 1.69877
  1633 102.974 0.121865 -1.69831
  1634 63.2514 9.27447 10.7242
  1635 63.2625 9.27434 -10.7146
  1636 71.1219 10.9257 7.18812
  1637 71.1318 10.9237 -7.18465
  1638 127.465 -17.1988 9.07939
  1639 136.124 0.450327 -11.6724
  1640 136.133 0.448904 11.6703
  1641 110.839 2.36384 5.35922
  1642 116.227 -2.16601 -2.11396
  1643 116.224 -2.16209 2.11552
  1644 108.022 0.101732 -1.99099
  1645 108.030 0.101727 1.99144
  1646 156.286 -12.2639 -0.0232341
  1647 156.299 -12.2272 -0.00465959
  1648 135.725 -15.2818 -2.76440
  1649 111.148 0.867032 6.48194
  1650 111.140 0.867088 -6.48083
  1651 177.946 -1.15307 3.54495
  1652 177.926 -1.14500 -3.53297
  1653 79.6558 -1.45998 -18.9732
  1654 79.6605 -1.46338 18.9532
  1655 93.7327 3.48980 5.45272
  1656 93.7323 3.48915 -5.45097
  1657 216.219 13.6724 3.36431
  1658 98.7391 0.0677822 1.04957
  1659 98.7334 0.0677682 -1.04923
  1660 114.233 -0.0449548 3.16696
  1661 114.249 -0.0511051 -3.16301
  1662 94.0916 -10.5835 23.9802
  1663 94.0799 -10.5868 -23.9865
  1664 58.4952 -19.1386 -23.2398
  1665 220.913 28.0562 -13.3281
  1666 83.0996 5.43734 -8.66229
  1667 83.1053 5.44108 8.65751
  1668 113.237 0.929597 7.56660
  1669 113.229 0.929764 -7.56552
  1670 96.8639 0.919800 4.10422
  1671 96.8604 0.919631 -4.10291
  1672 145.976 1.00056 -7.45043
  1673 95.1895 6.48874 16.1866
  1674 95.1865 6.49013 -16.1835
  1675 99.5553 0.514174 -3.46822
  1676 99.5602 0.514252 3.46923
  1677 96.6581 0.0607970 -0.971605
  1678 96.6630 0.0608234 0.971940
  1679 87.7955 -0.231132 -14.6689
  1680 87.7973 -0.219608 14.6635
  1681 167.116 5.12596 -17.2884
  1682 163.425 -0.138649 -4.07921
  1683 163.429 -0.139026 4.07659
  1684 99.9176 0.953172 4.88318
  1685 99.9130 0.953049 -4.88182
  1686 103.169 -10.3682 17.8527
  1687 103.194 -10.5291 -17.9414
  1688 109.941 2.11259 10.9210
  1689 109.935 2.11299 -10.9195
  1690 93.7578 3.84529 5.80366
  1691 93.7531 3.84378 -5.80603
  1692 20.6731 -55.6979 5.33441
  1693 20.6569 -55.6528 -5.41341
  1694 133.332 21.3639 3.18460
  1695 184.367 -0.484609 -0.636931
  1696 184.343 -0.483856 0.633029
  1697 150.103 0.102793 5.14079
  1698 150.095 0.103128 -5.14218
  1699 97.1584 0.377953 2.69605
  1700 97.1541 0.377880 -2.69516
  1701 145.478 -0.0294826 -10.6421
  1702 145.486 -0.0310489 10.6383
  1703 117.724 -15.7717 -13.7878
  1704 95.9609 1.97277 -5.47785
  1705 95.9632 1.97311 5.47954
  1706 113.427 -3.12337 3.94390
  1707 113.432 -3.12918 -3.94426
  1708 247.704 20.4944 1.05902
  1709 97.3501 4.18190 10.0722
  1710 97.3477 4.18167 -10.0698
  1711 107.364 2.93164 0.00713943
  1712 87.2441 -9.73300 -24.2611
  1713 87.3237 -9.78452 24.2254
  1714 94.7817 2.35766 5.17812
  1715 94.7803 2.35720 -5.17642
  1716 121.318 -1.17050 1.79226
  1717 121.320 -1.16896 -1.78745
  1718 133.827 2.16126 -10.6827
  1719 105.406 4.26631 -16.6232
  1720 105.412 4.26436 16.6251
  1721 69.7630 10.1089 -1.48316
  1722 69.7758 10.1058 1.48024
  1723 89.0704 8.20327 13.8415
  1724 89.0705 8.20361 -13.8380
  1725 85.9892 3.21769 22.2519
  1726 85.9795 3.22513 -22.2473
  1727 118.351 -8.39697 -3.77432
  1728 118.336 -8.38550 3.77377
  1729 123.327 -6.71830 3.84040
  1730 123.324 -6.71673 -3.83415
  1731 127.755 -7.63911 -5.93412
  1732 127.766 -7.64121 5.92974
  1733 114.462 2.29212 13.1011
  1734 114.455 2.29313 -13.1002
  1735 127.921 -16.8178 -8.00092
  1736 101.687 3.49899 10.9693
  1737 101.683 3.49906 -10.9671
  1738 78.5882 4.10892 -12.4304
  1739 78.5934 4.11324 12.4201
  1740 118.272 -7.78896 -20.1613
  1741 118.289 -7.79283 20.1616
  1742 92.2649 5.63344 1.99380
  1743 92.2675 5.63257 -1.99317
  1744 121.309 0.774573 7.62925
  1745 121.299 0.774864 -7.62871
  1746 238.641 17.7820 -42.7585
  1747 95.6253 2.49310 -5.97883
  1748 95.6272 2.49352 5.98065
  1749 123.225 0.956100 9.65313
  1750 123.216 0.956642 -9.65287
  1751 143.254 0.197423 5.31586
  1752 143.244 0.197664 -5.31670
  1753 88.5454 4.13583 -8.46060
  1754 88.5510 4.13931 8.45739
  1755 92.4360 0.839541 -11.5890
  1756 92.4423 0.845657 11.5852
  1757 116.191 -0.727844 6.11584
  1758 116.195 -0.735767 -6.11157
  1759 103.237 -5.90961 13.2769
  1760 103.241 -5.92239 -13.2853
  1761 89.5937 -16.9575 28.8733
  1762 88.7167 -16.5539 -28.7153
  1763 121.077 8.88401 -6.63373
  1764 101.851 0.325033 -3.15787
  1765 101.857 0.325074 3.15873
  1766 100.345 0.709806 1.13790
  1767 90.0120 5.52765 4.87948
  1768 90.0070 5.52646 -4.88144
  1769 137.195 -20.3868 -9.39359
  1770 137.428 -20.4763 9.37343
  1771 155.954 -0.789641 -8.84720
  1772 155.959 -0.791504 8.84112
  1773 113.180 -0.569873 2.95905
  1774 113.182 -0.572344 -2.95937
  1775 102.625 0.395752 -2.48445
  1776 107.438 -7.76947 12.0875
  1777 107.414 -7.79535 -12.1072
  1778 165.753 12.0886 2.04690
  1779 119.775 -5.88920 -0.140026
  1780 119.768 -5.88425 0.145568
  1781 100.823 2.75200 -9.25392
  1782 100.827 2.75210 9.25599
  1783 94.8391 2.27628 8.12502
  1784 94.8340 2.27333 -8.12833
  1785 90.4435 6.47867 6.75701
  1786 90.4449 6.47784 -6.75520
  1787 84.4864 8.92578 2.80349
  1788 84.4911 8.92507 -2.80324
  1789 92.4862 4.82430 4.40984
  1790 92.4875 4.82343 -4.40840
  1791 156.663 28.4180 4.47670
  1792 164.839 -3.68054 16.5077
  1793 164.781 -3.69498 -16.5445
  1794 147.185 -8.75912 1.91175
  1795 92.2971 5.47716 7.51908
  1796 92.2974 5.47645 -7.51702
  1797 131.068 19.8103 -2.91936
  1798 242.975 15.2477 33.1615
  1799 103.554 4.36821 18.6850
  1800 103.547 4.37137 -18.6832
  1801 120.139 1.34416 7.45779
  1802 86.0597 -22.4924 31.8616
  1803 87.2262 7.82930 1.67719
  1804 87.2303 7.82874 -1.67705
  1805 118.129 8.91968 -3.23270
  1806 99.9741 0.629633 7.53198
  1807 99.9705 0.626458 -7.53578
  1808 118.838 -2.91712 -0.338106
  1809 118.835 -2.91335 0.342013
  1810 134.931 -0.200735 15.0838
  1811 134.921 -0.197462 -15.0880
  1812 88.1972 -22.5134 -31.2794
  1813 129.079 17.2557 4.71269
  1814 106.845 0.674684 5.01732
  1815 106.838 0.674666 -5.01623
  1816 93.5446 5.93112 10.6054
  1817 93.5439 5.93076 -10.6029
  1818 110.185 1.20780 2.67127
  1819 94.0027 6.21256 12.2131
  1820 94.0015 6.21251 -12.2103
  1821 100.973 -13.5009 22.1782
  1822 100.567 -13.8606 -22.6978
  1823 88.4103 8.16256 11.2278
  1824 88.4115 8.16213 -11.2250
  1825 152.978 26.0603 -6.27368
  1826 176.114 10.0383 13.3928
  1827 125.489 1.31463 14.0661
  1828 125.480 1.31641 -14.0672
  1829 163.980 -6.88390 2.93223
  1830 163.969 -6.85710 -2.93890
  1831 119.912 -0.264059 -1.16749
  1832 119.911 -0.263292 1.16821
  1833 86.3541 -2.91005 -24.3732
  1834 86.3698 -2.91793 24.3740
  1835 127.964 -16.5972 22.5645
  1836 112.183 -21.3030 28.1721
  1837 166.787 -2.45794 -4.45945
  1838 166.785 -2.45769 4.44866
  1839 138.701 -7.87906 -5.08354
  1840 147.622 0.664743 6.51678
  1841 135.679 -17.5160 -12.3606
  1842 136.579 -16.5759 12.3238
  1843 166.355 -4.78043 14.0976
  1844 166.271 -4.78353 -14.0909
  1845 122.187 -20.5529 18.1478
  1846 24.6800 -19.4635 4.81471
  1847 24.5454 -19.4043 -4.75508
  1848 118.765 -1.30019 -5.02067
  1849 118.761 -1.29956 5.02740
  1850 137.519 0.0515607 3.98386
  1851 137.508 0.0517211 -3.98411
  1852 97.1588 2.16142 6.45957
  1853 97.1560 2.16112 -6.45773
  1854 199.066 24.4912 37.0918
  1855 42.7057 -5.92591 15.8997
  1856 42.6471 -5.94222 -15.9250
  1857 91.8824 5.58538 -2.74164
  1858 91.8867 5.58563 2.74047
  1859 100.546 2.39846 4.43683
  1860 100.543 2.39736 -4.43905
  1861 106.596 1.33472 -7.53835
  1862 106.602 1.33470 7.53985
  1863 162.119 -14.0970 -0.896136
  1864 161.787 -14.1568 0.738874
  1865 43.1118 -29.1281 -15.7143
  1866 43.1417 -29.1126 15.7021
  1867 89.7907 6.88931 -1.80230
  1868 89.7873 6.89003 1.80270
  1869 118.065 0.513451 6.44359
  1870 118.056 0.513643 -6.44286
  1871 93.9916 4.42717 7.78773
  1872 93.9909 4.42661 -7.78561
  1873 83.1636 7.41692 18.4324
  1874 83.1612 7.42078 -18.4265
  1875 68.8697 -25.5674 20.6364
  1876 68.7774 -25.6008 -20.6518
  1877 86.0774 8.31877 16.3429
  1878 86.0767 8.32050 -16.3383
  1879 119.713 -2.02957 -7.51708
  1880 119.713 -2.01934 7.52621
  1881 121.732 -3.97698 -6.22594
  1882 121.737 -3.97815 6.23294
  1883 126.962 5.79482 10.3227
  1884 138.799 -7.72496 4.89165
  1885 118.704 -1.03323 -1.11486
  1886 118.702 -1.03119 1.11674
  1887 74.2022 10.4667 1.38354
  1888 74.2117 10.4649 -1.38459
  1889 42.2532 -29.1619 -5.73445
  1890 42.2785 -29.1276 5.73474
  1891 108.409 2.31147 -3.58834
  1892 122.787 1.40555 16.1926
  1893 122.778 1.40804 -16.1939
  1894 114.242 -0.108047 -2.47350
  1895 114.241 -0.106546 2.47328
  1896 112.317 -1.69972 3.72202
  1897 112.319 -1.70394 -3.72269
  1898 103.407 1.38905 -6.81614
  1899 103.412 1.38913 6.81771
  1900 116.753 -0.288438 2.93502
  1901 116.767 -0.289118 -2.93035
  1902 94.9457 3.73461 7.49505
  1903 94.9445 3.73410 -7.49297
  1904 162.554 -0.748759 -7.56664
  1905 162.587 -0.744506 7.64077
  1906 110.870 1.89438 20.2693
  1907 110.860 1.89917 -20.2696
  1908 156.781 0.0848883 18.1874
  1909 141.783 6.59303 -9.72976
  1910 98.4167 0.253468 -2.34522
  1911 98.4217 0.253502 2.34595
  1912 98.5321 0.671854 -0.588496
  1913 78.2133 9.36444 -1.36090
  1914 78.2209 9.36409 1.35861
  1915 160.534 19.8161 -39.1355
  1916 86.0704 8.71791 7.57940
  1917 86.0734 8.71703 -7.57759
  1918 30.6851 -16.1388 14.4736
  1919 30.5676 -16.1604 -14.5561
  1920 295.357 13.6910 -28.0533
  1921 128.720 -20.4698 -15.1903
  1922 100.008 0.228029 -2.44086
  1923 100.013 0.228065 2.44158
  1924 202.558 5.85413 -4.45255
  1925 123.416 -0.0384034 -0.418528
  1926 123.414 -0.0383062 0.418782
  1927 66.2820 -15.1371 14.0471
  1928 70.4962 -14.1017 -15.6943
  1929 70.4973 -6.93162 -24.9811
  1930 70.4637 -6.90740 24.9609
  1931 111.570 0.0737283 3.03046
  1932 111.571 0.0720149 -3.03128
  1933 121.307 0.182495 -2.86461
  1934 121.317 0.182463 2.86493
  1935 127.663 4.69062 -10.5251
  1936 95.9406 3.15338 5.81977
  1937 95.9363 3.15184 -5.82234
  1938 120.168 -2.39203 -0.960219
  1939 120.169 -2.39480 0.964984
  1940 105.419 0.729590 4.51541
  1941 105.418 0.727463 -4.51769
  1942 95.1951 1.82966 4.79143
  1943 95.1931 1.82930 -4.78983
  1944 93.1206 4.56138 6.53759
  1945 93.1206 4.56067 -6.53567
  1946 180.200 -0.904485 -1.82107
  1947 180.223 -0.909531 1.82422
  1948 142.266 22.1353 6.81332
  1949 100.738 0.205463 1.86727
  1950 135.411 0.381844 10.1265
  1951 135.402 0.382718 -10.1278
  1952 81.1147 -12.3983 24.6233
  1953 81.0917 -12.3935 -24.6345
  1954 117.047 -6.89553 3.63126
  1955 117.058 -6.90335 -3.62946
  1956 120.136 -1.40107 0.0233047
  1957 120.138 -1.40316 -0.0199734
  1958 82.4299 -11.3259 26.5351
  1959 82.2331 -11.3453 -26.5017
  1960 107.715 1.45050 21.5424
  1961 107.704 1.45610 -21.5429
  1962 139.664 -12.9075 10.9257
  1963 139.618 -12.9027 -10.9318
  1964 103.015 1.95766 3.65959
  1965 103.013 1.95675 -3.66139
  1966 239.000 24.7287 9.52270
  1967 98.0008 1.21378 -5.02257
  1968 98.0044 1.21396 5.02406
  1969 132.398 -11.5951 2.19029
  1970 132.246 -11.7239 -1.99733
  1971 85.7230 -5.23157 21.0792
  1972 85.7363 -5.22965 -21.1236
  1973 201.827 8.68666 -9.02579
  1974 123.900 -0.0565745 0.267313
  1975 123.901 -0.0567624 -0.266644
  1976 150.435 -5.17494 -12.4912
  1977 97.3498 3.12386 8.07181
  1978 97.3473 3.12352 -8.06972
  1979 133.979 12.8207 9.67214
  1980 98.4272 2.07836 6.15052
  1981 98.4236 2.07640 -6.15350
  1982 177.512 12.2243 -9.88807
  1983 133.811 0.269170 8.59516
  1984 153.642 -8.77517 4.87940
  1985 153.623 -8.78308 -4.89719
  1986 95.4992 5.06919 -34.1784
  1987 135.566 20.2381 -6.37433
  1988 120.227 10.2679 3.73141
  1989 111.543 4.31369 2.99323
  1990 15.8472 -63.3790 5.62487
  1991 15.9274 -63.3605 -5.75938
  1992 126.993 15.8925 -4.24470
  1993 76.0293 10.9157 8.72195
  1994 76.0362 10.9143 -8.71885
  1995 133.114 0.0965334 -8.41436
  1996 120.714 -13.4087 -8.08267
  1997 120.985 -13.3691 7.58286
  1998 136.233 -17.0185 11.0524
  1999 136.156 -17.0117 -11.0524
  2000 95.9140 -18.9623 16.0701
  2001 99.9183 -20.6143 -16.5940
  2002 76.6910 8.36842 -5.46021
  2003 76.6992 8.36877 5.45509
  2004 42.0553 -25.3175 24.9189
  2005 42.5530 -24.8789 -25.8588
  2006 88.0376 7.69185 4.95643
  2007 88.0406 7.69099 -4.95522
  2008 111.340 0.0731342 1.95012
  2009 111.331 0.0731520 -1.94973
  2010 158.357 2.65536 -2.32073
  2011 104.987 1.93277 -8.82861
  2012 104.993 1.93272 8.83037
  2013 91.3136 5.75927 4.78162
  2014 91.3153 5.75838 -4.78019
  2015 169.812 -1.74288 -19.0206
  2016 155.506 14.7299 6.68768
  2017 108.112 -11.3608 -15.5334
  2018 108.136 -11.0851 15.3840
  2019 178.852 1.77044 -17.2069
  2020 120.559 0.611717 -7.57889
  2021 170.680 -9.15117 -11.7484
  2022 170.674 -9.14440 11.7995
  2023 91.8536 5.96095 0.421806
  2024 91.8570 5.96032 -0.421788
  2025 94.9378 2.75104 5.80734
  2026 94.9364 2.75055 -5.80554
  2027 197.858 6.89999 11.0002
  2028 116.356 2.28924 14.8507
  2029 116.348 2.29088 -14.8503
  2030 154.519 0.879375 -17.7158
  2031 95.9194 0.632989 3.27874
  2032 95.9160 0.632860 -3.27761
  2033 108.891 -2.09558 5.60643
  2034 108.893 -2.10082 -5.60929
  2035 87.4225 -4.11522 30.3006
  2036 178.220 -0.460737 -2.66895
  2037 178.210 -0.461060 2.66408
  2038 103.949 -0.755602 6.97244
  2039 103.948 -0.759682 -6.97655
  2040 95.5941 0.136291 1.56718
  2041 95.5899 0.136257 -1.56661
  2042 120.527 -0.955670 -2.83702
  2043 120.522 -0.957086 2.84272
  2044 41.0304 -31.1360 15.8272
  2045 180.684 14.8054 -2.17736
  2046 153.787 -6.49922 -7.48920
  2047 153.802 -6.49950 7.47535
  2048 108.687 -2.59030 -22.6137
  2049 108.701 -2.59605 22.6123
  2050 122.470 -0.279765 1.09499
  2051 122.477 -0.279286 -1.09219
  2052 107.128 1.48388 3.79443
  2053 324.612 10.5639 6.60195
  2054 198.229 16.1500 -7.60546
  2055 117.216 -0.479036 -8.01607
  2056 117.241 -0.475827 8.02119
  2057 149.294 3.99218 13.9649
  2058 108.160 -5.41724 9.16440
  2059 108.162 -5.42645 -9.17097
  2060 92.2343 5.31920 3.22942
  2061 92.2363 5.31828 -3.22837
  2062 179.235 1.69068 17.2767
  2063 91.1087 6.41826 8.39982
  2064 91.1094 6.41756 -8.39766
  2065 124.078 -4.29976 -7.73400
  2066 124.088 -4.29934 7.74093
  2067 102.380 -18.8225 -26.6797
  2068 37.6772 -34.7760 -14.8895
  2069 115.480 -5.54175 -4.05730
  2070 115.472 -5.53377 4.05805
  2071 117.386 -3.79077 -1.59344
  2072 117.381 -3.78569 1.59650
  2073 117.958 -0.100878 -1.62002
  2074 117.956 -0.100092 1.62020
  2075 164.642 13.2147 -0.869972
  2076 96.6879 3.80539 -3.68177
  2077 96.6914 3.80584 3.68007
  2078 85.4229 7.79988 1.56385
  2079 85.4176 7.79963 -1.56505
  2080 110.435 -10.1672 12.5039
  2081 110.634 -10.2095 -12.4695
  2082 89.8769 -4.41246 18.5772
  2083 89.8996 -4.44550 -18.5877
  2084 170.090 -1.76360 18.8345
  2085 82.7863 9.16198 1.22299
  2086 82.7919 9.16148 -1.22350
  2087 77.7762 -25.9516 -20.2609
  2088 78.0104 -25.8631 20.1719
  2089 113.844 -15.2338 -20.3616
  2090 113.853 -15.2244 20.3782
  2091 81.2154 9.94590 -4.34788
  2092 81.2098 9.94692 4.34843
  2093 29.3329 -23.0676 -8.85454
  2094 29.3599 -23.1237 8.88216
  2095 141.868 6.53958 5.58521
  2096 147.335 -0.118164 -10.1003
  2097 115.061 0.0844904 1.90350
  2098 115.051 0.0844952 -1.90318
  2099 118.653 -0.455856 -1.42779
  2100 118.652 -0.454561 1.42872
  2101 113.662 -1.57527 3.12685
  2102 113.665 -1.57905 -3.12680
  2103 118.745 -0.680490 20.2691
  2104 118.732 -0.675094 -20.2718
  2105 234.315 16.8326 1.50160
  2106 40.8890 0.735262 -3.33148
  2107 40.9384 0.724623 3.34121
  2108 121.826 -0.473610 -0.312912
  2109 121.826 -0.472807 0.314879
  2110 104.143 1.76136 -1.05311
  2111 104.327 0.0566698 -1.34649
  2112 104.335 0.0566871 1.34685
  2113 94.1833 5.01820 -0.130460
  2114 94.1863 5.01753 0.130321
  2115 136.613 4.76777 -8.14448
  2116 61.0488 9.45396 6.47251
  2117 61.0648 9.45115 -6.46485
  2118 165.516 -8.06044 8.82812
  2119 165.473 -8.00756 -8.81602
  2120 123.522 11.6690 5.90827
  2121 111.389 -2.98656 4.94344
  2122 111.393 -2.99265 -4.94523
  2123 122.295 -0.563048 0.491886
  2124 122.296 -0.562169 -0.489069
  2125 124.011 -0.149763 0.489802
  2126 124.014 -0.149586 -0.488120
  2127 100.684 4.16321 20.4351
  2128 100.676 4.16790 -20.4333
  2129 13.4633 -56.2731 -5.67371
  2130 13.5587 -55.3207 5.76680
  2131 63.8333 10.4333 -3.24001
  2132 63.8168 10.4377 3.24273
  2133 116.855 -0.432181 -1.91341
  2134 116.854 -0.430645 1.91393
  2135 96.7284 5.93009 14.0971
  2136 96.7257 5.93067 -14.0942
  2137 127.203 8.64678 9.56898
  2138 164.271 3.22966 18.3719
  2139 93.7880 3.07887 22.1211
  2140 93.7782 3.08550 -22.1183
  2141 97.1547 0.632180 3.48470
  2142 97.1508 0.632063 -3.48357
  2143 133.128 0.355547 7.98103
  2144 133.118 0.356058 -7.98156
  2145 98.1968 5.55836 15.1626
  2146 98.1933 5.55940 -15.1599
  2147 144.009 0.177283 -8.49228
  2148 144.017 0.176457 8.49019
  2149 123.148 -19.9342 -16.0890
  2150 196.037 17.2994 5.17542
  2151 106.733 -16.8314 22.3189
  2152 110.250 2.14364 -5.30386
  2153 107.559 3.19295 -13.5304
  2154 107.565 3.19209 13.5321
  2155 68.3487 7.12718 -8.92203
  2156 68.3631 7.12400 8.91223
  2157 102.548 3.97526 13.2368
  2158 102.544 3.97580 -13.2346
  2159 144.928 12.0130 9.39558
  2160 179.753 7.45670 -15.8243
  2161 54.8653 6.03786 10.4317
  2162 54.8784 6.03932 -10.4158
  2163 77.5596 -18.9213 31.4416
  2164 81.6776 -18.9652 -31.1327
  2165 122.763 -10.7738 -26.5144
  2166 102.800 2.07092 8.34815
  2167 102.796 2.07085 -8.34632
  2168 134.115 0.192528 -3.46414
  2169 134.126 0.192418 3.46409
  2170 99.1695 0.391142 -1.48318
  2171 117.677 -1.08529 -5.80480
  2172 117.673 -1.08103 5.81048
  2173 79.2053 10.4568 8.63402
  2174 79.2108 10.4557 -8.63150
  2175 119.737 -4.58806 -0.592112
  2176 119.742 -4.59219 0.597342
  2177 127.287 0.502209 -7.44683
  2178 127.297 0.501874 7.44688
  2179 93.6187 5.51750 -9.42698
  2180 93.6194 5.51802 9.42934
  2181 63.7382 -1.77596 20.2877
  2182 63.7301 -1.78150 -20.3085
  2183 188.396 -0.227419 -8.70484
  2184 83.3533 9.47322 -5.19554
  2185 83.3486 9.47417 5.19650
  2186 115.004 7.14067 -0.0279395
  2187 249.356 21.3218 -1.31991
  2188 179.433 34.0123 1.13236
  2189 111.683 -0.644223 3.43479
  2190 111.685 -0.647070 -3.43559
  2191 138.012 -15.1073 -4.87438
  2192 210.240 17.3584 5.73187
  2193 188.280 -0.254600 9.12729
  2194 151.903 18.4627 -8.35530
  2195 120.728 -0.00520408 -0.971371
  2196 120.726 -0.00493106 0.971544
  2197 127.504 -9.82543 -3.08012
  2198 127.498 -9.82837 3.09617
  2199 99.5274 4.86816 13.2850
  2200 99.5239 4.86858 -13.2824
  2201 125.460 -9.57024 -1.67083
  2202 125.464 -9.56931 1.68198
  2203 104.647 -22.3353 -29.1368
  2204 99.3147 1.32922 5.55037
  2205 99.3106 1.32904 -5.54883
  2206 127.767 -3.95484 -8.80815
  2207 127.761 -3.93897 8.85308
  2208 148.663 -0.0404242 9.14969
  2209 94.1691 4.67434 3.38188
  2210 94.1651 4.67399 -3.38334
  2211 97.8130 5.59378 18.5558
  2212 97.8079 5.59665 -18.5529
  2213 132.529 -1.09423 -16.7779
  2214 132.541 -1.09868 16.7730
  2215 105.861 -11.0480 23.1058
  2216 105.852 -11.0518 -23.1038
  2217 87.1591 7.68496 0.0349109
  2218 87.1545 7.68524 -0.0353551
  2219 97.1094 0.171615 2.05679
  2220 97.1049 0.171589 -2.05611
  2221 129.400 -2.01994 -9.76788
  2222 129.086 -2.07606 9.81125
  2223 155.803 0.138068 -3.48104
  2224 155.811 0.137834 3.47988
  2225 116.260 -1.09317 -2.08438
  2226 116.258 -1.09060 2.08534
  2227 193.688 34.1294 2.09364
  2228 138.856 0.384888 7.67089
  2229 138.847 0.385412 -7.67198
  2230 90.2723 6.39446 19.6543
  2231 90.2674 6.39866 -19.6500
  2232 163.048 -1.13619 -6.96235
  2233 163.049 -1.13807 6.95436
  2234 136.611 -4.88733 -15.4767
  2235 136.628 -4.89309 15.4707
  2236 99.3922 -19.0680 -21.4346
  2237 99.3499 -19.0477 21.4220
  2238 58.2855 -11.2358 26.7789
  2239 58.2534 -11.1919 -26.7909
  2240 121.378 -4.28165 -4.07031
  2241 121.382 -4.28439 4.07626
  2242 156.088 -1.14065 15.4546
  2243 100.314 0.605370 -2.90548
  2244 98.6246 0.621968 3.62712
  2245 98.6201 0.621865 -3.62603
  2246 214.165 8.74957 6.75213
  2247 124.474 0.0294301 2.86626
  2248 124.463 0.0294961 -2.86604
  2249 120.519 -2.42134 -4.37066
  2250 120.520 -2.42348 4.37747
  2251 115.985 -2.83610 2.29103
  2252 115.989 -2.84086 -2.28936
  2253 146.114 -0.174733 -11.4656
  2254 146.122 -0.176910 11.4608
  2255 95.0125 -5.74166 24.3543
  2256 94.9973 -5.73715 -24.3563
  2257 53.9501 0.226809 16.1408
  2258 53.9473 0.238018 -16.1220
  2259 295.866 13.6238 21.1917
  2260 135.689 6.06807 -1.18806
  2261 94.4035 3.33983 -6.13790
  2262 94.4044 3.34039 6.13978
  2263 215.118 19.6719 -2.79068
  2264 92.0031 5.80885 -0.985684
  2265 92.0069 5.80852 0.985168
  2266 118.902 -14.3921 11.1496
  2267 171.347 -3.29294 5.79746
  2268 171.323 -3.27257 -5.78134
  2269 156.234 -1.10883 -15.8858
  2270 123.738 1.06070 -16.9019
  2271 123.748 1.05770 16.9000
  2272 132.299 -7.69240 -6.34099
  2273 132.193 -7.93850 6.13676
  2274 99.6270 2.13003 7.38707
  2275 99.6232 2.12982 -7.38520
  2276 149.428 -2.06781 -11.6498
  2277 149.437 -2.07138 11.6417
  2278 163.001 7.41994 9.77083
  2279 177.222 24.9665 1.67650
  2280 80.4357 7.03271 6.98200
  2281 80.4292 7.03050 -6.98688
  2282 150.946 -1.03990 -2.21856
  2283 105.827 0.0488776 -2.51393
  2284 108.767 -22.0310 -26.7228
  2285 163.758 25.2303 3.97036
  2286 115.957 0.597554 6.03701
  2287 115.948 0.597655 -6.03620
  2288 173.675 -1.18574 -5.24140
  2289 173.673 -1.20125 5.27270
  2290 121.171 -2.03940 8.56990
  2291 121.164 -2.05616 -8.55851
  2292 110.985 0.00501967 -2.40140
  2293 110.959 0.0136032 2.38818
  2294 107.631 1.77568 9.30109
  2295 107.625 1.77584 -9.29948
  2296 60.0466 7.99268 -4.96445
  2297 60.0699 7.98487 4.96043
  2298 120.792 -3.86690 -2.73664
  2299 120.795 -3.86996 2.74253
  2300 84.4446 9.42803 11.4368
  2301 84.4471 9.42762 -11.4337
  2302 49.9225 5.50531 5.07433
  2303 49.9468 5.50278 -5.05932
  2304 97.8810 0.0696046 0.838224
  2305 97.8756 0.0695906 -0.837947
  2306 124.365 -19.2150 14.0232
  2307 121.231 0.961599 18.7030
  2308 121.221 0.965555 -18.7051
  2309 134.048 4.15187 9.86735
  2310 87.0862 8.12708 5.28805
  2311 87.0894 8.12621 -5.28682
  2312 110.233 0.287785 3.95702
  2313 110.225 0.287797 -3.95624
  2314 104.213 -0.153746 6.06823
  2315 104.212 -0.157091 -6.07164
  2316 122.266 -6.57950 2.54963
  2317 122.262 -6.57710 -2.54300
  2318 101.788 1.06881 5.67548
  2319 101.783 1.06870 -5.67404
  2320 115.871 4.80737 -6.39917
  2321 114.433 1.68383 -7.42739
  2322 146.757 5.38093 -12.1784
  2323 109.155 0.504060 3.35946
  2324 109.155 0.502435 -3.36074
  2325 166.566 10.1965 10.4360
  2326 85.5310 9.09905 10.1798
  2327 85.5335 9.09839 -10.1772
  2328 140.603 16.3996 9.38233
  2329 110.330 -1.26923 4.36350
  2330 110.332 -1.27327 -4.36508
  2331 108.682 0.000798863 3.97514
  2332 108.683 -0.00169703 -3.97679
  2333 90.9555 7.36151 -11.8045
  2334 90.9554 7.36177 11.8073
  2335 98.5113 5.60559 17.2568
  2336 98.5068 5.60757 -17.2540
  2337 72.9263 1.62845 -21.3261
  2338 72.9363 1.61844 21.3347
  2339 183.985 8.42585 14.7590
  2340 200.282 24.2288 -41.2692
  2341 160.092 -3.62563 15.1297
  2342 136.723 1.63179 -12.6166
  2343 90.9910 2.50542 -9.87749
  2344 90.9968 2.50998 9.87411
  2345 124.472 -0.124127 -0.0818207
  2346 124.471 -0.123966 0.0826020
  2347 112.443 1.26633 -5.87281
  2348 106.547 0.0946591 1.31454
  2349 106.539 0.0946503 -1.31423
  2350 97.4333 0.937721 8.49448
  2351 97.4285 0.934251 -8.49828
  2352 125.293 1.09488 -12.6861
  2353 125.301 1.09361 12.6856
  2354 127.136 0.877847 -10.4555
  2355 119.970 -2.14320 -5.28316
  2356 119.970 -2.14401 5.29047
  2357 95.6806 1.18367 -4.11882
  2358 95.6833 1.18392 4.12022
  2359 278.355 16.0394 39.4262
  2360 91.3965 5.84969 3.62115
  2361 91.3986 5.84879 -3.62005
  2362 119.090 -1.84569 -0.511576
  2363 119.088 -1.84295 0.514779
  2364 73.7808 6.41016 10.1072
  2365 73.7715 6.40977 -10.1171
  2366 103.860 3.04787 11.1618
  2367 103.855 3.04808 -11.1598
  2368 199.950 15.0971 43.6724
  2369 29.0382 -27.6981 18.4644
  2370 29.1111 -27.9071 -18.3742
  2371 115.042 1.66624 10.5982
  2372 115.035 1.66673 -10.5972
  2373 92.9585 4.34050 -4.71193
  2374 92.9578 4.34132 4.71350
  2375 118.104 -5.94054 -1.89111
  2376 118.096 -5.93406 1.89493
  2377 80.2160 9.81185 1.75382
  2378 80.2225 9.81105 -1.75441
  2379 112.376 1.50576 -9.32324
  2380 112.383 1.50548 9.32449
  2381 178.145 16.0566 -42.2807
  2382 135.924 -12.7232 -0.624522
  2383 136.096 -11.7221 1.65101
  2384 120.027 0.807516 7.42796
  2385 163.954 -2.09264 -6.05114
  2386 163.955 -2.09405 6.04064
  2387 129.006 -11.7730 0.799157
  2388 128.977 -11.7408 -0.823525
  2389 107.849 -3.36690 -7.31187
  2390 107.848 -3.36006 7.30722
  2391 135.315 -7.87115 23.5174
  2392 136.687 -4.72175 -7.81609
  2393 91.8039 5.48841 6.02480
  2394 91.8048 5.48760 -6.02304
  2395 149.802 -4.65752 -10.6484
  2396 149.815 -4.66155 10.6376
  2397 114.464 2.69523 -16.8168
  2398 114.472 2.69278 16.8171
  2399 99.6967 2.75212 8.52134
  2400 99.6931 2.75191 -8.51930
  2401 156.053 -0.0467865 -7.14880
  2402 134.000 11.8932 -10.0196
  2403 119.418 1.34566 -9.17429
  2404 18.5146 -58.9014 -7.37301
  2405 19.2133 -56.7248 8.23506
  2406 121.465 4.40987 -9.09586
  2407 181.547 -0.355817 -1.88809
  2408 181.532 -0.355932 1.88342
  2409 102.354 -0.758901 -7.97006
  2410 102.357 -0.754696 7.96549
  2411 146.870 -0.984817 11.9752
  2412 146.862 -0.981878 -11.9813
  2413 99.4160 3.20775 3.00206
  2414 99.4134 3.20755 -3.00352
  2415 98.1997 1.94701 -6.40539
  2416 98.2030 1.94728 6.40715
  2417 93.4326 3.75366 5.15293
  2418 93.4327 3.75294 -5.15123
  2419 167.746 11.5708 -6.70660
  2420 105.248 1.88223 1.31876
  2421 143.149 27.5571 -0.774281
  2422 91.3736 6.05937 7.60017
  2423 91.3744 6.05863 -7.59815
  2424 256.532 17.9104 -8.40322
  2425 185.256 -0.555484 -0.00400712
  2426 185.228 -0.553937 0.00150597
  2427 139.727 5.14157 10.3087
  2428 171.821 -0.367030 -3.63987
  2429 171.819 -0.367477 3.63621
  2430 133.018 0.598215 -14.1546
  2431 133.027 0.595907 14.1519
  2432 52.5465 -1.81786 -17.9057
  2433 52.5780 -1.82346 17.8794
  2434 103.161 0.517808 -4.02583
  2435 103.167 0.517855 4.02685
  2436 144.047 0.723778 -14.5259
  2437 83.4748 9.72412 8.28615
  2438 83.4786 9.72314 -8.28411
  2439 169.743 -2.77367 -8.99247
  2440 169.735 -2.77637 9.04839
  2441 177.357 35.4955 -0.483697
  2442 118.910 0.167100 -2.25384
  2443 118.920 0.167095 2.25414
  2444 229.841 21.5113 0.536765
  2445 94.3777 2.63437 5.12048
  2446 94.3766 2.63385 -5.11878
  2447 119.963 -0.199530 -1.67502
  2448 119.950 -0.199868 1.67874
  2449 96.3112 3.25350 7.56537
  2450 96.3091 3.25309 -7.56332
  2451 114.607 1.67684 7.56224
  2452 101.795 0.0132451 -0.850853
  2453 101.802 0.0132501 0.851097
  2454 106.653 -0.0572123 4.86695
  2455 106.653 -0.0601669 -4.86939
  2456 136.381 -4.53438 7.93346
  2457 109.841 0.0576170 -1.46445
  2458 109.850 0.0576098 1.46477
  2459 97.2109 0.471218 0.0808394
  2460 146.856 0.685296 15.4244
  2461 114.702 0.299711 -7.36690
  2462 114.777 0.320015 7.41356
  2463 121.889 -7.57256 -0.788662
  2464 121.896 -7.57574 0.796873
  2465 97.6965 -0.207538 9.94026
  2466 97.6912 -0.212405 -9.94456
  2467 71.3760 10.8113 1.67316
  2468 71.3872 10.8086 -1.67382
  2469 95.7524 0.427039 -2.66569
  2470 95.7560 0.427138 2.66663
  2471 76.7091 6.46756 19.2599
  2472 76.7058 6.47325 -19.2516
  2473 186.813 4.14047 -16.1792
  2474 120.377 11.0476 -2.27175
  2475 155.293 -14.4687 -1.07138
  2476 155.270 -14.5272 1.02281
  2477 92.4216 5.34357 2.54267
  2478 92.4239 5.34266 -2.54185
  2479 119.486 1.28859 9.23927
  2480 254.836 23.1782 -7.45410
  2481 90.9841 7.52855 15.0842
  2482 90.9829 7.52946 -15.0807
  2483 114.058 5.50216 -4.21950
  2484 100.839 2.52902 26.0892
  2485 115.606 -1.68815 21.1782
  2486 115.592 -1.68248 -21.1807
  2487 192.768 6.04166 15.5183
  2488 88.9803 7.30267 -26.5779
  2489 122.420 2.32414 9.82005
  2490 125.517 -6.32942 6.38225
  2491 125.523 -6.32618 -6.37807
  2492 116.482 5.52627 6.19257
  2493 161.001 -9.09584 2.68675
  2494 160.993 -9.06068 -2.70157
  2495 140.482 -17.8779 -7.90466
  2496 140.605 -17.8828 7.89203
  2497 126.738 -3.80160 -18.7246
  2498 126.753 -3.80718 18.7206
  2499 89.1706 6.97432 0.262575
  2500 89.1663 6.97462 -0.262949
  2501 54.2900 7.72351 2.08160
  2502 54.3148 7.71773 -2.07395
  2503 111.423 1.07854 -7.45365
  2504 111.431 1.07842 7.45484
  2505 130.730 -19.8182 14.6534
  2506 325.464 9.25620 -20.1617
  2507 101.715 -0.540741 22.9819
  2508 101.702 -0.534226 -22.9819
  2509 195.088 10.5407 -11.9587
  2510 120.475 -0.898873 -0.376365
  2511 120.474 -0.897332 0.378880
  2512 140.591 -2.87237 -14.4928
  2513 140.603 -2.87728 14.4857
  2514 84.2519 9.26738 14.1067
  2515 84.2534 9.26788 -14.1025
  2516 103.268 -18.7560 25.9944
  2517 120.330 1.00362 9.41704
  2518 120.322 1.00411 -9.41650
  2519 109.616 -7.21836 -9.93905
  2520 109.608 -7.20553 9.93137
  2521 257.334 18.4137 6.32348
  2522 69.7128 6.43006 17.5277
  2523 69.7130 6.43538 -17.5170
  2524 113.230 -16.4992 18.1727
  2525 95.9968 0.0210706 0.640128
  2526 95.9919 0.0210671 -0.639901
  2527 160.684 -0.670953 -18.5622
  2528 94.3799 3.76329 -6.79453
  2529 94.3808 3.76386 6.79651
  2530 89.9490 7.27085 9.05594
  2531 89.9501 7.27016 -9.05366
  2532 129.761 0.0546209 2.63336
  2533 129.749 0.0546739 -2.63326
  2534 106.240 -0.456799 5.50986
  2535 106.240 -0.460309 -5.51282
  2536 146.234 7.11660 -5.80059
  2537 183.023 -0.399365 -1.31558
  2538 183.004 -0.399174 1.31098
  2539 125.307 -3.30929 -8.99246
  2540 125.322 -3.32004 8.99272
  2541 112.567 0.482269 5.02137
  2542 112.559 0.482293 -5.02051
  2543 96.7340 4.07297 9.42245
  2544 96.7319 4.07266 -9.42016
  2545 171.216 15.2876 -5.89924
  2546 115.151 -4.67714 3.58165
  2547 115.158 -4.68421 -3.58070
  2548 130.262 -19.7068 -18.4049
  2549 137.666 4.02532 -10.5116
  2550 135.727 -17.5250 14.7414
  2551 124.468 -11.3616 1.41735
  2552 124.468 -11.3387 -1.39690
  2553 160.577 -2.13954 -15.3696
  2554 106.577 1.07724 3.58143
  2555 106.576 1.07591 -3.58305
  2556 111.847 0.00304997 -5.43209
  2557 111.782 0.0830731 5.41616
  2558 49.6064 -19.1828 19.5073
  2559 49.5687 -19.1728 -19.5064
  2560 160.465 33.1738 -1.33182
  2561 123.780 -1.34244 -9.69926
  2562 123.787 -1.36100 9.66869
  2563 17.7564 -34.9503 -5.09613
  2564 17.8263 -34.9071 5.40622
  2565 96.3957 4.32267 1.75860
  2566 96.3927 4.32299 -1.75943
  2567 100.923 0.742874 4.36303
  2568 100.918 0.742767 -4.36183
  2569 160.721 -2.10106 15.1852
  2570 89.9361 7.63726 16.3410
  2571 89.9345 7.63887 -16.3370
  2572 140.282 -14.1048 3.19406
  2573 78.5677 10.3094 12.0853
  2574 78.5719 10.3091 -12.0809
  2575 110.751 2.95771 4.29900
  2576 103.789 0.900958 3.99709
  2577 127.101 -15.3155 5.61633
  2578 127.843 -14.9482 -4.57565
  2579 99.6449 0.0377417 0.864343
  2580 99.6389 0.0377398 -0.864073
  2581 132.611 -15.9948 4.96513
  2582 87.7170 7.62854 3.03564
  2583 87.7207 7.62780 -3.03502
  2584 97.7893 4.49439 10.9488
  2585 97.7867 4.49428 -10.9464
  2586 166.399 9.14217 -12.8806
  2587 112.665 -5.05678 21.9265
  2588 112.650 -5.05237 -21.9279
  2589 92.9496 -0.178297 -23.5789
  2590 92.9629 -0.185767 23.5802
  2591 178.978 -0.684804 -3.22428
  2592 178.989 -0.690196 3.23944
  2593 133.512 22.3332 0.155124
  2594 97.1529 5.11790 12.0463
  2595 97.1505 5.11792 -12.0437
  2596 117.037 -4.67941 2.24902
  2597 117.044 -4.68549 -2.24625
  2598 107.086 -2.07828 6.68122
  2599 107.087 -2.08364 -6.68524
  2600 273.556 19.7143 1.91872
  2601 46.5687 -6.12090 15.7322
  2602 46.5592 -6.10243 -15.7091
  2603 114.372 -0.449066 -2.58825
  2604 114.371 -0.447010 2.58822
  2605 105.837 0.00374590 2.49341
  2606 275.895 15.5118 -40.9689
  2607 124.412 -8.01737 -3.17294
  2608 124.413 -8.01844 3.18237
  2609 169.014 -4.56316 -8.30228
  2610 169.043 -4.58641 8.32968
  2611 149.128 0.0650111 2.87760
  2612 149.118 0.0650822 -2.87824
  2613 155.628 -0.357845 7.58237
  2614 115.137 5.97341 4.30971
  2615 109.290 0.708392 5.26289
  2616 131.154 5.10375 -10.8055
  2617 77.7247 9.67213 14.5985
  2618 77.7276 9.67322 -14.5926
  2619 93.9551 3.50800 5.87541
  2620 93.9546 3.50739 -5.87358
  2621 142.496 -0.0775331 -2.98391
  2622 142.507 -0.0776035 2.98356
  2623 90.1398 6.59454 5.62378
  2624 90.1417 6.59367 -5.62224
  2625 142.567 24.8755 -4.76028
  2626 168.705 -0.580670 -5.76119
  2627 168.695 -0.606038 5.81101
  2628 166.926 -3.09663 11.4929
  2629 166.938 -3.08148 -11.4391
  2630 112.981 0.0399952 2.68325
  2631 112.982 0.0385311 -2.68379
  2632 164.003 -3.83263 -3.96303
  2633 164.004 -3.82995 3.95068
  2634 240.609 19.3925 -0.145459
  2635 45.5894 -24.3952 -5.51489
  2636 44.9462 -24.8852 5.40612
  2637 174.683 -6.01181 -14.1561
  2638 174.831 -5.82710 14.1650
  2639 96.0840 1.27276 -4.39902
  2640 96.0869 1.27301 4.40046
  2641 98.8075 2.98036 4.28720
  2642 98.8045 2.97952 -4.28926
  2643 159.167 -14.9574 3.15028
  2644 159.118 -14.8554 -3.19271
  2645 166.561 25.3849 46.9147
  2646 128.619 -8.64939 20.1032
  2647 131.186 15.6268 7.63569
  2648 105.988 4.06649 -15.4150
  2649 105.993 4.06509 15.4169
  2650 231.282 23.5055 29.3675
  2651 63.3587 9.78946 -1.19059
  2652 63.3772 9.78372 1.18925
  2653 111.050 4.77368 -0.770241
  2654 101.060 -1.81969 9.91995
  2655 101.055 -1.82553 -9.92483
  2656 162.638 0.0408678 -3.58845
  2657 162.643 0.0406115 3.58659
  2658 67.4782 8.52666 -14.0209
  2659 67.4725 8.52459 14.0308
  2660 84.2906 9.09059 4.28525
  2661 84.2951 9.08973 -4.28452
  2662 118.829 -3.69544 0.283260
  2663 118.833 -3.69974 -0.278995
  2664 124.316 0.550830 -10.2207
  2665 121.382 1.50151 13.0447
  2666 121.374 1.50275 -13.0447
  2667 170.387 -10.6142 6.45980
  2668 170.620 -10.3451 -6.38507
  2669 176.422 -0.202345 -2.68839
  2670 176.416 -0.202632 2.68464
  2671 122.971 -19.0103 -16.0502
  2672 123.022 -19.0181 16.1046
  2673 173.116 -2.69407 1.34860
  2674 173.100 -2.68404 -1.35026
  2675 98.8701 1.08407 4.99185
  2676 98.8660 1.08392 -4.99041
  2677 142.700 -13.6247 -9.96343
  2678 119.690 -0.714644 3.06386
  2679 119.698 -0.713609 -3.05801
  2680 84.3589 9.29367 -7.04656
  2681 84.3551 9.29462 7.04818
  2682 116.061 -1.65252 2.17787
  2683 116.064 -1.65589 -2.17665
  2684 95.7999 2.77093 -6.50637
  2685 95.8018 2.77136 6.50827
  2686 81.2155 8.57777 -2.46710
  2687 81.2220 8.57818 2.46482
  2688 97.0029 0.392700 -0.845444
  2689 162.266 -11.1359 6.98778
  2690 162.230 -11.0739 -7.00087
  2691 111.762 -4.10818 5.53437
  2692 111.767 -4.11564 -5.53672
  2693 198.605 4.65446 2.79518
  2694 121.228 12.5301 0.941050
  2695 114.664 -11.1949 10.1633
  2696 114.783 -11.1013 -10.1574
  2697 91.2673 6.12855 2.08356
  2698 91.2702 6.12771 -2.08297
  2699 126.000 -9.41046 -17.7785
  2700 126.024 -9.41522 17.7802
  2701 151.973 2.29273 -22.1223
  2702 87.7658 8.09691 8.68603
  2703 87.7679 8.09614 -8.68389
  2704 91.2703 6.76479 10.1483
  2705 91.2706 6.76428 -10.1458
  2706 119.352 1.40075 11.3005
  2707 119.344 1.40153 -11.3000
  2708 117.205 2.22616 -8.43332
  2709 113.477 -16.4250 -17.4789
  2710 140.394 1.74854 13.8814
  2711 107.552 3.76707 16.9794
  2712 107.545 3.76929 -16.9780
  2713 206.265 14.9786 -7.61489
  2714 151.304 -17.5352 -1.68648
  2715 151.407 -17.4723 1.57099
  2716 92.5050 4.96565 3.74359
  2717 92.5066 4.96475 -3.74234
  2718 131.096 4.29715 10.9062
  2719 227.087 25.5374 -31.0139
  2720 109.865 0.533434 -5.48887
  2721 120.386 -3.78200 -1.68705
  2722 120.389 -3.78539 1.69251
  2723 159.562 -0.403863 -6.67160
  2724 159.566 -0.404766 6.66727
  2725 99.8553 1.71771 6.62766
  2726 99.8513 1.71753 -6.62593
  2727 108.602 3.27198 1.62665
  2728 89.7562 6.71207 3.76625
  2729 89.7589 6.71122 -3.76524
  2730 151.648 29.6943 3.40799
  2731 121.143 -0.439829 -0.684328
  2732 121.142 -0.438972 0.685766
  2733 97.8254 0.680174 3.82219
  2734 97.8213 0.680055 -3.82100
  2735 31.0186 -41.2230 0.0564288
  2736 31.0673 -41.2533 -0.107086
  2737 76.0710 10.7187 3.94666
  2738 76.0790 10.7171 -3.94630
  2739 105.955 1.05360 6.46982
  2740 105.949 1.05358 -6.46844
  2741 125.859 7.91456 -9.59385
  2742 113.524 -14.2494 15.0441
  2743 134.600 7.53794 10.5235
  2744 140.848 -9.38485 -11.9412
  2745 140.878 -9.39069 11.9331
  2746 151.091 -1.87088 2.46177
  2747 118.761 0.770340 7.57343
  2748 118.752 0.770592 -7.57271
  2749 129.243 -12.7034 -17.0483
  2750 111.728 2.67230 -13.0809
  2751 111.735 2.67144 13.0822
  2752 123.445 -22.1699 -14.0633
  2753 123.764 -22.1840 14.2702
  2754 151.008 -12.0071 -4.30261
  2755 151.040 -11.9916 4.27742
  2756 163.272 -0.437988 -6.57600
  2757 163.273 -0.439326 6.56984
  2758 85.5902 5.04496 8.37793
  2759 85.5848 5.04141 -8.38174
  2760 113.252 0.0669070 1.56012
  2761 113.243 0.0669160 -1.55983
  2762 120.690 -2.63319 -2.72311
  2763 120.691 -2.63587 2.72906
  2764 122.722 -16.8935 -11.3927
  2765 83.1932 8.57625 0.885907
  2766 83.1874 8.57623 -0.887199
  2767 104.319 0.301792 3.21957
  2768 104.312 0.301758 -3.21876
  2769 177.531 -1.86018 7.84576
  2770 93.4646 -2.61422 15.1224
  2771 93.4556 -2.62604 -15.1238
  2772 124.158 0.326492 -5.56241
  2773 124.168 0.326329 5.56274
  2774 125.533 15.5567 1.57216
  2775 162.382 -7.69180 -10.7942
  2776 111.945 -5.99693 -7.06977
  2777 111.939 -5.98747 7.06571
  2778 166.460 -7.09501 -12.6500
  2779 166.526 -7.11195 12.6685
  2780 107.976 0.295202 3.68016
  2781 107.968 0.295206 -3.67936
  2782 90.4054 6.46629 4.77151
  2783 90.4075 6.46541 -4.77016
  2784 132.130 -16.9432 -5.71880
  2785 129.683 12.8914 -8.47219
  2786 190.323 4.42983 -12.9335
  2787 92.9133 4.37792 -5.64909
  2788 92.9130 4.37867 5.65084
  2789 178.796 25.3155 -2.60105
  2790 120.181 -19.7051 -25.6078
  2791 159.976 -0.0268379 -3.31789
  2792 159.983 -0.0270403 3.31653
  2793 151.606 8.13312 9.33911
  2794 95.1111 4.75958 -0.930874
  2795 95.1141 4.75905 0.930413
  2796 88.6119 7.39613 -4.16422
  2797 88.6088 7.39698 4.16526
  2798 97.2516 1.19469 -4.69672
  2799 97.2550 1.19489 4.69816
  2800 74.8193 -22.5055 -31.6013
  2801 169.334 -0.348302 -3.14587
  2802 169.335 -0.348612 3.14333
  2803 178.009 14.2773 4.85347
  2804 98.4326 2.50202 7.59012
  2805 98.4294 2.50176 -7.58814
  2806 118.365 -0.0992356 1.68307
  2807 118.382 -0.0990563 -1.67943
  2808 73.1020 -22.3743 31.6831
  2809 123.401 -12.7136 17.7149
  2810 123.375 -12.7109 -17.7056
  2811 111.606 2.54582 -19.2378
  2812 111.615 2.54204 19.2378
  2813 129.140 11.5195 9.05410
  2814 143.846 -12.1528 -3.64510
  2815 81.0460 10.3268 -7.45733
  2816 81.0409 10.3280 7.45914
  2817 121.434 -1.04138 -1.11584
  2818 121.433 -1.04286 1.11998
  2819 99.2462 4.59585 12.4823
  2820 99.2429 4.59604 -12.4798
  2821 85.9380 6.94368 4.10859
  2822 85.9325 6.94257 -4.11068
  2823 70.6061 10.5472 10.0115
  2824 70.6148 10.5462 -10.0058
  2825 143.414 13.6460 -36.7231
  2826 92.6450 6.54271 18.7247
  2827 92.6407 6.54596 -18.7209
  2828 144.794 0.0225498 -9.90774
  2829 144.802 0.0213395 9.90477
  2830 94.2416 6.37725 13.3382
  2831 94.2400 6.37752 -13.3353
  2832 102.981 0.166741 2.14162
  2833 88.8008 7.41047 -7.42563
  2834 88.7988 7.41127 7.42750
  2835 99.8705 -3.80159 -12.6884
  2836 99.8759 -3.79224 12.6818
  2837 103.969 1.11132 -2.78222
  2838 122.970 -4.46222 -6.77964
  2839 122.977 -4.46378 6.78574
  2840 103.244 1.18268 4.84305
  2841 103.242 1.18075 -4.84558
  2842 95.3977 4.17671 8.61249
  2843 95.3962 4.17627 -8.61025
  2844 92.2623 3.07357 8.39727
  2845 92.2567 3.07032 -8.40037
  2846 109.070 3.39438 -18.6201
  2847 109.078 3.39112 18.6208
  2848 171.974 -2.61865 -0.496927
  2849 171.962 -2.61237 0.490230
  2850 93.4672 5.26691 1.35204
  2851 93.4636 5.26724 -1.35268
  2852 120.549 -11.6772 -5.57955
  2853 120.603 -11.6055 5.45590
  2854 106.428 0.162843 -2.52345
  2855 106.435 0.162850 2.52404
  2856 89.3930 8.00486 12.9644
  2857 89.3932 8.00487 -12.9613
  2858 120.729 -17.4779 16.5331
  2859 119.440 -17.9844 -16.0750
  2860 124.680 -0.0865262 -0.0101312
  2861 124.680 -0.0866562 0.0110094
  2862 96.6147 1.61271 -5.27046
  2863 96.6175 1.61298 5.27208
  2864 148.310 -14.8487 -4.22217
  2865 148.368 -14.8340 4.19173
  2866 88.2984 1.66261 -12.4621
  2867 88.3031 1.67014 12.4578
  2868 101.137 0.266557 -2.72462
  2869 101.142 0.266596 2.72540
  2870 48.5808 3.65890 -7.25101
  2871 48.6225 3.64734 7.24985
  2872 163.552 -0.722601 19.1775
  2873 89.6531 6.49250 -1.83936
  2874 89.6576 6.49256 1.83844
  2875 100.520 1.74917 -5.58593
  2876 100.523 1.75104 5.58308
  2877 91.8381 5.30831 4.49966
  2878 91.8396 5.30744 -4.49825
  2879 99.8645 -24.6616 -18.6271
  2880 100.102 -24.3374 18.0104
  2881 130.027 -7.33154 6.66053
  2882 129.959 -7.25891 -6.71735
  2883 69.4048 -5.36579 22.8743
  2884 69.3838 -5.35224 -22.8693
  2885 113.672 3.70482 6.14816
  2886 120.473 -1.74264 3.48475
  2887 120.475 -1.74060 -3.47831
  2888 110.380 -4.27285 6.62033
  2889 110.384 -4.28057 -6.62411
  2890 43.0161 1.84486 -3.29952
  2891 42.9820 1.84814 3.31949
  2892 75.4116 8.78326 16.2885
  2893 75.4133 8.78606 -16.2812
  2894 114.375 0.286131 3.85158
  2895 114.366 0.286148 -3.85095
  2896 121.540 6.24195 8.55551
  2897 159.555 -1.32388 -11.7405
  2898 79.5056 3.06441 -21.9034
  2899 79.5147 3.05592 21.9099
  2900 96.4080 2.58667 -6.63182
  2901 96.4103 2.58705 6.63372
  2902 161.265 -6.24210 -1.90875
  2903 161.268 -6.22988 1.89472
  2904 119.315 -0.0191101 -9.03184
  2905 107.853 0.906775 -4.77263
  2906 95.0684 0.00656734 0.539363
  2907 95.0639 0.00656844 -0.539171
  2908 176.841 -6.69244 3.97227
  2909 176.693 -6.60618 -3.73659
  2910 104.880 1.56617 3.56116
  2911 104.879 1.56515 -3.56285
  2912 96.0854 1.59158 -4.92494
  2913 96.0880 1.59187 4.92651
  2914 101.985 1.50036 6.73156
  2915 101.980 1.50025 -6.72994
  2916 124.911 -13.9085 -5.03945
  2917 124.735 -13.9679 5.14703
  2918 240.122 17.3471 -6.46343
  2919 147.019 3.80555 -14.8955
  2920 109.270 0.138223 -4.65529
  2921 242.435 14.7405 -20.7095
  2922 127.088 17.4870 -1.53846
  2923 207.128 19.6105 1.19338
  2924 150.362 -3.75107 16.3787
  2925 143.354 -4.19026 6.03841
  2926 102.642 0.156921 -2.02856
  2927 92.7490 4.99459 7.02047
  2928 92.7491 4.99387 -7.01848
  2929 149.998 -16.3829 -6.46848
  2930 150.932 -16.1133 5.87355
  2931 233.972 16.6953 48.7247
  2932 173.850 16.8910 24.1366
  2933 94.2237 5.90269 -11.2992
  2934 94.2249 5.90293 11.3018
  2935 196.982 24.5531 14.3438
  2936 139.217 -1.45136 -14.5861
  2937 139.228 -1.45553 14.5800
  2938 98.4636 0.120419 -1.62793
  2939 98.4689 0.120441 1.62844
  2940 111.902 -0.278519 3.14849
  2941 111.903 -0.280750 -3.14923
  2942 118.321 -2.47924 -0.850454
  2943 118.318 -2.47568 0.853646
  2944 102.450 4.69477 16.6670
  2945 102.445 4.69660 -16.6648
  2946 120.685 -2.85116 6.84555
  2947 120.681 -2.85305 -6.83687
  2948 114.743 -3.15292 3.17522
  2949 114.748 -3.15845 -3.17445
  2950 98.8136 0.449546 1.42874
  2951 125.584 14.4517 4.50609
  2952 174.340 3.45404 18.4515
  2953 98.9717 0.362295 -2.87936
  2954 98.9766 0.362355 2.88025
  2955 117.891 3.85761 -8.11733
  2956 99.9936 0.663636 4.09927
  2957 99.9887 0.663546 -4.09810
  2958 115.315 -0.356963 -2.30290
  2959 115.314 -0.355269 2.30303
  2960 88.4441 6.76366 -2.35823
  2961 88.4489 6.76404 2.35706
  2962 327.840 9.98752 20.0128
  2963 129.543 0.787354 9.27027
  2964 129.534 0.787979 -9.27060
  2965 105.430 0.578700 -4.62105
  2966 105.436 0.578728 4.62211
  2967 119.337 -0.0431952 9.04833
  2968 101.216 3.16287 10.1979
  2969 101.212 3.16283 -10.1957
  2970 97.7774 3.30881 8.74287
  2971 97.7747 3.30852 -8.74071
  2972 106.069 -3.46556 -8.68042
  2973 106.070 -3.45856 8.67448
  2974 91.7604 5.37369 5.44254
  2975 91.7615 5.37285 -5.44091
  2976 151.016 30.9986 0.231149
  2977 53.9262 3.34077 -11.8853
  2978 53.9607 3.32900 11.8720
  2979 113.088 0.789721 -6.89417
  2980 89.1332 7.55217 17.6441
  2981 89.1309 7.55468 -17.6397
  2982 106.872 0.607388 4.05796
  2983 106.872 0.605400 -4.05983
  2984 147.959 13.2205 37.5861
  2985 104.632 3.24941 12.1464
  2986 104.627 3.24981 -12.1444
  2987 66.0748 -7.50424 -24.4966
  2988 154.835 3.33666 16.9026
  2989 99.1410 -5.12104 14.8733
  2990 99.1291 -5.12747 -14.8820
  2991 118.008 -0.770624 -4.09053
  2992 118.000 -0.770646 4.09684
  2993 121.980 1.94835 -9.74382
  2994 173.519 3.70290 -18.0177
  2995 101.561 4.62175 14.8817
  2996 101.556 4.62276 -14.8793
  2997 243.675 15.3356 14.0525
  2998 181.041 31.6520 0.975201
  2999 19.6013 -36.8398 -3.91579
  3000 19.6812 -36.9604 3.90358
  3001 122.628 -8.90900 -0.0998310
  3002 122.638 -8.91188 0.111432
  3003 103.979 0.812618 -5.47927
  3004 103.985 0.812654 5.48058
  3005 193.453 13.1029 11.2046
  3006 65.2864 -0.893739 20.3324
  3007 65.2741 -0.881021 -20.3203
  3008 67.7565 10.8900 4.68639
  3009 67.7695 10.8868 -4.68382
  3010 115.666 7.34288 -2.64424
  3011 139.595 -0.0100530 -13.1686
  3012 139.604 -0.0124894 13.1644
  3013 83.5857 8.36597 16.7518
  3014 83.5850 8.36826 -16.7465
  3015 136.394 0.218742 10.0759
  3016 210.325 20.4998 -52.9474
  3017 113.942 1.90625 -11.9509
  3018 113.949 1.90554 11.9520
  3019 114.556 2.40526 14.3810
  3020 114.549 2.40666 -14.3802
  3021 110.655 0.531746 5.23681
  3022 110.648 0.531777 -5.23584
  3023 117.980 -1.48687 1.36247
  3024 117.982 -1.48954 -1.36043
  3025 88.6722 7.26977 -2.07131
  3026 88.6685 7.27045 2.07170
  3027 221.828 12.5500 -18.6090
  3028 96.5857 0.261175 2.24467
  3029 96.5815 0.261128 -2.24391
  3030 122.234 -0.194096 -0.617422
  3031 122.232 -0.193675 0.618384
  3032 105.412 0.0860417 1.04500
  3033 105.405 0.0860261 -1.04473
  3034 65.5600 2.87810 15.4242
  3035 65.5448 2.88297 -15.4405
  3036 121.535 -1.08698 -9.34324
  3037 121.576 -1.08672 9.34498
  3038 127.240 0.153257 10.3824
  3039 127.463 0.151230 -1.93316
  3040 127.474 0.151213 1.93326
  3041 167.268 -9.16885 -12.5892
  3042 167.322 -9.17622 12.6262
  3043 95.2268 4.60097 9.26892
  3044 95.2254 4.60054 -9.26659
  3045 95.8808 -0.398889 -11.2726
  3046 95.8871 -0.393025 11.2680
  3047 108.455 -0.398719 4.49559
  3048 108.456 -0.401877 -4.49758
  3049 193.944 32.2489 -3.51187
  3050 114.853 -0.860451 -2.52964
  3051 114.851 -0.857906 2.52995
  3052 103.868 4.10914 14.0303
  3053 103.863 4.10992 -14.0281
  3054 209.856 14.8316 7.06636
  3055 59.2139 5.12462 -10.9067
  3056 59.2394 5.11733 10.8953
  3057 88.1968 6.37846 -3.79907
  3058 88.2020 6.37936 3.79737
  3059 125.949 -12.7449 2.13851
  3060 125.881 -12.7532 -2.17587
  3061 96.4977 0.758460 -3.63084
  3062 96.5012 0.758606 3.63203
  3063 59.7939 8.06783 10.6488
  3064 59.8059 8.06838 -10.6368
  3065 120.846 -1.76549 2.42001
  3066 120.847 -1.76331 -2.41433
  3067 151.660 8.70327 3.45836
  3068 91.3566 -20.4683 29.9717
  3069 113.276 -8.42254 -8.44039
  3070 113.275 -8.40568 8.44776
  3071 115.732 -19.0275 -19.0382
  3072 102.640 0.850487 5.58240
  3073 102.638 0.848066 -5.58538
  3074 120.523 -5.56046 -1.22611
  3075 120.529 -5.56422 1.23200
  3076 49.7848 -7.96023 -22.7115
  3077 49.8078 -7.96561 22.6955
  3078 139.137 0.0863389 7.51922
  3079 100.714 1.50029 0.0872820
  3080 86.9490 7.15646 -1.54651
  3081 86.9540 7.15666 1.54550
  3082 69.7885 -11.7844 -23.7268
  3083 69.8196 -11.7969 23.7240
  3084 111.238 3.96878 -3.48846
  3085 120.431 22.1743 -45.6743
  3086 109.344 -22.3351 26.9121
  3087 185.617 -0.430962 -0.659470
  3088 185.647 -0.432775 0.659055
  3089 109.245 0.156512 4.61634
  3090 95.7589 4.43197 -2.28990
  3091 95.7623 4.43184 2.28885
  3092 132.246 -0.615023 16.5582
  3093 132.236 -0.611130 -16.5626
  3094 131.446 0.815878 -12.3944
  3095 131.455 0.814376 12.3929
  3096 132.830 0.00414171 -2.16039
  3097 132.841 0.00410142 2.16043
  3098 123.087 -0.0210504 -0.347777
  3099 123.085 -0.0210111 0.347820
  3100 12.1056 -79.7089 6.19313
  3101 12.3073 -79.6799 -6.52947
  3102 100.618 -0.0111901 -0.957573
  3103 100.624 -0.0111973 0.957865
  3104 122.435 -5.60601 19.6483
  3105 122.419 -5.60062 -19.6507
  3106 132.781 0.656005 10.3505
  3107 120.603 4.16188 9.03707
  3108 94.0560 3.03129 5.15868
  3109 94.0554 3.03070 -5.15697
  3110 197.745 17.7474 -0.507981
  3111 91.1801 5.97072 6.29541
  3112 91.1814 5.96990 -6.29364
  3113 35.7584 -11.6433 -10.9072
  3114 35.7622 -11.6662 10.9428
  3115 116.264 -0.0591046 -1.96538
  3116 116.263 -0.0581014 1.96537
  3117 109.034 2.48717 12.0403
  3118 109.028 2.48774 -12.0387
  3119 117.284 2.01103 8.47160
  3120 99.4270 1.32070 -1.21452
  3121 121.991 -0.121310 -0.690824
  3122 121.989 -0.120963 0.691480
  3123 122.494 -0.484193 0.0873749
  3124 122.494 -0.483495 -0.0850619
  3125 108.867 0.967762 6.68959
  3126 108.860 0.967797 -6.68833
  3127 115.732 -0.629438 4.78123
  3128 115.741 -0.634126 -4.77651
  3129 103.060 -2.02047 -8.89316
  3130 103.063 -2.01512 8.88785
  3131 142.257 -5.98142 -5.33094
  3132 113.413 3.12015 -6.24613
  3133 142.291 17.5187 -8.91098
  3134 68.7390 8.93139 -4.94102
  3135 68.7531 8.92822 4.93513
  3136 95.3843 1.43241 4.34011
  3137 95.3819 1.43212 -4.33864
  3138 100.304 -11.3837 -20.3878
  3139 100.368 -11.3616 20.2422
  3140 113.231 0.883873 7.04831
  3141 95.6509 0.867312 -3.58280
  3142 95.6539 0.867501 3.58402
  3143 156.922 3.86758 -17.1278
  3144 105.603 3.08417 -20.4374
  3145 105.612 3.07950 20.4381
  3146 176.246 -1.20090 -1.94770
  3147 176.233 -1.19989 1.94020
  3148 57.6645 4.15586 14.6946
  3149 57.6680 4.16236 -14.6781
  3150 29.7114 -9.77878 0.147956
  3151 29.6444 -9.77446 -0.104877
  3152 152.060 -4.88854 5.37387
  3153 176.880 -3.56235 -6.87528
  3154 112.520 -20.0781 22.6220
  3155 78.9913 0.927911 -16.2332
  3156 78.9946 0.933418 16.2181
  3157 174.833 -0.673754 -3.51101
  3158 174.824 -0.674273 3.50349
  3159 127.303 0.221716 5.28486
  3160 127.292 0.221869 -5.28470
  3161 97.1644 0.0432032 -0.772695
  3162 97.1696 0.0432173 0.772961
  3163 113.485 -0.986423 2.97810
  3164 113.487 -0.989459 -2.97822
  3165 160.145 -1.06442 11.7673
  3166 119.638 -0.987166 0.845534
  3167 119.639 -0.988905 -0.843448
  3168 144.528 -12.8597 7.45125
  3169 119.429 -2.96584 -0.251928
  3170 119.432 -2.96937 0.256408
  3171 91.9520 4.92739 5.05183
  3172 91.9471 4.92624 -5.05383
  3173 92.2197 7.06697 13.9521
  3174 92.2186 7.06737 -13.9489
  3175 115.301 0.834660 7.66505
  3176 115.293 0.834867 -7.66408
  3177 121.427 -21.9911 -21.4142
  3178 100.545 1.95445 22.2321
  3179 100.534 1.96078 -22.2311
  3180 133.589 -3.44389 16.6193
  3181 133.574 -3.43836 -16.6248
  3182 124.296 -0.00802727 -0.246059
  3183 124.294 -0.00796968 0.246354
  3184 102.213 0.278940 -2.62435
  3185 102.219 0.278985 2.62509
  3186 137.890 25.1193 1.42326
  3187 117.259 -21.9805 -16.7339
  3188 117.260 -21.9420 16.8870
  3189 124.361 0.223805 10.0962
  3190 147.350 -11.5203 7.06883
  3191 147.314 -11.5222 -7.08537
  3192 137.507 22.6297 5.01114
  3193 122.983 -5.46022 5.44150
  3194 122.979 -5.45838 -5.43653
  3195 92.8285 5.34034 1.31400
  3196 92.8312 5.33952 -1.31362
  3197 165.816 -1.53929 9.81077
  3198 165.926 -1.48827 -9.78265
  3199 134.156 -5.95915 -7.59380
  3200 80.3827 10.3649 -5.68823
  3201 80.3770 10.3661 5.68931
  3202 124.600 5.38025 -9.91587
  3203 108.507 0.446823 -4.53908
  3204 108.515 0.446814 4.54002
  3205 126.775 3.81152 3.96348
  3206 161.300 2.81509 -18.5445
  3207 112.397 1.91435 10.6988
  3208 112.390 1.91478 -10.6976
  3209 134.738 20.4856 42.5372
  3210 116.203 0.297623 4.21451
  3211 116.194 0.297655 -4.21388
  3212 148.053 26.5020 5.75371
  3213 117.993 3.55664 8.32857
  3214 123.430 8.96377 -7.81503
  3215 122.352 -5.56175 -4.01000
  3216 122.356 -5.56407 4.01563
  3217 87.5689 8.18133 7.41568
  3218 87.5714 8.18049 -7.41386
  3219 162.135 7.08473 13.9314
  3220 133.356 -5.27351 7.95002
  3221 92.1135 -24.4106 -20.0844
  3222 92.8561 -24.3172 19.6251
  3223 179.655 -4.39561 -9.82793
  3224 167.904 -4.10177 17.8607
  3225 167.892 -4.22803 -17.9060
  3226 114.431 -3.79305 3.60914
  3227 114.436 -3.79934 -3.60866
  3228 41.2196 -2.09223 -7.39319
  3229 41.1983 -2.09611 7.42364
  3230 121.454 -0.175627 1.23425
  3231 121.465 -0.175319 -1.23136
  3232 95.2106 3.26799 -6.87527
  3233 95.2121 3.26847 6.87725
  3234 138.585 -12.2447 0.507215
  3235 118.257 -10.3637 6.12022
  3236 118.263 -10.3668 -6.18862
  3237 92.0575 5.86983 1.34198
  3238 92.0604 5.86903 -1.34160
  3239 104.210 -4.24866 -23.5058
  3240 104.224 -4.25337 23.5047
  3241 120.671 0.0614914 -19.3860
  3242 120.682 0.0567553 19.3834
  3243 104.527 1.44765 2.29725
  3244 120.488 -1.72272 -0.586399
  3245 120.488 -1.72496 0.590468
  3246 119.907 0.301908 4.71043
  3247 119.897 0.302000 -4.70991
  3248 149.490 7.96535 8.24889
  3249 107.764 -1.15436 5.44696
  3250 107.765 -1.15858 -5.44977
  3251 60.0322 -21.4324 -20.7389
  3252 60.0827 -21.4244 20.7314
  3253 92.5596 4.69041 4.96877
  3254 92.5605 4.68957 -4.96719
  3255 117.841 -1.29730 -6.84435
  3256 117.837 -1.28855 6.84901
  3257 97.7981 1.70181 -5.81358
  3258 97.8013 1.70206 5.81525
  3259 127.665 -6.86062 -17.9860
  3260 127.684 -6.86665 17.9834
  3261 120.438 -2.92525 1.78594
  3262 120.436 -2.92228 -1.78052
  3263 109.680 1.32912 7.92599
  3264 109.673 1.32922 -7.92464
  3265 115.517 -10.0234 8.26426
  3266 115.477 -9.97710 -8.24331
  3267 120.966 -1.26944 0.460975
  3268 120.966 -1.26774 -0.457316
  3269 174.665 5.42087 17.4061
  3270 128.904 0.910549 10.6039
  3271 128.895 0.911407 -10.6044
  3272 123.229 -0.221976 -0.240608
  3273 123.229 -0.221558 0.241905
  3274 164.082 27.4293 -3.41760
  3275 136.572 -17.1319 7.48585
  3276 122.042 -0.577492 -1.40911
  3277 122.038 -0.578362 1.41304
  3278 102.241 -3.46979 -10.8915
  3279 102.246 -3.46169 10.8862
  3280 140.119 -6.22221 -21.3365
  3281 87.6965 8.23780 -9.87963
  3282 87.6947 8.23843 9.88208
  3283 21.4790 -58.7563 -3.07750
  3284 24.3706 -51.7170 7.35724
  3285 90.3718 -2.53899 -16.6167
  3286 90.3674 -2.52196 16.6143
  3287 179.959 -4.15704 9.85137
  3288 96.1780 0.106246 -1.27190
  3289 96.1825 0.106276 1.27234
  3290 72.6930 8.99655 -4.33561
  3291 72.7039 8.99514 4.33052
  3292 19.7880 -27.7514 -1.34332
  3293 19.7948 -27.8106 1.44696
  3294 150.597 0.0343944 -7.99980
  3295 150.604 0.0335045 7.99678
  3296 120.066 -15.0003 -10.8015
  3297 136.617 -0.543977 -9.68539
  3298 160.699 11.3402 2.62485
  3299 93.4655 5.25258 -0.621793
  3300 93.4626 5.25335 0.621940
  3301 102.697 -0.0112967 -0.727032
  3302 102.704 -0.0113156 0.727248
  3303 119.073 -0.0209542 -1.37922
  3304 119.072 -0.0204745 1.37933
  3305 103.579 2.04814 8.75051
  3306 103.574 2.04814 -8.74868
  3307 120.566 -7.26119 -0.423243
  3308 120.557 -7.25573 0.430109
  3309 156.279 6.96132 -3.69838
  3310 110.331 -0.387209 -3.75351
  3311 110.330 -0.384408 3.75226
  3312 103.646 0.841283 3.20860
  3313 171.702 -0.504737 -4.31799
  3314 171.698 -0.505577 4.31167
  3315 65.5259 -8.81786 26.3988
  3316 65.5512 -8.75862 -26.4676
  3317 114.032 6.03610 2.37789
  3318 122.573 -3.12140 8.35967
  3319 122.563 -3.12691 -8.34718
  3320 124.495 -6.72877 5.10098
  3321 124.495 -6.72857 -5.09546
  3322 163.861 -12.2568 7.96318
  3323 163.814 -12.1853 -7.96750
  3324 78.0762 -5.61319 17.7509
  3325 186.371 1.35664 -13.7696
  3326 157.124 14.0556 -6.23584
  3327 77.9384 7.41480 18.4272
  3328 77.9366 7.41912 -18.4197
  3329 195.086 9.96650 12.4435
  3330 76.4706 11.0196 6.48790
  3331 76.4779 11.0179 -6.48620
  3332 96.2319 3.63749 -8.20986
  3333 96.2339 3.63791 8.21201
  3334 158.436 -4.26912 -6.03427
  3335 158.444 -4.26921 6.02139
  3336 91.6609 5.72063 -7.02663
  3337 91.6601 5.72140 7.02857
  3338 81.2177 4.88066 -10.2693
  3339 81.2230 4.88525 10.2626
  3340 92.7763 5.66939 8.79275
  3341 92.7762 5.66879 -8.79049
  3342 138.500 -0.198179 -7.58833
  3343 103.295 2.63993 9.89901
  3344 103.291 2.63998 -9.89704
  3345 115.102 -2.01146 2.63172
  3346 115.105 -2.01551 -2.63085
  3347 148.906 0.0339010 -6.75149
  3348 222.241 13.6206 0.166649
  3349 37.9777 -23.4305 -14.4894
  3350 38.0148 -23.4529 14.4864
  3351 66.6621 4.67003 -18.0068
  3352 66.6639 4.66247 18.0192
  3353 115.972 1.64991 -19.5635
  3354 115.983 1.64560 19.5622
  3355 165.534 -4.12296 -2.08796
  3356 165.531 -4.11647 2.07678
  3357 112.821 2.20363 6.50846
  3358 121.587 -9.69478 -1.86955
  3359 121.562 -9.68449 1.88450
  3360 149.814 8.42323 0.754889
  3361 67.1101 9.92248 10.5484
  3362 67.1197 9.92184 -10.5405
  3363 163.844 -6.40248 0.517385
  3364 163.839 -6.38302 -0.527529
  3365 122.333 -16.5145 10.7631
  3366 149.295 26.9412 -5.23173
  3367 85.9043 8.63283 4.21761
  3368 85.9083 8.63199 -4.21678
  3369 92.8907 5.93189 -9.94187
  3370 92.8911 5.93236 9.94430
  3371 97.6943 -7.48820 18.3912
  3372 97.7249 -7.56405 -18.3943
  3373 177.855 -1.37605 -0.764432
  3374 177.838 -1.37332 0.758675
  3375 133.749 0.139943 -14.8980
  3376 133.759 0.137072 14.8945
  3377 151.874 -7.67131 -7.14542
  3378 151.894 -7.66981 7.13004
  3379 120.142 -0.442323 -1.03939
  3380 120.141 -0.441378 1.04045
  3381 87.2031 6.17911 -20.2926
  3382 87.2084 6.17409 20.2975
  3383 143.019 -5.51804 13.0816
  3384 143.002 -5.51239 -13.0899
  3385 34.3301 -38.6621 -9.20207
  3386 34.3199 -38.6125 9.16618
  3387 95.1455 0.0556028 -1.00017
  3388 95.1498 0.0556013 1.00054
  3389 147.200 9.48658 -9.38661
  3390 93.2556 3.92461 4.86640
  3391 93.2559 3.92385 -4.86479
  3392 94.7767 2.01082 -4.80203
  3393 94.7783 2.01124 4.80365
  3394 81.2495 5.02506 -20.9659
  3395 81.2561 5.01801 20.9724
  3396 121.884 0.00574594 -0.702554
  3397 123.650 -0.00796490 0.274053
  3398 121.882 0.00585708 0.702612
  3399 123.652 -0.00800598 -0.273964
  3400 130.201 -13.6332 1.35240
  3401 130.101 -13.6652 -1.23699
  3402 84.8666 3.78699 -10.8390
  3403 84.8716 3.79249 10.8339
  3404 89.2645 -15.5340 23.7569
  3405 89.2556 -15.5425 -23.7761
  3406 135.246 0.220453 8.37155
  3407 135.236 0.221025 -8.37245
  3408 97.1091 0.123124 1.00384
  3409 119.286 -7.88601 2.20529
  3410 119.300 -7.89473 -2.20022
  3411 108.419 2.06068 10.4184
  3412 108.413 2.06098 -10.4168
  3413 120.895 -1.60600 1.20369
  3414 120.895 -1.60401 -1.19906
  3415 304.888 12.2073 37.5377
  3416 98.3705 0.847025 -4.32834
  3417 98.3747 0.847159 4.32963
  3418 101.117 3.85646 11.8168
  3419 101.113 3.85661 -11.8145
  3420 34.3252 -8.11097 -5.90442
  3421 34.2992 -8.12196 5.94665
  3422 94.7601 3.93288 4.79011
  3423 94.7559 3.93189 -4.79218
  3424 54.2502 7.12769 -2.84687
  3425 54.2801 7.11877 2.84849
  3426 188.469 4.13800 14.0556
  3427 129.362 2.77771 -9.03763
  3428 117.255 -2.40844 1.58349
  3429 117.258 -2.41233 -1.58119
  3430 101.346 -8.05653 16.6172
  3431 101.400 -8.19616 -16.6153
  3432 95.5512 5.18299 10.7868
  3433 95.5495 5.18273 -10.7843
  3434 122.167 1.17927 11.5395
  3435 122.159 1.18016 -11.5394
  3436 168.008 -5.28257 4.49598
  3437 167.988 -5.25468 -4.49180
  3438 96.9748 3.20176 -5.13894
  3439 96.9786 3.20295 5.13661
  3440 83.4921 -1.75813 -18.3656
  3441 83.4957 -1.74799 18.3433
  3442 82.4072 1.49637 -14.5538
  3443 82.4094 1.50517 14.5438
  3444 237.346 21.8110 -0.0777569
  3445 37.2369 -33.5643 21.0402
  3446 184.340 -0.303227 1.57977
  3447 184.312 -0.301041 -1.57490
  3448 207.084 7.91082 3.41001
  3449 109.183 -1.52619 4.98372
  3450 109.185 -1.53066 -4.98600
  3451 97.6253 0.262486 -2.37020
  3452 97.6300 0.262531 2.37097
  3453 95.6432 1.80974 -5.06584
  3454 95.6455 1.81009 5.06747
  3455 42.6287 -0.983288 -10.0098
  3456 42.6845 -0.992982 10.0080
  3457 150.766 -1.35820 11.0328
  3458 150.759 -1.35534 -11.0401
  3459 71.6343 -3.06950 -22.0468
  3460 71.6296 -3.07689 22.0406
  3461 109.649 1.62374 5.33921
  3462 87.4646 8.55215 14.3546
  3463 87.4650 8.55272 -14.3509
  3464 104.993 0.405395 3.46936
  3465 116.389 -0.640737 -6.92086
  3466 116.386 -0.634333 6.92274
  3467 131.910 -1.06966 -10.1215
  3468 117.355 0.0163718 1.47587
  3469 117.345 0.0163751 -1.47562
  3470 91.4616 5.72924 4.17793
  3471 91.4635 5.72833 -4.17666
  3472 164.313 -7.95809 5.28003
  3473 164.290 -7.91763 -5.28155
  3474 105.389 1.78228 -2.29060
  3475 89.2328 7.27464 6.76230
  3476 89.2348 7.27377 -6.76055
  3477 157.708 -0.118269 -6.40926
  3478 157.713 -0.119115 6.40572
  3479 79.1763 -0.900025 -23.5543
  3480 79.1912 -0.909942 23.5583
  3481 76.2050 -2.15577 20.4521
  3482 76.1985 -2.14645 -20.4661
  3483 109.764 3.16259 15.1819
  3484 109.757 3.16409 -15.1807
  3485 98.9304 1.02795 2.36891
  3486 120.931 9.14054 6.10670
  3487 97.8998 3.81316 2.29583
  3488 97.8971 3.81331 -2.29691
  3489 95.5455 0.272212 2.15615
  3490 95.5417 0.272143 -2.15537
  3491 49.7158 -12.2841 18.5435
  3492 105.511 0.369959 -3.42425
  3493 105.518 0.369996 3.42507
  3494 89.7300 7.18267 -8.13583
  3495 89.7286 7.18345 8.13789
  3496 103.845 1.43537 4.28038
  3497 103.844 1.43386 -4.28255
  3498 108.089 0.805180 3.41074
  3499 108.089 0.803803 -3.41215
  3500 107.766 -0.0129162 1.97890
  3501 107.718 -0.0125763 -1.98954
  3502 140.015 -11.0246 -1.39639
  3503 142.858 -19.1627 -7.03683
  3504 143.344 -19.2822 6.76026
  3505 118.169 9.51562 1.69195
  3506 92.9999 4.47072 6.09776
  3507 93.0000 4.46999 -6.09592
  3508 52.3003 -9.30586 19.8719
  3509 52.2761 -9.28586 -19.8577
  3510 116.511 4.11509 7.30292
  3511 107.518 2.75144 11.5969
  3512 107.512 2.75185 -11.5951
  3513 118.952 -0.188400 1.36707
  3514 118.953 -0.189173 -1.36658
  3515 74.3826 7.63694 -7.47348
  3516 74.3919 7.63709 7.46619
  3517 81.6630 10.1210 10.5552
  3518 81.6668 10.1203 -10.5521
  3519 102.853 4.22420 -19.4103
  3520 102.860 4.22033 19.4120
  3521 134.449 -18.4198 -10.0588
  3522 92.4462 4.81627 5.36942
  3523 92.4470 4.81546 -5.36775
  3524 40.0096 -30.9763 -23.0565
  3525 99.1997 3.39855 9.61604
  3526 99.1965 3.39838 -9.61382
  3527 93.3152 3.97326 -5.46926
  3528 93.3152 3.97398 5.47099
  3529 276.253 20.0165 -3.22655
  3530 87.6699 4.95577 21.3033
  3531 87.6626 4.96198 -21.2985
  3532 133.255 19.1517 5.85745
  3533 186.375 1.20810 14.0070
  3534 92.4523 -0.698824 -13.4076
  3535 92.4597 -0.690063 13.4042
  3536 106.519 1.77801 -8.83483
  3537 106.525 1.77793 8.83648
  3538 169.861 -6.62645 15.8418
  3539 169.832 -6.72869 -15.7931
  3540 115.084 0.0291886 -2.17950
  3541 115.083 0.0303215 2.17932
  3542 212.993 9.82378 -1.14089
  3543 93.4693 4.93072 8.23978
  3544 93.4688 4.93013 -8.23759
  3545 101.023 0.937366 5.11734
  3546 101.018 0.937250 -5.11597
  3547 112.038 -9.52857 -21.5021
  3548 112.052 -9.52891 21.5050
  3549 117.041 -0.182482 -1.81069
  3550 117.039 -0.181389 1.81095
  3551 94.3812 4.89169 -2.18507
  3552 94.3848 4.89157 2.18409
  3553 114.967 0.0159068 -1.70053
  3554 114.943 0.0172824 1.70339
  3555 335.855 7.84806 -7.73288
  3556 120.550 -2.92744 -5.98245
  3557 120.553 -2.92788 5.98999
  3558 122.077 0.490683 6.25994
  3559 101.948 -0.0150534 7.30698
  3560 101.945 -0.0185592 -7.31103
  3561 93.5066 4.34120 -6.81434
  3562 93.5069 4.34187 6.81632
  3563 103.620 -22.2405 -20.2062
  3564 103.528 -22.1313 20.2205
  3565 72.8071 10.0748 -0.902093
  3566 72.8176 10.0728 0.899543
  3567 96.4166 1.01007 -4.12883
  3568 96.4198 1.01027 4.13017
  3569 128.188 0.0730922 -16.9824
  3570 128.198 0.0693890 16.9790
  3571 106.935 -17.2497 -22.8135
  3572 88.4036 7.64249 5.85323
  3573 88.4062 7.64159 -5.85175
  3574 169.642 -1.52970 -4.75051
  3575 169.638 -1.53010 4.74095
  3576 139.728 12.3919 -10.2001
  3577 70.0151 -23.4690 30.6714
  3578 90.0701 7.56485 -10.6837
  3579 90.0695 7.56533 10.6863
  3580 110.798 0.887371 5.62451
  3581 120.374 -17.8553 14.4962
  3582 120.956 7.14293 -7.96811
  3583 73.6624 0.976648 -17.5203
  3584 73.6700 0.974493 17.5028
  3585 121.791 -0.0776517 -0.776675
  3586 121.789 -0.0773975 0.777049
  3587 119.709 9.36596 -4.77980
  3588 99.1365 1.63412 -6.21455
  3589 99.1403 1.63432 6.21623
  3590 134.011 7.09151 -10.8674
  3591 118.736 6.70771 -6.34627
  3592 113.008 2.20538 -6.64579
  3593 89.4173 7.90266 12.2923
  3594 89.4179 7.90248 -12.2893
  3595 96.5656 4.06259 -2.94450
  3596 96.5690 4.06271 2.94314
  3597 133.072 15.7284 -8.55490
  3598 95.4734 0.0324564 0.454291
  3599 95.4686 0.0324598 -0.454129
  3600 120.672 -2.28757 -3.54621
  3601 120.672 -2.28995 3.55264
  3602 76.9796 10.3244 -1.26559
  3603 76.9716 10.3257 1.26452
  3604 112.053 3.17768 16.3565
  3605 112.046 3.17977 -16.3557
  3606 70.4648 11.1902 -4.20701
  3607 70.4533 11.1932 4.20844
  3608 117.657 -1.06728 -1.52946
  3609 117.655 -1.06500 1.53097
  3610 114.126 0.359073 20.6769
  3611 114.114 0.364398 -20.6786
  3612 120.875 -1.31440 2.59630
  3613 120.878 -1.31264 -2.59055
  3614 143.079 1.06161 8.66821
  3615 77.1882 9.21523 -3.25069
  3616 77.1962 9.21492 3.24707
  3617 118.319 -0.820692 -1.39601
  3618 118.317 -0.818881 1.39739
  3619 124.069 -8.91790 -1.34425
  3620 124.074 -8.91925 1.35572
  3621 99.9994 2.34266 4.90785
  3622 99.9966 2.34135 -4.91029
  3623 116.175 -18.0785 -18.4655
  3624 116.186 -18.0608 18.5018
  3625 131.667 -2.27139 9.63245
  3626 100.723 0.0884770 -1.84229
  3627 100.729 0.0884921 1.84283
  3628 86.6321 5.63129 -6.54676
  3629 86.6377 5.63365 6.54389
  3630 127.208 13.5988 -6.62917
  3631 197.100 29.8729 -9.92255
  3632 126.335 0.722317 9.54703
  3633 126.325 0.722919 -9.54707
  3634 58.7286 -31.3003 15.1905
  3635 58.5893 -31.3690 -15.1834
  3636 120.367 -0.129708 -1.07447
  3637 120.366 -0.129219 1.07490
  3638 118.097 1.08472 -9.17096
  3639 118.105 1.08432 9.17174
  3640 104.115 0.188801 2.32335
  3641 104.108 0.188781 -2.32274
  3642 99.4207 0.0842223 -1.56680
  3643 99.4263 0.0842283 1.56729
  3644 96.2362 0.197220 1.81427
  3645 96.2319 0.197174 -1.81364
  3646 100.060 0.839522 -3.01891
  3647 121.755 0.322376 -6.44812
  3648 171.409 8.24736 -15.5748
  3649 73.7390 10.8394 9.86201
  3650 73.7464 10.8383 -9.85766
  3651 178.746 13.6015 8.22661
  3652 82.0896 9.85431 12.2016
  3653 82.0928 9.85412 -12.1979
  3654 179.400 17.6712 -20.6534
  3655 103.016 0.795084 5.08345
  3656 103.011 0.795022 -5.08219
  3657 102.442 0.394252 3.55448
  3658 102.436 0.394217 -3.55354
  3659 122.282 -10.9608 -2.90938
  3660 122.258 -10.9504 2.95111
  3661 93.9646 5.15692 0.725481
  3662 93.9613 5.15744 -0.725863
  3663 125.592 -18.3341 -12.2453
  3664 171.048 19.4790 48.8459
  3665 89.5911 4.76544 -6.89885
  3666 89.5965 4.76780 6.89622
  3667 55.8631 -13.4567 -21.2064
  3668 55.8974 -13.4738 21.2126
  3669 112.803 -14.0836 -15.5121
  3670 91.4374 5.33111 -3.98639
  3671 91.4421 5.33188 3.98477
  3672 72.8705 -15.8703 -23.9631
  3673 72.9091 -15.8756 23.9488
  3674 93.1910 3.33049 7.06767
  3675 93.1858 3.32818 -7.07048
  3676 159.215 -12.9132 -5.91060
  3677 159.103 -12.4692 5.51093
  3678 119.092 -1.34358 -8.21893
  3679 119.084 -1.32393 8.22390
  3680 118.317 -9.35955 -4.75241
  3681 118.300 -9.34361 4.74266
  3682 104.613 1.13262 6.68725
  3683 104.607 1.13259 -6.68576
  3684 166.892 31.2720 2.88633
  3685 119.908 -8.98327 -2.89879
  3686 119.885 -8.96898 2.90420
  3687 95.5054 1.43625 9.03241
  3688 95.5000 1.43253 -9.03606
  3689 154.779 0.0566964 -5.60773
  3690 154.786 0.0562241 5.60558
  3691 118.188 -3.23516 0.943369
  3692 118.192 -3.23950 -0.939952
  3693 121.227 -3.63334 -5.22579
  3694 121.231 -3.63540 5.23234
  3695 117.469 9.24197 -1.65823
  3696 81.3862 7.94244 -4.51474
  3697 81.3927 7.94356 4.51158
  3698 92.1415 5.83560 -1.80027
  3699 92.1455 5.83549 1.79948
  3700 120.411 -21.7732 21.6393
  3701 100.873 -20.4884 28.1487
  3702 146.572 0.0528975 2.31766
  3703 146.562 0.0529603 -2.31806
  3704 139.956 20.6923 -7.69625
  3705 158.480 -0.830117 17.9978
  3706 153.780 0.126013 2.40713
  3707 153.771 0.126100 -2.40777
  3708 106.273 -15.1916 -20.7328
  3709 105.028 -4.21083 -10.0898
  3710 105.032 -4.20277 10.0829
  3711 93.1378 5.43055 -0.0525439
  3712 93.1346 5.43120 0.0524611
  3713 151.700 -0.0482279 -8.69757
  3714 151.706 -0.0495019 8.69368
  3715 98.1621 -22.3744 30.4668
  3716 63.4496 7.29422 -8.28104
  3717 63.4696 7.28800 8.27211
  3718 77.8092 -3.34230 -23.9490
  3719 77.8269 -3.35338 23.9514
  3720 116.740 -8.11151 -5.17045
  3721 116.726 -8.10714 5.16807
  3722 111.952 -2.29719 4.18589
  3723 111.955 -2.30228 -4.18685
  3724 114.341 -6.09541 -5.32436
  3725 114.332 -6.08641 5.32314
  3726 66.5218 9.96274 -2.20294
  3727 66.5377 9.95822 2.19976
  3728 168.199 -4.70679 2.16944
  3729 168.187 -4.68811 -2.17215
  3730 119.041 -0.897980 3.95239
  3731 119.048 -0.897174 -3.94586
  3732 140.922 4.95161 9.20123
  3733 85.6445 8.62507 15.5030
  3734 85.6448 8.62629 -15.4987
  3735 183.203 -0.696118 -1.99146
  3736 183.225 -0.699011 1.99901
  3737 97.0750 0.0859154 -1.41931
  3738 97.0798 0.0859354 1.41980
  3739 139.565 0.100091 -11.5051
  3740 139.574 0.0985614 11.5024
  3741 237.180 14.9337 -8.21827
  3742 90.5161 6.49122 -1.17608
  3743 90.5126 6.49189 1.17630
  3744 107.598 0.899789 5.97635
  3745 107.591 0.899774 -5.97514
  3746 95.9320 -20.1318 -29.6198
  3747 95.9826 -1.54094 -12.4938
  3748 95.9896 -1.53409 12.4887
  3749 157.192 29.9914 -3.88716
  3750 123.847 -0.0913359 0.534208
  3751 123.853 -0.0911686 -0.532625
  3752 105.670 -14.8382 20.5944
  3753 125.519 10.4169 8.24058
  3754 90.5008 6.58760 2.00729
  3755 90.5040 6.58680 -2.00678
  3756 103.396 0.757781 22.5671
  3757 103.384 0.764110 -22.5669
  3758 97.3558 3.23446 4.56791
  3759 97.3523 3.23354 -4.57003
  3760 101.282 2.60566 3.24483
  3761 101.280 2.60523 -3.24641
  3762 117.478 -12.6654 9.89508
  3763 117.276 -12.5289 -9.80350
  3764 121.615 3.04963 1.59481
  3765 89.6353 6.88193 2.66177
  3766 89.6385 6.88112 -2.66111
  3767 67.8407 -2.05538 -16.9837
  3768 89.5615 7.01071 -1.03624
  3769 89.5577 7.01130 1.03636
  3770 114.031 -7.85164 7.02157
  3771 114.041 -7.86012 -7.02500
  3772 100.826 1.97083 7.48933
  3773 100.822 1.97066 -7.48750
  3774 120.954 -3.26538 -4.55349
  3775 120.957 -3.26782 4.56001
  3776 117.158 -1.82032 1.69833
  3777 117.161 -1.82357 -1.69645
  3778 70.3552 -23.9721 -30.4905
  3779 145.341 0.0458411 5.95083
  3780 145.332 0.0461708 -5.95209
  3781 118.983 1.93332 16.3860
  3782 118.975 1.93571 -16.3866
  3783 113.691 -4.93298 4.90512
  3784 113.699 -4.94097 -4.90612
  3785 112.918 -0.0754090 -1.63085
  3786 112.890 -0.0714589 1.63130
  3787 199.653 17.9302 -2.99898
  3788 93.8307 -10.1459 -22.4013
  3789 94.0132 -9.97232 22.1850
  3790 129.990 0.219884 -5.55159
  3791 130.000 0.219717 5.55160
  3792 103.616 0.0481913 -0.810493
  3793 103.623 0.0481921 0.810713
  3794 151.807 -5.60401 -9.23114
  3795 151.821 -5.60642 9.21876
  3796 93.7152 3.32221 -5.08873
  3797 93.7155 3.32287 5.09041
  3798 120.830 -0.234485 -0.966897
  3799 120.828 -0.233884 0.967692
  3800 86.3411 8.33921 2.87730
  3801 86.3453 8.33850 -2.87686
  3802 93.1627 4.92332 -7.66265
  3803 93.1629 4.92396 7.66475
  3804 89.0098 7.23970 -5.22429
  3805 89.0073 7.24057 5.22564
  3806 45.8601 -1.80190 12.2536
  3807 45.8653 -1.79122 -12.2270
  3808 118.521 1.86119 -17.6655
  3809 118.530 1.85801 17.6647
  3810 146.282 -6.45315 1.99937
  3811 229.276 11.2271 15.6868
  3812 106.343 2.42301 10.4398
  3813 106.337 2.42324 -10.4380
  3814 90.7153 1.84849 23.1933
  3815 90.7039 1.85620 -23.1905
  3816 82.7483 -22.0877 21.8277
  3817 82.6907 -22.1286 -21.8935
  3818 154.717 -2.02116 -9.94502
  3819 154.724 -2.02439 9.93591
  3820 111.144 -0.962058 3.83234
  3821 111.146 -0.965522 -3.83344
  3822 87.2674 8.74427 12.7201
  3823 87.2685 8.74420 -12.7168
  3824 111.251 -12.3344 -21.8894
  3825 111.263 -12.3286 21.8969
  3826 125.159 3.50817 10.2932
  3827 116.333 -0.780465 -2.08838
  3828 116.331 -0.778336 2.08905
  3829 157.676 1.24320 18.2032
  3830 128.751 -5.77361 7.64116
  3831 128.619 -5.79218 -7.56900
  3832 124.578 7.43908 9.29806
  3833 97.3739 0.858136 -4.09385
  3834 97.3777 0.858288 4.09513
  3835 139.748 1.41338 26.3874
  3836 99.9076 2.71191 3.86612
  3837 99.9050 2.71118 -3.86803
  3838 99.9952 3.78630 10.7820
  3839 99.9918 3.78627 -10.7798
  3840 121.336 -0.427338 1.92702
  3841 121.343 -0.426576 -1.92257
  3842 119.889 7.12871 7.15977
  3843 137.874 3.29433 11.9843
  3844 122.044 -9.95851 28.8816
  3845 127.581 2.61275 10.6397
  3846 110.098 0.416289 -3.12544
  3847 110.098 0.417812 3.12436
  3848 132.190 -3.96899 -8.88772
  3849 142.946 -12.6252 3.40383
  3850 96.6480 2.72079 6.97474
  3851 96.6456 2.72042 -6.97280
  3852 97.0920 1.82692 5.79714
  3853 97.0891 1.82664 -5.79543
  3854 95.5308 4.25973 3.56177
  3855 95.5271 4.25935 -3.56335
  3856 149.728 -2.02775 -20.6198
  3857 91.6898 4.37424 -6.19397
  3858 91.6949 4.37606 6.19157
  3859 94.6016 4.35345 8.21411
  3860 94.6005 4.35294 -8.21193
  3861 90.6897 6.19944 3.45558
  3862 90.6923 6.19856 -3.45458
  3863 148.356 -7.77857 -9.36366
  3864 148.378 -7.78113 9.35148
  3865 305.162 15.5705 -7.82640
  3866 121.632 -0.915268 -0.623937
  3867 121.632 -0.916562 0.627526
  3868 92.5718 5.06543 6.37304
  3869 92.5722 5.06466 -6.37117
  3870 101.547 0.445624 3.70174
  3871 101.541 0.445578 -3.70074
  3872 19.2707 -0.346659 -0.000362621
  3873 19.8712 -1.46753 0.0457654
  3874 19.4027 -0.455124 -0.905255
  3875 19.2814 -0.297760 0.961712
  3876 18.8754 0.266503 -0.466367
  3877 18.8205 0.287997 0.446421
  3878 19.8433 -1.58969 -0.985855
  3879 18.7678 0.248969 -0.0298993
  3880 19.7938 -1.36917 1.08028
  3881 20.2455 -2.54052 -0.00332064
  3882 20.1396 -2.19584 0.793383
  3883 19.5638 -0.794645 -0.301944
  3884 19.5361 -0.760794 0.330672
  3885 19.3839 -0.570582 -1.41738
  3886 18.8377 0.494817 -0.889972
  3887 18.8281 0.492687 0.885039
  3888 19.2024 -0.192361 -0.456095
  3889 20.1434 -2.38822 -0.812581
  3890 18.5844 0.426050 0.211602
  3891 18.6171 0.424082 -0.237082
  3892 19.3434 -0.418431 1.43103
  3893 19.1713 -0.173205 0.458677
  3894 18.9980 0.0387020 -0.174040
  3895 18.9883 0.0411079 0.208723
  3896 19.0387 0.185175 -1.25976
  3897 18.9433 0.367625 1.26948
  3898 19.8023 -1.28562 -0.534016
  3899 20.3457 -2.89864 0.380778
  3900 19.7529 -1.20876 0.608804
  3901 20.3832 -2.92715 -0.547417
  3902 20.0349 -1.84606 -0.356250
  3903 20.0299 -2.07558 0.284279
  3904 19.7230 -1.54484 -1.58644
  3905 19.9708 -1.75539 1.41347
  3906 18.6018 0.734155 0.625462
  3907 18.5993 0.731436 -0.660291
  3908 18.5678 0.409303 -0.0786542
  3909 19.5450 -0.997132 1.64493
  3910 18.5100 0.604857 0.374123
  3911 18.5375 0.416704 0.0330011
  3912 18.5659 0.600681 -0.400562
  3913 19.6124 -0.968505 -0.999346
  3914 19.5258 -0.820036 1.01735
  3915 19.6860 -1.01470 0.0529219
  3916 19.0968 0.0254363 -0.767043
  3917 19.0920 0.0466094 0.764421
  3918 19.5449 -0.794639 -0.666033
  3919 19.4676 -0.654705 0.0134920
  3920 19.4265 -0.712728 -1.72286
  3921 19.1190 -0.00779934 -1.64109
  3922 18.7780 0.238194 0.165849
  3923 19.3436 -0.449729 -0.266323
  3924 19.3363 -0.434110 0.278024
  3925 18.7887 0.738447 -1.16337
  3926 18.8413 0.267110 -0.293521
  3927 20.2174 -2.72798 1.02498
  3928 20.0464 -2.13426 -1.42516
  3929 19.0056 0.306858 1.56522
  3930 19.3462 -0.409961 0.587765
  3931 19.9448 -1.81779 0.853208
  3932 18.7351 0.744567 1.09891
  3933 20.4265 -3.12889 0.0565545
  3934 19.6820 -1.18014 -1.22439
  3935 19.1748 -0.171854 -0.224849
  3936 20.1932 -2.34936 0.403342
  3937 19.5441 -0.700458 0.678645
  3938 19.3599 -0.446393 -0.582741
  3939 19.1016 -0.0748938 -0.0156799
  3940 19.1740 -0.260454 1.84095
  3941 19.1778 -0.208174 0.196367
  3942 20.1068 -2.16483 -0.545239
  3943 18.6163 0.898194 -0.902342
  3944 19.0096 0.0401577 -0.389958
  3945 18.5151 0.649692 -0.289405
  3946 18.9181 0.291246 -0.721314
  3947 18.4803 0.502490 0.0832964
  3948 18.8724 0.300674 0.636767
  3949 18.4802 0.525765 -0.123987
  3950 18.6057 0.805846 0.837930
  3951 19.2550 -0.192389 -1.28558
  3952 18.4923 0.576624 0.234164
  3953 18.9507 0.0848637 0.0301113
  3954 18.9790 0.0803830 0.358454
  3955 20.2746 -2.71265 -0.913359
  3956 19.0854 0.0550007 -0.981954
  3957 19.5602 -0.868350 1.30416
  3958 19.8803 -1.48213 0.392789
  3959 18.7522 0.351999 0.274228
  3960 19.1824 -0.108274 1.17096
  3961 18.7251 0.297776 -0.123949
  3962 20.0444 -1.98116 -0.0331964
  3963 19.1006 0.0690699 0.990258
  3964 20.0578 -2.19003 1.47360
  3965 19.7090 -1.39575 1.67306
  3966 18.4793 0.805374 0.488706
  3967 19.7855 -1.26797 -0.221012
  3968 20.0263 -1.96746 -1.09912
  3969 18.4982 0.779896 -0.489629
  3970 19.7545 -1.20153 0.265173
  3971 18.4800 0.437841 -0.0524471
  3972 20.3407 -3.00713 0.750175
  3973 19.2379 -0.197489 -1.83054
  3974 18.8189 0.616214 -1.44338
  3975 20.3723 -2.74429 0.0935246
  3976 18.7775 0.718700 1.48148
  3977 19.9163 -1.56236 -0.626512
  3978 19.8545 -1.45015 0.736840
  3979 19.9997 -1.96300 1.09303
  3980 20.1812 -2.60289 -1.29599
  3981 19.7459 -1.34277 1.40232
  3982 18.6993 0.320223 0.0699357
  3983 18.6599 0.556616 0.487341
  3984 18.6294 0.358605 -0.0286324
  3985 20.4737 -3.28882 0.426328
  3986 18.6763 0.532263 -0.517562
  3987 18.7129 0.401793 -0.369288
  3988 18.8706 0.177000 -0.141513
  3989 19.5594 -1.10416 -1.87657
  3990 19.0846 0.0150044 -0.543691
  3991 19.8936 -1.53709 -0.279585
  3992 20.2222 -2.54571 -0.446332
  3993 20.4920 -3.30514 -0.480791
  3994 18.4210 0.761083 -0.353827
  3995 18.9577 0.508685 -1.67147
  3996 20.0212 -1.87545 -0.730803
  3997 19.0512 0.0801318 0.557506
  3998 19.0423 0.233268 1.80160
  3999 19.4121 -0.591195 1.86531
  4000 18.8947 0.188891 0.270192
  4001 19.4485 -0.559189 -1.09074
  4002 19.8134 -1.78041 -1.72847
  4003 18.5904 0.844172 -1.08004
  4004 18.3829 0.816492 0.361138
  4005 20.2390 -2.62730 0.694571
  4006 19.6583 -0.982880 -0.454010
  4007 18.5208 0.495206 0.0617045
  4008 18.7870 0.517160 0.739812
  4009 18.3729 0.884621 -0.725861
  4010 19.9502 -1.82171 1.71407
  4011 18.8024 0.576867 -0.780584
  4012 19.6319 -0.907235 0.491615
  4013 18.4871 0.446625 -0.0608074
  4014 18.8976 0.444020 1.02169
  4015 20.0883 -2.05006 0.578868
  4016 19.6786 -1.11887 0.947056
  4017 19.3460 -0.479985 1.17501
  4018 18.4509 0.937055 0.592670
  4019 18.6144 0.401876 -0.168382
  4020 18.6603 0.907047 1.27426
  4021 18.9141 0.428453 -1.08018
  4022 19.7678 -1.28649 -0.869727
  4023 19.9781 -1.75248 0.179984
  4024 18.6184 1.04114 1.02188
  4025 19.2390 -0.220306 0.778587
  4026 19.8131 -1.54988 -1.31722
  4027 18.3280 0.549791 -0.174867
  4028 20.1020 -2.32253 1.12371
  4029 18.6179 0.471685 0.302753
  4030 19.2306 -0.275123 -1.45381
  4031 19.6522 -1.04288 -0.745581
  4032 18.5868 0.428751 0.123890
  4033 20.4375 -3.47441 -0.180321
  4034 19.2764 -0.259500 -0.810035
  4035 19.5890 -0.936760 0.782736
  4036 20.2698 -2.65959 -0.692850
  4037 18.6226 0.486426 -0.289355
  4038 18.3824 0.575963 0.142385
  4039 19.5723 -0.838868 -0.0853333
  4040 19.5550 -0.823257 0.127563
  4041 20.1341 -2.23499 0.0675897
  4042 19.4335 -0.567274 -0.386265
  4043 19.4756 -0.597692 0.888017
  4044 19.3690 -0.567733 1.60888
  4045 18.9378 0.117670 -0.290755
  4046 19.5372 -0.773086 -1.25002
  4047 19.4620 -0.634225 -0.188997
  4048 19.4513 -0.619262 0.211665
  4049 20.0712 -2.11944 -0.801462
  4050 18.9689 0.247101 -0.890615
  4051 19.6412 -1.15918 -1.55400
  4052 18.9375 0.236177 0.885938
  4053 19.4161 -0.545510 0.405706
  4054 19.3950 -0.502735 -1.92543
  4055 19.3602 -0.489684 0.0980058
  4056 19.3637 -0.487881 -0.0842019
  4057 19.1996 -0.0495762 1.38582
  4058 18.6797 0.449288 0.382435
  4059 20.1415 -2.22613 -0.230653
  4060 18.7565 0.461264 0.585653
  4061 18.8958 0.157643 0.144270
  4062 18.7535 0.439915 -0.633737
  4063 18.6711 0.331480 -0.0899615
  4064 19.9874 -1.69235 -0.0868759
  4065 19.7519 -1.24074 0.00726181
  4066 20.4477 -3.10347 -0.843743
  4067 18.4445 0.968547 -0.607250
  4068 19.9922 -1.75882 0.503583
  4069 20.0913 -2.55434 1.36517
  4070 19.2705 -0.325780 -0.163256
  4071 18.6628 0.871658 -1.26774
  4072 19.0831 0.168961 -1.47663
  4073 19.2383 -0.258127 0.318802
  4074 19.2382 -0.197547 -0.605098
  4075 19.2733 -0.353015 0.448215
  4076 18.4049 0.912503 0.677247
  4077 19.4132 -0.569002 -0.714253
  4078 20.6022 -3.47259 0.121623
  4079 20.3579 -2.82850 -0.186147
  4080 19.5016 -0.810927 -1.47640
  4081 18.9092 0.677157 1.68041
  4082 19.3096 -0.430193 -1.59476
  4083 19.2025 -0.172137 0.604365
  4084 18.3126 0.451445 0.0307286
  4085 19.2445 -0.274091 -0.323576
  4086 19.5196 -1.08243 1.92336
  4087 19.2960 -0.381731 -0.440883
  4088 18.7430 0.682893 -1.02473
  4089 19.1894 -0.203068 -0.0837194
  4090 19.4896 -0.695279 -0.514897
  4091 19.1697 -0.175365 1.61250
  4092 19.3682 -0.513230 -1.30482
  4093 19.9164 -1.75821 -1.41122
  4094 19.2627 -0.336925 0.160235
  4095 19.0656 0.232063 -1.84454
  4096 20.2719 -2.89781 -1.13034
  4097 18.6969 0.352552 0.164937
  4098 18.3382 0.682266 0.248286
  4099 20.0840 -2.32167 -1.62085
  4100 19.8970 -1.65317 1.18120
  4101 19.4832 -0.655851 0.531570
  4102 19.5324 -0.719754 -0.851979
  4103 19.1306 -0.110205 -0.375912
  4104 19.4011 -0.480404 0.736316
  4105 19.1719 -0.208391 0.0646167
  4106 18.8504 0.555242 -1.27188
  4107 19.0921 -0.0783911 -0.136092
  4108 18.5312 0.498516 -0.240964
  4109 20.2414 -2.97687 1.08450
  4110 18.8210 0.704373 0.964842
  4111 18.8044 0.192812 0.0744832
  4112 19.2315 -0.251037 -1.06734
  4113 19.6775 -1.03320 -0.175282
  4114 18.9979 0.0122618 -0.0820612
  4115 18.7354 0.354378 -0.223900
  4116 19.1081 -0.0930666 0.322155
  4117 19.6749 -1.47640 1.89654
  4118 18.5026 0.905027 1.10539
  4119 20.1586 -2.36593 -1.14885
  4120 19.0627 -0.0189809 -0.270174
  4121 20.2825 -2.65528 0.312371
  4122 19.0968 -0.0676400 0.127739
  4123 20.4257 -3.18403 -0.262014
  4124 18.4996 0.500363 0.171956
  4125 18.9410 0.275557 0.753454
  4126 19.6320 -0.946487 0.247691
  4127 18.2400 0.517609 -0.0494319
  4128 20.5768 -3.61154 -0.0528498
  4129 18.5662 1.21720 1.11511
  4130 18.6321 1.20195 -1.01787
  4131 18.4874 1.19815 0.878690
  4132 18.3901 1.00439 0.658687
  4133 18.4564 1.04595 0.556468
  4134 18.3547 0.895849 0.425935
  4135 18.2892 0.807401 0.250251
  4136 18.3868 0.673585 0.175497
  4137 18.2442 0.631846 0.133655
  4138 18.4080 0.527157 0.0741786
  4139 18.3373 0.481518 0.0955951
  4140 18.4670 0.434792 -0.0955691
  4141 18.4877 0.532214 -0.0644244
  4142 18.3086 0.561293 -0.0837764
  4143 18.3191 0.630685 -0.207164
  4144 18.4815 0.821971 -0.302728
  4145 18.3346 0.800005 -0.395713
  4146 18.4630 1.04917 -0.549378
  4147 18.3641 0.993141 -0.705864
  4148 18.4584 1.15500 -0.855850
  4149 18.5848 1.07304 -1.16065
  4150 18.6889 1.05583 -1.39101
  4151 18.7677 0.807791 -1.58534
  4152 18.9310 0.516827 -1.83769
  4153 19.0714 0.0457303 -1.92885
  4154 19.2138 -0.368849 -1.96116
  4155 19.3075 -0.867571 -2.03124
  4156 19.5448 -1.51272 -1.99670
  4157 19.6673 -1.90173 -1.88038
  4158 19.9775 -2.06584 -1.78019
  4159 20.1794 -2.75347 -1.45319
  4160 20.4133 -3.09009 -1.09574
  4161 20.5792 -3.32700 -0.711101
  4162 20.4731 -3.47385 -0.367807
  4163 20.7433 -3.46680 0.353640
  4164 20.3464 -3.26741 0.775176
  4165 20.2142 -3.15494 1.05871
  4166 20.1561 -2.84215 1.40444
  4167 20.0267 -2.31236 1.64963
  4168 19.8623 -1.76548 1.92200
  4169 19.5023 -1.33099 2.06410
  4170 19.3699 -0.790262 2.03585
  4171 19.1925 -0.421603 1.97598
  4172 18.9896 -0.0149288 1.95001
  4173 18.9363 0.620219 1.81870
  4174 18.7317 0.846699 1.58681
  4175 18.6563 1.03379 1.39805
  4176 18.5484 1.04837 1.17428
</Section>

newXOutput 14

<Section columns = "stress_xx | stress_yy | stress_xy">
  1 96.3570 0.127706 -0.290779
  2 96.3577 0.127754 0.290837
  3 128.079 -0.0407146 0.0754867
  4 128.078 -0.0407696 -0.0755369
  5 314.106 19.5851 3.70831
  6 395.342 5.19118 0.541653
  7 102.194 -0.00895482 -0.329648
  8 102.199 -0.00894280 0.329764
  9 133.420 -0.00880093 0.253169
  10 133.423 -0.00881773 -0.253188
  11 14.1613 -99.2342 4.12587
  12 14.5458 -99.9514 -4.53805
  13 111.524 1.52077 -0.157954
  14 111.523 1.52161 0.157930
  15 129.790 -0.230719 0.193258
  16 96.4269 0.157940 -0.467622
  17 96.4283 0.157957 0.467859
  18 129.792 -0.230743 -0.193418
  19 107.169 3.79760 -2.39771
  20 107.172 3.79741 2.39661
  21 102.069 0.308946 0.189115
  22 93.1873 1.26368 0.0537389
  23 102.905 0.0317027 -0.318970
  24 103.502 0.0439851 -0.349810
  25 104.429 0.0424687 -0.504899
  26 105.199 0.0329501 -0.442694
  27 106.070 0.0385058 -0.520221
  28 107.198 0.0120704 -0.567695
  29 108.186 -0.0322523 -0.492221
  30 109.325 -0.00423021 -0.464586
  31 110.610 -0.0177723 -0.483245
  32 111.733 0.0126936 -0.500220
  33 113.208 0.0607370 -0.752433
  34 114.690 0.0740773 -0.774134
  35 116.235 0.0695182 -0.952853
  36 118.294 0.0225735 -1.03391
  37 119.769 -0.0344481 -1.00885
  38 122.077 0.00581988 -1.00415
  39 123.784 -0.0150668 -1.03165
  40 126.536 -0.0173047 -1.01191
  41 128.565 0.0662426 -1.25543
  42 131.015 0.118427 -1.46506
  43 133.998 -0.103590 -1.56895
  44 137.307 -0.120443 -1.46483
  45 139.888 -0.0518514 -1.43531
  46 143.602 -0.0271996 -1.45254
  47 146.328 -0.0127618 -1.89799
  48 149.272 0.0705738 -2.03594
  49 153.859 -0.238713 -1.84078
  50 158.201 -0.247827 -1.57454
  51 161.693 -0.194263 -1.68083
  52 166.458 -0.207281 -1.47741
  53 169.940 -0.125013 -1.98734
  54 174.580 -0.131495 -1.87755
  55 178.649 -0.107633 -2.20257
  56 181.769 -0.240999 -2.35069
  57 188.479 -0.810296 -1.89824
  58 189.889 -0.162526 -1.72969
  59 194.524 -0.0448525 -1.37581
  60 197.747 -0.269571 -1.55435
  61 200.566 -0.335229 -1.09592
  62 203.073 -0.360631 -0.855650
  63 204.527 -0.384790 -0.487827
  64 205.541 -0.441277 -0.0600142
  65 205.641 -0.551104 0.529888
  66 203.622 -0.596194 1.02999
  67 202.849 -0.580628 1.25922
  68 199.560 -0.842688 1.80911
  69 193.767 -0.627700 2.78143
  70 187.325 -0.559770 3.66925
  71 180.576 -0.389139 4.26843
  72 171.209 -0.307631 4.85940
  73 162.525 0.0409309 5.22964
  74 150.946 0.167365 5.22007
  75 142.737 0.388059 5.32244
  76 129.708 0.752288 4.40228
  77 121.171 1.09140 4.85969
  78 112.029 0.708735 3.19020
  79 107.303 1.13703 3.71955
  80 97.1513 1.47232 1.80862
  81 96.9347 1.28689 1.70798
  82 94.4024 1.11890 -1.01141
  83 96.5815 1.42834 -2.17815
  84 102.004 1.95505 -2.26609
  85 113.618 0.936676 -4.13229
  86 121.169 0.987564 -5.45282
  87 129.462 0.766504 -4.87884
  88 143.029 0.287796 -5.63783
  89 152.319 -0.135091 -5.84790
  90 161.875 0.0766178 -4.59162
  91 171.485 -0.0861945 -4.59685
  92 180.619 -0.366204 -4.13252
  93 187.389 -0.528275 -3.61126
  94 193.774 -0.617192 -2.76022
  95 199.541 -0.839490 -1.79987
  96 202.818 -0.578795 -1.25481
  97 203.585 -0.594017 -1.02801
  98 205.603 -0.549814 -0.530278
  99 205.506 -0.440452 0.0580320
  100 204.497 -0.384368 0.485117
  101 203.049 -0.360455 0.852722
  102 200.548 -0.335250 1.09311
  103 197.735 -0.269701 1.55173
  104 194.516 -0.0451248 1.37368
  105 189.886 -0.162832 1.72784
  106 188.479 -0.810375 1.89674
  107 181.772 -0.241022 2.34925
  108 178.654 -0.107786 2.20158
  109 174.587 -0.131629 1.87683
  110 169.949 -0.125140 1.98684
  111 166.468 -0.207373 1.47700
  112 161.704 -0.194333 1.68055
  113 158.212 -0.247897 1.57427
  114 153.871 -0.238784 1.84056
  115 149.284 0.0705116 2.03585
  116 146.340 -0.0128594 1.89800
  117 143.614 -0.0272597 1.45256
  118 139.901 -0.0518916 1.43540
  119 137.319 -0.120525 1.46490
  120 134.009 -0.103638 1.56909
  121 131.027 0.118427 1.46525
  122 128.576 0.0662057 1.25563
  123 126.547 -0.0173398 1.01205
  124 123.794 -0.0150889 1.03183
  125 122.087 0.00579365 1.00431
  126 119.778 -0.0344762 1.00906
  127 118.303 0.0225555 1.03412
  128 116.243 0.0695124 0.953089
  129 114.698 0.0740786 0.774344
  130 113.216 0.0607404 0.752629
  131 111.741 0.0126778 0.500363
  132 110.618 -0.0177924 0.483370
  133 109.332 -0.00424626 0.464711
  134 108.193 -0.0322725 0.492357
  135 107.205 0.0120595 0.567855
  136 106.076 0.0385057 0.520393
  137 105.205 0.0329517 0.442852
  138 104.434 0.0424802 0.505075
  139 103.507 0.0439810 0.349938
  140 102.910 0.0316933 0.319075
  141 99.4109 0.476980 0.440746
  142 103.415 0.908704 0.360246
  143 106.979 1.43176 0.315423
  144 115.888 1.14184 -0.0463602
  145 120.401 0.750988 -0.0466126
  146 124.780 0.269714 0.0363294
  147 134.290 -0.0628784 -0.187915
  148 134.586 -0.0778082 -0.296450
  149 135.137 -0.103167 -0.150613
  150 135.457 -0.0896305 -0.264031
  151 135.618 -0.107857 -0.105439
  152 135.958 -0.0474221 -0.0544047
  153 135.690 -0.184805 -0.0341294
  154 135.330 -0.133745 0.276043
  155 135.138 -0.163746 0.393559
  156 134.310 -0.195339 0.440620
  157 132.741 -0.163879 0.735606
  158 131.231 -0.123805 0.877887
  159 128.928 -0.165174 1.13769
  160 126.471 -0.0532671 1.55230
  161 123.408 -0.0269558 1.20928
  162 120.695 -0.00521883 1.31418
  163 116.936 0.0764842 1.29446
  164 113.983 0.126989 1.58696
  165 110.475 0.177043 1.38568
  166 107.546 0.208691 1.27252
  167 104.781 0.329279 0.945044
  168 102.601 0.295474 0.595891
  169 102.556 0.185363 0.587926
  170 101.775 0.580076 -0.589266
  171 102.532 0.422802 -0.656222
  172 105.350 0.338987 -1.10199
  173 107.868 0.355536 -1.72021
  174 110.166 0.124381 -1.43080
  175 113.942 0.127539 -1.56821
  176 116.936 0.0873995 -1.30414
  177 120.723 -0.0113698 -1.32267
  178 123.439 -0.0293314 -1.20936
  179 126.496 -0.0539999 -1.54897
  180 128.948 -0.165051 -1.13513
  181 131.245 -0.123680 -0.875678
  182 132.752 -0.163729 -0.733824
  183 134.318 -0.195207 -0.439099
  184 135.144 -0.163668 -0.392465
  185 135.333 -0.133710 -0.275051
  186 135.691 -0.184693 0.0349588
  187 135.958 -0.0473085 0.0549640
  188 135.617 -0.107758 0.105864
  189 135.455 -0.0895361 0.264281
  190 135.135 -0.103085 0.150807
  191 134.583 -0.0777409 0.296514
  192 134.288 -0.0628271 0.187956
  193 124.780 0.269549 -0.0363911
  194 120.401 0.750530 0.0465343
  195 115.888 1.14114 0.0462971
  196 106.979 1.43099 -0.315358
  197 103.415 0.908201 -0.360148
  198 99.4104 0.476760 -0.440652
  199 95.4927 0.432621 -0.437974
  200 96.7566 0.106062 -0.526957
  201 97.8806 0.0641688 -0.496481
  202 98.8329 0.0517780 -0.425028
  203 99.9784 0.00728114 -0.491387
  204 100.685 -0.00300373 -0.423583
  205 101.288 -0.00195222 -0.308879
  206 102.469 0.0315278 -0.716665
  207 102.592 0.0961039 -1.25832
  208 102.939 0.235067 -1.96086
  209 103.108 0.396623 -2.55319
  210 103.202 0.607342 -3.18113
  211 103.042 0.897687 -3.62475
  212 103.059 1.19259 -4.14022
  213 102.837 1.57265 -4.54254
  214 102.568 1.95585 -4.85853
  215 102.274 2.38902 -5.10652
  216 101.907 2.83335 -5.18750
  217 101.624 3.21901 -5.17969
  218 101.271 3.71881 -5.12425
  219 100.953 4.13724 -4.86161
  220 100.682 4.52427 -4.55349
  221 100.560 4.88566 -4.08455
  222 100.491 5.10230 -3.51171
  223 100.593 5.38497 -2.85008
  224 100.788 5.47185 -2.09639
  225 101.424 5.35349 -1.25493
  226 102.177 5.25070 -0.474469
  227 103.039 5.00613 0.329512
  228 104.200 4.71641 1.10229
  229 105.460 4.20394 1.82093
  230 108.832 3.13259 2.90357
  231 110.687 2.62519 3.24483
  232 112.465 2.12718 3.44225
  233 114.416 1.67804 3.44977
  234 116.094 1.19790 3.44756
  235 118.040 0.859730 3.31940
  236 119.752 0.553715 3.12410
  237 121.388 0.376057 2.90164
  238 123.170 0.229707 2.58653
  239 124.686 0.145846 2.26130
  240 126.272 0.0236098 1.96628
  241 127.843 0.0912811 1.63499
  242 129.407 0.0337313 1.29168
  243 130.893 0.0186692 0.926652
  244 132.308 0.0474735 0.520354
  245 132.953 -0.0532163 0.194505
  246 132.051 -0.0671712 0.225405
  247 130.904 -0.127737 0.341903
  248 128.217 -0.0636871 0.300607
  249 132.311 0.0474300 -0.520370
  250 130.895 0.0185033 -0.926663
  251 129.408 0.0333871 -1.29169
  252 127.844 0.0907527 -1.63504
  253 126.273 0.0228346 -1.96644
  254 124.687 0.144913 -2.26161
  255 123.171 0.228560 -2.58702
  256 121.389 0.374795 -2.90241
  257 119.752 0.552435 -3.12511
  258 118.040 0.858484 -3.32066
  259 116.094 1.19681 -3.44902
  260 114.415 1.67718 -3.45133
  261 112.463 2.12651 -3.44386
  262 110.685 2.62480 -3.24636
  263 108.830 3.13248 -2.90495
  264 105.457 4.20430 -1.82176
  265 104.197 4.71698 -1.10279
  266 103.036 5.00683 -0.329693
  267 102.174 5.25151 0.474608
  268 101.421 5.35436 1.25535
  269 100.785 5.47276 2.09710
  270 100.591 5.38590 2.85104
  271 100.489 5.10322 3.51289
  272 100.558 4.88655 4.08591
  273 100.681 4.52511 4.55501
  274 100.952 4.13802 4.86323
  275 101.271 3.71952 5.12594
  276 101.625 3.21963 5.18141
  277 101.908 2.83390 5.18922
  278 102.276 2.38949 5.10819
  279 102.570 1.95622 4.86015
  280 102.840 1.57296 4.54405
  281 103.062 1.19282 4.14161
  282 103.045 0.897877 3.62598
  283 103.205 0.607470 3.18222
  284 103.112 0.396714 2.55408
  285 102.943 0.235127 1.96155
  286 102.596 0.0961222 1.25877
  287 102.473 0.0315303 0.716924
  288 101.292 -0.00197460 0.308988
  289 100.689 -0.00304052 0.423719
  290 99.9822 0.00725528 0.491560
  291 98.8361 0.0517675 0.425221
  292 97.8833 0.0641665 0.496692
  293 96.7587 0.106049 0.527156
  294 95.4937 0.432647 0.438097
  295 128.218 -0.0636661 -0.300754
  296 130.906 -0.127785 -0.342066
  297 132.054 -0.0672018 -0.225494
  298 132.956 -0.0532484 -0.194551
  299 19.3988 -89.2205 -2.09934
  300 24.1110 -64.5458 -3.44295
  301 39.5266 -27.9029 9.51662
  302 64.6340 -1.62097 23.1358
  303 111.637 23.2725 45.8180
  304 159.919 36.7610 63.3250
  305 213.485 36.7879 65.5667
  306 267.805 31.5939 57.6229
  307 302.381 23.6117 32.9946
  308 294.669 26.6932 -29.6182
  309 265.047 30.2578 -59.9503
  310 212.788 37.9868 -67.6397
  311 155.399 36.3268 -60.8495
  312 107.937 28.7674 -50.2729
  313 65.8859 3.82387 -25.8326
  314 43.3562 -24.6468 -12.8529
  315 25.0376 -67.8654 4.67175
  316 21.3095 -92.9187 2.24040
  317 15.1224 -108.973 -15.6528
  318 14.6622 -90.3286 -18.1666
  319 17.7904 -69.3905 -17.4543
  320 30.0235 -39.4076 -5.43608
  321 48.8577 -15.0762 6.93530
  322 78.2938 7.17974 22.7910
  323 120.606 15.9034 39.8035
  324 163.760 27.4234 57.7860
  325 203.911 26.9785 65.1402
  326 249.778 26.2366 69.8866
  327 292.822 22.6831 61.0539
  328 342.351 14.5561 57.8090
  329 366.736 11.3261 37.7669
  330 386.264 5.16194 18.0686
  331 392.641 6.33881 -21.4623
  332 369.341 9.43265 -39.5439
  333 340.402 15.9560 -52.3168
  334 303.911 22.4561 -64.4785
  335 255.910 25.4151 -67.2858
  336 213.087 29.0088 -68.0515
  337 160.421 25.6381 -55.5854
  338 116.601 17.4224 -38.7804
  339 72.2843 7.62316 -21.9388
  340 49.2595 -15.3778 -5.95464
  341 30.4604 -39.2663 5.36580
  342 17.8737 -69.3547 17.3419
  343 14.6544 -90.4722 18.0507
  344 15.0831 -109.540 15.3968
  345 101.585 1.45417 -2.13784
  346 107.545 2.45083 -0.198415
  347 117.792 1.25793 1.23205
  348 100.801 0.517376 -2.31165
  349 103.423 2.92320 -1.84283
  350 123.451 0.560035 1.48362
  351 101.563 1.88392 -3.35172
  352 111.553 2.45627 1.30562
  353 106.145 3.70539 0.119980
  354 101.937 3.39116 -3.11119
  355 101.248 0.183040 -1.62517
  356 118.870 1.24148 2.12357
  357 101.872 0.915808 -3.18293
  358 101.836 1.56686 -3.84622
  359 102.375 4.05133 -2.22454
  360 127.389 0.224082 1.24199
  361 113.864 2.07642 2.25639
  362 104.182 1.77342 -1.05512
  363 122.945 0.559695 2.03438
  364 101.549 3.19049 -3.99285
  365 108.997 3.22695 1.56661
  366 99.6777 0.395263 -1.54630
  367 122.772 0.525064 0.707422
  368 111.639 2.07247 0.479601
  369 116.776 1.35471 2.75000
  370 102.998 4.59698 -1.10207
  371 105.019 4.28810 0.259229
  372 100.683 0.636837 -0.808586
  373 120.390 0.825368 2.63166
  374 101.737 2.48750 -4.38689
  375 101.419 4.30015 -3.29594
  376 101.733 0.0540937 -1.00161
  377 130.156 0.0617137 0.853771
  378 99.9761 0.186189 -1.52244
  379 100.847 0.990226 -2.47262
  380 102.138 0.419447 -2.43403
  381 108.634 1.60584 -0.0797542
  382 101.979 2.21241 -2.65160
  383 115.081 1.78291 1.60882
  384 126.913 0.200262 1.61747
  385 127.773 0.135630 0.922990
  386 102.186 1.48326 -4.05781
  387 116.172 1.28739 0.576099
  388 103.246 2.26198 -1.76246
  389 111.693 2.49724 2.59944
  390 107.220 3.69144 1.37078
  391 99.0177 0.220667 -1.30720
  392 108.617 2.81912 0.368810
  393 98.2202 0.216963 -0.556803
  394 120.444 0.972120 1.59013
  395 104.181 3.73447 -1.16648
  396 105.810 2.87926 -0.718580
  397 101.345 1.38221 -3.14465
  398 101.922 0.216354 -1.80642
  399 101.275 3.76199 -4.17591
  400 101.815 4.70482 -2.31261
  401 123.500 0.365875 2.30699
  402 102.320 0.914774 -3.45616
  403 125.058 0.402987 0.861680
  404 104.968 1.33860 -0.437099
  405 104.525 2.51291 -1.26988
  406 101.748 2.42661 -3.36142
  407 100.882 0.0331421 -0.794920
  408 115.247 1.61770 2.97407
  409 101.912 2.35981 -4.70889
  410 102.593 2.60351 -2.34064
  411 103.388 4.72189 -0.325841
  412 128.798 0.106558 1.20513
  413 108.413 3.41514 2.09480
  414 129.401 0.135967 0.735138
  415 118.735 0.969208 2.83791
  416 101.547 3.08159 -4.60779
  417 101.015 0.456599 -2.19184
  418 102.128 1.20202 -1.06015
  419 111.557 2.57169 1.94269
  420 100.073 0.0707108 -0.908438
  421 107.686 3.46298 0.824139
  422 101.404 1.07820 -3.08019
  423 121.421 0.847251 1.94562
  424 106.905 1.91151 -0.390652
  425 116.221 1.68680 2.19867
  426 120.122 0.834778 1.08877
  427 113.295 2.08897 1.13077
  428 100.472 0.776468 -1.36426
  429 101.098 4.77867 -2.96704
  430 102.701 0.705490 -3.15205
  431 101.794 4.92050 -1.72181
  432 112.288 1.66232 0.311561
  433 125.365 0.373009 1.74905
  434 101.025 4.29453 -4.00051
  435 102.513 3.33880 -2.47782
  436 121.831 0.572218 2.58176
  437 125.430 0.209912 1.98525
  438 100.062 0.505610 -1.90350
  439 102.586 1.26818 -4.01266
  440 102.172 1.94199 -4.48534
  441 97.6725 0.0555816 -0.822462
  442 110.268 2.83848 2.65250
  443 113.199 2.10068 2.96189
  444 101.744 2.81129 -4.81765
  445 104.347 4.11208 -0.623597
  446 116.992 1.22022 3.05491
  447 101.255 3.62938 -4.56470
  448 102.279 4.98631 -0.990167
  449 101.443 1.59695 -2.75067
  450 117.564 1.44330 1.69396
  451 119.641 0.867916 0.655777
  452 100.891 4.67184 -3.57748
  453 105.489 4.15784 1.05146
  454 120.452 0.645837 2.81537
  455 125.724 0.260338 0.427012
  456 109.522 2.29517 0.251351
  457 113.374 2.13163 1.83845
  458 102.839 1.08847 -0.736327
  459 131.342 0.0368844 0.690923
  460 109.478 2.95653 1.07749
  461 104.144 4.60777 0.442201
  462 101.526 0.516208 -2.43404
  463 101.520 3.64168 -3.60553
  464 101.734 4.31449 -2.75633
  465 122.949 0.607171 1.18351
  466 101.714 1.97805 -3.86380
  467 101.638 2.48598 -3.96678
  468 100.850 0.918821 -1.99771
  469 125.999 0.307050 1.30572
  470 121.886 0.661143 2.41748
  471 109.414 2.02555 0.0100170
  472 114.879 1.60932 0.885116
  473 120.524 0.880708 2.34783
  474 102.264 0.141957 -1.57737
  475 103.352 3.57324 -1.76702
  476 102.454 4.49299 -1.74462
  477 97.9260 0.270655 -0.451247
  478 106.652 3.86497 1.72912
  479 124.716 0.346817 1.97907
  480 102.777 0.471636 -2.70269
  481 101.478 0.788287 -0.301051
  482 99.9056 0.377223 -1.79403
  483 102.190 1.18539 -3.73313
  484 118.580 1.14282 2.43506
  485 102.566 0.326994 -2.17028
  486 129.865 0.0495707 1.13056
  487 110.223 2.98983 2.19113
  488 127.625 0.101014 0.511876
  489 126.916 0.144864 1.78794
  490 101.838 0.0126851 -0.564647
  491 98.9317 0.0678239 -0.973867
  492 117.709 1.15427 0.978817
  493 122.709 0.504003 0.315096
  494 123.862 0.549291 1.68586
  495 101.932 1.33076 -3.66300
  496 102.138 2.88668 -2.92234
  497 102.117 0.676721 -2.93945
  498 102.494 1.64956 -4.39362
  499 105.278 3.49655 -0.632565
  500 106.847 3.13226 -0.100628
  501 101.679 0.0979514 -1.32864
  502 110.600 2.50766 0.759427
  503 101.948 3.90150 -2.89838
  504 131.828 -0.0228378 0.381312
  505 101.772 3.06844 -3.41209
  506 105.876 2.18621 -0.768565
  507 102.380 1.52371 -1.65334
  508 115.129 1.82020 2.59984
  509 106.292 3.88669 0.719497
  510 111.609 2.43452 2.97159
  511 100.729 0.232028 -1.72036
  512 101.337 0.701175 -2.65403
  513 128.183 0.137419 1.45480
  514 98.3626 0.110466 -0.939050
  515 117.997 1.01610 0.358233
  516 101.227 0.0164091 -0.488464
  517 101.875 2.00480 -4.28265
  518 98.9647 0.0496618 -0.712614
  519 126.660 0.146245 0.181958
  520 96.4085 0.330807 -0.484229
  521 103.285 4.12848 -1.41230
  522 100.848 0.770901 -2.50463
  523 115.775 1.66661 1.37971
  524 131.185 -0.00356212 0.342079
  525 132.585 0.0421357 0.344316
  526 101.163 5.06347 -2.39496
  527 102.356 1.99040 -2.11383
  528 128.692 0.0820030 1.19764
  529 129.391 0.0326683 0.328020
  530 125.573 0.324379 1.01459
  531 107.684 3.26059 0.460671
  532 127.786 0.210959 1.10674
  533 104.450 3.25278 -1.23167
  534 100.980 4.04665 -4.45770
  535 101.316 1.50493 -2.99016
  536 114.465 1.36954 0.177023
  537 102.781 0.988449 -3.68338
  538 119.617 1.16794 1.82838
  539 113.408 2.08704 2.58511
  540 97.8453 0.0610584 -0.670957
  541 101.585 1.45467 2.13881
  542 107.544 2.45174 0.198540
  543 117.791 1.25838 -1.23263
  544 100.803 0.517529 2.31260
  545 103.422 2.92407 1.84364
  546 123.452 0.560067 -1.48426
  547 101.564 1.88442 3.35305
  548 111.552 2.45688 -1.30622
  549 106.143 3.70627 -0.120045
  550 101.936 3.39199 3.11240
  551 101.251 0.183088 1.62580
  552 118.869 1.24144 -2.12445
  553 101.874 0.916024 3.18411
  554 101.837 1.56723 3.84763
  555 102.374 4.05227 2.22539
  556 127.390 0.223977 -1.24242
  557 113.863 2.07650 -2.25741
  558 104.182 1.77415 1.05566
  559 122.945 0.559383 -2.03507
  560 101.549 3.19121 3.99432
  561 108.995 3.22744 -1.56735
  562 99.6791 0.395424 1.54700
  563 122.772 0.525335 -0.707819
  564 111.638 2.07330 -0.479839
  565 116.776 1.35426 -2.75114
  566 102.996 4.59792 1.10250
  567 105.017 4.28892 -0.259349
  568 100.683 0.637136 0.809049
  569 120.390 0.824743 -2.63256
  570 101.738 2.48804 4.38846
  571 101.418 4.30105 3.29715
  572 101.737 0.0541112 1.00197
  573 130.158 0.0616419 -0.853990
  574 99.9787 0.186254 1.52308
  575 100.848 0.990549 2.47367
  576 102.141 0.419538 2.43493
  577 108.633 1.60670 0.0798373
  578 101.979 2.21306 2.65274
  579 115.080 1.78330 -1.60956
  580 126.915 0.199948 -1.61784
  581 127.774 0.135619 -0.923403
  582 102.188 1.48358 4.05926
  583 116.171 1.28807 -0.576358
  584 103.245 2.26274 1.76327
  585 111.691 2.49718 -2.60065
  586 107.218 3.69199 -1.37141
  587 99.0197 0.220749 1.30777
  588 108.615 2.81998 -0.368960
  589 98.2212 0.217073 0.557166
  590 120.444 0.972320 -1.59082
  591 104.179 3.73544 1.16697
  592 105.809 2.88019 0.718924
  593 101.346 1.38257 3.14591
  594 101.926 0.216398 1.80710
  595 101.275 3.76277 4.17739
  596 101.813 4.70578 2.31347
  597 123.500 0.365181 -2.30757
  598 102.322 0.914971 3.45740
  599 125.058 0.403129 -0.862118
  600 104.968 1.33930 0.437332
  601 104.524 2.51379 1.27047
  602 101.748 2.42724 3.36274
  603 100.886 0.0331449 0.795220
  604 115.246 1.61715 -2.97538
  605 101.913 2.36031 4.71050
  606 102.593 2.60429 2.34165
  607 103.386 4.72274 0.325933
  608 128.800 0.106371 -1.20538
  609 108.411 3.41541 -2.09579
  610 129.402 0.135940 -0.735422
  611 118.735 0.968423 -2.83898
  612 101.547 3.08224 4.60939
  613 101.017 0.456733 2.19271
  614 102.128 1.20253 1.06079
  615 111.555 2.57201 -1.94358
  616 100.076 0.0707333 0.908796
  617 107.684 3.46371 -0.824528
  618 101.406 1.07846 3.08139
  619 121.421 0.847192 -1.94640
  620 106.904 1.91238 0.390910
  621 116.220 1.68685 -2.19962
  622 120.122 0.835129 -1.08929
  623 113.294 2.08963 -1.13129
  624 100.472 0.776779 1.36497
  625 101.097 4.77959 2.96809
  626 102.704 0.705656 3.15315
  627 101.791 4.92143 1.72242
  628 112.287 1.66316 -0.311681
  629 125.366 0.372778 -1.74961
  630 101.024 4.29540 4.00190
  631 102.512 3.33967 2.47882
  632 121.832 0.571390 -2.58250
  633 125.431 0.209305 -1.98563
  634 100.064 0.505779 1.90434
  635 102.588 1.26846 4.01405
  636 102.174 1.94239 4.48689
  637 97.6743 0.0556128 0.822840
  638 110.266 2.83844 -2.65375
  639 113.198 2.10027 -2.96326
  640 101.745 2.81186 4.81929
  641 104.345 4.11302 0.623840
  642 116.992 1.21940 -3.05616
  643 101.255 3.63012 4.56628
  644 102.276 4.98719 0.990510
  645 101.444 1.59743 2.75184
  646 117.564 1.44356 -1.69472
  647 119.641 0.868388 -0.656113
  648 100.890 4.67275 3.57872
  649 105.486 4.15845 -1.05195
  650 120.452 0.644884 -2.81629
  651 125.725 0.260472 -0.427275
  652 109.521 2.29605 -0.251460
  653 113.373 2.13198 -1.83926
  654 102.839 1.08900 0.736773
  655 131.344 0.0368130 -0.691019
  656 109.476 2.95722 -1.07797
  657 104.141 4.60850 -0.442434
  658 101.529 0.516331 2.43497
  659 101.519 3.64251 3.60686
  660 101.733 4.31542 2.75735
  661 122.949 0.607350 -1.18408
  662 101.715 1.97852 3.86525
  663 101.638 2.48658 3.96825
  664 100.851 0.919158 1.99865
  665 126.000 0.306995 -1.30625
  666 121.886 0.660612 -2.41825
  667 109.413 2.02645 -0.0100032
  668 114.878 1.60999 -0.885521
  669 120.524 0.880401 -2.34869
  670 102.268 0.141987 1.57795
  671 103.351 3.57417 1.76775
  672 102.452 4.49395 1.74528
  673 97.9267 0.270788 0.451432
  674 106.650 3.86538 -1.72993
  675 124.716 0.346389 -1.97960
  676 102.780 0.471738 2.70365
  677 101.478 0.788678 0.301299
  678 99.9078 0.377334 1.79480
  679 102.192 1.18566 3.73448
  680 118.579 1.14250 -2.43603
  681 102.570 0.327069 2.17105
  682 129.867 0.0493756 -1.13070
  683 110.221 2.99007 -2.19215
  684 127.626 0.101059 -0.512167
  685 126.917 0.144351 -1.78818
  686 101.842 0.0126993 0.564859
  687 98.9342 0.0678719 0.974286
  688 117.709 1.15481 -0.979259
  689 122.710 0.504314 -0.315286
  690 123.862 0.549183 -1.68651
  691 101.934 1.33106 3.66435
  692 102.138 2.88744 2.92354
  693 102.120 0.676880 2.94052
  694 102.496 1.64990 4.39513
  695 105.277 3.49750 0.632842
  696 106.845 3.13318 0.100692
  697 101.683 0.0979926 1.32913
  698 110.598 2.50844 -0.759773
  699 101.947 3.90240 2.89950
  700 131.830 -0.0228706 -0.381417
  701 101.772 3.06918 3.41342
  702 105.875 2.18709 0.768943
  703 102.380 1.52430 1.65413
  704 115.128 1.82002 -2.60098
  705 106.290 3.88742 -0.719829
  706 111.607 2.43422 -2.97299
  707 100.732 0.232084 1.72105
  708 101.339 0.701343 2.65508
  709 128.185 0.137095 -1.45498
  710 98.3639 0.110561 0.939511
  711 117.997 1.01668 -0.358388
  712 101.232 0.0164054 0.488641
  713 101.876 2.00525 4.28418
  714 98.9676 0.0496871 0.712908
  715 126.661 0.146340 -0.182068
  716 96.4095 0.330845 0.484413
  717 103.283 4.12944 1.41287
  718 100.850 0.771126 2.50563
  719 115.774 1.66712 -1.38032
  720 131.187 -0.00358703 -0.342215
  721 132.587 0.0421308 -0.344372
  722 101.161 5.06440 2.39581
  723 102.356 1.99107 2.11479
  724 128.694 0.0818578 -1.19798
  725 129.393 0.0326785 -0.328236
  726 125.574 0.324441 -1.01509
  727 107.682 3.26144 -0.460872
  728 127.787 0.210927 -1.10718
  729 104.448 3.25372 1.23222
  730 100.979 4.04745 4.45922
  731 101.317 1.50535 2.99138
  732 114.465 1.37031 -0.177123
  733 102.784 0.988649 3.68466
  734 119.617 1.16805 -1.82918
  735 113.407 2.08690 -2.58630
  736 97.8476 0.0610705 0.671257
  737 79.7836 12.0460 5.30356
  738 79.7930 12.0438 -5.30228
  739 121.211 -10.0378 11.0774
  740 121.242 -10.0866 -11.0650
  741 102.648 5.44180 10.8179
  742 102.646 5.44148 -10.8154
  743 91.3223 0.849240 -25.1835
  744 91.3353 0.840129 25.1874
  745 140.728 0.526912 11.4231
  746 140.743 1.98660 -11.5447
  747 109.050 5.36530 -17.2353
  748 109.055 5.36375 17.2378
  749 136.572 -16.3990 16.8964
  750 136.532 -16.3925 -16.8771
  751 99.3454 4.34440 -7.77781
  752 99.3511 4.34704 7.77511
  753 127.031 -3.11833 1.58413
  754 127.035 -3.12293 -1.58117
  755 85.5693 -6.54966 25.5079
  756 85.5514 -6.53986 -25.5005
  757 94.4515 8.67440 4.45047
  758 94.4552 8.67364 -4.44949
  759 106.629 1.61583 -6.16154
  760 106.633 1.61603 6.16320
  761 128.244 10.5436 -0.328685
  762 132.037 -5.13388 5.44155
  763 132.032 -5.13121 -5.43541
  764 126.444 1.93025 -20.3882
  765 126.454 1.92626 20.3868
  766 113.901 2.45241 10.7432
  767 113.896 2.45258 -10.7413
  768 141.949 -19.7490 -10.3531
  769 141.399 -20.1831 11.0054
  770 179.703 -13.2656 8.31191
  771 179.687 -13.1879 -8.32584
  772 143.792 -2.70791 -18.2740
  773 143.806 -2.71330 18.2683
  774 115.022 -1.22626 6.63557
  775 115.022 -1.23087 -6.63927
  776 155.825 29.0383 3.89386
  777 52.0961 5.31474 -0.913217
  778 52.1314 5.30669 0.923035
  779 201.414 6.68733 -16.3432
  780 199.646 6.45596 16.8202
  781 203.484 17.4657 2.17122
  782 127.578 1.95185 -14.1759
  783 127.586 1.95065 14.1763
  784 99.5097 5.91932 -7.12209
  785 99.5090 5.92009 7.12404
  786 163.726 8.91632 -7.55458
  787 111.270 1.08691 6.40305
  788 111.264 1.08686 -6.40159
  789 124.790 2.99375 -7.92179
  790 124.927 3.08078 8.06288
  791 94.3810 9.34627 12.8235
  792 94.3824 9.34607 -12.8204
  793 86.1628 9.38065 18.0192
  794 86.1632 9.38344 -18.0128
  795 136.963 -12.1074 -0.540707
  796 136.956 -12.1251 0.539676
  797 171.694 -9.74136 -0.810802
  798 171.701 -9.71571 0.791657
  799 83.9277 7.07263 -9.75578
  800 83.9350 7.07504 9.74806
  801 67.1847 -17.6862 -24.0930
  802 67.2295 -17.6957 24.0904
  803 166.837 5.57442 4.47419
  804 98.3586 6.80029 -1.45574
  805 98.3630 6.80016 1.45510
  806 129.262 -0.722997 -1.15942
  807 129.261 -0.721501 1.16104
  808 130.642 -2.11081 2.04133
  809 130.641 -2.10827 -2.03568
  810 127.793 -1.28127 8.26132
  811 127.803 -1.29350 -8.25929
  812 128.953 -7.37673 1.64483
  813 128.964 -7.38404 -1.63960
  814 125.299 1.22563 9.47777
  815 125.291 1.22596 -9.47685
  816 170.585 -3.93193 -8.47322
  817 170.592 -3.93400 8.46060
  818 104.032 -2.82480 -14.8279
  819 104.043 -2.81636 14.8225
  820 105.899 0.509325 -3.30983
  821 105.903 0.509410 3.31083
  822 121.673 -1.34623 3.76866
  823 121.676 -1.35004 -3.76929
  824 102.845 3.33668 6.90415
  825 102.844 3.33620 -6.90217
  826 100.609 -23.5135 -33.2871
  827 98.0449 -23.1281 33.5998
  828 141.037 18.2059 -6.99035
  829 106.767 2.78952 5.55275
  830 106.763 2.78809 -5.55535
  831 150.532 -0.0318815 -13.5614
  832 150.541 -0.0338828 13.5578
  833 117.098 -14.3381 -19.4748
  834 116.892 -14.3268 19.4567
  835 87.8835 9.89180 -0.354474
  836 87.8901 9.89167 0.353107
  837 176.710 -2.48612 -19.8648
  838 176.756 -2.10495 19.7868
  839 47.6692 -15.9016 25.5048
  840 47.6782 -15.8485 -25.6680
  841 169.746 9.30483 -10.4619
  842 132.213 -23.2480 -15.5223
  843 132.242 -23.0457 16.0523
  844 96.0112 8.27973 8.85481
  845 96.0130 8.27898 -8.85268
  846 104.655 5.95511 13.9904
  847 104.653 5.95540 -13.9877
  848 137.679 14.6127 7.64041
  849 108.721 0.481826 -3.81029
  850 108.727 0.481889 3.81133
  851 141.617 0.708188 11.9775
  852 141.607 0.709284 -11.9786
  853 114.558 -7.91727 -25.0546
  854 114.572 -7.91813 25.0542
  855 243.185 20.2185 -3.30730
  856 30.5056 -17.2268 -4.02545
  857 30.4886 -17.2467 4.08829
  858 118.005 0.684172 5.78915
  859 117.998 0.684179 -5.78809
  860 98.2419 6.70598 4.44629
  861 98.2442 6.70509 -4.44500
  862 117.511 3.60507 -2.18179
  863 105.070 5.67923 21.3610
  864 105.063 5.68339 -21.3582
  865 181.156 -5.51922 -12.2304
  866 181.205 -5.56951 12.2763
  867 122.592 -4.34687 4.83075
  868 122.598 -4.35433 -4.83155
  869 137.098 -5.78006 -8.35327
  870 137.096 -5.79227 8.36766
  871 129.628 -1.63779 4.48384
  872 129.632 -1.63623 -4.47663
  873 160.988 6.46482 12.9092
  874 67.6060 7.18393 15.6417
  875 67.6106 7.18818 -15.6278
  876 70.0697 9.48486 -5.51249
  877 70.0886 9.47932 5.50678
  878 154.430 -13.3330 15.6374
  879 106.701 2.97473 8.73147
  880 106.698 2.97449 -8.72940
  881 184.702 35.5734 -1.70204
  882 108.580 -0.566238 9.58011
  883 108.576 -0.570850 -9.58483
  884 200.974 -1.64500 0.424679
  885 200.919 -1.41445 -0.692859
  886 146.373 -9.61120 -5.40266
  887 145.985 -9.13604 5.80819
  888 246.803 18.7731 1.77973
  889 118.660 -0.406903 23.7396
  890 118.647 -0.400834 -23.7411
  891 147.207 -15.3398 -20.5583
  892 131.431 -0.954200 0.200498
  893 131.431 -0.952820 -0.197314
  894 169.498 -1.59693 -10.2578
  895 169.503 -1.59963 10.2496
  896 104.440 1.33147 -4.97308
  897 104.443 1.33169 4.97460
  898 89.0623 10.7264 -6.86738
  899 89.0574 10.7274 6.86879
  900 116.589 2.94762 2.98347
  901 193.290 33.0839 -0.753454
  902 114.764 3.57745 13.8335
  903 114.758 3.57809 -13.8316
  904 131.707 0.236531 -10.5129
  905 131.875 0.175548 10.5174
  906 115.964 0.221940 4.73172
  907 115.964 0.219254 -4.73392
  908 125.006 -0.647119 -2.44401
  909 125.004 -0.644992 2.44437
  910 149.919 12.0311 11.2940
  911 95.2436 9.14192 16.3213
  912 95.2431 9.14303 -16.3173
  913 98.6336 6.71154 1.53931
  914 98.6369 6.71080 -1.53891
  915 72.1514 11.4764 7.79558
  916 72.1639 11.4740 -7.79006
  917 133.318 7.24636 -9.68123
  918 117.883 -4.96136 -8.46140
  919 117.880 -4.95274 8.45599
  920 160.666 2.21913 -17.1875
  921 146.726 -8.44915 -16.3673
  922 146.750 -8.45637 16.3627
  923 62.4151 -4.77593 -21.6983
  924 62.4326 -4.79268 21.7121
  925 162.553 2.06929 17.9628
  926 133.135 -16.2529 8.77852
  927 134.055 -16.7843 -8.84562
  928 133.934 0.643536 -8.23211
  929 133.944 0.643200 8.23238
  930 121.430 0.352876 -6.71987
  931 121.376 0.446381 6.72247
  932 99.0656 -24.5589 -23.4418
  933 99.1640 -24.5575 23.1931
  934 103.357 4.07309 8.68495
  935 103.356 4.07267 -8.68275
  936 130.486 -4.93663 -1.91187
  937 130.490 -4.94032 1.91805
  938 159.583 -18.6851 -4.59453
  939 159.691 -18.6804 4.53572
  940 103.269 4.73567 3.23721
  941 103.266 4.73548 -3.23859
  942 149.849 6.41247 2.68123
  943 107.439 3.86995 11.0314
  944 107.436 3.86988 -11.0291
  945 118.295 3.73227 19.2256
  946 118.288 3.73507 -19.2247
  947 94.2285 7.65322 -2.79601
  948 94.2339 7.65383 2.79463
  949 274.032 23.2498 -0.692172
  950 63.0868 2.06414 -16.9716
  951 63.1133 2.05907 16.9520
  952 122.906 0.607126 6.28117
  953 122.897 0.607209 -6.28027
  954 158.600 -11.5717 -15.2182
  955 159.615 -11.2151 13.5608
  956 101.181 4.34358 6.30338
  957 101.181 4.34289 -6.30149
  958 104.604 0.183183 -1.80755
  959 104.609 0.183224 1.80815
  960 165.018 -0.407973 -10.0453
  961 165.024 -0.409754 10.0401
  962 243.273 11.6877 5.79211
  963 111.771 0.310517 3.15036
  964 111.765 0.310482 -3.14958
  965 115.289 0.333079 -3.85301
  966 115.297 0.333085 3.85384
  967 184.192 -2.70050 -2.62121
  968 184.184 -2.69701 2.61100
  969 148.487 9.14955 -11.3606
  970 92.7882 -0.774444 -18.0452
  971 92.7863 -0.760273 18.0319
  972 237.734 12.2443 -6.70956
  973 127.917 8.40272 5.67991
  974 131.087 -0.162730 -1.03138
  975 131.085 -0.162222 1.03201
  976 100.002 6.05046 8.74834
  977 100.002 6.04982 -8.74611
  978 187.469 -3.06213 3.66200
  979 187.448 -3.04635 -3.65524
  980 130.138 -11.0806 4.28798
  981 130.189 -11.1183 -4.28433
  982 133.341 -8.44329 -2.23395
  983 133.346 -8.44526 2.24308
  984 140.297 20.6483 0.817528
  985 89.2067 6.79292 21.7070
  986 89.2018 6.79879 -21.7006
  987 99.9026 7.23271 12.1368
  988 99.9021 7.23246 -12.1340
  989 115.356 1.31402 -4.21759
  990 156.457 -8.61744 -1.64352
  991 191.201 20.0558 11.9806
  992 158.098 24.8672 -7.86697
  993 99.6368 5.56142 5.37789
  994 99.6380 5.56057 -5.37625
  995 126.967 -0.856682 -5.03552
  996 126.959 -0.855267 5.04157
  997 95.4449 3.34716 -11.2329
  998 95.4506 3.35263 11.2290
  999 96.7984 7.63537 6.56473
  1000 96.8005 7.63453 -6.56305
  1001 126.548 7.85584 -5.08114
  1002 85.9902 11.2482 11.5894
  1003 85.9949 11.2476 -11.5858
  1004 110.411 2.19714 4.54476
  1005 110.409 2.19589 -4.54701
  1006 113.080 1.69454 -8.23914
  1007 113.086 1.69455 8.24079
  1008 100.637 5.25310 -4.59388
  1009 100.642 5.25395 4.59209
  1010 109.768 3.25850 23.1216
  1011 109.758 3.26426 -23.1205
  1012 152.315 0.386681 8.91987
  1013 152.305 0.387389 -8.92154
  1014 133.465 5.48650 10.4715
  1015 81.4872 10.6594 -2.10528
  1016 81.4967 10.6582 2.10213
  1017 177.203 -2.64379 -14.0130
  1018 177.327 -2.59246 13.9736
  1019 136.816 -0.694027 19.8761
  1020 136.804 -0.689236 -19.8801
  1021 102.806 -15.2211 27.2269
  1022 102.682 -15.2378 -27.4327
  1023 158.782 -10.9303 9.64400
  1024 158.752 -10.9296 -9.65859
  1025 124.309 -7.61924 6.11326
  1026 124.321 -7.62892 -6.11458
  1027 126.618 -1.59665 -1.94505
  1028 126.615 -1.59358 1.94667
  1029 103.192 2.39142 5.86917
  1030 103.190 2.39102 -5.86738
  1031 154.118 -10.6307 1.63436
  1032 90.4865 7.32988 -6.39983
  1033 90.4927 7.33219 6.39647
  1034 88.5430 -8.11056 26.6075
  1035 88.5223 -8.10282 -26.6111
  1036 107.219 0.178097 -2.20869
  1037 107.225 0.178113 2.20933
  1038 115.804 1.01699 4.71064
  1039 77.4118 4.53866 -14.5293
  1040 77.4228 4.53795 14.5147
  1041 129.397 -2.37403 -0.0946234
  1042 129.399 -2.37720 0.0988211
  1043 131.267 -0.713214 2.20677
  1044 131.272 -0.712004 -2.20176
  1045 95.5824 8.08498 1.03724
  1046 95.5867 8.08450 -1.03719
  1047 118.656 -17.5311 31.1711
  1048 131.802 -3.57373 -8.17602
  1049 131.810 -3.57090 8.18649
  1050 58.1755 -27.8122 30.1365
  1051 57.9029 -26.8030 -30.6805
  1052 175.945 8.66062 -17.0812
  1053 113.597 -8.56845 -15.4618
  1054 113.532 -8.57410 15.5041
  1055 132.468 -0.229565 -0.416121
  1056 132.467 -0.229054 0.417507
  1057 100.572 5.99518 -0.560055
  1058 100.576 5.99468 0.559776
  1059 104.347 0.510274 3.13680
  1060 104.343 0.510177 -3.13578
  1061 118.700 3.38669 15.4543
  1062 118.694 3.38789 -15.4529
  1063 113.811 -5.71430 12.1980
  1064 113.805 -5.72621 -12.2047
  1065 104.365 2.38795 6.52961
  1066 104.363 2.38761 -6.52776
  1067 180.964 -6.40391 16.9490
  1068 180.917 -6.45751 -16.9255
  1069 119.619 -2.29436 5.21205
  1070 119.622 -2.29978 -5.21407
  1071 108.644 1.41195 6.31569
  1072 108.639 1.41181 -6.31412
  1073 110.526 -15.2731 -24.9126
  1074 110.521 -15.2586 24.9135
  1075 119.337 1.54817 9.60678
  1076 119.330 1.54839 -9.60541
  1077 127.626 -0.339373 -1.80259
  1078 127.625 -0.338180 1.80310
  1079 193.519 -2.33479 -16.6994
  1080 193.693 -2.22921 16.7026
  1081 30.1776 -40.0243 -8.83964
  1082 30.2152 -40.0318 8.78987
  1083 182.225 -1.29590 -5.67086
  1084 182.222 -1.29709 5.66193
  1085 77.6935 -14.4559 31.5424
  1086 78.2334 -14.4091 -31.3198
  1087 142.238 0.333721 7.33892
  1088 142.228 0.334048 -7.33919
  1089 132.443 -0.642596 0.979225
  1090 132.445 -0.641670 -0.975700
  1091 21.6592 -36.9836 -11.2474
  1092 21.9691 -36.6970 11.6541
  1093 130.949 0.380216 -5.95470
  1094 130.959 0.380076 5.95518
  1095 104.133 2.63417 7.61833
  1096 104.128 2.63170 -7.62154
  1097 36.1007 -7.12770 -7.95512
  1098 36.1829 -7.15223 7.96328
  1099 53.3282 -33.1534 16.7565
  1100 53.2989 -33.2158 -16.7565
  1101 128.268 -5.16780 0.972986
  1102 128.274 -5.17344 -0.968437
  1103 92.1239 9.09479 1.04278
  1104 92.1291 9.09448 -1.04306
  1105 130.450 1.88520 -15.8910
  1106 130.459 1.88334 15.8906
  1107 174.110 -11.4800 4.80592
  1108 174.092 -11.4221 -4.82260
  1109 101.537 -8.41037 -22.1086
  1110 101.488 -8.36020 22.0723
  1111 134.348 -22.5538 23.0617
  1112 138.879 0.992972 -15.7644
  1113 138.889 0.990757 15.7624
  1114 130.803 -3.43520 -4.06871
  1115 130.805 -3.43815 4.07549
  1116 123.221 -2.63567 3.64143
  1117 123.225 -2.64086 -3.64125
  1118 119.300 0.0701472 3.68564
  1119 119.301 0.0678937 -3.68686
  1120 161.742 23.1450 8.34389
  1121 80.2820 -28.0755 -17.5138
  1122 80.3529 -27.4837 17.1315
  1123 100.337 -19.3034 -32.1744
  1124 202.414 15.1317 10.1339
  1125 133.495 12.9365 -5.80227
  1126 125.429 -22.8146 -23.5113
  1127 52.6613 2.51468 11.1507
  1128 52.6756 2.51959 -11.1278
  1129 102.521 7.19894 16.3144
  1130 102.518 7.19988 -16.3113
  1131 120.423 5.24435 1.34467
  1132 123.007 -0.237578 -5.53189
  1133 123.000 -0.213944 5.53489
  1134 151.365 -1.94411 9.14808
  1135 162.171 0.202900 -7.43686
  1136 162.179 0.202267 7.43450
  1137 204.455 17.7789 -6.39811
  1138 126.823 -20.2050 19.9810
  1139 101.559 4.74446 -7.91857
  1140 101.559 4.74504 7.92070
  1141 140.836 -5.67950 -8.72954
  1142 141.403 -5.34819 8.98043
  1143 105.539 2.73104 7.78317
  1144 105.536 2.73076 -7.78115
  1145 131.639 3.64966 -4.52811
  1146 110.024 0.622997 -7.00044
  1147 110.027 0.626071 6.99675
  1148 200.073 12.2341 -13.7887
  1149 106.107 3.79586 -3.66396
  1150 106.110 3.79623 3.66228
  1151 160.792 0.0616752 15.7665
  1152 159.546 -3.85790 -13.1917
  1153 159.558 -3.86265 13.1823
  1154 143.076 2.89587 -12.1455
  1155 160.258 0.194230 -15.6382
  1156 107.286 0.800364 -4.54981
  1157 107.291 0.800478 4.55108
  1158 129.238 -2.06632 -6.81969
  1159 129.237 -2.06275 6.82782
  1160 110.421 1.51274 0.203538
  1161 110.183 4.25421 13.4278
  1162 110.178 4.25458 -13.4255
  1163 151.747 -1.56420 -9.11419
  1164 92.7029 9.43794 6.44558
  1165 92.7066 9.43710 -6.44418
  1166 123.839 -13.4829 13.3747
  1167 124.834 -14.0611 -13.1712
  1168 101.626 7.20432 18.9696
  1169 101.622 7.20676 -18.9662
  1170 102.094 3.23963 5.99629
  1171 102.093 3.23908 -5.99445
  1172 128.942 -1.50849 0.849199
  1173 128.944 -1.51097 -0.846469
  1174 85.4273 11.3242 4.17536
  1175 85.4343 11.3230 -4.17503
  1176 101.635 1.08620 10.9716
  1177 101.628 1.08124 -10.9756
  1178 121.719 0.287576 3.71441
  1179 121.710 0.287592 -3.71378
  1180 142.294 -16.1435 3.14492
  1181 143.103 -15.9861 -2.67986
  1182 109.935 2.21084 8.50779
  1183 109.930 2.21073 -8.50592
  1184 105.776 0.118103 1.74319
  1185 105.771 0.118089 -1.74265
  1186 187.881 -2.33489 -6.82279
  1187 187.898 -2.35282 6.84915
  1188 109.981 0.145729 -1.95249
  1189 109.987 0.145736 1.95302
  1190 128.118 -3.72810 22.3025
  1191 128.103 -3.72262 -22.3052
  1192 223.753 36.5338 -1.12186
  1193 92.8899 9.75358 9.34017
  1194 92.8927 9.75280 -9.33798
  1195 126.530 1.55577 11.8033
  1196 126.521 1.55644 -11.8026
  1197 126.023 1.00539 -8.91225
  1198 126.195 0.975454 9.01035
  1199 308.556 18.6252 9.25985
  1200 147.268 19.8838 8.35910
  1201 64.1490 9.99837 0.542384
  1202 64.1716 9.99169 -0.539618
  1203 99.0043 6.29151 3.06609
  1204 99.0070 6.29063 -3.06517
  1205 300.776 20.0777 -9.22216
  1206 122.263 -0.199649 -3.02111
  1207 122.262 -0.197658 3.02062
  1208 141.087 -21.4129 -13.3991
  1209 141.250 -21.4247 13.4493
  1210 99.4377 6.83974 -10.1499
  1211 99.4376 6.84029 10.1524
  1212 139.914 2.07977 11.2864
  1213 132.574 2.89644 7.10282
  1214 130.233 -19.2442 -16.3119
  1215 89.5515 10.3466 -3.56514
  1216 89.5460 10.3474 3.56546
  1217 136.375 -8.70946 4.81480
  1218 136.377 -8.71021 -4.80199
  1219 103.397 5.79114 12.4013
  1220 103.395 5.79107 -12.3987
  1221 150.275 -0.782513 15.7740
  1222 150.265 -0.778922 -15.7795
  1223 156.347 -15.1745 -8.14056
  1224 156.401 -15.1712 8.12130
  1225 140.235 9.76499 -10.8970
  1226 108.528 5.25442 15.3361
  1227 108.524 5.25524 -15.3336
  1228 148.303 25.8375 -2.40862
  1229 141.091 9.19653 11.2286
  1230 128.259 0.336050 -4.77942
  1231 128.268 0.335964 4.77997
  1232 166.282 -18.4426 -2.28982
  1233 166.480 -18.2688 2.05782
  1234 118.259 0.145741 -3.25541
  1235 118.267 0.145720 3.25605
  1236 113.298 0.402081 -5.73386
  1237 113.299 0.404956 5.73086
  1238 46.1051 -16.2036 18.4190
  1239 46.0768 -16.1765 -18.4030
  1240 80.6449 11.4337 12.8215
  1241 80.6509 11.4335 -12.8158
  1242 180.157 1.13888 -20.8283
  1243 149.884 0.360223 6.43942
  1244 149.874 0.360551 -6.44016
  1245 133.304 14.4861 3.79980
  1246 175.553 36.0344 1.80740
  1247 106.226 -2.83602 -25.8515
  1248 106.241 -2.84240 25.8508
  1249 136.665 -1.76731 -10.6946
  1250 136.661 -1.94452 10.6182
  1251 111.476 -10.1388 -21.6735
  1252 114.589 -12.4641 21.8167
  1253 99.4682 5.75561 4.29723
  1254 99.4701 5.75471 -4.29591
  1255 96.2164 7.77327 3.40745
  1256 96.2198 7.77252 -3.40662
  1257 98.5108 6.44748 5.95040
  1258 98.5124 6.44664 -5.94874
  1259 177.547 -0.546270 -6.44362
  1260 177.549 -0.547245 6.43852
  1261 118.637 -3.45853 6.64560
  1262 118.640 -3.46555 -6.64918
  1263 235.558 12.4514 24.4765
  1264 180.345 0.989334 20.6347
  1265 122.722 4.91760 5.23882
  1266 214.236 5.70811 -6.90306
  1267 109.858 0.863638 -1.66203
  1268 80.4964 5.17216 21.5888
  1269 80.4902 5.18000 -21.5799
  1270 192.074 8.10727 29.1678
  1271 170.466 10.3347 -2.99546
  1272 73.1260 11.6409 1.46597
  1273 73.1406 11.6367 -1.46608
  1274 114.713 3.94611 -21.6027
  1275 114.722 3.94177 21.6036
  1276 170.540 10.7545 28.4128
  1277 79.5101 8.32808 18.7134
  1278 79.5100 8.33252 -18.7043
  1279 120.765 2.37201 13.0714
  1280 120.758 2.37274 -13.0701
  1281 240.257 21.7272 2.79389
  1282 176.048 10.8766 6.93128
  1283 218.749 32.7909 10.0331
  1284 183.384 2.74597 -23.6255
  1285 140.751 -10.2878 -4.83547
  1286 140.745 -10.2357 4.86215
  1287 189.203 -7.89313 10.8337
  1288 189.129 -8.03780 -10.7494
  1289 126.020 -6.04896 -3.35234
  1290 126.012 -6.04123 3.35470
  1291 105.805 0.992832 4.68131
  1292 105.801 0.992670 -4.67995
  1293 113.715 -2.29270 8.43612
  1294 113.714 -2.29850 -8.44140
  1295 127.434 -12.2824 -21.6271
  1296 127.452 -12.2830 21.6344
  1297 89.1774 10.7452 10.3284
  1298 89.1815 10.7445 -10.3257
  1299 162.173 -7.66600 -3.39506
  1300 121.300 4.04692 -5.35532
  1301 225.626 12.9421 -28.8488
  1302 208.287 26.7766 -18.1697
  1303 134.747 3.35785 -11.1311
  1304 279.751 17.8221 -19.4072
  1305 128.302 -0.541593 -3.24176
  1306 128.290 -0.542288 3.24764
  1307 129.657 -3.62668 -0.855045
  1308 129.661 -3.63045 0.860358
  1309 167.256 -1.09900 -12.7689
  1310 104.983 1.31198 24.7539
  1311 104.971 1.31907 -24.7527
  1312 124.304 -1.42445 -2.81540
  1313 124.302 -1.42103 2.81597
  1314 193.655 -1.38878 0.623302
  1315 193.633 -1.38399 -0.625708
  1316 125.246 -4.11467 2.96031
  1317 125.251 -4.12099 -2.95850
  1318 103.939 1.01637 -4.18592
  1319 103.943 1.01656 4.18726
  1320 179.991 6.31535 18.2833
  1321 171.118 -6.51763 -5.30881
  1322 171.127 -6.51280 5.29311
  1323 110.518 5.18810 19.0822
  1324 110.512 5.19058 -19.0801
  1325 127.724 -24.2199 -26.8231
  1326 64.2679 -6.32131 25.0920
  1327 64.2574 -6.31298 -25.1268
  1328 172.891 6.04295 -16.8869
  1329 134.092 -6.08894 -6.90161
  1330 134.097 -6.09120 6.90497
  1331 99.2872 7.83802 13.9067
  1332 99.2866 7.83814 -13.9037
  1333 133.387 -13.5409 -4.76656
  1334 133.358 -13.5486 4.67778
  1335 135.756 1.16646 12.2050
  1336 135.747 1.16742 -12.2054
  1337 15.5845 -51.6675 2.99248
  1338 15.7471 -52.0436 -2.93635
  1339 291.801 19.1766 21.0077
  1340 170.289 3.53528 0.611689
  1341 114.738 0.325579 -4.02303
  1342 175.288 21.6449 -5.34436
  1343 103.556 1.65432 -4.99729
  1344 103.559 1.65462 4.99887
  1345 150.300 -17.5803 8.76180
  1346 133.349 -2.72818 -9.68541
  1347 133.352 -2.71627 9.68688
  1348 189.966 -1.19724 -3.27425
  1349 189.955 -1.19722 3.26584
  1350 110.278 0.771399 4.96115
  1351 110.272 0.771337 -4.95990
  1352 94.8384 8.02971 19.9494
  1353 94.8351 8.03323 -19.9446
  1354 215.246 13.4903 10.5580
  1355 146.153 3.93238 -33.3454
  1356 133.568 -0.316839 0.0654720
  1357 133.569 -0.316370 -0.0637999
  1358 60.0799 8.44790 7.32184
  1359 60.0987 8.44592 -7.30929
  1360 131.012 -6.93190 -1.24967
  1361 131.018 -6.93562 1.25676
  1362 168.787 -1.08375 13.4603
  1363 104.453 4.13483 9.45700
  1364 104.451 4.13448 -9.45474
  1365 110.224 0.753117 2.17923
  1366 124.586 1.10598 21.8102
  1367 124.575 1.11099 -21.8119
  1368 77.1815 8.14647 -8.12078
  1369 77.1937 8.14558 8.11252
  1370 183.094 -1.77197 9.45745
  1371 183.169 -1.76770 -9.41572
  1372 113.886 0.163776 2.38646
  1373 113.878 0.163763 -2.38590
  1374 116.727 1.45704 8.75904
  1375 116.721 1.45714 -8.75755
  1376 51.1033 0.305220 -13.7053
  1377 51.1598 0.291815 13.6939
  1378 110.735 2.81703 10.1144
  1379 110.730 2.81702 -10.1124
  1380 133.335 -0.0863526 -0.481355
  1381 133.333 -0.0861216 0.481965
  1382 116.906 -0.870109 5.40011
  1383 116.907 -0.874101 -5.40267
  1384 32.7009 -42.2869 -18.4224
  1385 30.3883 -40.9897 18.3731
  1386 148.507 -18.9301 -11.1969
  1387 97.5651 7.34290 -8.19898
  1388 97.5637 7.34365 8.20104
  1389 113.842 1.38851 4.21642
  1390 113.841 1.38700 -4.21843
  1391 131.035 -1.40487 0.875036
  1392 131.035 -1.40302 -0.870710
  1393 138.525 0.678996 -17.7616
  1394 138.535 0.675721 17.7586
  1395 210.635 4.47594 9.43016
  1396 129.606 2.97020 -9.90782
  1397 103.804 3.34334 -7.59768
  1398 103.806 3.34377 7.59974
  1399 106.833 -2.06179 -12.2489
  1400 106.839 -2.05454 12.2434
  1401 107.015 2.28157 7.46742
  1402 107.011 2.28133 -7.46556
  1403 183.366 -0.598328 -5.48256
  1404 183.363 -0.599182 5.47629
  1405 100.593 4.59072 5.61352
  1406 100.593 4.58995 -5.61178
  1407 181.200 -6.30966 -7.29299
  1408 181.233 -6.34648 7.30676
  1409 228.696 14.2168 -7.57184
  1410 103.451 0.0512739 1.00568
  1411 103.446 0.0512698 -1.00534
  1412 113.785 0.960705 6.35500
  1413 113.778 0.960691 -6.35366
  1414 89.3417 10.1179 16.2008
  1415 89.3428 10.1191 -16.1959
  1416 95.5309 7.72658 1.28842
  1417 95.5260 7.72654 -1.28915
  1418 162.250 32.1904 -3.00598
  1419 179.094 -10.4655 11.3979
  1420 179.030 -10.4148 -11.3873
  1421 103.075 -5.48771 -18.3051
  1422 103.085 -5.45461 18.3120
  1423 121.421 2.98465 16.9745
  1424 121.414 2.98654 -16.9737
  1425 59.6300 6.45317 7.93511
  1426 59.5974 6.46424 -7.94016
  1427 129.288 2.79929 9.80019
  1428 231.202 21.6584 -1.13018
  1429 85.5764 9.07597 -4.31760
  1430 85.5840 9.07683 4.31396
  1431 102.673 5.21981 -1.64631
  1432 102.677 5.21947 1.64560
  1433 180.003 20.0829 2.12825
  1434 125.454 -0.202480 -2.24338
  1435 125.452 -0.201058 2.24345
  1436 97.5985 6.56908 -3.50994
  1437 97.6035 6.56969 3.50858
  1438 120.603 1.49334 -6.70901
  1439 180.996 -4.69561 0.0300291
  1440 180.987 -4.68294 -0.0385026
  1441 74.8058 -20.1665 28.8522
  1442 115.135 0.332983 4.10742
  1443 144.967 -2.61178 10.0977
  1444 114.716 2.87105 12.0817
  1445 114.710 2.87140 -12.0798
  1446 145.047 -2.96258 -9.98831
  1447 130.590 -2.09947 3.23365
  1448 130.591 -2.09701 -3.22713
  1449 127.740 -12.3749 8.54833
  1450 127.595 -12.4663 -8.61825
  1451 127.884 -17.5667 15.4202
  1452 96.5951 8.21008 10.5154
  1453 96.5963 8.20954 -10.5130
  1454 141.798 0.300243 4.24632
  1455 141.787 0.300333 -4.24632
  1456 100.263 6.03758 0.822215
  1457 100.266 6.03683 -0.821996
  1458 157.350 5.56192 9.77455
  1459 107.653 4.56673 12.4985
  1460 107.650 4.56681 -12.4961
  1461 90.7488 2.86042 -13.7957
  1462 90.7530 2.86854 13.7884
  1463 130.510 -3.15767 -5.59311
  1464 130.512 -3.15963 5.60063
  1465 105.319 1.63182 -5.77242
  1466 105.323 1.63206 5.77407
  1467 169.326 0.125144 -6.37011
  1468 169.332 0.124520 6.36727
  1469 103.815 4.27307 4.51404
  1470 103.810 4.27236 -4.51596
  1471 126.999 -0.856840 -1.89957
  1472 126.998 -0.854789 1.90064
  1473 85.0917 11.5971 -6.60643
  1474 85.0851 11.5985 6.60785
  1475 132.572 -0.0348358 -0.612950
  1476 132.570 -0.0346934 0.613128
  1477 122.118 5.59911 -2.44604
  1478 77.8650 10.6612 -13.8728
  1479 77.8594 10.6604 13.8801
  1480 121.504 -5.54938 6.45340
  1481 121.511 -5.55869 -6.45648
  1482 133.675 -10.8968 0.578890
  1483 133.682 -10.8979 -0.558128
  1484 92.6308 9.69375 14.2977
  1485 92.6321 9.69398 -14.2940
  1486 157.473 -1.81661 13.8668
  1487 157.463 -1.81250 -13.8744
  1488 130.389 -0.516474 2.39863
  1489 130.398 -0.515595 -2.39357
  1490 128.607 5.76476 -8.38603
  1491 39.5665 -3.67646 -1.09803
  1492 39.5177 -3.66950 1.12794
  1493 101.910 5.31047 9.53970
  1494 101.909 5.30998 -9.53736
  1495 100.632 5.74438 -2.20015
  1496 100.636 5.74434 2.19925
  1497 170.419 -2.58968 -9.18333
  1498 170.425 -2.59258 9.17249
  1499 103.943 0.306514 2.41984
  1500 103.939 0.306451 -2.41904
  1501 129.718 -1.09247 -9.55663
  1502 129.704 -1.07125 9.57162
  1503 95.1983 6.37238 5.74747
  1504 95.1926 6.37066 -5.74975
  1505 117.036 0.595165 3.95188
  1506 117.036 0.593267 -3.95350
  1507 139.942 -5.45334 19.5925
  1508 139.925 -5.44709 -19.5968
  1509 156.802 -7.31988 -12.4908
  1510 156.824 -7.32523 12.4807
  1511 137.810 -14.9792 2.83315
  1512 137.933 -14.8442 -2.65715
  1513 121.160 1.44982 6.96802
  1514 118.763 -0.608830 4.43489
  1515 118.765 -0.612200 -4.43654
  1516 155.774 14.6377 -10.6284
  1517 111.838 -3.34133 -10.4843
  1518 111.842 -3.33452 10.4781
  1519 120.357 -23.1993 26.3032
  1520 134.082 15.4219 -2.04077
  1521 120.532 -7.55906 -9.09112
  1522 120.529 -7.54591 9.08728
  1523 148.405 -16.3453 3.55902
  1524 79.0423 -1.62693 -24.5101
  1525 79.0593 -1.63888 24.5161
  1526 100.011 5.32554 6.32709
  1527 100.012 5.32477 -6.32525
  1528 129.318 -0.0808569 -1.35125
  1529 129.317 -0.0802811 1.35155
  1530 96.8551 7.49807 5.14840
  1531 96.8577 7.49721 -5.14705
  1532 172.031 -15.9042 4.14200
  1533 171.999 -15.8112 -4.18844
  1534 136.885 0.187251 -4.13149
  1535 136.896 0.187193 4.13168
  1536 145.788 3.99054 11.5557
  1537 145.407 0.804198 12.7987
  1538 121.380 -22.0190 -20.1670
  1539 121.342 -21.9609 20.2463
  1540 112.856 0.602397 4.69752
  1541 112.849 0.602352 -4.69644
  1542 106.155 3.75691 10.0341
  1543 106.152 3.75671 -10.0319
  1544 144.298 0.933045 -12.6954
  1545 126.255 8.58979 3.09515
  1546 182.641 -11.2250 -1.47417
  1547 183.324 -10.4414 2.29174
  1548 135.733 1.90164 11.2945
  1549 118.862 -0.0395559 -4.19823
  1550 118.819 -0.0432152 4.15039
  1551 90.3724 8.67023 -3.42933
  1552 90.3786 8.67117 3.42716
  1553 132.823 9.20978 8.37713
  1554 101.423 4.34218 -6.83102
  1555 101.424 4.34282 6.83300
  1556 126.139 2.16621 -6.57898
  1557 108.333 0.0824508 -1.67146
  1558 108.339 0.0824504 1.67195
  1559 65.9283 -19.8053 31.8872
  1560 66.2674 -19.6206 -31.8146
  1561 120.132 -19.0872 -22.0051
  1562 86.0094 -21.5946 -25.4688
  1563 86.0507 -21.5826 25.4360
  1564 130.386 -0.681494 -0.719443
  1565 130.385 -0.680204 0.721528
  1566 101.268 5.26019 22.9358
  1567 101.260 5.26569 -22.9325
  1568 148.288 17.9048 -9.62231
  1569 43.1585 -6.15650 -11.9859
  1570 43.1532 -6.17164 12.0194
  1571 128.514 5.66288 8.53224
  1572 124.059 2.65561 19.2602
  1573 124.050 2.65877 -19.2605
  1574 131.225 -0.306563 0.868862
  1575 131.226 -0.307229 -0.867790
  1576 112.490 4.55639 16.0756
  1577 112.485 4.55756 -16.0735
  1578 65.9002 -9.61081 -24.0300
  1579 65.9286 -9.62745 24.0368
  1580 186.512 -4.77078 18.9198
  1581 186.485 -4.85281 -18.8731
  1582 143.132 2.58872 28.7286
  1583 97.9871 6.99201 0.0817485
  1584 97.9912 6.99156 -0.0818817
  1585 128.613 4.89969 35.5691
  1586 142.698 -12.4964 -16.4102
  1587 142.730 -12.5048 16.4125
  1588 134.474 -2.11152 -20.8931
  1589 134.487 -2.11701 20.8891
  1590 125.923 0.190728 3.01162
  1591 125.913 0.190728 -3.01119
  1592 105.265 4.25173 -2.79972
  1593 105.269 4.25171 2.79846
  1594 67.3772 2.75464 -20.0590
  1595 67.3822 2.74420 20.0730
  1596 74.9765 -0.489906 20.8594
  1597 74.9692 -0.484313 -20.8770
  1598 70.5099 6.04682 -12.4901
  1599 70.5285 6.04128 12.4768
  1600 94.9325 8.60261 7.02859
  1601 94.9352 8.60178 -7.02691
  1602 125.299 3.15167 -0.987148
  1603 98.0035 7.00317 3.05357
  1604 98.0065 7.00233 -3.05271
  1605 109.462 2.73534 3.82256
  1606 109.460 2.73466 -3.82441
  1607 109.238 1.75786 7.20676
  1608 109.234 1.75772 -7.20505
  1609 119.022 -25.5602 -18.7838
  1610 119.521 -25.4425 19.0311
  1611 131.005 -9.17726 -1.15907
  1612 130.990 -9.17024 1.16906
  1613 125.606 -9.83143 -7.21288
  1614 125.598 -9.84649 7.19936
  1615 131.273 -5.76725 -2.75739
  1616 131.277 -5.77047 2.76379
  1617 133.411 1.56962 -27.5041
  1618 130.498 -3.49352 -2.42095
  1619 130.501 -3.49688 2.42712
  1620 136.734 12.0078 -8.81566
  1621 123.453 -0.126916 7.19265
  1622 123.450 -0.128207 -7.19446
  1623 329.700 18.9916 -1.42016
  1624 127.913 -1.98594 1.17253
  1625 127.916 -1.98915 -1.16978
  1626 132.969 -0.330570 1.06689
  1627 132.974 -0.329932 -1.06392
  1628 133.936 -0.213513 0.272685
  1629 133.938 -0.213210 -0.270921
  1630 109.826 1.88089 5.36127
  1631 109.823 1.87915 -5.36396
  1632 111.415 0.131829 1.83663
  1633 111.408 0.131816 -1.83615
  1634 68.4743 10.0540 11.6119
  1635 68.4853 10.0541 -11.6018
  1636 76.9900 11.8357 7.78476
  1637 77.0002 11.8338 -7.78110
  1638 137.916 -18.6292 9.83662
  1639 147.278 0.489161 -12.6319
  1640 147.287 0.487678 12.6296
  1641 119.947 2.56026 5.80665
  1642 125.771 -2.34071 -2.29250
  1643 125.767 -2.33651 2.29416
  1644 116.866 0.110060 -2.15282
  1645 116.874 0.110054 2.15328
  1646 169.110 -13.2702 -0.0472814
  1647 169.124 -13.2308 0.0174205
  1648 146.857 -16.5588 -3.00330
  1649 120.251 0.938154 7.01017
  1650 120.244 0.938223 -7.00907
  1651 192.577 -1.24767 3.82238
  1652 192.556 -1.23896 -3.80938
  1653 86.2059 -1.57020 -20.5250
  1654 86.2110 -1.57411 20.5038
  1655 101.434 3.77489 5.89640
  1656 101.433 3.77423 -5.89457
  1657 233.932 14.7886 3.61363
  1658 106.829 0.0732946 1.13455
  1659 106.823 0.0732806 -1.13420
  1660 123.627 -0.0491524 3.42885
  1661 123.645 -0.0558077 -3.42457
  1662 101.826 -11.4397 25.9607
  1663 101.815 -11.4439 -25.9674
  1664 63.3205 -20.7344 -25.1494
  1665 238.987 30.3545 -14.4328
  1666 89.9392 5.89477 -9.36368
  1667 89.9452 5.89882 9.35878
  1668 122.512 1.00602 8.18385
  1669 122.504 1.00621 -8.18279
  1670 104.808 0.994746 4.43702
  1671 104.805 0.994579 -4.43566
  1672 157.962 1.07426 -8.05314
  1673 103.014 7.02664 17.5148
  1674 103.010 7.02817 -17.5117
  1675 107.715 0.556132 -3.74966
  1676 107.720 0.556209 3.75071
  1677 104.579 0.0656980 -1.05025
  1678 104.585 0.0657252 1.05059
  1679 95.0110 -0.239633 -15.8660
  1680 95.0130 -0.227309 15.8604
  1681 180.872 5.54115 -18.6991
  1682 176.806 -0.149516 -4.41572
  1683 176.809 -0.149915 4.41295
  1684 108.109 1.03101 5.27975
  1685 108.104 1.03089 -5.27836
  1686 111.631 -11.2184 19.3204
  1687 111.658 -11.3924 -19.4164
  1688 118.954 2.28657 11.8132
  1689 118.947 2.28701 -11.8117
  1690 101.467 4.16919 6.27277
  1691 101.462 4.16756 -6.27520
  1692 22.4039 -60.3318 5.78971
  1693 22.3788 -60.2851 -5.87409
  1694 144.303 23.1417 3.44754
  1695 199.495 -0.523680 -0.696124
  1696 199.469 -0.522873 0.691979
  1697 162.387 0.111453 5.56285
  1698 162.378 0.111803 -5.56434
  1699 105.123 0.408732 2.91446
  1700 105.119 0.408659 -2.91354
  1701 157.400 -0.0295018 -11.5193
  1702 157.408 -0.0311392 11.5153
  1703 127.375 -17.0763 -14.9287
  1704 103.836 2.13379 -5.92275
  1705 103.839 2.13413 5.92451
  1706 122.738 -3.37522 4.27150
  1707 122.743 -3.38144 -4.27191
  1708 267.984 22.1602 1.15904
  1709 105.344 4.52521 10.8942
  1710 105.341 4.52501 -10.8918
  1711 116.183 3.17714 0.00783011
  1712 94.4078 -10.5311 -26.2528
  1713 94.4942 -10.5873 26.2146
  1714 102.564 2.54996 5.59859
  1715 102.562 2.54950 -5.59681
  1716 131.289 -1.26729 1.93533
  1717 131.291 -1.26563 -1.93018
  1718 144.826 2.33108 -11.5615
  1719 114.060 4.62063 -17.9870
  1720 114.066 4.61855 17.9888
  1721 75.5193 10.9523 -1.59627
  1722 75.5326 10.9491 1.59331
  1723 96.3983 8.88196 14.9777
  1724 96.3983 8.88242 -14.9742
  1725 93.0657 3.49799 24.0866
  1726 93.0554 3.50568 -24.0822
  1727 128.061 -9.08922 -4.09170
  1728 128.046 -9.07687 4.09102
  1729 133.454 -7.27981 4.15028
  1730 133.451 -7.27806 -4.14361
  1731 138.247 -8.28253 -6.41746
  1732 138.260 -8.28491 6.41264
  1733 123.846 2.48194 14.1738
  1734 123.839 2.48302 -14.1729
  1735 138.410 -18.2171 -8.66992
  1736 110.031 3.78662 11.8648
  1737 110.027 3.78673 -11.8626
  1738 85.0569 4.45860 -13.4418
  1739 85.0624 4.46323 13.4311
  1740 127.984 -8.41546 -21.8318
  1741 128.002 -8.41932 21.8324
  1742 99.8554 6.09636 2.15930
  1743 99.8581 6.09548 -2.15861
  1744 131.241 0.838424 8.25247
  1745 131.232 0.838736 -8.25198
  1746 258.066 19.2320 -46.2448
  1747 103.475 2.69674 -6.46478
  1748 103.477 2.69715 6.46667
  1749 133.318 1.03523 10.4428
  1750 133.309 1.03580 -10.4426
  1751 154.976 0.213797 5.75146
  1752 154.966 0.214050 -5.75237
  1753 95.8280 4.48564 -9.14620
  1754 95.8340 4.48937 9.14293
  1755 100.031 0.919087 -12.5332
  1756 100.038 0.925606 12.5293
  1757 125.743 -0.790566 6.62146
  1758 125.748 -0.799121 -6.61685
  1759 111.708 -6.38859 14.3664
  1760 111.712 -6.40226 -14.3753
  1761 96.9486 -18.3613 31.2484
  1762 95.9995 -17.9231 -31.0774
  1763 131.032 9.62377 -7.18551
  1764 110.196 0.351547 -3.41425
  1765 110.203 0.351586 3.41514
  1766 108.583 0.769124 1.23331
  1767 97.4174 5.98935 5.27194
  1768 97.4120 5.98805 -5.27392
  1769 148.440 -22.0671 -10.1733
  1770 148.691 -22.1644 10.1520
  1771 168.739 -0.851987 -9.58043
  1772 168.744 -0.853956 9.57399
  1773 122.475 -0.612232 3.20408
  1774 122.477 -0.614871 -3.20444
  1775 111.054 0.428501 -2.69208
  1776 116.251 -8.40362 13.0819
  1777 116.226 -8.43150 -13.1032
  1778 179.423 13.0858 2.21462
  1779 129.608 -6.37558 -0.158621
  1780 129.601 -6.37024 0.164540
  1781 109.095 2.97775 -10.0084
  1782 109.099 2.97782 10.0105
  1783 102.634 2.47283 8.78502
  1784 102.628 2.46969 -8.78844
  1785 97.8829 7.01069 7.31026
  1786 97.8843 7.00989 -7.30837
  1787 91.4452 9.66324 3.03847
  1788 91.4501 9.66260 -3.03816
  1789 100.091 5.21928 4.77015
  1790 100.092 5.21841 -4.76863
  1791 169.549 30.7698 4.83639
  1792 178.394 -3.99049 17.8475
  1793 178.332 -4.00616 -17.8871
  1794 159.254 -9.49224 2.08306
  1795 99.8845 5.92636 8.13312
  1796 99.8848 5.92568 -8.13098
  1797 141.852 21.4598 -3.16044
  1798 262.770 16.4911 35.8763
  1799 112.059 4.73367 20.2205
  1800 112.052 4.73699 -20.2187
  1801 130.070 1.45358 8.07414
  1802 93.1312 -24.3650 34.4820
  1803 94.4078 8.47564 1.81961
  1804 94.4121 8.47514 -1.81941
  1805 127.840 9.66458 -3.50185
  1806 108.186 0.690236 8.14542
  1807 108.182 0.686863 -8.14942
  1808 128.597 -3.15596 -0.372237
  1809 128.594 -3.15190 0.376409
  1810 145.998 -0.211855 16.3288
  1811 145.988 -0.208447 -16.3332
  1812 95.4420 -24.3876 -33.8516
  1813 139.698 18.6923 5.10286
  1814 115.597 0.729926 5.42553
  1815 115.590 0.729915 -5.42443
  1816 101.233 6.41888 11.4726
  1817 101.232 6.41858 -11.4700
  1818 119.297 1.30701 2.89258
  1819 101.729 6.72440 13.2127
  1820 101.727 6.72442 -13.2099
  1821 109.255 -14.6132 24.0024
  1822 108.815 -15.0025 -24.5646
  1823 95.6849 8.83600 12.1489
  1824 95.6860 8.83566 -12.1460
  1825 165.560 28.2181 -6.78115
  1826 190.611 10.8605 14.4822
  1827 135.776 1.42547 15.2212
  1828 135.767 1.42734 -15.2224
  1829 177.447 -7.44680 3.14985
  1830 177.435 -7.41792 -3.15687
  1831 129.761 -0.284609 -1.26602
  1832 129.759 -0.283789 1.26679
  1833 93.4593 -3.13261 -26.3854
  1834 93.4756 -3.14049 26.3859
  1835 138.447 -17.9758 24.4233
  1836 121.379 -23.0748 30.4895
  1837 180.477 -2.65616 -4.84111
  1838 180.474 -2.65589 4.82966
  1839 150.088 -8.54469 -5.49283
  1840 159.741 0.710665 7.04127
  1841 146.790 -18.9668 -13.3703
  1842 147.761 -17.9494 13.3313
  1843 180.032 -5.17943 15.2364
  1844 179.940 -5.18273 -15.2291
  1845 132.201 -22.2597 19.6478
  1846 26.7115 -21.0511 5.21205
  1847 26.5720 -20.9885 -5.14659
  1848 128.529 -1.40999 -5.43317
  1849 128.524 -1.40932 5.44042
  1850 148.769 0.0559139 4.30967
  1851 148.758 0.0560811 -4.30997
  1852 105.131 2.33803 6.98469
  1853 105.129 2.33774 -6.98280
  1854 215.322 26.5075 40.1399
  1855 46.2345 -6.40285 17.2115
  1856 46.1721 -6.42031 -17.2373
  1857 99.4415 6.04962 -2.95990
  1858 99.4461 6.04993 2.95874
  1859 108.809 2.60199 4.79640
  1860 108.806 2.60083 -4.79873
  1861 115.332 1.44415 -8.15267
  1862 115.338 1.44411 8.15418
  1863 175.388 -15.2640 -0.959593
  1864 175.030 -15.3287 0.789281
  1865 46.6820 -31.5365 -17.0098
  1866 46.7110 -31.5176 16.9964
  1867 97.1806 7.45704 -1.95376
  1868 97.1770 7.45773 1.95421
  1869 127.731 0.555714 6.96939
  1870 127.721 0.555921 -6.96869
  1871 101.714 4.78988 8.42283
  1872 101.713 4.78935 -8.42064
  1873 90.0110 8.03898 19.9506
  1874 90.0083 8.04309 -19.9446
  1875 74.5413 -27.6767 22.3329
  1876 74.4435 -27.7129 -22.3485
  1877 93.1624 9.01085 17.6870
  1878 93.1615 9.01276 -17.6823
  1879 129.553 -2.20267 -8.13711
  1880 129.552 -2.19164 8.14696
  1881 131.734 -4.31164 -6.73584
  1882 131.740 -4.31295 6.74335
  1883 137.401 6.27112 11.1774
  1884 150.194 -8.37801 5.28487
  1885 128.454 -1.11614 -1.21088
  1886 128.452 -1.11396 1.21287
  1887 80.3222 11.3369 1.50491
  1888 80.3320 11.3352 -1.50595
  1889 45.7435 -31.5922 -6.18934
  1890 45.7686 -31.5571 6.18984
  1891 117.316 2.50434 -3.88812
  1892 132.857 1.52507 17.5237
  1893 132.848 1.52766 -17.5252
  1894 123.625 -0.113560 -2.67830
  1895 123.624 -0.111959 2.67805
  1896 121.538 -1.83403 4.03016
  1897 121.541 -1.83853 -4.03089
  1898 111.883 1.50280 -7.37103
  1899 111.889 1.50287 7.37262
  1900 126.354 -0.312884 3.17673
  1901 126.369 -0.313615 -3.17169
  1902 102.744 4.04028 8.10563
  1903 102.742 4.03980 -8.10349
  1904 175.956 -0.811731 -8.18007
  1905 175.992 -0.807236 8.26028
  1906 119.974 2.05890 21.9390
  1907 119.964 2.06386 -21.9396
  1908 169.693 0.0849825 19.6744
  1909 153.436 7.13220 -10.5250
  1910 106.482 0.274175 -2.53535
  1911 106.488 0.274208 2.53611
  1912 106.620 0.728082 -0.637842
  1913 84.6600 10.1426 -1.46419
  1914 84.6679 10.1424 1.46186
  1915 173.658 21.4519 -42.3495
  1916 93.1566 9.43666 8.20277
  1917 93.1597 9.43584 -8.20088
  1918 33.2211 -17.4612 15.6773
  1919 33.0957 -17.4842 -15.7639
  1920 319.357 14.7952 -30.3397
  1921 139.267 -22.1717 -16.4489
  1922 108.203 0.246614 -2.63885
  1923 108.208 0.246649 2.63959
  1924 219.121 6.33031 -4.83809
  1925 133.552 -0.0414080 -0.453836
  1926 133.550 -0.0413042 0.454104
  1927 71.7315 -16.4128 15.1806
  1928 76.2899 -15.2903 -16.9628
  1929 76.2974 -7.49752 -27.0319
  1930 76.2616 -7.47177 27.0106
  1931 120.733 0.0840318 3.27995
  1932 120.734 0.0822060 -3.28083
  1933 131.233 0.197483 -3.09808
  1934 131.244 0.197449 3.09839
  1935 138.159 5.07415 -11.3958
  1936 103.827 3.42038 6.29088
  1937 103.822 3.41874 -6.29355
  1938 130.039 -2.58900 -1.03319
  1939 130.041 -2.59199 1.03828
  1940 114.078 0.796170 4.88384
  1941 114.077 0.793908 -4.88625
  1942 103.008 1.97883 5.18014
  1943 103.006 1.97846 -5.17847
  1944 100.774 4.93478 7.07067
  1945 100.774 4.93408 -7.06868
  1946 195.008 -0.977613 -1.95863
  1947 195.034 -0.983053 1.96209
  1948 153.970 23.9713 7.37136
  1949 109.012 0.222417 2.02339
  1950 146.503 0.414363 10.9574
  1951 146.493 0.415274 -10.9590
  1952 87.7892 -13.4055 26.6553
  1953 87.7656 -13.4012 -26.6673
  1954 126.652 -7.46218 3.93608
  1955 126.663 -7.47057 -3.93418
  1956 130.005 -1.51536 0.0304441
  1957 130.007 -1.51760 -0.0268857
  1958 89.2019 -12.2583 28.7153
  1959 88.9886 -12.2788 -28.6790
  1960 116.564 1.58146 23.3188
  1961 116.552 1.58724 -23.3194
  1962 151.124 -13.9602 11.8420
  1963 151.075 -13.9550 -11.8482
  1964 111.480 2.12387 3.95665
  1965 111.478 2.12290 -3.95855
  1966 258.512 26.7521 10.3066
  1967 106.038 1.31284 -5.43040
  1968 106.042 1.31302 5.43194
  1969 143.264 -12.5675 2.36133
  1970 143.099 -12.7067 -2.15246
  1971 92.7651 -5.65502 22.8068
  1972 92.7792 -5.65266 -22.8545
  1973 218.375 9.39158 -9.74052
  1974 134.078 -0.0609165 0.290766
  1975 134.079 -0.0611176 -0.290054
  1976 162.757 -5.60431 -13.5307
  1977 105.340 3.37966 8.72919
  1978 105.338 3.37934 -8.72703
  1979 144.998 13.8822 10.4697
  1980 106.515 2.25732 6.64979
  1981 106.511 2.25523 -6.65292
  1982 192.131 13.2281 -10.6924
  1983 144.867 0.289550 9.30148
  1984 166.254 -9.48967 5.30285
  1985 166.234 -9.49812 -5.32172
  1986 103.335 5.48058 -36.9813
  1987 146.719 21.9200 -6.89948
  1988 130.112 11.1247 4.04200
  1989 120.709 4.67416 3.24323
  1990 17.1841 -68.6583 6.08802
  1991 17.2717 -68.6339 -6.23904
  1992 137.439 17.2168 -4.59639
  1993 82.2983 11.8223 9.44311
  1994 82.3053 11.8211 -9.43987
  1995 144.114 0.102529 -9.10602
  1996 130.613 -14.5186 -8.75553
  1997 130.907 -14.4763 8.21486
  1998 147.408 -18.4131 11.9762
  1999 147.326 -18.4056 -11.9758
  2000 103.783 -20.5402 17.3751
  2001 108.116 -22.3272 -17.9433
  2002 83.0109 9.06723 -5.89884
  2003 83.0195 9.06770 5.89356
  2004 45.5381 -27.4218 26.9827
  2005 46.0737 -26.9451 -27.9999
  2006 95.2841 8.32500 5.36484
  2007 95.2872 8.32418 -5.36356
  2008 120.453 0.0791531 2.10870
  2009 120.444 0.0791729 -2.10831
  2010 171.339 2.87280 -2.53024
  2011 113.595 2.09144 -9.54851
  2012 113.600 2.09136 9.55028
  2013 98.8243 6.23164 5.17328
  2014 98.8260 6.23077 -5.17177
  2015 183.764 -1.89663 -20.5671
  2016 168.279 15.9454 7.22375
  2017 116.978 -12.2942 -16.8127
  2018 117.004 -11.9957 16.6508
  2019 193.537 1.90566 -18.6014
  2020 130.527 0.660614 -8.20439
  2021 184.672 -9.91354 -12.6948
  2022 184.666 -9.90645 12.7502
  2023 99.4114 6.45252 0.460469
  2024 99.4150 6.45190 -0.460407
  2025 102.733 2.97569 6.27938
  2026 102.732 2.97521 -6.27750
  2027 214.082 7.45691 11.8780
  2028 125.898 2.47984 16.0686
  2029 125.890 2.48157 -16.0683
  2030 167.250 0.945648 -19.1659
  2031 103.786 0.684493 3.54428
  2032 103.782 0.684364 -3.54310
  2033 117.831 -2.26085 6.06748
  2034 117.833 -2.26644 -6.07054
  2035 94.6012 -4.46462 32.7862
  2036 192.826 -0.497960 -2.89311
  2037 192.816 -0.498308 2.88794
  2038 112.484 -0.809273 7.54240
  2039 112.483 -0.813615 -7.54677
  2040 103.431 0.147345 1.69397
  2041 103.426 0.147311 -1.69338
  2042 130.436 -1.03542 -3.06772
  2043 130.430 -1.03695 3.07385
  2044 44.4309 -33.7258 17.1291
  2045 195.570 16.0227 -2.35387
  2046 166.412 -7.02668 -8.12499
  2047 166.428 -7.02702 8.11036
  2048 117.617 -2.78908 -24.4822
  2049 117.631 -2.79488 24.4807
  2050 132.540 -0.302948 1.18319
  2051 132.547 -0.302429 -1.18019
  2052 115.928 1.60728 4.11154
  2053 350.948 11.4077 7.14216
  2054 214.528 17.4729 -8.21565
  2055 126.851 -0.522670 -8.68059
  2056 126.878 -0.519258 8.68612
  2057 161.608 4.31878 15.1107
  2058 117.035 -5.85632 9.91828
  2059 117.037 -5.86617 -9.92535
  2060 99.8209 5.75539 3.49464
  2061 99.8230 5.75447 -3.49351
  2062 193.950 1.81964 18.6766
  2063 98.6009 6.94553 9.08703
  2064 98.6016 6.94488 -9.08479
  2065 134.273 -4.66418 -8.36933
  2066 134.284 -4.66381 8.37677
  2067 110.776 -20.3813 -28.8760
  2068 40.8021 -37.6693 -16.1160
  2069 124.957 -5.99458 -4.39608
  2070 124.948 -5.98602 4.39685
  2071 127.023 -4.10055 -1.73057
  2072 127.018 -4.09509 1.73383
  2073 127.646 -0.107491 -1.75498
  2074 127.644 -0.106652 1.75516
  2075 178.150 14.3073 -0.920609
  2076 104.637 4.12369 -3.97810
  2077 104.641 4.12418 3.97634
  2078 92.4567 8.44698 1.68481
  2079 92.4512 8.44662 -1.68600
  2080 119.493 -11.0018 13.5348
  2081 119.707 -11.0474 -13.4975
  2082 97.2583 -4.76728 20.0986
  2083 97.2827 -4.80282 -20.1096
  2084 184.065 -1.91887 20.3658
  2085 89.6065 9.92045 1.32984
  2086 89.6123 9.92004 -1.33032
  2087 84.1755 -28.0967 -21.9225
  2088 84.4274 -28.0015 21.8272
  2089 123.191 -16.4767 -22.0465
  2090 123.200 -16.4665 22.0648
  2091 87.9076 10.7690 -4.70989
  2092 87.9018 10.7699 4.71050
  2093 31.7675 -24.9662 -9.59616
  2094 31.7980 -25.0252 9.62222
  2095 153.584 7.08051 6.04423
  2096 159.496 -0.129997 -10.9265
  2097 124.476 0.0913989 2.05839
  2098 124.466 0.0914049 -2.05807
  2099 128.399 -0.491442 -1.54829
  2100 128.397 -0.490057 1.54927
  2101 122.995 -1.69995 3.38682
  2102 122.997 -1.70400 -3.38677
  2103 128.494 -0.725766 21.9431
  2104 128.481 -0.720211 -21.9460
  2105 253.493 18.2037 1.64975
  2106 44.2731 0.815062 -3.60158
  2107 44.3241 0.804167 3.61259
  2108 131.835 -0.511914 -0.342262
  2109 131.834 -0.511053 0.344360
  2110 112.695 1.90905 -1.14123
  2111 112.871 0.0612230 -1.45575
  2112 112.878 0.0612405 1.45612
  2113 101.931 5.43197 -0.137453
  2114 101.934 5.43129 0.137341
  2115 147.896 5.16117 -8.81602
  2116 66.0918 10.2483 7.01139
  2117 66.1081 10.2455 -7.00327
  2118 179.109 -8.72589 9.53027
  2119 179.062 -8.66867 -9.51705
  2120 133.680 12.6410 6.39902
  2121 120.532 -3.22612 5.35191
  2122 120.536 -3.23264 -5.35384
  2123 132.344 -0.609016 0.528657
  2124 132.345 -0.608071 -0.525643
  2125 134.204 -0.162121 0.528349
  2126 134.208 -0.161930 -0.526546
  2127 108.958 4.51499 22.1172
  2128 108.950 4.51988 -22.1154
  2129 14.5275 -60.9375 -6.14159
  2130 14.6131 -59.9077 6.24247
  2131 69.1041 11.3064 -3.51366
  2132 69.0872 11.3109 3.51663
  2133 126.453 -0.465066 -2.07343
  2134 126.451 -0.463424 2.07398
  2135 104.676 6.41982 15.2518
  2136 104.673 6.42050 -15.2489
  2137 137.663 9.36226 10.3617
  2138 177.792 3.48797 19.8725
  2139 101.501 3.34572 23.9445
  2140 101.490 3.35258 -23.9418
  2141 105.121 0.683676 3.76715
  2142 105.117 0.683559 -3.76598
  2143 144.027 0.385205 8.63481
  2144 144.018 0.385740 -8.63544
  2145 106.264 6.01814 16.4053
  2146 106.260 6.01928 -16.4026
  2147 155.803 0.192822 -9.19024
  2148 155.811 0.191960 9.18799
  2149 133.241 -21.5897 -17.4212
  2150 212.166 18.7190 5.59085
  2151 115.484 -18.2228 24.1577
  2152 119.309 2.32182 -5.74650
  2153 116.383 3.45676 -14.6379
  2154 116.389 3.45583 14.6396
  2155 73.9852 7.72655 -9.64567
  2156 74.0002 7.72319 9.63551
  2157 110.965 4.30305 14.3195
  2158 110.960 4.30365 -14.3172
  2159 156.841 13.0032 10.1617
  2160 194.533 8.06331 -17.1087
  2161 59.3999 6.55399 11.2961
  2162 59.4128 6.55575 -11.2795
  2163 83.9349 -20.4914 34.0296
  2164 88.3872 -20.5384 -33.6949
  2165 132.820 -11.6682 -28.6947
  2166 111.230 2.24062 9.02833
  2167 111.225 2.24057 -9.02647
  2168 145.087 0.208602 -3.74722
  2169 145.098 0.208486 3.74714
  2170 107.311 0.423763 -1.60730
  2171 127.351 -1.17765 -6.28344
  2172 127.346 -1.17307 6.28956
  2173 85.7333 11.3234 9.34686
  2174 85.7389 11.3224 -9.34424
  2175 129.570 -4.96685 -0.634051
  2176 129.575 -4.97130 0.639639
  2177 137.709 0.543841 -8.05604
  2178 137.719 0.543488 8.05602
  2179 101.312 5.97062 -10.1972
  2180 101.313 5.97110 10.1996
  2181 68.9896 -1.91284 21.9516
  2182 68.9809 -1.91851 -21.9734
  2183 203.823 -0.254377 -9.39683
  2184 90.2193 10.2559 -5.62584
  2185 90.2146 10.2568 5.62686
  2186 124.456 7.73754 -0.0301851
  2187 269.773 23.0551 -1.43763
  2188 194.179 36.8146 1.21573
  2189 120.854 -0.692016 3.71831
  2190 120.856 -0.695056 -3.71918
  2191 149.329 -16.3693 -5.28739
  2192 227.506 18.7781 6.18470
  2193 203.699 -0.283083 9.85426
  2194 164.389 19.9889 -9.03235
  2195 130.643 -0.00496773 -1.05244
  2196 130.641 -0.00467666 1.05262
  2197 137.972 -10.6485 -3.32616
  2198 137.965 -10.6518 3.34343
  2199 107.700 5.26955 14.3719
  2200 107.696 5.27005 -14.3693
  2201 135.758 -10.3689 -1.80056
  2202 135.763 -10.3679 1.81252
  2203 113.230 -24.1922 -31.5340
  2204 107.459 1.43781 6.00128
  2205 107.454 1.43763 -5.99970
  2206 138.265 -4.29328 -9.53210
  2207 138.259 -4.27633 9.58066
  2208 160.935 -0.0457212 9.89749
  2209 101.914 5.06396 3.65307
  2210 101.910 5.06356 -3.65456
  2211 105.851 6.06040 20.0804
  2212 105.846 6.06344 -20.0776
  2213 143.405 -1.17599 -18.1653
  2214 143.417 -1.18062 18.1602
  2215 114.556 -11.9429 25.0160
  2216 114.549 -11.9475 -25.0136
  2217 94.3350 8.32072 0.0317213
  2218 94.3301 8.32093 -0.0321246
  2219 105.069 0.185581 2.22337
  2220 105.064 0.185555 -2.22265
  2221 140.033 -2.19803 -10.5719
  2222 139.694 -2.25900 10.6190
  2223 168.551 0.149917 -3.76667
  2224 168.559 0.149672 3.76544
  2225 125.808 -1.17973 -2.25943
  2226 125.806 -1.17699 2.26045
  2227 209.588 36.9363 2.27729
  2228 150.224 0.417117 8.29980
  2229 150.214 0.417665 -8.30100
  2230 97.6985 6.93093 21.2720
  2231 97.6932 6.93536 -21.2677
  2232 176.419 -1.22687 -7.54348
  2233 176.420 -1.22887 7.53503
  2234 147.825 -5.27861 -16.7635
  2235 147.842 -5.28468 16.7573
  2236 107.557 -20.6307 -23.2016
  2237 107.510 -20.6089 23.1885
  2238 63.0893 -12.1623 28.9849
  2239 63.0541 -12.1138 -28.9969
  2240 131.350 -4.63912 -4.40029
  2241 131.353 -4.64211 4.40665
  2242 168.948 -1.23963 16.7159
  2243 108.613 0.655032 -3.14661
  2244 106.709 0.672700 3.92134
  2245 106.705 0.672600 -3.92021
  2246 231.673 9.46282 7.32894
  2247 134.657 0.0318511 3.10005
  2248 134.646 0.0319205 -3.09985
  2249 130.424 -2.62376 -4.72684
  2250 130.424 -2.62609 4.73415
  2251 125.508 -3.06590 2.48426
  2252 125.512 -3.07101 -2.48249
  2253 158.092 -0.185579 -12.4124
  2254 158.100 -0.187861 12.4073
  2255 102.824 -6.19728 26.3654
  2256 102.808 -6.19303 -26.3678
  2257 58.4074 0.264966 17.4751
  2258 58.4035 0.276750 -17.4560
  2259 319.929 14.7204 22.9259
  2260 146.900 6.57106 -1.28563
  2261 102.157 3.61284 -6.63735
  2262 102.158 3.61340 6.63931
  2263 232.788 21.2807 -3.00925
  2264 99.5730 6.28933 -1.06116
  2265 99.5770 6.28902 1.06067
  2266 128.651 -15.5826 12.0741
  2267 185.432 -3.56320 6.25346
  2268 185.407 -3.54119 -6.23594
  2269 169.105 -1.20569 -17.1829
  2270 133.889 1.15260 -18.2930
  2271 133.899 1.14947 18.2909
  2272 143.163 -8.34231 -6.85697
  2273 143.048 -8.60886 6.63561
  2274 107.799 2.30430 7.98826
  2275 107.795 2.30410 -7.98635
  2276 161.688 -2.23186 -12.6186
  2277 161.697 -2.23563 12.6100
  2278 176.355 8.03601 10.5928
  2279 191.764 27.0274 1.83694
  2280 87.0596 7.62119 7.54571
  2281 87.0528 7.61876 -7.55074
  2282 163.331 -1.13252 -2.38682
  2283 114.524 0.0526277 -2.72334
  2284 117.684 -23.8601 -28.9237
  2285 177.215 27.3152 4.28117
  2286 125.451 0.646666 6.52928
  2287 125.442 0.646779 -6.52848
  2288 187.975 -1.28426 -5.66131
  2289 187.972 -1.30102 5.69520
  2290 131.130 -2.21483 9.27730
  2291 131.123 -2.23291 -9.26501
  2292 120.111 0.00512599 -2.60048
  2293 120.083 0.0144215 2.58615
  2294 116.454 1.92157 10.0599
  2295 116.448 1.92176 -10.0583
  2296 65.0056 8.66574 -5.36446
  2297 65.0298 8.65752 5.36051
  2298 130.714 -4.18814 -2.95585
  2299 130.718 -4.19146 2.96215
  2300 91.3978 10.2080 12.3772
  2301 91.4003 10.2077 -12.3740
  2302 54.0515 5.97795 5.49812
  2303 54.0761 5.97561 -5.48219
  2304 105.901 0.0752844 0.906077
  2305 105.895 0.0752704 -0.905790
  2306 134.559 -20.8107 15.1857
  2307 131.180 1.04777 20.2441
  2308 131.169 1.05187 -20.2465
  2309 145.120 4.49470 10.6811
  2310 94.2555 8.79654 5.72401
  2311 94.2589 8.79572 -5.72270
  2312 119.258 0.311322 4.27903
  2313 119.250 0.311338 -4.27824
  2314 112.772 -0.158528 6.56379
  2315 112.770 -0.162089 -6.56741
  2316 132.306 -7.12719 2.75263
  2317 132.301 -7.12458 -2.74554
  2318 110.132 1.15613 6.13691
  2319 110.126 1.15603 -6.13544
  2320 125.395 5.20730 -6.93239
  2321 123.838 1.82183 -8.04572
  2322 158.866 5.82326 -13.1795
  2323 118.121 0.550397 3.63478
  2324 118.121 0.548668 -3.63614
  2325 180.294 11.0354 11.2880
  2326 92.5727 9.85052 11.0164
  2327 92.5752 9.84995 -11.0138
  2328 152.167 17.7573 10.1520
  2329 119.389 -1.36726 4.72296
  2330 119.391 -1.37157 -4.72466
  2331 117.608 0.00676970 4.30109
  2332 117.608 0.00410966 -4.30285
  2333 98.4354 7.96854 -12.7719
  2334 98.4355 7.96872 12.7748
  2335 106.605 6.07135 18.6732
  2336 106.601 6.07347 -18.6705
  2337 78.9359 1.78012 -23.0868
  2338 78.9467 1.76980 23.0954
  2339 199.110 9.11103 15.9550
  2340 216.627 26.2211 -44.6561
  2341 173.180 -3.93019 16.3683
  2342 148.010 1.76355 -13.6551
  2343 98.4709 2.72171 -10.6803
  2344 98.4772 2.72658 10.6768
  2345 134.698 -0.134318 -0.0899360
  2346 134.697 -0.134146 0.0907693
  2347 121.743 1.37049 -6.35909
  2348 115.270 0.102439 1.42128
  2349 115.262 0.102430 -1.42096
  2350 105.438 1.02410 9.18588
  2351 105.432 1.02041 -9.18986
  2352 135.561 1.18645 -13.7266
  2353 135.570 1.18513 13.7259
  2354 137.587 0.942399 -11.3194
  2355 129.830 -2.32333 -5.71590
  2356 129.830 -2.32422 5.72375
  2357 103.531 1.28010 -4.45272
  2358 103.533 1.28035 4.45417
  2359 300.972 17.3397 42.6360
  2360 98.9152 6.32982 3.91872
  2361 98.9174 6.32892 -3.91754
  2362 128.872 -1.99597 -0.559273
  2363 128.869 -1.99302 0.562691
  2364 79.8596 6.94962 10.9279
  2365 79.8498 6.94918 -10.9383
  2366 112.380 3.29854 12.0733
  2367 112.375 3.29880 -12.0713
  2368 216.245 16.3252 47.2301
  2369 31.4459 -29.9926 20.0066
  2370 31.5233 -30.2178 -19.9058
  2371 124.469 1.80376 11.4645
  2372 124.461 1.80429 -11.4635
  2373 100.600 4.69555 -5.09619
  2374 100.599 4.69637 5.09783
  2375 127.798 -6.42916 -2.05334
  2376 127.790 -6.42219 2.05741
  2377 86.8268 10.6250 1.90453
  2378 86.8334 10.6242 -1.90510
  2379 121.585 1.62968 -10.0846
  2380 121.592 1.62937 10.0858
  2381 192.678 17.3642 -45.7241
  2382 147.077 -13.7891 -0.665453
  2383 147.264 -12.7056 1.77649
  2384 129.951 0.873218 8.04124
  2385 177.409 -2.26042 -6.56192
  2386 177.409 -2.26193 6.55080
  2387 139.592 -12.7573 0.855660
  2388 139.562 -12.7223 -0.882124
  2389 116.701 -3.63627 -7.91262
  2390 116.700 -3.62896 7.90764
  2391 146.398 -8.52159 25.4549
  2392 147.914 -5.12577 -8.45339
  2393 99.3526 5.93832 6.51718
  2394 99.3535 5.93752 -6.51534
  2395 162.098 -5.03295 -11.5404
  2396 162.112 -5.03726 11.5291
  2397 123.855 2.92074 -18.1979
  2398 123.863 2.91817 18.1980
  2399 107.876 2.97763 9.21555
  2400 107.873 2.97745 -9.21348
  2401 168.930 -0.0517603 -7.73037
  2402 145.020 12.8773 -10.8456
  2403 129.234 1.45310 -9.93581
  2404 20.0455 -63.8037 -8.00931
  2405 20.8003 -61.4430 8.94844
  2406 131.450 4.77315 -9.85121
  2407 196.430 -0.384195 -2.04825
  2408 196.414 -0.384321 2.04328
  2409 110.759 -0.812332 -8.62099
  2410 110.762 -0.807862 8.61614
  2411 158.914 -1.06142 12.9664
  2412 158.906 -1.05833 -12.9729
  2413 107.588 3.47576 3.24395
  2414 107.586 3.47554 -3.24546
  2415 106.256 2.10617 -6.92626
  2416 106.259 2.10642 6.92807
  2417 101.110 4.06035 5.57240
  2418 101.110 4.05963 -5.57062
  2419 181.575 12.5233 -7.25455
  2420 113.892 2.03963 1.42917
  2421 154.930 29.8449 -0.837604
  2422 98.8872 6.55676 8.22164
  2423 98.8880 6.55605 -8.21955
  2424 277.493 19.3643 -9.11085
  2425 200.464 -0.600918 -0.0119675
  2426 200.434 -0.599256 0.00932375
  2427 151.211 5.55908 11.1531
  2428 185.893 -0.396732 -3.94180
  2429 185.891 -0.397207 3.93792
  2430 143.924 0.650825 -15.3197
  2431 143.933 0.648422 15.3168
  2432 56.8839 -1.95652 -19.3759
  2433 56.9174 -1.96284 19.3485
  2434 111.613 0.560156 -4.35298
  2435 111.619 0.560200 4.35403
  2436 155.931 0.779545 -15.7187
  2437 90.3502 10.5275 8.96873
  2438 90.3541 10.5266 -8.96661
  2439 183.708 -3.00328 -9.71360
  2440 183.699 -3.00614 9.77420
  2441 191.936 38.4217 -0.521549
  2442 128.640 0.180865 -2.43743
  2443 128.650 0.180857 2.43773
  2444 248.701 23.2658 0.577403
  2445 102.128 2.84933 5.53643
  2446 102.127 2.84881 -5.53465
  2447 129.829 -0.216311 -1.81187
  2448 129.815 -0.216680 1.81587
  2449 104.218 3.51978 8.18136
  2450 104.216 3.51938 -8.17925
  2451 124.027 1.81411 8.19181
  2452 110.132 0.0142860 -0.919833
  2453 110.139 0.0142910 0.920082
  2454 115.411 -0.0549260 5.26514
  2455 115.411 -0.0580732 -5.26775
  2456 147.583 -4.92302 8.58067
  2457 118.832 0.0623704 -1.58348
  2458 118.841 0.0623620 1.58379
  2459 105.189 0.510692 0.0875709
  2460 158.967 0.737363 16.6893
  2461 124.130 0.322082 -7.97903
  2462 124.211 0.343996 8.02956
  2463 131.895 -8.20132 -0.846139
  2464 131.903 -8.20478 0.854931
  2465 105.721 -0.214841 10.7509
  2466 105.715 -0.220015 -10.7554
  2467 77.2650 11.7114 1.81840
  2468 77.2766 11.7086 -1.81902
  2469 103.604 0.461762 -2.88152
  2470 103.608 0.461861 2.88250
  2471 83.0294 7.01540 20.8481
  2472 83.0256 7.02140 -20.8397
  2473 202.075 4.47663 -17.5113
  2474 130.275 11.9701 -2.46066
  2475 168.029 -15.6596 -1.13920
  2476 168.005 -15.7226 1.08690
  2477 100.024 5.78209 2.75236
  2478 100.027 5.78117 -2.75147
  2479 129.308 1.39107 10.0062
  2480 275.604 25.0689 -8.06512
  2481 98.4671 8.15211 16.3224
  2482 98.4658 8.15314 -16.3188
  2483 123.432 5.96175 -4.57155
  2484 109.096 2.71538 28.2030
  2485 125.100 -1.81423 22.9284
  2486 125.086 -1.80843 -22.9310
  2487 208.515 6.53509 16.7985
  2488 96.2717 7.87974 -28.7288
  2489 132.484 2.51178 10.6344
  2490 135.827 -6.86270 6.90348
  2491 135.833 -6.85912 -6.89904
  2492 126.057 5.98629 6.70861
  2493 174.218 -9.84034 2.88384
  2494 174.209 -9.80245 -2.89963
  2495 152.000 -19.3455 -8.56753
  2496 152.132 -19.3510 8.55440
  2497 137.143 -4.10297 -20.2758
  2498 137.159 -4.10876 20.2716
  2499 96.5100 7.55114 0.278456
  2500 96.5056 7.55139 -0.278791
  2501 58.7783 8.37710 2.25967
  2502 58.8037 8.37125 -2.25138
  2503 120.551 1.16717 -8.06156
  2504 120.559 1.16703 8.06274
  2505 141.444 -21.4667 15.8676
  2506 351.849 9.99186 -21.8018
  2507 110.075 -0.570278 24.8788
  2508 110.061 -0.563650 -24.8790
  2509 211.108 11.3992 -12.9203
  2510 130.372 -0.971630 -0.411917
  2511 130.371 -0.969976 0.414601
  2512 152.129 -3.10050 -15.6962
  2513 152.142 -3.10566 15.6888
  2514 91.1889 10.0363 15.2667
  2515 91.1902 10.0370 -15.2625
  2516 111.736 -20.3093 28.1344
  2517 130.187 1.08656 10.1870
  2518 130.178 1.08709 -10.1865
  2519 118.608 -7.80709 -10.7579
  2520 118.600 -7.79334 10.7496
  2521 278.364 19.9079 6.86074
  2522 75.4618 6.97604 18.9742
  2523 75.4615 6.98169 -18.9633
  2524 122.512 -17.8633 19.6725
  2525 103.864 0.0227710 0.691887
  2526 103.859 0.0227677 -0.691651
  2527 173.908 -0.734161 -20.0776
  2528 102.132 4.07123 -7.34793
  2529 102.134 4.07179 7.34997
  2530 97.3479 7.86903 9.79772
  2531 97.3490 7.86839 -9.79537
  2532 140.374 0.0591213 2.84820
  2533 140.363 0.0591772 -2.84813
  2534 114.964 -0.486909 5.96080
  2535 114.964 -0.490649 -5.96396
  2536 158.307 7.70422 -6.27742
  2537 198.034 -0.431393 -1.42957
  2538 198.013 -0.431190 1.42467
  2539 135.604 -3.59297 -9.73301
  2540 135.620 -3.60476 9.73323
  2541 121.783 0.521815 5.43036
  2542 121.775 0.521846 -5.42950
  2543 104.677 4.40710 10.1911
  2544 104.675 4.40682 -10.1887
  2545 185.251 16.5523 -6.40745
  2546 124.603 -5.05849 3.88107
  2547 124.610 -5.06608 -3.88007
  2548 140.935 -21.3453 -19.9257
  2549 148.980 4.35035 -11.3741
  2550 146.848 -18.9823 15.9624
  2551 134.682 -12.3070 1.54283
  2552 134.681 -12.2822 -1.52083
  2553 173.799 -2.32099 -16.6204
  2554 115.332 1.17095 3.87363
  2555 115.331 1.16953 -3.87536
  2556 121.041 0.00204273 -5.88351
  2557 120.971 0.0887739 5.86632
  2558 53.7053 -20.7562 21.1177
  2559 53.6666 -20.7473 -21.1177
  2560 173.668 35.9177 -1.43801
  2561 133.953 -1.46175 -10.5006
  2562 133.961 -1.48196 10.4675
  2563 19.2058 -37.8284 -5.51236
  2564 19.2688 -37.7801 5.84829
  2565 104.323 4.68091 1.89832
  2566 104.320 4.68124 -1.89916
  2567 109.195 0.803515 4.71730
  2568 109.189 0.803412 -4.71607
  2569 173.954 -2.27915 16.4208
  2570 97.3345 8.27158 17.6836
  2571 97.3326 8.27335 -17.6797
  2572 151.786 -15.2836 3.46889
  2573 85.0427 11.1659 13.0813
  2574 85.0469 11.1658 -13.0769
  2575 119.852 3.20416 4.65804
  2576 112.375 0.975408 4.32842
  2577 137.526 -16.5899 6.08859
  2578 138.328 -16.1929 -4.96256
  2579 107.808 0.0408501 0.934347
  2580 107.801 0.0408487 -0.934068
  2581 143.487 -17.3291 5.38488
  2582 94.9384 8.25726 3.28814
  2583 94.9422 8.25657 -3.28746
  2584 105.819 4.86378 11.8431
  2585 105.816 4.86372 -11.8407
  2586 180.109 9.89328 -13.9330
  2587 121.919 -5.45755 23.7405
  2588 121.904 -5.45318 -23.7418
  2589 100.594 -0.177178 -25.5248
  2590 100.608 -0.184767 25.5260
  2591 193.704 -0.741008 -3.47959
  2592 193.716 -0.746827 3.49600
  2593 144.498 24.1921 0.168171
  2594 105.133 5.53914 13.0312
  2595 105.130 5.53924 -13.0286
  2596 126.644 -5.06238 2.43994
  2597 126.651 -5.06890 -2.43699
  2598 115.877 -2.24140 7.22933
  2599 115.878 -2.24712 -7.23363
  2600 295.897 21.3100 2.08172
  2601 50.4198 -6.60796 17.0340
  2602 50.4089 -6.58870 -17.0107
  2603 123.765 -0.482160 -2.80311
  2604 123.763 -0.479965 2.80307
  2605 114.536 0.00364475 2.70107
  2606 298.312 16.7676 -44.3043
  2607 134.627 -8.68734 -3.42725
  2608 134.628 -8.68854 3.43736
  2609 182.909 -4.94024 -8.96280
  2610 182.940 -4.96537 8.99252
  2611 161.327 0.0705616 3.11330
  2612 161.317 0.0706361 -3.11398
  2613 168.469 -0.388820 8.19952
  2614 124.601 6.47180 4.66926
  2615 118.271 0.766421 5.70167
  2616 141.937 5.52043 -11.6973
  2617 84.1301 10.4785 15.8014
  2618 84.1328 10.4798 -15.7954
  2619 101.674 3.79467 6.35356
  2620 101.673 3.79406 -6.35165
  2621 154.152 -0.0838316 -3.22809
  2622 154.163 -0.0839040 3.22770
  2623 97.5555 7.13616 6.08500
  2624 97.5575 7.13531 -6.08338
  2625 154.298 26.9401 -5.14991
  2626 182.607 -0.628852 -6.22567
  2627 182.595 -0.656313 6.27954
  2628 180.661 -3.35411 12.4201
  2629 180.674 -3.33771 -12.3619
  2630 122.261 0.0468855 2.90459
  2631 122.262 0.0453253 -2.90518
  2632 177.468 -4.14281 -4.30741
  2633 177.469 -4.13996 4.29432
  2634 260.317 20.9706 -0.176363
  2635 49.3445 -26.4437 -5.94314
  2636 48.6462 -26.9759 5.82551
  2637 189.005 -6.51637 -15.2991
  2638 189.166 -6.31616 15.3091
  2639 103.967 1.37652 -4.75584
  2640 103.970 1.37676 4.75733
  2641 106.929 3.23141 4.63378
  2642 106.925 3.23052 -4.63593
  2643 172.207 -16.1927 3.39405
  2644 172.154 -16.0824 -3.43994
  2645 180.170 27.4764 50.7611
  2646 139.144 -9.37596 21.7376
  2647 141.977 16.9253 8.26678
  2648 114.687 4.40335 -16.6785
  2649 114.693 4.40184 16.6804
  2650 250.145 25.4312 31.7780
  2651 68.5907 10.6092 -1.28017
  2652 68.6100 10.6032 1.27894
  2653 120.175 5.17321 -0.834486
  2654 109.357 -1.96007 10.7309
  2655 109.352 -1.96629 -10.7360
  2656 175.950 0.0445621 -3.88389
  2657 175.954 0.0442917 3.88192
  2658 73.0453 9.24427 -15.1794
  2659 73.0398 9.24194 15.1897
  2660 91.2333 9.84115 4.64088
  2661 91.2379 9.84036 -4.64009
  2662 128.586 -3.99885 0.313061
  2663 128.591 -4.00348 -0.308507
  2664 134.535 0.589255 -11.0664
  2665 131.331 1.62658 14.1141
  2666 131.322 1.62788 -14.1142
  2667 184.338 -11.4968 6.97486
  2668 184.590 -11.2048 -6.89389
  2669 190.875 -0.218288 -2.91241
  2670 190.868 -0.218595 2.90844
  2671 133.061 -20.5688 -17.3792
  2672 133.115 -20.5774 17.4385
  2673 187.338 -2.91320 1.44072
  2674 187.321 -2.90240 -1.44238
  2675 106.977 1.17258 5.39717
  2676 106.973 1.17244 -5.39569
  2677 154.392 -14.7583 -10.7941
  2678 129.532 -0.774505 3.31425
  2679 129.540 -0.773380 -3.30795
  2680 91.3062 10.0610 -7.62741
  2681 91.3024 10.0618 7.62911
  2682 125.592 -1.78489 2.36110
  2683 125.595 -1.78850 -2.35980
  2684 103.665 2.99742 -7.03557
  2685 103.667 2.99785 7.03754
  2686 87.9063 9.29089 -2.66094
  2687 87.9131 9.29143 2.65864
  2688 104.964 0.425432 -0.916308
  2689 175.577 -12.0531 7.54034
  2690 175.539 -11.9861 -7.55442
  2691 120.935 -4.44039 5.99189
  2692 120.940 -4.44837 -5.99442
  2693 214.846 5.03185 3.04518
  2694 131.197 13.5765 1.01951
  2695 124.067 -12.1168 11.0043
  2696 124.196 -12.0153 -10.9979
  2697 98.7770 6.63262 2.25693
  2698 98.7801 6.63180 -2.25627
  2699 136.345 -10.1712 -19.2551
  2700 136.369 -10.1762 19.2572
  2701 164.410 2.48640 -23.9503
  2702 94.9888 8.76391 9.39891
  2703 94.9909 8.76321 -9.39669
  2704 98.7755 7.32139 10.9790
  2705 98.7757 7.32094 -10.9764
  2706 129.132 1.51672 12.2253
  2707 129.123 1.51754 -12.2248
  2708 126.839 2.40844 -9.13463
  2709 122.779 -17.7827 -18.9218
  2710 151.980 1.88949 15.0232
  2711 116.380 4.08080 18.3729
  2712 116.373 4.08314 -18.3716
  2713 223.200 16.2020 -8.21969
  2714 163.703 -18.9813 -1.83756
  2715 163.814 -18.9137 1.71287
  2716 100.112 5.37240 4.05003
  2717 100.114 5.37149 -4.04871
  2718 141.874 4.64610 11.8062
  2719 245.611 27.6309 -33.5625
  2720 118.894 0.576694 -5.94627
  2721 130.274 -4.09495 -1.81955
  2722 130.278 -4.09861 1.82539
  2723 172.635 -0.435828 -7.22291
  2724 172.639 -0.436781 7.21832
  2725 108.045 1.85820 7.16663
  2726 108.040 1.85804 -7.16485
  2727 117.524 3.54586 1.76270
  2728 97.1424 7.26393 4.07683
  2729 97.1453 7.26309 -4.07574
  2730 164.126 32.1544 3.68435
  2731 131.094 -0.475105 -0.743867
  2732 131.093 -0.474186 0.745398
  2733 105.846 0.735584 4.13217
  2734 105.842 0.735468 -4.13094
  2735 33.5876 -44.6563 0.0455519
  2736 33.6433 -44.6863 -0.0995932
  2737 82.3440 11.6082 4.27717
  2738 82.3523 11.6067 -4.27675
  2739 114.637 1.13985 6.99654
  2740 114.631 1.13984 -6.99514
  2741 136.208 8.56953 -10.3891
  2742 122.831 -15.4255 16.2864
  2743 145.666 8.15702 11.3903
  2744 152.409 -10.1461 -12.9414
  2745 152.441 -10.1524 12.9331
  2746 163.486 -2.03300 2.64911
  2747 128.486 0.833807 8.19182
  2748 128.477 0.834078 -8.19114
  2749 139.822 -13.7606 -18.4355
  2750 120.889 2.89325 -14.1516
  2751 120.897 2.89232 14.1528
  2752 133.567 -23.9963 -15.2220
  2753 133.911 -24.0119 15.4461
  2754 163.400 -12.9894 -4.67846
  2755 163.435 -12.9729 4.65162
  2756 176.655 -0.471614 -7.12240
  2757 176.656 -0.473035 7.11587
  2758 92.6325 5.46975 9.05649
  2759 92.6267 5.46593 -9.06038
  2760 122.520 0.0724451 1.68700
  2761 122.510 0.0724554 -1.68671
  2762 130.606 -2.85178 -2.94186
  2763 130.608 -2.85469 2.94824
  2764 132.783 -18.2948 -12.3389
  2765 90.0456 9.28762 0.951101
  2766 90.0396 9.28749 -0.952381
  2767 112.863 0.326400 3.48111
  2768 112.856 0.326369 -3.48028
  2769 192.045 -2.01792 8.49789
  2770 101.140 -2.81970 16.3591
  2771 101.130 -2.83230 -16.3604
  2772 134.320 0.353331 -6.01671
  2773 134.330 0.353157 6.01700
  2774 135.858 16.8539 1.70274
  2775 175.659 -8.33103 -11.6801
  2776 121.130 -6.48534 -7.65384
  2777 121.123 -6.47521 7.64945
  2778 180.132 -7.68378 -13.6673
  2779 180.204 -7.70219 13.6875
  2780 116.818 0.319347 3.97948
  2781 116.810 0.319355 -3.97867
  2782 97.8431 6.99737 5.16320
  2783 97.8453 6.99651 -5.16177
  2784 142.965 -18.3559 -6.20072
  2785 140.349 13.9618 -9.17300
  2786 205.933 4.78465 -13.9723
  2787 100.550 4.73617 -6.10969
  2788 100.550 4.73692 6.11153
  2789 193.464 27.4050 -2.83813
  2790 130.028 -21.3433 -27.7151
  2791 173.066 -0.0287643 -3.59050
  2792 173.073 -0.0289760 3.58905
  2793 164.115 8.80450 10.1065
  2794 102.934 5.15285 -1.00302
  2795 102.937 5.15231 1.00257
  2796 95.9051 8.00493 -4.50787
  2797 95.9019 8.00574 4.50899
  2798 105.228 1.29216 -5.07791
  2799 105.232 1.29236 5.07940
  2800 80.9735 -24.3769 -34.2025
  2801 183.197 -0.376455 -3.40589
  2802 183.197 -0.376779 3.40320
  2803 192.677 15.4522 5.24773
  2804 106.509 2.70675 8.20788
  2805 106.506 2.70650 -8.20585
  2806 128.101 -0.107608 1.82116
  2807 128.119 -0.107412 -1.81722
  2808 79.1176 -24.2349 34.2910
  2809 133.531 -13.7474 19.1854
  2810 133.504 -13.7447 -19.1749
  2811 120.769 2.76174 -20.8208
  2812 120.778 2.75780 20.8206
  2813 139.761 12.4749 9.80345
  2814 155.639 -13.1687 -3.95773
  2815 87.7239 11.1814 -8.07334
  2816 87.7187 11.1825 8.07524
  2817 131.412 -1.12696 -1.20300
  2818 131.411 -1.12856 1.20742
  2819 107.395 4.97427 13.5027
  2820 107.391 4.97453 -13.5002
  2821 93.0123 7.52197 4.43735
  2822 93.0065 7.52070 -4.43945
  2823 76.4316 11.4271 10.8395
  2824 76.4404 11.4263 -10.8336
  2825 155.131 14.7555 -39.7093
  2826 100.264 7.08914 20.2645
  2827 100.259 7.09260 -20.2608
  2828 156.656 0.0258732 -10.7233
  2829 156.664 0.0246103 10.7201
  2830 101.987 6.90346 14.4306
  2831 101.986 6.90382 -14.4277
  2832 111.441 0.180395 2.32034
  2833 96.1076 8.02021 -8.03481
  2834 96.1056 8.02096 8.03676
  2835 108.068 -4.10548 -13.7271
  2836 108.074 -4.09551 13.7201
  2837 112.509 1.20421 -3.01486
  2838 133.073 -4.83843 -7.33525
  2839 133.081 -4.84018 7.34179
  2840 111.725 1.28681 5.23728
  2841 111.723 1.28477 -5.23996
  2842 103.233 4.51908 9.31472
  2843 103.231 4.51866 -9.31242
  2844 99.8470 3.33595 9.07882
  2845 99.8410 3.33248 -9.08200
  2846 118.025 3.67948 -20.1509
  2847 118.033 3.67606 20.1515
  2848 186.098 -2.83108 -0.555566
  2849 186.085 -2.82433 0.548494
  2850 101.156 5.70293 1.45784
  2851 101.152 5.70324 -1.45847
  2852 130.437 -12.6438 -6.04661
  2853 130.495 -12.5662 5.91269
  2854 115.142 0.176152 -2.72854
  2855 115.150 0.176158 2.72914
  2856 96.7470 8.66622 14.0280
  2857 96.7471 8.66633 -14.0248
  2858 130.618 -18.9321 17.8774
  2859 129.228 -19.4769 -17.3845
  2860 134.925 -0.0935122 -0.00953067
  2861 134.924 -0.0936519 0.0104683
  2862 104.542 1.74429 -5.69840
  2863 104.545 1.74456 5.70008
  2864 160.474 -16.0657 -4.58707
  2865 160.537 -16.0502 4.55458
  2866 95.5570 1.81019 -13.4770
  2867 95.5620 1.81823 13.4726
  2868 109.423 0.288278 -2.94571
  2869 109.429 0.288316 2.94651
  2870 52.5974 3.97725 -7.84223
  2871 52.6409 3.96509 7.84167
  2872 177.006 -0.790934 20.7418
  2873 97.0314 7.03080 -1.98355
  2874 97.0362 7.03092 1.98265
  2875 108.779 1.90069 -6.03972
  2876 108.782 1.90267 6.03672
  2877 99.3911 5.74338 4.86791
  2878 99.3926 5.74250 -4.86643
  2879 108.062 -26.7049 -20.1509
  2880 108.319 -26.3542 19.4833
  2881 140.706 -7.95093 7.20369
  2882 140.632 -7.87219 -7.26524
  2883 75.1243 -5.79031 24.7622
  2884 75.1023 -5.77661 -24.7575
  2885 123.015 4.01304 6.66095
  2886 130.375 -1.88808 3.76783
  2887 130.377 -1.88586 -3.76091
  2888 119.439 -4.61799 7.16612
  2889 119.443 -4.62625 -7.17019
  2890 46.5739 2.01764 -3.57704
  2891 46.5394 2.02064 3.59834
  2892 81.6275 9.51927 17.6315
  2893 81.6289 9.52231 -17.6239
  2894 123.738 0.309577 4.16523
  2895 123.728 0.309599 -4.16460
  2896 131.533 6.75894 9.26650
  2897 172.704 -1.43560 -12.6951
  2898 86.0530 3.33289 -23.7107
  2899 86.0627 3.32411 23.7172
  2900 104.321 2.79814 -7.17123
  2901 104.324 2.79851 7.17319
  2902 174.507 -6.74970 -2.08823
  2903 174.510 -6.73658 2.07333
  2904 129.122 -0.0256988 -9.78060
  2905 116.715 0.981719 -5.17100
  2906 102.860 0.00709603 0.582977
  2907 102.856 0.00709736 -0.582777
  2908 191.314 -7.25097 4.28286
  2909 191.155 -7.15697 -4.02719
  2910 113.497 1.69999 3.85091
  2911 113.496 1.69891 -3.85270
  2912 103.970 1.72140 -5.32465
  2913 103.972 1.72169 5.32628
  2914 110.347 1.62315 7.27931
  2915 110.341 1.62305 -7.27765
  2916 135.157 -15.0643 -5.46366
  2917 134.966 -15.1286 5.57990
  2918 259.759 18.7622 -7.01779
  2919 159.146 4.11551 -16.1191
  2920 118.250 0.148875 -5.04290
  2921 262.208 15.9436 -22.4194
  2922 137.542 18.9450 -1.66587
  2923 224.158 21.2164 1.28639
  2924 162.674 -4.05883 17.7367
  2925 155.123 -4.54914 6.52513
  2926 111.075 0.169789 -2.19794
  2927 100.372 5.40380 7.59333
  2928 100.372 5.40309 -7.59125
  2929 162.276 -17.7379 -7.00304
  2930 163.285 -17.4459 6.35964
  2931 253.003 18.0504 52.6897
  2932 188.076 18.2911 26.1345
  2933 101.967 6.38852 -12.2234
  2934 101.968 6.38870 12.2261
  2935 213.109 26.5762 15.5442
  2936 150.640 -1.56368 -15.7939
  2937 150.651 -1.56805 15.7875
  2938 106.532 0.130236 -1.75990
  2939 106.537 0.130258 1.76042
  2940 121.092 -0.296763 3.40820
  2941 121.094 -0.299143 -3.40899
  2942 128.038 -2.68135 -0.926276
  2943 128.034 -2.67753 0.929681
  2944 110.864 5.08459 18.0343
  2945 110.858 5.08655 -18.0321
  2946 130.603 -3.09232 7.40823
  2947 130.599 -3.09432 -7.39888
  2948 124.162 -3.40792 3.44057
  2949 124.167 -3.41386 -3.43977
  2950 106.926 0.487309 1.54832
  2951 135.914 15.6561 4.87996
  2952 188.669 3.72918 19.9523
  2953 107.083 0.391830 -3.11283
  2954 107.088 0.391889 3.11375
  2955 127.582 4.17646 -8.79267
  2956 108.190 0.717810 4.43199
  2957 108.184 0.717723 -4.43079
  2958 124.786 -0.383104 -2.49443
  2959 124.784 -0.381296 2.49455
  2960 95.7236 7.32521 -2.54448
  2961 95.7288 7.32568 2.54332
  2962 354.407 10.7845 21.6389
  2963 140.151 0.852807 10.0295
  2964 140.141 0.853464 -10.0299
  2965 114.067 0.626036 -4.99691
  2966 114.074 0.626057 4.99799
  2967 129.146 -0.0519222 9.79842
  2968 109.521 3.42256 11.0299
  2969 109.517 3.42256 -11.0277
  2970 105.803 3.57995 9.45538
  2971 105.800 3.57969 -9.45315
  2972 114.775 -3.74254 -9.39249
  2973 114.775 -3.73507 9.38614
  2974 99.3060 5.81410 5.88743
  2975 99.3072 5.81327 -5.88572
  2976 163.444 33.5678 0.249400
  2977 58.3799 3.63092 -12.8572
  2978 58.4162 3.61827 12.8437
  2979 122.382 0.853426 -7.46795
  2980 96.4664 8.18131 19.0949
  2981 96.4638 8.18402 -19.0905
  2982 115.650 0.663306 4.38962
  2983 115.650 0.661191 -4.39162
  2984 160.042 14.2940 40.6416
  2985 113.216 3.51705 13.1391
  2986 113.211 3.51750 -13.1371
  2987 71.5146 -8.13730 -26.5044
  2988 167.595 3.60665 18.2880
  2989 107.278 -5.53436 16.0923
  2990 107.265 -5.54113 -16.1015
  2991 127.711 -0.835678 -4.42673
  2992 127.702 -0.835712 4.43353
  2993 132.007 2.10490 -10.5519
  2994 187.786 3.99874 -19.4833
  2995 109.900 5.00394 16.1007
  2996 109.895 5.00505 -16.0983
  2997 263.566 16.5852 15.2231
  2998 195.911 34.2619 1.07370
  2999 21.2360 -39.8895 -4.25383
  3000 21.3252 -40.0172 4.23469
  3001 132.694 -9.64940 -0.100274
  3002 132.704 -9.65255 0.112731
  3003 112.500 0.879106 -5.92491
  3004 112.506 0.879133 5.92625
  3005 209.355 14.1744 12.1083
  3006 70.6709 -0.948876 22.0113
  3007 70.6576 -0.935751 -21.9992
  3008 73.3496 11.7986 5.07848
  3009 73.3628 11.7954 -5.07572
  3010 125.174 7.95639 -2.86464
  3011 151.041 -0.00691450 -14.2549
  3012 151.050 -0.00945947 14.2505
  3013 90.4679 9.06383 18.1307
  3014 90.4670 9.06632 -18.1253
  3015 147.601 0.225698 10.9020
  3016 227.448 22.1680 -57.2535
  3017 123.282 2.06382 -12.9287
  3018 123.289 2.06306 12.9297
  3019 123.950 2.60493 15.5594
  3020 123.942 2.60641 -15.5587
  3021 119.717 0.575301 5.66325
  3022 119.709 0.575340 -5.66228
  3023 127.670 -1.60680 1.47932
  3024 127.672 -1.60966 -1.47715
  3025 95.9712 7.86912 -2.24507
  3026 95.9673 7.86977 2.24553
  3027 239.937 13.5789 -20.1494
  3028 104.504 0.282443 2.42646
  3029 104.499 0.282397 -2.42568
  3030 132.274 -0.209547 -0.670576
  3031 132.273 -0.209097 0.671599
  3032 114.043 0.0930822 1.12977
  3033 114.035 0.0930666 -1.12949
  3034 70.9635 3.12750 16.6851
  3035 70.9473 3.13288 -16.7021
  3036 131.525 -1.18387 -10.1160
  3037 131.569 -1.18368 10.1179
  3038 137.699 0.156950 11.2398
  3039 137.889 0.163839 -2.09076
  3040 137.901 0.163820 2.09084
  3041 180.992 -9.93057 -13.6030
  3042 181.051 -9.93867 13.6430
  3043 103.049 4.97842 10.0252
  3044 103.047 4.97802 -10.0228
  3045 103.756 -0.421567 -12.1920
  3046 103.763 -0.415328 12.1873
  3047 117.361 -0.424904 4.86440
  3048 117.362 -0.428272 -4.86653
  3049 209.861 34.9001 -3.81676
  3050 124.285 -0.927311 -2.74042
  3051 124.283 -0.924590 2.74074
  3052 112.392 4.44844 15.1786
  3053 112.387 4.44931 -15.1764
  3054 227.079 16.0428 7.62367
  3055 64.1018 5.56065 -11.7958
  3056 64.1287 5.55283 11.7841
  3057 95.4555 6.90959 -4.10279
  3058 95.4609 6.91060 4.10109
  3059 136.283 -13.8062 2.32381
  3060 136.210 -13.8151 -2.36439
  3061 104.412 0.820248 -3.92517
  3062 104.415 0.820394 3.92641
  3063 64.7333 8.74932 11.5305
  3064 64.7451 8.75009 -11.5180
  3065 130.777 -1.91194 2.61427
  3066 130.778 -1.90959 -2.60818
  3067 164.177 9.42206 3.74168
  3068 98.8599 -22.1723 32.4348
  3069 122.568 -9.11293 -9.13841
  3070 122.567 -9.09479 9.14640
  3071 125.218 -20.6037 -20.6104
  3072 111.071 0.928069 6.03711
  3073 111.069 0.925497 -6.04026
  3074 130.420 -6.02121 -1.32006
  3075 130.426 -6.02527 1.32636
  3076 53.8940 -8.60993 -24.5821
  3077 53.9190 -8.61639 24.5660
  3078 150.633 0.0917820 8.13575
  3079 109.046 1.62537 0.0942536
  3080 94.1074 7.74992 -1.66625
  3081 94.1127 7.75020 1.66526
  3082 75.5398 -12.7426 -25.6852
  3083 75.5721 -12.7549 25.6818
  3084 120.379 4.30030 -3.77976
  3085 130.291 23.9973 -49.4148
  3086 118.308 -24.1903 29.1280
  3087 200.861 -0.466119 -0.705806
  3088 200.894 -0.468070 0.705403
  3089 118.224 0.168623 5.00074
  3090 103.634 4.80007 -2.47256
  3091 103.637 4.79996 2.47149
  3092 143.096 -0.658885 17.9259
  3093 143.085 -0.654833 -17.9306
  3094 142.218 0.884846 -13.4125
  3095 142.227 0.883279 13.4108
  3096 143.694 0.00461778 -2.33671
  3097 143.706 0.00457577 2.33673
  3098 133.194 -0.0227273 -0.376770
  3099 133.192 -0.0226853 0.376813
  3100 13.0801 -86.3891 6.67449
  3101 13.3181 -86.3403 -7.04285
  3102 108.859 -0.0121265 -1.03516
  3103 108.866 -0.0121343 1.03546
  3104 132.488 -6.05407 21.2765
  3105 132.471 -6.04854 -21.2789
  3106 143.694 0.699905 11.2020
  3107 130.518 4.50472 9.78801
  3108 101.782 3.27875 5.57800
  3109 101.781 3.27816 -5.57621
  3110 214.018 19.2024 -0.549334
  3111 98.6789 6.46060 6.81042
  3112 98.6801 6.45981 -6.80856
  3113 38.7189 -12.5880 -11.8164
  3114 38.7251 -12.6121 11.8522
  3115 125.813 -0.0616524 -2.12855
  3116 125.812 -0.0605827 2.12853
  3117 117.975 2.69229 13.0246
  3118 117.968 2.69291 -13.0230
  3119 126.924 2.17510 9.17605
  3120 107.652 1.43106 -1.31560
  3121 132.010 -0.130726 -0.749537
  3122 132.009 -0.130356 0.750232
  3123 132.559 -0.523815 0.0909972
  3124 132.559 -0.523064 -0.0885259
  3125 117.786 1.04707 7.23459
  3126 117.779 1.04712 -7.23333
  3127 125.248 -0.683119 5.17617
  3128 125.257 -0.688182 -5.17108
  3129 111.521 -2.17768 -9.62064
  3130 111.525 -2.17199 9.61499
  3131 153.935 -6.48877 -5.75945
  3132 122.733 3.37932 -6.76695
  3133 153.993 18.9698 -9.64051
  3134 74.4100 9.67865 -5.33761
  3135 74.4246 9.67536 5.33155
  3136 103.211 1.54916 4.69196
  3137 103.209 1.54886 -4.69042
  3138 108.531 -12.3185 -22.0637
  3139 108.602 -12.2948 21.9061
  3140 122.538 0.955381 7.63495
  3141 103.497 0.937928 -3.87314
  3142 103.500 0.938117 3.87441
  3143 169.852 4.17963 -18.5302
  3144 114.278 3.34639 -22.1202
  3145 114.287 3.34154 22.1207
  3146 190.711 -1.29753 -2.11925
  3147 190.696 -1.29644 2.11129
  3148 62.4274 4.51727 15.9095
  3149 62.4303 4.52424 -15.8925
  3150 32.1664 -10.5644 0.155548
  3151 32.0986 -10.5608 -0.109199
  3152 164.521 -5.29697 5.83078
  3153 191.340 -3.86126 -7.44659
  3154 121.743 -21.7426 24.4872
  3155 85.4895 1.01534 -17.5584
  3156 85.4930 1.02115 17.5426
  3157 189.172 -0.727019 -3.80775
  3158 189.162 -0.727579 3.79977
  3159 137.721 0.240017 5.71661
  3160 137.710 0.240177 -5.71650
  3161 105.126 0.0467027 -0.835227
  3162 105.132 0.0467171 0.835503
  3163 122.804 -1.06281 3.22524
  3164 122.806 -1.06605 -3.22538
  3165 173.342 -1.15490 12.7239
  3166 129.465 -1.06694 0.919527
  3167 129.466 -1.06881 -0.917305
  3168 156.373 -13.9312 8.07675
  3169 129.238 -3.20946 -0.266218
  3170 129.241 -3.21326 0.271005
  3171 99.5149 5.33976 5.45889
  3172 99.5098 5.33851 -5.46091
  3173 99.8025 7.65095 15.0960
  3174 99.8012 7.65146 -15.0929
  3175 124.744 0.903320 8.29056
  3176 124.735 0.903546 -8.28962
  3177 131.376 -23.8185 -23.1815
  3178 108.809 2.12810 24.0651
  3179 108.797 2.13462 -24.0643
  3180 144.555 -3.71611 17.9982
  3181 144.540 -3.71032 -18.0039
  3182 134.504 -0.00853186 -0.267069
  3183 134.502 -0.00847035 0.267381
  3184 110.587 0.301710 -2.83733
  3185 110.593 0.301754 2.83809
  3186 149.238 27.2080 1.54033
  3187 126.879 -23.7887 -18.1141
  3188 126.880 -23.7473 18.2800
  3189 134.583 0.234638 10.9314
  3190 159.442 -12.4602 7.67066
  3191 159.403 -12.4621 -7.68812
  3192 148.822 24.5102 5.42337
  3193 133.086 -5.91846 5.88498
  3194 133.081 -5.91642 -5.87967
  3195 100.465 5.77951 1.42432
  3196 100.468 5.77868 -1.42389
  3197 179.473 -1.66725 10.6039
  3198 179.592 -1.61193 -10.5734
  3199 145.175 -6.46597 -8.21366
  3200 87.0068 11.2229 -6.15997
  3201 87.0009 11.2240 6.16112
  3202 134.844 5.82312 -10.7380
  3203 117.394 0.483401 -4.90853
  3204 117.402 0.483386 4.90947
  3205 137.252 4.12768 4.29079
  3206 174.579 3.03955 -20.0601
  3207 121.609 2.07215 11.5731
  3208 121.602 2.07261 -11.5718
  3209 145.764 22.1745 46.0258
  3210 125.714 0.322023 4.55788
  3211 125.705 0.322061 -4.55726
  3212 160.234 28.6984 6.22222
  3213 127.692 3.85004 9.02151
  3214 133.579 9.70860 -8.46398
  3215 132.401 -6.02614 -4.33446
  3216 132.405 -6.02868 4.34048
  3217 94.7764 8.85517 8.02490
  3218 94.7789 8.85438 -8.02300
  3219 175.497 7.66456 15.0705
  3220 144.310 -5.72343 8.59985
  3221 99.6811 -26.4266 -21.7320
  3222 100.485 -26.3263 21.2354
  3223 194.370 -4.76606 -10.6147
  3224 181.698 -4.44845 19.3104
  3225 181.685 -4.58521 -19.3592
  3226 123.824 -4.10085 3.91019
  3227 123.830 -4.10760 -3.90969
  3228 44.6289 -2.24401 -8.00957
  3229 44.6085 -2.24859 8.04136
  3230 131.442 -0.190221 1.33450
  3231 131.453 -0.189886 -1.33139
  3232 103.029 3.53531 -7.43493
  3233 103.031 3.53579 7.43698
  3234 149.955 -13.2714 0.537710
  3235 127.958 -11.2189 6.63047
  3236 127.964 -11.2223 -6.70459
  3237 99.6316 6.35290 1.45496
  3238 99.6347 6.35210 -1.45453
  3239 112.773 -4.58227 -25.4480
  3240 112.788 -4.58686 25.4467
  3241 130.577 0.0750887 -20.9855
  3242 130.588 0.0701905 20.9826
  3243 113.112 1.56860 2.48952
  3244 130.386 -1.86418 -0.629079
  3245 130.387 -1.86659 0.633431
  3246 129.720 0.326723 5.09452
  3247 129.711 0.326822 -5.09401
  3248 161.769 8.61820 8.91620
  3249 116.612 -1.24188 5.89392
  3250 116.613 -1.24638 -5.89692
  3251 64.9860 -23.1954 -22.4470
  3252 65.0381 -23.1856 22.4394
  3253 100.169 5.07429 5.37430
  3254 100.170 5.07345 -5.37263
  3255 127.528 -1.40825 -7.40956
  3256 127.523 -1.39881 7.41457
  3257 105.821 1.84085 -6.28599
  3258 105.824 1.84109 6.28772
  3259 138.146 -7.41226 -19.4794
  3260 138.166 -7.41857 19.4769
  3261 130.332 -3.16712 1.92684
  3262 130.330 -3.16391 -1.92104
  3263 118.666 1.43828 8.57228
  3264 118.659 1.43839 -8.57094
  3265 124.992 -10.8483 8.94928
  3266 124.948 -10.7979 -8.92662
  3267 130.905 -1.37352 0.493761
  3268 130.904 -1.37168 -0.489849
  3269 189.029 5.85878 18.8227
  3270 139.463 0.986587 11.4729
  3271 139.453 0.987486 -11.4735
  3272 133.353 -0.239882 -0.262857
  3273 133.352 -0.239433 0.264241
  3274 177.569 29.6970 -3.68374
  3275 147.768 -18.5605 8.11315
  3276 132.074 -0.625259 -1.52179
  3277 132.070 -0.626199 1.52599
  3278 110.633 -3.74639 -11.7833
  3279 110.639 -3.73775 11.7776
  3280 151.594 -6.73533 -23.0981
  3281 94.9134 8.91711 -10.6905
  3282 94.9116 8.91766 10.6930
  3283 23.2859 -63.6467 -3.32976
  3284 26.4177 -56.0188 7.96447
  3285 97.7950 -2.73818 -17.9754
  3286 97.7904 -2.71995 17.9731
  3287 194.700 -4.50720 10.6404
  3288 104.061 0.114864 -1.37486
  3289 104.066 0.114895 1.37532
  3290 78.6872 9.74781 -4.68224
  3291 78.6985 9.74640 4.67699
  3292 21.4182 -30.0348 -1.46901
  3293 21.4337 -30.0984 1.57748
  3294 162.931 0.0384116 -8.65861
  3295 162.938 0.0374805 8.65540
  3296 129.910 -16.2422 -11.6980
  3297 147.842 -0.600320 -10.4789
  3298 173.886 12.2756 2.82060
  3299 101.154 5.68503 -0.675878
  3300 101.151 5.68582 0.676066
  3301 111.107 -0.0122096 -0.785942
  3302 111.114 -0.0122297 0.786164
  3303 128.853 -0.0215563 -1.49405
  3304 128.851 -0.0210449 1.49415
  3305 112.073 2.21613 9.46381
  3306 112.068 2.21615 -9.46197
  3307 130.463 -7.86213 -0.465460
  3308 130.453 -7.85624 0.472801
  3309 169.104 7.53434 -3.98615
  3310 119.391 -0.413291 -4.06232
  3311 119.390 -0.410303 4.06097
  3312 112.159 0.911555 3.47690
  3313 185.778 -0.544711 -4.67934
  3314 185.772 -0.545609 4.67264
  3315 70.9206 -9.54274 28.5699
  3316 70.9474 -9.47809 -28.6435
  3317 123.404 6.54066 2.57646
  3318 132.646 -3.38750 9.04833
  3319 132.635 -3.39338 -9.03484
  3320 134.720 -7.29315 5.51554
  3321 134.720 -7.29287 -5.50966
  3322 177.297 -13.2706 8.59784
  3323 177.246 -13.1931 -8.60249
  3324 84.4825 -6.10383 19.1811
  3325 201.651 1.45794 -14.8774
  3326 170.029 15.2160 -6.73256
  3327 84.3596 8.03893 19.9461
  3328 84.3574 8.04352 -19.9386
  3329 211.102 10.7774 13.4422
  3330 82.7762 11.9339 7.02606
  3331 82.7836 11.9322 -7.02426
  3332 104.133 3.93549 -8.87891
  3333 104.135 3.93587 8.88112
  3334 171.443 -4.61350 -6.54873
  3335 171.451 -4.61362 6.53511
  3336 99.1976 6.18999 -7.60099
  3337 99.1968 6.19073 7.60301
  3338 87.9026 5.29300 -11.1027
  3339 87.9082 5.29795 11.0958
  3340 100.402 6.13480 9.51115
  3341 100.402 6.13424 -9.50882
  3342 149.944 -0.216195 -8.21050
  3343 111.768 2.85677 10.7066
  3344 111.763 2.85685 -10.7046
  3345 124.553 -2.17275 2.85207
  3346 124.557 -2.17709 -2.85116
  3347 161.203 0.0358324 -7.30268
  3348 240.435 14.7317 0.207600
  3349 41.1267 -25.3616 -15.6900
  3350 41.1650 -25.3831 15.6844
  3351 72.1605 5.07248 -19.4943
  3352 72.1629 5.06452 19.5069
  3353 125.493 1.79346 -21.1752
  3354 125.504 1.78899 21.1737
  3355 179.127 -4.45719 -2.27964
  3356 179.124 -4.45024 2.26780
  3357 122.093 2.38592 7.05113
  3358 131.564 -10.4986 -2.03154
  3359 131.538 -10.4875 2.04761
  3360 162.182 9.11944 0.817286
  3361 72.6491 10.7538 11.4213
  3362 72.6588 10.7533 -11.4131
  3363 177.299 -6.92557 0.536697
  3364 177.294 -6.90463 -0.547436
  3365 132.363 -17.8847 11.6577
  3366 161.579 29.1740 -5.65690
  3367 92.9781 9.34491 4.56711
  3368 92.9821 9.34414 -4.56621
  3369 100.526 6.41951 -10.7548
  3370 100.527 6.41993 10.7573
  3371 105.711 -8.09831 19.9001
  3372 105.744 -8.18022 -19.9033
  3373 192.458 -1.48777 -0.840148
  3374 192.439 -1.48484 0.834051
  3375 144.718 0.155634 -16.1260
  3376 144.728 0.152645 16.1222
  3377 164.342 -8.29405 -7.75377
  3378 164.363 -8.29249 7.73752
  3379 130.010 -0.477594 -1.12789
  3380 130.009 -0.476583 1.12902
  3381 94.3792 6.69967 -21.9644
  3382 94.3850 6.69439 21.9693
  3383 154.758 -5.96211 14.1735
  3384 154.741 -5.95611 -14.1822
  3385 37.1827 -41.8683 -9.95456
  3386 37.1665 -41.8148 9.91719
  3387 102.945 0.0601838 -1.08108
  3388 102.949 0.0601814 1.08146
  3389 159.296 10.2665 -10.1500
  3390 100.920 4.24534 5.26280
  3391 100.920 4.24457 -5.26111
  3392 102.558 2.17470 -5.19174
  3393 102.559 2.17512 5.19343
  3394 87.9397 5.45391 -22.6951
  3395 87.9469 5.44656 22.7016
  3396 131.893 0.00648750 -0.761010
  3397 133.803 -0.00848261 0.297017
  3398 131.891 0.00660591 0.761066
  3399 133.806 -0.00852641 -0.296923
  3400 140.882 -14.7712 1.47385
  3401 140.775 -14.8062 -1.34920
  3402 91.8481 4.10928 -11.7195
  3403 91.8534 4.11518 11.7142
  3404 96.6037 -16.8022 25.7169
  3405 96.5953 -16.8120 -25.7372
  3406 146.320 0.239075 9.05781
  3407 146.310 0.239672 -9.05882
  3408 105.079 0.133395 1.08802
  3409 129.075 -8.53734 2.39393
  3410 129.090 -8.54674 -2.38853
  3411 117.307 2.23020 11.2691
  3412 117.301 2.23053 -11.2674
  3413 130.828 -1.73828 1.29732
  3414 130.828 -1.73613 -1.29237
  3415 329.615 13.1865 40.5862
  3416 106.436 0.916114 -4.67962
  3417 106.441 0.916244 4.68096
  3418 109.416 4.17371 12.7821
  3419 109.412 4.17392 -12.7798
  3420 37.1645 -8.76050 -6.39939
  3421 37.1400 -8.77271 6.44350
  3422 102.552 4.26298 5.17647
  3423 102.547 4.26191 -5.17861
  3424 58.7343 7.73150 -3.07397
  3425 58.7653 7.72221 3.07606
  3426 203.930 4.46946 15.1864
  3427 140.050 3.00578 -9.78428
  3428 126.883 -2.60384 1.71896
  3429 126.887 -2.60802 -1.71651
  3430 109.661 -8.71394 17.9816
  3431 109.718 -8.86496 -17.9795
  3432 103.401 5.60897 11.6681
  3433 103.399 5.60876 -11.6656
  3434 132.177 1.27713 12.4846
  3435 132.168 1.27807 -12.4845
  3436 181.811 -5.71556 4.84217
  3437 181.790 -5.68546 -4.83751
  3438 104.946 3.47211 -5.55444
  3439 104.950 3.47338 5.55201
  3440 90.3545 -1.89277 -19.8675
  3441 90.3585 -1.88200 19.8438
  3442 89.1847 1.63068 -15.7405
  3443 89.1872 1.64008 15.7301
  3444 256.808 23.5893 -0.0778591
  3445 40.3317 -36.3566 22.7800
  3446 199.493 -0.327894 1.70214
  3447 199.463 -0.325537 -1.69685
  3448 224.040 8.55367 3.66245
  3449 118.147 -1.64487 5.39355
  3450 118.149 -1.64965 -5.39600
  3451 105.627 0.283878 -2.56226
  3452 105.632 0.283922 2.56306
  3453 103.493 1.95736 -5.47704
  3454 103.495 1.95770 5.47873
  3455 46.1539 -1.04791 -10.8313
  3456 46.2123 -1.05813 10.8304
  3457 163.131 -1.46524 11.9485
  3458 163.124 -1.46221 -11.9562
  3459 77.5290 -3.31363 -23.8536
  3460 77.5242 -3.32204 23.8476
  3461 118.658 1.75850 5.78482
  3462 94.6625 9.26064 15.5337
  3463 94.6627 9.26134 -15.5299
  3464 113.619 0.438683 3.75902
  3465 125.957 -0.696701 -7.49389
  3466 125.953 -0.689801 7.49593
  3467 142.750 -1.16919 -10.9539
  3468 126.956 0.0176879 1.59590
  3469 126.946 0.0176916 -1.59566
  3470 98.9848 6.19916 4.52053
  3471 98.9868 6.19826 -4.51917
  3472 177.806 -8.61175 5.68967
  3473 177.782 -8.56808 -5.69116
  3474 114.045 1.93153 -2.48219
  3475 96.5749 7.87276 7.31693
  3476 96.5769 7.87193 -7.31510
  3477 170.625 -0.126719 -6.93808
  3478 170.630 -0.127608 6.93434
  3479 85.6954 -0.956393 -25.4985
  3480 85.7110 -0.966475 25.5023
  3481 82.4731 -2.32411 22.1270
  3482 82.4660 -2.31371 -22.1417
  3483 118.770 3.42499 16.4264
  3484 118.763 3.42659 -16.4252
  3485 107.115 1.11362 2.56578
  3486 130.874 9.90186 6.61462
  3487 105.949 4.13001 2.47972
  3488 105.946 4.13016 -2.48084
  3489 103.379 0.294308 2.33062
  3490 103.375 0.294238 -2.32981
  3491 53.8211 -13.3110 20.0639
  3492 114.153 0.400188 -3.70260
  3493 114.160 0.400222 3.70343
  3494 97.1115 7.77343 -8.80249
  3495 97.1101 7.77416 8.80463
  3496 112.376 1.55957 4.62863
  3497 112.375 1.55797 -4.63092
  3498 116.968 0.876185 3.68963
  3499 116.968 0.874720 -3.69114
  3500 116.626 -0.0142788 2.14334
  3501 116.573 -0.0138928 -2.15485
  3502 151.503 -11.9499 -1.50029
  3503 154.558 -20.7451 -7.61807
  3504 155.083 -20.8751 7.31921
  3505 127.884 10.3105 1.83308
  3506 100.643 4.83661 6.59489
  3507 100.643 4.83590 -6.59296
  3508 56.6208 -10.0578 21.5140
  3509 56.5950 -10.0376 -21.5002
  3510 126.088 4.45630 7.91122
  3511 116.336 2.97809 12.5445
  3512 116.329 2.97855 -12.5428
  3513 128.721 -0.202466 1.48171
  3514 128.723 -0.203292 -1.48119
  3515 80.5129 8.27669 -8.07732
  3516 80.5225 8.27693 8.06976
  3517 88.3905 10.9593 11.4246
  3518 88.3944 10.9588 -11.4213
  3519 111.303 4.57927 -21.0071
  3520 111.311 4.57521 21.0086
  3521 145.469 -19.9543 -10.8971
  3522 100.046 5.21058 5.80766
  3523 100.047 5.20978 -5.80591
  3524 43.3263 -33.5543 -24.9650
  3525 107.341 3.67734 10.4002
  3526 107.338 3.67720 -10.3979
  3527 100.984 4.29817 -5.91480
  3528 100.984 4.29888 5.91662
  3529 298.807 21.6346 -3.49446
  3530 94.8838 5.37739 23.0588
  3531 94.8761 5.38387 -23.0541
  3532 144.218 20.7441 6.34088
  3533 201.655 1.29831 15.1347
  3534 100.047 -0.745890 -14.5018
  3535 100.055 -0.736547 14.4985
  3536 115.251 1.92401 -9.55537
  3537 115.257 1.92390 9.55703
  3538 183.800 -7.18109 17.1236
  3539 183.770 -7.29177 -17.0706
  3540 124.537 0.0343844 -2.36000
  3541 124.535 0.0355918 2.35980
  3542 230.426 10.6233 -1.20666
  3543 101.150 5.33495 8.91228
  3544 101.150 5.33439 -8.91002
  3545 109.304 1.01391 5.53309
  3546 109.299 1.01380 -5.53170
  3547 121.240 -10.2977 -23.2817
  3548 121.255 -10.2977 23.2851
  3549 126.653 -0.195244 -1.96164
  3550 126.652 -0.194078 1.96191
  3551 102.144 5.29768 -2.35875
  3552 102.148 5.29758 2.35776
  3553 124.423 0.0170625 -1.84085
  3554 124.397 0.0185478 1.84393
  3555 363.065 8.46907 -8.36000
  3556 130.457 -3.17388 -6.47277
  3557 130.460 -3.17438 6.48087
  3558 132.174 0.530162 6.77636
  3559 110.321 -0.00742722 7.90315
  3560 110.318 -0.0111512 -7.90743
  3561 101.190 4.69660 -7.36983
  3562 101.190 4.69725 7.37189
  3563 112.127 -24.0699 -21.8696
  3564 112.027 -23.9523 21.8853
  3565 78.8122 10.9141 -0.967541
  3566 78.8232 10.9120 0.964954
  3567 104.325 1.09238 -4.46369
  3568 104.329 1.09257 4.46508
  3569 138.706 0.0855172 -18.3832
  3570 138.717 0.0816708 18.3796
  3571 115.702 -18.6758 -24.6928
  3572 95.6793 8.27125 6.33433
  3573 95.6819 8.27040 -6.33277
  3574 183.561 -1.65308 -5.15288
  3575 183.556 -1.65352 5.14273
  3576 151.218 13.4155 -11.0374
  3577 75.7813 -25.4243 33.1948
  3578 97.4786 8.18825 -11.5594
  3579 97.4780 8.18866 11.5620
  3580 119.964 0.960560 6.09017
  3581 130.242 -19.3355 15.6966
  3582 130.901 7.73629 -8.63061
  3583 79.7256 1.06824 -18.9521
  3584 79.7338 1.06571 18.9337
  3585 131.793 -0.0835841 -0.841988
  3586 131.791 -0.0833124 0.842381
  3587 129.552 10.1472 -5.17759
  3588 107.267 1.76769 -6.71979
  3589 107.272 1.76788 6.72153
  3590 145.028 7.67358 -11.7628
  3591 128.497 7.26591 -6.87459
  3592 122.296 2.38776 -7.19972
  3593 96.7732 8.55493 13.3004
  3594 96.7736 8.55484 -13.2973
  3595 104.506 4.40109 -3.18073
  3596 104.509 4.40123 3.17932
  3597 144.018 17.0344 -9.26111
  3598 103.298 0.0351408 0.491011
  3599 103.293 0.0351447 -0.490843
  3600 130.589 -2.47810 -3.83364
  3601 130.589 -2.48069 3.84054
  3602 83.3259 11.1819 -1.37688
  3603 83.3176 11.1831 1.37582
  3604 121.247 3.44260 17.6987
  3605 121.240 3.44480 -17.6981
  3606 76.2788 12.1224 -4.55964
  3607 76.2670 12.1255 4.56120
  3608 127.320 -1.15238 -1.65934
  3609 127.318 -1.14994 1.66094
  3610 123.498 0.399544 22.3830
  3611 123.485 0.405032 -22.3850
  3612 130.811 -1.42368 2.80584
  3613 130.813 -1.42178 -2.79967
  3614 154.831 1.13915 9.37340
  3615 83.5503 9.98255 -3.50834
  3616 83.5586 9.98232 3.50464
  3617 128.036 -0.886026 -1.51465
  3618 128.035 -0.884087 1.51611
  3619 134.254 -9.66096 -1.44721
  3620 134.258 -9.66246 1.45953
  3621 108.217 2.54210 5.30584
  3622 108.214 2.54070 -5.30841
  3623 125.711 -19.5584 -19.9921
  3624 125.721 -19.5392 20.0318
  3625 142.487 -2.47139 10.4239
  3626 108.975 0.0956335 -1.99171
  3627 108.981 0.0956481 1.99227
  3628 93.7610 6.10315 -7.07495
  3629 93.7670 6.10571 7.07204
  3630 137.671 14.7303 -7.17849
  3631 213.254 32.3308 -10.7588
  3632 136.681 0.782304 10.3285
  3633 136.672 0.782937 -10.3287
  3634 63.5697 -33.9002 16.4325
  3635 63.4212 -33.9729 -16.4239
  3636 130.253 -0.139524 -1.16467
  3637 130.251 -0.139002 1.16513
  3638 127.771 1.17417 -9.92047
  3639 127.779 1.17374 9.92120
  3640 112.641 0.204193 2.51199
  3641 112.634 0.204174 -2.51137
  3642 107.566 0.0911057 -1.69379
  3643 107.572 0.0911107 1.69430
  3644 104.125 0.213244 1.96114
  3645 104.120 0.213198 -1.96049
  3646 108.340 0.908890 -3.26916
  3647 131.826 0.347732 -6.97987
  3648 185.519 8.92185 -16.8450
  3649 79.8208 11.7413 10.6770
  3650 79.8282 11.7403 -10.6725
  3651 193.470 14.7197 8.89510
  3652 88.8514 10.6711 13.2058
  3653 88.8545 10.6711 -13.2020
  3654 194.078 19.1354 -22.3699
  3655 111.458 0.860097 5.49666
  3656 111.452 0.860043 -5.49536
  3657 110.835 0.426456 3.84314
  3658 110.829 0.426425 -3.84217
  3659 132.314 -11.8701 -3.15736
  3660 132.288 -11.8588 3.20242
  3661 101.694 5.58298 0.780591
  3662 101.691 5.58350 -0.780956
  3663 135.887 -19.8571 -13.2623
  3664 184.996 21.0654 52.8159
  3665 96.9605 5.16606 -7.45642
  3666 96.9663 5.16861 7.45376
  3667 60.4766 -14.5546 -22.9587
  3668 60.5123 -14.5716 22.9644
  3669 122.051 -15.2453 -16.7924
  3670 98.9595 5.77576 -4.30609
  3671 98.9645 5.77661 4.30446
  3672 78.8734 -17.1678 -25.9391
  3673 78.9135 -17.1724 25.9238
  3674 100.852 3.61311 7.64024
  3675 100.847 3.61065 -7.64313
  3676 172.240 -13.9828 -6.39894
  3677 172.119 -13.5015 5.96776
  3678 128.881 -1.46008 -8.89860
  3679 128.872 -1.43885 8.90395
  3680 128.024 -10.1316 -5.15029
  3681 128.006 -10.1144 5.13964
  3682 113.187 1.22532 7.23159
  3683 113.181 1.22531 -7.23009
  3684 180.615 33.8547 3.11220
  3685 129.747 -9.72584 -3.14488
  3686 129.722 -9.71041 3.15063
  3687 103.353 1.56400 9.76719
  3688 103.347 1.56004 -9.77097
  3689 167.450 0.0620070 -6.06891
  3690 167.457 0.0615129 6.06662
  3691 127.893 -3.49962 1.02710
  3692 127.897 -3.50428 -1.02345
  3693 131.188 -3.93790 -5.65229
  3694 131.192 -3.94016 5.65931
  3695 127.126 10.0146 -1.79636
  3696 88.0897 8.60430 -4.87607
  3697 88.0965 8.60558 4.87285
  3698 99.7222 6.31927 -1.94192
  3699 99.7264 6.31920 1.94115
  3700 130.279 -23.5819 23.4248
  3701 109.147 -22.1876 30.4658
  3702 158.560 0.0574800 2.50733
  3703 158.549 0.0575457 -2.50776
  3704 151.470 22.4092 -8.32791
  3705 171.528 -0.905457 19.4676
  3706 166.358 0.136698 2.60432
  3707 166.349 0.136789 -2.60501
  3708 114.986 -16.4450 -22.4408
  3709 113.647 -4.54918 -10.9173
  3710 113.652 -4.54059 10.9100
  3711 100.800 5.87849 -0.0607222
  3712 100.797 5.87914 0.0606735
  3713 164.128 -0.0503313 -9.41504
  3714 164.135 -0.0516674 9.41091
  3715 106.217 -24.2348 32.9726
  3716 68.6858 7.90865 -8.95289
  3717 68.7068 7.90205 8.94371
  3718 84.2159 -3.60052 -25.9258
  3719 84.2344 -3.61171 25.9278
  3720 126.317 -8.77822 -5.60158
  3721 126.303 -8.77360 5.59896
  3722 121.142 -2.48032 4.53237
  3723 121.146 -2.48577 -4.53342
  3724 123.724 -6.59335 -5.76664
  3725 123.714 -6.58371 5.76529
  3726 72.0128 10.7954 -2.37524
  3727 72.0292 10.7907 2.37203
  3728 182.017 -5.09138 2.32542
  3729 182.003 -5.07125 -2.32818
  3730 128.829 -0.973406 4.27643
  3731 128.835 -0.972524 -4.26939
  3732 152.557 5.35920 9.95923
  3733 92.6944 9.34149 16.7776
  3734 92.6945 9.34288 -16.7732
  3735 198.270 -0.754182 -2.14758
  3736 198.294 -0.757301 2.15576
  3737 105.031 0.0928829 -1.53423
  3738 105.036 0.0929028 1.53473
  3739 151.002 0.110170 -12.4519
  3740 151.011 0.108577 12.4489
  3741 256.559 16.1507 -8.91591
  3742 97.9650 7.02634 -1.27645
  3743 97.9614 7.02698 1.27672
  3744 116.412 0.973515 6.46291
  3745 116.405 0.973510 -6.46170
  3746 103.802 -21.8017 -32.0577
  3747 103.865 -1.65775 -13.5142
  3748 103.873 -1.65046 13.5088
  3749 170.123 32.4735 -4.19875
  3750 134.029 -0.0987800 0.576773
  3751 134.035 -0.0985995 -0.575076
  3752 114.335 -16.0621 22.2904
  3753 135.842 11.2820 8.92415
  3754 97.9484 7.12991 2.17497
  3755 97.9517 7.12914 -2.17439
  3756 111.892 0.833600 24.4288
  3757 111.879 0.840089 -24.4288
  3758 105.359 3.50675 4.93691
  3759 105.355 3.50577 -4.93911
  3760 109.607 2.82446 3.50724
  3761 109.604 2.82400 -3.50890
  3762 127.112 -13.7112 10.7156
  3763 126.892 -13.5631 -10.6164
  3764 131.669 3.30184 1.72687
  3765 97.0124 7.44835 2.88295
  3766 97.0157 7.44756 -2.88222
  3767 73.4098 -2.25264 -18.3483
  3768 96.9328 7.58922 -1.12570
  3769 96.9288 7.58978 1.12587
  3770 123.386 -8.49523 7.60343
  3771 123.397 -8.50430 -7.60714
  3772 109.095 2.13214 8.09887
  3773 109.091 2.13199 -8.09700
  3774 130.893 -3.53847 -4.92419
  3775 130.896 -3.54113 4.93118
  3776 126.779 -1.96718 1.84279
  3777 126.782 -1.97066 -1.84080
  3778 76.1486 -25.9706 -32.9991
  3779 157.237 0.0497351 6.43912
  3780 157.228 0.0500787 -6.44049
  3781 128.743 2.09615 17.7322
  3782 128.734 2.09864 -17.7329
  3783 123.022 -5.33449 5.31233
  3784 123.029 -5.34305 -5.31342
  3785 122.206 -0.0820217 -1.76569
  3786 122.176 -0.0777479 1.76617
  3787 216.078 19.4004 -3.24008
  3788 101.531 -10.9778 -24.2407
  3789 101.729 -10.7901 24.0068
  3790 140.628 0.238098 -6.00548
  3791 140.639 0.237922 6.00545
  3792 112.100 0.0521487 -0.876236
  3793 112.108 0.0521490 0.876461
  3794 164.268 -6.05720 -10.0089
  3795 164.283 -6.05979 9.99582
  3796 101.415 3.59351 -5.50270
  3797 101.415 3.59417 5.50446
  3798 130.754 -0.252878 -1.04889
  3799 130.753 -0.252235 1.04974
  3800 93.4507 9.02739 3.11765
  3801 93.4550 9.02675 -3.11714
  3802 100.819 5.32691 -8.28801
  3803 100.819 5.32753 8.29018
  3804 96.3347 7.83521 -5.65389
  3805 96.3321 7.83605 5.65532
  3806 49.6540 -1.93076 13.2690
  3807 49.6581 -1.91928 -13.2417
  3808 128.246 2.01915 -19.1185
  3809 128.255 2.01584 19.1175
  3810 158.284 -6.99735 2.15099
  3811 247.995 12.1415 16.9918
  3812 115.063 2.62224 11.2921
  3813 115.057 2.62252 -11.2903
  3814 98.1773 2.01614 25.1061
  3815 98.1653 2.02405 -25.1035
  3816 89.5531 -23.9038 23.6236
  3817 89.4921 -23.9480 -23.6939
  3818 167.411 -2.18235 -10.7740
  3819 167.417 -2.18578 10.7644
  3820 120.271 -1.03539 4.14844
  3821 120.272 -1.03909 -4.14962
  3822 94.4493 9.46742 13.7646
  3823 94.4503 9.46746 -13.7613
  3824 120.387 -13.3365 -23.6996
  3825 120.399 -13.3299 23.7081
  3826 135.449 3.79371 11.1460
  3827 125.887 -0.841520 -2.26323
  3828 125.885 -0.839243 2.26393
  3829 170.662 1.33839 19.6926
  3830 139.327 -6.26326 8.26665
  3831 139.184 -6.28323 -8.18864
  3832 134.821 8.05469 10.0696
  3833 105.359 0.928094 -4.42592
  3834 105.363 0.928244 4.42725
  3835 151.191 1.53555 28.5628
  3836 108.119 2.94044 4.17876
  3837 108.116 2.93966 -4.18076
  3838 108.202 4.09743 11.6623
  3839 108.199 4.09745 -11.6600
  3840 131.312 -0.462915 2.08325
  3841 131.320 -0.462088 -2.07847
  3842 129.746 7.72149 7.75554
  3843 149.257 3.56439 12.9715
  3844 132.042 -10.7879 31.2527
  3845 138.069 2.82200 11.5193
  3846 119.141 0.455034 -3.38190
  3847 119.141 0.456654 3.38075
  3848 143.050 -4.30998 -9.61631
  3849 154.668 -13.6798 3.69700
  3850 104.581 2.94326 7.54218
  3851 104.578 2.94290 -7.54018
  3852 105.058 1.97610 6.26805
  3853 105.055 1.97583 -6.26628
  3854 103.386 4.61541 3.84802
  3855 103.382 4.61499 -3.84964
  3856 161.969 -2.20080 -22.3020
  3857 99.2302 4.74199 -6.69428
  3858 99.2357 4.74396 6.69183
  3859 102.373 4.71021 8.88393
  3860 102.372 4.70972 -8.88167
  3861 98.1517 6.70871 3.74031
  3862 98.1543 6.70784 -3.73924
  3863 160.534 -8.40968 -10.1530
  3864 160.557 -8.41247 10.1402
  3865 329.986 16.8222 -8.47252
  3866 131.627 -0.990282 -0.670638
  3867 131.626 -0.991675 0.674477
  3868 100.181 5.48039 6.89316
  3869 100.182 5.47963 -6.89121
  3870 109.868 0.482004 4.00232
  3871 109.862 0.481962 -4.00129
  3872 20.8756 -0.368924 -0.000518429
  3873 21.5333 -1.58674 0.0502479
  3874 21.0222 -0.488665 -0.984663
  3875 20.8882 -0.318687 1.04831
  3876 20.4480 0.293785 -0.502026
  3877 20.3898 0.316043 0.478870
  3878 21.5056 -1.72083 -1.07012
  3879 20.3363 0.273866 -0.0327141
  3880 21.4519 -1.48210 1.17373
  3881 21.9458 -2.75189 -0.00325893
  3882 21.8300 -2.37847 0.861957
  3883 21.1958 -0.855639 -0.327890
  3884 21.1651 -0.818775 0.359947
  3885 21.0063 -0.616637 -1.53895
  3886 20.3908 0.547565 -0.963839
  3887 20.3726 0.546710 0.953342
  3888 20.8002 -0.201643 -0.494654
  3889 21.8348 -2.58714 -0.882166
  3890 20.1400 0.463832 0.227231
  3891 20.1747 0.461943 -0.255646
  3892 20.9632 -0.452472 1.55540
  3893 20.7649 -0.180152 0.496681
  3894 20.5818 0.0475948 -0.188174
  3895 20.5710 0.0501783 0.224337
  3896 20.6309 0.202010 -1.37216
  3897 20.5261 0.399962 1.38845
  3898 21.4583 -1.38968 -0.579626
  3899 22.0574 -3.14102 0.413860
  3900 21.4045 -1.30654 0.662120
  3901 22.0981 -3.17220 -0.594351
  3902 21.7136 -1.99798 -0.386334
  3903 21.7088 -2.24724 0.309132
  3904 21.3763 -1.67351 -1.72253
  3905 21.6467 -1.90172 1.53535
  3906 20.1602 0.793831 0.668869
  3907 20.1538 0.792241 -0.706209
  3908 20.1235 0.446230 -0.0848062
  3909 21.1829 -1.07979 1.78660
  3910 20.0601 0.656231 0.402364
  3911 20.0914 0.454053 0.0349692
  3912 20.1192 0.652099 -0.431371
  3913 21.2525 -1.04682 -1.08534
  3914 21.1584 -0.886169 1.10663
  3915 21.3296 -1.09458 0.0580073
  3916 20.6839 0.0352219 -0.833309
  3917 20.6741 0.0599323 0.830679
  3918 21.1766 -0.856770 -0.723653
  3919 21.0901 -0.703289 0.0149074
  3920 21.0532 -0.770847 -1.87040
  3921 20.7194 -0.00606321 -1.78128
  3922 20.3469 0.262128 0.177800
  3923 20.9548 -0.480832 -0.289060
  3924 20.9461 -0.463658 0.301917
  3925 20.3429 0.798298 -1.28218
  3926 20.4136 0.293483 -0.316180
  3927 21.9181 -2.95637 1.11394
  3928 21.7295 -2.31266 -1.54757
  3929 20.6004 0.333537 1.70127
  3930 20.9564 -0.437632 0.639602
  3931 21.6166 -1.96830 0.926947
  3932 20.2709 0.817924 1.21585
  3933 22.1462 -3.39093 0.0616432
  3934 21.3301 -1.27701 -1.32920
  3935 20.7716 -0.179699 -0.243448
  3936 21.8883 -2.54457 0.438383
  3937 21.1749 -0.754275 0.738734
  3938 20.9727 -0.477887 -0.633348
  3939 20.6932 -0.0749939 -0.0173905
  3940 20.7803 -0.280520 1.99906
  3941 20.7744 -0.218761 0.212103
  3942 21.7935 -2.34431 -0.591597
  3943 20.1390 0.976936 -0.961565
  3944 20.5929 0.0500312 -0.421028
  3945 20.0648 0.704955 -0.311509
  3946 20.4863 0.323365 -0.779507
  3947 20.0299 0.546130 0.0888132
  3948 20.4396 0.331571 0.682351
  3949 20.0293 0.571360 -0.133180
  3950 20.1476 0.876344 0.884043
  3951 20.8654 -0.206977 -1.39738
  3952 20.0412 0.625874 0.251489
  3953 20.5315 0.0971834 0.0319288
  3954 20.5597 0.0930058 0.385393
  3955 21.9796 -2.93970 -0.992032
  3956 20.6725 0.0644926 -1.07028
  3957 21.1980 -0.939525 1.41725
  3958 21.5438 -1.60298 0.427168
  3959 20.3190 0.384146 0.294256
  3960 20.7849 -0.114734 1.27693
  3961 20.2905 0.326392 -0.133880
  3962 21.7242 -2.14458 -0.0355777
  3963 20.6865 0.0813917 1.08137
  3964 21.7430 -2.37359 1.60123
  3965 21.3619 -1.51224 1.81732
  3966 20.0282 0.872902 0.526677
  3967 21.4393 -1.36998 -0.239621
  3968 21.7062 -2.13098 -1.19323
  3969 20.0470 0.845939 -0.527965
  3970 21.4052 -1.29783 0.288675
  3971 20.0310 0.476711 -0.0567417
  3972 22.0532 -3.25945 0.815351
  3973 20.8480 -0.211783 -1.98724
  3974 20.3985 0.671489 -1.56677
  3975 22.0853 -2.97319 0.101848
  3976 20.3575 0.780953 1.61102
  3977 21.5839 -1.69038 -0.679920
  3978 21.5167 -1.56904 0.800852
  3979 21.6777 -2.12620 1.18727
  3980 21.8778 -2.82093 -1.40794
  3981 21.4011 -1.45421 1.52321
  3982 20.2633 0.350398 0.0747059
  3983 20.2207 0.603266 0.522601
  3984 20.1892 0.391824 -0.0311904
  3985 22.1990 -3.56499 0.463314
  3986 20.2365 0.577861 -0.555890
  3987 20.2762 0.437980 -0.397406
  3988 20.4457 0.196547 -0.152849
  3989 21.1983 -1.19566 -2.03777
  3990 20.6716 0.0231696 -0.588448
  3991 21.5582 -1.66244 -0.303152
  3992 21.9206 -2.75769 -0.484319
  3993 22.2192 -3.58275 -0.522368
  3994 19.9627 0.825615 -0.381325
  3995 20.5448 0.555208 -1.81374
  3996 21.6994 -2.03044 -0.793109
  3997 20.6329 0.0941369 0.601416
  3998 20.6381 0.255003 1.95590
  3999 21.0386 -0.639629 2.02591
  4000 20.4707 0.209015 0.290097
  4001 21.0738 -0.602961 -1.18549
  4002 21.4758 -1.92945 -1.87744
  4003 20.1002 0.918856 -1.19568
  4004 19.9225 0.885249 0.388871
  4005 21.9401 -2.84676 0.754738
  4006 21.3001 -1.06059 -0.492971
  4007 20.0758 0.538341 0.0657844
  4008 20.3443 0.564084 0.788876
  4009 19.9251 0.961982 -0.779320
  4010 21.6249 -1.97450 1.86234
  4011 20.3559 0.629423 -0.835956
  4012 21.2709 -0.978359 0.534981
  4013 20.0386 0.485935 -0.0652130
  4014 20.4508 0.491094 1.11970
  4015 21.7730 -2.21986 0.628992
  4016 21.3251 -1.21002 1.02956
  4017 20.9636 -0.517874 1.27874
  4018 20.0023 1.01900 0.640256
  4019 20.1722 0.438265 -0.181564
  4020 20.2298 0.984395 1.40216
  4021 20.4816 0.470727 -1.18064
  4022 21.4220 -1.39151 -0.944212
  4023 21.6510 -1.89634 0.195928
  4024 20.0871 1.12329 1.09141
  4025 20.8383 -0.231813 0.848170
  4026 21.4737 -1.67833 -1.42993
  4027 19.8636 0.596781 -0.187600
  4028 21.7905 -2.51661 1.22093
  4029 20.1758 0.512840 0.325273
  4030 20.8404 -0.296326 -1.57869
  4031 21.2947 -1.12664 -0.809739
  4032 20.1431 0.466938 0.132816
  4033 22.1606 -3.76640 -0.195615
  4034 20.8817 -0.275704 -0.881425
  4035 21.2254 -1.01185 0.851672
  4036 21.9735 -2.88164 -0.752222
  4037 20.1803 0.529064 -0.311719
  4038 19.9239 0.625034 0.152218
  4039 21.2050 -0.903455 -0.0923998
  4040 21.1858 -0.886499 0.139054
  4041 21.8231 -2.42017 0.0737828
  4042 21.0531 -0.608698 -0.419585
  4043 21.1014 -0.643986 0.966847
  4044 20.9917 -0.614215 1.74758
  4045 20.5166 0.132826 -0.313738
  4046 21.1721 -0.835682 -1.35746
  4047 21.0841 -0.681142 -0.205146
  4048 21.0721 -0.664787 0.230288
  4049 21.7549 -2.29531 -0.869847
  4050 20.5413 0.276813 -0.968550
  4051 21.2867 -1.25491 -1.68708
  4052 20.4997 0.268449 0.963931
  4053 21.0333 -0.584780 0.441314
  4054 21.0188 -0.543275 -2.09082
  4055 20.9727 -0.524047 0.106465
  4056 20.9767 -0.522148 -0.0913338
  4057 20.8068 -0.0531754 1.50814
  4058 20.2414 0.488450 0.410441
  4059 21.8311 -2.41058 -0.250034
  4060 20.3209 0.503181 0.625725
  4061 20.4725 0.175468 0.154686
  4062 20.3146 0.481729 -0.679169
  4063 20.2333 0.362662 -0.0972265
  4064 21.6609 -1.83094 -0.0938146
  4065 21.4022 -1.34025 0.00839645
  4066 22.1700 -3.36410 -0.916660
  4067 19.9928 1.05337 -0.656130
  4068 21.6671 -1.90359 0.547328
  4069 21.7812 -2.76877 1.48352
  4070 20.8753 -0.346363 -0.177041
  4071 20.2405 0.947390 -1.38552
  4072 20.6814 0.185043 -1.60344
  4073 20.8392 -0.272580 0.345237
  4074 20.8390 -0.207561 -0.657044
  4075 20.8764 -0.375558 0.486679
  4076 19.9633 0.991867 0.728491
  4077 21.0323 -0.611885 -0.776583
  4078 22.3393 -3.76444 0.132435
  4079 22.0699 -3.06466 -0.201815
  4080 21.1345 -0.877105 -1.60275
  4081 20.4951 0.736174 1.82384
  4082 20.9260 -0.464294 -1.73122
  4083 20.7974 -0.179079 0.656208
  4084 19.8507 0.490842 0.0326813
  4085 20.8468 -0.290233 -0.350849
  4086 21.1560 -1.17247 2.08923
  4087 20.9026 -0.407301 -0.478666
  4088 20.2773 0.756332 -1.12071
  4089 20.7877 -0.213525 -0.0908342
  4090 21.1153 -0.748137 -0.559480
  4091 20.7763 -0.188817 1.75165
  4092 20.9885 -0.554332 -1.41740
  4093 21.5870 -1.90462 -1.53225
  4094 20.8664 -0.358297 0.173513
  4095 20.6609 0.254837 -2.00190
  4096 21.9785 -3.14118 -1.22824
  4097 20.2605 0.384931 0.176896
  4098 19.8743 0.739823 0.266529
  4099 21.7716 -2.51648 -1.76071
  4100 21.5652 -1.79036 1.28310
  4101 21.1074 -0.705104 0.578592
  4102 21.1639 -0.776065 -0.925798
  4103 20.7230 -0.112768 -0.406805
  4104 21.0179 -0.514843 0.801895
  4105 20.7687 -0.219153 0.0695999
  4106 20.4314 0.601628 -1.38962
  4107 20.6829 -0.0787551 -0.147390
  4108 20.0826 0.541912 -0.259608
  4109 21.9462 -3.22699 1.17889
  4110 20.3361 0.773807 1.04297
  4111 20.3752 0.213363 0.0795721
  4112 20.8367 -0.268412 -1.16195
  4113 21.3205 -1.11479 -0.190042
  4114 20.5819 0.0191225 -0.0889787
  4115 20.3011 0.387119 -0.241387
  4116 20.6980 -0.0941536 0.347575
  4117 21.3256 -1.59995 2.06044
  4118 19.9980 0.987745 1.24097
  4119 21.8520 -2.56351 -1.24750
  4120 20.6509 -0.0145000 -0.292011
  4121 21.9870 -2.87665 0.339557
  4122 20.6875 -0.0671163 0.137447
  4123 22.1455 -3.45086 -0.284371
  4124 20.0495 0.543795 0.184513
  4125 20.5061 0.307067 0.812268
  4126 21.2706 -1.02052 0.269739
  4127 19.7739 0.562566 -0.0535987
  4128 22.3135 -3.91525 -0.0570063
  4129 19.9861 1.28704 1.21058
  4130 20.0980 1.29054 -1.09895
  4131 20.0106 1.28145 0.911958
  4132 19.9415 1.09715 0.712537
  4133 20.0048 1.13705 0.601333
  4134 19.8919 0.971424 0.459288
  4135 19.8210 0.875355 0.268500
  4136 19.9274 0.730277 0.187709
  4137 19.7749 0.685357 0.142642
  4138 19.9537 0.572554 0.0787924
  4139 19.8787 0.523184 0.102788
  4140 20.0189 0.473254 -0.103051
  4141 20.0398 0.578266 -0.0688166
  4142 19.8436 0.609107 -0.0890206
  4143 19.8534 0.684013 -0.222152
  4144 20.0280 0.891168 -0.325579
  4145 19.8688 0.867789 -0.426820
  4146 20.0099 1.14069 -0.593930
  4147 19.9096 1.08367 -0.763358
  4148 20.0006 1.24352 -0.897210
  4149 20.1380 1.16653 -1.28633
  4150 20.2583 1.15268 -1.50780
  4151 20.3403 0.881254 -1.71983
  4152 20.5150 0.564257 -1.99423
  4153 20.6669 0.0525264 -2.09386
  4154 20.8213 -0.398119 -2.12972
  4155 20.9240 -0.939518 -2.20613
  4156 21.1830 -1.63952 -2.16892
  4157 21.3173 -2.06167 -2.04316
  4158 21.6560 -2.23918 -1.93397
  4159 21.8774 -2.98465 -1.57897
  4160 22.1332 -3.35020 -1.19050
  4161 22.3145 -3.60661 -0.772763
  4162 22.2009 -3.76607 -0.399537
  4163 22.4938 -3.75812 0.384369
  4164 22.0621 -3.54204 0.842634
  4165 21.9186 -3.42018 1.15112
  4166 21.8527 -3.08155 1.52633
  4167 21.7100 -2.50677 1.79276
  4168 21.5290 -1.91388 2.08844
  4169 21.1377 -1.44232 2.24242
  4170 20.9927 -0.855807 2.21150
  4171 20.7997 -0.455508 2.14600
  4172 20.5802 -0.0136598 2.11697
  4173 20.5237 0.675489 1.97340
  4174 20.3063 0.922543 1.72059
  4175 20.2336 1.12815 1.52117
  4176 20.1015 1.14071 1.30942
</Section>

newXOutput 15

<Section columns = "stress_xx | stress_yy | stress_xy">
  1 103.527 0.137522 -0.313641
  2 103.528 0.137574 0.313703
  3 137.782 -0.0447416 0.0822615
  4 137.781 -0.0448001 -0.0823149
  5 337.821 20.8111 3.98918
  6 425.062 5.31883 0.584047
  7 109.796 -0.00977796 -0.355030
  8 109.801 -0.00976501 0.355158
  9 143.528 -0.00948570 0.272358
  10 143.531 -0.00950384 -0.272373
  11 13.8267 -107.563 4.55688
  12 14.2077 -108.340 -4.97876
  13 119.921 1.63464 -0.171052
  14 119.920 1.63554 0.171025
  15 139.624 -0.249444 0.206999
  16 103.596 0.170584 -0.502832
  17 103.597 0.170602 0.503087
  18 139.625 -0.249471 -0.207168
  19 115.233 4.09958 -2.58468
  20 115.236 4.09938 2.58343
  21 109.780 0.333010 0.204028
  22 100.796 1.35928 0.0582534
  23 110.561 0.0343627 -0.343611
  24 111.204 0.0475805 -0.376718
  25 112.203 0.0458115 -0.543854
  26 113.033 0.0356112 -0.476821
  27 113.972 0.0416402 -0.560476
  28 115.187 0.0131601 -0.611911
  29 116.252 -0.0346598 -0.530610
  30 117.480 -0.00442885 -0.500851
  31 118.864 -0.0190654 -0.520995
  32 120.075 0.0138298 -0.539153
  33 121.665 0.0656070 -0.811206
  34 123.263 0.0800485 -0.834522
  35 124.930 0.0751887 -1.02740
  36 127.150 0.0244825 -1.11523
  37 128.741 -0.0370360 -1.08809
  38 131.231 0.00642589 -1.08338
  39 133.073 -0.0161777 -1.11289
  40 136.041 -0.0185902 -1.09179
  41 138.230 0.0717092 -1.35424
  42 140.875 0.127755 -1.58056
  43 144.093 -0.111894 -1.69301
  44 147.663 -0.129806 -1.58076
  45 150.449 -0.0560141 -1.54857
  46 154.455 -0.0293771 -1.56726
  47 157.397 -0.0136714 -2.04778
  48 160.576 0.0760875 -2.19657
  49 165.524 -0.257979 -1.98618
  50 170.206 -0.267854 -1.69878
  51 173.974 -0.209976 -1.81267
  52 179.112 -0.224073 -1.59325
  53 182.866 -0.135342 -2.14240
  54 187.869 -0.142628 -2.02356
  55 192.255 -0.116898 -2.37329
  56 195.620 -0.260327 -2.53223
  57 202.843 -0.873698 -2.04391
  58 204.364 -0.175558 -1.86152
  59 209.352 -0.0496610 -1.47995
  60 212.821 -0.291570 -1.67220
  61 215.854 -0.361906 -1.17835
  62 218.550 -0.389112 -0.919884
  63 220.114 -0.414773 -0.524567
  64 221.205 -0.475031 -0.0654333
  65 221.316 -0.592301 0.567475
  66 219.152 -0.640615 1.10284
  67 218.328 -0.623254 1.34862
  68 214.804 -0.904482 1.93720
  69 208.599 -0.673161 2.97927
  70 201.703 -0.600472 3.93053
  71 194.474 -0.417493 4.57223
  72 184.442 -0.329765 5.20575
  73 175.140 0.0439527 5.60357
  74 162.735 0.180018 5.59332
  75 153.935 0.416596 5.70598
  76 139.968 0.809005 4.71891
  77 130.813 1.17340 5.21300
  78 121.011 0.762235 3.41984
  79 115.945 1.22170 3.98873
  80 105.049 1.58247 1.93906
  81 104.821 1.38306 1.83378
  82 102.100 1.20376 -1.08508
  83 104.436 1.53602 -2.33756
  84 110.254 2.10272 -2.42920
  85 122.717 1.00689 -4.43311
  86 130.810 1.06165 -5.84951
  87 139.703 0.824299 -5.23003
  88 154.246 0.308994 -6.04453
  89 164.205 -0.144949 -6.26637
  90 174.442 0.0825932 -4.91893
  91 184.737 -0.0922716 -4.92396
  92 194.519 -0.392753 -4.42649
  93 201.770 -0.566673 -3.86843
  94 208.607 -0.661876 -2.95666
  95 214.784 -0.901016 -1.92747
  96 218.294 -0.621270 -1.34405
  97 219.114 -0.638273 -1.10093
  98 221.276 -0.590926 -0.568055
  99 221.169 -0.474154 0.0631669
  100 220.084 -0.414333 0.521542
  101 218.527 -0.388936 0.916647
  102 215.837 -0.361944 1.17525
  103 212.810 -0.291726 1.66935
  104 209.346 -0.0499654 1.47762
  105 204.363 -0.175905 1.85952
  106 202.844 -0.873815 2.04232
  107 195.625 -0.260361 2.53071
  108 192.263 -0.117071 2.37226
  109 187.879 -0.142782 2.02282
  110 182.877 -0.135486 2.14190
  111 179.124 -0.224181 1.59285
  112 173.987 -0.210059 1.81241
  113 170.220 -0.267939 1.69853
  114 165.538 -0.258063 1.98600
  115 160.590 0.0760218 2.19653
  116 157.411 -0.0137778 2.04786
  117 154.469 -0.0294430 1.56732
  118 150.463 -0.0560589 1.54870
  119 147.676 -0.129898 1.58088
  120 144.107 -0.111948 1.69320
  121 140.888 0.127759 1.58081
  122 138.243 0.0716715 1.35450
  123 136.053 -0.0186281 1.09196
  124 133.084 -0.0162014 1.11311
  125 131.242 0.00639820 1.08358
  126 128.752 -0.0370667 1.08835
  127 127.160 0.0244642 1.11548
  128 124.940 0.0751844 1.02767
  129 123.272 0.0800519 0.834765
  130 121.674 0.0656122 0.811433
  131 120.084 0.0138132 0.539316
  132 118.873 -0.0190871 0.521138
  133 117.487 -0.00444601 0.500993
  134 116.259 -0.0346819 0.530765
  135 115.194 0.0131488 0.612093
  136 113.978 0.0416410 0.560670
  137 113.040 0.0356137 0.476997
  138 112.209 0.0458247 0.544051
  139 111.209 0.0475767 0.376861
  140 110.567 0.0343531 0.343729
  141 106.827 0.513272 0.475452
  142 111.157 0.976692 0.388363
  143 115.010 1.53924 0.340290
  144 124.630 1.22662 -0.0492724
  145 129.499 0.806912 -0.0494233
  146 134.223 0.289940 0.0400263
  147 144.464 -0.0678295 -0.202113
  148 144.782 -0.0839231 -0.319119
  149 145.375 -0.111297 -0.162024
  150 145.720 -0.0966436 -0.284366
  151 145.894 -0.116312 -0.113616
  152 146.260 -0.0511514 -0.0587865
  153 145.972 -0.199108 -0.0371817
  154 145.585 -0.144159 0.296796
  155 145.380 -0.176464 0.423343
  156 144.489 -0.210492 0.473930
  157 142.800 -0.176588 0.791553
  158 141.175 -0.133395 0.944712
  159 138.697 -0.177864 1.22440
  160 136.053 -0.0573206 1.67084
  161 132.756 -0.0289556 1.30153
  162 129.835 -0.00547635 1.41482
  163 125.788 0.0826918 1.39358
  164 122.608 0.137139 1.70898
  165 118.832 0.191150 1.49204
  166 115.677 0.225160 1.37037
  167 112.701 0.355192 1.01768
  168 110.353 0.318649 0.641588
  169 110.305 0.199767 0.633365
  170 109.463 0.625551 -0.634869
  171 110.278 0.455892 -0.706625
  172 113.314 0.365566 -1.18653
  173 116.024 0.383520 -1.85274
  174 118.499 0.134395 -1.54061
  175 122.565 0.137764 -1.68874
  176 125.788 0.0944706 -1.40399
  177 129.865 -0.0121077 -1.42396
  178 132.789 -0.0315161 -1.30161
  179 136.080 -0.0581129 -1.66726
  180 138.719 -0.177735 -1.22164
  181 141.191 -0.133262 -0.942329
  182 142.812 -0.176429 -0.789628
  183 144.497 -0.210352 -0.472281
  184 145.385 -0.176383 -0.422158
  185 145.589 -0.144124 -0.295719
  186 145.974 -0.198989 0.0380883
  187 146.260 -0.0510284 0.0593990
  188 145.893 -0.116205 0.114084
  189 145.718 -0.0965418 0.284644
  190 145.373 -0.111208 0.162240
  191 144.780 -0.0838505 0.319195
  192 144.462 -0.0677741 0.202162
  193 134.222 0.289764 -0.0400919
  194 129.499 0.806424 0.0493398
  195 124.631 1.22588 0.0492047
  196 115.011 1.53841 -0.340221
  197 111.157 0.976153 -0.388257
  198 106.827 0.513037 -0.475352
  199 102.591 0.467354 -0.472063
  200 103.946 0.114758 -0.567346
  201 105.155 0.0694253 -0.534319
  202 106.179 0.0560996 -0.457304
  203 107.411 0.00815001 -0.529194
  204 108.170 -0.00287835 -0.456318
  205 108.819 -0.00189402 -0.332635
  206 110.094 0.0340677 -0.771846
  207 110.229 0.103717 -1.35530
  208 110.606 0.253501 -2.11209
  209 110.792 0.427820 -2.75026
  210 110.896 0.655219 -3.42683
  211 110.727 0.968474 -3.90486
  212 110.748 1.28680 -4.46033
  213 110.513 1.69685 -4.89390
  214 110.225 2.11046 -5.23447
  215 109.912 2.57784 -5.50188
  216 109.519 3.05746 -5.58902
  217 109.218 3.47363 -5.58061
  218 108.840 4.01315 -5.52105
  219 108.501 4.46478 -5.23787
  220 108.212 4.88262 -4.90577
  221 108.084 5.27274 -4.40041
  222 108.013 5.50660 -3.78291
  223 108.126 5.81197 -3.06979
  224 108.339 5.90590 -2.25745
  225 109.028 5.77792 -1.35059
  226 109.842 5.66709 -0.509501
  227 110.775 5.40327 0.356743
  228 112.029 5.09079 1.18934
  229 113.389 4.53789 1.96335
  230 117.027 3.38222 3.12918
  231 119.028 2.83498 3.49658
  232 120.945 2.29783 3.70888
  233 123.048 1.81315 3.71657
  234 124.858 1.29521 3.71382
  235 126.955 0.930351 3.57556
  236 128.801 0.599968 3.36490
  237 130.564 0.408119 3.12503
  238 132.485 0.249862 2.78539
  239 134.118 0.158950 2.43481
  240 135.828 0.0267341 2.11693
  241 137.520 0.0993630 1.75998
  242 139.205 0.0369374 1.39020
  243 140.806 0.0203891 0.997098
  244 142.331 0.0513324 0.559799
  245 143.026 -0.0573727 0.209083
  246 142.056 -0.0724860 0.242277
  247 140.822 -0.138084 0.367582
  248 137.930 -0.0691871 0.323461
  249 142.333 0.0512843 -0.559805
  250 140.808 0.0202072 -0.997090
  251 139.207 0.0365606 -1.39019
  252 137.522 0.0987839 -1.76001
  253 135.829 0.0258858 -2.11707
  254 134.120 0.157928 -2.43512
  255 132.486 0.248603 -2.78589
  256 130.565 0.406733 -3.12584
  257 128.801 0.598560 -3.36598
  258 126.955 0.928976 -3.57691
  259 124.857 1.29400 -3.71540
  260 123.047 1.81219 -3.71826
  261 120.943 2.29709 -3.71064
  262 119.026 2.83453 -3.49827
  263 117.025 3.38208 -3.13070
  264 113.386 4.53829 -1.96432
  265 112.025 5.09143 -1.18994
  266 110.771 5.40406 -0.357003
  267 109.839 5.66801 0.509592
  268 109.025 5.77892 1.35099
  269 108.337 5.90696 2.25818
  270 108.123 5.81305 3.07080
  271 108.011 5.50768 3.78417
  272 108.082 5.27379 4.40188
  273 108.211 4.88361 4.90742
  274 108.500 4.46570 5.23963
  275 108.840 4.01399 5.52290
  276 109.218 3.47436 5.58250
  277 109.520 3.05811 5.59092
  278 109.914 2.57840 5.50374
  279 110.227 2.11090 5.23626
  280 110.515 1.69722 4.89559
  281 110.751 1.28708 4.46188
  282 110.730 0.968699 3.90623
  283 110.900 0.655371 3.42805
  284 110.796 0.427928 2.75125
  285 110.610 0.253571 2.11286
  286 110.234 0.103739 1.35580
  287 110.098 0.0340713 0.772134
  288 108.824 -0.00191802 0.332756
  289 108.175 -0.00291775 0.456467
  290 107.415 0.00812255 0.529384
  291 106.182 0.0560891 0.457515
  292 105.158 0.0694237 0.534548
  293 103.948 0.114745 0.567562
  294 102.592 0.467383 0.472195
  295 137.931 -0.0691650 -0.323618
  296 140.824 -0.138136 -0.367754
  297 142.058 -0.0725188 -0.242369
  298 143.029 -0.0574072 -0.209129
  299 20.2581 -96.0544 -1.85542
  300 26.2204 -68.8960 -3.23879
  301 43.1251 -29.1512 10.5612
  302 69.8166 -1.18927 25.1973
  303 120.277 25.2232 49.5498
  304 172.172 39.5207 68.3472
  305 229.732 39.4444 70.6897
  306 288.074 33.7849 62.0776
  307 325.226 25.1575 35.5337
  308 316.957 28.4768 -31.9120
  309 285.113 32.3448 -64.5855
  310 228.978 40.7413 -72.9160
  311 167.322 39.0768 -65.6894
  312 116.309 31.1245 -54.3634
  313 71.1457 4.56796 -28.0821
  314 47.1727 -25.7960 -14.0940
  315 27.1937 -72.4628 4.53598
  316 22.2092 -100.017 1.99835
  317 14.7100 -118.435 -16.8253
  318 14.6439 -97.8055 -19.2622
  319 18.8761 -74.5987 -18.2866
  320 32.9587 -41.7304 -5.32461
  321 53.4452 -15.4446 7.82905
  322 84.7612 8.15023 24.8825
  323 130.148 17.2359 43.1223
  324 176.494 29.4554 62.3853
  325 219.625 28.9103 70.2488
  326 268.861 28.0539 75.3034
  327 315.084 24.1965 65.7637
  328 368.214 15.4160 62.2171
  329 394.388 11.9294 40.6482
  330 415.331 5.29198 19.4462
  331 422.153 6.55435 -23.0870
  332 397.174 9.89114 -42.5491
  333 366.139 16.9278 -56.3172
  334 326.968 23.9418 -69.4294
  335 275.443 27.1570 -72.5002
  336 229.461 31.0778 -73.3675
  337 172.922 27.5501 -60.0332
  338 125.848 18.8894 -42.0250
  339 78.2879 8.61335 -23.9607
  340 53.8726 -15.7530 -6.78091
  341 33.4334 -41.5648 5.24296
  342 18.9615 -74.5706 18.1767
  343 14.6545 -97.9546 19.1331
  344 14.6603 -119.026 16.5458
  345 109.176 1.56642 -2.30024
  346 115.628 2.63899 -0.212950
  347 126.686 1.35376 1.32535
  348 108.313 0.557594 -2.48838
  349 111.174 3.15030 -1.98311
  350 132.788 0.603107 1.59594
  351 109.150 2.03117 -3.60853
  352 119.958 2.64665 1.40587
  353 114.123 3.99520 0.130075
  354 109.567 3.65699 -3.34982
  355 108.785 0.197341 -1.74983
  356 127.849 1.33838 2.28569
  357 109.468 0.987738 -3.42775
  358 109.437 1.68980 -4.14219
  359 110.047 4.36942 -2.39505
  360 137.032 0.241863 1.33582
  361 122.453 2.23921 2.42972
  362 111.990 1.90884 -1.13461
  363 132.242 0.603852 2.18940
  364 109.142 3.44148 -4.30021
  365 117.203 3.48044 1.68779
  366 107.108 0.425445 -1.66371
  367 132.056 0.564340 0.760277
  368 120.048 2.23068 0.516070
  369 125.593 1.46201 2.96131
  370 110.725 4.95914 -1.18578
  371 112.909 4.62571 0.280577
  372 108.201 0.685016 -0.868971
  373 129.488 0.891164 2.83349
  374 109.337 2.68334 -4.72503
  375 109.012 4.63923 -3.54953
  376 109.304 0.0583167 -1.07870
  377 140.013 0.0668161 0.918429
  378 107.418 0.200572 -1.63862
  379 108.371 1.06689 -2.66126
  380 109.747 0.452474 -2.62127
  381 116.800 1.72638 -0.0853695
  382 109.605 2.38451 -2.85380
  383 123.763 1.92074 1.73149
  384 136.519 0.216436 1.74061
  385 137.447 0.145947 0.992650
  386 109.812 1.60008 -4.37062
  387 124.937 1.38400 0.619848
  388 110.978 2.43675 -1.89617
  389 120.111 2.69473 2.80022
  390 115.286 3.98235 1.47758
  391 106.389 0.237690 -1.40662
  392 116.788 3.03719 0.397617
  393 105.537 0.233331 -0.597862
  394 129.546 1.04680 1.71082
  395 111.999 4.02630 -1.25519
  396 113.755 3.10202 -0.772757
  397 108.909 1.49028 -3.38543
  398 109.512 0.233415 -1.94527
  399 108.850 4.05869 -4.49793
  400 109.444 5.07586 -2.49006
  401 132.840 0.395699 2.48365
  402 109.950 0.986790 -3.72242
  403 134.521 0.433767 0.926469
  404 112.837 1.43935 -0.469929
  405 112.364 2.70662 -1.36608
  406 109.355 2.61636 -3.61914
  407 108.386 0.0357703 -0.855961
  408 123.943 1.74655 3.20321
  409 109.523 2.54580 -5.07262
  410 110.274 2.80578 -2.51896
  411 111.149 5.09478 -0.349624
  412 138.550 0.115259 1.29652
  413 116.574 3.68530 2.25736
  414 139.201 0.146689 0.790468
  415 127.705 1.04696 3.05603
  416 109.136 3.32465 -4.96358
  417 108.540 0.492159 -2.35974
  418 109.765 1.29374 -1.13900
  419 119.964 2.77318 2.09231
  420 107.517 0.0761916 -0.978005
  421 115.787 3.73406 0.888259
  422 108.968 1.16279 -3.31638
  423 130.599 0.913119 2.09377
  424 114.933 2.05662 -0.419474
  425 124.993 1.81857 2.36709
  426 129.198 0.897866 1.17101
  427 121.836 2.24964 1.21704
  428 107.971 0.835864 -1.46685
  429 108.669 5.15634 -3.19554
  430 110.358 0.760927 -3.39519
  431 109.425 5.30921 -1.85367
  432 120.746 1.78763 0.335535
  433 134.851 0.402393 1.88207
  434 108.583 4.63374 -4.30925
  435 110.191 3.59975 -2.66737
  436 131.042 0.618711 2.77980
  437 134.920 0.227335 2.13697
  438 107.520 0.544737 -2.04833
  439 110.240 1.36808 -4.32239
  440 109.800 2.09515 -4.83162
  441 104.938 0.0596944 -0.884904
  442 118.575 3.06366 2.85790
  443 121.736 2.26785 3.19054
  444 109.345 3.03325 -5.18995
  445 112.182 4.43464 -0.670539
  446 125.826 1.31820 3.29019
  447 108.825 3.91594 -4.91727
  448 109.951 5.38060 -1.06532
  449 109.021 1.72102 -2.96051
  450 126.441 1.55495 1.82283
  451 128.679 0.932850 0.705102
  452 108.442 5.04116 -3.85344
  453 113.419 4.48636 1.13395
  454 129.555 0.698394 3.03175
  455 135.241 0.279925 0.458712
  456 117.763 2.47094 0.270822
  457 121.922 2.29754 1.97957
  458 110.535 1.17074 -0.791064
  459 141.290 0.0399465 0.743195
  460 117.719 3.18681 1.16085
  461 111.966 4.97211 0.477762
  462 109.091 0.556759 -2.62090
  463 109.116 3.92799 -3.88293
  464 109.354 4.65428 -2.96815
  465 132.247 0.653456 1.27281
  466 109.311 2.13326 -4.16080
  467 109.233 2.68109 -4.27186
  468 108.378 0.989420 -2.14914
  469 135.534 0.330931 1.40442
  470 131.100 0.713847 2.60246
  471 117.644 2.17962 0.0110523
  472 123.543 1.73156 0.952395
  473 129.633 0.950013 2.52732
  474 109.878 0.153154 -1.69878
  475 111.102 3.85245 -1.90193
  476 110.136 4.84661 -1.87810
  477 105.221 0.291119 -0.485777
  478 114.674 4.17091 1.86386
  479 134.151 0.374612 2.13006
  480 110.436 0.508788 -2.91108
  481 109.062 0.847837 -0.322778
  482 107.346 0.406596 -1.93083
  483 109.813 1.27854 -4.02071
  484 127.537 1.23275 2.62144
  485 110.207 0.352711 -2.33753
  486 139.699 0.0537734 1.21651
  487 118.525 3.22561 2.36055
  488 137.289 0.108610 0.549927
  489 136.521 0.157064 1.92454
  490 109.414 0.0135772 -0.608018
  491 106.291 0.0727947 -1.04806
  492 126.596 1.24136 1.05308
  493 131.989 0.541428 0.338543
  494 133.230 0.592153 1.81376
  495 109.537 1.43543 -3.94482
  496 109.781 3.11227 -3.14582
  497 109.729 0.729909 -3.16567
  498 110.144 1.77969 -4.73302
  499 113.184 3.76909 -0.680213
  500 114.878 3.37530 -0.107543
  501 109.248 0.105442 -1.43084
  502 118.928 2.70117 0.817769
  503 109.582 4.20803 -3.12073
  504 141.814 -0.0245130 0.409996
  505 109.386 3.30899 -3.67391
  506 113.824 2.35327 -0.826552
  507 110.038 1.64057 -1.77841
  508 123.816 1.96358 2.79972
  509 114.283 4.19224 0.776009
  510 120.022 2.62827 3.20148
  511 108.229 0.250203 -1.85195
  512 108.891 0.756191 -2.85739
  513 137.887 0.148816 1.56564
  514 105.687 0.118242 -1.00998
  515 126.906 1.09209 0.385490
  516 108.756 0.0177608 -0.526043
  517 109.483 2.16244 -4.61273
  518 106.323 0.0534463 -0.767042
  519 136.251 0.157114 0.195524
  520 103.579 0.357247 -0.521480
  521 111.032 4.45240 -1.51993
  522 108.368 0.830893 -2.69633
  523 124.511 1.79448 1.48493
  524 141.123 -0.00389977 0.367595
  525 142.629 0.0456346 0.370320
  526 108.742 5.46403 -2.57909
  527 110.015 2.14421 -2.27439
  528 138.436 0.0886288 1.28843
  529 139.192 0.0351871 0.351891
  530 135.075 0.349108 1.09071
  531 115.783 3.51438 0.496746
  532 137.460 0.227533 1.19042
  533 112.286 3.50583 -1.32511
  534 108.531 4.36651 -4.80218
  535 108.881 1.62234 -3.21887
  536 123.096 1.47211 0.190272
  537 110.447 1.06642 -3.96772
  538 128.654 1.25835 1.96730
  539 121.961 2.25175 2.78418
  540 105.120 0.0657991 -0.721937
  541 109.177 1.56697 2.30129
  542 115.627 2.63997 0.213074
  543 126.685 1.35423 -1.32597
  544 108.316 0.557767 2.48942
  545 111.173 3.15127 1.98397
  546 132.789 0.603132 -1.59662
  547 109.150 2.03173 3.60998
  548 119.957 2.64729 -1.40653
  549 114.121 3.99616 -0.130177
  550 109.566 3.65793 3.35113
  551 108.789 0.197397 1.75052
  552 127.849 1.33832 -2.28663
  553 109.471 0.987988 3.42905
  554 109.438 1.69023 4.14374
  555 110.046 4.37048 2.39595
  556 137.033 0.241745 -1.33626
  557 122.451 2.23927 -2.43083
  558 111.989 1.90964 1.13518
  559 132.243 0.603501 -2.19011
  560 109.142 3.44231 4.30180
  561 117.201 3.48096 -1.68862
  562 107.109 0.425623 1.66447
  563 132.057 0.564626 -0.760699
  564 120.046 2.23156 -0.516332
  565 125.592 1.46149 -2.96254
  566 110.723 4.96019 1.18620
  567 112.907 4.62661 -0.280750
  568 108.202 0.685340 0.869468
  569 129.488 0.890468 -2.83444
  570 109.338 2.68397 4.72676
  571 109.010 4.64025 3.55083
  572 109.308 0.0583369 1.07910
  573 140.015 0.0667370 -0.918652
  574 107.421 0.200645 1.63932
  575 108.373 1.06725 2.66240
  576 109.751 0.452580 2.62226
  577 116.799 1.72730 0.0854566
  578 109.605 2.38523 2.85503
  579 123.762 1.92115 -1.73228
  580 136.520 0.216089 -1.74099
  581 137.448 0.145933 -0.993085
  582 109.814 1.60046 4.37221
  583 124.937 1.38472 -0.620126
  584 110.978 2.43758 1.89704
  585 120.109 2.69465 -2.80155
  586 115.283 3.98294 -1.47829
  587 106.391 0.237780 1.40725
  588 116.786 3.03812 -0.397796
  589 105.538 0.233451 0.598252
  590 129.546 1.04700 -1.71156
  591 111.997 4.02737 1.25569
  592 113.754 3.10303 0.773114
  593 108.911 1.49069 3.38681
  594 109.516 0.233467 1.94602
  595 108.849 4.05960 4.49955
  596 109.442 5.07696 2.49096
  597 132.841 0.394933 -2.48425
  598 109.953 0.987023 3.72380
  599 134.522 0.433916 -0.926933
  600 112.837 1.44010 0.470178
  601 112.363 2.70758 1.36671
  602 109.355 2.61707 3.62057
  603 108.390 0.0357742 0.856292
  604 123.943 1.74592 -3.20463
  605 109.524 2.54638 5.07440
  606 110.273 2.80665 2.52005
  607 111.146 5.09572 0.349674
  608 138.551 0.115054 -1.29676
  609 116.571 3.68558 -2.25846
  610 139.202 0.146657 -0.790763
  611 127.705 1.04609 -3.05717
  612 109.136 3.32540 4.96533
  613 108.543 0.492312 2.36069
  614 109.766 1.29429 1.13968
  615 119.962 2.77350 -2.09330
  616 107.521 0.0762173 0.978398
  617 115.785 3.73485 -0.888710
  618 108.970 1.16309 3.31770
  619 130.600 0.913041 -2.09459
  620 114.932 2.05755 0.419746
  621 124.992 1.81859 -2.36811
  622 129.198 0.898236 -1.17157
  623 121.834 2.25034 -1.21761
  624 107.972 0.836204 1.46762
  625 108.667 5.15740 3.19666
  626 110.361 0.761121 3.39641
  627 109.422 5.31027 1.85430
  628 120.745 1.78852 -0.335666
  629 134.852 0.402134 -1.88265
  630 108.582 4.63474 4.31075
  631 110.190 3.60073 2.66844
  632 131.042 0.617797 -2.78057
  633 134.921 0.226667 -2.13735
  634 107.521 0.544927 2.04924
  635 110.242 1.36840 4.32393
  636 109.802 2.09562 4.83333
  637 104.940 0.0597292 0.885312
  638 118.573 3.06360 -2.85928
  639 121.735 2.26738 -3.19204
  640 109.346 3.03392 5.19176
  641 112.179 4.43567 0.670767
  642 125.825 1.31729 -3.29153
  643 108.825 3.91680 4.91899
  644 109.948 5.38160 1.06564
  645 109.022 1.72156 2.96179
  646 126.441 1.55521 -1.82365
  647 128.679 0.933352 -0.705460
  648 108.441 5.04221 3.85478
  649 113.416 4.48703 -1.13453
  650 129.555 0.697342 -3.03271
  651 135.241 0.280066 -0.458991
  652 117.762 2.47188 -0.270950
  653 121.921 2.29790 -1.98046
  654 110.535 1.17131 0.791542
  655 141.292 0.0398679 -0.743286
  656 117.718 3.18755 -1.16139
  657 111.963 4.97293 -0.478069
  658 109.094 0.556901 2.62192
  659 109.115 3.92894 3.88437
  660 109.353 4.65533 2.96923
  661 132.247 0.653641 -1.27341
  662 109.312 2.13380 4.16239
  663 109.234 2.68177 4.27347
  664 108.379 0.989794 2.15016
  665 135.535 0.330865 -1.40497
  666 131.101 0.713256 -2.60327
  667 117.643 2.18059 -0.0110434
  668 123.542 1.73228 -0.952831
  669 129.633 0.949664 -2.52823
  670 109.883 0.153189 1.69942
  671 111.101 3.85348 1.90269
  672 110.134 4.84769 1.87878
  673 105.222 0.291263 0.485975
  674 114.672 4.17136 -1.86478
  675 134.151 0.374136 -2.13061
  676 110.440 0.508909 2.91214
  677 109.062 0.848258 0.323044
  678 107.349 0.406722 1.93167
  679 109.816 1.27886 4.02219
  680 127.536 1.23238 -2.62248
  681 110.211 0.352800 2.33839
  682 139.701 0.0535593 -1.21664
  683 118.523 3.22586 -2.36168
  684 137.291 0.108656 -0.550236
  685 136.523 0.156501 -1.92477
  686 109.418 0.0135930 0.608252
  687 106.294 0.0728480 1.04852
  688 126.596 1.24193 -1.05355
  689 131.989 0.541758 -0.338745
  690 133.231 0.592026 -1.81444
  691 109.539 1.43578 3.94631
  692 109.781 3.11312 3.14711
  693 109.732 0.730095 3.16686
  694 110.146 1.78009 4.73469
  695 113.182 3.77013 0.680488
  696 114.876 3.37630 0.107591
  697 109.252 0.105489 1.43138
  698 118.927 2.70200 -0.818155
  699 109.581 4.20905 3.12193
  700 141.817 -0.0245485 -0.410103
  701 109.385 3.30984 3.67534
  702 113.823 2.35423 0.826951
  703 110.038 1.64121 1.77927
  704 123.815 1.96337 -2.80095
  705 114.281 4.19304 -0.776407
  706 120.020 2.62792 -3.20301
  707 108.232 0.250269 1.85272
  708 108.893 0.756385 2.85854
  709 137.889 0.148460 -1.56581
  710 105.689 0.118346 1.01047
  711 126.906 1.09272 -0.385655
  712 108.761 0.0177572 0.526239
  713 109.484 2.16296 4.61441
  714 106.327 0.0534746 0.767364
  715 136.252 0.157216 -0.195641
  716 103.581 0.357289 0.521677
  717 111.030 4.45348 1.52051
  718 108.370 0.831146 2.69743
  719 124.510 1.79501 -1.48559
  720 141.125 -0.00392718 -0.367736
  721 142.632 0.0456290 -0.370374
  722 108.740 5.46511 2.57997
  723 110.014 2.14495 2.27542
  724 138.438 0.0884686 -1.28878
  725 139.194 0.0351973 -0.352118
  726 135.076 0.349171 -1.09124
  727 115.781 3.51530 -0.496988
  728 137.462 0.227494 -1.19088
  729 112.285 3.50686 1.32568
  730 108.531 4.36744 4.80383
  731 108.882 1.62281 3.22020
  732 123.095 1.47292 -0.190380
  733 110.450 1.06666 3.96913
  734 128.654 1.25845 -1.96815
  735 121.960 2.25157 -2.78547
  736 105.123 0.0658129 0.722263
  737 85.6475 13.0609 5.72729
  738 85.6584 13.0581 -5.72609
  739 130.382 -10.8000 11.9488
  740 130.416 -10.8525 -11.9352
  741 110.317 5.88105 11.6721
  742 110.316 5.88053 -11.6693
  743 98.1631 0.923601 -27.2918
  744 98.1765 0.913594 27.2971
  745 151.429 0.566540 12.2699
  746 151.448 2.13642 -12.4003
  747 117.229 5.80064 -18.6160
  748 117.234 5.79915 18.6191
  749 147.123 -17.6491 18.2243
  750 147.077 -17.6409 -18.2040
  751 106.801 4.70756 -8.39553
  752 106.807 4.71044 8.39237
  753 136.646 -3.35451 1.71136
  754 136.651 -3.35947 -1.70811
  755 92.0040 -7.03824 27.5732
  756 91.9855 -7.02791 -27.5659
  757 101.499 9.37678 4.79810
  758 101.503 9.37576 -4.79710
  759 114.595 1.74473 -6.64300
  760 114.599 1.74499 6.64489
  761 138.003 11.3481 -0.353975
  762 142.046 -5.52723 5.85023
  763 142.041 -5.52442 -5.84358
  764 136.025 2.07726 -22.0222
  765 136.036 2.07291 22.0213
  766 122.442 2.64985 11.5936
  767 122.435 2.64996 -11.5913
  768 152.725 -21.2165 -11.1831
  769 152.132 -21.6835 11.8843
  770 193.510 -14.1790 8.79433
  771 193.494 -14.0946 -8.80930
  772 154.780 -2.93398 -19.7215
  773 154.796 -2.94016 19.7156
  774 123.703 -1.31002 7.15483
  775 123.704 -1.31505 -7.15884
  776 167.764 31.2044 4.16976
  777 55.6273 5.90334 -0.999340
  778 55.6675 5.89401 1.00918
  779 217.003 7.14361 -17.4194
  780 215.104 6.89568 17.9359
  781 219.326 18.7039 2.31917
  782 137.207 2.10651 -15.3042
  783 137.216 2.10527 15.3050
  784 106.943 6.39358 -7.67901
  785 106.942 6.39455 7.68117
  786 176.215 9.58866 -8.03585
  787 119.594 1.17406 6.90612
  788 119.588 1.17397 -6.90441
  789 134.263 3.22183 -8.52533
  790 134.409 3.31580 8.67698
  791 101.404 10.1124 13.8482
  792 101.406 10.1118 -13.8447
  793 92.5281 10.1699 19.4989
  794 92.5293 10.1725 -19.4916
  795 147.348 -13.0278 -0.561601
  796 147.341 -13.0467 0.560544
  797 184.866 -10.4441 -0.906281
  798 184.875 -10.4168 0.884773
  799 90.1597 7.67726 -10.5503
  800 90.1678 7.67981 10.5414
  801 72.2351 -19.1300 -26.2950
  802 72.2821 -19.1413 26.2940
  803 179.554 6.00323 4.70667
  804 105.728 7.34906 -1.57333
  805 105.732 7.34885 1.57250
  806 139.050 -0.777275 -1.24996
  807 139.048 -0.775655 1.25176
  808 140.540 -2.27201 2.19388
  809 140.540 -2.26927 -2.18774
  810 137.484 -1.38053 8.89023
  811 137.495 -1.39373 -8.88806
  812 138.718 -7.93872 1.78193
  813 138.729 -7.94657 -1.77622
  814 134.732 1.32376 10.2296
  815 134.723 1.32408 -10.2284
  816 183.643 -4.23285 -9.13129
  817 183.652 -4.23537 9.11736
  818 111.870 -3.02279 -16.0028
  819 111.881 -3.01354 15.9968
  820 113.798 0.549723 -3.56701
  821 113.803 0.549828 3.56815
  822 130.872 -1.44461 4.06235
  823 130.874 -1.44875 -4.06299
  824 110.528 3.60279 7.44268
  825 110.526 3.60219 -7.44046
  826 108.358 -25.2613 -35.8741
  827 105.598 -24.8615 36.2199
  828 151.802 19.5817 -7.50618
  829 114.803 3.01972 5.98802
  830 114.799 3.01815 -5.99093
  831 161.985 -0.0399712 -14.6319
  832 161.996 -0.0421981 14.6283
  833 125.976 -15.4297 -21.0038
  834 125.753 -15.4175 20.9842
  835 94.4161 10.7079 -0.389456
  836 94.4235 10.7075 0.387727
  837 190.383 -2.67024 -21.2521
  838 190.432 -2.26106 21.1683
  839 51.0694 -17.0870 27.7702
  840 51.0786 -17.0301 -27.9504
  841 183.050 9.97188 -11.1988
  842 142.487 -24.7943 -16.7563
  843 142.521 -24.5705 17.3223
  844 103.170 8.95116 9.55377
  845 103.172 8.95012 -9.55141
  846 112.483 6.43850 15.1045
  847 112.480 6.43861 -15.1013
  848 148.177 15.7202 8.20886
  849 116.840 0.520178 -4.10773
  850 116.846 0.520259 4.10891
  851 152.350 0.761947 12.9274
  852 152.339 0.763128 -12.9282
  853 123.337 -8.57150 -27.0951
  854 123.353 -8.57336 27.0954
  855 261.949 21.6113 -3.45932
  856 31.9905 -18.3501 -4.49431
  857 31.9683 -18.3719 4.56180
  858 126.854 0.738885 6.24573
  859 126.846 0.738869 -6.24445
  860 105.587 7.24272 4.79190
  861 105.590 7.24162 -4.79054
  862 126.422 3.88162 -2.34896
  863 112.955 6.14136 23.0945
  864 112.948 6.14569 -23.0909
  865 195.079 -5.90944 -13.0805
  866 195.132 -5.96377 13.1291
  867 131.863 -4.67446 5.21084
  868 131.869 -4.68252 -5.21165
  869 147.503 -6.22166 -8.97553
  870 147.501 -6.23461 8.99095
  871 139.453 -1.76355 4.82441
  872 139.457 -1.76189 -4.81662
  873 173.626 6.92572 13.8279
  874 72.4470 7.85429 16.9803
  875 72.4537 7.85841 -16.9650
  876 75.1573 10.3209 -5.97967
  877 75.1784 10.3146 5.97282
  878 166.167 -14.2459 16.9417
  879 114.679 3.21341 9.41789
  880 114.676 3.21306 -9.41550
  881 198.870 38.1679 -1.78187
  882 116.763 -0.592909 10.3343
  883 116.758 -0.597976 -10.3395
  884 216.441 -1.75315 0.231775
  885 216.389 -1.50782 -0.520876
  886 157.490 -10.3326 -5.77618
  887 157.072 -9.82205 6.21340
  888 265.818 20.0549 1.78886
  889 127.677 -0.453978 25.6634
  890 127.663 -0.447129 -25.6643
  891 158.402 -16.3791 -22.2270
  892 141.388 -1.02680 0.213716
  893 141.388 -1.02531 -0.210240
  894 182.444 -1.72570 -11.0551
  895 182.450 -1.72878 11.0462
  896 112.235 1.43709 -5.35953
  897 112.239 1.43736 5.36123
  898 95.6752 11.6077 -7.41168
  899 95.6694 11.6091 7.41315
  900 125.427 3.17411 3.21184
  901 208.100 35.4829 -0.896407
  902 123.381 3.86596 14.9344
  903 123.375 3.86653 -14.9321
  904 141.708 0.252915 -11.3080
  905 141.888 0.187265 11.3126
  906 124.718 0.246877 5.09985
  907 124.718 0.243935 -5.10222
  908 134.464 -0.694159 -2.63339
  909 134.462 -0.691844 2.63381
  910 161.356 12.9373 12.1071
  911 102.334 9.89614 17.6382
  912 102.334 9.89699 -17.6336
  913 106.018 7.24876 1.65699
  914 106.022 7.24787 -1.65664
  915 77.3787 12.4749 8.43505
  916 77.3934 12.4718 -8.42924
  917 143.461 7.79705 -10.4089
  918 126.791 -5.33289 -9.12614
  919 126.787 -5.32354 9.12034
  920 173.229 2.37252 -18.4080
  921 157.989 -9.10976 -17.6567
  922 158.017 -9.11827 17.6516
  923 66.8755 -5.09708 -23.6522
  924 66.8924 -5.11531 23.6683
  925 175.251 2.21117 19.2377
  926 143.229 -17.4842 9.47505
  927 144.220 -18.0546 -9.54763
  928 144.045 0.694486 -8.88464
  929 144.056 0.694144 8.88515
  930 130.634 0.379165 -7.23392
  931 130.576 0.480006 7.23671
  932 106.893 -26.4713 -25.3219
  933 107.000 -26.4720 25.0555
  934 111.080 4.39981 9.36656
  935 111.078 4.39924 -9.36405
  936 140.371 -5.31366 -2.05078
  937 140.376 -5.31760 2.05751
  938 171.856 -19.9949 -4.99968
  939 171.973 -19.9902 4.93524
  940 111.028 5.11709 3.49184
  941 111.024 5.11689 -3.49344
  942 161.684 6.87519 2.87402
  943 115.478 4.18200 11.9034
  944 115.474 4.18180 -11.9007
  945 127.214 4.03015 20.7682
  946 127.206 4.03308 -20.7668
  947 101.273 8.27867 -3.02193
  948 101.279 8.27922 3.02023
  949 295.090 24.8243 -0.749019
  950 67.6392 2.31459 -18.4121
  951 67.6679 2.30944 18.3896
  952 132.141 0.655727 6.77780
  953 132.131 0.655794 -6.77668
  954 170.846 -12.2556 -16.5795
  955 171.937 -11.8775 14.7922
  956 108.742 4.68953 6.79397
  957 108.742 4.68870 -6.79188
  958 112.398 0.197607 -1.94748
  959 112.403 0.197656 1.94814
  960 177.600 -0.444108 -10.8294
  961 177.608 -0.446108 10.8239
  962 261.965 12.4570 6.41982
  963 120.125 0.335250 3.39709
  964 120.118 0.335203 -3.39618
  965 123.919 0.359738 -4.15578
  966 123.928 0.359757 4.15676
  967 198.281 -2.89987 -2.82857
  968 198.274 -2.89628 2.81707
  969 159.808 9.83988 -12.1808
  970 99.7491 -0.803730 -19.4943
  971 99.7467 -0.788225 19.4794
  972 256.010 13.0662 -7.41084
  973 137.644 9.04399 6.10975
  974 141.015 -0.174759 -1.11068
  975 141.013 -0.174207 1.11139
  976 107.470 6.53738 9.43573
  977 107.470 6.53653 -9.43322
  978 201.824 -3.28108 3.91298
  979 201.802 -3.26414 -3.90640
  980 139.995 -11.9240 4.63320
  981 140.050 -11.9646 -4.62921
  982 143.447 -9.08771 -2.39208
  983 143.452 -9.08975 2.40199
  984 151.014 22.2089 0.877332
  985 95.8300 7.36556 23.5033
  986 95.8254 7.37167 -23.4958
  987 107.360 7.82012 13.1000
  988 107.359 7.81961 -13.0968
  989 124.095 1.41446 -4.54088
  990 168.348 -9.24255 -1.69140
  991 205.805 21.5141 13.0508
  992 170.199 26.7206 -8.41750
  993 107.085 6.00486 5.79594
  994 107.087 6.00383 -5.79415
  995 136.590 -0.922788 -5.41948
  996 136.581 -0.921255 5.42600
  997 102.598 3.63879 -12.1298
  998 102.604 3.64474 12.1253
  999 104.024 8.25091 7.07923
  1000 104.027 8.24982 -7.07740
  1001 136.167 8.45601 -5.46675
  1002 92.3459 12.1847 12.5238
  1003 92.3516 12.1837 -12.5199
  1004 118.732 2.37702 4.89901
  1005 118.729 2.37564 -4.90149
  1006 121.550 1.83052 -8.88877
  1007 121.557 1.83059 8.89073
  1008 108.190 5.68124 -4.95746
  1009 108.196 5.68214 4.95536
  1010 118.047 3.51647 25.0017
  1011 118.037 3.52271 -24.9998
  1012 163.883 0.415553 9.62360
  1013 163.872 0.416323 -9.62519
  1014 143.615 5.90353 11.2595
  1015 87.5055 11.5552 -2.28436
  1016 87.5162 11.5537 2.28058
  1017 190.871 -2.83328 -14.9994
  1018 191.004 -2.77856 14.9572
  1019 147.240 -0.761758 21.4615
  1020 147.226 -0.756351 -21.4654
  1021 110.619 -16.3879 29.3788
  1022 110.490 -16.4053 -29.6001
  1023 170.979 -11.7483 10.4027
  1024 170.944 -11.7471 -10.4190
  1025 133.714 -8.19729 6.59625
  1026 133.727 -8.20772 -6.59758
  1027 136.201 -1.71671 -2.09764
  1028 136.198 -1.71339 2.09945
  1029 110.898 2.58132 6.32542
  1030 110.896 2.58083 -6.32341
  1031 165.826 -11.4084 1.69226
  1032 97.2380 7.94019 -6.91619
  1033 97.2448 7.94260 6.91222
  1034 95.2488 -8.78553 28.8760
  1035 95.2269 -8.77640 -28.8785
  1036 115.216 0.192349 -2.38060
  1037 115.222 0.192372 2.38133
  1038 124.577 1.09472 5.07181
  1039 83.1309 4.95365 -15.7245
  1040 83.1429 4.95294 15.7080
  1041 139.197 -2.55448 -0.0974354
  1042 139.199 -2.55790 0.102021
  1043 141.215 -0.767624 2.37390
  1044 141.220 -0.766325 -2.36847
  1045 102.727 8.73850 1.11497
  1046 102.732 8.73784 -1.11505
  1047 127.742 -18.6523 33.6198
  1048 141.799 -3.84835 -8.79420
  1049 141.807 -3.84523 8.80546
  1050 62.8604 -29.9206 32.6249
  1051 62.5586 -28.8364 -33.2021
  1052 189.357 9.33154 -18.5521
  1053 122.186 -9.21545 -16.6793
  1054 122.115 -9.22148 16.7249
  1055 142.503 -0.246687 -0.448762
  1056 142.502 -0.246133 0.450285
  1057 108.115 6.47496 -0.606348
  1058 108.119 6.47436 0.605950
  1059 112.127 0.550622 3.37983
  1060 112.123 0.550505 -3.37869
  1061 127.633 3.65855 16.6871
  1062 127.625 3.65973 -16.6852
  1063 122.407 -6.14118 13.1583
  1064 122.400 -6.15412 -13.1656
  1065 112.160 2.57827 7.03897
  1066 112.158 2.57784 -7.03689
  1067 194.901 -6.85896 18.1110
  1068 194.851 -6.91635 -18.0862
  1069 128.658 -2.46341 5.61987
  1070 128.661 -2.46930 -5.62201
  1071 116.764 1.52479 6.81059
  1072 116.759 1.52459 -6.80877
  1073 119.073 -16.5081 -26.9433
  1074 119.068 -16.4939 26.9453
  1075 128.300 1.67255 10.3678
  1076 128.292 1.67274 -10.3660
  1077 137.287 -0.364075 -1.94159
  1078 137.286 -0.362777 1.94217
  1079 208.448 -2.50877 -17.7830
  1080 208.634 -2.39601 17.7857
  1081 31.8219 -43.1979 -10.0321
  1082 31.8569 -43.2066 9.98062
  1083 196.145 -1.39621 -6.10650
  1084 196.143 -1.39760 6.09670
  1085 83.5915 -15.5771 34.1141
  1086 84.1753 -15.5284 -33.8731
  1087 153.003 0.359658 7.92038
  1088 152.991 0.360003 -7.92047
  1089 142.479 -0.691649 1.05259
  1090 142.482 -0.690653 -1.04876
  1091 22.3884 -39.7151 -12.4308
  1092 22.7248 -39.4000 12.8717
  1093 140.817 0.410393 -6.42604
  1094 140.828 0.410254 6.42672
  1095 111.965 2.85776 8.21893
  1096 111.960 2.85505 -8.22255
  1097 38.2161 -7.47266 -8.68769
  1098 38.3085 -7.49981 8.69551
  1099 57.5133 -35.8344 18.4286
  1100 57.4827 -35.9002 -18.4270
  1101 137.979 -5.56125 1.05580
  1102 137.986 -5.56732 -1.05082
  1103 98.9938 9.83627 1.12024
  1104 98.9996 9.83576 -1.12072
  1105 140.316 2.03266 -17.1575
  1106 140.326 2.03068 17.1575
  1107 187.475 -12.2910 5.10457
  1108 187.458 -12.2287 -5.12360
  1109 109.208 -9.04630 -23.8661
  1110 109.154 -8.99177 23.8267
  1111 144.574 -24.1768 24.8638
  1112 149.416 1.06660 -17.0167
  1113 149.427 1.06419 17.0150
  1114 140.716 -3.69838 -4.37496
  1115 140.718 -3.70153 4.38231
  1116 132.540 -2.83300 3.92703
  1117 132.544 -2.83863 -3.92679
  1118 128.314 0.0807411 3.97125
  1119 128.315 0.0782754 -3.97254
  1120 174.117 24.8671 8.91587
  1121 86.8758 -30.0046 -18.9172
  1122 86.9569 -29.3625 18.5079
  1123 108.107 -20.5357 -34.6921
  1124 218.153 16.2004 10.8192
  1125 143.664 13.9200 -6.23763
  1126 134.976 -24.5211 -25.3404
  1127 56.2140 2.86954 12.1497
  1128 56.2319 2.87436 -12.1248
  1129 110.184 7.78651 17.6218
  1130 110.182 7.78726 -17.6181
  1131 129.563 5.64655 1.44767
  1132 132.328 -0.256167 -5.95481
  1133 132.320 -0.230683 5.95803
  1134 162.880 -2.08381 9.79038
  1135 174.510 0.217346 -8.01991
  1136 174.520 0.216649 8.01753
  1137 220.360 19.0403 -6.82909
  1138 136.460 -21.7272 21.5397
  1139 109.146 5.12444 -8.53835
  1140 109.146 5.12519 8.54075
  1141 151.531 -6.11086 -9.37211
  1142 152.143 -5.75391 9.64095
  1143 113.425 2.94965 8.39291
  1144 113.422 2.94926 -8.39061
  1145 142.111 3.91496 -4.85540
  1146 118.316 0.684906 -7.54927
  1147 118.319 0.688287 7.54522
  1148 215.617 13.0925 -14.7242
  1149 114.089 4.10151 -3.95064
  1150 114.092 4.10192 3.94875
  1151 173.315 0.0627558 16.8880
  1152 171.756 -4.16328 -14.2234
  1153 171.771 -4.16876 14.2132
  1154 154.366 3.10384 -13.0180
  1155 172.749 0.204269 -16.7502
  1156 115.297 0.864018 -4.90475
  1157 115.302 0.864164 4.90619
  1158 139.036 -2.22543 -7.33791
  1159 139.035 -2.22156 7.34668
  1160 118.780 1.62930 0.219206
  1161 118.440 4.59802 14.4950
  1162 118.435 4.59828 -14.4922
  1163 163.292 -1.67558 -9.75217
  1164 99.6067 10.2063 6.95340
  1165 99.6109 10.2052 -6.95191
  1166 133.219 -14.5079 14.4257
  1167 134.292 -15.1294 -14.2058
  1168 109.225 7.79409 20.5019
  1169 109.221 7.79647 -20.4978
  1170 109.721 3.49692 6.46228
  1171 109.720 3.49626 -6.46023
  1172 138.706 -1.62268 0.917483
  1173 138.708 -1.62536 -0.914485
  1174 91.7531 12.2628 4.50408
  1175 91.7610 12.2611 -4.50389
  1176 109.275 1.19364 11.8405
  1177 109.269 1.18821 -11.8451
  1178 130.853 0.310634 4.00746
  1179 130.843 0.310641 -4.00669
  1180 153.089 -17.3571 3.41811
  1181 153.961 -17.1867 -2.91863
  1182 118.161 2.38827 9.17766
  1183 118.156 2.38808 -9.17548
  1184 113.660 0.127519 1.87850
  1185 113.654 0.127501 -1.87790
  1186 202.285 -2.50054 -7.30246
  1187 202.304 -2.51989 7.33025
  1188 118.191 0.157419 -2.10491
  1189 118.198 0.157432 2.10551
  1190 137.908 -4.04371 24.0964
  1191 137.891 -4.03726 -24.0989
  1192 240.872 39.1288 -1.22402
  1193 99.8015 10.5508 10.0814
  1194 99.8049 10.5497 -10.0790
  1195 136.067 1.67979 12.7413
  1196 136.057 1.68046 -12.7402
  1197 135.584 1.08118 -9.59137
  1198 135.769 1.04907 9.69690
  1199 332.101 19.8162 10.0189
  1200 158.522 21.3797 8.96593
  1201 68.7222 10.9071 0.577165
  1202 68.7478 10.8994 -0.574754
  1203 106.413 6.79349 3.30321
  1204 106.416 6.79243 -3.30226
  1205 323.757 21.3874 -9.98612
  1206 131.507 -0.211389 -3.25466
  1207 131.506 -0.209215 3.25417
  1208 151.993 -22.9571 -14.4501
  1209 152.171 -22.9708 14.5030
  1210 106.860 7.39262 -10.9512
  1211 106.860 7.39341 10.9539
  1212 150.968 2.22862 12.0957
  1213 143.109 3.10517 7.61809
  1214 140.119 -20.6947 -17.5878
  1215 96.2109 11.1945 -3.84362
  1216 96.2047 11.1956 3.84382
  1217 146.717 -9.37355 5.16692
  1218 146.720 -9.37448 -5.15309
  1219 111.125 6.26017 13.3848
  1220 111.123 6.25990 -13.3817
  1221 161.733 -0.853727 17.0191
  1222 161.721 -0.849677 -17.0247
  1223 168.371 -16.2852 -8.79030
  1224 168.430 -16.2823 8.76876
  1225 150.918 10.5047 -11.7046
  1226 116.661 5.68045 16.5601
  1227 116.656 5.68116 -16.5570
  1228 159.653 27.7767 -2.58287
  1229 151.840 9.89257 12.0593
  1230 137.910 0.362912 -5.15742
  1231 137.921 0.362832 5.15813
  1232 179.062 -19.6841 -2.58896
  1233 179.275 -19.4959 2.33818
  1234 127.120 0.157470 -3.51162
  1235 127.129 0.157453 3.51239
  1236 121.845 0.443425 -6.18153
  1237 121.846 0.446579 6.17827
  1238 49.1542 -17.4258 20.2306
  1239 49.1269 -17.3962 -20.2120
  1240 86.5643 12.4023 13.8700
  1241 86.5716 12.4016 -13.8638
  1242 194.132 1.20966 -22.2730
  1243 161.251 0.387810 6.94793
  1244 161.239 0.388159 -6.94856
  1245 143.462 15.5877 4.08514
  1246 189.025 38.6823 1.92178
  1247 114.297 -3.07970 -27.9825
  1248 114.313 -3.08710 27.9827
  1249 147.046 -1.90332 -11.4953
  1250 147.041 -2.09388 11.4132
  1251 120.264 -10.5287 -23.5068
  1252 123.601 -13.0479 23.6583
  1253 106.908 6.21398 4.63055
  1254 106.910 6.21290 -4.62912
  1255 103.406 8.39934 3.67209
  1256 103.410 8.39838 -3.67127
  1257 105.871 6.96414 6.41476
  1258 105.873 6.96309 -6.41294
  1259 191.090 -0.590998 -6.94233
  1260 191.093 -0.592102 6.93685
  1261 127.600 -3.71553 7.16684
  1262 127.604 -3.72315 -7.17066
  1263 253.631 13.3066 26.5330
  1264 194.337 1.04789 22.0646
  1265 132.040 5.29394 5.63800
  1266 230.748 6.09001 -7.22315
  1267 118.172 0.929874 -1.78959
  1268 86.4225 5.63032 23.4104
  1269 86.4169 5.63859 -23.4000
  1270 206.889 8.72397 31.6115
  1271 183.841 11.0753 -3.20750
  1272 78.4505 12.6449 1.57667
  1273 78.4671 12.6400 -1.57718
  1274 123.364 4.25994 -23.3461
  1275 123.374 4.25531 23.3477
  1276 183.549 11.6002 30.7630
  1277 85.3398 9.05052 20.2765
  1278 85.3407 9.05494 -20.2661
  1279 129.851 2.56242 14.1111
  1280 129.843 2.56313 -14.1094
  1281 258.823 23.2350 2.95049
  1282 189.833 11.6541 7.41768
  1283 235.468 35.1247 10.8924
  1284 197.536 3.00546 -25.6637
  1285 151.431 -11.0678 -5.17995
  1286 151.425 -11.0115 5.20870
  1287 203.757 -8.43773 11.4636
  1288 203.680 -8.59407 -11.3732
  1289 135.557 -6.50841 -3.61959
  1290 135.548 -6.50009 3.62221
  1291 113.703 1.07164 5.04581
  1292 113.699 1.07144 -5.04427
  1293 122.297 -2.45684 9.09821
  1294 122.296 -2.46317 -9.10392
  1295 137.253 -13.2616 -23.3574
  1296 137.274 -13.2634 23.3655
  1297 95.7916 11.6316 11.1541
  1298 95.7964 11.6305 -11.1511
  1299 174.502 -8.19644 -3.76144
  1300 130.505 4.35700 -5.76430
  1301 242.955 13.8444 -31.2458
  1302 224.189 28.7014 -19.6994
  1303 144.990 3.61214 -11.9679
  1304 301.142 18.9952 -21.0128
  1305 138.025 -0.583271 -3.48884
  1306 138.012 -0.584016 3.49518
  1307 139.478 -3.90325 -0.914659
  1308 139.482 -3.90731 0.920452
  1309 180.225 -1.18036 -13.6749
  1310 112.909 1.40861 26.7871
  1311 112.896 1.41646 -26.7850
  1312 133.708 -1.53001 -3.03514
  1313 133.705 -1.52629 3.03580
  1314 208.455 -1.48950 0.661585
  1315 208.432 -1.48441 -0.664622
  1316 134.722 -4.42598 3.19510
  1317 134.728 -4.43280 -3.19308
  1318 111.694 1.09676 -4.51043
  1319 111.697 1.09699 4.51192
  1320 194.011 6.75503 19.5605
  1321 184.233 -7.00086 -5.72972
  1322 184.246 -6.99603 5.71219
  1323 118.820 5.60821 20.6168
  1324 118.814 5.61072 -20.6140
  1325 137.463 -25.9667 -28.9035
  1326 69.0079 -6.76646 27.2084
  1327 68.9987 -6.75860 -27.2471
  1328 186.395 6.46773 -18.0750
  1329 144.262 -6.55515 -7.41833
  1330 144.266 -6.55748 7.42199
  1331 106.696 8.47751 15.0164
  1332 106.695 8.47737 -15.0128
  1333 143.496 -14.5697 -5.15188
  1334 143.465 -14.5784 5.05633
  1335 146.025 1.25802 13.1744
  1336 146.015 1.25903 -13.1744
  1337 15.4377 -55.6586 3.07007
  1338 15.6099 -56.0661 -3.01024
  1339 314.085 20.4368 22.7137
  1340 183.261 3.81890 0.786675
  1341 123.426 0.350290 -4.33160
  1342 188.697 23.2408 -5.64488
  1343 111.286 1.78537 -5.38493
  1344 111.289 1.78574 5.38669
  1345 161.713 -18.8558 9.49652
  1346 143.469 -2.93831 -10.4161
  1347 143.472 -2.92541 10.4177
  1348 204.474 -1.28753 -3.52472
  1349 204.462 -1.28759 3.51540
  1350 118.521 0.833130 5.34972
  1351 118.515 0.833039 -5.34828
  1352 101.904 8.69430 21.5763
  1353 101.901 8.69782 -21.5707
  1354 231.906 14.4273 11.2179
  1355 157.317 4.36904 -36.0709
  1356 143.689 -0.341062 0.0697198
  1357 143.689 -0.340557 -0.0678930
  1358 64.2840 9.25268 7.94646
  1359 64.3062 9.24993 -7.93308
  1360 140.937 -7.46118 -1.33529
  1361 140.944 -7.46515 1.34300
  1362 181.867 -1.16344 14.4145
  1363 112.260 4.46720 10.2010
  1364 112.258 4.46670 -10.1984
  1365 118.566 0.810898 2.34630
  1366 134.040 1.18331 23.5653
  1367 134.028 1.18886 -23.5666
  1368 82.8615 8.85053 -8.79250
  1369 82.8752 8.84944 8.78297
  1370 197.168 -1.89824 10.1247
  1371 197.248 -1.89343 -10.0803
  1372 122.402 0.176841 2.57362
  1373 122.394 0.176821 -2.57297
  1374 125.484 1.57398 9.45154
  1375 125.476 1.57404 -9.44973
  1376 54.6171 0.468899 -14.9143
  1377 54.6792 0.454111 14.9000
  1378 119.028 3.04385 10.9135
  1379 119.022 3.04375 -10.9111
  1380 143.436 -0.0928788 -0.518414
  1381 143.434 -0.0926281 0.519092
  1382 125.734 -0.928503 5.82160
  1383 125.735 -0.932861 -5.82435
  1384 35.0937 -45.4998 -20.2947
  1385 32.5286 -44.1203 20.2264
  1386 159.784 -20.3046 -12.1119
  1387 104.847 7.93541 -8.84367
  1388 104.845 7.93641 8.84596
  1389 122.430 1.50328 4.54380
  1390 122.429 1.50161 -4.54598
  1391 140.962 -1.51186 0.939041
  1392 140.963 -1.50986 -0.934330
  1393 149.053 0.724750 -19.1749
  1394 149.065 0.721129 19.1721
  1395 226.876 4.76849 9.94454
  1396 139.451 3.19567 -10.6591
  1397 111.560 3.61049 -8.19186
  1398 111.562 3.61104 8.19418
  1399 114.884 -2.20274 -13.2160
  1400 114.890 -2.19480 13.2099
  1401 115.014 2.46410 8.05293
  1402 115.010 2.46378 -8.05080
  1403 197.359 -0.645705 -5.90335
  1404 197.358 -0.646675 5.89654
  1405 108.112 4.95570 6.04958
  1406 108.112 4.95478 -6.04767
  1407 195.104 -6.75687 -7.79279
  1408 195.138 -6.79656 7.80671
  1409 246.348 15.1891 -7.99117
  1410 111.153 0.0553681 1.08342
  1411 111.148 0.0553624 -1.08304
  1412 122.305 1.03780 6.85523
  1413 122.297 1.03775 -6.85366
  1414 95.9618 10.9611 17.5171
  1415 95.9637 10.9620 -17.5115
  1416 102.676 8.35361 1.39413
  1417 102.671 8.35368 -1.39509
  1418 174.691 34.5810 -3.21448
  1419 192.853 -11.1991 12.1564
  1420 192.784 -11.1440 -12.1458
  1421 110.848 -5.89395 -19.7580
  1422 110.858 -5.85808 19.7652
  1423 130.575 3.22250 18.3313
  1424 130.567 3.22446 -18.3299
  1425 63.8470 7.08604 8.62025
  1426 63.8108 7.09826 -8.62680
  1427 139.108 3.01191 10.5432
  1428 249.105 23.1704 -1.20044
  1429 91.9309 9.83374 -4.67203
  1430 91.9393 9.83451 4.66773
  1431 110.383 5.63711 -1.77662
  1432 110.387 5.63671 1.77576
  1433 193.763 21.5657 2.16716
  1434 134.946 -0.215934 -2.41624
  1435 134.945 -0.214383 2.41636
  1436 104.911 7.10386 -3.79036
  1437 104.916 7.10447 3.78871
  1438 129.747 1.60724 -7.22202
  1439 194.859 -5.03588 0.0117107
  1440 194.851 -5.02244 -0.0215610
  1441 80.7717 -21.3825 31.1141
  1442 123.853 0.358377 4.42236
  1443 155.989 -2.80781 10.8322
  1444 123.324 3.10235 13.0406
  1445 123.317 3.10263 -13.0383
  1446 156.075 -3.18445 -10.7137
  1447 140.487 -2.26025 3.47769
  1448 140.488 -2.25761 -3.47063
  1449 137.415 -13.3156 9.22365
  1450 137.259 -13.4142 -9.29881
  1451 137.584 -18.8977 16.6284
  1452 103.796 8.87762 11.3487
  1453 103.798 8.87678 -11.3459
  1454 152.519 0.324071 4.58225
  1455 152.506 0.324159 -4.58213
  1456 107.778 6.51906 0.883985
  1457 107.781 6.51818 -0.883822
  1458 169.343 5.98537 10.4460
  1459 115.712 4.93573 13.4897
  1460 115.708 4.93566 -13.4868
  1461 97.5349 3.11993 -14.9053
  1462 97.5392 3.12877 14.8970
  1463 140.403 -3.39995 -6.01626
  1464 140.405 -3.40204 6.02439
  1465 113.184 1.76171 -6.22235
  1466 113.188 1.76201 6.22421
  1467 182.223 0.133585 -6.86710
  1468 182.231 0.132894 6.86414
  1469 111.618 4.62029 4.86907
  1470 111.614 4.61951 -4.87126
  1471 136.612 -0.920555 -2.04732
  1472 136.610 -0.918329 2.04853
  1473 91.3859 12.5594 -7.13240
  1474 91.3783 12.5613 7.13384
  1475 142.615 -0.0374506 -0.659633
  1476 142.612 -0.0372954 0.659841
  1477 131.391 6.02748 -2.63273
  1478 83.5571 11.5754 -15.0182
  1479 83.5500 11.5750 15.0262
  1480 130.691 -5.96802 6.96110
  1481 130.698 -5.97809 -6.96435
  1482 143.806 -11.7270 0.639513
  1483 143.813 -11.7280 -0.617050
  1484 99.5143 10.4933 15.4475
  1485 99.5163 10.4932 -15.4433
  1486 169.504 -1.96703 14.9537
  1487 169.492 -1.96236 -14.9617
  1488 140.270 -0.556090 2.58097
  1489 140.281 -0.555148 -2.57551
  1490 138.381 6.20390 -9.02187
  1491 41.9525 -3.73771 -1.20961
  1492 41.8965 -3.72981 1.24161
  1493 109.523 5.73789 10.2904
  1494 109.522 5.73721 -10.2877
  1495 108.182 6.20687 -2.37500
  1496 108.187 6.20679 2.37390
  1497 183.453 -2.79129 -9.89505
  1498 183.461 -2.79465 9.88317
  1499 111.690 0.330692 2.60706
  1500 111.685 0.330616 -2.60616
  1501 139.559 -1.17793 -10.2824
  1502 139.545 -1.15502 10.2985
  1503 102.324 6.89771 6.20690
  1504 102.318 6.89591 -6.20963
  1505 125.873 0.646977 4.25811
  1506 125.873 0.644893 -4.25985
  1507 150.661 -5.89647 21.1487
  1508 150.642 -5.88914 -21.1531
  1509 168.831 -7.88426 -13.4694
  1510 168.856 -7.89059 13.4582
  1511 148.261 -16.1133 3.07494
  1512 148.393 -15.9678 -2.88533
  1513 130.347 1.56022 7.50053
  1514 127.735 -0.648942 4.78006
  1515 127.737 -0.652618 -4.78182
  1516 167.667 15.7342 -11.3744
  1517 120.277 -3.58485 -11.3091
  1518 120.281 -3.57741 11.3024
  1519 129.535 -24.9316 28.3438
  1520 144.305 16.5934 -2.19351
  1521 129.647 -8.13089 -9.80619
  1522 129.644 -8.11669 9.80213
  1523 159.669 -17.5574 3.87867
  1524 84.9062 -1.73626 -26.6199
  1525 84.9234 -1.74938 26.6275
  1526 107.484 5.75083 6.82027
  1527 107.485 5.74987 -6.81824
  1528 139.110 -0.0862592 -1.45477
  1529 139.108 -0.0856313 1.45512
  1530 104.090 8.10108 5.55032
  1531 104.093 8.09999 -5.54888
  1532 185.241 -17.0106 4.35867
  1533 185.208 -16.9100 -4.40977
  1534 147.216 0.201852 -4.45835
  1535 147.229 0.201796 4.45867
  1536 156.887 4.29324 12.3981
  1537 156.834 0.859493 13.7155
  1538 130.830 -23.6929 -21.7499
  1539 130.792 -23.6320 21.8349
  1540 121.298 0.650529 5.06636
  1541 121.291 0.650461 -5.06510
  1542 114.094 4.05929 10.8253
  1543 114.091 4.05896 -10.8227
  1544 155.646 0.997314 -13.6061
  1545 135.854 9.24644 3.32968
  1546 196.686 -11.9737 -1.79399
  1547 197.428 -11.1341 2.67607
  1548 146.050 2.04484 12.1422
  1549 127.865 -0.0428354 -4.51984
  1550 127.819 -0.0467897 4.46825
  1551 97.1103 9.38547 -3.70862
  1552 97.1170 9.38635 3.70599
  1553 142.933 9.91018 9.00695
  1554 109.001 4.68849 -7.36363
  1555 109.001 4.68929 7.36583
  1556 136.191 2.32320 -7.05476
  1557 116.414 0.0891148 -1.80164
  1558 116.421 0.0891170 1.80218
  1559 70.9959 -21.3443 34.5376
  1560 71.3650 -21.1475 -34.4540
  1561 129.259 -20.5351 -23.7251
  1562 92.7178 -23.3629 -27.6419
  1563 92.7622 -23.3515 27.6082
  1564 140.261 -0.732734 -0.776383
  1565 140.260 -0.731338 0.778676
  1566 108.860 5.69040 24.8103
  1567 108.853 5.69623 -24.8061
  1568 159.615 19.2519 -10.3193
  1569 45.8577 -6.47332 -13.1380
  1570 45.8486 -6.48954 13.1746
  1571 138.280 6.09487 9.17880
  1572 133.438 2.86371 20.8034
  1573 133.428 2.86710 -20.8032
  1574 141.164 -0.329545 0.936138
  1575 141.165 -0.330266 -0.934949
  1576 120.936 4.92464 17.3595
  1577 120.930 4.92575 -17.3568
  1578 70.7196 -10.3693 -26.1990
  1579 70.7485 -10.3878 26.2078
  1580 200.897 -5.11943 20.1932
  1581 200.869 -5.20730 -20.1437
  1582 154.289 2.93826 31.1671
  1583 105.324 7.55445 0.0849762
  1584 105.329 7.55387 -0.0852347
  1585 138.469 5.43264 38.4772
  1586 153.681 -13.4581 -17.7018
  1587 153.718 -13.4681 17.7040
  1588 144.735 -2.29486 -22.5622
  1589 144.750 -2.30117 22.5583
  1590 135.387 0.205852 3.24952
  1591 135.376 0.205846 -3.24899
  1592 113.181 4.59207 -3.01894
  1593 113.184 4.59206 3.01749
  1594 72.2145 3.05035 -21.8002
  1595 72.2181 3.03929 21.8162
  1596 80.5323 -0.477656 22.5795
  1597 80.5247 -0.471912 -22.5992
  1598 75.6562 6.60188 -13.5338
  1599 75.6766 6.59591 13.5186
  1600 102.011 9.29975 7.58143
  1601 102.014 9.29862 -7.57961
  1602 135.303 3.38175 -1.05828
  1603 105.334 7.56418 3.28989
  1604 105.338 7.56315 -3.28902
  1605 117.708 2.95595 4.12016
  1606 117.705 2.95519 -4.12220
  1607 117.408 1.89872 7.77259
  1608 117.402 1.89852 -7.77061
  1609 128.333 -27.3960 -20.2404
  1610 128.872 -27.2691 20.5071
  1611 140.929 -9.87687 -1.26117
  1612 140.913 -9.86936 1.27201
  1613 135.114 -10.5786 -7.78276
  1614 135.105 -10.5949 7.76833
  1615 141.220 -6.20805 -2.96001
  1616 141.225 -6.21148 2.96696
  1617 143.842 1.88399 -29.8523
  1618 140.386 -3.76052 -2.60084
  1619 140.389 -3.76411 2.60755
  1620 147.152 12.9193 -9.47337
  1621 132.811 -0.137358 7.74190
  1622 132.808 -0.138765 -7.74388
  1623 354.782 20.1920 -1.53417
  1624 137.597 -2.13608 1.26648
  1625 137.600 -2.13955 -1.26345
  1626 143.046 -0.355809 1.14757
  1627 143.051 -0.355121 -1.14436
  1628 144.085 -0.229674 0.292732
  1629 144.087 -0.229348 -0.290810
  1630 118.101 2.03810 5.78026
  1631 118.098 2.03618 -5.78322
  1632 119.737 0.142348 1.98025
  1633 119.729 0.142330 -1.97970
  1634 73.3853 10.9496 12.5868
  1635 73.3987 10.9492 -12.5759
  1636 82.6185 12.8438 8.41666
  1637 82.6303 12.8413 -8.41283
  1638 148.381 -20.0290 10.6189
  1639 158.464 0.523975 -13.6311
  1640 158.475 0.522349 13.6290
  1641 129.043 2.75603 6.25073
  1642 135.288 -2.51705 -2.47311
  1643 135.285 -2.51251 2.47496
  1644 125.615 0.118924 -2.32202
  1645 125.624 0.118922 2.32256
  1646 182.093 -14.2175 -0.0989534
  1647 182.109 -14.1753 0.0658053
  1648 158.003 -17.7918 -3.27687
  1649 129.279 1.01332 7.56427
  1650 129.270 1.01336 -7.56290
  1651 207.314 -1.33628 4.09087
  1652 207.291 -1.32690 -4.07737
  1653 92.6547 -1.65948 -22.1880
  1654 92.6598 -1.66343 22.1644
  1655 109.013 4.07468 6.35445
  1656 109.013 4.07389 -6.35242
  1657 251.961 15.8048 3.72355
  1658 114.792 0.0790924 1.22262
  1659 114.785 0.0790753 -1.22222
  1660 132.993 -0.0530481 3.69110
  1661 133.013 -0.0602215 -3.68651
  1662 109.649 -12.3864 28.1207
  1663 109.636 -12.3898 -28.1269
  1664 68.5142 -21.9561 -27.1266
  1665 257.224 32.4545 -15.5988
  1666 96.6515 6.39399 -10.1183
  1667 96.6579 6.39833 10.1126
  1668 131.722 1.08671 8.83194
  1669 131.713 1.08688 -8.83058
  1670 112.629 1.07365 4.78171
  1671 112.625 1.07345 -4.78018
  1672 169.990 1.16338 -8.58874
  1673 110.718 7.60025 18.9227
  1674 110.715 7.60166 -18.9189
  1675 115.756 0.600393 -4.04206
  1676 115.762 0.600491 4.04325
  1677 112.368 0.0707641 -1.13150
  1678 112.374 0.0707951 1.13189
  1679 102.141 -0.229139 -17.1348
  1680 102.143 -0.215704 17.1284
  1681 194.951 5.92688 -19.9998
  1682 190.282 -0.162196 -4.75776
  1683 190.287 -0.162643 4.75483
  1684 116.185 1.11331 5.69253
  1685 116.180 1.11316 -5.69093
  1686 120.081 -12.0717 20.8428
  1687 120.110 -12.2594 -20.9461
  1688 127.894 2.47024 12.7512
  1689 127.886 2.47063 -12.7493
  1690 109.087 4.51344 6.76848
  1691 109.082 4.51167 -6.77128
  1692 23.4629 -65.1264 5.76695
  1693 23.4277 -65.0732 -5.85226
  1694 155.336 24.8855 3.69933
  1695 214.714 -0.562148 -0.750055
  1696 214.688 -0.561310 0.745381
  1697 174.736 0.119108 5.99958
  1698 174.725 0.119493 -6.00106
  1699 112.962 0.441104 3.14053
  1700 112.957 0.441015 -3.13949
  1701 169.386 -0.0359465 -12.4247
  1702 169.395 -0.0377713 12.4206
  1703 137.035 -18.3712 -16.0989
  1704 111.590 2.30333 -6.38362
  1705 111.593 2.30375 6.38560
  1706 132.020 -3.62859 4.60706
  1707 132.025 -3.63533 -4.60744
  1708 288.587 23.6645 1.31101
  1709 113.221 4.89014 11.7548
  1710 113.218 4.88979 -11.7521
  1711 124.992 3.42105 0.00828208
  1712 101.549 -11.3385 -28.3527
  1713 101.640 -11.3985 28.3110
  1714 110.224 2.75208 6.03303
  1715 110.222 2.75153 -6.03106
  1716 141.237 -1.36412 2.08091
  1717 141.240 -1.36234 -2.07531
  1718 155.848 2.50795 -12.4079
  1719 122.636 4.99274 -19.4281
  1720 122.643 4.99064 19.4304
  1721 81.0492 11.8897 -1.73707
  1722 81.0642 11.8859 1.73342
  1723 103.580 9.61114 16.1794
  1724 103.580 9.61131 -16.1754
  1725 100.025 3.78960 26.0871
  1726 100.015 3.79790 -26.0815
  1727 137.757 -9.78103 -4.41938
  1728 137.740 -9.76777 4.41872
  1729 143.571 -7.83606 4.45646
  1730 143.568 -7.83427 -4.44921
  1731 148.737 -8.91337 -6.88856
  1732 148.750 -8.91575 6.88334
  1733 133.180 2.68033 15.3028
  1734 133.171 2.68142 -15.3015
  1735 148.911 -19.5859 -9.36294
  1736 118.273 4.09220 12.8049
  1737 118.268 4.09220 -12.8022
  1738 91.3888 4.85338 -14.5329
  1739 91.3947 4.85842 14.5208
  1740 137.810 -9.09776 -23.5846
  1741 137.831 -9.10283 23.5857
  1742 107.334 6.58196 2.32530
  1743 107.337 6.58092 -2.32461
  1744 141.139 0.905080 8.90686
  1745 141.128 0.905390 -8.90611
  1746 277.796 20.5259 -49.8964
  1747 111.204 2.91136 -6.96837
  1748 111.206 2.91187 6.97049
  1749 143.388 1.11695 11.2717
  1750 143.377 1.11754 -11.2712
  1751 166.742 0.229684 6.20458
  1752 166.730 0.229955 -6.20543
  1753 103.008 4.86485 -9.87586
  1754 103.015 4.86890 9.87203
  1755 107.549 1.01630 -13.5292
  1756 107.556 1.02343 13.5248
  1757 135.274 -0.851891 7.12677
  1758 135.279 -0.861121 -7.12180
  1759 120.144 -6.86663 15.4986
  1760 120.149 -6.88151 -15.5083
  1761 104.363 -19.7696 33.7195
  1762 103.336 -19.2998 -33.5403
  1763 141.004 10.3569 -7.72791
  1764 118.428 0.379561 -3.68118
  1765 118.435 0.379614 3.68220
  1766 116.799 0.828105 1.32826
  1767 104.718 6.48059 5.69151
  1768 104.712 6.47921 -5.69386
  1769 159.892 -23.5963 -10.9956
  1770 160.164 -23.7017 10.9710
  1771 181.615 -0.922481 -10.3260
  1772 181.622 -0.924705 10.3191
  1773 131.736 -0.655144 3.45271
  1774 131.737 -0.658018 -3.45305
  1775 119.459 0.461209 -2.89871
  1776 125.040 -9.03904 14.1111
  1777 125.012 -9.06923 -14.1339
  1778 193.467 14.0236 2.37125
  1779 139.424 -6.86176 -0.180170
  1780 139.416 -6.85603 0.186623
  1781 117.260 3.21727 -10.7981
  1782 117.264 3.21745 10.8005
  1783 110.349 2.68634 9.47925
  1784 110.343 2.68290 -9.48313
  1785 105.191 7.57503 7.88355
  1786 105.193 7.57399 -7.88146
  1787 98.2567 10.4516 3.27457
  1788 98.2623 10.4507 -3.27436
  1789 107.576 5.63424 5.14006
  1790 107.578 5.63320 -5.13841
  1791 182.547 33.0445 5.15230
  1792 192.163 -4.27647 19.0899
  1793 192.095 -4.29352 -19.1327
  1794 171.358 -10.1666 2.33698
  1795 107.344 6.40256 8.77090
  1796 107.345 6.40167 -8.76851
  1797 152.690 23.0792 -3.39279
  1798 282.871 17.5816 38.7490
  1799 120.490 5.11555 21.8502
  1800 120.482 5.11901 -21.8477
  1801 140.406 1.55604 8.65702
  1802 100.376 -26.1279 37.1553
  1803 101.458 9.16236 1.95893
  1804 101.463 9.16166 -1.95884
  1805 137.564 10.4023 -3.76726
  1806 116.336 0.759956 8.78588
  1807 116.332 0.756247 -8.79030
  1808 138.335 -3.39596 -0.406203
  1809 138.331 -3.39159 0.410767
  1810 157.119 -0.237561 17.6221
  1811 157.107 -0.233745 -17.6266
  1812 102.851 -26.1372 -36.4718
  1813 150.362 20.1064 5.48030
  1814 124.256 0.788451 5.85272
  1815 124.248 0.788415 -5.85140
  1816 108.793 6.93877 12.3809
  1817 108.792 6.93825 -12.3779
  1818 128.851 1.39986 3.10328
  1819 109.327 7.27074 14.2634
  1820 109.326 7.27054 -14.2602
  1821 117.545 -15.7299 25.8920
  1822 117.075 -16.1491 -26.4974
  1823 102.812 9.55793 13.1167
  1824 102.814 9.55727 -13.1134
  1825 178.242 30.3098 -7.23902
  1826 205.449 11.6265 15.4791
  1827 146.063 1.53564 16.4324
  1828 146.053 1.53764 -16.4332
  1829 191.056 -7.97885 3.34935
  1830 191.044 -7.94794 -3.35782
  1831 139.587 -0.305669 -1.36366
  1832 139.585 -0.304778 1.36452
  1833 100.510 -3.39588 -28.5995
  1834 100.528 -3.40487 28.6011
  1835 148.987 -19.1974 26.3668
  1836 130.664 -24.6860 32.8537
  1837 194.281 -2.85605 -5.21624
  1838 194.280 -2.85595 5.20352
  1839 161.492 -9.17906 -5.86066
  1840 171.903 0.775980 7.49202
  1841 158.129 -20.1644 -14.5187
  1842 159.176 -19.0728 14.4765
  1843 193.892 -5.54790 16.2959
  1844 193.794 -5.55114 -16.2883
  1845 142.250 -23.9183 21.1808
  1846 27.8565 -22.4497 5.69952
  1847 27.7022 -22.3832 -5.62907
  1848 138.271 -1.51853 -5.84670
  1849 138.266 -1.51780 5.85452
  1850 160.041 0.0599857 4.65011
  1851 160.028 0.0601665 -4.65032
  1852 112.986 2.52470 7.53062
  1853 112.982 2.52432 -7.52846
  1854 231.730 28.3907 43.3384
  1855 49.3703 -6.77175 18.7569
  1856 49.3017 -6.79015 -18.7876
  1857 106.899 6.53957 -3.19542
  1858 106.904 6.53986 3.19401
  1859 117.004 2.81494 5.17117
  1860 117.001 2.81365 -5.17375
  1861 123.977 1.56000 -8.79622
  1862 123.984 1.56001 8.79803
  1863 188.870 -16.2883 -0.866193
  1864 188.482 -16.3588 0.684209
  1865 50.0466 -34.1008 -18.7990
  1866 50.0754 -34.0820 18.7869
  1867 104.450 8.05638 -2.10395
  1868 104.446 8.05725 2.10435
  1869 137.347 0.600228 7.52148
  1870 137.336 0.600431 -7.52055
  1871 109.312 5.17420 9.08339
  1872 109.312 5.17349 -9.08092
  1873 96.6917 8.71314 21.5902
  1874 96.6894 8.71727 -21.5832
  1875 80.4692 -29.9114 24.2975
  1876 80.3643 -29.9484 -24.3123
  1877 100.088 9.75751 19.1227
  1878 100.088 9.75924 -19.1173
  1879 139.377 -2.37252 -8.75510
  1880 139.377 -2.36061 8.76569
  1881 141.723 -4.64236 -7.24402
  1882 141.729 -4.64372 7.25212
  1883 147.857 6.74661 12.0123
  1884 161.606 -8.99888 5.63540
  1885 138.179 -1.20008 -1.30614
  1886 138.177 -1.19772 1.30835
  1887 86.2387 12.2899 1.61828
  1888 86.2498 12.2877 -1.61970
  1889 49.8112 -33.7232 -6.90558
  1890 49.8323 -33.6908 6.90738
  1891 126.210 2.69634 -4.18581
  1892 142.926 1.64179 18.9210
  1893 142.916 1.64460 -18.9221
  1894 132.975 -0.119490 -2.88490
  1895 132.974 -0.117742 2.88467
  1896 130.727 -1.96938 4.34496
  1897 130.730 -1.97427 -4.34570
  1898 120.258 1.62326 -7.95108
  1899 120.264 1.62338 7.95295
  1900 135.929 -0.337101 3.41922
  1901 135.945 -0.337892 -3.41379
  1902 110.420 4.36378 8.74054
  1903 110.418 4.36315 -8.73812
  1904 189.530 -0.869898 -8.75961
  1905 189.569 -0.865265 8.84559
  1906 129.057 2.21542 23.7091
  1907 129.045 2.22085 -23.7090
  1908 182.888 0.0825460 21.0601
  1909 165.133 7.67126 -11.2658
  1910 114.423 0.296048 -2.73247
  1911 114.429 0.296091 2.73332
  1912 114.683 0.784270 -0.687051
  1913 90.9349 10.9864 -1.58948
  1914 90.9438 10.9859 1.58664
  1915 186.924 23.0618 -45.7633
  1916 100.092 10.2058 8.85157
  1917 100.096 10.2046 -8.84950
  1918 35.1728 -18.6599 17.1737
  1919 35.0323 -18.6839 -17.2695
  1920 343.629 15.6909 -32.7088
  1921 149.849 -23.8045 -17.7442
  1922 116.277 0.266220 -2.84453
  1923 116.284 0.266265 2.84537
  1924 235.978 6.76289 -5.42273
  1925 143.669 -0.0444868 -0.488574
  1926 143.667 -0.0443741 0.488876
  1927 77.7762 -17.1097 16.4284
  1928 82.6288 -15.9257 -18.3532
  1929 82.0140 -8.05537 -29.2545
  1930 81.9756 -8.02665 29.2310
  1931 129.859 0.0943582 3.53343
  1932 129.859 0.0923599 -3.53435
  1933 141.116 0.213169 -3.34290
  1934 141.128 0.213138 3.34332
  1935 148.671 5.45832 -12.2459
  1936 111.633 3.70368 6.78625
  1937 111.629 3.70189 -6.78927
  1938 139.890 -2.78647 -1.10776
  1939 139.892 -2.78968 1.11332
  1940 122.685 0.866332 5.26404
  1941 122.684 0.863845 -5.26666
  1942 110.699 2.13555 5.58173
  1943 110.696 2.13511 -5.57988
  1944 108.303 5.32909 7.62282
  1945 108.303 5.32821 -7.62060
  1946 209.914 -1.04701 -2.09534
  1947 209.941 -1.05282 2.09864
  1948 165.753 25.7642 7.89421
  1949 117.258 0.239333 2.17881
  1950 157.620 0.444849 11.8243
  1951 157.608 0.445840 -11.8256
  1952 94.5060 -14.5220 28.9351
  1953 94.4807 -14.5162 -28.9466
  1954 136.238 -8.02945 4.25016
  1955 136.251 -8.03847 -4.24804
  1956 139.852 -1.63042 0.0359150
  1957 139.854 -1.63284 -0.0320252
  1958 95.9641 -13.2026 31.0218
  1959 95.7353 -13.2256 -30.9833
  1960 125.397 1.69886 25.2084
  1961 125.384 1.70523 -25.2084
  1962 162.754 -15.0057 12.7732
  1963 162.700 -14.9993 -12.7804
  1964 119.883 2.29590 4.26408
  1965 119.881 2.29482 -4.26617
  1966 278.183 28.5580 11.1260
  1967 113.956 1.41736 -5.85383
  1968 113.961 1.41759 5.85556
  1969 154.136 -13.5148 2.51010
  1970 153.958 -13.6647 -2.28527
  1971 99.7471 -6.07249 24.6377
  1972 99.7632 -6.07032 -24.6897
  1973 235.231 10.0283 -10.3011
  1974 144.236 -0.0653626 0.313355
  1975 144.237 -0.0655810 -0.312570
  1976 175.138 -5.95435 -14.6999
  1977 113.214 3.65075 9.41472
  1978 113.211 3.65031 -9.41225
  1979 156.059 14.9294 11.2350
  1980 114.533 2.44808 7.17202
  1981 114.529 2.44578 -7.17550
  1982 207.105 14.1658 -11.4286
  1983 156.236 0.308836 9.96814
  1984 179.015 -10.1869 5.73019
  1985 178.991 -10.1955 -5.75124
  1986 111.328 6.14725 -40.0000
  1987 157.935 23.5681 -7.40169
  1988 140.016 11.9728 4.34673
  1989 129.869 5.03225 3.49054
  1990 17.2172 -74.2676 6.24169
  1991 17.3039 -74.2514 -6.40937
  1992 147.925 18.5215 -4.93825
  1993 88.3584 12.8143 10.2049
  1994 88.3667 12.8125 -10.2014
  1995 155.429 0.107629 -9.75853
  1996 140.511 -15.6216 -9.44839
  1997 140.827 -15.5760 8.86612
  1998 158.773 -19.7628 12.9178
  1999 158.683 -19.7539 -12.9181
  2000 112.019 -21.7526 18.7799
  2001 116.657 -23.7008 -19.3699
  2002 89.1607 9.83250 -6.38343
  2003 89.1702 9.83285 6.37727
  2004 48.9876 -29.5402 29.4026
  2005 49.5548 -29.0340 -30.4995
  2006 102.395 8.99783 5.78475
  2007 102.398 8.99676 -5.78339
  2008 129.484 0.0856059 2.27479
  2009 129.473 0.0856242 -2.27432
  2010 184.390 3.11304 -2.85824
  2011 122.108 2.25972 -10.3030
  2012 122.115 2.25971 10.3051
  2013 106.212 6.72985 5.57588
  2014 106.213 6.72878 -5.57424
  2015 197.973 -2.04285 -21.9788
  2016 181.135 17.1322 7.67525
  2017 125.836 -13.2288 -18.1338
  2018 125.863 -12.9074 17.9595
  2019 208.505 2.02761 -19.8439
  2020 140.871 0.706563 -8.79620
  2021 198.878 -10.6041 -13.4910
  2022 198.871 -10.5965 13.5506
  2023 106.860 6.96908 0.493725
  2024 106.864 6.96833 -0.493749
  2025 110.407 3.21232 6.76808
  2026 110.405 3.21173 -6.76598
  2027 230.610 7.95660 12.5976
  2028 135.404 2.67619 17.3509
  2029 135.394 2.67800 -17.3501
  2030 180.276 1.00620 -20.5181
  2031 111.526 0.738612 3.81857
  2032 111.522 0.738456 -3.81726
  2033 126.731 -2.42594 6.54245
  2034 126.733 -2.43203 -6.54573
  2035 101.948 -4.48027 35.4426
  2036 207.537 -0.536530 -3.11328
  2037 207.527 -0.536940 3.10762
  2038 120.969 -0.858748 8.13357
  2039 120.968 -0.863502 -8.13832
  2040 111.134 0.158928 1.82478
  2041 111.129 0.158887 -1.82413
  2042 140.321 -1.11484 -3.30051
  2043 140.315 -1.11648 3.30714
  2044 48.2334 -35.9201 18.6592
  2045 210.820 17.1631 -2.51325
  2046 179.170 -7.55609 -8.76172
  2047 179.188 -7.55690 8.74545
  2048 126.578 -3.03104 -26.4718
  2049 126.594 -3.03780 26.4709
  2050 142.584 -0.326125 1.27286
  2051 142.592 -0.325568 -1.26961
  2052 124.713 1.73009 4.42657
  2053 377.534 12.0229 7.69824
  2054 231.170 18.7003 -8.74955
  2055 136.472 -0.564100 -9.34179
  2056 136.501 -0.560381 9.34771
  2057 174.272 4.62492 16.1817
  2058 125.878 -6.29585 10.6980
  2059 125.881 -6.30654 -10.7056
  2060 107.292 6.21319 3.76487
  2061 107.294 6.21210 -3.76368
  2062 208.949 1.93533 19.9244
  2063 105.960 7.50635 9.80277
  2064 105.961 7.50545 -9.80026
  2065 144.460 -5.02177 -8.99820
  2066 144.472 -5.02126 9.00621
  2067 119.228 -21.9246 -31.1311
  2068 44.2839 -40.2472 -17.6282
  2069 134.412 -6.44885 -4.74428
  2070 134.402 -6.43962 4.74519
  2071 136.638 -4.41183 -1.87033
  2072 136.632 -4.40595 1.87392
  2073 137.308 -0.114545 -1.88969
  2074 137.306 -0.113630 1.88992
  2075 191.751 15.3714 -0.858924
  2076 112.505 4.45711 -4.29033
  2077 112.509 4.45764 4.28833
  2078 99.3580 9.13784 1.82357
  2079 99.3519 9.13759 -1.82507
  2080 128.536 -11.8374 14.5988
  2081 128.767 -11.8865 -14.5585
  2082 104.581 -5.11498 21.7023
  2083 104.608 -5.15362 -21.7146
  2084 198.297 -2.06718 21.7601
  2085 96.2742 10.7341 1.42985
  2086 96.2807 10.7334 -1.43055
  2087 90.9457 -30.2770 -23.7241
  2088 91.2175 -30.1746 23.6227
  2089 132.720 -17.7761 -23.8070
  2090 132.731 -17.7666 23.8271
  2091 94.4327 11.6553 -5.08081
  2092 94.4260 11.6566 5.08134
  2093 33.4339 -26.8036 -10.7077
  2094 33.4620 -26.8672 10.7364
  2095 165.692 7.59164 6.47439
  2096 171.912 -0.140992 -11.7046
  2097 133.823 0.0986831 2.22081
  2098 133.812 0.0986864 -2.22041
  2099 138.119 -0.527754 -1.66822
  2100 138.118 -0.526249 1.66932
  2101 132.296 -1.82578 3.65135
  2102 132.299 -1.83017 -3.65126
  2103 138.277 -0.798813 23.7065
  2104 138.263 -0.792528 -23.7090
  2105 272.990 19.4406 1.91303
  2106 47.1216 1.07739 -3.93011
  2107 47.1793 1.06493 3.94109
  2108 141.822 -0.550628 -0.369936
  2109 141.821 -0.549698 0.372236
  2110 121.231 2.05598 -1.22878
  2111 121.305 0.0659677 -1.56963
  2112 121.313 0.0659886 1.57005
  2113 109.579 5.86417 -0.150155
  2114 109.582 5.86338 0.149960
  2115 159.570 5.53295 -9.44690
  2116 70.8109 11.1736 7.59539
  2117 70.8299 11.1701 -7.58682
  2118 192.862 -9.34169 10.1754
  2119 192.813 -9.27989 -10.1621
  2120 143.863 13.6021 6.87858
  2121 129.643 -3.46669 5.77161
  2122 129.647 -3.47376 -5.77365
  2123 142.372 -0.655294 0.567552
  2124 142.373 -0.654275 -0.564268
  2125 144.374 -0.174480 0.568127
  2126 144.379 -0.174276 -0.566170
  2127 117.160 4.87775 23.9117
  2128 117.151 4.88295 -23.9092
  2129 14.2294 -65.7116 -6.72761
  2130 14.3284 -64.6010 6.83870
  2131 74.0885 12.2996 -3.79643
  2132 74.0692 12.3049 3.79927
  2133 136.022 -0.498693 -2.23382
  2134 136.021 -0.496907 2.23444
  2135 112.506 6.94240 16.4699
  2136 112.503 6.94290 -16.4665
  2137 148.147 10.0721 11.1340
  2138 191.621 3.72714 21.2606
  2139 109.132 3.61586 25.9118
  2140 109.121 3.62329 -25.9082
  2141 112.963 0.737884 4.05967
  2142 112.958 0.737740 -4.05836
  2143 154.939 0.414314 9.31860
  2144 154.928 0.414887 -9.31905
  2145 114.221 6.50750 17.7186
  2146 114.217 6.50853 -17.7152
  2147 167.648 0.205642 -9.91394
  2148 167.659 0.204692 9.91172
  2149 143.362 -23.2044 -18.7836
  2150 228.646 20.0415 5.96028
  2151 124.263 -19.6067 26.0478
  2152 128.356 2.49951 -6.18606
  2153 125.130 3.73491 -15.8042
  2154 125.137 3.73402 15.8064
  2155 79.4079 8.40827 -10.4484
  2156 79.4245 8.40454 10.4367
  2157 119.286 4.65091 15.4594
  2158 119.280 4.65142 -15.4567
  2159 168.812 13.9794 10.8680
  2160 209.635 8.62425 -18.2728
  2161 63.5417 7.20234 12.2772
  2162 63.5577 7.20371 -12.2591
  2163 90.3995 -22.0722 36.7499
  2164 95.1898 -22.1161 -36.3721
  2165 142.956 -12.3679 -31.0035
  2166 119.558 2.42057 9.74040
  2167 119.553 2.42044 -9.73821
  2168 156.065 0.225241 -4.04335
  2169 156.078 0.225120 4.04337
  2170 115.427 0.456251 -1.73086
  2171 137.005 -1.26855 -6.76232
  2172 136.999 -1.26359 6.76892
  2173 92.0723 12.2642 10.0963
  2174 92.0789 12.2627 -10.0935
  2175 139.383 -5.34588 -0.675123
  2176 139.389 -5.35065 0.681217
  2177 148.117 0.586670 -8.69470
  2178 148.129 0.586304 8.69491
  2179 108.879 6.45220 -11.0013
  2180 108.880 6.45289 11.0040
  2181 74.0627 -2.00510 23.7872
  2182 74.0537 -2.01194 -23.8115
  2183 219.526 -0.281859 -9.89986
  2184 96.9273 11.0953 -6.06942
  2185 96.9218 11.0966 6.07046
  2186 133.914 8.32930 -0.0327704
  2187 290.512 24.6217 -1.58891
  2188 209.072 39.4825 1.26500
  2189 129.989 -0.740167 4.00722
  2190 129.991 -0.743480 -4.00812
  2191 160.667 -17.5716 -5.74662
  2192 245.110 20.0841 6.55931
  2193 219.391 -0.315926 10.3919
  2194 176.958 21.4745 -9.64232
  2195 140.536 -0.00486340 -1.13279
  2196 140.534 -0.00454546 1.13301
  2197 148.437 -11.4583 -3.56015
  2198 148.430 -11.4617 3.57876
  2199 115.765 5.69661 15.5164
  2200 115.761 5.69696 -15.5133
  2201 146.051 -11.1586 -1.92114
  2202 146.055 -11.1574 1.93407
  2203 121.920 -25.9199 -33.9699
  2204 115.487 1.55258 6.47063
  2205 115.483 1.55236 -6.46882
  2206 148.764 -4.62123 -10.2417
  2207 148.757 -4.60268 10.2937
  2208 173.450 -0.0501302 10.6024
  2209 109.567 5.47367 3.94131
  2210 109.562 5.47326 -3.94305
  2211 113.789 6.55417 21.7024
  2212 113.783 6.55726 -21.6988
  2213 154.346 -1.28036 -19.6060
  2214 154.359 -1.28561 19.6007
  2215 123.379 -12.9162 27.0527
  2216 123.369 -12.9198 -27.0494
  2217 101.383 8.99623 0.0386290
  2218 101.378 8.99660 -0.0392262
  2219 112.900 0.200333 2.39573
  2220 112.895 0.200300 -2.39493
  2221 150.674 -2.36564 -11.3559
  2222 150.308 -2.43127 11.4077
  2223 181.377 0.161410 -4.06086
  2224 181.387 0.161143 4.05961
  2225 135.328 -1.26746 -2.43565
  2226 135.325 -1.26448 2.43681
  2227 225.643 39.5874 2.49919
  2228 161.624 0.448597 8.95521
  2229 161.612 0.449187 -8.95629
  2230 104.998 7.50335 23.0090
  2231 104.993 7.50791 -23.0038
  2232 189.894 -1.32439 -8.12584
  2233 189.897 -1.32668 8.11664
  2234 159.150 -5.70015 -18.0856
  2235 159.170 -5.70722 18.0789
  2236 115.945 -22.2672 -25.0794
  2237 115.897 -22.2457 25.0665
  2238 67.7891 -13.0912 31.4350
  2239 67.7556 -13.0396 -31.4486
  2240 141.305 -4.99440 -4.73022
  2241 141.309 -4.99757 4.73714
  2242 182.054 -1.33257 17.8976
  2243 117.366 0.701798 -3.37614
  2244 114.674 0.726202 4.22678
  2245 114.668 0.726076 -4.22550
  2246 249.484 10.0994 8.08911
  2247 144.811 0.0343680 3.34537
  2248 144.799 0.0344412 -3.34506
  2249 140.309 -2.82492 -5.08451
  2250 140.309 -2.82740 5.09242
  2251 135.005 -3.29735 2.68080
  2252 135.009 -3.30288 -2.67882
  2253 170.142 -0.205563 -13.3869
  2254 170.151 -0.208119 13.3816
  2255 110.659 -6.71755 28.5546
  2256 110.642 -6.71221 -28.5561
  2257 62.4791 0.393496 19.0386
  2258 62.4772 0.405995 -19.0172
  2259 344.268 15.6072 24.7321
  2260 158.515 7.04784 -1.37603
  2261 109.789 3.90054 -7.15436
  2262 109.790 3.90123 7.15654
  2263 250.801 22.7659 -3.18121
  2264 107.037 6.79469 -1.14702
  2265 107.042 6.79429 1.14637
  2266 138.403 -16.7648 13.0238
  2267 199.648 -3.81583 6.68786
  2268 199.621 -3.79213 -6.66975
  2269 182.227 -1.29719 -18.3976
  2270 144.047 1.23719 -19.7515
  2271 144.058 1.23376 19.7498
  2272 154.033 -8.97295 -7.35082
  2273 153.908 -9.25962 7.11285
  2274 115.860 2.48890 8.61569
  2275 115.856 2.48861 -8.61349
  2276 174.048 -2.41107 -13.6045
  2277 174.059 -2.41538 13.5953
  2278 189.795 8.65953 11.5579
  2279 206.434 28.9936 2.09676
  2280 93.5386 8.26215 8.15783
  2281 93.5311 8.25961 -8.16368
  2282 175.764 -1.19628 -2.46611
  2283 123.193 0.0564206 -2.93226
  2284 126.674 -25.6285 -31.1644
  2285 190.785 29.3227 4.51763
  2286 134.887 0.698414 7.04601
  2287 134.877 0.698513 -7.04498
  2288 202.394 -1.37605 -6.06155
  2289 202.392 -1.39411 6.09766
  2290 141.078 -2.38568 9.98012
  2291 141.070 -2.40519 -9.96693
  2292 129.208 0.00541768 -2.79950
  2293 129.177 0.0154507 2.78406
  2294 125.193 2.07614 10.8565
  2295 125.186 2.07627 -10.8545
  2296 69.6681 9.45910 -5.82663
  2297 69.6953 9.44993 5.82153
  2298 140.619 -4.50847 -3.17581
  2299 140.623 -4.51201 3.18266
  2300 98.1853 11.0491 13.3694
  2301 98.1885 11.0484 -13.3658
  2302 57.7361 6.61017 5.97687
  2303 57.7648 6.60703 -5.95993
  2304 113.791 0.0812479 0.976344
  2305 113.785 0.0812310 -0.976021
  2306 144.776 -22.3705 16.3774
  2307 141.140 1.12183 21.8634
  2308 141.128 1.12637 -21.8655
  2309 156.581 4.81898 11.4481
  2310 101.284 9.50956 6.17315
  2311 101.288 9.50846 -6.17178
  2312 128.201 0.336247 4.61636
  2313 128.192 0.336253 -4.61541
  2314 121.278 -0.159205 7.07729
  2315 121.277 -0.163106 -7.08122
  2316 142.332 -7.67148 2.95272
  2317 142.327 -7.66874 -2.94502
  2318 118.367 1.24851 6.61844
  2319 118.361 1.24836 -6.61675
  2320 134.919 5.60511 -7.45993
  2321 133.233 1.96028 -8.65959
  2322 171.343 6.24009 -14.1166
  2323 127.043 0.597825 3.91598
  2324 127.043 0.595925 -3.91744
  2325 194.381 11.8219 12.0752
  2326 99.4558 10.6583 11.8949
  2327 99.4589 10.6574 -11.8919
  2328 163.792 19.0901 10.8782
  2329 128.410 -1.46529 5.09162
  2330 128.412 -1.46998 -5.09342
  2331 126.490 0.0138855 4.63523
  2332 126.491 0.0109757 -4.63712
  2333 105.778 8.61756 -13.7884
  2334 105.778 8.61802 13.7917
  2335 114.596 6.56554 20.1757
  2336 114.591 6.56763 -20.1723
  2337 84.7541 1.95614 -25.0552
  2338 84.7646 1.94499 25.0653
  2339 214.560 9.74052 17.0318
  2340 233.127 28.0694 -48.1969
  2341 186.555 -4.12843 17.8479
  2342 159.650 1.88672 -14.6328
  2343 105.862 2.96051 -11.5297
  2344 105.869 2.96583 11.5257
  2345 144.904 -0.144627 -0.0971458
  2346 144.903 -0.144442 0.0980589
  2347 131.456 1.46971 -6.81931
  2348 123.892 0.110661 1.53279
  2349 123.883 0.110649 -1.53241
  2350 113.374 1.12257 9.91015
  2351 113.368 1.11852 -9.91459
  2352 145.820 1.27854 -14.8174
  2353 145.831 1.27713 14.8170
  2354 148.046 1.01262 -12.1653
  2355 139.671 -2.50179 -6.14961
  2356 139.671 -2.50273 6.15809
  2357 111.256 1.38132 -4.79760
  2358 111.259 1.38162 4.79922
  2359 323.874 18.4472 45.9628
  2360 106.314 6.83518 4.22261
  2361 106.317 6.83409 -4.22136
  2362 138.630 -2.14733 -0.606027
  2363 138.628 -2.14415 0.609772
  2364 85.7653 7.55403 11.8239
  2365 85.7546 7.55361 -11.8357
  2366 120.805 3.56460 13.0309
  2367 120.799 3.56477 -13.0284
  2368 232.870 17.4676 51.0012
  2369 33.3993 -32.2530 21.9634
  2370 33.4786 -32.4941 -21.8580
  2371 133.843 1.94816 12.3753
  2372 133.834 1.94867 -12.3739
  2373 108.122 5.06830 -5.49123
  2374 108.121 5.06927 5.49302
  2375 137.473 -6.91867 -2.22072
  2376 137.464 -6.91118 2.22519
  2377 93.2702 11.5025 2.05010
  2378 93.2778 11.5014 -2.05092
  2379 130.726 1.76033 -10.8841
  2380 130.735 1.76006 10.8857
  2381 207.553 18.6238 -49.4078
  2382 158.241 -14.8198 -0.673545
  2383 158.444 -13.6547 1.86945
  2384 140.252 0.935486 8.62096
  2385 190.975 -2.43331 -7.06855
  2386 190.977 -2.43513 7.05628
  2387 150.180 -13.7237 0.896657
  2388 150.148 -13.6862 -0.925075
  2389 125.516 -3.90563 -8.53360
  2390 125.514 -3.89768 8.52825
  2391 157.545 -9.03235 27.5368
  2392 159.157 -5.50862 -9.05445
  2393 106.776 6.41373 7.02598
  2394 106.777 6.41273 -7.02395
  2395 174.515 -5.42341 -12.4407
  2396 174.531 -5.42847 12.4283
  2397 133.209 3.15148 -19.6534
  2398 133.219 3.14876 19.6540
  2399 115.946 3.21686 9.94122
  2400 115.942 3.21658 -9.93881
  2401 182.005 -0.0558247 -8.28003
  2402 156.081 13.8486 -11.6384
  2403 139.045 1.56254 -10.6899
  2404 20.7442 -68.7413 -9.00792
  2405 21.5852 -66.2017 10.0253
  2406 141.443 5.13595 -10.5951
  2407 211.414 -0.413165 -2.20330
  2408 211.398 -0.413329 2.19782
  2409 119.110 -0.860317 -9.29819
  2410 119.113 -0.855414 9.29289
  2411 171.042 -1.15184 13.9826
  2412 171.032 -1.14835 -13.9894
  2413 115.686 3.75414 3.49691
  2414 115.683 3.75389 -3.49861
  2415 114.195 2.27435 -7.46821
  2416 114.199 2.27469 7.47027
  2417 108.667 4.38261 6.00474
  2418 108.667 4.38175 -6.00278
  2419 195.773 13.4179 -7.76231
  2420 122.521 2.19618 1.53863
  2421 166.803 32.0736 -0.898014
  2422 106.270 7.08468 8.86740
  2423 106.271 7.08374 -8.86505
  2424 298.760 20.6513 -9.91348
  2425 215.759 -0.645041 -0.0158124
  2426 215.728 -0.643271 0.0127249
  2427 162.730 5.98027 11.9493
  2428 200.070 -0.428537 -4.24462
  2429 200.069 -0.429079 4.24044
  2430 154.862 0.696254 -16.5345
  2431 154.873 0.693607 16.5317
  2432 60.9410 -2.01954 -21.0465
  2433 60.9769 -2.02588 21.0150
  2434 119.958 0.604963 -4.69419
  2435 119.965 0.605027 4.69541
  2436 168.125 0.829913 -16.8401
  2437 97.0609 11.3922 9.68219
  2438 97.0656 11.3909 -9.67987
  2439 197.819 -3.21583 -10.3955
  2440 197.809 -3.21910 10.4600
  2441 206.662 41.2140 -0.554677
  2442 138.316 0.195336 -2.62999
  2443 138.328 0.195334 2.63038
  2444 267.898 24.8754 0.606471
  2445 109.757 3.07514 5.96576
  2446 109.756 3.07452 -5.96379
  2447 139.668 -0.232904 -1.94982
  2448 139.653 -0.233298 1.95414
  2449 112.006 3.80169 8.82266
  2450 112.003 3.80117 -8.82026
  2451 133.436 1.95209 8.81668
  2452 118.351 0.0153721 -0.991579
  2453 118.359 0.0153782 0.991865
  2454 124.123 -0.0502579 5.67562
  2455 124.123 -0.0537026 -5.67843
  2456 158.801 -5.29078 9.19242
  2457 127.733 0.0674467 -1.70798
  2458 127.743 0.0674399 1.70836
  2459 113.142 0.550037 0.0941065
  2460 171.382 0.784964 17.8764
  2461 133.543 0.345771 -8.58834
  2462 133.630 0.369452 8.64268
  2463 141.888 -8.82713 -0.898851
  2464 141.897 -8.83080 0.908399
  2465 113.681 -0.211649 11.5996
  2466 113.675 -0.217328 -11.6046
  2467 82.9309 12.7054 1.95747
  2468 82.9441 12.7020 -1.95847
  2469 111.327 0.498149 -3.10426
  2470 111.331 0.498268 3.10534
  2471 89.1535 7.62059 22.5906
  2472 89.1504 7.62679 -22.5808
  2473 217.633 4.80913 -19.0739
  2474 140.193 12.8825 -2.64631
  2475 180.936 -16.7598 -1.15827
  2476 180.908 -16.8277 1.10087
  2477 107.514 6.24174 2.96468
  2478 107.517 6.24066 -2.96376
  2479 139.125 1.49583 10.7656
  2480 296.530 26.7270 -8.69458
  2481 105.812 8.82062 17.6345
  2482 105.810 8.82144 -17.6304
  2483 132.806 6.41805 -4.91997
  2484 117.762 3.21006 30.6300
  2485 134.634 -1.97664 24.7761
  2486 134.618 -1.96998 -24.7784
  2487 224.561 7.00961 18.2980
  2488 103.997 8.77728 -31.2148
  2489 142.551 2.70193 11.4368
  2490 146.130 -7.38717 7.41720
  2491 146.137 -7.38346 -7.41240
  2492 135.634 6.44369 7.21800
  2493 187.587 -10.5396 3.05320
  2494 187.578 -10.4990 -3.07121
  2495 163.709 -20.7236 -9.25733
  2496 163.853 -20.7303 9.24213
  2497 147.633 -4.44266 -21.8912
  2498 147.651 -4.44942 21.8869
  2499 103.731 8.16140 0.303969
  2500 103.726 8.16178 -0.304471
  2501 62.8831 9.18227 2.44538
  2502 62.9123 9.17534 -2.43694
  2503 129.605 1.26079 -8.69927
  2504 129.614 1.26068 8.70074
  2505 152.189 -23.0379 17.1237
  2506 378.480 10.4992 -23.4847
  2507 118.425 -0.629346 26.9160
  2508 118.410 -0.621861 -26.9154
  2509 227.451 12.1874 -13.7541
  2510 140.246 -1.04509 -0.445801
  2511 140.245 -1.04330 0.448743
  2512 163.763 -3.35260 -16.9310
  2513 163.778 -3.35853 16.9231
  2514 97.9566 10.8686 16.5000
  2515 97.9587 10.8689 -16.4951
  2516 120.253 -21.8511 30.3335
  2517 140.008 1.17288 10.9957
  2518 139.998 1.17342 -10.9949
  2519 127.576 -8.39722 -11.6040
  2520 127.567 -8.38232 11.5951
  2521 299.705 21.2315 7.47994
  2522 80.9600 7.59793 20.5770
  2523 80.9610 7.60368 -20.5647
  2524 131.811 -19.2179 21.2112
  2525 111.596 0.0245628 0.745324
  2526 111.590 0.0245585 -0.745060
  2527 187.400 -0.794943 -21.4857
  2528 109.763 4.39642 -7.92189
  2529 109.764 4.39712 7.92419
  2530 104.609 8.50702 10.5719
  2531 104.610 8.50609 -10.5692
  2532 150.979 0.0637761 3.07338
  2533 150.965 0.0638346 -3.07322
  2534 123.641 -0.514386 6.42646
  2535 123.641 -0.518475 -6.42987
  2536 170.768 8.25866 -6.72381
  2537 213.141 -0.463513 -1.53790
  2538 213.120 -0.463325 1.53246
  2539 145.898 -3.86835 -10.4631
  2540 145.915 -3.88091 10.4633
  2541 130.927 0.563567 5.85929
  2542 130.917 0.563582 -5.85823
  2543 112.502 4.76204 10.9945
  2544 112.500 4.76160 -10.9918
  2545 199.395 17.7748 -7.04625
  2546 134.030 -5.44154 4.18827
  2547 134.037 -5.44973 -4.18713
  2548 151.651 -22.8725 -21.5020
  2549 160.325 4.68051 -12.1944
  2550 158.004 -20.3334 17.2511
  2551 144.890 -13.2432 1.67987
  2552 144.889 -13.2162 -1.65609
  2553 187.240 -2.49136 -17.7917
  2554 124.036 1.26746 4.17369
  2555 124.035 1.26590 -4.17556
  2556 130.213 0.00157988 -6.33380
  2557 130.137 0.0951130 6.31531
  2558 57.5596 -22.4210 23.1710
  2559 57.5203 -22.4104 -23.1690
  2560 186.996 38.5618 -1.53146
  2561 144.124 -1.57498 -11.2917
  2562 144.132 -1.59675 11.2561
  2563 19.4742 -40.5916 -6.00866
  2564 19.5426 -40.5381 6.36983
  2565 112.162 5.05414 2.04748
  2566 112.159 5.05451 -2.04847
  2567 117.353 0.867544 5.08623
  2568 117.347 0.867409 -5.08482
  2569 187.406 -2.44579 17.5774
  2570 104.591 8.95227 19.1124
  2571 104.590 8.95388 -19.1077
  2572 163.311 -16.4033 3.79604
  2573 91.3192 12.1011 14.1429
  2574 91.3245 12.1005 -14.1379
  2575 128.944 3.44933 5.01382
  2576 121.403 1.04601 4.64342
  2577 147.956 -17.8429 6.58146
  2578 148.820 -17.4151 -5.36937
  2579 115.846 0.0441562 1.00699
  2580 115.839 0.0441535 -1.00668
  2581 154.377 -18.6237 5.83382
  2582 102.027 8.92454 3.54364
  2583 102.032 8.92363 -3.54298
  2584 113.734 5.25675 12.7811
  2585 113.731 5.25652 -12.7782
  2586 194.171 10.5978 -14.9046
  2587 131.246 -5.91459 25.6604
  2588 131.229 -5.90916 -25.6613
  2589 108.190 -0.198993 -27.6374
  2590 108.205 -0.207481 27.6396
  2591 208.529 -0.793226 -3.72578
  2592 208.542 -0.799495 3.74312
  2593 155.549 26.0141 0.180450
  2594 112.996 5.98795 14.0660
  2595 112.993 5.98786 -14.0630
  2596 136.230 -5.44668 2.63576
  2597 136.237 -5.45372 -2.63251
  2598 124.626 -2.40312 7.79597
  2599 124.627 -2.40936 -7.80060
  2600 318.542 22.7142 2.26073
  2601 53.8039 -7.01072 18.6362
  2602 53.7949 -6.98997 -18.6102
  2603 133.126 -0.515936 -3.02020
  2604 133.124 -0.513544 3.02019
  2605 123.206 0.00366525 2.90813
  2606 321.012 17.8347 -47.7589
  2607 144.833 -9.35027 -3.67538
  2608 144.835 -9.35146 3.68632
  2609 196.949 -5.29001 -9.58535
  2610 196.982 -5.31721 9.61655
  2611 173.587 0.0759674 3.35773
  2612 173.575 0.0760473 -3.35839
  2613 181.513 -0.417327 8.78191
  2614 134.067 6.96651 5.02436
  2615 127.233 0.824722 6.13824
  2616 152.742 5.93826 -12.5618
  2617 90.3307 11.3623 17.0954
  2618 90.3344 11.3632 -17.0886
  2619 109.270 4.09658 6.84800
  2620 109.269 4.09583 -6.84588
  2621 165.845 -0.0906811 -3.48253
  2622 165.858 -0.0907627 3.48220
  2623 104.842 7.70986 6.56081
  2624 104.844 7.70878 -6.55905
  2625 166.114 28.9529 -5.51557
  2626 196.650 -0.673261 -6.66638
  2627 196.638 -0.702853 6.72408
  2628 194.563 -3.59266 13.2920
  2629 194.577 -3.57475 -13.2299
  2630 131.505 0.0535580 3.12858
  2631 131.506 0.0518509 -3.12919
  2632 191.056 -4.45081 -4.64630
  2633 191.058 -4.44800 4.63166
  2634 280.349 22.3958 -0.276315
  2635 53.9492 -27.7993 -6.69172
  2636 53.1899 -28.3887 6.56600
  2637 203.564 -6.97919 -16.2810
  2638 203.736 -6.76402 16.2909
  2639 111.726 1.48558 -5.12488
  2640 111.729 1.48588 5.12655
  2641 114.977 3.49435 4.99649
  2642 114.973 3.49337 -4.99891
  2643 185.434 -17.3052 3.52903
  2644 185.378 -17.1855 -3.57947
  2645 193.929 29.4990 54.8065
  2646 149.952 -9.82260 23.5847
  2647 152.813 18.2041 8.87535
  2648 123.307 4.75838 -18.0119
  2649 123.314 4.75691 18.0143
  2650 269.164 27.1559 34.2841
  2651 73.5432 11.5448 -1.39738
  2652 73.5649 11.5380 1.39548
  2653 129.295 5.56991 -0.898550
  2654 117.602 -2.09471 11.5762
  2655 117.597 -2.10152 -11.5818
  2656 189.354 0.0472509 -4.18542
  2657 189.361 0.0469521 4.18335
  2658 78.3393 10.0601 -16.4530
  2659 78.3320 10.0581 16.4644
  2660 98.0245 10.6443 5.00484
  2661 98.0298 10.6432 -5.00407
  2662 138.323 -4.30326 0.343628
  2663 138.328 -4.30824 -0.338649
  2664 144.755 0.632489 -11.8991
  2665 141.259 1.75434 15.2376
  2666 141.249 1.75572 -15.2373
  2667 198.506 -12.2811 7.31991
  2668 198.781 -11.9677 -7.23166
  2669 205.434 -0.235207 -3.13449
  2670 205.428 -0.235556 3.13017
  2671 143.365 -22.1039 -18.7365
  2672 143.425 -22.1144 18.7997
  2673 201.675 -3.12293 1.53193
  2674 201.657 -3.11142 -1.53437
  2675 114.967 1.26615 5.81858
  2676 114.962 1.26596 -5.81689
  2677 166.120 -15.8016 -11.7097
  2678 139.349 -0.833972 3.56642
  2679 139.358 -0.832767 -3.55962
  2680 98.0965 10.8837 -8.23123
  2681 98.0920 10.8849 8.23306
  2682 135.096 -1.91866 2.54627
  2683 135.099 -1.92257 -2.54481
  2684 111.409 3.23643 -7.58480
  2685 111.411 3.23696 7.58702
  2686 94.4447 10.0603 -2.88049
  2687 94.4522 10.0607 2.87770
  2688 112.899 0.458175 -0.986854
  2689 189.057 -12.8957 8.02191
  2690 189.017 -12.8232 -8.03811
  2691 130.077 -4.77387 6.46270
  2692 130.083 -4.78253 -6.46538
  2693 231.380 5.37642 3.49805
  2694 141.189 14.6106 1.09618
  2695 133.461 -13.0381 11.8701
  2696 133.600 -12.9285 -11.8629
  2697 106.171 7.16282 2.43072
  2698 106.174 7.16182 -2.43007
  2699 146.830 -10.9747 -20.7835
  2700 146.858 -10.9810 20.7859
  2701 176.940 2.75371 -25.9520
  2702 102.066 9.47688 10.1429
  2703 102.069 9.47586 -10.1404
  2704 106.146 7.91518 11.8483
  2705 106.146 7.91447 -11.8454
  2706 138.877 1.63707 13.1972
  2707 138.867 1.63792 -13.1964
  2708 136.467 2.59145 -9.82954
  2709 132.099 -19.1315 -20.4018
  2710 163.913 2.02093 16.0974
  2711 125.143 4.40827 19.8463
  2712 125.136 4.41069 -19.8444
  2713 240.467 17.3251 -8.71864
  2714 176.285 -20.2886 -2.06547
  2715 176.406 -20.2155 1.93001
  2716 107.603 5.79918 4.36345
  2717 107.605 5.79811 -4.36203
  2718 152.672 4.99743 12.6791
  2719 264.292 29.5369 -36.2171
  2720 127.903 0.620244 -6.40170
  2721 140.144 -4.40781 -1.95267
  2722 140.147 -4.41174 1.95903
  2723 185.799 -0.472045 -7.78338
  2724 185.805 -0.473119 7.77850
  2725 116.122 2.00702 7.72856
  2726 116.117 2.00679 -7.72651
  2727 126.437 3.81797 1.89745
  2728 104.403 7.84714 4.39400
  2729 104.406 7.84609 -4.39287
  2730 176.714 34.5393 3.93608
  2731 141.023 -0.510920 -0.801989
  2732 141.022 -0.509925 0.803677
  2733 113.745 0.793992 4.45366
  2734 113.740 0.793847 -4.45228
  2735 36.3076 -47.9779 0.485781
  2736 36.3660 -48.0094 -0.540914
  2737 88.4197 12.5773 4.61544
  2738 88.4292 12.5752 -4.61519
  2739 123.225 1.23126 7.54797
  2740 123.218 1.23121 -7.54631
  2741 146.577 9.22006 -11.1663
  2742 132.142 -16.5970 17.5630
  2743 156.767 8.77411 12.2211
  2744 164.118 -10.9195 -13.9571
  2745 164.154 -10.9270 13.9478
  2746 175.926 -2.16230 2.74619
  2747 138.166 0.900317 8.84121
  2748 138.156 0.900581 -8.84026
  2749 150.667 -14.5264 -20.0190
  2750 129.989 3.12531 -15.2784
  2751 129.997 3.12440 15.2801
  2752 143.931 -25.6945 -16.4092
  2753 144.303 -25.7126 16.6487
  2754 175.951 -13.9311 -5.06655
  2755 175.990 -13.9138 5.03678
  2756 190.138 -0.509868 -7.67273
  2757 190.141 -0.511469 7.66568
  2758 99.5593 5.93125 9.78258
  2759 99.5531 5.92714 -9.78714
  2760 131.712 0.0783364 1.81999
  2761 131.701 0.0783448 -1.81963
  2762 140.503 -3.06992 -3.16248
  2763 140.504 -3.07303 3.16940
  2764 142.856 -19.6762 -13.3099
  2765 96.7531 10.0505 1.03279
  2766 96.7465 10.0506 -1.03442
  2767 121.303 0.352406 3.75408
  2768 121.296 0.352362 -3.75311
  2769 206.837 -2.12614 9.37466
  2770 108.755 -3.01552 17.6590
  2771 108.745 -3.02926 -17.6607
  2772 144.454 0.381212 -6.49329
  2773 144.466 0.381036 6.49377
  2774 146.222 18.1324 1.82960
  2775 189.199 -8.84620 -12.7982
  2776 130.289 -6.97529 -8.25611
  2777 130.282 -6.96433 8.25145
  2778 193.982 -8.22516 -14.6017
  2779 194.058 -8.24546 14.6228
  2780 125.568 0.344983 4.29270
  2781 125.559 0.344981 -4.29174
  2782 105.155 7.55877 5.56574
  2783 105.157 7.55769 -5.56421
  2784 153.814 -19.7278 -6.71127
  2785 151.053 15.0183 -9.85131
  2786 221.839 5.10481 -14.8465
  2787 108.064 5.11340 -6.58512
  2788 108.064 5.11430 6.58714
  2789 208.262 29.3997 -3.17863
  2790 139.949 -22.8132 -29.8869
  2791 186.244 -0.0315154 -3.86995
  2792 186.253 -0.0317516 3.86846
  2793 177.001 9.43725 10.8252
  2794 110.663 5.56318 -1.08292
  2795 110.666 5.56256 1.08235
  2796 103.067 8.65027 -4.85952
  2797 103.064 8.65132 4.86067
  2798 113.084 1.39484 -5.47309
  2799 113.088 1.39509 5.47478
  2800 87.3099 -26.2066 -36.9015
  2801 197.162 -0.406318 -3.66851
  2802 197.165 -0.406692 3.66563
  2803 207.708 16.5539 5.60848
  2804 114.471 2.92367 8.85203
  2805 114.468 2.92332 -8.84970
  2806 137.808 -0.115840 1.96005
  2807 137.827 -0.115630 -1.95581
  2808 85.3091 -26.0639 37.0056
  2809 143.829 -14.8226 20.7051
  2810 143.799 -14.8184 -20.6939
  2811 129.898 2.97761 -22.4949
  2812 129.908 2.97336 22.4953
  2813 150.415 13.4190 10.5300
  2814 167.462 -14.1171 -4.33906
  2815 94.2267 12.1041 -8.71665
  2816 94.2206 12.1057 8.71867
  2817 141.370 -1.21281 -1.29249
  2818 141.369 -1.21452 1.29731
  2819 115.435 5.37695 14.5758
  2820 115.431 5.37706 -14.5728
  2821 99.9624 8.14083 4.79455
  2822 99.9560 8.13956 -4.79708
  2823 82.0084 12.4061 11.7289
  2824 82.0188 12.4047 -11.7225
  2825 167.213 15.9153 -42.9772
  2826 107.761 7.67047 21.9095
  2827 107.756 7.67396 -21.9049
  2828 168.575 0.0241088 -11.5668
  2829 168.585 0.0227065 11.5636
  2830 109.607 7.46552 15.5817
  2831 109.605 7.46567 -15.5782
  2832 119.873 0.194138 2.49841
  2833 103.276 8.66936 -8.66756
  2834 103.273 8.67039 8.66971
  2835 116.219 -4.40567 -14.8110
  2836 116.225 -4.39478 14.8033
  2837 121.028 1.29673 -3.24628
  2838 143.166 -5.20944 -7.88732
  2839 143.174 -5.21124 7.89438
  2840 120.149 1.39651 5.64572
  2841 120.147 1.39426 -5.64865
  2842 110.947 4.88234 10.0470
  2843 110.945 4.88176 -10.0443
  2844 107.344 3.62045 9.79910
  2845 107.338 3.61666 -9.80276
  2846 126.930 3.97277 -21.7709
  2847 126.940 3.96915 21.7721
  2848 200.336 -3.03731 -0.609879
  2849 200.323 -3.03019 0.601680
  2850 108.746 6.16002 1.57395
  2851 108.742 6.16040 -1.57473
  2852 140.319 -13.6054 -6.52878
  2853 140.382 -13.5219 6.38468
  2854 123.758 0.190253 -2.94278
  2855 123.767 0.190265 2.94350
  2856 103.956 9.37556 15.1501
  2857 103.956 9.37537 -15.1464
  2858 140.782 -20.0501 19.3610
  2859 139.274 -20.6574 -18.8206
  2860 145.149 -0.100562 -0.00980066
  2861 145.148 -0.100712 0.0108253
  2862 112.348 1.88293 -6.14199
  2863 112.351 1.88326 6.14388
  2864 172.812 -17.2150 -4.97798
  2865 172.881 -17.1988 4.94205
  2866 102.724 1.98180 -14.5540
  2867 102.729 1.99057 14.5489
  2868 117.593 0.311207 -3.17565
  2869 117.600 0.311255 3.17657
  2870 56.2004 4.44475 -8.53294
  2871 56.2490 4.43114 8.53102
  2872 190.727 -0.856983 22.1891
  2873 104.297 7.60053 -2.14327
  2874 104.302 7.60058 2.14213
  2875 116.973 2.06127 -6.51283
  2876 116.977 2.06346 6.50951
  2877 106.823 6.20128 5.24603
  2878 106.825 6.20023 -5.24443
  2879 116.600 -28.5432 -21.7034
  2880 116.878 -28.1668 20.9876
  2881 151.386 -8.55436 7.72994
  2882 151.307 -8.47005 -7.79649
  2883 80.6932 -6.24477 26.9312
  2884 80.6706 -6.22956 -26.9249
  2885 132.351 4.32011 7.16901
  2886 140.256 -2.03287 4.05314
  2887 140.258 -2.03050 -4.04565
  2888 128.465 -4.96392 7.72900
  2889 128.470 -4.97288 -7.73334
  2890 49.5978 2.36933 -3.89907
  2891 49.5579 2.37317 3.92176
  2892 87.6255 10.3309 19.0890
  2893 87.6281 10.3338 -19.0804
  2894 133.032 0.334283 4.49417
  2895 133.022 0.334296 -4.49338
  2896 141.536 7.27363 9.96529
  2897 186.054 -1.54020 -13.5946
  2898 92.4449 3.62162 -25.6997
  2899 92.4545 3.61217 25.7076
  2900 112.115 3.02147 -7.73157
  2901 112.117 3.02194 7.73379
  2902 187.884 -7.24138 -2.26958
  2903 187.889 -7.22755 2.25279
  2904 138.921 -0.0292027 -10.5233
  2905 125.558 1.05649 -5.56753
  2906 110.515 0.00767201 0.627971
  2907 110.510 0.00767313 -0.627748
  2908 206.028 -7.74082 4.39689
  2909 205.862 -7.64250 -4.12095
  2910 122.058 1.83802 4.14947
  2911 122.056 1.83681 -4.15142
  2912 111.731 1.85799 -5.73837
  2913 111.734 1.85834 5.74019
  2914 118.602 1.75328 7.85155
  2915 118.596 1.75312 -7.84962
  2916 145.404 -16.2062 -5.90497
  2917 145.198 -16.2758 6.03009
  2918 279.707 20.0355 -7.69431
  2919 171.619 4.40675 -17.2661
  2920 127.208 0.159774 -5.42932
  2921 282.285 17.0047 -24.2848
  2922 148.040 20.3802 -1.78965
  2923 241.538 22.7067 1.36293
  2924 175.058 -4.28661 19.2449
  2925 166.919 -4.87815 6.95348
  2926 119.479 0.182702 -2.36684
  2927 107.870 5.83674 8.18744
  2928 107.870 5.83584 -8.18513
  2929 174.768 -18.9014 -7.68774
  2930 175.854 -18.5868 6.99474
  2931 272.348 19.2623 56.8306
  2932 202.422 19.6470 28.3023
  2933 109.584 6.90639 -13.1926
  2934 109.585 6.90679 13.1957
  2935 229.385 28.4647 16.8641
  2936 162.143 -1.69627 -17.0382
  2937 162.156 -1.70123 17.0314
  2938 114.474 0.140570 -1.89674
  2939 114.480 0.140597 1.89733
  2940 130.246 -0.315245 3.67226
  2941 130.247 -0.317843 -3.67308
  2942 137.732 -2.88478 -1.00218
  2943 137.728 -2.88066 1.00592
  2944 119.188 5.49656 19.4815
  2945 119.182 5.49851 -19.4786
  2946 140.506 -3.33014 7.96972
  2947 140.502 -3.33234 -7.95966
  2948 133.555 -3.66455 3.71167
  2949 133.560 -3.67098 -3.71074
  2950 115.012 0.525130 1.66731
  2951 146.277 16.8442 5.24354
  2952 203.298 3.98182 21.3183
  2953 115.073 0.422966 -3.35503
  2954 115.079 0.423040 3.35607
  2955 137.273 4.49493 -9.46026
  2956 116.269 0.775059 4.77808
  2957 116.264 0.774945 -4.77671
  2958 134.226 -0.409949 -2.68724
  2959 134.225 -0.407979 2.68742
  2960 102.886 7.92161 -2.74950
  2961 102.892 7.92203 2.74807
  2962 381.219 11.3508 23.3074
  2963 150.759 0.919399 10.8250
  2964 150.748 0.920090 -10.8252
  2965 122.605 0.676170 -5.38970
  2966 122.612 0.676214 5.39097
  2967 138.946 -0.0573241 10.5424
  2968 117.722 3.69832 11.9022
  2969 117.717 3.69821 -11.8996
  2970 113.714 3.86768 10.1995
  2971 113.710 3.86729 -10.1970
  2972 123.441 -4.01831 -10.1305
  2973 123.442 -4.01018 10.1236
  2974 106.727 6.27873 6.34618
  2975 106.729 6.27771 -6.34431
  2976 175.982 36.0579 0.263253
  2977 62.5145 4.03920 -13.9694
  2978 62.5543 4.02545 13.9534
  2979 131.662 0.917935 -8.03863
  2980 103.657 8.85623 20.6448
  2981 103.655 8.85886 -20.6396
  2982 124.380 0.721623 4.73056
  2983 124.379 0.719299 -4.73271
  2984 172.488 15.4005 43.9711
  2985 121.710 3.80080 14.1833
  2986 121.704 3.80117 -14.1808
  2987 77.1875 -8.29293 -28.6758
  2988 180.682 3.85780 19.5823
  2989 115.373 -5.94479 17.3647
  2990 115.359 -5.95220 -17.3748
  2991 137.390 -0.900086 -4.76416
  2992 137.380 -0.900114 4.77149
  2993 142.036 2.26383 -11.3490
  2994 202.355 4.27095 -20.8189
  2995 118.142 5.40975 17.3876
  2996 118.137 5.41077 -17.3847
  2997 283.765 17.6923 16.5379
  2998 210.922 36.7472 1.24079
  2999 21.7645 -42.9403 -4.96473
  3000 21.8530 -43.0787 4.94352
  3001 142.748 -10.3854 -0.0938467
  3002 142.759 -10.3887 0.107347
  3003 120.918 0.949594 -6.39034
  3004 120.925 0.949652 6.39190
  3005 225.592 15.1639 12.9118
  3006 75.8148 -0.970434 23.9401
  3007 75.8020 -0.956237 -23.9260
  3008 78.6834 12.8165 5.48883
  3009 78.6987 12.8125 -5.48611
  3010 134.688 8.56489 -3.08225
  3011 162.544 -0.0139045 -15.3793
  3012 162.555 -0.0167439 15.3748
  3013 97.1806 9.82026 19.6112
  3014 97.1802 9.82260 -19.6049
  3015 158.831 0.245087 11.6901
  3016 244.896 23.7034 -61.7590
  3017 132.566 2.22905 -13.9568
  3018 132.575 2.22829 13.9582
  3019 133.299 2.81264 16.8006
  3020 133.290 2.81416 -16.7995
  3021 128.700 0.621402 6.11025
  3022 128.690 0.621424 -6.10906
  3023 137.335 -1.72800 1.59620
  3024 137.337 -1.73110 -1.59381
  3025 103.144 8.50347 -2.41823
  3026 103.140 8.50432 2.41862
  3027 258.351 14.5056 -21.8750
  3028 112.293 0.304840 2.61445
  3029 112.288 0.304782 -2.61358
  3030 142.294 -0.225252 -0.722558
  3031 142.293 -0.224764 0.723689
  3032 122.567 0.100479 1.21821
  3033 122.559 0.100460 -1.21789
  3034 76.1692 3.44548 18.0754
  3035 76.1518 3.45107 -18.0946
  3036 141.507 -1.27603 -10.8819
  3037 141.554 -1.27578 10.8838
  3038 148.164 0.167843 12.0797
  3039 148.295 0.177059 -2.25602
  3040 148.308 0.177043 2.25616
  3041 194.910 -10.6260 -14.5034
  3042 194.972 -10.6354 14.5461
  3043 110.749 5.37933 10.8149
  3044 110.747 5.37875 -10.8122
  3045 111.566 -0.432493 -13.1570
  3046 111.573 -0.425653 13.1517
  3047 126.225 -0.449884 5.24335
  3048 126.225 -0.453563 -5.24564
  3049 225.936 37.3980 -4.17817
  3050 133.687 -0.995189 -2.95342
  3051 133.685 -0.992230 2.95381
  3052 120.827 4.80790 16.3888
  3053 120.821 4.80868 -16.3861
  3054 244.632 17.1514 8.07266
  3055 68.7115 6.09512 -12.7959
  3056 68.7411 6.08668 12.7822
  3057 102.599 7.47506 -4.43125
  3058 102.605 7.47608 4.42919
  3059 146.616 -14.8542 2.52367
  3060 146.537 -14.8636 -2.56730
  3061 112.201 0.885205 -4.22960
  3062 112.205 0.885382 4.23099
  3063 69.3302 9.55187 12.5113
  3064 69.3447 9.55217 -12.4977
  3065 140.687 -2.05823 2.81102
  3066 140.688 -2.05571 -2.80442
  3067 177.082 10.1010 4.00684
  3068 106.526 -23.6633 34.9520
  3069 131.842 -9.80436 -9.85772
  3070 131.840 -9.78481 9.86644
  3071 134.736 -22.1577 -22.2186
  3072 119.444 1.01168 6.50922
  3073 119.442 1.00885 -6.51268
  3074 140.300 -6.48120 -1.41252
  3075 140.306 -6.48554 1.41938
  3076 57.7704 -9.21735 -26.7147
  3077 57.7952 -9.22379 26.6947
  3078 162.408 0.0972789 8.71740
  3079 117.837 1.74465 0.100077
  3080 101.140 8.38120 -1.80240
  3081 101.146 8.38140 1.80114
  3082 81.2283 -13.7885 -27.9557
  3083 81.2621 -13.8027 27.9535
  3084 129.513 4.62967 -4.06846
  3085 140.308 25.8878 -53.4073
  3086 127.354 -25.9698 31.3828
  3087 216.190 -0.499841 -0.754696
  3088 216.224 -0.501927 0.754006
  3089 127.180 0.180994 5.38393
  3090 111.421 5.18468 -2.66708
  3091 111.424 5.18455 2.66583
  3092 154.001 -0.721658 19.3483
  3093 153.988 -0.717095 -19.3530
  3094 153.006 0.951106 -14.4761
  3095 153.017 0.949406 14.4746
  3096 154.558 0.00510514 -2.52126
  3097 154.572 0.00505993 2.52135
  3098 143.285 -0.0244484 -0.405365
  3099 143.282 -0.0244029 0.405421
  3100 12.4640 -93.6454 7.09683
  3101 12.7228 -93.5999 -7.48465
  3102 116.980 -0.0130624 -1.11573
  3103 116.987 -0.0130705 1.11607
  3104 142.638 -6.55165 22.9801
  3105 142.619 -6.54500 -22.9823
  3106 154.625 0.753371 12.0233
  3107 140.437 4.84750 10.5284
  3108 109.386 3.53870 6.01060
  3109 109.386 3.53799 -6.00862
  3110 230.646 20.5559 -0.583793
  3111 106.050 6.97921 7.34305
  3112 106.051 6.97820 -7.34101
  3113 41.0194 -13.4197 -13.0174
  3114 41.0224 -13.4458 13.0566
  3115 135.334 -0.0646437 -2.29214
  3116 135.332 -0.0634752 2.29215
  3117 126.842 2.90883 14.0603
  3118 126.835 2.90942 -14.0583
  3119 136.559 2.34036 9.87394
  3120 116.339 1.53644 -1.41141
  3121 142.010 -0.140385 -0.807187
  3122 142.008 -0.139982 0.807962
  3123 142.602 -0.563767 0.0965186
  3124 142.602 -0.562958 -0.0938197
  3125 126.622 1.13099 7.80596
  3126 126.613 1.13100 -7.80443
  3127 134.740 -0.735945 5.57125
  3128 134.750 -0.741411 -5.56577
  3129 119.934 -2.33117 -10.3771
  3130 119.937 -2.32494 10.3709
  3131 165.638 -6.96347 -6.13309
  3132 132.047 3.63752 -7.28348
  3133 165.762 20.3912 -10.3235
  3134 79.8568 10.5154 -5.78572
  3135 79.8731 10.5116 5.77859
  3136 110.914 1.67174 5.05536
  3137 110.911 1.67139 -5.05365
  3138 116.752 -13.2580 -23.8038
  3139 116.826 -13.2326 23.6342
  3140 131.830 1.02783 8.21835
  3141 111.217 1.01198 -4.17294
  3142 111.220 1.01221 4.17436
  3143 183.109 4.47121 -19.8359
  3144 122.904 3.60960 -23.9082
  3145 122.914 3.60437 23.9094
  3146 205.280 -1.39373 -2.28309
  3147 205.265 -1.39265 2.27417
  3148 66.8335 4.98758 17.2987
  3149 66.8386 4.99470 -17.2799
  3150 33.8452 -11.1441 0.145857
  3151 33.7685 -11.1405 -0.0960273
  3152 177.033 -5.64696 6.39969
  3153 206.065 -4.09790 -8.24371
  3154 131.008 -23.3815 26.3931
  3155 91.8698 1.13439 -18.9821
  3156 91.8732 1.14083 18.9644
  3157 203.615 -0.781893 -4.09789
  3158 203.606 -0.782559 4.08909
  3159 148.125 0.258833 6.16937
  3160 148.112 0.258999 -6.16908
  3161 112.956 0.0503500 -0.899866
  3162 112.962 0.0503667 0.900176
  3163 132.090 -1.13999 3.47628
  3164 132.093 -1.14352 -3.47638
  3165 186.737 -1.23923 13.6250
  3166 139.269 -1.14764 0.992404
  3167 139.271 -1.14965 -0.989958
  3168 168.251 -14.9193 8.78521
  3169 139.026 -3.45389 -0.281096
  3170 139.030 -3.45798 0.286323
  3171 106.981 5.77738 5.89163
  3172 106.976 5.77604 -5.89401
  3173 107.251 8.27580 16.3042
  3174 107.250 8.27609 -16.3005
  3175 134.129 0.975698 8.94749
  3176 134.119 0.975911 -8.94626
  3177 141.376 -25.5666 -24.9851
  3178 117.027 2.29182 26.0298
  3179 117.015 2.29898 -26.0281
  3180 155.620 -4.02035 19.4227
  3181 155.602 -4.01363 -19.4287
  3182 144.695 -0.00905911 -0.287537
  3183 144.693 -0.00899217 0.287885
  3184 118.847 0.325693 -3.05900
  3185 118.854 0.325750 3.05987
  3186 160.662 29.2493 1.65033
  3187 136.748 -25.5375 -19.5251
  3188 136.752 -25.4945 19.7027
  3189 144.807 0.251003 11.7536
  3190 171.695 -13.3807 8.28130
  3191 171.651 -13.3822 -8.30082
  3192 160.207 26.3499 5.81502
  3193 143.176 -6.37171 6.32569
  3194 143.171 -6.36959 -6.31993
  3195 107.994 6.23930 1.53318
  3196 107.997 6.23833 -1.53278
  3197 193.297 -1.78610 11.3529
  3198 193.424 -1.72648 -11.3204
  3199 156.205 -6.95267 -8.80475
  3200 93.4566 12.1490 -6.64857
  3201 93.4498 12.1506 6.64973
  3202 145.102 6.26524 -11.5441
  3203 126.192 0.522163 -5.29523
  3204 126.200 0.522163 5.29636
  3205 148.144 4.42636 4.60107
  3206 188.166 3.24836 -21.4659
  3207 130.758 2.23836 12.4922
  3208 130.749 2.23879 -12.4906
  3209 156.940 23.9039 49.7425
  3210 135.166 0.347685 4.91806
  3211 135.155 0.347714 -4.91727
  3212 172.509 30.8326 6.65388
  3213 137.391 4.14350 9.70656
  3214 143.749 10.4470 -9.09960
  3215 142.436 -6.48715 -4.65709
  3216 142.441 -6.48983 4.66362
  3217 101.840 9.57469 8.65805
  3218 101.843 9.57359 -8.65596
  3219 189.207 8.20734 16.1271
  3220 155.274 -6.15497 9.22316
  3221 107.612 -28.3746 -23.4257
  3222 108.475 -28.2657 22.8944
  3223 209.338 -5.10152 -11.2168
  3224 195.721 -4.76952 20.6362
  3225 195.708 -4.91635 -20.6896
  3226 133.190 -4.41045 4.21849
  3227 133.197 -4.41774 -4.21789
  3228 47.4581 -2.22526 -8.76314
  3229 47.4330 -2.22984 8.79758
  3230 141.404 -0.204723 1.43591
  3231 141.416 -0.204365 -1.43255
  3232 110.726 3.81764 -8.01593
  3233 110.728 3.81825 8.01824
  3234 161.342 -14.2539 0.525587
  3235 137.647 -12.0723 7.15651
  3236 137.654 -12.0759 -7.23628
  3237 107.095 6.86006 1.56595
  3238 107.098 6.85911 -1.56556
  3239 121.380 -4.97051 -27.5283
  3240 121.397 -4.97614 27.5278
  3241 140.505 0.0686786 -22.6662
  3242 140.518 0.0631976 22.6636
  3243 121.679 1.68901 2.68053
  3244 140.263 -2.00629 -0.673682
  3245 140.264 -2.00888 0.678427
  3246 139.489 0.352789 5.49762
  3247 139.478 0.352884 -5.49694
  3248 174.105 9.26731 9.50811
  3249 125.417 -1.32806 6.35465
  3250 125.418 -1.33297 -6.35787
  3251 69.9651 -25.0991 -24.5128
  3252 70.0201 -25.0900 24.5065
  3253 107.658 5.47804 5.79176
  3254 107.659 5.47704 -5.78995
  3255 137.196 -1.51714 -7.97390
  3256 137.191 -1.50695 7.97930
  3257 113.725 1.98765 -6.77683
  3258 113.729 1.98796 6.77879
  3259 148.744 -8.00651 -21.0273
  3260 148.766 -8.01405 21.0248
  3261 140.206 -3.40902 2.06940
  3262 140.204 -3.40558 -2.06309
  3263 127.574 1.55377 9.25051
  3264 127.566 1.55385 -9.24885
  3265 134.454 -11.6729 9.65470
  3266 134.407 -11.6185 -9.63015
  3267 140.822 -1.47817 0.528760
  3268 140.821 -1.47619 -0.524493
  3269 203.708 6.26234 20.1138
  3270 150.023 1.06358 12.3830
  3271 150.012 1.06454 -12.3834
  3272 143.456 -0.258037 -0.283732
  3273 143.456 -0.257551 0.285250
  3274 191.173 31.8811 -3.88400
  3275 158.985 -19.9258 8.78379
  3276 142.083 -0.673049 -1.63662
  3277 142.078 -0.674058 1.64118
  3278 118.980 -4.02035 -12.7117
  3279 118.986 -4.01091 12.7055
  3280 163.132 -7.12423 -25.0061
  3281 101.982 9.64419 -11.5394
  3282 101.980 9.64507 11.5423
  3283 24.8344 -68.3453 -3.99846
  3284 28.2875 -60.1471 8.96046
  3285 105.151 -2.92624 -19.4095
  3286 105.145 -2.90638 19.4066
  3287 209.690 -4.82227 11.2437
  3288 111.812 0.123853 -1.48119
  3289 111.817 0.123890 1.48170
  3290 84.4828 10.5782 -5.07258
  3291 84.4954 10.5765 5.06642
  3292 21.9445 -32.2019 -1.75668
  3293 21.9572 -32.2710 1.87240
  3294 175.336 0.0390082 -9.33690
  3295 175.345 0.0379736 9.33359
  3296 139.759 -17.4740 -12.6182
  3297 159.089 -0.642489 -11.2335
  3298 187.155 13.1918 2.90737
  3299 108.739 6.13720 -0.726467
  3300 108.736 6.13811 0.726603
  3301 119.401 -0.0130628 -0.847188
  3302 119.409 -0.0130844 0.847442
  3303 138.608 -0.0224075 -1.60842
  3304 138.607 -0.0218489 1.60856
  3305 120.468 2.39439 10.2113
  3306 120.462 2.39435 -10.2091
  3307 140.345 -8.46172 -0.512534
  3308 140.334 -8.45542 0.520519
  3309 181.997 8.10403 -4.17706
  3310 128.412 -0.439143 -4.37802
  3311 128.411 -0.435882 4.37659
  3312 120.650 0.981818 3.74412
  3313 199.958 -0.587403 -5.03788
  3314 199.954 -0.588425 5.03056
  3315 76.2315 -10.2694 30.9457
  3316 76.2621 -10.2007 -31.0246
  3317 132.778 7.04145 2.77271
  3318 142.710 -3.64799 9.73161
  3319 142.698 -3.65441 -9.71713
  3320 144.935 -7.85040 5.92474
  3321 144.936 -7.85021 -5.91836
  3322 190.916 -14.1933 9.13320
  3323 190.862 -14.1090 -9.13916
  3324 91.3653 -6.05280 20.8766
  3325 217.210 1.54267 -15.8125
  3326 183.016 16.3471 -7.13809
  3327 90.5858 8.72428 21.6008
  3328 90.5844 8.72892 -21.5921
  3329 227.432 11.5193 14.3028
  3330 88.8809 12.9308 7.58798
  3331 88.8896 12.9287 -7.58614
  3332 111.915 4.25120 -9.57606
  3333 111.918 4.25173 9.57859
  3334 184.576 -4.96053 -7.06038
  3335 184.586 -4.96099 7.04523
  3336 106.606 6.68702 -8.19653
  3337 106.605 6.68797 8.19877
  3338 94.4563 5.74829 -11.9998
  3339 94.4623 5.75363 11.9919
  3340 107.900 6.62943 10.2601
  3341 107.900 6.62864 -10.2575
  3342 161.668 -0.233465 -8.79744
  3343 120.142 3.08695 11.5537
  3344 120.137 3.08694 -11.5513
  3345 133.976 -2.33553 3.07583
  3346 133.979 -2.34024 -3.07479
  3347 173.730 0.0381437 -7.82307
  3348 258.940 15.7351 0.395427
  3349 43.8043 -27.3458 -17.3653
  3350 43.8420 -27.3697 17.3612
  3351 77.3918 5.55065 -21.1627
  3352 77.3929 5.54235 21.1769
  3353 135.009 1.92835 -22.8755
  3354 135.021 1.92345 22.8744
  3355 192.844 -4.78408 -2.46767
  3356 192.842 -4.77683 2.45428
  3357 131.354 2.56805 7.58971
  3358 141.531 -11.2984 -2.20246
  3359 141.503 -11.2864 2.21986
  3360 174.940 9.77724 0.876130
  3361 77.9109 11.6972 12.3691
  3362 77.9226 11.6961 -12.3602
  3363 190.891 -7.42634 0.548754
  3364 190.886 -7.40402 -0.561149
  3365 142.402 -19.2369 12.5761
  3366 173.960 31.3404 -6.04860
  3367 99.9084 10.1046 4.92453
  3368 99.9131 10.1036 -4.92363
  3369 108.032 6.93854 -11.6045
  3370 108.032 6.93919 11.6074
  3371 113.700 -8.70843 21.4760
  3372 113.736 -8.79703 -21.4795
  3373 207.162 -1.59724 -0.909415
  3374 207.143 -1.59416 0.902444
  3375 155.728 0.159579 -17.4037
  3376 155.739 0.156253 17.4000
  3377 176.950 -8.91253 -8.36418
  3378 176.974 -8.91134 8.34608
  3379 139.856 -0.513537 -1.21531
  3380 139.854 -0.512440 1.21656
  3381 101.418 7.25592 -23.7679
  3382 101.424 7.25042 23.7739
  3383 166.621 -6.42976 15.2849
  3384 166.600 -6.42276 -15.2944
  3385 39.8311 -45.2297 -11.2399
  3386 39.8113 -45.1740 11.2025
  3387 110.608 0.0650717 -1.16447
  3388 110.613 0.0650706 1.16489
  3389 171.449 11.0375 -10.8467
  3390 108.464 4.58208 5.67083
  3391 108.465 4.58117 -5.66898
  3392 110.215 2.34660 -5.59394
  3393 110.217 2.34711 5.59582
  3394 94.4714 5.91757 -24.5858
  3395 94.4783 5.90978 24.5936
  3396 141.884 0.00715608 -0.818923
  3397 143.940 -0.00905222 0.319587
  3398 141.881 0.00728562 0.819001
  3399 143.942 -0.00910005 -0.319479
  3400 151.569 -15.8862 1.61483
  3401 151.454 -15.9238 -1.48062
  3402 98.7164 4.46576 -12.6605
  3403 98.7221 4.47216 12.6543
  3404 104.083 -18.1864 27.8766
  3405 104.073 -18.1956 -27.8971
  3406 157.416 0.256255 9.77435
  3407 157.404 0.256903 -9.77520
  3408 113.023 0.143370 1.17179
  3409 138.849 -9.18772 2.59008
  3410 138.865 -9.19781 -2.58419
  3411 126.116 2.40952 12.1628
  3412 126.109 2.40981 -12.1608
  3413 140.741 -1.87089 1.39331
  3414 140.741 -1.86859 -1.38793
  3415 354.604 13.9514 43.7205
  3416 114.382 0.988986 -5.04423
  3417 114.387 0.989152 5.04575
  3418 117.612 4.51078 13.7963
  3419 117.608 4.51086 -13.7935
  3420 39.2995 -9.24154 -7.04319
  3421 39.2696 -9.25468 7.09085
  3422 110.256 4.61158 5.58440
  3423 110.252 4.61042 -5.58685
  3424 62.8558 8.48024 -3.34734
  3425 62.8906 8.46971 3.34874
  3426 219.684 4.76581 16.1547
  3427 151.131 3.22101 -10.4876
  3428 136.487 -2.80080 1.85578
  3429 136.491 -2.80531 -1.85307
  3430 117.949 -9.37278 19.4010
  3431 118.012 -9.53571 -19.3988
  3432 111.128 6.06242 12.5916
  3433 111.127 6.06202 -12.5886
  3434 142.164 1.37761 13.4768
  3435 142.154 1.37858 -13.4764
  3436 195.751 -6.12250 5.16849
  3437 195.729 -6.09016 -5.16435
  3438 112.839 3.75739 -5.99113
  3439 112.843 3.75879 5.98839
  3440 97.1332 -2.00921 -21.4664
  3441 97.1370 -1.99732 21.4403
  3442 95.8540 1.79409 -17.0085
  3443 95.8564 1.80436 16.9967
  3444 276.601 25.2110 -0.0590006
  3445 43.5606 -39.0870 24.8800
  3446 214.728 -0.351024 1.82288
  3447 214.697 -0.348490 -1.81746
  3448 241.298 9.12953 3.74181
  3449 127.072 -1.76338 5.81501
  3450 127.074 -1.76858 -5.81762
  3451 113.503 0.306417 -2.76111
  3452 113.509 0.306472 2.76201
  3453 111.220 2.11257 -5.90240
  3454 111.222 2.11299 5.90430
  3455 49.2011 -0.955662 -11.8045
  3456 49.2663 -0.967559 11.8019
  3457 175.591 -1.58496 12.8812
  3458 175.581 -1.58153 -12.8894
  3459 83.3116 -3.53319 -25.8132
  3460 83.3063 -3.54185 25.8061
  3461 127.653 1.89324 6.22742
  3462 101.706 10.0229 16.7839
  3463 101.707 10.0233 -16.7796
  3464 122.221 0.472106 4.04719
  3465 135.506 -0.751115 -8.06574
  3466 135.502 -0.743665 8.06794
  3467 153.604 -1.25774 -11.7597
  3468 136.498 0.0190602 1.72175
  3469 136.486 0.0190633 -1.72145
  3470 106.387 6.69408 4.87163
  3471 106.389 6.69298 -4.87018
  3472 191.451 -9.22214 6.06531
  3473 191.426 -9.17517 -6.06789
  3474 122.685 2.07987 -2.67267
  3475 103.781 8.50862 7.89172
  3476 103.784 8.50753 -7.88972
  3477 183.628 -0.138550 -7.47813
  3478 183.635 -0.139544 7.47418
  3479 92.1000 -1.02507 -27.6615
  3480 92.1161 -1.03623 27.6667
  3481 88.6371 -2.46899 23.9285
  3482 88.6298 -2.45804 -23.9450
  3483 127.713 3.69963 17.7393
  3484 127.705 3.70124 -17.7376
  3485 115.758 1.19541 2.75186
  3486 140.834 10.6561 7.11315
  3487 113.917 4.45936 2.67359
  3488 113.914 4.45953 -2.67487
  3489 111.082 0.317443 2.51061
  3490 111.078 0.317361 -2.50971
  3491 58.3045 -13.7905 21.7349
  3492 122.694 0.432108 -3.99330
  3493 122.702 0.432157 3.99427
  3494 104.356 8.40227 -9.49633
  3495 104.355 8.40327 9.49872
  3496 120.850 1.68895 4.98881
  3497 120.849 1.68718 -4.99131
  3498 125.800 0.949004 3.97503
  3499 125.800 0.947391 -3.97665
  3500 125.455 -0.0155607 2.30760
  3501 125.399 -0.0151250 -2.31999
  3502 163.009 -12.8331 -1.55735
  3503 166.462 -22.1288 -8.29642
  3504 167.026 -22.2684 7.97296
  3505 137.614 11.0976 1.97213
  3506 108.163 5.22261 7.10895
  3507 108.164 5.22172 -7.10682
  3508 60.6106 -10.8103 23.5108
  3509 60.5852 -10.7881 -23.4945
  3510 135.664 4.79643 8.51275
  3511 125.072 3.21785 13.5412
  3512 125.065 3.21824 -13.5391
  3513 138.467 -0.216959 1.59573
  3514 138.469 -0.217857 -1.59514
  3515 86.4659 8.98493 -8.74112
  3516 86.4766 8.98507 8.73242
  3517 94.9396 11.8674 12.3420
  3518 94.9443 11.8664 -12.3385
  3519 119.683 4.94754 -22.7047
  3520 119.692 4.94326 22.7069
  3521 156.512 -21.4221 -11.7770
  3522 107.524 5.62596 6.25951
  3523 107.525 5.62498 -6.25759
  3524 46.8628 -36.1167 -27.2213
  3525 115.371 3.97347 11.2209
  3526 115.367 3.97320 -11.2183
  3527 108.530 4.63990 -6.37452
  3528 108.530 4.64076 6.37652
  3529 321.664 23.0593 -3.78061
  3530 101.973 5.82446 24.9613
  3531 101.965 5.83133 -24.9554
  3532 155.238 22.3079 6.80490
  3533 217.215 1.37198 16.0906
  3534 107.571 -0.778775 -15.6549
  3535 107.580 -0.768568 15.6510
  3536 123.894 2.07868 -10.3109
  3537 123.900 2.07863 10.3129
  3538 197.956 -7.69401 18.2711
  3539 197.924 -7.81294 -18.2146
  3540 133.958 0.0392742 -2.54147
  3541 133.956 0.0405947 2.54129
  3542 248.165 11.3414 -1.10581
  3543 108.706 5.76372 9.61246
  3544 108.705 5.76296 -9.60991
  3545 117.473 1.09482 5.96639
  3546 117.468 1.09467 -5.96478
  3547 130.567 -11.1311 -25.1604
  3548 130.584 -11.1322 25.1646
  3549 136.239 -0.208536 -2.11263
  3550 136.237 -0.207264 2.11296
  3551 109.813 5.72312 -2.54519
  3552 109.818 5.72299 2.54402
  3553 133.850 0.0183169 -1.98146
  3554 133.821 0.0199143 1.98477
  3555 390.513 8.85372 -9.00290
  3556 140.347 -3.41769 -6.96298
  3557 140.350 -3.41819 6.97173
  3558 142.624 0.567839 7.26540
  3559 118.637 0.00674212 8.52344
  3560 118.634 0.00265081 -8.52813
  3561 108.750 5.07196 -7.94563
  3562 108.750 5.07278 7.94793
  3563 120.916 -25.8855 -23.5830
  3564 120.812 -25.7596 23.6004
  3565 84.6104 11.8386 -1.05586
  3566 84.6227 11.8361 1.05266
  3567 112.110 1.17894 -4.81017
  3568 112.114 1.17917 4.81173
  3569 149.261 0.0828051 -19.8461
  3570 149.273 0.0785105 19.8425
  3571 124.502 -20.0930 -26.6237
  3572 102.819 8.93977 6.83116
  3573 102.822 8.93865 -6.82948
  3574 197.588 -1.77914 -5.54858
  3575 197.584 -1.77973 5.53738
  3576 162.759 14.4238 -11.8292
  3577 81.8028 -27.2139 35.7844
  3578 104.747 8.85453 -12.4772
  3579 104.747 8.85524 12.4802
  3580 129.538 1.02967 6.53105
  3581 140.128 -20.7944 16.9257
  3582 140.857 8.32523 -9.28264
  3583 85.6508 1.20055 -20.5052
  3584 85.6594 1.19802 20.4845
  3585 141.775 -0.0897275 -0.906426
  3586 141.774 -0.0894320 0.906873
  3587 139.409 10.9209 -5.56881
  3588 115.284 1.90893 -7.24578
  3589 115.288 1.90919 7.24777
  3590 156.077 8.25369 -12.6244
  3591 138.268 7.81987 -7.39490
  3592 131.574 2.56993 -7.74942
  3593 103.985 9.25394 14.3617
  3594 103.985 9.25355 -14.3582
  3595 112.362 4.75477 -3.43027
  3596 112.366 4.75492 3.42865
  3597 155.012 18.3195 -9.94038
  3598 110.985 0.0380077 0.528907
  3599 110.980 0.0380114 -0.528720
  3600 140.485 -2.66785 -4.12303
  3601 140.486 -2.67062 4.13051
  3602 89.4878 12.1140 -1.47973
  3603 89.4784 12.1157 1.47831
  3604 130.394 3.71729 19.1152
  3605 130.385 3.71959 -19.1140
  3606 81.8580 13.1558 -4.92473
  3607 81.8445 13.1595 4.92617
  3608 136.957 -1.23862 -1.78920
  3609 136.955 -1.23596 1.79098
  3610 132.881 0.419082 24.1869
  3611 132.867 0.425215 -24.1884
  3612 140.724 -1.53269 3.01789
  3613 140.727 -1.53066 -3.01120
  3614 166.619 1.23176 10.0199
  3615 89.7394 10.8184 -3.79937
  3616 89.7487 10.8179 3.79499
  3617 137.729 -0.952367 -1.63278
  3618 137.728 -0.950264 1.63442
  3619 144.429 -10.3977 -1.54316
  3620 144.434 -10.3992 1.55649
  3621 116.367 2.75172 5.72099
  3622 116.363 2.75018 -5.72384
  3623 135.460 -21.0692 -21.5727
  3624 135.474 -21.0503 21.6153
  3625 153.317 -2.65851 11.1905
  3626 117.107 0.103185 -2.14701
  3627 117.114 0.103204 2.14764
  3628 100.774 6.61090 -7.64173
  3629 100.780 6.61362 7.63829
  3630 148.169 15.8461 -7.71264
  3631 229.559 34.6427 -11.6863
  3632 147.016 0.843646 11.1481
  3633 147.005 0.844310 -11.1479
  3634 68.8073 -36.5177 17.9505
  3635 68.6500 -36.5952 -17.9386
  3636 140.117 -0.149676 -1.25401
  3637 140.115 -0.149108 1.25453
  3638 137.399 1.26772 -10.7075
  3639 137.409 1.26730 10.7085
  3640 121.061 0.220467 2.70875
  3641 121.053 0.220440 -2.70803
  3642 115.589 0.0984227 -1.82551
  3643 115.595 0.0984311 1.82609
  3644 111.883 0.230039 2.11290
  3645 111.878 0.229983 -2.11218
  3646 117.066 0.975458 -3.50573
  3647 142.251 0.371580 -7.48335
  3648 199.966 9.55086 -18.0141
  3649 85.6764 12.7341 11.5456
  3650 85.6853 12.7325 -11.5407
  3651 208.551 15.7674 9.51137
  3652 95.4344 11.5558 14.2698
  3653 95.4383 11.5553 -14.2656
  3654 208.889 20.5364 -24.2481
  3655 119.794 0.928980 5.92800
  3656 119.788 0.928894 -5.92650
  3657 119.118 0.460580 4.14403
  3658 119.111 0.460533 -4.14292
  3659 142.340 -12.7733 -3.41668
  3660 142.312 -12.7613 3.46535
  3661 109.325 6.02869 0.843525
  3662 109.321 6.02930 -0.844006
  3663 146.201 -21.3474 -14.3065
  3664 199.308 22.5987 57.0289
  3665 104.227 5.59592 -8.05038
  3666 104.233 5.59867 8.04724
  3667 64.8805 -15.7120 -25.0891
  3668 64.9170 -15.7310 25.0969
  3669 131.304 -16.4036 -18.1084
  3670 106.380 6.24668 -4.64822
  3671 106.386 6.24757 4.64627
  3672 84.9199 -18.5903 -28.2007
  3673 84.9624 -18.5966 28.1859
  3674 108.427 3.91618 8.24492
  3675 108.421 3.91348 -8.24823
  3676 185.497 -14.8935 -7.08175
  3677 185.372 -14.3802 6.62069
  3678 138.656 -1.57328 -9.57499
  3679 138.646 -1.55040 9.58074
  3680 137.718 -10.9027 -5.56075
  3681 137.698 -10.8843 5.54934
  3682 121.663 1.32362 7.80116
  3683 121.656 1.32356 -7.79939
  3684 194.466 36.3302 3.28904
  3685 139.574 -10.4664 -3.40045
  3686 139.547 -10.4498 3.40671
  3687 111.126 1.70708 10.5393
  3688 111.120 1.70274 -10.5436
  3689 180.197 0.0657910 -6.54305
  3690 180.206 0.0652438 6.54070
  3691 137.576 -3.76540 1.11199
  3692 137.580 -3.77043 -1.10799
  3693 141.133 -4.23984 -6.07866
  3694 141.137 -4.24223 6.08626
  3695 136.795 10.7800 -1.93264
  3696 94.6469 9.31955 -5.27259
  3697 94.6543 9.32081 5.26876
  3698 107.200 6.82872 -2.09725
  3699 107.204 6.82859 2.09627
  3700 140.195 -25.3188 25.2448
  3701 117.499 -23.8571 32.8361
  3702 170.599 0.0619612 2.70459
  3703 170.586 0.0620317 -2.70499
  3704 163.053 24.0886 -8.92449
  3705 184.837 -0.975800 20.8389
  3706 179.010 0.147458 2.80812
  3707 178.998 0.147555 -2.80881
  3708 123.715 -17.6955 -24.1987
  3709 122.228 -4.88653 -11.7761
  3710 122.232 -4.87717 11.7682
  3711 108.359 6.34753 -0.0632243
  3712 108.355 6.34829 0.0630898
  3713 176.633 -0.0575214 -10.1517
  3714 176.641 -0.0590123 10.1474
  3715 114.400 -25.9763 35.5162
  3716 73.6696 8.62383 -9.70865
  3717 73.6927 8.61655 9.69790
  3718 90.5271 -3.88881 -28.1423
  3719 90.5463 -3.90130 28.1457
  3720 135.879 -9.44536 -6.04582
  3721 135.863 -9.44044 6.04310
  3722 130.300 -2.66451 4.88718
  3723 130.304 -2.67043 -4.88826
  3724 133.083 -7.09294 -6.22178
  3725 133.073 -7.08253 6.22041
  3726 77.2547 11.7313 -2.58151
  3727 77.2731 11.7259 2.57751
  3728 195.963 -5.45715 2.47294
  3729 195.949 -5.43562 -2.47672
  3730 138.593 -1.04824 4.60204
  3731 138.600 -1.04729 -4.59445
  3732 164.579 5.74339 10.6740
  3733 99.5814 10.1145 18.1356
  3734 99.5821 10.1157 -18.1305
  3735 213.421 -0.809026 -2.30006
  3736 213.446 -0.812396 2.30861
  3737 112.857 0.100199 -1.65303
  3738 112.862 0.100223 1.65360
  3739 162.484 0.114318 -13.4352
  3740 162.494 0.112554 13.4323
  3741 276.246 17.2363 -9.75813
  3742 105.298 7.59019 -1.37352
  3743 105.294 7.59100 1.37372
  3744 125.138 1.05154 6.97261
  3745 125.130 1.05150 -6.97115
  3746 111.753 -23.4537 -34.5631
  3747 111.686 -1.76500 -14.5845
  3748 111.694 -1.75701 14.5785
  3749 183.168 34.8719 -4.47296
  3750 144.186 -0.106242 0.620376
  3751 144.192 -0.106048 -0.618536
  3752 123.012 -17.2849 24.0385
  3753 146.189 12.1386 9.59085
  3754 105.278 7.70158 2.34237
  3755 105.281 7.70063 -2.34182
  3756 120.367 0.889070 26.4215
  3757 120.354 0.896295 -26.4207
  3758 113.284 3.79294 5.32426
  3759 113.280 3.79185 -5.32675
  3760 117.863 3.05098 3.78004
  3761 117.860 3.05046 -3.78188
  3762 136.741 -14.7532 11.5595
  3763 136.504 -14.5944 -11.4524
  3764 142.148 3.54039 1.85314
  3765 104.266 8.04673 3.10613
  3766 104.270 8.04574 -3.10541
  3767 79.4849 -1.90818 -20.0140
  3768 104.185 8.20044 -1.21073
  3769 104.180 8.20116 1.21080
  3770 132.721 -9.14012 8.20291
  3771 132.732 -9.14990 -8.20679
  3772 117.256 2.30308 8.73554
  3773 117.251 2.30286 -8.73337
  3774 140.814 -3.80974 -5.29568
  3775 140.817 -3.81258 5.30325
  3776 136.375 -2.11543 1.98828
  3777 136.378 -2.11921 -1.98607
  3778 82.2011 -27.7940 -35.5805
  3779 169.186 0.0521716 6.94581
  3780 169.175 0.0525495 -6.94712
  3781 138.486 2.25959 19.1482
  3782 138.476 2.26226 -19.1485
  3783 132.326 -5.73753 5.73092
  3784 132.334 -5.74678 -5.73204
  3785 131.462 -0.0884728 -1.90061
  3786 131.430 -0.0838694 1.90113
  3787 232.857 20.7676 -3.45307
  3788 109.221 -11.8140 -26.1634
  3789 109.432 -11.6116 25.9112
  3790 151.261 0.256685 -6.48081
  3791 151.274 0.256502 6.48094
  3792 120.472 0.0563528 -0.944721
  3793 120.481 0.0563545 0.944980
  3794 176.858 -6.51904 -10.7902
  3795 176.876 -6.52228 10.7757
  3796 108.993 3.87818 -5.92942
  3797 108.994 3.87898 5.93136
  3798 140.657 -0.271685 -1.12986
  3799 140.655 -0.270987 1.13080
  3800 100.422 9.76025 3.35983
  3801 100.427 9.75936 -3.35939
  3802 108.350 5.75432 -8.93779
  3803 108.350 5.75513 8.94023
  3804 103.527 8.46676 -6.09629
  3805 103.524 8.46783 6.09782
  3806 52.9457 -1.92438 14.4984
  3807 52.9529 -1.91229 -14.4684
  3808 137.957 2.17455 -20.6479
  3809 137.968 2.17097 20.6473
  3810 170.318 -7.49718 2.22989
  3811 267.020 12.9441 18.4689
  3812 123.696 2.83352 12.1873
  3813 123.690 2.83373 -12.1851
  3814 105.559 2.17730 27.1828
  3815 105.546 2.18597 -27.1791
  3816 96.6252 -25.8216 25.5878
  3817 96.5589 -25.8678 -25.6621
  3818 180.209 -2.35596 -11.6112
  3819 180.217 -2.35989 11.6008
  3820 129.360 -1.10901 4.47157
  3821 129.362 -1.11304 -4.47281
  3822 101.477 10.2456 14.8676
  3823 101.479 10.2453 -14.8638
  3824 129.673 -14.4101 -25.6109
  3825 129.688 -14.4044 25.6206
  3826 145.749 4.08131 11.9823
  3827 135.413 -0.903614 -2.43902
  3828 135.411 -0.901140 2.43983
  3829 183.948 1.42413 21.0803
  3830 149.903 -6.74011 8.87759
  3831 149.749 -6.76185 -8.79393
  3832 145.083 8.66643 10.8250
  3833 113.222 1.00177 -4.77000
  3834 113.226 1.00195 4.77150
  3835 162.734 1.75088 30.9260
  3836 116.259 3.17858 4.50488
  3837 116.256 3.17772 -4.50710
  3838 116.302 4.42817 12.5856
  3839 116.298 4.42805 -12.5829
  3840 141.264 -0.498338 2.24143
  3841 141.272 -0.497452 -2.23625
  3842 139.612 8.31010 8.34169
  3843 161.015 3.81869 13.9020
  3844 142.119 -11.3882 33.7622
  3845 148.569 3.03552 12.3790
  3846 128.143 0.494434 -3.64310
  3847 128.142 0.496213 3.64188
  3848 153.919 -4.63637 -10.3207
  3849 166.416 -14.6694 4.05820
  3850 112.395 3.17853 8.13242
  3851 112.392 3.17805 -8.13014
  3852 112.905 2.13360 6.75701
  3853 112.901 2.13326 -6.75500
  3854 111.155 4.98862 4.15076
  3855 111.151 4.98818 -4.15263
  3856 174.519 -2.24007 -24.2481
  3857 106.675 5.13452 -7.22553
  3858 106.681 5.13664 7.22268
  3859 110.021 5.08850 9.58149
  3860 110.020 5.08785 -9.57893
  3861 105.492 7.24549 4.03051
  3862 105.495 7.24443 -4.02939
  3863 172.851 -9.04708 -10.9490
  3864 172.877 -9.05064 10.9348
  3865 355.082 17.8579 -9.14787
  3866 141.600 -1.06565 -0.719568
  3867 141.599 -1.06715 0.723750
  3868 107.666 5.91876 7.43138
  3869 107.667 5.91781 -7.42922
  3870 118.076 0.520536 4.31545
  3871 118.070 0.520477 -4.31426
  3872 21.7694 -0.400231 -0.000298094
  3873 22.7324 -1.81897 0.0609568
  3874 21.8437 -0.530694 -1.21060
  3875 21.6124 -0.344733 1.27784
  3876 21.4253 0.183377 -0.306638
  3877 21.4351 0.184955 0.288235
  3878 22.8817 -2.05734 -1.28537
  3879 21.5856 0.0828757 -0.0243053
  3880 22.8077 -1.79470 1.42717
  3881 23.4543 -3.19425 -0.00429961
  3882 23.3335 -2.79275 0.982623
  3883 22.1409 -0.926937 -0.393245
  3884 22.0946 -0.885775 0.427256
  3885 22.2233 -0.833558 -2.00225
  3886 20.7985 0.448695 -0.852418
  3887 20.8310 0.464992 0.799111
  3888 21.5984 -0.210171 -0.468773
  3889 23.3635 -3.02296 -0.993152
  3890 21.5170 0.224830 0.164214
  3891 21.5437 0.212820 -0.187573
  3892 22.0845 -0.611571 2.04269
  3893 21.5641 -0.191459 0.457216
  3894 21.6100 -0.0539429 -0.130899
  3895 21.6016 -0.0464250 0.155919
  3896 21.1158 0.109821 -1.68746
  3897 20.9053 0.251988 1.68213
  3898 22.6362 -1.59895 -0.717974
  3899 23.6363 -3.63066 0.454872
  3900 22.5558 -1.50266 0.823849
  3901 23.6886 -3.66693 -0.654388
  3902 23.0748 -2.32771 -0.459603
  3903 23.0923 -2.61934 0.359990
  3904 22.9439 -2.06403 -1.96611
  3905 23.2034 -2.29816 1.74031
  3906 21.1729 0.563448 0.309166
  3907 21.0980 0.561691 -0.326733
  3908 21.5133 0.203214 -0.0727974
  3909 22.7292 -1.42875 2.11016
  3910 21.5398 0.398019 0.283308
  3911 21.4874 0.214260 0.0282299
  3912 21.5688 0.390376 -0.270935
  3913 22.3778 -1.24664 -1.37257
  3914 22.2041 -1.04742 1.41179
  3915 22.3601 -1.21087 0.0709621
  3916 21.3258 0.0439442 -0.828408
  3917 21.2978 0.0630596 0.817424
  3918 22.1328 -0.950859 -0.897806
  3919 21.9950 -0.751474 0.0163393
  3920 22.6843 -1.10923 -2.25137
  3921 21.8534 -0.212145 -2.38408
  3922 21.5717 0.0869336 0.106806
  3923 21.8146 -0.505026 -0.301381
  3924 21.8036 -0.489467 0.314657
  3925 20.5307 0.569459 -1.37613
  3926 21.5546 0.123273 -0.181050
  3927 23.5106 -3.43538 1.22442
  3928 23.3219 -2.74774 -1.71911
  3929 21.3366 0.146728 2.24516
  3930 21.7515 -0.456146 0.715201
  3931 23.0274 -2.32759 1.09262
  3932 20.3916 0.532738 1.25759
  3933 23.7430 -3.90425 0.0657890
  3934 22.6760 -1.57481 -1.63104
  3935 21.6759 -0.222740 -0.203241
  3936 23.3780 -2.96193 0.498606
  3937 22.1110 -0.824444 0.909277
  3938 21.7732 -0.506973 -0.714606
  3939 21.6709 -0.148564 -0.0136988
  3940 22.4665 -0.537192 2.48740
  3941 21.6757 -0.255839 0.182969
  3942 23.2534 -2.73975 -0.682634
  3943 20.4756 0.625205 -0.712098
  3944 21.5333 -0.00164544 -0.300701
  3945 21.5608 0.457138 -0.284228
  3946 21.1259 0.263852 -0.622130
  3947 21.4549 0.306474 0.0847541
  3948 21.2216 0.238312 0.459408
  3949 21.4656 0.330185 -0.131481
  3950 20.6351 0.609909 0.587875
  3951 21.6723 -0.281994 -1.81549
  3952 21.4891 0.379173 0.222305
  3953 21.6213 -0.0291154 0.0236217
  3954 21.5339 0.0157382 0.265351
  3955 23.5728 -3.41679 -1.09393
  3956 21.1941 0.0496441 -1.20729
  3957 22.4804 -1.17771 1.78832
  3958 22.7750 -1.85318 0.520691
  3959 21.5520 0.172793 0.174518
  3960 21.4181 -0.177564 1.59398
  3961 21.5709 0.119415 -0.0886188
  3962 23.0906 -2.49515 -0.0439825
  3963 21.2133 0.0681155 1.21635
  3964 23.3428 -2.81738 1.76770
  3965 22.9425 -1.90907 2.05698
  3966 21.6381 0.628651 0.343195
  3967 22.5686 -1.55308 -0.296998
  3968 23.2137 -2.53234 -1.37209
  3969 21.6226 0.604791 -0.308685
  3970 22.5091 -1.46436 0.355075
  3971 21.4479 0.233679 -0.0586722
  3972 23.6576 -3.76416 0.891742
  3973 22.5930 -0.466124 -2.46922
  3974 20.7293 0.351327 -2.00204
  3975 23.6482 -3.44321 0.111337
  3976 20.7130 0.410270 2.06870
  3977 22.8907 -1.97918 -0.827438
  3978 22.7961 -1.84502 0.977314
  3979 23.1875 -2.51886 1.35672
  3980 23.4813 -3.29774 -1.54410
  3981 22.8816 -1.80360 1.80139
  3982 21.5617 0.137035 0.0467829
  3983 21.4571 0.368887 0.258784
  3984 21.5403 0.163001 -0.0262189
  3985 23.8214 -4.09504 0.502710
  3986 21.4100 0.361008 -0.261293
  3987 21.5255 0.215126 -0.217913
  3988 21.5962 0.0445514 -0.0937751
  3989 22.8544 -1.56240 -2.29108
  3990 21.4516 -0.000741509 -0.493860
  3991 22.7944 -1.92121 -0.371449
  3992 23.4400 -3.20434 -0.542683
  3993 23.8496 -4.11415 -0.568846
  3994 21.5346 0.556640 -0.343672
  3995 21.4060 0.281052 -2.43672
  3996 23.1173 -2.38977 -0.937452
  3997 21.4180 0.0565230 0.485224
  3998 21.9007 0.0157301 2.61923
  3999 22.7463 -0.991251 2.33823
  4000 21.5586 0.0605606 0.182991
  4001 22.0163 -0.701701 -1.51785
  4002 23.0977 -2.34527 -2.06673
  4003 20.1112 0.487296 -1.20642
  4004 21.5005 0.621384 0.380953
  4005 23.4968 -3.30867 0.837751
  4006 22.3333 -1.18263 -0.608434
  4007 21.5149 0.300364 0.0731772
  4008 21.0246 0.430284 0.509859
  4009 20.7706 0.617589 -0.379755
  4010 23.2476 -2.39801 2.05410
  4011 20.9411 0.486391 -0.559614
  4012 22.2803 -1.08326 0.657319
  4013 21.4729 0.240853 -0.0689362
  4014 20.7783 0.404893 1.15291
  4015 23.2055 -2.60014 0.731239
  4016 22.5207 -1.42990 1.29163
  4017 21.8698 -0.633885 1.64206
  4018 21.3660 0.724892 0.248834
  4019 21.5402 0.204186 -0.137113
  4020 20.2517 0.518075 1.62532
  4021 20.8041 0.380629 -1.26902
  4022 22.6658 -1.64603 -1.16882
  4023 22.9547 -2.20034 0.232719
  4024 20.1733 0.619149 0.927907
  4025 21.5330 -0.234561 0.944189
  4026 22.9638 -2.04016 -1.68040
  4027 21.3179 0.348038 -0.194819
  4028 23.3500 -2.95901 1.36165
  4029 21.5456 0.268915 0.217442
  4030 21.8639 -0.450983 -2.08916
  4031 22.3722 -1.29586 -1.01595
  4032 21.5126 0.226412 0.101639
  4033 23.7847 -4.31320 -0.212878
  4034 21.5969 -0.282768 -1.00679
  4035 22.2495 -1.16116 1.07313
  4036 23.5333 -3.34976 -0.835861
  4037 21.5715 0.279171 -0.210987
  4038 21.3777 0.391464 0.161835
  4039 22.1600 -0.981704 -0.111786
  4040 22.1316 -0.964221 0.164125
  4041 23.2621 -2.81533 0.0833183
  4042 21.9176 -0.644569 -0.473267
  4043 22.0184 -0.710802 1.20671
  4044 22.4155 -0.889087 2.21663
  4045 21.5541 0.0187855 -0.206028
  4046 22.3785 -1.04599 -1.73589
  4047 21.9812 -0.724085 -0.232186
  4048 21.9637 -0.708265 0.258596
  4049 23.2422 -2.68794 -1.00142
  4050 21.0079 0.252055 -0.952925
  4051 22.8136 -1.60841 -2.00044
  4052 20.9670 0.249241 0.941348
  4053 21.8913 -0.618646 0.494250
  4054 22.7664 -0.889882 -2.37492
  4055 21.8538 -0.556330 0.111515
  4056 21.8595 -0.553191 -0.0955117
  4057 21.6157 -0.159386 1.97597
  4058 21.5191 0.245824 0.227728
  4059 23.2735 -2.80592 -0.290180
  4060 21.2698 0.375363 0.337193
  4061 21.5939 0.0252009 0.0974007
  4062 21.1726 0.368658 -0.389335
  4063 21.5623 0.143738 -0.0717933
  4064 22.9589 -2.12039 -0.113281
  4065 22.4996 -1.51169 0.00891881
  4066 23.7994 -3.87807 -0.997812
  4067 21.2931 0.749624 -0.246466
  4068 23.0139 -2.22391 0.652544
  4069 23.3932 -3.23713 1.61963
  4070 21.7578 -0.375904 -0.167018
  4071 20.2640 0.487153 -1.58201
  4072 21.4158 0.0396489 -2.12550
  4073 21.6931 -0.292558 0.322363
  4074 21.5816 -0.214630 -0.668425
  4075 21.6817 -0.389439 0.499803
  4076 20.8551 0.664217 0.337566
  4077 21.8736 -0.664131 -0.939978
  4078 23.9796 -4.31148 0.142987
  4079 23.6332 -3.54544 -0.223462
  4080 22.5389 -1.18620 -2.00535
  4081 21.3025 0.406582 2.45111
  4082 22.3114 -0.715930 -2.24455
  4083 21.5262 -0.186640 0.653919
  4084 21.2686 0.246472 0.0362817
  4085 21.6998 -0.307618 -0.331529
  4086 22.8170 -1.55380 2.33188
  4087 21.7106 -0.426740 -0.497240
  4088 20.4739 0.556244 -1.07114
  4089 21.7080 -0.261103 -0.0761676
  4090 22.0134 -0.809200 -0.669959
  4091 21.9210 -0.368429 2.32523
  4092 22.0261 -0.698730 -1.85394
  4093 23.1449 -2.31248 -1.74116
  4094 21.7479 -0.388330 0.165242
  4095 22.0800 0.0213401 -2.68765
  4096 23.6016 -3.63885 -1.33743
  4097 21.5567 0.162281 0.114963
  4098 21.4029 0.497223 0.265345
  4099 23.3948 -2.97338 -1.92381
  4100 23.0368 -2.15569 1.50350
  4101 21.9936 -0.760131 0.686062
  4102 22.1241 -0.873281 -1.16439
  4103 21.5842 -0.148128 -0.338067
  4104 21.8413 -0.541031 0.958621
  4105 21.6969 -0.262232 0.0603407
  4106 20.6443 0.414354 -1.62233
  4107 21.6538 -0.148560 -0.113066
  4108 21.5152 0.296444 -0.219420
  4109 23.5675 -3.73321 1.28200
  4110 20.5591 0.575793 0.901876
  4111 21.5834 0.0467936 0.0480962
  4112 21.5152 -0.314489 -1.42625
  4113 22.3519 -1.23846 -0.234096
  4114 21.6281 -0.0739551 -0.0606781
  4115 21.5693 0.161879 -0.154691
  4116 21.5863 -0.141176 0.281170
  4117 22.9668 -2.00557 2.26424
  4118 19.9576 0.464089 1.27953
  4119 23.4285 -3.01158 -1.39148
  4120 21.6155 -0.0867723 -0.215294
  4121 23.5265 -3.33635 0.378022
  4122 21.6513 -0.139499 0.106880
  4123 23.7478 -3.97100 -0.312272
  4124 21.4734 0.304657 0.161989
  4125 21.1238 0.261320 0.666702
  4126 22.2692 -1.12343 0.328515
  4127 21.2016 0.324408 -0.0548617
  4128 23.9627 -4.47485 -0.0618998
  4129 19.9737 0.563681 1.08898
  4130 20.1421 0.621957 -0.962501
  4131 20.4263 0.723530 0.547890
  4132 21.0834 0.709427 0.297169
  4133 21.7794 0.931543 0.370661
  4134 21.7005 0.813525 0.531159
  4135 21.4035 0.649528 0.321579
  4136 21.4377 0.512213 0.217647
  4137 21.2499 0.463879 0.173380
  4138 21.4042 0.335418 0.0910130
  4139 21.3159 0.283170 0.116178
  4140 21.4674 0.231248 -0.114224
  4141 21.5005 0.344108 -0.0798256
  4142 21.3124 0.376971 -0.107253
  4143 21.3654 0.458920 -0.255363
  4144 21.6359 0.683800 -0.368491
  4145 21.7241 0.715200 -0.471424
  4146 21.7551 0.926053 -0.337410
  4147 21.0576 0.737766 -0.339564
  4148 20.4497 0.664588 -0.511623
  4149 20.0973 0.491102 -1.42773
  4150 20.3418 0.522370 -1.88490
  4151 20.8112 0.411214 -2.32984
  4152 21.6279 0.228195 -2.69140
  4153 22.5103 -0.157497 -2.65880
  4154 22.8174 -0.658874 -2.37253
  4155 22.6854 -1.27111 -2.41784
  4156 22.8611 -2.01937 -2.36303
  4157 22.9750 -2.47591 -2.21365
  4158 23.2970 -2.67804 -2.10460
  4159 23.5127 -3.47143 -1.71634
  4160 23.7795 -3.86457 -1.29047
  4161 23.9677 -4.14032 -0.837328
  4162 23.8435 -4.31296 -0.432480
  4163 24.1590 -4.30364 0.415410
  4164 23.6918 -4.07158 0.913497
  4165 23.5555 -3.94110 1.24609
  4166 23.4854 -3.57510 1.65252
  4167 23.3418 -2.96262 1.95256
  4168 23.1943 -2.32859 2.27254
  4169 22.8235 -1.82305 2.44480
  4170 22.7671 -1.19470 2.43172
  4171 22.7721 -0.725739 2.40206
  4172 22.3705 -0.230572 2.67289
  4173 21.6339 0.324193 2.68402
  4174 20.8065 0.432810 2.32172
  4175 20.3067 0.492661 1.91527
  4176 20.0019 0.447124 1.45078
</Section>

newXOutput 16

<Section columns = "stress_xx | stress_yy | stress_xy">
  1 110.551 0.147536 -0.337294
  2 110.552 0.147587 0.337355
  3 147.468 -0.0493773 0.0897622
  4 147.467 -0.0494366 -0.0898162
  5 361.703 21.7840 4.26796
  6 455.059 5.19480 0.625936
  7 117.249 -0.0107196 -0.380934
  8 117.254 -0.0107070 0.381051
  9 153.622 -0.0101643 0.291443
  10 153.625 -0.0101825 -0.291468
  11 13.1713 -115.696 4.86249
  12 13.5906 -116.506 -5.32003
  13 128.241 1.74879 -0.184968
  14 128.241 1.74969 0.184944
  15 149.442 -0.269192 0.220213
  16 110.615 0.183758 -0.538305
  17 110.616 0.183773 0.538555
  18 149.444 -0.269219 -0.220387
  19 123.216 4.41273 -2.77803
  20 123.219 4.41259 2.77694
  21 117.456 0.357213 0.219387
  22 108.882 1.45189 0.0624685
  23 118.068 0.0372203 -0.368810
  24 118.758 0.0513873 -0.404146
  25 119.832 0.0492517 -0.583624
  26 120.723 0.0383998 -0.511638
  27 121.731 0.0449391 -0.601643
  28 123.036 0.0143809 -0.657325
  29 124.178 -0.0370546 -0.570063
  30 125.497 -0.00452846 -0.538143
  31 126.985 -0.0202922 -0.559847
  32 128.285 0.0151308 -0.579122
  33 129.995 0.0707053 -0.871678
  34 131.712 0.0863205 -0.896581
  35 133.505 0.0811935 -1.10416
  36 135.892 0.0266033 -1.19931
  37 137.603 -0.0395748 -1.16993
  38 140.280 0.00722792 -1.16555
  39 142.261 -0.0172147 -1.19699
  40 145.453 -0.0197279 -1.17471
  41 147.809 0.0776733 -1.45653
  42 150.657 0.137483 -1.70037
  43 154.121 -0.120361 -1.82206
  44 157.960 -0.139131 -1.70169
  45 160.958 -0.0601808 -1.66643
  46 165.270 -0.0313479 -1.68699
  47 168.438 -0.0141214 -2.20397
  48 171.864 0.0820572 -2.36447
  49 177.188 -0.277805 -2.13873
  50 182.226 -0.288504 -1.82934
  51 186.282 -0.226080 -1.95074
  52 191.812 -0.241213 -1.71515
  53 195.853 -0.145730 -2.30484
  54 201.237 -0.153960 -2.17701
  55 205.957 -0.126383 -2.55252
  56 209.584 -0.280610 -2.72307
  57 217.339 -0.938885 -2.19698
  58 218.981 -0.188852 -2.00025
  59 224.341 -0.0550498 -1.58941
  60 228.068 -0.314822 -1.79516
  61 231.323 -0.390041 -1.26398
  62 234.215 -0.419130 -0.985663
  63 235.891 -0.446114 -0.561092
  64 237.059 -0.509918 -0.0691451
  65 237.176 -0.634323 0.608152
  66 234.861 -0.685366 1.18022
  67 233.975 -0.665259 1.44173
  68 230.210 -0.964380 2.06875
  69 223.595 -0.716855 3.17822
  70 216.243 -0.638930 4.18881
  71 208.543 -0.442957 4.86997
  72 197.866 -0.348882 5.54090
  73 187.968 0.0489981 5.96314
  74 174.775 0.194752 5.94782
  75 165.413 0.445700 6.07104
  76 150.554 0.865944 5.01652
  77 140.814 1.25457 5.54806
  78 130.395 0.815038 3.63362
  79 125.015 1.30330 4.24040
  80 113.404 1.68939 2.05969
  81 113.175 1.47554 1.95274
  82 110.269 1.28628 -1.15465
  83 112.748 1.64090 -2.48850
  84 118.942 2.24716 -2.58007
  85 132.216 1.07532 -4.71738
  86 140.811 1.13491 -6.22701
  87 150.273 0.882497 -5.56150
  88 165.744 0.330991 -6.43307
  89 176.341 -0.152811 -6.66544
  90 187.227 0.0905677 -5.23247
  91 198.184 -0.0960007 -5.23998
  92 208.595 -0.416441 -4.71417
  93 216.318 -0.602863 -4.12238
  94 223.605 -0.704825 -3.15386
  95 230.190 -0.960742 -2.05810
  96 233.939 -0.663175 -1.43661
  97 234.821 -0.682879 -1.17787
  98 237.132 -0.632848 -0.608528
  99 237.019 -0.508973 0.0669468
  100 235.858 -0.445630 0.558061
  101 234.188 -0.418929 0.982382
  102 231.302 -0.390066 1.26083
  103 228.054 -0.314972 1.79224
  104 224.332 -0.0553589 1.58704
  105 218.978 -0.189196 1.99821
  106 217.338 -0.938971 2.19534
  107 209.586 -0.280639 2.72150
  108 205.962 -0.126552 2.55144
  109 201.244 -0.154106 2.17624
  110 195.862 -0.145866 2.30429
  111 191.821 -0.241310 1.71472
  112 186.293 -0.226154 1.95044
  113 182.237 -0.288578 1.82906
  114 177.200 -0.277879 2.13850
  115 171.876 0.0819921 2.36437
  116 168.450 -0.0142225 2.20398
  117 165.283 -0.0314098 1.68700
  118 160.971 -0.0602220 1.66651
  119 157.972 -0.139215 1.70175
  120 154.133 -0.120410 1.82220
  121 150.669 0.137483 1.70056
  122 147.820 0.0776353 1.45674
  123 145.464 -0.0197638 1.17485
  124 142.272 -0.0172371 1.19717
  125 140.290 0.00720105 1.16571
  126 137.613 -0.0396034 1.17014
  127 135.901 0.0265847 1.19952
  128 133.514 0.0811871 1.10440
  129 131.721 0.0863213 0.896792
  130 130.003 0.0707083 0.871874
  131 128.293 0.0151143 0.579265
  132 126.992 -0.0203130 0.559972
  133 125.505 -0.00454518 0.538267
  134 124.185 -0.0370753 0.570198
  135 123.042 0.0143693 0.657486
  136 121.737 0.0449386 0.601817
  137 120.729 0.0384010 0.511797
  138 119.837 0.0492631 0.583803
  139 118.763 0.0513824 0.404276
  140 118.073 0.0372101 0.368917
  141 114.111 0.550006 0.511318
  142 118.787 1.04488 0.417268
  143 122.946 1.64713 0.365994
  144 133.314 1.31106 -0.0518977
  145 138.554 0.862664 -0.0518104
  146 143.637 0.310161 0.0443716
  147 154.624 -0.0729338 -0.216154
  148 154.964 -0.0902024 -0.341774
  149 155.599 -0.119609 -0.173173
  150 155.968 -0.103805 -0.304593
  151 156.154 -0.124916 -0.121475
  152 156.546 -0.0549566 -0.0628129
  153 156.237 -0.213570 -0.0398095
  154 155.822 -0.154650 0.318188
  155 155.601 -0.189263 0.453785
  156 154.646 -0.225727 0.508020
  157 152.837 -0.189334 0.848342
  158 151.095 -0.142961 1.01242
  159 148.440 -0.190527 1.31197
  160 145.606 -0.0611771 1.79045
  161 142.072 -0.0307036 1.39438
  162 138.943 -0.00543005 1.51619
  163 134.607 0.0892478 1.49311
  164 131.200 0.147704 1.83176
  165 127.153 0.205623 1.59870
  166 123.773 0.241881 1.46848
  167 120.584 0.381430 1.09039
  168 118.068 0.342087 0.687260
  169 118.018 0.214112 0.679047
  170 117.115 0.671601 -0.680554
  171 117.987 0.489305 -0.756791
  172 121.241 0.392444 -1.27085
  173 124.144 0.412070 -1.98574
  174 126.796 0.144793 -1.65063
  175 131.152 0.148442 -1.80995
  176 134.606 0.101949 -1.50421
  177 138.974 -0.0125009 -1.52601
  178 142.107 -0.0334134 -1.39450
  179 145.634 -0.0619973 -1.78669
  180 148.462 -0.190377 -1.30909
  181 151.111 -0.142808 -1.00997
  182 152.849 -0.189157 -0.846374
  183 154.654 -0.225574 -0.506356
  184 155.606 -0.189173 -0.452594
  185 155.825 -0.154609 -0.317114
  186 156.238 -0.213445 0.0407011
  187 156.546 -0.0548332 0.0634128
  188 156.153 -0.124807 0.121930
  189 155.966 -0.103702 0.304857
  190 155.596 -0.119520 0.173379
  191 154.961 -0.0901292 0.341838
  192 154.621 -0.0728780 0.216196
  193 143.636 0.309982 -0.0444379
  194 138.554 0.862169 0.0517265
  195 133.315 1.31031 0.0518310
  196 122.947 1.64631 -0.365923
  197 118.787 1.04434 -0.417163
  198 114.111 0.549774 -0.511219
  199 109.538 0.503673 -0.507098
  200 110.982 0.123966 -0.608490
  201 112.276 0.0749614 -0.572704
  202 113.372 0.0607077 -0.489955
  203 114.693 0.00923128 -0.567776
  204 115.504 -0.00250787 -0.489816
  205 116.200 -0.00168730 -0.356869
  206 117.571 0.0367220 -0.828123
  207 117.722 0.111600 -1.45426
  208 118.131 0.272485 -2.26648
  209 118.336 0.460020 -2.95158
  210 118.454 0.704726 -3.67795
  211 118.277 1.04167 -4.19128
  212 118.304 1.38437 -4.78776
  213 118.058 1.82545 -5.25341
  214 117.754 2.27066 -5.61921
  215 117.423 2.77347 -5.90666
  216 117.007 3.28976 -6.00001
  217 116.688 3.73758 -5.99096
  218 116.287 4.31839 -5.92726
  219 115.928 4.80449 -5.62285
  220 115.624 5.25442 -5.26607
  221 115.491 5.67439 -4.72326
  222 115.421 5.92618 -4.05971
  223 115.546 6.25525 -3.29356
  224 115.782 6.35660 -2.42082
  225 116.527 6.21842 -1.44665
  226 117.407 6.09924 -0.543208
  227 118.413 5.81539 0.386938
  228 119.765 5.47926 1.28091
  229 121.231 4.88433 2.11152
  230 125.148 3.64104 3.36197
  231 127.300 3.05246 3.75577
  232 129.361 2.47471 3.98272
  233 131.623 1.95305 3.98995
  234 133.568 1.39590 3.98600
  235 135.823 1.00342 3.83684
  236 137.806 0.647754 3.60989
  237 139.701 0.441193 3.35173
  238 141.764 0.270601 2.98658
  239 143.519 0.172343 2.60979
  240 145.355 0.0298596 2.26842
  241 147.172 0.107581 1.88529
  242 148.981 0.0401701 1.48870
  243 150.700 0.0220801 1.06735
  244 152.337 0.0552741 0.599048
  245 153.084 -0.0616436 0.223487
  246 152.046 -0.0779992 0.259032
  247 150.725 -0.148906 0.393193
  248 147.625 -0.0751760 0.346563
  249 152.339 0.0552282 -0.599071
  250 150.702 0.0219028 -1.06737
  251 148.983 0.0398020 -1.48872
  252 147.174 0.107016 -1.88536
  253 145.356 0.0290297 -2.26860
  254 143.520 0.171345 -2.61014
  255 141.765 0.269373 -2.98712
  256 139.701 0.439843 -3.35256
  257 137.806 0.646386 -3.61097
  258 135.823 1.00209 -3.83818
  259 133.567 1.39474 -3.98754
  260 131.622 1.95213 -3.99158
  261 129.359 2.47399 -3.98439
  262 127.298 3.05203 -3.75734
  263 125.145 3.64088 -3.36336
  264 121.228 4.88465 -2.11232
  265 119.762 5.47979 -1.28136
  266 118.410 5.81604 -0.387062
  267 117.404 6.09999 0.543410
  268 116.524 6.21924 1.44714
  269 115.779 6.35745 2.42159
  270 115.544 6.25612 3.29458
  271 115.419 5.92705 4.06094
  272 115.489 5.67524 4.72466
  273 115.623 5.25522 5.26763
  274 115.928 4.80524 5.62451
  275 116.287 4.31907 5.92899
  276 116.688 3.73817 5.99272
  277 117.008 3.29028 6.00176
  278 117.425 2.77392 5.90837
  279 117.756 2.27102 5.62086
  280 118.060 1.82575 5.25495
  281 118.307 1.38459 4.78918
  282 118.280 1.04186 4.19253
  283 118.457 0.704849 3.67906
  284 118.340 0.460109 2.95248
  285 118.135 0.272545 2.26718
  286 117.726 0.111617 1.45472
  287 117.576 0.0367240 0.828387
  288 116.205 -0.00171089 0.356981
  289 115.508 -0.00254675 0.489954
  290 114.697 0.00920364 0.567953
  291 113.376 0.0606958 0.490154
  292 112.279 0.0749580 0.572921
  293 110.984 0.123951 0.608697
  294 109.539 0.503699 0.507227
  295 147.626 -0.0751534 -0.346722
  296 150.727 -0.148958 -0.393372
  297 152.049 -0.0780324 -0.259130
  298 153.087 -0.0616785 -0.223539
  299 20.2077 -103.147 -1.82837
  300 27.0389 -73.6320 -3.02370
  301 46.4064 -29.9643 12.4538
  302 76.0677 0.0845713 27.9111
  303 129.250 27.5423 53.5076
  304 184.689 42.3299 73.6320
  305 246.207 41.9943 76.0048
  306 308.527 35.7781 66.6508
  307 348.247 26.4632 38.1297
  308 339.422 30.0288 -34.2728
  309 305.361 34.2427 -69.3531
  310 245.378 43.4062 -78.3872
  311 179.498 41.9078 -70.8007
  312 124.985 33.8594 -58.7492
  313 77.3746 6.03226 -30.8381
  314 51.1343 -26.6977 -15.9669
  315 28.1830 -77.4515 4.36099
  316 22.3171 -107.396 1.94756
  317 14.1127 -127.537 -17.9633
  318 14.1065 -105.248 -20.4364
  319 18.8371 -80.1461 -19.1952
  320 34.6713 -44.5056 -4.87953
  321 58.2496 -15.7392 9.39202
  322 92.7150 9.98260 27.6603
  323 140.561 19.1292 46.8563
  324 189.830 31.6203 67.2962
  325 235.855 30.8090 75.5933
  326 288.359 29.7330 80.8988
  327 337.719 25.5166 70.6060
  328 394.400 16.0484 66.7093
  329 422.340 12.2919 43.5851
  330 444.679 5.17206 20.8510
  331 451.943 6.52212 -24.7346
  332 425.302 10.1085 -45.6047
  333 392.206 17.6826 -60.4030
  334 350.388 25.2341 -74.4964
  335 295.378 28.7382 -77.8772
  336 246.312 33.0819 -78.8937
  337 186.043 29.6185 -64.7848
  338 136.096 20.9599 -45.6801
  339 85.9038 10.4676 -26.7409
  340 58.7640 -16.0217 -8.40598
  341 35.1578 -44.3185 4.79447
  342 18.9235 -80.1187 19.0810
  343 14.1149 -105.406 20.2996
  344 14.0555 -128.177 17.6639
  345 116.645 1.68109 -2.46458
  346 123.623 2.83031 -0.226930
  347 135.528 1.45023 1.41950
  348 115.688 0.598851 -2.66793
  349 118.819 3.38314 -2.12495
  350 142.090 0.646432 1.70872
  351 116.611 2.18270 -3.86978
  352 128.293 2.84073 1.50846
  353 122.012 4.29306 0.141761
  354 117.082 3.93103 -3.59254
  355 116.179 0.212049 -1.87669
  356 136.781 1.43685 2.44982
  357 116.930 1.06194 -3.67738
  358 116.909 1.81665 -4.44409
  359 117.612 4.69759 -2.56803
  360 146.649 0.259948 1.42959
  361 130.979 2.40570 2.60664
  362 119.690 2.04626 -1.21459
  363 141.503 0.648565 2.34554
  364 116.615 3.70081 -4.61368
  365 125.331 3.74112 1.81269
  366 114.401 0.456093 -1.78252
  367 141.304 0.603460 0.813016
  368 128.384 2.39073 0.553204
  369 134.357 1.57175 3.17646
  370 118.351 5.33344 -1.26963
  371 120.708 4.97422 0.304269
  372 115.593 0.733696 -0.929453
  373 138.543 0.958259 3.03807
  374 116.813 2.88578 -5.07027
  375 116.490 4.99005 -3.80783
  376 116.727 0.0626424 -1.15731
  377 149.851 0.0720972 0.982997
  378 114.715 0.215257 -1.75650
  379 115.764 1.14533 -2.85269
  380 117.217 0.486598 -2.81216
  381 124.878 1.84738 -0.0906611
  382 117.113 2.56110 -3.05884
  383 132.387 2.06067 1.85600
  384 146.098 0.232814 1.86412
  385 147.098 0.156251 1.06240
  386 117.307 1.72086 -4.69001
  387 133.645 1.48078 0.664156
  388 118.601 2.61538 -2.03126
  389 128.462 2.89806 3.00623
  390 123.269 4.28238 1.58844
  391 113.616 0.255040 -1.50733
  392 124.878 3.25969 0.427785
  393 112.713 0.249814 -0.638686
  394 138.605 1.12214 1.83254
  395 119.718 4.32634 -1.34438
  396 121.606 3.32961 -0.826900
  397 116.343 1.60150 -3.63030
  398 116.958 0.251057 -2.08674
  399 116.306 4.36573 -4.82666
  400 116.966 5.45971 -2.67013
  401 142.146 0.426001 2.66192
  402 117.446 1.06121 -3.99416
  403 143.955 0.464807 0.991380
  404 120.602 1.54072 -0.502885
  405 120.100 2.90424 -1.46302
  406 116.841 2.81173 -3.88138
  407 115.742 0.0385109 -0.918129
  408 132.584 1.87905 3.43728
  409 117.009 2.73818 -5.44448
  410 117.842 3.01323 -2.69958
  411 118.813 5.48061 -0.372061
  412 148.278 0.124086 1.38778
  413 124.657 3.96432 2.42515
  414 148.981 0.157642 0.845647
  415 136.627 1.12662 3.27775
  416 116.603 3.57617 -5.32721
  417 115.925 0.528648 -2.53054
  418 117.283 1.38680 -1.21773
  419 128.302 2.97969 2.24566
  420 114.814 0.0818018 -1.04876
  421 123.805 4.01259 0.955012
  422 116.397 1.25001 -3.55679
  423 139.737 0.979760 2.24326
  424 122.867 2.20331 -0.447932
  425 133.711 1.95284 2.53835
  426 138.230 0.961029 1.25377
  427 130.311 2.41269 1.30484
  428 115.341 0.896232 -1.57005
  429 116.128 5.54763 -3.42825
  430 117.878 0.818129 -3.64352
  431 116.950 5.71175 -1.98699
  432 129.132 1.91358 0.360057
  433 144.306 0.432088 2.01572
  434 116.024 4.98506 -4.62447
  435 117.760 3.86829 -2.85971
  436 140.213 0.666246 2.98023
  437 144.380 0.244978 2.28955
  438 114.839 0.584738 -2.19506
  439 117.762 1.47135 -4.63891
  440 117.300 2.25362 -5.18554
  441 112.056 0.0638008 -0.948077
  442 126.812 3.29625 3.06925
  443 130.212 2.44023 3.42478
  444 116.822 3.26307 -5.57067
  445 119.920 4.76696 -0.716947
  446 134.608 1.41896 3.53006
  447 116.275 4.21268 -5.27759
  448 117.520 5.78905 -1.14039
  449 116.475 1.84824 -3.17342
  450 135.267 1.66814 1.95319
  451 137.671 0.997683 0.754662
  452 115.879 5.42387 -4.13499
  453 121.260 4.82607 1.22031
  454 138.616 0.752222 3.25131
  455 144.731 0.299523 0.490213
  456 125.925 2.64916 0.291113
  457 130.407 2.46670 2.12362
  458 118.116 1.25376 -0.845700
  459 151.220 0.0430619 0.795211
  460 125.884 3.42251 1.24683
  461 119.696 5.34930 0.516178
  462 116.516 0.598578 -2.81119
  463 116.596 4.22370 -4.16564
  464 116.864 5.00555 -3.18356
  465 141.509 0.699960 1.36241
  466 116.781 2.29340 -4.46353
  467 116.705 2.88238 -4.58292
  468 115.778 1.06138 -2.30220
  469 145.041 0.355023 1.50323
  470 140.276 0.767471 2.78944
  471 125.793 2.33529 0.0124844
  472 132.146 1.85476 1.02061
  473 138.699 1.02041 2.70891
  474 117.348 0.164730 -1.82257
  475 118.748 4.13963 -2.03837
  476 117.713 5.21194 -2.01307
  477 112.377 0.311771 -0.520882
  478 122.613 4.48739 2.00364
  479 143.554 0.402754 2.28196
  480 117.957 0.547179 -3.12385
  481 116.524 0.907907 -0.344025
  482 114.646 0.436728 -2.06960
  483 117.304 1.37471 -4.31419
  484 136.446 1.32431 2.81044
  485 117.706 0.379253 -2.50823
  486 149.513 0.0580203 1.30238
  487 126.756 3.46841 2.53479
  488 146.932 0.116130 0.587748
  489 146.100 0.169430 2.06168
  490 116.841 0.0144233 -0.652194
  491 113.504 0.0777021 -1.12329
  492 135.431 1.32868 1.12820
  493 141.232 0.578657 0.361897
  494 142.565 0.635487 1.94223
  495 117.010 1.54352 -4.23225
  496 117.309 3.34441 -3.37275
  497 117.204 0.784785 -3.39639
  498 117.664 1.91434 -5.08003
  499 120.996 4.04873 -0.727545
  500 122.820 3.62390 -0.113484
  501 116.671 0.113044 -1.53503
  502 127.182 2.89811 0.877619
  503 117.104 4.52445 -3.34676
  504 151.785 -0.0262199 0.438453
  505 116.881 3.55703 -3.94036
  506 121.675 2.52283 -0.884745
  507 117.580 1.75949 -1.90464
  508 132.446 2.11038 3.00363
  509 122.188 4.50717 0.835420
  510 128.368 2.82841 3.43757
  511 115.586 0.268929 -1.98568
  512 116.307 0.812909 -3.06427
  513 147.567 0.160412 1.67662
  514 112.870 0.125775 -1.08153
  515 135.764 1.16807 0.413123
  516 116.135 0.0192049 -0.564360
  517 116.964 2.32530 -4.94974
  518 113.532 0.0572593 -0.822307
  519 145.819 0.167935 0.209067
  520 110.603 0.384782 -0.559455
  521 118.678 4.78635 -1.62837
  522 115.754 0.892457 -2.89126
  523 133.189 1.92379 1.59172
  524 151.045 -0.00429306 0.392803
  525 152.657 0.0492933 0.396152
  526 116.212 5.87925 -2.76617
  527 117.556 2.30145 -2.43680
  528 148.158 0.0953269 1.37926
  529 148.975 0.0376523 0.375186
  530 144.550 0.373901 1.16670
  531 123.799 3.77432 0.534644
  532 147.111 0.244378 1.27420
  533 120.023 3.76529 -1.41913
  534 115.964 4.69795 -5.15430
  535 116.318 1.74299 -3.45132
  536 131.662 1.57480 0.203564
  537 117.979 1.14710 -4.25827
  538 137.647 1.34990 2.10752
  539 130.452 2.42079 2.98775
  540 112.246 0.0706905 -0.773555
  541 116.645 1.68159 2.46560
  542 123.621 2.83126 0.227080
  543 135.528 1.45071 -1.42012
  544 115.690 0.599001 2.66890
  545 118.818 3.38403 2.12581
  546 142.091 0.646472 -1.70942
  547 116.612 2.18319 3.87115
  548 128.291 2.84137 -1.50907
  549 122.009 4.29394 -0.141791
  550 117.081 3.93185 3.59380
  551 116.182 0.212096 1.87733
  552 136.781 1.43682 -2.45076
  553 116.933 1.06215 3.67859
  554 116.910 1.81701 4.44554
  555 117.611 4.69851 2.56894
  556 146.651 0.259838 -1.43006
  557 130.978 2.40579 -2.60770
  558 119.689 2.04703 1.21516
  559 141.503 0.648237 -2.34628
  560 116.615 3.70150 4.61519
  561 125.329 3.74161 -1.81343
  562 114.402 0.456255 1.78325
  563 141.305 0.603753 -0.813444
  564 128.383 2.39161 -0.553446
  565 134.356 1.57127 -3.17767
  566 118.349 5.33435 1.27011
  567 120.706 4.97503 -0.304344
  568 115.593 0.734009 0.929942
  569 138.544 0.957597 -3.03903
  570 116.814 2.88630 5.07189
  571 116.489 4.99091 3.80910
  572 116.731 0.0626596 1.15768
  573 149.853 0.0720211 -0.983241
  574 114.718 0.215321 1.75716
  575 115.765 1.14565 2.85378
  576 117.221 0.486685 2.81308
  577 124.877 1.84830 0.0907534
  578 117.113 2.56175 3.06003
  579 132.386 2.06108 -1.85677
  580 146.099 0.232481 -1.86453
  581 147.099 0.156241 -1.06285
  582 117.309 1.72117 4.69149
  583 133.644 1.48151 -0.664430
  584 118.600 2.61615 2.03212
  585 128.461 2.89799 -3.00748
  586 123.266 4.28292 -1.58905
  587 113.618 0.255121 1.50793
  588 124.876 3.26059 -0.427920
  589 112.714 0.249928 0.639069
  590 138.605 1.12236 -1.83329
  591 119.716 4.32731 1.34492
  592 121.605 3.33057 0.827282
  593 116.345 1.60186 3.63160
  594 116.962 0.251099 2.08744
  595 116.305 4.36649 4.82819
  596 116.964 5.46064 2.67105
  597 142.146 0.425262 -2.66255
  598 117.449 1.06140 3.99543
  599 143.956 0.464963 -0.991854
  600 120.602 1.54145 0.503134
  601 120.099 2.90515 1.46366
  602 116.841 2.81235 3.88275
  603 115.746 0.0385130 0.918436
  604 132.583 1.87846 -3.43865
  605 117.010 2.73866 5.44614
  606 117.841 3.01401 2.70065
  607 118.810 5.48142 0.372208
  608 148.280 0.123888 -1.38805
  609 124.655 3.96458 -2.42613
  610 148.982 0.157614 -0.845959
  611 136.627 1.12579 -3.27888
  612 116.603 3.57679 5.32884
  613 115.928 0.528782 2.53143
  614 117.284 1.38733 1.21840
  615 128.300 2.98001 -2.24658
  616 114.817 0.0818238 1.04912
  617 123.803 4.01333 -0.955380
  618 116.399 1.25027 3.55803
  619 139.737 0.979703 -2.24409
  620 122.866 2.20422 0.448213
  621 133.710 1.95289 -2.53935
  622 138.230 0.961411 -1.25433
  623 130.310 2.41338 -1.30538
  624 115.341 0.896551 1.57080
  625 116.127 5.54851 3.42935
  626 117.881 0.818290 3.64465
  627 116.948 5.71264 1.98767
  628 129.132 1.91447 -0.360181
  629 144.307 0.431846 -2.01633
  630 116.023 4.98589 4.62591
  631 117.759 3.86916 2.86077
  632 140.214 0.665364 -2.98102
  633 144.381 0.244331 -2.28996
  634 114.841 0.584906 2.19593
  635 117.764 1.47161 4.64033
  636 117.302 2.25400 5.18712
  637 112.058 0.0638321 0.948471
  638 126.809 3.29619 -3.07052
  639 130.210 2.43980 -3.42620
  640 116.823 3.26362 5.57235
  641 119.918 4.76789 0.717240
  642 134.608 1.41809 -3.53138
  643 116.275 4.21338 5.27921
  644 117.518 5.78990 1.14080
  645 116.475 1.84872 3.17464
  646 135.266 1.66842 -1.95400
  647 137.671 0.998193 -0.755021
  648 115.878 5.42474 4.13629
  649 121.257 4.82666 -1.22077
  650 138.616 0.751206 -3.25229
  651 144.731 0.299668 -0.490497
  652 125.924 2.65009 -0.291212
  653 130.406 2.46707 -2.12446
  654 118.116 1.25431 0.846173
  655 151.223 0.0429860 -0.795324
  656 125.882 3.42322 -1.24730
  657 119.693 5.35000 -0.516362
  658 116.519 0.598697 2.81215
  659 116.596 4.22450 4.16703
  660 116.862 5.00644 3.18464
  661 141.509 0.700157 -1.36302
  662 116.782 2.29386 4.46503
  663 116.705 2.88296 4.58444
  664 115.779 1.06172 2.30318
  665 145.042 0.354968 -1.50381
  666 140.277 0.766908 -2.79027
  667 125.791 2.33625 -0.0124601
  668 132.145 1.85548 -1.02104
  669 138.699 1.02009 -2.70983
  670 117.353 0.164758 1.82316
  671 118.746 4.14056 2.03916
  672 117.711 5.21288 2.01379
  673 112.377 0.311912 0.521077
  674 122.611 4.48778 -2.00442
  675 143.554 0.402299 -2.28253
  676 117.961 0.547278 3.12482
  677 116.524 0.908321 0.344289
  678 114.648 0.436837 2.07039
  679 117.306 1.37497 4.31557
  680 136.446 1.32397 -2.81148
  681 117.710 0.379326 2.50902
  682 149.515 0.0578122 -1.30254
  683 126.754 3.46865 -2.53583
  684 146.933 0.116179 -0.588064
  685 146.101 0.168883 -2.06196
  686 116.846 0.0144379 0.652410
  687 113.506 0.0777510 1.12372
  688 135.430 1.32926 -1.12867
  689 141.232 0.578993 -0.362101
  690 142.565 0.635378 -1.94293
  691 117.012 1.54381 4.23363
  692 117.308 3.34517 3.37400
  693 117.207 0.784940 3.39750
  694 117.666 1.91467 5.08156
  695 120.994 4.04969 0.727865
  696 122.818 3.62485 0.113578
  697 116.675 0.113085 1.53553
  698 127.180 2.89893 -0.877966
  699 117.103 4.52533 3.34794
  700 151.787 -0.0262551 -0.438571
  701 116.881 3.55776 3.94174
  702 121.674 2.52375 0.885157
  703 117.580 1.76010 1.90548
  704 132.445 2.11019 -3.00482
  705 122.185 4.50790 -0.835720
  706 128.366 2.82808 -3.43901
  707 115.589 0.268983 1.98640
  708 116.310 0.813072 3.06535
  709 147.568 0.160067 -1.67683
  710 112.871 0.125873 1.08202
  711 135.763 1.16870 -0.413288
  712 116.139 0.0192007 0.564541
  713 116.965 2.32573 4.95131
  714 113.535 0.0572848 0.822610
  715 145.820 0.168038 -0.209186
  716 110.604 0.384821 0.559649
  717 118.676 4.78730 1.62900
  718 115.756 0.892680 2.89229
  719 133.188 1.92434 -1.59236
  720 151.047 -0.00431958 -0.392953
  721 152.660 0.0492885 -0.396218
  722 116.210 5.88013 2.76707
  723 117.556 2.30213 2.43781
  724 148.160 0.0951730 -1.37964
  725 148.977 0.0376639 -0.375421
  726 144.550 0.373971 -1.16725
  727 123.797 3.77520 -0.534824
  728 147.113 0.244346 -1.27468
  729 120.022 3.76625 1.41973
  730 115.963 4.69871 5.15586
  731 116.319 1.74341 3.45258
  732 131.661 1.57563 -0.203670
  733 117.982 1.14730 4.25957
  734 137.646 1.35003 -2.10837
  735 130.451 2.42063 -2.98898
  736 112.248 0.0707023 0.773867
  737 91.3312 14.1522 6.17163
  738 91.3408 14.1499 -6.17075
  739 139.526 -11.5643 12.8565
  740 139.561 -11.6196 -12.8415
  741 117.862 6.34223 12.5562
  742 117.861 6.34193 -12.5537
  743 104.837 1.06343 -29.5430
  744 104.850 1.05411 29.5473
  745 162.147 0.614194 13.0992
  746 162.171 2.29519 -13.2372
  747 125.300 6.26616 -20.0600
  748 125.305 6.26461 20.0625
  749 157.811 -18.9787 19.7032
  750 157.764 -18.9708 -19.6814
  751 114.156 5.10085 -9.03918
  752 114.162 5.10391 9.03667
  753 146.237 -3.59274 1.84199
  754 146.242 -3.59773 -1.83881
  755 98.2939 -7.47556 29.7627
  756 98.2742 -7.46259 -29.7517
  757 108.417 10.1149 5.15582
  758 108.421 10.1143 -5.15488
  759 122.435 1.87910 -7.13862
  760 122.439 1.87929 7.14028
  761 147.778 12.1485 -0.378502
  762 152.043 -5.92057 6.25854
  763 152.038 -5.91736 -6.25207
  764 145.561 2.24348 -23.7480
  765 145.571 2.23928 23.7467
  766 130.876 2.85794 12.4756
  767 130.870 2.85811 -12.4737
  768 163.534 -22.6633 -12.0533
  769 162.905 -23.1633 12.8016
  770 207.569 -14.9704 9.21497
  771 207.552 -14.8833 -9.22761
  772 165.811 -3.16818 -21.2662
  773 165.826 -3.17425 21.2603
  774 132.333 -1.38880 7.69171
  775 132.333 -1.39374 -7.69564
  776 179.805 33.3190 4.42723
  777 58.8731 6.60758 -1.06988
  778 58.9108 6.59775 1.07921
  779 232.940 7.57479 -18.3484
  780 230.912 7.31104 18.9066
  781 235.572 19.8489 2.45133
  782 146.776 2.27240 -16.4852
  783 146.785 2.27116 16.4856
  784 114.252 6.88913 -8.25252
  785 114.251 6.88983 8.25447
  786 188.779 10.2731 -8.43872
  787 127.800 1.26527 7.42520
  788 127.794 1.26522 -7.42374
  789 143.729 3.45130 -9.12612
  790 143.887 3.55186 9.28912
  791 108.286 10.9249 14.9150
  792 108.287 10.9247 -14.9120
  793 98.7206 11.0306 21.0546
  794 98.7213 11.0333 -21.0481
  795 157.735 -13.9454 -0.568830
  796 157.726 -13.9659 0.566551
  797 198.242 -11.1625 -1.01665
  798 198.250 -11.1330 0.995315
  799 96.2364 8.34568 -11.3812
  800 96.2431 8.34876 11.3730
  801 76.9167 -20.4649 -28.7204
  802 76.9642 -20.4751 28.7168
  803 192.344 6.45439 4.85039
  804 112.988 7.92525 -1.69754
  805 112.993 7.92531 1.69698
  806 148.815 -0.832156 -1.34076
  807 148.813 -0.830537 1.34250
  808 150.420 -2.43424 2.34804
  809 150.419 -2.43140 -2.34193
  810 147.161 -1.47833 9.52030
  811 147.172 -1.49206 -9.51808
  812 148.465 -8.50394 1.92781
  813 148.477 -8.51189 -1.92217
  814 144.086 1.42783 11.0123
  815 144.078 1.42816 -11.0114
  816 196.848 -4.55340 -9.82913
  817 196.856 -4.55577 9.81510
  818 119.629 -3.19996 -17.2296
  819 119.641 -3.19084 17.2246
  820 121.564 0.591654 -3.83079
  821 121.569 0.591736 3.83180
  822 140.033 -1.54294 4.36295
  823 140.035 -1.54705 -4.36363
  824 118.085 3.87972 7.99596
  825 118.083 3.87927 -7.99397
  826 116.156 -27.0441 -38.6562
  827 113.179 -26.6304 39.0442
  828 162.617 20.9426 -8.00464
  829 122.761 3.26448 6.43945
  830 122.757 3.26291 -6.44206
  831 173.466 -0.0459400 -15.7615
  832 173.475 -0.0481263 15.7576
  833 134.830 -16.5225 -22.6032
  834 134.594 -16.5111 22.5831
  835 100.803 11.5772 -0.427495
  836 100.810 11.5774 0.425941
  837 204.323 -2.82430 -22.5553
  838 204.377 -2.38721 22.4646
  839 54.0349 -18.1237 30.1702
  840 54.0561 -18.0606 -30.3587
  841 196.750 10.5963 -11.8780
  842 153.148 -26.4142 -18.1015
  843 153.176 -26.1589 18.6984
  844 110.195 9.65730 10.2770
  845 110.197 9.65662 -10.2749
  846 120.190 6.94970 16.2632
  847 120.187 6.94999 -16.2605
  848 158.713 16.8183 8.76414
  849 124.830 0.560100 -4.41365
  850 124.836 0.560160 4.41468
  851 163.063 0.820926 13.9241
  852 163.054 0.822082 -13.9252
  853 132.069 -9.22891 -29.3192
  854 132.084 -9.22970 29.3198
  855 281.104 22.8666 -3.52678
  856 33.1450 -19.3885 -4.99321
  857 33.1268 -19.4099 5.06269
  858 135.597 0.796209 6.71824
  859 135.589 0.796216 -6.71718
  860 112.812 7.80262 5.14612
  861 112.814 7.80183 -5.14480
  862 135.320 4.15785 -2.51529
  863 120.725 6.64803 24.9188
  864 120.718 6.65225 -24.9159
  865 209.217 -6.27184 -13.9104
  866 209.274 -6.32907 13.9631
  867 141.101 -5.00344 5.60373
  868 141.107 -5.01152 -5.60462
  869 157.909 -6.65660 -9.59108
  870 157.907 -6.67148 9.60684
  871 149.259 -1.88945 5.16768
  872 149.262 -1.88761 -5.15974
  873 186.650 7.35666 14.6818
  874 77.0480 8.62705 18.3952
  875 77.0534 8.63088 -18.3807
  876 80.0315 11.2503 -6.46348
  877 80.0505 11.2445 6.45670
  878 177.984 -15.0378 18.3290
  879 122.536 3.46301 10.1264
  880 122.533 3.46278 -10.1244
  881 213.195 40.6491 -1.81893
  882 124.876 -0.605974 11.1187
  883 124.871 -0.610917 -11.1235
  884 232.235 -1.75548 -0.164287
  885 232.184 -1.50272 -0.148224
  886 168.626 -11.0330 -6.12575
  887 168.177 -10.4904 6.59427
  888 285.221 21.2004 1.69008
  889 136.637 -0.479154 27.7143
  890 136.623 -0.472722 -27.7156
  891 169.689 -17.2907 -23.9674
  892 151.324 -1.10013 0.227966
  893 151.324 -1.09862 -0.224533
  894 195.500 -1.86240 -11.8984
  895 195.505 -1.86548 11.8893
  896 119.901 1.54677 -5.75600
  897 119.904 1.54698 5.75753
  898 102.137 12.5430 -7.97728
  899 102.132 12.5439 7.97851
  900 134.250 3.40060 3.44013
  901 223.070 37.7675 -1.11481
  902 131.901 4.17175 16.0810
  903 131.895 4.17240 -16.0791
  904 151.708 0.273958 -12.0984
  905 151.901 0.202484 12.1034
  906 133.420 0.275825 5.47831
  907 133.420 0.272946 -5.48063
  908 143.890 -0.741367 -2.82528
  909 143.889 -0.739073 2.82565
  910 172.846 13.8397 12.8800
  911 109.282 10.7035 19.0155
  912 109.281 10.7046 -19.0116
  913 113.290 7.80942 1.77588
  914 113.294 7.80880 -1.77543
  915 82.3948 13.5661 9.11015
  916 82.4079 13.5632 -9.10494
  917 153.620 8.34875 -11.1253
  918 135.655 -5.70180 -9.81577
  919 135.652 -5.69252 9.80994
  920 186.131 2.52054 -19.5480
  921 169.356 -9.81132 -19.0522
  922 169.382 -9.81974 19.0475
  923 71.0319 -5.30608 -25.7339
  924 71.0500 -5.32376 25.7487
  925 188.283 2.34916 20.4285
  926 153.329 -18.7172 10.2037
  927 154.391 -19.3248 -10.2829
  928 154.103 0.748840 -9.56605
  929 154.113 0.748494 9.56630
  930 139.817 0.406428 -7.74869
  931 139.756 0.514450 7.75191
  932 114.695 -28.4950 -27.5846
  933 114.802 -28.4953 27.3031
  934 118.679 4.74121 10.0694
  935 118.677 4.74082 -10.0672
  936 150.240 -5.69255 -2.18877
  937 150.245 -5.69663 2.19537
  938 184.392 -21.3162 -5.43790
  939 184.513 -21.3113 5.37114
  940 118.696 5.51684 3.75695
  941 118.692 5.51654 -3.75827
  942 173.936 7.30918 3.05413
  943 123.400 4.50994 12.8068
  944 123.397 4.50988 -12.8045
  945 136.054 4.35337 22.3875
  946 136.046 4.35625 -22.3866
  947 108.196 8.94182 -3.25892
  948 108.202 8.94276 3.25759
  949 316.535 26.2164 -0.811670
  950 71.9372 2.67173 -19.9175
  951 71.9624 2.66690 19.8958
  952 141.283 0.706933 7.29308
  953 141.275 0.707016 -7.29219
  954 183.468 -12.6112 -18.0293
  955 184.614 -12.2397 16.1159
  956 116.179 5.04926 7.29736
  957 116.178 5.04862 -7.29545
  958 120.051 0.212503 -2.09065
  959 120.056 0.212543 2.09124
  960 190.262 -0.481949 -11.6575
  961 190.268 -0.483950 11.6517
  962 281.035 13.1309 7.22515
  963 128.353 0.360986 3.65107
  964 128.346 0.360951 -3.65029
  965 132.435 0.387673 -4.46856
  966 132.442 0.387679 4.46939
  967 212.548 -3.10951 -3.04431
  968 212.539 -3.10551 3.03295
  969 171.176 10.5343 -12.9622
  970 106.592 -0.790023 -21.0140
  971 106.589 -0.773973 21.0002
  972 274.669 13.8037 -8.29265
  973 147.382 9.68300 6.53564
  974 150.923 -0.186988 -1.18981
  975 150.921 -0.186441 1.19047
  976 114.811 7.04710 10.1450
  977 114.811 7.04651 -10.1428
  978 216.372 -3.50026 4.16948
  979 216.348 -3.48221 -4.16141
  980 149.842 -12.7707 4.99647
  981 149.900 -12.8137 -4.99275
  982 153.545 -9.73266 -2.54435
  983 153.550 -9.73485 2.55416
  984 161.790 23.7495 0.935501
  985 102.286 8.00944 25.3998
  986 102.281 8.01529 -25.3931
  987 114.688 8.43951 14.0995
  988 114.687 8.43927 -14.0968
  989 132.813 1.51517 -4.86357
  990 180.283 -9.81963 -1.68497
  991 220.555 22.9214 14.2698
  992 182.397 28.5343 -8.92355
  993 114.413 6.46630 6.22447
  994 114.414 6.46551 -6.22281
  995 146.190 -0.988563 -5.80611
  996 146.182 -0.987021 5.81287
  997 109.640 3.96776 -13.0664
  998 109.646 3.97401 13.0628
  999 111.123 8.89581 7.60940
  1000 111.125 8.89507 -7.60775
  1001 145.794 9.05474 -5.84825
  1002 98.5364 13.1865 13.5006
  1003 98.5413 13.1857 -13.4972
  1004 126.984 2.56629 5.26478
  1005 126.982 2.56495 -5.26708
  1006 129.910 1.97327 -9.56148
  1007 129.916 1.97328 9.56312
  1008 115.646 6.13438 -5.33600
  1009 115.651 6.13545 5.33431
  1010 126.228 3.81362 26.9910
  1011 126.218 3.81957 -26.9898
  1012 175.464 0.447070 10.3631
  1013 175.455 0.447830 -10.3649
  1014 153.777 6.32225 12.0379
  1015 93.3556 12.5211 -2.47124
  1016 93.3649 12.5202 2.46760
  1017 204.763 -3.00290 -15.9495
  1018 204.902 -2.94476 15.9052
  1019 157.665 -0.823463 23.1461
  1020 157.653 -0.818226 -23.1502
  1021 118.384 -17.5520 31.6560
  1022 118.248 -17.5665 -31.8917
  1023 183.342 -12.6119 11.2260
  1024 183.308 -12.6113 -11.2423
  1025 143.094 -8.77798 7.09857
  1026 143.107 -8.78839 -7.10004
  1027 145.757 -1.83781 -2.25271
  1028 145.754 -1.83449 2.25445
  1029 118.477 2.77840 6.79319
  1030 118.475 2.77802 -6.79138
  1031 177.571 -12.1462 1.70444
  1032 103.858 8.59836 -7.45593
  1033 103.864 8.60124 7.45255
  1034 101.759 -9.39940 31.3421
  1035 101.738 -9.39162 -31.3459
  1036 123.078 0.207227 -2.55709
  1037 123.084 0.207243 2.55773
  1038 133.328 1.17273 5.43334
  1039 88.6669 5.44475 -16.9767
  1040 88.6771 5.44421 16.9610
  1041 148.976 -2.73657 -0.100277
  1042 148.978 -2.74003 0.104798
  1043 151.142 -0.822324 2.54326
  1044 151.148 -0.820954 -2.53777
  1045 109.751 9.42500 1.19274
  1046 109.756 9.42472 -1.19266
  1047 137.056 -19.6025 36.1100
  1048 151.786 -4.12020 -9.41243
  1049 151.795 -4.11742 9.42400
  1050 67.1596 -31.9802 35.5167
  1051 66.8089 -30.7954 -36.1082
  1052 202.882 10.0465 -20.1793
  1053 130.729 -9.85628 -17.9497
  1054 130.653 -9.86407 17.9998
  1055 152.519 -0.264011 -0.480750
  1056 152.518 -0.263457 0.482234
  1057 115.554 6.97564 -0.656558
  1058 115.558 6.97525 0.656350
  1059 119.771 0.592373 3.62841
  1060 119.767 0.592280 -3.62738
  1061 136.479 3.94838 17.9747
  1062 136.472 3.94959 -17.9733
  1063 130.953 -6.56217 14.1587
  1064 130.945 -6.57513 -14.1657
  1065 119.829 2.77624 7.56230
  1066 119.826 2.77592 -7.56044
  1067 209.077 -7.25997 19.2103
  1068 209.024 -7.32304 -19.1837
  1069 137.657 -2.63159 6.04016
  1070 137.660 -2.63744 -6.04234
  1071 124.762 1.64246 7.32038
  1072 124.757 1.64233 -7.31880
  1073 127.583 -17.7765 -29.2149
  1074 127.575 -17.7605 29.2180
  1075 137.169 1.80391 11.1581
  1076 137.161 1.80413 -11.1567
  1077 146.922 -0.389041 -2.08143
  1078 146.920 -0.387756 2.08195
  1079 223.671 -2.62689 -18.7187
  1080 223.870 -2.50673 18.7191
  1081 32.9240 -46.2339 -11.2390
  1082 32.9638 -46.2424 11.1823
  1083 210.217 -1.50365 -6.56467
  1084 210.212 -1.50502 6.55473
  1085 89.3024 -16.6492 36.8823
  1086 89.9337 -16.5953 -36.6144
  1087 163.737 0.387694 8.52873
  1088 163.727 0.388034 -8.52903
  1089 152.495 -0.741105 1.12759
  1090 152.498 -0.740078 -1.12377
  1091 22.6927 -42.3499 -13.5151
  1092 23.0408 -42.0107 13.9897
  1093 150.616 0.442440 -6.91695
  1094 150.626 0.442297 6.91743
  1095 119.713 3.10149 8.84395
  1096 119.707 3.09877 -8.84709
  1097 39.9807 -7.69702 -9.40255
  1098 40.0709 -7.72712 9.40983
  1099 61.0272 -38.4244 20.4442
  1100 60.9954 -38.4922 -20.4467
  1101 147.671 -5.95755 1.14347
  1102 147.677 -5.96367 -1.13857
  1103 105.732 10.6197 1.19816
  1104 105.737 10.6196 -1.19850
  1105 150.137 2.19254 -18.4873
  1106 150.146 2.19059 18.4869
  1107 201.066 -13.0835 5.39357
  1108 201.046 -13.0174 -5.41200
  1109 116.800 -9.66233 -25.7130
  1110 116.743 -9.60481 25.6728
  1111 154.901 -25.7557 26.7183
  1112 159.939 1.14850 -18.3354
  1113 159.949 1.14614 18.3332
  1114 150.612 -3.96228 -4.68338
  1115 150.615 -3.96567 4.69067
  1116 141.826 -3.03137 4.22030
  1117 141.830 -3.03700 -4.22012
  1118 137.283 0.0931240 4.26308
  1119 137.284 0.0907064 -4.26438
  1120 186.588 26.5522 9.43260
  1121 93.4326 -32.1404 -20.8866
  1122 93.4986 -31.4595 20.4513
  1123 116.176 -21.6902 -37.3495
  1124 234.283 17.1889 11.4275
  1125 153.863 14.8976 -6.66435
  1126 144.564 -26.2322 -27.2484
  1127 59.4783 3.33692 13.2077
  1128 59.4942 3.34120 -13.1835
  1129 117.723 8.41199 18.9862
  1130 117.721 8.41290 -18.9831
  1131 138.697 6.04803 1.55118
  1132 141.626 -0.273991 -6.37950
  1133 141.618 -0.246812 6.38294
  1134 174.429 -2.20302 10.3929
  1135 186.901 0.233140 -8.63369
  1136 186.909 0.232448 8.63116
  1137 236.665 20.2084 -7.21105
  1138 146.124 -23.2548 23.1653
  1139 116.608 5.52145 -9.17703
  1140 116.608 5.52199 9.17916
  1141 162.236 -6.53065 -10.0014
  1142 162.892 -6.14961 10.2866
  1143 121.189 3.17782 9.02092
  1144 121.185 3.17754 -9.01890
  1145 153.010 4.16513 -5.16288
  1146 126.542 0.757938 -8.11748
  1147 126.545 0.761229 8.11367
  1148 231.543 13.8864 -15.5571
  1149 121.990 4.42128 -4.24744
  1150 121.993 4.42172 4.24578
  1151 186.122 0.0705080 17.9478
  1152 184.073 -4.48769 -15.3239
  1153 184.086 -4.49315 15.3136
  1154 166.038 3.30140 -13.8364
  1155 185.529 0.219825 -17.7995
  1156 123.179 0.930232 -5.26972
  1157 123.184 0.930342 5.27098
  1158 148.818 -2.38357 -7.85861
  1159 148.818 -2.37969 7.86761
  1160 127.115 1.74601 0.235304
  1161 126.588 4.96133 15.6045
  1162 126.583 4.96170 -15.6023
  1163 174.872 -1.76288 -10.3489
  1164 106.372 11.0164 7.47866
  1165 106.376 11.0156 -7.47736
  1166 142.586 -15.5372 15.5221
  1167 143.737 -16.2007 -15.2846
  1168 116.698 8.42918 22.1079
  1169 116.694 8.43160 -22.1044
  1170 117.222 3.76402 6.94000
  1171 117.221 3.76350 -6.93814
  1172 148.447 -1.73817 0.986008
  1173 148.449 -1.74086 -0.983075
  1174 97.9204 13.2633 4.84598
  1175 97.9273 13.2622 -4.84594
  1176 116.826 1.32488 12.7472
  1177 116.819 1.31942 -12.7509
  1178 139.886 0.334853 4.31088
  1179 139.877 0.334869 -4.31025
  1180 163.905 -18.5578 3.71702
  1181 164.837 -18.3739 -3.18487
  1182 126.271 2.57402 9.86984
  1183 126.266 2.57391 -9.86798
  1184 121.404 0.137320 2.01705
  1185 121.399 0.137308 -2.01650
  1186 216.880 -2.65922 -7.78198
  1187 216.899 -2.67975 7.81239
  1188 126.269 0.169666 -2.26164
  1189 126.276 0.169672 2.26217
  1190 147.689 -4.35843 26.0231
  1191 147.673 -4.35241 -26.0256
  1192 258.181 41.5462 -1.34339
  1193 106.571 11.3934 10.8507
  1194 106.574 11.3927 -10.8486
  1195 145.534 1.81204 13.7199
  1196 145.525 1.81273 -13.7192
  1197 145.135 1.15931 -10.2694
  1198 145.333 1.12449 10.3828
  1199 356.008 20.7969 10.8297
  1200 169.841 22.8547 9.54586
  1201 73.0569 11.9209 0.623193
  1202 73.0804 11.9133 -0.621183
  1203 113.707 7.31618 3.54525
  1204 113.710 7.31539 -3.54428
  1205 347.106 22.4945 -10.8056
  1206 140.714 -0.222391 -3.49206
  1207 140.713 -0.220250 3.49153
  1208 163.163 -24.6002 -15.6201
  1209 163.347 -24.6120 15.6768
  1210 114.154 7.97384 -11.7809
  1211 114.154 7.97434 11.7833
  1212 162.401 2.37039 12.8530
  1213 154.062 3.30014 8.10438
  1214 150.021 -22.1460 -18.9165
  1215 102.725 12.0932 -4.13109
  1216 102.720 12.0938 4.13126
  1217 157.058 -10.0348 5.51116
  1218 157.061 -10.0353 -5.49730
  1219 118.730 6.75436 14.4050
  1220 118.728 6.75429 -14.4024
  1221 173.230 -0.925266 18.3386
  1222 173.220 -0.921273 -18.3444
  1223 180.600 -17.4509 -9.50121
  1224 180.660 -17.4467 9.47949
  1225 161.633 11.2450 -12.4909
  1226 124.682 6.13279 17.8355
  1227 124.678 6.13361 -17.8331
  1228 171.086 29.6798 -2.74766
  1229 162.623 10.5878 12.8683
  1230 147.483 0.391383 -5.55042
  1231 147.493 0.391297 5.55096
  1232 192.131 -20.8107 -2.91785
  1233 192.352 -20.6112 2.65222
  1234 135.871 0.169879 -3.77663
  1235 135.879 0.169857 3.77727
  1236 130.333 0.491782 -6.64335
  1237 130.334 0.494862 6.64021
  1238 51.8102 -18.5110 22.1290
  1239 51.7800 -18.4811 -22.1120
  1240 92.2986 13.4499 14.9711
  1241 92.3049 13.4494 -14.9656
  1242 208.417 1.29105 -23.6013
  1243 172.614 0.417276 7.48088
  1244 172.604 0.417624 -7.48166
  1245 153.651 16.6806 4.36627
  1246 202.642 41.2318 2.01549
  1247 122.269 -3.29104 -30.2756
  1248 122.284 -3.29761 30.2753
  1249 157.432 -2.03149 -12.2869
  1250 157.426 -2.23693 12.1991
  1251 129.754 -10.6475 -25.4325
  1252 133.291 -13.3201 25.5318
  1253 114.231 6.69064 4.97167
  1254 114.232 6.68981 -4.97030
  1255 110.472 9.05517 3.94325
  1256 110.476 9.05457 -3.94242
  1257 113.109 7.50345 6.89194
  1258 113.110 7.50269 -6.89027
  1259 204.750 -0.638126 -7.46838
  1260 204.751 -0.639232 7.46277
  1261 136.522 -3.97107 7.70623
  1262 136.526 -3.97864 -7.71009
  1263 272.095 14.1155 28.8030
  1264 208.643 1.11668 23.3770
  1265 141.353 5.66990 6.03563
  1266 247.609 6.46304 -7.35795
  1267 126.460 0.996120 -1.91668
  1268 92.1460 6.17359 25.3400
  1269 92.1400 6.18145 -25.3305
  1270 222.126 9.47701 34.3074
  1271 197.624 11.7659 -3.40490
  1272 83.5722 13.7386 1.69660
  1273 83.5871 13.7341 -1.69737
  1274 131.932 4.60649 -25.1846
  1275 131.940 4.60201 25.1856
  1276 196.707 12.5257 33.2989
  1277 90.9716 9.85895 21.9253
  1278 90.9718 9.86318 -21.9158
  1279 138.853 2.76496 15.1950
  1280 138.846 2.76569 -15.1937
  1281 277.786 24.6029 3.06034
  1282 204.022 12.3794 7.86379
  1283 252.369 37.3021 11.8389
  1284 212.099 3.48856 -27.9513
  1285 162.120 -11.8379 -5.51079
  1286 162.113 -11.7789 5.54041
  1287 218.581 -8.85706 11.9616
  1288 218.498 -9.03033 -11.8650
  1289 145.069 -6.97029 -3.89774
  1290 145.060 -6.96191 3.90028
  1291 121.471 1.15341 5.41981
  1292 121.466 1.15325 -5.41844
  1293 130.825 -2.61474 9.78503
  1294 130.823 -2.62095 -9.79062
  1295 147.119 -14.2865 -25.2636
  1296 147.139 -14.2877 25.2729
  1297 102.252 12.5741 12.0142
  1298 102.256 12.5733 -12.0117
  1299 186.888 -8.65757 -4.20919
  1300 139.701 4.66752 -6.17132
  1301 260.695 14.7186 -33.8719
  1302 240.257 30.5265 -21.3718
  1303 155.243 3.87138 -12.7943
  1304 322.908 20.0000 -22.7452
  1305 147.724 -0.624953 -3.73839
  1306 147.711 -0.625779 3.74495
  1307 149.280 -4.18187 -0.973929
  1308 149.283 -4.18601 0.979642
  1309 193.438 -1.25248 -14.5400
  1310 120.722 1.54808 28.9516
  1311 120.710 1.55540 -28.9501
  1312 143.079 -1.63587 -3.25927
  1313 143.076 -1.63217 3.25987
  1314 223.439 -1.59370 0.703643
  1315 223.413 -1.58821 -0.706171
  1316 144.172 -4.73945 3.43750
  1317 144.178 -4.74630 -3.43555
  1318 119.316 1.18006 -4.84286
  1319 119.319 1.18025 4.84421
  1320 208.389 7.16688 20.7324
  1321 197.525 -7.50981 -6.17799
  1322 197.536 -7.50423 6.16047
  1323 127.020 6.06110 22.2255
  1324 127.014 6.06362 -22.2233
  1325 147.302 -27.6877 -31.0520
  1326 73.4720 -7.10537 29.4575
  1327 73.4681 -7.09664 -29.4942
  1328 200.267 6.86642 -19.1715
  1329 154.425 -7.01856 -7.93271
  1330 154.430 -7.02160 7.93594
  1331 113.973 9.15481 16.1712
  1332 113.972 9.15492 -16.1682
  1333 153.603 -15.5998 -5.55984
  1334 153.572 -15.6098 5.45641
  1335 156.255 1.35676 14.1895
  1336 156.245 1.35776 -14.1899
  1337 15.0486 -59.5832 3.14355
  1338 15.2402 -60.0165 -3.08202
  1339 336.739 21.5089 24.5287
  1340 196.315 4.14398 1.06923
  1341 132.086 0.375329 -4.64042
  1342 202.225 24.7961 -5.85168
  1343 118.886 1.92132 -5.78222
  1344 118.889 1.92160 5.78381
  1345 173.181 -20.0696 10.2762
  1346 153.586 -3.14383 -11.1438
  1347 153.589 -3.13096 11.1452
  1348 219.152 -1.38318 -3.78517
  1349 219.138 -1.38315 3.77578
  1350 126.640 0.897580 5.74979
  1351 126.634 0.897521 -5.74855
  1352 108.823 9.41791 23.2863
  1353 108.820 9.42139 -23.2814
  1354 248.945 15.2881 11.7507
  1355 168.625 5.00997 -38.9660
  1356 153.790 -0.365607 0.0749081
  1357 153.791 -0.365096 -0.0731077
  1358 68.2312 10.1669 8.61271
  1359 68.2514 10.1640 -8.60002
  1360 150.848 -7.99263 -1.41682
  1361 150.855 -7.99668 1.42443
  1362 195.187 -1.23212 15.3260
  1363 119.945 4.81509 10.9694
  1364 119.942 4.81476 -10.9671
  1365 126.882 0.868644 2.51341
  1366 143.448 1.28028 25.4254
  1367 143.437 1.28560 -25.4270
  1368 88.3583 9.63000 -9.49378
  1369 88.3702 9.62937 9.48464
  1370 211.438 -2.01422 10.7804
  1371 211.523 -2.00895 -10.7327
  1372 130.795 0.190461 2.76646
  1373 130.788 0.190448 -2.76589
  1374 134.137 1.69704 10.1694
  1375 134.131 1.69715 -10.1680
  1376 57.8208 0.758154 -16.1591
  1377 57.8795 0.742775 16.1445
  1378 127.207 3.28214 11.7410
  1379 127.202 3.28214 -11.7390
  1380 153.519 -0.0995236 -0.555082
  1381 153.518 -0.0992743 0.555730
  1382 134.514 -0.983634 6.25585
  1383 134.515 -0.987923 -6.25858
  1384 36.7005 -48.5667 -22.2996
  1385 33.8361 -47.0920 22.1956
  1386 171.114 -21.6270 -13.0737
  1387 111.998 8.55731 -9.50975
  1388 111.997 8.55799 9.51177
  1389 130.960 1.62379 4.88034
  1390 130.959 1.62217 -4.88244
  1391 150.870 -1.61971 1.00435
  1392 150.870 -1.61767 -0.999673
  1393 159.577 0.779112 -20.6685
  1394 159.587 0.775584 20.6653
  1395 243.462 5.05577 10.2776
  1396 149.295 3.42402 -11.4055
  1397 119.191 3.88919 -8.80385
  1398 119.193 3.88960 8.80591
  1399 122.862 -2.32763 -14.2232
  1400 122.869 -2.31978 14.2178
  1401 122.890 2.65454 8.65635
  1402 122.887 2.65431 -8.65449
  1403 211.493 -0.696359 -6.34567
  1404 211.489 -0.697338 6.33872
  1405 115.509 5.33482 6.49646
  1406 115.509 5.33410 -6.49469
  1407 209.214 -7.19140 -8.28906
  1408 209.251 -7.23350 8.30527
  1409 264.380 16.0669 -8.27172
  1410 118.709 0.0596390 1.16280
  1411 118.704 0.0596356 -1.16246
  1412 130.710 1.11862 7.37210
  1413 130.704 1.11861 -7.37077
  1414 102.422 11.8691 18.8967
  1415 102.423 11.8702 -18.8918
  1416 109.702 9.01519 1.50686
  1417 109.697 9.01490 -1.50754
  1418 187.251 36.9057 -3.40439
  1419 206.842 -11.8745 12.8847
  1420 206.768 -11.8168 -12.8719
  1421 118.543 -6.27974 -21.2791
  1422 118.554 -6.24235 21.2886
  1423 139.655 3.47872 19.7521
  1424 139.647 3.48066 -19.7512
  1425 67.7980 7.83251 9.32618
  1426 67.7646 7.84474 -9.33284
  1427 148.928 3.22665 11.2819
  1428 267.408 24.5483 -1.25710
  1429 98.1345 10.6501 -5.04298
  1430 98.1418 10.6514 5.03906
  1431 117.998 6.07214 -1.91299
  1432 118.002 6.07188 1.91234
  1433 207.644 23.0160 2.09810
  1434 144.408 -0.229296 -2.59078
  1435 144.406 -0.227768 2.59085
  1436 112.115 7.66947 -4.08362
  1437 112.120 7.67036 4.08237
  1438 138.875 1.72224 -7.73428
  1439 208.913 -5.38681 -0.0104433
  1440 208.903 -5.37229 0.00116288
  1441 87.1074 -22.5803 33.6977
  1442 132.544 0.384127 4.73800
  1443 167.033 -2.99058 11.5423
  1444 131.831 3.34673 14.0373
  1445 131.825 3.34708 -14.0354
  1446 167.127 -3.38911 -11.4143
  1447 150.365 -2.42174 3.72404
  1448 150.366 -2.41895 -3.71696
  1449 147.079 -14.2600 9.92843
  1450 146.910 -14.3652 -10.0092
  1451 147.292 -20.2339 17.8882
  1452 110.863 9.58120 12.2127
  1453 110.864 9.58069 -12.2103
  1454 163.200 0.349217 4.93288
  1455 163.188 0.349310 -4.93289
  1456 115.186 7.02029 0.945225
  1457 115.189 7.01964 -0.944941
  1458 181.393 6.42194 11.0592
  1459 123.655 5.32448 14.5184
  1460 123.651 5.32456 -14.5160
  1461 104.193 3.42625 -16.0667
  1462 104.197 3.43556 16.0594
  1463 150.280 -3.64211 -6.44186
  1464 150.283 -3.64447 6.45002
  1465 120.921 1.89689 -6.68480
  1466 120.925 1.89711 6.68646
  1467 195.197 0.142657 -7.39084
  1468 195.203 0.141964 7.38777
  1469 119.333 4.98650 5.23829
  1470 119.329 4.98564 -5.24015
  1471 146.197 -0.984829 -2.19663
  1472 146.195 -0.982613 2.19778
  1473 97.5158 13.5866 -7.68085
  1474 97.5092 13.5880 7.68200
  1475 152.639 -0.0401507 -0.706051
  1476 152.637 -0.0399976 0.706233
  1477 140.661 6.45483 -2.81786
  1478 89.0500 12.5742 -16.2249
  1479 89.0439 12.5737 16.2322
  1480 139.845 -6.38770 7.48745
  1481 139.852 -6.39778 -7.49083
  1482 153.931 -12.5582 0.712154
  1483 153.938 -12.5591 -0.688852
  1484 106.250 11.3459 16.6481
  1485 106.251 11.3461 -16.6445
  1486 181.610 -2.12521 16.1083
  1487 181.600 -2.12055 -16.1164
  1488 150.130 -0.595807 2.76543
  1489 150.140 -0.594790 -2.75983
  1490 148.161 6.64372 -9.65199
  1491 44.0093 -3.69178 -1.35971
  1492 43.9556 -3.68229 1.39172
  1493 117.011 6.18550 11.0657
  1494 117.010 6.18504 -11.0634
  1495 115.632 6.69166 -2.55795
  1496 115.636 6.69177 2.55713
  1497 196.621 -3.00645 -10.6492
  1498 196.627 -3.00978 10.6372
  1499 119.296 0.355668 2.79838
  1500 119.292 0.355607 -2.79757
  1501 149.392 -1.26039 -11.0074
  1502 149.377 -1.23653 11.0246
  1503 109.333 7.45978 6.68758
  1504 109.327 7.45765 -6.68974
  1505 134.661 0.701863 4.57168
  1506 134.661 0.699831 -4.57339
  1507 161.427 -6.35882 22.8224
  1508 161.408 -6.35166 -22.8266
  1509 180.992 -8.48424 -14.5226
  1510 181.016 -8.49043 14.5116
  1511 158.721 -17.2429 3.33776
  1512 158.861 -17.0872 -3.13555
  1513 139.520 1.67136 8.03278
  1514 136.663 -0.687070 5.13428
  1515 136.665 -0.690693 -5.13604
  1516 179.627 16.8232 -12.0654
  1517 128.657 -3.81968 -12.1662
  1518 128.662 -3.81242 12.1597
  1519 138.770 -26.6759 30.4785
  1520 154.563 17.7549 -2.34219
  1521 138.728 -8.70255 -10.5495
  1522 138.726 -8.68822 10.5455
  1523 170.967 -18.7374 4.23127
  1524 90.5418 -1.75986 -28.8806
  1525 90.5591 -1.77220 28.8870
  1526 114.835 6.19379 7.32674
  1527 114.835 6.19307 -7.32489
  1528 148.879 -0.0917189 -1.55835
  1529 148.877 -0.0911006 1.55866
  1530 111.200 8.73197 5.96347
  1531 111.203 8.73123 -5.96212
  1532 198.700 -18.0562 4.55306
  1533 198.662 -17.9497 -4.60540
  1534 157.494 0.217209 -4.79917
  1535 157.506 0.217150 4.79935
  1536 168.018 4.60420 13.2105
  1537 168.597 0.913633 14.5776
  1538 140.406 -25.4895 -23.5738
  1539 140.365 -25.4257 23.6642
  1540 129.621 0.700762 5.44677
  1541 129.615 0.700718 -5.44570
  1542 121.912 4.37635 11.6435
  1543 121.909 4.37617 -11.6413
  1544 167.334 1.05935 -14.4633
  1545 145.461 9.90078 3.56252
  1546 211.025 -12.5097 -2.25075
  1547 211.825 -11.6189 3.20672
  1548 156.375 2.19244 12.9798
  1549 136.839 -0.0457677 -4.84257
  1550 136.791 -0.0501016 4.78727
  1551 103.714 10.1492 -4.00130
  1552 103.720 10.1506 3.99906
  1553 153.063 10.6082 9.62776
  1554 116.454 5.04933 -7.91121
  1555 116.455 5.04993 7.91320
  1556 146.661 2.47137 -7.50199
  1557 124.360 0.0961236 -1.93530
  1558 124.366 0.0961222 1.93578
  1559 75.7721 -22.8006 37.4548
  1560 76.1741 -22.5902 -37.3483
  1561 138.388 -21.9921 -25.5253
  1562 99.2023 -25.1283 -30.1470
  1563 99.2436 -25.1138 30.1105
  1564 150.115 -0.784514 -0.833059
  1565 150.114 -0.783116 0.835295
  1566 116.326 6.17260 26.7893
  1567 116.318 6.17820 -26.7858
  1568 171.005 20.5845 -10.9827
  1569 48.2255 -6.68070 -14.3483
  1570 48.2191 -6.69648 14.3845
  1571 148.051 6.52728 9.82044
  1572 142.758 3.09250 22.4268
  1573 142.749 3.09580 -22.4271
  1574 151.082 -0.352908 1.00293
  1575 151.084 -0.353627 -1.00179
  1576 129.280 5.31682 18.6993
  1577 129.275 5.31800 -18.6972
  1578 75.2196 -11.0184 -28.5315
  1579 75.2493 -11.0361 28.5386
  1580 215.555 -5.40900 21.3513
  1581 215.525 -5.50422 -21.3000
  1582 165.960 3.70081 33.7974
  1583 112.550 8.14351 0.0857026
  1584 112.554 8.14322 -0.0857734
  1585 148.537 6.21018 41.5591
  1586 164.787 -14.4809 -19.1165
  1587 164.823 -14.4908 19.1194
  1588 155.002 -2.47805 -24.3440
  1589 155.017 -2.48411 24.3400
  1590 144.759 0.221617 3.49622
  1591 144.749 0.221616 -3.49580
  1592 121.011 4.94686 -3.24619
  1593 121.014 4.94692 3.24495
  1594 76.7944 3.44812 -23.6482
  1595 76.7991 3.43755 23.6631
  1596 85.8870 -0.387659 24.3949
  1597 85.8815 -0.381071 -24.4128
  1598 80.5891 7.24938 -14.6238
  1599 80.6072 7.24361 14.6092
  1600 108.957 10.0325 8.15243
  1601 108.960 10.0318 -8.15080
  1602 145.744 3.59902 -1.12483
  1603 112.548 8.14983 3.53127
  1604 112.551 8.14911 -3.53037
  1605 125.882 3.18620 4.42736
  1606 125.879 3.18545 -4.42924
  1607 125.456 2.04592 8.35618
  1608 125.451 2.04580 -8.35447
  1609 137.889 -29.4130 -21.9544
  1610 138.482 -29.2741 22.2347
  1611 150.840 -10.5789 -1.37423
  1612 150.824 -10.5712 1.38522
  1613 144.600 -11.3284 -8.37682
  1614 144.592 -11.3469 8.36127
  1615 151.153 -6.65023 -3.16130
  1616 151.158 -6.65383 3.16809
  1617 154.895 2.65436 -32.3508
  1618 150.256 -4.02901 -2.78199
  1619 150.258 -4.03276 2.78862
  1620 157.601 13.8273 -10.1161
  1621 142.151 -0.146748 8.29221
  1622 142.147 -0.147950 -8.29423
  1623 380.210 21.1666 -1.65588
  1624 147.257 -2.28775 1.36177
  1625 147.260 -2.29123 -1.35882
  1626 153.102 -0.381285 1.22979
  1627 153.107 -0.380574 -1.22655
  1628 154.215 -0.245976 0.313725
  1629 154.217 -0.245643 -0.311819
  1630 126.307 2.20579 6.21362
  1631 126.305 2.20392 -6.21638
  1632 127.929 0.153309 2.12794
  1633 127.922 0.153296 -2.12747
  1634 78.0669 11.9439 13.6170
  1635 78.0788 11.9434 -13.6068
  1636 88.0539 13.9343 9.08112
  1637 88.0644 13.9321 -9.07780
  1638 158.872 -21.4211 11.4364
  1639 169.659 0.563070 -14.6828
  1640 169.668 0.561477 14.6804
  1641 138.127 2.95207 6.69438
  1642 144.777 -2.69463 -2.65782
  1643 144.774 -2.69008 2.65960
  1644 134.248 0.128267 -2.49687
  1645 134.257 0.128260 2.49732
  1646 195.301 -15.1723 -0.169021
  1647 195.315 -15.1271 0.135521
  1648 169.177 -19.0006 -3.58398
  1649 138.209 1.09233 8.13879
  1650 138.201 1.09240 -8.13769
  1651 222.235 -1.42343 4.36507
  1652 222.211 -1.41347 -4.34999
  1653 98.9590 -1.69442 -23.9373
  1654 98.9633 -1.69946 23.9145
  1655 116.468 4.38586 6.82391
  1656 116.468 4.38524 -6.82205
  1657 270.370 16.7296 3.68674
  1658 122.615 0.0850900 1.31275
  1659 122.609 0.0850764 -1.31239
  1660 142.333 -0.0567396 3.95504
  1661 142.353 -0.0643834 -3.95022
  1662 117.356 -13.3209 30.5008
  1663 117.346 -13.3261 -30.5073
  1664 73.7874 -23.0992 -29.5527
  1665 275.649 34.3545 -16.8342
  1666 103.231 6.94198 -10.9071
  1667 103.237 6.94679 10.9022
  1668 140.842 1.17200 9.50521
  1669 140.833 1.17219 -9.50415
  1670 120.318 1.15548 5.13487
  1671 120.315 1.15532 -5.13350
  1672 182.068 1.27843 -9.06430
  1673 118.300 8.21339 20.3947
  1674 118.297 8.21490 -20.3915
  1675 123.666 0.646448 -4.34263
  1676 123.672 0.646521 4.34368
  1677 120.014 0.0759113 -1.21460
  1678 120.020 0.0759387 1.21495
  1679 109.161 -0.182679 -18.4629
  1680 109.163 -0.168797 18.4577
  1681 209.381 6.29214 -21.1899
  1682 203.861 -0.175692 -5.11826
  1683 203.864 -0.176143 5.11524
  1684 124.135 1.19905 6.11706
  1685 124.130 1.19894 -6.11566
  1686 128.489 -12.9219 22.4377
  1687 128.517 -13.1218 -22.5472
  1688 136.743 2.66462 13.7272
  1689 136.736 2.66506 -13.7257
  1690 116.614 4.88158 7.28498
  1691 116.609 4.87970 -7.28731
  1692 23.7686 -69.9016 5.74234
  1693 23.7341 -69.8460 -5.83296
  1694 166.437 26.6027 3.94141
  1695 230.119 -0.602496 -0.803726
  1696 230.090 -0.601571 0.799112
  1697 187.125 0.127664 6.45877
  1698 187.116 0.128044 -6.46037
  1699 120.664 0.474636 3.37188
  1700 120.659 0.474566 -3.37095
  1701 181.421 -0.0412949 -13.3805
  1702 181.429 -0.0431010 13.3761
  1703 146.695 -19.6704 -17.3191
  1704 119.217 2.47957 -6.85688
  1705 119.219 2.47990 6.85866
  1706 141.269 -3.88303 4.95294
  1707 141.274 -3.88978 -4.95339
  1708 309.577 24.9977 1.51652
  1709 120.977 5.27333 12.6458
  1710 120.975 5.27315 -12.6435
  1711 133.785 3.66468 0.00912597
  1712 108.590 -12.1205 -30.5728
  1713 108.688 -12.1875 30.5304
  1714 117.757 2.96162 6.47798
  1715 117.755 2.96118 -6.47619
  1716 151.166 -1.46158 2.22854
  1717 151.168 -1.45972 -2.22294
  1718 166.896 2.69633 -13.2277
  1719 131.119 5.39214 -20.9377
  1720 131.126 5.39003 20.9395
  1721 86.3876 12.9100 -1.88179
  1722 86.4009 12.9067 1.87811
  1723 110.622 10.3873 17.4331
  1724 110.622 10.3878 -17.4297
  1725 106.826 4.14463 28.2109
  1726 106.816 4.15247 -28.2061
  1727 147.435 -10.4758 -4.76305
  1728 147.418 -10.4622 4.76195
  1729 153.679 -8.39210 4.75858
  1730 153.676 -8.38998 -4.75160
  1731 159.230 -9.53708 -7.35062
  1732 159.243 -9.54068 7.34401
  1733 142.440 2.89223 16.4823
  1734 142.432 2.89333 -16.4814
  1735 159.432 -20.9466 -10.0902
  1736 126.403 4.41407 13.7802
  1737 126.399 4.41418 -13.7780
  1738 97.5703 5.30841 -15.6756
  1739 97.5749 5.31386 15.6644
  1740 147.660 -9.80528 -25.4925
  1741 147.679 -9.80982 25.4941
  1742 114.702 7.08706 2.49384
  1743 114.705 7.08626 -2.49310
  1744 150.972 0.975880 9.58897
  1745 150.962 0.976200 -9.58849
  1746 297.926 21.6707 -53.7170
  1747 118.806 3.13468 -7.48584
  1748 118.808 3.13507 7.48774
  1749 153.405 1.20417 12.1375
  1750 153.396 1.20477 -12.1374
  1751 178.519 0.246547 6.67979
  1752 178.509 0.246817 -6.68077
  1753 110.078 5.28023 -10.6373
  1754 110.084 5.28456 10.6343
  1755 114.972 1.14247 -14.5687
  1756 114.979 1.14971 14.5652
  1757 144.785 -0.912501 7.63431
  1758 144.791 -0.922161 -7.62911
  1759 128.527 -7.33684 16.6802
  1760 128.532 -7.35178 -16.6896
  1761 111.734 -21.1762 36.3640
  1762 110.613 -20.6722 -36.1697
  1763 150.992 11.0878 -8.26269
  1764 126.533 0.408757 -3.95601
  1765 126.540 0.408795 3.95689
  1766 124.987 0.887058 1.42358
  1767 111.910 7.00376 6.13007
  1768 111.904 7.00212 -6.13192
  1769 171.647 -25.1583 -11.8747
  1770 171.931 -25.2713 11.8502
  1771 194.590 -0.997077 -11.1141
  1772 194.595 -0.999309 11.1070
  1773 140.960 -0.697770 3.70595
  1774 140.962 -0.700611 -3.70634
  1775 127.833 0.494104 -3.10526
  1776 133.788 -9.67263 15.1838
  1777 133.757 -9.70397 -15.2076
  1778 207.919 14.8976 2.51542
  1779 149.222 -7.35044 -0.207477
  1780 149.214 -7.34464 0.213855
  1781 125.309 3.46886 -11.6159
  1782 125.314 3.46893 11.6180
  1783 117.976 2.92286 10.2026
  1784 117.970 2.91939 -10.2058
  1785 112.372 8.16574 8.47448
  1786 112.373 8.16502 -8.47260
  1787 104.931 11.2842 3.51744
  1788 104.936 11.2838 -3.51722
  1789 114.943 6.06530 5.51865
  1790 114.944 6.06448 -5.51710
  1791 195.672 35.2504 5.42219
  1792 206.176 -4.52363 20.2684
  1793 206.105 -4.54366 -20.3143
  1794 183.516 -10.7720 2.65962
  1795 114.678 6.90049 9.42824
  1796 114.678 6.89986 -9.42611
  1797 163.589 24.6760 -3.61597
  1798 303.364 18.5240 41.7887
  1799 128.825 5.53137 23.5621
  1800 128.817 5.53477 -23.5603
  1801 151.147 1.65161 9.20434
  1802 107.732 -27.9612 40.0757
  1803 108.382 9.88477 2.10064
  1804 108.386 9.88448 -2.10044
  1805 147.301 11.1368 -4.02929
  1806 124.415 0.843546 9.45133
  1807 124.410 0.839919 -9.45539
  1808 148.051 -3.63782 -0.442000
  1809 148.047 -3.63341 0.446490
  1810 168.262 -0.259466 18.9914
  1811 168.252 -0.255729 -18.9961
  1812 110.395 -27.9383 -39.3203
  1813 161.077 21.5045 5.84720
  1814 132.802 0.849774 6.29418
  1815 132.795 0.849764 -6.29308
  1816 116.227 7.48589 13.3222
  1817 116.226 7.48561 -13.3196
  1818 138.845 1.48552 3.30227
  1819 116.800 7.84775 15.3551
  1820 116.799 7.84777 -15.3524
  1821 125.800 -16.8472 27.8801
  1822 125.298 -17.2947 -28.5300
  1823 109.801 10.3217 14.1228
  1824 109.802 10.3214 -14.1200
  1825 191.039 32.3457 -7.64456
  1826 220.667 12.3388 16.3792
  1827 156.320 1.65615 17.7051
  1828 156.311 1.65811 -17.7063
  1829 204.870 -8.51461 3.54558
  1830 204.856 -8.48154 -3.55308
  1831 149.390 -0.327014 -1.46139
  1832 149.389 -0.326130 1.46219
  1833 107.400 -3.60719 -30.9827
  1834 107.416 -3.61520 30.9835
  1835 159.647 -20.2868 28.3667
  1836 140.108 -26.2558 35.2924
  1837 208.251 -3.06830 -5.61069
  1838 208.247 -3.06799 5.59793
  1839 172.924 -9.78420 -6.19504
  1840 184.117 0.868004 7.87680
  1841 169.860 -21.1995 -15.6931
  1842 170.969 -20.0259 15.6455
  1843 207.977 -5.87915 17.3163
  1844 207.873 -5.88363 -17.3076
  1845 152.348 -25.5733 22.7736
  1846 28.6495 -23.7683 6.13580
  1847 28.4933 -23.6949 -6.06199
  1848 147.993 -1.62663 -6.26329
  1849 147.989 -1.62599 6.27132
  1850 171.299 0.0647200 5.00628
  1851 171.287 0.0648951 -5.00660
  1852 120.714 2.71917 8.09212
  1853 120.711 2.71889 -8.09022
  1854 248.326 30.1558 46.6997
  1855 52.1360 -7.00065 20.3493
  1856 52.0725 -7.01984 -20.3811
  1857 114.252 7.05554 -3.44153
  1858 114.257 7.05605 3.44045
  1859 125.126 3.03955 5.55892
  1860 125.123 3.03828 -5.56128
  1861 132.517 1.68176 -9.46328
  1862 132.523 1.68172 9.46478
  1863 202.625 -17.1473 -0.699529
  1864 202.211 -17.2187 0.512264
  1865 52.8360 -36.5055 -20.7571
  1866 52.8666 -36.4855 20.7412
  1867 111.602 8.68411 -2.25638
  1868 111.598 8.68465 2.25687
  1869 146.885 0.647683 8.09571
  1870 146.876 0.647892 -8.09501
  1871 116.786 5.57577 9.76425
  1872 116.785 5.57527 -9.76206
  1873 103.210 9.45491 23.3165
  1874 103.207 9.45894 -23.3104
  1875 86.0266 -32.1463 26.6793
  1876 85.9220 -32.1872 -26.6991
  1877 106.864 10.5622 20.6277
  1878 106.864 10.5640 -20.6230
  1879 149.189 -2.54028 -9.37436
  1880 149.188 -2.52800 9.38539
  1881 151.700 -4.97174 -7.75286
  1882 151.706 -4.97352 7.76096
  1883 158.334 7.22383 12.8324
  1884 173.046 -9.59336 5.95049
  1885 147.881 -1.28483 -1.40214
  1886 147.879 -1.28246 1.40428
  1887 91.9804 13.3152 1.73748
  1888 91.9902 13.3135 -1.73899
  1889 52.9702 -36.0234 -8.21490
  1890 53.0030 -35.9986 8.21310
  1891 135.088 2.88864 -4.48246
  1892 152.962 1.77142 20.3917
  1893 152.952 1.77416 -20.3933
  1894 142.291 -0.124971 -3.09422
  1895 142.290 -0.123253 3.09395
  1896 139.878 -2.10478 4.66795
  1897 139.881 -2.10964 -4.66873
  1898 128.518 1.74944 -8.55094
  1899 128.524 1.74950 8.55252
  1900 145.479 -0.361306 3.66355
  1901 145.495 -0.362119 -3.65789
  1902 117.971 4.70136 9.39450
  1903 117.970 4.70090 -9.39236
  1904 203.306 -0.921505 -9.32099
  1905 203.346 -0.916686 9.41294
  1906 138.075 2.39764 25.5807
  1907 138.064 2.40284 -25.5812
  1908 196.386 0.0898872 22.3543
  1909 176.882 8.22085 -11.9566
  1910 122.229 0.318841 -2.93470
  1911 122.234 0.318871 2.93546
  1912 122.717 0.840713 -0.736108
  1913 97.0537 11.8904 -1.72100
  1914 97.0614 11.8905 1.71835
  1915 200.369 24.6989 -49.3858
  1916 106.888 11.0171 9.52384
  1917 106.891 11.0163 -9.52206
  1918 36.6764 -19.7162 18.6648
  1919 36.5384 -19.7400 -18.7671
  1920 368.249 16.3707 -35.1604
  1921 160.484 -25.4124 -19.0893
  1922 124.220 0.286607 -3.05586
  1923 124.226 0.286641 3.05660
  1924 253.199 7.20115 -6.21756
  1925 153.770 -0.0476139 -0.523112
  1926 153.768 -0.0475020 0.523393
  1927 84.0040 -17.9072 18.2893
  1928 89.3204 -16.5568 -20.2817
  1929 87.5347 -8.53863 -31.6169
  1930 87.4927 -8.50881 31.5965
  1931 138.943 0.105670 3.79147
  1932 138.944 0.103712 -3.79241
  1933 150.925 0.229677 -3.59747
  1934 150.936 0.229642 3.59779
  1935 159.203 5.84723 -13.0796
  1936 119.354 4.00674 7.30146
  1937 119.349 4.00490 -7.30406
  1938 149.721 -2.98555 -1.18327
  1939 149.723 -2.98883 1.18876
  1940 131.235 0.942183 5.65557
  1941 131.234 0.939761 -5.65810
  1942 118.260 2.29792 5.99280
  1943 118.258 2.29758 -5.99111
  1944 115.707 5.73993 8.19050
  1945 115.707 5.73927 -8.18850
  1946 225.004 -1.11753 -2.23681
  1947 225.033 -1.12376 2.24095
  1948 177.623 27.5223 8.38275
  1949 125.472 0.256290 2.33454
  1950 168.732 0.478610 12.7346
  1951 168.723 0.479581 -12.7362
  1952 101.014 -15.5899 31.4527
  1953 100.991 -15.5860 -31.4657
  1954 145.803 -8.59986 4.57784
  1955 145.815 -8.60890 -4.57585
  1956 149.678 -1.74670 0.0406063
  1957 149.679 -1.74915 -0.0367735
  1958 102.610 -14.1173 33.4788
  1959 102.362 -14.1407 -33.4339
  1960 134.158 1.84582 27.2146
  1961 134.146 1.85188 -27.2150
  1962 174.557 -16.1115 13.7960
  1963 174.502 -16.1056 -13.8030
  1964 128.220 2.47537 4.58064
  1965 128.218 2.47433 -4.58260
  1966 298.044 30.1406 11.9807
  1967 121.747 1.52617 -6.28911
  1968 121.751 1.52634 6.29065
  1969 165.021 -14.4495 2.63769
  1970 164.833 -14.6080 -2.39841
  1971 106.615 -6.45341 26.5695
  1972 106.633 -6.44974 -26.6230
  1973 252.451 10.6139 -10.7003
  1974 154.377 -0.0698972 0.335420
  1975 154.378 -0.0701142 -0.334659
  1976 187.597 -6.20408 -15.9818
  1977 120.965 3.93410 10.1219
  1978 120.962 3.93380 -10.1197
  1979 167.170 15.9685 11.9716
  1980 122.473 2.65441 7.71418
  1981 122.468 2.65214 -7.71732
  1982 222.471 15.0356 -12.0938
  1983 167.912 0.328970 10.5978
  1984 191.962 -10.9157 6.19464
  1985 191.938 -10.9255 -6.21576
  1986 119.594 7.18361 -43.1607
  1987 169.220 25.1910 -7.88098
  1988 149.941 12.8164 4.64794
  1989 139.024 5.38974 3.73715
  1990 16.9163 -79.7481 6.43539
  1991 17.0124 -79.7289 -6.61530
  1992 158.456 19.8132 -5.27049
  1993 94.2430 13.8791 11.0022
  1994 94.2502 13.8777 -10.9992
  1995 167.057 0.113496 -10.3746
  1996 150.405 -16.7272 -10.1731
  1997 150.745 -16.6789 9.54722
  1998 170.346 -21.1873 13.9584
  1999 170.254 -21.1794 -13.9581
  2000 120.834 -23.0559 20.3925
  2001 125.703 -25.2262 -21.0179
  2002 95.1501 10.6643 -6.88988
  2003 95.1583 10.6652 6.88413
  2004 51.8808 -31.5035 32.0614
  2005 52.4932 -30.9685 -33.2218
  2006 109.377 9.70399 6.21724
  2007 109.380 9.70330 -6.21598
  2008 138.406 0.0924911 2.44655
  2009 138.397 0.0925113 -2.44616
  2010 197.520 3.39729 -3.29887
  2011 130.514 2.43690 -11.0854
  2012 130.520 2.43683 11.0872
  2013 113.477 7.24916 5.98886
  2014 113.479 7.24837 -5.98733
  2015 212.469 -2.15605 -23.2751
  2016 194.083 18.3036 8.04254
  2017 134.662 -14.1633 -19.5132
  2018 134.693 -13.8199 19.3269
  2019 223.794 2.16418 -20.9403
  2020 151.587 0.750306 -9.35399
  2021 213.340 -11.1868 -14.1887
  2022 213.332 -11.1740 14.2541
  2023 114.200 7.50828 0.525488
  2024 114.204 7.50778 -0.525360
  2025 117.954 3.45811 7.26950
  2026 117.953 3.45766 -7.26761
  2027 247.498 8.41929 13.1533
  2028 144.847 2.88762 18.6945
  2029 144.838 2.88941 -18.6942
  2030 193.617 1.07149 -21.7800
  2031 119.130 0.794620 4.09896
  2032 119.126 0.794497 -4.09777
  2033 135.587 -2.58881 7.03300
  2034 135.589 -2.59484 -7.03628
  2035 109.773 -4.18057 38.2514
  2036 222.413 -0.577609 -3.34334
  2037 222.400 -0.578008 3.33757
  2038 129.395 -0.900333 8.74610
  2039 129.393 -0.904976 -8.75070
  2040 118.695 0.170866 1.95828
  2041 118.691 0.170833 -1.95768
  2042 150.186 -1.19451 -3.53622
  2043 150.180 -1.19628 3.54296
  2044 51.4691 -38.0991 20.6531
  2045 226.475 18.2213 -2.65514
  2046 192.091 -8.11715 -9.44290
  2047 192.108 -8.11752 9.42659
  2048 135.488 -3.25702 -28.6081
  2049 135.503 -3.26316 28.6069
  2050 152.608 -0.349446 1.36397
  2051 152.615 -0.348859 -1.36068
  2052 133.479 1.85292 4.74167
  2053 404.442 12.3983 8.27066
  2054 248.205 19.8290 -9.20351
  2055 146.080 -0.603400 -10.0032
  2056 146.112 -0.599900 10.0097
  2057 187.306 4.91399 17.1752
  2058 134.679 -6.73303 11.5085
  2059 134.680 -6.74364 -11.5162
  2060 114.648 6.68893 4.04077
  2061 114.650 6.68808 -4.03960
  2062 224.270 2.06613 21.0251
  2063 113.191 8.09468 10.5424
  2064 113.192 8.09408 -10.5402
  2065 154.643 -5.37519 -9.62424
  2066 154.655 -5.37541 9.63227
  2067 127.689 -23.4774 -33.5119
  2068 47.0351 -42.8246 -19.5041
  2069 143.840 -6.90483 -5.10605
  2070 143.830 -6.89555 5.10687
  2071 146.229 -4.72522 -2.01537
  2072 146.223 -4.71930 2.01887
  2073 146.944 -0.121645 -2.02502
  2074 146.942 -0.120744 2.02520
  2075 205.462 16.4308 -0.681306
  2076 120.287 4.80724 -4.61415
  2077 120.291 4.80784 4.61243
  2078 106.130 9.87096 1.97081
  2079 106.125 9.87027 -1.97199
  2080 137.551 -12.6749 15.7085
  2081 137.798 -12.7259 -15.6646
  2082 111.806 -5.43458 23.3879
  2083 111.835 -5.47511 -23.3989
  2084 212.819 -2.18111 23.0364
  2085 102.801 11.5968 1.53182
  2086 102.807 11.5967 -1.53242
  2087 97.5557 -32.5645 -26.0073
  2088 97.8288 -32.4525 25.8959
  2089 142.301 -19.1433 -25.7782
  2090 142.311 -19.1329 25.8005
  2091 100.806 12.5972 -5.46561
  2092 100.800 12.5980 5.46601
  2093 34.7016 -28.5318 -11.8326
  2094 34.7349 -28.5979 11.8606
  2095 178.210 8.07123 6.87298
  2096 184.591 -0.147755 -12.4444
  2097 143.073 0.106321 2.38908
  2098 143.063 0.106327 -2.38876
  2099 147.815 -0.564433 -1.78876
  2100 147.814 -0.562938 1.78980
  2101 141.563 -1.95206 3.92201
  2102 141.566 -1.95643 -3.92197
  2103 148.037 -0.859094 25.5839
  2104 148.023 -0.853111 -25.5867
  2105 292.873 20.5406 2.29768
  2106 49.6544 1.45852 -4.24382
  2107 49.7094 1.44497 4.25422
  2108 151.789 -0.589774 -0.396933
  2109 151.788 -0.588838 0.399186
  2110 129.746 2.20295 -1.31572
  2111 129.614 0.0708282 -1.68691
  2112 129.621 0.0708461 1.68727
  2113 117.127 6.31335 -0.165425
  2114 117.130 6.31274 0.165378
  2115 171.649 5.88240 -10.0352
  2116 75.2955 12.2017 8.21610
  2117 75.3128 12.1981 -8.20818
  2118 206.835 -9.92613 10.8073
  2119 206.782 -9.86080 -10.7916
  2120 154.074 14.5569 7.34996
  2121 138.716 -3.70708 6.20492
  2122 138.720 -3.71413 -6.20701
  2123 152.380 -0.702026 0.607829
  2124 152.381 -0.700990 -0.604572
  2125 154.525 -0.186919 0.608897
  2126 154.529 -0.186706 -0.606939
  2127 125.260 5.28096 25.8046
  2128 125.251 5.28599 -25.8028
  2129 13.6978 -70.4084 -7.22840
  2130 13.7931 -69.2190 7.34576
  2131 78.8487 13.3908 -4.09918
  2132 78.8312 13.3959 4.10158
  2133 145.564 -0.532494 -2.39574
  2134 145.562 -0.530725 2.39631
  2135 120.218 7.49721 17.7391
  2136 120.215 7.49787 -17.7362
  2137 158.660 10.7802 11.8902
  2138 205.787 3.95898 22.5380
  2139 116.636 3.93716 27.9982
  2140 116.626 3.94419 -27.9953
  2141 120.671 0.794080 4.35928
  2142 120.667 0.793968 -4.35810
  2143 165.831 0.445959 10.0349
  2144 165.821 0.446521 -10.0356
  2145 122.063 7.02874 19.0891
  2146 122.059 7.02988 -19.0863
  2147 179.525 0.220329 -10.6757
  2148 179.534 0.219395 10.6733
  2149 153.515 -24.8140 -20.2003
  2150 245.526 21.2620 6.28054
  2151 133.041 -20.9993 28.0318
  2152 137.388 2.67790 -6.62443
  2153 133.786 4.03078 -17.0218
  2154 133.792 4.02984 17.0235
  2155 84.6337 9.17521 -11.2863
  2156 84.6484 9.17183 11.2750
  2157 127.499 5.01943 16.6460
  2158 127.494 5.02004 -16.6438
  2159 180.851 14.9510 11.5174
  2160 225.098 9.14968 -19.3140
  2161 67.4197 7.95901 13.3169
  2162 67.4340 7.96005 -13.2996
  2163 96.7626 -23.6459 39.7183
  2164 101.918 -23.6895 -39.2769
  2165 153.242 -12.8773 -33.3941
  2166 127.773 2.60925 10.4771
  2167 127.768 2.60920 -10.4752
  2168 167.017 0.243049 -4.35279
  2169 167.028 0.242928 4.35270
  2170 123.511 0.488795 -1.85431
  2171 146.639 -1.35861 -7.24394
  2172 146.633 -1.35350 7.25076
  2173 98.2476 13.2684 10.8785
  2174 98.2534 13.2673 -10.8761
  2175 149.178 -5.72742 -0.714011
  2176 149.184 -5.73227 0.720014
  2177 158.485 0.632517 -9.36262
  2178 158.495 0.632152 9.36259
  2179 116.320 6.95785 -11.8335
  2180 116.321 6.95829 11.8359
  2181 78.9005 -2.00273 25.7257
  2182 78.8951 -2.01013 -25.7480
  2183 235.549 -0.254700 -10.2193
  2184 103.489 11.9842 -6.52911
  2185 103.485 11.9850 6.52999
  2186 143.377 8.91901 -0.0348387
  2187 311.640 26.0124 -1.77529
  2188 224.135 42.0190 1.27618
  2189 139.084 -0.787600 4.30246
  2190 139.086 -0.790873 -4.30340
  2191 172.043 -18.7341 -6.24671
  2192 263.106 21.2729 6.85149
  2193 235.406 -0.299054 10.7444
  2194 189.622 22.9327 -10.1839
  2195 150.410 -0.00474221 -1.21304
  2196 150.408 -0.00443029 1.21321
  2197 158.905 -12.2627 -3.78305
  2198 158.896 -12.2671 3.80183
  2199 123.717 6.14868 16.7074
  2200 123.713 6.14917 -16.7049
  2201 156.342 -11.9469 -2.03174
  2202 156.346 -11.9458 2.04460
  2203 130.759 -27.6481 -36.5145
  2204 123.390 1.67212 6.95350
  2205 123.386 1.67196 -6.95192
  2206 159.268 -4.94051 -10.9418
  2207 159.261 -4.92179 10.9968
  2208 186.212 -0.0502069 11.2739
  2209 117.125 5.90477 4.24183
  2210 117.120 5.90422 -4.24324
  2211 121.612 7.08903 23.4044
  2212 121.607 7.09210 -23.4016
  2213 165.317 -1.38551 -21.1385
  2214 165.329 -1.39066 21.1331
  2215 132.169 -13.9050 29.2984
  2216 132.162 -13.9101 -29.2942
  2217 108.307 9.70883 0.0489158
  2218 108.302 9.70879 -0.0493007
  2219 120.592 0.215660 2.57206
  2220 120.587 0.215636 -2.57134
  2221 161.327 -2.52268 -12.1252
  2222 160.933 -2.59516 12.1828
  2223 194.265 0.173768 -4.37018
  2224 194.273 0.173501 4.36885
  2225 144.819 -1.35574 -2.61463
  2226 144.817 -1.35278 2.61572
  2227 241.883 42.0832 2.76181
  2228 173.025 0.482533 9.64301
  2229 173.015 0.483117 -9.64429
  2230 112.159 8.13275 24.8379
  2231 112.154 8.13719 -24.8334
  2232 203.501 -1.42892 -8.74033
  2233 203.502 -1.43121 8.73097
  2234 170.556 -6.14457 -19.5059
  2235 170.576 -6.15155 19.4994
  2236 124.322 -23.9735 -27.2477
  2237 124.266 -23.9505 27.2360
  2238 72.1931 -13.9103 34.0604
  2239 72.1643 -13.8535 -34.0676
  2240 151.246 -5.35021 -5.06102
  2241 151.250 -5.35367 5.06779
  2242 195.421 -1.41003 19.0171
  2243 126.567 0.745336 -3.59351
  2244 122.506 0.781771 4.54020
  2245 122.501 0.781675 -4.53907
  2246 267.668 10.6899 9.04635
  2247 154.900 0.0372736 3.60074
  2248 154.889 0.0373443 -3.60054
  2249 150.177 -3.02632 -5.44504
  2250 150.178 -3.02903 5.45299
  2251 144.474 -3.53062 2.88259
  2252 144.478 -3.53617 -2.88069
  2253 182.250 -0.225462 -14.4173
  2254 182.258 -0.228003 14.4119
  2255 118.378 -7.20635 30.9301
  2256 118.362 -7.20221 -30.9320
  2257 66.2607 0.633796 20.6924
  2258 66.2573 0.645792 -20.6720
  2259 368.958 16.2732 26.6113
  2260 170.550 7.49638 -1.45927
  2261 117.296 4.20001 -7.68559
  2262 117.297 4.20053 7.68756
  2263 269.212 24.1203 -3.30464
  2264 114.397 7.32361 -1.23815
  2265 114.401 7.32345 1.23774
  2266 148.155 -17.9511 14.0143
  2267 214.060 -4.06231 7.12531
  2268 214.032 -4.03714 -7.10492
  2269 195.617 -1.37390 -19.5470
  2270 154.181 1.33318 -21.2902
  2271 154.191 1.32985 21.2880
  2272 164.917 -9.58911 -7.82761
  2273 164.781 -9.89835 7.57232
  2274 123.800 2.68175 9.26298
  2275 123.796 2.68156 -9.26108
  2276 186.507 -2.60069 -14.6515
  2277 186.517 -2.60500 14.6422
  2278 203.343 9.32813 12.6664
  2279 221.256 30.8784 2.46404
  2280 99.8721 8.95983 8.79946
  2281 99.8657 8.95674 -8.80471
  2282 188.259 -1.21303 -2.46454
  2283 131.830 0.0603024 -3.14178
  2284 135.731 -27.4095 -33.5152
  2285 204.482 31.2635 4.67555
  2286 144.238 0.753031 7.58280
  2287 144.228 0.753145 -7.58201
  2288 216.995 -1.46274 -6.45881
  2289 216.991 -1.48197 6.49775
  2290 151.019 -2.55390 10.6820
  2291 151.010 -2.57408 -10.6682
  2292 138.274 0.00589894 -2.99954
  2293 138.243 0.0166536 2.98297
  2294 133.831 2.23912 11.6832
  2295 133.824 2.23931 -11.6816
  2296 74.0959 10.3567 -6.30170
  2297 74.1207 10.3477 6.29651
  2298 150.507 -4.83017 -3.39657
  2299 150.511 -4.83389 3.40331
  2300 104.823 11.9437 14.4040
  2301 104.826 11.9433 -14.4009
  2302 61.1430 7.35500 6.49354
  2303 61.1697 7.35145 -6.47724
  2304 121.540 0.0874205 1.04823
  2305 121.534 0.0874068 -1.04795
  2306 155.027 -23.9272 17.6170
  2307 151.072 1.21039 23.5756
  2308 151.061 1.21478 -23.5780
  2309 168.442 5.12495 12.1654
  2310 108.181 10.2592 6.63656
  2311 108.184 10.2585 -6.63531
  2312 137.038 0.362417 4.96535
  2313 137.029 0.362432 -4.96457
  2314 129.725 -0.152716 7.60842
  2315 129.724 -0.156529 -7.61221
  2316 152.348 -8.21677 3.14857
  2317 152.343 -8.21386 -3.14105
  2318 126.481 1.34485 7.11490
  2319 126.476 1.34475 -7.11344
  2320 144.443 6.00339 -7.98389
  2321 142.617 2.10031 -9.27200
  2322 184.205 6.63242 -14.9876
  2323 135.917 0.647611 4.20328
  2324 135.917 0.645760 -4.20473
  2325 208.860 12.5554 12.7935
  2326 106.194 11.5143 12.8087
  2327 106.197 11.5137 -12.8061
  2328 175.487 20.4057 11.5633
  2329 137.389 -1.56178 5.47071
  2330 137.391 -1.56642 -5.47253
  2331 135.324 0.0237110 4.97792
  2332 135.325 0.0208564 -4.97980
  2333 112.987 9.30406 -14.8459
  2334 112.987 9.30423 14.8487
  2335 122.474 7.09635 21.7491
  2336 122.469 7.09849 -21.7463
  2337 90.3546 2.21744 -27.1515
  2338 90.3654 2.20690 27.1606
  2339 230.378 10.3221 17.9849
  2340 249.812 29.7913 -51.9062
  2341 200.301 -4.06849 19.5253
  2342 171.648 2.00368 -15.5495
  2343 113.153 3.23085 -12.4157
  2344 113.159 3.23635 12.4125
  2345 155.092 -0.155076 -0.103837
  2346 155.092 -0.154888 0.104731
  2347 141.576 1.56425 -7.25228
  2348 132.392 0.119242 1.64776
  2349 132.384 0.119235 -1.64744
  2350 121.231 1.23893 10.6640
  2351 121.225 1.23493 -10.6680
  2352 156.046 1.37856 -15.9617
  2353 156.055 1.37717 15.9611
  2354 158.516 1.09033 -12.9984
  2355 149.496 -2.67994 -6.58625
  2356 149.496 -2.68109 6.59486
  2357 118.850 1.48619 -5.15072
  2358 118.853 1.48643 5.15219
  2359 347.141 19.3549 49.4089
  2360 113.595 7.36155 4.53352
  2361 113.598 7.36074 -4.53230
  2362 148.367 -2.30003 -0.653542
  2363 148.364 -2.29682 0.657220
  2364 91.4964 8.23175 12.7635
  2365 91.4873 8.23088 -12.7747
  2366 129.124 3.84535 14.0253
  2367 129.118 3.84561 -14.0233
  2368 249.934 18.5808 55.0034
  2369 34.7508 -34.3411 23.9515
  2370 34.8542 -34.5914 -23.8335
  2371 143.139 2.10144 13.3245
  2372 143.131 2.10199 -13.3235
  2373 115.523 5.45555 -5.89579
  2374 115.523 5.45632 5.89747
  2375 147.127 -7.41099 -2.39686
  2376 147.118 -7.40344 2.40125
  2377 99.5625 12.4368 2.20031
  2378 99.5691 12.4363 -2.20112
  2379 139.782 1.89853 -11.7164
  2380 139.789 1.89822 11.7177
  2381 222.913 19.9307 -53.3475
  2382 169.431 -15.8262 -0.653671
  2383 169.645 -14.5820 1.93358
  2384 150.920 0.995230 9.16636
  2385 204.693 -2.61800 -7.60317
  2386 204.693 -2.61973 7.59080
  2387 160.775 -14.6841 0.920261
  2388 160.742 -14.6431 -0.952121
  2389 134.283 -4.17129 -9.17704
  2390 134.282 -4.16343 9.17169
  2391 168.810 -9.36015 29.7296
  2392 170.424 -5.86996 -9.62658
  2393 114.075 6.90968 7.54899
  2394 114.076 6.90895 -7.54714
  2395 187.060 -5.83956 -13.4015
  2396 187.075 -5.84454 13.3890
  2397 142.502 3.40190 -21.1825
  2398 142.510 3.39924 21.1826
  2399 123.896 3.46739 10.6911
  2400 123.892 3.46722 -10.6890
  2401 195.297 -0.0568517 -8.80920
  2402 167.189 14.8154 -12.4007
  2403 148.853 1.67519 -11.4405
  2404 20.8125 -73.6294 -9.89073
  2405 21.7204 -70.9035 10.9867
  2406 151.443 5.50130 -11.3311
  2407 226.574 -0.444125 -2.36393
  2408 226.555 -0.444270 2.35837
  2409 127.398 -0.897495 -10.0006
  2410 127.402 -0.892719 9.99555
  2411 183.237 -1.24620 15.0593
  2412 183.229 -1.24271 -15.0663
  2413 123.706 4.04403 3.75863
  2414 123.703 4.04375 -3.76015
  2415 122.011 2.44978 -8.02659
  2416 122.014 2.45003 8.02840
  2417 116.102 4.71699 6.44749
  2418 116.102 4.71631 -6.44568
  2419 210.373 14.2513 -8.22837
  2420 131.131 2.35267 1.64825
  2421 178.778 34.2509 -0.954726
  2422 113.526 7.63742 9.53362
  2423 113.527 7.63677 -9.53154
  2424 320.406 21.7660 -10.8143
  2425 231.239 -0.690751 -0.0170552
  2426 231.205 -0.688853 0.0141559
  2427 174.293 6.40994 12.7032
  2428 214.386 -0.462186 -4.56301
  2429 214.382 -0.462729 4.55873
  2430 165.807 0.748101 -17.8160
  2431 165.816 0.745510 17.8129
  2432 64.7003 -1.96153 -22.7924
  2433 64.7312 -1.96785 22.7611
  2434 128.181 0.651786 -5.04608
  2435 128.188 0.651827 5.04712
  2436 180.639 0.879930 -17.8949
  2437 103.623 12.3088 10.4238
  2438 103.627 12.3079 -10.4219
  2439 212.130 -3.41450 -11.0676
  2440 212.119 -3.41788 11.1370
  2441 221.557 43.8745 -0.583309
  2442 147.909 0.210510 -2.83005
  2443 147.920 0.210502 2.83035
  2444 287.491 26.3313 0.622997
  2445 117.260 3.30922 6.40533
  2446 117.259 3.30873 -6.40353
  2447 149.481 -0.249444 -2.08950
  2448 149.466 -0.249882 2.09395
  2449 119.670 4.09597 9.48346
  2450 119.667 4.09560 -9.48135
  2451 142.836 2.09127 9.44067
  2452 126.437 0.0164767 -1.06534
  2453 126.444 0.0164818 1.06559
  2454 132.781 -0.0410230 6.09852
  2455 132.781 -0.0443969 -6.10127
  2456 170.044 -5.64089 9.77530
  2457 136.523 0.0728284 -1.83671
  2458 136.532 0.0728197 1.83703
  2459 121.063 0.589451 0.100727
  2460 184.109 0.834660 18.9910
  2461 142.939 0.371117 -9.19802
  2462 143.034 0.396224 9.25644
  2463 151.870 -9.45487 -0.945050
  2464 151.878 -9.45861 0.954576
  2465 121.565 -0.190623 12.4840
  2466 121.558 -0.196233 -12.4884
  2467 88.4101 13.7796 2.10500
  2468 88.4218 13.7767 -2.10618
  2469 118.912 0.535758 -3.33199
  2470 118.916 0.535854 3.33298
  2471 95.0885 8.30734 24.4315
  2472 95.0850 8.31326 -24.4227
  2473 233.572 5.23582 -20.8782
  2474 150.133 13.7898 -2.82858
  2475 194.082 -17.8400 -1.15675
  2476 194.055 -17.9121 1.09760
  2477 114.892 6.71924 3.18095
  2478 114.894 6.71839 -3.18000
  2479 148.938 1.60298 11.5222
  2480 317.640 28.1462 -9.34699
  2481 113.022 9.53403 19.0051
  2482 113.021 9.53502 -19.0016
  2483 142.180 6.87375 -5.26581
  2484 127.230 4.32229 33.3124
  2485 144.138 -2.12762 26.7515
  2486 144.123 -2.12137 -26.7539
  2487 240.982 7.54946 20.0280
  2488 112.795 10.3787 -34.0295
  2489 152.623 2.89516 12.2322
  2490 156.431 -7.90824 7.92539
  2491 156.438 -7.90353 -7.92103
  2492 145.215 6.90069 7.72407
  2493 201.171 -11.2396 3.21396
  2494 201.160 -11.1962 -3.23142
  2495 175.682 -22.1542 -10.0094
  2496 175.831 -22.1601 9.99485
  2497 158.153 -4.79336 -23.6231
  2498 158.169 -4.79989 23.6189
  2499 110.836 8.80322 0.333409
  2500 110.831 8.80326 -0.333691
  2501 66.7278 10.0980 2.65348
  2502 66.7548 10.0909 -2.64560
  2503 138.566 1.35951 -9.36172
  2504 138.574 1.35937 9.36289
  2505 162.997 -24.5717 18.4240
  2506 405.431 10.7678 -25.2092
  2507 126.686 -0.655900 29.0931
  2508 126.672 -0.648994 -29.0930
  2509 244.165 12.9134 -14.4549
  2510 150.099 -1.11928 -0.479301
  2511 150.098 -1.11749 0.482187
  2512 175.472 -3.61818 -18.2475
  2513 175.486 -3.62407 18.2396
  2514 104.571 11.7602 17.7898
  2515 104.573 11.7608 -17.7856
  2516 128.781 -23.4081 32.6566
  2517 149.767 1.26501 11.8395
  2518 149.758 1.26555 -11.8390
  2519 136.506 -8.98573 -12.4842
  2520 136.498 -8.97076 12.4752
  2521 321.427 22.3754 8.18394
  2522 86.2438 8.31070 22.2704
  2523 86.2440 8.31616 -22.2590
  2524 141.111 -20.5794 22.8190
  2525 119.182 0.0264202 0.799869
  2526 119.177 0.0264171 -0.799630
  2527 201.182 -0.838458 -22.8014
  2528 117.268 4.73556 -8.51265
  2529 117.269 4.73608 8.51471
  2530 111.738 9.17804 11.3733
  2531 111.739 9.17745 -11.3710
  2532 161.535 0.0688481 3.30807
  2533 161.523 0.0689055 -3.30800
  2534 132.265 -0.536733 6.90718
  2535 132.265 -0.540745 -6.91051
  2536 183.637 8.77778 -7.13850
  2537 228.430 -0.497637 -1.64874
  2538 228.407 -0.497404 1.64327
  2539 156.192 -4.13708 -11.1872
  2540 156.211 -4.15170 11.1871
  2541 139.973 0.607391 6.30385
  2542 139.964 0.607421 -6.30300
  2543 120.205 5.13419 11.8251
  2544 120.203 5.13392 -11.8228
  2545 213.663 18.9799 -7.82118
  2546 143.429 -5.82691 4.50637
  2547 143.436 -5.83514 -4.50531
  2548 162.445 -24.3398 -23.1306
  2549 171.707 5.02283 -12.9780
  2550 169.236 -21.6004 18.5906
  2551 155.097 -14.1793 1.83224
  2552 155.095 -14.1502 -1.80764
  2553 200.927 -2.64139 -18.9076
  2554 132.686 1.36823 4.48129
  2555 132.685 1.36671 -4.48310
  2556 139.361 0.00174441 -6.78532
  2557 139.280 0.101984 6.76566
  2558 60.9694 -23.9495 25.3834
  2559 60.9282 -23.9396 -25.3842
  2560 200.466 41.1117 -1.61112
  2561 154.295 -1.68239 -12.0773
  2562 154.303 -1.70707 12.0392
  2563 19.4753 -43.2982 -6.43982
  2564 19.5377 -43.2440 6.82517
  2565 119.912 5.44252 2.20315
  2566 119.909 5.44278 -2.20394
  2567 125.385 0.934148 5.46575
  2568 125.379 0.934048 -5.46452
  2569 201.102 -2.59126 18.6794
  2570 111.710 9.68298 20.6081
  2571 111.709 9.68469 -20.6042
  2572 174.877 -17.4739 4.16477
  2573 97.4251 13.1060 15.2550
  2574 97.4295 13.1057 -15.2506
  2575 138.025 3.69442 5.36883
  2576 130.865 1.11257 4.94070
  2577 158.400 -19.0917 7.10191
  2578 159.323 -18.6319 -5.80315
  2579 123.745 0.0476212 1.08144
  2580 123.739 0.0476202 -1.08116
  2581 165.294 -19.8980 6.31258
  2582 108.990 9.62509 3.80567
  2583 108.994 9.62457 -3.80500
  2584 121.531 5.67023 13.7537
  2585 121.528 5.67017 -13.7513
  2586 208.617 11.2575 -15.7925
  2587 140.548 -6.37297 27.7342
  2588 140.531 -6.36820 -27.7350
  2589 115.659 -0.173591 -29.8978
  2590 115.673 -0.181376 29.8994
  2591 223.529 -0.843210 -3.97472
  2592 223.542 -0.849856 3.99363
  2593 166.673 27.8069 0.192967
  2594 120.739 6.46148 15.1406
  2595 120.737 6.46157 -15.1380
  2596 145.792 -5.83368 2.83920
  2597 145.799 -5.84076 -2.83602
  2598 133.326 -2.56052 8.38269
  2599 133.327 -2.56667 -8.38727
  2600 341.560 23.9163 2.45598
  2601 56.8552 -7.29342 20.3209
  2602 56.8440 -7.27291 -20.2958
  2603 142.453 -0.549437 -3.24064
  2604 142.452 -0.547074 3.24058
  2605 131.845 0.00378082 3.11583
  2606 344.079 18.7122 -51.3322
  2607 155.035 -10.0120 -3.91756
  2608 155.036 -10.0135 3.92838
  2609 211.194 -5.62316 -10.2016
  2610 211.230 -5.65187 10.2359
  2611 185.876 0.0816594 3.61441
  2612 185.866 0.0817398 -3.61514
  2613 194.775 -0.441351 9.34139
  2614 143.536 7.45996 5.37760
  2615 136.174 0.883512 6.57528
  2616 163.575 6.36252 -13.4038
  2617 96.3545 12.3201 18.4545
  2618 96.3575 12.3211 -18.4484
  2619 116.742 4.41031 7.35531
  2620 116.741 4.40973 -7.35339
  2621 177.543 -0.0976723 -3.74926
  2622 177.554 -0.0977485 3.74884
  2623 112.003 8.30991 7.05039
  2624 112.005 8.30917 -7.04878
  2625 178.026 30.9228 -5.85615
  2626 210.878 -0.713524 -7.09841
  2627 210.864 -0.745138 7.16034
  2628 208.676 -3.81054 14.1417
  2629 208.692 -3.79172 -14.0751
  2630 140.711 0.0607789 3.35589
  2631 140.712 0.0591059 -3.35652
  2632 204.816 -4.77624 -5.00404
  2633 204.816 -4.77294 4.98945
  2634 300.771 23.6610 -0.448380
  2635 57.8986 -29.4667 -8.06458
  2636 57.1082 -30.1081 7.89900
  2637 218.394 -7.35548 -17.1369
  2638 218.577 -7.12227 17.1454
  2639 119.355 1.59871 -5.50318
  2640 119.358 1.59895 5.50469
  2641 122.946 3.77124 5.37246
  2642 122.943 3.77023 -5.37462
  2643 198.922 -18.3177 3.63233
  2644 198.859 -18.1914 -3.68375
  2645 207.896 31.4983 59.0662
  2646 161.240 -9.90316 25.4818
  2647 163.700 19.4695 9.46436
  2648 131.835 5.13774 -19.4067
  2649 131.841 5.13622 19.4085
  2650 288.371 28.6759 36.8913
  2651 78.2756 12.5776 -1.51359
  2652 78.2953 12.5711 1.51149
  2653 138.409 5.96587 -0.962003
  2654 125.782 -2.21708 12.4561
  2655 125.776 -2.22375 -12.4614
  2656 202.852 0.0498348 -4.50275
  2657 202.857 0.0495305 4.50061
  2658 83.4135 10.9696 -17.7986
  2659 83.4073 10.9676 17.8092
  2660 104.676 11.4923 5.38076
  2661 104.681 11.4917 -5.38007
  2662 148.039 -4.61009 0.376533
  2663 148.044 -4.61513 -0.371632
  2664 154.981 0.681699 -12.7236
  2665 151.137 1.89200 16.4144
  2666 151.128 1.89336 -16.4146
  2667 212.941 -12.9102 7.55720
  2668 213.235 -12.5805 -7.45725
  2669 220.149 -0.253278 -3.36722
  2670 220.140 -0.253630 3.36280
  2671 153.848 -23.7538 -20.2679
  2672 153.911 -23.7633 20.3345
  2673 216.202 -3.33739 1.62668
  2674 216.182 -3.32503 -1.62825
  2675 122.829 1.36358 6.25165
  2676 122.824 1.36345 -6.25017
  2677 177.912 -16.7633 -12.6908
  2678 149.144 -0.893528 3.82109
  2679 149.153 -0.892210 -3.81411
  2680 104.742 11.7543 -8.85782
  2681 104.738 11.7551 8.85938
  2682 144.570 -2.05360 2.73488
  2683 144.573 -2.05751 -2.73350
  2684 119.027 3.48544 -8.14990
  2685 119.029 3.48584 8.15188
  2686 100.840 10.8833 -3.11081
  2687 100.846 10.8842 3.10834
  2688 120.801 0.491103 -1.05727
  2689 202.771 -13.6933 8.48547
  2690 202.727 -13.6168 -8.50086
  2691 139.184 -5.10768 6.95005
  2692 139.189 -5.11632 -6.95282
  2693 248.271 5.74446 4.16308
  2694 151.207 15.6377 1.17237
  2695 142.837 -13.9634 12.7726
  2696 142.984 -13.8442 -12.7643
  2697 113.451 7.71558 2.60743
  2698 113.454 7.71486 -2.60673
  2699 157.392 -11.8216 -22.4532
  2700 157.419 -11.8276 22.4563
  2701 189.582 3.14227 -28.1158
  2702 109.007 10.2283 10.9138
  2703 109.009 10.2277 -10.9117
  2704 113.385 8.54024 12.7492
  2705 113.386 8.53982 -12.7467
  2706 148.560 1.76583 14.2127
  2707 148.551 1.76668 -14.2123
  2708 146.091 2.77674 -10.5215
  2709 141.418 -20.4861 -21.9473
  2710 176.200 2.14596 17.1038
  2711 133.820 4.76133 21.3908
  2712 133.813 4.76373 -21.3894
  2713 258.119 18.3477 -9.10641
  2714 189.147 -21.5477 -2.31552
  2715 189.272 -21.4702 2.17276
  2716 114.977 6.24233 4.68372
  2717 114.979 6.24148 -4.68235
  2718 163.495 5.35339 13.5305
  2719 283.158 31.2599 -38.9897
  2720 136.891 0.664483 -6.85741
  2721 149.995 -4.72261 -2.08588
  2722 149.999 -4.72665 2.09215
  2723 199.062 -0.510279 -8.37424
  2724 199.066 -0.511357 8.36922
  2725 124.077 2.16247 8.30760
  2726 124.072 2.16232 -8.30582
  2727 135.337 4.08969 2.03224
  2728 111.541 8.45678 4.71926
  2729 111.544 8.45606 -4.71816
  2730 189.424 36.8563 4.16236
  2731 150.932 -0.547187 -0.859726
  2732 150.930 -0.546193 0.861364
  2733 121.512 0.854607 4.78335
  2734 121.507 0.854496 -4.78212
  2735 37.9616 -51.4011 1.17058
  2736 38.0193 -51.4333 -1.22884
  2737 94.3258 13.6145 4.96872
  2738 94.3341 13.6130 -4.96867
  2739 131.703 1.32708 8.11824
  2740 131.696 1.32707 -8.11685
  2741 156.969 9.87124 -11.9287
  2742 141.445 -17.7736 18.8954
  2743 167.908 9.39380 13.0210
  2744 175.973 -11.7419 -15.0594
  2745 176.009 -11.7492 15.0503
  2746 188.421 -2.24801 2.76238
  2747 147.774 0.970901 9.51735
  2748 147.765 0.971176 -9.51667
  2749 161.979 -14.9965 -21.6344
  2750 139.009 3.37231 -16.4553
  2751 139.016 3.37136 16.4566
  2752 154.608 -27.5098 -17.7378
  2753 154.998 -27.5254 17.9926
  2754 188.713 -14.9062 -5.48868
  2755 188.752 -14.8871 5.45853
  2756 203.744 -0.551031 -8.25315
  2757 203.744 -0.552650 8.24595
  2758 106.363 6.43605 10.5426
  2759 106.357 6.43154 -10.5464
  2760 140.800 0.0845705 1.95763
  2761 140.790 0.0845809 -1.95734
  2762 150.382 -3.28911 -3.38525
  2763 150.383 -3.29238 3.39213
  2764 152.940 -21.0579 -14.3228
  2765 103.322 10.8620 1.12054
  2766 103.316 10.8616 -1.12192
  2767 129.621 0.379493 4.03531
  2768 129.614 0.379462 -4.03448
  2769 221.967 -2.07321 10.4603
  2770 116.282 -3.18708 19.0203
  2771 116.271 -3.20100 -19.0205
  2772 154.531 0.410922 -6.99048
  2773 154.542 0.410744 6.99077
  2774 156.627 19.3983 1.95424
  2775 203.081 -9.08910 -14.0897
  2776 139.414 -7.46518 -8.88148
  2777 139.407 -7.45423 8.87668
  2778 208.057 -8.71898 -15.5000
  2779 208.139 -8.73955 15.5236
  2780 134.205 0.371908 4.61630
  2781 134.197 0.371917 -4.61550
  2782 112.343 8.14525 5.97916
  2783 112.346 8.14449 -5.97772
  2784 164.688 -21.0825 -7.25493
  2785 161.799 16.0683 -10.5090
  2786 238.087 5.41940 -15.5543
  2787 115.456 5.50610 -7.07326
  2788 115.455 5.50679 7.07512
  2789 223.208 31.3132 -3.63112
  2790 150.004 -24.1952 -32.1179
  2791 199.502 -0.0341917 -4.16373
  2792 199.509 -0.0344256 4.16216
  2793 190.287 10.0303 11.4918
  2794 118.296 5.98978 -1.16721
  2795 118.300 5.98930 1.16682
  2796 110.103 9.32732 -5.22095
  2797 110.100 9.32799 5.22205
  2798 120.810 1.50159 -5.87888
  2799 120.813 1.50179 5.88038
  2800 93.5876 -28.0391 -39.9119
  2801 211.252 -0.437248 -3.94527
  2802 211.252 -0.437614 3.94231
  2803 223.143 17.5781 5.93295
  2804 122.311 3.15029 9.51623
  2805 122.308 3.15006 -9.51421
  2806 147.489 -0.124022 2.10028
  2807 147.508 -0.123782 -2.09586
  2808 91.4295 -27.9022 40.0411
  2809 154.217 -15.9578 22.3854
  2810 154.186 -15.9538 -22.3728
  2811 138.963 3.21752 -24.2606
  2812 138.972 3.21342 24.2605
  2813 161.107 14.3569 11.2378
  2814 179.332 -15.0059 -4.77574
  2815 100.572 13.0859 -9.38683
  2816 100.567 13.0870 9.38852
  2817 151.307 -1.29940 -1.38408
  2818 151.306 -1.30116 1.38887
  2819 123.359 5.80222 15.6908
  2820 123.356 5.80248 -15.6883
  2821 106.788 8.80141 5.16915
  2822 106.782 8.79973 -5.17121
  2823 87.3871 13.4700 12.6644
  2824 87.3963 13.4687 -12.6586
  2825 179.863 17.3655 -46.5168
  2826 115.127 8.30195 23.6374
  2827 115.123 8.30541 -23.6336
  2828 180.535 0.0235509 -12.4558
  2829 180.543 0.0221686 12.4524
  2830 117.101 8.06096 16.7796
  2831 117.099 8.06131 -16.7766
  2832 128.274 0.208022 2.67693
  2833 110.311 9.35204 -9.32193
  2834 110.310 9.35271 9.32383
  2835 124.303 -4.69240 -15.9408
  2836 124.310 -4.68157 15.9337
  2837 129.522 1.38946 -3.47733
  2838 153.250 -5.57814 -8.43867
  2839 153.258 -5.58056 8.44562
  2840 128.509 1.51419 6.06732
  2841 128.507 1.51200 -6.07010
  2842 118.537 5.26249 10.8028
  2843 118.535 5.26210 -10.8005
  2844 114.743 3.93381 10.5508
  2845 114.737 3.92988 -10.5538
  2846 135.760 4.29372 -23.4763
  2847 135.768 4.29019 23.4770
  2848 214.759 -3.25139 -0.665411
  2849 214.745 -3.24366 0.657650
  2850 116.236 6.63776 1.69639
  2851 116.232 6.63796 -1.69695
  2852 150.192 -14.5696 -7.03477
  2853 150.261 -14.4810 6.87963
  2854 132.255 0.205020 -3.16400
  2855 132.263 0.205025 3.16461
  2856 111.028 10.1282 16.3190
  2857 111.028 10.1283 -16.3159
  2858 151.450 -21.0614 20.8812
  2859 149.841 -21.7439 -20.2893
  2860 155.355 -0.107700 -0.0107259
  2861 155.354 -0.107852 0.0117342
  2862 120.026 2.02707 -6.59757
  2863 120.029 2.02733 6.59926
  2864 185.387 -18.3967 -5.40939
  2865 185.457 -18.3786 5.37283
  2866 109.781 2.19080 -15.6799
  2867 109.786 2.19990 15.6760
  2868 125.634 0.335069 -3.41212
  2869 125.641 0.335105 3.41292
  2870 59.5146 5.03196 -9.23537
  2871 59.5602 5.01793 9.23314
  2872 204.741 -0.901738 23.5342
  2873 111.450 8.20064 -2.31119
  2874 111.455 8.20099 2.31036
  2875 125.096 2.23446 -7.00243
  2876 125.100 2.23661 6.99937
  2877 114.135 6.67778 5.63343
  2878 114.137 6.67698 -5.63191
  2879 125.418 -30.6091 -23.5885
  2880 125.751 -30.1945 22.8099
  2881 162.074 -9.14866 8.24270
  2882 161.990 -9.05723 -8.31552
  2883 86.0035 -6.60561 29.2637
  2884 85.9808 -6.59128 -29.2588
  2885 141.682 4.62749 7.67562
  2886 150.118 -2.17813 4.34105
  2887 150.120 -2.17558 -4.33350
  2888 137.454 -5.30903 8.31251
  2889 137.458 -5.31795 -8.31692
  2890 52.3132 2.83491 -4.25929
  2891 52.2756 2.83954 4.28148
  2892 93.4352 11.2229 20.6232
  2893 93.4370 11.2257 -20.6155
  2894 142.233 0.360192 4.83512
  2895 142.223 0.360213 -4.83449
  2896 151.552 7.78853 10.6562
  2897 199.629 -1.63374 -14.4592
  2898 98.6513 3.98424 -27.8137
  2899 98.6609 3.97532 27.8206
  2900 119.783 3.25429 -8.30843
  2901 119.786 3.25464 8.31040
  2902 201.452 -7.75152 -2.46581
  2903 201.455 -7.73644 2.44923
  2904 148.713 -0.0292835 -11.2640
  2905 134.378 1.13165 -5.96405
  2906 118.021 0.00828401 0.673887
  2907 118.016 0.00828565 -0.673684
  2908 221.034 -8.07345 4.35079
  2909 220.859 -7.97864 -4.05166
  2910 130.559 1.98170 4.45609
  2911 130.557 1.98054 -4.45796
  2912 119.364 1.99985 -6.16280
  2913 119.367 2.00012 6.16445
  2914 126.738 1.88938 8.44223
  2915 126.733 1.88929 -8.44058
  2916 155.654 -17.3475 -6.37202
  2917 155.436 -17.4227 6.50516
  2918 300.038 21.1670 -8.49851
  2919 184.454 4.68272 -18.3361
  2920 136.140 0.171068 -5.81654
  2921 302.751 17.9297 -26.3119
  2922 158.586 21.7994 -1.90916
  2923 259.319 24.0742 1.42141
  2924 187.545 -4.39004 20.8887
  2925 178.754 -5.17656 7.33218
  2926 127.850 0.195753 -2.53609
  2927 115.243 6.28857 8.79895
  2928 115.243 6.28792 -8.79688
  2929 187.580 -19.8741 -8.41089
  2930 188.729 -19.5442 7.67400
  2931 292.104 20.3437 61.1589
  2932 216.922 20.9978 30.6519
  2933 117.076 7.45261 -14.1989
  2934 117.078 7.45277 14.2016
  2935 245.840 30.2279 18.3148
  2936 173.701 -1.83430 -18.3610
  2937 173.713 -1.83922 18.3542
  2938 122.279 0.151293 -2.03715
  2939 122.284 0.151314 2.03767
  2940 139.359 -0.332970 3.94144
  2941 139.360 -0.335528 -3.94229
  2942 147.402 -3.08986 -1.08017
  2943 147.398 -3.08571 1.08383
  2944 127.411 5.93865 20.9960
  2945 127.405 5.94063 -20.9937
  2946 150.396 -3.56689 8.53237
  2947 150.392 -3.56888 -8.52205
  2948 142.917 -3.92273 3.99083
  2949 142.922 -3.92916 -3.98998
  2950 123.065 0.563196 1.78653
  2951 156.678 18.0218 5.59922
  2952 218.261 4.23044 22.5515
  2953 122.930 0.455329 -3.60362
  2954 122.935 0.455385 3.60454
  2955 146.963 4.81544 -10.1232
  2956 124.220 0.834653 5.13376
  2957 124.215 0.834570 -5.13255
  2958 143.635 -0.436730 -2.88245
  2959 143.634 -0.434784 2.88257
  2960 109.933 8.55222 -2.96464
  2961 109.938 8.55299 2.96356
  2962 408.347 11.6749 25.0183
  2963 161.337 0.990799 11.6578
  2964 161.327 0.991485 -11.6583
  2965 131.028 0.728688 -5.79561
  2966 131.035 0.728708 5.79668
  2967 148.740 -0.0600503 11.2847
  2968 125.808 3.98819 12.8060
  2969 125.804 3.98819 -12.8039
  2970 121.502 4.16895 10.9681
  2971 121.499 4.16871 -10.9659
  2972 132.057 -4.28796 -10.8966
  2973 132.058 -4.27995 10.8898
  2974 114.026 6.76290 6.81717
  2975 114.028 6.76214 -6.81545
  2976 188.644 38.4759 0.272859
  2977 66.3771 4.56684 -15.1214
  2978 66.4137 4.55300 15.1053
  2979 140.926 0.983851 -8.60907
  2980 110.707 9.58581 22.2706
  2981 110.705 9.58847 -22.2661
  2982 133.056 0.784069 5.08065
  2983 133.055 0.781804 -5.08275
  2984 185.468 16.7525 47.5886
  2985 130.100 4.10092 15.2693
  2986 130.095 4.10137 -15.2673
  2987 83.6095 -7.98996 -31.2668
  2988 194.117 4.09666 20.7853
  2989 123.402 -6.34153 18.6953
  2990 123.387 -6.34838 -18.7047
  2991 147.047 -0.964318 -5.10449
  2992 147.037 -0.964422 5.11206
  2993 152.068 2.42691 -12.1396
  2994 217.260 4.53595 -22.0261
  2995 126.277 5.84196 18.7304
  2996 126.273 5.84306 -18.7280
  2997 304.350 18.6584 18.0057
  2998 226.101 39.1133 1.48265
  2999 21.9535 -45.8980 -5.64064
  3000 22.0523 -46.0439 5.61590
  3001 152.795 -11.1231 -0.0781454
  3002 152.805 -11.1265 0.0918710
  3003 129.220 1.02349 -6.87105
  3004 129.226 1.02351 6.87239
  3005 242.213 16.0729 13.6103
  3006 80.7021 -0.890138 25.9922
  3007 80.6887 -0.876572 -25.9792
  3008 83.8127 13.9238 5.92286
  3009 83.8264 13.9201 -5.92057
  3010 144.207 9.17177 -3.29727
  3011 174.083 -0.0189613 -16.5680
  3012 174.093 -0.0217662 16.5632
  3013 103.735 10.6409 21.1659
  3014 103.734 10.6433 -21.1604
  3015 170.091 0.277673 12.4470
  3016 262.780 25.1260 -66.4676
  3017 141.775 2.40513 -15.0302
  3018 141.783 2.40435 15.0312
  3019 142.577 3.03570 18.0994
  3020 142.569 3.03723 -18.0987
  3021 137.580 0.669868 6.57316
  3022 137.571 0.669907 -6.57219
  3023 146.975 -1.85056 1.71443
  3024 146.977 -1.85367 -1.71211
  3025 110.195 9.16916 -2.59461
  3026 110.191 9.16964 2.59509
  3027 277.158 15.3548 -23.7985
  3028 119.943 0.328060 2.80672
  3029 119.938 0.328016 -2.80592
  3030 152.294 -0.241152 -0.774160
  3031 152.293 -0.240665 0.775250
  3032 130.966 0.108144 1.30922
  3033 130.958 0.108129 -1.30895
  3034 81.1556 3.85634 19.5369
  3035 81.1406 3.86195 -19.5551
  3036 151.484 -1.36372 -11.6451
  3037 151.534 -1.36445 11.6471
  3038 158.639 0.185223 12.9075
  3039 158.646 0.190969 -2.42838
  3040 158.658 0.190949 2.42846
  3041 209.067 -11.2442 -15.3451
  3042 209.133 -11.2520 15.3920
  3043 118.325 5.79945 11.6310
  3044 118.324 5.79907 -11.6287
  3045 119.292 -0.421809 -14.1628
  3046 119.300 -0.414990 14.1582
  3047 135.040 -0.471800 5.63301
  3048 135.041 -0.475416 -5.63528
  3049 242.192 39.7454 -4.60333
  3050 143.056 -1.06319 -3.17000
  3051 143.054 -1.06025 3.17033
  3052 129.159 5.18955 17.6501
  3053 129.154 5.19042 -17.6480
  3054 262.573 18.1583 8.40738
  3055 73.0784 6.73259 -13.8364
  3056 73.1052 6.72430 13.8231
  3057 109.627 8.07571 -4.77449
  3058 109.633 8.07707 4.77288
  3059 156.952 -15.9006 2.74221
  3060 156.866 -15.9105 -2.79011
  3061 119.856 0.952576 -4.54155
  3062 119.860 0.952715 4.54280
  3063 73.6835 10.4569 13.5491
  3064 73.6964 10.4570 -13.5363
  3065 150.578 -2.20532 3.00994
  3066 150.579 -2.20268 -3.00333
  3067 190.397 10.7373 4.25188
  3068 114.467 -25.1359 37.6120
  3069 141.088 -10.4971 -10.6062
  3070 141.087 -10.4770 10.6158
  3071 144.273 -23.7173 -23.8971
  3072 127.753 1.10434 6.99759
  3073 127.751 1.10158 -7.00087
  3074 150.164 -6.94358 -1.50236
  3075 150.170 -6.94801 1.50910
  3076 61.3009 -9.69979 -28.9609
  3077 61.3175 -9.70723 28.9436
  3078 174.455 0.104945 9.26880
  3079 127.085 1.85766 0.104108
  3080 108.051 9.04866 -1.94607
  3081 108.056 9.04924 1.94512
  3082 86.6318 -14.7448 -30.4372
  3083 86.6654 -14.7578 30.4331
  3084 138.640 4.95882 -4.35538
  3085 150.545 27.9462 -57.6481
  3086 136.497 -27.7621 33.7441
  3087 231.701 -0.534490 -0.807113
  3088 231.738 -0.536719 0.806768
  3089 136.111 0.193623 5.76817
  3090 119.117 5.58616 -2.86944
  3091 119.120 5.58613 2.86842
  3092 164.923 -0.781672 20.8568
  3093 164.912 -0.777212 -20.8618
  3094 163.786 1.02369 -15.5946
  3095 163.795 1.02202 15.5929
  3096 165.388 0.00580357 -2.71382
  3097 165.400 0.00576042 2.71384
  3098 153.359 -0.0262012 -0.433791
  3099 153.356 -0.0261560 0.433832
  3100 11.7005 -100.685 7.49428
  3101 11.9848 -100.628 -7.91194
  3102 124.964 -0.0139999 -1.19843
  3103 124.971 -0.0140078 1.19873
  3104 152.809 -7.06449 24.8181
  3105 152.790 -7.05821 -24.8201
  3106 165.580 0.816774 12.8208
  3107 150.361 5.19178 11.2627
  3108 116.866 3.80824 6.45354
  3109 116.865 3.80768 -6.45173
  3110 247.677 21.8007 -0.611520
  3111 113.296 7.52114 7.89116
  3112 113.297 7.52043 -7.88930
  3113 42.9672 -14.1419 -14.2634
  3114 42.9735 -14.1680 14.3024
  3115 144.824 -0.0675096 -2.45701
  3116 144.823 -0.0663619 2.45697
  3117 135.617 3.13858 15.1389
  3118 135.611 3.13922 -15.1373
  3119 146.190 2.50738 10.5695
  3120 125.483 1.63649 -1.50177
  3121 151.990 -0.150195 -0.864485
  3122 151.988 -0.149795 0.865222
  3123 152.626 -0.604165 0.103099
  3124 152.626 -0.603344 -0.100436
  3125 135.354 1.21912 8.39787
  3126 135.346 1.21917 -8.39662
  3127 144.209 -0.788419 5.96842
  3128 144.219 -0.794160 -5.96268
  3129 128.286 -2.47493 -11.1623
  3130 128.290 -2.46886 11.1564
  3131 177.378 -7.40262 -6.46126
  3132 141.353 3.89652 -7.79793
  3133 177.608 21.7942 -10.9602
  3134 85.1085 11.4364 -6.25189
  3135 85.1229 11.4331 6.24492
  3136 118.486 1.79867 5.42709
  3137 118.484 1.79839 -5.42553
  3138 124.922 -14.1919 -25.6297
  3139 125.003 -14.1665 25.4492
  3140 141.107 1.10140 8.80198
  3141 118.803 1.08863 -4.47979
  3142 118.807 1.08881 4.48108
  3143 196.716 4.74869 -21.0456
  3144 131.446 3.90442 -25.7970
  3145 131.456 3.89938 25.7976
  3146 220.026 -1.49545 -2.45211
  3147 220.009 -1.49420 2.44324
  3148 70.9759 5.56539 18.7684
  3149 70.9796 5.57209 -18.7505
  3150 35.1841 -11.6327 0.0954091
  3151 35.1091 -11.6273 -0.0443348
  3152 189.616 -5.91512 7.06741
  3153 221.119 -4.15046 -9.24521
  3154 140.304 -25.0328 28.3874
  3155 98.1018 1.30965 -20.4762
  3156 98.1041 1.31619 20.4594
  3157 218.224 -0.840589 -4.40057
  3158 218.212 -0.841228 4.39166
  3159 158.479 0.278968 6.64174
  3160 158.468 0.279134 -6.64163
  3161 120.644 0.0540900 -0.965978
  3162 120.649 0.0541043 0.966257
  3163 141.342 -1.21719 3.73244
  3164 141.344 -1.22069 -3.73259
  3165 200.355 -1.31299 14.4914
  3166 149.050 -1.22935 1.06519
  3167 149.052 -1.23138 -1.06280
  3168 180.188 -15.8218 9.55879
  3169 148.794 -3.70035 -0.295406
  3170 148.797 -3.70449 0.300558
  3171 114.346 6.24295 6.34333
  3172 114.341 6.24141 -6.34523
  3173 114.570 8.93939 17.5636
  3174 114.568 8.93988 -17.5604
  3175 143.430 1.05241 9.63056
  3176 143.421 1.05264 -9.62962
  3177 151.447 -27.3025 -26.8540
  3178 125.146 2.49490 28.1158
  3179 125.134 2.50166 -28.1147
  3180 166.739 -4.33678 20.9488
  3181 166.722 -4.33019 -20.9547
  3182 154.869 -0.00958993 -0.307759
  3183 154.867 -0.00952389 0.308090
  3184 126.979 0.350623 -3.28707
  3185 126.986 0.350667 3.28783
  3186 172.173 31.2511 1.75416
  3187 146.834 -27.4330 -21.1472
  3188 146.840 -27.3843 21.3338
  3189 155.035 0.272204 12.5680
  3190 184.137 -14.3483 8.94991
  3191 184.094 -14.3508 -8.96953
  3192 171.670 28.1564 6.18738
  3193 153.257 -6.82419 6.76459
  3194 153.252 -6.82159 -6.75913
  3195 115.415 6.71719 1.64300
  3196 115.418 6.71644 -1.64250
  3197 207.324 -1.89419 12.0826
  3198 207.460 -1.83059 -12.0478
  3199 167.254 -7.42143 -9.37341
  3200 99.7494 13.1346 -7.15703
  3201 99.7436 13.1357 7.15795
  3202 155.376 6.71052 -12.3379
  3203 134.882 0.562898 -5.69552
  3204 134.890 0.562883 5.69646
  3205 159.460 4.70603 4.89266
  3206 202.084 3.45266 -22.7653
  3207 139.821 2.41440 13.4494
  3208 139.813 2.41488 -13.4482
  3209 168.335 25.7682 53.6878
  3210 144.529 0.374640 5.29169
  3211 144.520 0.374678 -5.29108
  3212 184.889 32.9128 7.04813
  3213 147.089 4.43830 10.3880
  3214 153.940 11.1839 -9.72416
  3215 152.461 -6.94844 -4.97862
  3216 152.466 -6.95140 4.98492
  3217 108.769 10.3323 9.31309
  3218 108.772 10.3316 -9.31126
  3219 203.293 8.71561 17.0973
  3220 166.254 -6.57282 9.82538
  3221 115.623 -30.5042 -25.5196
  3222 116.550 -30.3935 24.9544
  3223 224.595 -5.33909 -11.6581
  3224 210.006 -5.04010 21.8711
  3225 209.992 -5.19869 -21.9296
  3226 142.526 -4.72192 4.53673
  3227 142.533 -4.72924 -4.53621
  3228 49.9718 -2.09754 -9.56776
  3229 49.9491 -2.10127 9.60196
  3230 151.342 -0.219249 1.53867
  3231 151.354 -0.218863 -1.53523
  3232 118.298 4.11208 -8.61410
  3233 118.300 4.11253 8.61615
  3234 172.759 -15.2054 0.477015
  3235 147.324 -12.9295 7.70609
  3236 147.329 -12.9323 -7.79204
  3237 114.448 7.38839 1.67783
  3238 114.452 7.38770 -1.67733
  3239 129.922 -5.34111 -29.7775
  3240 129.937 -5.34583 29.7768
  3241 150.413 0.0738103 -24.4497
  3242 150.425 0.0685389 24.4469
  3243 130.225 1.80950 2.87176
  3244 150.120 -2.14976 -0.719516
  3245 150.121 -2.15240 0.724211
  3246 149.183 0.380433 5.91667
  3247 149.172 0.380533 -5.91617
  3248 186.507 9.92359 10.0291
  3249 134.174 -1.41057 6.83012
  3250 134.175 -1.41541 -6.83332
  3251 74.5026 -26.9106 -26.8660
  3252 74.5580 -26.8994 26.8564
  3253 115.026 5.89763 6.21956
  3254 115.026 5.89685 -6.21786
  3255 146.848 -1.62470 -8.54037
  3256 146.843 -1.61412 8.54595
  3257 121.504 2.14063 -7.28189
  3258 121.508 2.14085 7.28362
  3259 159.400 -8.63115 -22.7020
  3260 159.422 -8.63849 22.6999
  3261 150.062 -3.65234 2.21257
  3262 150.059 -3.64879 -2.20632
  3263 136.383 1.67535 9.95415
  3264 136.376 1.67547 -9.95281
  3265 143.897 -12.5011 10.3897
  3266 143.845 -12.4415 -10.3633
  3267 150.718 -1.58376 0.564832
  3268 150.718 -1.58175 -0.560610
  3269 218.737 6.64457 21.2781
  3270 160.554 1.14664 13.3368
  3271 160.544 1.14759 -13.3374
  3272 153.541 -0.276430 -0.303931
  3273 153.540 -0.275943 0.305414
  3274 204.914 33.9923 -4.01335
  3275 170.246 -21.2512 9.49189
  3276 152.071 -0.721181 -1.75374
  3277 152.067 -0.722238 1.75833
  3278 127.266 -4.28393 -13.6777
  3279 127.273 -4.27459 13.6719
  3280 174.764 -7.35757 -27.0311
  3281 108.912 10.4128 -12.4215
  3282 108.910 10.4133 12.4239
  3283 25.2955 -73.1797 -4.66864
  3284 29.1025 -64.3159 10.0555
  3285 112.408 -3.08350 -20.9119
  3286 112.402 -3.06300 20.9108
  3287 224.971 -5.03609 11.6846
  3288 119.420 0.133101 -1.58992
  3289 119.425 0.133131 1.59038
  3290 90.1002 11.4838 -5.47938
  3291 90.1112 11.4826 5.47344
  3292 22.1745 -34.2948 -2.05920
  3293 22.1947 -34.3662 2.18051
  3294 187.800 0.0404315 -10.0518
  3295 187.807 0.0394051 10.0483
  3296 149.607 -18.7089 -13.5783
  3297 170.365 -0.666364 -11.9559
  3298 200.517 14.1077 2.88545
  3299 116.220 6.60744 -0.776092
  3300 116.217 6.60815 0.776345
  3301 127.564 -0.0138285 -0.910094
  3302 127.571 -0.0138493 0.910316
  3303 148.340 -0.0232414 -1.72308
  3304 148.338 -0.0226932 1.72318
  3305 128.752 2.58169 10.9853
  3306 128.747 2.58172 -10.9834
  3307 150.212 -9.06383 -0.567822
  3308 150.201 -9.05742 0.575787
  3309 194.970 8.69217 -4.27340
  3310 137.390 -0.462954 -4.70131
  3311 137.388 -0.459743 4.69987
  3312 129.114 1.05241 4.01200
  3313 214.289 -0.633302 -5.41479
  3314 214.283 -0.634329 5.40734
  3315 81.3086 -10.9082 33.4848
  3316 81.3445 -10.8324 -33.5631
  3317 142.153 7.54098 2.96846
  3318 152.767 -3.90565 10.4130
  3319 152.755 -3.91180 -10.3979
  3320 155.145 -8.40597 6.32932
  3321 155.147 -8.40533 -6.32329
  3322 204.777 -15.0365 9.63409
  3323 204.718 -14.9479 -9.63847
  3324 99.2222 -5.61071 23.0082
  3325 233.092 1.64937 -16.5792
  3326 196.099 17.4671 -7.45070
  3327 96.6298 9.48693 23.3459
  3328 96.6279 9.49140 -23.3381
  3329 244.129 12.2036 15.0199
  3330 94.8146 13.9977 8.17506
  3331 94.8222 13.9960 -8.17358
  3332 119.574 4.58154 -10.2959
  3333 119.576 4.58191 10.2981
  3334 197.871 -5.32918 -7.60474
  3335 197.880 -5.32930 7.58956
  3336 113.888 7.20709 -8.81057
  3337 113.888 7.20776 8.81257
  3338 100.871 6.25620 -12.9381
  3339 100.876 6.26204 12.9310
  3340 115.271 7.14791 11.0340
  3341 115.271 7.14739 -11.0317
  3342 173.668 -0.248232 -9.35384
  3343 128.407 3.32916 12.4320
  3344 128.402 3.32925 -12.4301
  3345 143.368 -2.49949 3.30468
  3346 143.372 -2.50419 -3.30370
  3347 186.493 0.0425868 -8.32090
  3348 277.823 16.6388 0.739453
  3349 46.0039 -29.1783 -19.1146
  3350 46.0452 -29.2026 19.1075
  3351 82.3898 6.12647 -22.9313
  3352 82.3917 6.11858 22.9446
  3353 144.480 2.08335 -24.6745
  3354 144.491 2.07862 24.6730
  3355 206.745 -5.12572 -2.66663
  3356 206.741 -5.11773 2.65347
  3357 140.605 2.75085 8.12758
  3358 151.488 -12.1003 -2.38741
  3359 151.459 -12.0878 2.40541
  3360 188.111 10.3936 0.930465
  3361 82.9595 12.7351 13.3684
  3362 82.9698 12.7341 -13.3602
  3363 204.679 -7.93843 0.554600
  3364 204.672 -7.91443 -0.566396
  3365 152.453 -20.5907 13.5336
  3366 186.451 33.4492 -6.40496
  3367 106.705 10.9050 5.29297
  3368 106.709 10.9044 -5.29213
  3369 115.410 7.48446 -12.4851
  3370 115.411 7.48485 12.4875
  3371 121.626 -9.30427 23.1299
  3372 121.663 -9.39824 -23.1317
  3373 222.049 -1.71178 -0.978878
  3374 222.028 -1.70841 0.972138
  3375 166.752 0.167895 -18.7540
  3376 166.762 0.164639 18.7500
  3377 189.730 -9.56620 -9.01962
  3378 189.753 -9.56436 9.00145
  3379 149.679 -0.549975 -1.30271
  3380 149.677 -0.548882 1.30390
  3381 108.307 7.87411 -25.6726
  3382 108.313 7.86881 25.6777
  3383 178.590 -6.92549 16.4792
  3384 178.571 -6.91854 -16.4885
  3385 41.7024 -48.4577 -12.6841
  3386 41.6839 -48.4001 12.6423
  3387 118.126 0.0702237 -1.24959
  3388 118.131 0.0702201 1.24998
  3389 183.670 11.8130 -11.4795
  3390 115.887 4.93137 6.08850
  3391 115.888 4.93065 -6.08677
  3392 117.745 2.52473 -6.00586
  3393 117.747 2.52514 6.00758
  3394 100.828 6.45493 -26.5900
  3395 100.835 6.44753 26.5970
  3396 151.856 0.00781838 -0.876713
  3397 154.061 -0.00965975 0.341939
  3398 151.853 0.00794510 0.876764
  3399 154.064 -0.00970672 -0.341844
  3400 162.270 -16.9921 1.77676
  3401 162.144 -17.0329 -1.63430
  3402 105.460 4.86707 -13.6441
  3403 105.466 4.87390 13.6389
  3404 111.422 -19.5624 30.3056
  3405 111.416 -19.5742 -30.3273
  3406 168.501 0.275485 10.5259
  3407 168.492 0.276116 -10.5270
  3408 120.934 0.153114 1.25578
  3409 148.607 -9.84137 2.79765
  3410 148.624 -9.85170 -2.79184
  3411 134.828 2.59904 13.0917
  3412 134.821 2.59938 -13.0901
  3413 150.633 -2.00452 1.49071
  3414 150.633 -2.00215 -1.48536
  3415 379.930 14.4916 46.9408
  3416 122.199 1.06480 -5.41886
  3417 122.203 1.06492 5.42021
  3418 125.696 4.86625 14.8495
  3419 125.692 4.86645 -14.8472
  3420 41.1064 -9.62138 -7.72967
  3421 41.0793 -9.63383 7.77788
  3422 117.870 4.98120 6.00895
  3423 117.865 4.97995 -6.01101
  3424 66.7165 9.34099 -3.61970
  3425 66.7488 9.33035 3.62074
  3426 235.781 5.05531 16.9597
  3427 162.611 3.42348 -11.1457
  3428 146.066 -2.99960 1.99558
  3429 146.069 -3.00412 -1.99295
  3430 126.183 -10.0237 20.8868
  3431 126.250 -10.1974 -20.8830
  3432 118.733 6.53931 13.5484
  3433 118.732 6.53911 -13.5459
  3434 152.100 1.48563 14.5146
  3435 152.091 1.48660 -14.5146
  3436 209.892 -6.52546 5.49638
  3437 209.868 -6.49103 -5.49059
  3438 120.649 4.06061 -6.44417
  3439 120.653 4.06205 6.44179
  3440 103.785 -2.07980 -23.1464
  3441 103.789 -2.06777 23.1207
  3442 102.390 2.00563 -18.3368
  3443 102.392 2.01635 18.3260
  3444 296.787 26.6667 -0.0208132
  3445 46.0763 -41.6735 27.3212
  3446 230.141 -0.374001 1.94876
  3447 230.108 -0.371307 -1.94261
  3448 258.924 9.66483 3.63856
  3449 135.952 -1.87988 6.24938
  3450 135.954 -1.88503 -6.25200
  3451 121.242 0.329830 -2.96488
  3452 121.248 0.329872 2.96568
  3453 118.818 2.27370 -6.33868
  3454 118.821 2.27403 6.34039
  3455 51.9285 -0.731582 -12.7900
  3456 51.9904 -0.744312 12.7869
  3457 188.138 -1.71156 13.8698
  3458 188.130 -1.70811 -13.8782
  3459 88.9073 -3.67790 -27.8837
  3460 88.9000 -3.68813 27.8799
  3461 136.631 2.02855 6.66986
  3462 108.606 10.8364 18.0899
  3463 108.606 10.8370 -18.0862
  3464 130.797 0.505793 4.33571
  3465 145.038 -0.804253 -8.63948
  3466 145.034 -0.796581 8.64179
  3467 164.476 -1.33372 -12.5452
  3468 145.947 0.0204920 1.85211
  3469 145.936 0.0204955 -1.85187
  3470 113.670 7.20952 5.23127
  3471 113.672 7.20870 -5.22989
  3472 205.309 -9.82169 6.43652
  3473 205.281 -9.77175 -6.43766
  3474 131.305 2.22819 -2.86256
  3475 110.858 9.17557 8.48486
  3476 110.860 9.17484 -8.48307
  3477 196.719 -0.150788 -8.04780
  3478 196.723 -0.151784 8.04373
  3479 98.3097 -1.02056 -29.9800
  3480 98.3256 -1.03089 29.9842
  3481 94.6388 -2.55237 25.8314
  3482 94.6321 -2.53967 -25.8463
  3483 136.573 3.99387 19.1130
  3484 136.566 3.99550 -19.1118
  3485 124.851 1.27316 2.92566
  3486 150.811 11.4068 7.60552
  3487 121.801 4.80181 2.87484
  3488 121.798 4.80191 -2.87594
  3489 118.645 0.341283 2.69432
  3490 118.641 0.341215 -2.69350
  3491 63.3442 -13.7785 24.0779
  3492 131.117 0.465413 -4.29343
  3493 131.124 0.465447 4.29426
  3494 111.469 9.06339 -10.2143
  3495 111.468 9.06406 10.2164
  3496 129.262 1.82551 5.35994
  3497 129.260 1.82380 -5.36232
  3498 134.581 1.02492 4.26691
  3499 134.581 1.02336 -4.26850
  3500 134.253 -0.0167871 2.47264
  3501 134.191 -0.0162689 -2.48584
  3502 174.547 -13.6794 -1.57669
  3503 178.700 -23.4473 -9.00059
  3504 179.296 -23.5987 8.65545
  3505 147.358 11.8809 2.11067
  3506 115.560 5.62447 7.63689
  3507 115.560 5.62380 -7.63495
  3508 64.2512 -11.4333 25.6306
  3509 64.2241 -11.4115 -25.6158
  3510 145.239 5.13708 9.11130
  3511 133.712 3.47141 14.5783
  3512 133.706 3.47187 -14.5766
  3513 148.188 -0.231687 1.70992
  3514 148.190 -0.232575 -1.70938
  3515 92.2492 9.76402 -9.43484
  3516 92.2584 9.76468 9.42660
  3517 101.331 12.8358 13.2995
  3518 101.335 12.8352 -13.2964
  3519 127.968 5.35171 -24.4933
  3520 127.976 5.34755 24.4949
  3521 167.600 -22.8553 -12.6994
  3522 114.880 6.05812 6.72300
  3523 114.880 6.05738 -6.72123
  3524 49.7492 -38.5399 -29.7797
  3525 123.283 4.28422 12.0701
  3526 123.280 4.28409 -12.0679
  3527 115.954 4.99527 -6.84622
  3528 115.954 4.99593 6.84806
  3529 344.893 24.2807 -4.08535
  3530 108.912 6.33456 26.9737
  3531 108.905 6.34112 -26.9686
  3532 166.321 23.8500 7.25157
  3533 233.101 1.46782 16.8780
  3534 115.002 -0.783537 -16.8596
  3535 115.011 -0.773173 16.8569
  3536 132.433 2.24160 -11.0950
  3537 132.439 2.24149 11.0966
  3538 212.365 -8.13386 19.3282
  3539 212.331 -8.26370 -19.2681
  3540 143.346 0.0445751 -2.72473
  3541 143.345 0.0458698 2.72451
  3542 266.273 11.9989 -0.828029
  3543 116.135 6.21223 10.3349
  3544 116.135 6.21170 -10.3327
  3545 125.518 1.17912 6.41250
  3546 125.513 1.17902 -6.41111
  3547 139.898 -11.9899 -27.2219
  3548 139.914 -11.9902 27.2269
  3549 145.796 -0.221848 -2.26466
  3550 145.794 -0.220593 2.26494
  3551 117.388 6.16813 -2.73970
  3552 117.392 6.16815 2.73878
  3553 143.246 0.0196659 -2.12311
  3554 143.217 0.0213592 2.12660
  3555 418.271 8.99214 -9.66105
  3556 150.223 -3.66071 -7.45539
  3557 150.226 -3.66149 7.46424
  3558 153.414 0.604569 7.72741
  3559 126.888 0.0318389 9.16700
  3560 126.885 0.0278579 -9.17143
  3561 116.185 5.46358 -8.53834
  3562 116.185 5.46418 8.54040
  3563 129.802 -27.8485 -25.6001
  3564 129.696 -27.7179 25.6214
  3565 90.2296 12.8391 -1.14679
  3566 90.2404 12.8372 1.14360
  3567 119.763 1.26874 -5.16540
  3568 119.767 1.26892 5.16680
  3569 159.817 0.0869843 -21.3957
  3570 159.829 0.0828072 21.3919
  3571 133.302 -21.5167 -28.6503
  3572 109.828 9.64130 7.34343
  3573 109.831 9.64056 -7.34191
  3574 211.774 -1.91367 -5.96288
  3575 211.768 -1.91417 5.95155
  3576 174.361 15.4269 -12.5777
  3577 87.8552 -29.0627 38.7619
  3578 111.882 9.55826 -13.4307
  3579 111.882 9.55865 13.4333
  3580 139.510 1.09495 6.94568
  3581 150.033 -22.2563 18.2058
  3582 150.825 8.91382 -9.92682
  3583 91.4021 1.40477 -22.1383
  3584 91.4093 1.40178 22.1188
  3585 151.739 -0.0959920 -0.970613
  3586 151.737 -0.0956998 0.971025
  3587 149.282 11.6914 -5.95443
  3588 123.176 2.05636 -7.78781
  3589 123.180 2.05654 7.78955
  3590 167.164 8.83882 -13.4564
  3591 148.049 8.37314 -7.90904
  3592 140.840 2.75324 -8.29739
  3593 111.059 9.99423 15.4660
  3594 111.060 9.99412 -15.4630
  3595 120.131 5.12456 -3.68916
  3596 120.135 5.12479 3.68779
  3597 166.062 19.5922 -10.5940
  3598 118.525 0.0410445 0.567583
  3599 118.520 0.0410492 -0.567413
  3600 150.364 -2.85819 -4.41522
  3601 150.365 -2.86116 4.42270
  3602 95.4839 13.1133 -1.58607
  3603 95.4757 13.1144 1.58463
  3604 139.468 4.01351 20.6005
  3605 139.460 4.01579 -20.5999
  3606 87.2415 14.2751 -5.30983
  3607 87.2295 14.2784 5.31090
  3608 146.569 -1.32559 -1.92060
  3609 146.567 -1.32295 1.92231
  3610 142.219 0.457974 26.1038
  3611 142.206 0.463816 -26.1057
  3612 150.618 -1.64223 3.23240
  3613 150.620 -1.64006 -3.22567
  3614 178.450 1.34376 10.6149
  3615 95.7694 11.7191 -4.10368
  3616 95.7775 11.7192 4.09958
  3617 147.397 -1.01938 -1.75182
  3618 147.395 -1.01728 1.75339
  3619 154.600 -11.1347 -1.63074
  3620 154.604 -11.1363 1.64417
  3621 124.442 2.97409 6.15095
  3622 124.439 2.97257 -6.15356
  3623 145.322 -22.6778 -23.3674
  3624 145.335 -22.6578 23.4132
  3625 164.163 -2.83501 11.9383
  3626 125.108 0.111021 -2.30660
  3627 125.114 0.111035 2.30715
  3628 107.668 7.15856 -8.23354
  3629 107.674 7.16165 8.23075
  3630 158.707 16.9530 -8.23276
  3631 246.038 36.8153 -12.7154
  3632 157.310 0.909723 12.0051
  3633 157.300 0.910380 -12.0053
  3634 73.5090 -39.1970 19.9892
  3635 73.3473 -39.2757 -19.9840
  3636 149.959 -0.159982 -1.34326
  3637 149.957 -0.159420 1.34374
  3638 146.959 1.36717 -11.5284
  3639 146.968 1.36674 11.5291
  3640 129.355 0.237427 2.91129
  3641 129.348 0.237409 -2.91066
  3642 123.475 0.106083 -1.96064
  3643 123.481 0.106087 1.96115
  3644 119.500 0.247370 2.26800
  3645 119.495 0.247324 -2.26734
  3646 126.229 1.03931 -3.72753
  3647 153.018 0.394767 -7.95921
  3648 214.784 10.1396 -19.0797
  3649 91.3464 13.8048 12.4571
  3650 91.3542 13.8035 -12.4528
  3651 224.031 16.7415 10.0721
  3652 101.859 12.5010 15.3815
  3653 101.863 12.5008 -15.3778
  3654 223.854 21.9068 -26.3000
  3655 128.010 1.00098 6.37273
  3656 128.004 1.00093 -6.37144
  3657 127.276 0.496219 4.45375
  3658 127.269 0.496189 -4.45278
  3659 152.358 -13.6783 -3.69363
  3660 152.330 -13.6658 3.74520
  3661 116.857 6.49329 0.910933
  3662 116.853 6.49372 -0.911230
  3663 156.538 -22.8327 -15.3948
  3664 214.144 24.1834 61.5075
  3665 111.386 6.05973 -8.66977
  3666 111.391 6.06274 8.66728
  3667 68.9077 -16.7497 -27.3840
  3668 68.9455 -16.7681 27.3898
  3669 140.545 -17.5657 -19.4819
  3670 113.697 6.74540 -5.00500
  3671 113.703 6.74651 5.00348
  3672 90.6809 -19.9530 -30.7314
  3673 90.7222 -19.9574 30.7142
  3674 115.906 4.24472 8.87525
  3675 115.900 4.24193 -8.87799
  3676 199.063 -15.5532 -7.86121
  3677 198.929 -15.0176 7.38015
  3678 148.420 -1.68384 -10.2518
  3679 148.410 -1.65993 10.2578
  3680 147.394 -11.6769 -5.99051
  3681 147.374 -11.6579 5.97790
  3682 130.026 1.42665 8.38986
  3683 130.019 1.42664 -8.38836
  3684 208.464 38.7045 3.41282
  3685 149.386 -11.2095 -3.67104
  3686 149.359 -11.1923 3.67721
  3687 118.815 1.87230 11.3442
  3688 118.808 1.86794 -11.3478
  3689 193.012 0.0703396 -7.04218
  3690 193.018 0.0697969 7.03971
  3691 147.236 -4.03345 1.19974
  3692 147.240 -4.03851 -1.19582
  3693 151.064 -4.54152 -6.50662
  3694 151.068 -4.54425 6.51417
  3695 146.475 11.5424 -2.06682
  3696 101.063 10.0881 -5.68744
  3697 101.069 10.0899 5.68408
  3698 114.574 7.36327 -2.26038
  3699 114.578 7.36338 2.25969
  3700 150.184 -27.0467 27.1301
  3701 125.887 -25.5496 35.3472
  3702 182.654 0.0667283 2.91155
  3703 182.643 0.0667987 -2.91201
  3704 174.715 25.7403 -9.48560
  3705 198.427 -1.02822 22.1268
  3706 191.707 0.158804 3.02214
  3707 191.698 0.158903 -3.02289
  3708 132.424 -18.9501 -26.0401
  3709 130.756 -5.21697 -12.6688
  3710 130.762 -5.20774 12.6610
  3711 115.813 6.83635 -0.0632025
  3712 115.810 6.83690 0.0632215
  3713 189.206 -0.0644481 -10.9291
  3714 189.213 -0.0659346 10.9246
  3715 122.737 -27.7508 38.2116
  3716 78.4331 9.43549 -10.4948
  3717 78.4539 9.42847 10.4843
  3718 96.6318 -4.10056 -30.5296
  3719 96.6507 -4.11212 30.5318
  3720 145.418 -10.1150 -6.50941
  3721 145.403 -10.1105 6.50631
  3722 139.420 -2.84877 5.25225
  3723 139.424 -2.85467 -5.25339
  3724 142.413 -7.59401 -6.69448
  3725 142.403 -7.58356 6.69298
  3726 82.2907 12.7575 -2.79319
  3727 82.3073 12.7525 2.78914
  3728 210.105 -5.82771 2.62143
  3729 210.089 -5.80466 -2.62415
  3730 148.336 -1.12309 4.93036
  3731 148.343 -1.12203 -4.92255
  3732 177.003 6.10351 11.3428
  3733 106.318 10.9445 19.5573
  3734 106.318 10.9458 -19.5529
  3735 228.744 -0.862804 -2.45648
  3736 228.770 -0.866357 2.46594
  3737 120.542 0.107760 -1.77460
  3738 120.547 0.107779 1.77511
  3739 173.989 0.121028 -14.4716
  3740 173.998 0.119300 14.4685
  3741 296.319 18.1946 -10.7518
  3742 112.517 8.18021 -1.47096
  3743 112.513 8.18071 1.47128
  3744 133.756 1.13330 7.50002
  3745 133.748 1.13330 -7.49881
  3746 119.711 -25.1234 -37.2355
  3747 119.426 -1.85136 -15.7008
  3748 119.434 -1.84344 15.6956
  3749 196.344 37.1946 -4.70692
  3750 154.323 -0.113762 0.664896
  3751 154.329 -0.113560 -0.663044
  3752 131.668 -18.5134 25.8711
  3753 156.565 12.9910 10.2446
  3754 112.491 8.29878 2.51258
  3755 112.494 8.29813 -2.51196
  3756 128.757 0.977553 28.5425
  3757 128.745 0.984328 -28.5422
  3758 121.126 4.09528 5.72640
  3759 121.122 4.09416 -5.72858
  3760 126.047 3.28656 4.06148
  3761 126.045 3.28604 -4.06316
  3762 146.362 -15.7994 12.4395
  3763 146.103 -15.6293 -12.3242
  3764 153.058 3.76394 1.97285
  3765 111.401 8.67255 3.33416
  3766 111.404 8.67190 -3.33340
  3767 86.7719 -1.00812 -22.2532
  3768 111.319 8.84156 -1.29571
  3769 111.315 8.84195 1.29592
  3770 142.030 -9.78784 8.82653
  3771 142.041 -9.79746 -8.83060
  3772 125.297 2.48184 9.39271
  3773 125.292 2.48170 -9.39085
  3774 150.720 -4.08127 -5.66929
  3775 150.723 -4.08439 5.67683
  3776 145.944 -2.26516 2.13627
  3777 145.947 -2.26894 -2.13413
  3778 88.2496 -29.6517 -38.5797
  3779 181.158 0.0550798 7.47791
  3780 181.149 0.0554514 -7.47937
  3781 148.180 2.43845 20.6368
  3782 148.171 2.44106 -20.6376
  3783 141.600 -6.14227 6.16460
  3784 141.608 -6.15156 -6.16582
  3785 140.688 -0.0948060 -2.03635
  3786 140.654 -0.0898953 2.03688
  3787 250.038 22.0249 -3.63719
  3788 116.840 -12.6349 -28.1888
  3789 117.067 -12.4191 27.9193
  3790 161.859 0.276578 -6.97755
  3791 161.870 0.276396 6.97750
  3792 128.715 0.0607716 -1.01522
  3793 128.723 0.0607715 1.01544
  3794 189.594 -7.01022 -11.6248
  3795 189.611 -7.01321 11.6103
  3796 116.449 4.17356 -6.36667
  3797 116.449 4.17420 6.36846
  3798 150.538 -0.290764 -1.21069
  3799 150.537 -0.290070 1.21159
  3800 107.263 10.5319 3.60848
  3801 107.267 10.5314 -3.60802
  3802 115.755 6.20139 -9.60802
  3803 115.755 6.20196 9.61018
  3804 110.592 9.12917 -6.55200
  3805 110.589 9.12989 6.55341
  3806 55.9276 -1.80437 15.7928
  3807 55.9326 -1.79279 -15.7635
  3808 147.626 2.34735 -22.2598
  3809 147.636 2.34388 22.2587
  3810 182.396 -7.95006 2.24679
  3811 286.431 13.6517 20.1319
  3812 132.227 3.05660 13.1170
  3813 132.221 3.05688 -13.1152
  3814 112.801 2.39514 29.3931
  3815 112.788 2.40325 -29.3902
  3816 103.532 -27.7899 27.9359
  3817 103.471 -27.8419 -28.0149
  3818 193.122 -2.54099 -12.4983
  3819 193.129 -2.54492 12.4877
  3820 138.409 -1.18163 4.80282
  3821 138.411 -1.18561 -4.80409
  3822 108.363 11.0730 16.0174
  3823 108.364 11.0730 -16.0141
  3824 138.977 -15.5181 -27.7301
  3825 138.990 -15.5110 27.7413
  3826 156.062 4.37219 12.8076
  3827 144.910 -0.966093 -2.61713
  3828 144.908 -0.963635 2.61788
  3829 197.557 1.51152 22.3716
  3830 160.485 -7.20947 9.47772
  3831 160.320 -7.23147 -9.38935
  3832 155.365 9.27742 11.5688
  3833 120.953 1.07830 -5.12307
  3834 120.957 1.07844 5.12441
  3835 174.427 2.12909 33.4607
  3836 124.324 3.42812 4.84216
  3837 124.321 3.42726 -4.84418
  3838 124.286 4.77623 13.5431
  3839 124.283 4.77625 -13.5408
  3840 151.194 -0.533885 2.40173
  3841 151.202 -0.532935 -2.39646
  3842 149.491 8.89743 8.92193
  3843 173.158 4.05822 14.7732
  3844 152.364 -11.7288 36.3645
  3845 159.085 3.25419 13.2243
  3846 137.099 0.535845 -3.90930
  3847 137.099 0.537580 3.90808
  3848 164.803 -4.94906 -11.0070
  3849 178.212 -15.5946 4.47297
  3850 120.084 3.42377 8.73999
  3851 120.082 3.42343 -8.73799
  3852 120.624 2.29746 7.25930
  3853 120.621 2.29720 -7.25751
  3854 118.834 5.38095 4.46582
  3855 118.829 5.38040 -4.46738
  3856 187.504 -1.92111 -26.4086
  3857 114.019 5.55570 -7.77891
  3858 114.025 5.55800 7.77662
  3859 117.545 5.48409 10.3010
  3860 117.544 5.48364 -10.2987
  3861 112.714 7.80538 4.32750
  3862 112.717 7.80462 -4.32639
  3863 185.324 -9.72351 -11.8069
  3864 185.349 -9.72671 11.7927
  3865 380.523 18.6673 -9.85198
  3866 151.553 -1.14176 -0.770273
  3867 151.552 -1.14329 0.774422
  3868 115.027 6.37580 7.98470
  3869 115.028 6.37510 -7.98274
  3870 126.158 0.560743 4.63762
  3871 126.152 0.560704 -4.63659
  3872 22.0139 -0.531922 -0.000588804
  3873 23.3746 -2.14526 0.0805194
  3874 21.9798 -0.734777 -1.35428
  3875 21.6780 -0.592552 1.41246
  3876 21.7445 -0.0787951 -0.0978138
  3877 21.8043 -0.0880515 0.0631700
  3878 23.7677 -2.51794 -1.62773
  3879 22.4444 -0.303962 -0.00901824
  3880 23.6063 -2.20880 1.82960
  3881 24.7008 -3.84483 -0.00152703
  3882 24.5672 -3.40778 1.19754
  3883 22.4220 -1.08586 -0.446832
  3884 22.3557 -1.04519 0.484582
  3885 22.5012 -1.09872 -2.45871
  3886 20.7138 -0.0217548 -0.825827
  3887 20.7538 0.00666829 0.754305
  3888 21.7552 -0.368195 -0.429092
  3889 24.6524 -3.67643 -1.17752
  3890 22.6111 -0.240990 -0.0303959
  3891 22.5738 -0.300714 0.0307172
  3892 22.2574 -0.917903 2.45117
  3893 21.7168 -0.356067 0.411327
  3894 22.0549 -0.286702 -0.0523668
  3895 22.0460 -0.268369 0.0624916
  3896 21.0156 -0.357991 -1.82328
  3897 20.7682 -0.301868 1.81367
  3898 23.2164 -1.89236 -0.885099
  3899 25.0471 -4.36131 0.519445
  3900 23.0763 -1.78415 1.01633
  3901 25.1213 -4.40847 -0.741912
  3902 24.0019 -2.79275 -0.568471
  3903 24.0705 -3.15286 0.449298
  3904 24.3001 -2.63943 -2.47187
  3905 24.5674 -2.88711 2.12794
  3906 21.2471 0.105618 0.0358267
  3907 21.1444 0.0803637 -0.0895871
  3908 22.6973 -0.312219 -0.0310170
  3909 23.7595 -1.85061 2.77748
  3910 22.6451 -0.0840666 -0.129539
  3911 22.6890 -0.296587 -0.00256414
  3912 22.4475 -0.0677909 0.162429
  3913 22.8054 -1.52001 -1.69773
  3914 22.5183 -1.29229 1.70234
  3915 22.7449 -1.40615 0.0873742
  3916 21.3660 -0.208096 -0.812496
  3917 21.3283 -0.194526 0.801724
  3918 22.4053 -1.14414 -1.04888
  3919 22.2348 -0.888150 0.0182112
  3920 23.5342 -1.53240 -3.00900
  3921 21.7861 -0.683189 -2.82843
  3922 22.3553 -0.260942 -0.0297795
  3923 22.0170 -0.635528 -0.301809
  3924 22.0023 -0.623712 0.316564
  3925 20.3832 -0.0934206 -1.43566
  3926 22.1441 -0.184719 0.0301059
  3927 24.9759 -4.16064 1.39392
  3928 24.7872 -3.42161 -2.00751
  3929 21.1693 -0.449988 2.52062
  3930 21.8892 -0.622917 0.758571
  3931 24.0188 -2.84241 1.37534
  3932 20.2186 -0.150963 1.30785
  3933 25.1876 -4.66781 0.0726301
  3934 23.3994 -1.94851 -2.07640
  3935 21.9458 -0.381588 -0.154536
  3936 24.5812 -3.57370 0.606346
  3937 22.3603 -1.00965 1.05367
  3938 21.9174 -0.673612 -0.761272
  3939 22.0435 -0.339136 -0.0108189
  3940 22.7480 -1.03772 3.31624
  3941 21.9362 -0.407837 0.144796
  3942 24.3828 -3.31739 -0.830983
  3943 20.3175 -0.0556607 -0.647818
  3944 21.8378 -0.199668 -0.171369
  3945 23.0087 -0.0608170 -0.0996468
  3946 21.1662 -0.0457965 -0.520779
  3947 22.7334 -0.218058 0.0392495
  3948 21.3213 -0.0604749 0.305694
  3949 22.7770 -0.198348 -0.0972269
  3950 20.4950 -0.00585953 0.493960
  3951 21.6952 -0.615398 -2.05877
  3952 22.7813 -0.166585 0.0450761
  3953 22.1771 -0.300107 0.0106255
  3954 21.8771 -0.193533 0.125274
  3955 25.0242 -4.14076 -1.24722
  3956 21.1592 -0.287916 -1.26537
  3957 22.9853 -1.49336 2.25774
  3958 23.4555 -2.19820 0.654013
  3959 22.3013 -0.208643 -0.0622587
  3960 21.3987 -0.526036 1.75334
  3961 22.4821 -0.290093 0.00811949
  3962 24.0383 -2.99404 -0.0514216
  3963 21.1777 -0.273438 1.27721
  3964 24.8479 -3.51062 2.04080
  3965 24.3626 -2.49258 2.56555
  3966 22.3302 0.0831929 -0.237740
  3967 23.0947 -1.81754 -0.360507
  3968 24.4311 -3.13216 -1.68659
  3969 22.1743 0.0328008 0.240460
  3970 22.9933 -1.71167 0.434135
  3971 22.7084 -0.293292 -0.0599407
  3972 25.1367 -4.52233 1.00282
  3973 22.9236 -0.980930 -3.32981
  3974 20.4895 -0.371838 -2.19922
  3975 25.0146 -4.14015 0.129011
  3976 20.4477 -0.371829 2.28732
  3977 23.6892 -2.37185 -1.03668
  3978 23.5201 -2.20848 1.23733
  3979 24.4233 -3.09557 1.66576
  3980 24.9701 -4.03493 -1.74518
  3981 23.9362 -2.27395 2.32589
  3982 22.5241 -0.295060 -0.0232720
  3983 21.8817 0.0203586 -0.114260
  3984 22.6299 -0.311670 -0.0159701
  3985 25.3269 -4.88364 0.555295
  3986 21.7656 0.0290748 0.0735453
  3987 22.1904 -0.120165 0.0855432
  3988 22.2520 -0.260233 0.00374905
  3989 24.4632 -2.11990 -2.88672
  3990 21.6026 -0.201733 -0.401678
  3991 23.4929 -2.28085 -0.460266
  3992 24.7106 -3.86609 -0.634564
  3993 25.3717 -4.90516 -0.628939
  3994 23.1300 0.103545 0.0353732
  3995 21.1248 -0.451039 -2.77805
  3996 24.1392 -2.90368 -1.17016
  3997 21.5668 -0.161090 0.381480
  3998 21.7022 -0.661876 3.13525
  3999 23.9826 -1.42225 3.15738
  4000 22.0758 -0.230394 0.0205739
  4001 22.2117 -0.938805 -1.77651
  4002 24.6854 -3.02770 -2.39428
  4003 19.9060 -0.267985 -1.24787
  4004 23.2606 0.150355 0.0387441
  4005 24.8626 -4.00019 0.974609
  4006 22.7124 -1.38753 -0.720631
  4007 22.8253 -0.225718 0.0677936
  4008 21.0290 0.0384301 0.367035
  4009 20.6161 -0.115428 -0.188566
  4010 24.8248 -3.08281 2.38583
  4011 20.9185 0.0641082 -0.436311
  4012 22.6267 -1.27834 0.776802
  4013 22.7750 -0.293967 -0.0655018
  4014 20.6757 -0.0910998 1.18171
  4015 24.2715 -3.15209 0.909286
  4016 23.0367 -1.72988 1.60769
  4017 21.9916 -0.911680 1.90244
  4018 21.3851 0.00816917 -0.128909
  4019 22.6490 -0.273822 -0.00702964
  4020 20.0107 -0.282068 1.74635
  4021 20.6978 -0.120050 -1.31409
  4022 23.3066 -1.98312 -1.46609
  4023 23.7804 -2.62649 0.293772
  4024 19.9660 -0.176795 0.918843
  4025 21.5940 -0.449797 0.993039
  4026 24.0689 -2.55067 -2.14453
  4027 22.6938 -0.201304 -0.165365
  4028 24.7344 -3.63437 1.59965
  4029 22.5077 -0.201275 -0.0908324
  4030 21.9078 -0.793671 -2.46183
  4031 22.7798 -1.54884 -1.23856
  4032 22.6280 -0.276954 -0.00181122
  4033 25.2966 -5.12152 -0.233495
  4034 21.6700 -0.498934 -1.07036
  4035 22.5946 -1.40102 1.29500
  4036 24.8983 -4.05518 -0.967609
  4037 22.5815 -0.213465 0.0843757
  4038 22.7514 -0.140773 0.127678
  4039 22.4536 -1.14230 -0.127248
  4040 22.4128 -1.12653 0.187122
  4041 24.3578 -3.38625 0.104792
  4042 22.1187 -0.787909 -0.506349
  4043 22.2197 -0.917902 1.39096
  4044 22.8266 -1.24334 2.87181
  4045 21.9962 -0.232664 -0.0641547
  4046 22.7952 -1.30644 -2.14629
  4047 22.2140 -0.858524 -0.249918
  4048 22.1890 -0.846164 0.278884
  4049 24.4193 -3.26235 -1.22189
  4050 20.9617 -0.107253 -0.939628
  4051 23.8393 -2.08290 -2.61567
  4052 20.9214 -0.110237 0.932973
  4053 22.0832 -0.764863 0.527861
  4054 24.2747 -1.34126 -3.27682
  4055 22.0749 -0.684882 0.112930
  4056 22.0830 -0.679572 -0.0959343
  4057 21.6050 -0.553974 2.24124
  4058 22.2463 -0.109592 -0.122407
  4059 24.3745 -3.37925 -0.352531
  4060 21.4155 0.0465122 0.103984
  4061 22.1961 -0.280552 0.00208091
  4062 21.2820 0.0390805 -0.188083
  4063 22.5882 -0.305990 -0.00831811
  4064 23.7749 -2.52467 -0.135581
  4065 22.9789 -1.76481 0.0133282
  4066 25.3258 -4.65184 -1.10475
  4067 21.3085 0.0161578 0.150377
  4068 23.9032 -2.66905 0.821932
  4069 24.9329 -3.95585 1.81520
  4070 21.9907 -0.511444 -0.150727
  4071 20.0205 -0.302453 -1.69504
  4072 21.2979 -0.468753 -2.38704
  4073 21.8962 -0.435640 0.289710
  4074 21.6876 -0.395148 -0.658520
  4075 21.8361 -0.538937 0.497634
  4076 20.7132 -0.0750546 0.136499
  4077 22.0465 -0.847789 -1.05717
  4078 25.5123 -5.12064 0.157607
  4079 25.0011 -4.26025 -0.253624
  4080 23.1485 -1.49004 -2.56795
  4081 20.9919 -0.413351 2.78753
  4082 22.5775 -1.03083 -2.80142
  4083 21.6218 -0.371838 0.637319
  4084 22.5514 -0.289168 0.0314609
  4085 21.9046 -0.447339 -0.301071
  4086 24.4853 -2.13624 2.89848
  4087 21.8685 -0.574595 -0.496481
  4088 20.3298 -0.0644037 -1.08693
  4089 21.9946 -0.418150 -0.0585180
  4090 22.2406 -0.976593 -0.753965
  4091 21.9464 -0.789803 2.77372
  4092 22.1895 -0.976049 -2.20180
  4093 24.5070 -2.93326 -2.13636
  4094 21.9782 -0.524345 0.150930
  4095 21.8491 -0.682543 -3.25774
  4096 25.1361 -4.39686 -1.48397
  4097 22.4890 -0.267058 -0.0356142
  4098 23.0342 -0.0339032 0.131935
  4099 24.9545 -3.70108 -2.16625
  4100 24.1277 -2.68580 1.90331
  4101 22.2040 -0.927210 0.767865
  4102 22.3813 -1.08100 -1.37070
  4103 21.8093 -0.319739 -0.260322
  4104 21.9914 -0.724468 1.06410
  4105 21.9941 -0.412515 0.0462714
  4106 20.4639 -0.219830 -1.72566
  4107 22.0143 -0.337220 -0.0714936
  4108 22.7925 -0.227730 -0.0514566
  4109 25.1076 -4.50154 1.42102
  4110 20.4088 -0.0344332 0.887878
  4111 22.3516 -0.292699 -0.0141428
  4112 21.5390 -0.599017 -1.56263
  4113 22.7383 -1.44281 -0.276146
  4114 22.1095 -0.289756 -0.0198866
  4115 22.3934 -0.250185 0.0318570
  4116 21.8374 -0.317125 0.203556
  4117 24.6380 -2.70418 2.64186
  4118 19.7405 -0.344671 1.33695
  4119 24.8433 -3.69636 -1.62812
  4120 21.9632 -0.285042 -0.123588
  4121 24.8449 -4.01817 0.444554
  4122 22.0041 -0.330133 0.0652562
  4123 25.2054 -4.74576 -0.350518
  4124 22.7342 -0.210869 0.0451283
  4125 21.1487 -0.0572507 0.585562
  4126 22.6091 -1.30775 0.387238
  4127 22.5178 -0.204094 -0.0580628
  4128 25.5210 -5.29925 -0.0658283
  4129 19.7556 -0.328432 1.09160
  4130 19.9283 -0.253652 -0.963343
  4131 20.2155 -0.163592 0.429661
  4132 20.8951 -0.227720 -0.0386700
  4133 21.9718 0.0349626 -0.291364
  4134 23.2600 0.302522 0.00528126
  4135 23.2422 0.178563 0.328239
  4136 22.9912 0.0180461 0.222585
  4137 22.7100 -0.0500994 0.202288
  4138 22.7637 -0.198280 0.0877684
  4139 22.6451 -0.249077 0.124710
  4140 22.8069 -0.296919 -0.127791
  4141 22.8717 -0.173098 -0.0886276
  4142 22.7319 -0.137815 -0.122208
  4143 22.9066 -0.0339630 -0.278208
  4144 23.4481 0.238461 -0.356017
  4145 23.1880 0.217861 0.0452251
  4146 21.9298 -0.00799620 0.346135
  4147 20.8653 -0.176192 0.0151948
  4148 20.2428 -0.230390 -0.381588
  4149 19.8554 -0.375532 -1.52490
  4150 20.0705 -0.344807 -2.06808
  4151 20.4883 -0.452101 -2.64767
  4152 21.1980 -0.665125 -3.23007
  4153 22.2918 -0.997593 -3.59731
  4154 23.8930 -1.21062 -3.43949
  4155 24.5788 -1.83233 -3.02262
  4156 24.7516 -2.64798 -2.69819
  4157 24.7479 -3.15064 -2.45293
  4158 24.9450 -3.39972 -2.35177
  4159 25.1002 -4.21914 -1.90122
  4160 25.3581 -4.64303 -1.41518
  4161 25.5385 -4.93666 -0.916122
  4162 25.3989 -5.12244 -0.470625
  4163 25.7383 -5.10998 0.454269
  4164 25.2354 -4.86293 1.00449
  4165 25.1408 -4.72599 1.36551
  4166 25.0746 -4.32708 1.81252
  4167 24.9559 -3.67993 2.18489
  4168 24.9489 -3.01959 2.56068
  4169 24.7676 -2.46690 2.80946
  4170 24.6733 -1.73684 3.07344
  4171 23.7210 -1.26668 3.39890
  4172 22.1553 -1.02772 3.56980
  4173 21.2382 -0.587695 3.21106
  4174 20.4658 -0.469518 2.65674
  4175 20.0229 -0.385932 2.11453
  4176 19.7466 -0.420998 1.55169
</Section>

newXOutput 17

<Section columns = "stress_xx | stress_yy | stress_xy">
  1 117.496 0.157626 -0.361295
  2 117.497 0.157685 0.361366
  3 157.133 -0.0542980 0.0976006
  4 157.132 -0.0543691 -0.0976659
  5 385.628 22.6341 4.54885
  6 485.142 4.94276 0.668211
  7 124.619 -0.0117236 -0.406915
  8 124.624 -0.0117094 0.407046
  9 163.696 -0.0108406 0.310631
  10 163.700 -0.0108602 -0.310696
  11 12.5097 -123.608 5.16541
  12 12.9608 -124.463 -5.65798
  13 136.516 1.86291 -0.199314
  14 136.515 1.86398 0.199289
  15 159.241 -0.289406 0.233212
  16 117.553 0.197159 -0.573775
  17 117.555 0.197177 0.574064
  18 159.243 -0.289429 -0.233426
  19 131.151 4.73201 -2.97256
  20 131.154 4.73160 2.97149
  21 125.097 0.381655 0.234969
  22 117.174 1.54322 0.0665096
  23 125.492 0.0401653 -0.394105
  24 126.229 0.0552796 -0.431623
  25 127.378 0.0527125 -0.623490
  26 128.330 0.0412315 -0.546515
  27 129.408 0.0482964 -0.642927
  28 130.803 0.0156599 -0.702970
  29 132.023 -0.0394219 -0.609720
  30 133.434 -0.00457422 -0.575631
  31 135.025 -0.0214743 -0.598911
  32 136.415 0.0165085 -0.619239
  33 138.246 0.0758741 -0.932439
  34 140.082 0.0926912 -0.958878
  35 142.003 0.0873203 -1.18130
  36 144.557 0.0288129 -1.28400
  37 146.389 -0.0420599 -1.25228
  38 149.254 0.00813081 -1.24841
  39 151.376 -0.0181982 -1.28172
  40 154.793 -0.0207677 -1.25838
  41 157.317 0.0838692 -1.55955
  42 160.371 0.147329 -1.82119
  43 164.083 -0.128819 -1.95246
  44 168.193 -0.148285 -1.82410
  45 171.407 -0.0642803 -1.78557
  46 176.028 -0.0331318 -1.80827
  47 179.425 -0.0141911 -2.36215
  48 183.103 0.0883258 -2.53491
  49 188.808 -0.297670 -2.29411
  50 194.207 -0.309210 -1.96261
  51 198.559 -0.242146 -2.09145
  52 204.488 -0.258236 -1.84002
  53 208.823 -0.155795 -2.47088
  54 214.599 -0.165027 -2.33471
  55 219.662 -0.135584 -2.73699
  56 223.563 -0.301215 -2.92051
  57 231.864 -1.00428 -2.35604
  58 233.639 -0.201518 -2.14556
  59 239.385 -0.0602869 -1.70535
  60 243.383 -0.338470 -1.92520
  61 246.876 -0.418851 -1.35621
  62 249.977 -0.450165 -1.05738
  63 251.778 -0.478568 -0.602540
  64 253.032 -0.546137 -0.0765599
  65 253.163 -0.677753 0.646829
  66 250.700 -0.731927 1.25678
  67 249.753 -0.708482 1.53589
  68 245.744 -1.02564 2.20280
  69 238.711 -0.761187 3.38125
  70 230.897 -0.677418 4.45129
  71 222.719 -0.467488 5.17115
  72 211.393 -0.366444 5.87734
  73 200.900 0.0557989 6.32186
  74 186.924 0.211635 6.29794
  75 177.007 0.476229 6.43041
  76 161.273 0.924194 5.30625
  77 150.962 1.33648 5.87514
  78 139.945 0.868129 3.83910
  79 134.265 1.38383 4.48274
  80 121.955 1.79509 2.17472
  81 121.731 1.56629 2.06801
  82 118.642 1.36788 -1.22196
  83 121.255 1.74482 -2.63494
  84 127.814 2.39086 -2.72410
  85 141.883 1.14347 -4.99337
  86 150.960 1.20880 -6.59602
  87 160.976 0.942088 -5.88467
  88 177.358 0.354299 -6.81586
  89 188.585 -0.158918 -7.05988
  90 200.114 0.100143 -5.54433
  91 211.731 -0.0982589 -5.55664
  92 222.774 -0.439083 -5.00476
  93 230.975 -0.638987 -4.38013
  94 238.719 -0.748324 -3.35492
  95 245.720 -1.02171 -2.19116
  96 249.712 -0.706216 -1.53021
  97 250.652 -0.729215 -1.25405
  98 253.112 -0.676120 -0.647108
  99 252.986 -0.545079 0.0742613
  100 251.738 -0.478007 0.599295
  101 249.944 -0.449911 1.05382
  102 246.850 -0.418844 1.35276
  103 243.364 -0.338606 1.92195
  104 239.372 -0.0606132 1.70269
  105 233.631 -0.201881 2.14323
  106 231.860 -1.00433 2.35414
  107 223.563 -0.301232 2.91865
  108 219.665 -0.135765 2.73569
  109 214.605 -0.165183 2.33375
  110 208.831 -0.155941 2.47017
  111 204.496 -0.258335 1.83947
  112 198.569 -0.242221 2.09104
  113 194.219 -0.309282 1.96222
  114 188.820 -0.297744 2.29377
  115 183.116 0.0882482 2.53471
  116 179.437 -0.0143059 2.36208
  117 176.041 -0.0332016 1.80822
  118 171.420 -0.0643257 1.78561
  119 168.206 -0.148376 1.82411
  120 164.095 -0.128872 1.95255
  121 160.383 0.147323 1.82135
  122 157.329 0.0838227 1.55974
  123 154.805 -0.0208087 1.25850
  124 151.388 -0.0182241 1.28189
  125 149.266 0.00809908 1.24856
  126 146.399 -0.0420923 1.25249
  127 144.567 0.0287901 1.28420
  128 142.013 0.0873103 1.18155
  129 140.092 0.0926895 0.959098
  130 138.255 0.0758755 0.932644
  131 136.424 0.0164891 0.619390
  132 135.033 -0.0214979 0.599042
  133 133.442 -0.00459360 0.575764
  134 132.031 -0.0394455 0.609866
  135 130.810 0.0156460 0.703144
  136 129.415 0.0482947 0.643118
  137 128.336 0.0412321 0.546691
  138 127.385 0.0527246 0.623688
  139 126.235 0.0552735 0.431767
  140 125.498 0.0401533 0.394223
  141 121.324 0.586922 0.547723
  142 126.353 1.11308 0.446550
  143 130.828 1.75517 0.392117
  144 141.958 1.39541 -0.0543662
  145 147.575 0.918416 -0.0540031
  146 153.025 0.330418 0.0490122
  147 164.767 -0.0781050 -0.230299
  148 165.129 -0.0965594 -0.364659
  149 165.806 -0.128028 -0.184441
  150 166.199 -0.111045 -0.325085
  151 166.398 -0.133622 -0.129498
  152 166.816 -0.0588026 -0.0669914
  153 166.486 -0.228188 -0.0426374
  154 166.044 -0.165278 0.339620
  155 165.807 -0.202213 0.484380
  156 164.788 -0.241132 0.542293
  157 162.857 -0.202223 0.905541
  158 160.998 -0.152631 1.08066
  159 158.164 -0.203302 1.40024
  160 155.140 -0.0650435 1.91106
  161 151.367 -0.0324188 1.48798
  162 148.027 -0.00531119 1.61847
  163 143.400 0.0959644 1.59346
  164 139.763 0.158490 1.95564
  165 135.445 0.220352 1.70620
  166 131.837 0.258841 1.56737
  167 128.434 0.408009 1.16363
  168 125.748 0.365815 0.733216
  169 125.697 0.228564 0.725103
  170 124.731 0.718215 -0.726653
  171 125.661 0.523096 -0.807283
  172 129.136 0.419640 -1.35572
  173 132.232 0.441027 -2.11986
  174 135.061 0.155400 -1.76149
  175 139.710 0.159336 -1.93219
  176 143.397 0.109597 -1.60521
  177 148.058 -0.0128259 -1.62892
  178 151.402 -0.0352772 -1.48809
  179 155.167 -0.0658898 -1.90706
  180 158.186 -0.203124 -1.39719
  181 161.013 -0.152452 -1.07809
  182 162.868 -0.202018 -0.903496
  183 164.794 -0.240951 -0.540599
  184 165.811 -0.202102 -0.483169
  185 166.046 -0.165219 -0.338547
  186 166.486 -0.228044 0.0434953
  187 166.814 -0.0586753 0.0675603
  188 166.395 -0.133504 0.129916
  189 166.196 -0.110936 0.325301
  190 165.802 -0.127931 0.184610
  191 165.125 -0.0964823 0.364678
  192 164.763 -0.0780470 0.230305
  193 153.024 0.330208 -0.0490925
  194 147.575 0.917829 0.0539023
  195 141.959 1.39452 0.0542880
  196 130.828 1.75420 -0.392031
  197 126.353 1.11246 -0.446425
  198 121.323 0.586651 -0.547606
  199 116.405 0.540718 -0.542521
  200 117.936 0.133403 -0.649844
  201 119.315 0.0806130 -0.611166
  202 120.483 0.0654396 -0.522598
  203 121.891 0.0104189 -0.606516
  204 122.755 -0.00200613 -0.523488
  205 123.497 -0.00140027 -0.381178
  206 124.967 0.0394078 -0.884546
  207 125.133 0.119544 -1.55352
  208 125.578 0.291557 -2.42136
  209 125.803 0.492409 -3.15363
  210 125.935 0.754567 -3.93005
  211 125.752 1.11540 -4.47893
  212 125.787 1.48271 -5.11669
  213 125.530 1.95507 -5.61470
  214 125.212 2.43224 -6.00601
  215 124.865 2.97079 -6.31379
  216 124.426 3.52418 -6.41350
  217 124.091 4.00400 -6.40399
  218 123.669 4.62665 -6.33639
  219 123.291 5.14768 -6.01078
  220 122.972 5.63019 -5.62934
  221 122.835 6.08055 -5.04906
  222 122.767 6.35066 -4.33929
  223 122.907 6.70405 -3.51990
  224 123.166 6.81319 -2.58643
  225 123.969 6.66494 -1.54449
  226 124.916 6.53759 -0.578186
  227 125.998 6.23380 0.416396
  228 127.450 5.87404 1.37234
  229 129.022 5.23681 2.26013
  230 133.221 3.90510 3.59630
  231 135.528 3.27477 4.01695
  232 137.736 2.65588 4.25884
  233 140.158 2.09662 4.26573
  234 142.241 1.49963 4.26065
  235 144.655 1.07904 4.10059
  236 146.777 0.697518 3.85720
  237 148.806 0.475864 3.58057
  238 151.014 0.292551 3.18965
  239 152.892 0.186607 2.78632
  240 154.856 0.0335417 2.42118
  241 156.800 0.116266 2.01160
  242 158.735 0.0436652 1.58790
  243 160.573 0.0238882 1.13805
  244 162.323 0.0593085 0.638517
  245 163.124 -0.0659640 0.237915
  246 162.018 -0.0835989 0.275809
  247 160.609 -0.159945 0.418849
  248 157.300 -0.0813925 0.369786
  249 162.326 0.0592681 -0.638624
  250 160.576 0.0237199 -1.13822
  251 158.738 0.0433120 -1.58813
  252 156.802 0.115728 -2.01191
  253 154.858 0.0327437 -2.42163
  254 152.893 0.185660 -2.78696
  255 151.016 0.291392 -3.19051
  256 148.806 0.474605 -3.58173
  257 146.778 0.696265 -3.85861
  258 144.654 1.07785 -4.10223
  259 142.240 1.49864 -4.26247
  260 140.156 2.09590 -4.26760
  261 137.733 2.65539 -4.26070
  262 135.525 3.27459 -4.01864
  263 133.218 3.90520 -3.59775
  264 129.019 5.23739 -2.26085
  265 127.446 5.87481 -1.37264
  266 125.994 6.23467 -0.416315
  267 124.913 6.53854 0.578637
  268 123.966 6.66592 1.54525
  269 123.163 6.81418 2.58750
  270 122.905 6.70503 3.52123
  271 122.765 6.35161 4.34085
  272 122.834 6.08147 5.05079
  273 122.971 5.63104 5.63122
  274 123.291 5.14846 6.01274
  275 123.669 4.62735 6.33841
  276 124.092 4.00461 6.40602
  277 124.427 3.52471 6.41551
  278 124.866 2.97125 6.31574
  279 125.215 2.43261 6.00787
  280 125.533 1.95538 5.61645
  281 125.791 1.48293 5.11829
  282 125.756 1.11558 4.48033
  283 125.939 0.754691 3.93129
  284 125.807 0.492499 3.15464
  285 125.582 0.291618 2.42215
  286 125.138 0.119561 1.55403
  287 124.972 0.0394090 0.884842
  288 123.502 -0.00142722 0.381304
  289 122.760 -0.00205069 0.523643
  290 121.896 0.0103869 0.606717
  291 120.487 0.0654256 0.522825
  292 119.319 0.0806087 0.611416
  293 117.938 0.133387 0.650084
  294 116.406 0.540751 0.542672
  295 157.301 -0.0813631 -0.369974
  296 160.611 -0.159998 -0.419074
  297 162.021 -0.0836337 -0.275941
  298 163.128 -0.0660016 -0.238001
  299 20.0899 -110.088 -1.80678
  300 27.5553 -78.3875 -2.88693
  301 48.8670 -31.2734 14.1532
  302 81.8032 1.07295 30.9426
  303 138.799 30.2137 57.7578
  304 197.456 45.3041 79.0914
  305 262.822 44.5301 81.4082
  306 329.052 37.6856 71.2779
  307 371.323 27.6528 40.7502
  308 361.946 31.4639 -36.6581
  309 325.693 36.0544 -74.1756
  310 261.927 46.0882 -83.9646
  311 191.925 44.9586 -76.0530
  312 134.471 37.0239 -63.4409
  313 83.4355 7.38616 -33.9841
  314 54.1409 -27.9343 -17.7970
  315 28.8303 -82.4808 4.29703
  316 22.3499 -114.642 1.91663
  317 13.5117 -136.376 -19.0595
  318 13.5554 -112.504 -21.5651
  319 18.7112 -85.6120 -20.0880
  320 35.9105 -47.3883 -4.53234
  321 61.7452 -16.4697 10.9669
  322 100.256 11.4887 30.8714
  323 152.050 21.4588 50.9287
  324 203.988 34.1232 72.4647
  325 252.473 32.7819 81.0640
  326 308.102 31.3540 86.5630
  327 360.545 26.7317 75.4903
  328 420.717 16.5603 71.2178
  329 450.399 12.5287 46.5338
  330 474.119 4.92532 22.2621
  331 481.818 6.36401 -26.3840
  332 453.535 10.1996 -48.6684
  333 418.414 18.3262 -64.5101
  334 373.988 26.4308 -79.5952
  335 315.542 30.2540 -83.3127
  336 263.512 35.1468 -84.5155
  337 200.041 32.0511 -69.7853
  338 147.408 23.4650 -49.7811
  339 92.6638 12.1017 -29.9969
  340 62.2698 -16.7881 -9.92673
  341 36.4146 -47.2037 4.44701
  342 18.8011 -85.5850 19.9664
  343 13.5633 -112.674 21.4193
  344 13.4487 -137.068 18.7396
  345 124.046 1.79630 -2.62930
  346 131.566 3.02277 -0.241006
  347 144.335 1.54722 1.51393
  348 122.987 0.640265 -2.84787
  349 126.404 3.61774 -2.26753
  350 151.364 0.690176 1.82191
  351 124.004 2.33525 -4.13205
  352 136.584 3.03677 1.61148
  353 129.848 4.59426 0.153130
  354 124.535 4.20748 -3.83675
  355 123.493 0.226818 -2.00383
  356 145.679 1.53670 2.61489
  357 124.318 1.13665 -3.92791
  358 124.309 1.94438 -4.74730
  359 125.118 5.02909 -2.74253
  360 156.243 0.278378 1.52371
  361 139.466 2.57469 2.78462
  362 127.330 2.18416 -1.29470
  363 150.735 0.694106 2.50261
  364 124.022 3.96241 -4.92902
  365 133.413 4.00548 1.93810
  366 121.619 0.486741 -1.90151
  367 150.524 0.642582 0.865719
  368 136.675 2.55160 0.590347
  369 143.084 1.68368 3.39321
  370 125.921 5.71225 -1.35466
  371 128.454 5.32731 0.327586
  372 122.914 0.782425 -0.989783
  373 147.567 1.02688 3.24422
  374 124.220 3.08989 -5.41733
  375 123.908 5.34450 -4.06819
  376 124.069 0.0669726 -1.23615
  377 159.667 0.0775392 1.04786
  378 121.934 0.229947 -1.87455
  379 123.085 1.22409 -3.04460
  380 124.610 0.520963 -3.00362
  381 132.905 1.96837 -0.0958626
  382 124.555 2.73888 -3.26461
  383 140.971 2.20198 1.98103
  384 155.652 0.249633 1.98838
  385 156.726 0.166640 1.13236
  386 124.731 1.84257 -5.01079
  387 142.314 1.57763 0.708633
  388 126.162 2.79509 -2.16679
  389 136.771 3.10504 3.21362
  390 131.202 4.58683 1.69966
  391 120.765 0.272418 -1.60820
  392 132.919 3.48409 0.457976
  393 119.814 0.266267 -0.679222
  394 147.632 1.19813 1.95477
  395 127.382 4.62932 -1.43443
  396 129.403 3.55891 -0.881394
  397 123.706 1.71346 -3.87596
  398 124.326 0.268829 -2.22858
  399 123.698 4.67571 -5.15766
  400 124.428 5.84789 -2.85200
  401 151.422 0.457253 2.84157
  402 124.868 1.13616 -4.26691
  403 153.363 0.496057 1.05641
  404 128.308 1.64210 -0.535868
  405 127.779 3.10303 -1.56038
  406 124.261 3.00857 -4.14488
  407 123.016 0.0412775 -0.980460
  408 141.186 2.01443 3.67316
  409 124.425 2.93213 -5.81840
  410 125.348 3.22209 -2.88095
  411 126.421 5.87163 -0.395424
  412 157.984 0.133170 1.47950
  413 132.693 4.24805 2.59379
  414 158.739 0.168783 0.900967
  415 145.516 1.20829 3.50125
  416 124.002 3.82995 -5.69308
  417 123.233 0.565291 -2.70178
  418 124.735 1.48013 -1.29616
  419 136.596 3.18910 2.39984
  420 122.029 0.0874196 -1.11968
  421 131.774 4.29453 1.02181
  422 123.754 1.33784 -3.79796
  423 148.844 1.04727 2.39354
  424 130.748 2.35037 -0.476313
  425 142.391 2.08900 2.71064
  426 147.230 1.02439 1.33675
  427 138.745 2.57702 1.39294
  428 122.639 0.956752 -1.67316
  429 123.527 5.94337 -3.66321
  430 125.323 0.875678 -3.89282
  431 124.418 6.11923 -2.12205
  432 137.474 2.03972 0.384718
  433 153.735 0.462327 2.15010
  434 123.403 5.34000 -4.94219
  435 125.267 4.13912 -3.05326
  436 149.355 0.715184 3.18229
  437 153.813 0.263288 2.44323
  438 122.083 0.624858 -2.34201
  439 125.211 1.57539 -4.95683
  440 124.729 2.41338 -5.54124
  441 119.094 0.0678527 -1.01135
  442 135.003 3.53319 3.28196
  443 138.646 2.61622 3.66076
  444 124.231 3.49495 -5.95367
  445 127.604 5.10304 -0.764141
  446 143.354 1.52226 3.77192
  447 123.660 4.51223 -5.64038
  448 125.034 6.20290 -1.21687
  449 123.860 1.97618 -3.38696
  450 144.056 1.78252 2.08409
  451 146.630 1.06251 0.804290
  452 123.254 5.81075 -4.41903
  453 129.050 5.17088 1.30667
  454 147.645 0.807719 3.47274
  455 154.196 0.319158 0.521639
  456 134.038 2.82840 0.311384
  457 138.851 2.63790 2.26847
  458 125.632 1.33684 -0.900144
  459 161.131 0.0462752 0.847468
  460 134.002 3.66084 1.33314
  461 127.372 5.73195 0.554084
  462 123.864 0.640671 -3.00202
  463 124.013 4.52211 -4.45028
  464 124.313 5.36052 -3.40087
  465 150.742 0.746756 1.45224
  466 124.182 2.45473 -4.76762
  467 124.110 3.08525 -4.89556
  468 123.107 1.13352 -2.45542
  469 154.523 0.379440 1.60237
  470 149.422 0.822289 2.97777
  471 133.892 2.49153 0.0138908
  472 140.709 1.97847 1.08906
  473 147.733 1.09204 2.89170
  474 124.739 0.176381 -1.94671
  475 126.336 4.42947 -2.17587
  476 125.233 5.58136 -2.14953
  477 119.457 0.332449 -0.556181
  478 130.503 4.80906 2.14390
  479 152.929 0.431587 2.43485
  480 125.401 0.585826 -3.33737
  481 123.918 0.968060 -0.364965
  482 121.868 0.466995 -2.20860
  483 124.722 1.47153 -4.60884
  484 145.321 1.41747 3.00069
  485 125.127 0.405965 -2.67950
  486 159.304 0.0624525 1.38877
  487 134.942 3.71513 2.71002
  488 156.552 0.123657 0.625514
  489 155.653 0.182316 2.19984
  490 124.186 0.0152272 -0.696463
  491 120.636 0.0825100 -1.19863
  492 144.229 1.41622 1.20361
  493 150.446 0.615805 0.385205
  494 151.871 0.679441 2.07126
  495 124.411 1.65243 -4.52079
  496 124.772 3.57841 -3.60078
  497 124.603 0.840011 -3.62789
  498 125.112 2.05005 -5.42872
  499 128.754 4.33107 -0.775407
  500 130.711 3.87470 -0.119624
  501 124.014 0.120614 -1.63952
  502 135.390 3.09669 0.937631
  503 124.565 4.84392 -3.57441
  504 161.735 -0.0279204 0.466982
  505 124.313 3.80715 -4.20829
  506 129.470 2.69307 -0.943183
  507 125.057 1.87886 -2.03108
  508 141.038 2.25971 3.20895
  509 130.041 4.82628 0.894754
  510 136.671 3.03270 3.67537
  511 122.864 0.287757 -2.11966
  512 123.649 0.870003 -3.27168
  513 157.222 0.172402 1.78833
  514 119.976 0.133088 -1.15312
  515 144.585 1.24402 0.440899
  516 123.431 0.0206829 -0.602790
  517 124.376 2.48940 -5.28842
  518 120.659 0.0610463 -0.877681
  519 155.365 0.178735 0.222599
  520 117.547 0.412810 -0.597696
  521 126.267 5.12385 -1.73792
  522 123.065 0.954338 -3.08678
  523 141.829 2.05407 1.69899
  524 160.947 -0.00469300 0.418002
  525 162.667 0.0530467 0.422090
  526 123.622 6.29949 -2.95537
  527 125.034 2.45952 -2.59967
  528 157.857 0.102217 1.47053
  529 158.737 0.0401250 0.398287
  530 153.998 0.398864 1.24277
  531 131.765 4.03693 0.572522
  532 156.738 0.261489 1.35828
  533 127.703 4.02698 -1.51377
  534 123.332 5.03273 -5.50908
  535 123.686 1.86441 -3.68454
  536 140.187 1.67749 0.216830
  537 125.437 1.22841 -4.55005
  538 146.605 1.44247 2.24834
  539 138.902 2.59280 3.19267
  540 119.290 0.0756214 -0.825246
  541 124.047 1.79688 2.63049
  542 131.564 3.02392 0.241221
  543 144.335 1.54786 -1.51467
  544 122.990 0.640429 2.84899
  545 126.403 3.61877 2.26858
  546 151.365 0.690296 -1.82278
  547 124.005 2.33580 4.13365
  548 136.582 3.03764 -1.61214
  549 129.846 4.59539 -0.153054
  550 124.534 4.20841 3.83827
  551 123.497 0.226868 2.00456
  552 145.678 1.53682 -2.61603
  553 124.320 1.13687 3.92928
  554 124.311 1.94476 4.74896
  555 125.116 5.03017 2.74369
  556 156.245 0.278298 -1.52435
  557 139.464 2.57500 -2.78583
  558 127.329 2.18506 1.29537
  559 150.735 0.693867 -2.50359
  560 124.022 3.96317 4.93080
  561 133.411 4.00624 -1.93885
  562 121.621 0.486925 1.90236
  563 150.524 0.642948 -0.866237
  564 136.674 2.55269 -0.590609
  565 143.083 1.68338 -3.39466
  566 125.918 5.71335 1.35538
  567 128.451 5.32836 -0.327517
  568 122.915 0.782788 0.990353
  569 147.567 1.02635 -3.24547
  570 124.221 3.09045 5.41919
  571 123.906 5.34547 4.06974
  572 124.074 0.0669906 1.23657
  573 159.670 0.0774689 -1.04823
  574 121.937 0.230016 1.87531
  575 123.086 1.22446 3.04586
  576 124.613 0.521052 3.00465
  577 132.904 1.96945 0.0959783
  578 124.555 2.73963 3.26601
  579 140.970 2.20260 -1.98194
  580 155.653 0.249337 -1.98901
  581 156.728 0.166653 -1.13292
  582 124.733 1.84288 5.01247
  583 142.313 1.57851 -0.708956
  584 126.161 2.79599 2.16782
  585 136.768 3.10522 -3.21499
  586 131.199 4.58764 -1.70022
  587 120.767 0.272509 1.60889
  588 132.917 3.48522 -0.458077
  589 119.815 0.266399 0.679666
  590 147.632 1.19847 -1.95568
  591 127.380 4.63049 1.43516
  592 129.401 3.56007 0.881896
  593 123.708 1.71385 3.87746
  594 124.330 0.268871 2.22936
  595 123.697 4.67654 5.15949
  596 124.426 5.84897 2.85320
  597 151.423 0.456589 -2.84248
  598 124.871 1.13636 4.26835
  599 153.364 0.496258 -1.05699
  600 128.307 1.64296 0.536165
  601 127.778 3.10410 1.56117
  602 124.261 3.00925 4.14649
  603 123.020 0.0412790 0.980807
  604 141.185 2.01404 -3.67475
  605 124.427 2.93264 5.82030
  606 125.347 3.22299 2.88223
  607 126.418 5.87266 0.395771
  608 157.986 0.132991 -1.47995
  609 132.690 4.24858 -2.59479
  610 158.741 0.168769 -0.901383
  611 145.515 1.20760 -3.50267
  612 124.003 3.83061 5.69499
  613 123.237 0.565436 2.70280
  614 124.736 1.48074 1.29695
  615 136.594 3.18967 -2.40084
  616 122.033 0.0874433 1.12009
  617 131.772 4.29552 -1.02213
  618 123.756 1.33812 3.79937
  619 148.844 1.04733 -2.39458
  620 130.747 2.35145 0.476660
  621 142.390 2.08925 -2.71182
  622 147.230 1.02488 -1.33743
  623 138.743 2.57792 -1.39356
  624 122.640 0.957119 1.67403
  625 123.525 5.94437 3.66461
  626 125.327 0.875845 3.89409
  627 124.416 6.12028 2.12300
  628 137.473 2.04079 -0.384856
  629 153.736 0.462144 -2.15093
  630 123.402 5.34090 4.94393
  631 125.266 4.14012 3.05456
  632 149.355 0.714403 -3.18338
  633 153.815 0.262692 -2.44392
  634 122.085 0.625045 2.34301
  635 125.214 1.57566 4.95843
  636 124.731 2.41378 5.54305
  637 119.096 0.0678877 1.01180
  638 135.000 3.53339 -3.28333
  639 138.644 2.61601 -3.66237
  640 124.232 3.49552 5.95561
  641 127.601 5.10420 0.764608
  642 143.353 1.52157 -3.77351
  643 123.660 4.51299 5.64229
  644 125.031 6.20394 1.21752
  645 123.860 1.97672 3.38838
  646 144.056 1.78297 -2.08507
  647 146.630 1.06313 -0.804720
  648 123.253 5.81171 4.42063
  649 129.047 5.17172 -1.30701
  650 147.645 0.806821 -3.47402
  651 154.196 0.319336 -0.521981
  652 134.037 2.82954 -0.311464
  653 138.849 2.63850 -2.26943
  654 125.632 1.33749 0.900700
  655 161.133 0.0462055 -0.847690
  656 133.999 3.66180 -1.33362
  657 127.369 5.73289 -0.554106
  658 123.868 0.640797 3.00310
  659 124.012 4.52301 4.45194
  660 124.312 5.36155 3.40222
  661 150.742 0.747033 -1.45299
  662 124.183 2.45522 4.76934
  663 124.110 3.08588 4.89733
  664 123.108 1.13391 2.45656
  665 154.524 0.379429 -1.60312
  666 149.422 0.821831 -2.97888
  667 133.890 2.49267 -0.0138419
  668 140.708 1.97937 -1.08955
  669 147.733 1.09184 -2.89287
  670 124.743 0.176409 1.94738
  671 126.334 4.43057 2.17686
  672 125.231 5.58247 2.15050
  673 119.458 0.332612 0.556409
  674 130.500 4.80972 -2.14464
  675 152.930 0.431195 -2.43568
  676 125.405 0.585927 3.33847
  677 123.918 0.968543 0.365272
  678 121.871 0.467115 2.20951
  679 124.724 1.47181 4.61041
  680 145.320 1.41729 -3.00197
  681 125.132 0.406042 2.68039
  682 159.306 0.0622569 -1.38910
  683 134.939 3.71563 -2.71113
  684 156.554 0.123723 -0.625901
  685 155.655 0.181805 -2.20036
  686 124.191 0.0152431 0.696705
  687 120.639 0.0825643 1.19913
  688 144.229 1.41694 -1.20417
  689 150.447 0.616207 -0.385450
  690 151.872 0.679410 -2.07217
  691 124.413 1.65274 4.52236
  692 124.772 3.57926 3.60227
  693 124.607 0.840173 3.62914
  694 125.114 2.05039 5.43046
  695 128.751 4.33225 0.775868
  696 130.709 3.87588 0.119806
  697 124.019 0.120659 1.64008
  698 135.388 3.09774 -0.937996
  699 124.563 4.84492 3.57585
  700 161.738 -0.0279563 -0.467161
  701 124.313 3.80796 4.20993
  702 129.469 2.69416 0.943696
  703 125.057 1.87956 2.03207
  704 141.036 2.25973 -3.21034
  705 130.039 4.82726 -0.894960
  706 136.668 3.03261 -3.67696
  707 122.867 0.287815 2.12047
  708 123.652 0.870178 3.27291
  709 157.224 0.172083 -1.78875
  710 119.977 0.133199 1.15368
  711 144.585 1.24477 -0.441094
  712 123.436 0.0206776 0.602994
  713 124.377 2.48986 5.29023
  714 120.663 0.0610744 0.878029
  715 155.366 0.178857 -0.222741
  716 117.548 0.412857 0.597922
  717 126.264 5.12498 1.73876
  718 123.068 0.954584 3.08798
  719 141.828 2.05481 -1.69974
  720 160.950 -0.00471729 -0.418210
  721 162.670 0.0530429 -0.422211
  722 123.620 6.30051 2.95657
  723 125.034 2.46030 2.60086
  724 157.859 0.102079 -1.47107
  725 158.739 0.0401440 -0.398582
  726 153.999 0.398981 -1.24345
  727 131.762 4.03805 -0.572649
  728 156.740 0.261483 -1.35891
  729 127.702 4.02812 1.51454
  730 123.332 5.03355 5.51094
  731 123.687 1.86487 3.68600
  732 140.186 1.67847 -0.216953
  733 125.441 1.22860 4.55151
  734 146.605 1.44275 -2.24939
  735 138.900 2.59288 -3.19407
  736 119.293 0.0756346 0.825606
  737 96.9414 15.2712 6.63076
  738 96.9507 15.2694 -6.62901
  739 148.634 -12.3279 13.7870
  740 148.670 -12.3871 -13.7714
  741 125.342 6.81020 13.4498
  742 125.340 6.81011 -13.4472
  743 111.420 1.25525 -31.8321
  744 111.437 1.24456 31.8360
  745 172.866 0.665306 13.9273
  746 172.896 2.45757 -14.0716
  747 133.310 6.74496 -21.5237
  748 133.316 6.74287 21.5259
  749 168.472 -20.3232 21.3041
  750 168.422 -20.3167 -21.2827
  751 121.451 5.51138 -9.68823
  752 121.458 5.51434 9.68602
  753 155.803 -3.83175 1.97675
  754 155.808 -3.83702 -1.97385
  755 104.472 -7.86602 31.9844
  756 104.447 -7.85096 -31.9712
  757 115.271 10.8659 5.52062
  758 115.275 10.8654 -5.51918
  759 130.203 2.01484 -7.63748
  760 130.208 2.01499 7.63927
  761 157.551 12.9523 -0.403160
  762 162.027 -6.31782 6.66723
  763 162.021 -6.31395 -6.66058
  764 155.049 2.42850 -25.5111
  765 155.060 2.42363 25.5087
  766 139.246 3.06956 13.3667
  767 139.240 3.06990 -13.3649
  768 174.354 -24.1326 -12.9554
  769 173.687 -24.6656 13.7536
  770 221.773 -15.7444 9.64784
  771 221.752 -15.6519 -9.65698
  772 176.821 -3.38743 -22.8700
  773 176.836 -3.39391 22.8624
  774 140.922 -1.46215 8.23657
  775 140.921 -1.46710 -8.24098
  776 191.892 35.4208 4.67566
  777 62.0379 7.35254 -1.11905
  778 62.0758 7.34268 1.13057
  779 249.045 8.01468 -19.2042
  780 246.887 7.73702 19.8075
  781 252.020 20.9432 2.57454
  782 156.293 2.44476 -17.6842
  783 156.302 2.44324 17.6840
  784 121.495 7.39100 -8.83180
  785 121.495 7.39164 8.83410
  786 201.371 10.9775 -8.81133
  787 135.935 1.35760 7.94841
  788 135.928 1.35760 -7.94690
  789 153.183 3.68251 -9.72974
  790 153.351 3.78999 9.90433
  791 115.102 11.7535 15.9973
  792 115.102 11.7538 -15.9939
  793 104.842 11.9216 22.6341
  794 104.841 11.9253 -22.6272
  795 168.114 -14.8719 -0.565368
  796 168.104 -14.8948 0.562290
  797 211.712 -11.9142 -1.16496
  798 211.717 -11.8814 1.14276
  799 102.232 9.04579 -12.2130
  800 102.240 9.04901 12.2054
  801 81.4310 -21.7089 -31.1631
  802 81.4870 -21.7199 31.1591
  803 205.165 6.93704 4.96203
  804 120.189 8.51368 -1.82047
  805 120.194 8.51362 1.82027
  806 158.557 -0.887096 -1.43331
  807 158.555 -0.885427 1.43481
  808 160.281 -2.59796 2.50191
  809 160.280 -2.59488 -2.49575
  810 156.823 -1.57683 10.1545
  811 156.834 -1.59109 -10.1518
  812 158.191 -9.07285 2.08167
  813 158.202 -9.08152 -2.07621
  814 153.381 1.53431 11.8044
  815 153.372 1.53477 -11.8037
  816 210.100 -4.87892 -10.5749
  817 210.106 -4.88100 10.5593
  818 127.325 -3.35956 -18.4769
  819 127.340 -3.35023 18.4717
  820 129.252 0.633927 -4.09582
  821 129.258 0.634002 4.09693
  822 149.163 -1.63965 4.66809
  823 149.165 -1.64382 -4.66919
  824 125.574 4.15970 8.55379
  825 125.572 4.15929 -8.55156
  826 123.823 -28.8311 -41.5905
  827 120.616 -28.3897 42.0113
  828 173.449 22.3052 -8.49768
  829 130.669 3.51833 6.89511
  830 130.665 3.51698 -6.89779
  831 184.925 -0.0453913 -16.9218
  832 184.934 -0.0478240 16.9168
  833 143.635 -17.6134 -24.2497
  834 143.385 -17.6007 24.2275
  835 107.121 12.4680 -0.458948
  836 107.128 12.4684 0.458066
  837 218.390 -2.95327 -23.8397
  838 218.449 -2.48822 23.7428
  839 56.8339 -19.0851 32.5405
  840 56.8580 -19.0174 -32.7379
  841 210.638 11.1998 -12.5265
  842 163.843 -28.2081 -19.6635
  843 163.870 -27.9281 20.2984
  844 117.156 10.3748 11.0103
  845 117.157 10.3744 -11.0078
  846 127.834 7.47054 17.4362
  847 127.831 7.47120 -17.4335
  848 169.259 17.9200 9.31616
  849 132.744 0.600378 -4.72126
  850 132.751 0.600426 4.72237
  851 173.738 0.884262 14.9394
  852 173.728 0.885612 -14.9412
  853 140.716 -9.84330 -31.6237
  854 140.733 -9.84411 31.6228
  855 300.458 24.0494 -3.54893
  856 34.2528 -20.3731 -5.49455
  857 34.2372 -20.3957 5.57015
  858 144.271 0.854301 7.19485
  859 144.263 0.854346 -7.19383
  860 119.974 8.37058 5.50526
  861 119.977 8.36978 -5.50356
  862 144.198 4.43581 -2.68259
  863 128.432 7.17927 26.7729
  864 128.424 7.18443 -26.7705
  865 223.474 -6.63466 -14.7482
  866 223.536 -6.69544 14.8062
  867 150.308 -5.33171 6.00515
  868 150.314 -5.34019 -6.00656
  869 168.308 -7.09470 -10.2060
  870 168.306 -7.11163 10.2228
  871 159.048 -2.01661 5.51304
  872 159.050 -2.01451 -5.50474
  873 199.856 7.77472 15.5025
  874 81.5701 9.44224 19.8294
  875 81.5733 9.44722 -19.8135
  876 84.8193 12.2177 -6.93535
  877 84.8389 12.2119 6.92968
  878 189.869 -15.8107 19.7276
  879 130.326 3.71574 10.8414
  880 130.322 3.71562 -10.8392
  881 227.597 43.0851 -1.83032
  882 132.940 -0.607804 11.9141
  883 132.933 -0.612701 -11.9192
  884 248.188 -1.62443 -0.629629
  885 248.134 -1.37019 0.296633
  886 179.767 -11.7359 -6.46727
  887 179.288 -11.1609 6.96886
  888 304.821 22.2792 1.53320
  889 145.538 -0.473247 29.8169
  890 145.523 -0.465969 -29.8194
  891 181.065 -18.1954 -25.7214
  892 161.242 -1.17399 0.241324
  893 161.241 -1.17239 -0.237990
  894 208.580 -1.99646 -12.7803
  895 208.583 -1.99965 12.7699
  896 127.494 1.65739 -6.15466
  897 127.497 1.65758 6.15635
  898 108.532 13.4970 -8.55392
  899 108.527 13.4975 8.55574
  900 143.052 3.62873 3.66975
  901 238.121 40.0086 -1.37650
  902 140.359 4.48417 17.2417
  903 140.353 4.48512 -17.2400
  904 161.698 0.295791 -12.8915
  905 161.905 0.218642 12.8973
  906 142.084 0.308872 5.86136
  907 142.083 0.306098 -5.86405
  908 153.290 -0.787865 -3.01999
  909 153.288 -0.785554 3.02002
  910 184.355 14.7507 13.6394
  911 116.164 11.5313 20.4132
  912 116.162 11.5330 -20.4090
  913 120.502 8.37936 1.89793
  914 120.506 8.37864 -1.89711
  915 87.3350 14.6906 9.80371
  916 87.3475 14.6883 -9.79731
  917 163.778 8.90410 -11.8415
  918 144.481 -6.06702 -10.5196
  919 144.479 -6.05734 10.5130
  920 199.187 2.67175 -20.6522
  921 180.716 -10.5116 -20.5306
  922 180.744 -10.5198 20.5241
  923 75.0842 -5.44842 -27.8255
  924 75.1073 -5.46786 27.8414
  925 201.466 2.49302 21.5840
  926 163.414 -19.9618 10.9595
  927 164.551 -20.6097 -11.0461
  928 164.106 0.804996 -10.2567
  929 164.116 0.804565 10.2567
  930 148.981 0.433967 -8.26696
  931 148.916 0.549325 8.27083
  932 122.264 -30.4655 -30.0201
  933 122.382 -30.4646 29.7158
  934 126.211 5.08691 10.7789
  935 126.209 5.08662 -10.7765
  936 160.091 -6.07458 -2.32414
  937 160.096 -6.07912 2.33072
  938 197.039 -22.7266 -5.95019
  939 197.164 -22.7187 5.87947
  940 126.310 5.92586 4.02329
  941 126.305 5.92579 -4.02447
  942 186.382 7.72756 3.22723
  943 131.257 4.84284 13.7195
  944 131.253 4.84297 -13.7171
  945 144.839 4.69143 24.0337
  946 144.830 4.69493 -24.0335
  947 115.055 9.62206 -3.49429
  948 115.061 9.62297 3.49346
  949 338.171 27.5096 -0.877110
  950 76.1232 3.08015 -21.4133
  951 76.1499 3.07517 21.3926
  952 150.361 0.759030 7.81344
  953 150.352 0.759160 -7.81264
  954 196.377 -12.9440 -19.4534
  955 197.568 -12.5742 17.4073
  956 123.550 5.41312 7.80530
  957 123.549 5.41250 -7.80309
  958 127.626 0.227487 -2.23435
  959 127.631 0.227528 2.23502
  960 202.927 -0.515942 -12.5151
  961 202.931 -0.518101 12.5083
  962 300.303 13.7752 8.12832
  963 136.507 0.386964 3.90675
  964 136.499 0.386939 -3.90593
  965 140.876 0.415952 -4.78352
  966 140.885 0.415941 4.78436
  967 226.901 -3.32684 -3.28623
  968 226.888 -3.32220 3.27409
  969 182.559 11.2369 -13.7316
  970 113.352 -0.745204 -22.5533
  971 113.350 -0.728522 22.5394
  972 293.530 14.5279 -9.27148
  973 157.114 10.3255 6.96224
  974 160.810 -0.199147 -1.26993
  975 160.808 -0.198595 1.27041
  976 122.087 7.56386 10.8622
  977 122.087 7.56341 -10.8597
  978 231.032 -3.72912 4.42106
  979 231.004 -3.70952 -4.41165
  980 159.668 -13.6234 5.37453
  981 159.729 -13.6699 -5.37123
  982 163.629 -10.3834 -2.69123
  983 163.634 -10.3863 2.70122
  984 172.586 25.2904 0.992828
  985 108.668 8.69019 27.3251
  986 108.661 8.69731 -27.3183
  987 121.951 9.06938 15.1115
  988 121.950 9.06948 -15.1086
  989 141.508 1.61660 -5.18834
  990 192.239 -10.3843 -1.66481
  991 235.374 24.3414 15.5668
  992 194.636 30.3417 -9.40861
  993 121.677 6.93358 6.65765
  994 121.678 6.93279 -6.65563
  995 155.772 -1.05494 -6.19542
  996 155.765 -1.05341 6.20264
  997 116.613 4.31918 -14.0120
  998 116.620 4.32553 14.0089
  999 118.156 9.55050 8.14699
  1000 118.158 9.54987 -8.14492
  1001 155.413 9.65668 -6.23063
  1002 104.658 14.2114 14.4948
  1003 104.662 14.2113 -14.4908
  1004 135.191 2.76193 5.63401
  1005 135.188 2.76082 -5.63648
  1006 138.201 2.11802 -10.2400
  1007 138.208 2.11794 10.2416
  1008 123.044 6.60066 -5.71670
  1009 123.050 6.60154 5.71525
  1010 134.347 4.14030 29.0188
  1011 134.335 4.14727 -29.0183
  1012 187.016 0.481289 11.1186
  1013 187.007 0.482163 -11.1210
  1014 163.936 6.74479 12.8172
  1015 99.1298 13.5154 -2.64991
  1016 99.1395 13.5148 2.64709
  1017 218.771 -3.16369 -16.9016
  1018 218.919 -3.10257 16.8566
  1019 168.057 -0.867313 24.8797
  1020 168.044 -0.861513 -24.8853
  1021 126.057 -18.6940 33.9980
  1022 125.910 -18.7072 -34.2524
  1023 195.748 -13.5002 12.1227
  1024 195.713 -13.5011 -12.1409
  1025 152.444 -9.35964 7.61435
  1026 152.457 -9.37075 -7.61645
  1027 155.288 -1.95901 -2.41104
  1028 155.285 -1.95557 2.41247
  1029 125.986 2.97743 7.26430
  1030 125.984 2.97707 -7.26227
  1031 189.336 -12.8777 1.70633
  1032 110.407 9.27986 -7.99613
  1033 110.414 9.28283 7.99334
  1034 108.153 -9.94467 33.8569
  1035 108.128 -9.93597 -33.8618
  1036 130.862 0.222265 -2.73444
  1037 130.868 0.222275 2.73514
  1038 142.055 1.25140 5.79741
  1039 94.1079 5.97589 -18.2311
  1040 94.1195 5.97517 18.2160
  1041 158.733 -2.91969 -0.101023
  1042 158.736 -2.92337 0.105399
  1043 161.053 -0.877544 2.71348
  1044 161.057 -0.876060 -2.70783
  1045 116.713 10.1247 1.27460
  1046 116.718 10.1244 -1.27405
  1047 146.473 -20.6711 38.7402
  1048 161.759 -4.39431 -10.0329
  1049 161.770 -4.39196 10.0453
  1050 71.0730 -33.9428 38.4598
  1051 70.6816 -32.6627 -39.0722
  1052 216.470 10.8452 -21.8628
  1053 139.221 -10.4894 -19.2498
  1054 139.141 -10.4979 19.3031
  1055 162.516 -0.281356 -0.513471
  1056 162.514 -0.280786 0.514831
  1057 122.937 7.48554 -0.705491
  1058 122.941 7.48498 0.705579
  1059 127.339 0.634451 3.87829
  1060 127.334 0.634361 -3.87715
  1061 145.269 4.24632 19.2800
  1062 145.261 4.24790 -19.2790
  1063 139.453 -6.97493 15.1786
  1064 139.443 -6.98853 -15.1863
  1065 127.428 2.97630 8.08958
  1066 127.425 2.97602 -8.08753
  1067 223.376 -7.63921 20.3119
  1068 223.318 -7.70754 -20.2817
  1069 146.620 -2.79713 6.46754
  1070 146.623 -2.80312 -6.47022
  1071 132.688 1.76142 7.83406
  1072 132.683 1.76132 -7.83239
  1073 135.974 -18.9993 -31.5934
  1074 135.967 -18.9816 31.5950
  1075 145.974 1.93775 11.9568
  1076 145.966 1.93810 -11.9556
  1077 156.533 -0.413670 -2.22308
  1078 156.531 -0.412381 2.22332
  1079 239.031 -2.68264 -19.6041
  1080 239.244 -2.55421 19.6035
  1081 33.9465 -49.1783 -12.4196
  1082 33.9929 -49.1853 12.3609
  1083 224.345 -1.61229 -7.05148
  1084 224.337 -1.61361 7.04042
  1085 94.8463 -17.6579 39.6991
  1086 95.5212 -17.6001 -39.4066
  1087 174.426 0.417102 9.14675
  1088 174.415 0.417508 -9.14740
  1089 162.495 -0.791004 1.20260
  1090 162.496 -0.789902 -1.19877
  1091 22.9410 -44.9167 -14.5526
  1092 23.3100 -44.5509 15.0632
  1093 160.355 0.475327 -7.41349
  1094 160.365 0.475141 7.41380
  1095 127.406 3.35792 9.47543
  1096 127.399 3.35536 -9.47855
  1097 41.6676 -7.87583 -10.0859
  1098 41.7610 -7.90804 10.0957
  1099 64.3087 -40.9136 22.4618
  1100 64.2656 -40.9866 -22.4630
  1101 157.339 -6.35620 1.23646
  1102 157.346 -6.36279 -1.23176
  1103 112.404 11.4197 1.28167
  1104 112.409 11.4197 -1.28144
  1105 159.910 2.36136 -19.8407
  1106 159.919 2.35904 19.8396
  1107 214.775 -13.9102 5.66761
  1108 214.750 -13.8384 -5.68567
  1109 124.313 -10.2552 -27.5989
  1110 124.254 -10.1937 27.5559
  1111 165.264 -27.3848 28.6489
  1112 170.425 1.23954 -19.6828
  1113 170.434 1.23683 19.6797
  1114 160.492 -4.22861 -4.99214
  1115 160.495 -4.23244 4.99959
  1116 151.083 -3.22893 4.51921
  1117 151.087 -3.23476 -4.51946
  1118 146.219 0.108005 4.55829
  1119 146.220 0.105666 -4.55996
  1120 199.102 28.2350 9.92299
  1121 99.5151 -34.3007 -23.0742
  1122 99.6004 -33.5667 22.6047
  1123 124.159 -22.9471 -40.2691
  1124 250.608 18.1387 11.9938
  1125 164.065 15.8787 -7.08989
  1126 154.130 -27.9732 -29.2357
  1127 62.6671 3.84932 14.2796
  1128 62.6810 3.85454 -14.2528
  1129 125.200 9.05186 20.3691
  1130 125.196 9.05334 -20.3660
  1131 147.816 6.45199 1.65532
  1132 150.902 -0.291912 -6.80726
  1133 150.896 -0.262997 6.81113
  1134 185.990 -2.31269 10.9863
  1135 199.277 0.251164 -9.26396
  1136 199.284 0.250384 9.26078
  1137 253.170 21.3268 -7.56632
  1138 155.764 -24.7974 24.8506
  1139 124.003 5.92329 -9.82137
  1140 124.004 5.92374 9.82378
  1141 172.939 -6.95211 -10.6282
  1142 173.642 -6.54648 10.9306
  1143 128.883 3.40864 9.65413
  1144 128.879 3.40844 -9.65194
  1145 164.101 4.40731 -5.45990
  1146 134.720 0.839429 -8.69322
  1147 134.724 0.842580 8.68914
  1148 247.657 14.6527 -16.3354
  1149 129.839 4.74910 -4.54648
  1150 129.844 4.74929 4.54484
  1151 199.056 0.0866777 18.9895
  1152 196.405 -4.80916 -16.4817
  1153 196.417 -4.81469 16.4698
  1154 177.879 3.49559 -14.6280
  1155 198.440 0.243431 -18.8282
  1156 130.986 0.997034 -5.63679
  1157 130.992 0.997127 5.63816
  1158 158.584 -2.54315 -8.38217
  1159 158.584 -2.53932 8.39176
  1160 135.422 1.86361 0.251531
  1161 134.673 5.33148 16.7270
  1162 134.668 5.33214 -16.7248
  1163 186.464 -1.84105 -10.9348
  1164 113.072 11.8409 8.01347
  1165 113.076 11.8404 -8.01166
  1166 151.920 -16.5689 16.6500
  1167 153.152 -17.2779 -16.3964
  1168 124.108 9.08439 23.7378
  1169 124.103 9.08761 -23.7344
  1170 124.657 4.03391 7.42152
  1171 124.655 4.03340 -7.41939
  1172 158.166 -1.85407 1.05660
  1173 158.168 -1.85688 -1.05388
  1174 104.017 14.2866 5.19931
  1175 104.024 14.2858 -5.19856
  1176 124.316 1.47264 13.6646
  1177 124.308 1.46719 -13.6682
  1178 148.849 0.359439 4.61693
  1179 148.839 0.359473 -4.61633
  1180 174.723 -19.7716 4.03495
  1181 175.719 -19.5749 -3.46833
  1182 134.312 2.76217 10.5682
  1183 134.307 2.76216 -10.5662
  1184 129.070 0.147217 2.15630
  1185 129.064 0.147207 -2.15570
  1186 231.591 -2.82154 -8.26726
  1187 231.614 -2.84360 8.30071
  1188 134.270 0.182066 -2.41919
  1189 134.278 0.182067 2.41976
  1190 157.422 -4.64519 28.0143
  1191 157.404 -4.63863 -28.0183
  1192 275.585 43.8784 -1.47006
  1193 113.275 12.2514 11.6322
  1194 113.278 12.2511 -11.6296
  1195 154.945 1.94817 14.7116
  1196 154.936 1.94904 -14.7112
  1197 154.670 1.23827 -10.9512
  1198 154.883 1.20091 11.0728
  1199 380.084 21.6655 11.6634
  1200 181.186 24.3310 10.1153
  1201 77.3094 12.9724 0.687162
  1202 77.3330 12.9650 -0.683654
  1203 120.940 7.84648 3.79108
  1204 120.943 7.84561 -3.78974
  1205 370.630 23.4938 -11.6507
  1206 149.891 -0.231917 -3.73254
  1207 149.890 -0.229815 3.73166
  1208 174.355 -26.3196 -16.9419
  1209 174.551 -26.3274 17.0008
  1210 121.383 8.56379 -12.6200
  1211 121.383 8.56408 12.6226
  1212 174.003 2.51078 13.5849
  1213 165.202 3.48814 8.57560
  1214 159.908 -23.6151 -20.2935
  1215 109.173 13.0102 -4.42668
  1216 109.167 13.0106 4.42746
  1217 167.390 -10.7026 5.85195
  1218 167.394 -10.7021 -5.83751
  1219 126.271 7.25671 15.4370
  1220 126.269 7.25695 -15.4343
  1221 184.714 -0.986753 19.7004
  1222 184.704 -0.982400 -19.7077
  1223 192.886 -18.6663 -10.2979
  1224 192.948 -18.6593 10.2742
  1225 172.356 11.9904 -13.2726
  1226 132.642 6.59513 19.1274
  1227 132.637 6.59637 -19.1250
  1228 182.555 31.5766 -2.90854
  1229 173.413 11.2887 13.6727
  1230 156.991 0.420500 -5.94743
  1231 157.002 0.420382 5.94787
  1232 205.383 -22.0062 -3.26000
  1233 205.611 -21.7913 2.97887
  1234 144.549 0.182492 -4.04359
  1235 144.558 0.182458 4.04423
  1236 138.779 0.545966 -7.11139
  1237 138.781 0.548926 7.10789
  1238 54.3707 -19.5220 24.0183
  1239 54.3340 -19.4902 -23.9993
  1240 97.9609 14.5267 16.0921
  1241 97.9661 14.5270 -16.0858
  1242 222.846 1.39433 -24.8832
  1243 183.940 0.448132 8.02358
  1244 183.929 0.448544 -8.02475
  1245 163.846 17.7768 4.64677
  1246 216.332 43.7433 2.09804
  1247 130.155 -3.45469 -32.6252
  1248 130.173 -3.46214 32.6237
  1249 167.813 -2.15941 -13.0791
  1250 167.807 -2.37962 12.9863
  1251 139.318 -11.0714 -27.6977
  1252 143.216 -13.9566 27.7319
  1253 121.490 7.17355 5.31692
  1254 121.492 7.17267 -5.31520
  1255 117.476 9.72197 4.21983
  1256 117.480 9.72138 -4.21855
  1257 120.282 8.05020 7.37500
  1258 120.283 8.04948 -7.37294
  1259 218.435 -0.684042 -8.01674
  1260 218.434 -0.685202 8.01026
  1261 145.408 -4.22322 8.25547
  1262 145.410 -4.23105 -8.25994
  1263 290.776 14.9508 31.1916
  1264 223.095 1.20793 24.6443
  1265 150.654 6.04840 6.43501
  1266 264.643 6.87481 -7.39989
  1267 134.720 1.06281 -2.04459
  1268 97.7878 6.76150 27.2963
  1269 97.7789 6.77078 -27.2864
  1270 237.630 10.4843 37.1087
  1271 211.603 12.4292 -3.59458
  1272 88.6152 14.8653 1.83130
  1273 88.6301 14.8612 -1.83099
  1274 140.441 4.97612 -27.0566
  1275 140.451 4.97079 27.0568
  1276 209.953 13.5812 35.9070
  1277 96.5276 10.7055 23.5979
  1278 96.5257 10.7110 -23.5877
  1279 147.798 2.97264 16.2926
  1280 147.790 2.97362 -16.2916
  1281 296.950 25.8956 3.14449
  1282 218.405 13.0776 8.28782
  1283 269.357 39.4134 12.8372
  1284 226.928 4.26411 -30.2885
  1285 172.806 -12.6142 -5.83532
  1286 172.798 -12.5529 5.86669
  1287 233.542 -9.19183 12.4481
  1288 233.450 -9.38208 -12.3420
  1289 154.555 -7.43444 -4.18472
  1290 154.546 -7.42549 4.18688
  1291 129.165 1.23589 5.79620
  1292 129.160 1.23574 -5.79470
  1293 139.309 -2.76580 10.4829
  1294 139.306 -2.77210 -10.4890
  1295 156.923 -15.2902 -27.2728
  1296 156.945 -15.2908 27.2810
  1297 108.645 13.5360 12.8892
  1298 108.649 13.5357 -12.8861
  1299 199.310 -9.08429 -4.67372
  1300 148.882 4.98018 -6.58037
  1301 278.677 15.6566 -36.6238
  1302 256.412 32.3302 -23.1240
  1303 165.493 4.13342 -13.6215
  1304 344.866 20.9236 -24.5398
  1305 157.404 -0.667031 -3.98969
  1306 157.392 -0.667959 3.99663
  1307 159.061 -4.46254 -1.03080
  1308 159.065 -4.46701 1.03642
  1309 206.767 -1.31803 -15.3991
  1310 128.465 1.72660 31.1602
  1311 128.449 1.73505 -31.1596
  1312 152.423 -1.74100 -3.48745
  1313 152.420 -1.73721 3.48767
  1314 238.533 -1.70274 0.736240
  1315 238.502 -1.69669 -0.738650
  1316 153.594 -5.05340 3.68626
  1317 153.600 -5.06063 -3.68469
  1318 126.864 1.26401 -5.17694
  1319 126.867 1.26418 5.17845
  1320 222.936 7.57400 21.8530
  1321 210.883 -8.03680 -6.67326
  1322 210.892 -8.02992 6.65435
  1323 135.161 6.53012 23.8588
  1324 135.154 6.53330 -23.8570
  1325 157.171 -29.4735 -33.3093
  1326 77.7899 -7.37893 31.7091
  1327 77.7843 -7.36935 -31.7450
  1328 214.312 7.25722 -20.2221
  1329 164.577 -7.48609 -8.44691
  1330 164.583 -7.49010 8.45023
  1331 121.185 9.84520 17.3413
  1332 121.184 9.84576 -17.3381
  1333 163.695 -16.6401 -5.98609
  1334 163.663 -16.6504 5.87459
  1335 166.439 1.45999 15.2212
  1336 166.429 1.46119 -15.2222
  1337 14.6565 -63.4045 3.21092
  1338 14.8655 -63.8659 -3.14531
  1339 359.575 22.4816 26.3936
  1340 209.402 4.51262 1.38855
  1341 140.720 0.400588 -4.95147
  1342 215.806 26.3517 -6.01082
  1343 126.414 2.05844 -6.18167
  1344 126.417 2.05872 6.18346
  1345 184.680 -21.2948 11.0765
  1346 163.693 -3.35066 -11.8738
  1347 163.696 -3.33777 11.8756
  1348 233.910 -1.48093 -4.06675
  1349 233.892 -1.48075 4.05651
  1350 134.687 0.962762 6.15266
  1351 134.680 0.962730 -6.15135
  1352 115.674 10.1688 25.0224
  1353 115.669 10.1733 -25.0176
  1354 266.173 16.1222 12.2153
  1355 180.097 5.77681 -41.8813
  1356 163.875 -0.390344 0.0797377
  1357 163.874 -0.389805 -0.0780020
  1358 72.1011 11.1206 9.29774
  1359 72.1204 11.1183 -9.28318
  1360 160.742 -8.52851 -1.49360
  1361 160.749 -8.53316 1.50120
  1362 208.625 -1.29339 16.2333
  1363 127.563 5.16756 11.7452
  1364 127.560 5.16737 -11.7428
  1365 135.169 0.926813 2.68161
  1366 152.809 1.39985 27.3288
  1367 152.796 1.40592 -27.3317
  1368 93.7707 10.4435 -10.1898
  1369 93.7834 10.4430 10.1815
  1370 225.825 -2.12873 11.4444
  1371 225.913 -2.12276 -11.3926
  1372 139.114 0.204222 2.96059
  1373 139.105 0.204215 -2.96001
  1374 142.726 1.82207 10.8944
  1375 142.718 1.82227 -10.8929
  1376 60.9180 1.09756 -17.3792
  1377 60.9791 1.08151 17.3659
  1378 135.321 3.52402 12.5767
  1379 135.316 3.52415 -12.5746
  1380 163.585 -0.106175 -0.592264
  1381 163.582 -0.105922 0.592810
  1382 143.256 -1.03473 6.69632
  1383 143.256 -1.03901 -6.69949
  1384 38.0756 -51.5793 -24.2183
  1385 34.9655 -50.0024 24.0858
  1386 182.481 -22.9686 -14.0596
  1387 119.085 9.18834 -10.1837
  1388 119.084 9.18885 10.1861
  1389 139.449 1.74886 5.22030
  1390 139.447 1.74743 -5.22268
  1391 160.759 -1.72842 1.06889
  1392 160.758 -1.72624 -1.06427
  1393 170.065 0.846570 -22.1994
  1394 170.076 0.842577 22.1951
  1395 260.215 5.38479 10.5248
  1396 159.131 3.65437 -12.1546
  1397 126.753 4.17099 -9.42056
  1398 126.756 4.17133 9.42283
  1399 130.784 -2.43920 -15.2468
  1400 130.793 -2.43120 15.2411
  1401 130.697 2.84713 9.26472
  1402 130.693 2.84697 -9.26273
  1403 225.671 -0.746874 -6.81004
  1404 225.665 -0.747874 6.80218
  1405 122.841 5.71832 6.94756
  1406 122.842 5.71759 -6.94547
  1407 223.440 -7.64042 -8.78462
  1408 223.482 -7.68591 8.80336
  1409 282.605 16.9056 -8.47669
  1410 126.185 0.0639611 1.24255
  1411 126.179 0.0639587 -1.24216
  1412 139.046 1.20052 7.89328
  1413 139.039 1.20055 -7.89193
  1414 108.813 12.8023 20.2976
  1415 108.813 12.8042 -20.2924
  1416 116.667 9.69118 1.61737
  1417 116.662 9.69094 -1.61758
  1418 199.867 39.2100 -3.58446
  1419 220.961 -12.5558 13.6215
  1420 220.879 -12.4939 -13.6053
  1421 126.167 -6.64560 -22.8288
  1422 126.182 -6.60606 22.8393
  1423 148.681 3.74492 21.1949
  1424 148.673 3.74731 -21.1946
  1425 71.6595 8.62280 10.0156
  1426 71.6251 8.63532 -10.0208
  1427 158.739 3.44364 12.0235
  1428 285.913 25.8528 -1.30672
  1429 104.265 11.4923 -5.40992
  1430 104.272 11.4938 5.40670
  1431 125.558 6.51567 -2.04928
  1432 125.562 6.51520 2.04883
  1433 221.580 24.4792 1.97433
  1434 153.843 -0.241885 -2.76746
  1435 153.842 -0.240377 2.76723
  1436 119.258 8.24988 -4.37710
  1437 119.264 8.25065 4.37624
  1438 147.984 1.83821 -8.24966
  1439 223.063 -5.75304 -0.0561773
  1440 223.050 -5.73688 0.0467024
  1441 92.9709 -23.8239 36.6028
  1442 141.209 0.410172 5.05605
  1443 178.081 -3.16983 12.2484
  1444 140.276 3.59575 15.0452
  1445 140.269 3.59632 -15.0435
  1446 178.182 -3.59061 -12.1096
  1447 160.226 -2.58484 3.97118
  1448 160.226 -2.58176 -3.96393
  1449 156.717 -15.2093 10.6555
  1450 156.535 -15.3228 -10.7424
  1451 156.975 -21.5804 19.1899
  1452 117.864 10.2966 13.0884
  1453 117.865 10.2964 -13.0857
  1454 173.829 0.374982 5.28837
  1455 173.818 0.375103 -5.28856
  1456 122.535 7.52968 1.00863
  1457 122.539 7.52887 -1.00803
  1458 193.463 6.87483 11.6536
  1459 131.534 5.71972 15.5586
  1460 131.530 5.72006 -15.5562
  1461 110.773 3.76119 -17.2385
  1462 110.778 3.77080 17.2316
  1463 160.141 -3.88651 -6.86900
  1464 160.145 -3.88932 6.87750
  1465 128.587 2.03338 -7.15011
  1466 128.591 2.03357 7.15193
  1467 208.171 0.153595 -7.93106
  1468 208.175 0.152826 7.92733
  1469 126.995 5.36299 5.61005
  1470 126.990 5.36237 -5.61181
  1471 155.758 -1.04886 -2.34846
  1472 155.756 -1.04660 2.34930
  1473 103.576 14.6365 -8.24173
  1474 103.570 14.6374 8.24357
  1475 162.645 -0.0428298 -0.752902
  1476 162.642 -0.0426782 0.752977
  1477 149.919 6.88457 -3.00379
  1478 94.4691 13.6061 -17.4508
  1479 94.4644 13.6047 17.4590
  1480 148.965 -6.80609 8.02541
  1481 148.972 -6.81671 -8.02947
  1482 164.042 -13.3968 0.795134
  1483 164.048 -13.3985 -0.770793
  1484 112.919 12.2177 17.8668
  1485 112.920 12.2185 -17.8628
  1486 193.720 -2.27649 17.3093
  1487 193.710 -2.27157 -17.3190
  1488 159.973 -0.635924 2.95114
  1489 159.982 -0.634804 -2.94530
  1490 157.933 7.08636 -10.2838
  1491 46.0020 -3.60275 -1.52630
  1492 45.9477 -3.59285 1.56207
  1493 124.433 6.63921 11.8492
  1494 124.431 6.63892 -11.8466
  1495 123.025 7.18716 -2.74079
  1496 123.030 7.18708 2.74023
  1497 209.826 -3.22184 -11.4478
  1498 209.831 -3.22515 11.4342
  1499 126.826 0.380818 2.99064
  1500 126.821 0.380758 -2.98973
  1501 159.212 -1.34333 -11.7360
  1502 159.196 -1.31840 11.7548
  1503 116.280 8.03980 7.16970
  1504 116.273 8.03771 -7.17140
  1505 143.411 0.759935 4.88865
  1506 143.411 0.758031 -4.89070
  1507 172.167 -6.80611 24.5669
  1508 172.147 -6.79867 -24.5728
  1509 193.175 -9.08969 -15.6463
  1510 193.200 -9.09552 15.6335
  1511 169.174 -18.3843 3.61778
  1512 169.323 -18.2195 -3.40215
  1513 148.674 1.78352 8.56840
  1514 145.556 -0.722237 5.49332
  1515 145.557 -0.725838 -5.49550
  1516 191.613 17.9202 -12.7350
  1517 136.989 -4.04607 -13.0386
  1518 136.996 -4.03865 13.0315
  1519 147.966 -28.4462 32.7070
  1520 164.829 18.9193 -2.49019
  1521 147.773 -9.27310 -11.3109
  1522 147.771 -9.25788 11.3062
  1523 182.282 -19.9284 4.60221
  1524 96.0722 -1.72137 -31.1700
  1525 96.0940 -1.73526 31.1765
  1526 122.120 6.64229 7.83848
  1527 122.121 6.64160 -7.83629
  1528 158.625 -0.0969178 -1.66306
  1529 158.623 -0.0963073 1.66315
  1530 118.247 9.37251 6.38286
  1531 118.250 9.37182 -6.38108
  1532 212.299 -19.1461 4.73770
  1533 212.255 -19.0306 -4.79139
  1534 167.714 0.232897 -5.14419
  1535 167.726 0.232819 5.14423
  1536 179.159 4.92291 14.0165
  1537 180.507 0.970313 15.4167
  1538 149.882 -27.2991 -25.5662
  1539 149.842 -27.2292 25.6599
  1540 137.872 0.751542 5.83003
  1541 137.865 0.751521 -5.82893
  1542 129.664 4.69780 12.4698
  1543 129.661 4.69777 -12.4675
  1544 179.171 1.12319 -15.2971
  1545 155.061 10.5586 3.79580
  1546 225.537 -12.9322 -2.69163
  1547 226.393 -11.9733 3.72904
  1548 166.698 2.34268 13.8185
  1549 145.790 -0.0486950 -5.16775
  1550 145.740 -0.0533975 5.10882
  1551 110.250 10.9345 -4.29121
  1552 110.257 10.9360 4.28960
  1553 163.194 11.3103 10.2482
  1554 123.841 5.41420 -8.46328
  1555 123.842 5.41476 8.46556
  1556 157.318 2.61521 -7.93425
  1557 132.226 0.103231 -2.06958
  1558 132.234 0.103226 2.07010
  1559 80.3106 -24.1698 40.4104
  1560 80.7393 -23.9488 -40.2863
  1561 147.473 -23.4590 -27.3886
  1562 105.481 -26.8081 -32.7335
  1563 105.530 -26.7920 32.6926
  1564 159.948 -0.836449 -0.891184
  1565 159.946 -0.834997 0.893231
  1566 123.724 6.68588 28.8017
  1567 123.714 6.69258 -28.7986
  1568 182.420 21.9200 -11.6336
  1569 50.5235 -6.83465 -15.5583
  1570 50.5202 -6.85178 15.5980
  1571 157.815 6.96297 10.4640
  1572 152.028 3.33615 24.0804
  1573 152.018 3.34005 -24.0815
  1574 160.980 -0.376269 1.07064
  1575 160.983 -0.377006 -1.06968
  1576 137.565 5.71896 20.0570
  1577 137.559 5.72057 -20.0552
  1578 79.5941 -11.5891 -30.8766
  1579 79.6300 -11.6085 30.8842
  1580 230.342 -5.64886 22.4862
  1581 230.308 -5.75230 -22.4312
  1582 178.081 4.71438 36.4262
  1583 119.715 8.74382 0.0889673
  1584 119.720 8.74342 -0.0886497
  1585 158.880 7.14026 44.6142
  1586 175.880 -15.5121 -20.6321
  1587 175.919 -15.5213 20.6336
  1588 165.232 -2.63920 -26.1845
  1589 165.247 -2.64583 26.1789
  1590 154.065 0.237561 3.74522
  1591 154.053 0.237571 -3.74484
  1592 128.789 5.30940 -3.47472
  1593 128.793 5.30920 3.47356
  1594 81.2860 3.89917 -25.5131
  1595 81.2941 3.88707 25.5292
  1596 91.1309 -0.249801 26.2194
  1597 91.1233 -0.242260 -26.2363
  1598 85.4253 7.93982 -15.7076
  1599 85.4447 7.93382 15.6939
  1600 115.838 10.7773 8.73225
  1601 115.841 10.7768 -8.73018
  1602 156.380 3.80936 -1.18900
  1603 119.700 8.74461 3.77693
  1604 119.703 8.74384 -3.77563
  1605 134.010 3.42246 4.73708
  1606 134.007 3.42197 -4.73908
  1607 133.435 2.19489 8.94451
  1608 133.429 2.19482 -8.94272
  1609 147.337 -31.4962 -23.8967
  1610 147.986 -31.3420 24.1919
  1611 160.733 -11.2872 -1.49650
  1612 160.716 -11.2786 1.50765
  1613 154.058 -12.0817 -8.98857
  1614 154.050 -12.1015 8.97140
  1615 161.069 -7.09625 -3.36009
  1616 161.074 -7.10040 3.36689
  1617 166.434 3.54181 -34.8950
  1618 160.107 -4.29979 -2.96212
  1619 160.110 -4.30391 2.96878
  1620 168.057 14.7394 -10.7559
  1621 151.472 -0.156040 8.84640
  1622 151.466 -0.157093 -8.84818
  1623 405.791 22.0225 -1.78038
  1624 156.894 -2.43986 1.45986
  1625 156.897 -2.44351 -1.45715
  1626 163.142 -0.406988 1.31236
  1627 163.147 -0.406235 -1.30906
  1628 164.329 -0.262406 0.334544
  1629 164.330 -0.262049 -0.332669
  1630 134.468 2.38084 6.65151
  1631 134.464 2.37919 -6.65445
  1632 136.044 0.164384 2.27654
  1633 136.036 0.164375 -2.27604
  1634 82.6721 12.9754 14.6668
  1635 82.6827 12.9758 -14.6553
  1636 93.4153 15.0544 9.76301
  1637 93.4252 15.0528 -9.75872
  1638 169.360 -22.8305 12.2860
  1639 180.824 0.607801 -15.7587
  1640 180.833 0.605985 15.7555
  1641 147.193 3.14961 7.14069
  1642 154.240 -2.87239 -2.84678
  1643 154.237 -2.86765 2.84822
  1644 142.807 0.137753 -2.67293
  1645 142.816 0.137739 2.67338
  1646 208.613 -16.1750 -0.280176
  1647 208.626 -16.1249 0.245338
  1648 180.364 -20.2224 -3.90816
  1649 147.072 1.17259 8.71885
  1650 147.063 1.17272 -8.71783
  1651 237.276 -1.51435 4.64110
  1652 237.248 -1.50360 -4.62437
  1653 105.166 -1.69002 -25.7062
  1654 105.173 -1.69610 25.6832
  1655 123.858 4.70038 7.29732
  1656 123.857 4.69977 -7.29518
  1657 288.972 17.6245 3.57070
  1658 130.359 0.0911280 1.40329
  1659 130.352 0.0911153 -1.40291
  1660 151.652 -0.0604593 4.22117
  1661 151.671 -0.0685879 -4.21597
  1662 124.947 -14.1965 32.9559
  1663 124.932 -14.2022 -32.9643
  1664 78.4597 -24.3243 -32.2028
  1665 294.165 36.1569 -18.1037
  1666 109.738 7.51562 -11.6993
  1667 109.745 7.52058 11.6950
  1668 149.899 1.25897 10.1857
  1669 149.890 1.25924 -10.1847
  1670 127.934 1.23803 5.49016
  1671 127.930 1.23788 -5.48864
  1672 194.165 1.40893 -9.52185
  1673 125.819 8.84267 21.8874
  1674 125.814 8.84482 -21.8844
  1675 131.501 0.692924 -4.64484
  1676 131.507 0.692986 4.64598
  1677 127.579 0.0810386 -1.29798
  1678 127.586 0.0810677 1.29837
  1679 116.105 -0.110767 -19.8080
  1680 116.108 -0.0963517 19.8032
  1681 223.977 6.65744 -22.3262
  1682 217.454 -0.188615 -5.49201
  1683 217.454 -0.189097 5.48845
  1684 132.013 1.28568 6.54454
  1685 132.007 1.28560 -6.54304
  1686 136.838 -13.7609 24.0713
  1687 136.866 -13.9747 -24.1891
  1688 145.531 2.86309 14.7147
  1689 145.523 2.86372 -14.7134
  1690 124.084 5.26308 7.80551
  1691 124.078 5.26137 -7.80766
  1692 24.0100 -74.5767 5.71771
  1693 23.9758 -74.5145 -5.81258
  1694 177.566 28.3182 4.17945
  1695 245.631 -0.644297 -0.865881
  1696 245.596 -0.643239 0.860977
  1697 199.495 0.137404 6.92897
  1698 199.488 0.137834 -6.93102
  1699 128.290 0.508442 3.60443
  1700 128.284 0.508376 -3.60340
  1701 193.444 -0.0416353 -14.3648
  1702 193.451 -0.0436311 14.3594
  1703 156.331 -20.9810 -18.5803
  1704 126.772 2.65748 -7.33310
  1705 126.775 2.65779 7.33508
  1706 150.487 -4.13657 5.30587
  1707 150.492 -4.14360 -5.30679
  1708 330.759 26.2384 1.74924
  1709 128.669 5.66215 13.5462
  1710 128.666 5.66216 -13.5437
  1711 142.558 3.90990 0.00993055
  1712 115.527 -12.8681 -32.8407
  1713 115.635 -12.9414 32.7952
  1714 125.221 3.17318 6.92610
  1715 125.219 3.17274 -6.92406
  1716 161.078 -1.55996 2.37642
  1717 161.079 -1.55794 -2.37075
  1718 177.952 2.89009 -14.0419
  1719 139.544 5.80531 -22.4695
  1720 139.551 5.80262 22.4709
  1721 91.6463 13.9627 -2.01492
  1722 91.6599 13.9597 2.01222
  1723 117.600 11.1806 18.7047
  1724 117.599 11.1816 -18.7011
  1725 113.549 4.54168 30.3702
  1726 113.536 4.55082 -30.3657
  1727 157.089 -11.1753 -5.11936
  1728 157.072 -11.1606 5.11757
  1729 163.774 -8.95363 5.05822
  1730 163.770 -8.95077 -5.05116
  1731 169.716 -10.1659 -7.80940
  1732 169.731 -10.1710 7.80210
  1733 151.646 3.11063 17.6785
  1734 151.638 3.11203 -17.6781
  1735 169.952 -22.3256 -10.8460
  1736 134.469 4.74125 14.7660
  1737 134.464 4.74158 -14.7638
  1738 103.667 5.79709 -16.8247
  1739 103.673 5.80267 16.8139
  1740 157.454 -10.4870 -27.4855
  1741 157.475 -10.4916 27.4856
  1742 122.010 7.59963 2.66534
  1743 122.013 7.59872 -2.66425
  1744 160.748 1.04855 10.2798
  1745 160.738 1.04896 -10.2795
  1746 318.282 22.7587 -57.6147
  1747 126.339 3.36025 -8.00681
  1748 126.342 3.36060 8.00893
  1749 163.372 1.29433 13.0159
  1750 163.362 1.29506 -13.0161
  1751 190.265 0.264324 7.16439
  1752 190.255 0.264639 -7.16575
  1753 117.081 5.71605 -11.4049
  1754 117.088 5.72039 11.4023
  1755 122.329 1.28847 -15.6215
  1756 122.339 1.29582 15.6183
  1757 154.279 -0.973615 8.14560
  1758 154.283 -0.983720 -8.13989
  1759 136.858 -7.79653 17.8853
  1760 136.862 -7.81226 -17.8956
  1761 118.978 -22.5512 39.0983
  1762 117.759 -22.0164 -38.8853
  1763 160.980 11.8224 -8.79762
  1764 134.562 0.438231 -4.23243
  1765 134.569 0.438259 4.23337
  1766 133.145 0.946416 1.51960
  1767 119.041 7.54274 6.57046
  1768 119.035 7.54121 -6.57193
  1769 183.488 -26.8478 -12.8830
  1770 183.789 -26.9661 12.8563
  1771 207.580 -1.06875 -11.9344
  1772 207.583 -1.07111 11.9261
  1773 150.155 -0.738919 3.96254
  1774 150.156 -0.741760 -3.96330
  1775 136.180 0.527253 -3.31328
  1776 142.492 -10.3006 16.2805
  1777 142.457 -10.3340 -16.3062
  1778 222.567 15.7372 2.65265
  1779 159.000 -7.84314 -0.240403
  1780 158.992 -7.83678 0.246676
  1781 133.292 3.72410 -12.4413
  1782 133.297 3.72402 12.4434
  1783 125.546 3.17417 10.9335
  1784 125.539 3.17082 -10.9367
  1785 119.488 8.76499 9.07288
  1786 119.489 8.76439 -9.07062
  1787 111.540 12.1335 3.76773
  1788 111.545 12.1332 -3.76694
  1789 122.246 6.50166 5.90124
  1790 122.247 6.50081 -5.89935
  1791 208.858 37.4367 5.66738
  1792 220.312 -4.74979 21.4433
  1793 220.235 -4.77283 -21.4907
  1794 195.703 -11.3548 2.99764
  1795 121.947 7.40511 10.0927
  1796 121.946 7.40460 -10.0903
  1797 174.510 26.2720 -3.83607
  1798 324.073 19.4001 44.9093
  1799 137.101 5.96606 25.3021
  1800 137.093 5.97020 -25.3009
  1801 162.066 1.74421 9.73356
  1802 114.895 -29.7800 43.2040
  1803 115.242 10.6211 2.24752
  1804 115.247 10.6208 -2.24682
  1805 157.034 11.8748 -4.29173
  1806 132.444 0.937507 10.1252
  1807 132.438 0.934004 -10.1294
  1808 157.745 -3.88129 -0.480977
  1809 157.740 -3.87660 0.485280
  1810 179.383 -0.270073 20.4005
  1811 179.373 -0.265933 -20.4065
  1812 117.764 -29.7461 -42.3816
  1813 171.808 22.9044 6.21065
  1814 141.279 0.911913 6.73928
  1815 141.270 0.911938 -6.73818
  1816 123.596 8.04173 14.2746
  1817 123.594 8.04172 -14.2718
  1818 149.035 1.56705 3.49491
  1819 124.209 8.43505 16.4604
  1820 124.207 8.43543 -16.4575
  1821 133.985 -17.9513 29.9241
  1822 133.447 -18.4292 -30.6236
  1823 116.725 11.0996 15.1431
  1824 116.725 11.0997 -15.1400
  1825 203.886 34.3687 -8.02311
  1826 236.068 13.0303 17.2285
  1827 166.537 1.78477 19.0024
  1828 166.527 1.78707 -19.0045
  1829 218.791 -9.07476 3.72357
  1830 218.773 -9.03851 -3.73057
  1831 159.172 -0.348244 -1.56044
  1832 159.170 -0.347349 1.56102
  1833 114.189 -3.76102 -33.4127
  1834 114.209 -3.77012 33.4126
  1835 170.405 -21.4237 30.4181
  1836 149.568 -27.9154 37.8777
  1837 222.291 -3.28584 -6.03849
  1838 222.284 -3.28517 6.02458
  1839 184.366 -10.3872 -6.51979
  1840 196.353 0.981479 8.24278
  1841 181.813 -22.4053 -16.9572
  1842 182.989 -21.1302 16.8921
  1843 222.183 -6.20020 18.3431
  1844 222.072 -6.20550 -18.3319
  1845 162.441 -27.2558 24.4293
  1846 29.3984 -25.0337 6.54702
  1847 29.2354 -24.9554 -6.46607
  1848 157.698 -1.73575 -6.68246
  1849 157.694 -1.73524 6.69097
  1850 182.513 0.0700348 5.36828
  1851 182.502 0.0702375 -5.36884
  1852 128.374 2.91577 8.65800
  1853 128.370 2.91554 -8.65592
  1854 265.023 31.8971 50.1460
  1855 54.7873 -7.17234 21.9103
  1856 54.7214 -7.19262 -21.9417
  1857 121.548 7.58415 -3.68786
  1858 121.553 7.58450 3.68711
  1859 133.202 3.27162 5.95027
  1860 133.198 3.27059 -5.95275
  1861 140.988 1.80533 -10.1363
  1862 140.995 1.80521 10.1378
  1863 216.551 -17.9927 -0.549838
  1864 216.114 -18.0711 0.358247
  1865 55.4621 -38.8139 -22.6931
  1866 55.5013 -38.7916 22.6779
  1867 118.692 9.32227 -2.41252
  1868 118.688 9.32286 2.41344
  1869 156.363 0.696369 8.67639
  1870 156.352 0.696643 -8.67586
  1871 124.193 5.98248 10.4519
  1872 124.192 5.98209 -10.4494
  1873 109.657 10.2283 25.0693
  1874 109.653 10.2334 -25.0629
  1875 91.3203 -34.2869 29.1242
  1876 91.2003 -34.3311 -29.1473
  1877 113.573 11.3906 22.1553
  1878 113.571 11.3932 -22.1504
  1879 158.985 -2.70943 -9.99683
  1880 158.986 -2.69679 10.0087
  1881 161.663 -5.30408 -8.26299
  1882 161.671 -5.30647 8.27150
  1883 168.813 7.70569 13.6514
  1884 184.498 -10.1844 6.25735
  1885 157.559 -1.36969 -1.50033
  1886 157.557 -1.36725 1.50222
  1887 97.6477 14.3681 1.86834
  1888 97.6575 14.3667 -1.86900
  1889 55.6716 -38.3360 -9.52904
  1890 55.7288 -38.2991 9.52858
  1891 143.946 3.08229 -4.78084
  1892 162.955 1.91220 21.8923
  1893 162.945 1.91538 -21.8948
  1894 151.578 -0.129314 -3.30612
  1895 151.577 -0.127632 3.30551
  1896 148.997 -2.23849 4.99625
  1897 149.000 -2.24347 -4.99747
  1898 136.708 1.87724 -9.15558
  1899 136.714 1.87723 9.15720
  1900 155.009 -0.385766 3.90983
  1901 155.025 -0.386597 -3.90380
  1902 125.456 5.04302 10.0545
  1903 125.454 5.04265 -10.0521
  1904 217.190 -0.970071 -9.88476
  1905 217.234 -0.965291 9.98355
  1906 147.040 2.60305 27.4916
  1907 147.028 2.60907 -27.4930
  1908 210.022 0.112760 23.6170
  1909 188.650 8.78208 -12.6308
  1910 129.955 0.341865 -3.13789
  1911 129.962 0.341890 3.13872
  1912 130.720 0.897643 -0.785554
  1913 103.100 12.8191 -1.84553
  1914 103.108 12.8194 1.84362
  1915 213.954 26.4506 -53.0986
  1916 113.619 11.8427 10.2070
  1917 113.622 11.8423 -10.2048
  1918 38.0873 -20.7163 20.1104
  1919 37.9430 -20.7413 -20.2166
  1920 393.028 16.9388 -37.6431
  1921 171.142 -27.0549 -20.4840
  1922 132.085 0.307161 -3.26826
  1923 132.092 0.307188 3.26907
  1924 270.608 7.70638 -7.11811
  1925 163.853 -0.0507343 -0.558038
  1926 163.849 -0.0506203 0.558237
  1927 89.5623 -18.9190 20.4468
  1928 95.3503 -17.5091 -22.5639
  1929 92.9156 -8.96485 -34.0064
  1930 92.8743 -8.93356 33.9873
  1931 147.995 0.118794 4.05230
  1932 147.996 0.116910 -4.05360
  1933 160.670 0.246501 -3.85466
  1934 160.681 0.246450 3.85489
  1935 169.737 6.23995 -13.9117
  1936 127.020 4.32148 7.82127
  1937 127.014 4.31984 -7.82382
  1938 159.532 -3.18612 -1.25730
  1939 159.534 -3.18967 1.26272
  1940 139.744 1.02298 6.05156
  1941 139.742 1.02071 -6.05441
  1942 125.751 2.46181 6.40652
  1943 125.749 2.46146 -6.40462
  1944 123.047 6.15576 8.76379
  1945 123.046 6.15516 -8.76148
  1946 240.209 -1.19149 -2.37540
  1947 240.243 -1.19827 2.38025
  1948 189.531 29.2766 8.85558
  1949 133.656 0.273380 2.49144
  1950 179.812 0.515728 13.6634
  1951 179.802 0.516846 -13.6657
  1952 107.381 -16.5809 34.0284
  1953 107.352 -16.5766 -34.0435
  1954 155.342 -9.17273 4.91618
  1955 155.355 -9.18246 -4.91462
  1956 159.482 -1.86362 0.0467719
  1957 159.485 -1.86621 -0.0430820
  1958 109.131 -14.9875 35.9881
  1959 108.859 -15.0125 -35.9385
  1960 142.862 2.02192 29.2655
  1961 142.848 2.02889 -29.2671
  1962 186.389 -17.2462 14.9131
  1963 186.331 -17.2419 -14.9217
  1964 136.515 2.66000 4.90004
  1965 136.512 2.65919 -4.90220
  1966 317.984 31.6162 12.8562
  1967 129.464 1.63602 -6.72702
  1968 129.469 1.63617 6.72870
  1969 175.909 -15.3926 2.75578
  1970 175.708 -15.5594 -2.50086
  1971 113.392 -6.79917 28.5323
  1972 113.408 -6.79442 -28.5889
  1973 269.853 11.1955 -11.0138
  1974 164.499 -0.0744071 0.357835
  1975 164.502 -0.0746266 -0.357151
  1976 200.114 -6.39279 -17.2849
  1977 128.649 4.22097 10.8354
  1978 128.645 4.22077 -10.8331
  1979 178.297 17.0129 12.6989
  1980 130.362 2.87098 8.26203
  1981 130.356 2.86891 -8.26526
  1982 238.031 15.8714 -12.7204
  1983 179.720 0.351236 11.2141
  1984 204.976 -11.6718 6.71441
  1985 204.954 -11.6837 -6.73707
  1986 128.252 8.30018 -46.6084
  1987 180.532 26.8121 -8.35135
  1988 159.864 13.6637 4.94908
  1989 148.163 5.74953 3.98488
  1990 16.6005 -85.0878 6.61795
  1991 16.7055 -85.0640 -6.80957
  1992 168.999 21.1072 -5.60027
  1993 100.056 14.9698 11.8164
  1994 100.063 14.9690 -11.8126
  1995 178.818 0.121217 -10.9764
  1996 160.280 -17.8427 -10.9233
  1997 160.644 -17.7905 10.2525
  1998 181.952 -22.6680 15.1144
  1999 181.855 -22.6629 -15.1154
  2000 129.410 -24.5884 22.3763
  2001 134.583 -26.9388 -23.0121
  2002 101.062 11.5258 -7.39226
  2003 101.071 11.5269 7.38725
  2004 54.5201 -33.3763 34.6768
  2005 55.1745 -32.8108 -35.9090
  2006 116.295 10.4218 6.65703
  2007 116.298 10.4212 -6.65531
  2008 147.257 0.0995304 2.61968
  2009 147.247 0.0995581 -2.61931
  2010 210.689 3.73112 -3.77765
  2011 138.854 2.61694 -11.8752
  2012 138.860 2.61674 11.8769
  2013 120.680 7.77555 6.40694
  2014 120.682 7.77476 -6.40502
  2015 227.099 -2.23362 -24.5355
  2016 207.071 19.4884 8.37220
  2017 143.441 -15.0957 -20.9298
  2018 143.476 -14.7280 20.7297
  2019 239.232 2.33477 -21.9742
  2020 162.461 0.793776 -9.89555
  2021 227.936 -11.7161 -14.8852
  2022 227.929 -11.6991 14.9588
  2023 121.481 8.05695 0.559515
  2024 121.486 8.05631 -0.559043
  2025 125.434 3.70646 7.77483
  2026 125.432 3.70603 -7.77270
  2027 264.562 8.89032 13.6254
  2028 154.240 3.10781 20.0597
  2029 154.230 3.10999 -20.0601
  2030 207.102 1.14872 -23.0064
  2031 126.659 0.851075 4.38079
  2032 126.655 0.850955 -4.37946
  2033 144.405 -2.74798 7.53165
  2034 144.407 -2.75414 -7.53546
  2035 117.656 -3.94356 41.3837
  2036 237.359 -0.619250 -3.58771
  2037 237.342 -0.619627 3.58132
  2038 137.777 -0.934619 9.36746
  2039 137.774 -0.939230 -9.37249
  2040 126.177 0.182871 2.09234
  2041 126.172 0.182838 -2.09168
  2042 160.032 -1.27495 -3.77319
  2043 160.028 -1.27690 3.78019
  2044 54.1591 -40.3244 22.6566
  2045 242.330 19.2347 -2.78763
  2046 205.063 -8.69273 -10.1817
  2047 205.079 -8.69221 10.1637
  2048 144.331 -3.44482 -30.8059
  2049 144.349 -3.45169 30.8034
  2050 162.614 -0.372996 1.45560
  2051 162.621 -0.372360 -1.45221
  2052 142.222 1.97663 5.05882
  2053 431.481 12.6500 8.84900
  2054 265.437 20.9072 -9.61391
  2055 155.671 -0.642876 -10.6685
  2056 155.707 -0.639514 10.6758
  2057 200.510 5.19954 18.1308
  2058 143.439 -7.16538 12.3356
  2059 143.439 -7.17651 -12.3441
  2060 121.942 7.17104 4.32022
  2061 121.944 7.17012 -4.31870
  2062 239.742 2.23227 22.0648
  2063 120.357 8.69172 11.2910
  2064 120.357 8.69131 -11.2884
  2065 164.816 -5.73145 -10.2513
  2066 164.829 -5.73248 10.2599
  2067 136.075 -25.0325 -35.9888
  2068 49.3158 -45.4113 -21.3614
  2069 153.240 -7.36206 -5.47799
  2070 153.230 -7.35220 5.47834
  2071 155.795 -5.04024 -2.16570
  2072 155.789 -5.03395 2.16893
  2073 156.556 -0.128324 -2.16185
  2074 156.554 -0.127438 2.16177
  2075 219.219 17.5166 -0.449964
  2076 128.016 5.16670 -4.94031
  2077 128.020 5.16706 4.93866
  2078 112.838 10.6217 2.11501
  2079 112.832 10.6210 -2.11564
  2080 146.525 -13.5102 16.8463
  2081 146.789 -13.5647 -16.7999
  2082 118.951 -5.72732 25.1009
  2083 118.980 -5.77029 -25.1121
  2084 227.475 -2.25774 24.2778
  2085 109.260 12.4788 1.64082
  2086 109.266 12.4788 -1.64079
  2087 103.824 -34.7812 -28.4350
  2088 104.122 -34.6601 28.3109
  2089 151.801 -20.4920 -27.8730
  2090 151.814 -20.4799 27.8950
  2091 107.111 13.5589 -5.86027
  2092 107.105 13.5594 5.86131
  2093 35.9069 -30.1895 -12.9411
  2094 35.9464 -30.2592 12.9723
  2095 190.919 8.53456 7.25429
  2096 197.387 -0.150111 -13.1750
  2097 152.254 0.114066 2.55882
  2098 152.243 0.114078 -2.55853
  2099 157.489 -0.600886 -1.91114
  2100 157.486 -0.599369 1.91192
  2101 150.801 -2.07719 4.19723
  2102 150.804 -2.08167 -4.19760
  2103 157.752 -0.894450 27.5130
  2104 157.737 -0.887755 -27.5172
  2105 312.954 21.5725 2.74713
  2106 52.1070 1.88193 -4.53262
  2107 52.1631 1.86783 4.54548
  2108 161.737 -0.629128 -0.424896
  2109 161.735 -0.628148 0.427015
  2110 138.236 2.35098 -1.40320
  2111 137.844 0.0756816 -1.80482
  2112 137.853 0.0756989 1.80520
  2113 124.619 6.77001 -0.179507
  2114 124.623 6.76920 0.179709
  2115 183.914 6.22076 -10.6011
  2116 79.7023 13.2666 8.85584
  2117 79.7188 13.2636 -8.84642
  2118 220.931 -10.5256 11.4422
  2119 220.871 -10.4554 -11.4236
  2120 164.288 15.5156 7.82012
  2121 147.755 -3.94535 6.64638
  2122 147.759 -3.95266 -6.64901
  2123 162.370 -0.749106 0.647748
  2124 162.371 -0.748009 -0.644535
  2125 164.660 -0.199480 0.649767
  2126 164.663 -0.199244 -0.647797
  2127 133.298 5.71004 27.7313
  2128 133.288 5.71603 -27.7300
  2129 13.1530 -74.9943 -7.71018
  2130 13.2509 -73.7217 7.83525
  2131 83.5316 14.5171 -4.41746
  2132 83.5143 14.5218 4.42114
  2133 155.080 -0.565761 -2.55996
  2134 155.078 -0.563982 2.56023
  2135 127.866 8.06383 19.0247
  2136 127.862 8.06497 -19.0219
  2137 169.177 11.4932 12.6440
  2138 220.109 4.20004 23.7669
  2139 124.070 4.29511 30.1228
  2140 124.057 4.30332 -30.1205
  2141 128.304 0.850755 4.66059
  2142 128.299 0.850651 -4.65930
  2143 176.681 0.479626 10.7636
  2144 176.671 0.480286 -10.7647
  2145 129.843 7.56255 20.4780
  2146 129.839 7.56421 -20.4753
  2147 191.379 0.238058 -11.4563
  2148 191.388 0.237003 11.4532
  2149 163.663 -26.4513 -21.6707
  2150 262.606 22.4287 6.57345
  2151 141.761 -22.3928 30.0823
  2152 146.400 2.85763 -7.06534
  2153 142.382 4.33430 -18.2551
  2154 142.389 4.33302 18.2565
  2155 89.7702 9.98047 -12.1180
  2156 89.7859 9.97705 12.1076
  2157 135.651 5.39561 17.8471
  2158 135.646 5.39655 -17.8450
  2159 192.916 15.9345 12.1448
  2160 240.735 9.66993 -20.2926
  2161 71.2205 8.75781 14.3739
  2162 71.2330 8.75972 -14.3547
  2163 102.932 -25.1657 42.7810
  2164 108.466 -25.2213 -42.2871
  2165 163.719 -13.4001 -35.8176
  2166 135.920 2.80051 11.2206
  2167 135.914 2.80057 -11.2187
  2168 177.918 0.261539 -4.66676
  2169 177.930 0.261390 4.66650
  2170 131.564 0.521574 -1.97866
  2171 156.255 -1.44947 -7.72872
  2172 156.250 -1.44423 7.73604
  2173 104.353 14.2951 11.6761
  2174 104.359 14.2945 -11.6731
  2175 158.953 -6.11181 -0.749292
  2176 158.959 -6.11711 0.755198
  2177 168.801 0.680140 -10.0405
  2178 168.812 0.679693 10.0401
  2179 123.696 7.47073 -12.6743
  2180 123.697 7.47098 12.6769
  2181 83.6196 -1.94521 27.6666
  2182 83.6125 -1.95291 -27.6876
  2183 251.722 -0.145779 -10.4636
  2184 109.985 12.8903 -6.99823
  2185 109.981 12.8908 6.99968
  2186 152.831 9.51182 -0.0369821
  2187 332.960 27.3082 -1.97989
  2188 239.284 44.4982 1.26595
  2189 148.147 -0.833083 4.60167
  2190 148.148 -0.836354 -4.60300
  2191 183.441 -19.9064 -6.76432
  2192 281.301 22.4028 7.09864
  2193 251.572 -0.203217 11.0231
  2194 202.326 24.3927 -10.6942
  2195 160.262 -0.00444390 -1.29406
  2196 160.260 -0.00413963 1.29407
  2197 169.366 -13.0745 -3.99894
  2198 169.356 -13.0806 4.01851
  2199 131.606 6.60971 17.9130
  2200 131.602 6.61057 -17.9105
  2201 166.622 -12.7424 -2.13450
  2202 166.626 -12.7421 2.14768
  2203 139.549 -29.4481 -39.2318
  2204 131.222 1.79291 7.43987
  2205 131.217 1.79278 -7.43817
  2206 169.767 -5.26126 -11.6414
  2207 169.761 -5.24217 11.7001
  2208 199.090 -0.0460793 11.9393
  2209 124.628 6.34659 4.54370
  2210 124.622 6.34626 -4.54492
  2211 129.374 7.64416 25.1328
  2212 129.367 7.64803 -25.1303
  2213 176.264 -1.47567 -22.7229
  2214 176.277 -1.48129 22.7160
  2215 140.867 -14.8510 31.6363
  2216 140.857 -14.8568 -31.6335
  2217 115.168 10.4360 0.0556916
  2218 115.163 10.4360 -0.0555717
  2219 128.207 0.231120 2.74925
  2220 128.201 0.231101 -2.74846
  2221 171.979 -2.67886 -12.8932
  2222 171.557 -2.75806 12.9576
  2223 207.141 0.187115 -4.68764
  2224 207.148 0.186810 4.68597
  2225 154.284 -1.44366 -2.79683
  2226 154.281 -1.44062 2.79759
  2227 258.213 44.5092 3.05027
  2228 184.393 0.518625 10.3445
  2229 184.384 0.519306 -10.3463
  2230 119.253 8.79113 26.6956
  2231 119.246 8.79663 -26.6913
  2232 217.148 -1.53267 -9.38720
  2233 217.146 -1.53501 9.37661
  2234 181.954 -6.57972 -20.9966
  2235 181.974 -6.58685 20.9883
  2236 132.545 -25.6377 -29.5526
  2237 132.488 -25.6121 29.5382
  2238 76.4239 -14.6524 36.6921
  2239 76.3916 -14.5914 -36.6952
  2240 161.170 -5.70930 -5.39150
  2241 161.175 -5.71332 5.39840
  2242 208.914 -1.47442 20.1241
  2243 135.962 0.787035 -3.80447
  2244 130.263 0.837854 4.85555
  2245 130.258 0.837770 -4.85431
  2246 286.047 11.2965 10.1117
  2247 164.928 0.0403993 3.85909
  2248 164.917 0.0404837 -3.85899
  2249 160.028 -3.22957 -5.80691
  2250 160.029 -3.23265 5.81516
  2251 153.916 -3.76407 3.08926
  2252 153.921 -3.76987 -3.08771
  2253 194.352 -0.238991 -15.4819
  2254 194.359 -0.241773 15.4752
  2255 126.001 -7.64116 33.3680
  2256 125.982 -7.63643 -33.3713
  2257 69.9572 0.926899 22.3588
  2258 69.9500 0.940386 -22.3365
  2259 393.806 16.8229 28.5190
  2260 182.779 7.92966 -1.53866
  2261 124.735 4.50264 -8.22081
  2262 124.737 4.50313 8.22304
  2263 287.824 25.4039 -3.40201
  2264 121.697 7.86307 -1.32805
  2265 121.702 7.86274 1.32796
  2266 157.883 -19.1455 15.0372
  2267 228.590 -4.31777 7.56411
  2268 228.557 -4.29060 -7.54124
  2269 209.132 -1.43723 -20.6808
  2270 164.274 1.44241 -22.8633
  2271 164.284 1.43859 22.8601
  2272 175.801 -10.2085 -8.29915
  2273 175.654 -10.5408 8.02744
  2274 131.671 2.87689 9.91576
  2275 131.666 2.87678 -9.91374
  2276 198.980 -2.78551 -15.7469
  2277 198.989 -2.78998 15.7359
  2278 216.940 10.0633 13.8312
  2279 236.149 32.7458 2.89137
  2280 106.133 9.68428 9.44112
  2281 106.125 9.68105 -9.44572
  2282 200.780 -1.19891 -2.43893
  2283 140.440 0.0642007 -3.35291
  2284 144.747 -29.2259 -35.9853
  2285 218.241 33.1902 4.79149
  2286 153.525 0.808705 8.12523
  2287 153.515 0.808871 -8.12457
  2288 231.711 -1.54999 -6.86195
  2289 231.709 -1.57059 6.90418
  2290 160.947 -2.72326 11.3875
  2291 160.937 -2.74414 -11.3726
  2292 147.316 0.00639254 -3.20113
  2293 147.284 0.0178878 3.18352
  2294 142.405 2.40498 12.5185
  2295 142.398 2.40530 -12.5170
  2296 78.4355 11.2947 -6.76113
  2297 78.4609 11.2857 6.75730
  2298 160.378 -5.15470 -3.61623
  2299 160.382 -5.15888 3.62301
  2300 111.394 12.8570 15.4548
  2301 111.396 12.8572 -15.4512
  2302 64.4735 8.14051 7.02875
  2303 64.4993 8.13744 -7.01015
  2304 129.208 0.0936459 1.12045
  2305 129.201 0.0936324 -1.12014
  2306 165.272 -25.5060 18.9030
  2307 160.962 1.31630 25.3279
  2308 160.951 1.32129 -25.3316
  2309 180.485 5.42304 12.8572
  2310 115.012 11.0217 7.10811
  2311 115.015 11.0212 -7.10638
  2312 145.805 0.388950 5.31728
  2313 145.795 0.388986 -5.31653
  2314 138.129 -0.139802 8.14659
  2315 138.127 -0.143534 -8.15076
  2316 162.348 -8.76732 3.34091
  2317 162.342 -8.76377 -3.33334
  2318 134.524 1.44224 7.61520
  2319 134.518 1.44217 -7.61367
  2320 153.956 6.40427 -8.50984
  2321 151.985 2.24150 -9.88779
  2322 197.246 7.01464 -15.8247
  2323 144.756 0.700109 4.49359
  2324 144.756 0.698383 -4.49538
  2325 223.527 13.2642 13.4751
  2326 112.866 12.3867 13.7367
  2327 112.868 12.3866 -13.7337
  2328 187.209 21.7255 12.2317
  2329 146.333 -1.65542 5.85562
  2330 146.335 -1.66012 -5.85790
  2331 144.122 0.0367698 5.32480
  2332 144.122 0.0339946 -5.32705
  2333 120.132 10.0031 -15.9166
  2334 120.132 10.0028 15.9196
  2335 130.291 7.64365 23.3455
  2336 130.285 7.64645 -23.3430
  2337 95.8623 2.53323 -29.2745
  2338 95.8767 2.52117 29.2839
  2339 246.376 10.8914 18.8746
  2340 266.602 31.4779 -55.7022
  2341 214.304 -3.79211 21.1899
  2342 183.806 2.12036 -16.4374
  2343 120.378 3.52091 -13.3113
  2344 120.387 3.52643 13.3085
  2345 165.264 -0.165615 -0.110786
  2346 165.263 -0.165416 0.111629
  2347 151.874 1.65689 -7.67132
  2348 140.817 0.127931 1.76352
  2349 140.807 0.127926 -1.76320
  2350 129.035 1.36797 11.4271
  2351 129.027 1.36407 -11.4311
  2352 166.226 1.48459 -17.1265
  2353 166.236 1.48295 17.1251
  2354 168.984 1.17016 -13.8312
  2355 159.303 -2.85973 -7.02505
  2356 159.304 -2.86120 7.03409
  2357 126.370 1.59189 -5.50557
  2358 126.374 1.59212 5.50721
  2359 370.585 20.1575 52.9004
  2360 120.815 7.89534 4.84871
  2361 120.817 7.89449 -4.84712
  2362 158.081 -2.45356 -0.703483
  2363 158.078 -2.45018 0.706962
  2364 97.1441 8.94448 13.7027
  2365 97.1339 8.94355 -13.7132
  2366 137.379 4.13111 15.0307
  2367 137.373 4.13159 -15.0287
  2368 267.283 19.7564 59.1267
  2369 35.9778 -36.3614 25.8757
  2370 36.0930 -36.6256 -25.7453
  2371 152.377 2.25852 14.2857
  2372 152.369 2.25924 -14.2850
  2373 122.861 5.84702 -6.30373
  2374 122.860 5.84782 6.30573
  2375 156.758 -7.90667 -2.58064
  2376 156.749 -7.89852 2.58477
  2377 105.785 13.3929 2.35944
  2378 105.792 13.3927 -2.35955
  2379 148.775 2.03964 -12.5581
  2380 148.783 2.03920 12.5591
  2381 238.630 21.4246 -57.4082
  2382 180.629 -16.8402 -0.620422
  2383 180.857 -15.5155 1.98716
  2384 161.745 1.05485 9.69595
  2385 218.467 -2.80526 -8.17475
  2386 218.465 -2.80685 8.16106
  2387 171.366 -15.6546 0.933158
  2388 171.331 -15.6092 -0.967876
  2389 143.011 -4.43251 -9.83271
  2390 143.010 -4.42439 9.82671
  2391 180.193 -9.62599 31.9132
  2392 181.699 -6.22829 -10.1917
  2393 121.310 7.41218 8.07787
  2394 121.311 7.41149 -8.07566
  2395 199.632 -6.25889 -14.4213
  2396 199.647 -6.26369 14.4070
  2397 151.742 3.66560 -22.7383
  2398 151.751 3.66240 22.7377
  2399 131.779 3.72122 11.4479
  2400 131.774 3.72117 -11.4457
  2401 208.695 -0.0554122 -9.33769
  2402 178.313 15.7873 -13.1535
  2403 158.650 1.78906 -12.1943
  2404 20.8109 -78.4273 -10.7359
  2405 21.7941 -75.5066 11.9103
  2406 161.438 5.86951 -12.0684
  2407 241.818 -0.475774 -2.53627
  2408 241.794 -0.475883 2.53019
  2409 135.639 -0.925797 -10.7138
  2410 135.643 -0.921060 10.7084
  2411 195.433 -1.33439 16.1754
  2412 195.425 -1.33066 -16.1838
  2413 131.677 4.34035 4.02214
  2414 131.674 4.34033 -4.02368
  2415 129.755 2.62708 -8.58895
  2416 129.759 2.62727 8.59091
  2417 123.471 5.05498 6.89403
  2418 123.470 5.05429 -6.89192
  2419 225.168 15.0522 -8.67194
  2420 139.718 2.51025 1.75850
  2421 190.801 36.4148 -1.00978
  2422 120.717 8.19799 10.2077
  2423 120.718 8.19749 -10.2053
  2424 342.241 22.7920 -11.7645
  2425 246.836 -0.738589 -0.0244133
  2426 246.796 -0.736489 0.0214297
  2427 185.872 6.85032 13.4452
  2428 228.742 -0.495653 -4.89583
  2429 228.735 -0.496209 4.89094
  2430 176.721 0.809260 -19.1293
  2431 176.731 0.806321 19.1251
  2432 68.3335 -1.84546 -24.5228
  2433 68.3660 -1.85203 24.4923
  2434 136.330 0.699136 -5.40025
  2435 136.337 0.699157 5.40134
  2436 193.294 0.934640 -18.9233
  2437 110.119 13.2432 11.1786
  2438 110.122 13.2427 -11.1761
  2439 226.557 -3.61401 -11.7477
  2440 226.548 -3.61793 11.8227
  2441 236.538 46.4771 -0.607886
  2442 157.435 0.225923 -3.03203
  2443 157.447 0.225906 3.03227
  2444 307.284 27.7033 0.632569
  2445 124.695 3.54565 6.84813
  2446 124.693 3.54516 -6.84607
  2447 159.276 -0.266143 -2.23014
  2448 159.262 -0.266635 2.23482
  2449 127.266 4.39376 10.1501
  2450 127.263 4.39347 -10.1478
  2451 152.220 2.23181 10.0683
  2452 134.443 0.0175681 -1.13946
  2453 134.451 0.0175728 1.13973
  2454 141.400 -0.0271750 6.52687
  2455 141.400 -0.0304665 -6.53000
  2456 181.295 -5.98749 10.3525
  2457 145.237 0.0783145 -1.96635
  2458 145.247 0.0783013 1.96666
  2459 128.952 0.629173 0.107337
  2460 196.978 0.891668 20.0786
  2461 152.318 0.396810 -9.81157
  2462 152.420 0.423467 9.87437
  2463 161.836 -10.0879 -0.984891
  2464 161.844 -10.0923 0.994529
  2465 129.394 -0.155779 13.3804
  2466 129.386 -0.161381 -13.3849
  2467 93.8129 14.8838 2.26584
  2468 93.8246 14.8813 -2.26608
  2469 126.420 0.573601 -3.56061
  2470 126.425 0.573698 3.56171
  2471 100.946 9.03411 26.2989
  2472 100.940 9.04133 -26.2897
  2473 249.721 5.83394 -22.7846
  2474 160.073 14.7006 -3.01074
  2475 207.349 -18.9757 -1.12286
  2476 207.324 -19.0547 1.06112
  2477 122.209 7.20337 3.40036
  2478 122.212 7.20241 -3.39908
  2479 158.741 1.71155 12.2823
  2480 338.820 29.4461 -10.0051
  2481 120.168 10.2646 20.3950
  2482 120.165 10.2662 -20.3914
  2483 151.541 7.33214 -5.61303
  2484 137.266 5.36917 36.3301
  2485 153.592 -2.24956 28.7846
  2486 153.575 -2.24261 -28.7885
  2487 257.607 8.23096 21.8702
  2488 121.963 11.9533 -37.3547
  2489 162.688 3.09080 13.0299
  2490 166.722 -8.43409 8.43293
  2491 166.730 -8.42810 -8.42841
  2492 154.786 7.36077 8.23179
  2493 214.865 -11.9726 3.35142
  2494 214.850 -11.9251 -3.36889
  2495 187.731 -23.6678 -10.8702
  2496 187.888 -23.6705 10.8544
  2497 168.639 -5.12448 -25.4216
  2498 168.656 -5.13141 25.4158
  2499 117.879 9.45781 0.360210
  2500 117.874 9.45792 -0.360055
  2501 70.4924 11.0526 2.88113
  2502 70.5191 11.0458 -2.87139
  2503 147.462 1.46003 -10.0307
  2504 147.470 1.45981 10.0318
  2505 173.827 -26.1372 19.7696
  2506 432.511 10.9124 -26.9453
  2507 134.877 -0.643853 31.3209
  2508 134.860 -0.635982 -31.3219
  2509 261.063 13.6199 -15.0849
  2510 159.932 -1.19384 -0.514261
  2511 159.931 -1.19196 0.516980
  2512 187.177 -3.87481 -19.6215
  2513 187.191 -3.88097 19.6118
  2514 111.118 12.6739 19.0993
  2515 111.119 12.6752 -19.0947
  2516 137.238 -24.9634 35.0682
  2517 159.471 1.35999 12.6947
  2518 159.462 1.36067 -12.6945
  2519 145.396 -9.57141 -13.3852
  2520 145.389 -9.55553 13.3751
  2521 343.337 23.4233 8.92996
  2522 91.4490 9.06514 23.9866
  2523 91.4468 9.07188 -23.9744
  2524 150.375 -21.9478 24.4795
  2525 126.687 0.0282915 0.854635
  2526 126.681 0.0282887 -0.854370
  2527 215.098 -0.861934 -24.0873
  2528 124.706 5.07853 -9.10824
  2529 124.707 5.07899 9.11056
  2530 118.803 9.85974 12.1851
  2531 118.803 9.85941 -12.1824
  2532 172.036 0.0741502 3.54573
  2533 172.024 0.0742195 -3.54577
  2534 140.849 -0.553926 7.39453
  2535 140.848 -0.557893 -7.39829
  2536 196.698 9.27811 -7.53621
  2537 243.815 -0.532771 -1.76990
  2538 243.786 -0.532465 1.76398
  2539 166.480 -4.40728 -11.9124
  2540 166.499 -4.42389 11.9126
  2541 148.952 0.651866 6.75256
  2542 148.942 0.651930 -6.75177
  2543 127.843 5.51153 12.6642
  2544 127.840 5.51143 -12.6617
  2545 227.991 20.2179 -8.66350
  2546 152.800 -6.21282 4.83265
  2547 152.807 -6.22153 -4.83202
  2548 173.289 -25.8522 -24.8072
  2549 183.102 5.37331 -13.7518
  2550 180.519 -22.8903 19.9592
  2551 165.292 -15.1242 1.99757
  2552 165.289 -15.0937 -1.97191
  2553 214.733 -2.77759 -20.0167
  2554 141.297 1.47267 4.79194
  2555 141.295 1.47133 -4.79405
  2556 148.488 0.00192275 -7.24009
  2557 148.403 0.108993 7.21945
  2558 64.2416 -25.3894 27.5901
  2559 64.1923 -25.3788 -27.5902
  2560 214.007 43.6257 -1.68247
  2561 164.458 -1.78990 -12.8649
  2562 164.466 -1.81737 12.8250
  2563 19.4544 -45.9344 -6.84496
  2564 19.5156 -45.8763 7.25783
  2565 127.610 5.83805 2.35916
  2566 127.606 5.83856 -2.35982
  2567 133.344 1.00140 5.84786
  2568 133.337 1.00132 -5.84656
  2569 214.918 -2.72313 19.7765
  2570 118.764 10.4341 22.1258
  2571 118.761 10.4366 -22.1218
  2572 186.465 -18.5493 4.54932
  2573 103.461 14.1364 16.3863
  2574 103.465 14.1368 -16.3813
  2575 147.090 3.94123 5.72573
  2576 140.515 1.17714 5.22861
  2577 168.838 -20.3540 7.64586
  2578 169.821 -19.8632 -6.25782
  2579 131.565 0.0511343 1.15624
  2580 131.558 0.0511347 -1.15594
  2581 176.219 -21.1869 6.81387
  2582 115.889 10.3380 4.07365
  2583 115.893 10.3375 -4.07249
  2584 129.262 6.09025 14.7370
  2585 129.259 6.09044 -14.7345
  2586 223.248 11.8980 -16.6362
  2587 149.788 -6.79742 29.8793
  2588 149.769 -6.79226 -29.8816
  2589 123.043 -0.100443 -32.2048
  2590 123.060 -0.109370 32.2055
  2591 238.648 -0.894230 -4.22769
  2592 238.664 -0.901363 4.24838
  2593 177.826 29.5965 0.205339
  2594 128.419 6.94323 16.2278
  2595 128.416 6.94364 -16.2251
  2596 155.328 -6.22220 3.04939
  2597 155.336 -6.22975 -3.04653
  2598 141.986 -2.71261 8.97901
  2599 141.986 -2.71887 -8.98414
  2600 364.756 25.0100 2.65898
  2601 59.8210 -7.51694 22.0078
  2602 59.8051 -7.49470 -21.9803
  2603 151.752 -0.581818 -3.46417
  2604 151.751 -0.579460 3.46376
  2605 140.457 0.00390637 3.32516
  2606 367.332 19.4982 -54.9509
  2607 165.224 -10.6798 -4.15501
  2608 165.225 -10.6822 4.16611
  2609 225.556 -5.96348 -10.8230
  2610 225.596 -5.99443 10.8612
  2611 198.139 0.0876360 3.87665
  2612 198.130 0.0877298 -3.87762
  2613 208.146 -0.462652 9.90018
  2614 152.994 7.95634 5.73207
  2615 145.093 0.942867 7.01538
  2616 174.414 6.79199 -14.2415
  2617 102.307 13.3068 19.8352
  2618 102.309 13.3087 -19.8286
  2619 124.147 4.72749 7.86697
  2620 124.147 4.72693 -7.86476
  2621 189.202 -0.104531 -4.02093
  2622 189.213 -0.104613 4.02031
  2623 119.100 8.91877 7.54658
  2624 119.102 8.91810 -7.54456
  2625 189.980 32.8835 -6.18500
  2626 225.216 -0.752657 -7.53519
  2627 225.202 -0.786382 7.60195
  2628 222.908 -4.02462 14.9997
  2629 222.923 -4.00457 -14.9274
  2630 149.888 0.0693795 3.58556
  2631 149.889 0.0677675 -3.58654
  2632 218.650 -5.11244 -5.39897
  2633 218.647 -5.10835 5.38324
  2634 321.388 24.8420 -0.658817
  2635 61.1037 -31.3155 -9.46533
  2636 60.2844 -31.9786 9.27980
  2637 233.352 -7.66406 -17.9692
  2638 233.550 -7.41125 17.9784
  2639 126.910 1.71279 -5.88349
  2640 126.914 1.71301 5.88517
  2641 130.866 4.05633 5.75158
  2642 130.862 4.05557 -5.75378
  2643 212.566 -19.3595 3.73683
  2644 212.493 -19.2230 -3.78920
  2645 222.005 33.5547 63.4357
  2646 172.887 -10.1006 27.4374
  2647 174.603 20.7379 10.0470
  2648 140.303 5.52835 -20.8209
  2649 140.310 5.52635 20.8224
  2650 307.662 30.1031 39.5519
  2651 82.9255 13.6469 -1.61461
  2652 82.9454 13.6406 1.61374
  2653 147.508 6.36424 -1.02586
  2654 133.911 -2.32819 13.3497
  2655 133.904 -2.33495 -13.3553
  2656 216.357 0.0529911 -4.83038
  2657 216.360 0.0526562 4.82781
  2658 88.4108 11.9178 -19.1633
  2659 88.4064 11.9148 19.1749
  2660 111.261 12.3566 5.76542
  2661 111.266 12.3562 -5.76417
  2662 157.733 -4.91876 0.413156
  2663 157.738 -4.92416 -0.408430
  2664 165.201 0.732263 -13.5497
  2665 160.967 2.03581 17.6106
  2666 160.958 2.03744 -17.6114
  2667 227.524 -13.4739 7.80378
  2668 227.837 -13.1222 -7.68814
  2669 234.920 -0.271300 -3.61228
  2670 234.908 -0.271657 3.60733
  2671 164.296 -25.4433 -21.9536
  2672 164.364 -25.4501 22.0219
  2673 230.835 -3.56152 1.70912
  2674 230.811 -3.54794 -1.71027
  2675 130.618 1.46201 6.68769
  2676 130.613 1.46191 -6.68609
  2677 189.757 -17.7153 -13.6828
  2678 158.922 -0.953685 4.07754
  2679 158.930 -0.952218 -4.07023
  2680 111.321 12.6410 -9.49494
  2681 111.317 12.6415 9.49702
  2682 154.018 -2.18824 2.92710
  2683 154.022 -2.19228 -2.92606
  2684 126.577 3.73707 -8.71912
  2685 126.580 3.73742 8.72131
  2686 107.164 11.7292 -3.33660
  2687 107.171 11.7303 3.33479
  2688 128.669 0.524315 -1.12820
  2689 216.616 -14.5165 8.94775
  2690 216.565 -14.4338 -8.96195
  2691 148.257 -5.43961 7.44746
  2692 148.262 -5.44865 -7.45083
  2693 265.343 6.19209 4.93426
  2694 161.228 16.6683 1.24848
  2695 152.181 -14.8915 13.7004
  2696 152.336 -14.7640 -13.6917
  2697 120.671 8.27699 2.78761
  2698 120.674 8.27619 -2.78653
  2699 167.919 -12.6569 -24.2177
  2700 167.949 -12.6626 24.2195
  2701 202.308 3.64044 -30.3160
  2702 115.882 10.9925 11.6960
  2703 115.884 10.9921 -11.6935
  2704 120.560 9.17539 13.6614
  2705 120.560 9.17526 -13.6586
  2706 158.191 1.89892 15.2428
  2707 158.182 1.89998 -15.2428
  2708 155.702 2.96362 -11.2166
  2709 150.702 -21.8507 -23.5451
  2710 188.646 2.27168 18.0794
  2711 142.441 5.12791 22.9595
  2712 142.433 5.13089 -22.9587
  2713 275.965 19.3225 -9.43383
  2714 202.155 -22.8923 -2.60617
  2715 202.284 -22.8066 2.45480
  2716 122.289 6.69107 5.00760
  2717 122.291 6.69016 -5.00589
  2718 174.324 5.71482 14.3786
  2719 302.116 32.9000 -41.8206
  2720 145.857 0.709102 -7.31624
  2721 159.828 -5.03997 -2.21718
  2722 159.832 -5.04441 2.22343
  2723 212.339 -0.547095 -8.98729
  2724 212.340 -0.548239 8.98140
  2725 131.962 2.31974 8.89122
  2726 131.957 2.31965 -8.88932
  2727 144.218 4.36320 2.16776
  2728 118.617 9.07588 5.04986
  2729 118.620 9.07517 -5.04833
  2730 202.193 39.1525 4.37514
  2731 160.820 -0.583561 -0.918621
  2732 160.818 -0.582532 0.920083
  2733 129.204 0.915750 5.11504
  2734 129.199 0.915651 -5.11369
  2735 39.3954 -54.7758 1.83959
  2736 39.4480 -54.8153 -1.89895
  2737 100.160 14.6769 5.33470
  2738 100.168 14.6758 -5.33388
  2739 140.111 1.42419 8.69349
  2740 140.104 1.42424 -8.69210
  2741 167.363 10.5266 -12.6894
  2742 150.713 -18.9544 20.2680
  2743 179.062 10.0214 13.8126
  2744 187.845 -12.5779 -16.2451
  2745 187.882 -12.5845 16.2343
  2746 200.944 -2.30126 2.75679
  2747 157.323 1.04322 10.2016
  2748 157.313 1.04358 -10.2011
  2749 173.601 -15.6529 -23.3392
  2750 147.971 3.62613 -17.6480
  2751 147.979 3.62489 17.6489
  2752 165.283 -29.4303 -19.2588
  2753 165.698 -29.4411 19.5294
  2754 201.551 -15.9270 -5.97303
  2755 201.590 -15.9046 5.94100
  2756 217.381 -0.590451 -8.86035
  2757 217.379 -0.592155 8.85211
  2758 113.098 6.96370 11.3069
  2759 113.091 6.95910 -11.3102
  2760 149.817 0.0909254 2.09641
  2761 149.806 0.0909413 -2.09613
  2762 160.243 -3.51022 -3.60789
  2763 160.245 -3.51383 3.61486
  2764 163.011 -22.4567 -15.3724
  2765 109.824 11.6930 1.20364
  2766 109.818 11.6924 -1.20440
  2767 137.865 0.406838 4.31847
  2768 137.857 0.406819 -4.31761
  2769 237.272 -1.83450 11.5951
  2770 123.742 -3.33744 20.4027
  2771 123.729 -3.35188 -20.4025
  2772 164.551 0.441539 -7.49400
  2773 164.562 0.441315 7.49408
  2774 167.044 20.6666 2.07817
  2775 217.186 -9.16030 -15.3521
  2776 148.505 -7.95400 -9.52158
  2777 148.498 -7.94243 9.51602
  2778 222.254 -9.20657 -16.4056
  2779 222.343 -9.22838 16.4331
  2780 142.771 0.399206 4.94247
  2781 142.762 0.399235 -4.94166
  2782 119.469 8.74031 6.39830
  2783 119.471 8.73958 -6.39646
  2784 175.569 -22.4557 -7.82192
  2785 172.558 17.1223 -11.1611
  2786 254.500 5.76361 -16.1809
  2787 122.782 5.90323 -7.56560
  2788 122.782 5.90391 7.56778
  2789 238.227 33.2097 -4.14636
  2790 160.134 -25.6692 -34.4497
  2791 212.758 -0.0362707 -4.46591
  2792 212.762 -0.0365273 4.46399
  2793 203.760 10.6041 12.1310
  2794 125.875 6.42396 -1.25107
  2795 125.879 6.42326 1.25087
  2796 117.076 10.0151 -5.58817
  2797 117.072 10.0157 5.58974
  2798 128.462 1.60931 -6.28698
  2799 128.467 1.60949 6.28864
  2800 99.5905 -29.8282 -43.0660
  2801 225.370 -0.467756 -4.23342
  2802 225.367 -0.468131 4.23000
  2803 238.776 18.5611 6.23726
  2804 130.082 3.37963 10.1861
  2805 130.078 3.37949 -10.1839
  2806 157.151 -0.132287 2.24164
  2807 157.170 -0.132013 -2.23696
  2808 97.2742 -29.6833 43.2119
  2809 164.563 -17.0868 24.1744
  2810 164.530 -17.0837 -24.1628
  2811 147.974 3.47697 -26.0608
  2812 147.985 3.47215 26.0597
  2813 171.808 15.2995 11.9409
  2814 191.234 -15.8862 -5.22368
  2815 106.850 14.0880 -10.0697
  2816 106.845 14.0887 10.0719
  2817 161.226 -1.38664 -1.47536
  2818 161.225 -1.38852 1.48015
  2819 131.221 6.23523 16.8189
  2820 131.217 6.23580 -16.8164
  2821 113.549 9.48096 5.54324
  2822 113.542 9.47927 -5.54476
  2823 92.6922 14.5650 13.6190
  2824 92.7004 14.5645 -13.6123
  2825 193.174 19.2335 -50.1864
  2826 122.430 8.95768 25.3920
  2827 122.423 8.96207 -25.3883
  2828 192.478 0.0269375 -13.3690
  2829 192.486 0.0253984 13.3647
  2830 124.531 8.66813 17.9928
  2831 124.529 8.66892 -17.9898
  2832 136.646 0.222048 2.85684
  2833 117.282 10.0454 -9.98483
  2834 117.281 10.0459 9.98714
  2835 132.331 -4.96658 -17.0912
  2836 132.340 -4.95536 17.0836
  2837 137.991 1.48288 -3.70995
  2838 163.321 -5.95010 -8.99102
  2839 163.331 -5.95332 8.99834
  2840 136.826 1.63799 6.49355
  2841 136.823 1.63598 -6.49660
  2842 126.060 5.64767 11.5660
  2843 126.058 5.64742 -11.5635
  2844 122.082 4.26461 11.3098
  2845 122.074 4.26076 -11.3125
  2846 144.533 4.63315 -25.2122
  2847 144.543 4.62892 25.2121
  2848 229.280 -3.47428 -0.740355
  2849 229.262 -3.46563 0.732325
  2850 123.670 7.12463 1.81835
  2851 123.665 7.12502 -1.81865
  2852 160.045 -15.5423 -7.55977
  2853 160.119 -15.4471 7.39313
  2854 140.677 0.219962 -3.38670
  2855 140.686 0.219958 3.38731
  2856 118.035 10.8962 17.5042
  2857 118.034 10.8968 -17.5008
  2858 162.317 -22.3569 22.6145
  2859 160.551 -23.0879 -21.9798
  2860 165.543 -0.114876 -0.0114744
  2861 165.544 -0.115037 0.0124454
  2862 127.632 2.17255 -7.05589
  2863 127.635 2.17278 7.05776
  2864 198.050 -19.6409 -5.91385
  2865 198.123 -19.6190 5.87517
  2866 116.766 2.42400 -16.8185
  2867 116.773 2.43335 16.8150
  2868 133.598 0.359137 -3.64984
  2869 133.605 0.359165 3.65070
  2870 62.7376 5.66370 -9.91499
  2871 62.7845 5.64924 9.91456
  2872 218.891 -0.921382 24.8476
  2873 118.543 8.81448 -2.47779
  2874 118.548 8.81473 2.47737
  2875 133.171 2.41635 -7.49775
  2876 133.175 2.41829 7.49452
  2877 121.384 7.16051 6.02533
  2878 121.386 7.15969 -6.02345
  2879 134.033 -32.7573 -25.7681
  2880 134.417 -32.3068 24.9192
  2881 172.760 -9.74701 8.75269
  2882 172.670 -9.64824 -8.83106
  2883 91.2013 -6.89827 31.6234
  2884 91.1734 -6.88240 -31.6185
  2885 150.998 4.93719 8.18481
  2886 159.963 -2.32487 4.63034
  2887 159.964 -2.32203 -4.62253
  2888 146.406 -5.65113 8.90774
  2889 146.410 -5.66045 -8.91282
  2890 54.9577 3.34311 -4.63504
  2891 54.9205 3.34754 4.66011
  2892 99.1715 12.1487 22.1807
  2893 99.1716 12.1526 -22.1724
  2894 151.366 0.386474 5.17919
  2895 151.355 0.386516 -5.17862
  2896 161.565 8.30730 11.3479
  2897 213.318 -1.72091 -15.3226
  2898 104.772 4.39525 -29.9584
  2899 104.784 4.38490 29.9654
  2900 127.382 3.48959 -8.88948
  2901 127.385 3.48989 8.89165
  2902 215.105 -8.28307 -2.69918
  2903 215.106 -8.26602 2.68174
  2904 158.492 -0.0289986 -12.0083
  2905 143.175 1.20735 -6.36330
  2906 125.446 0.00890430 0.719997
  2907 125.441 0.00890665 -0.719771
  2908 236.188 -8.28161 4.28503
  2909 236.002 -8.18802 -3.95610
  2910 139.018 2.12967 4.76557
  2911 139.017 2.12871 -4.76768
  2912 126.925 2.14296 -6.58967
  2913 126.928 2.14323 6.59150
  2914 134.805 2.02716 9.03781
  2915 134.799 2.02713 -9.03610
  2916 165.893 -18.5013 -6.85994
  2917 165.661 -18.5810 7.00138
  2918 320.565 22.2326 -9.37031
  2919 197.454 4.95524 -19.3687
  2920 145.049 0.182459 -6.20658
  2921 323.425 18.8018 -28.4216
  2922 169.148 23.2201 -2.02763
  2923 277.303 25.3749 1.46960
  2924 200.096 -4.40820 22.5546
  2925 190.605 -5.46170 7.69944
  2926 136.191 0.208913 -2.70665
  2927 122.551 6.74615 9.41676
  2928 122.550 6.74558 -9.41438
  2929 200.611 -20.9052 -9.13598
  2930 201.816 -20.5531 8.35604
  2931 312.098 21.3742 65.5767
  2932 231.500 22.4052 33.0940
  2933 124.503 8.00799 -15.2166
  2934 124.505 8.00785 15.2194
  2935 262.383 31.9520 19.8409
  2936 185.248 -1.96163 -19.7341
  2937 185.260 -1.96691 19.7257
  2938 130.004 0.162099 -2.17822
  2939 130.010 0.162119 2.17879
  2940 148.441 -0.348884 4.21387
  2941 148.442 -0.351404 -4.21510
  2942 157.049 -3.29604 -1.16146
  2943 157.046 -3.29166 1.16489
  2944 135.574 6.39456 22.5326
  2945 135.568 6.39712 -22.5307
  2946 160.272 -3.80586 9.09796
  2947 160.267 -3.80754 -9.08698
  2948 152.251 -4.18061 4.27622
  2949 152.256 -4.18734 -4.27577
  2950 131.088 0.601648 1.90663
  2951 167.088 19.2025 5.95288
  2952 233.381 4.49673 23.7258
  2953 130.709 0.487967 -3.85341
  2954 130.716 0.488016 3.85442
  2955 156.644 5.13845 -10.7884
  2956 132.098 0.894842 5.49174
  2957 132.092 0.894778 -5.49045
  2958 153.017 -0.462661 -3.08029
  2959 153.015 -0.460722 3.08008
  2960 116.917 9.19849 -3.17853
  2961 116.923 9.19918 3.17790
  2962 435.600 11.8738 26.7420
  2963 171.871 1.06524 12.5045
  2964 171.861 1.06606 -12.5054
  2965 139.378 0.781860 -6.20449
  2966 139.386 0.781851 6.20558
  2967 158.522 -0.0622554 12.0308
  2968 133.830 4.28250 13.7192
  2969 133.825 4.28268 -13.7170
  2970 129.224 4.47419 11.7440
  2971 129.221 4.47409 -11.7416
  2972 140.629 -4.55125 -11.6771
  2973 140.631 -4.54298 11.6696
  2974 121.261 7.25338 7.29346
  2975 121.262 7.25264 -7.29138
  2976 201.366 40.8700 0.280225
  2977 70.1356 5.14374 -16.2551
  2978 70.1736 5.12941 16.2402
  2979 150.172 1.05040 -9.18308
  2980 117.691 10.3393 23.9206
  2981 117.687 10.3429 -23.9162
  2982 141.693 0.850463 5.43465
  2983 141.692 0.848338 -5.43708
  2984 199.055 18.5127 51.3684
  2985 138.429 4.40696 16.3680
  2986 138.423 4.40768 -16.3661
  2987 89.3936 -7.98320 -34.1361
  2988 207.712 4.33745 21.9466
  2989 131.372 -6.72284 20.0505
  2990 131.354 -6.72979 -20.0606
  2991 156.684 -1.02916 -5.44716
  2992 156.675 -1.02937 5.45519
  2993 162.093 2.59179 -12.9323
  2994 232.323 4.81440 -23.1736
  2995 134.352 6.28479 20.0910
  2996 134.347 6.28634 -20.0888
  2997 325.136 19.5590 19.5532
  2998 241.362 41.4335 1.76923
  2999 22.1160 -48.7706 -6.30228
  3000 22.2250 -48.9246 6.27666
  3001 162.825 -11.8673 -0.0540951
  3002 162.836 -11.8715 0.0682006
  3003 137.449 1.09833 -7.35523
  3004 137.456 1.09831 7.35660
  3005 259.026 16.9468 14.2523
  3006 85.4936 -0.751929 28.0643
  3007 85.4759 -0.736726 -28.0504
  3008 88.8654 15.0633 6.37373
  3009 88.8787 15.0601 -6.37034
  3010 153.718 9.78192 -3.51282
  3011 185.605 -0.0159291 -17.7922
  3012 185.614 -0.0190332 17.7862
  3013 110.220 11.4887 22.7445
  3014 110.218 11.4920 -22.7387
  3015 181.359 0.317271 13.1976
  3016 280.940 26.5355 -71.2691
  3017 150.926 2.58630 -16.1177
  3018 150.934 2.58530 16.1184
  3019 151.803 3.26683 19.4178
  3020 151.795 3.26872 -19.4176
  3021 146.392 0.719073 7.04023
  3022 146.383 0.719151 -7.03931
  3023 156.591 -1.97332 1.83531
  3024 156.593 -1.97655 -1.83327
  3025 117.184 9.84629 -2.77538
  3026 117.180 9.84678 2.77631
  3027 296.183 16.2069 -25.8299
  3028 127.515 0.351477 2.99995
  3029 127.510 0.351436 -2.99907
  3030 162.276 -0.257076 -0.826606
  3031 162.274 -0.256574 0.827552
  3032 139.289 0.115877 1.40078
  3033 139.280 0.115863 -1.40050
  3034 86.0387 4.31413 20.9973
  3035 86.0220 4.32017 -21.0145
  3036 161.450 -1.45164 -12.4113
  3037 161.504 -1.45322 12.4139
  3038 169.113 0.204849 13.7360
  3039 168.937 0.205165 -2.60286
  3040 168.950 0.205135 2.60286
  3041 223.351 -11.8424 -16.1931
  3042 223.424 -11.8500 16.2460
  3043 125.836 6.22537 12.4556
  3044 125.833 6.22516 -12.4530
  3045 126.959 -0.395073 -15.1832
  3046 126.969 -0.388186 15.1785
  3047 143.818 -0.490004 6.02789
  3048 143.819 -0.493575 -6.03057
  3049 258.541 42.0255 -5.06449
  3050 152.398 -1.13033 -3.39002
  3051 152.395 -1.12735 3.38999
  3052 137.432 5.57994 18.9275
  3053 137.426 5.58120 -18.9256
  3054 280.709 19.1198 8.67955
  3055 77.3464 7.41522 -14.8653
  3056 77.3744 7.40669 14.8532
  3057 116.592 8.69328 -5.11783
  3058 116.598 8.69458 5.11666
  3059 167.279 -16.9573 2.97617
  3060 167.185 -16.9689 -3.02811
  3061 127.437 1.02049 -4.85502
  3062 127.441 1.02062 4.85641
  3063 77.9596 11.4012 14.6059
  3064 77.9710 11.4022 -14.5915
  3065 160.452 -2.35385 3.20924
  3066 160.452 -2.35095 -3.20252
  3067 203.907 11.3509 4.48573
  3068 122.310 -26.6870 40.5289
  3069 150.300 -11.1908 -11.3745
  3070 150.301 -11.1693 11.3843
  3071 153.783 -25.2958 -25.6382
  3072 136.017 1.20411 7.49174
  3073 136.014 1.20151 -7.49529
  3074 160.009 -7.40973 -1.58842
  3075 160.015 -7.41470 1.59512
  3076 64.6758 -10.1156 -31.1902
  3077 64.6929 -10.1236 31.1753
  3078 186.620 0.115197 9.81155
  3079 136.533 1.96730 0.106904
  3080 114.897 9.73204 -2.08712
  3081 114.903 9.73259 2.08667
  3082 91.8886 -15.6173 -32.9493
  3083 91.9288 -15.6315 32.9444
  3084 147.751 5.29002 -4.64367
  3085 161.065 30.2641 -61.9164
  3086 145.603 -29.5900 36.2297
  3087 247.331 -0.570902 -0.856258
  3088 247.374 -0.573339 0.856082
  3089 145.019 0.206382 6.15535
  3090 126.759 5.99624 -3.07257
  3091 126.763 5.99597 3.07169
  3092 175.821 -0.828464 22.4105
  3093 175.810 -0.823554 -22.4168
  3094 174.529 1.10271 -16.7367
  3095 174.538 1.10078 16.7341
  3096 176.163 0.00667257 -2.90891
  3097 176.176 0.00662282 2.90883
  3098 163.415 -0.0279564 -0.462446
  3099 163.412 -0.0279101 0.462423
  3100 10.9432 -107.525 7.87860
  3101 11.2503 -107.459 -8.32600
  3102 132.869 -0.0149435 -1.28148
  3103 132.876 -0.0149533 1.28181
  3104 162.939 -7.55465 26.7286
  3105 162.918 -7.54806 -26.7321
  3106 176.540 0.885344 13.6145
  3107 160.280 5.53910 11.9990
  3108 124.279 4.08054 6.89991
  3109 124.278 4.07997 -6.89782
  3110 264.910 22.9858 -0.635798
  3111 120.477 8.07059 8.44578
  3112 120.478 8.06996 -8.44355
  3113 44.8466 -14.8047 -15.5015
  3114 44.8573 -14.8326 15.5443
  3115 154.289 -0.0696899 -2.62374
  3116 154.287 -0.0685700 2.62340
  3117 144.333 3.37360 16.2307
  3118 144.326 3.37448 -16.2294
  3119 155.807 2.67614 11.2685
  3120 134.826 1.73373 -1.58924
  3121 161.950 -0.159967 -0.922549
  3122 161.948 -0.159562 0.923139
  3123 162.632 -0.644890 0.109070
  3124 162.631 -0.644017 -0.106492
  3125 144.019 1.30857 8.99529
  3126 144.011 1.30868 -8.99409
  3127 153.659 -0.841352 6.36862
  3128 153.668 -0.847364 -6.36240
  3129 136.590 -2.60996 -11.9608
  3130 136.595 -2.60384 11.9544
  3131 189.132 -7.83313 -6.77758
  3132 150.644 4.15735 -8.31501
  3133 189.483 23.2003 -11.5775
  3134 90.2763 12.3925 -6.70878
  3135 90.2914 12.3893 6.70277
  3136 125.987 1.92673 5.80104
  3137 125.983 1.92645 -5.79929
  3138 133.025 -15.1130 -27.5037
  3139 133.113 -15.0861 27.3097
  3140 150.365 1.17580 9.38949
  3141 126.315 1.16584 -4.78806
  3142 126.319 1.16602 4.78950
  3143 210.484 5.02617 -22.2095
  3144 139.929 4.22427 -27.7220
  3145 139.941 4.21835 27.7218
  3146 234.863 -1.60041 -2.63997
  3147 234.842 -1.59891 2.63043
  3148 75.0372 6.18937 20.2549
  3149 75.0382 6.19734 -20.2352
  3150 36.4711 -12.0755 0.0295212
  3151 36.3943 -12.0698 0.0267713
  3152 202.238 -6.13949 7.75713
  3153 236.351 -4.01440 -10.2820
  3154 149.563 -26.7001 30.4596
  3155 104.242 1.52107 -21.9835
  3156 104.246 1.52761 21.9668
  3157 232.904 -0.899982 -4.72443
  3158 232.889 -0.900578 4.71463
  3159 168.781 0.299812 7.12047
  3160 168.769 0.300015 -7.12059
  3161 128.250 0.0578341 -1.03231
  3162 128.256 0.0578487 1.03261
  3163 150.563 -1.29302 3.99243
  3164 150.566 -1.29657 -3.99297
  3165 214.087 -1.38077 15.3581
  3166 158.810 -1.31132 1.13967
  3167 158.812 -1.31343 -1.13751
  3168 192.168 -16.7134 10.3465
  3169 158.540 -3.94839 -0.307129
  3170 158.544 -3.95283 0.312144
  3171 121.653 6.72291 6.79771
  3172 121.647 6.72153 -6.79933
  3173 121.824 9.61698 18.8400
  3174 121.822 9.61799 -18.8367
  3175 152.670 1.13081 10.3212
  3176 152.661 1.13113 -10.3205
  3177 161.536 -29.0862 -28.8031
  3178 133.199 2.73200 30.2443
  3179 133.185 2.73983 -30.2441
  3180 177.843 -4.63889 22.5385
  3181 177.825 -4.63197 -22.5462
  3182 165.026 -0.0100956 -0.328239
  3183 165.023 -0.0100298 0.328514
  3184 135.035 0.375770 -3.51636
  3185 135.043 0.375807 3.51716
  3186 183.720 33.2455 1.85497
  3187 156.856 -29.3826 -22.9555
  3188 156.865 -29.3253 23.1508
  3189 165.258 0.294930 13.3845
  3190 196.638 -15.3498 9.69215
  3191 196.593 -15.3543 -9.71356
  3192 183.167 29.9589 6.55128
  3193 163.325 -7.28115 7.20347
  3194 163.320 -7.27777 -7.19789
  3195 122.777 7.20233 1.75523
  3196 122.781 7.20143 -1.75442
  3197 221.467 -1.99919 12.8190
  3198 221.609 -1.93141 -12.7810
  3199 178.306 -7.89038 -9.93654
  3200 105.974 14.1408 -7.67692
  3201 105.968 14.1416 7.67849
  3202 165.648 7.15945 -13.1316
  3203 143.501 0.604221 -6.09900
  3204 143.510 0.604177 6.09992
  3205 170.967 4.97551 5.17414
  3206 216.155 3.66595 -24.0175
  3207 148.826 2.59436 14.4182
  3208 148.817 2.59502 -14.4172
  3209 179.933 27.8845 57.7330
  3210 153.828 0.402029 5.66891
  3211 153.817 0.402091 -5.66837
  3212 197.318 34.9804 7.42354
  3213 156.778 4.73570 11.0721
  3214 164.132 11.9247 -10.3478
  3215 162.471 -7.41392 -5.29864
  3216 162.476 -7.41753 5.30502
  3217 115.633 11.1027 9.97812
  3218 115.635 11.1022 -9.97584
  3219 217.558 9.21138 18.0231
  3220 177.238 -6.99051 10.4239
  3221 123.359 -32.6344 -27.8461
  3222 124.366 -32.5193 27.2342
  3223 239.988 -5.48091 -12.0565
  3224 224.416 -5.27608 23.0927
  3225 224.401 -5.44691 -23.1545
  3226 151.833 -5.03332 4.86228
  3227 151.839 -5.04101 -4.86221
  3228 52.4173 -1.92352 -10.3803
  3229 52.3965 -1.92789 10.4181
  3230 161.264 -0.233912 1.64215
  3231 161.274 -0.233487 -1.63856
  3232 125.802 4.40979 -9.21694
  3233 125.804 4.41017 9.21923
  3234 184.190 -16.1611 0.416906
  3235 156.975 -13.7913 8.27366
  3236 156.980 -13.7946 -8.36631
  3237 121.743 7.92514 1.79241
  3238 121.746 7.92432 -1.79157
  3239 138.384 -5.66592 -32.0946
  3240 138.402 -5.67124 32.0925
  3241 160.277 0.100116 -26.2802
  3242 160.290 0.0941860 26.2760
  3243 138.746 1.93087 3.06424
  3244 159.957 -2.29425 -0.764144
  3245 159.959 -2.29708 0.768752
  3246 158.814 0.408710 6.34026
  3247 158.803 0.408844 -6.33989
  3248 198.936 10.5990 10.5244
  3249 142.893 -1.48861 7.31273
  3250 142.893 -1.49347 -7.31641
  3251 78.8370 -28.6239 -29.2425
  3252 78.9028 -28.6121 29.2320
  3253 122.329 6.32226 6.65167
  3254 122.330 6.32147 -6.64965
  3255 156.483 -1.73316 -9.11035
  3256 156.479 -1.72218 9.11644
  3257 129.211 2.29519 -7.79030
  3258 129.215 2.29537 7.79219
  3259 170.027 -9.24182 -24.4577
  3260 170.051 -9.24926 24.4539
  3261 159.899 -3.89786 2.35466
  3262 159.896 -3.89397 -2.34842
  3263 145.128 1.79898 10.6649
  3264 145.120 1.79920 -10.6636
  3265 153.310 -13.3319 11.1455
  3266 153.253 -13.2682 -11.1178
  3267 160.596 -1.69018 0.599918
  3268 160.595 -1.68803 -0.595783
  3269 233.935 7.03204 22.3820
  3270 171.043 1.23381 14.3069
  3271 171.033 1.23493 -14.3082
  3272 163.608 -0.294913 -0.324713
  3273 163.606 -0.294407 0.326099
  3274 218.718 36.0844 -4.10335
  3275 181.530 -22.5946 10.2249
  3276 162.042 -0.769740 -1.87124
  3277 162.038 -0.770885 1.87591
  3278 135.501 -4.53748 -14.6611
  3279 135.510 -4.52785 14.6548
  3280 186.506 -7.51191 -29.0647
  3281 115.776 11.1950 -13.3154
  3282 115.775 11.1952 13.3182
  3283 25.6140 -77.9460 -5.28982
  3284 29.7521 -68.4266 11.0938
  3285 119.589 -3.21579 -22.4378
  3286 119.585 -3.19435 22.4372
  3287 240.389 -5.15197 12.0843
  3288 126.947 0.142384 -1.69904
  3289 126.953 0.142416 1.69956
  3290 95.6375 12.4211 -5.87853
  3291 95.6491 12.4201 5.87345
  3292 22.3826 -36.3200 -2.36296
  3293 22.4086 -36.3955 2.49347
  3294 200.255 0.0447115 -10.7876
  3295 200.261 0.0435745 10.7833
  3296 159.436 -19.9558 -14.5714
  3297 181.649 -0.683768 -12.6708
  3298 213.919 15.0529 2.81657
  3299 123.643 7.08471 -0.827371
  3300 123.640 7.08559 0.827910
  3301 135.646 -0.0145452 -0.973261
  3302 135.655 -0.0145692 0.973497
  3303 158.049 -0.0237699 -1.83891
  3304 158.047 -0.0232350 1.83878
  3305 136.970 2.77177 11.7668
  3306 136.964 2.77192 -11.7649
  3307 160.060 -9.67115 -0.630331
  3308 160.049 -9.66401 0.638280
  3309 207.974 9.31006 -4.33334
  3310 146.333 -0.484096 -5.02920
  3311 146.332 -0.480924 5.02736
  3312 137.552 1.12365 4.28191
  3313 228.677 -0.679036 -5.81337
  3314 228.667 -0.680082 5.80504
  3315 86.2318 -11.4756 36.0430
  3316 86.2671 -11.3932 -36.1233
  3317 151.517 8.04344 3.16498
  3318 162.814 -4.16534 11.0972
  3319 162.800 -4.17119 -11.0810
  3320 165.345 -8.96697 6.73234
  3321 165.346 -8.96549 -6.72618
  3322 218.775 -15.8909 10.1416
  3323 218.709 -15.7955 -10.1435
  3324 106.432 -5.62992 25.5078
  3325 249.124 1.80586 -17.2723
  3326 209.222 18.6019 -7.72128
  3327 102.599 10.2855 25.1169
  3328 102.595 10.2912 -25.1087
  3329 261.008 12.8761 15.6621
  3330 100.677 15.0895 8.77685
  3331 100.684 15.0883 -8.77462
  3332 127.165 4.91598 -11.0219
  3333 127.168 4.91623 11.0243
  3334 211.225 -5.70680 -8.19595
  3335 211.232 -5.70634 8.17931
  3336 121.106 7.73408 -9.43104
  3337 121.105 7.73465 9.43338
  3338 107.208 6.79250 -13.8813
  3339 107.214 6.79853 13.8747
  3340 122.577 7.67379 11.8165
  3341 122.576 7.67345 -11.8140
  3342 185.786 -0.260421 -9.90056
  3343 136.607 3.57525 13.3194
  3344 136.601 3.57550 -13.3174
  3345 152.732 -2.66294 3.53794
  3346 152.736 -2.66781 -3.53734
  3347 199.363 0.0490974 -8.81527
  3348 296.901 17.5052 1.16890
  3349 48.0963 -30.9272 -20.8397
  3350 48.1451 -30.9523 20.8336
  3351 87.3034 6.75078 -24.7195
  3352 87.3082 6.74148 24.7338
  3353 153.903 2.25955 -26.5143
  3354 153.915 2.25410 26.5116
  3355 220.731 -5.48044 -2.89682
  3356 220.724 -5.47129 2.88288
  3357 149.840 2.93519 8.66862
  3358 161.428 -12.9095 -2.58384
  3359 161.397 -12.8957 2.60247
  3360 201.477 10.9875 0.982207
  3361 87.9326 13.8080 14.3875
  3362 87.9418 13.8078 -14.3782
  3363 218.564 -8.47371 0.534006
  3364 218.554 -8.44718 -0.545985
  3365 162.488 -21.9586 14.5255
  3366 198.993 35.5426 -6.74324
  3367 113.436 11.7200 5.66930
  3368 113.440 11.7195 -5.66794
  3369 122.723 8.03868 -13.3752
  3370 122.724 8.03882 13.3779
  3371 129.483 -9.88105 24.8182
  3372 129.521 -9.98144 -24.8201
  3373 237.037 -1.83096 -1.06310
  3374 237.011 -1.82716 1.05602
  3375 177.750 0.186757 -20.1408
  3376 177.760 0.183116 20.1356
  3377 202.563 -10.2402 -9.73648
  3378 202.585 -10.2371 9.71659
  3379 159.481 -0.586450 -1.39148
  3380 159.479 -0.585327 1.39247
  3381 115.124 8.52667 -27.6069
  3382 115.132 8.52021 27.6119
  3383 190.571 -7.41970 17.7404
  3384 190.551 -7.41280 -17.7515
  3385 43.4129 -51.5989 -14.0952
  3386 43.3995 -51.5352 14.0538
  3387 125.563 0.0754638 -1.33497
  3388 125.568 0.0754579 1.33540
  3389 195.916 12.6017 -12.0884
  3390 123.245 5.28451 6.50989
  3391 123.245 5.28376 -6.50785
  3392 125.205 2.70436 -6.42011
  3393 125.208 2.70477 6.42206
  3394 107.105 7.03575 -28.6238
  3395 107.115 7.02697 28.6308
  3396 161.809 0.00855399 -0.935005
  3397 164.164 -0.0102530 0.364447
  3398 161.806 0.00867597 0.934936
  3399 164.167 -0.0102984 -0.364406
  3400 172.970 -18.1093 1.95434
  3401 172.834 -18.1545 -1.80261
  3402 112.131 5.29420 -14.6354
  3403 112.137 5.30121 14.6307
  3404 118.611 -20.8669 32.8184
  3405 118.601 -20.8800 -32.8431
  3406 179.551 0.296779 11.2916
  3407 179.541 0.297509 -11.2932
  3408 128.811 0.162847 1.34039
  3409 158.344 -10.4995 3.01513
  3410 158.360 -10.5107 -3.00953
  3411 143.478 2.79225 14.0309
  3412 143.470 2.79277 -14.0294
  3413 160.507 -2.13933 1.58748
  3414 160.506 -2.13677 -1.58215
  3415 405.403 14.9140 50.1880
  3416 129.941 1.14130 -5.79561
  3417 129.946 1.14141 5.79707
  3418 133.716 5.22791 15.9143
  3419 133.711 5.22837 -15.9121
  3420 42.8548 -9.95121 -8.42061
  3421 42.8296 -9.96461 8.47346
  3422 125.429 5.36228 6.43647
  3423 125.423 5.36124 -6.43839
  3424 70.4909 10.2423 -3.87258
  3425 70.5237 10.2316 3.87534
  3426 252.041 5.37460 17.6884
  3427 174.271 3.62021 -11.7804
  3428 155.619 -3.19885 2.13908
  3429 155.623 -3.20360 -2.13675
  3430 134.359 -10.6613 22.4045
  3431 134.428 -10.8469 -22.4007
  3432 126.273 7.02360 14.5160
  3433 126.271 7.02366 -14.5133
  3434 161.986 1.59807 15.5684
  3435 161.977 1.59925 -15.5689
  3436 224.146 -6.94546 5.81683
  3437 224.117 -6.90810 -5.80953
  3438 128.406 4.37454 -6.90140
  3439 128.411 4.37575 6.89904
  3440 110.347 -2.11628 -24.8490
  3441 110.352 -2.10394 24.8224
  3442 108.842 2.24814 -19.6782
  3443 108.845 2.25920 19.6677
  3444 317.169 28.0323 0.0273955
  3445 48.2460 -44.2007 29.6884
  3446 245.680 -0.398153 2.07548
  3447 245.641 -0.395246 -2.06862
  3448 276.736 10.2163 3.43901
  3449 144.796 -1.99304 6.69051
  3450 144.797 -1.99825 -6.69361
  3451 128.904 0.353437 -3.16952
  3452 128.909 0.353475 3.17041
  3453 126.346 2.43627 -6.77750
  3454 126.349 2.43658 6.77942
  3455 54.5627 -0.459814 -13.7457
  3456 54.6267 -0.473179 13.7445
  3457 200.696 -1.83422 14.8989
  3458 200.689 -1.83060 -14.9088
  3459 94.3811 -3.77177 -29.9725
  3460 94.3759 -3.78350 29.9708
  3461 145.588 2.16506 7.11512
  3462 115.440 11.6688 19.4150
  3463 115.440 11.6701 -19.4110
  3464 139.347 0.539808 4.62629
  3465 154.551 -0.857795 -9.21703
  3466 154.549 -0.849864 9.21976
  3467 175.351 -1.40706 -13.3273
  3468 155.328 0.0219348 1.98358
  3469 155.316 0.0219403 -1.98336
  3470 120.890 7.73197 5.59550
  3471 120.892 7.73113 -5.59374
  3472 219.283 -10.4465 6.79841
  3473 219.250 -10.3922 -6.79820
  3474 139.901 2.37751 -3.05368
  3475 117.870 9.85278 9.08623
  3476 117.872 9.85220 -9.08403
  3477 209.815 -0.160949 -8.63737
  3478 209.818 -0.162030 8.63252
  3479 104.419 -0.956949 -32.3345
  3480 104.439 -0.968675 32.3384
  3481 100.535 -2.59152 27.7537
  3482 100.526 -2.57717 -27.7680
  3483 145.378 4.29774 20.5070
  3484 145.370 4.29979 -20.5062
  3485 134.140 1.34895 3.09262
  3486 160.788 12.1614 8.09792
  3487 129.635 5.15090 3.07708
  3488 129.631 5.15127 -3.07811
  3489 126.130 0.365259 2.87884
  3490 126.125 0.365190 -2.87793
  3491 67.4311 -14.1078 26.5533
  3492 139.465 0.499065 -4.59559
  3493 139.474 0.499084 4.59644
  3494 118.517 9.73465 -10.9410
  3495 118.516 9.73510 10.9435
  3496 137.631 1.96751 5.73486
  3497 137.629 1.96599 -5.73748
  3498 143.326 1.10387 4.56171
  3499 143.325 1.10246 -4.56362
  3500 143.025 -0.0180274 2.63904
  3501 142.957 -0.0174260 -2.65299
  3502 186.099 -14.5260 -1.58373
  3503 191.116 -24.9053 -9.77848
  3504 191.744 -25.0629 9.40819
  3505 157.099 12.6677 2.24953
  3506 122.891 6.03116 8.16992
  3507 122.891 6.03053 -8.16767
  3508 67.7845 -11.9843 27.7542
  3509 67.7512 -11.9606 -27.7380
  3510 154.804 5.48037 9.71233
  3511 142.292 3.73011 15.6276
  3512 142.285 3.73080 -15.6261
  3513 157.887 -0.246144 1.82533
  3514 157.889 -0.247034 -1.82503
  3515 97.9501 10.5756 -10.1253
  3516 97.9602 10.5764 10.1178
  3517 107.655 13.8256 14.2734
  3518 107.658 13.8255 -14.2698
  3519 136.193 5.77875 -26.3129
  3520 136.202 5.77374 26.3139
  3521 178.715 -24.3110 -13.6515
  3522 122.171 6.49559 7.19125
  3523 122.171 6.49485 -7.18914
  3524 52.2427 -40.8831 -32.2944
  3525 131.129 4.59940 12.9277
  3526 131.125 4.59943 -12.9254
  3527 123.312 5.35446 -7.32171
  3528 123.313 5.35512 7.32386
  3529 368.298 25.3931 -4.39837
  3530 115.780 6.88163 29.0189
  3531 115.769 6.88944 -29.0141
  3532 177.428 25.3926 7.69158
  3533 249.140 1.61466 17.5942
  3534 122.366 -0.767408 -18.0817
  3535 122.377 -0.756756 18.0792
  3536 140.905 2.40724 -11.8866
  3537 140.913 2.40701 11.8882
  3538 226.901 -8.53097 20.3805
  3539 226.863 -8.67167 -20.3145
  3540 152.707 0.0508544 -2.91006
  3541 152.706 0.0521052 2.90953
  3542 284.570 12.6532 -0.454038
  3543 123.499 6.66669 11.0649
  3544 123.498 6.66630 -11.0624
  3545 133.492 1.26430 6.86184
  3546 133.486 1.26423 -6.86036
  3547 149.153 -12.8156 -29.3765
  3548 149.171 -12.8156 29.3802
  3549 155.328 -0.234603 -2.41854
  3550 155.326 -0.233361 2.41853
  3551 124.906 6.62280 -2.93460
  3552 124.911 6.62259 2.93389
  3553 152.620 0.0210155 -2.26586
  3554 152.591 0.0228085 2.26960
  3555 446.151 9.00546 -10.3232
  3556 160.083 -3.90598 -7.94985
  3557 160.087 -3.90717 7.95915
  3558 164.346 0.641702 8.17807
  3559 135.092 0.0659221 9.81924
  3560 135.088 0.0620410 -9.82400
  3561 123.553 5.85974 -9.13619
  3562 123.554 5.86028 9.13854
  3563 138.530 -29.8174 -27.8137
  3564 138.423 -29.6777 27.8351
  3565 95.7718 13.8696 -1.22699
  3566 95.7829 13.8679 1.22471
  3567 127.343 1.35928 -5.52247
  3568 127.347 1.35945 5.52403
  3569 170.341 0.106043 -22.9880
  3570 170.353 0.101371 22.9829
  3571 142.044 -22.9438 -30.7494
  3572 116.773 10.3540 7.86352
  3573 116.776 10.3534 -7.86155
  3574 226.027 -2.05129 -6.40616
  3575 226.018 -2.05164 6.39370
  3576 185.985 16.4362 -13.3107
  3577 93.5246 -30.8677 41.9483
  3578 118.952 10.2742 -14.3963
  3579 118.952 10.2742 14.3992
  3580 149.652 1.15891 7.34732
  3581 159.919 -23.7340 19.5316
  3582 160.789 9.50579 -10.5717
  3583 97.0508 1.65248 -23.7819
  3584 97.0602 1.64884 23.7628
  3585 161.682 -0.102209 -1.03551
  3586 161.680 -0.101915 1.03578
  3587 159.153 12.4654 -6.34019
  3588 130.998 2.20537 -8.33360
  3589 131.002 2.20551 8.33546
  3590 178.260 9.43038 -14.2808
  3591 157.824 8.92952 -8.42396
  3592 150.090 2.93795 -8.84833
  3593 118.069 10.7487 16.5854
  3594 118.069 10.7490 -16.5822
  3595 127.848 5.50301 -3.94961
  3596 127.852 5.50298 3.94833
  3597 177.130 20.8676 -11.2391
  3598 125.983 0.0441487 0.606416
  3599 125.977 0.0441544 -0.606227
  3600 160.226 -3.05026 -4.70818
  3601 160.227 -3.05357 4.71586
  3602 101.409 14.1376 -1.70169
  3603 101.400 14.1384 1.70103
  3604 148.489 4.32182 22.1101
  3605 148.480 4.32460 -22.1100
  3606 92.5506 15.4250 -5.70923
  3607 92.5388 15.4279 5.71130
  3608 156.156 -1.41250 -2.05464
  3609 156.154 -1.40978 2.05606
  3610 151.507 0.522551 28.0686
  3611 151.493 0.529176 -28.0717
  3612 160.494 -1.75287 3.44777
  3613 160.496 -1.75048 -3.44086
  3614 190.298 1.47016 11.1961
  3615 101.725 12.6473 -4.40203
  3616 101.733 12.6476 4.39868
  3617 157.042 -1.08633 -1.87306
  3618 157.040 -1.08418 1.87436
  3619 164.757 -11.8784 -1.71111
  3620 164.761 -11.8808 1.72492
  3621 132.470 3.20463 6.58512
  3622 132.466 3.20333 -6.58785
  3623 155.110 -24.2854 -25.3066
  3624 155.126 -24.2626 25.3533
  3625 175.011 -3.00950 12.6840
  3626 133.030 0.118900 -2.46698
  3627 133.037 0.118911 2.46758
  3628 114.494 7.72680 -8.82788
  3629 114.501 7.72991 8.82560
  3630 169.255 18.0627 -8.74949
  3631 262.606 38.9313 -13.8017
  3632 167.556 0.978668 12.8754
  3633 167.546 0.979460 -12.8760
  3634 77.8563 -41.7878 22.0718
  3635 77.6694 -41.8739 -22.0670
  3636 159.780 -0.170156 -1.43356
  3637 159.778 -0.169593 1.43384
  3638 156.460 1.46935 -12.3596
  3639 156.470 1.46879 12.3600
  3640 137.574 0.254558 3.11513
  3641 137.566 0.254547 -3.11448
  3642 131.281 0.113828 -2.09633
  3643 131.288 0.113829 2.09689
  3644 127.039 0.264814 2.42383
  3645 127.033 0.264769 -2.42311
  3646 135.580 1.10194 -3.94130
  3647 163.928 0.418447 -8.42300
  3648 229.779 10.7154 -20.0922
  3649 96.9442 14.9036 13.3871
  3650 96.9512 14.9030 -13.3820
  3651 239.707 17.6781 10.6025
  3652 108.217 13.4679 16.5110
  3653 108.219 13.4684 -16.5068
  3654 238.904 23.3228 -28.4451
  3655 136.153 1.07383 6.82080
  3656 136.147 1.07381 -6.81945
  3657 135.359 0.532259 4.76556
  3658 135.352 0.532246 -4.76455
  3659 162.360 -14.5918 -3.98487
  3660 162.331 -14.5778 4.03942
  3661 124.333 6.96593 0.977546
  3662 124.329 6.96656 -0.977593
  3663 166.872 -24.3399 -16.5233
  3664 229.382 25.9555 66.1330
  3665 118.480 6.54201 -9.29339
  3666 118.487 6.54496 9.29129
  3667 72.7969 -17.7037 -29.6830
  3668 72.8420 -17.7235 29.6893
  3669 149.747 -18.7331 -20.8978
  3670 120.955 7.25824 -5.36318
  3671 120.961 7.25919 5.36197
  3672 96.2645 -21.2262 -33.3133
  3673 96.3135 -21.2311 33.2939
  3674 123.328 4.58830 9.51108
  3675 123.321 4.58565 -9.51363
  3676 212.837 -16.1590 -8.60371
  3677 212.694 -15.5853 8.10359
  3678 158.169 -1.79516 -10.9323
  3679 158.159 -1.77017 10.9390
  3680 157.047 -12.4566 -6.43529
  3681 157.027 -12.4360 6.42116
  3682 138.320 1.53106 8.98360
  3683 138.313 1.53111 -8.98208
  3684 222.535 41.0410 3.50693
  3685 159.178 -11.9586 -3.95383
  3686 159.149 -11.9398 3.95980
  3687 126.446 2.05251 12.1584
  3688 126.438 2.04823 -12.1620
  3689 205.819 0.0765197 -7.55560
  3690 205.824 0.0759157 7.55256
  3691 156.873 -4.30273 1.29141
  3692 156.877 -4.30811 -1.28772
  3693 160.979 -4.84599 -6.93554
  3694 160.984 -4.84927 6.94336
  3695 156.151 12.3084 -2.20121
  3696 107.407 10.8808 -6.10011
  3697 107.414 10.8828 6.09740
  3698 121.889 7.90946 -2.42295
  3699 121.894 7.90940 2.42258
  3700 160.176 -28.8132 29.0970
  3701 134.190 -27.2466 37.9709
  3702 194.676 0.0717625 3.12262
  3703 194.665 0.0718448 -3.12326
  3704 186.409 27.3900 -10.0315
  3705 212.147 -1.06285 23.3913
  3706 204.386 0.170604 3.24109
  3707 204.378 0.170721 -3.24204
  3708 141.077 -20.2059 -27.9405
  3709 139.238 -5.54014 -13.5787
  3710 139.245 -5.53056 13.5702
  3711 123.211 7.33319 -0.0646378
  3712 123.207 7.33392 0.0649473
  3713 201.777 -0.0676960 -11.7317
  3714 201.783 -0.0693267 11.7263
  3715 130.981 -29.5713 41.0929
  3716 83.1044 10.2876 -11.2702
  3717 83.1262 10.2805 11.2608
  3718 102.626 -4.24702 -32.9541
  3719 102.650 -4.25999 32.9558
  3720 154.932 -10.7880 -6.98745
  3721 154.916 -10.7831 6.98357
  3722 148.508 -3.03125 5.62383
  3723 148.511 -3.03733 -5.62545
  3724 151.714 -8.09590 -7.17947
  3725 151.704 -8.08481 7.17737
  3726 87.2444 13.8187 -2.99223
  3727 87.2613 13.8139 2.98925
  3728 224.352 -6.21518 2.75485
  3729 224.332 -6.18995 -2.75698
  3730 158.061 -1.19869 5.26102
  3731 158.068 -1.19747 -5.25279
  3732 189.612 6.45204 11.9875
  3733 112.987 11.7968 21.0002
  3734 112.986 11.7989 -20.9956
  3735 244.190 -0.918107 -2.61506
  3736 244.221 -0.921953 2.62549
  3737 128.147 0.115355 -1.89661
  3738 128.153 0.115374 1.89717
  3739 185.470 0.133156 -15.5344
  3740 185.479 0.131218 15.5303
  3741 316.593 19.1006 -11.8263
  3742 119.676 8.78012 -1.57143
  3743 119.672 8.78072 1.57216
  3744 142.305 1.21618 8.03209
  3745 142.297 1.21623 -8.03089
  3746 127.560 -26.7880 -40.0258
  3747 127.104 -1.92115 -16.8346
  3748 127.115 -1.91310 16.8293
  3749 209.582 39.4928 -4.91841
  3750 164.444 -0.121343 0.709628
  3751 164.449 -0.121127 -0.707744
  3752 140.267 -19.7395 27.7584
  3753 166.945 13.8480 10.8961
  3754 119.643 8.90579 2.68661
  3755 119.647 8.90508 -2.68558
  3756 137.083 1.10055 30.7103
  3757 137.068 1.10832 -30.7111
  3758 128.917 4.40693 6.13177
  3759 128.912 4.40605 -6.13392
  3760 134.186 3.52770 4.34512
  3761 134.183 3.52744 -4.34691
  3762 155.956 -16.8514 13.3467
  3763 155.676 -16.6712 -13.2233
  3764 164.163 3.97918 2.08902
  3765 118.473 9.30861 3.56686
  3766 118.477 9.30794 -3.56567
  3767 93.0493 -0.616663 -24.7972
  3768 118.393 9.49409 -1.38404
  3769 118.389 9.49453 1.38469
  3770 151.307 -10.4364 9.46625
  3771 151.318 -10.4467 -9.47110
  3772 133.269 2.66280 10.0554
  3773 133.264 2.66274 -10.0535
  3774 160.609 -4.35533 -6.04375
  3775 160.614 -4.35893 6.05151
  3776 155.489 -2.41503 2.28758
  3777 155.492 -2.41897 -2.28574
  3778 93.9225 -31.4752 -41.7664
  3779 193.106 0.0589638 8.02165
  3780 193.097 0.0593835 -8.02358
  3781 157.829 2.62872 22.1533
  3782 157.819 2.63180 -22.1549
  3783 150.843 -6.54669 6.60838
  3784 150.851 -6.55649 -6.61016
  3785 149.890 -0.101196 -2.17314
  3786 149.856 -0.0959760 2.17374
  3787 267.422 23.2221 -3.80582
  3788 124.372 -13.4336 -30.2639
  3789 124.617 -13.2029 29.9742
  3790 172.405 0.297279 -7.48149
  3791 172.416 0.297058 7.48118
  3792 136.879 0.0652593 -1.08608
  3793 136.887 0.0652573 1.08632
  3794 202.369 -7.51038 -12.5190
  3795 202.385 -7.51285 12.5028
  3796 123.837 4.47183 -6.80704
  3797 123.838 4.47247 6.80912
  3798 160.400 -0.309800 -1.29267
  3799 160.397 -0.309093 1.29337
  3800 114.039 11.3181 3.86375
  3801 114.044 11.3177 -3.86276
  3802 123.094 6.65413 -10.2846
  3803 123.095 6.65460 10.2871
  3804 117.593 9.80174 -7.01412
  3805 117.590 9.80237 7.01597
  3806 58.8327 -1.63484 17.0949
  3807 58.8346 -1.62200 -17.0627
  3808 157.248 2.53555 -23.9044
  3809 157.258 2.53149 23.9024
  3810 194.497 -8.38207 2.24993
  3811 306.050 14.3349 21.8973
  3812 140.696 3.28377 14.0568
  3813 140.689 3.28424 -14.0551
  3814 119.965 2.65682 31.6445
  3815 119.950 2.66619 -31.6422
  3816 110.204 -29.6826 30.4004
  3817 110.135 -29.7395 -30.4878
  3818 206.063 -2.72349 -13.4304
  3819 206.068 -2.72752 13.4183
  3820 147.425 -1.25189 5.13887
  3821 147.426 -1.25590 -5.14057
  3822 115.183 11.9179 17.1840
  3823 115.183 11.9184 -17.1804
  3824 148.198 -16.5899 -29.9560
  3825 148.213 -16.5819 29.9661
  3826 166.372 4.66657 13.6336
  3827 154.381 -1.02806 -2.79809
  3828 154.378 -1.02557 2.79851
  3829 211.314 1.61070 23.6249
  3830 171.063 -7.68179 10.0767
  3831 170.886 -7.70403 -9.98288
  3832 165.648 9.89273 12.3120
  3833 128.610 1.15548 -5.47799
  3834 128.615 1.15561 5.47947
  3835 186.230 2.66396 36.0127
  3836 132.342 3.68462 5.18220
  3837 132.338 3.68401 -5.18430
  3838 132.206 5.12983 14.5107
  3839 132.202 5.13007 -14.5084
  3840 161.107 -0.569797 2.56305
  3841 161.114 -0.568756 -2.55759
  3842 159.365 9.48846 9.50305
  3843 185.476 4.29235 15.6147
  3844 162.793 -12.1405 39.0123
  3845 169.600 3.47670 14.0693
  3846 146.021 0.579611 -4.17857
  3847 146.021 0.581236 4.17700
  3848 175.688 -5.26145 -11.6900
  3849 190.038 -16.5130 4.90141
  3850 127.705 3.67179 9.35264
  3851 127.702 3.67151 -9.35044
  3852 128.273 2.46301 7.76522
  3853 128.270 2.46278 -7.76327
  3854 126.459 5.78324 4.78266
  3855 126.454 5.78294 -4.78409
  3856 200.852 -1.35845 -28.5268
  3857 121.303 5.99269 -8.33638
  3858 121.310 5.99487 8.33437
  3859 125.002 5.88482 11.0276
  3860 125.000 5.88450 -11.0251
  3861 119.874 8.37358 4.62906
  3862 119.876 8.37278 -4.62755
  3863 197.835 -10.4146 -12.7335
  3864 197.861 -10.4170 12.7175
  3865 406.115 19.3577 -10.5670
  3866 161.486 -1.21842 -0.820409
  3867 161.487 -1.22005 0.824505
  3868 122.323 6.83863 8.54376
  3869 122.323 6.83798 -8.54147
  3870 134.165 0.601384 4.96198
  3871 134.158 0.601361 -4.96089
  3872 22.0118 -0.774712 -0.00299009
  3873 23.7252 -2.52721 0.0937996
  3874 21.9194 -1.11498 -1.43123
  3875 21.5807 -1.02685 1.48424
  3876 21.7900 -0.467495 0.00937154
  3877 21.8831 -0.477571 -0.0661239
  3878 24.2934 -2.99780 -1.96972
  3879 23.0428 -0.755189 0.00989632
  3880 24.0076 -2.64048 2.17411
  3881 25.7602 -4.56795 0.000961527
  3882 25.5714 -4.07250 1.46921
  3883 22.4494 -1.35429 -0.482209
  3884 22.3686 -1.31691 0.516373
  3885 22.4411 -1.59055 -2.71127
  3886 20.5460 -0.648000 -0.838894
  3887 20.5912 -0.608829 0.753905
  3888 21.7028 -0.671535 -0.413890
  3889 25.7473 -4.40719 -1.42175
  3890 23.4085 -0.740126 -0.290361
  3891 23.3048 -0.846833 0.304974
  3892 22.1712 -1.45353 2.67578
  3893 21.6636 -0.664400 0.389928
  3894 22.2196 -0.598248 0.00188677
  3895 22.2129 -0.576206 -0.00109223
  3896 20.8323 -0.996124 -1.92531
  3897 20.5639 -0.992161 1.91665
  3898 23.4884 -2.24993 -1.01870
  3899 26.3389 -5.19159 0.607730
  3900 23.2900 -2.13993 1.15515
  3901 26.4456 -5.25623 -0.858901
  3902 24.6527 -3.29936 -0.683798
  3903 24.7820 -3.73224 0.547176
  3904 25.1922 -3.21667 -3.12554
  3905 25.6532 -3.50164 2.66151
  3906 21.1313 -0.546019 -0.0897434
  3907 21.0132 -0.588424 0.0117700
  3908 23.7190 -0.921894 0.0478719
  3909 24.0103 -2.34599 3.38533
  3910 23.1241 -0.587151 -0.538025
  3911 23.7441 -0.907699 -0.0547002
  3912 22.6931 -0.573201 0.490652
  3913 22.9156 -1.88458 -1.91747
  3914 22.5566 -1.67422 1.87223
  3915 22.8548 -1.69075 0.0959518
  3916 21.2563 -0.640487 -0.821054
  3917 21.2158 -0.627656 0.807043
  3918 22.4282 -1.45931 -1.14118
  3919 22.2283 -1.13542 0.0165760
  3920 23.5445 -2.05995 -3.55863
  3921 21.5462 -1.40850 -3.10405
  3922 22.8399 -0.668609 -0.156048
  3923 21.9861 -0.889795 -0.305547
  3924 21.9703 -0.881276 0.316465
  3925 20.1779 -0.842217 -1.50097
  3926 22.3978 -0.552731 0.196325
  3927 26.3489 -4.99206 1.63345
  3928 26.1224 -4.17390 -2.42765
  3929 20.9193 -1.20000 2.71647
  3930 21.8261 -0.939171 0.781043
  3931 24.6755 -3.38512 1.67263
  3932 19.9975 -0.909989 1.36160
  3933 26.5300 -5.54103 0.0823166
  3934 23.6907 -2.34337 -2.44296
  3935 21.9667 -0.649575 -0.129462
  3936 25.5713 -4.24758 0.740361
  3937 22.3677 -1.32872 1.13517
  3938 21.8570 -0.985748 -0.790164
  3939 22.1502 -0.617851 -0.00972088
  3940 22.4673 -1.76060 3.77396
  3941 21.9506 -0.672419 0.121956
  3942 25.2706 -3.94983 -1.00923
  3943 20.1009 -0.823648 -0.626105
  3944 21.8790 -0.521267 -0.104961
  3945 24.1415 -0.610643 0.286654
  3946 21.0595 -0.527045 -0.492156
  3947 23.8990 -0.857079 -0.0645828
  3948 21.2435 -0.512734 0.246251
  3949 23.9761 -0.852419 0.0185123
  3950 20.2921 -0.740700 0.453828
  3951 21.5653 -1.16429 -2.19813
  3952 23.8196 -0.774210 -0.298793
  3953 22.4538 -0.642464 0.00410878
  3954 21.9535 -0.515614 0.0435579
  3955 26.3725 -4.97013 -1.45470
  3956 21.0162 -0.809999 -1.31218
  3957 23.0826 -1.92829 2.56163
  3958 23.8340 -2.59505 0.766096
  3959 22.7068 -0.630350 -0.273674
  3960 21.2586 -1.07015 1.84819
  3961 23.1318 -0.757519 0.118445
  3962 24.7213 -3.53965 -0.0609503
  3963 21.0336 -0.793467 1.32285
  3964 26.2699 -4.30183 2.45003
  3965 25.3607 -3.02431 3.29082
  3966 22.3451 -0.625574 -0.582236
  3967 23.3302 -2.15056 -0.411794
  3968 25.3801 -3.77659 -2.08155
  3969 22.1510 -0.686095 0.546260
  3970 23.1905 -2.03377 0.489145
  3971 23.8608 -0.940493 -0.0511106
  3972 26.5331 -5.39578 1.15504
  3973 22.5966 -1.72116 -3.80592
  3974 20.2118 -1.16376 -2.36037
  3975 26.2416 -4.92319 0.152846
  3976 20.1526 -1.19404 2.46137
  3977 24.1710 -2.80157 -1.23282
  3978 23.9144 -2.61484 1.46198
  3979 25.3604 -3.70562 2.06017
  3980 26.3717 -4.88891 -2.02571
  3981 24.4674 -2.75351 2.85406
  3982 23.2431 -0.792319 -0.108106
  3983 21.9427 -0.452003 -0.318756
  3984 23.5254 -0.867998 0.000430759
  3985 26.7612 -5.79295 0.624605
  3986 21.7836 -0.467102 0.231770
  3987 22.4340 -0.513966 0.306633
  3988 22.6186 -0.624051 0.0922199
  3989 25.3944 -2.68027 -3.76914
  3990 21.5527 -0.554935 -0.363955
  3991 23.8949 -2.68864 -0.542152
  3992 25.8005 -4.60498 -0.755248
  3993 26.8313 -5.81760 -0.706965
  3994 23.5244 -0.611401 0.652479
  3995 20.8042 -1.26774 -3.02897
  3996 24.8724 -3.45406 -1.42512
  3997 21.5185 -0.529139 0.333735
  3998 21.3634 -1.46703 3.44867
  3999 23.9209 -2.08509 3.97818
  4000 22.2998 -0.591297 -0.0974484
  4001 22.1767 -1.35161 -1.92023
  4002 26.1909 -3.78762 -2.92947
  4003 19.6578 -1.07152 -1.29538
  4004 23.7462 -0.580247 -0.620068
  4005 26.0762 -4.77886 1.16280
  4006 22.8158 -1.68907 -0.797145
  4007 24.0524 -0.880393 0.0406870
  4008 20.9018 -0.528816 0.319167
  4009 20.3923 -0.941611 -0.0825810
  4010 26.3358 -3.83709 2.92528
  4011 20.7764 -0.537822 -0.398184
  4012 22.7060 -1.57872 0.849842
  4013 23.9819 -0.966418 -0.0269175
  4014 20.4992 -0.731335 1.22099
  4015 25.0686 -3.74567 1.11010
  4016 23.2158 -2.10876 1.83018
  4017 21.9128 -1.37479 2.04611
  4018 21.1764 -0.835142 -0.326718
  4019 23.5195 -0.817728 0.175834
  4020 19.7386 -1.10405 1.85038
  4021 20.5176 -0.768636 -1.36664
  4022 23.6004 -2.37006 -1.71087
  4023 24.3216 -3.09789 0.350497
  4024 19.7199 -1.00217 0.925219
  4025 21.4928 -0.838984 1.02255
  4026 24.7661 -3.07002 -2.65248
  4027 23.9786 -0.923792 0.0164663
  4028 25.9480 -4.39280 1.93454
  4029 23.0343 -0.695402 -0.421736
  4030 21.7580 -1.38507 -2.67006
  4031 22.8949 -1.89381 -1.39332
  4032 23.5220 -0.859236 -0.158466
  4033 26.7424 -6.05309 -0.258681
  4034 21.5735 -0.894718 -1.11093
  4035 22.6696 -1.74941 1.43271
  4036 26.1205 -4.85563 -1.14594
  4037 23.1981 -0.670838 0.422693
  4038 24.0867 -0.789773 0.00182282
  4039 22.4895 -1.40468 -0.139901
  4040 22.4390 -1.39141 0.198394
  4041 25.2185 -4.01163 0.128484
  4042 22.0898 -1.05787 -0.527699
  4043 22.1934 -1.28539 1.49019
  4044 22.7711 -1.81005 3.25039
  4045 22.1478 -0.567239 0.0285173
  4046 22.8368 -1.71519 -2.39163
  4047 22.2037 -1.10814 -0.263137
  4048 22.1736 -1.09960 0.288299
  4049 25.3345 -3.89269 -1.49005
  4050 20.8166 -0.641631 -0.954432
  4051 24.2861 -2.51782 -3.21005
  4052 20.7765 -0.643289 0.948372
  4053 22.0484 -1.03915 0.544355
  4054 24.1094 -2.05984 -4.28138
  4055 22.0552 -0.928273 0.111671
  4056 22.0644 -0.920999 -0.0991130
  4057 21.4508 -1.16627 2.40101
  4058 22.5589 -0.508560 -0.382025
  4059 25.2423 -4.00943 -0.427974
  4060 21.3528 -0.444695 0.00743570
  4061 22.5143 -0.649412 -0.0731831
  4062 21.2004 -0.471626 -0.113566
  4063 23.3812 -0.830632 0.0765513
  4064 24.3080 -2.97385 -0.159777
  4065 23.1719 -2.08949 0.0135314
  4066 26.7931 -5.54887 -1.24577
  4067 21.1121 -0.838071 0.344974
  4068 24.4940 -3.15017 0.987512
  4069 26.4346 -4.78580 2.08953
  4070 21.9807 -0.761712 -0.144402
  4071 19.7458 -1.12266 -1.79587
  4072 21.0845 -1.16794 -2.56561
  4073 21.8704 -0.706303 0.271513
  4074 21.6072 -0.735529 -0.661506
  4075 21.7814 -0.827932 0.497537
  4076 20.4948 -0.907209 0.0204984
  4077 22.0076 -1.18203 -1.12486
  4078 26.9832 -6.05428 0.177845
  4079 26.2319 -5.06778 -0.293204
  4080 23.2208 -1.92316 -2.93499
  4081 20.6497 -1.26825 3.03472
  4082 22.4554 -1.61759 -3.11684
  4083 21.5381 -0.715541 0.633277
  4084 23.7483 -0.956255 0.0182264
  4085 21.8778 -0.715745 -0.288625
  4086 25.4392 -2.72360 3.82589
  4087 21.8140 -0.860267 -0.500938
  4088 20.1267 -0.790696 -1.12230
  4089 22.0271 -0.677344 -0.0498966
  4090 22.2323 -1.26930 -0.804380
  4091 21.7547 -1.45706 3.03820
  4092 22.1079 -1.46041 -2.38959
  4093 25.5932 -3.55821 -2.68074
  4094 21.9676 -0.775176 0.141847
  4095 21.4714 -1.50772 -3.60269
  4096 26.6220 -5.27863 -1.68061
  4097 23.1398 -0.737447 -0.211691
  4098 24.3749 -0.588641 -0.337682
  4099 26.4729 -4.56669 -2.52050
  4100 24.8032 -3.22898 2.34729
  4101 22.1849 -1.22283 0.811302
  4102 22.3937 -1.42649 -1.49227
  4103 21.8011 -0.616019 -0.222813
  4104 21.9377 -1.06705 1.11827
  4105 22.0359 -0.666894 0.0362881
  4106 20.2370 -0.955253 -1.82097
  4107 22.1075 -0.617544 -0.0477966
  4108 23.8074 -0.826562 0.242988
  4109 26.6075 -5.39857 1.60911
  4110 20.2031 -0.755971 0.899949
  4111 22.8392 -0.695042 -0.0722265
  4112 21.4212 -1.07441 -1.64221
  4113 22.8498 -1.73534 -0.307626
  4114 22.3137 -0.582500 0.0123908
  4115 22.9006 -0.684977 0.233971
  4116 21.8508 -0.609482 0.159677
  4117 26.2368 -3.42586 3.34728
  4118 19.4820 -1.17023 1.39201
  4119 26.1214 -4.46651 -1.95260
  4120 22.0432 -0.582204 -0.0707118
  4121 26.0006 -4.78117 0.533029
  4122 22.0954 -0.613333 0.0381951
  4123 26.5670 -5.63419 -0.400729
  4124 23.8020 -0.818795 -0.178316
  4125 21.0362 -0.550343 0.564812
  4126 22.6820 -1.58767 0.422341
  4127 23.7783 -0.863367 -0.0573610
  4128 27.0338 -6.25131 -0.0684226
  4129 19.4966 -1.19867 1.10644
  4130 19.6760 -1.11583 -0.975792
  4131 19.9648 -1.05099 0.358999
  4132 20.6351 -1.16201 -0.225328
  4133 21.7465 -0.910347 -0.652621
  4134 23.2989 -0.639482 -0.680686
  4135 24.5693 -0.498444 -0.324069
  4136 24.6539 -0.617492 0.0632761
  4137 24.2308 -0.688172 0.193791
  4138 24.0882 -0.867721 0.0491616
  4139 23.9191 -0.918779 0.123394
  4140 24.0903 -0.958699 -0.121503
  4141 24.2177 -0.827616 -0.0553168
  4142 24.1776 -0.816223 -0.0647572
  4143 24.6629 -0.632099 -0.161792
  4144 24.5803 -0.453217 0.277332
  4145 23.1503 -0.719708 0.699197
  4146 21.7102 -0.976501 0.704235
  4147 20.6062 -1.10883 0.207685
  4148 19.9936 -1.11877 -0.303431
  4149 19.5829 -1.22876 -1.60837
  4150 19.7724 -1.19437 -2.21708
  4151 20.1502 -1.30361 -2.88590
  4152 20.7890 -1.53538 -3.56918
  4153 21.8305 -1.84245 -4.08007
  4154 23.1380 -2.17861 -4.39087
  4155 25.0656 -2.63161 -4.35205
  4156 26.5490 -3.42191 -3.41033
  4157 26.7153 -3.96755 -2.80662
  4158 26.6490 -4.28458 -2.71674
  4159 26.6809 -5.09215 -2.15559
  4160 26.9128 -5.55177 -1.57645
  4161 27.0720 -5.85935 -1.01655
  4162 26.9129 -6.05693 -0.517322
  4163 27.2774 -6.04025 0.504418
  4164 26.7366 -5.78129 1.12414
  4165 26.7193 -5.64317 1.52237
  4166 26.6652 -5.20583 2.02493
  4167 26.6009 -4.51233 2.52742
  4168 26.8724 -3.83546 3.04613
  4169 26.5163 -3.22069 3.62918
  4170 25.0934 -2.51379 4.26519
  4171 23.0926 -2.17531 4.25739
  4172 21.7055 -1.86539 4.04015
  4173 20.8449 -1.47271 3.53711
  4174 20.1161 -1.34685 2.90073
  4175 19.7180 -1.24354 2.27289
  4176 19.4636 -1.27211 1.63748
</Section>

newXOutput 18

<Section columns = "stress_xx | stress_yy | stress_xy">
  1 124.390 0.167719 -0.385446
  2 124.391 0.167821 0.385576
  3 166.778 -0.0594112 0.105661
  4 166.777 -0.0595359 -0.105778
  5 409.531 23.4179 4.84441
  6 515.243 4.61380 0.702601
  7 131.930 -0.0127717 -0.432787
  8 131.940 -0.0127489 0.433052
  9 173.751 -0.0115113 0.329798
  10 173.757 -0.0115392 -0.329995
  11 11.8560 -131.404 5.46916
  12 12.3188 -132.339 -5.99629
  13 144.757 1.97626 -0.213952
  14 144.756 1.97812 0.213904
  15 169.021 -0.309917 0.245943
  16 124.437 0.210667 -0.609018
  17 124.440 0.210714 0.609528
  18 169.023 -0.309925 -0.246323
  19 139.050 5.05445 -3.16731
  20 139.056 5.05257 3.16538
  21 132.707 0.406267 0.250361
  22 125.542 1.63433 0.0720673
  23 132.857 0.0431628 -0.419311
  24 133.641 0.0592163 -0.458957
  25 134.865 0.0561687 -0.663173
  26 135.877 0.0440806 -0.581214
  27 137.025 0.0516800 -0.684037
  28 138.509 0.0169782 -0.748504
  29 139.807 -0.0417513 -0.649286
  30 141.310 -0.00457639 -0.613037
  31 143.003 -0.0226145 -0.637893
  32 144.483 0.0179373 -0.659219
  33 146.434 0.0810677 -0.993047
  34 148.390 0.0991021 -1.02098
  35 150.438 0.0935073 -1.25826
  36 153.159 0.0310787 -1.36863
  37 155.112 -0.0444881 -1.33453
  38 158.166 0.00910662 -1.33133
  39 160.429 -0.0191333 -1.36642
  40 164.070 -0.0217294 -1.34213
  41 166.762 0.0902083 -1.66255
  42 170.022 0.157214 -1.94210
  43 173.984 -0.137230 -2.08315
  44 178.365 -0.157263 -1.94695
  45 181.795 -0.0683091 -1.90504
  46 186.726 -0.0347697 -1.93008
  47 190.353 -0.0139716 -2.52103
  48 194.287 0.0947984 -2.70640
  49 200.375 -0.317475 -2.45086
  50 206.138 -0.329860 -2.09729
  51 210.787 -0.258112 -2.23350
  52 217.120 -0.275093 -1.96659
  53 221.753 -0.165545 -2.63895
  54 227.927 -0.175815 -2.49501
  55 233.340 -0.144477 -2.92485
  56 237.525 -0.321942 -3.12253
  57 246.379 -1.06949 -2.51951
  58 248.294 -0.213441 -2.29603
  59 254.441 -0.0651900 -1.82681
  60 258.722 -0.362151 -2.06161
  61 262.466 -0.447877 -1.45501
  62 265.791 -0.481731 -1.13566
  63 267.730 -0.511674 -0.650322
  64 269.085 -0.583323 -0.0898198
  65 269.242 -0.722309 0.680657
  66 266.638 -0.780341 1.32841
  67 265.641 -0.753434 1.62791
  68 261.390 -1.08950 2.33607
  69 253.934 -0.807129 3.58640
  70 245.654 -0.717172 4.71839
  71 236.990 -0.492627 5.47774
  72 225.003 -0.383891 6.21961
  73 213.905 0.0635049 6.68574
  74 199.139 0.229988 6.65142
  75 188.663 0.508236 6.79140
  76 172.052 0.984017 5.59516
  77 161.172 1.41975 6.20077
  78 149.562 0.921911 4.04162
  79 143.588 1.46432 4.72177
  80 130.582 1.90064 2.28791
  81 130.365 1.65644 2.18308
  82 127.086 1.44949 -1.28657
  83 129.825 1.84894 -2.77764
  84 136.742 2.53557 -2.86268
  85 151.595 1.21248 -5.26455
  86 161.143 1.28471 -6.96202
  87 171.709 1.00412 -6.20558
  88 189.001 0.379419 -7.20015
  89 200.864 -0.163442 -7.45809
  90 213.041 0.111051 -5.86106
  91 225.332 -0.0996633 -5.87995
  92 237.021 -0.461827 -5.30261
  93 245.712 -0.676238 -4.64455
  94 253.924 -0.793407 -3.56068
  95 261.348 -1.08493 -2.32601
  96 265.585 -0.750813 -1.62384
  97 266.580 -0.777397 -1.32802
  98 269.185 -0.720629 -0.682765
  99 269.036 -0.582249 0.0857710
  100 267.691 -0.511169 0.645453
  101 265.762 -0.481546 1.13064
  102 262.448 -0.447985 1.45025
  103 258.713 -0.362413 2.05727
  104 254.439 -0.0656551 1.82324
  105 248.301 -0.214009 2.29297
  106 246.390 -1.06977 2.51708
  107 237.541 -0.322003 3.12023
  108 233.360 -0.144764 2.92332
  109 227.950 -0.176078 2.49392
  110 221.778 -0.165796 2.63825
  111 217.146 -0.275290 1.96601
  112 210.815 -0.258267 2.23318
  113 206.166 -0.330018 2.09695
  114 200.404 -0.317634 2.45065
  115 194.315 0.0946905 2.70643
  116 190.382 -0.0141579 2.52125
  117 186.755 -0.0348867 1.93025
  118 181.823 -0.0683907 1.90534
  119 178.393 -0.157432 1.94722
  120 174.010 -0.137332 2.08357
  121 170.048 0.157224 1.94261
  122 166.786 0.0901427 1.66306
  123 164.094 -0.0217997 1.34249
  124 160.452 -0.0191784 1.36686
  125 158.188 0.00905507 1.33173
  126 155.133 -0.0445471 1.33504
  127 153.179 0.0310444 1.36913
  128 150.457 0.0935018 1.25881
  129 148.409 0.0991110 1.02146
  130 146.452 0.0810796 0.993505
  131 144.500 0.0179072 0.659548
  132 143.019 -0.0226564 0.638186
  133 141.325 -0.00460904 0.613330
  134 139.822 -0.0417952 0.649605
  135 138.523 0.0169575 0.748880
  136 137.038 0.0516836 0.684433
  137 135.889 0.0440871 0.581573
  138 134.876 0.0561957 0.663577
  139 133.652 0.0592129 0.459248
  140 132.867 0.0431477 0.419553
  141 128.487 0.623895 0.584428
  142 133.876 1.18117 0.476033
  143 138.670 1.86311 0.418481
  144 150.573 1.47955 -0.0567125
  145 156.571 0.974076 -0.0560534
  146 162.390 0.350674 0.0538496
  147 174.891 -0.0833202 -0.244497
  148 175.275 -0.102969 -0.387677
  149 175.994 -0.136520 -0.195776
  150 176.413 -0.118341 -0.345738
  151 176.624 -0.142402 -0.137619
  152 177.068 -0.0626828 -0.0712653
  153 176.718 -0.242915 -0.0455922
  154 176.248 -0.176003 0.361084
  155 175.996 -0.215275 0.515085
  156 174.912 -0.256666 0.576703
  157 172.860 -0.215225 0.963045
  158 170.882 -0.162386 1.14930
  159 167.869 -0.216168 1.48904
  160 164.652 -0.0689202 2.03243
  161 160.639 -0.0341131 1.58216
  162 157.087 -0.00513611 1.72142
  163 152.167 0.102818 1.69443
  164 148.299 0.169463 2.08033
  165 143.707 0.235310 1.81428
  166 139.872 0.276022 1.66673
  167 136.253 0.434879 1.23712
  168 133.396 0.389784 0.779181
  169 133.345 0.243138 0.771115
  170 132.317 0.765203 -0.773376
  171 133.306 0.557135 -0.858317
  172 137.003 0.447022 -1.44127
  173 140.294 0.470167 -2.25490
  174 143.302 0.166070 -1.87301
  175 148.245 0.170288 -2.05509
  176 152.166 0.117277 -1.70665
  177 157.121 -0.0131819 -1.73221
  178 160.676 -0.0371808 -1.58194
  179 164.681 -0.0698396 -2.02771
  180 167.890 -0.215946 -1.48543
  181 170.896 -0.162168 -1.14624
  182 172.869 -0.214962 -0.960595
  183 174.916 -0.256416 -0.574714
  184 175.997 -0.215104 -0.513648
  185 176.246 -0.175894 -0.359844
  186 176.714 -0.242702 0.0465011
  187 177.063 -0.0625229 0.0718436
  188 176.617 -0.142240 0.138004
  189 176.406 -0.118197 0.345857
  190 175.987 -0.136388 0.195864
  191 175.268 -0.102870 0.387566
  192 174.884 -0.0832478 0.244401
  193 162.389 0.350326 -0.0539934
  194 156.571 0.973077 0.0558730
  195 150.574 1.47801 0.0565728
  196 138.671 1.86142 -0.418329
  197 133.876 1.18009 -0.475811
  198 128.486 0.623426 -0.584215
  199 123.218 0.578156 -0.578059
  200 124.833 0.142971 -0.691112
  201 126.298 0.0863248 -0.649445
  202 127.537 0.0702441 -0.555021
  203 129.032 0.0116873 -0.645129
  204 129.947 -0.00139937 -0.557080
  205 130.735 -0.00104933 -0.405387
  206 132.304 0.0421025 -0.940717
  207 132.487 0.127485 -1.65237
  208 132.967 0.310574 -2.57563
  209 133.214 0.524735 -3.35491
  210 133.363 0.804348 -4.18126
  211 133.174 1.18905 -4.76563
  212 133.218 1.58102 -5.44460
  213 132.952 2.08465 -5.97497
  214 132.621 2.59384 -6.39178
  215 132.258 3.16813 -6.71999
  216 131.798 3.75868 -6.82610
  217 131.448 4.27056 -6.81622
  218 131.005 4.93516 -6.74491
  219 130.611 5.49120 -6.39824
  220 130.277 6.00643 -5.99231
  221 130.138 6.48734 -5.37476
  222 130.073 6.77590 -4.61894
  223 130.228 7.15387 -3.74647
  224 130.511 7.27100 -2.75246
  225 131.373 7.11276 -1.64287
  226 132.388 6.97742 -0.613804
  227 133.546 6.65387 0.445133
  228 135.099 6.27061 1.46304
  229 136.779 5.59119 2.40800
  230 141.262 4.17111 3.83005
  231 143.723 3.49904 4.27767
  232 146.079 2.83895 4.53464
  233 148.662 2.24191 4.54129
  234 150.884 1.60492 4.53518
  235 153.458 1.15607 4.36431
  236 155.722 0.748467 4.10456
  237 157.885 0.511571 3.80950
  238 160.239 0.315334 3.39283
  239 162.241 0.201505 2.96291
  240 164.334 0.0376787 2.57399
  241 166.406 0.125313 2.13793
  242 168.467 0.0473763 1.68709
  243 170.425 0.0257927 1.20870
  244 172.288 0.0634065 0.677942
  245 173.144 -0.0703052 0.252277
  246 171.969 -0.0892459 0.292504
  247 170.473 -0.171124 0.444393
  248 166.954 -0.0877751 0.392983
  249 172.294 0.0633735 -0.678322
  250 170.430 0.0256207 -1.20935
  251 168.471 0.0470012 -1.68798
  252 166.409 0.124756 -2.13906
  253 164.337 0.0368305 -2.57542
  254 162.243 0.200545 -2.96466
  255 160.241 0.314182 -3.39493
  256 157.886 0.510372 -3.81205
  257 155.722 0.747363 -4.10745
  258 153.458 1.15515 -4.36751
  259 150.883 1.60434 -4.53858
  260 148.660 2.24183 -4.54470
  261 146.075 2.83928 -4.53799
  262 143.719 3.49988 -4.28071
  263 141.257 4.17244 -3.83263
  264 136.773 5.59338 -2.40928
  265 135.092 6.27315 -1.46355
  266 133.540 6.65659 -0.444917
  267 132.382 6.98026 0.614743
  268 131.368 7.11564 1.64444
  269 130.506 7.27386 2.75468
  270 130.224 7.15667 3.74922
  271 130.069 6.77855 4.62215
  272 130.136 6.48987 5.37833
  273 130.275 6.00873 5.99618
  274 130.610 5.49330 6.40228
  275 131.006 4.93704 6.74907
  276 131.449 4.27218 6.82040
  277 131.800 3.76010 6.83024
  278 132.261 3.16934 6.72400
  279 132.625 2.59480 6.39561
  280 132.957 2.08545 5.97854
  281 133.224 1.58161 5.44786
  282 133.181 1.18952 4.76850
  283 133.370 0.804664 4.18379
  284 133.222 0.524958 3.35696
  285 132.976 0.310718 2.57722
  286 132.496 0.127531 1.65340
  287 132.314 0.0421106 0.941310
  288 130.745 -0.00109398 0.405638
  289 129.955 -0.00147284 0.557394
  290 129.040 0.0116368 0.645525
  291 127.543 0.0702292 0.555449
  292 126.303 0.0863280 0.649912
  293 124.837 0.142956 0.691553
  294 123.219 0.578234 0.578331
  295 166.955 -0.0877163 -0.393293
  296 170.477 -0.171183 -0.444800
  297 171.974 -0.0892893 -0.292763
  298 173.150 -0.0703560 -0.252481
  299 19.9690 -116.922 -1.77673
  300 28.0310 -83.0759 -2.74617
  301 51.1037 -32.6764 15.7607
  302 87.1618 1.92141 34.0061
  303 148.456 32.9171 62.1682
  304 210.434 48.3549 84.6548
  305 279.466 47.0675 86.8548
  306 349.564 39.5488 75.9374
  307 394.379 28.7801 43.3921
  308 384.475 32.8327 -39.0384
  309 346.052 37.8198 -78.9995
  310 278.569 48.7845 -89.5428
  311 205.008 48.2568 -81.5596
  312 144.079 40.3154 -68.5319
  313 88.8637 8.53685 -37.1162
  314 56.7522 -29.2648 -19.5727
  315 29.3737 -87.4931 4.25866
  316 22.3519 -121.822 1.88953
  317 12.8995 -145.121 -20.1439
  318 12.9867 -119.699 -22.6834
  319 18.5432 -91.0585 -20.9824
  320 37.0186 -50.3156 -4.22540
  321 64.8497 -17.3384 12.4752
  322 106.679 12.6468 33.8825
  323 163.330 23.5926 55.2742
  324 219.449 37.0647 78.1209
  325 269.981 35.0160 86.7131
  326 328.062 32.9880 92.2086
  327 383.547 27.9052 80.3778
  328 447.127 17.0037 75.7070
  329 478.512 12.6892 49.4668
  330 503.587 4.60374 23.6614
  331 511.700 6.12971 -28.0327
  332 481.789 10.2091 -51.7274
  333 444.685 18.9034 -68.6168
  334 397.705 27.5820 -84.7024
  335 335.889 31.7960 -88.7978
  336 281.304 37.4759 -90.2767
  337 215.080 34.8280 -75.1131
  338 158.302 25.6905 -54.0960
  339 98.3885 13.3013 -32.9592
  340 65.3942 -17.7131 -11.3420
  341 37.5564 -50.1299 4.13987
  342 18.6500 -91.0198 20.8497
  343 13.0087 -119.864 22.5241
  344 12.8462 -145.837 19.7991
  345 131.401 1.91114 -2.79320
  346 139.473 3.21478 -0.255065
  347 153.114 1.64399 1.60794
  348 130.233 0.681518 -3.02692
  349 133.949 3.85204 -2.40969
  350 160.613 0.733978 1.93469
  351 131.350 2.48756 -4.39333
  352 144.843 3.23292 1.71407
  353 137.650 4.89588 0.164158
  354 131.945 4.48388 -4.08039
  355 130.751 0.241536 -2.13037
  356 154.549 1.63699 2.77956
  357 131.653 1.21125 -4.17746
  358 131.660 2.07193 -5.04947
  359 132.584 5.36080 -2.91695
  360 165.814 0.296995 1.61751
  361 147.922 2.74441 2.96213
  362 134.929 2.32149 -1.37436
  363 159.941 0.740029 2.65937
  364 131.385 4.22400 -5.24361
  365 141.462 4.27077 2.06295
  366 128.787 0.517169 -2.01986
  367 159.718 0.681452 0.918053
  368 144.934 2.71204 0.627225
  369 151.782 1.79650 3.60964
  370 133.453 6.09177 -1.43996
  371 136.165 5.68131 0.350453
  372 130.188 0.830868 -1.04959
  373 156.563 1.09626 3.45020
  374 131.580 3.29393 -5.76341
  375 131.284 5.69929 -4.32824
  376 131.353 0.0712779 -1.31466
  377 169.462 0.0830947 1.11259
  378 129.098 0.244536 -1.99196
  379 130.356 1.30257 -3.23560
  380 131.947 0.555293 -3.19426
  381 140.896 2.08855 -0.100951
  382 131.952 2.91636 -3.46952
  383 149.526 2.34343 2.10559
  384 165.182 0.266728 2.11247
  385 166.332 0.177030 1.20207
  386 132.104 1.96419 -5.33048
  387 150.954 1.67390 0.752962
  388 133.681 2.97439 -2.30174
  389 145.048 3.31328 3.42051
  390 139.102 4.89242 1.81034
  391 127.860 0.289697 -1.70853
  392 140.925 3.70839 0.487957
  393 126.863 0.282586 -0.719252
  394 156.632 1.27414 2.07660
  395 135.007 4.93241 -1.52450
  396 137.162 3.78795 -0.935786
  397 131.020 1.82524 -4.12057
  398 131.637 0.286586 -2.36976
  399 131.046 4.98584 -5.48808
  400 131.851 6.23661 -3.03391
  401 160.674 0.489081 3.02112
  402 132.237 1.21103 -4.53863
  403 162.748 0.527294 1.12113
  404 135.972 1.74284 -0.568653
  405 135.418 3.30133 -1.65740
  406 131.635 3.20518 -4.40754
  407 130.232 0.0440455 -1.04251
  408 149.759 2.15105 3.90869
  409 131.794 3.12600 -6.19136
  410 132.811 3.43059 -3.06165
  411 133.994 6.26373 -0.419295
  412 167.668 0.142426 1.57103
  413 140.697 4.53325 2.76181
  414 168.476 0.180021 0.956067
  415 154.376 1.29096 3.72455
  416 131.356 4.08376 -6.05817
  417 130.488 0.601807 -2.87223
  418 132.142 1.57305 -1.37379
  419 144.859 3.39923 2.55352
  420 129.188 0.0930043 -1.19026
  421 139.710 4.57705 1.08814
  422 131.059 1.42557 -4.03809
  423 157.925 1.11503 2.54345
  424 138.590 2.49673 -0.504431
  425 151.042 2.22569 2.88252
  426 156.203 1.08748 1.41937
  427 147.147 2.74121 1.48065
  428 129.890 1.01698 -1.77549
  429 130.885 6.33974 -3.89819
  430 132.714 0.933122 -4.14122
  431 131.848 6.52752 -2.25743
  432 145.783 2.16519 0.409332
  433 163.140 0.492826 2.28422
  434 130.739 5.69525 -5.25954
  435 132.734 4.40981 -3.24638
  436 158.470 0.764936 3.38426
  437 163.223 0.282043 2.59682
  438 129.275 0.664793 -2.48815
  439 132.608 1.67933 -5.27372
  440 132.110 2.57310 -5.89592
  441 126.079 0.0718241 -1.07429
  442 143.162 3.77167 3.49412
  443 147.049 2.79367 3.89632
  444 131.594 3.72687 -6.33579
  445 135.251 5.43958 -0.811599
  446 152.071 1.62681 4.01357
  447 131.000 4.81193 -6.00253
  448 132.510 6.61785 -1.29381
  449 131.197 2.10379 -3.59953
  450 152.818 1.89710 2.21454
  451 155.562 1.12691 0.853653
  452 130.588 6.19814 -4.70292
  453 136.806 5.51700 1.39238
  454 156.646 0.864151 3.69409
  455 163.638 0.338705 0.552807
  456 142.117 3.00717 0.331489
  457 147.264 2.80950 2.41293
  458 133.105 1.41944 -0.954061
  459 171.019 0.0495592 0.899616
  460 142.086 3.89950 1.41911
  461 135.013 6.11593 0.591339
  462 131.158 0.682703 -3.19200
  463 131.387 4.82055 -4.73438
  464 131.722 5.71584 -3.61805
  465 159.950 0.793493 1.54168
  466 131.535 2.61590 -5.07068
  467 131.468 3.28796 -5.20727
  468 130.388 1.20531 -2.60774
  469 163.981 0.403974 1.70116
  470 158.541 0.877720 3.16590
  471 141.956 2.64715 0.0152619
  472 149.242 2.10177 1.15723
  473 156.741 1.16417 3.07421
  474 132.072 0.188016 -2.07031
  475 133.884 4.71931 -2.31321
  476 132.714 5.95126 -2.28613
  477 126.486 0.353019 -0.591429
  478 138.359 5.13227 2.28349
  479 162.281 0.460812 2.58755
  480 132.790 0.624425 -3.55008
  481 131.266 1.02790 -0.385503
  482 129.037 0.497164 -2.34687
  483 132.088 1.56823 -4.90242
  484 154.168 1.51124 3.19057
  485 132.493 0.432639 -2.85009
  486 169.074 0.0670238 1.47506
  487 143.095 3.96304 2.88471
  488 166.151 0.131144 0.662999
  489 165.184 0.195573 2.33794
  490 131.472 0.0159908 -0.740515
  491 127.713 0.0871965 -1.27358
  492 153.000 1.50334 1.27877
  493 159.636 0.652651 0.408326
  494 161.153 0.723628 2.19990
  495 131.761 1.76125 -4.80825
  496 132.192 3.81222 -3.82806
  497 131.949 0.895150 -3.85846
  498 132.510 2.18570 -5.77638
  499 136.474 4.61347 -0.823346
  500 138.566 4.12542 -0.125888
  501 131.300 0.128106 -1.74356
  502 143.565 3.29518 0.997335
  503 131.984 5.16350 -3.80166
  504 171.665 -0.0296042 0.495400
  505 131.701 4.05714 -4.47549
  506 137.228 2.86263 -1.00142
  507 132.489 1.99775 -2.15683
  508 149.600 2.40994 3.41387
  509 137.860 5.14626 0.953589
  510 144.943 3.23859 3.91271
  511 130.086 0.306541 -2.25295
  512 130.937 0.927017 -3.47812
  513 166.856 0.184669 1.89996
  514 127.029 0.140150 -1.22426
  515 153.378 1.31948 0.468620
  516 130.668 0.0221781 -0.641060
  517 131.739 2.65337 -5.62610
  518 127.730 0.0647848 -0.932786
  519 164.889 0.189455 0.236042
  520 124.438 0.441088 -0.635931
  521 133.817 5.46166 -1.84752
  522 130.326 1.01604 -3.28149
  523 150.439 2.18423 1.80591
  524 170.828 -0.00509985 0.443041
  525 172.656 0.0568684 0.447964
  526 130.994 6.72058 -3.14478
  527 132.468 2.61714 -2.76177
  528 167.533 0.109231 1.56161
  529 168.479 0.0425908 0.421073
  530 163.423 0.423809 1.31842
  531 139.696 4.29971 0.610099
  532 166.344 0.278725 1.44210
  533 135.345 4.28854 -1.60822
  534 130.657 5.36780 -5.86339
  535 131.005 1.98560 -3.91679
  536 148.681 1.77952 0.229984
  537 132.843 1.30967 -4.84083
  538 155.537 1.53526 2.38869
  539 147.321 2.76586 3.39713
  540 126.279 0.0805491 -0.876664
  541 131.402 1.91233 2.79541
  542 139.471 3.21706 0.255450
  543 153.113 1.64528 -1.60928
  544 130.238 0.681886 3.02907
  545 133.947 3.85427 2.41167
  546 160.614 0.734377 -1.93633
  547 131.351 2.48880 4.39642
  548 144.840 3.23494 -1.71529
  549 137.646 4.89853 -0.163999
  550 131.944 4.48606 4.08335
  551 130.758 0.241654 2.13180
  552 154.548 1.63766 -2.78173
  553 131.658 1.21179 4.18018
  554 131.664 2.07285 5.05277
  555 132.581 5.36340 2.91922
  556 165.817 0.296987 -1.61882
  557 147.919 2.74564 -2.96436
  558 134.928 2.32321 1.37558
  559 159.942 0.740026 -2.66139
  560 131.385 4.22587 5.24715
  561 141.458 4.27287 -2.06431
  562 128.789 0.517544 2.02142
  563 159.719 0.682123 -0.918970
  564 144.932 2.71414 -0.627706
  565 151.781 1.79678 -3.61237
  566 133.449 6.09460 1.44136
  567 136.160 5.68404 -0.350299
  568 130.189 0.831532 1.05059
  569 156.563 1.09605 -3.45270
  570 131.582 3.29533 5.76715
  571 131.281 5.70175 4.33134
  572 131.362 0.0713186 1.31550
  573 169.467 0.0830256 -1.11341
  574 129.103 0.244689 1.99341
  575 130.359 1.30334 3.23799
  576 131.954 0.555518 3.19632
  577 140.895 2.09047 0.101151
  578 131.952 2.91798 3.47217
  579 149.524 2.34489 -2.10726
  580 165.185 0.266488 -2.11393
  581 166.335 0.177114 -1.20311
  582 132.108 1.96499 5.33386
  583 150.953 1.67547 -0.753537
  584 133.680 2.97625 2.30365
  585 145.044 3.31450 -3.42299
  586 139.097 4.89473 -1.81134
  587 127.864 0.289889 1.70982
  588 140.922 3.71078 -0.488147
  589 126.865 0.282830 0.720027
  590 156.632 1.27496 -2.07829
  591 135.004 4.93509 1.52588
  592 137.159 3.79036 0.936710
  593 131.023 1.82613 4.12348
  594 131.644 0.286696 2.37131
  595 131.045 4.98794 5.49175
  596 131.848 6.23939 3.03629
  597 160.676 0.488528 -3.02317
  598 132.243 1.21152 4.54151
  599 162.750 0.527677 -1.12215
  600 135.972 1.74438 0.569179
  601 135.416 3.30351 1.65884
  602 131.636 3.20677 4.41066
  603 130.240 0.0440550 1.04319
  604 149.757 2.15132 -3.91166
  605 131.797 3.12728 6.19521
  606 132.810 3.43255 3.06407
  607 133.988 6.26654 0.420005
  608 167.672 0.142270 -1.57213
  609 140.691 4.53516 -2.76362
  610 168.480 0.180045 -0.956884
  611 154.376 1.29064 -3.72733
  612 131.357 4.08544 6.06203
  613 130.493 0.602130 2.87420
  614 132.143 1.57421 1.37520
  615 144.856 3.40092 -2.55535
  616 129.195 0.0930578 1.19107
  617 139.705 4.57950 -1.08871
  618 131.063 1.42622 4.04085
  619 157.926 1.11548 -2.54546
  620 138.589 2.49874 0.505042
  621 151.041 2.22670 -2.88473
  622 156.203 1.08844 -1.42059
  623 147.145 2.74311 -1.48177
  624 129.891 1.01770 1.77707
  625 130.882 6.34238 3.90102
  626 132.720 0.933529 4.14378
  627 131.843 6.53036 2.25933
  628 145.782 2.16712 -0.409584
  629 163.142 0.492795 -2.28594
  630 130.738 5.69761 5.26308
  631 132.732 4.41210 3.24887
  632 158.471 0.764328 -3.38661
  633 163.225 0.281493 -2.59852
  634 129.279 0.665197 2.49003
  635 132.613 1.68002 5.27696
  636 132.113 2.57412 5.89959
  637 126.082 0.0718977 1.07512
  638 143.158 3.77301 -3.49658
  639 147.046 2.79431 -3.89925
  640 131.595 3.72834 6.33974
  641 135.246 5.44237 0.812505
  642 152.070 1.62658 -4.01659
  643 131.000 4.81389 6.00641
  644 132.505 6.62071 1.29512
  645 131.199 2.10497 3.60223
  646 152.817 1.89821 -2.21634
  647 155.562 1.12801 -0.854413
  648 130.586 6.20069 4.70618
  649 136.800 5.51947 -1.39299
  650 156.647 0.863472 -3.69672
  651 163.639 0.339019 -0.553399
  652 142.115 3.00943 -0.331638
  653 147.261 2.81106 -2.41469
  654 133.105 1.42062 0.955042
  655 171.024 0.0494945 -0.900213
  656 142.083 3.90175 -1.41997
  657 135.007 6.11863 -0.591334
  658 131.164 0.683007 3.19413
  659 131.386 4.82275 4.73768
  660 131.719 5.71842 3.62073
  661 159.951 0.794077 -1.54304
  662 131.537 2.61709 5.07408
  663 131.469 3.28947 5.21077
  664 130.389 1.20611 2.60984
  665 163.983 0.404099 -1.70260
  666 158.542 0.877510 -3.16819
  667 141.954 2.64929 -0.0151806
  668 149.240 2.10349 -1.15813
  669 156.741 1.16435 -3.07652
  670 132.080 0.188089 2.07163
  671 133.881 4.72182 2.31510
  672 132.710 5.95404 2.28804
  673 126.487 0.353306 0.591830
  674 138.353 5.13445 -2.28482
  675 162.283 0.460542 -2.58938
  676 132.797 0.624677 3.55228
  677 131.267 1.02875 0.386037
  678 129.041 0.497434 2.34860
  679 132.093 1.56890 4.90555
  680 154.168 1.51157 -3.19303
  681 132.500 0.432824 2.85187
  682 169.078 0.0668283 -1.47598
  683 143.091 3.96477 -2.88671
  684 166.153 0.131274 -0.663682
  685 165.187 0.195074 -2.33937
  686 131.481 0.0160203 0.740997
  687 127.718 0.0873036 1.27452
  688 152.999 1.50468 -1.27977
  689 159.637 0.653341 -0.408751
  690 161.155 0.723838 -2.20170
  691 131.765 1.76201 4.81138
  692 132.192 3.81417 3.83093
  693 131.955 0.895542 3.86094
  694 132.514 2.18656 5.77991
  695 136.471 4.61611 0.824216
  696 138.563 4.12796 0.126222
  697 131.308 0.128199 1.74468
  698 143.562 3.29738 -0.998003
  699 131.982 5.16593 3.80449
  700 171.670 -0.0296486 -0.495800
  701 131.700 4.05908 4.47869
  702 137.226 2.86477 1.00235
  703 132.489 1.99913 2.15864
  704 149.597 2.41075 -3.41645
  705 137.856 5.14880 -0.953948
  706 144.939 3.23948 -3.91556
  707 130.093 0.306680 2.25452
  708 130.942 0.927435 3.48052
  709 166.859 0.184367 -1.90113
  710 127.032 0.140362 1.22527
  711 153.378 1.32077 -0.468961
  712 130.677 0.0221726 0.641465
  713 131.742 2.65450 5.62971
  714 127.736 0.0648424 0.933445
  715 164.890 0.189657 -0.236279
  716 124.440 0.441186 0.636329
  717 133.813 5.46439 1.84915
  718 130.330 1.01659 3.28377
  719 150.438 2.18580 -1.80729
  720 170.833 -0.00512154 -0.443463
  721 172.661 0.0568641 -0.448276
  722 130.989 6.72337 3.14720
  723 132.467 2.61877 2.76399
  724 167.537 0.109113 -1.56277
  725 168.482 0.0426365 -0.421611
  726 163.425 0.424093 -1.31966
  727 139.692 4.30224 -0.610328
  728 166.347 0.278792 -1.44330
  729 135.342 4.29103 1.60967
  730 130.656 5.36995 5.86719
  731 131.007 1.98664 3.91959
  732 148.680 1.78122 -0.230202
  733 132.849 1.31018 4.84380
  734 155.537 1.53608 -2.39065
  735 147.318 2.76683 -3.39968
  736 126.283 0.0805809 0.877326
  737 102.505 16.4049 7.09655
  738 102.522 16.4018 -7.09090
  739 157.708 -13.0867 14.7265
  740 157.748 -13.1551 -14.7144
  741 132.776 7.28172 14.3477
  742 132.772 7.28075 -14.3415
  743 117.939 1.48359 -34.1328
  744 117.963 1.46621 34.1417
  745 183.577 0.720231 14.7572
  746 183.612 2.61708 -14.9038
  747 141.272 7.23158 -22.9934
  748 141.283 7.22894 22.9995
  749 179.077 -21.6623 22.9795
  750 179.003 -21.6477 -22.9619
  751 128.704 5.93109 -10.3392
  752 128.717 5.93288 10.3346
  753 165.345 -4.07002 2.11362
  754 165.352 -4.07704 -2.11121
  755 110.595 -8.23041 34.2099
  756 110.551 -8.21554 -34.2034
  757 122.082 11.6234 5.88887
  758 122.089 11.6208 -5.88513
  759 137.918 2.15082 -8.13560
  760 137.927 2.15135 8.13956
  761 167.313 13.7594 -0.430020
  762 171.993 -6.71814 7.07696
  763 171.983 -6.71264 -7.06747
  764 164.489 2.62795 -27.2928
  765 164.511 2.62060 27.2918
  766 147.570 3.28319 14.2619
  767 147.557 3.28337 -14.2572
  768 185.173 -25.6211 -13.8797
  769 184.449 -26.1760 14.7302
  770 236.064 -16.5759 10.0892
  771 236.062 -16.4676 -10.1106
  772 187.791 -3.58954 -24.5115
  773 187.820 -3.60014 24.5013
  774 149.479 -1.53144 8.78310
  775 149.477 -1.53741 -8.79048
  776 203.996 37.5212 4.91613
  777 65.1560 8.11796 -1.16147
  778 65.2089 8.11062 1.17981
  779 265.245 8.49359 -20.0236
  780 262.949 8.19184 20.6803
  781 268.587 22.0055 2.69782
  782 165.760 2.62141 -18.8902
  783 165.779 2.61935 18.8922
  784 128.696 7.89445 -9.41133
  785 128.695 7.89658 9.41645
  786 213.965 11.6823 -9.16602
  787 144.020 1.45051 8.47326
  788 144.007 1.45034 -8.46974
  789 162.619 3.91357 -10.3362
  790 162.797 4.03052 10.5216
  791 121.873 12.5909 17.0867
  792 121.874 12.5904 -17.0789
  793 110.916 12.8307 24.2241
  794 110.915 12.8362 -24.2114
  795 178.473 -15.8023 -0.553373
  796 178.469 -15.8316 0.552509
  797 225.212 -12.6899 -1.36054
  798 225.229 -12.6574 1.32611
  799 108.179 9.76202 -13.0440
  800 108.198 9.76367 13.0349
  801 85.8487 -22.8994 -33.5959
  802 85.9157 -22.9207 33.5987
  803 217.998 7.45105 5.06407
  804 127.350 9.10836 -1.94230
  805 127.359 9.10617 1.94213
  806 168.279 -0.942060 -1.52683
  807 168.275 -0.939950 1.52786
  808 170.124 -2.76277 2.65585
  809 170.120 -2.75868 -2.64849
  810 166.466 -1.67576 10.7921
  811 166.477 -1.69147 -10.7870
  812 167.891 -9.64178 2.24014
  813 167.907 -9.65435 -2.23467
  814 162.632 1.64227 12.6011
  815 162.613 1.64279 -12.5984
  816 223.357 -5.20138 -11.3629
  817 223.375 -5.20609 11.3401
  818 134.977 -3.50937 -19.7338
  819 134.998 -3.49801 19.7228
  820 136.885 0.676205 -4.36011
  821 136.895 0.676419 4.36246
  822 158.266 -1.73455 4.97443
  823 158.269 -1.73965 -4.97725
  824 133.017 4.44109 9.11335
  825 133.013 4.43982 -9.10852
  826 131.380 -30.6045 -44.5921
  827 127.962 -30.1200 45.0210
  828 184.281 23.6676 -8.99044
  829 138.544 3.77659 7.35049
  830 138.536 3.77612 -7.35529
  831 196.348 -0.0389432 -18.1004
  832 196.370 -0.0425942 18.0949
  833 152.400 -18.7024 -25.9218
  834 152.136 -18.6803 25.8886
  835 113.394 13.3699 -0.486816
  836 113.408 13.3680 0.487238
  837 232.524 -3.06218 -25.1414
  838 232.593 -2.57565 25.0352
  839 59.5841 -20.0080 34.8945
  840 59.5816 -19.9439 -35.1013
  841 224.624 11.7958 -13.1512
  842 174.387 -30.0658 -21.3839
  843 174.449 -29.7697 22.0619
  844 124.072 11.0982 11.7482
  845 124.075 11.0962 -11.7423
  846 135.434 7.99684 18.6160
  847 135.427 7.99712 -18.6093
  848 179.800 19.0282 9.86547
  849 140.602 0.640695 -5.02824
  850 140.614 0.640854 5.03068
  851 184.378 0.950641 15.9656
  852 184.356 0.952579 -15.9665
  853 149.283 -10.4181 -33.9669
  854 149.315 -10.4266 33.9662
  855 319.941 25.1946 -3.53692
  856 35.3420 -21.3217 -5.98600
  857 35.3149 -21.3564 6.07394
  858 152.896 0.912805 7.67323
  859 152.879 0.912770 -7.67062
  860 127.094 8.94240 5.86670
  861 127.099 8.93967 -5.86293
  862 153.057 4.71494 -2.85197
  863 136.093 7.72622 28.6424
  864 136.079 7.73375 -28.6359
  865 237.810 -7.01244 -15.6040
  866 237.877 -7.07898 15.6566
  867 159.487 -5.65767 6.40977
  868 159.495 -5.66878 -6.41326
  869 178.692 -7.53675 -10.8183
  870 178.695 -7.55448 10.8406
  871 168.818 -2.14475 5.86016
  872 168.819 -2.14211 -5.84974
  873 213.153 8.18817 16.3107
  874 86.0409 10.2815 21.2696
  875 86.0474 10.2907 -21.2459
  876 89.5566 13.2038 -7.40166
  877 89.5896 13.1968 7.39806
  878 201.760 -16.5958 21.1498
  879 138.068 3.97005 11.5590
  880 138.060 3.96937 -11.5539
  881 242.030 45.4947 -1.82721
  882 140.968 -0.602536 12.7114
  883 140.958 -0.608234 -12.7204
  884 264.226 -1.38059 -1.07459
  885 264.191 -1.09909 0.723535
  886 190.897 -12.4449 -6.79950
  887 190.395 -11.8345 7.34259
  888 324.539 23.3232 1.33848
  889 154.392 -0.444968 31.9481
  890 154.365 -0.432644 -31.9495
  891 192.494 -19.1440 -27.5036
  892 171.141 -1.24821 0.254216
  893 171.137 -1.24611 -0.250631
  894 221.651 -2.12523 -13.6918
  895 221.667 -2.13013 13.6776
  896 135.033 1.76804 -6.55239
  897 135.041 1.76861 6.55596
  898 114.887 14.4586 -9.13337
  899 114.878 14.4610 9.13858
  900 151.832 3.85850 3.89939
  901 253.210 42.2349 -1.66428
  902 148.774 4.80055 18.4094
  903 148.761 4.80154 -18.4045
  904 171.674 0.315708 -13.6859
  905 171.895 0.236171 13.6946
  906 150.718 0.344586 6.24494
  907 150.716 0.341646 -6.24977
  908 162.666 -0.833900 -3.21616
  909 162.663 -0.831129 3.21505
  910 195.864 15.6743 14.3932
  911 123.001 12.3709 21.8204
  912 122.998 12.3730 -21.8113
  913 127.674 8.95386 2.02171
  914 127.681 8.95102 -2.01983
  915 92.2279 15.8332 10.5046
  916 92.2476 15.8313 -10.4925
  917 173.926 9.45904 -12.5590
  918 153.275 -6.43019 -11.2308
  919 153.273 -6.41738 11.2203
  920 212.310 2.83355 -21.7430
  921 192.035 -11.1961 -22.0662
  922 192.080 -11.2106 22.0541
  923 79.0744 -5.54856 -29.9091
  924 79.1004 -5.57717 29.9336
  925 214.727 2.64661 22.7328
  926 173.472 -21.2077 11.7308
  927 174.694 -21.9055 -11.8266
  928 174.055 0.862301 -10.9507
  929 174.078 0.861741 10.9520
  930 158.124 0.461081 -8.78756
  931 158.055 0.584737 8.79251
  932 129.655 -32.3860 -32.5034
  933 129.802 -32.3930 32.1807
  934 133.697 5.43471 11.4912
  935 133.693 5.43355 -11.4858
  936 169.920 -6.45746 -2.45699
  937 169.928 -6.46421 2.46498
  938 209.690 -24.2017 -6.54906
  939 209.848 -24.1962 6.46387
  940 133.890 6.33848 4.28867
  941 133.882 6.34007 -4.29085
  942 198.923 8.13658 3.40183
  943 139.068 5.17841 14.6363
  944 139.060 5.17805 -14.6307
  945 153.583 5.03920 25.6945
  946 153.566 5.04415 -25.6912
  947 121.872 10.3111 -3.72826
  948 121.884 10.3099 3.72730
  949 359.924 28.7383 -0.942368
  950 80.2492 3.51238 -22.9034
  951 80.2963 3.50768 22.8823
  952 159.391 0.811641 8.33616
  953 159.371 0.811752 -8.33384
  954 209.404 -13.5174 -20.9667
  955 210.706 -13.1260 18.7655
  956 130.875 5.77888 8.31502
  957 130.875 5.77704 -8.31030
  958 135.142 0.242447 -2.37755
  959 135.152 0.242545 2.37892
  960 215.570 -0.545582 -13.3929
  961 215.588 -0.548770 13.3843
  962 319.716 14.4479 9.09841
  963 144.607 0.413055 4.16301
  964 144.593 0.412963 -4.16116
  965 149.259 0.444342 -5.09823
  966 149.276 0.444376 5.10024
  967 241.295 -3.54697 -3.55866
  968 241.287 -3.54328 3.53908
  969 193.941 11.9375 -14.4945
  970 120.060 -0.683882 -24.1007
  971 120.069 -0.665875 24.0804
  972 312.506 15.2879 -10.3115
  973 166.833 10.9723 7.38839
  974 170.677 -0.211248 -1.35061
  975 170.673 -0.210582 1.35060
  976 129.318 8.08413 11.5828
  977 129.318 8.08238 -11.5771
  978 245.765 -3.96743 4.65693
  979 245.735 -3.94702 -4.65497
  980 169.469 -14.4763 5.76080
  981 169.538 -14.5314 -5.75829
  982 173.692 -11.0363 -2.83344
  983 173.701 -11.0426 2.84587
  984 183.384 26.8343 1.04688
  985 114.999 9.39366 29.2635
  986 114.989 9.40457 -29.2510
  987 129.170 9.70492 16.1292
  988 129.168 9.70409 -16.1223
  989 150.180 1.71819 -5.51536
  990 204.188 -10.9534 -1.62970
  991 250.203 25.7629 16.9066
  992 206.887 32.1424 -9.88414
  993 128.898 7.40360 7.09281
  994 128.900 7.40118 -7.08849
  995 165.335 -1.12187 -6.58551
  996 165.328 -1.12028 6.59470
  997 123.541 4.68250 -14.9611
  998 123.556 4.68831 14.9545
  999 125.147 10.2100 8.68798
  1000 125.151 10.2076 -8.68313
  1001 165.019 10.2601 -6.61559
  1002 110.733 15.2492 15.4968
  1003 110.741 15.2484 -15.4880
  1004 143.367 2.96069 6.00303
  1005 143.361 2.96030 -6.00739
  1006 146.438 2.26353 -10.9187
  1007 146.451 2.26366 10.9227
  1008 130.403 7.07384 -6.09784
  1009 130.414 7.07306 6.09507
  1010 142.419 4.48669 31.0669
  1011 142.398 4.49746 -31.0634
  1012 198.541 0.517470 11.8839
  1013 198.518 0.518714 -11.8861
  1014 174.084 7.17216 13.5980
  1015 104.857 14.5242 -2.82431
  1016 104.876 14.5216 2.82295
  1017 232.849 -3.32362 -17.8747
  1018 233.016 -3.26206 17.8233
  1019 178.417 -0.897066 26.6433
  1020 178.392 -0.887786 -26.6496
  1021 133.672 -19.8147 36.3587
  1022 133.505 -19.8338 -36.6458
  1023 208.157 -14.3991 13.0758
  1024 208.105 -14.3952 -13.1036
  1025 161.766 -9.93888 8.13597
  1026 161.782 -9.95448 -8.14056
  1027 164.796 -2.08026 -2.57112
  1028 164.791 -2.07587 2.57174
  1029 133.447 3.17732 7.73656
  1030 133.443 3.17628 -7.73227
  1031 201.111 -13.6107 1.70699
  1032 116.912 9.97342 -8.53571
  1033 116.927 9.97458 8.53187
  1034 114.467 -10.4487 36.3896
  1035 114.430 -10.4308 -36.3902
  1036 138.587 0.237337 -2.91133
  1037 138.599 0.237384 2.91283
  1038 150.759 1.33082 6.16295
  1039 99.4935 6.52688 -19.4852
  1040 99.5201 6.52509 19.4676
  1041 168.469 -3.10263 -0.100208
  1042 168.474 -3.10758 0.104882
  1043 170.945 -0.933150 2.88441
  1044 170.947 -0.931320 -2.87757
  1045 123.633 10.8309 1.35875
  1046 123.642 10.8283 -1.35711
  1047 155.841 -21.7831 41.4681
  1048 171.715 -4.67084 -10.6532
  1049 171.729 -4.66833 10.6694
  1050 74.8677 -35.8501 41.3970
  1051 74.3973 -34.4916 -42.0376
  1052 230.108 11.7287 -23.5581
  1053 147.675 -11.1179 -20.5653
  1054 147.591 -11.1225 20.6154
  1055 172.494 -0.298703 -0.546616
  1056 172.490 -0.297985 0.547833
  1057 130.279 8.00008 -0.753458
  1058 130.287 7.99750 0.753744
  1059 134.854 0.676655 4.12848
  1060 134.846 0.676414 -4.12612
  1061 154.016 4.54932 20.5946
  1062 154.000 4.55131 -20.5905
  1063 147.918 -7.38017 16.2042
  1064 147.905 -7.39759 -16.2173
  1065 134.979 3.17731 8.61829
  1066 134.973 3.17642 -8.61385
  1067 237.751 -8.02566 21.4338
  1068 237.692 -8.09260 -21.4090
  1069 155.555 -2.95987 6.89691
  1070 155.558 -2.96738 -6.90195
  1071 140.565 1.88099 8.34921
  1072 140.555 1.88060 -8.34543
  1073 144.258 -20.1766 -34.0170
  1074 144.267 -20.1668 34.0194
  1075 154.733 2.07304 12.7595
  1076 154.716 2.07335 -12.7560
  1077 166.122 -0.438066 -2.36569
  1078 166.118 -0.436536 2.36509
  1079 254.471 -2.67440 -20.4976
  1080 254.687 -2.55251 20.4950
  1081 34.9323 -52.0739 -13.5788
  1082 34.9758 -52.0914 13.5220
  1083 238.489 -1.71937 -7.56392
  1084 238.491 -1.72166 7.54841
  1085 100.319 -18.6302 42.5208
  1086 101.015 -18.5734 -42.2144
  1087 185.077 0.447431 9.77018
  1088 185.052 0.447996 -9.76997
  1089 172.476 -0.841223 1.27769
  1090 172.474 -0.839792 -1.27323
  1091 23.1611 -47.4532 -15.5761
  1092 23.5748 -47.0426 16.1270
  1093 170.036 0.508706 -7.91154
  1094 170.059 0.508478 7.91302
  1095 135.064 3.62087 10.1069
  1096 135.053 3.61895 -10.1128
  1097 43.3133 -8.03354 -10.7597
  1098 43.4304 -8.06062 10.7768
  1099 67.4775 -43.3670 24.4620
  1100 67.4242 -43.4381 -24.4551
  1101 166.984 -6.75462 1.33260
  1102 166.994 -6.76393 -1.32787
  1103 119.033 12.2282 1.36822
  1104 119.044 12.2259 -1.36663
  1105 169.635 2.53655 -21.2048
  1106 169.655 2.53327 21.2055
  1107 228.536 -14.7787 5.90939
  1108 228.523 -14.7025 -5.94091
  1109 131.773 -10.8348 -29.5031
  1110 131.718 -10.7653 29.4481
  1111 175.600 -29.0283 30.6293
  1112 180.866 1.33781 -21.0453
  1113 180.888 1.33382 21.0430
  1114 170.351 -4.49607 -5.29977
  1115 170.357 -4.50124 5.30937
  1116 160.312 -3.42473 4.82012
  1117 160.318 -3.43219 -4.82195
  1118 155.127 0.124634 4.85392
  1119 155.127 0.122131 -4.85731
  1120 211.630 29.9275 10.3978
  1121 105.334 -36.4471 -25.2746
  1122 105.453 -35.6603 24.7783
  1123 131.976 -24.2377 -43.3205
  1124 267.044 19.0692 12.5386
  1125 174.260 16.8613 -7.51731
  1126 163.664 -29.7298 -31.2725
  1127 65.8083 4.38606 15.3532
  1128 65.8299 4.39710 -15.3169
  1129 132.631 9.70017 21.7610
  1130 132.625 9.70172 -21.7535
  1131 156.917 6.85818 1.75846
  1132 160.158 -0.310262 -7.23653
  1133 160.151 -0.279159 7.24187
  1134 197.551 -2.41481 11.5796
  1135 211.618 0.271085 -9.90419
  1136 211.640 0.269969 9.90064
  1137 269.793 22.4185 -7.89822
  1138 165.366 -26.3368 26.5641
  1139 131.353 6.32632 -10.4656
  1140 131.355 6.32789 10.4710
  1141 183.630 -7.37812 -11.2508
  1142 184.383 -6.94450 11.5761
  1143 136.530 3.64076 10.2894
  1144 136.523 3.63998 -10.2845
  1145 175.274 4.64545 -5.74669
  1146 142.863 0.925658 -9.27234
  1147 142.870 0.928935 9.26534
  1148 263.880 15.4172 -17.0761
  1149 137.653 5.08120 -4.84618
  1150 137.661 5.08003 4.84321
  1151 212.062 0.109754 20.0365
  1152 208.719 -5.12105 -17.6826
  1153 208.745 -5.13004 17.6654
  1154 189.789 3.69180 -15.4041
  1155 211.406 0.277070 -19.8597
  1156 138.738 1.06389 -6.00313
  1157 138.749 1.06418 6.00611
  1158 168.331 -2.70405 -8.90622
  1159 168.333 -2.70009 8.91867
  1160 143.705 1.98193 0.266930
  1161 142.713 5.70556 17.8557
  1162 142.703 5.70602 -17.8500
  1163 198.050 -1.92261 -11.5113
  1164 119.729 12.6729 8.55281
  1165 119.736 12.6704 -8.54803
  1166 161.221 -17.5959 17.7911
  1167 162.538 -18.3590 -17.5272
  1168 131.472 9.75196 25.3794
  1169 131.464 9.75632 -25.3716
  1170 132.044 4.30504 7.90443
  1171 132.042 4.30360 -7.89993
  1172 167.862 -1.96958 1.12837
  1173 167.866 -1.97326 -1.12590
  1174 110.069 15.3217 5.55814
  1175 110.082 15.3190 -5.55441
  1176 131.770 1.62965 14.5829
  1177 131.755 1.62401 -14.5905
  1178 157.762 0.384230 4.92412
  1179 157.742 0.384239 -4.92255
  1180 185.523 -20.9917 4.36794
  1181 186.597 -20.7883 -3.76198
  1182 142.306 2.95157 11.2690
  1183 142.295 2.95120 -11.2645
  1184 136.682 0.157155 2.29572
  1185 136.670 0.157118 -2.29446
  1186 246.384 -2.99159 -8.75975
  1187 246.417 -3.01535 8.78856
  1188 142.211 0.194514 -2.57638
  1189 142.225 0.194540 2.57762
  1190 167.110 -4.90947 30.0430
  1191 167.079 -4.89703 -30.0479
  1192 293.026 46.1642 -1.59670
  1193 119.935 13.1176 12.4194
  1194 119.940 13.1156 -12.4131
  1195 164.314 2.08673 15.7101
  1196 164.295 2.08785 -15.7076
  1197 164.189 1.31639 -11.6354
  1198 164.415 1.27860 11.7661
  1199 404.267 22.4646 12.5071
  1200 192.534 25.8152 10.6777
  1201 81.5134 14.0432 0.758035
  1202 81.5492 14.0361 -0.749493
  1203 128.132 8.38043 4.03877
  1204 128.137 8.37759 -4.03587
  1205 394.254 24.4230 -12.5113
  1206 159.042 -0.240529 -3.97454
  1207 159.040 -0.238175 3.97222
  1208 185.466 -28.0581 -18.3724
  1209 185.700 -28.0716 18.4297
  1210 128.567 9.15684 -13.4602
  1211 128.567 9.15836 13.4664
  1212 185.683 2.65251 14.3087
  1213 176.428 3.67237 9.04281
  1214 169.772 -25.0959 -21.7007
  1215 115.582 13.9344 -4.72486
  1216 115.571 13.9370 4.72802
  1217 177.709 -11.3757 6.19181
  1218 177.708 -11.3726 -6.17296
  1219 133.767 7.76354 16.4744
  1220 133.762 7.76311 -16.4679
  1221 196.178 -1.03960 21.0897
  1222 196.155 -1.03289 -21.0986
  1223 205.155 -19.9019 -11.1705
  1224 205.239 -19.8995 11.1361
  1225 183.073 12.7347 -14.0530
  1226 140.557 7.06337 20.4271
  1227 140.547 7.06467 -20.4210
  1228 194.033 33.4711 -3.07050
  1229 184.198 11.9977 14.4758
  1230 166.441 0.449971 -6.34525
  1231 166.463 0.449838 6.34674
  1232 218.704 -23.3228 -3.66514
  1233 218.978 -23.0918 3.35649
  1234 153.166 0.195198 -4.31046
  1235 153.185 0.195164 4.31203
  1236 147.192 0.603462 -7.58225
  1237 147.196 0.606569 7.57625
  1238 56.8726 -20.4976 25.8957
  1239 56.8352 -20.4544 -25.8673
  1240 103.576 15.6199 17.2216
  1241 103.585 15.6206 -17.2097
  1242 237.348 1.52947 -26.1577
  1243 195.232 0.479949 8.57201
  1244 195.207 0.480506 -8.57271
  1245 174.034 18.8779 4.92513
  1246 230.053 46.2382 2.17198
  1247 137.970 -3.58097 -34.9989
  1248 138.000 -3.59545 34.9998
  1249 178.182 -2.29048 -13.8704
  1250 178.177 -2.52161 13.7764
  1251 148.444 -11.6610 -30.1985
  1252 152.682 -14.7645 30.2216
  1253 128.708 7.65939 5.66403
  1254 128.711 7.65674 -5.66036
  1255 124.438 10.3942 4.49913
  1256 124.445 10.3915 -4.49600
  1257 127.412 8.60055 7.86067
  1258 127.415 8.59810 -7.85609
  1259 232.113 -0.728037 -8.58179
  1260 232.125 -0.729781 8.57328
  1261 154.263 -4.47165 8.80766
  1262 154.266 -4.48172 -8.81515
  1263 309.644 15.9036 33.6564
  1264 237.621 1.32319 25.9073
  1265 159.936 6.42972 6.83481
  1266 281.785 7.37302 -7.40121
  1267 142.954 1.12976 -2.17390
  1268 103.374 7.37623 29.2632
  1269 103.362 7.39070 -29.2467
  1270 253.450 11.8031 39.8860
  1271 225.686 13.0763 -3.77326
  1272 93.6103 16.0091 1.97245
  1273 93.6352 16.0039 -1.96840
  1274 148.899 5.36213 -28.9430
  1275 148.918 5.35426 28.9462
  1276 223.218 14.6853 38.5445
  1277 102.033 11.5747 25.2800
  1278 102.031 11.5836 -25.2632
  1279 156.698 3.18348 17.3973
  1280 156.682 3.18467 -17.3937
  1281 316.237 27.1404 3.21483
  1282 232.894 13.7600 8.70429
  1283 286.369 41.4865 13.8686
  1284 241.988 5.17882 -32.5629
  1285 183.477 -13.3958 -6.15274
  1286 183.475 -13.3331 6.19137
  1287 248.588 -9.50866 12.9717
  1288 248.509 -9.69432 -12.8653
  1289 164.018 -7.90029 -4.47652
  1290 164.006 -7.88794 4.47758
  1291 136.808 1.31866 6.17335
  1292 136.800 1.31825 -6.17013
  1293 147.760 -2.91155 11.1833
  1294 147.756 -2.91949 -11.1932
  1295 166.647 -16.2617 -29.3385
  1296 166.688 -16.2704 29.3449
  1297 114.993 14.5084 13.7710
  1298 115.000 14.5070 -13.7637
  1299 211.757 -9.49617 -5.13564
  1300 158.045 5.29366 -6.99218
  1301 296.816 16.7563 -39.4472
  1302 272.620 34.1415 -24.9197
  1303 175.731 4.39382 -14.4494
  1304 366.937 21.8068 -26.3766
  1305 167.065 -0.709378 -4.24134
  1306 167.053 -0.710466 4.24978
  1307 168.820 -4.74343 -1.08563
  1308 168.827 -4.74970 1.09203
  1309 220.150 -1.37928 -16.2712
  1310 136.153 1.93127 33.3912
  1311 136.129 1.94520 -33.3874
  1312 161.742 -1.84568 -3.71774
  1313 161.738 -1.84096 3.71671
  1314 253.698 -1.81477 0.752547
  1315 253.666 -1.80891 -0.760402
  1316 162.990 -5.36600 3.93787
  1317 162.999 -5.37562 -3.93741
  1318 134.358 1.34791 -5.51010
  1319 134.365 1.34839 5.51323
  1320 237.571 7.98796 22.9541
  1321 224.257 -8.56967 -7.21621
  1322 224.278 -8.56531 7.18749
  1323 143.258 7.00931 25.5048
  1324 143.245 7.01366 -25.4994
  1325 167.018 -31.2963 -35.6456
  1326 82.0537 -7.62056 33.9537
  1327 82.0224 -7.61259 -33.9932
  1328 228.443 7.65404 -21.2464
  1329 174.712 -7.95677 -8.95899
  1330 174.721 -7.96213 8.96594
  1331 128.354 10.5429 18.5186
  1332 128.351 10.5429 -18.5112
  1333 173.771 -17.6881 -6.42312
  1334 173.729 -17.6927 6.30360
  1335 176.585 1.56623 16.2623
  1336 176.563 1.56788 -16.2618
  1337 14.2680 -67.1647 3.28285
  1338 14.4776 -67.6732 -3.21078
  1339 382.542 23.4017 28.2857
  1340 222.488 4.89016 1.73014
  1341 149.332 0.425756 -5.26432
  1342 229.398 27.9006 -6.14369
  1343 133.891 2.19559 -6.58014
  1344 133.897 2.19635 6.58387
  1345 196.170 -22.5325 11.9005
  1346 173.784 -3.56021 -12.6038
  1347 173.790 -3.54538 12.6093
  1348 248.706 -1.57842 -4.37030
  1349 248.694 -1.57893 4.35541
  1350 142.682 1.02830 6.55654
  1351 142.669 1.02812 -6.55358
  1352 122.478 10.9365 26.7710
  1353 122.470 10.9430 -26.7611
  1354 283.507 16.9560 12.6411
  1355 191.758 6.57579 -44.8168
  1356 173.941 -0.415210 0.0843681
  1357 173.937 -0.414506 -0.0825384
  1358 75.9235 12.0956 9.98855
  1359 75.9519 12.0959 -9.96655
  1360 170.613 -9.06564 -1.56662
  1361 170.624 -9.07337 1.57567
  1362 222.137 -1.35203 17.1530
  1363 135.134 5.52236 12.5242
  1364 135.129 5.52138 -12.5186
  1365 143.430 0.985455 2.85007
  1366 162.128 1.53565 29.2571
  1367 162.105 1.54519 -29.2588
  1368 99.1327 11.2743 -10.8827
  1369 99.1578 11.2722 10.8743
  1370 240.300 -2.24745 12.1179
  1371 240.380 -2.23979 -12.0684
  1372 147.379 0.218050 3.15519
  1373 147.362 0.218012 -3.15385
  1374 151.267 1.94820 11.6225
  1375 151.251 1.94831 -11.6187
  1376 63.9604 1.45969 -18.5890
  1377 64.0444 1.44561 18.5788
  1378 143.388 3.76783 13.4159
  1379 143.377 3.76763 -13.4110
  1380 173.631 -0.112831 -0.629746
  1381 173.626 -0.112518 0.630078
  1382 151.968 -1.08272 7.13804
  1383 151.967 -1.08778 -7.14365
  1384 39.3665 -54.5653 -26.1051
  1385 36.0594 -52.8634 25.9516
  1386 193.866 -24.3346 -15.0658
  1387 126.130 9.82228 -10.8587
  1388 126.128 9.82437 10.8643
  1389 147.908 1.87634 5.56026
  1390 147.905 1.87534 -5.56451
  1391 170.629 -1.83776 1.13311
  1392 170.626 -1.83485 -1.12786
  1393 180.511 0.924975 -23.7512
  1394 180.534 0.918934 23.7471
  1395 277.051 5.78238 10.7413
  1396 168.953 3.88384 -12.9059
  1397 134.267 4.45344 -10.0368
  1398 134.272 4.45458 10.0418
  1399 138.667 -2.54330 -16.2782
  1400 138.680 -2.53363 16.2675
  1401 138.456 3.04077 9.87503
  1402 138.447 3.04013 -9.87052
  1403 239.856 -0.796135 -7.29250
  1404 239.861 -0.797637 7.28195
  1405 130.129 6.10379 7.40036
  1406 130.130 6.10170 -7.39594
  1407 237.742 -8.11190 -9.27920
  1408 237.783 -8.16048 9.28867
  1409 300.957 17.7461 -8.62944
  1410 133.606 0.0683073 1.32235
  1411 133.596 0.0682941 -1.32157
  1412 147.332 1.28298 8.41623
  1413 147.318 1.28289 -8.41300
  1414 115.159 13.7502 21.7084
  1415 115.159 13.7528 -21.6978
  1416 123.595 10.3726 1.72606
  1417 123.584 10.3746 -1.72597
  1418 212.504 41.5033 -3.76177
  1419 235.154 -13.2757 14.3598
  1420 235.078 -13.2057 -14.3541
  1421 133.745 -7.00020 -24.3921
  1422 133.767 -6.95560 24.3961
  1423 157.667 4.01760 22.6495
  1424 157.650 4.02089 -22.6464
  1425 75.4853 9.43449 10.6996
  1426 75.4337 9.44699 -10.7014
  1427 168.535 3.66341 12.7677
  1428 304.544 27.1110 -1.34676
  1429 110.348 12.3478 -5.77427
  1430 110.365 12.3472 5.77128
  1431 133.080 6.96354 -2.18514
  1432 133.088 6.96121 2.18436
  1433 235.540 25.9706 1.82097
  1434 163.255 -0.253974 -2.94525
  1435 163.253 -0.252260 2.94392
  1436 126.360 8.83795 -4.67008
  1437 126.371 8.83675 4.66859
  1438 157.074 1.95407 -8.76775
  1439 237.261 -6.12875 -0.134323
  1440 237.252 -6.11318 0.115388
  1441 98.6050 -25.0420 39.5830
  1442 149.849 0.436537 5.37571
  1443 189.124 -3.34606 12.9559
  1444 148.675 3.84748 16.0586
  1445 148.662 3.84797 -16.0539
  1446 189.229 -3.79632 -12.7993
  1447 170.069 -2.74915 4.21915
  1448 170.066 -2.74516 -4.21018
  1449 166.327 -16.1570 11.3933
  1450 166.138 -16.2850 -11.4887
  1451 166.624 -22.9246 20.5116
  1452 124.821 11.0182 13.9695
  1453 124.823 11.0168 -13.9630
  1454 184.417 0.401143 5.64648
  1455 184.391 0.401276 -5.64606
  1456 129.845 8.04306 1.07331
  1457 129.852 8.04022 -1.07200
  1458 205.536 7.34476 12.2427
  1459 139.368 6.11856 16.6041
  1460 139.359 6.11846 -16.5981
  1461 117.305 4.11112 -18.4142
  1462 117.320 4.12050 18.4033
  1463 169.983 -4.13229 -7.29562
  1464 169.989 -4.13605 7.30680
  1465 136.199 2.17004 -7.61457
  1466 136.207 2.17065 7.61849
  1467 221.117 0.166260 -8.48201
  1468 221.136 0.165168 8.47750
  1469 134.623 5.74390 5.98101
  1470 134.614 5.74472 -5.98428
  1471 165.297 -1.11273 -2.50164
  1472 165.293 -1.10991 2.50163
  1473 109.598 15.6965 -8.80585
  1474 109.586 15.6990 8.81137
  1475 172.632 -0.0454954 -0.799989
  1476 172.626 -0.0453211 0.799750
  1477 159.161 7.31594 -3.19201
  1478 99.8450 14.6569 -18.6799
  1479 99.8369 14.6541 18.6942
  1480 158.056 -7.22130 8.56767
  1481 158.064 -7.23536 -8.57462
  1482 174.131 -14.2377 0.885280
  1483 174.143 -14.2441 -0.858315
  1484 119.543 13.1003 19.0938
  1485 119.544 13.1007 -19.0851
  1486 205.819 -2.42032 18.5421
  1487 205.796 -2.41276 -18.5552
  1488 169.796 -0.676348 3.13784
  1489 169.804 -0.675012 -3.13077
  1490 167.692 7.52916 -10.9182
  1491 47.9705 -3.48583 -1.69041
  1492 47.9000 -3.48226 1.73607
  1493 131.810 7.09602 12.6362
  1494 131.807 7.09467 -12.6303
  1495 130.378 7.68817 -2.92308
  1496 130.387 7.68615 2.92211
  1497 223.031 -3.43224 -12.2835
  1498 223.048 -3.43778 12.2642
  1499 134.302 0.406029 3.18309
  1500 134.293 0.405873 -3.18123
  1501 169.015 -1.42809 -12.4661
  1502 168.999 -1.40029 12.4886
  1503 123.189 8.62767 7.65010
  1504 123.176 8.62734 -7.65304
  1505 152.133 0.819952 5.20586
  1506 152.132 0.818131 -5.20973
  1507 182.874 -7.23753 26.3558
  1508 182.839 -7.22446 -26.3650
  1509 205.337 -9.68693 -16.8247
  1510 205.377 -9.69766 16.8047
  1511 179.606 -19.5302 3.91016
  1512 179.773 -19.3621 -3.67841
  1513 157.807 1.89692 9.10633
  1514 154.420 -0.755057 5.85329
  1515 154.421 -0.759243 -5.85751
  1516 203.601 19.0145 -13.3931
  1517 145.285 -4.26765 -13.9185
  1518 145.295 -4.25800 13.9068
  1519 157.111 -30.2125 34.9764
  1520 175.091 20.0864 -2.64044
  1521 156.788 -9.84322 -12.0821
  1522 156.786 -9.82314 12.0733
  1523 193.582 -21.1279 4.99113
  1524 101.533 -1.64121 -33.4630
  1525 101.561 -1.66315 33.4758
  1526 129.362 7.09340 8.35243
  1527 129.363 7.09124 -8.34766
  1528 168.351 -0.101935 -1.76836
  1529 168.347 -0.101236 1.76777
  1530 125.251 10.0178 6.80518
  1531 125.256 10.0151 -6.80105
  1532 225.959 -20.3096 4.88782
  1533 225.933 -20.1846 -4.95742
  1534 177.876 0.248768 -5.49054
  1535 177.901 0.248681 5.49129
  1536 190.295 5.25027 14.8220
  1537 192.487 1.03094 16.2523
  1538 159.226 -29.0825 -27.6396
  1539 159.207 -29.0163 27.7381
  1540 146.072 0.802591 6.21439
  1541 146.057 0.802461 -6.21181
  1542 137.370 5.02153 13.2996
  1543 137.363 5.02091 -13.2941
  1544 191.061 1.19232 -16.1228
  1545 164.647 11.2202 4.02792
  1546 240.170 -13.3940 -3.08335
  1547 241.122 -12.3302 4.18313
  1548 177.009 2.49625 14.6598
  1549 154.719 -0.0518185 -5.49439
  1550 154.665 -0.0566362 5.43226
  1551 116.741 11.7310 -4.57915
  1552 116.755 11.7303 4.57758
  1553 173.314 12.0179 10.8682
  1554 131.182 5.77981 -9.01497
  1555 131.183 5.78154 9.01991
  1556 168.046 2.75759 -8.35501
  1557 140.034 0.110375 -2.20350
  1558 140.047 0.110380 2.20462
  1559 84.7640 -25.4933 43.3632
  1560 85.1867 -25.2699 -43.2299
  1561 156.520 -24.9294 -29.2879
  1562 111.625 -28.4298 -35.3346
  1563 111.692 -28.4224 35.2955
  1564 169.761 -0.888470 -0.950121
  1565 169.757 -0.886609 0.951929
  1566 131.074 7.21905 30.8308
  1567 131.058 7.22918 -30.8234
  1568 193.838 23.2532 -12.2796
  1569 52.7870 -6.95413 -16.7565
  1570 52.7768 -6.98031 16.8069
  1571 167.564 7.40263 11.1088
  1572 161.259 3.58988 25.7509
  1573 161.239 3.59556 -25.7499
  1574 170.857 -0.399463 1.13874
  1575 170.862 -0.400384 -1.13816
  1576 145.807 6.12714 21.4237
  1577 145.794 6.12909 -21.4183
  1578 83.8929 -12.1115 -33.2135
  1579 83.9355 -12.1409 33.2289
  1580 245.200 -5.86279 23.6415
  1581 245.170 -5.96261 -23.5870
  1582 190.325 5.51764 39.3118
  1583 126.840 9.34977 0.0938123
  1584 126.849 9.34719 -0.0929053
  1585 169.266 8.06983 47.7332
  1586 186.919 -16.5288 -22.2157
  1587 186.978 -16.5456 22.2116
  1588 175.413 -2.77888 -28.0595
  1589 175.442 -2.79010 28.0526
  1590 163.320 0.253606 3.99525
  1591 163.297 0.253589 -3.99416
  1592 136.531 5.67598 -3.70345
  1593 136.538 5.67422 3.70134
  1594 85.7245 4.38471 -27.3760
  1595 85.7327 4.36597 27.4002
  1596 96.3271 -0.0880773 28.0407
  1597 96.3006 -0.0800449 -28.0618
  1598 90.2066 8.65109 -16.7876
  1599 90.2422 8.64393 16.7735
  1600 122.676 11.5282 9.31620
  1601 122.681 11.5258 -9.31111
  1602 167.101 4.01571 -1.24759
  1603 126.810 9.34384 4.02473
  1604 126.816 9.34097 -4.02180
  1605 142.106 3.66137 5.04635
  1606 142.100 3.66188 -5.04990
  1607 141.365 2.34473 9.53471
  1608 141.354 2.34435 -9.53059
  1609 156.607 -33.5660 -25.9437
  1610 157.334 -33.4069 26.2594
  1611 170.607 -12.0003 -1.62384
  1612 170.584 -11.9870 1.63593
  1613 163.491 -12.8378 -9.61029
  1614 163.480 -12.8539 9.58933
  1615 170.964 -7.54365 -3.55614
  1616 170.973 -7.55020 3.56482
  1617 177.812 4.14681 -37.7258
  1618 169.937 -4.57122 -3.14062
  1619 169.943 -4.57693 3.14875
  1620 178.508 15.6518 -11.3963
  1621 160.772 -0.165086 9.40361
  1622 160.767 -0.166926 -9.40418
  1623 431.452 22.8034 -1.90878
  1624 166.506 -2.59141 1.55942
  1625 166.512 -2.59620 -1.55709
  1626 173.165 -0.432864 1.39521
  1627 173.166 -0.431930 -1.39130
  1628 174.425 -0.278917 0.355276
  1629 174.422 -0.278445 -0.353186
  1630 142.596 2.55973 7.08942
  1631 142.590 2.55862 -7.09458
  1632 144.106 0.175513 2.42542
  1633 144.090 0.175478 -2.42430
  1634 87.2290 14.0278 15.7236
  1635 87.2456 14.0302 -15.7052
  1636 98.7299 16.1907 10.4523
  1637 98.7464 16.1887 -10.4430
  1638 179.824 -24.2447 13.1562
  1639 191.947 0.657118 -16.8479
  1640 191.970 0.654457 16.8449
  1641 156.238 3.34884 7.58839
  1642 163.680 -3.05031 -3.03803
  1643 163.674 -3.04418 3.03854
  1644 151.304 0.147298 -2.84886
  1645 151.323 0.147293 2.84995
  1646 221.956 -17.2177 -0.444778
  1647 221.986 -17.1666 0.396293
  1648 191.553 -21.4579 -4.24228
  1649 155.888 1.25356 9.30144
  1650 155.870 1.25363 -9.29864
  1651 252.407 -1.60979 4.91151
  1652 252.370 -1.59841 -4.89920
  1653 111.315 -1.66534 -27.4825
  1654 111.336 -1.67172 27.4525
  1655 131.201 5.01639 7.77222
  1656 131.200 5.01466 -7.76770
  1657 307.684 18.5247 3.40540
  1658 138.048 0.0971805 1.49392
  1659 138.035 0.0971469 -1.49310
  1660 160.950 -0.0641853 4.48899
  1661 160.970 -0.0729372 -4.48259
  1662 132.450 -15.0324 35.4436
  1663 132.421 -15.0295 -35.4502
  1664 82.8477 -25.5564 -34.8953
  1665 312.722 37.9071 -19.3836
  1666 116.198 8.10259 -12.4922
  1667 116.214 8.10624 12.4858
  1668 158.909 1.34694 10.8696
  1669 158.891 1.34721 -10.8667
  1670 135.499 1.32087 5.84607
  1671 135.491 1.32045 -5.84287
  1672 206.260 1.53761 -9.96626
  1673 133.293 9.48165 23.3904
  1674 133.285 9.48430 -23.3830
  1675 139.279 0.739450 -4.94641
  1676 139.291 0.739646 4.94887
  1677 135.086 0.0861175 -1.38105
  1678 135.097 0.0861774 1.38186
  1679 123.000 -0.0252030 -21.1604
  1680 123.012 -0.00960037 21.1503
  1681 238.658 7.03995 -23.4354
  1682 231.029 -0.200755 -5.87507
  1683 231.044 -0.201444 5.87056
  1684 139.840 1.37273 6.97305
  1685 139.829 1.37242 -6.96972
  1686 145.145 -14.5876 25.7174
  1687 145.171 -14.8215 -25.8521
  1688 154.274 3.06399 15.7078
  1689 154.259 3.06466 -15.7038
  1690 131.519 5.65079 8.32532
  1691 131.508 5.65032 -8.32949
  1692 24.2252 -79.2058 5.69984
  1693 24.1794 -79.1493 -5.79974
  1694 188.701 30.0372 4.41259
  1695 261.208 -0.686632 -0.939296
  1696 261.173 -0.685750 0.931373
  1697 211.844 0.148018 7.40606
  1698 211.820 0.148638 -7.40822
  1699 135.863 0.542359 3.83727
  1700 135.853 0.542177 -3.83513
  1701 205.436 -0.0372724 -15.3671
  1702 205.457 -0.0402299 15.3607
  1703 165.940 -22.2990 -19.8660
  1704 134.278 2.83557 -7.80845
  1705 134.283 2.83645 7.81266
  1706 159.677 -4.38803 5.66133
  1707 159.684 -4.39712 -5.66412
  1708 352.067 27.4225 2.00169
  1709 136.314 6.05394 14.4506
  1710 136.308 6.05329 -14.4448
  1711 151.310 4.15643 0.00944339
  1712 122.397 -13.5961 -35.1292
  1713 122.527 -13.6715 35.0697
  1714 132.638 3.38560 7.37527
  1715 132.634 3.38441 -7.37102
  1716 170.971 -1.65901 2.52465
  1717 170.970 -1.65637 -2.51786
  1718 189.000 3.08090 -14.8518
  1719 147.920 6.22715 -24.0092
  1720 147.934 6.22356 24.0140
  1721 96.8569 15.0319 -2.14259
  1722 96.8810 15.0273 2.14231
  1723 124.532 11.9836 19.9847
  1724 124.531 11.9843 -19.9764
  1725 120.215 4.96527 32.5459
  1726 120.196 4.97967 -32.5365
  1727 166.722 -11.8784 -5.48278
  1728 166.700 -11.8584 5.47961
  1729 173.853 -9.51952 5.35721
  1730 173.845 -9.51411 -5.34726
  1731 180.187 -10.7993 -8.26345
  1732 180.208 -10.8060 8.26027
  1733 160.811 3.33315 18.8836
  1734 160.793 3.33496 -18.8806
  1735 180.463 -23.7192 -11.6204
  1736 142.490 5.07139 15.7567
  1737 142.480 5.07139 -15.7512
  1738 109.712 6.30296 -17.9755
  1739 109.730 6.30764 17.9616
  1740 167.180 -11.1377 -29.5263
  1741 167.218 -11.1496 29.5246
  1742 129.277 8.11579 2.83835
  1743 129.283 8.11288 -2.83604
  1744 170.482 1.12239 10.9750
  1745 170.460 1.12289 -10.9733
  1746 338.798 23.8603 -61.5657
  1747 133.823 3.58611 -8.52699
  1748 133.827 3.58718 8.53155
  1749 173.298 1.38638 13.9010
  1750 173.276 1.38734 -13.8997
  1751 201.981 0.282760 7.65463
  1752 201.955 0.283187 -7.65573
  1753 124.040 6.16267 -12.1747
  1754 124.054 6.16597 12.1695
  1755 129.644 1.44525 -16.6802
  1756 129.660 1.45296 16.6726
  1757 163.752 -1.03506 8.65988
  1758 163.756 -1.04609 -8.65205
  1759 145.153 -8.24707 19.0972
  1760 145.154 -8.26711 -19.1140
  1761 126.149 -23.8979 41.8568
  1762 124.817 -23.3409 -41.6380
  1763 170.957 12.5581 -9.33482
  1764 142.533 0.467748 -4.50834
  1765 142.546 0.467851 4.51043
  1766 141.277 1.00614 1.61554
  1767 126.136 8.08853 7.00943
  1768 126.124 8.08875 -7.01220
  1769 195.281 -28.6119 -14.0147
  1770 195.631 -28.7415 13.9790
  1771 220.555 -1.13625 -12.7780
  1772 220.571 -1.13977 12.7672
  1773 159.323 -0.778668 4.21987
  1774 159.325 -0.782009 -4.22213
  1775 144.502 0.560430 -3.52274
  1776 151.160 -10.9213 17.3853
  1777 151.123 -10.9613 -17.4182
  1778 237.325 16.5557 2.79193
  1779 168.758 -8.33884 -0.276283
  1780 168.746 -8.32931 0.283175
  1781 141.223 3.98070 -13.2671
  1782 141.233 3.98103 13.2722
  1783 133.080 3.43321 11.6647
  1784 133.068 3.43037 -11.6710
  1785 126.561 9.36847 9.67462
  1786 126.563 9.36620 -9.66943
  1787 118.105 12.9913 4.02178
  1788 118.115 12.9888 -4.01894
  1789 129.506 6.94046 6.28553
  1790 129.509 6.93799 -6.28154
  1791 222.070 39.6214 5.89600
  1792 234.523 -4.97390 22.6372
  1793 234.438 -4.99398 -22.6920
  1794 207.886 -11.9406 3.35266
  1795 129.170 7.91303 10.7603
  1796 129.170 7.91116 -10.7548
  1797 185.434 27.8683 -4.05750
  1798 344.972 20.2766 48.0785
  1799 145.334 6.41290 27.0570
  1800 145.319 6.41883 -27.0522
  1801 173.065 1.83574 10.2568
  1802 121.937 -31.5595 46.3896
  1803 122.061 11.3644 2.39716
  1804 122.070 11.3619 -2.39501
  1805 166.755 12.6149 -4.55664
  1806 140.438 1.03753 10.7999
  1807 140.429 1.03387 -10.8075
  1808 167.417 -4.12590 -0.521628
  1809 167.410 -4.11952 0.526059
  1810 190.481 -0.271650 21.8346
  1811 190.457 -0.265290 -21.8417
  1812 124.980 -31.5369 -45.5260
  1813 182.539 24.3098 6.57025
  1814 149.704 0.974481 7.18586
  1815 149.688 0.974409 -7.18318
  1816 130.920 8.60221 15.2319
  1817 130.917 8.60127 -15.2254
  1818 159.309 1.64589 3.68718
  1819 131.573 9.02804 17.5719
  1820 131.569 9.02780 -17.5650
  1821 142.120 -19.0394 31.9863
  1822 141.543 -19.5551 -32.7484
  1823 123.604 11.8852 16.1699
  1824 123.605 11.8843 -16.1626
  1825 216.751 36.3813 -8.38820
  1826 251.570 13.7172 18.0538
  1827 176.719 1.91904 20.3141
  1828 176.697 1.92234 -20.3149
  1829 232.762 -9.65600 3.87059
  1830 232.751 -9.61891 -3.88870
  1831 168.933 -0.369385 -1.66022
  1832 168.929 -0.368297 1.66022
  1833 120.904 -3.87287 -35.8579
  1834 120.934 -3.88976 35.8619
  1835 181.159 -22.5906 32.5217
  1836 158.974 -29.5905 40.5393
  1837 236.356 -3.50323 -6.49970
  1838 236.358 -3.50405 6.47897
  1839 195.798 -10.9959 -6.83375
  1840 208.595 1.11343 8.60625
  1841 193.746 -23.7915 -18.3919
  1842 195.038 -22.4231 18.3060
  1843 236.468 -6.53127 19.3857
  1844 236.347 -6.53324 -19.3811
  1845 172.502 -28.9411 26.1187
  1846 30.1378 -26.2626 6.95719
  1847 29.9484 -26.1919 -6.86378
  1848 167.383 -1.84568 -7.10213
  1849 167.381 -1.84531 7.11296
  1850 193.690 0.0757503 5.73361
  1851 193.663 0.0760501 -5.73373
  1852 135.985 3.11337 9.22550
  1853 135.978 3.11260 -9.22093
  1854 281.735 33.6268 53.6391
  1855 57.4038 -7.31430 23.4597
  1856 57.3115 -7.34091 -23.4888
  1857 128.803 8.11931 -3.93377
  1858 128.813 8.11772 3.93242
  1859 141.245 3.50725 6.34134
  1860 141.238 3.50709 -6.34574
  1861 149.405 1.92964 -10.8098
  1862 149.419 1.92967 10.8135
  1863 230.620 -18.9275 -0.410624
  1864 230.121 -19.0249 0.197223
  1865 58.0089 -41.0732 -24.6035
  1866 58.0528 -41.0585 24.5952
  1867 125.745 9.96364 -2.56995
  1868 125.737 9.96644 2.57217
  1869 165.794 0.745805 9.26026
  1870 165.773 0.746150 -9.25827
  1871 131.555 6.39171 11.1424
  1872 131.552 6.39026 -11.1369
  1873 116.056 11.0208 26.8341
  1874 116.049 11.0286 -26.8222
  1875 96.4695 -36.3822 31.5719
  1876 96.3263 -36.4207 -31.5904
  1877 120.236 12.2331 23.6935
  1878 120.233 12.2367 -23.6835
  1879 168.764 -2.88032 -10.6201
  1880 168.766 -2.86660 10.6353
  1881 171.607 -5.63858 -8.77226
  1882 171.618 -5.64192 8.78404
  1883 179.284 8.19358 14.4712
  1884 195.952 -10.7756 6.56364
  1885 167.217 -1.45464 -1.59971
  1886 167.212 -1.45152 1.60112
  1887 103.269 15.4352 2.00476
  1888 103.287 15.4322 -2.00269
  1889 58.2201 -40.6564 -10.8075
  1890 58.2936 -40.6093 10.8139
  1891 152.783 3.27654 -5.08161
  1892 172.914 2.06078 23.4103
  1893 172.892 2.06546 -23.4115
  1894 160.841 -0.132936 -3.51932
  1895 160.839 -0.131067 3.51743
  1896 158.089 -2.37019 5.32608
  1897 158.093 -2.37638 -5.32913
  1898 144.844 2.00557 -9.76014
  1899 144.856 2.00580 9.76399
  1900 164.520 -0.410420 4.15763
  1901 164.536 -0.411300 -4.15027
  1902 132.894 5.38666 10.7170
  1903 132.891 5.38536 -10.7117
  1904 231.138 -1.01805 -10.4611
  1905 231.207 -1.01440 10.5638
  1906 155.963 2.82455 29.4243
  1907 155.942 2.83384 -29.4237
  1908 223.731 0.150301 24.8816
  1909 200.417 9.34144 -13.2950
  1910 137.625 0.364930 -3.34053
  1911 137.636 0.365018 3.34230
  1912 138.695 0.954913 -0.835884
  1913 109.100 13.7604 -1.96629
  1914 109.116 13.7586 1.96560
  1915 227.722 28.3094 -56.8241
  1916 120.305 12.6758 10.8953
  1917 120.311 12.6736 -10.8896
  1918 39.4765 -21.6817 21.5429
  1919 39.3006 -21.7189 -21.6493
  1920 417.890 17.4379 -40.1405
  1921 181.801 -28.7244 -21.9157
  1922 139.892 0.327722 -3.48015
  1923 139.905 0.327810 3.48190
  1924 288.112 8.32022 -8.06188
  1925 173.917 -0.0538462 -0.593187
  1926 173.910 -0.0537046 0.593173
  1927 94.7636 -19.9926 22.5992
  1928 100.983 -18.5287 -24.8526
  1929 98.2192 -9.36348 -36.4037
  1930 98.1980 -9.32823 36.3780
  1931 157.020 0.133214 4.31346
  1932 157.021 0.131225 -4.31629
  1933 170.355 0.263487 -4.11239
  1934 170.379 0.263440 4.11328
  1935 180.263 6.63091 -14.7432
  1936 134.652 4.64183 8.34067
  1937 134.641 4.64120 -8.34545
  1938 169.321 -3.38689 -1.32981
  1939 169.326 -3.39172 1.33602
  1940 148.222 1.10670 6.44789
  1941 148.220 1.10454 -6.45290
  1942 133.194 2.62632 6.82107
  1943 133.189 2.62540 -6.81712
  1944 130.341 6.57395 9.33939
  1945 130.340 6.57205 -9.33434
  1946 255.498 -1.26874 -2.50919
  1947 255.538 -1.27557 2.50955
  1948 201.450 31.0371 9.31785
  1949 141.811 0.290622 2.64900
  1950 190.860 0.555270 14.6033
  1951 190.837 0.556884 -14.6050
  1952 113.653 -17.5266 36.6235
  1953 113.611 -17.5125 -36.6350
  1954 164.855 -9.74446 5.25973
  1955 164.871 -9.75837 -5.25944
  1956 169.265 -1.98037 0.0540825
  1957 169.270 -1.98379 -0.0502120
  1958 115.589 -15.8291 38.5075
  1959 115.278 -15.8602 -38.4647
  1960 151.519 2.21824 31.3412
  1961 151.495 2.22938 -31.3409
  1962 198.205 -18.3911 16.0974
  1963 198.125 -18.3806 -16.1141
  1964 144.777 2.84704 5.21919
  1965 144.773 2.84699 -5.22302
  1966 337.939 33.0332 13.7519
  1967 137.128 1.74601 -7.16411
  1968 137.137 1.74648 7.16775
  1969 186.792 -16.3439 2.86963
  1970 186.568 -16.5170 -2.59279
  1971 120.120 -7.12386 30.5002
  1972 120.124 -7.12040 -30.5686
  1973 287.369 11.8151 -11.2760
  1974 174.601 -0.0788536 0.380455
  1975 174.607 -0.0791195 -0.379880
  1976 212.682 -6.55321 -18.5825
  1977 136.285 4.50959 11.5516
  1978 136.279 4.50872 -11.5463
  1979 189.423 18.0670 13.4217
  1980 138.217 3.09288 8.80993
  1981 138.208 3.09139 -8.81572
  1982 253.701 16.6935 -13.3173
  1983 191.594 0.375761 11.8308
  1984 218.014 -12.4448 7.28125
  1985 217.977 -12.4537 -7.31497
  1986 136.800 9.33926 -50.2178
  1987 191.849 28.4309 -8.81963
  1988 169.778 14.5157 5.24871
  1989 157.284 6.11169 4.23227
  1990 16.2808 -90.3573 6.80065
  1991 16.3806 -90.3465 -7.00499
  1992 179.540 22.4024 -5.93157
  1993 105.824 16.0748 12.6381
  1994 105.835 16.0733 -12.6296
  1995 190.621 0.131767 -11.5762
  1996 170.135 -18.9652 -11.6887
  1997 170.515 -18.9022 10.9706
  1998 193.530 -24.1747 16.3543
  1999 193.405 -24.1634 -16.3629
  2000 137.635 -26.1545 24.5007
  2001 143.128 -28.6744 -25.1457
  2002 106.926 12.4025 -7.89197
  2003 106.945 12.4017 7.88699
  2004 57.0903 -35.2005 37.2696
  2005 57.7520 -34.6177 -38.5750
  2006 123.169 11.1455 7.10032
  2007 123.175 11.1428 -7.09608
  2008 156.056 0.106657 2.79338
  2009 156.035 0.106690 -2.79242
  2010 223.882 4.10845 -4.26446
  2011 147.140 2.79821 -12.6657
  2012 147.153 2.79820 12.6700
  2013 127.840 8.30530 6.82729
  2014 127.843 8.30274 -6.82310
  2015 241.801 -2.27475 -25.8053
  2016 220.072 20.6957 8.68377
  2017 152.182 -16.0266 -22.3667
  2018 152.220 -15.6276 22.1452
  2019 254.752 2.55653 -22.9928
  2020 173.387 0.838685 -10.4290
  2021 242.631 -12.2421 -15.6216
  2022 242.609 -12.2363 15.6920
  2023 128.723 8.61031 0.594919
  2024 128.730 8.60756 -0.593808
  2025 132.866 3.95594 8.28158
  2026 132.862 3.95469 -8.27703
  2027 281.718 9.39564 14.0568
  2028 163.593 3.33378 21.4369
  2029 163.574 3.33678 -21.4349
  2030 220.652 1.24439 -24.2272
  2031 134.137 0.907702 4.66296
  2032 134.129 0.907380 -4.66023
  2033 153.194 -2.90371 8.03242
  2034 153.195 -2.91141 -8.03899
  2035 125.395 -3.74989 44.6372
  2036 252.331 -0.660525 -3.84529
  2037 252.323 -0.661206 3.83652
  2038 146.126 -0.963920 9.99043
  2039 146.121 -0.969381 -9.99876
  2040 133.605 0.194894 2.22649
  2041 133.596 0.194813 -2.22514
  2042 169.860 -1.35575 -4.00998
  2043 169.857 -1.35813 4.01855
  2044 56.7034 -42.5198 24.6458
  2045 258.302 20.2212 -2.90764
  2046 218.038 -9.26908 -10.9723
  2047 218.067 -9.27211 10.9454
  2048 153.112 -3.60021 -33.0345
  2049 153.142 -3.61341 33.0327
  2050 172.603 -0.396717 1.54763
  2051 172.608 -0.395934 -1.54357
  2052 150.942 2.10131 5.37683
  2053 458.585 12.8262 9.42298
  2054 282.791 21.9630 -9.99044
  2055 165.245 -0.683602 -11.3357
  2056 165.284 -0.678960 11.3454
  2057 213.799 5.48827 19.0729
  2058 152.165 -7.59216 13.1679
  2059 152.166 -7.60701 -13.1810
  2060 129.195 7.65615 4.60131
  2061 129.199 7.65337 -4.59811
  2062 255.288 2.43812 23.0925
  2063 127.478 9.29318 12.0436
  2064 127.479 9.29138 -12.0377
  2065 174.972 -6.09084 -10.8771
  2066 174.989 -6.09188 10.8900
  2067 144.396 -26.5836 -38.5157
  2068 51.4330 -47.9878 -23.1992
  2069 162.616 -7.82032 -5.85546
  2070 162.603 -7.80695 5.85413
  2071 165.339 -5.35643 -2.31890
  2072 165.330 -5.34788 2.32165
  2073 166.147 -0.134721 -2.29947
  2074 166.143 -0.133717 2.29853
  2075 232.981 18.6065 -0.188750
  2076 135.708 5.53112 -5.26713
  2077 135.716 5.53005 5.26410
  2078 119.508 11.3794 2.25696
  2079 119.496 11.3809 -2.25717
  2080 155.464 -14.3392 17.9947
  2081 155.747 -14.4031 -17.9512
  2082 126.052 -6.00318 26.8190
  2083 126.073 -6.05097 -26.8384
  2084 242.203 -2.30673 25.5278
  2085 115.675 13.3705 1.75352
  2086 115.687 13.3683 -1.75183
  2087 109.891 -36.9489 -30.8796
  2088 110.231 -36.8268 30.7513
  2089 161.204 -21.8061 -30.0307
  2090 161.236 -21.8020 30.0522
  2091 113.377 14.5286 -6.25781
  2092 113.366 14.5311 6.26175
  2093 37.0826 -31.8042 -14.0314
  2094 37.1178 -31.8890 14.0714
  2095 203.724 8.98878 7.63086
  2096 210.231 -0.148151 -13.9125
  2097 161.383 0.121871 2.72921
  2098 161.361 0.121875 -2.72840
  2099 167.140 -0.637178 -2.03451
  2100 167.136 -0.635325 2.03459
  2101 160.012 -2.20069 4.47389
  2102 160.016 -2.20628 -4.47578
  2103 167.427 -0.911059 29.4724
  2104 167.400 -0.899933 -29.4766
  2105 333.172 22.5787 3.24286
  2106 54.5151 2.32589 -4.81399
  2107 54.5899 2.31560 4.83416
  2108 171.666 -0.668612 -0.453409
  2109 171.662 -0.667340 0.455481
  2110 146.702 2.49974 -1.49213
  2111 146.014 0.0805007 -1.92250
  2112 146.031 0.0805391 1.92336
  2113 132.072 7.23036 -0.192737
  2114 132.079 7.22762 0.193209
  2115 196.263 6.55492 -11.1495
  2116 84.0613 14.3514 9.50244
  2117 84.0864 14.3499 -9.48660
  2118 235.096 -11.1569 12.0695
  2119 235.039 -11.0807 -12.0609
  2120 174.494 16.4800 8.28856
  2121 156.765 -4.18078 7.09046
  2122 156.770 -4.19015 -7.09550
  2123 172.342 -0.796426 0.687506
  2124 172.340 -0.795000 -0.683908
  2125 174.777 -0.212123 0.690730
  2126 174.777 -0.211809 -0.688430
  2127 141.291 6.15607 29.6757
  2128 141.274 6.16500 -29.6710
  2129 12.5957 -79.5325 -8.18838
  2130 12.7165 -78.1535 8.32313
  2131 88.1767 15.6610 -4.73903
  2132 88.1495 15.6659 4.74763
  2133 164.574 -0.598668 -2.72540
  2134 164.570 -0.596544 2.72469
  2135 135.470 8.63732 20.3182
  2136 135.463 8.63837 -20.3113
  2137 179.688 12.2132 13.3970
  2138 234.510 4.45717 24.9832
  2139 131.452 4.67689 32.2664
  2140 131.432 4.68980 -32.2602
  2141 135.885 0.907627 4.96238
  2142 135.876 0.907335 -4.95965
  2143 187.496 0.514699 11.4994
  2144 187.472 0.515633 -11.4998
  2145 137.580 8.10386 21.8759
  2146 137.571 8.10577 -21.8692
  2147 203.195 0.258345 -12.2478
  2148 203.218 0.256802 12.2446
  2149 173.796 -28.1071 -23.1768
  2150 279.805 23.5631 6.85332
  2151 150.432 -23.7752 32.1577
  2152 155.393 3.03761 -7.50898
  2153 150.928 4.64223 -19.4930
  2154 150.942 4.64071 19.4975
  2155 94.8545 10.8047 -12.9461
  2156 94.8841 10.7999 12.9358
  2157 143.759 5.77628 19.0552
  2158 143.748 5.77719 -19.0495
  2159 204.986 16.9351 12.7626
  2160 256.468 10.2101 -21.2357
  2161 74.9727 9.57976 15.4353
  2162 74.9920 9.58562 -15.4077
  2163 109.012 -26.6465 45.8614
  2164 114.903 -26.7249 -45.3350
  2165 174.254 -14.0046 -38.3249
  2166 144.020 2.99314 11.9670
  2167 144.008 2.99289 -11.9625
  2168 188.765 0.280475 -4.98253
  2169 188.791 0.280281 4.98276
  2170 139.591 0.554475 -2.10411
  2171 165.851 -1.54120 -8.21447
  2172 165.847 -1.53556 8.22412
  2173 110.414 15.3338 12.4808
  2174 110.423 15.3322 -12.4734
  2175 168.705 -6.49661 -0.781876
  2176 168.715 -6.50433 0.788572
  2177 179.065 0.728940 -10.7223
  2178 179.088 0.728343 10.7231
  2179 131.025 7.98609 -13.5159
  2180 131.028 7.98741 13.5221
  2181 88.2909 -1.86083 29.6018
  2182 88.2630 -1.86976 -29.6258
  2183 267.987 0.0651807 -10.7028
  2184 116.442 13.8031 -7.46990
  2185 116.433 13.8056 7.47427
  2186 162.270 10.1074 -0.0409722
  2187 354.397 28.5417 -2.19460
  2188 254.473 46.9498 1.24276
  2189 157.182 -0.876827 4.90171
  2190 157.184 -0.880671 -4.90476
  2191 194.849 -21.0931 -7.29291
  2192 299.614 23.4999 7.31941
  2193 267.810 -0.0265617 11.2964
  2194 215.039 25.8472 -11.1879
  2195 170.095 -0.00402246 -1.37549
  2196 170.090 -0.00368366 1.37497
  2197 179.809 -13.8909 -4.20798
  2198 179.805 -13.9009 4.23245
  2199 139.451 7.07592 19.1256
  2200 139.442 7.07660 -19.1193
  2201 176.882 -13.5413 -2.23066
  2202 176.892 -13.5448 2.24703
  2203 148.252 -31.2700 -42.0492
  2204 139.003 1.91429 7.92750
  2205 138.994 1.91384 -7.92373
  2206 180.253 -5.58596 -12.3386
  2207 180.250 -5.56350 12.4057
  2208 212.040 -0.0393476 12.6117
  2209 132.095 6.79273 4.84451
  2210 132.086 6.79409 -4.84679
  2211 137.091 8.21202 26.8746
  2212 137.079 8.21746 -26.8679
  2213 187.172 -1.55073 -24.3395
  2214 187.198 -1.55962 24.3307
  2215 149.487 -15.7638 34.0194
  2216 149.461 -15.7614 -34.0162
  2217 121.992 11.1686 0.0605370
  2218 121.982 11.1709 -0.0595919
  2219 135.767 0.246635 2.92664
  2220 135.757 0.246569 -2.92499
  2221 182.619 -2.83871 -13.6584
  2222 182.172 -2.91978 13.7348
  2223 219.982 0.201257 -5.00998
  2224 220.005 0.200833 5.00813
  2225 163.726 -1.53133 -2.98075
  2226 163.722 -1.52753 2.98051
  2227 274.577 46.8955 3.35653
  2228 195.731 0.556250 11.0541
  2229 195.706 0.557199 -11.0555
  2230 126.299 9.46760 28.5675
  2231 126.287 9.47573 -28.5584
  2232 230.797 -1.63307 -10.0606
  2233 230.807 -1.63668 10.0461
  2234 193.316 -6.99821 -22.5353
  2235 193.351 -7.01037 22.5224
  2236 140.631 -27.2555 -31.9091
  2237 140.590 -27.2372 31.8949
  2238 80.5926 -15.3565 39.3155
  2239 80.5291 -15.2961 -39.3199
  2240 171.075 -6.06997 -5.72034
  2241 171.084 -6.07570 5.72961
  2242 222.479 -1.53154 21.2424
  2243 145.429 0.827733 -4.00973
  2244 137.969 0.894163 5.17149
  2245 137.959 0.893908 -5.16883
  2246 304.566 11.9883 11.2436
  2247 174.911 0.0436663 4.11895
  2248 174.885 0.0437938 -4.11827
  2249 169.859 -3.43380 -6.16827
  2250 169.863 -3.43782 6.17884
  2251 163.333 -3.99631 3.29804
  2252 163.340 -4.00391 -3.29747
  2253 206.425 -0.246136 -16.5687
  2254 206.446 -0.250268 16.5604
  2255 133.553 -8.03987 35.8348
  2256 133.522 -8.02705 -35.8358
  2257 73.5988 1.24915 24.0259
  2258 73.5934 1.27005 -23.9946
  2259 418.759 17.3029 30.4332
  2260 195.101 8.35424 -1.61005
  2261 132.127 4.80576 -8.75542
  2262 132.130 4.80723 8.76022
  2263 306.562 26.6462 -3.47712
  2264 128.958 8.40786 -1.41694
  2265 128.967 8.40549 1.41691
  2266 167.580 -20.3382 16.0759
  2267 243.197 -4.58533 7.99392
  2268 243.159 -4.55643 -7.97811
  2269 222.706 -1.48875 -21.8266
  2270 174.322 1.56218 -24.4545
  2271 174.344 1.55647 24.4521
  2272 186.672 -10.8333 -8.76402
  2273 186.522 -11.1872 8.48232
  2274 139.494 3.07316 10.5707
  2275 139.485 3.07262 -10.5661
  2276 211.436 -2.96199 -16.8778
  2277 211.458 -2.96897 16.8627
  2278 230.539 10.8184 15.0255
  2279 251.060 34.5991 3.35344
  2280 112.355 10.4208 10.0802
  2281 112.338 10.4193 -10.0858
  2282 213.298 -1.18256 -2.39586
  2283 149.027 0.0680168 -3.56516
  2284 153.706 -31.0543 -38.5244
  2285 232.025 35.1224 4.88232
  2286 162.766 0.865001 8.67036
  2287 162.745 0.865160 -8.66823
  2288 246.509 -1.64057 -7.27415
  2289 246.523 -1.66288 7.31491
  2290 170.860 -2.89337 12.0965
  2291 170.848 -2.91637 -12.0776
  2292 156.337 0.00681006 -3.40351
  2293 156.302 0.0191566 3.38531
  2294 150.932 2.57247 13.3579
  2295 150.918 2.57270 -13.3539
  2296 82.7245 12.2527 -7.21393
  2297 82.7645 12.2432 7.21332
  2298 170.227 -5.48025 -3.83404
  2299 170.235 -5.48621 3.84259
  2300 117.921 13.7807 16.5131
  2301 117.924 13.7801 -16.5050
  2302 67.7575 8.94754 7.56883
  2303 67.7943 8.94798 -7.54217
  2304 136.821 0.0998939 1.19274
  2305 136.809 0.0998591 -1.19208
  2306 175.488 -27.0879 20.2150
  2307 170.817 1.43483 27.1040
  2308 170.794 1.44251 -27.1069
  2309 192.615 5.71827 13.5401
  2310 121.801 11.7906 7.58356
  2311 121.807 11.7881 -7.57915
  2312 154.521 0.415680 5.67046
  2313 154.502 0.415690 -5.66853
  2314 146.501 -0.122705 8.68579
  2315 146.497 -0.126898 -8.69282
  2316 172.331 -9.32193 3.53177
  2317 172.321 -9.31551 -3.52201
  2318 142.517 1.54013 8.11698
  2319 142.506 1.53983 -8.11347
  2320 163.453 6.80578 -9.03864
  2321 161.336 2.38232 -10.5064
  2322 210.370 7.39691 -16.6397
  2323 153.567 0.754274 4.78409
  2324 153.566 0.752643 -4.78756
  2325 238.297 13.9618 14.1406
  2326 119.493 13.2680 14.6712
  2327 119.497 13.2667 -14.6641
  2328 198.936 23.0562 12.8910
  2329 155.249 -1.74649 6.24195
  2330 155.251 -1.75219 -6.24638
  2331 152.891 0.0520612 5.67222
  2332 152.891 0.0490439 -5.67645
  2333 127.232 10.7076 -16.9898
  2334 127.233 10.7082 16.9970
  2335 138.063 8.20111 24.9536
  2336 138.053 8.20484 -24.9470
  2337 101.309 2.88553 -31.4014
  2338 101.327 2.86667 31.4175
  2339 262.469 11.4673 19.7340
  2340 283.470 33.1640 -59.5294
  2341 228.578 -3.50562 22.7705
  2342 196.027 2.24177 -17.3114
  2343 127.561 3.82155 -14.2109
  2344 127.576 3.82665 14.2045
  2345 175.419 -0.176216 -0.117887
  2346 175.413 -0.175948 0.118724
  2347 162.232 1.74959 -8.08125
  2348 149.188 0.136675 1.87957
  2349 149.170 0.136650 -1.87880
  2350 136.803 1.50422 12.1910
  2351 136.791 1.50022 -12.1986
  2352 176.359 1.59497 -18.3005
  2353 176.381 1.59264 18.3006
  2354 179.441 1.24735 -14.6633
  2355 169.091 -3.04066 -7.46383
  2356 169.095 -3.04268 7.47549
  2357 133.839 1.69755 -5.85939
  2358 133.845 1.69817 5.86280
  2359 394.174 20.9083 56.4053
  2360 127.992 8.43268 5.16590
  2361 127.996 8.42991 -5.16245
  2362 167.775 -2.60768 -0.754722
  2363 167.769 -2.60320 0.758149
  2364 102.752 9.67348 14.6384
  2365 102.729 9.67401 -14.6504
  2366 145.589 4.41972 16.0412
  2367 145.577 4.42003 -16.0361
  2368 284.963 21.1295 63.2826
  2369 37.1783 -38.3379 27.7794
  2370 37.2749 -38.6329 -27.6332
  2371 161.573 2.41793 15.2531
  2372 161.554 2.41879 -15.2502
  2373 130.155 6.23910 -6.71133
  2374 130.154 6.24135 6.71553
  2375 166.367 -8.40480 -2.76858
  2376 166.354 -8.39321 2.77234
  2377 111.963 14.3603 2.52305
  2378 111.976 14.3579 -2.52102
  2379 157.714 2.18229 -13.4019
  2380 157.732 2.18185 13.4052
  2381 254.755 23.2102 -61.5507
  2382 191.814 -17.8614 -0.573681
  2383 192.068 -16.4567 2.03649
  2384 172.639 1.11551 10.2216
  2385 232.256 -2.99022 -8.78005
  2386 232.263 -2.99348 8.76031
  2387 181.948 -16.6335 0.940412
  2388 181.903 -16.5802 -0.973888
  2389 151.707 -4.69118 -10.4946
  2390 151.707 -4.68070 10.4850
  2391 191.597 -9.90954 34.1255
  2392 192.964 -6.59151 -10.7489
  2393 128.501 7.91781 8.60928
  2394 128.502 7.91556 -8.60441
  2395 212.192 -6.67168 -15.4883
  2396 212.220 -6.68012 15.4673
  2397 160.934 3.93857 -24.3057
  2398 160.953 3.93403 24.3074
  2399 139.615 3.97675 12.2076
  2400 139.606 3.97621 -12.2025
  2401 222.147 -0.0521107 -9.87609
  2402 189.435 16.7574 -13.9024
  2403 168.431 1.90168 -12.9502
  2404 20.7796 -83.1832 -11.5696
  2405 21.8630 -80.0398 12.8262
  2406 171.420 6.23705 -12.8075
  2407 257.102 -0.507268 -2.72056
  2408 257.084 -0.507611 2.71203
  2409 143.844 -0.949093 -11.4322
  2410 143.852 -0.943472 11.4231
  2411 207.618 -1.41656 17.3181
  2412 207.598 -1.41092 -17.3290
  2413 139.616 4.63918 4.28502
  2414 139.609 4.64047 -4.28778
  2415 137.448 2.80474 -9.15071
  2416 137.456 2.80541 9.15507
  2417 130.795 5.39459 7.34203
  2418 130.794 5.39267 -7.33761
  2419 240.072 15.8362 -9.09534
  2420 148.281 2.66881 1.86824
  2421 202.839 38.5738 -1.06716
  2422 127.864 8.76247 10.8853
  2423 127.865 8.76050 -10.8797
  2424 364.189 23.7654 -12.7475
  2425 262.509 -0.787887 -0.0417228
  2426 262.466 -0.785755 0.0356392
  2427 197.450 7.30273 14.1846
  2428 243.100 -0.528383 -5.24000
  2429 243.106 -0.529231 5.23356
  2430 187.595 0.878150 -20.4603
  2431 187.618 0.873783 20.4562
  2432 71.9028 -1.70355 -26.2450
  2433 71.9589 -1.70838 26.2142
  2434 144.421 0.746623 -5.75398
  2435 144.435 0.746749 5.75648
  2436 206.007 0.998229 -19.9467
  2437 116.570 14.1870 11.9394
  2438 116.576 14.1851 -11.9331
  2439 241.064 -3.82171 -12.4423
  2440 241.063 -3.82704 12.5147
  2441 251.555 49.0485 -0.630122
  2442 166.900 0.241442 -3.23431
  2443 166.924 0.241445 3.23511
  2444 327.200 29.0207 0.640966
  2445 132.083 3.78309 7.29204
  2446 132.080 3.78175 -7.28775
  2447 169.052 -0.282951 -2.37089
  2448 169.039 -0.283519 2.37651
  2449 134.815 4.69325 10.8192
  2450 134.810 4.69220 -10.8140
  2451 161.585 2.37398 10.6986
  2452 142.388 0.0186422 -1.21340
  2453 142.403 0.0186525 1.21398
  2454 149.989 -0.0102286 6.95600
  2455 149.988 -0.0138663 -6.96150
  2456 192.542 -6.33199 10.9303
  2457 153.890 0.0838524 -2.09590
  2458 153.910 0.0838404 2.09667
  2459 136.812 0.669158 0.113437
  2460 209.919 0.957039 21.1653
  2461 161.679 0.421788 -10.4275
  2462 161.787 0.451351 10.4955
  2463 171.779 -10.7226 -1.02000
  2464 171.792 -10.7306 1.03128
  2465 137.186 -0.112583 14.2784
  2466 137.174 -0.118900 -14.2872
  2467 99.1686 16.0036 2.43278
  2468 99.1893 15.9997 -2.42978
  2469 133.873 0.611386 -3.78841
  2470 133.881 0.611630 3.79066
  2471 106.752 9.78501 28.1772
  2472 106.744 9.79631 -28.1616
  2473 266.008 6.63405 -24.6732
  2474 170.004 15.6142 -3.19523
  2475 220.677 -20.1762 -1.04850
  2476 220.630 -20.2595 0.970853
  2477 129.485 7.69062 3.62131
  2478 129.490 7.68774 -3.61862
  2479 168.529 1.82197 13.0457
  2480 360.009 30.6796 -10.6536
  2481 127.268 11.0051 21.7942
  2482 127.264 11.0069 -21.7859
  2483 160.887 7.79192 -5.96292
  2484 146.535 6.08853 39.5413
  2485 163.001 -2.34948 30.8511
  2486 162.972 -2.33723 -30.8551
  2487 274.395 9.12845 23.7376
  2488 130.053 13.1495 -40.7265
  2489 172.741 3.28946 13.8301
  2490 177.001 -8.96385 8.94147
  2491 177.004 -8.95642 -8.93274
  2492 164.341 7.82447 8.74010
  2493 228.605 -12.7358 3.45138
  2494 228.601 -12.6869 -3.48152
  2495 199.746 -25.2244 -11.8298
  2496 199.939 -25.2318 11.8047
  2497 179.076 -5.43349 -27.2609
  2498 179.108 -5.44568 27.2528
  2499 124.886 10.1169 0.385358
  2500 124.877 10.1193 -0.384628
  2501 74.2094 12.0274 3.11535
  2502 74.2481 12.0223 -3.09916
  2503 156.301 1.56143 -10.7008
  2504 156.319 1.56126 10.7038
  2505 184.637 -27.7147 21.1486
  2506 459.642 10.9786 -28.6851
  2507 143.012 -0.605163 33.5752
  2508 142.985 -0.591420 -33.5741
  2509 278.072 14.3408 -15.6696
  2510 169.745 -1.26862 -0.550023
  2511 169.741 -1.26618 0.552677
  2512 198.852 -4.11823 -21.0351
  2513 198.880 -4.12807 21.0216
  2514 117.620 13.6004 20.4178
  2515 117.621 13.6018 -20.4082
  2516 145.638 -26.5024 37.5112
  2517 169.134 1.45677 13.5559
  2518 169.113 1.45765 -13.5540
  2519 154.255 -10.1556 -14.2973
  2520 154.247 -10.1346 14.2821
  2521 365.376 24.4166 9.70304
  2522 96.6019 9.84408 25.7112
  2523 96.6002 9.85506 -25.6918
  2524 159.599 -23.3102 26.1623
  2525 134.137 0.0301670 0.909429
  2526 134.126 0.0301582 -0.908886
  2527 229.079 -0.863341 -25.3784
  2528 132.097 5.42228 -9.70345
  2529 132.099 5.42377 9.70853
  2530 125.823 10.5470 13.0016
  2531 125.824 10.5453 -12.9954
  2532 182.493 0.0795985 3.78494
  2533 182.466 0.0796963 -3.78452
  2534 149.401 -0.567529 7.88304
  2535 149.399 -0.572100 -7.88946
  2536 209.855 9.76881 -7.91805
  2537 259.252 -0.567988 -1.90287
  2538 259.226 -0.567916 1.89420
  2539 176.752 -4.68082 -12.6365
  2540 176.776 -4.69709 12.6410
  2541 157.882 0.696707 7.20312
  2542 157.863 0.696728 -7.20095
  2543 135.434 5.89156 13.5069
  2544 135.428 5.89072 -13.5011
  2545 242.352 21.5031 -9.53935
  2546 162.144 -6.59704 5.16245
  2547 162.154 -6.60872 -5.16333
  2548 184.150 -27.4035 -26.5306
  2549 194.491 5.72122 -14.5190
  2550 191.794 -24.1982 21.3600
  2551 175.464 -16.0719 2.17179
  2552 175.467 -16.0447 -2.14341
  2553 228.604 -2.90568 -21.1448
  2554 149.878 1.57908 5.10259
  2555 149.876 1.57810 -5.10645
  2556 157.594 0.00168654 -7.69681
  2557 157.503 0.116240 7.67584
  2558 67.4347 -26.7883 29.7838
  2559 67.3793 -26.7677 -29.7759
  2560 227.578 46.1207 -1.75104
  2561 174.607 -1.90006 -13.6527
  2562 174.617 -1.92725 13.6140
  2563 19.4154 -48.5389 -7.24541
  2564 19.4945 -48.4598 7.68980
  2565 135.273 6.23594 2.51433
  2566 135.266 6.23818 -2.51551
  2567 141.251 1.06894 6.23087
  2568 141.239 1.06867 -6.22796
  2569 228.810 -2.85098 20.8892
  2570 125.773 11.1974 23.6540
  2571 125.768 11.2006 -23.6452
  2572 198.042 -19.6343 4.95219
  2573 109.451 15.1812 17.5261
  2574 109.457 15.1815 -17.5161
  2575 156.134 4.18991 6.08321
  2576 150.244 1.24071 5.51366
  2577 179.253 -21.6201 8.20527
  2578 180.309 -21.1063 -6.72531
  2579 139.330 0.0546727 1.23114
  2580 139.317 0.0546665 -1.23049
  2581 187.125 -22.4834 7.33353
  2582 122.746 11.0571 4.34464
  2583 122.754 11.0545 -4.34161
  2584 136.949 6.51383 15.7252
  2585 136.942 6.51343 -15.7192
  2586 237.977 12.5377 -17.4499
  2587 158.973 -7.19490 32.0641
  2588 158.940 -7.18281 -32.0669
  2589 130.360 0.00809162 -34.5299
  2590 130.387 -0.00730230 34.5340
  2591 253.856 -0.947497 -4.48463
  2592 253.888 -0.955231 4.50288
  2593 188.985 31.3871 0.214535
  2594 136.054 7.42955 17.3207
  2595 136.047 7.42946 -17.3143
  2596 164.839 -6.60981 3.26295
  2597 164.850 -6.62017 -3.26082
  2598 150.614 -2.86030 9.57768
  2599 150.614 -2.86815 -9.58609
  2600 388.061 26.0347 2.86617
  2601 62.7324 -7.70981 23.6892
  2602 62.7183 -7.67804 -23.6518
  2603 161.027 -0.613491 -3.68928
  2604 161.024 -0.610734 3.68757
  2605 149.044 0.00406839 3.53566
  2606 390.696 20.2382 -58.5927
  2607 175.393 -11.3506 -4.38773
  2608 175.400 -11.3561 4.40210
  2609 239.996 -6.32040 -11.4527
  2610 240.040 -6.35428 11.4839
  2611 210.376 0.0938290 4.14229
  2612 210.350 0.0939506 -4.14322
  2613 221.595 -0.483307 10.4674
  2614 162.437 8.45595 6.08633
  2615 153.990 1.00289 7.45758
  2616 185.245 7.21937 -15.0769
  2617 108.213 14.3103 21.2255
  2618 108.216 14.3133 -21.2132
  2619 131.507 5.04622 8.38028
  2620 131.505 5.04460 -8.37557
  2621 200.811 -0.111237 -4.29500
  2622 200.838 -0.111376 4.29461
  2623 126.154 9.53194 8.04578
  2624 126.157 9.52945 -8.04114
  2625 201.947 34.8384 -6.51023
  2626 239.628 -0.792499 -7.98268
  2627 239.635 -0.828826 8.05070
  2628 237.223 -4.24605 15.8697
  2629 237.229 -4.22299 -15.7998
  2630 159.038 0.0790073 3.81548
  2631 159.040 0.0772977 -3.81785
  2632 232.509 -5.45127 -5.83313
  2633 232.516 -5.44906 5.80884
  2634 342.124 25.9701 -0.893489
  2635 64.0884 -33.2159 -10.8097
  2636 63.2275 -33.9041 10.6180
  2637 248.400 -7.92850 -18.8339
  2638 248.599 -7.67114 18.8379
  2639 134.413 1.82688 -6.26284
  2640 134.420 1.82750 6.26635
  2641 138.753 4.34514 6.13022
  2642 138.746 4.34548 -6.13416
  2643 226.283 -20.4861 3.81190
  2644 226.232 -20.3358 -3.88025
  2645 236.159 35.6485 67.8505
  2646 184.529 -10.5504 29.7010
  2647 185.505 22.0138 10.6252
  2648 148.723 5.92575 -22.2415
  2649 148.737 5.92321 22.2463
  2650 326.960 31.4801 42.2478
  2651 87.5265 14.7347 -1.70915
  2652 87.5584 14.7276 1.71191
  2653 156.589 6.76453 -1.09157
  2654 142.005 -2.43162 14.2461
  2655 141.994 -2.43992 -14.2562
  2656 229.838 0.0567468 -5.16490
  2657 229.856 0.0562934 5.16176
  2658 93.3635 12.8893 -20.5298
  2659 93.3558 12.8835 20.5484
  2660 117.803 13.2293 6.15435
  2661 117.812 13.2267 -6.15056
  2662 167.403 -5.22725 0.452182
  2663 167.412 -5.23475 -0.447226
  2664 175.408 0.780561 -14.3763
  2665 170.760 2.18371 18.8176
  2666 170.739 2.18597 -18.8165
  2667 242.205 -14.0705 8.08475
  2668 242.564 -13.6751 -7.96794
  2669 249.707 -0.288846 -3.86789
  2670 249.705 -0.289387 3.86125
  2671 174.645 -27.1237 -23.7312
  2672 174.741 -27.1385 23.7996
  2673 245.531 -3.79260 1.76958
  2674 245.507 -3.77907 -1.77849
  2675 138.357 1.56091 7.12474
  2676 138.348 1.56054 -7.12123
  2677 201.637 -18.6829 -14.6812
  2678 168.681 -1.01431 4.33541
  2679 168.688 -1.01256 -4.32647
  2680 117.860 13.5342 -10.1345
  2681 117.853 13.5365 10.1400
  2682 163.442 -2.32181 3.12072
  2683 163.447 -2.32695 -3.12068
  2684 134.077 3.98914 -9.28768
  2685 134.082 3.99025 9.29246
  2686 113.443 12.5869 -3.55961
  2687 113.458 12.5859 3.55835
  2688 136.510 0.557699 -1.19995
  2689 230.527 -15.3878 9.39140
  2690 230.488 -15.2981 -9.41891
  2691 157.301 -5.76841 7.94836
  2692 157.307 -5.78022 -7.95442
  2693 282.540 6.77762 5.74299
  2694 171.239 17.7030 1.32241
  2695 161.492 -15.8161 14.6390
  2696 161.661 -15.6867 -14.6340
  2697 127.850 8.84262 2.96959
  2698 127.856 8.83972 -2.96721
  2699 178.386 -13.4673 -26.0409
  2700 178.433 -13.4805 26.0389
  2701 215.122 4.21173 -32.5112
  2702 122.714 11.7633 12.4833
  2703 122.717 11.7615 -12.4772
  2704 127.690 9.81588 14.5787
  2705 127.690 9.81461 -14.5721
  2706 167.781 2.03480 16.2807
  2707 167.761 2.03620 -16.2788
  2708 165.297 3.14991 -11.9144
  2709 159.951 -23.2206 -25.1733
  2710 201.169 2.40137 19.0471
  2711 151.020 5.50319 24.5411
  2712 151.004 5.50729 -24.5371
  2713 293.935 20.2842 -9.71772
  2714 215.196 -24.3313 -2.97043
  2715 215.360 -24.2399 2.79894
  2716 129.559 7.14239 5.33307
  2717 129.562 7.13976 -5.32950
  2718 185.146 6.08301 15.2272
  2719 321.119 34.4989 -44.6717
  2720 154.802 0.753453 -7.77749
  2721 169.639 -5.35794 -2.34649
  2722 169.647 -5.36429 2.35396
  2723 225.599 -0.581936 -9.61614
  2724 225.614 -0.583623 9.60860
  2725 139.798 2.47791 9.47658
  2726 139.788 2.47746 -9.47230
  2727 153.078 4.63839 2.30258
  2728 125.651 9.69962 5.38303
  2729 125.657 9.69686 -5.37952
  2730 214.986 41.4435 4.57732
  2731 170.689 -0.619992 -0.978170
  2732 170.685 -0.618682 0.979337
  2733 136.845 0.977115 5.44734
  2734 136.835 0.976823 -5.44446
  2735 40.7391 -58.1412 2.48873
  2736 40.7956 -58.1809 -2.54778
  2737 105.948 15.7525 5.70665
  2738 105.963 15.7496 -5.70256
  2739 148.471 1.52198 9.27084
  2740 148.456 1.52189 -9.26743
  2741 177.748 11.1814 -13.4506
  2742 159.943 -20.1300 21.6576
  2743 190.212 10.6591 14.6017
  2744 199.687 -13.4078 -17.4941
  2745 199.742 -13.4203 17.4756
  2746 213.480 -2.33032 2.75043
  2747 166.828 1.11661 10.8899
  2748 166.807 1.11704 -10.8878
  2749 185.170 -16.5536 -25.2854
  2750 156.882 3.88400 -18.8458
  2751 156.898 3.88248 18.8494
  2752 175.826 -31.3788 -20.9067
  2753 176.299 -31.3945 21.1923
  2754 214.394 -16.9737 -6.52234
  2755 214.452 -16.9538 6.47770
  2756 231.015 -0.627044 -9.48839
  2757 231.025 -0.629534 9.47737
  2758 119.794 7.50213 12.0698
  2759 119.779 7.49879 -12.0753
  2760 158.781 0.0973514 2.23567
  2761 158.760 0.0973657 -2.23495
  2762 170.083 -3.73200 -3.82933
  2763 170.088 -3.73686 3.83795
  2764 173.065 -23.8676 -16.4449
  2765 116.289 12.5318 1.28412
  2766 116.276 12.5335 -1.28397
  2767 146.056 0.434304 4.60234
  2768 146.041 0.434220 -4.60036
  2769 252.734 -1.44142 12.6624
  2770 131.161 -3.47452 21.7889
  2771 131.139 -3.49126 -21.7947
  2772 174.514 0.472719 -7.99955
  2773 174.537 0.472429 8.00068
  2774 177.458 21.9390 2.19933
  2775 231.467 -9.28230 -16.5507
  2776 157.567 -8.44241 -10.1696
  2777 157.559 -8.42684 10.1606
  2778 236.534 -9.71234 -17.3336
  2779 236.625 -9.73970 17.3529
  2780 151.286 0.426702 5.26966
  2781 151.268 0.426699 -5.26770
  2782 126.551 9.33955 6.82009
  2783 126.556 9.33691 -6.81593
  2784 186.448 -23.8455 -8.40403
  2785 183.315 18.1757 -11.8122
  2786 271.010 6.17065 -16.7733
  2787 130.063 6.30114 -8.05768
  2788 130.063 6.30316 8.06233
  2789 253.283 35.1136 -4.69833
  2790 170.258 -27.2008 -36.8766
  2791 225.983 -0.0377776 -4.77342
  2792 226.004 -0.0381578 4.77118
  2793 217.331 11.1683 12.7600
  2794 133.416 6.86195 -1.33438
  2795 133.423 6.85939 1.33408
  2796 124.009 10.7063 -5.95669
  2797 124.002 10.7090 5.96047
  2798 136.062 1.71712 -6.69419
  2799 136.070 1.71763 6.69774
  2800 105.437 -31.5875 -46.2613
  2801 239.478 -0.497555 -4.53001
  2802 239.489 -0.498172 4.52557
  2803 254.523 19.5193 6.53461
  2804 137.806 3.61032 10.8583
  2805 137.798 3.60964 -10.8533
  2806 166.793 -0.140612 2.38386
  2807 166.813 -0.140313 -2.37829
  2808 102.998 -31.4196 46.4073
  2809 174.853 -18.2000 26.0273
  2810 174.800 -18.1889 -26.0189
  2811 156.936 3.75079 -27.8767
  2812 156.956 3.74362 27.8780
  2813 182.505 16.2496 12.6416
  2814 203.155 -16.7734 -5.67437
  2815 113.088 15.0990 -10.7556
  2816 113.079 15.1012 10.7617
  2817 171.124 -1.47395 -1.56581
  2818 171.126 -1.47642 1.57138
  2819 139.037 6.67261 17.9531
  2820 139.029 6.67285 -17.9468
  2821 120.273 10.1685 5.91523
  2822 120.259 10.1688 -5.91732
  2823 97.9501 15.6773 14.5815
  2824 97.9636 15.6773 -14.5691
  2825 206.967 21.2064 -54.0351
  2826 129.685 9.62852 27.1598
  2827 129.675 9.63478 -27.1515
  2828 204.386 0.0339008 -14.2968
  2829 204.408 0.0316257 14.2920
  2830 131.917 9.28197 19.2132
  2831 131.912 9.28240 -19.2060
  2832 144.990 0.236222 3.03764
  2833 124.211 10.7425 -10.6491
  2834 124.208 10.7446 10.6547
  2835 140.318 -5.23366 -18.2515
  2836 140.331 -5.21961 18.2380
  2837 146.436 1.57662 -3.94450
  2838 173.375 -6.32474 -9.54213
  2839 173.389 -6.32880 9.55312
  2840 145.111 1.76519 6.91997
  2841 145.106 1.76347 -6.92527
  2842 133.538 6.03537 12.3324
  2843 133.534 6.03422 -12.3267
  2844 129.385 4.60422 12.0685
  2845 129.371 4.60113 -12.0742
  2846 153.258 4.98548 -26.9610
  2847 153.276 4.97935 26.9637
  2848 243.854 -3.70190 -0.842114
  2849 243.838 -3.69383 0.826355
  2850 131.068 7.61458 1.93920
  2851 131.060 7.61692 -1.93969
  2852 169.878 -16.5210 -8.09588
  2853 169.952 -16.4134 7.91666
  2854 149.039 0.234957 -3.60917
  2855 149.056 0.234979 3.61062
  2856 124.997 11.6726 18.6970
  2857 124.996 11.6726 -18.6892
  2858 173.032 -23.7863 24.5952
  2859 171.049 -24.5787 -23.9010
  2860 175.712 -0.122038 -0.0120088
  2861 175.716 -0.122247 0.0130352
  2862 135.186 2.31815 -7.51331
  2863 135.193 2.31884 7.51730
  2864 210.715 -20.9234 -6.49378
  2865 210.812 -20.9040 6.44256
  2866 123.705 2.67010 -17.9623
  2867 123.720 2.67958 17.9545
  2868 141.504 0.383224 -3.88703
  2869 141.517 0.383318 3.88891
  2870 65.9107 6.31652 -10.5861
  2871 65.9761 6.30358 10.5904
  2872 233.112 -0.921220 26.1672
  2873 125.594 9.43536 -2.64323
  2874 125.605 9.43349 2.64271
  2875 141.211 2.60306 -7.99549
  2876 141.218 2.60450 7.98982
  2877 128.590 7.64617 6.41921
  2878 128.593 7.64363 -6.41519
  2879 142.402 -34.8919 -28.0465
  2880 142.852 -34.4152 27.1379
  2881 183.438 -10.3491 9.26311
  2882 183.336 -10.2442 -9.34137
  2883 96.3254 -7.15238 33.9898
  2884 96.2902 -7.12731 -33.9782
  2885 160.295 5.24952 8.69535
  2886 169.790 -2.47275 4.92086
  2887 169.789 -2.46915 -4.91114
  2888 155.328 -5.98932 9.50683
  2889 155.332 -6.00155 -9.51519
  2890 57.5724 3.87741 -5.00875
  2891 57.5218 3.87704 5.04276
  2892 104.859 13.0945 23.7482
  2893 104.860 13.1007 -23.7336
  2894 160.449 0.412968 5.52468
  2895 160.428 0.412985 -5.52307
  2896 171.565 8.83095 12.0404
  2897 227.068 -1.80537 -16.2029
  2898 110.833 4.83926 -32.1109
  2899 110.850 4.82304 32.1237
  2900 134.931 3.72537 -9.46991
  2901 134.937 3.72634 9.47466
  2902 228.789 -8.82640 -2.97603
  2903 228.799 -8.81065 2.94793
  2904 168.255 -0.0302571 -12.7543
  2905 151.951 1.28302 -6.76498
  2906 132.816 0.00952805 0.766136
  2907 132.806 0.00953021 -0.765677
  2908 251.437 -8.45229 4.26644
  2909 251.268 -8.32400 -3.91620
  2910 147.448 2.27973 5.07491
  2911 147.445 2.27937 -5.07871
  2912 134.434 2.28616 -7.01559
  2913 134.441 2.28690 7.01946
  2914 142.823 2.16578 9.63538
  2915 142.812 2.16548 -9.63138
  2916 176.119 -19.6648 -7.36045
  2917 175.863 -19.7420 7.51061
  2918 341.208 23.2698 -10.2887
  2919 210.528 5.23366 -20.3819
  2920 153.937 0.193597 -6.59857
  2921 344.230 19.6735 -30.5891
  2922 179.708 24.6433 -2.14836
  2923 295.410 26.6328 1.51571
  2924 212.658 -4.41366 24.2377
  2925 202.461 -5.73849 8.06682
  2926 144.508 0.222068 -2.87828
  2927 129.813 7.20649 10.0372
  2928 129.813 7.20459 -10.0319
  2929 213.721 -22.1015 -9.93987
  2930 215.030 -21.7225 9.10391
  2931 332.337 22.4374 70.0473
  2932 246.088 23.8383 35.5816
  2933 131.884 8.56719 -16.2361
  2934 131.888 8.56785 16.2428
  2935 278.943 33.6528 21.4116
  2936 196.764 -2.07666 -21.1406
  2937 196.789 -2.08487 21.1294
  2938 137.670 0.172905 -2.31891
  2939 137.682 0.172960 2.32013
  2940 157.496 -0.363329 4.48685
  2941 157.497 -0.366176 -4.48967
  2942 166.676 -3.50301 -1.24451
  2943 166.669 -3.49714 1.24775
  2944 143.695 6.85908 24.0805
  2945 143.682 6.86248 -24.0749
  2946 170.131 -4.04654 9.66629
  2947 170.123 -4.04810 -9.65200
  2948 161.558 -4.43681 4.56408
  2949 161.565 -4.44559 -4.56506
  2950 139.081 0.640445 2.02709
  2951 177.493 20.3887 6.30374
  2952 248.580 4.78912 24.8837
  2953 138.432 0.520622 -4.10254
  2954 138.443 0.520769 4.10468
  2955 166.309 5.46128 -11.4562
  2956 139.923 0.955306 5.85049
  2957 139.912 0.955080 -5.84765
  2958 162.374 -0.488042 -3.27948
  2959 162.372 -0.485780 3.27810
  2960 123.859 9.85281 -3.39123
  2961 123.871 9.85138 3.39042
  2962 462.919 11.9972 28.4587
  2963 182.368 1.14171 13.3589
  2964 182.345 1.14283 -13.3587
  2965 147.671 0.835243 -6.61314
  2966 147.686 0.835327 6.61574
  2967 168.287 -0.0636081 12.7805
  2968 141.805 4.57924 14.6365
  2969 141.795 4.57902 -14.6312
  2970 136.900 4.78146 12.5229
  2971 136.893 4.78072 -12.5174
  2972 149.167 -4.81092 -12.4650
  2973 149.171 -4.80019 12.4532
  2974 128.452 7.74685 7.77204
  2975 128.455 7.74449 -7.76749
  2976 214.112 43.2544 0.283300
  2977 73.8383 5.74333 -17.3807
  2978 73.8963 5.72941 17.3679
  2979 159.398 1.11649 -9.75969
  2980 124.629 11.1074 25.5824
  2981 124.623 11.1124 -25.5730
  2982 150.301 0.919237 5.78895
  2983 150.299 0.917193 -5.79335
  2984 213.326 20.4856 55.3336
  2985 146.713 4.71646 17.4728
  2986 146.701 4.71711 -17.4677
  2987 94.7754 -8.07109 -37.0772
  2988 221.389 4.58680 23.0959
  2989 139.302 -7.09263 21.4120
  2990 139.278 -7.10278 -21.4293
  2991 166.302 -1.09450 -5.79037
  2992 166.294 -1.09482 5.80033
  2993 172.104 2.75517 -13.7264
  2994 247.469 5.12471 -24.2968
  2995 142.383 6.73400 21.4605
  2996 142.372 6.73583 -21.4545
  2997 346.078 20.4486 21.1544
  2998 256.652 43.7258 2.08256
  2999 22.2677 -51.5931 -6.94920
  3000 22.3737 -51.7697 6.92624
  3001 172.833 -12.6135 -0.0241358
  3002 172.850 -12.6220 0.0401418
  3003 145.622 1.17348 -7.83908
  3004 145.636 1.17359 7.84229
  3005 275.945 17.8080 14.8636
  3006 90.2221 -0.580835 30.1409
  3007 90.2010 -0.557662 -30.1193
  3008 93.8709 16.2198 6.83164
  3009 93.8925 16.2163 -6.82353
  3010 163.215 10.3942 -3.73073
  3011 197.092 -0.00532289 -19.0385
  3012 197.114 -0.00996001 19.0314
  3013 116.658 12.3526 24.3339
  3014 116.655 12.3575 -24.3227
  3015 192.625 0.363574 13.9488
  3016 299.320 28.0633 -76.1315
  3017 160.025 2.77054 -17.2098
  3018 160.043 2.76928 17.2129
  3019 160.989 3.50315 20.7468
  3020 160.971 3.50571 -20.7441
  3021 155.155 0.768688 7.50913
  3022 155.137 0.768723 -7.50670
  3023 166.183 -2.09547 1.95746
  3024 166.188 -2.09965 -1.95597
  3025 124.135 10.5271 -2.95763
  3026 124.127 10.5298 2.96003
  3027 315.339 17.1278 -27.9343
  3028 135.035 0.374975 3.19341
  3029 135.025 0.374857 -3.19159
  3030 172.239 -0.273005 -0.879541
  3031 172.234 -0.272369 0.880219
  3032 147.557 0.123642 1.49252
  3033 147.539 0.123604 -1.49186
  3034 90.8785 4.79427 22.4528
  3035 90.8436 4.80105 -22.4718
  3036 171.400 -1.54176 -13.1786
  3037 171.459 -1.54173 13.1844
  3038 179.576 0.227124 14.5670
  3039 179.168 0.219516 -2.77800
  3040 179.195 0.219496 2.77836
  3041 237.726 -12.4600 -17.0694
  3042 237.794 -12.4752 17.1157
  3043 133.300 6.65426 13.2837
  3044 133.296 6.65314 -13.2778
  3045 134.585 -0.359482 -16.2102
  3046 134.600 -0.351711 16.2009
  3047 152.567 -0.505492 6.42368
  3048 152.567 -0.509573 -6.42857
  3049 274.936 44.2731 -5.54494
  3050 161.715 -1.19693 -3.61183
  3051 161.711 -1.19331 3.61055
  3052 145.660 5.97556 20.2129
  3053 145.648 5.97694 -20.2075
  3054 298.959 20.0639 8.91325
  3055 81.5595 8.11943 -15.8884
  3056 81.6052 8.11040 15.8774
  3057 123.515 9.31964 -5.46055
  3058 123.527 9.31895 5.45866
  3059 177.583 -18.0174 3.22079
  3060 177.492 -18.0363 -3.27495
  3061 134.963 1.08839 -5.16761
  3062 134.971 1.08876 5.17051
  3063 82.1870 12.3673 15.6687
  3064 82.2047 12.3712 -15.6469
  3065 170.307 -2.50345 3.40905
  3066 170.304 -2.49967 -3.40087
  3067 217.520 11.9509 4.71884
  3068 130.025 -28.2326 43.5394
  3069 159.485 -11.8854 -12.1538
  3070 159.483 -11.8579 12.1605
  3071 163.260 -26.8847 -27.4172
  3072 144.249 1.30799 7.98636
  3073 144.244 1.30548 -7.99247
  3074 169.832 -7.87683 -1.67141
  3075 169.842 -7.88455 1.67935
  3076 67.9767 -10.5026 -33.4090
  3077 68.0205 -10.5067 33.3945
  3078 198.853 0.127457 10.3575
  3079 146.061 2.07499 0.111492
  3080 121.701 10.4236 -2.22638
  3081 121.713 10.4219 2.22616
  3082 97.0530 -16.4369 -35.4604
  3083 97.1039 -16.4613 35.4615
  3084 156.844 5.62232 -4.93447
  3085 172.058 32.7958 -66.4361
  3086 154.649 -31.4131 38.7691
  3087 263.049 -0.608855 -0.900649
  3088 263.098 -0.611371 0.897537
  3089 153.903 0.219341 6.54467
  3090 134.364 6.41077 -3.27563
  3091 134.372 6.40877 3.27404
  3092 186.693 -0.864478 23.9924
  3093 186.669 -0.856810 -23.9999
  3094 185.227 1.18671 -17.8910
  3095 185.249 1.18392 17.8891
  3096 186.881 0.00767336 -3.10486
  3097 186.908 0.00759626 3.10514
  3098 173.452 -0.0297115 -0.491223
  3099 173.446 -0.0296533 0.491003
  3100 10.1951 -114.264 8.25991
  3101 10.5082 -114.214 -8.73828
  3102 140.713 -0.0158859 -1.36429
  3103 140.727 -0.0159037 1.36498
  3104 173.025 -8.02406 28.6821
  3105 172.990 -8.01106 -28.6878
  3106 187.494 0.959327 14.4094
  3107 170.184 5.89018 12.7374
  3108 131.645 4.35405 7.34750
  3109 131.644 4.35250 -7.34314
  3110 282.266 24.1335 -0.651919
  3111 127.615 8.62371 9.00328
  3112 127.617 8.62144 -8.99827
  3113 46.6924 -15.4299 -16.7242
  3114 46.6974 -15.4687 16.7777
  3115 163.730 -0.0714208 -2.79141
  3116 163.727 -0.0701817 2.79003
  3117 153.005 3.61179 17.3291
  3118 152.990 3.61278 -17.3249
  3119 165.408 2.84702 11.9703
  3120 144.248 1.82953 -1.67257
  3121 171.892 -0.169704 -0.981045
  3122 171.887 -0.169210 0.981287
  3123 172.619 -0.685836 0.114705
  3124 172.616 -0.684683 -0.111949
  3125 152.637 1.39874 9.59517
  3126 152.620 1.39876 -9.59204
  3127 163.089 -0.894626 6.77120
  3128 163.098 -0.901101 -6.76319
  3129 144.859 -2.74005 -12.7656
  3130 144.867 -2.73233 12.7550
  3131 200.880 -8.26808 -7.08183
  3132 159.918 4.41849 -8.83501
  3133 201.365 24.6030 -12.1856
  3134 95.3944 13.3661 -7.16101
  3135 95.4217 13.3613 7.15636
  3136 133.437 2.05525 6.17563
  3137 133.432 2.05451 -6.17202
  3138 141.079 -16.0259 -29.4021
  3139 141.177 -15.9910 29.1843
  3140 159.604 1.25119 9.97985
  3141 133.773 1.24299 -5.09541
  3142 133.780 1.24346 5.09838
  3143 224.330 5.31536 -23.3520
  3144 148.361 4.56239 -29.6630
  3145 148.381 4.55347 29.6655
  3146 249.747 -1.70602 -2.84968
  3147 249.730 -1.70513 2.83489
  3148 79.0461 6.83932 21.7451
  3149 79.0503 6.85284 -21.7169
  3150 37.7411 -12.4873 -0.0329217
  3151 37.6459 -12.4903 0.100462
  3152 214.860 -6.36034 8.46550
  3153 251.708 -3.79342 -11.2533
  3154 158.775 -28.3611 32.5650
  3155 110.327 1.75108 -23.4955
  3156 110.344 1.75764 23.4736
  3157 247.614 -0.958381 -5.06891
  3158 247.606 -0.959571 5.05509
  3159 179.040 0.321116 7.60261
  3160 179.015 0.321388 -7.60183
  3161 135.796 0.0615583 -1.09837
  3162 135.808 0.0615907 1.09901
  3163 159.758 -1.36733 4.25344
  3164 159.762 -1.37163 -4.25547
  3165 227.899 -1.44762 16.2382
  3166 168.547 -1.39296 1.21509
  3167 168.552 -1.39569 -1.21324
  3168 204.145 -17.6141 11.1547
  3169 168.264 -4.19639 -0.316905
  3170 168.270 -4.20250 0.322382
  3171 128.924 7.20920 7.25099
  3172 128.912 7.20943 -7.25417
  3173 129.033 10.3026 20.1245
  3174 129.029 10.3034 -20.1168
  3175 161.865 1.21023 11.0156
  3176 161.845 1.21058 -11.0130
  3177 171.609 -30.8978 -30.8103
  3178 141.202 2.99203 32.3952
  3179 141.179 3.00457 -32.3921
  3180 188.920 -4.92670 24.1693
  3181 188.887 -4.91506 -24.1804
  3182 175.164 -0.0105799 -0.348871
  3183 175.158 -0.0105019 0.349028
  3184 143.032 0.400938 -3.74515
  3185 143.046 0.401048 3.74692
  3186 195.278 35.2399 1.95099
  3187 166.743 -31.3226 -24.8630
  3188 166.779 -31.2678 25.0689
  3189 175.468 0.319653 14.2040
  3190 209.147 -16.3687 10.4927
  3191 209.082 -16.3685 -10.5247
  3192 194.671 31.7654 6.90807
  3193 173.378 -7.74167 7.64333
  3194 173.368 -7.73662 -7.63454
  3195 130.100 7.69099 1.86877
  3196 130.106 7.68813 -1.86706
  3197 235.696 -2.10670 13.5673
  3198 235.830 -2.03358 -13.5316
  3199 189.348 -8.36455 -10.4930
  3200 112.159 15.1558 -8.19989
  3201 112.149 15.1584 8.20484
  3202 175.911 7.60737 -13.9261
  3203 152.061 0.645777 -6.50248
  3204 152.079 0.645780 6.50479
  3205 182.564 5.23893 5.45465
  3206 230.300 3.90023 -25.2529
  3207 157.786 2.77669 15.3928
  3208 157.769 2.77741 -15.3893
  3209 191.673 30.0782 61.8556
  3210 163.077 0.429668 6.04779
  3211 163.056 0.429713 -6.04617
  3212 209.765 37.0490 7.78594
  3213 166.451 5.03620 11.7584
  3214 174.316 12.6658 -10.9730
  3215 172.460 -7.88142 -5.61618
  3216 172.469 -7.88722 5.62513
  3217 122.453 11.8796 10.6478
  3218 122.458 11.8775 -10.6422
  3219 231.916 9.70557 18.9301
  3220 188.217 -7.40860 11.0233
  3221 130.878 -34.7281 -30.2371
  3222 131.984 -34.6148 29.5830
  3223 255.476 -5.54234 -12.4849
  3224 238.899 -5.50051 24.3344
  3225 238.885 -5.67494 -24.4045
  3226 161.113 -5.34295 5.19077
  3227 161.121 -5.35306 -5.19230
  3228 54.8314 -1.71953 -11.1858
  3229 54.8006 -1.73104 11.2339
  3230 171.167 -0.248677 1.74617
  3231 171.176 -0.248168 -1.74187
  3232 133.258 4.70815 -9.81931
  3233 133.262 4.70940 9.82433
  3234 195.626 -17.1248 0.352420
  3235 166.599 -14.6520 8.85015
  3236 166.608 -14.6612 -8.95120
  3237 128.996 8.46599 1.90847
  3238 129.003 8.46310 -1.90665
  3239 146.773 -5.95257 -34.4436
  3240 146.804 -5.96514 34.4425
  3241 170.093 0.144478 -28.1363
  3242 170.118 0.135042 28.1323
  3243 147.242 2.05311 3.25687
  3244 169.772 -2.43879 -0.807556
  3245 169.776 -2.44258 0.812690
  3246 168.399 0.437372 6.76607
  3247 168.376 0.437530 -6.76462
  3248 211.371 11.2967 11.0110
  3249 151.581 -1.56314 7.79692
  3250 151.580 -1.56900 -7.80325
  3251 83.0610 -30.2825 -31.6082
  3252 83.1400 -30.2792 31.6039
  3253 129.589 6.74921 7.08559
  3254 129.591 6.74689 -7.08129
  3255 166.099 -1.84284 -9.68152
  3256 166.096 -1.83089 9.69011
  3257 136.866 2.45002 -8.29796
  3258 136.874 2.45065 8.30209
  3259 180.602 -9.82973 -26.2641
  3260 180.641 -9.84364 26.2567
  3261 169.716 -4.14499 2.49641
  3262 169.710 -4.13961 -2.48895
  3263 153.825 1.92377 11.3789
  3264 153.809 1.92389 -11.3755
  3265 162.692 -14.1599 11.9105
  3266 162.636 -14.0975 -11.8843
  3267 170.454 -1.79719 0.634516
  3268 170.450 -1.79432 -0.629950
  3269 249.217 7.43777 23.4639
  3270 181.495 1.32375 15.2866
  3271 181.473 1.32530 -15.2867
  3272 173.656 -0.313453 -0.345838
  3273 173.652 -0.312806 0.347167
  3274 232.544 38.1619 -4.17169
  3275 192.800 -23.9489 10.9811
  3276 171.993 -0.818424 -1.98831
  3277 171.992 -0.819876 1.99387
  3278 143.699 -4.78534 -15.6531
  3279 143.711 -4.77315 15.6418
  3280 198.361 -7.65723 -31.0917
  3281 122.598 11.9829 -14.2115
  3282 122.595 11.9844 14.2183
  3283 25.8824 -82.6729 -5.89631
  3284 30.3737 -72.4747 12.1205
  3285 126.721 -3.33445 -23.9742
  3286 126.725 -3.31045 23.9672
  3287 255.882 -5.20720 12.5095
  3288 134.417 0.151637 -1.80777
  3289 134.427 0.151709 1.80883
  3290 101.126 13.3746 -6.27361
  3291 101.149 13.3718 6.26953
  3292 22.5852 -38.3016 -2.65754
  3293 22.6011 -38.3951 2.80205
  3294 212.679 0.0516224 -11.5367
  3295 212.700 0.0499559 11.5317
  3296 169.243 -21.2111 -15.5843
  3297 192.926 -0.704704 -13.3790
  3298 227.338 16.0353 2.72813
  3299 131.030 7.56379 -0.879417
  3300 131.024 7.56665 0.880568
  3301 143.668 -0.0152197 -1.03624
  3302 143.684 -0.0152613 1.03675
  3303 167.738 -0.0240907 -1.95535
  3304 167.734 -0.0234963 1.95449
  3305 145.140 2.96337 12.5515
  3306 145.128 2.96328 -12.5470
  3307 169.889 -10.2824 -0.696710
  3308 169.873 -10.2714 0.705464
  3309 220.979 9.93204 -4.37162
  3310 155.249 -0.503649 -5.35932
  3311 155.248 -0.500029 5.35561
  3312 145.963 1.19554 4.55290
  3313 243.078 -0.723369 -6.23070
  3314 243.079 -0.724972 6.21929
  3315 91.0941 -12.0071 38.5978
  3316 91.1055 -11.9212 -38.6874
  3317 160.865 8.54880 3.36061
  3318 172.845 -4.42655 11.7846
  3319 172.829 -4.43326 -11.7640
  3320 175.530 -9.53234 7.13549
  3321 175.526 -9.52880 -7.12576
  3322 232.848 -16.8012 10.6418
  3323 232.794 -16.6949 -10.6561
  3324 113.071 -5.79041 28.0359
  3325 265.243 2.03639 -17.9491
  3326 222.352 19.7359 -7.96849
  3327 108.518 11.1058 26.8990
  3328 108.513 11.1146 -26.8847
  3329 277.985 13.5620 16.2651
  3330 106.494 16.1946 9.38536
  3331 106.507 16.1921 -9.37911
  3332 134.708 5.25156 -11.7478
  3333 134.713 5.25262 11.7533
  3334 224.590 -6.08385 -8.83130
  3335 224.609 -6.08604 8.80638
  3336 128.280 8.26296 -10.0519
  3337 128.279 8.26502 10.0572
  3338 113.496 7.34348 -14.8256
  3339 113.512 7.34849 14.8165
  3340 129.838 8.20343 12.6029
  3341 129.836 8.20188 -12.5970
  3342 197.943 -0.269886 -10.4494
  3343 144.760 3.82349 14.2108
  3344 144.748 3.82346 -14.2059
  3345 162.071 -2.82504 3.77286
  3346 162.076 -2.83124 -3.77349
  3347 212.278 0.0574386 -9.31674
  3348 316.114 18.3844 1.65746
  3349 50.1343 -32.6294 -22.5412
  3350 50.1844 -32.6657 22.5423
  3351 92.1654 7.40628 -26.5081
  3352 92.1702 7.39148 26.5300
  3353 163.276 2.45229 -28.3745
  3354 163.299 2.44395 28.3732
  3355 234.752 -5.84087 -3.16373
  3356 234.753 -5.83305 3.14068
  3357 159.054 3.12128 9.21168
  3358 171.349 -13.7244 -2.78673
  3359 171.311 -13.7048 2.80668
  3360 214.945 11.5678 1.03862
  3361 92.8578 14.9003 15.4143
  3362 92.8725 14.9017 -15.3985
  3363 232.491 -9.02590 0.476794
  3364 232.489 -8.99937 -0.499600
  3365 172.495 -23.3279 15.5362
  3366 211.553 37.6258 -7.07374
  3367 120.124 12.5424 6.04951
  3368 120.132 12.5398 -6.04571
  3369 129.991 8.59596 -14.2665
  3370 129.993 8.59716 14.2728
  3371 137.296 -10.4432 26.5157
  3372 137.330 -10.5542 -26.5261
  3373 252.085 -1.95235 -1.16732
  3374 252.060 -1.94893 1.15467
  3375 188.708 0.214971 -21.5492
  3376 188.731 0.209465 21.5436
  3377 215.395 -10.9184 -10.5096
  3378 215.432 -10.9190 10.4798
  3379 169.262 -0.622936 -1.48104
  3380 169.258 -0.621530 1.48152
  3381 121.889 9.20195 -29.5505
  3382 121.900 9.19221 29.5605
  3383 202.542 -7.90678 19.0481
  3384 202.507 -7.89512 -19.0653
  3385 45.0551 -54.6997 -15.4795
  3386 45.0396 -54.6390 15.4425
  3387 132.942 0.0807417 -1.41999
  3388 132.951 0.0807429 1.42086
  3389 208.164 13.3889 -12.6835
  3390 130.559 5.63936 6.93274
  3391 130.559 5.63730 -6.92848
  3392 132.616 2.88397 -6.83337
  3393 132.620 2.88505 6.83739
  3394 113.326 7.64568 -30.6653
  3395 113.340 7.63211 30.6780
  3396 171.742 0.00933957 -0.993564
  3397 174.246 -0.0108277 0.386961
  3398 171.737 0.00947019 0.993116
  3399 174.252 -0.0108761 -0.387075
  3400 183.650 -19.2318 2.14446
  3401 183.516 -19.2867 -1.97933
  3402 118.755 5.73486 -15.6292
  3403 118.770 5.74114 15.6214
  3404 125.693 -22.1266 35.3617
  3405 125.667 -22.1308 -35.3848
  3406 190.567 0.319551 12.0656
  3407 190.543 0.320609 -12.0665
  3408 136.660 0.172614 1.42514
  3409 168.055 -11.1577 3.23825
  3410 168.077 -11.1736 -3.23280
  3411 152.082 2.98762 14.9750
  3412 152.067 2.98811 -14.9709
  3413 170.362 -2.27498 1.68405
  3414 170.358 -2.27156 -1.67786
  3415 430.978 15.2680 53.4318
  3416 137.629 1.21787 -6.17154
  3417 137.638 1.21821 6.17471
  3418 141.691 5.59306 16.9847
  3419 141.681 5.59322 -16.9789
  3420 44.5781 -10.2481 -9.10236
  3421 44.5415 -10.2709 9.16663
  3422 132.952 5.74848 6.86313
  3423 132.942 5.74879 -6.86675
  3424 74.2160 11.1637 -4.11820
  3425 74.2639 11.1538 4.12600
  3426 268.382 5.74225 18.3909
  3427 186.006 3.81595 -12.3992
  3428 165.149 -3.39729 2.28438
  3429 165.155 -3.40353 -2.28265
  3430 142.493 -11.2868 23.9316
  3431 142.563 -11.4891 -23.9354
  3432 133.768 7.51187 15.4884
  3433 133.763 7.51116 -15.4820
  3434 171.834 1.71341 16.6309
  3435 171.813 1.71501 -16.6296
  3436 238.463 -7.38413 6.11701
  3437 238.436 -7.34492 -6.11938
  3438 136.126 4.69424 -7.36014
  3439 136.135 4.69435 7.35580
  3440 116.851 -2.13480 -26.5608
  3441 116.870 -2.12113 26.5264
  3442 115.243 2.50685 -21.0246
  3443 115.257 2.51811 21.0093
  3444 337.676 29.3408 0.0852721
  3445 50.3309 -46.6812 32.0257
  3446 261.319 -0.423569 2.19840
  3447 261.269 -0.420494 -2.19402
  3448 294.646 10.8201 3.18779
  3449 153.610 -2.10320 7.13326
  3450 153.611 -2.10960 -7.13882
  3451 136.508 0.377051 -3.37353
  3452 136.518 0.377163 3.37539
  3453 133.823 2.59892 -7.21537
  3454 133.828 2.59979 7.21940
  3455 57.1479 -0.166488 -14.6905
  3456 57.2336 -0.176363 14.6946
  3457 213.250 -1.95212 15.9565
  3458 213.231 -1.94667 -15.9697
  3459 99.7862 -3.84081 -32.0666
  3460 99.8002 -3.85284 32.0602
  3461 154.523 2.30293 7.56207
  3462 122.229 12.5121 20.7490
  3463 122.228 12.5134 -20.7403
  3464 147.871 0.574195 4.91814
  3465 164.046 -0.912277 -9.79630
  3466 164.044 -0.903321 9.80105
  3467 186.217 -1.48410 -14.1057
  3468 164.658 0.0233826 2.11553
  3469 164.634 0.0233883 -2.11492
  3470 128.068 8.25775 5.96180
  3471 128.072 8.25507 -5.95799
  3472 233.315 -11.1007 7.13659
  3473 233.288 -11.0436 -7.14776
  3474 148.475 2.52742 -3.24675
  3475 124.839 10.5351 9.69137
  3476 124.843 10.5328 -9.68616
  3477 222.890 -0.168898 -9.24053
  3478 222.908 -0.170472 9.23444
  3479 110.459 -0.852425 -34.6977
  3480 110.486 -0.871768 34.7070
  3481 106.383 -2.60745 29.6762
  3482 106.356 -2.59243 -29.6967
  3483 154.141 4.60772 21.9117
  3484 154.125 4.61044 -21.9080
  3485 143.510 1.42380 3.25774
  3486 170.753 12.9212 8.58956
  3487 137.435 5.50231 3.27858
  3488 137.429 5.50423 -3.28045
  3489 133.562 0.389273 3.06350
  3490 133.553 0.389106 -3.06164
  3491 71.1634 -14.5066 29.0297
  3492 147.755 0.532797 -4.89746
  3493 147.771 0.532892 4.89945
  3494 125.523 10.4094 -11.6691
  3495 125.521 10.4114 11.6749
  3496 145.969 2.11236 6.10978
  3497 145.965 2.11132 -6.11440
  3498 152.042 1.18452 4.85658
  3499 152.041 1.18336 -4.86019
  3500 151.771 -0.0192709 2.80646
  3501 151.700 -0.0186539 -2.82093
  3502 197.641 -15.3797 -1.57672
  3503 203.537 -26.4906 -10.6749
  3504 204.236 -26.6564 10.2722
  3505 166.828 13.4583 2.38676
  3506 130.177 6.44010 8.70504
  3507 130.177 6.43816 -8.70016
  3508 71.2510 -12.4985 29.8720
  3509 71.2145 -12.4645 -29.8469
  3510 164.352 5.82675 10.3149
  3511 150.826 3.99183 16.6830
  3512 150.812 3.99249 -16.6785
  3513 167.562 -0.260251 1.94103
  3514 167.566 -0.261306 -1.94144
  3515 103.601 11.4037 -10.8134
  3516 103.623 11.4028 10.8054
  3517 113.934 14.8270 15.2548
  3518 113.940 14.8261 -15.2466
  3519 144.367 6.22156 -28.1450
  3520 144.384 6.21424 28.1493
  3521 189.841 -25.7891 -14.6258
  3522 129.418 6.93553 7.66147
  3523 129.419 6.93330 -7.65695
  3524 54.5968 -43.1943 -34.7842
  3525 138.929 4.91692 13.7890
  3526 138.920 4.91641 -13.7835
  3527 130.626 5.71422 -7.79679
  3528 130.626 5.71613 7.80134
  3529 391.807 26.4344 -4.71621
  3530 122.595 7.45199 31.0797
  3531 122.580 7.46398 -31.0700
  3532 188.537 26.9411 8.12597
  3533 265.252 1.82025 18.2966
  3534 129.684 -0.739879 -19.3115
  3535 129.702 -0.728031 19.3039
  3536 149.325 2.57409 -12.6792
  3537 149.339 2.57401 12.6833
  3538 241.512 -8.92265 21.4584
  3539 241.479 -9.06298 -21.3949
  3540 162.044 0.0577556 -3.09641
  3541 162.042 0.0590978 3.09472
  3542 302.995 13.3601 -0.0191751
  3543 130.818 7.12411 11.7982
  3544 130.816 7.12258 -11.7925
  3545 141.414 1.34989 7.31234
  3546 141.403 1.34960 -7.30901
  3547 158.326 -13.6047 -31.5790
  3548 158.360 -13.6125 31.5819
  3549 164.838 -0.246985 -2.57339
  3550 164.835 -0.245557 2.57243
  3551 132.387 7.08244 -3.12922
  3552 132.395 7.08039 3.12793
  3553 161.975 0.0223285 -2.40901
  3554 161.944 0.0242631 2.41350
  3555 474.078 8.94333 -10.9908
  3556 169.924 -4.15289 -8.44405
  3557 169.931 -4.15470 8.45635
  3558 175.342 0.679820 8.62715
  3559 143.264 0.105611 10.4728
  3560 143.256 0.101271 -10.4809
  3561 130.876 6.25687 -9.73382
  3562 130.878 6.25860 9.73899
  3563 147.095 -31.7522 -30.1057
  3564 147.006 -31.6119 30.1300
  3565 101.267 14.9154 -1.30199
  3566 101.287 14.9120 1.30195
  3567 134.869 1.44982 -5.87864
  3568 134.876 1.45030 5.88190
  3569 180.823 0.138149 -24.6049
  3570 180.847 0.130914 24.5994
  3571 150.738 -24.3697 -32.8883
  3572 123.675 11.0724 8.38726
  3573 123.680 11.0698 -8.38251
  3574 240.304 -2.18865 -6.87731
  3575 240.303 -2.18990 6.85952
  3576 197.611 17.4432 -14.0361
  3577 99.0318 -32.6236 45.1750
  3578 125.978 10.9952 -15.3639
  3579 125.978 10.9964 15.3708
  3580 159.866 1.22287 7.74491
  3581 169.772 -25.2117 20.8807
  3582 170.742 10.0980 -11.2189
  3583 102.640 1.92175 -25.4283
  3584 102.665 1.91741 25.4047
  3585 171.606 -0.108386 -1.10080
  3586 171.601 -0.108037 1.10066
  3587 169.014 13.2411 -6.72832
  3588 138.766 2.35473 -8.87875
  3589 138.775 2.35524 8.88291
  3590 189.352 10.0200 -15.1013
  3591 167.588 9.48666 -8.94132
  3592 159.321 3.12264 -9.40214
  3593 125.034 11.5109 17.7119
  3594 125.034 11.5105 -17.7043
  3595 135.527 5.88599 -4.21037
  3596 135.535 5.88439 4.20802
  3597 188.199 22.1418 -11.8818
  3598 133.386 0.0472901 0.645270
  3599 133.376 0.0472941 -0.644885
  3600 170.067 -3.24311 -5.00037
  3601 170.071 -3.24742 5.01005
  3602 107.295 15.1729 -1.82068
  3603 107.279 15.1756 1.82239
  3604 157.470 4.63800 23.6328
  3605 157.452 4.64184 -23.6301
  3606 97.8212 16.5898 -6.11222
  3607 97.8012 16.5936 6.11852
  3608 165.721 -1.49936 -2.19009
  3609 165.717 -1.49591 2.19081
  3610 160.752 0.605757 30.0607
  3611 160.726 0.616490 -30.0630
  3612 170.352 -1.86433 3.66393
  3613 170.352 -1.86132 -3.65550
  3614 202.149 1.60964 11.7756
  3615 107.633 13.5894 -4.69696
  3616 107.651 13.5876 4.69435
  3617 166.665 -1.15325 -1.99549
  3618 166.660 -1.15054 1.99614
  3619 174.893 -12.6248 -1.78569
  3620 174.903 -12.6311 1.80215
  3621 140.465 3.43916 7.01913
  3622 140.458 3.43866 -7.02396
  3623 164.789 -25.8637 -27.3201
  3624 164.827 -25.8481 27.3676
  3625 185.853 -3.18207 13.4315
  3626 140.892 0.126764 -2.62697
  3627 140.906 0.126799 2.62827
  3628 121.277 8.30581 -9.42261
  3629 121.292 8.30734 9.41873
  3630 179.800 19.1728 -9.26697
  3631 279.221 41.0246 -14.9186
  3632 177.764 1.04951 13.7530
  3633 177.741 1.05060 -13.7523
  3634 82.0376 -44.3497 24.1385
  3635 81.8215 -44.4384 -24.1255
  3636 169.581 -0.180234 -1.52441
  3637 169.576 -0.179565 1.52412
  3638 165.908 1.57316 -13.1939
  3639 165.928 1.57246 13.1962
  3640 145.740 0.271769 3.31942
  3641 145.724 0.271719 -3.31795
  3642 139.029 0.121595 -2.23161
  3643 139.042 0.121611 2.23279
  3644 134.524 0.282297 2.57983
  3645 134.514 0.282184 -2.57833
  3646 144.995 1.16441 -4.14861
  3647 174.878 0.443655 -8.88276
  3648 244.870 11.2993 -21.0724
  3649 102.496 16.0179 14.3250
  3650 102.507 16.0172 -14.3147
  3651 255.493 18.5935 11.1196
  3652 114.528 14.4469 17.6487
  3653 114.533 14.4471 -17.6397
  3654 254.018 24.8062 -30.6391
  3655 144.247 1.14710 7.27014
  3656 144.233 1.14693 -7.26705
  3657 143.390 0.568495 5.07811
  3658 143.376 0.568404 -5.07582
  3659 172.344 -15.5118 -4.28433
  3660 172.307 -15.4913 4.34239
  3661 131.773 7.44106 1.04319
  3662 131.765 7.44364 -1.04320
  3663 177.195 -25.8629 -17.6783
  3664 245.421 28.1506 70.9584
  3665 125.533 7.03404 -9.91828
  3666 125.547 7.03561 9.91414
  3667 76.6073 -18.6077 -31.9687
  3668 76.6594 -18.6381 31.9830
  3669 158.918 -19.9036 -22.3379
  3670 128.173 7.77846 -5.72141
  3671 128.184 7.77764 5.71915
  3672 101.737 -22.4426 -35.9008
  3673 101.800 -22.4575 35.8855
  3674 130.713 4.93925 10.1464
  3675 130.701 4.93756 -10.1514
  3676 226.745 -16.9022 -9.34479
  3677 226.654 -16.2633 8.80119
  3678 167.901 -1.90820 -11.6140
  3679 167.892 -1.88080 11.6237
  3680 166.678 -13.2402 -6.88859
  3681 166.652 -13.2133 6.87187
  3682 146.565 1.63619 9.57943
  3683 146.551 1.63607 -9.57577
  3684 236.639 43.3643 3.58204
  3685 168.949 -12.7122 -4.24351
  3686 168.914 -12.6876 4.24920
  3687 134.042 2.24095 12.9732
  3688 134.028 2.23676 -12.9804
  3689 218.594 0.0841415 -8.07799
  3690 218.615 0.0832594 8.07445
  3691 166.486 -4.57151 1.38531
  3692 166.493 -4.57880 -1.38181
  3693 170.875 -5.15217 -7.36348
  3694 170.883 -5.15662 7.37409
  3695 165.815 13.0774 -2.33789
  3696 113.706 11.6860 -6.51100
  3697 113.721 11.6859 6.50800
  3698 129.165 8.46160 -2.58477
  3699 129.175 8.45949 2.58417
  3700 170.131 -30.5852 31.1078
  3701 142.425 -28.9262 40.6348
  3702 206.667 0.0769987 3.33616
  3703 206.640 0.0771085 -3.33670
  3704 198.110 29.0358 -10.5714
  3705 225.939 -1.08520 24.6639
  3706 217.042 0.182737 3.46309
  3707 217.017 0.182884 -3.46409
  3708 149.684 -21.4606 -29.8731
  3709 147.686 -5.85916 -14.4973
  3710 147.694 -5.84662 14.4838
  3711 130.572 7.83236 -0.0670095
  3712 130.565 7.83511 0.0677274
  3713 214.322 -0.0673188 -12.5508
  3714 214.341 -0.0697086 12.5442
  3715 139.130 -31.3786 44.0427
  3716 87.7230 11.1596 -12.0403
  3717 87.7601 11.1515 12.0322
  3718 108.545 -4.34906 -35.3863
  3719 108.577 -4.37048 35.3934
  3720 164.422 -11.4634 -7.47356
  3721 164.402 -11.4540 7.46741
  3722 157.568 -3.21140 5.99746
  3723 157.572 -3.21908 -6.00110
  3724 160.988 -8.59857 -7.67115
  3725 160.976 -8.58354 7.66665
  3726 92.1490 14.8976 -3.18549
  3727 92.1777 14.8915 3.18517
  3728 238.655 -6.61666 2.86163
  3729 238.638 -6.59088 -2.87343
  3730 167.768 -1.27487 5.59356
  3731 167.773 -1.27339 -5.58336
  3732 202.314 6.79493 12.6240
  3733 119.610 12.6622 22.4531
  3734 119.609 12.6649 -22.4435
  3735 259.732 -0.975622 -2.77476
  3736 259.777 -0.979947 2.78304
  3737 135.693 0.122931 -2.01818
  3738 135.704 0.122978 2.01933
  3739 196.914 0.149999 -16.6125
  3740 196.936 0.147107 16.6083
  3741 336.986 19.9975 -12.9572
  3742 126.797 9.38307 -1.67314
  3743 126.789 9.38583 1.67488
  3744 150.805 1.29966 8.56614
  3745 150.789 1.29958 -8.56315
  3746 135.324 -28.4410 -42.8713
  3747 134.740 -1.98175 -17.9764
  3748 134.757 -1.97222 17.9658
  3749 222.843 41.7758 -5.11901
  3750 174.547 -0.128964 0.754523
  3751 174.550 -0.128696 -0.752291
  3752 148.820 -20.9548 29.6656
  3753 177.318 14.7116 11.5465
  3754 126.755 9.51763 2.86263
  3755 126.762 9.51475 -2.86028
  3756 145.358 1.24736 32.9032
  3757 145.333 1.26022 -32.9016
  3758 136.674 4.72280 6.53654
  3759 136.665 4.72307 -6.54048
  3760 142.292 3.77114 4.62830
  3761 142.287 3.77197 -4.63150
  3762 165.519 -17.9011 14.2666
  3763 165.224 -17.7178 -14.1380
  3764 175.356 4.18930 2.20779
  3765 125.504 9.94972 3.80193
  3766 125.511 9.94688 -3.79912
  3767 98.6567 -0.427864 -27.2901
  3768 125.429 10.1503 -1.47382
  3769 125.421 10.1530 1.47551
  3770 160.555 -11.0820 10.1127
  3771 160.568 -11.0973 -10.1208
  3772 141.194 2.84488 10.7204
  3773 141.183 2.84445 -10.7159
  3774 170.479 -4.63075 -6.41727
  3775 170.486 -4.63559 6.42751
  3776 165.009 -2.56411 2.44036
  3777 165.014 -2.56920 -2.43925
  3778 99.3942 -33.2699 -44.9958
  3779 205.027 0.0635932 8.57255
  3780 205.003 0.0641993 -8.57439
  3781 167.440 2.82680 23.6857
  3782 167.419 2.83124 -23.6856
  3783 160.057 -6.94869 7.05613
  3784 160.067 -6.96172 -7.06018
  3785 159.072 -0.107674 -2.31037
  3786 159.035 -0.102103 2.31146
  3787 284.929 24.3830 -3.95840
  3788 131.845 -14.2190 -32.3624
  3789 132.117 -13.9681 32.0415
  3790 182.897 0.318525 -7.98824
  3791 182.922 0.318227 7.98876
  3792 144.981 0.0697745 -1.15680
  3793 144.997 0.0697795 1.15732
  3794 215.139 -8.00754 -13.4639
  3795 215.169 -8.01365 13.4397
  3796 131.180 4.77033 -7.24677
  3797 131.181 4.77209 7.25110
  3798 170.241 -0.328794 -1.37528
  3799 170.236 -0.327923 1.37551
  3800 120.773 12.1116 4.12237
  3801 120.781 12.1090 -4.11944
  3802 130.388 7.10840 -10.9614
  3803 130.389 7.11008 10.9669
  3804 124.553 10.4774 -7.47743
  3805 124.548 10.4800 7.48182
  3806 61.6889 -1.43893 18.3949
  3807 61.6962 -1.41824 -18.3525
  3808 166.823 2.73532 -25.5650
  3809 166.844 2.72930 25.5646
  3810 206.611 -8.80382 2.25376
  3811 325.833 15.0618 23.7347
  3812 149.118 3.51329 15.0014
  3813 149.104 3.51365 -14.9968
  3814 127.072 2.94670 33.9157
  3815 127.050 2.96189 -33.9093
  3816 116.727 -31.5294 32.8959
  3817 116.635 -31.5811 -32.9859
  3818 218.995 -2.89935 -14.3977
  3819 219.012 -2.90567 14.3808
  3820 156.413 -1.32003 5.47603
  3821 156.415 -1.32483 -5.47963
  3822 121.958 12.7725 18.3584
  3823 121.959 12.7725 -18.3502
  3824 157.327 -17.6220 -32.2339
  3825 157.360 -17.6220 32.2439
  3826 176.672 4.96532 14.4614
  3827 163.829 -1.08970 -2.98054
  3828 163.825 -1.08665 2.97993
  3829 225.146 1.72441 24.8739
  3830 181.632 -8.15667 10.6772
  3831 181.438 -8.18101 -10.5726
  3832 175.922 10.5138 13.0554
  3833 136.213 1.23269 -5.83203
  3834 136.222 1.23306 5.83516
  3835 198.077 3.22288 38.5761
  3836 140.326 3.94422 5.52177
  3837 140.320 3.94465 -5.52551
  3838 140.081 5.48647 15.4831
  3839 140.072 5.48627 -15.4774
  3840 171.002 -0.605983 2.72516
  3841 171.007 -0.604731 -2.71857
  3842 169.226 10.0842 10.0844
  3843 197.878 4.52567 16.4458
  3844 173.238 -12.6028 41.7329
  3845 180.106 3.70384 14.9160
  3846 154.916 0.624777 -4.44924
  3847 154.916 0.626337 4.44608
  3848 186.562 -5.57834 -12.3683
  3849 201.857 -17.4396 5.34791
  3850 135.279 3.92112 9.96724
  3851 135.273 3.92017 -9.96238
  3852 135.874 2.62933 8.27243
  3853 135.867 2.62862 -8.26819
  3854 134.050 6.18961 5.09860
  3855 134.041 6.19090 -5.10125
  3856 214.449 -0.913909 -30.5947
  3857 128.546 6.43807 -8.89511
  3858 128.558 6.43891 8.89113
  3859 132.414 6.28811 11.7572
  3860 132.410 6.28680 -11.7516
  3861 126.991 8.94579 4.93282
  3862 126.997 8.94298 -4.92948
  3863 210.335 -11.1040 -13.7172
  3864 210.376 -11.1109 13.6927
  3865 431.784 19.9717 -11.2886
  3866 171.400 -1.29509 -0.869708
  3867 171.403 -1.29724 0.874321
  3868 129.575 7.30420 9.10523
  3869 129.575 7.30211 -9.10020
  3870 142.120 0.642230 5.28710
  3871 142.107 0.642114 -5.28467
  3872 21.9101 -1.10660 -0.0119084
  3873 23.8826 -2.94404 0.0901627
  3874 21.7782 -1.61372 -1.48886
  3875 21.4251 -1.55656 1.52845
  3876 21.7321 -0.953412 0.0608974
  3877 21.8653 -0.937569 -0.143875
  3878 24.5309 -3.49616 -2.25278
  3879 23.4903 -1.24268 0.0401549
  3880 24.1613 -3.11865 2.40789
  3881 26.6462 -5.30073 -0.0166507
  3882 26.3400 -4.72384 1.74269
  3883 22.3563 -1.71227 -0.510208
  3884 22.2683 -1.67277 0.524076
  3885 22.2781 -2.23342 -2.89993
  3886 20.3433 -1.33220 -0.866402
  3887 20.4043 -1.26703 0.767120
  3888 21.5708 -1.07979 -0.418274
  3889 26.6325 -5.14206 -1.73153
  3890 24.0315 -1.25877 -0.532467
  3891 23.8081 -1.36697 0.572287
  3892 22.0104 -2.10673 2.83405
  3893 21.5368 -1.06148 0.377242
  3894 22.2611 -0.979127 0.0335228
  3895 22.2642 -0.950585 -0.0453547
  3896 20.6089 -1.69138 -2.02353
  3897 20.3369 -1.70424 2.00677
  3898 23.5689 -2.66629 -1.11605
  3899 27.5150 -6.05554 0.704713
  3900 23.3331 -2.55562 1.23250
  3901 27.6695 -6.14413 -1.02771
  3902 25.0804 -3.81094 -0.801690
  3903 25.2790 -4.31181 0.624579
  3904 25.4297 -3.82766 -3.74121
  3905 26.3463 -4.08906 3.21349
  3906 20.9741 -1.25468 -0.170232
  3907 20.8261 -1.32204 0.0750903
  3908 24.6379 -1.56655 0.177729
  3909 23.9052 -3.00924 3.76444
  3910 23.3655 -1.14501 -0.868241
  3911 24.7072 -1.56416 -0.0939663
  3912 22.7109 -1.17752 0.724383
  3913 22.8728 -2.36552 -2.06023
  3914 22.4779 -2.16515 1.96180
  3915 22.8194 -2.04587 0.0912826
  3916 21.0914 -1.17367 -0.846587
  3917 21.0565 -1.14145 0.819874
  3918 22.3356 -1.87714 -1.20085
  3919 22.1137 -1.47027 0.00681107
  3920 23.3120 -2.76318 -3.95248
  3921 21.2544 -2.17288 -3.33604
  3922 23.1799 -1.11785 -0.254371
  3923 21.8596 -1.24211 -0.316766
  3924 21.8462 -1.22849 0.309450
  3925 19.9411 -1.60138 -1.56796
  3926 22.4980 -0.986252 0.309654
  3927 27.6137 -5.85528 1.94203
  3928 27.2302 -4.91535 -2.99056
  3929 20.6477 -1.95606 2.88017
  3930 21.6858 -1.34931 0.788303
  3931 25.0700 -3.92830 1.91908
  3932 19.7616 -1.66098 1.41163
  3933 27.7792 -6.46018 0.0788644
  3934 23.7329 -2.85325 -2.69655
  3935 21.8874 -1.00739 -0.123444
  3936 26.3629 -4.92446 0.868555
  3937 22.2693 -1.74138 1.17086
  3938 21.7143 -1.40498 -0.816802
  3939 22.1450 -0.970366 -0.0136485
  3940 22.1171 -2.52458 4.10437
  3941 21.8692 -1.02085 0.103697
  3942 25.9310 -4.57893 -1.21285
  3943 19.8559 -1.60523 -0.617214
  3944 21.8168 -0.937869 -0.0785142
  3945 24.7407 -1.27330 0.760432
  3946 20.8992 -1.10157 -0.494673
  3947 24.9842 -1.54717 -0.179464
  3948 21.1139 -1.03744 0.223010
  3949 25.1060 -1.54854 0.227852
  3950 20.0741 -1.48880 0.428084
  3951 21.3752 -1.81111 -2.31559
  3952 24.6584 -1.40640 -0.663964
  3953 22.6005 -1.04103 0.00183563
  3954 21.9311 -0.912336 -0.00654440
  3955 27.6124 -5.83147 -1.74564
  3956 20.8281 -1.41803 -1.36446
  3957 23.0175 -2.48923 2.74458
  3958 24.0131 -3.02627 0.834729
  3959 22.9643 -1.08923 -0.439885
  3960 21.0784 -1.69082 1.92148
  3961 23.6109 -1.25302 0.233815
  3962 25.1919 -4.08924 -0.0859012
  3963 20.8532 -1.38235 1.36345
  3964 27.5106 -5.12230 3.00853
  3965 25.6728 -3.59892 3.96726
  3966 22.2034 -1.39800 -0.819206
  3967 23.3894 -2.53816 -0.455278
  3968 26.0302 -4.39976 -2.51581
  3969 21.9845 -1.46774 0.749283
  3970 23.2234 -2.41292 0.512436
  3971 24.9509 -1.64633 -0.0111962
  3972 27.8458 -6.32108 1.34180
  3973 22.2092 -2.49992 -4.16200
  3974 19.9105 -1.94829 -2.50311
  3975 27.3361 -5.72642 0.164361
  3976 19.8516 -1.98015 2.60489
  3977 24.4139 -3.26033 -1.39593
  3978 24.0941 -3.06362 1.61427
  3979 25.9775 -4.30080 2.44444
  3980 27.6740 -5.77570 -2.43568
  3981 24.6305 -3.27540 3.22130
  3982 23.8242 -1.32295 -0.175815
  3983 21.9027 -1.00163 -0.443984
  3984 24.3004 -1.45998 0.0435201
  3985 28.1328 -6.76251 0.700424
  3986 21.6924 -1.06985 0.320659
  3987 22.5004 -0.999634 0.449891
  3988 22.8335 -1.03908 0.163035
  3989 25.2995 -3.41872 -4.58128
  3990 21.4279 -1.01258 -0.358067
  3991 24.0903 -3.12487 -0.616256
  3992 26.7165 -5.35387 -0.919145
  3993 28.2457 -6.79058 -0.824320
  3994 23.5128 -1.40470 1.15562
  3995 20.4628 -2.06708 -3.24012
  3996 25.3460 -4.00005 -1.67317
  3997 21.4031 -0.979248 0.310237
  3998 21.0099 -2.25254 3.69295
  3999 23.5534 -2.86308 4.46477
  4000 22.4042 -1.00597 -0.180089
  4001 22.0489 -1.88851 -2.02184
  4002 27.3259 -4.51005 -3.72346
  4003 19.3856 -1.86624 -1.34210
  4004 23.8064 -1.40017 -1.25030
  4005 27.1236 -5.57678 1.38278
  4006 22.7758 -2.07325 -0.849841
  4007 25.2230 -1.59771 0.0212827
  4008 20.7402 -1.15602 0.302012
  4009 20.1371 -1.77080 -0.00154351
  4010 27.5921 -4.56699 3.67893
  4011 20.5906 -1.21348 -0.387881
  4012 22.6528 -1.95867 0.880452
  4013 25.1376 -1.71040 0.0617691
  4014 20.2988 -1.40545 1.26242
  4015 25.6388 -4.33228 1.28717
  4016 23.2276 -2.56428 1.95997
  4017 21.7665 -1.94589 2.13748
  4018 20.9404 -1.68439 -0.483673
  4019 24.1987 -1.38121 0.395991
  4020 19.4596 -1.88836 1.93862
  4021 20.3017 -1.46617 -1.42565
  4022 23.6782 -2.82735 -1.88265
  4023 24.6518 -3.58351 0.382703
  4024 19.4649 -1.79736 0.932424
  4025 21.3344 -1.32014 1.04155
  4026 25.0552 -3.60411 -3.07136
  4027 25.2112 -1.61980 0.365867
  4028 26.9300 -5.15463 2.33874
  4029 23.3740 -1.20872 -0.698545
  4030 21.5407 -2.07825 -2.84368
  4031 22.8610 -2.32775 -1.49472
  4032 24.2816 -1.47213 -0.311963
  4033 28.1372 -7.04787 -0.304749
  4034 21.4114 -1.39984 -1.15082
  4035 22.6151 -2.18323 1.50297
  4036 27.2011 -5.67586 -1.39176
  4037 23.5185 -1.17133 0.696091
  4038 25.3782 -1.47802 -0.162046
  4039 22.4017 -1.74903 -0.156152
  4040 22.3454 -1.73620 0.194959
  4041 25.8749 -4.63932 0.133612
  4042 21.9629 -1.42739 -0.547974
  4043 22.0776 -1.75525 1.53874
  4044 22.5948 -2.51920 3.51302
  4045 22.1740 -0.976070 0.0817844
  4046 22.7422 -2.27058 -2.55697
  4047 22.0866 -1.45052 -0.278907
  4048 22.0547 -1.44063 0.284544
  4049 25.9757 -4.52389 -1.78738
  4050 20.6298 -1.25759 -0.985813
  4051 24.3188 -3.11239 -3.62519
  4052 20.5992 -1.23910 0.972307
  4053 21.9206 -1.40371 0.545158
  4054 23.6589 -2.85518 -4.85655
  4055 21.9361 -1.26103 0.102975
  4056 21.9453 -1.25477 -0.109417
  4057 21.2540 -1.84826 2.52679
  4058 22.7147 -0.964468 -0.565298
  4059 25.9040 -4.64185 -0.525202
  4060 21.2359 -1.00809 -0.0385478
  4061 22.7022 -1.06706 -0.127208
  4062 21.0550 -1.07923 -0.0837904
  4063 24.0150 -1.39042 0.188795
  4064 24.6291 -3.43886 -0.194563
  4065 23.1988 -2.46833 0.00282265
  4066 28.2194 -6.50910 -1.44992
  4067 20.8638 -1.70371 0.489796
  4068 24.8589 -3.64144 1.11230
  4069 27.8743 -5.66219 2.46096
  4070 21.8729 -1.10480 -0.149279
  4071 19.4508 -1.92318 -1.88768
  4072 20.8288 -1.90874 -2.72518
  4073 21.7573 -1.06542 0.256463
  4074 21.4568 -1.18414 -0.677885
  4075 21.6475 -1.20840 0.493688
  4076 20.2615 -1.72819 -0.0732271
  4077 21.8781 -1.62922 -1.17332
  4078 28.4053 -7.05328 0.191243
  4079 27.3350 -5.90173 -0.360871
  4080 23.1057 -2.53775 -3.19339
  4081 20.3068 -2.07284 3.23165
  4082 22.2309 -2.32966 -3.36552
  4083 21.3917 -1.14956 0.632325
  4084 24.8929 -1.68855 0.0217744
  4085 21.7596 -1.08388 -0.292001
  4086 25.2055 -3.49406 4.73308
  4087 21.6756 -1.24987 -0.514666
  4088 19.8940 -1.54050 -1.16385
  4089 21.9564 -1.02101 -0.0516065
  4090 22.1192 -1.66188 -0.839992
  4091 21.5135 -2.19003 3.24808
  4092 21.9447 -2.07231 -2.53096
  4093 26.2692 -4.12200 -3.29911
  4094 21.8617 -1.11352 0.130460
  4095 21.0758 -2.31276 -3.87778
  4096 28.0789 -6.22049 -1.96520
  4097 23.6427 -1.23569 -0.365904
  4098 25.3292 -1.22525 -0.870420
  4099 27.9244 -5.46966 -3.04998
  4100 25.1628 -3.74686 2.71312
  4101 22.0685 -1.60853 0.825736
  4102 22.2964 -1.88685 -1.57144
  4103 21.7021 -1.00848 -0.212907
  4104 21.8036 -1.50760 1.14212
  4105 21.9742 -1.00446 0.0243413
  4106 19.9818 -1.70715 -1.91359
  4107 22.0888 -0.976020 -0.0399052
  4108 24.5298 -1.43203 0.601724
  4109 28.0676 -6.36744 1.85244
  4110 19.9821 -1.48847 0.917502
  4111 23.1832 -1.14026 -0.114064
  4112 21.2450 -1.65326 -1.71298
  4113 22.8152 -2.09894 -0.335609
  4114 22.3929 -0.943218 0.0332991
  4115 23.2094 -1.15042 0.407931
  4116 21.7752 -0.982092 0.131453
  4117 27.1443 -4.09332 4.37261
  4118 19.2133 -1.95764 1.43881
  4119 27.2168 -5.24018 -2.38055
  4120 22.0125 -0.963264 -0.0468070
  4121 26.9981 -5.55960 0.622033
  4122 22.0800 -0.969952 0.0175453
  4123 27.8434 -6.57267 -0.481984
  4124 24.7200 -1.46202 -0.429111
  4125 20.8815 -1.11311 0.565752
  4126 22.6212 -1.94172 0.431903
  4127 25.0094 -1.58819 -0.0325622
  4128 28.5188 -7.27286 -0.0828871
  4129 19.2278 -2.01354 1.11978
  4130 19.4009 -1.94156 -0.989296
  4131 19.7070 -1.89246 0.302062
  4132 20.3650 -2.05093 -0.374313
  4133 21.4871 -1.83877 -0.911172
  4134 22.9477 -1.67657 -1.28507
  4135 25.4149 -1.27687 -1.09365
  4136 26.0996 -1.32623 -0.202389
  4137 25.7688 -1.37363 0.176485
  4138 25.3820 -1.59876 0.00838772
  4139 25.1572 -1.65756 0.135807
  4140 25.3524 -1.68897 -0.0780544
  4141 25.5738 -1.55126 0.0345599
  4142 25.7022 -1.53578 0.0773901
  4143 25.9977 -1.34412 0.250710
  4144 24.9075 -1.34679 1.01579
  4145 22.8005 -1.70630 1.20336
  4146 21.4408 -1.92081 0.949408
  4147 20.3201 -2.01132 0.353074
  4148 19.7215 -1.97373 -0.243822
  4149 19.2915 -2.04208 -1.68063
  4150 19.4562 -2.00214 -2.34461
  4151 19.8005 -2.11422 -3.08188
  4152 20.3840 -2.35498 -3.83439
  4153 21.3790 -2.63757 -4.42866
  4154 22.5141 -3.02662 -4.95388
  4155 24.2881 -3.66223 -5.32423
  4156 26.8469 -4.41448 -4.60872
  4157 28.4333 -4.89757 -3.61887
  4158 28.5444 -5.12355 -3.31720
  4159 28.2946 -6.01981 -2.53466
  4160 28.4756 -6.53344 -1.80605
  4161 28.5931 -6.84983 -1.16258
  4162 28.4069 -7.05667 -0.590332
  4163 28.7927 -7.03556 0.556344
  4164 28.2051 -6.76937 1.27028
  4165 28.3097 -6.63703 1.72174
  4166 28.2721 -6.16199 2.30649
  4167 28.3045 -5.37230 3.04136
  4168 28.4982 -4.71215 3.89573
  4169 26.8973 -4.03253 4.92767
  4170 24.2475 -3.49659 5.21382
  4171 22.5519 -2.96938 4.75875
  4172 21.2794 -2.63529 4.36359
  4173 20.4648 -2.28122 3.78054
  4174 19.7731 -2.15657 3.09048
  4175 19.4119 -2.04283 2.40051
  4176 19.1762 -2.06901 1.70732
</Section>

