newXOutput 1

<Section columns = "stress_xx | stress_yy | stress_xy">
  1 0.00000 0.00000 0.00000
  2 0.00000 0.00000 0.00000
  3 0.00000 0.00000 0.00000
  4 0.00000 0.00000 0.00000
  5 0.00000 0.00000 0.00000
  6 0.00000 0.00000 0.00000
  7 0.00000 0.00000 0.00000
  8 0.00000 0.00000 0.00000
</Section>

newXOutput 2

<Section columns = "stress_xx | stress_yy | stress_xy">
  1 30.9506 -3.60706e-09 -5.98216e-15
  2 30.9506 -3.60706e-09 -5.04751e-15
  3 30.9506 -3.60706e-09 1.87817e-15
  4 30.9506 -3.60706e-09 1.56020e-15
  5 30.9506 -3.60706e-09 1.88092e-15
  6 30.9506 -3.60706e-09 1.87545e-15
  7 30.9506 -3.60706e-09 -1.06711e-15
  8 30.9506 -3.60706e-09 -1.45513e-15
</Section>

newXOutput 3

<Section columns = "stress_xx | stress_yy | stress_xy">
  1 61.6836 -0.00876199 1.75466e-15
  2 61.6836 -0.00876199 2.87112e-15
  3 61.6836 -0.00876199 -3.50387e-15
  4 61.6836 -0.00876199 -3.66784e-16
  5 61.6836 -0.00876199 -4.16536e-15
  6 61.6836 -0.00876199 -3.27500e-15
  7 61.6836 -0.00876199 -1.33851e-15
  8 61.6836 -0.00876199 -3.41963e-15
</Section>

newXOutput 4

<Section columns = "stress_xx | stress_yy | stress_xy">
  1 92.2059 -0.00873479 1.08299e-15
  2 92.2059 -0.00873479 1.91652e-15
  3 92.2059 -0.00873479 5.49947e-15
  4 92.2059 -0.00873479 6.24039e-15
  5 92.2059 -0.00873479 -4.60261e-16
  6 92.2059 -0.00873479 -8.12331e-17
  7 92.2059 -0.00873479 -5.49422e-15
  8 92.2059 -0.00873479 -7.10885e-15
</Section>

newXOutput 5

<Section columns = "stress_xx | stress_yy | stress_xy">
  1 122.517 -0.00871075 -3.61415e-14
  2 122.517 -0.00871075 -3.29378e-14
  3 122.517 -0.00871075 -6.89054e-15
  4 122.517 -0.00871075 -4.91609e-15
  5 122.517 -0.00871075 -5.95958e-15
  6 122.517 -0.00871075 -4.89545e-15
  7 122.517 -0.00871075 2.58091e-15
  8 122.517 -0.00871075 -1.19890e-15
</Section>

newXOutput 6

<Section columns = "stress_xx | stress_yy | stress_xy">
  1 152.618 -0.00868684 -1.04609e-14
  2 152.618 -0.00868684 -9.72668e-15
  3 152.618 -0.00868684 2.13468e-14
  4 152.618 -0.00868684 1.97084e-14
  5 152.618 -0.00868684 -3.52610e-15
  6 152.618 -0.00868684 -8.56233e-16
  7 152.618 -0.00868684 -2.52825e-14
  8 152.618 -0.00868684 -9.92037e-15
</Section>

newXOutput 7

<Section columns = "stress_xx | stress_yy | stress_xy">
  1 182.512 -0.00866305 5.79211e-15
  2 182.512 -0.00866305 7.61930e-15
  3 182.512 -0.00866305 -3.10469e-15
  4 182.512 -0.00866305 1.03244e-14
  5 182.512 -0.00866305 -2.23277e-15
  6 182.512 -0.00866305 7.60244e-15
  7 182.512 -0.00866305 -1.70730e-15
  8 182.512 -0.00866305 -2.42095e-14
</Section>

newXOutput 8

<Section columns = "stress_xx | stress_yy | stress_xy">
  1 212.200 -0.00863939 -4.82371e-15
  2 212.200 -0.00863939 -3.88661e-15
  3 212.200 -0.00863939 -1.28808e-14
  4 212.200 -0.00863939 -9.77964e-15
  5 212.200 -0.00863939 -8.25524e-15
  6 212.200 -0.00863939 -2.48263e-15
  7 212.200 -0.00863939 3.99402e-14
  8 212.200 -0.00863939 1.37155e-14
</Section>

newXOutput 9

<Section columns = "stress_xx | stress_yy | stress_xy">
  1 241.684 -0.00861585 -2.82496e-14
  2 241.684 -0.00861585 -2.55119e-14
  3 241.684 -0.00861585 -7.86814e-16
  4 241.684 -0.00861585 -2.74342e-15
  5 241.684 -0.00861585 1.92645e-14
  6 241.684 -0.00861585 1.09378e-14
  7 241.684 -0.00861585 -9.30565e-15
  8 241.684 -0.00861585 -1.24787e-14
</Section>

newXOutput 10

<Section columns = "stress_xx | stress_yy | stress_xy">
  1 270.966 -0.00859243 2.59815e-15
  2 270.966 -0.00859243 5.48224e-15
  3 270.966 -0.00859243 2.69599e-14
  4 270.966 -0.00859243 2.24846e-14
  5 270.966 -0.00859243 -6.74402e-15
  6 270.966 -0.00859243 -8.33765e-15
  7 270.966 -0.00859243 2.46487e-14
  8 270.966 -0.00859243 1.96637e-14
</Section>

newXOutput 11

<Section columns = "stress_xx | stress_yy | stress_xy">
  1 300.047 -0.00856913 4.69966e-14
  2 300.047 -0.00856913 -3.96657e-14
  3 300.047 -0.00856913 -9.42799e-15
  4 300.047 -0.00856913 -1.35361e-14
  5 300.047 -0.00856913 2.32138e-14
  6 300.047 -0.00856913 -5.56348e-14
  7 300.047 -0.00856913 6.31144e-14
  8 300.047 -0.00856913 -1.86635e-13
</Section>

newXOutput 12

<Section columns = "stress_xx | stress_yy | stress_xy">
  1 328.929 -0.00854595 2.87326e-14
  2 328.929 -0.00854595 -5.11155e-14
  3 328.929 -0.00854595 1.92307e-14
  4 328.929 -0.00854595 -2.31226e-14
  5 328.929 -0.00854595 2.00789e-14
  6 328.929 -0.00854595 1.28356e-14
  7 328.929 -0.00854595 5.82531e-14
  8 328.929 -0.00854595 2.82562e-14
</Section>

newXOutput 13

<Section columns = "stress_xx | stress_yy | stress_xy">
  1 357.615 -0.00852289 -7.45717e-14
  2 357.615 -0.00852289 3.81782e-14
  3 357.615 -0.00852289 -7.32338e-14
  4 357.615 -0.00852289 4.64519e-14
  5 357.615 -0.00852289 -3.60508e-14
  6 357.615 -0.00852289 -1.54527e-15
  7 357.615 -0.00852289 3.25246e-14
  8 357.615 -0.00852289 -3.18621e-14
</Section>

newXOutput 14

<Section columns = "stress_xx | stress_yy | stress_xy">
  1 386.105 -0.00849994 3.34265e-14
  2 386.105 -0.00849994 -2.07488e-14
  3 386.105 -0.00849994 -5.63824e-15
  4 386.105 -0.00849994 9.26298e-15
  5 386.105 -0.00849994 -3.18468e-15
  6 386.105 -0.00849994 8.98279e-15
  7 386.105 -0.00849994 2.29065e-14
  8 386.105 -0.00849994 -4.68809e-14
</Section>

newXOutput 15

<Section columns = "stress_xx | stress_yy | stress_xy">
  1 414.401 -0.00847712 -9.88900e-14
  2 414.401 -0.00847712 1.20369e-13
  3 414.401 -0.00847712 5.35011e-16
  4 414.401 -0.00847712 2.96380e-14
  5 414.401 -0.00847712 5.14218e-14
  6 414.401 -0.00847712 -6.12463e-14
  7 414.401 -0.00847712 4.50381e-14
  8 414.401 -0.00847712 -1.58699e-14
</Section>

newXOutput 16

<Section columns = "stress_xx | stress_yy | stress_xy">
  1 442.506 -0.00845441 2.50281e-14
  2 442.506 -0.00845441 -4.86685e-14
  3 442.506 -0.00845441 2.95161e-14
  4 442.506 -0.00845441 -2.00513e-14
  5 442.506 -0.00845441 -6.43163e-14
  6 442.506 -0.00845441 -9.48513e-14
  7 442.506 -0.00845441 2.21654e-14
  8 442.506 -0.00845441 -5.05190e-14
</Section>

newXOutput 17

<Section columns = "stress_xx | stress_yy | stress_xy">
  1 470.420 -0.00843181 -4.38782e-14
  2 470.420 -0.00843181 3.22856e-14
  3 470.420 -0.00843181 -1.97812e-14
  4 470.420 -0.00843181 6.18891e-14
  5 470.420 -0.00843181 3.22931e-14
  6 470.420 -0.00843181 4.88983e-14
  7 470.420 -0.00843181 1.58931e-13
  8 470.420 -0.00843181 8.81547e-14
</Section>

newXOutput 18

<Section columns = "stress_xx | stress_yy | stress_xy">
  1 498.145 -0.00840933 -5.05994e-15
  2 498.145 -0.00840933 -6.07118e-14
  3 498.145 -0.00840933 2.83216e-14
  4 498.145 -0.00840933 -9.32499e-15
  5 498.145 -0.00840933 -3.72411e-14
  6 498.145 -0.00840933 -3.65378e-14
  7 498.145 -0.00840933 -1.08837e-13
  8 498.145 -0.00840933 2.80599e-15
</Section>

newXOutput 19

<Section columns = "stress_xx | stress_yy | stress_xy">
  1 525.683 -0.00838697 5.21022e-14
  2 525.683 -0.00838697 -1.91785e-15
  3 525.683 -0.00838697 3.95343e-14
  4 525.683 -0.00838697 -4.58961e-15
  5 525.683 -0.00838697 3.43423e-14
  6 525.683 -0.00838697 9.00852e-15
  7 525.683 -0.00838697 3.77125e-14
  8 525.683 -0.00838697 -5.51851e-15
</Section>

newXOutput 20

<Section columns = "stress_xx | stress_yy | stress_xy">
  1 553.036 -0.00836471 -4.40772e-14
  2 553.036 -0.00836471 1.59094e-14
  3 553.036 -0.00836471 1.97686e-14
  4 553.036 -0.00836471 7.67513e-14
  5 553.036 -0.00836471 -1.16449e-14
  6 553.036 -0.00836471 -1.49983e-15
  7 553.036 -0.00836471 7.31311e-14
  8 553.036 -0.00836471 9.36060e-15
</Section>

newXOutput 21

<Section columns = "stress_xx | stress_yy | stress_xy">
  1 580.205 -0.00834257 -6.93307e-14
  2 580.205 -0.00834257 1.55419e-14
  3 580.205 -0.00834257 -1.05051e-14
  4 580.205 -0.00834257 -1.40893e-14
  5 580.205 -0.00834257 -8.95561e-14
  6 580.205 -0.00834257 -6.70666e-14
  7 580.205 -0.00834257 -4.98584e-14
  8 580.205 -0.00834257 6.71454e-14
</Section>

newXOutput 22

<Section columns = "stress_xx | stress_yy | stress_xy">
  1 607.192 -0.00832054 1.14702e-13
  2 607.192 -0.00832054 -7.66587e-14
  3 607.192 -0.00832054 2.82884e-14
  4 607.192 -0.00832054 2.79635e-14
  5 607.192 -0.00832054 -1.34728e-13
  6 607.192 -0.00832054 -8.98622e-14
  7 607.192 -0.00832054 -5.77308e-14
  8 607.192 -0.00832054 -1.48722e-13
</Section>

newXOutput 23

<Section columns = "stress_xx | stress_yy | stress_xy">
  1 633.998 -0.00829862 -7.79022e-14
  2 633.998 -0.00829862 8.60803e-14
  3 633.998 -0.00829862 2.68581e-14
  4 633.998 -0.00829862 3.44797e-14
  5 633.998 -0.00829862 -3.08036e-14
  6 633.998 -0.00829862 -1.29077e-13
  7 633.998 -0.00829862 5.44336e-14
  8 633.998 -0.00829862 -1.03040e-13
</Section>

newXOutput 24

<Section columns = "stress_xx | stress_yy | stress_xy">
  1 660.624 -0.00827682 2.58818e-14
  2 660.624 -0.00827682 -8.25082e-14
  3 660.624 -0.00827682 1.91231e-14
  4 660.624 -0.00827682 1.14163e-14
  5 660.624 -0.00827682 -3.21891e-14
  6 660.624 -0.00827682 -3.68039e-14
  7 660.624 -0.00827682 1.05970e-13
  8 660.624 -0.00827682 6.34681e-14
</Section>

newXOutput 25

<Section columns = "stress_xx | stress_yy | stress_xy">
  1 687.073 -0.00825512 2.88760e-14
  2 687.073 -0.00825512 -6.89218e-14
  3 687.073 -0.00825512 4.67429e-14
  4 687.073 -0.00825512 6.23343e-14
  5 687.073 -0.00825512 2.91846e-14
  6 687.073 -0.00825512 3.40441e-14
  7 687.073 -0.00825512 1.51889e-13
  8 687.073 -0.00825512 2.60062e-14
</Section>

newXOutput 26

<Section columns = "stress_xx | stress_yy | stress_xy">
  1 713.346 -0.00823353 2.02982e-14
  2 713.346 -0.00823353 -6.43129e-14
  3 713.346 -0.00823353 4.76042e-14
  4 713.346 -0.00823353 5.47958e-14
  5 713.346 -0.00823353 -3.86948e-14
  6 713.346 -0.00823353 -1.16215e-15
  7 713.346 -0.00823353 1.56782e-14
  8 713.346 -0.00823353 -8.09439e-14
</Section>

newXOutput 27

<Section columns = "stress_xx | stress_yy | stress_xy">
  1 739.444 -0.00821204 -7.26173e-14
  2 739.444 -0.00821204 2.43273e-14
  3 739.444 -0.00821204 -5.20616e-14
  4 739.444 -0.00821204 -4.68370e-14
  5 739.444 -0.00821204 -9.45118e-14
  6 739.444 -0.00821204 -1.26382e-13
  7 739.444 -0.00821204 -8.34955e-14
  8 739.444 -0.00821204 -1.45686e-14
</Section>

newXOutput 28

<Section columns = "stress_xx | stress_yy | stress_xy">
  1 765.368 -0.00819067 -9.42119e-14
  2 765.368 -0.00819067 1.31808e-15
  3 765.368 -0.00819067 1.41849e-14
  4 765.368 -0.00819067 -1.70214e-14
  5 765.368 -0.00819067 1.36119e-14
  6 765.368 -0.00819067 -3.53974e-14
  7 765.368 -0.00819067 1.07952e-14
  8 765.368 -0.00819067 1.80519e-14
</Section>

newXOutput 29

<Section columns = "stress_xx | stress_yy | stress_xy">
  1 791.121 -0.00816940 3.63253e-15
  2 791.121 -0.00816940 -2.98088e-14
  3 791.121 -0.00816940 2.05666e-14
  4 791.121 -0.00816940 9.37455e-15
  5 791.121 -0.00816940 -9.11127e-14
  6 791.121 -0.00816940 -8.28583e-14
  7 791.121 -0.00816940 -1.72272e-15
  8 791.121 -0.00816940 -2.25551e-14
</Section>

newXOutput 30

<Section columns = "stress_xx | stress_yy | stress_xy">
  1 816.703 -0.00814823 -1.75373e-13
  2 816.703 -0.00814823 1.08381e-13
  3 816.703 -0.00814823 -1.49130e-14
  4 816.703 -0.00814823 1.47637e-14
  5 816.703 -0.00814823 1.40250e-14
  6 816.703 -0.00814823 -6.10463e-14
  7 816.703 -0.00814823 1.10811e-13
  8 816.703 -0.00814823 1.26041e-13
</Section>

newXOutput 31

<Section columns = "stress_xx | stress_yy | stress_xy">
  1 842.117 -0.00812717 5.47415e-14
  2 842.117 -0.00812717 -1.80475e-13
  3 842.117 -0.00812717 4.17526e-14
  4 842.117 -0.00812717 4.62358e-14
  5 842.117 -0.00812717 7.31526e-14
  6 842.117 -0.00812717 4.87927e-14
  7 842.117 -0.00812717 1.54422e-13
  8 842.117 -0.00812717 -2.23581e-13
</Section>

newXOutput 32

<Section columns = "stress_xx | stress_yy | stress_xy">
  1 867.363 -0.00810622 -1.74115e-14
  2 867.363 -0.00810622 -6.32045e-14
  3 867.363 -0.00810622 -2.68681e-14
  4 867.363 -0.00810622 -3.01390e-14
  5 867.363 -0.00810622 -2.57095e-14
  6 867.363 -0.00810622 -5.14052e-14
  7 867.363 -0.00810622 5.15253e-14
  8 867.363 -0.00810622 -1.04455e-13
</Section>

newXOutput 33

<Section columns = "stress_xx | stress_yy | stress_xy">
  1 892.443 -0.00808536 1.32761e-14
  2 892.443 -0.00808536 -2.84109e-14
  3 892.443 -0.00808536 2.91116e-14
  4 892.443 -0.00808536 7.92844e-15
  5 892.443 -0.00808536 -3.54274e-14
  6 892.443 -0.00808536 -7.13421e-14
  7 892.443 -0.00808536 1.63391e-13
  8 892.443 -0.00808536 -7.07978e-14
</Section>

newXOutput 34

<Section columns = "stress_xx | stress_yy | stress_xy">
  1 917.358 -0.00806461 -2.60053e-14
  2 917.358 -0.00806461 -6.99188e-14
  3 917.358 -0.00806461 -7.02796e-15
  4 917.358 -0.00806461 -1.98010e-14
  5 917.358 -0.00806461 -7.44191e-14
  6 917.358 -0.00806461 -1.36712e-13
  7 917.358 -0.00806461 8.59729e-14
  8 917.358 -0.00806461 -1.22073e-13
</Section>

newXOutput 35

<Section columns = "stress_xx | stress_yy | stress_xy">
  1 942.110 -0.00804396 -2.09819e-14
  2 942.110 -0.00804396 -5.45613e-14
  3 942.110 -0.00804396 6.31156e-14
  4 942.110 -0.00804396 5.52640e-14
  5 942.110 -0.00804396 1.78759e-13
  6 942.110 -0.00804396 1.66171e-13
  7 942.110 -0.00804396 2.43429e-13
  8 942.110 -0.00804396 1.67891e-13
</Section>

newXOutput 36

<Section columns = "stress_xx | stress_yy | stress_xy">
  1 966.700 -0.00802342 -1.71362e-14
  2 966.700 -0.00802342 -4.29986e-14
  3 966.700 -0.00802342 4.45461e-14
  4 966.700 -0.00802342 1.56999e-14
  5 966.700 -0.00802342 -3.55883e-14
  6 966.700 -0.00802342 -5.54422e-14
  7 966.700 -0.00802342 -2.14254e-14
  8 966.700 -0.00802342 -9.41527e-14
</Section>

newXOutput 37

<Section columns = "stress_xx | stress_yy | stress_xy">
  1 991.129 -0.00800297 8.40417e-15
  2 991.129 -0.00800297 -3.62904e-14
  3 991.129 -0.00800297 4.88845e-15
  4 991.129 -0.00800297 1.20870e-14
  5 991.129 -0.00800297 1.02100e-14
  6 991.129 -0.00800297 6.93068e-14
  7 991.129 -0.00800297 7.33695e-14
  8 991.129 -0.00800297 1.58363e-13
</Section>

newXOutput 38

<Section columns = "stress_xx | stress_yy | stress_xy">
  1 1015.40 -0.00798262 -2.41833e-14
  2 1015.40 -0.00798262 -6.24321e-14
  3 1015.40 -0.00798262 1.07198e-15
  4 1015.40 -0.00798262 -1.06934e-14
  5 1015.40 -0.00798262 -1.15878e-13
  6 1015.40 -0.00798262 -4.49209e-14
  7 1015.40 -0.00798262 -2.62643e-13
  8 1015.40 -0.00798262 -2.56133e-14
</Section>

newXOutput 39

<Section columns = "stress_xx | stress_yy | stress_xy">
  1 1039.51 -0.00796238 2.02320e-14
  2 1039.51 -0.00796238 -1.53142e-14
  3 1039.51 -0.00796238 1.39313e-13
  4 1039.51 -0.00796238 9.49453e-14
  5 1039.51 -0.00796238 -4.52332e-14
  6 1039.51 -0.00796238 6.06364e-15
  7 1039.51 -0.00796238 -1.64792e-13
  8 1039.51 -0.00796238 3.61315e-14
</Section>

newXOutput 40

<Section columns = "stress_xx | stress_yy | stress_xy">
  1 1063.47 -0.00794223 -7.10288e-14
  2 1063.47 -0.00794223 -1.05159e-13
  3 1063.47 -0.00794223 -6.11144e-14
  4 1063.47 -0.00794223 -8.58503e-14
  5 1063.47 -0.00794223 -2.52666e-13
  6 1063.47 -0.00794223 -2.36436e-13
  7 1063.47 -0.00794223 -7.99501e-14
  8 1063.47 -0.00794223 -1.67321e-13
</Section>

newXOutput 41

<Section columns = "stress_xx | stress_yy | stress_xy">
  1 1087.26 -0.00792218 -2.44207e-14
  2 1087.26 -0.00792218 -6.46649e-14
  3 1087.26 -0.00792218 6.98559e-14
  4 1087.26 -0.00792218 5.72002e-14
  5 1087.26 -0.00792218 2.25586e-13
  6 1087.26 -0.00792218 2.35705e-13
  7 1087.26 -0.00792218 2.16027e-13
  8 1087.26 -0.00792218 1.18535e-13
</Section>

newXOutput 42

<Section columns = "stress_xx | stress_yy | stress_xy">
  1 1110.91 -0.00790222 1.35193e-14
  2 1110.91 -0.00790222 1.47858e-14
  3 1110.91 -0.00790222 1.23897e-13
  4 1110.91 -0.00790222 1.35177e-13
  5 1110.91 -0.00790222 5.31563e-15
  6 1110.91 -0.00790222 1.25212e-14
  7 1110.91 -0.00790222 1.22413e-13
  8 1110.91 -0.00790222 8.98785e-14
</Section>

newXOutput 43

<Section columns = "stress_xx | stress_yy | stress_xy">
  1 1134.40 -0.00788237 -9.75585e-14
  2 1134.40 -0.00788237 -8.63342e-14
  3 1134.40 -0.00788237 -7.79225e-14
  4 1134.40 -0.00788237 -6.29461e-14
  5 1134.40 -0.00788237 -1.33631e-13
  6 1134.40 -0.00788237 -1.30201e-13
  7 1134.40 -0.00788237 1.44832e-14
  8 1134.40 -0.00788237 -2.29896e-14
</Section>

newXOutput 44

<Section columns = "stress_xx | stress_yy | stress_xy">
  1 1157.74 -0.00786260 -5.45245e-14
  2 1157.74 -0.00786260 -3.21262e-14
  3 1157.74 -0.00786260 6.41823e-14
  4 1157.74 -0.00786260 4.77879e-14
  5 1157.74 -0.00786260 1.40110e-13
  6 1157.74 -0.00786260 1.02071e-13
  7 1157.74 -0.00786260 1.25854e-13
  8 1157.74 -0.00786260 9.21847e-14
</Section>

newXOutput 45

<Section columns = "stress_xx | stress_yy | stress_xy">
  1 1180.93 -0.00784294 -6.45751e-14
  2 1180.93 -0.00784294 -5.22003e-14
  3 1180.93 -0.00784294 -8.98695e-15
  4 1180.93 -0.00784294 1.26416e-14
  5 1180.93 -0.00784294 9.56931e-15
  6 1180.93 -0.00784294 -1.70699e-14
  7 1180.93 -0.00784294 -3.78835e-14
  8 1180.93 -0.00784294 -9.01558e-14
</Section>

newXOutput 46

<Section columns = "stress_xx | stress_yy | stress_xy">
  1 1203.98 -0.00782337 -5.34335e-14
  2 1203.98 -0.00782337 -7.68463e-14
  3 1203.98 -0.00782337 -1.69950e-14
  4 1203.98 -0.00782337 -4.39125e-15
  5 1203.98 -0.00782337 3.51945e-14
  6 1203.98 -0.00782337 5.23343e-14
  7 1203.98 -0.00782337 9.33818e-15
  8 1203.98 -0.00782337 1.22317e-13
</Section>

newXOutput 47

<Section columns = "stress_xx | stress_yy | stress_xy">
  1 1226.87 -0.00780389 -8.21868e-14
  2 1226.87 -0.00780389 -1.06728e-13
  3 1226.87 -0.00780389 -3.28844e-14
  4 1226.87 -0.00780389 -7.93092e-14
  5 1226.87 -0.00780389 -1.28251e-13
  6 1226.87 -0.00780389 -1.33744e-13
  7 1226.87 -0.00780389 -2.25157e-13
  8 1226.87 -0.00780389 2.27949e-14
</Section>

newXOutput 48

<Section columns = "stress_xx | stress_yy | stress_xy">
  1 1249.62 -0.00778450 -8.88434e-14
  2 1249.62 -0.00778450 -2.77488e-14
  3 1249.62 -0.00778450 -4.87038e-15
  4 1249.62 -0.00778450 5.75682e-14
  5 1249.62 -0.00778450 -1.56209e-15
  6 1249.62 -0.00778450 5.92434e-14
  7 1249.62 -0.00778450 5.88898e-14
  8 1249.62 -0.00778450 1.42089e-13
</Section>

newXOutput 49

<Section columns = "stress_xx | stress_yy | stress_xy">
  1 1272.22 -0.00776521 -2.38789e-14
  2 1272.22 -0.00776521 -1.64760e-13
  3 1272.22 -0.00776521 5.71859e-14
  4 1272.22 -0.00776521 3.65561e-14
  5 1272.22 -0.00776521 1.81604e-13
  6 1272.22 -0.00776521 2.75723e-13
  7 1272.22 -0.00776521 3.13593e-13
  8 1272.22 -0.00776521 2.24937e-13
</Section>

newXOutput 50

<Section columns = "stress_xx | stress_yy | stress_xy">
  1 1294.67 -0.00774601 -3.93367e-14
  2 1294.67 -0.00774601 -4.66066e-14
  3 1294.67 -0.00774601 5.73569e-14
  4 1294.67 -0.00774601 7.54215e-14
  5 1294.67 -0.00774601 -8.04614e-14
  6 1294.67 -0.00774601 -5.88860e-14
  7 1294.67 -0.00774601 -2.23686e-14
  8 1294.67 -0.00774601 -6.05344e-14
</Section>

newXOutput 51

<Section columns = "stress_xx | stress_yy | stress_xy">
  1 1316.99 -0.00772690 -6.94170e-14
  2 1316.99 -0.00772690 -6.57973e-14
  3 1316.99 -0.00772690 -1.32117e-14
  4 1316.99 -0.00772690 -3.98607e-14
  5 1316.99 -0.00772690 -3.77291e-14
  6 1316.99 -0.00772690 -6.29184e-14
  7 1316.99 -0.00772690 -7.95499e-15
  8 1316.99 -0.00772690 6.16650e-14
</Section>

newXOutput 52

<Section columns = "stress_xx | stress_yy | stress_xy">
  1 1339.16 -0.00770789 -5.07697e-14
  2 1339.16 -0.00770789 -4.95681e-14
  3 1339.16 -0.00770789 9.01159e-14
  4 1339.16 -0.00770789 3.15813e-14
  5 1339.16 -0.00770789 -1.65516e-14
  6 1339.16 -0.00770789 -4.47937e-14
  7 1339.16 -0.00770789 2.25144e-15
  8 1339.16 -0.00770789 7.66311e-14
</Section>

newXOutput 53

<Section columns = "stress_xx | stress_yy | stress_xy">
  1 1361.19 -0.00768896 -3.81176e-14
  2 1361.19 -0.00768896 -6.68341e-14
  3 1361.19 -0.00768896 1.81556e-13
  4 1361.19 -0.00768896 1.39242e-13
  5 1361.19 -0.00768896 -5.28395e-14
  6 1361.19 -0.00768896 -9.64171e-14
  7 1361.19 -0.00768896 -7.94232e-14
  8 1361.19 -0.00768896 -7.29558e-14
</Section>

newXOutput 54

<Section columns = "stress_xx | stress_yy | stress_xy">
  1 1383.08 -0.00767012 2.80176e-14
  2 1383.08 -0.00767012 -5.79209e-16
  3 1383.08 -0.00767012 1.40133e-13
  4 1383.08 -0.00767012 1.47556e-13
  5 1383.08 -0.00767012 4.28187e-13
  6 1383.08 -0.00767012 4.36030e-13
  7 1383.08 -0.00767012 4.80450e-13
  8 1383.08 -0.00767012 3.52311e-13
</Section>

newXOutput 55

<Section columns = "stress_xx | stress_yy | stress_xy">
  1 1404.83 -0.00765137 -4.11655e-14
  2 1404.83 -0.00765137 -6.48971e-14
  3 1404.83 -0.00765137 3.48007e-14
  4 1404.83 -0.00765137 4.44040e-14
  5 1404.83 -0.00765137 -2.78479e-13
  6 1404.83 -0.00765137 -2.70571e-13
  7 1404.83 -0.00765137 -8.56695e-14
  8 1404.83 -0.00765137 -3.00669e-13
</Section>

newXOutput 56

<Section columns = "stress_xx | stress_yy | stress_xy">
  1 1426.45 -0.00763271 -4.56313e-14
  2 1426.45 -0.00763271 -7.16277e-14
  3 1426.45 -0.00763271 -3.07640e-13
  4 1426.45 -0.00763271 -2.03950e-13
  5 1426.45 -0.00763271 2.13296e-13
  6 1426.45 -0.00763271 2.45769e-13
  7 1426.45 -0.00763271 6.38478e-14
  8 1426.45 -0.00763271 -1.67094e-13
</Section>

newXOutput 57

<Section columns = "stress_xx | stress_yy | stress_xy">
  1 1447.92 -0.00761414 5.05708e-15
  2 1447.92 -0.00761414 -7.02551e-14
  3 1447.92 -0.00761414 -1.30512e-13
  4 1447.92 -0.00761414 -2.33580e-13
  5 1447.92 -0.00761414 -2.50231e-13
  6 1447.92 -0.00761414 -3.56274e-13
  7 1447.92 -0.00761414 1.13071e-14
  8 1447.92 -0.00761414 -1.07396e-13
</Section>

newXOutput 58

<Section columns = "stress_xx | stress_yy | stress_xy">
  1 1469.27 -0.00759566 -8.14997e-14
  2 1469.27 -0.00759566 -3.99229e-14
  3 1469.27 -0.00759566 2.89987e-14
  4 1469.27 -0.00759566 -4.24726e-14
  5 1469.27 -0.00759566 7.43358e-14
  6 1469.27 -0.00759566 7.40580e-14
  7 1469.27 -0.00759566 7.93607e-14
  8 1469.27 -0.00759566 1.01375e-13
</Section>

newXOutput 59

<Section columns = "stress_xx | stress_yy | stress_xy">
  1 1490.48 -0.00757726 -6.53405e-14
  2 1490.48 -0.00757726 -1.86588e-14
  3 1490.48 -0.00757726 -8.65575e-14
  4 1490.48 -0.00757726 1.23760e-14
  5 1490.48 -0.00757726 -3.76122e-13
  6 1490.48 -0.00757726 -2.92327e-13
  7 1490.48 -0.00757726 1.10601e-13
  8 1490.48 -0.00757726 1.89182e-13
</Section>

newXOutput 60

<Section columns = "stress_xx | stress_yy | stress_xy">
  1 1511.55 -0.00755895 -8.42711e-14
  2 1511.55 -0.00755895 -9.75325e-14
  3 1511.55 -0.00755895 2.97999e-13
  4 1511.55 -0.00755895 3.02543e-13
  5 1511.55 -0.00755895 3.96509e-14
  6 1511.55 -0.00755895 6.18650e-14
  7 1511.55 -0.00755895 3.16212e-14
  8 1511.55 -0.00755895 7.85273e-14
</Section>

newXOutput 61

<Section columns = "stress_xx | stress_yy | stress_xy">
  1 1532.49 -0.00754072 -1.14662e-13
  2 1532.49 -0.00754072 -8.38468e-14
  3 1532.49 -0.00754072 4.18276e-14
  4 1532.49 -0.00754072 5.36852e-14
  5 1532.49 -0.00754072 -1.44532e-13
  6 1532.49 -0.00754072 -1.88136e-13
  7 1532.49 -0.00754072 1.30797e-13
  8 1532.49 -0.00754072 2.73725e-13
</Section>

newXOutput 62

<Section columns = "stress_xx | stress_yy | stress_xy">
  1 1553.31 -0.00752258 -5.95818e-14
  2 1553.31 -0.00752258 -8.80048e-14
  3 1553.31 -0.00752258 3.39109e-14
  4 1553.31 -0.00752258 1.12215e-14
  5 1553.31 -0.00752258 -6.31158e-14
  6 1553.31 -0.00752258 -5.31813e-14
  7 1553.31 -0.00752258 5.29209e-14
  8 1553.31 -0.00752258 -9.20467e-15
</Section>

newXOutput 63

<Section columns = "stress_xx | stress_yy | stress_xy">
  1 1573.99 -0.00750453 -3.37320e-14
  2 1573.99 -0.00750453 -1.30688e-14
  3 1573.99 -0.00750453 -7.64094e-14
  4 1573.99 -0.00750453 6.23225e-15
  5 1573.99 -0.00750453 -2.68608e-14
  6 1573.99 -0.00750453 -1.05335e-13
  7 1573.99 -0.00750453 2.16273e-13
  8 1573.99 -0.00750453 -2.35606e-14
</Section>

newXOutput 64

<Section columns = "stress_xx | stress_yy | stress_xy">
  1 1594.54 -0.00748655 -8.10804e-14
  2 1594.54 -0.00748655 -7.04784e-14
  3 1594.54 -0.00748655 -7.38832e-14
  4 1594.54 -0.00748655 -5.86426e-14
  5 1594.54 -0.00748655 -1.62927e-13
  6 1594.54 -0.00748655 -9.63726e-14
  7 1594.54 -0.00748655 -2.86236e-13
  8 1594.54 -0.00748655 -2.46955e-13
</Section>

newXOutput 65

<Section columns = "stress_xx | stress_yy | stress_xy">
  1 1614.97 -0.00746866 -6.18334e-14
  2 1614.97 -0.00746866 -5.58681e-14
  3 1614.97 -0.00746866 4.48736e-14
  4 1614.97 -0.00746866 3.74484e-14
  5 1614.97 -0.00746866 -7.31933e-14
  6 1614.97 -0.00746866 -6.61331e-14
  7 1614.97 -0.00746866 -4.88468e-14
  8 1614.97 -0.00746866 8.45133e-14
</Section>

newXOutput 66

<Section columns = "stress_xx | stress_yy | stress_xy">
  1 1635.26 -0.00745086 -1.50014e-14
  2 1635.26 -0.00745086 -1.02546e-13
  3 1635.26 -0.00745086 6.97844e-14
  4 1635.26 -0.00745086 4.13957e-14
  5 1635.26 -0.00745086 -2.08841e-13
  6 1635.26 -0.00745086 -1.68622e-13
  7 1635.26 -0.00745086 1.76559e-14
  8 1635.26 -0.00745086 -6.36070e-15
</Section>

newXOutput 67

<Section columns = "stress_xx | stress_yy | stress_xy">
  1 1655.44 -0.00743314 -4.29931e-16
  2 1655.44 -0.00743314 -9.84869e-14
  3 1655.44 -0.00743314 1.54307e-13
  4 1655.44 -0.00743314 1.96450e-13
  5 1655.44 -0.00743314 -2.51219e-14
  6 1655.44 -0.00743314 -1.91781e-15
  7 1655.44 -0.00743314 1.05459e-13
  8 1655.44 -0.00743314 -1.53071e-13
</Section>

newXOutput 68

<Section columns = "stress_xx | stress_yy | stress_xy">
  1 1675.48 -0.00741549 -1.16766e-13
  2 1675.48 -0.00741549 -1.25764e-13
  3 1675.48 -0.00741549 -1.46835e-13
  4 1675.48 -0.00741549 -1.26897e-13
  5 1675.48 -0.00741549 7.67067e-14
  6 1675.48 -0.00741549 1.12542e-13
  7 1675.48 -0.00741549 1.68824e-13
  8 1675.48 -0.00741549 3.87427e-13
</Section>

newXOutput 69

<Section columns = "stress_xx | stress_yy | stress_xy">
  1 1695.41 -0.00739793 -1.05377e-13
  2 1695.41 -0.00739793 -1.21059e-13
  3 1695.41 -0.00739793 -3.25610e-15
  4 1695.41 -0.00739793 -8.23337e-14
  5 1695.41 -0.00739793 -1.75835e-13
  6 1695.41 -0.00739793 -2.32333e-13
  7 1695.41 -0.00739793 -1.35862e-13
  8 1695.41 -0.00739793 -4.60659e-13
</Section>

newXOutput 70

<Section columns = "stress_xx | stress_yy | stress_xy">
  1 1715.21 -0.00738046 -1.11242e-15
  2 1715.21 -0.00738046 -2.66958e-14
  3 1715.21 -0.00738046 1.17905e-13
  4 1715.21 -0.00738046 7.12008e-14
  5 1715.21 -0.00738046 3.71718e-13
  6 1715.21 -0.00738046 3.93439e-13
  7 1715.21 -0.00738046 2.46511e-13
  8 1715.21 -0.00738046 4.55338e-13
</Section>

newXOutput 71

<Section columns = "stress_xx | stress_yy | stress_xy">
  1 1734.88 -0.00736306 -8.59032e-14
  2 1734.88 -0.00736306 -1.05903e-13
  3 1734.88 -0.00736306 4.57636e-14
  4 1734.88 -0.00736306 3.46585e-14
  5 1734.88 -0.00736306 -1.17157e-13
  6 1734.88 -0.00736306 -1.14421e-13
  7 1734.88 -0.00736306 -5.44904e-14
  8 1734.88 -0.00736306 -1.07675e-13
</Section>

newXOutput 72

<Section columns = "stress_xx | stress_yy | stress_xy">
  1 1754.44 -0.00734574 -5.82424e-14
  2 1754.44 -0.00734574 -7.59479e-14
  3 1754.44 -0.00734574 -2.08669e-15
  4 1754.44 -0.00734574 5.54722e-14
  5 1754.44 -0.00734574 7.12902e-14
  6 1754.44 -0.00734574 1.32923e-13
  7 1754.44 -0.00734574 4.63778e-15
  8 1754.44 -0.00734574 2.25972e-13
</Section>

newXOutput 73

<Section columns = "stress_xx | stress_yy | stress_xy">
  1 1773.88 -0.00732850 -5.35498e-14
  2 1773.88 -0.00732850 -6.35082e-14
  3 1773.88 -0.00732850 4.33824e-14
  4 1773.88 -0.00732850 1.68527e-14
  5 1773.88 -0.00732850 -1.50855e-13
  6 1773.88 -0.00732850 -1.52615e-13
  7 1773.88 -0.00732850 1.31785e-13
  8 1773.88 -0.00732850 7.43175e-14
</Section>

newXOutput 74

<Section columns = "stress_xx | stress_yy | stress_xy">
  1 1793.19 -0.00731134 -1.03567e-13
  2 1793.19 -0.00731134 -3.11203e-14
  3 1793.19 -0.00731134 5.06573e-14
  4 1793.19 -0.00731134 7.35755e-14
  5 1793.19 -0.00731134 -4.14166e-13
  6 1793.19 -0.00731134 -4.57987e-13
  7 1793.19 -0.00731134 -7.43137e-14
  8 1793.19 -0.00731134 -4.38090e-13
</Section>

newXOutput 75

<Section columns = "stress_xx | stress_yy | stress_xy">
  1 1812.39 -0.00729425 -1.19545e-13
  2 1812.39 -0.00729425 -1.58902e-13
  3 1812.39 -0.00729425 -2.40075e-14
  4 1812.39 -0.00729425 -2.83547e-14
  5 1812.39 -0.00729425 -1.09967e-14
  6 1812.39 -0.00729425 6.31628e-15
  7 1812.39 -0.00729425 1.64531e-13
  8 1812.39 -0.00729425 3.01470e-13
</Section>

newXOutput 76

<Section columns = "stress_xx | stress_yy | stress_xy">
  1 1831.47 -0.00727725 -5.13208e-14
  2 1831.47 -0.00727725 5.30079e-15
  3 1831.47 -0.00727725 7.59205e-14
  4 1831.47 -0.00727725 -3.54174e-14
  5 1831.47 -0.00727725 3.16734e-13
  6 1831.47 -0.00727725 2.93749e-13
  7 1831.47 -0.00727725 1.31763e-13
  8 1831.47 -0.00727725 6.33987e-14
</Section>

newXOutput 77

<Section columns = "stress_xx | stress_yy | stress_xy">
  1 1850.44 -0.00726032 -8.87557e-14
  2 1850.44 -0.00726032 -1.06108e-13
  3 1850.44 -0.00726032 4.63064e-14
  4 1850.44 -0.00726032 -2.56125e-14
  5 1850.44 -0.00726032 -2.76885e-13
  6 1850.44 -0.00726032 -2.77618e-13
  7 1850.44 -0.00726032 5.97981e-14
  8 1850.44 -0.00726032 7.63966e-14
</Section>

newXOutput 78

<Section columns = "stress_xx | stress_yy | stress_xy">
  1 1869.29 -0.00724347 -7.84726e-14
  2 1869.29 -0.00724347 -6.11899e-14
  3 1869.29 -0.00724347 7.71753e-14
  4 1869.29 -0.00724347 5.62425e-14
  5 1869.29 -0.00724347 -1.66269e-13
  6 1869.29 -0.00724347 -1.94106e-13
  7 1869.29 -0.00724347 1.56905e-13
  8 1869.29 -0.00724347 2.80948e-14
</Section>

newXOutput 79

<Section columns = "stress_xx | stress_yy | stress_xy">
  1 1888.02 -0.00722670 -4.39291e-14
  2 1888.02 -0.00722670 -2.67154e-14
  3 1888.02 -0.00722670 -1.44422e-13
  4 1888.02 -0.00722670 -1.36846e-13
  5 1888.02 -0.00722670 9.16678e-14
  6 1888.02 -0.00722670 1.53854e-13
  7 1888.02 -0.00722670 -2.01667e-13
  8 1888.02 -0.00722670 2.48903e-13
</Section>

newXOutput 80

<Section columns = "stress_xx | stress_yy | stress_xy">
  1 1906.64 -0.00721000 -7.24009e-14
  2 1906.64 -0.00721000 -7.02578e-14
  3 1906.64 -0.00721000 2.81674e-13
  4 1906.64 -0.00721000 2.84939e-13
  5 1906.64 -0.00721000 -1.27001e-13
  6 1906.64 -0.00721000 -1.34018e-13
  7 1906.64 -0.00721000 3.33760e-13
  8 1906.64 -0.00721000 2.55418e-13
</Section>

newXOutput 81

<Section columns = "stress_xx | stress_yy | stress_xy">
  1 1925.15 -0.00719337 -2.49432e-14
  2 1925.15 -0.00719337 -3.48820e-14
  3 1925.15 -0.00719337 9.85502e-14
  4 1925.15 -0.00719337 1.63921e-13
  5 1925.15 -0.00719337 7.52283e-14
  6 1925.15 -0.00719337 1.15449e-13
  7 1925.15 -0.00719337 -4.61720e-14
  8 1925.15 -0.00719337 1.32863e-13
</Section>

newXOutput 82

<Section columns = "stress_xx | stress_yy | stress_xy">
  1 1943.55 -0.00717683 -1.31164e-13
  2 1943.55 -0.00717683 -1.26911e-13
  3 1943.55 -0.00717683 -7.14299e-14
  4 1943.55 -0.00717683 -2.03493e-14
  5 1943.55 -0.00717683 -2.98802e-13
  6 1943.55 -0.00717683 -3.15724e-13
  7 1943.55 -0.00717683 -9.99028e-14
  8 1943.55 -0.00717683 7.88623e-14
</Section>

newXOutput 83

<Section columns = "stress_xx | stress_yy | stress_xy">
  1 1961.83 -0.00716035 -9.68226e-14
  2 1961.83 -0.00716035 -8.62343e-14
  3 1961.83 -0.00716035 -1.32493e-13
  4 1961.83 -0.00716035 -1.07561e-13
  5 1961.83 -0.00716035 -2.52484e-13
  6 1961.83 -0.00716035 -2.42022e-13
  7 1961.83 -0.00716035 1.47426e-13
  8 1961.83 -0.00716035 -2.40523e-13
</Section>

newXOutput 84

<Section columns = "stress_xx | stress_yy | stress_xy">
  1 1980.00 -0.00714395 -1.25964e-13
  2 1980.00 -0.00714395 -1.25349e-13
  3 1980.00 -0.00714395 3.80110e-14
  4 1980.00 -0.00714395 1.74212e-14
  5 1980.00 -0.00714395 4.78194e-14
  6 1980.00 -0.00714395 -1.01328e-15
  7 1980.00 -0.00714395 3.39139e-14
  8 1980.00 -0.00714395 1.92281e-13
</Section>

newXOutput 85

<Section columns = "stress_xx | stress_yy | stress_xy">
  1 1998.07 -0.00712763 -1.13116e-13
  2 1998.07 -0.00712763 -1.00510e-13
  3 1998.07 -0.00712763 5.53145e-14
  4 1998.07 -0.00712763 2.74876e-14
  5 1998.07 -0.00712763 1.04740e-13
  6 1998.07 -0.00712763 7.17985e-14
  7 1998.07 -0.00712763 2.45738e-13
  8 1998.07 -0.00712763 2.83760e-13
</Section>

newXOutput 86

<Section columns = "stress_xx | stress_yy | stress_xy">
  1 2016.02 -0.00711137 -6.99635e-14
  2 2016.02 -0.00711137 -7.83339e-14
  3 2016.02 -0.00711137 -2.02587e-14
  4 2016.02 -0.00711137 -1.21232e-14
  5 2016.02 -0.00711137 7.46572e-15
  6 2016.02 -0.00711137 9.30865e-14
  7 2016.02 -0.00711137 1.33327e-13
  8 2016.02 -0.00711137 6.64222e-14
</Section>

newXOutput 87

<Section columns = "stress_xx | stress_yy | stress_xy">
  1 2033.87 -0.00709519 -1.51015e-13
  2 2033.87 -0.00709519 -1.63521e-13
  3 2033.87 -0.00709519 4.24950e-14
  4 2033.87 -0.00709519 1.85735e-16
  5 2033.87 -0.00709519 -7.99138e-14
  6 2033.87 -0.00709519 -1.45526e-13
  7 2033.87 -0.00709519 -5.15059e-14
  8 2033.87 -0.00709519 -1.22460e-13
</Section>

newXOutput 88

<Section columns = "stress_xx | stress_yy | stress_xy">
  1 2051.61 -0.00707908 -9.34830e-14
  2 2051.61 -0.00707908 -8.47170e-14
  3 2051.61 -0.00707908 -1.83750e-14
  4 2051.61 -0.00707908 3.08439e-15
  5 2051.61 -0.00707908 1.01812e-13
  6 2051.61 -0.00707908 1.86768e-13
  7 2051.61 -0.00707908 5.31714e-14
  8 2051.61 -0.00707908 2.12573e-13
</Section>

newXOutput 89

<Section columns = "stress_xx | stress_yy | stress_xy">
  1 2069.25 -0.00706305 2.07282e-14
  2 2069.25 -0.00706305 -1.69526e-13
  3 2069.25 -0.00706305 8.45574e-14
  4 2069.25 -0.00706305 -8.89697e-15
  5 2069.25 -0.00706305 -2.02664e-13
  6 2069.25 -0.00706305 -4.60698e-14
  7 2069.25 -0.00706305 4.73642e-14
  8 2069.25 -0.00706305 1.56593e-13
</Section>

newXOutput 90

<Section columns = "stress_xx | stress_yy | stress_xy">
  1 2086.78 -0.00704708 -8.68391e-14
  2 2086.78 -0.00704708 -6.21208e-14
  3 2086.78 -0.00704708 -2.98761e-14
  4 2086.78 -0.00704708 -2.31851e-14
  5 2086.78 -0.00704708 -1.97980e-13
  6 2086.78 -0.00704708 -1.93593e-13
  7 2086.78 -0.00704708 1.73545e-13
  8 2086.78 -0.00704708 -1.83330e-13
</Section>

newXOutput 91

<Section columns = "stress_xx | stress_yy | stress_xy">
  1 2104.20 -0.00703119 -8.22867e-14
  2 2104.20 -0.00703119 -4.94581e-14
  3 2104.20 -0.00703119 1.46492e-13
  4 2104.20 -0.00703119 1.57173e-13
  5 2104.20 -0.00703119 2.77650e-13
  6 2104.20 -0.00703119 2.49127e-13
  7 2104.20 -0.00703119 1.76034e-13
  8 2104.20 -0.00703119 3.42148e-13
</Section>

newXOutput 92

<Section columns = "stress_xx | stress_yy | stress_xy">
  1 2121.52 -0.00701536 -1.40172e-13
  2 2121.52 -0.00701536 -1.07472e-13
  3 2121.52 -0.00701536 9.21809e-14
  4 2121.52 -0.00701536 1.08972e-13
  5 2121.52 -0.00701536 4.38562e-13
  6 2121.52 -0.00701536 4.84503e-13
  7 2121.52 -0.00701536 4.43157e-13
  8 2121.52 -0.00701536 3.46304e-13
</Section>

newXOutput 93

<Section columns = "stress_xx | stress_yy | stress_xy">
  1 2122.63 -0.513250 0.542466
  2 2122.63 -0.513250 -0.542466
  3 2116.40 0.132143 0.271476
  4 2116.40 0.132143 -0.271476
  5 2116.40 0.132143 -0.271476
  6 2116.40 0.132143 0.271476
  7 2122.63 -0.513250 -0.542466
  8 2122.63 -0.513250 0.542466
</Section>

newXOutput 94

<Section columns = "stress_xx | stress_yy | stress_xy">
  1 2099.09 -1.73211 1.85020
  2 2099.09 -1.73211 -1.85020
  3 2077.67 0.871846 0.927917
  4 2077.67 0.871846 -0.927917
  5 2077.67 0.871846 -0.927917
  6 2077.67 0.871846 0.927917
  7 2099.09 -1.73211 -1.85020
  8 2099.09 -1.73211 1.85020
</Section>

newXOutput 95

<Section columns = "stress_xx | stress_yy | stress_xy">
  1 2075.82 -2.90305 3.09034
  2 2075.82 -2.90305 -3.09034
  3 2040.01 1.45990 1.55298
  4 2040.01 1.45990 -1.55298
  5 2040.01 1.45990 -1.55298
  6 2040.01 1.45990 1.55298
  7 2075.82 -2.90305 -3.09034
  8 2075.82 -2.90305 3.09034
</Section>

newXOutput 96

<Section columns = "stress_xx | stress_yy | stress_xy">
  1 2052.86 -4.01419 4.26092
  2 2052.86 -4.01419 -4.26092
  3 2003.45 2.01692 2.14524
  4 2003.45 2.01692 -2.14524
  5 2003.45 2.01692 -2.14524
  6 2003.45 2.01692 2.14524
  7 2052.86 -4.01419 -4.26092
  8 2052.86 -4.01419 4.26092
</Section>

newXOutput 97

<Section columns = "stress_xx | stress_yy | stress_xy">
  1 2030.20 -5.06716 5.36598
  2 2030.20 -5.06716 -5.36598
  3 1967.96 2.54410 2.70630
  4 1967.96 2.54410 -2.70630
  5 1967.96 2.54410 -2.70630
  6 1967.96 2.54410 2.70630
  7 2030.20 -5.06716 -5.36598
  8 2030.20 -5.06716 5.36598
</Section>

newXOutput 98

<Section columns = "stress_xx | stress_yy | stress_xy">
  1 2007.86 -6.06378 6.40929
  2 2007.86 -6.06378 -6.40929
  3 1933.47 3.04266 3.23772
  4 1933.47 3.04266 -3.23772
  5 1933.47 3.04266 -3.23772
  6 1933.47 3.04266 3.23772
  7 2007.86 -6.06378 -6.40929
  8 2007.86 -6.06378 6.40929
</Section>

newXOutput 99

<Section columns = "stress_xx | stress_yy | stress_xy">
  1 1985.81 -7.00596 7.39440
  2 1985.81 -7.00596 -7.39440
  3 1899.95 3.51381 3.74100
  4 1899.95 3.51381 -3.74100
  5 1899.95 3.51381 -3.74100
  6 1899.95 3.51381 3.74100
  7 1985.81 -7.00596 -7.39440
  8 1985.81 -7.00596 7.39440
</Section>

newXOutput 100

<Section columns = "stress_xx | stress_yy | stress_xy">
  1 1964.07 -7.89571 8.32462
  2 1964.07 -7.89571 -8.32462
  3 1867.36 3.95874 4.21754
  4 1867.36 3.95874 -4.21754
  5 1867.36 3.95874 -4.21754
  6 1867.36 3.95874 4.21754
  7 1964.07 -7.89571 -8.32462
  8 1964.07 -7.89571 8.32462
</Section>

newXOutput 101

<Section columns = "stress_xx | stress_yy | stress_xy">
  1 1942.62 -8.73505 9.20305
  2 1942.62 -8.73505 -9.20305
  3 1835.66 4.37860 4.66869
  4 1835.66 4.37860 -4.66869
  5 1835.66 4.37860 -4.66869
  6 1835.66 4.37860 4.66869
  7 1942.62 -8.73505 -9.20305
  8 1942.62 -8.73505 9.20305
</Section>

newXOutput 102

<Section columns = "stress_xx | stress_yy | stress_xy">
  1 1921.46 -9.52602 10.0326
  2 1921.46 -9.52602 -10.0326
  3 1804.81 4.77451 5.09571
  4 1804.81 4.77451 -5.09571
  5 1804.81 4.77451 -5.09571
  6 1804.81 4.77451 5.09571
  7 1921.46 -9.52602 -10.0326
  8 1921.46 -9.52602 10.0326
</Section>

newXOutput 103

<Section columns = "stress_xx | stress_yy | stress_xy">
  1 1900.59 -10.2706 10.8159
  2 1900.59 -10.2706 -10.8159
  3 1774.77 5.14752 5.49981
  4 1774.77 5.14752 -5.49981
  5 1774.77 5.14752 -5.49981
  6 1774.77 5.14752 5.49981
  7 1900.59 -10.2706 -10.8159
  8 1900.59 -10.2706 10.8159
</Section>

newXOutput 104

<Section columns = "stress_xx | stress_yy | stress_xy">
  1 1879.99 -10.9709 11.5556
  2 1879.99 -10.9709 -11.5556
  3 1745.51 5.49864 5.88212
  4 1745.51 5.49864 -5.88212
  5 1745.51 5.49864 -5.88212
  6 1745.51 5.49864 5.88212
  7 1879.99 -10.9709 -11.5556
  8 1879.99 -10.9709 11.5556
</Section>

newXOutput 105

<Section columns = "stress_xx | stress_yy | stress_xy">
  1 1859.66 -11.6288 12.2539
  2 1859.66 -11.6288 -12.2539
  3 1717.00 5.82885 6.24371
  4 1717.00 5.82885 -6.24371
  5 1717.00 5.82885 -6.24371
  6 1717.00 5.82885 6.24371
  7 1859.66 -11.6288 -12.2539
  8 1859.66 -11.6288 12.2539
</Section>

newXOutput 106

<Section columns = "stress_xx | stress_yy | stress_xy">
  1 1839.60 -12.2461 12.9132
  2 1839.60 -12.2461 -12.9132
  3 1689.21 6.13908 6.58561
  4 1689.21 6.13908 -6.58561
  5 1689.21 6.13908 -6.58561
  6 1689.21 6.13908 6.58561
  7 1839.60 -12.2461 -12.9132
  8 1839.60 -12.2461 12.9132
</Section>

newXOutput 107

<Section columns = "stress_xx | stress_yy | stress_xy">
  1 1819.80 -12.8248 13.5354
  2 1819.80 -12.8248 -13.5354
  3 1662.10 6.43022 6.90877
  4 1662.10 6.43022 -6.90877
  5 1662.10 6.43022 -6.90877
  6 1662.10 6.43022 6.90877
  7 1819.80 -12.8248 -13.5354
  8 1819.80 -12.8248 13.5354
</Section>

newXOutput 108

<Section columns = "stress_xx | stress_yy | stress_xy">
  1 1800.25 -13.3667 14.1224
  2 1800.25 -13.3667 -14.1224
  3 1635.64 6.70314 7.21409
  4 1635.64 6.70314 -7.21409
  5 1635.64 6.70314 -7.21409
  6 1635.64 6.70314 7.21409
  7 1800.25 -13.3667 -14.1224
  8 1800.25 -13.3667 14.1224
</Section>

newXOutput 109

<Section columns = "stress_xx | stress_yy | stress_xy">
  1 1780.95 -13.8733 14.6762
  2 1780.95 -13.8733 -14.6762
  3 1609.82 6.95865 7.50242
  4 1609.82 6.95865 -7.50242
  5 1609.82 6.95865 -7.50242
  6 1609.82 6.95865 7.50242
  7 1780.95 -13.8733 -14.6762
  8 1780.95 -13.8733 14.6762
</Section>

newXOutput 110

<Section columns = "stress_xx | stress_yy | stress_xy">
  1 1761.90 -14.3464 15.1983
  2 1761.90 -14.3464 -15.1983
  3 1584.61 7.19754 7.77457
  4 1584.61 7.19754 -7.77457
  5 1584.61 7.19754 -7.77457
  6 1584.61 7.19754 7.77457
  7 1761.90 -14.3464 -15.1983
  8 1761.90 -14.3464 15.1983
</Section>

newXOutput 111

<Section columns = "stress_xx | stress_yy | stress_xy">
  1 1743.07 -14.7876 15.6904
  2 1743.07 -14.7876 -15.6904
  3 1559.98 7.42057 8.03130
  4 1559.98 7.42057 -8.03130
  5 1559.98 7.42057 -8.03130
  6 1559.98 7.42057 8.03130
  7 1743.07 -14.7876 -15.6904
  8 1743.07 -14.7876 15.6904
</Section>

newXOutput 112

<Section columns = "stress_xx | stress_yy | stress_xy">
  1 1724.48 -15.1984 16.1539
  2 1724.48 -15.1984 -16.1539
  3 1535.91 7.62846 8.27334
  4 1535.91 7.62846 -8.27334
  5 1535.91 7.62846 -8.27334
  6 1535.91 7.62846 8.27334
  7 1724.48 -15.1984 -16.1539
  8 1724.48 -15.1984 16.1539
</Section>

newXOutput 113

<Section columns = "stress_xx | stress_yy | stress_xy">
  1 1706.11 -15.5803 16.5902
  2 1706.11 -15.5803 -16.5902
  3 1512.37 7.82190 8.50135
  4 1512.37 7.82190 -8.50135
  5 1512.37 7.82190 -8.50135
  6 1512.37 7.82190 8.50135
  7 1706.11 -15.5803 -16.5902
  8 1706.11 -15.5803 16.5902
</Section>

newXOutput 114

<Section columns = "stress_xx | stress_yy | stress_xy">
  1 1687.96 -15.9345 17.0007
  2 1687.96 -15.9345 -17.0007
  3 1489.35 8.00156 8.71599
  4 1489.35 8.00156 -8.71599
  5 1489.35 8.00156 -8.71599
  6 1489.35 8.00156 8.71599
  7 1687.96 -15.9345 -17.0007
  8 1687.96 -15.9345 17.0007
</Section>

newXOutput 115

<Section columns = "stress_xx | stress_yy | stress_xy">
  1 1670.02 -16.2625 17.3866
  2 1670.02 -16.2625 -17.3866
  3 1466.84 8.16807 8.91786
  4 1466.84 8.16807 -8.91786
  5 1466.84 8.16807 -8.91786
  6 1466.84 8.16807 8.91786
  7 1670.02 -16.2625 -17.3866
  8 1670.02 -16.2625 17.3866
</Section>

newXOutput 116

<Section columns = "stress_xx | stress_yy | stress_xy">
  1 1652.30 -16.5655 17.7491
  2 1652.30 -16.5655 -17.7491
  3 1444.80 8.32204 9.10754
  4 1444.80 8.32204 -9.10754
  5 1444.80 8.32204 -9.10754
  6 1444.80 8.32204 9.10754
  7 1652.30 -16.5655 -17.7491
  8 1652.30 -16.5655 17.7491
</Section>

newXOutput 117

<Section columns = "stress_xx | stress_yy | stress_xy">
  1 1634.77 -16.8448 18.0891
  2 1634.77 -16.8448 -18.0891
  3 1423.22 8.46406 9.28556
  4 1423.22 8.46406 -9.28556
  5 1423.22 8.46406 -9.28556
  6 1423.22 8.46406 9.28556
  7 1634.77 -16.8448 -18.0891
  8 1634.77 -16.8448 18.0891
</Section>

newXOutput 118

<Section columns = "stress_xx | stress_yy | stress_xy">
  1 1617.45 -17.1014 18.4079
  2 1617.45 -17.1014 -18.4079
  3 1402.09 8.59468 9.45246
  4 1402.09 8.59468 -9.45246
  5 1402.09 8.59468 -9.45246
  6 1402.09 8.59468 9.45246
  7 1617.45 -17.1014 -18.4079
  8 1617.45 -17.1014 18.4079
</Section>

newXOutput 119

<Section columns = "stress_xx | stress_yy | stress_xy">
  1 1600.31 -17.3365 18.7063
  2 1600.31 -17.3365 -18.7063
  3 1381.38 8.71443 9.60871
  4 1381.38 8.71443 -9.60871
  5 1381.38 8.71443 -9.60871
  6 1381.38 8.71443 9.60871
  7 1600.31 -17.3365 -18.7063
  8 1600.31 -17.3365 18.7063
</Section>

newXOutput 120

<Section columns = "stress_xx | stress_yy | stress_xy">
  1 1583.37 -17.5510 18.9852
  2 1583.37 -17.5510 -18.9852
  3 1361.10 8.82382 9.75479
  4 1361.10 8.82382 -9.75479
  5 1361.10 8.82382 -9.75479
  6 1361.10 8.82382 9.75479
  7 1583.37 -17.5510 -18.9852
  8 1583.37 -17.5510 18.9852
</Section>

newXOutput 121

<Section columns = "stress_xx | stress_yy | stress_xy">
  1 1566.61 -17.7461 19.2456
  2 1566.61 -17.7461 -19.2456
  3 1341.21 8.92335 9.89112
  4 1341.21 8.92335 -9.89112
  5 1341.21 8.92335 -9.89112
  6 1341.21 8.92335 9.89112
  7 1566.61 -17.7461 -19.2456
  8 1566.61 -17.7461 19.2456
</Section>

newXOutput 122

<Section columns = "stress_xx | stress_yy | stress_xy">
  1 1550.04 -17.9226 19.4882
  2 1550.04 -17.9226 -19.4882
  3 1321.71 9.01347 10.0181
  4 1321.71 9.01347 -10.0181
  5 1321.71 9.01347 -10.0181
  6 1321.71 9.01347 10.0181
  7 1550.04 -17.9226 -19.4882
  8 1550.04 -17.9226 19.4882
</Section>

newXOutput 123

<Section columns = "stress_xx | stress_yy | stress_xy">
  1 1533.64 -18.0815 19.7138
  2 1533.64 -18.0815 -19.7138
  3 1302.58 9.09462 10.1362
  4 1302.58 9.09462 -10.1362
  5 1302.58 9.09462 -10.1362
  6 1302.58 9.09462 10.1362
  7 1533.64 -18.0815 -19.7138
  8 1533.64 -18.0815 19.7138
</Section>

newXOutput 124

<Section columns = "stress_xx | stress_yy | stress_xy">
  1 1517.41 -18.2236 19.9232
  2 1517.41 -18.2236 -19.9232
  3 1283.81 9.16724 10.2458
  4 1283.81 9.16724 -10.2458
  5 1283.81 9.16724 -10.2458
  6 1283.81 9.16724 10.2458
  7 1517.41 -18.2236 -19.9232
  8 1517.41 -18.2236 19.9232
</Section>

newXOutput 125

<Section columns = "stress_xx | stress_yy | stress_xy">
  1 1501.35 -18.3496 20.1170
  2 1501.35 -18.3496 -20.1170
  3 1265.39 9.23172 10.3471
  4 1265.39 9.23172 -10.3471
  5 1265.39 9.23172 -10.3471
  6 1265.39 9.23172 10.3471
  7 1501.35 -18.3496 -20.1170
  8 1501.35 -18.3496 20.1170
</Section>

newXOutput 126

<Section columns = "stress_xx | stress_yy | stress_xy">
  1 1485.46 -18.4605 20.2960
  2 1485.46 -18.4605 -20.2960
  3 1247.31 9.28846 10.4406
  4 1247.31 9.28846 -10.4406
  5 1247.31 9.28846 -10.4406
  6 1247.31 9.28846 10.4406
  7 1485.46 -18.4605 -20.2960
  8 1485.46 -18.4605 20.2960
</Section>

newXOutput 127

<Section columns = "stress_xx | stress_yy | stress_xy">
  1 1469.73 -18.5569 20.4606
  2 1469.73 -18.5569 -20.4606
  3 1229.55 9.33782 10.5266
  4 1229.55 9.33782 -10.5266
  5 1229.55 9.33782 -10.5266
  6 1229.55 9.33782 10.5266
  7 1469.73 -18.5569 -20.4606
  8 1469.73 -18.5569 20.4606
</Section>

newXOutput 128

<Section columns = "stress_xx | stress_yy | stress_xy">
  1 1454.15 -18.6396 20.6116
  2 1454.15 -18.6396 -20.6116
  3 1212.12 9.38016 10.6054
  4 1212.12 9.38016 -10.6054
  5 1212.12 9.38016 -10.6054
  6 1212.12 9.38016 10.6054
  7 1454.15 -18.6396 -20.6116
  8 1454.15 -18.6396 20.6116
</Section>

newXOutput 129

<Section columns = "stress_xx | stress_yy | stress_xy">
  1 1438.73 -18.7091 20.7495
  2 1438.73 -18.7091 -20.7495
  3 1194.98 9.41580 10.6772
  4 1194.98 9.41580 -10.6772
  5 1194.98 9.41580 -10.6772
  6 1194.98 9.41580 10.6772
  7 1438.73 -18.7091 -20.7495
  8 1438.73 -18.7091 20.7495
</Section>

newXOutput 130

<Section columns = "stress_xx | stress_yy | stress_xy">
  1 1423.46 -18.7662 20.8749
  2 1423.46 -18.7662 -20.8749
  3 1178.15 9.44508 10.7425
  4 1178.15 9.44508 -10.7425
  5 1178.15 9.44508 -10.7425
  6 1178.15 9.44508 10.7425
  7 1423.46 -18.7662 -20.8749
  8 1423.46 -18.7662 20.8749
</Section>

newXOutput 131

<Section columns = "stress_xx | stress_yy | stress_xy">
  1 1408.34 -18.8114 20.9881
  2 1408.34 -18.8114 -20.9881
  3 1161.60 9.46829 10.8013
  4 1161.60 9.46829 -10.8013
  5 1161.60 9.46829 -10.8013
  6 1161.60 9.46829 10.8013
  7 1408.34 -18.8114 -20.9881
  8 1408.34 -18.8114 20.9881
</Section>

newXOutput 132

<Section columns = "stress_xx | stress_yy | stress_xy">
  1 1393.36 -18.8453 21.0898
  2 1393.36 -18.8453 -21.0898
  3 1145.33 9.48574 10.8540
  4 1145.33 9.48574 -10.8540
  5 1145.33 9.48574 -10.8540
  6 1145.33 9.48574 10.8540
  7 1393.36 -18.8453 -21.0898
  8 1393.36 -18.8453 21.0898
</Section>

newXOutput 133

<Section columns = "stress_xx | stress_yy | stress_xy">
  1 1378.52 -18.8686 21.1804
  2 1378.52 -18.8686 -21.1804
  3 1129.34 9.49769 10.9008
  4 1129.34 9.49769 -10.9008
  5 1129.34 9.49769 -10.9008
  6 1129.34 9.49769 10.9008
  7 1378.52 -18.8686 -21.1804
  8 1378.52 -18.8686 21.1804
</Section>

newXOutput 134

<Section columns = "stress_xx | stress_yy | stress_xy">
  1 1363.83 -18.8816 21.2603
  2 1363.83 -18.8816 -21.2603
  3 1113.60 9.50441 10.9420
  4 1113.60 9.50441 -10.9420
  5 1113.60 9.50441 -10.9420
  6 1113.60 9.50441 10.9420
  7 1363.83 -18.8816 -21.2603
  8 1363.83 -18.8816 21.2603
</Section>

newXOutput 135

<Section columns = "stress_xx | stress_yy | stress_xy">
  1 1349.26 -18.8849 21.3299
  2 1349.26 -18.8849 -21.3299
  3 1098.12 9.50616 10.9778
  4 1098.12 9.50616 -10.9778
  5 1098.12 9.50616 -10.9778
  6 1098.12 9.50616 10.9778
  7 1349.26 -18.8849 -21.3299
  8 1349.26 -18.8849 21.3299
</Section>

newXOutput 136

<Section columns = "stress_xx | stress_yy | stress_xy">
  1 1334.84 -18.8789 21.3897
  2 1334.84 -18.8789 -21.3897
  3 1082.89 9.50318 11.0084
  4 1082.89 9.50318 -11.0084
  5 1082.89 9.50318 -11.0084
  6 1082.89 9.50318 11.0084
  7 1334.84 -18.8789 -21.3897
  8 1334.84 -18.8789 21.3897
</Section>

newXOutput 137

<Section columns = "stress_xx | stress_yy | stress_xy">
  1 1320.54 -18.8642 21.4400
  2 1320.54 -18.8642 -21.4400
  3 1067.90 9.49570 11.0339
  4 1067.90 9.49570 -11.0339
  5 1067.90 9.49570 -11.0339
  6 1067.90 9.49570 11.0339
  7 1320.54 -18.8642 -21.4400
  8 1320.54 -18.8642 21.4400
</Section>

newXOutput 138

<Section columns = "stress_xx | stress_yy | stress_xy">
  1 1306.36 -18.8411 21.4812
  2 1306.36 -18.8411 -21.4812
  3 1053.14 9.48395 11.0547
  4 1053.14 9.48395 -11.0547
  5 1053.14 9.48395 -11.0547
  6 1053.14 9.48395 11.0547
  7 1306.36 -18.8411 -21.4812
  8 1306.36 -18.8411 21.4812
</Section>

newXOutput 139

<Section columns = "stress_xx | stress_yy | stress_xy">
  1 1292.32 -18.8101 21.5136
  2 1292.32 -18.8101 -21.5136
  3 1038.61 9.46812 11.0708
  4 1038.61 9.46812 -11.0708
  5 1038.61 9.46812 -11.0708
  6 1038.61 9.46812 11.0708
  7 1292.32 -18.8101 -21.5136
  8 1292.32 -18.8101 21.5136
</Section>

newXOutput 140

<Section columns = "stress_xx | stress_yy | stress_xy">
  1 1278.39 -18.7715 21.5375
  2 1278.39 -18.7715 -21.5375
  3 1024.31 9.44842 11.0824
  4 1024.31 9.44842 -11.0824
  5 1024.31 9.44842 -11.0824
  6 1024.31 9.44842 11.0824
  7 1278.39 -18.7715 -21.5375
  8 1278.39 -18.7715 21.5375
</Section>

newXOutput 141

<Section columns = "stress_xx | stress_yy | stress_xy">
  1 1264.59 -18.7258 21.5534
  2 1264.59 -18.7258 -21.5534
  3 1010.21 9.42505 11.0898
  4 1010.21 9.42505 -11.0898
  5 1010.21 9.42505 -11.0898
  6 1010.21 9.42505 11.0898
  7 1264.59 -18.7258 -21.5534
  8 1264.59 -18.7258 21.5534
</Section>

newXOutput 142

<Section columns = "stress_xx | stress_yy | stress_xy">
  1 1250.91 -18.6732 21.5614
  2 1250.91 -18.6732 -21.5614
  3 996.331 9.39819 11.0930
  4 996.331 9.39819 -11.0930
  5 996.331 9.39819 -11.0930
  6 996.331 9.39819 11.0930
  7 1250.91 -18.6732 -21.5614
  8 1250.91 -18.6732 21.5614
</Section>

newXOutput 143

<Section columns = "stress_xx | stress_yy | stress_xy">
  1 1237.34 -18.6141 21.5620
  2 1237.34 -18.6141 -21.5620
  3 982.651 9.36800 11.0923
  4 982.651 9.36800 -11.0923
  5 982.651 9.36800 -11.0923
  6 982.651 9.36800 11.0923
  7 1237.34 -18.6141 -21.5620
  8 1237.34 -18.6141 21.5620
</Section>

newXOutput 144

<Section columns = "stress_xx | stress_yy | stress_xy">
  1 1223.88 -18.5489 21.5552
  2 1223.88 -18.5489 -21.5552
  3 969.170 9.33466 11.0877
  4 969.170 9.33466 -11.0877
  5 969.170 9.33466 -11.0877
  6 969.170 9.33466 11.0877
  7 1223.88 -18.5489 -21.5552
  8 1223.88 -18.5489 21.5552
</Section>

newXOutput 145

<Section columns = "stress_xx | stress_yy | stress_xy">
  1 1210.53 -18.4778 21.5415
  2 1210.53 -18.4778 -21.5415
  3 955.882 9.29833 11.0795
  4 955.882 9.29833 -11.0795
  5 955.882 9.29833 -11.0795
  6 955.882 9.29833 11.0795
  7 1210.53 -18.4778 -21.5415
  8 1210.53 -18.4778 21.5415
</Section>

newXOutput 146

<Section columns = "stress_xx | stress_yy | stress_xy">
  1 1197.30 -18.4012 21.5211
  2 1197.30 -18.4012 -21.5211
  3 942.783 9.25915 11.0677
  4 942.783 9.25915 -11.0677
  5 942.783 9.25915 -11.0677
  6 942.783 9.25915 11.0677
  7 1197.30 -18.4012 -21.5211
  8 1197.30 -18.4012 21.5211
</Section>

newXOutput 147

<Section columns = "stress_xx | stress_yy | stress_xy">
  1 1184.17 -18.3193 21.4941
  2 1184.17 -18.3193 -21.4941
  3 929.867 9.21728 11.0526
  4 929.867 9.21728 -11.0526
  5 929.867 9.21728 -11.0526
  6 929.867 9.21728 11.0526
  7 1184.17 -18.3193 -21.4941
  8 1184.17 -18.3193 21.4941
</Section>

newXOutput 148

<Section columns = "stress_xx | stress_yy | stress_xy">
  1 1171.14 -18.2323 21.4610
  2 1171.14 -18.2323 -21.4610
  3 917.129 9.17285 11.0341
  4 917.129 9.17285 -11.0341
  5 917.129 9.17285 -11.0341
  6 917.129 9.17285 11.0341
  7 1171.14 -18.2323 -21.4610
  8 1171.14 -18.2323 21.4610
</Section>

newXOutput 149

<Section columns = "stress_xx | stress_yy | stress_xy">
  1 1158.22 -18.1406 21.4218
  2 1158.22 -18.1406 -21.4218
  3 904.566 9.12599 11.0125
  4 904.566 9.12599 -11.0125
  5 904.566 9.12599 -11.0125
  6 904.566 9.12599 11.0125
  7 1158.22 -18.1406 -21.4218
  8 1158.22 -18.1406 21.4218
</Section>

newXOutput 150

<Section columns = "stress_xx | stress_yy | stress_xy">
  1 1145.40 -18.0444 21.3768
  2 1145.40 -18.0444 -21.3768
  3 892.173 9.07683 10.9878
  4 892.173 9.07683 -10.9878
  5 892.173 9.07683 -10.9878
  6 892.173 9.07683 10.9878
  7 1145.40 -18.0444 -21.3768
  8 1145.40 -18.0444 21.3768
</Section>

newXOutput 151

<Section columns = "stress_xx | stress_yy | stress_xy">
  1 1132.68 -17.9439 21.3262
  2 1132.68 -17.9439 -21.3262
  3 879.946 9.02549 10.9602
  4 879.946 9.02549 -10.9602
  5 879.946 9.02549 -10.9602
  6 879.946 9.02549 10.9602
  7 1132.68 -17.9439 -21.3262
  8 1132.68 -17.9439 21.3262
</Section>

newXOutput 152

<Section columns = "stress_xx | stress_yy | stress_xy">
  1 1120.06 -17.8394 21.2702
  2 1120.06 -17.8394 -21.2702
  3 867.881 8.97208 10.9297
  4 867.881 8.97208 -10.9297
  5 867.881 8.97208 -10.9297
  6 867.881 8.97208 10.9297
  7 1120.06 -17.8394 -21.2702
  8 1120.06 -17.8394 21.2702
</Section>

newXOutput 153

<Section columns = "stress_xx | stress_yy | stress_xy">
  1 1107.53 -17.7310 21.2089
  2 1107.53 -17.7310 -21.2089
  3 855.974 8.91672 10.8966
  4 855.974 8.91672 -10.8966
  5 855.974 8.91672 -10.8966
  6 855.974 8.91672 10.8966
  7 1107.53 -17.7310 -21.2089
  8 1107.53 -17.7310 21.2089
</Section>

newXOutput 154

<Section columns = "stress_xx | stress_yy | stress_xy">
  1 1095.10 -17.6189 21.1427
  2 1095.10 -17.6189 -21.1427
  3 844.220 8.85951 10.8608
  4 844.220 8.85951 -10.8608
  5 844.220 8.85951 -10.8608
  6 844.220 8.85951 10.8608
  7 1095.10 -17.6189 -21.1427
  8 1095.10 -17.6189 21.1427
</Section>

newXOutput 155

<Section columns = "stress_xx | stress_yy | stress_xy">
  1 1082.76 -17.5034 21.0716
  2 1082.76 -17.5034 -21.0716
  3 832.618 8.80054 10.8225
  4 832.618 8.80054 -10.8225
  5 832.618 8.80054 -10.8225
  6 832.618 8.80054 10.8225
  7 1082.76 -17.5034 -21.0716
  8 1082.76 -17.5034 21.0716
</Section>

newXOutput 156

<Section columns = "stress_xx | stress_yy | stress_xy">
  1 1070.51 -17.3847 20.9958
  2 1070.51 -17.3847 -20.9958
  3 821.162 8.73992 10.7817
  4 821.162 8.73992 -10.7817
  5 821.162 8.73992 -10.7817
  6 821.162 8.73992 10.7817
  7 1070.51 -17.3847 -20.9958
  8 1070.51 -17.3847 20.9958
</Section>

newXOutput 157

<Section columns = "stress_xx | stress_yy | stress_xy">
  1 1058.36 -17.2628 20.9155
  2 1058.36 -17.2628 -20.9155
  3 809.850 8.67774 10.7386
  4 809.850 8.67774 -10.7386
  5 809.850 8.67774 -10.7386
  6 809.850 8.67774 10.7386
  7 1058.36 -17.2628 -20.9155
  8 1058.36 -17.2628 20.9155
</Section>

newXOutput 158

<Section columns = "stress_xx | stress_yy | stress_xy">
  1 1046.29 -17.1381 20.8308
  2 1046.29 -17.1381 -20.8308
  3 798.678 8.61408 10.6932
  4 798.678 8.61408 -10.6932
  5 798.678 8.61408 -10.6932
  6 798.678 8.61408 10.6932
  7 1046.29 -17.1381 -20.8308
  8 1046.29 -17.1381 20.8308
</Section>

newXOutput 159

<Section columns = "stress_xx | stress_yy | stress_xy">
  1 1034.30 -17.0105 20.7419
  2 1034.30 -17.0105 -20.7419
  3 787.643 8.54902 10.6456
  4 787.643 8.54902 -10.6456
  5 787.643 8.54902 -10.6456
  6 787.643 8.54902 10.6456
  7 1034.30 -17.0105 -20.7419
  8 1034.30 -17.0105 20.7419
</Section>

newXOutput 160

<Section columns = "stress_xx | stress_yy | stress_xy">
  1 1022.40 -16.8804 20.6489
  2 1022.40 -16.8804 -20.6489
  3 776.742 8.48266 10.5959
  4 776.742 8.48266 -10.5959
  5 776.742 8.48266 -10.5959
  6 776.742 8.48266 10.5959
  7 1022.40 -16.8804 -20.6489
  8 1022.40 -16.8804 20.6489
</Section>

newXOutput 161

<Section columns = "stress_xx | stress_yy | stress_xy">
  1 1010.59 -16.7478 20.5520
  2 1010.59 -16.7478 -20.5520
  3 765.973 8.41506 10.5442
  4 765.973 8.41506 -10.5442
  5 765.973 8.41506 -10.5442
  6 765.973 8.41506 10.5442
  7 1010.59 -16.7478 -20.5520
  8 1010.59 -16.7478 20.5520
</Section>

newXOutput 162

<Section columns = "stress_xx | stress_yy | stress_xy">
  1 998.856 -16.6128 20.4513
  2 998.856 -16.6128 -20.4513
  3 755.331 8.34629 10.4905
  4 755.331 8.34629 -10.4905
  5 755.331 8.34629 -10.4905
  6 755.331 8.34629 10.4905
  7 998.856 -16.6128 -20.4513
  8 998.856 -16.6128 20.4513
</Section>

newXOutput 163

<Section columns = "stress_xx | stress_yy | stress_xy">
  1 987.205 -16.4757 20.3469
  2 987.205 -16.4757 -20.3469
  3 744.815 8.27642 10.4349
  4 744.815 8.27642 -10.4349
  5 744.815 8.27642 -10.4349
  6 744.815 8.27642 10.4349
  7 987.205 -16.4757 -20.3469
  8 987.205 -16.4757 20.3469
</Section>

newXOutput 164

<Section columns = "stress_xx | stress_yy | stress_xy">
  1 975.633 -16.3366 20.2390
  2 975.633 -16.3366 -20.2390
  3 734.421 8.20553 10.3775
  4 734.421 8.20553 -10.3775
  5 734.421 8.20553 -10.3775
  6 734.421 8.20553 10.3775
  7 975.633 -16.3366 -20.2390
  8 975.633 -16.3366 20.2390
</Section>

newXOutput 165

<Section columns = "stress_xx | stress_yy | stress_xy">
  1 964.139 -16.1955 20.1277
  2 964.139 -16.1955 -20.1277
  3 724.147 8.13368 10.3183
  4 724.147 8.13368 -10.3183
  5 724.147 8.13368 -10.3183
  6 724.147 8.13368 10.3183
  7 964.139 -16.1955 -20.1277
  8 964.139 -16.1955 20.1277
</Section>

newXOutput 166

<Section columns = "stress_xx | stress_yy | stress_xy">
  1 952.723 -16.0526 20.0130
  2 952.723 -16.0526 -20.0130
  3 713.991 8.06092 10.2574
  4 713.991 8.06092 -10.2574
  5 713.991 8.06092 -10.2574
  6 713.991 8.06092 10.2574
  7 952.723 -16.0526 -20.0130
  8 952.723 -16.0526 20.0130
</Section>

newXOutput 167

<Section columns = "stress_xx | stress_yy | stress_xy">
  1 941.383 -15.9079 19.8952
  2 941.383 -15.9079 -19.8952
  3 703.949 7.98731 10.1949
  4 703.949 7.98731 -10.1949
  5 703.949 7.98731 -10.1949
  6 703.949 7.98731 10.1949
  7 941.383 -15.9079 -19.8952
  8 941.383 -15.9079 19.8952
</Section>

newXOutput 168

<Section columns = "stress_xx | stress_yy | stress_xy">
  1 930.117 -15.7617 19.7743
  2 930.117 -15.7617 -19.7743
  3 694.020 7.91291 10.1308
  4 694.020 7.91291 -10.1308
  5 694.020 7.91291 -10.1308
  6 694.020 7.91291 10.1308
  7 930.117 -15.7617 -19.7743
  8 930.117 -15.7617 19.7743
</Section>

newXOutput 169

<Section columns = "stress_xx | stress_yy | stress_xy">
  1 918.925 -15.6140 19.6504
  2 918.925 -15.6140 -19.6504
  3 684.202 7.83778 10.0652
  4 684.202 7.83778 -10.0652
  5 684.202 7.83778 -10.0652
  6 684.202 7.83778 10.0652
  7 918.925 -15.6140 -19.6504
  8 918.925 -15.6140 19.6504
</Section>

newXOutput 170

<Section columns = "stress_xx | stress_yy | stress_xy">
  1 907.806 -15.4649 19.5236
  2 907.806 -15.4649 -19.5236
  3 674.491 7.76196 9.99812
  4 674.491 7.76196 -9.99812
  5 674.491 7.76196 -9.99812
  6 674.491 7.76196 9.99812
  7 907.806 -15.4649 -19.5236
  8 907.806 -15.4649 19.5236
</Section>

newXOutput 171

<Section columns = "stress_xx | stress_yy | stress_xy">
  1 896.757 -15.3145 19.3940
  2 896.757 -15.3145 -19.3940
  3 664.885 7.68549 9.92961
  4 664.885 7.68549 -9.92961
  5 664.885 7.68549 -9.92961
  6 664.885 7.68549 9.92961
  7 896.757 -15.3145 -19.3940
  8 896.757 -15.3145 19.3940
</Section>

newXOutput 172

<Section columns = "stress_xx | stress_yy | stress_xy">
  1 885.779 -15.1629 19.2618
  2 885.779 -15.1629 -19.2618
  3 655.383 7.60844 9.85974
  4 655.383 7.60844 -9.85974
  5 655.383 7.60844 -9.85974
  6 655.383 7.60844 9.85974
  7 885.779 -15.1629 -19.2618
  8 885.779 -15.1629 19.2618
</Section>

newXOutput 173

<Section columns = "stress_xx | stress_yy | stress_xy">
  1 874.871 -15.0102 19.1269
  2 874.871 -15.0102 -19.1269
  3 645.983 7.53084 9.78855
  4 645.983 7.53084 -9.78855
  5 645.983 7.53084 -9.78855
  6 645.983 7.53084 9.78855
  7 874.871 -15.0102 -19.1269
  8 874.871 -15.0102 19.1269
</Section>

newXOutput 174

<Section columns = "stress_xx | stress_yy | stress_xy">
  1 864.030 -14.8564 18.9895
  2 864.030 -14.8564 -18.9895
  3 636.682 7.45273 9.71609
  4 636.682 7.45273 -9.71609
  5 636.682 7.45273 -9.71609
  6 636.682 7.45273 9.71609
  7 864.030 -14.8564 -18.9895
  8 864.030 -14.8564 18.9895
</Section>

newXOutput 175

<Section columns = "stress_xx | stress_yy | stress_xy">
  1 853.256 -14.7016 18.8497
  2 853.256 -14.7016 -18.8497
  3 627.478 7.37416 9.64240
  4 627.478 7.37416 -9.64240
  5 627.478 7.37416 -9.64240
  6 627.478 7.37416 9.64240
  7 853.256 -14.7016 -18.8497
  8 853.256 -14.7016 18.8497
</Section>

newXOutput 176

<Section columns = "stress_xx | stress_yy | stress_xy">
  1 842.549 -14.5460 18.7075
  2 842.549 -14.5460 -18.7075
  3 618.370 7.29515 9.56752
  4 618.370 7.29515 -9.56752
  5 618.370 7.29515 -9.56752
  6 618.370 7.29515 9.56752
  7 842.549 -14.5460 -18.7075
  8 842.549 -14.5460 18.7075
</Section>

newXOutput 177

<Section columns = "stress_xx | stress_yy | stress_xy">
  1 831.907 -14.3895 18.5631
  2 831.907 -14.3895 -18.5631
  3 609.355 7.21576 9.49151
  4 609.355 7.21576 -9.49151
  5 609.355 7.21576 -9.49151
  6 609.355 7.21576 9.49151
  7 831.907 -14.3895 -18.5631
  8 831.907 -14.3895 18.5631
</Section>

newXOutput 178

<Section columns = "stress_xx | stress_yy | stress_xy">
  1 821.328 -14.2323 18.4165
  2 821.328 -14.2323 -18.4165
  3 600.432 7.13602 9.41439
  4 600.432 7.13602 -9.41439
  5 600.432 7.13602 -9.41439
  6 600.432 7.13602 9.41439
  7 821.328 -14.2323 -18.4165
  8 821.328 -14.2323 18.4165
</Section>

newXOutput 179

<Section columns = "stress_xx | stress_yy | stress_xy">
  1 810.814 -14.0745 18.2677
  2 810.814 -14.0745 -18.2677
  3 591.599 7.05595 9.33622
  4 591.599 7.05595 -9.33622
  5 591.599 7.05595 -9.33622
  6 591.599 7.05595 9.33622
  7 810.814 -14.0745 -18.2677
  8 810.814 -14.0745 18.2677
</Section>

newXOutput 180

<Section columns = "stress_xx | stress_yy | stress_xy">
  1 800.361 -13.9159 18.1169
  2 800.361 -13.9159 -18.1169
  3 582.855 6.97559 9.25702
  4 582.855 6.97559 -9.25702
  5 582.855 6.97559 -9.25702
  6 582.855 6.97559 9.25702
  7 800.361 -13.9159 -18.1169
  8 800.361 -13.9159 18.1169
</Section>

newXOutput 181

<Section columns = "stress_xx | stress_yy | stress_xy">
  1 789.970 -13.7569 17.9641
  2 789.970 -13.7569 -17.9641
  3 574.197 6.89498 9.17684
  4 574.197 6.89498 -9.17684
  5 574.197 6.89498 -9.17684
  6 574.197 6.89498 9.17684
  7 789.970 -13.7569 -17.9641
  8 789.970 -13.7569 17.9641
</Section>

newXOutput 182

<Section columns = "stress_xx | stress_yy | stress_xy">
  1 779.639 -13.5973 17.8094
  2 779.639 -13.5973 -17.8094
  3 565.624 6.81413 9.09570
  4 565.624 6.81413 -9.09570
  5 565.624 6.81413 -9.09570
  6 565.624 6.81413 9.09570
  7 779.639 -13.5973 -17.8094
  8 779.639 -13.5973 17.8094
</Section>

newXOutput 183

<Section columns = "stress_xx | stress_yy | stress_xy">
  1 769.368 -13.4373 17.6529
  2 769.368 -13.4373 -17.6529
  3 557.134 6.73309 9.01365
  4 557.134 6.73309 -9.01365
  5 557.134 6.73309 -9.01365
  6 557.134 6.73309 9.01365
  7 769.368 -13.4373 -17.6529
  8 769.368 -13.4373 17.6529
</Section>

newXOutput 184

<Section columns = "stress_xx | stress_yy | stress_xy">
  1 759.156 -13.2769 17.4946
  2 759.156 -13.2769 -17.4946
  3 548.726 6.65187 8.93072
  4 548.726 6.65187 -8.93072
  5 548.726 6.65187 -8.93072
  6 548.726 6.65187 8.93072
  7 759.156 -13.2769 -17.4946
  8 759.156 -13.2769 17.4946
</Section>

newXOutput 185

<Section columns = "stress_xx | stress_yy | stress_xy">
  1 749.002 -13.1162 17.3345
  2 749.002 -13.1162 -17.3345
  3 540.399 6.57050 8.84694
  4 540.399 6.57050 -8.84694
  5 540.399 6.57050 -8.84694
  6 540.399 6.57050 8.84694
  7 749.002 -13.1162 -17.3345
  8 749.002 -13.1162 17.3345
</Section>

newXOutput 186

<Section columns = "stress_xx | stress_yy | stress_xy">
  1 738.906 -12.9551 17.1728
  2 738.906 -12.9551 -17.1728
  3 532.151 6.48900 8.76234
  4 532.151 6.48900 -8.76234
  5 532.151 6.48900 -8.76234
  6 532.151 6.48900 8.76234
  7 738.906 -12.9551 -17.1728
  8 738.906 -12.9551 17.1728
</Section>

newXOutput 187

<Section columns = "stress_xx | stress_yy | stress_xy">
  1 728.865 -12.7939 17.0095
  2 728.865 -12.7939 -17.0095
  3 523.979 6.40741 8.67695
  4 523.979 6.40741 -8.67695
  5 523.979 6.40741 -8.67695
  6 523.979 6.40741 8.67695
  7 728.865 -12.7939 -17.0095
  8 728.865 -12.7939 17.0095
</Section>

newXOutput 188

<Section columns = "stress_xx | stress_yy | stress_xy">
  1 718.880 -12.6324 16.8446
  2 718.880 -12.6324 -16.8446
  3 515.884 6.32574 8.59081
  4 515.884 6.32574 -8.59081
  5 515.884 6.32574 -8.59081
  6 515.884 6.32574 8.59081
  7 718.880 -12.6324 -16.8446
  8 718.880 -12.6324 16.8446
</Section>

newXOutput 189

<Section columns = "stress_xx | stress_yy | stress_xy">
  1 708.951 -12.4707 16.6782
  2 708.951 -12.4707 -16.6782
  3 507.864 6.24401 8.50393
  4 507.864 6.24401 -8.50393
  5 507.864 6.24401 -8.50393
  6 507.864 6.24401 8.50393
  7 708.951 -12.4707 -16.6782
  8 708.951 -12.4707 16.6782
</Section>

newXOutput 190

<Section columns = "stress_xx | stress_yy | stress_xy">
  1 699.075 -12.3090 16.5103
  2 699.075 -12.3090 -16.5103
  3 499.917 6.16224 8.41634
  4 499.917 6.16224 -8.41634
  5 499.917 6.16224 -8.41634
  6 499.917 6.16224 8.41634
  7 699.075 -12.3090 -16.5103
  8 699.075 -12.3090 16.5103
</Section>

newXOutput 191

<Section columns = "stress_xx | stress_yy | stress_xy">
  1 689.253 -12.1471 16.3411
  2 689.253 -12.1471 -16.3411
  3 492.042 6.08046 8.32808
  4 492.042 6.08046 -8.32808
  5 492.042 6.08046 -8.32808
  6 492.042 6.08046 8.32808
  7 689.253 -12.1471 -16.3411
  8 689.253 -12.1471 16.3411
</Section>

newXOutput 192

<Section columns = "stress_xx | stress_yy | stress_xy">
  1 679.483 -11.9852 16.1705
  2 679.483 -11.9852 -16.1705
  3 484.238 5.99868 8.23917
  4 484.238 5.99868 -8.23917
  5 484.238 5.99868 -8.23917
  6 484.238 5.99868 8.23917
  7 679.483 -11.9852 -16.1705
  8 679.483 -11.9852 16.1705
</Section>

newXOutput 193

<Section columns = "stress_xx | stress_yy | stress_xy">
  1 669.765 -11.8233 15.9985
  2 669.765 -11.8233 -15.9985
  3 476.503 5.91691 8.14963
  4 476.503 5.91691 -8.14963
  5 476.503 5.91691 -8.14963
  6 476.503 5.91691 8.14963
  7 669.765 -11.8233 -15.9985
  8 669.765 -11.8233 15.9985
</Section>

newXOutput 194

<Section columns = "stress_xx | stress_yy | stress_xy">
  1 660.099 -11.6614 15.8254
  2 660.099 -11.6614 -15.8254
  3 468.837 5.83519 8.05949
  4 468.837 5.83519 -8.05949
  5 468.837 5.83519 -8.05949
  6 468.837 5.83519 8.05949
  7 660.099 -11.6614 -15.8254
  8 660.099 -11.6614 15.8254
</Section>

newXOutput 195

<Section columns = "stress_xx | stress_yy | stress_xy">
  1 650.483 -11.4996 15.6510
  2 650.483 -11.4996 -15.6510
  3 461.238 5.75351 7.96877
  4 461.238 5.75351 -7.96877
  5 461.238 5.75351 -7.96877
  6 461.238 5.75351 7.96877
  7 650.483 -11.4996 -15.6510
  8 650.483 -11.4996 15.6510
</Section>

newXOutput 196

<Section columns = "stress_xx | stress_yy | stress_xy">
  1 640.918 -11.3379 15.4754
  2 640.918 -11.3379 -15.4754
  3 453.705 5.67190 7.87749
  4 453.705 5.67190 -7.87749
  5 453.705 5.67190 -7.87749
  6 453.705 5.67190 7.87749
  7 640.918 -11.3379 -15.4754
  8 640.918 -11.3379 15.4754
</Section>

newXOutput 197

<Section columns = "stress_xx | stress_yy | stress_xy">
  1 631.401 -11.1762 15.2987
  2 631.401 -11.1762 -15.2987
  3 446.237 5.59037 7.78567
  4 446.237 5.59037 -7.78567
  5 446.237 5.59037 -7.78567
  6 446.237 5.59037 7.78567
  7 631.401 -11.1762 -15.2987
  8 631.401 -11.1762 15.2987
</Section>

newXOutput 198

<Section columns = "stress_xx | stress_yy | stress_xy">
  1 621.933 -11.0148 15.1209
  2 621.933 -11.0148 -15.1209
  3 438.832 5.50894 7.69334
  4 438.832 5.50894 -7.69334
  5 438.832 5.50894 -7.69334
  6 438.832 5.50894 7.69334
  7 621.933 -11.0148 -15.1209
  8 621.933 -11.0148 15.1209
</Section>

newXOutput 199

<Section columns = "stress_xx | stress_yy | stress_xy">
  1 612.513 -10.8535 14.9420
  2 612.513 -10.8535 -14.9420
  3 431.491 5.42762 7.60052
  4 431.491 5.42762 -7.60052
  5 431.491 5.42762 -7.60052
  6 431.491 5.42762 7.60052
  7 612.513 -10.8535 -14.9420
  8 612.513 -10.8535 14.9420
</Section>

newXOutput 200

<Section columns = "stress_xx | stress_yy | stress_xy">
  1 603.141 -10.6924 14.7622
  2 603.141 -10.6924 -14.7622
  3 424.211 5.34642 7.50722
  4 424.211 5.34642 -7.50722
  5 424.211 5.34642 -7.50722
  6 424.211 5.34642 7.50722
  7 603.141 -10.6924 -14.7622
  8 603.141 -10.6924 14.7622
</Section>

newXOutput 201

<Section columns = "stress_xx | stress_yy | stress_xy">
  1 593.815 -10.5315 14.5813
  2 593.815 -10.5315 -14.5813
  3 416.991 5.26535 7.41347
  4 416.991 5.26535 -7.41347
  5 416.991 5.26535 -7.41347
  6 416.991 5.26535 7.41347
  7 593.815 -10.5315 -14.5813
  8 593.815 -10.5315 14.5813
</Section>

newXOutput 202

<Section columns = "stress_xx | stress_yy | stress_xy">
  1 584.536 -10.3708 14.3995
  2 584.536 -10.3708 -14.3995
  3 409.832 5.18442 7.31928
  4 409.832 5.18442 -7.31928
  5 409.832 5.18442 -7.31928
  6 409.832 5.18442 7.31928
  7 584.536 -10.3708 -14.3995
  8 584.536 -10.3708 14.3995
</Section>

newXOutput 203

<Section columns = "stress_xx | stress_yy | stress_xy">
  1 575.302 -10.2105 14.2168
  2 575.302 -10.2105 -14.2168
  3 402.731 5.10366 7.22467
  4 402.731 5.10366 -7.22467
  5 402.731 5.10366 -7.22467
  6 402.731 5.10366 7.22467
  7 575.302 -10.2105 -14.2168
  8 575.302 -10.2105 14.2168
</Section>

newXOutput 204

<Section columns = "stress_xx | stress_yy | stress_xy">
  1 566.114 -10.0504 14.0332
  2 566.114 -10.0504 -14.0332
  3 395.687 5.02306 7.12967
  4 395.687 5.02306 -7.12967
  5 395.687 5.02306 -7.12967
  6 395.687 5.02306 7.12967
  7 566.114 -10.0504 -14.0332
  8 566.114 -10.0504 14.0332
</Section>

newXOutput 205

<Section columns = "stress_xx | stress_yy | stress_xy">
  1 556.969 -9.89061 13.8488
  2 556.969 -9.89061 -13.8488
  3 388.701 4.94263 7.03427
  4 388.701 4.94263 -7.03427
  5 388.701 4.94263 -7.03427
  6 388.701 4.94263 7.03427
  7 556.969 -9.89061 -13.8488
  8 556.969 -9.89061 13.8488
</Section>

newXOutput 206

<Section columns = "stress_xx | stress_yy | stress_xy">
  1 547.869 -9.73116 13.6635
  2 547.869 -9.73116 -13.6635
  3 381.770 4.86239 6.93852
  4 381.770 4.86239 -6.93852
  5 381.770 4.86239 -6.93852
  6 381.770 4.86239 6.93852
  7 547.869 -9.73116 -13.6635
  8 547.869 -9.73116 13.6635
</Section>

newXOutput 207

<Section columns = "stress_xx | stress_yy | stress_xy">
  1 538.812 -9.57206 13.4775
  2 538.812 -9.57206 -13.4775
  3 374.895 4.78235 6.84241
  4 374.895 4.78235 -6.84241
  5 374.895 4.78235 -6.84241
  6 374.895 4.78235 6.84241
  7 538.812 -9.57206 -13.4775
  8 538.812 -9.57206 13.4775
</Section>

newXOutput 208

<Section columns = "stress_xx | stress_yy | stress_xy">
  1 529.798 -9.41332 13.2907
  2 529.798 -9.41332 -13.2907
  3 368.073 4.70250 6.74596
  4 368.073 4.70250 -6.74596
  5 368.073 4.70250 -6.74596
  6 368.073 4.70250 6.74596
  7 529.798 -9.41332 -13.2907
  8 529.798 -9.41332 13.2907
</Section>

newXOutput 209

<Section columns = "stress_xx | stress_yy | stress_xy">
  1 520.826 -9.25497 13.1032
  2 520.826 -9.25497 -13.1032
  3 361.305 4.62287 6.64919
  4 361.305 4.62287 -6.64919
  5 361.305 4.62287 -6.64919
  6 361.305 4.62287 6.64919
  7 520.826 -9.25497 -13.1032
  8 520.826 -9.25497 13.1032
</Section>

newXOutput 210

<Section columns = "stress_xx | stress_yy | stress_xy">
  1 511.896 -9.09701 12.9150
  2 511.896 -9.09701 -12.9150
  3 354.590 4.54346 6.55212
  4 354.590 4.54346 -6.55212
  5 354.590 4.54346 -6.55212
  6 354.590 4.54346 6.55212
  7 511.896 -9.09701 -12.9150
  8 511.896 -9.09701 12.9150
</Section>

newXOutput 211

<Section columns = "stress_xx | stress_yy | stress_xy">
  1 503.008 -8.93947 12.7261
  2 503.008 -8.93947 -12.7261
  3 347.925 4.46427 6.45475
  4 347.925 4.46427 -6.45475
  5 347.925 4.46427 -6.45475
  6 347.925 4.46427 6.45475
  7 503.008 -8.93947 -12.7261
  8 503.008 -8.93947 12.7261
</Section>

newXOutput 212

<Section columns = "stress_xx | stress_yy | stress_xy">
  1 494.160 -8.78235 12.5366
  2 494.160 -8.78235 -12.5366
  3 341.312 4.38532 6.35711
  4 341.312 4.38532 -6.35711
  5 341.312 4.38532 -6.35711
  6 341.312 4.38532 6.35711
  7 494.160 -8.78235 -12.5366
  8 494.160 -8.78235 12.5366
</Section>

newXOutput 213

<Section columns = "stress_xx | stress_yy | stress_xy">
  1 485.352 -8.62567 12.3464
  2 485.352 -8.62567 -12.3464
  3 334.749 4.30660 6.25920
  4 334.749 4.30660 -6.25920
  5 334.749 4.30660 -6.25920
  6 334.749 4.30660 6.25920
  7 485.352 -8.62567 -12.3464
  8 485.352 -8.62567 12.3464
</Section>

newXOutput 214

<Section columns = "stress_xx | stress_yy | stress_xy">
  1 476.584 -8.46944 12.1557
  2 476.584 -8.46944 -12.1557
  3 328.235 4.22813 6.16104
  4 328.235 4.22813 -6.16104
  5 328.235 4.22813 -6.16104
  6 328.235 4.22813 6.16104
  7 476.584 -8.46944 -12.1557
  8 476.584 -8.46944 12.1557
</Section>

newXOutput 215

<Section columns = "stress_xx | stress_yy | stress_xy">
  1 467.856 -8.31368 11.9644
  2 467.856 -8.31368 -11.9644
  3 321.769 4.14991 6.06263
  4 321.769 4.14991 -6.06263
  5 321.769 4.14991 -6.06263
  6 321.769 4.14991 6.06263
  7 467.856 -8.31368 -11.9644
  8 467.856 -8.31368 11.9644
</Section>

newXOutput 216

<Section columns = "stress_xx | stress_yy | stress_xy">
  1 459.167 -8.15840 11.7726
  2 459.167 -8.15840 -11.7726
  3 315.351 4.07195 5.96400
  4 315.351 4.07195 -5.96400
  5 315.351 4.07195 -5.96400
  6 315.351 4.07195 5.96400
  7 459.167 -8.15840 -11.7726
  8 459.167 -8.15840 11.7726
</Section>

newXOutput 217

<Section columns = "stress_xx | stress_yy | stress_xy">
  1 450.515 -8.00360 11.5802
  2 450.515 -8.00360 -11.5802
  3 308.981 3.99425 5.86516
  4 308.981 3.99425 -5.86516
  5 308.981 3.99425 -5.86516
  6 308.981 3.99425 5.86516
  7 450.515 -8.00360 -11.5802
  8 450.515 -8.00360 11.5802
</Section>

newXOutput 218

<Section columns = "stress_xx | stress_yy | stress_xy">
  1 441.902 -7.84931 11.3873
  2 441.902 -7.84931 -11.3873
  3 302.656 3.91682 5.76610
  4 302.656 3.91682 -5.76610
  5 302.656 3.91682 -5.76610
  6 302.656 3.91682 5.76610
  7 441.902 -7.84931 -11.3873
  8 441.902 -7.84931 11.3873
</Section>

newXOutput 219

<Section columns = "stress_xx | stress_yy | stress_xy">
  1 433.327 -7.69552 11.1939
  2 433.327 -7.69552 -11.1939
  3 296.378 3.83965 5.66686
  4 296.378 3.83965 -5.66686
  5 296.378 3.83965 -5.66686
  6 296.378 3.83965 5.66686
  7 433.327 -7.69552 -11.1939
  8 433.327 -7.69552 11.1939
</Section>

newXOutput 220

<Section columns = "stress_xx | stress_yy | stress_xy">
  1 424.788 -7.54225 11.0001
  2 424.788 -7.54225 -11.0001
  3 290.144 3.76277 5.56743
  4 290.144 3.76277 -5.56743
  5 290.144 3.76277 -5.56743
  6 290.144 3.76277 5.56743
  7 424.788 -7.54225 -11.0001
  8 424.788 -7.54225 11.0001
</Section>

newXOutput 221

<Section columns = "stress_xx | stress_yy | stress_xy">
  1 416.287 -7.38951 10.8059
  2 416.287 -7.38951 -10.8059
  3 283.955 3.68616 5.46783
  4 283.955 3.68616 -5.46783
  5 283.955 3.68616 -5.46783
  6 283.955 3.68616 5.46783
  7 416.287 -7.38951 -10.8059
  8 416.287 -7.38951 10.8059
</Section>

newXOutput 222

<Section columns = "stress_xx | stress_yy | stress_xy">
  1 407.821 -7.23730 10.6112
  2 407.821 -7.23730 -10.6112
  3 277.809 3.60984 5.36806
  4 277.809 3.60984 -5.36806
  5 277.809 3.60984 -5.36806
  6 277.809 3.60984 5.36806
  7 407.821 -7.23730 -10.6112
  8 407.821 -7.23730 10.6112
</Section>

newXOutput 223

<Section columns = "stress_xx | stress_yy | stress_xy">
  1 399.391 -7.08563 10.4162
  2 399.391 -7.08563 -10.4162
  3 271.706 3.53380 5.26814
  4 271.706 3.53380 -5.26814
  5 271.706 3.53380 -5.26814
  6 271.706 3.53380 5.26814
  7 399.391 -7.08563 -10.4162
  8 399.391 -7.08563 10.4162
</Section>

newXOutput 224

<Section columns = "stress_xx | stress_yy | stress_xy">
  1 390.997 -6.93452 10.2207
  2 390.997 -6.93452 -10.2207
  3 265.646 3.45805 5.16808
  4 265.646 3.45805 -5.16808
  5 265.646 3.45805 -5.16808
  6 265.646 3.45805 5.16808
  7 390.997 -6.93452 -10.2207
  8 390.997 -6.93452 10.2207
</Section>

newXOutput 225

<Section columns = "stress_xx | stress_yy | stress_xy">
  1 382.638 -6.78396 10.0249
  2 382.638 -6.78396 -10.0249
  3 259.627 3.38260 5.06789
  4 259.627 3.38260 -5.06789
  5 259.627 3.38260 -5.06789
  6 259.627 3.38260 5.06789
  7 382.638 -6.78396 -10.0249
  8 382.638 -6.78396 10.0249
</Section>

newXOutput 226

<Section columns = "stress_xx | stress_yy | stress_xy">
  1 374.313 -6.63397 9.82874
  2 374.313 -6.63397 -9.82874
  3 253.650 3.30744 4.96757
  4 253.650 3.30744 -4.96757
  5 253.650 3.30744 -4.96757
  6 253.650 3.30744 4.96757
  7 374.313 -6.63397 -9.82874
  8 374.313 -6.63397 9.82874
</Section>

newXOutput 227

<Section columns = "stress_xx | stress_yy | stress_xy">
  1 366.022 -6.48455 9.63226
  2 366.022 -6.48455 -9.63226
  3 247.713 3.23258 4.86713
  4 247.713 3.23258 -4.86713
  5 247.713 3.23258 -4.86713
  6 247.713 3.23258 4.86713
  7 366.022 -6.48455 -9.63226
  8 366.022 -6.48455 9.63226
</Section>

newXOutput 228

<Section columns = "stress_xx | stress_yy | stress_xy">
  1 357.766 -6.33571 9.43547
  2 357.766 -6.33571 -9.43547
  3 241.817 3.15803 4.76658
  4 241.817 3.15803 -4.76658
  5 241.817 3.15803 -4.76658
  6 241.817 3.15803 4.76658
  7 357.766 -6.33571 -9.43547
  8 357.766 -6.33571 9.43547
</Section>

newXOutput 229

<Section columns = "stress_xx | stress_yy | stress_xy">
  1 349.543 -6.18744 9.23838
  2 349.543 -6.18744 -9.23838
  3 235.959 3.08377 4.66594
  4 235.959 3.08377 -4.66594
  5 235.959 3.08377 -4.66594
  6 235.959 3.08377 4.66594
  7 349.543 -6.18744 -9.23838
  8 349.543 -6.18744 9.23838
</Section>

newXOutput 230

<Section columns = "stress_xx | stress_yy | stress_xy">
  1 341.353 -6.03977 9.04101
  2 341.353 -6.03977 -9.04101
  3 230.141 3.00983 4.56520
  4 230.141 3.00983 -4.56520
  5 230.141 3.00983 -4.56520
  6 230.141 3.00983 4.56520
  7 341.353 -6.03977 -9.04101
  8 341.353 -6.03977 9.04101
</Section>

newXOutput 231

<Section columns = "stress_xx | stress_yy | stress_xy">
  1 333.195 -5.89268 8.84338
  2 333.195 -5.89268 -8.84338
  3 224.361 2.93619 4.46438
  4 224.361 2.93619 -4.46438
  5 224.361 2.93619 -4.46438
  6 224.361 2.93619 4.46438
  7 333.195 -5.89268 -8.84338
  8 333.195 -5.89268 8.84338
</Section>

newXOutput 232

<Section columns = "stress_xx | stress_yy | stress_xy">
  1 325.070 -5.74620 8.64550
  2 325.070 -5.74620 -8.64550
  3 218.619 2.86286 4.36348
  4 218.619 2.86286 -4.36348
  5 218.619 2.86286 -4.36348
  6 218.619 2.86286 4.36348
  7 325.070 -5.74620 -8.64550
  8 325.070 -5.74620 8.64550
</Section>

newXOutput 233

<Section columns = "stress_xx | stress_yy | stress_xy">
  1 316.977 -5.60031 8.44739
  2 316.977 -5.60031 -8.44739
  3 212.914 2.78984 4.26251
  4 212.914 2.78984 -4.26251
  5 212.914 2.78984 -4.26251
  6 212.914 2.78984 4.26251
  7 316.977 -5.60031 -8.44739
  8 316.977 -5.60031 8.44739
</Section>

newXOutput 234

<Section columns = "stress_xx | stress_yy | stress_xy">
  1 308.916 -5.45502 8.24906
  2 308.916 -5.45502 -8.24906
  3 207.246 2.71714 4.16148
  4 207.246 2.71714 -4.16148
  5 207.246 2.71714 -4.16148
  6 207.246 2.71714 4.16148
  7 308.916 -5.45502 -8.24906
  8 308.916 -5.45502 8.24906
</Section>

newXOutput 235

<Section columns = "stress_xx | stress_yy | stress_xy">
  1 300.886 -5.31035 8.05052
  2 300.886 -5.31035 -8.05052
  3 201.614 2.64475 4.06039
  4 201.614 2.64475 -4.06039
  5 201.614 2.64475 -4.06039
  6 201.614 2.64475 4.06039
  7 300.886 -5.31035 -8.05052
  8 300.886 -5.31035 8.05052
</Section>

newXOutput 236

<Section columns = "stress_xx | stress_yy | stress_xy">
  1 292.887 -5.16628 7.85179
  2 292.887 -5.16628 -7.85179
  3 196.018 2.57268 3.95926
  4 196.018 2.57268 -3.95926
  5 196.018 2.57268 -3.95926
  6 196.018 2.57268 3.95926
  7 292.887 -5.16628 -7.85179
  8 292.887 -5.16628 7.85179
</Section>

newXOutput 237

<Section columns = "stress_xx | stress_yy | stress_xy">
  1 284.919 -5.02283 7.65288
  2 284.919 -5.02283 -7.65288
  3 190.458 2.50092 3.85808
  4 190.458 2.50092 -3.85808
  5 190.458 2.50092 -3.85808
  6 190.458 2.50092 3.85808
  7 284.919 -5.02283 -7.65288
  8 284.919 -5.02283 7.65288
</Section>

newXOutput 238

<Section columns = "stress_xx | stress_yy | stress_xy">
  1 276.981 -4.88000 7.45380
  2 276.981 -4.88000 -7.45380
  3 184.932 2.42948 3.75686
  4 184.932 2.42948 -3.75686
  5 184.932 2.42948 -3.75686
  6 184.932 2.42948 3.75686
  7 276.981 -4.88000 -7.45380
  8 276.981 -4.88000 7.45380
</Section>

newXOutput 239

<Section columns = "stress_xx | stress_yy | stress_xy">
  1 269.073 -4.73778 7.25456
  2 269.073 -4.73778 -7.25456
  3 179.440 2.35836 3.65562
  4 179.440 2.35836 -3.65562
  5 179.440 2.35836 -3.65562
  6 179.440 2.35836 3.65562
  7 269.073 -4.73778 -7.25456
  8 269.073 -4.73778 7.25456
</Section>

newXOutput 240

<Section columns = "stress_xx | stress_yy | stress_xy">
  1 261.194 -4.59619 7.05518
  2 261.194 -4.59619 -7.05518
  3 173.982 2.28756 3.55435
  4 173.982 2.28756 -3.55435
  5 173.982 2.28756 -3.55435
  6 173.982 2.28756 3.55435
  7 261.194 -4.59619 -7.05518
  8 261.194 -4.59619 7.05518
</Section>

newXOutput 241

<Section columns = "stress_xx | stress_yy | stress_xy">
  1 253.345 -4.45521 6.85568
  2 253.345 -4.45521 -6.85568
  3 168.558 2.21708 3.45306
  4 168.558 2.21708 -3.45306
  5 168.558 2.21708 -3.45306
  6 168.558 2.21708 3.45306
  7 253.345 -4.45521 -6.85568
  8 253.345 -4.45521 6.85568
</Section>

newXOutput 242

<Section columns = "stress_xx | stress_yy | stress_xy">
  1 245.525 -4.31487 6.65605
  2 245.525 -4.31487 -6.65605
  3 163.167 2.14692 3.35176
  4 163.167 2.14692 -3.35176
  5 163.167 2.14692 -3.35176
  6 163.167 2.14692 3.35176
  7 245.525 -4.31487 -6.65605
  8 245.525 -4.31487 6.65605
</Section>

newXOutput 243

<Section columns = "stress_xx | stress_yy | stress_xy">
  1 237.734 -4.17514 6.45631
  2 237.734 -4.17514 -6.45631
  3 157.808 2.07708 3.25045
  4 157.808 2.07708 -3.25045
  5 157.808 2.07708 -3.25045
  6 157.808 2.07708 3.25045
  7 237.734 -4.17514 -6.45631
  8 237.734 -4.17514 6.45631
</Section>

newXOutput 244

<Section columns = "stress_xx | stress_yy | stress_xy">
  1 229.971 -4.03605 6.25647
  2 229.971 -4.03605 -6.25647
  3 152.482 2.00756 3.14914
  4 152.482 2.00756 -3.14914
  5 152.482 2.00756 -3.14914
  6 152.482 2.00756 3.14914
  7 229.971 -4.03605 -6.25647
  8 229.971 -4.03605 6.25647
</Section>

newXOutput 245

<Section columns = "stress_xx | stress_yy | stress_xy">
  1 222.237 -3.89759 6.05654
  2 222.237 -3.89759 -6.05654
  3 147.187 1.93836 3.04783
  4 147.187 1.93836 -3.04783
  5 147.187 1.93836 -3.04783
  6 147.187 1.93836 3.04783
  7 222.237 -3.89759 -6.05654
  8 222.237 -3.89759 6.05654
</Section>

newXOutput 246

<Section columns = "stress_xx | stress_yy | stress_xy">
  1 214.530 -3.75975 5.85654
  2 214.530 -3.75975 -5.85654
  3 141.924 1.86949 2.94653
  4 141.924 1.86949 -2.94653
  5 141.924 1.86949 -2.94653
  6 141.924 1.86949 2.94653
  7 214.530 -3.75975 -5.85654
  8 214.530 -3.75975 5.85654
</Section>

newXOutput 247

<Section columns = "stress_xx | stress_yy | stress_xy">
  1 206.851 -3.62255 5.65646
  2 206.851 -3.62255 -5.65646
  3 136.691 1.80093 2.84524
  4 136.691 1.80093 -2.84524
  5 136.691 1.80093 -2.84524
  6 136.691 1.80093 2.84524
  7 206.851 -3.62255 -5.65646
  8 206.851 -3.62255 5.65646
</Section>

newXOutput 248

<Section columns = "stress_xx | stress_yy | stress_xy">
  1 199.199 -3.48597 5.45633
  2 199.199 -3.48597 -5.45633
  3 131.489 1.73270 2.74396
  4 131.489 1.73270 -2.74396
  5 131.489 1.73270 -2.74396
  6 131.489 1.73270 2.74396
  7 199.199 -3.48597 -5.45633
  8 199.199 -3.48597 5.45633
</Section>

newXOutput 249

<Section columns = "stress_xx | stress_yy | stress_xy">
  1 191.574 -3.35003 5.25615
  2 191.574 -3.35003 -5.25615
  3 126.317 1.66479 2.64271
  4 126.317 1.66479 -2.64271
  5 126.317 1.66479 -2.64271
  6 126.317 1.66479 2.64271
  7 191.574 -3.35003 -5.25615
  8 191.574 -3.35003 5.25615
</Section>

newXOutput 250

<Section columns = "stress_xx | stress_yy | stress_xy">
  1 183.975 -3.21472 5.05593
  2 183.975 -3.21472 -5.05593
  3 121.174 1.59720 2.54148
  4 121.174 1.59720 -2.54148
  5 121.174 1.59720 -2.54148
  6 121.174 1.59720 2.54148
  7 183.975 -3.21472 -5.05593
  8 183.975 -3.21472 5.05593
</Section>

newXOutput 251

<Section columns = "stress_xx | stress_yy | stress_xy">
  1 176.404 -3.08004 4.85567
  2 176.404 -3.08004 -4.85567
  3 116.061 1.52993 2.44029
  4 116.061 1.52993 -2.44029
  5 116.061 1.52993 -2.44029
  6 116.061 1.52993 2.44029
  7 176.404 -3.08004 -4.85567
  8 176.404 -3.08004 4.85567
</Section>

newXOutput 252

<Section columns = "stress_xx | stress_yy | stress_xy">
  1 168.858 -2.94600 4.65539
  2 168.858 -2.94600 -4.65539
  3 110.977 1.46299 2.33912
  4 110.977 1.46299 -2.33912
  5 110.977 1.46299 -2.33912
  6 110.977 1.46299 2.33912
  7 168.858 -2.94600 -4.65539
  8 168.858 -2.94600 4.65539
</Section>

newXOutput 253

<Section columns = "stress_xx | stress_yy | stress_xy">
  1 161.338 -2.81258 4.45510
  2 161.338 -2.81258 -4.45510
  3 105.922 1.39636 2.23800
  4 105.922 1.39636 -2.23800
  5 105.922 1.39636 -2.23800
  6 105.922 1.39636 2.23800
  7 161.338 -2.81258 -4.45510
  8 161.338 -2.81258 4.45510
</Section>

newXOutput 254

<Section columns = "stress_xx | stress_yy | stress_xy">
  1 153.844 -2.67980 4.25480
  2 153.844 -2.67980 -4.25480
  3 100.895 1.33005 2.13692
  4 100.895 1.33005 -2.13692
  5 100.895 1.33005 -2.13692
  6 100.895 1.33005 2.13692
  7 153.844 -2.67980 -4.25480
  8 153.844 -2.67980 4.25480
</Section>

newXOutput 255

<Section columns = "stress_xx | stress_yy | stress_xy">
  1 146.375 -2.54765 4.05451
  2 146.375 -2.54765 -4.05451
  3 95.8954 1.26406 2.03588
  4 95.8954 1.26406 -2.03588
  5 95.8954 1.26406 -2.03588
  6 95.8954 1.26406 2.03588
  7 146.375 -2.54765 -4.05451
  8 146.375 -2.54765 4.05451
</Section>

newXOutput 256

<Section columns = "stress_xx | stress_yy | stress_xy">
  1 138.932 -2.41613 3.85422
  2 138.932 -2.41613 -3.85422
  3 90.9236 1.19839 1.93489
  4 90.9236 1.19839 -1.93489
  5 90.9236 1.19839 -1.93489
  6 90.9236 1.19839 1.93489
  7 138.932 -2.41613 -3.85422
  8 138.932 -2.41613 3.85422
</Section>

newXOutput 257

<Section columns = "stress_xx | stress_yy | stress_xy">
  1 131.513 -2.28524 3.65394
  2 131.513 -2.28524 -3.65394
  3 85.9790 1.13304 1.83396
  4 85.9790 1.13304 -1.83396
  5 85.9790 1.13304 -1.83396
  6 85.9790 1.13304 1.83396
  7 131.513 -2.28524 -3.65394
  8 131.513 -2.28524 3.65394
</Section>

newXOutput 258

<Section columns = "stress_xx | stress_yy | stress_xy">
  1 124.119 -2.15498 3.45369
  2 124.119 -2.15498 -3.45369
  3 81.0613 1.06801 1.73308
  4 81.0613 1.06801 -1.73308
  5 81.0613 1.06801 -1.73308
  6 81.0613 1.06801 1.73308
  7 124.119 -2.15498 -3.45369
  8 124.119 -2.15498 3.45369
</Section>

newXOutput 259

<Section columns = "stress_xx | stress_yy | stress_xy">
  1 116.749 -2.02534 3.25347
  2 116.749 -2.02534 -3.25347
  3 76.1701 1.00329 1.63226
  4 76.1701 1.00329 -1.63226
  5 76.1701 1.00329 -1.63226
  6 76.1701 1.00329 1.63226
  7 116.749 -2.02534 -3.25347
  8 116.749 -2.02534 3.25347
</Section>

newXOutput 260

<Section columns = "stress_xx | stress_yy | stress_xy">
  1 109.403 -1.89634 3.05329
  2 109.403 -1.89634 -3.05329
  3 71.3051 0.938891 1.53150
  4 71.3051 0.938891 -1.53150
  5 71.3051 0.938891 -1.53150
  6 71.3051 0.938891 1.53150
  7 109.403 -1.89634 -3.05329
  8 109.403 -1.89634 3.05329
</Section>

newXOutput 261

<Section columns = "stress_xx | stress_yy | stress_xy">
  1 102.082 -1.76796 2.85315
  2 102.082 -1.76796 -2.85315
  3 66.4659 0.874806 1.43081
  4 66.4659 0.874806 -1.43081
  5 66.4659 0.874806 -1.43081
  6 66.4659 0.874806 1.43081
  7 102.082 -1.76796 -2.85315
  8 102.082 -1.76796 2.85315
</Section>

newXOutput 262

<Section columns = "stress_xx | stress_yy | stress_xy">
  1 94.7836 -1.64020 2.65307
  2 94.7836 -1.64020 -2.65307
  3 61.6524 0.811034 1.33019
  4 61.6524 0.811034 -1.33019
  5 61.6524 0.811034 -1.33019
  6 61.6524 0.811034 1.33019
  7 94.7836 -1.64020 -2.65307
  8 94.7836 -1.64020 2.65307
</Section>

newXOutput 263

<Section columns = "stress_xx | stress_yy | stress_xy">
  1 87.5091 -1.51307 2.45303
  2 87.5091 -1.51307 -2.45303
  3 56.8640 0.747576 1.22964
  4 56.8640 0.747576 -1.22964
  5 56.8640 0.747576 -1.22964
  6 56.8640 0.747576 1.22964
  7 87.5091 -1.51307 -2.45303
  8 87.5091 -1.51307 2.45303
</Section>

newXOutput 264

<Section columns = "stress_xx | stress_yy | stress_xy">
  1 80.3485 -1.38545 2.25140
  2 80.3485 -1.38545 -2.25140
  3 52.1508 0.694742 1.12832
  4 52.1508 0.694742 -1.12832
  5 52.1508 0.694742 -1.12832
  6 52.1508 0.694742 1.12832
  7 80.3485 -1.38545 -2.25140
  8 80.3485 -1.38545 2.25140
</Section>

newXOutput 265

<Section columns = "stress_xx | stress_yy | stress_xy">
  1 73.1191 -1.25958 2.05152
  2 73.1191 -1.25958 -2.05152
  3 47.4115 0.631757 1.02794
  4 47.4115 0.631757 -1.02794
  5 47.4115 0.631757 -1.02794
  6 47.4115 0.631757 1.02794
  7 73.1191 -1.25958 -2.05152
  8 73.1191 -1.25958 2.05152
</Section>

newXOutput 266

<Section columns = "stress_xx | stress_yy | stress_xy">
  1 65.9124 -1.13433 1.85172
  2 65.9124 -1.13433 -1.85172
  3 42.6965 0.569082 0.927631
  4 42.6965 0.569082 -0.927631
  5 42.6965 0.569082 -0.927631
  6 42.6965 0.569082 0.927631
  7 65.9124 -1.13433 -1.85172
  8 65.9124 -1.13433 1.85172
</Section>

newXOutput 267

<Section columns = "stress_xx | stress_yy | stress_xy">
  1 58.7283 -1.00970 1.65200
  2 58.7283 -1.00970 -1.65200
  3 38.0056 0.506719 0.827407
  4 38.0056 0.506719 -0.827407
  5 38.0056 0.506719 -0.827407
  6 38.0056 0.506719 0.827407
  7 58.7283 -1.00970 -1.65200
  8 58.7283 -1.00970 1.65200
</Section>

newXOutput 268

<Section columns = "stress_xx | stress_yy | stress_xy">
  1 51.5666 -0.885679 1.45237
  2 51.5666 -0.885679 -1.45237
  3 33.3386 0.444667 0.727268
  4 33.3386 0.444667 -0.727268
  5 33.3386 0.444667 -0.727268
  6 33.3386 0.444667 0.727268
  7 51.5666 -0.885679 -1.45237
  8 51.5666 -0.885679 1.45237
</Section>

newXOutput 269

<Section columns = "stress_xx | stress_yy | stress_xy">
  1 44.4269 -0.762277 1.25282
  2 44.4269 -0.762277 -1.25282
  3 28.6950 0.382924 0.627217
  4 28.6950 0.382924 -0.627217
  5 28.6950 0.382924 -0.627217
  6 28.6950 0.382924 0.627217
  7 44.4269 -0.762277 -1.25282
  8 44.4269 -0.762277 1.25282
</Section>

newXOutput 270

<Section columns = "stress_xx | stress_yy | stress_xy">
  1 37.3092 -0.639488 1.05337
  2 37.3092 -0.639488 -1.05337
  3 24.0746 0.321491 0.527255
  4 24.0746 0.321491 -0.527255
  5 24.0746 0.321491 -0.527255
  6 24.0746 0.321491 0.527255
  7 37.3092 -0.639488 -1.05337
  8 37.3092 -0.639488 1.05337
</Section>

newXOutput 271

<Section columns = "stress_xx | stress_yy | stress_xy">
  1 30.2132 -0.517309 0.854023
  2 30.2132 -0.517309 -0.854023
  3 19.4772 0.260365 0.427385
  4 19.4772 0.260365 -0.427385
  5 19.4772 0.260365 -0.427385
  6 19.4772 0.260365 0.427385
  7 30.2132 -0.517309 -0.854023
  8 30.2132 -0.517309 0.854023
</Section>

newXOutput 272

<Section columns = "stress_xx | stress_yy | stress_xy">
  1 23.1387 -0.395739 0.654781
  2 23.1387 -0.395739 -0.654781
  3 14.9025 0.199546 0.327610
  4 14.9025 0.199546 -0.327610
  5 14.9025 0.199546 -0.327610
  6 14.9025 0.199546 0.327610
  7 23.1387 -0.395739 -0.654781
  8 23.1387 -0.395739 0.654781
</Section>

newXOutput 273

<Section columns = "stress_xx | stress_yy | stress_xy">
  1 16.0854 -0.274776 0.455649
  2 16.0854 -0.274776 -0.455649
  3 10.3502 0.139031 0.227930
  4 10.3502 0.139031 -0.227930
  5 10.3502 0.139031 -0.227930
  6 10.3502 0.139031 0.227930
  7 16.0854 -0.274776 -0.455649
  8 16.0854 -0.274776 0.455649
</Section>

newXOutput 274

<Section columns = "stress_xx | stress_yy | stress_xy">
  1 9.05329 -0.154418 0.256632
  2 9.05329 -0.154418 -0.256632
  3 5.82013 0.0788204 0.128350
  4 5.82013 0.0788204 -0.128350
  5 5.82013 0.0788204 -0.128350
  6 5.82013 0.0788204 0.128350
  7 9.05329 -0.154418 -0.256632
  8 9.05329 -0.154418 0.256632
</Section>

newXOutput 275

<Section columns = "stress_xx | stress_yy | stress_xy">
  1 2.04205 -0.0346631 0.0577346
  2 2.04205 -0.0346631 -0.0577346
  3 1.31192 0.0189120 0.0288690
  4 1.31192 0.0189120 -0.0288690
  5 1.31192 0.0189120 -0.0288690
  6 1.31192 0.0189120 0.0288690
  7 2.04205 -0.0346631 -0.0577346
  8 2.04205 -0.0346631 0.0577346
</Section>

newXOutput 276

<Section columns = "stress_xx | stress_yy | stress_xy">
  1 -0.00113339 -0.000203592 -1.19230e-06
  2 -0.00113339 -0.000203592 1.19230e-06
  3 -0.000565041 -9.61659e-05 -5.96149e-07
  4 -0.000565041 -9.61659e-05 5.96149e-07
  5 -0.000565041 -9.61659e-05 5.96149e-07
  6 -0.000565041 -9.61659e-05 -5.96148e-07
  7 -0.00113339 -0.000203592 1.19230e-06
  8 -0.00113339 -0.000203592 -1.19230e-06
</Section>

newXOutput 277

<Section columns = "stress_xx | stress_yy | stress_xy">
  1 -6.18456e-11 -1.09139e-11 -1.92631e-14
  2 -6.18456e-11 -1.09139e-11 -1.15045e-14
  3 -3.09228e-11 -5.45697e-12 5.75229e-15
  4 -3.09228e-11 -5.45697e-12 9.63158e-15
  5 -3.19027e-11 -3.99663e-12 -2.60884e-12
  6 -3.08525e-11 -3.73408e-12 -2.53096e-12
  7 -6.38053e-11 -7.99325e-12 -1.12794e-12
  8 -6.17049e-11 -7.46816e-12 -3.06045e-13
</Section>

